    1C
    1UUSER                                                              
    1UDATE              27.october.2022                                 
    1UTIME              00:57:41                                        
    1UHOST                                                              
    1UPGM               CalculiX                                        
    1UVERSION           Version 2.17                             
    1UCOMPILETIME       Thu Jul 23 21:43:50 CEST 2020                    
    1UDIR                                                               
    1UDBN                                                               
    1UMAT    1SOLIDMATERIAL                                             
    2C                          4223                                     1
 -1         1 5.55515E+01 1.72728E+01 0.00000E+00
 -1         2 6.90281E+01 1.46169E+01 0.00000E+00
 -1         3 1.50000E+02 0.00000E+00 0.00000E+00
 -1         4 1.50000E+02 5.00000E+01 0.00000E+00
 -1         5 0.00000E+00 0.00000E+00 0.00000E+00
 -1         6 0.00000E+00 5.00000E+01 0.00000E+00
 -1         7 0.00000E+00 4.70500E+01 0.00000E+00
 -1         8 0.00000E+00 4.41000E+01 0.00000E+00
 -1         9 0.00000E+00 4.11500E+01 0.00000E+00
 -1        10 0.00000E+00 3.82000E+01 0.00000E+00
 -1        11 0.00000E+00 3.52500E+01 0.00000E+00
 -1        12 0.00000E+00 3.23500E+01 0.00000E+00
 -1        13 0.00000E+00 2.94000E+01 0.00000E+00
 -1        14 0.00000E+00 2.64500E+01 0.00000E+00
 -1        15 0.00000E+00 2.35000E+01 0.00000E+00
 -1        16 0.00000E+00 2.05500E+01 0.00000E+00
 -1        17 0.00000E+00 1.76000E+01 0.00000E+00
 -1        18 0.00000E+00 1.47000E+01 0.00000E+00
 -1        19 0.00000E+00 1.17500E+01 0.00000E+00
 -1        20 0.00000E+00 8.80000E+00 0.00000E+00
 -1        21 0.00000E+00 5.85000E+00 0.00000E+00
 -1        22 0.00000E+00 2.90000E+00 0.00000E+00
 -1        23 3.15000E+00 5.00000E+01 0.00000E+00
 -1        24 6.15000E+00 5.00000E+01 0.00000E+00
 -1        25 9.15000E+00 5.00000E+01 0.00000E+00
 -1        26 1.21500E+01 5.00000E+01 0.00000E+00
 -1        27 1.51500E+01 5.00000E+01 0.00000E+00
 -1        28 1.81500E+01 5.00000E+01 0.00000E+00
 -1        29 2.11500E+01 5.00000E+01 0.00000E+00
 -1        30 2.41500E+01 5.00000E+01 0.00000E+00
 -1        31 2.71500E+01 5.00000E+01 0.00000E+00
 -1        32 3.01500E+01 5.00000E+01 0.00000E+00
 -1        33 3.31500E+01 5.00000E+01 0.00000E+00
 -1        34 3.61500E+01 5.00000E+01 0.00000E+00
 -1        35 3.91500E+01 5.00000E+01 0.00000E+00
 -1        36 4.21500E+01 5.00000E+01 0.00000E+00
 -1        37 4.51500E+01 5.00000E+01 0.00000E+00
 -1        38 4.81500E+01 5.00000E+01 0.00000E+00
 -1        39 5.11500E+01 5.00000E+01 0.00000E+00
 -1        40 5.41500E+01 5.00000E+01 0.00000E+00
 -1        41 5.71500E+01 5.00000E+01 0.00000E+00
 -1        42 6.01500E+01 5.00000E+01 0.00000E+00
 -1        43 6.31500E+01 5.00000E+01 0.00000E+00
 -1        44 6.61500E+01 5.00000E+01 0.00000E+00
 -1        45 6.91500E+01 5.00000E+01 0.00000E+00
 -1        46 7.21500E+01 5.00000E+01 0.00000E+00
 -1        47 7.51500E+01 5.00000E+01 0.00000E+00
 -1        48 7.81500E+01 5.00000E+01 0.00000E+00
 -1        49 8.11500E+01 5.00000E+01 0.00000E+00
 -1        50 8.41500E+01 5.00000E+01 0.00000E+00
 -1        51 8.71500E+01 5.00000E+01 0.00000E+00
 -1        52 9.01500E+01 5.00000E+01 0.00000E+00
 -1        53 9.31500E+01 5.00000E+01 0.00000E+00
 -1        54 9.61500E+01 5.00000E+01 0.00000E+00
 -1        55 9.91500E+01 5.00000E+01 0.00000E+00
 -1        56 1.02150E+02 5.00000E+01 0.00000E+00
 -1        57 1.05150E+02 5.00000E+01 0.00000E+00
 -1        58 1.08150E+02 5.00000E+01 0.00000E+00
 -1        59 1.11150E+02 5.00000E+01 0.00000E+00
 -1        60 1.14150E+02 5.00000E+01 0.00000E+00
 -1        61 1.17150E+02 5.00000E+01 0.00000E+00
 -1        62 1.20150E+02 5.00000E+01 0.00000E+00
 -1        63 1.23150E+02 5.00000E+01 0.00000E+00
 -1        64 1.26150E+02 5.00000E+01 0.00000E+00
 -1        65 1.29150E+02 5.00000E+01 0.00000E+00
 -1        66 1.32150E+02 5.00000E+01 0.00000E+00
 -1        67 1.35150E+02 5.00000E+01 0.00000E+00
 -1        68 1.38150E+02 5.00000E+01 0.00000E+00
 -1        69 1.41150E+02 5.00000E+01 0.00000E+00
 -1        70 1.44150E+02 5.00000E+01 0.00000E+00
 -1        71 1.47150E+02 5.00000E+01 0.00000E+00
 -1        72 3.00000E+00 0.00000E+00 0.00000E+00
 -1        73 6.00000E+00 0.00000E+00 0.00000E+00
 -1        74 9.00000E+00 0.00000E+00 0.00000E+00
 -1        75 1.20000E+01 0.00000E+00 0.00000E+00
 -1        76 1.50000E+01 0.00000E+00 0.00000E+00
 -1        77 1.80000E+01 0.00000E+00 0.00000E+00
 -1        78 2.10000E+01 0.00000E+00 0.00000E+00
 -1        79 2.38500E+01 0.00000E+00 0.00000E+00
 -1        80 2.68500E+01 0.00000E+00 0.00000E+00
 -1        81 2.98500E+01 0.00000E+00 0.00000E+00
 -1        82 3.28500E+01 0.00000E+00 0.00000E+00
 -1        83 3.58500E+01 0.00000E+00 0.00000E+00
 -1        84 3.88500E+01 0.00000E+00 0.00000E+00
 -1        85 4.18500E+01 0.00000E+00 0.00000E+00
 -1        86 4.47000E+01 0.00000E+00 0.00000E+00
 -1        87 4.77000E+01 0.00000E+00 0.00000E+00
 -1        88 5.07000E+01 0.00000E+00 0.00000E+00
 -1        89 5.37000E+01 0.00000E+00 0.00000E+00
 -1        90 5.67000E+01 0.00000E+00 0.00000E+00
 -1        91 5.92500E+01 0.00000E+00 0.00000E+00
 -1        92 6.16500E+01 0.00000E+00 0.00000E+00
 -1        93 6.39000E+01 0.00000E+00 0.00000E+00
 -1        94 6.66000E+01 0.00000E+00 0.00000E+00
 -1        95 6.96000E+01 0.00000E+00 0.00000E+00
 -1        96 7.26000E+01 0.00000E+00 0.00000E+00
 -1        97 7.56000E+01 0.00000E+00 0.00000E+00
 -1        98 7.86000E+01 0.00000E+00 0.00000E+00
 -1        99 8.16000E+01 0.00000E+00 0.00000E+00
 -1       100 8.46000E+01 0.00000E+00 0.00000E+00
 -1       101 8.74500E+01 0.00000E+00 0.00000E+00
 -1       102 9.04500E+01 0.00000E+00 0.00000E+00
 -1       103 9.34500E+01 0.00000E+00 0.00000E+00
 -1       104 9.64500E+01 0.00000E+00 0.00000E+00
 -1       105 9.94500E+01 0.00000E+00 0.00000E+00
 -1       106 1.02450E+02 0.00000E+00 0.00000E+00
 -1       107 1.05450E+02 0.00000E+00 0.00000E+00
 -1       108 1.08300E+02 0.00000E+00 0.00000E+00
 -1       109 1.11300E+02 0.00000E+00 0.00000E+00
 -1       110 1.14300E+02 0.00000E+00 0.00000E+00
 -1       111 1.17300E+02 0.00000E+00 0.00000E+00
 -1       112 1.20300E+02 0.00000E+00 0.00000E+00
 -1       113 1.23300E+02 0.00000E+00 0.00000E+00
 -1       114 1.26300E+02 0.00000E+00 0.00000E+00
 -1       115 1.29150E+02 0.00000E+00 0.00000E+00
 -1       116 1.32150E+02 0.00000E+00 0.00000E+00
 -1       117 1.35150E+02 0.00000E+00 0.00000E+00
 -1       118 1.38150E+02 0.00000E+00 0.00000E+00
 -1       119 1.41150E+02 0.00000E+00 0.00000E+00
 -1       120 1.44150E+02 0.00000E+00 0.00000E+00
 -1       121 1.47150E+02 0.00000E+00 0.00000E+00
 -1       122 1.50000E+02 2.95000E+00 0.00000E+00
 -1       123 1.50000E+02 5.90000E+00 0.00000E+00
 -1       124 1.50000E+02 8.85000E+00 0.00000E+00
 -1       125 1.50000E+02 1.18000E+01 0.00000E+00
 -1       126 1.50000E+02 1.47500E+01 0.00000E+00
 -1       127 1.50000E+02 1.76500E+01 0.00000E+00
 -1       128 1.50000E+02 2.06000E+01 0.00000E+00
 -1       129 1.50000E+02 2.35500E+01 0.00000E+00
 -1       130 1.50000E+02 2.65000E+01 0.00000E+00
 -1       131 1.50000E+02 2.94500E+01 0.00000E+00
 -1       132 1.50000E+02 3.24000E+01 0.00000E+00
 -1       133 1.50000E+02 3.53000E+01 0.00000E+00
 -1       134 1.50000E+02 3.82500E+01 0.00000E+00
 -1       135 1.50000E+02 4.12000E+01 0.00000E+00
 -1       136 1.50000E+02 4.41500E+01 0.00000E+00
 -1       137 1.50000E+02 4.71000E+01 0.00000E+00
 -1       138 6.88730E+01 1.31515E+01 0.00000E+00
 -1       139 6.84196E+01 1.17623E+01 0.00000E+00
 -1       140 6.76919E+01 1.05033E+01 0.00000E+00
 -1       141 6.67650E+01 9.46309E+00 0.00000E+00
 -1       142 6.55177E+01 8.54877E+00 0.00000E+00
 -1       143 6.41501E+01 7.94629E+00 0.00000E+00
 -1       144 6.27218E+01 7.65137E+00 0.00000E+00
 -1       145 6.13249E+01 7.65232E+00 0.00000E+00
 -1       146 5.98693E+01 7.95812E+00 0.00000E+00
 -1       147 5.85782E+01 8.52610E+00 0.00000E+00
 -1       148 5.73601E+01 9.40064E+00 0.00000E+00
 -1       149 5.64017E+01 1.04523E+01 0.00000E+00
 -1       150 5.56425E+01 1.17490E+01 0.00000E+00
 -1       151 5.52051E+01 1.30526E+01 0.00000E+00
 -1       152 5.50296E+01 1.44736E+01 0.00000E+00
 -1       153 5.51544E+01 1.59406E+01 0.00000E+00
 -1       154 5.62340E+01 1.85448E+01 0.00000E+00
 -1       155 5.71841E+01 1.96702E+01 0.00000E+00
 -1       156 5.83214E+01 2.05549E+01 0.00000E+00
 -1       157 5.95991E+01 2.11820E+01 0.00000E+00
 -1       158 6.10384E+01 2.15466E+01 0.00000E+00
 -1       159 6.26103E+01 2.15927E+01 0.00000E+00
 -1       160 6.40646E+01 2.13141E+01 0.00000E+00
 -1       161 6.54357E+01 2.07315E+01 0.00000E+00
 -1       162 6.66503E+01 1.98738E+01 0.00000E+00
 -1       163 6.76717E+01 1.87582E+01 0.00000E+00
 -1       164 6.84005E+01 1.75138E+01 0.00000E+00
 -1       165 6.88780E+01 1.60587E+01 0.00000E+00
 -1       166 2.59800E+00 4.55750E+01 0.00000E+00
 -1       167 2.59800E+00 4.26250E+01 0.00000E+00
 -1       168 2.59800E+00 3.96750E+01 0.00000E+00
 -1       169 2.59800E+00 3.67250E+01 0.00000E+00
 -1       170 2.59800E+00 3.38250E+01 0.00000E+00
 -1       171 2.59800E+00 3.08750E+01 0.00000E+00
 -1       172 2.59800E+00 2.79250E+01 0.00000E+00
 -1       173 2.59800E+00 2.49750E+01 0.00000E+00
 -1       174 2.59800E+00 2.20250E+01 0.00000E+00
 -1       175 2.59800E+00 1.90750E+01 0.00000E+00
 -1       176 2.59800E+00 1.61750E+01 0.00000E+00
 -1       177 2.59800E+00 1.32250E+01 0.00000E+00
 -1       178 2.59800E+00 1.02750E+01 0.00000E+00
 -1       179 2.59800E+00 7.32500E+00 0.00000E+00
 -1       180 2.59800E+00 4.37500E+00 0.00000E+00
 -1       181 4.65000E+00 4.74020E+01 0.00000E+00
 -1       182 7.65000E+00 4.74020E+01 0.00000E+00
 -1       183 1.06500E+01 4.74020E+01 0.00000E+00
 -1       184 1.36500E+01 4.74020E+01 0.00000E+00
 -1       185 1.66500E+01 4.74020E+01 0.00000E+00
 -1       186 1.96500E+01 4.74020E+01 0.00000E+00
 -1       187 2.26500E+01 4.74020E+01 0.00000E+00
 -1       188 2.56500E+01 4.74020E+01 0.00000E+00
 -1       189 2.86500E+01 4.74020E+01 0.00000E+00
 -1       190 3.16500E+01 4.74020E+01 0.00000E+00
 -1       191 3.46500E+01 4.74020E+01 0.00000E+00
 -1       192 3.76500E+01 4.74020E+01 0.00000E+00
 -1       193 4.06500E+01 4.74020E+01 0.00000E+00
 -1       194 4.36500E+01 4.74020E+01 0.00000E+00
 -1       195 4.66500E+01 4.74020E+01 0.00000E+00
 -1       196 4.96500E+01 4.74020E+01 0.00000E+00
 -1       197 5.26500E+01 4.74020E+01 0.00000E+00
 -1       198 5.56500E+01 4.74020E+01 0.00000E+00
 -1       199 5.86500E+01 4.74020E+01 0.00000E+00
 -1       200 6.16500E+01 4.74020E+01 0.00000E+00
 -1       201 6.46500E+01 4.74020E+01 0.00000E+00
 -1       202 6.76500E+01 4.74020E+01 0.00000E+00
 -1       203 7.06500E+01 4.74020E+01 0.00000E+00
 -1       204 7.36500E+01 4.74020E+01 0.00000E+00
 -1       205 7.66500E+01 4.74020E+01 0.00000E+00
 -1       206 7.96500E+01 4.74020E+01 0.00000E+00
 -1       207 8.26500E+01 4.74020E+01 0.00000E+00
 -1       208 8.56500E+01 4.74020E+01 0.00000E+00
 -1       209 8.86500E+01 4.74020E+01 0.00000E+00
 -1       210 9.16500E+01 4.74020E+01 0.00000E+00
 -1       211 9.46500E+01 4.74020E+01 0.00000E+00
 -1       212 9.76500E+01 4.74020E+01 0.00000E+00
 -1       213 1.00650E+02 4.74020E+01 0.00000E+00
 -1       214 1.03650E+02 4.74020E+01 0.00000E+00
 -1       215 1.06650E+02 4.74020E+01 0.00000E+00
 -1       216 1.09650E+02 4.74020E+01 0.00000E+00
 -1       217 1.12650E+02 4.74020E+01 0.00000E+00
 -1       218 1.15650E+02 4.74020E+01 0.00000E+00
 -1       219 1.18650E+02 4.74020E+01 0.00000E+00
 -1       220 1.21650E+02 4.74020E+01 0.00000E+00
 -1       221 1.24650E+02 4.74020E+01 0.00000E+00
 -1       222 1.27650E+02 4.74020E+01 0.00000E+00
 -1       223 1.30650E+02 4.74020E+01 0.00000E+00
 -1       224 1.33650E+02 4.74020E+01 0.00000E+00
 -1       225 1.36650E+02 4.74020E+01 0.00000E+00
 -1       226 1.39650E+02 4.74020E+01 0.00000E+00
 -1       227 1.42650E+02 4.74020E+01 0.00000E+00
 -1       228 1.45650E+02 4.74020E+01 0.00000E+00
 -1       229 4.50000E+00 2.59800E+00 0.00000E+00
 -1       230 7.50000E+00 2.59800E+00 0.00000E+00
 -1       231 1.05000E+01 2.59800E+00 0.00000E+00
 -1       232 1.35000E+01 2.59800E+00 0.00000E+00
 -1       233 1.65000E+01 2.59800E+00 0.00000E+00
 -1       234 1.95000E+01 2.59800E+00 0.00000E+00
 -1       235 2.23500E+01 2.59800E+00 0.00000E+00
 -1       236 2.53500E+01 2.59800E+00 0.00000E+00
 -1       237 2.83500E+01 2.59800E+00 0.00000E+00
 -1       238 3.13500E+01 2.59800E+00 0.00000E+00
 -1       239 3.43500E+01 2.59800E+00 0.00000E+00
 -1       240 3.73500E+01 2.59800E+00 0.00000E+00
 -1       241 4.03500E+01 2.59800E+00 0.00000E+00
 -1       242 4.32000E+01 2.59800E+00 0.00000E+00
 -1       243 4.62000E+01 2.59800E+00 0.00000E+00
 -1       244 4.92000E+01 2.59800E+00 0.00000E+00
 -1       245 5.22000E+01 2.59800E+00 0.00000E+00
 -1       246 5.52000E+01 2.59800E+00 0.00000E+00
 -1       247 5.77500E+01 2.59800E+00 0.00000E+00
 -1       248 6.01500E+01 2.59800E+00 0.00000E+00
 -1       249 6.24000E+01 2.59800E+00 0.00000E+00
 -1       250 6.51000E+01 2.59800E+00 0.00000E+00
 -1       251 6.81000E+01 2.59800E+00 0.00000E+00
 -1       252 7.11000E+01 2.59800E+00 0.00000E+00
 -1       253 7.41000E+01 2.59800E+00 0.00000E+00
 -1       254 7.71000E+01 2.59800E+00 0.00000E+00
 -1       255 8.01000E+01 2.59800E+00 0.00000E+00
 -1       256 8.31000E+01 2.59800E+00 0.00000E+00
 -1       257 8.59500E+01 2.59800E+00 0.00000E+00
 -1       258 8.89500E+01 2.59800E+00 0.00000E+00
 -1       259 9.19500E+01 2.59800E+00 0.00000E+00
 -1       260 9.49500E+01 2.59800E+00 0.00000E+00
 -1       261 9.79500E+01 2.59800E+00 0.00000E+00
 -1       262 1.00950E+02 2.59800E+00 0.00000E+00
 -1       263 1.03950E+02 2.59800E+00 0.00000E+00
 -1       264 1.06800E+02 2.59800E+00 0.00000E+00
 -1       265 1.09800E+02 2.59800E+00 0.00000E+00
 -1       266 1.12800E+02 2.59800E+00 0.00000E+00
 -1       267 1.15800E+02 2.59800E+00 0.00000E+00
 -1       268 1.18800E+02 2.59800E+00 0.00000E+00
 -1       269 1.21800E+02 2.59800E+00 0.00000E+00
 -1       270 1.24800E+02 2.59800E+00 0.00000E+00
 -1       271 1.27650E+02 2.59800E+00 0.00000E+00
 -1       272 1.30650E+02 2.59800E+00 0.00000E+00
 -1       273 1.33650E+02 2.59800E+00 0.00000E+00
 -1       274 1.36650E+02 2.59800E+00 0.00000E+00
 -1       275 1.39650E+02 2.59800E+00 0.00000E+00
 -1       276 1.42650E+02 2.59800E+00 0.00000E+00
 -1       277 1.45650E+02 2.59800E+00 0.00000E+00
 -1       278 1.47402E+02 4.42500E+00 0.00000E+00
 -1       279 1.47402E+02 7.37500E+00 0.00000E+00
 -1       280 1.47402E+02 1.03250E+01 0.00000E+00
 -1       281 1.47402E+02 1.32750E+01 0.00000E+00
 -1       282 1.47402E+02 1.61750E+01 0.00000E+00
 -1       283 1.47402E+02 1.91250E+01 0.00000E+00
 -1       284 1.47402E+02 2.20750E+01 0.00000E+00
 -1       285 1.47402E+02 2.50250E+01 0.00000E+00
 -1       286 1.47402E+02 2.79750E+01 0.00000E+00
 -1       287 1.47402E+02 3.09250E+01 0.00000E+00
 -1       288 1.47402E+02 3.38250E+01 0.00000E+00
 -1       289 1.47402E+02 3.67750E+01 0.00000E+00
 -1       290 1.47402E+02 3.97250E+01 0.00000E+00
 -1       291 1.47402E+02 4.26750E+01 0.00000E+00
 -1       292 1.46526E+02 4.50385E+01 0.00000E+00
 -1       293 7.02395E+01 1.37478E+01 0.00000E+00
 -1       294 6.97989E+01 1.20807E+01 0.00000E+00
 -1       295 6.91779E+01 1.04841E+01 0.00000E+00
 -1       296 6.81336E+01 9.17663E+00 0.00000E+00
 -1       297 6.69572E+01 7.89297E+00 0.00000E+00
 -1       298 6.53227E+01 7.13801E+00 0.00000E+00
 -1       299 6.36980E+01 6.52942E+00 0.00000E+00
 -1       300 6.20225E+01 6.43944E+00 0.00000E+00
 -1       301 6.03134E+01 6.45473E+00 0.00000E+00
 -1       302 5.87018E+01 7.05565E+00 0.00000E+00
 -1       303 5.71643E+01 7.84239E+00 0.00000E+00
 -1       304 5.59847E+01 9.10987E+00 0.00000E+00
 -1       305 5.48312E+01 1.04035E+01 0.00000E+00
 -1       306 5.42744E+01 1.20151E+01 0.00000E+00
 -1       307 5.38309E+01 1.36041E+01 0.00000E+00
 -1       308 5.37170E+01 1.53241E+01 0.00000E+00
 -1       309 5.41910E+01 1.69531E+01 0.00000E+00
 -1       310 5.48244E+01 1.84820E+01 0.00000E+00
 -1       311 5.57826E+01 1.98896E+01 0.00000E+00
 -1       312 5.70083E+01 2.10695E+01 0.00000E+00
 -1       313 5.84261E+01 2.19568E+01 0.00000E+00
 -1       314 6.00210E+01 2.25395E+01 0.00000E+00
 -1       315 6.17864E+01 2.28653E+01 0.00000E+00
 -1       316 6.35655E+01 2.26441E+01 0.00000E+00
 -1       317 6.52243E+01 2.21387E+01 0.00000E+00
 -1       318 6.68390E+01 2.14299E+01 0.00000E+00
 -1       319 6.80552E+01 2.01347E+01 0.00000E+00
 -1       320 6.90822E+01 1.87488E+01 0.00000E+00
 -1       321 6.98708E+01 1.71904E+01 0.00000E+00
 -1       322 7.01589E+01 1.54633E+01 0.00000E+00
 -1       323 5.19600E+00 4.11500E+01 0.00000E+00
 -1       324 5.19600E+00 4.41000E+01 0.00000E+00
 -1       325 5.19600E+00 3.52750E+01 0.00000E+00
 -1       326 5.19600E+00 3.23250E+01 0.00000E+00
 -1       327 5.19600E+00 2.93750E+01 0.00000E+00
 -1       328 5.19600E+00 2.64250E+01 0.00000E+00
 -1       329 5.19600E+00 2.34750E+01 0.00000E+00
 -1       330 5.19600E+00 2.05250E+01 0.00000E+00
 -1       331 5.19600E+00 1.76250E+01 0.00000E+00
 -1       332 5.19600E+00 1.46750E+01 0.00000E+00
 -1       333 5.19600E+00 1.17250E+01 0.00000E+00
 -1       334 5.19600E+00 8.77500E+00 0.00000E+00
 -1       335 5.19600E+00 5.82500E+00 0.00000E+00
 -1       336 6.98649E+01 8.86459E+00 0.00000E+00
 -1       337 9.15000E+00 4.48040E+01 0.00000E+00
 -1       338 1.21500E+01 4.48040E+01 0.00000E+00
 -1       339 1.51500E+01 4.48040E+01 0.00000E+00
 -1       340 1.81500E+01 4.48040E+01 0.00000E+00
 -1       341 2.11500E+01 4.48040E+01 0.00000E+00
 -1       342 2.41500E+01 4.48040E+01 0.00000E+00
 -1       343 2.71500E+01 4.48040E+01 0.00000E+00
 -1       344 3.01500E+01 4.48040E+01 0.00000E+00
 -1       345 3.31500E+01 4.48040E+01 0.00000E+00
 -1       346 3.61500E+01 4.48040E+01 0.00000E+00
 -1       347 3.91500E+01 4.48040E+01 0.00000E+00
 -1       348 4.21500E+01 4.48040E+01 0.00000E+00
 -1       349 4.51500E+01 4.48040E+01 0.00000E+00
 -1       350 4.81500E+01 4.48040E+01 0.00000E+00
 -1       351 5.11500E+01 4.48040E+01 0.00000E+00
 -1       352 5.41500E+01 4.48040E+01 0.00000E+00
 -1       353 5.71500E+01 4.48040E+01 0.00000E+00
 -1       354 6.01500E+01 4.48040E+01 0.00000E+00
 -1       355 6.31500E+01 4.48040E+01 0.00000E+00
 -1       356 6.61500E+01 4.48040E+01 0.00000E+00
 -1       357 6.91500E+01 4.48040E+01 0.00000E+00
 -1       358 7.21500E+01 4.48040E+01 0.00000E+00
 -1       359 7.51500E+01 4.48040E+01 0.00000E+00
 -1       360 7.81500E+01 4.48040E+01 0.00000E+00
 -1       361 8.11500E+01 4.48040E+01 0.00000E+00
 -1       362 8.41500E+01 4.48040E+01 0.00000E+00
 -1       363 8.71500E+01 4.48040E+01 0.00000E+00
 -1       364 9.01500E+01 4.48040E+01 0.00000E+00
 -1       365 9.31500E+01 4.48040E+01 0.00000E+00
 -1       366 9.61500E+01 4.48040E+01 0.00000E+00
 -1       367 9.91500E+01 4.48040E+01 0.00000E+00
 -1       368 1.02150E+02 4.48040E+01 0.00000E+00
 -1       369 1.05150E+02 4.48040E+01 0.00000E+00
 -1       370 1.08150E+02 4.48040E+01 0.00000E+00
 -1       371 1.11150E+02 4.48040E+01 0.00000E+00
 -1       372 1.14150E+02 4.48040E+01 0.00000E+00
 -1       373 1.17150E+02 4.48040E+01 0.00000E+00
 -1       374 1.20150E+02 4.48040E+01 0.00000E+00
 -1       375 1.23150E+02 4.48040E+01 0.00000E+00
 -1       376 1.26150E+02 4.48040E+01 0.00000E+00
 -1       377 1.29150E+02 4.48040E+01 0.00000E+00
 -1       378 1.32150E+02 4.48040E+01 0.00000E+00
 -1       379 1.35150E+02 4.48040E+01 0.00000E+00
 -1       380 1.38150E+02 4.48040E+01 0.00000E+00
 -1       381 1.41150E+02 4.48040E+01 0.00000E+00
 -1       382 1.43838E+02 4.49212E+01 0.00000E+00
 -1       383 1.20000E+01 5.19600E+00 0.00000E+00
 -1       384 9.00000E+00 5.19600E+00 0.00000E+00
 -1       385 1.50000E+01 5.19600E+00 0.00000E+00
 -1       386 1.80000E+01 5.19600E+00 0.00000E+00
 -1       387 2.08500E+01 5.19600E+00 0.00000E+00
 -1       388 2.38500E+01 5.19600E+00 0.00000E+00
 -1       389 2.68500E+01 5.19600E+00 0.00000E+00
 -1       390 2.98500E+01 5.19600E+00 0.00000E+00
 -1       391 3.28500E+01 5.19600E+00 0.00000E+00
 -1       392 3.58500E+01 5.19600E+00 0.00000E+00
 -1       393 3.88500E+01 5.19600E+00 0.00000E+00
 -1       394 4.17000E+01 5.19600E+00 0.00000E+00
 -1       395 4.47000E+01 5.19600E+00 0.00000E+00
 -1       396 4.77000E+01 5.19600E+00 0.00000E+00
 -1       397 5.07000E+01 5.19600E+00 0.00000E+00
 -1       398 5.37000E+01 5.19600E+00 0.00000E+00
 -1       399 5.89500E+01 4.64825E+00 0.00000E+00
 -1       400 6.37500E+01 4.64825E+00 0.00000E+00
 -1       401 6.66000E+01 4.81582E+00 0.00000E+00
 -1       402 6.96000E+01 4.98339E+00 0.00000E+00
 -1       403 7.26000E+01 4.98339E+00 0.00000E+00
 -1       404 7.56000E+01 4.98339E+00 0.00000E+00
 -1       405 7.86000E+01 4.98339E+00 0.00000E+00
 -1       406 8.16000E+01 4.98339E+00 0.00000E+00
 -1       407 8.44500E+01 4.98339E+00 0.00000E+00
 -1       408 8.74500E+01 4.98339E+00 0.00000E+00
 -1       409 9.04500E+01 4.98339E+00 0.00000E+00
 -1       410 9.34500E+01 4.98339E+00 0.00000E+00
 -1       411 9.64500E+01 4.98339E+00 0.00000E+00
 -1       412 9.94500E+01 4.98339E+00 0.00000E+00
 -1       413 1.02450E+02 4.98339E+00 0.00000E+00
 -1       414 1.05300E+02 4.98339E+00 0.00000E+00
 -1       415 1.08300E+02 4.98339E+00 0.00000E+00
 -1       416 1.11300E+02 4.98339E+00 0.00000E+00
 -1       417 1.14300E+02 4.98339E+00 0.00000E+00
 -1       418 1.17300E+02 4.98339E+00 0.00000E+00
 -1       419 1.20300E+02 4.98339E+00 0.00000E+00
 -1       420 1.23300E+02 4.98339E+00 0.00000E+00
 -1       421 1.26150E+02 4.98339E+00 0.00000E+00
 -1       422 1.29150E+02 4.98339E+00 0.00000E+00
 -1       423 1.32150E+02 4.98339E+00 0.00000E+00
 -1       424 1.35150E+02 4.98339E+00 0.00000E+00
 -1       425 1.38150E+02 4.98339E+00 0.00000E+00
 -1       426 1.41150E+02 4.98339E+00 0.00000E+00
 -1       427 1.44150E+02 4.98339E+00 0.00000E+00
 -1       428 7.16773E+01 1.24759E+01 0.00000E+00
 -1       429 1.44804E+02 1.18000E+01 0.00000E+00
 -1       430 1.44804E+02 8.85000E+00 0.00000E+00
 -1       431 1.44804E+02 1.47000E+01 0.00000E+00
 -1       432 1.44804E+02 1.76500E+01 0.00000E+00
 -1       433 1.44804E+02 2.06000E+01 0.00000E+00
 -1       434 1.44804E+02 2.35500E+01 0.00000E+00
 -1       435 1.44804E+02 2.65000E+01 0.00000E+00
 -1       436 1.44804E+02 2.94500E+01 0.00000E+00
 -1       437 1.44804E+02 3.23500E+01 0.00000E+00
 -1       438 1.44804E+02 3.53000E+01 0.00000E+00
 -1       439 1.44804E+02 3.82500E+01 0.00000E+00
 -1       440 1.44804E+02 4.12000E+01 0.00000E+00
 -1       441 7.10564E+01 1.08793E+01 0.00000E+00
 -1       442 7.14940E+01 1.46664E+01 0.00000E+00
 -1       443 5.19600E+00 3.82125E+01 0.00000E+00
 -1       444 6.67888E+01 6.11056E+00 0.00000E+00
 -1       445 6.49650E+01 5.61990E+00 0.00000E+00
 -1       446 6.29343E+01 5.10644E+00 0.00000E+00
 -1       447 6.12251E+01 5.12173E+00 0.00000E+00
 -1       448 5.74125E+01 5.43499E+00 0.00000E+00
 -1       449 5.55643E+01 7.53600E+00 0.00000E+00
 -1       450 5.44108E+01 8.82959E+00 0.00000E+00
 -1       451 5.32485E+01 1.07587E+01 0.00000E+00
 -1       452 5.28050E+01 1.23477E+01 0.00000E+00
 -1       453 5.22298E+01 1.43618E+01 0.00000E+00
 -1       454 5.27095E+01 1.65008E+01 0.00000E+00
 -1       455 5.33102E+01 1.82136E+01 0.00000E+00
 -1       456 5.42320E+01 1.99152E+01 0.00000E+00
 -1       457 5.53222E+01 2.15944E+01 0.00000E+00
 -1       458 5.69851E+01 2.26829E+01 0.00000E+00
 -1       459 5.87212E+01 2.36231E+01 0.00000E+00
 -1       460 6.06229E+01 2.42243E+01 0.00000E+00
 -1       461 6.28875E+01 2.44567E+01 0.00000E+00
 -1       462 6.48460E+01 2.38717E+01 0.00000E+00
 -1       463 6.64607E+01 2.31630E+01 0.00000E+00
 -1       464 6.85142E+01 2.17843E+01 0.00000E+00
 -1       465 6.98794E+01 2.04130E+01 0.00000E+00
 -1       466 7.07826E+01 1.86305E+01 0.00000E+00
 -1       467 7.13760E+01 1.65539E+01 0.00000E+00
 -1       468 6.86886E+01 7.58093E+00 0.00000E+00
 -1       469 6.12750E+01 4.31311E+00 0.00000E+00
 -1       470 6.81359E+01 2.35173E+01 0.00000E+00
 -1       471 7.79400E+00 3.08500E+01 0.00000E+00
 -1       472 7.79400E+00 3.38000E+01 0.00000E+00
 -1       473 7.79400E+00 2.49500E+01 0.00000E+00
 -1       474 7.79400E+00 2.20000E+01 0.00000E+00
 -1       475 7.79400E+00 1.91000E+01 0.00000E+00
 -1       476 7.79400E+00 1.61500E+01 0.00000E+00
 -1       477 7.79400E+00 1.32000E+01 0.00000E+00
 -1       478 7.79400E+00 1.02500E+01 0.00000E+00
 -1       479 8.39700E+00 7.72300E+00 0.00000E+00
 -1       480 7.04794E+01 7.12059E+00 0.00000E+00
 -1       481 1.06500E+01 4.22060E+01 0.00000E+00
 -1       482 1.36500E+01 4.22060E+01 0.00000E+00
 -1       483 1.66500E+01 4.22060E+01 0.00000E+00
 -1       484 1.96500E+01 4.22060E+01 0.00000E+00
 -1       485 2.26500E+01 4.22060E+01 0.00000E+00
 -1       486 2.56500E+01 4.22060E+01 0.00000E+00
 -1       487 2.86500E+01 4.22060E+01 0.00000E+00
 -1       488 3.16500E+01 4.22060E+01 0.00000E+00
 -1       489 3.46500E+01 4.22060E+01 0.00000E+00
 -1       490 3.76500E+01 4.22060E+01 0.00000E+00
 -1       491 4.06500E+01 4.22060E+01 0.00000E+00
 -1       492 4.36500E+01 4.22060E+01 0.00000E+00
 -1       493 4.66500E+01 4.22060E+01 0.00000E+00
 -1       494 4.96500E+01 4.22060E+01 0.00000E+00
 -1       495 5.26500E+01 4.22060E+01 0.00000E+00
 -1       496 5.56500E+01 4.22060E+01 0.00000E+00
 -1       497 5.86500E+01 4.22060E+01 0.00000E+00
 -1       498 6.16500E+01 4.22060E+01 0.00000E+00
 -1       499 6.46500E+01 4.22060E+01 0.00000E+00
 -1       500 6.76500E+01 4.22060E+01 0.00000E+00
 -1       501 7.06500E+01 4.22060E+01 0.00000E+00
 -1       502 7.36500E+01 4.22060E+01 0.00000E+00
 -1       503 7.66500E+01 4.22060E+01 0.00000E+00
 -1       504 7.96500E+01 4.22060E+01 0.00000E+00
 -1       505 8.26500E+01 4.22060E+01 0.00000E+00
 -1       506 8.56500E+01 4.22060E+01 0.00000E+00
 -1       507 8.86500E+01 4.22060E+01 0.00000E+00
 -1       508 9.16500E+01 4.22060E+01 0.00000E+00
 -1       509 9.46500E+01 4.22060E+01 0.00000E+00
 -1       510 9.76500E+01 4.22060E+01 0.00000E+00
 -1       511 1.00650E+02 4.22060E+01 0.00000E+00
 -1       512 1.03650E+02 4.22060E+01 0.00000E+00
 -1       513 1.06650E+02 4.22060E+01 0.00000E+00
 -1       514 1.09650E+02 4.22060E+01 0.00000E+00
 -1       515 1.12650E+02 4.22060E+01 0.00000E+00
 -1       516 1.15650E+02 4.22060E+01 0.00000E+00
 -1       517 1.18650E+02 4.22060E+01 0.00000E+00
 -1       518 1.21650E+02 4.22060E+01 0.00000E+00
 -1       519 1.24650E+02 4.22060E+01 0.00000E+00
 -1       520 1.27650E+02 4.22060E+01 0.00000E+00
 -1       521 1.30650E+02 4.22060E+01 0.00000E+00
 -1       522 1.33650E+02 4.22060E+01 0.00000E+00
 -1       523 1.36650E+02 4.22060E+01 0.00000E+00
 -1       524 1.39650E+02 4.22060E+01 0.00000E+00
 -1       525 1.13970E+01 7.72300E+00 0.00000E+00
 -1       526 1.94250E+01 7.79400E+00 0.00000E+00
 -1       527 2.24250E+01 7.79400E+00 0.00000E+00
 -1       528 2.54250E+01 7.79400E+00 0.00000E+00
 -1       529 2.84250E+01 7.79400E+00 0.00000E+00
 -1       530 3.14250E+01 7.79400E+00 0.00000E+00
 -1       531 3.44250E+01 7.79400E+00 0.00000E+00
 -1       532 3.74250E+01 7.79400E+00 0.00000E+00
 -1       533 4.02750E+01 7.79400E+00 0.00000E+00
 -1       534 4.32750E+01 7.79400E+00 0.00000E+00
 -1       535 4.62750E+01 7.79400E+00 0.00000E+00
 -1       536 4.92750E+01 7.79400E+00 0.00000E+00
 -1       537 5.10413E+01 1.57516E+01 0.00000E+00
 -1       538 8.01000E+01 7.58139E+00 0.00000E+00
 -1       539 8.29500E+01 7.58139E+00 0.00000E+00
 -1       540 8.59500E+01 7.58139E+00 0.00000E+00
 -1       541 8.89500E+01 7.58139E+00 0.00000E+00
 -1       542 9.19500E+01 7.58139E+00 0.00000E+00
 -1       543 9.49500E+01 7.58139E+00 0.00000E+00
 -1       544 9.79500E+01 7.58139E+00 0.00000E+00
 -1       545 1.00950E+02 7.58139E+00 0.00000E+00
 -1       546 1.03800E+02 7.58139E+00 0.00000E+00
 -1       547 1.06800E+02 7.58139E+00 0.00000E+00
 -1       548 1.09800E+02 7.58139E+00 0.00000E+00
 -1       549 1.12800E+02 7.58139E+00 0.00000E+00
 -1       550 1.15800E+02 7.58139E+00 0.00000E+00
 -1       551 1.18800E+02 7.58139E+00 0.00000E+00
 -1       552 1.21800E+02 7.58139E+00 0.00000E+00
 -1       553 1.24650E+02 7.58139E+00 0.00000E+00
 -1       554 1.27650E+02 7.58139E+00 0.00000E+00
 -1       555 1.30650E+02 7.58139E+00 0.00000E+00
 -1       556 1.33650E+02 7.58139E+00 0.00000E+00
 -1       557 1.36650E+02 7.58139E+00 0.00000E+00
 -1       558 1.39650E+02 7.58139E+00 0.00000E+00
 -1       559 1.42227E+02 8.21570E+00 0.00000E+00
 -1       560 7.31468E+01 1.57171E+01 0.00000E+00
 -1       561 1.42206E+02 1.91250E+01 0.00000E+00
 -1       562 7.17927E+01 9.08423E+00 0.00000E+00
 -1       563 1.42206E+02 2.20750E+01 0.00000E+00
 -1       564 1.42206E+02 2.50250E+01 0.00000E+00
 -1       565 1.42206E+02 2.79750E+01 0.00000E+00
 -1       566 1.42206E+02 3.08750E+01 0.00000E+00
 -1       567 1.42206E+02 3.38250E+01 0.00000E+00
 -1       568 1.42206E+02 3.67750E+01 0.00000E+00
 -1       569 1.42206E+02 3.97250E+01 0.00000E+00
 -1       570 7.28873E+01 1.10863E+01 0.00000E+00
 -1       571 7.26478E+01 1.80405E+01 0.00000E+00
 -1       572 1.64250E+01 7.79400E+00 0.00000E+00
 -1       573 1.42206E+02 1.32500E+01 0.00000E+00
 -1       574 6.44055E+01 2.59682E+01 0.00000E+00
 -1       575 1.42217E+02 1.07328E+01 0.00000E+00
 -1       576 1.42206E+02 1.61875E+01 0.00000E+00
 -1       577 7.71000E+01 7.58139E+00 0.00000E+00
 -1       578 7.41000E+01 7.58139E+00 0.00000E+00
 -1       579 7.33301E+01 1.35267E+01 0.00000E+00
 -1       580 7.79400E+00 2.79000E+01 0.00000E+00
 -1       581 1.39110E+01 7.75850E+00 0.00000E+00
 -1       582 5.25759E+01 9.03870E+00 0.00000E+00
 -1       583 5.13748E+01 1.10921E+01 0.00000E+00
 -1       584 7.03529E+01 2.22496E+01 0.00000E+00
 -1       585 5.07996E+01 1.31062E+01 0.00000E+00
 -1       586 5.13914E+01 1.79249E+01 0.00000E+00
 -1       587 5.22631E+01 1.98813E+01 0.00000E+00
 -1       588 5.33532E+01 2.15606E+01 0.00000E+00
 -1       589 5.53061E+01 2.34335E+01 0.00000E+00
 -1       590 5.70365E+01 2.46612E+01 0.00000E+00
 -1       591 5.92056E+01 2.53992E+01 0.00000E+00
 -1       592 6.15800E+01 2.60466E+01 0.00000E+00
 -1       593 6.60202E+01 2.52594E+01 0.00000E+00
 -1       594 7.18609E+01 2.02969E+01 0.00000E+00
 -1       595 7.92300E+00 4.16780E+01 0.00000E+00
 -1       596 5.25554E+01 7.01280E+00 0.00000E+00
 -1       597 7.79400E+00 3.67375E+01 0.00000E+00
 -1       598 4.96111E+01 1.44960E+01 0.00000E+00
 -1       599 7.85850E+00 3.92077E+01 0.00000E+00
 -1       600 1.41678E+02 4.22645E+01 0.00000E+00
 -1       601 5.33371E+01 2.33996E+01 0.00000E+00
 -1       602 1.03920E+01 2.05500E+01 0.00000E+00
 -1       603 1.03920E+01 2.35000E+01 0.00000E+00
 -1       604 1.03920E+01 1.46750E+01 0.00000E+00
 -1       605 1.03920E+01 1.17250E+01 0.00000E+00
 -1       606 1.08945E+01 9.72400E+00 0.00000E+00
 -1       607 6.82748E+01 2.58418E+01 0.00000E+00
 -1       608 1.51500E+01 3.96080E+01 0.00000E+00
 -1       609 1.81500E+01 3.96080E+01 0.00000E+00
 -1       610 2.11500E+01 3.96080E+01 0.00000E+00
 -1       611 2.41500E+01 3.96080E+01 0.00000E+00
 -1       612 2.71500E+01 3.96080E+01 0.00000E+00
 -1       613 3.01500E+01 3.96080E+01 0.00000E+00
 -1       614 3.31500E+01 3.96080E+01 0.00000E+00
 -1       615 3.61500E+01 3.96080E+01 0.00000E+00
 -1       616 3.91500E+01 3.96080E+01 0.00000E+00
 -1       617 4.21500E+01 3.96080E+01 0.00000E+00
 -1       618 4.51500E+01 3.96080E+01 0.00000E+00
 -1       619 4.81500E+01 3.96080E+01 0.00000E+00
 -1       620 5.11500E+01 3.96080E+01 0.00000E+00
 -1       621 5.41500E+01 3.96080E+01 0.00000E+00
 -1       622 5.71500E+01 3.96080E+01 0.00000E+00
 -1       623 6.01500E+01 3.96080E+01 0.00000E+00
 -1       624 6.31500E+01 3.96080E+01 0.00000E+00
 -1       625 6.61500E+01 3.96080E+01 0.00000E+00
 -1       626 6.91500E+01 3.96080E+01 0.00000E+00
 -1       627 7.21500E+01 3.96080E+01 0.00000E+00
 -1       628 7.51500E+01 3.96080E+01 0.00000E+00
 -1       629 7.81500E+01 3.96080E+01 0.00000E+00
 -1       630 8.11500E+01 3.96080E+01 0.00000E+00
 -1       631 8.41500E+01 3.96080E+01 0.00000E+00
 -1       632 8.71500E+01 3.96080E+01 0.00000E+00
 -1       633 9.01500E+01 3.96080E+01 0.00000E+00
 -1       634 9.31500E+01 3.96080E+01 0.00000E+00
 -1       635 9.61500E+01 3.96080E+01 0.00000E+00
 -1       636 9.91500E+01 3.96080E+01 0.00000E+00
 -1       637 1.02150E+02 3.96080E+01 0.00000E+00
 -1       638 1.05150E+02 3.96080E+01 0.00000E+00
 -1       639 1.08150E+02 3.96080E+01 0.00000E+00
 -1       640 1.11150E+02 3.96080E+01 0.00000E+00
 -1       641 1.14150E+02 3.96080E+01 0.00000E+00
 -1       642 1.17150E+02 3.96080E+01 0.00000E+00
 -1       643 1.20150E+02 3.96080E+01 0.00000E+00
 -1       644 1.23150E+02 3.96080E+01 0.00000E+00
 -1       645 1.26150E+02 3.96080E+01 0.00000E+00
 -1       646 1.29150E+02 3.96080E+01 0.00000E+00
 -1       647 1.32150E+02 3.96080E+01 0.00000E+00
 -1       648 1.35150E+02 3.96080E+01 0.00000E+00
 -1       649 1.38150E+02 3.96080E+01 0.00000E+00
 -1       650 7.28622E+01 2.26289E+01 0.00000E+00
 -1       651 2.39250E+01 1.03920E+01 0.00000E+00
 -1       652 2.09250E+01 1.03920E+01 0.00000E+00
 -1       653 2.99250E+01 1.03920E+01 0.00000E+00
 -1       654 3.29250E+01 1.03920E+01 0.00000E+00
 -1       655 3.59250E+01 1.03920E+01 0.00000E+00
 -1       656 3.87750E+01 1.03920E+01 0.00000E+00
 -1       657 4.17750E+01 1.03920E+01 0.00000E+00
 -1       658 4.47750E+01 1.03920E+01 0.00000E+00
 -1       659 4.77750E+01 1.03920E+01 0.00000E+00
 -1       660 8.44500E+01 1.01794E+01 0.00000E+00
 -1       661 8.16000E+01 1.01794E+01 0.00000E+00
 -1       662 9.04500E+01 1.01794E+01 0.00000E+00
 -1       663 9.34500E+01 1.01794E+01 0.00000E+00
 -1       664 9.64500E+01 1.01794E+01 0.00000E+00
 -1       665 9.94500E+01 1.01794E+01 0.00000E+00
 -1       666 1.02300E+02 1.01794E+01 0.00000E+00
 -1       667 1.05300E+02 1.01794E+01 0.00000E+00
 -1       668 1.08300E+02 1.01794E+01 0.00000E+00
 -1       669 1.11300E+02 1.01794E+01 0.00000E+00
 -1       670 1.14300E+02 1.01794E+01 0.00000E+00
 -1       671 1.17300E+02 1.01794E+01 0.00000E+00
 -1       672 1.20300E+02 1.01794E+01 0.00000E+00
 -1       673 1.23150E+02 1.01794E+01 0.00000E+00
 -1       674 1.26150E+02 1.01794E+01 0.00000E+00
 -1       675 1.29150E+02 1.01794E+01 0.00000E+00
 -1       676 1.32150E+02 1.01794E+01 0.00000E+00
 -1       677 1.35150E+02 1.01794E+01 0.00000E+00
 -1       678 1.38150E+02 1.01794E+01 0.00000E+00
 -1       679 1.40183E+02 1.04561E+01 0.00000E+00
 -1       680 1.39608E+02 2.35500E+01 0.00000E+00
 -1       681 7.51146E+01 1.47789E+01 0.00000E+00
 -1       682 1.39608E+02 2.06000E+01 0.00000E+00
 -1       683 1.39608E+02 2.94250E+01 0.00000E+00
 -1       684 1.39608E+02 3.23750E+01 0.00000E+00
 -1       685 1.39608E+02 3.53250E+01 0.00000E+00
 -1       686 7.52909E+01 1.19105E+01 0.00000E+00
 -1       687 7.86000E+01 1.01794E+01 0.00000E+00
 -1       688 4.93577E+01 1.71376E+01 0.00000E+00
 -1       689 1.79250E+01 1.03920E+01 0.00000E+00
 -1       690 1.39608E+02 2.64875E+01 0.00000E+00
 -1       691 6.30404E+01 2.77218E+01 0.00000E+00
 -1       692 8.74500E+01 1.01794E+01 0.00000E+00
 -1       693 5.05672E+01 9.24174E+00 0.00000E+00
 -1       694 7.51964E+01 9.63181E+00 0.00000E+00
 -1       695 7.40321E+01 1.97886E+01 0.00000E+00
 -1       696 7.04918E+01 2.45740E+01 0.00000E+00
 -1       697 2.69250E+01 1.03920E+01 0.00000E+00
 -1       698 1.21500E+01 3.96080E+01 0.00000E+00
 -1       699 5.01075E+01 1.96693E+01 0.00000E+00
 -1       700 1.03920E+01 1.76125E+01 0.00000E+00
 -1       701 1.40178E+02 3.96665E+01 0.00000E+00
 -1       702 1.03920E+01 3.23250E+01 0.00000E+00
 -1       703 4.89546E+01 1.14901E+01 0.00000E+00
 -1       704 5.51788E+01 2.54461E+01 0.00000E+00
 -1       705 5.11977E+01 2.13485E+01 0.00000E+00
 -1       706 5.75146E+01 2.68125E+01 0.00000E+00
 -1       707 6.59022E+01 2.71843E+01 0.00000E+00
 -1       708 7.45742E+01 1.72389E+01 0.00000E+00
 -1       709 5.98535E+01 2.77010E+01 0.00000E+00
 -1       710 1.00042E+01 3.94079E+01 0.00000E+00
 -1       711 1.03920E+01 2.64500E+01 0.00000E+00
 -1       712 1.34085E+01 9.75950E+00 0.00000E+00
 -1       713 1.39608E+02 1.47188E+01 0.00000E+00
 -1       714 4.77661E+01 1.28799E+01 0.00000E+00
 -1       715 1.03920E+01 3.52625E+01 0.00000E+00
 -1       716 1.03920E+01 2.93875E+01 0.00000E+00
 -1       717 1.39608E+02 1.76563E+01 0.00000E+00
 -1       718 1.38879E+02 3.74665E+01 0.00000E+00
 -1       719 1.39896E+02 1.25874E+01 0.00000E+00
 -1       720 5.11816E+01 2.31876E+01 0.00000E+00
 -1       721 1.56667E+01 1.00758E+01 0.00000E+00
 -1       722 1.29060E+01 1.17605E+01 0.00000E+00
 -1       723 6.80982E+01 2.82974E+01 0.00000E+00
 -1       724 1.96500E+01 3.70100E+01 0.00000E+00
 -1       725 2.26500E+01 3.70100E+01 0.00000E+00
 -1       726 2.56500E+01 3.70100E+01 0.00000E+00
 -1       727 2.86500E+01 3.70100E+01 0.00000E+00
 -1       728 3.16500E+01 3.70100E+01 0.00000E+00
 -1       729 3.46500E+01 3.70100E+01 0.00000E+00
 -1       730 3.76500E+01 3.70100E+01 0.00000E+00
 -1       731 4.06500E+01 3.70100E+01 0.00000E+00
 -1       732 4.36500E+01 3.70100E+01 0.00000E+00
 -1       733 4.66500E+01 3.70100E+01 0.00000E+00
 -1       734 4.96500E+01 3.70100E+01 0.00000E+00
 -1       735 5.26500E+01 3.70100E+01 0.00000E+00
 -1       736 5.56500E+01 3.70100E+01 0.00000E+00
 -1       737 5.86500E+01 3.70100E+01 0.00000E+00
 -1       738 6.16500E+01 3.70100E+01 0.00000E+00
 -1       739 6.46500E+01 3.70100E+01 0.00000E+00
 -1       740 6.76500E+01 3.70100E+01 0.00000E+00
 -1       741 7.06500E+01 3.70100E+01 0.00000E+00
 -1       742 7.36500E+01 3.70100E+01 0.00000E+00
 -1       743 7.66500E+01 3.70100E+01 0.00000E+00
 -1       744 7.96500E+01 3.70100E+01 0.00000E+00
 -1       745 8.26500E+01 3.70100E+01 0.00000E+00
 -1       746 8.56500E+01 3.70100E+01 0.00000E+00
 -1       747 8.86500E+01 3.70100E+01 0.00000E+00
 -1       748 9.16500E+01 3.70100E+01 0.00000E+00
 -1       749 9.46500E+01 3.70100E+01 0.00000E+00
 -1       750 9.76500E+01 3.70100E+01 0.00000E+00
 -1       751 1.00650E+02 3.70100E+01 0.00000E+00
 -1       752 1.03650E+02 3.70100E+01 0.00000E+00
 -1       753 1.06650E+02 3.70100E+01 0.00000E+00
 -1       754 1.09650E+02 3.70100E+01 0.00000E+00
 -1       755 1.12650E+02 3.70100E+01 0.00000E+00
 -1       756 1.15650E+02 3.70100E+01 0.00000E+00
 -1       757 1.18650E+02 3.70100E+01 0.00000E+00
 -1       758 1.21650E+02 3.70100E+01 0.00000E+00
 -1       759 1.24650E+02 3.70100E+01 0.00000E+00
 -1       760 1.27650E+02 3.70100E+01 0.00000E+00
 -1       761 1.30650E+02 3.70100E+01 0.00000E+00
 -1       762 1.33650E+02 3.70100E+01 0.00000E+00
 -1       763 1.36264E+02 3.72383E+01 0.00000E+00
 -1       764 1.36500E+01 3.70100E+01 0.00000E+00
 -1       765 3.44250E+01 1.29900E+01 0.00000E+00
 -1       766 3.14250E+01 1.29900E+01 0.00000E+00
 -1       767 4.02750E+01 1.29900E+01 0.00000E+00
 -1       768 4.32750E+01 1.29900E+01 0.00000E+00
 -1       769 8.59500E+01 1.27774E+01 0.00000E+00
 -1       770 8.31000E+01 1.27774E+01 0.00000E+00
 -1       771 9.49500E+01 1.27774E+01 0.00000E+00
 -1       772 9.19500E+01 1.27774E+01 0.00000E+00
 -1       773 1.00875E+02 1.27774E+01 0.00000E+00
 -1       774 1.03875E+02 1.27774E+01 0.00000E+00
 -1       775 1.06875E+02 1.27774E+01 0.00000E+00
 -1       776 1.09875E+02 1.27774E+01 0.00000E+00
 -1       777 1.12875E+02 1.27774E+01 0.00000E+00
 -1       778 1.15875E+02 1.27774E+01 0.00000E+00
 -1       779 1.18875E+02 1.27774E+01 0.00000E+00
 -1       780 1.21725E+02 1.27774E+01 0.00000E+00
 -1       781 1.24725E+02 1.27774E+01 0.00000E+00
 -1       782 1.27725E+02 1.27774E+01 0.00000E+00
 -1       783 1.30725E+02 1.27774E+01 0.00000E+00
 -1       784 1.33725E+02 1.27774E+01 0.00000E+00
 -1       785 1.36725E+02 1.27774E+01 0.00000E+00
 -1       786 1.37010E+02 2.20750E+01 0.00000E+00
 -1       787 1.37010E+02 3.38500E+01 0.00000E+00
 -1       788 1.37010E+02 3.09000E+01 0.00000E+00
 -1       789 8.01000E+01 1.27774E+01 0.00000E+00
 -1       790 4.75127E+01 1.55215E+01 0.00000E+00
 -1       791 1.01981E+01 3.73352E+01 0.00000E+00
 -1       792 1.94250E+01 1.29900E+01 0.00000E+00
 -1       793 9.79125E+01 1.27774E+01 0.00000E+00
 -1       794 3.73500E+01 1.29900E+01 0.00000E+00
 -1       795 2.24250E+01 1.29900E+01 0.00000E+00
 -1       796 1.66500E+01 3.70100E+01 0.00000E+00
 -1       797 1.37010E+02 1.61875E+01 0.00000E+00
 -1       798 8.89500E+01 1.27774E+01 0.00000E+00
 -1       799 6.48498E+01 2.94681E+01 0.00000E+00
 -1       800 2.54250E+01 1.29900E+01 0.00000E+00
 -1       801 7.63086E+01 1.89402E+01 0.00000E+00
 -1       802 7.31902E+01 2.54454E+01 0.00000E+00
 -1       803 2.84250E+01 1.29900E+01 0.00000E+00
 -1       804 1.37010E+02 1.91313E+01 0.00000E+00
 -1       805 6.14346E+01 2.95941E+01 0.00000E+00
 -1       806 7.03152E+01 2.70297E+01 0.00000E+00
 -1       807 7.76073E+01 1.37782E+01 0.00000E+00
 -1       808 5.79560E+01 2.91734E+01 0.00000E+00
 -1       809 7.68489E+01 1.64802E+01 0.00000E+00
 -1       810 4.77668E+01 1.89857E+01 0.00000E+00
 -1       811 5.26094E+01 2.59065E+01 0.00000E+00
 -1       812 1.29900E+01 2.20250E+01 0.00000E+00
 -1       813 4.87924E+01 2.17165E+01 0.00000E+00
 -1       814 7.56528E+01 2.21172E+01 0.00000E+00
 -1       815 5.53114E+01 2.78990E+01 0.00000E+00
 -1       816 4.65865E+01 1.17818E+01 0.00000E+00
 -1       817 1.37010E+02 2.50125E+01 0.00000E+00
 -1       818 1.29900E+01 3.37938E+01 0.00000E+00
 -1       819 5.95371E+01 3.10665E+01 0.00000E+00
 -1       820 1.37010E+02 2.79625E+01 0.00000E+00
 -1       821 4.59218E+01 1.73696E+01 0.00000E+00
 -1       822 1.29900E+01 1.90875E+01 0.00000E+00
 -1       823 1.29900E+01 3.08563E+01 0.00000E+00
 -1       824 7.59807E+01 2.49338E+01 0.00000E+00
 -1       825 1.36163E+01 1.49147E+01 0.00000E+00
 -1       826 1.29900E+01 2.49750E+01 0.00000E+00
 -1       827 1.71667E+01 1.26737E+01 0.00000E+00
 -1       828 1.36637E+02 3.55441E+01 0.00000E+00
 -1       829 7.93634E+01 1.57285E+01 0.00000E+00
 -1       830 2.41500E+01 3.44120E+01 0.00000E+00
 -1       831 2.71500E+01 3.44120E+01 0.00000E+00
 -1       832 3.01500E+01 3.44120E+01 0.00000E+00
 -1       833 3.31500E+01 3.44120E+01 0.00000E+00
 -1       834 3.61500E+01 3.44120E+01 0.00000E+00
 -1       835 3.91500E+01 3.44120E+01 0.00000E+00
 -1       836 4.21500E+01 3.44120E+01 0.00000E+00
 -1       837 4.51500E+01 3.44120E+01 0.00000E+00
 -1       838 4.81500E+01 3.44120E+01 0.00000E+00
 -1       839 5.11500E+01 3.44120E+01 0.00000E+00
 -1       840 5.41500E+01 3.44120E+01 0.00000E+00
 -1       841 5.71500E+01 3.44120E+01 0.00000E+00
 -1       842 6.01500E+01 3.44120E+01 0.00000E+00
 -1       843 6.31500E+01 3.44120E+01 0.00000E+00
 -1       844 6.61500E+01 3.44120E+01 0.00000E+00
 -1       845 6.91500E+01 3.44120E+01 0.00000E+00
 -1       846 7.21500E+01 3.44120E+01 0.00000E+00
 -1       847 7.51500E+01 3.44120E+01 0.00000E+00
 -1       848 7.81500E+01 3.44120E+01 0.00000E+00
 -1       849 8.11500E+01 3.44120E+01 0.00000E+00
 -1       850 8.41500E+01 3.44120E+01 0.00000E+00
 -1       851 8.71500E+01 3.44120E+01 0.00000E+00
 -1       852 9.01500E+01 3.44120E+01 0.00000E+00
 -1       853 9.31500E+01 3.44120E+01 0.00000E+00
 -1       854 9.61500E+01 3.44120E+01 0.00000E+00
 -1       855 9.91500E+01 3.44120E+01 0.00000E+00
 -1       856 1.02150E+02 3.44120E+01 0.00000E+00
 -1       857 1.05150E+02 3.44120E+01 0.00000E+00
 -1       858 1.08150E+02 3.44120E+01 0.00000E+00
 -1       859 1.11150E+02 3.44120E+01 0.00000E+00
 -1       860 1.14150E+02 3.44120E+01 0.00000E+00
 -1       861 1.17150E+02 3.44120E+01 0.00000E+00
 -1       862 1.20150E+02 3.44120E+01 0.00000E+00
 -1       863 1.23150E+02 3.44120E+01 0.00000E+00
 -1       864 1.26150E+02 3.44120E+01 0.00000E+00
 -1       865 1.29150E+02 3.44120E+01 0.00000E+00
 -1       866 1.32150E+02 3.44120E+01 0.00000E+00
 -1       867 2.09250E+01 1.55880E+01 0.00000E+00
 -1       868 4.17750E+01 1.53754E+01 0.00000E+00
 -1       869 1.34010E+02 1.61875E+01 0.00000E+00
 -1       870 6.32240E+01 3.17474E+01 0.00000E+00
 -1       871 8.45250E+01 1.53754E+01 0.00000E+00
 -1       872 1.05375E+02 1.53754E+01 0.00000E+00
 -1       873 1.02375E+02 1.53754E+01 0.00000E+00
 -1       874 1.11375E+02 1.53754E+01 0.00000E+00
 -1       875 1.14375E+02 1.53754E+01 0.00000E+00
 -1       876 1.17375E+02 1.53754E+01 0.00000E+00
 -1       877 1.20225E+02 1.53754E+01 0.00000E+00
 -1       878 1.23225E+02 1.53754E+01 0.00000E+00
 -1       879 1.26225E+02 1.53754E+01 0.00000E+00
 -1       880 1.29225E+02 1.53754E+01 0.00000E+00
 -1       881 1.31617E+02 1.57814E+01 0.00000E+00
 -1       882 1.29900E+01 2.79188E+01 0.00000E+00
 -1       883 4.53938E+01 1.42558E+01 0.00000E+00
 -1       884 8.10661E+01 1.45768E+01 0.00000E+00
 -1       885 2.99250E+01 1.55880E+01 0.00000E+00
 -1       886 1.81500E+01 3.44120E+01 0.00000E+00
 -1       887 7.83168E+01 2.10109E+01 0.00000E+00
 -1       888 6.72828E+01 3.11269E+01 0.00000E+00
 -1       889 1.34412E+02 3.23750E+01 0.00000E+00
 -1       890 5.25447E+01 2.88226E+01 0.00000E+00
 -1       891 2.69250E+01 1.55880E+01 0.00000E+00
 -1       892 1.08375E+02 1.53754E+01 0.00000E+00
 -1       893 5.56709E+01 3.05341E+01 0.00000E+00
 -1       894 2.39250E+01 1.55880E+01 0.00000E+00
 -1       895 9.34500E+01 1.53754E+01 0.00000E+00
 -1       896 4.95954E+01 2.57550E+01 0.00000E+00
 -1       897 1.34412E+02 2.06031E+01 0.00000E+00
 -1       898 7.03076E+01 2.95888E+01 0.00000E+00
 -1       899 1.55700E+01 3.41029E+01 0.00000E+00
 -1       900 3.29250E+01 1.55880E+01 0.00000E+00
 -1       901 7.88230E+01 1.81884E+01 0.00000E+00
 -1       902 4.58475E+01 2.12646E+01 0.00000E+00
 -1       903 7.31826E+01 2.80046E+01 0.00000E+00
 -1       904 2.11500E+01 3.44120E+01 0.00000E+00
 -1       905 1.86667E+01 1.52718E+01 0.00000E+00
 -1       906 9.64125E+01 1.53754E+01 0.00000E+00
 -1       907 1.34394E+02 3.49781E+01 0.00000E+00
 -1       908 3.88500E+01 1.53754E+01 0.00000E+00
 -1       909 3.58500E+01 1.55880E+01 0.00000E+00
 -1       910 7.59732E+01 2.74930E+01 0.00000E+00
 -1       911 8.75250E+01 1.53754E+01 0.00000E+00
 -1       912 1.58284E+01 1.71796E+01 0.00000E+00
 -1       913 9.94125E+01 1.53754E+01 0.00000E+00
 -1       914 1.34412E+02 2.94375E+01 0.00000E+00
 -1       915 1.34412E+02 2.35406E+01 0.00000E+00
 -1       916 4.40025E+01 1.96485E+01 0.00000E+00
 -1       917 4.38484E+01 1.63725E+01 0.00000E+00
 -1       918 7.86448E+01 2.38275E+01 0.00000E+00
 -1       919 9.04875E+01 1.53754E+01 0.00000E+00
 -1       920 4.95307E+01 2.86711E+01 0.00000E+00
 -1       921 1.55880E+01 2.35000E+01 0.00000E+00
 -1       922 1.55880E+01 2.05625E+01 0.00000E+00
 -1       923 1.55700E+01 3.11654E+01 0.00000E+00
 -1       924 4.66504E+01 2.53030E+01 0.00000E+00
 -1       925 1.34412E+02 2.64891E+01 0.00000E+00
 -1       926 2.86500E+01 3.18140E+01 0.00000E+00
 -1       927 3.16500E+01 3.18140E+01 0.00000E+00
 -1       928 3.46500E+01 3.18140E+01 0.00000E+00
 -1       929 3.76500E+01 3.18140E+01 0.00000E+00
 -1       930 4.06500E+01 3.18140E+01 0.00000E+00
 -1       931 4.36500E+01 3.18140E+01 0.00000E+00
 -1       932 4.66500E+01 3.18140E+01 0.00000E+00
 -1       933 4.96500E+01 3.18140E+01 0.00000E+00
 -1       934 7.36500E+01 3.18140E+01 0.00000E+00
 -1       935 7.66500E+01 3.18140E+01 0.00000E+00
 -1       936 7.96500E+01 3.18140E+01 0.00000E+00
 -1       937 8.26500E+01 3.18140E+01 0.00000E+00
 -1       938 8.56500E+01 3.18140E+01 0.00000E+00
 -1       939 8.86500E+01 3.18140E+01 0.00000E+00
 -1       940 9.16500E+01 3.18140E+01 0.00000E+00
 -1       941 9.46500E+01 3.18140E+01 0.00000E+00
 -1       942 9.76500E+01 3.18140E+01 0.00000E+00
 -1       943 1.00650E+02 3.18140E+01 0.00000E+00
 -1       944 1.03650E+02 3.18140E+01 0.00000E+00
 -1       945 1.06650E+02 3.18140E+01 0.00000E+00
 -1       946 1.09650E+02 3.18140E+01 0.00000E+00
 -1       947 1.12650E+02 3.18140E+01 0.00000E+00
 -1       948 1.15650E+02 3.18140E+01 0.00000E+00
 -1       949 1.18650E+02 3.18140E+01 0.00000E+00
 -1       950 1.21650E+02 3.18140E+01 0.00000E+00
 -1       951 1.24650E+02 3.18140E+01 0.00000E+00
 -1       952 1.27650E+02 3.18140E+01 0.00000E+00
 -1       953 1.30650E+02 3.18140E+01 0.00000E+00
 -1       954 3.14250E+01 1.81860E+01 0.00000E+00
 -1       955 1.15875E+02 1.79734E+01 0.00000E+00
 -1       956 1.12875E+02 1.79734E+01 0.00000E+00
 -1       957 1.21725E+02 1.79734E+01 0.00000E+00
 -1       958 1.24725E+02 1.79734E+01 0.00000E+00
 -1       959 1.27725E+02 1.79734E+01 0.00000E+00
 -1       960 2.84250E+01 1.81860E+01 0.00000E+00
 -1       961 8.15512E+01 1.71285E+01 0.00000E+00
 -1       962 1.03875E+02 1.79734E+01 0.00000E+00
 -1       963 1.55880E+01 2.64438E+01 0.00000E+00
 -1       964 5.18403E+01 3.15415E+01 0.00000E+00
 -1       965 1.32020E+02 2.01971E+01 0.00000E+00
 -1       966 8.10828E+01 2.00504E+01 0.00000E+00
 -1       967 2.26500E+01 3.18140E+01 0.00000E+00
 -1       968 1.96500E+01 3.18140E+01 0.00000E+00
 -1       969 1.76100E+01 3.14897E+01 0.00000E+00
 -1       970 1.18800E+02 1.79734E+01 0.00000E+00
 -1       971 1.55790E+01 2.88046E+01 0.00000E+00
 -1       972 2.56500E+01 3.18140E+01 0.00000E+00
 -1       973 1.94356E+01 1.80028E+01 0.00000E+00
 -1       974 2.54250E+01 1.81860E+01 0.00000E+00
 -1       975 3.43500E+01 1.81860E+01 0.00000E+00
 -1       976 4.03125E+01 1.77608E+01 0.00000E+00
 -1       977 7.86372E+01 2.63866E+01 0.00000E+00
 -1       978 1.32020E+02 2.31346E+01 0.00000E+00
 -1       979 1.00912E+02 1.79734E+01 0.00000E+00
 -1       980 1.09875E+02 1.79734E+01 0.00000E+00
 -1       981 1.29872E+02 1.90852E+01 0.00000E+00
 -1       982 1.81860E+01 2.49719E+01 0.00000E+00
 -1       983 7.63116E+01 2.96535E+01 0.00000E+00
 -1       984 1.06875E+02 1.79734E+01 0.00000E+00
 -1       985 4.32131E+01 2.24108E+01 0.00000E+00
 -1       986 1.81860E+01 2.20344E+01 0.00000E+00
 -1       987 8.14108E+01 2.28670E+01 0.00000E+00
 -1       988 9.19688E+01 1.79734E+01 0.00000E+00
 -1       989 4.65857E+01 2.82191E+01 0.00000E+00
 -1       990 2.24250E+01 1.81860E+01 0.00000E+00
 -1       991 8.43575E+01 1.84900E+01 0.00000E+00
 -1       992 9.49313E+01 1.79734E+01 0.00000E+00
 -1       993 8.73575E+01 1.84900E+01 0.00000E+00
 -1       994 3.01500E+01 2.92160E+01 0.00000E+00
 -1       995 3.31500E+01 2.92160E+01 0.00000E+00
 -1       996 3.61500E+01 2.92160E+01 0.00000E+00
 -1       997 3.91500E+01 2.92160E+01 0.00000E+00
 -1       998 4.21500E+01 2.92160E+01 0.00000E+00
 -1       999 7.93116E+01 2.96535E+01 0.00000E+00
 -1      1000 8.23116E+01 2.96535E+01 0.00000E+00
 -1      1001 8.53116E+01 2.96535E+01 0.00000E+00
 -1      1002 8.83116E+01 2.96535E+01 0.00000E+00
 -1      1003 9.13116E+01 2.96535E+01 0.00000E+00
 -1      1004 9.43116E+01 2.96535E+01 0.00000E+00
 -1      1005 9.73116E+01 2.96535E+01 0.00000E+00
 -1      1006 1.00312E+02 2.96535E+01 0.00000E+00
 -1      1007 1.03312E+02 2.96535E+01 0.00000E+00
 -1      1008 1.06312E+02 2.96535E+01 0.00000E+00
 -1      1009 1.09312E+02 2.96535E+01 0.00000E+00
 -1      1010 1.12312E+02 2.96535E+01 0.00000E+00
 -1      1011 1.15312E+02 2.96535E+01 0.00000E+00
 -1      1012 1.18312E+02 2.96535E+01 0.00000E+00
 -1      1013 1.21312E+02 2.96535E+01 0.00000E+00
 -1      1014 1.24312E+02 2.96535E+01 0.00000E+00
 -1      1015 1.27312E+02 2.96535E+01 0.00000E+00
 -1      1016 1.30312E+02 2.96535E+01 0.00000E+00
 -1      1017 3.73312E+01 1.79734E+01 0.00000E+00
 -1      1018 1.26225E+02 2.05714E+01 0.00000E+00
 -1      1019 1.23225E+02 2.05714E+01 0.00000E+00
 -1      1020 2.99250E+01 2.07840E+01 0.00000E+00
 -1      1021 2.11500E+01 2.92160E+01 0.00000E+00
 -1      1022 9.79219E+01 1.79734E+01 0.00000E+00
 -1      1023 8.96631E+01 1.82317E+01 0.00000E+00
 -1      1024 2.71500E+01 2.92160E+01 0.00000E+00
 -1      1025 1.81770E+01 2.73327E+01 0.00000E+00
 -1      1026 2.07713E+01 2.06875E+01 0.00000E+00
 -1      1027 2.41500E+01 2.92160E+01 0.00000E+00
 -1      1028 1.14375E+02 2.05714E+01 0.00000E+00
 -1      1029 4.32591E+01 2.58448E+01 0.00000E+00
 -1      1030 3.95231E+01 2.05231E+01 0.00000E+00
 -1      1031 8.46854E+01 2.13066E+01 0.00000E+00
 -1      1032 1.17300E+02 2.05714E+01 0.00000E+00
 -1      1033 9.34500E+01 2.05714E+01 0.00000E+00
 -1      1034 1.28372E+02 2.16832E+01 0.00000E+00
 -1      1035 8.14032E+01 2.54261E+01 0.00000E+00
 -1      1036 1.32020E+02 2.60830E+01 0.00000E+00
 -1      1037 1.02394E+02 2.05714E+01 0.00000E+00
 -1      1038 2.69250E+01 2.07840E+01 0.00000E+00
 -1      1039 1.11375E+02 2.05714E+01 0.00000E+00
 -1      1040 1.30196E+02 2.24089E+01 0.00000E+00
 -1      1041 1.20300E+02 2.05714E+01 0.00000E+00
 -1      1042 3.28500E+01 2.07840E+01 0.00000E+00
 -1      1043 7.89744E+01 2.80201E+01 0.00000E+00
 -1      1044 1.05394E+02 2.05714E+01 0.00000E+00
 -1      1045 2.39250E+01 2.07840E+01 0.00000E+00
 -1      1046 2.11590E+01 2.68552E+01 0.00000E+00
 -1      1047 9.11444E+01 2.08297E+01 0.00000E+00
 -1      1048 3.95691E+01 2.39571E+01 0.00000E+00
 -1      1049 2.07713E+01 2.36250E+01 0.00000E+00
 -1      1050 3.16500E+01 2.66180E+01 0.00000E+00
 -1      1051 3.46500E+01 2.66180E+01 0.00000E+00
 -1      1052 3.76500E+01 2.66180E+01 0.00000E+00
 -1      1053 9.64406E+01 2.05714E+01 0.00000E+00
 -1      1054 8.68116E+01 2.70555E+01 0.00000E+00
 -1      1055 8.98116E+01 2.70555E+01 0.00000E+00
 -1      1056 9.28116E+01 2.70555E+01 0.00000E+00
 -1      1057 9.58116E+01 2.70555E+01 0.00000E+00
 -1      1058 9.88116E+01 2.70555E+01 0.00000E+00
 -1      1059 1.01812E+02 2.70555E+01 0.00000E+00
 -1      1060 1.04812E+02 2.70555E+01 0.00000E+00
 -1      1061 1.07812E+02 2.70555E+01 0.00000E+00
 -1      1062 1.10812E+02 2.70555E+01 0.00000E+00
 -1      1063 1.13812E+02 2.70555E+01 0.00000E+00
 -1      1064 1.16812E+02 2.70555E+01 0.00000E+00
 -1      1065 1.19812E+02 2.70555E+01 0.00000E+00
 -1      1066 1.22812E+02 2.70555E+01 0.00000E+00
 -1      1067 1.25812E+02 2.70555E+01 0.00000E+00
 -1      1068 2.35447E+01 2.49305E+01 0.00000E+00
 -1      1069 1.24725E+02 2.31694E+01 0.00000E+00
 -1      1070 2.38473E+01 2.70733E+01 0.00000E+00
 -1      1071 3.58312E+01 2.05714E+01 0.00000E+00
 -1      1072 8.46779E+01 2.38657E+01 0.00000E+00
 -1      1073 1.08384E+02 2.05714E+01 0.00000E+00
 -1      1074 8.79063E+01 2.16863E+01 0.00000E+00
 -1      1075 2.86500E+01 2.66180E+01 0.00000E+00
 -1      1076 1.30196E+02 2.53573E+01 0.00000E+00
 -1      1077 2.62487E+01 2.68456E+01 0.00000E+00
 -1      1078 9.49453E+01 2.31694E+01 0.00000E+00
 -1      1079 4.06500E+01 2.66180E+01 0.00000E+00
 -1      1080 8.38116E+01 2.70555E+01 0.00000E+00
 -1      1081 9.26397E+01 2.34277E+01 0.00000E+00
 -1      1082 1.21800E+02 2.31694E+01 0.00000E+00
 -1      1083 2.84250E+01 2.33820E+01 0.00000E+00
 -1      1084 1.15838E+02 2.31694E+01 0.00000E+00
 -1      1085 1.12838E+02 2.31694E+01 0.00000E+00
 -1      1086 9.93962E+01 2.05592E+01 0.00000E+00
 -1      1087 1.03894E+02 2.31694E+01 0.00000E+00
 -1      1088 2.59848E+01 2.41563E+01 0.00000E+00
 -1      1089 1.00896E+02 2.31572E+01 0.00000E+00
 -1      1090 3.13500E+01 2.33820E+01 0.00000E+00
 -1      1091 3.61500E+01 2.40200E+01 0.00000E+00
 -1      1092 1.18819E+02 2.31694E+01 0.00000E+00
 -1      1093 9.79208E+01 2.31633E+01 0.00000E+00
 -1      1094 9.13116E+01 2.44575E+01 0.00000E+00
 -1      1095 1.09312E+02 2.44575E+01 0.00000E+00
 -1      1096 8.77457E+01 2.49293E+01 0.00000E+00
 -1      1097 1.06884E+02 2.31694E+01 0.00000E+00
 -1      1098 0.00000E+00 4.85250E+01 0.00000E+00
 -1      1099 0.00000E+00 4.55750E+01 0.00000E+00
 -1      1100 0.00000E+00 4.26250E+01 0.00000E+00
 -1      1101 0.00000E+00 3.96750E+01 0.00000E+00
 -1      1102 0.00000E+00 3.67250E+01 0.00000E+00
 -1      1103 0.00000E+00 3.38000E+01 0.00000E+00
 -1      1104 0.00000E+00 3.08750E+01 0.00000E+00
 -1      1105 0.00000E+00 2.79250E+01 0.00000E+00
 -1      1106 0.00000E+00 2.49750E+01 0.00000E+00
 -1      1107 0.00000E+00 2.20250E+01 0.00000E+00
 -1      1108 0.00000E+00 1.90750E+01 0.00000E+00
 -1      1109 0.00000E+00 1.61500E+01 0.00000E+00
 -1      1110 0.00000E+00 1.32250E+01 0.00000E+00
 -1      1111 0.00000E+00 1.02750E+01 0.00000E+00
 -1      1112 0.00000E+00 7.32500E+00 0.00000E+00
 -1      1113 0.00000E+00 4.37500E+00 0.00000E+00
 -1      1114 0.00000E+00 1.45000E+00 0.00000E+00
 -1      1115 1.57500E+00 5.00000E+01 0.00000E+00
 -1      1116 4.65000E+00 5.00000E+01 0.00000E+00
 -1      1117 7.65000E+00 5.00000E+01 0.00000E+00
 -1      1118 1.06500E+01 5.00000E+01 0.00000E+00
 -1      1119 1.36500E+01 5.00000E+01 0.00000E+00
 -1      1120 1.66500E+01 5.00000E+01 0.00000E+00
 -1      1121 1.96500E+01 5.00000E+01 0.00000E+00
 -1      1122 2.26500E+01 5.00000E+01 0.00000E+00
 -1      1123 2.56500E+01 5.00000E+01 0.00000E+00
 -1      1124 2.86500E+01 5.00000E+01 0.00000E+00
 -1      1125 3.16500E+01 5.00000E+01 0.00000E+00
 -1      1126 3.46500E+01 5.00000E+01 0.00000E+00
 -1      1127 3.76500E+01 5.00000E+01 0.00000E+00
 -1      1128 4.06500E+01 5.00000E+01 0.00000E+00
 -1      1129 4.36500E+01 5.00000E+01 0.00000E+00
 -1      1130 4.66500E+01 5.00000E+01 0.00000E+00
 -1      1131 4.96500E+01 5.00000E+01 0.00000E+00
 -1      1132 5.26500E+01 5.00000E+01 0.00000E+00
 -1      1133 5.56500E+01 5.00000E+01 0.00000E+00
 -1      1134 5.86500E+01 5.00000E+01 0.00000E+00
 -1      1135 6.16500E+01 5.00000E+01 0.00000E+00
 -1      1136 6.46500E+01 5.00000E+01 0.00000E+00
 -1      1137 6.76500E+01 5.00000E+01 0.00000E+00
 -1      1138 7.06500E+01 5.00000E+01 0.00000E+00
 -1      1139 7.36500E+01 5.00000E+01 0.00000E+00
 -1      1140 7.66500E+01 5.00000E+01 0.00000E+00
 -1      1141 7.96500E+01 5.00000E+01 0.00000E+00
 -1      1142 8.26500E+01 5.00000E+01 0.00000E+00
 -1      1143 8.56500E+01 5.00000E+01 0.00000E+00
 -1      1144 8.86500E+01 5.00000E+01 0.00000E+00
 -1      1145 9.16500E+01 5.00000E+01 0.00000E+00
 -1      1146 9.46500E+01 5.00000E+01 0.00000E+00
 -1      1147 9.76500E+01 5.00000E+01 0.00000E+00
 -1      1148 1.00650E+02 5.00000E+01 0.00000E+00
 -1      1149 1.03650E+02 5.00000E+01 0.00000E+00
 -1      1150 1.06650E+02 5.00000E+01 0.00000E+00
 -1      1151 1.09650E+02 5.00000E+01 0.00000E+00
 -1      1152 1.12650E+02 5.00000E+01 0.00000E+00
 -1      1153 1.15650E+02 5.00000E+01 0.00000E+00
 -1      1154 1.18650E+02 5.00000E+01 0.00000E+00
 -1      1155 1.21650E+02 5.00000E+01 0.00000E+00
 -1      1156 1.24650E+02 5.00000E+01 0.00000E+00
 -1      1157 1.27650E+02 5.00000E+01 0.00000E+00
 -1      1158 1.30650E+02 5.00000E+01 0.00000E+00
 -1      1159 1.33650E+02 5.00000E+01 0.00000E+00
 -1      1160 1.36650E+02 5.00000E+01 0.00000E+00
 -1      1161 1.39650E+02 5.00000E+01 0.00000E+00
 -1      1162 1.42650E+02 5.00000E+01 0.00000E+00
 -1      1163 1.45650E+02 5.00000E+01 0.00000E+00
 -1      1164 1.48575E+02 5.00000E+01 0.00000E+00
 -1      1165 1.50000E+00 0.00000E+00 0.00000E+00
 -1      1166 4.50000E+00 0.00000E+00 0.00000E+00
 -1      1167 7.50000E+00 0.00000E+00 0.00000E+00
 -1      1168 1.05000E+01 0.00000E+00 0.00000E+00
 -1      1169 1.35000E+01 0.00000E+00 0.00000E+00
 -1      1170 1.65000E+01 0.00000E+00 0.00000E+00
 -1      1171 1.95000E+01 0.00000E+00 0.00000E+00
 -1      1172 2.24250E+01 0.00000E+00 0.00000E+00
 -1      1173 2.53500E+01 0.00000E+00 0.00000E+00
 -1      1174 2.83500E+01 0.00000E+00 0.00000E+00
 -1      1175 3.13500E+01 0.00000E+00 0.00000E+00
 -1      1176 3.43500E+01 0.00000E+00 0.00000E+00
 -1      1177 3.73500E+01 0.00000E+00 0.00000E+00
 -1      1178 4.03500E+01 0.00000E+00 0.00000E+00
 -1      1179 4.32750E+01 0.00000E+00 0.00000E+00
 -1      1180 4.62000E+01 0.00000E+00 0.00000E+00
 -1      1181 4.92000E+01 0.00000E+00 0.00000E+00
 -1      1182 5.22000E+01 0.00000E+00 0.00000E+00
 -1      1183 5.52000E+01 0.00000E+00 0.00000E+00
 -1      1184 5.79750E+01 0.00000E+00 0.00000E+00
 -1      1185 6.04500E+01 0.00000E+00 0.00000E+00
 -1      1186 6.27750E+01 0.00000E+00 0.00000E+00
 -1      1187 6.52500E+01 0.00000E+00 0.00000E+00
 -1      1188 6.81000E+01 0.00000E+00 0.00000E+00
 -1      1189 7.11000E+01 0.00000E+00 0.00000E+00
 -1      1190 7.41000E+01 0.00000E+00 0.00000E+00
 -1      1191 7.71000E+01 0.00000E+00 0.00000E+00
 -1      1192 8.01000E+01 0.00000E+00 0.00000E+00
 -1      1193 8.31000E+01 0.00000E+00 0.00000E+00
 -1      1194 8.60250E+01 0.00000E+00 0.00000E+00
 -1      1195 8.89500E+01 0.00000E+00 0.00000E+00
 -1      1196 9.19500E+01 0.00000E+00 0.00000E+00
 -1      1197 9.49500E+01 0.00000E+00 0.00000E+00
 -1      1198 9.79500E+01 0.00000E+00 0.00000E+00
 -1      1199 1.00950E+02 0.00000E+00 0.00000E+00
 -1      1200 1.03950E+02 0.00000E+00 0.00000E+00
 -1      1201 1.06875E+02 0.00000E+00 0.00000E+00
 -1      1202 1.09800E+02 0.00000E+00 0.00000E+00
 -1      1203 1.12800E+02 0.00000E+00 0.00000E+00
 -1      1204 1.15800E+02 0.00000E+00 0.00000E+00
 -1      1205 1.18800E+02 0.00000E+00 0.00000E+00
 -1      1206 1.21800E+02 0.00000E+00 0.00000E+00
 -1      1207 1.24800E+02 0.00000E+00 0.00000E+00
 -1      1208 1.27725E+02 0.00000E+00 0.00000E+00
 -1      1209 1.30650E+02 0.00000E+00 0.00000E+00
 -1      1210 1.33650E+02 0.00000E+00 0.00000E+00
 -1      1211 1.36650E+02 0.00000E+00 0.00000E+00
 -1      1212 1.39650E+02 0.00000E+00 0.00000E+00
 -1      1213 1.42650E+02 0.00000E+00 0.00000E+00
 -1      1214 1.45650E+02 0.00000E+00 0.00000E+00
 -1      1215 1.48575E+02 0.00000E+00 0.00000E+00
 -1      1216 1.50000E+02 1.47500E+00 0.00000E+00
 -1      1217 1.50000E+02 4.42500E+00 0.00000E+00
 -1      1218 1.50000E+02 7.37500E+00 0.00000E+00
 -1      1219 1.50000E+02 1.03250E+01 0.00000E+00
 -1      1220 1.50000E+02 1.32750E+01 0.00000E+00
 -1      1221 1.50000E+02 1.62000E+01 0.00000E+00
 -1      1222 1.50000E+02 1.91250E+01 0.00000E+00
 -1      1223 1.50000E+02 2.20750E+01 0.00000E+00
 -1      1224 1.50000E+02 2.50250E+01 0.00000E+00
 -1      1225 1.50000E+02 2.79750E+01 0.00000E+00
 -1      1226 1.50000E+02 3.09250E+01 0.00000E+00
 -1      1227 1.50000E+02 3.38500E+01 0.00000E+00
 -1      1228 1.50000E+02 3.67750E+01 0.00000E+00
 -1      1229 1.50000E+02 3.97250E+01 0.00000E+00
 -1      1230 1.50000E+02 4.26750E+01 0.00000E+00
 -1      1231 1.50000E+02 4.56250E+01 0.00000E+00
 -1      1232 1.50000E+02 4.85500E+01 0.00000E+00
 -1      1233 6.89892E+01 1.38801E+01 0.00000E+00
 -1      1234 6.86826E+01 1.24450E+01 0.00000E+00
 -1      1235 6.80885E+01 1.11138E+01 0.00000E+00
 -1      1236 6.72544E+01 9.96008E+00 0.00000E+00
 -1      1237 6.61667E+01 8.97138E+00 0.00000E+00
 -1      1238 6.48500E+01 8.21092E+00 0.00000E+00
 -1      1239 6.34436E+01 7.76153E+00 0.00000E+00
 -1      1240 6.20233E+01 7.61691E+00 0.00000E+00
 -1      1241 6.05889E+01 7.76645E+00 0.00000E+00
 -1      1242 5.92094E+01 8.20950E+00 0.00000E+00
 -1      1243 5.79456E+01 8.93066E+00 0.00000E+00
 -1      1244 5.68541E+01 9.90207E+00 0.00000E+00
 -1      1245 5.59872E+01 1.10802E+01 0.00000E+00
 -1      1246 5.53918E+01 1.23900E+01 0.00000E+00
 -1      1247 5.50809E+01 1.37586E+01 0.00000E+00
 -1      1248 5.50533E+01 1.52104E+01 0.00000E+00
 -1      1249 5.53198E+01 1.66166E+01 0.00000E+00
 -1      1250 5.58598E+01 1.79264E+01 0.00000E+00
 -1      1251 5.66793E+01 1.91325E+01 0.00000E+00
 -1      1252 5.77299E+01 2.01419E+01 0.00000E+00
 -1      1253 5.89442E+01 2.09010E+01 0.00000E+00
 -1      1254 6.03090E+01 2.14025E+01 0.00000E+00
 -1      1255 6.18230E+01 2.16139E+01 0.00000E+00
 -1      1256 6.33448E+01 2.14920E+01 0.00000E+00
 -1      1257 6.47657E+01 2.10594E+01 0.00000E+00
 -1      1258 6.60658E+01 2.03350E+01 0.00000E+00
 -1      1259 6.71912E+01 1.93437E+01 0.00000E+00
 -1      1260 6.80682E+01 1.81548E+01 0.00000E+00
 -1      1261 6.86792E+01 1.67994E+01 0.00000E+00
 -1      1262 6.89905E+01 1.53417E+01 0.00000E+00
 -1      1263 1.57500E+00 4.85250E+01 0.00000E+00
 -1      1264 1.29900E+00 4.48375E+01 0.00000E+00
 -1      1265 1.29900E+00 4.63125E+01 0.00000E+00
 -1      1266 1.29900E+00 4.18875E+01 0.00000E+00
 -1      1267 1.29900E+00 4.33625E+01 0.00000E+00
 -1      1268 2.59800E+00 4.41000E+01 0.00000E+00
 -1      1269 1.29900E+00 3.89375E+01 0.00000E+00
 -1      1270 1.29900E+00 4.04125E+01 0.00000E+00
 -1      1271 2.59800E+00 4.11500E+01 0.00000E+00
 -1      1272 1.29900E+00 3.59875E+01 0.00000E+00
 -1      1273 1.29900E+00 3.74625E+01 0.00000E+00
 -1      1274 2.59800E+00 3.82000E+01 0.00000E+00
 -1      1275 1.29900E+00 3.30875E+01 0.00000E+00
 -1      1276 1.29900E+00 3.45375E+01 0.00000E+00
 -1      1277 2.59800E+00 3.52750E+01 0.00000E+00
 -1      1278 1.29900E+00 3.01375E+01 0.00000E+00
 -1      1279 1.29900E+00 3.16125E+01 0.00000E+00
 -1      1280 2.59800E+00 3.23500E+01 0.00000E+00
 -1      1281 1.29900E+00 2.71875E+01 0.00000E+00
 -1      1282 1.29900E+00 2.86625E+01 0.00000E+00
 -1      1283 2.59800E+00 2.94000E+01 0.00000E+00
 -1      1284 1.29900E+00 2.42375E+01 0.00000E+00
 -1      1285 1.29900E+00 2.57125E+01 0.00000E+00
 -1      1286 2.59800E+00 2.64500E+01 0.00000E+00
 -1      1287 1.29900E+00 2.12875E+01 0.00000E+00
 -1      1288 1.29900E+00 2.27625E+01 0.00000E+00
 -1      1289 2.59800E+00 2.35000E+01 0.00000E+00
 -1      1290 1.29900E+00 1.83375E+01 0.00000E+00
 -1      1291 1.29900E+00 1.98125E+01 0.00000E+00
 -1      1292 2.59800E+00 2.05500E+01 0.00000E+00
 -1      1293 1.29900E+00 1.54375E+01 0.00000E+00
 -1      1294 1.29900E+00 1.68875E+01 0.00000E+00
 -1      1295 2.59800E+00 1.76250E+01 0.00000E+00
 -1      1296 1.29900E+00 1.24875E+01 0.00000E+00
 -1      1297 1.29900E+00 1.39625E+01 0.00000E+00
 -1      1298 2.59800E+00 1.47000E+01 0.00000E+00
 -1      1299 1.29900E+00 9.53750E+00 0.00000E+00
 -1      1300 1.29900E+00 1.10125E+01 0.00000E+00
 -1      1301 2.59800E+00 1.17500E+01 0.00000E+00
 -1      1302 1.29900E+00 6.58750E+00 0.00000E+00
 -1      1303 1.29900E+00 8.06250E+00 0.00000E+00
 -1      1304 2.59800E+00 8.80000E+00 0.00000E+00
 -1      1305 1.29900E+00 3.63750E+00 0.00000E+00
 -1      1306 1.29900E+00 5.11250E+00 0.00000E+00
 -1      1307 2.59800E+00 5.85000E+00 0.00000E+00
 -1      1308 1.50000E+00 1.45000E+00 0.00000E+00
 -1      1309 3.90000E+00 4.87010E+01 0.00000E+00
 -1      1310 5.40000E+00 4.87010E+01 0.00000E+00
 -1      1311 6.90000E+00 4.87010E+01 0.00000E+00
 -1      1312 8.40000E+00 4.87010E+01 0.00000E+00
 -1      1313 6.15000E+00 4.74020E+01 0.00000E+00
 -1      1314 9.90000E+00 4.87010E+01 0.00000E+00
 -1      1315 1.14000E+01 4.87010E+01 0.00000E+00
 -1      1316 9.15000E+00 4.74020E+01 0.00000E+00
 -1      1317 1.29000E+01 4.87010E+01 0.00000E+00
 -1      1318 1.44000E+01 4.87010E+01 0.00000E+00
 -1      1319 1.21500E+01 4.74020E+01 0.00000E+00
 -1      1320 1.59000E+01 4.87010E+01 0.00000E+00
 -1      1321 1.74000E+01 4.87010E+01 0.00000E+00
 -1      1322 1.51500E+01 4.74020E+01 0.00000E+00
 -1      1323 1.89000E+01 4.87010E+01 0.00000E+00
 -1      1324 2.04000E+01 4.87010E+01 0.00000E+00
 -1      1325 1.81500E+01 4.74020E+01 0.00000E+00
 -1      1326 2.19000E+01 4.87010E+01 0.00000E+00
 -1      1327 2.34000E+01 4.87010E+01 0.00000E+00
 -1      1328 2.11500E+01 4.74020E+01 0.00000E+00
 -1      1329 2.49000E+01 4.87010E+01 0.00000E+00
 -1      1330 2.64000E+01 4.87010E+01 0.00000E+00
 -1      1331 2.41500E+01 4.74020E+01 0.00000E+00
 -1      1332 2.79000E+01 4.87010E+01 0.00000E+00
 -1      1333 2.94000E+01 4.87010E+01 0.00000E+00
 -1      1334 2.71500E+01 4.74020E+01 0.00000E+00
 -1      1335 3.09000E+01 4.87010E+01 0.00000E+00
 -1      1336 3.24000E+01 4.87010E+01 0.00000E+00
 -1      1337 3.01500E+01 4.74020E+01 0.00000E+00
 -1      1338 3.39000E+01 4.87010E+01 0.00000E+00
 -1      1339 3.54000E+01 4.87010E+01 0.00000E+00
 -1      1340 3.31500E+01 4.74020E+01 0.00000E+00
 -1      1341 3.69000E+01 4.87010E+01 0.00000E+00
 -1      1342 3.84000E+01 4.87010E+01 0.00000E+00
 -1      1343 3.61500E+01 4.74020E+01 0.00000E+00
 -1      1344 3.99000E+01 4.87010E+01 0.00000E+00
 -1      1345 4.14000E+01 4.87010E+01 0.00000E+00
 -1      1346 3.91500E+01 4.74020E+01 0.00000E+00
 -1      1347 4.29000E+01 4.87010E+01 0.00000E+00
 -1      1348 4.44000E+01 4.87010E+01 0.00000E+00
 -1      1349 4.21500E+01 4.74020E+01 0.00000E+00
 -1      1350 4.59000E+01 4.87010E+01 0.00000E+00
 -1      1351 4.74000E+01 4.87010E+01 0.00000E+00
 -1      1352 4.51500E+01 4.74020E+01 0.00000E+00
 -1      1353 4.89000E+01 4.87010E+01 0.00000E+00
 -1      1354 5.04000E+01 4.87010E+01 0.00000E+00
 -1      1355 4.81500E+01 4.74020E+01 0.00000E+00
 -1      1356 5.19000E+01 4.87010E+01 0.00000E+00
 -1      1357 5.34000E+01 4.87010E+01 0.00000E+00
 -1      1358 5.11500E+01 4.74020E+01 0.00000E+00
 -1      1359 5.49000E+01 4.87010E+01 0.00000E+00
 -1      1360 5.64000E+01 4.87010E+01 0.00000E+00
 -1      1361 5.41500E+01 4.74020E+01 0.00000E+00
 -1      1362 5.79000E+01 4.87010E+01 0.00000E+00
 -1      1363 5.94000E+01 4.87010E+01 0.00000E+00
 -1      1364 5.71500E+01 4.74020E+01 0.00000E+00
 -1      1365 6.09000E+01 4.87010E+01 0.00000E+00
 -1      1366 6.24000E+01 4.87010E+01 0.00000E+00
 -1      1367 6.01500E+01 4.74020E+01 0.00000E+00
 -1      1368 6.39000E+01 4.87010E+01 0.00000E+00
 -1      1369 6.54000E+01 4.87010E+01 0.00000E+00
 -1      1370 6.31500E+01 4.74020E+01 0.00000E+00
 -1      1371 6.69000E+01 4.87010E+01 0.00000E+00
 -1      1372 6.84000E+01 4.87010E+01 0.00000E+00
 -1      1373 6.61500E+01 4.74020E+01 0.00000E+00
 -1      1374 6.99000E+01 4.87010E+01 0.00000E+00
 -1      1375 7.14000E+01 4.87010E+01 0.00000E+00
 -1      1376 6.91500E+01 4.74020E+01 0.00000E+00
 -1      1377 7.29000E+01 4.87010E+01 0.00000E+00
 -1      1378 7.44000E+01 4.87010E+01 0.00000E+00
 -1      1379 7.21500E+01 4.74020E+01 0.00000E+00
 -1      1380 7.59000E+01 4.87010E+01 0.00000E+00
 -1      1381 7.74000E+01 4.87010E+01 0.00000E+00
 -1      1382 7.51500E+01 4.74020E+01 0.00000E+00
 -1      1383 7.89000E+01 4.87010E+01 0.00000E+00
 -1      1384 8.04000E+01 4.87010E+01 0.00000E+00
 -1      1385 7.81500E+01 4.74020E+01 0.00000E+00
 -1      1386 8.19000E+01 4.87010E+01 0.00000E+00
 -1      1387 8.34000E+01 4.87010E+01 0.00000E+00
 -1      1388 8.11500E+01 4.74020E+01 0.00000E+00
 -1      1389 8.49000E+01 4.87010E+01 0.00000E+00
 -1      1390 8.64000E+01 4.87010E+01 0.00000E+00
 -1      1391 8.41500E+01 4.74020E+01 0.00000E+00
 -1      1392 8.79000E+01 4.87010E+01 0.00000E+00
 -1      1393 8.94000E+01 4.87010E+01 0.00000E+00
 -1      1394 8.71500E+01 4.74020E+01 0.00000E+00
 -1      1395 9.09000E+01 4.87010E+01 0.00000E+00
 -1      1396 9.24000E+01 4.87010E+01 0.00000E+00
 -1      1397 9.01500E+01 4.74020E+01 0.00000E+00
 -1      1398 9.39000E+01 4.87010E+01 0.00000E+00
 -1      1399 9.54000E+01 4.87010E+01 0.00000E+00
 -1      1400 9.31500E+01 4.74020E+01 0.00000E+00
 -1      1401 9.69000E+01 4.87010E+01 0.00000E+00
 -1      1402 9.84000E+01 4.87010E+01 0.00000E+00
 -1      1403 9.61500E+01 4.74020E+01 0.00000E+00
 -1      1404 9.99000E+01 4.87010E+01 0.00000E+00
 -1      1405 1.01400E+02 4.87010E+01 0.00000E+00
 -1      1406 9.91500E+01 4.74020E+01 0.00000E+00
 -1      1407 1.02900E+02 4.87010E+01 0.00000E+00
 -1      1408 1.04400E+02 4.87010E+01 0.00000E+00
 -1      1409 1.02150E+02 4.74020E+01 0.00000E+00
 -1      1410 1.05900E+02 4.87010E+01 0.00000E+00
 -1      1411 1.07400E+02 4.87010E+01 0.00000E+00
 -1      1412 1.05150E+02 4.74020E+01 0.00000E+00
 -1      1413 1.08900E+02 4.87010E+01 0.00000E+00
 -1      1414 1.10400E+02 4.87010E+01 0.00000E+00
 -1      1415 1.08150E+02 4.74020E+01 0.00000E+00
 -1      1416 1.11900E+02 4.87010E+01 0.00000E+00
 -1      1417 1.13400E+02 4.87010E+01 0.00000E+00
 -1      1418 1.11150E+02 4.74020E+01 0.00000E+00
 -1      1419 1.14900E+02 4.87010E+01 0.00000E+00
 -1      1420 1.16400E+02 4.87010E+01 0.00000E+00
 -1      1421 1.14150E+02 4.74020E+01 0.00000E+00
 -1      1422 1.17900E+02 4.87010E+01 0.00000E+00
 -1      1423 1.19400E+02 4.87010E+01 0.00000E+00
 -1      1424 1.17150E+02 4.74020E+01 0.00000E+00
 -1      1425 1.20900E+02 4.87010E+01 0.00000E+00
 -1      1426 1.22400E+02 4.87010E+01 0.00000E+00
 -1      1427 1.20150E+02 4.74020E+01 0.00000E+00
 -1      1428 1.23900E+02 4.87010E+01 0.00000E+00
 -1      1429 1.25400E+02 4.87010E+01 0.00000E+00
 -1      1430 1.23150E+02 4.74020E+01 0.00000E+00
 -1      1431 1.26900E+02 4.87010E+01 0.00000E+00
 -1      1432 1.28400E+02 4.87010E+01 0.00000E+00
 -1      1433 1.26150E+02 4.74020E+01 0.00000E+00
 -1      1434 1.29900E+02 4.87010E+01 0.00000E+00
 -1      1435 1.31400E+02 4.87010E+01 0.00000E+00
 -1      1436 1.29150E+02 4.74020E+01 0.00000E+00
 -1      1437 1.32900E+02 4.87010E+01 0.00000E+00
 -1      1438 1.34400E+02 4.87010E+01 0.00000E+00
 -1      1439 1.32150E+02 4.74020E+01 0.00000E+00
 -1      1440 1.35900E+02 4.87010E+01 0.00000E+00
 -1      1441 1.37400E+02 4.87010E+01 0.00000E+00
 -1      1442 1.35150E+02 4.74020E+01 0.00000E+00
 -1      1443 1.38900E+02 4.87010E+01 0.00000E+00
 -1      1444 1.40400E+02 4.87010E+01 0.00000E+00
 -1      1445 1.38150E+02 4.74020E+01 0.00000E+00
 -1      1446 1.41900E+02 4.87010E+01 0.00000E+00
 -1      1447 1.43400E+02 4.87010E+01 0.00000E+00
 -1      1448 1.41150E+02 4.74020E+01 0.00000E+00
 -1      1449 1.44900E+02 4.87010E+01 0.00000E+00
 -1      1450 1.46400E+02 4.87010E+01 0.00000E+00
 -1      1451 1.44150E+02 4.74020E+01 0.00000E+00
 -1      1452 1.48575E+02 4.85500E+01 0.00000E+00
 -1      1453 1.47825E+02 4.72510E+01 0.00000E+00
 -1      1454 5.25000E+00 1.29900E+00 0.00000E+00
 -1      1455 3.75000E+00 1.29900E+00 0.00000E+00
 -1      1456 8.25000E+00 1.29900E+00 0.00000E+00
 -1      1457 6.75000E+00 1.29900E+00 0.00000E+00
 -1      1458 6.00000E+00 2.59800E+00 0.00000E+00
 -1      1459 1.12500E+01 1.29900E+00 0.00000E+00
 -1      1460 9.75000E+00 1.29900E+00 0.00000E+00
 -1      1461 9.00000E+00 2.59800E+00 0.00000E+00
 -1      1462 1.42500E+01 1.29900E+00 0.00000E+00
 -1      1463 1.27500E+01 1.29900E+00 0.00000E+00
 -1      1464 1.20000E+01 2.59800E+00 0.00000E+00
 -1      1465 1.72500E+01 1.29900E+00 0.00000E+00
 -1      1466 1.57500E+01 1.29900E+00 0.00000E+00
 -1      1467 1.50000E+01 2.59800E+00 0.00000E+00
 -1      1468 2.02500E+01 1.29900E+00 0.00000E+00
 -1      1469 1.87500E+01 1.29900E+00 0.00000E+00
 -1      1470 1.80000E+01 2.59800E+00 0.00000E+00
 -1      1471 2.31000E+01 1.29900E+00 0.00000E+00
 -1      1472 2.16750E+01 1.29900E+00 0.00000E+00
 -1      1473 2.09250E+01 2.59800E+00 0.00000E+00
 -1      1474 2.61000E+01 1.29900E+00 0.00000E+00
 -1      1475 2.46000E+01 1.29900E+00 0.00000E+00
 -1      1476 2.38500E+01 2.59800E+00 0.00000E+00
 -1      1477 2.91000E+01 1.29900E+00 0.00000E+00
 -1      1478 2.76000E+01 1.29900E+00 0.00000E+00
 -1      1479 2.68500E+01 2.59800E+00 0.00000E+00
 -1      1480 3.21000E+01 1.29900E+00 0.00000E+00
 -1      1481 3.06000E+01 1.29900E+00 0.00000E+00
 -1      1482 2.98500E+01 2.59800E+00 0.00000E+00
 -1      1483 3.51000E+01 1.29900E+00 0.00000E+00
 -1      1484 3.36000E+01 1.29900E+00 0.00000E+00
 -1      1485 3.28500E+01 2.59800E+00 0.00000E+00
 -1      1486 3.81000E+01 1.29900E+00 0.00000E+00
 -1      1487 3.66000E+01 1.29900E+00 0.00000E+00
 -1      1488 3.58500E+01 2.59800E+00 0.00000E+00
 -1      1489 4.11000E+01 1.29900E+00 0.00000E+00
 -1      1490 3.96000E+01 1.29900E+00 0.00000E+00
 -1      1491 3.88500E+01 2.59800E+00 0.00000E+00
 -1      1492 4.39500E+01 1.29900E+00 0.00000E+00
 -1      1493 4.25250E+01 1.29900E+00 0.00000E+00
 -1      1494 4.17750E+01 2.59800E+00 0.00000E+00
 -1      1495 4.69500E+01 1.29900E+00 0.00000E+00
 -1      1496 4.54500E+01 1.29900E+00 0.00000E+00
 -1      1497 4.47000E+01 2.59800E+00 0.00000E+00
 -1      1498 4.99500E+01 1.29900E+00 0.00000E+00
 -1      1499 4.84500E+01 1.29900E+00 0.00000E+00
 -1      1500 4.77000E+01 2.59800E+00 0.00000E+00
 -1      1501 5.29500E+01 1.29900E+00 0.00000E+00
 -1      1502 5.14500E+01 1.29900E+00 0.00000E+00
 -1      1503 5.07000E+01 2.59800E+00 0.00000E+00
 -1      1504 5.59500E+01 1.29900E+00 0.00000E+00
 -1      1505 5.44500E+01 1.29900E+00 0.00000E+00
 -1      1506 5.37000E+01 2.59800E+00 0.00000E+00
 -1      1507 5.85000E+01 1.29900E+00 0.00000E+00
 -1      1508 5.72250E+01 1.29900E+00 0.00000E+00
 -1      1509 5.64750E+01 2.59800E+00 0.00000E+00
 -1      1510 6.09000E+01 1.29900E+00 0.00000E+00
 -1      1511 5.97000E+01 1.29900E+00 0.00000E+00
 -1      1512 5.89500E+01 2.59800E+00 0.00000E+00
 -1      1513 6.31500E+01 1.29900E+00 0.00000E+00
 -1      1514 6.20250E+01 1.29900E+00 0.00000E+00
 -1      1515 6.12750E+01 2.59800E+00 0.00000E+00
 -1      1516 6.58500E+01 1.29900E+00 0.00000E+00
 -1      1517 6.45000E+01 1.29900E+00 0.00000E+00
 -1      1518 6.37500E+01 2.59800E+00 0.00000E+00
 -1      1519 6.88500E+01 1.29900E+00 0.00000E+00
 -1      1520 6.73500E+01 1.29900E+00 0.00000E+00
 -1      1521 6.66000E+01 2.59800E+00 0.00000E+00
 -1      1522 7.18500E+01 1.29900E+00 0.00000E+00
 -1      1523 7.03500E+01 1.29900E+00 0.00000E+00
 -1      1524 6.96000E+01 2.59800E+00 0.00000E+00
 -1      1525 7.48500E+01 1.29900E+00 0.00000E+00
 -1      1526 7.33500E+01 1.29900E+00 0.00000E+00
 -1      1527 7.26000E+01 2.59800E+00 0.00000E+00
 -1      1528 7.78500E+01 1.29900E+00 0.00000E+00
 -1      1529 7.63500E+01 1.29900E+00 0.00000E+00
 -1      1530 7.56000E+01 2.59800E+00 0.00000E+00
 -1      1531 8.08500E+01 1.29900E+00 0.00000E+00
 -1      1532 7.93500E+01 1.29900E+00 0.00000E+00
 -1      1533 7.86000E+01 2.59800E+00 0.00000E+00
 -1      1534 8.38500E+01 1.29900E+00 0.00000E+00
 -1      1535 8.23500E+01 1.29900E+00 0.00000E+00
 -1      1536 8.16000E+01 2.59800E+00 0.00000E+00
 -1      1537 8.67000E+01 1.29900E+00 0.00000E+00
 -1      1538 8.52750E+01 1.29900E+00 0.00000E+00
 -1      1539 8.45250E+01 2.59800E+00 0.00000E+00
 -1      1540 8.97000E+01 1.29900E+00 0.00000E+00
 -1      1541 8.82000E+01 1.29900E+00 0.00000E+00
 -1      1542 8.74500E+01 2.59800E+00 0.00000E+00
 -1      1543 9.27000E+01 1.29900E+00 0.00000E+00
 -1      1544 9.12000E+01 1.29900E+00 0.00000E+00
 -1      1545 9.04500E+01 2.59800E+00 0.00000E+00
 -1      1546 9.57000E+01 1.29900E+00 0.00000E+00
 -1      1547 9.42000E+01 1.29900E+00 0.00000E+00
 -1      1548 9.34500E+01 2.59800E+00 0.00000E+00
 -1      1549 9.87000E+01 1.29900E+00 0.00000E+00
 -1      1550 9.72000E+01 1.29900E+00 0.00000E+00
 -1      1551 9.64500E+01 2.59800E+00 0.00000E+00
 -1      1552 1.01700E+02 1.29900E+00 0.00000E+00
 -1      1553 1.00200E+02 1.29900E+00 0.00000E+00
 -1      1554 9.94500E+01 2.59800E+00 0.00000E+00
 -1      1555 1.04700E+02 1.29900E+00 0.00000E+00
 -1      1556 1.03200E+02 1.29900E+00 0.00000E+00
 -1      1557 1.02450E+02 2.59800E+00 0.00000E+00
 -1      1558 1.07550E+02 1.29900E+00 0.00000E+00
 -1      1559 1.06125E+02 1.29900E+00 0.00000E+00
 -1      1560 1.05375E+02 2.59800E+00 0.00000E+00
 -1      1561 1.10550E+02 1.29900E+00 0.00000E+00
 -1      1562 1.09050E+02 1.29900E+00 0.00000E+00
 -1      1563 1.08300E+02 2.59800E+00 0.00000E+00
 -1      1564 1.13550E+02 1.29900E+00 0.00000E+00
 -1      1565 1.12050E+02 1.29900E+00 0.00000E+00
 -1      1566 1.11300E+02 2.59800E+00 0.00000E+00
 -1      1567 1.16550E+02 1.29900E+00 0.00000E+00
 -1      1568 1.15050E+02 1.29900E+00 0.00000E+00
 -1      1569 1.14300E+02 2.59800E+00 0.00000E+00
 -1      1570 1.19550E+02 1.29900E+00 0.00000E+00
 -1      1571 1.18050E+02 1.29900E+00 0.00000E+00
 -1      1572 1.17300E+02 2.59800E+00 0.00000E+00
 -1      1573 1.22550E+02 1.29900E+00 0.00000E+00
 -1      1574 1.21050E+02 1.29900E+00 0.00000E+00
 -1      1575 1.20300E+02 2.59800E+00 0.00000E+00
 -1      1576 1.25550E+02 1.29900E+00 0.00000E+00
 -1      1577 1.24050E+02 1.29900E+00 0.00000E+00
 -1      1578 1.23300E+02 2.59800E+00 0.00000E+00
 -1      1579 1.28400E+02 1.29900E+00 0.00000E+00
 -1      1580 1.26975E+02 1.29900E+00 0.00000E+00
 -1      1581 1.26225E+02 2.59800E+00 0.00000E+00
 -1      1582 1.31400E+02 1.29900E+00 0.00000E+00
 -1      1583 1.29900E+02 1.29900E+00 0.00000E+00
 -1      1584 1.29150E+02 2.59800E+00 0.00000E+00
 -1      1585 1.34400E+02 1.29900E+00 0.00000E+00
 -1      1586 1.32900E+02 1.29900E+00 0.00000E+00
 -1      1587 1.32150E+02 2.59800E+00 0.00000E+00
 -1      1588 1.37400E+02 1.29900E+00 0.00000E+00
 -1      1589 1.35900E+02 1.29900E+00 0.00000E+00
 -1      1590 1.35150E+02 2.59800E+00 0.00000E+00
 -1      1591 1.40400E+02 1.29900E+00 0.00000E+00
 -1      1592 1.38900E+02 1.29900E+00 0.00000E+00
 -1      1593 1.38150E+02 2.59800E+00 0.00000E+00
 -1      1594 1.43400E+02 1.29900E+00 0.00000E+00
 -1      1595 1.41900E+02 1.29900E+00 0.00000E+00
 -1      1596 1.41150E+02 2.59800E+00 0.00000E+00
 -1      1597 1.46400E+02 1.29900E+00 0.00000E+00
 -1      1598 1.44900E+02 1.29900E+00 0.00000E+00
 -1      1599 1.44150E+02 2.59800E+00 0.00000E+00
 -1      1600 1.48575E+02 1.47500E+00 0.00000E+00
 -1      1601 1.48701E+02 5.16250E+00 0.00000E+00
 -1      1602 1.48701E+02 3.68750E+00 0.00000E+00
 -1      1603 1.48701E+02 8.11250E+00 0.00000E+00
 -1      1604 1.48701E+02 6.63750E+00 0.00000E+00
 -1      1605 1.47402E+02 5.90000E+00 0.00000E+00
 -1      1606 1.48701E+02 1.10625E+01 0.00000E+00
 -1      1607 1.48701E+02 9.58750E+00 0.00000E+00
 -1      1608 1.47402E+02 8.85000E+00 0.00000E+00
 -1      1609 1.48701E+02 1.40125E+01 0.00000E+00
 -1      1610 1.48701E+02 1.25375E+01 0.00000E+00
 -1      1611 1.47402E+02 1.18000E+01 0.00000E+00
 -1      1612 1.48701E+02 1.69125E+01 0.00000E+00
 -1      1613 1.48701E+02 1.54625E+01 0.00000E+00
 -1      1614 1.47402E+02 1.47250E+01 0.00000E+00
 -1      1615 1.48701E+02 1.98625E+01 0.00000E+00
 -1      1616 1.48701E+02 1.83875E+01 0.00000E+00
 -1      1617 1.47402E+02 1.76500E+01 0.00000E+00
 -1      1618 1.48701E+02 2.28125E+01 0.00000E+00
 -1      1619 1.48701E+02 2.13375E+01 0.00000E+00
 -1      1620 1.47402E+02 2.06000E+01 0.00000E+00
 -1      1621 1.48701E+02 2.57625E+01 0.00000E+00
 -1      1622 1.48701E+02 2.42875E+01 0.00000E+00
 -1      1623 1.47402E+02 2.35500E+01 0.00000E+00
 -1      1624 1.48701E+02 2.87125E+01 0.00000E+00
 -1      1625 1.48701E+02 2.72375E+01 0.00000E+00
 -1      1626 1.47402E+02 2.65000E+01 0.00000E+00
 -1      1627 1.48701E+02 3.16625E+01 0.00000E+00
 -1      1628 1.48701E+02 3.01875E+01 0.00000E+00
 -1      1629 1.47402E+02 2.94500E+01 0.00000E+00
 -1      1630 1.48701E+02 3.45625E+01 0.00000E+00
 -1      1631 1.48701E+02 3.31125E+01 0.00000E+00
 -1      1632 1.47402E+02 3.23750E+01 0.00000E+00
 -1      1633 1.48701E+02 3.75125E+01 0.00000E+00
 -1      1634 1.48701E+02 3.60375E+01 0.00000E+00
 -1      1635 1.47402E+02 3.53000E+01 0.00000E+00
 -1      1636 1.48701E+02 4.04625E+01 0.00000E+00
 -1      1637 1.48701E+02 3.89875E+01 0.00000E+00
 -1      1638 1.47402E+02 3.82500E+01 0.00000E+00
 -1      1639 1.48701E+02 4.34125E+01 0.00000E+00
 -1      1640 1.48701E+02 4.19375E+01 0.00000E+00
 -1      1641 1.47402E+02 4.12000E+01 0.00000E+00
 -1      1642 1.48263E+02 4.60692E+01 0.00000E+00
 -1      1643 1.48263E+02 4.45942E+01 0.00000E+00
 -1      1644 1.46964E+02 4.38568E+01 0.00000E+00
 -1      1645 1.46088E+02 4.62202E+01 0.00000E+00
 -1      1646 6.95563E+01 1.34497E+01 0.00000E+00
 -1      1647 6.96338E+01 1.41824E+01 0.00000E+00
 -1      1648 6.91092E+01 1.19215E+01 0.00000E+00
 -1      1649 6.93359E+01 1.26161E+01 0.00000E+00
 -1      1650 6.84349E+01 1.04937E+01 0.00000E+00
 -1      1651 6.87987E+01 1.11232E+01 0.00000E+00
 -1      1652 6.74493E+01 9.31986E+00 0.00000E+00
 -1      1653 6.79127E+01 9.83997E+00 0.00000E+00
 -1      1654 6.62375E+01 8.22087E+00 0.00000E+00
 -1      1655 6.68611E+01 8.67803E+00 0.00000E+00
 -1      1656 6.47364E+01 7.54215E+00 0.00000E+00
 -1      1657 6.54202E+01 7.84339E+00 0.00000E+00
 -1      1658 6.32099E+01 7.09039E+00 0.00000E+00
 -1      1659 6.39241E+01 7.23785E+00 0.00000E+00
 -1      1660 6.16737E+01 7.04588E+00 0.00000E+00
 -1      1661 6.23721E+01 7.04541E+00 0.00000E+00
 -1      1662 6.00913E+01 7.20642E+00 0.00000E+00
 -1      1663 6.08191E+01 7.05353E+00 0.00000E+00
 -1      1664 5.86400E+01 7.79087E+00 0.00000E+00
 -1      1665 5.92855E+01 7.50688E+00 0.00000E+00
 -1      1666 5.72622E+01 8.62152E+00 0.00000E+00
 -1      1667 5.78712E+01 8.18424E+00 0.00000E+00
 -1      1668 5.61932E+01 9.78110E+00 0.00000E+00
 -1      1669 5.66724E+01 9.25525E+00 0.00000E+00
 -1      1670 5.52369E+01 1.10762E+01 0.00000E+00
 -1      1671 5.56165E+01 1.04279E+01 0.00000E+00
 -1      1672 5.47398E+01 1.25338E+01 0.00000E+00
 -1      1673 5.49585E+01 1.18821E+01 0.00000E+00
 -1      1674 5.44303E+01 1.40389E+01 0.00000E+00
 -1      1675 5.45180E+01 1.33283E+01 0.00000E+00
 -1      1676 5.44357E+01 1.56324E+01 0.00000E+00
 -1      1677 5.43733E+01 1.48989E+01 0.00000E+00
 -1      1678 5.48713E+01 1.71129E+01 0.00000E+00
 -1      1679 5.46727E+01 1.64469E+01 0.00000E+00
 -1      1680 5.55292E+01 1.85134E+01 0.00000E+00
 -1      1681 5.51879E+01 1.78774E+01 0.00000E+00
 -1      1682 5.64833E+01 1.97799E+01 0.00000E+00
 -1      1683 5.60083E+01 1.92172E+01 0.00000E+00
 -1      1684 5.76648E+01 2.08122E+01 0.00000E+00
 -1      1685 5.70962E+01 2.03698E+01 0.00000E+00
 -1      1686 5.90126E+01 2.15694E+01 0.00000E+00
 -1      1687 5.83737E+01 2.12559E+01 0.00000E+00
 -1      1688 6.05297E+01 2.20431E+01 0.00000E+00
 -1      1689 5.98100E+01 2.18608E+01 0.00000E+00
 -1      1690 6.21983E+01 2.22290E+01 0.00000E+00
 -1      1691 6.14124E+01 2.22059E+01 0.00000E+00
 -1      1692 6.38151E+01 2.19791E+01 0.00000E+00
 -1      1693 6.30879E+01 2.21184E+01 0.00000E+00
 -1      1694 6.53300E+01 2.14351E+01 0.00000E+00
 -1      1695 6.46445E+01 2.17264E+01 0.00000E+00
 -1      1696 6.67447E+01 2.06519E+01 0.00000E+00
 -1      1697 6.61373E+01 2.10807E+01 0.00000E+00
 -1      1698 6.78634E+01 1.94464E+01 0.00000E+00
 -1      1699 6.73528E+01 2.00042E+01 0.00000E+00
 -1      1700 6.87414E+01 1.81313E+01 0.00000E+00
 -1      1701 6.83770E+01 1.87535E+01 0.00000E+00
 -1      1702 6.93744E+01 1.66246E+01 0.00000E+00
 -1      1703 6.91357E+01 1.73521E+01 0.00000E+00
 -1      1704 6.95935E+01 1.50401E+01 0.00000E+00
 -1      1705 6.95185E+01 1.57610E+01 0.00000E+00
 -1      1706 2.79900E+00 2.18750E+00 0.00000E+00
 -1      1707 6.86558E+01 9.83038E+00 0.00000E+00
 -1      1708 1.47825E+02 2.77400E+00 0.00000E+00
 -1      1709 7.00192E+01 1.29143E+01 0.00000E+00
 -1      1710 6.94884E+01 1.12824E+01 0.00000E+00
 -1      1711 7.01992E+01 1.46056E+01 0.00000E+00
 -1      1712 6.75454E+01 8.53480E+00 0.00000E+00
 -1      1713 6.61399E+01 7.51549E+00 0.00000E+00
 -1      1714 6.45103E+01 6.83371E+00 0.00000E+00
 -1      1715 6.28603E+01 6.48443E+00 0.00000E+00
 -1      1716 6.11679E+01 6.44709E+00 0.00000E+00
 -1      1717 5.95076E+01 6.75519E+00 0.00000E+00
 -1      1718 5.79331E+01 7.44902E+00 0.00000E+00
 -1      1719 5.65745E+01 8.47613E+00 0.00000E+00
 -1      1720 5.54080E+01 9.75666E+00 0.00000E+00
 -1      1721 5.45528E+01 1.12093E+01 0.00000E+00
 -1      1722 5.40527E+01 1.28096E+01 0.00000E+00
 -1      1723 5.37740E+01 1.44641E+01 0.00000E+00
 -1      1724 5.39540E+01 1.61386E+01 0.00000E+00
 -1      1725 5.45077E+01 1.77175E+01 0.00000E+00
 -1      1726 5.53035E+01 1.91858E+01 0.00000E+00
 -1      1727 5.63954E+01 2.04795E+01 0.00000E+00
 -1      1728 5.77172E+01 2.15132E+01 0.00000E+00
 -1      1729 5.92235E+01 2.22482E+01 0.00000E+00
 -1      1730 6.09037E+01 2.27024E+01 0.00000E+00
 -1      1731 6.26759E+01 2.27547E+01 0.00000E+00
 -1      1732 6.43949E+01 2.23914E+01 0.00000E+00
 -1      1733 6.60317E+01 2.17843E+01 0.00000E+00
 -1      1734 6.74471E+01 2.07823E+01 0.00000E+00
 -1      1735 6.85687E+01 1.94417E+01 0.00000E+00
 -1      1736 6.94765E+01 1.79696E+01 0.00000E+00
 -1      1737 7.00149E+01 1.63269E+01 0.00000E+00
 -1      1738 2.87400E+00 4.77875E+01 0.00000E+00
 -1      1739 3.89700E+00 4.04125E+01 0.00000E+00
 -1      1740 3.89700E+00 4.18875E+01 0.00000E+00
 -1      1741 3.89700E+00 4.33625E+01 0.00000E+00
 -1      1742 3.89700E+00 4.48375E+01 0.00000E+00
 -1      1743 5.19600E+00 4.26250E+01 0.00000E+00
 -1      1744 3.89700E+00 3.45500E+01 0.00000E+00
 -1      1745 3.89700E+00 3.60000E+01 0.00000E+00
 -1      1746 3.89700E+00 3.16000E+01 0.00000E+00
 -1      1747 3.89700E+00 3.30750E+01 0.00000E+00
 -1      1748 5.19600E+00 3.38000E+01 0.00000E+00
 -1      1749 3.89700E+00 2.86500E+01 0.00000E+00
 -1      1750 3.89700E+00 3.01250E+01 0.00000E+00
 -1      1751 5.19600E+00 3.08500E+01 0.00000E+00
 -1      1752 3.89700E+00 2.57000E+01 0.00000E+00
 -1      1753 3.89700E+00 2.71750E+01 0.00000E+00
 -1      1754 5.19600E+00 2.79000E+01 0.00000E+00
 -1      1755 3.89700E+00 2.27500E+01 0.00000E+00
 -1      1756 3.89700E+00 2.42250E+01 0.00000E+00
 -1      1757 5.19600E+00 2.49500E+01 0.00000E+00
 -1      1758 3.89700E+00 1.98000E+01 0.00000E+00
 -1      1759 3.89700E+00 2.12750E+01 0.00000E+00
 -1      1760 5.19600E+00 2.20000E+01 0.00000E+00
 -1      1761 3.89700E+00 1.69000E+01 0.00000E+00
 -1      1762 3.89700E+00 1.83500E+01 0.00000E+00
 -1      1763 5.19600E+00 1.90750E+01 0.00000E+00
 -1      1764 3.89700E+00 1.39500E+01 0.00000E+00
 -1      1765 3.89700E+00 1.54250E+01 0.00000E+00
 -1      1766 5.19600E+00 1.61500E+01 0.00000E+00
 -1      1767 3.89700E+00 1.10000E+01 0.00000E+00
 -1      1768 3.89700E+00 1.24750E+01 0.00000E+00
 -1      1769 5.19600E+00 1.32000E+01 0.00000E+00
 -1      1770 3.89700E+00 8.05000E+00 0.00000E+00
 -1      1771 3.89700E+00 9.52500E+00 0.00000E+00
 -1      1772 5.19600E+00 1.02500E+01 0.00000E+00
 -1      1773 3.89700E+00 5.10000E+00 0.00000E+00
 -1      1774 3.89700E+00 6.57500E+00 0.00000E+00
 -1      1775 5.19600E+00 7.30000E+00 0.00000E+00
 -1      1776 6.89993E+01 9.02061E+00 0.00000E+00
 -1      1777 6.95214E+01 9.67436E+00 0.00000E+00
 -1      1778 3.62400E+00 4.64885E+01 0.00000E+00
 -1      1779 3.54900E+00 3.48650E+00 0.00000E+00
 -1      1780 8.40000E+00 4.61030E+01 0.00000E+00
 -1      1781 9.90000E+00 4.61030E+01 0.00000E+00
 -1      1782 1.14000E+01 4.61030E+01 0.00000E+00
 -1      1783 1.29000E+01 4.61030E+01 0.00000E+00
 -1      1784 1.06500E+01 4.48040E+01 0.00000E+00
 -1      1785 1.44000E+01 4.61030E+01 0.00000E+00
 -1      1786 1.59000E+01 4.61030E+01 0.00000E+00
 -1      1787 1.36500E+01 4.48040E+01 0.00000E+00
 -1      1788 1.74000E+01 4.61030E+01 0.00000E+00
 -1      1789 1.89000E+01 4.61030E+01 0.00000E+00
 -1      1790 1.66500E+01 4.48040E+01 0.00000E+00
 -1      1791 2.04000E+01 4.61030E+01 0.00000E+00
 -1      1792 2.19000E+01 4.61030E+01 0.00000E+00
 -1      1793 1.96500E+01 4.48040E+01 0.00000E+00
 -1      1794 2.34000E+01 4.61030E+01 0.00000E+00
 -1      1795 2.49000E+01 4.61030E+01 0.00000E+00
 -1      1796 2.26500E+01 4.48040E+01 0.00000E+00
 -1      1797 2.64000E+01 4.61030E+01 0.00000E+00
 -1      1798 2.79000E+01 4.61030E+01 0.00000E+00
 -1      1799 2.56500E+01 4.48040E+01 0.00000E+00
 -1      1800 2.94000E+01 4.61030E+01 0.00000E+00
 -1      1801 3.09000E+01 4.61030E+01 0.00000E+00
 -1      1802 2.86500E+01 4.48040E+01 0.00000E+00
 -1      1803 3.24000E+01 4.61030E+01 0.00000E+00
 -1      1804 3.39000E+01 4.61030E+01 0.00000E+00
 -1      1805 3.16500E+01 4.48040E+01 0.00000E+00
 -1      1806 3.54000E+01 4.61030E+01 0.00000E+00
 -1      1807 3.69000E+01 4.61030E+01 0.00000E+00
 -1      1808 3.46500E+01 4.48040E+01 0.00000E+00
 -1      1809 3.84000E+01 4.61030E+01 0.00000E+00
 -1      1810 3.99000E+01 4.61030E+01 0.00000E+00
 -1      1811 3.76500E+01 4.48040E+01 0.00000E+00
 -1      1812 4.14000E+01 4.61030E+01 0.00000E+00
 -1      1813 4.29000E+01 4.61030E+01 0.00000E+00
 -1      1814 4.06500E+01 4.48040E+01 0.00000E+00
 -1      1815 4.44000E+01 4.61030E+01 0.00000E+00
 -1      1816 4.59000E+01 4.61030E+01 0.00000E+00
 -1      1817 4.36500E+01 4.48040E+01 0.00000E+00
 -1      1818 4.74000E+01 4.61030E+01 0.00000E+00
 -1      1819 4.89000E+01 4.61030E+01 0.00000E+00
 -1      1820 4.66500E+01 4.48040E+01 0.00000E+00
 -1      1821 5.04000E+01 4.61030E+01 0.00000E+00
 -1      1822 5.19000E+01 4.61030E+01 0.00000E+00
 -1      1823 4.96500E+01 4.48040E+01 0.00000E+00
 -1      1824 5.34000E+01 4.61030E+01 0.00000E+00
 -1      1825 5.49000E+01 4.61030E+01 0.00000E+00
 -1      1826 5.26500E+01 4.48040E+01 0.00000E+00
 -1      1827 5.64000E+01 4.61030E+01 0.00000E+00
 -1      1828 5.79000E+01 4.61030E+01 0.00000E+00
 -1      1829 5.56500E+01 4.48040E+01 0.00000E+00
 -1      1830 5.94000E+01 4.61030E+01 0.00000E+00
 -1      1831 6.09000E+01 4.61030E+01 0.00000E+00
 -1      1832 5.86500E+01 4.48040E+01 0.00000E+00
 -1      1833 6.24000E+01 4.61030E+01 0.00000E+00
 -1      1834 6.39000E+01 4.61030E+01 0.00000E+00
 -1      1835 6.16500E+01 4.48040E+01 0.00000E+00
 -1      1836 6.54000E+01 4.61030E+01 0.00000E+00
 -1      1837 6.69000E+01 4.61030E+01 0.00000E+00
 -1      1838 6.46500E+01 4.48040E+01 0.00000E+00
 -1      1839 6.84000E+01 4.61030E+01 0.00000E+00
 -1      1840 6.99000E+01 4.61030E+01 0.00000E+00
 -1      1841 6.76500E+01 4.48040E+01 0.00000E+00
 -1      1842 7.14000E+01 4.61030E+01 0.00000E+00
 -1      1843 7.29000E+01 4.61030E+01 0.00000E+00
 -1      1844 7.06500E+01 4.48040E+01 0.00000E+00
 -1      1845 7.44000E+01 4.61030E+01 0.00000E+00
 -1      1846 7.59000E+01 4.61030E+01 0.00000E+00
 -1      1847 7.36500E+01 4.48040E+01 0.00000E+00
 -1      1848 7.74000E+01 4.61030E+01 0.00000E+00
 -1      1849 7.89000E+01 4.61030E+01 0.00000E+00
 -1      1850 7.66500E+01 4.48040E+01 0.00000E+00
 -1      1851 8.04000E+01 4.61030E+01 0.00000E+00
 -1      1852 8.19000E+01 4.61030E+01 0.00000E+00
 -1      1853 7.96500E+01 4.48040E+01 0.00000E+00
 -1      1854 8.34000E+01 4.61030E+01 0.00000E+00
 -1      1855 8.49000E+01 4.61030E+01 0.00000E+00
 -1      1856 8.26500E+01 4.48040E+01 0.00000E+00
 -1      1857 8.64000E+01 4.61030E+01 0.00000E+00
 -1      1858 8.79000E+01 4.61030E+01 0.00000E+00
 -1      1859 8.56500E+01 4.48040E+01 0.00000E+00
 -1      1860 8.94000E+01 4.61030E+01 0.00000E+00
 -1      1861 9.09000E+01 4.61030E+01 0.00000E+00
 -1      1862 8.86500E+01 4.48040E+01 0.00000E+00
 -1      1863 9.24000E+01 4.61030E+01 0.00000E+00
 -1      1864 9.39000E+01 4.61030E+01 0.00000E+00
 -1      1865 9.16500E+01 4.48040E+01 0.00000E+00
 -1      1866 9.54000E+01 4.61030E+01 0.00000E+00
 -1      1867 9.69000E+01 4.61030E+01 0.00000E+00
 -1      1868 9.46500E+01 4.48040E+01 0.00000E+00
 -1      1869 9.84000E+01 4.61030E+01 0.00000E+00
 -1      1870 9.99000E+01 4.61030E+01 0.00000E+00
 -1      1871 9.76500E+01 4.48040E+01 0.00000E+00
 -1      1872 1.01400E+02 4.61030E+01 0.00000E+00
 -1      1873 1.02900E+02 4.61030E+01 0.00000E+00
 -1      1874 1.00650E+02 4.48040E+01 0.00000E+00
 -1      1875 1.04400E+02 4.61030E+01 0.00000E+00
 -1      1876 1.05900E+02 4.61030E+01 0.00000E+00
 -1      1877 1.03650E+02 4.48040E+01 0.00000E+00
 -1      1878 1.07400E+02 4.61030E+01 0.00000E+00
 -1      1879 1.08900E+02 4.61030E+01 0.00000E+00
 -1      1880 1.06650E+02 4.48040E+01 0.00000E+00
 -1      1881 1.10400E+02 4.61030E+01 0.00000E+00
 -1      1882 1.11900E+02 4.61030E+01 0.00000E+00
 -1      1883 1.09650E+02 4.48040E+01 0.00000E+00
 -1      1884 1.13400E+02 4.61030E+01 0.00000E+00
 -1      1885 1.14900E+02 4.61030E+01 0.00000E+00
 -1      1886 1.12650E+02 4.48040E+01 0.00000E+00
 -1      1887 1.16400E+02 4.61030E+01 0.00000E+00
 -1      1888 1.17900E+02 4.61030E+01 0.00000E+00
 -1      1889 1.15650E+02 4.48040E+01 0.00000E+00
 -1      1890 1.19400E+02 4.61030E+01 0.00000E+00
 -1      1891 1.20900E+02 4.61030E+01 0.00000E+00
 -1      1892 1.18650E+02 4.48040E+01 0.00000E+00
 -1      1893 1.22400E+02 4.61030E+01 0.00000E+00
 -1      1894 1.23900E+02 4.61030E+01 0.00000E+00
 -1      1895 1.21650E+02 4.48040E+01 0.00000E+00
 -1      1896 1.25400E+02 4.61030E+01 0.00000E+00
 -1      1897 1.26900E+02 4.61030E+01 0.00000E+00
 -1      1898 1.24650E+02 4.48040E+01 0.00000E+00
 -1      1899 1.28400E+02 4.61030E+01 0.00000E+00
 -1      1900 1.29900E+02 4.61030E+01 0.00000E+00
 -1      1901 1.27650E+02 4.48040E+01 0.00000E+00
 -1      1902 1.31400E+02 4.61030E+01 0.00000E+00
 -1      1903 1.32900E+02 4.61030E+01 0.00000E+00
 -1      1904 1.30650E+02 4.48040E+01 0.00000E+00
 -1      1905 1.34400E+02 4.61030E+01 0.00000E+00
 -1      1906 1.35900E+02 4.61030E+01 0.00000E+00
 -1      1907 1.33650E+02 4.48040E+01 0.00000E+00
 -1      1908 1.37400E+02 4.61030E+01 0.00000E+00
 -1      1909 1.38900E+02 4.61030E+01 0.00000E+00
 -1      1910 1.36650E+02 4.48040E+01 0.00000E+00
 -1      1911 1.40400E+02 4.61030E+01 0.00000E+00
 -1      1912 1.41900E+02 4.61030E+01 0.00000E+00
 -1      1913 1.39650E+02 4.48040E+01 0.00000E+00
 -1      1914 1.43244E+02 4.61616E+01 0.00000E+00
 -1      1915 1.44744E+02 4.61616E+01 0.00000E+00
 -1      1916 1.45182E+02 4.49799E+01 0.00000E+00
 -1      1917 1.42494E+02 4.48626E+01 0.00000E+00
 -1      1918 1.27500E+01 3.89700E+00 0.00000E+00
 -1      1919 1.12500E+01 3.89700E+00 0.00000E+00
 -1      1920 9.75000E+00 3.89700E+00 0.00000E+00
 -1      1921 8.25000E+00 3.89700E+00 0.00000E+00
 -1      1922 1.05000E+01 5.19600E+00 0.00000E+00
 -1      1923 1.57500E+01 3.89700E+00 0.00000E+00
 -1      1924 1.42500E+01 3.89700E+00 0.00000E+00
 -1      1925 1.35000E+01 5.19600E+00 0.00000E+00
 -1      1926 1.87500E+01 3.89700E+00 0.00000E+00
 -1      1927 1.72500E+01 3.89700E+00 0.00000E+00
 -1      1928 1.65000E+01 5.19600E+00 0.00000E+00
 -1      1929 2.16000E+01 3.89700E+00 0.00000E+00
 -1      1930 2.01750E+01 3.89700E+00 0.00000E+00
 -1      1931 1.94250E+01 5.19600E+00 0.00000E+00
 -1      1932 2.46000E+01 3.89700E+00 0.00000E+00
 -1      1933 2.31000E+01 3.89700E+00 0.00000E+00
 -1      1934 2.23500E+01 5.19600E+00 0.00000E+00
 -1      1935 2.76000E+01 3.89700E+00 0.00000E+00
 -1      1936 2.61000E+01 3.89700E+00 0.00000E+00
 -1      1937 2.53500E+01 5.19600E+00 0.00000E+00
 -1      1938 3.06000E+01 3.89700E+00 0.00000E+00
 -1      1939 2.91000E+01 3.89700E+00 0.00000E+00
 -1      1940 2.83500E+01 5.19600E+00 0.00000E+00
 -1      1941 3.36000E+01 3.89700E+00 0.00000E+00
 -1      1942 3.21000E+01 3.89700E+00 0.00000E+00
 -1      1943 3.13500E+01 5.19600E+00 0.00000E+00
 -1      1944 3.66000E+01 3.89700E+00 0.00000E+00
 -1      1945 3.51000E+01 3.89700E+00 0.00000E+00
 -1      1946 3.43500E+01 5.19600E+00 0.00000E+00
 -1      1947 3.96000E+01 3.89700E+00 0.00000E+00
 -1      1948 3.81000E+01 3.89700E+00 0.00000E+00
 -1      1949 3.73500E+01 5.19600E+00 0.00000E+00
 -1      1950 4.24500E+01 3.89700E+00 0.00000E+00
 -1      1951 4.10250E+01 3.89700E+00 0.00000E+00
 -1      1952 4.02750E+01 5.19600E+00 0.00000E+00
 -1      1953 4.54500E+01 3.89700E+00 0.00000E+00
 -1      1954 4.39500E+01 3.89700E+00 0.00000E+00
 -1      1955 4.32000E+01 5.19600E+00 0.00000E+00
 -1      1956 4.84500E+01 3.89700E+00 0.00000E+00
 -1      1957 4.69500E+01 3.89700E+00 0.00000E+00
 -1      1958 4.62000E+01 5.19600E+00 0.00000E+00
 -1      1959 5.14500E+01 3.89700E+00 0.00000E+00
 -1      1960 4.99500E+01 3.89700E+00 0.00000E+00
 -1      1961 4.92000E+01 5.19600E+00 0.00000E+00
 -1      1962 5.44500E+01 3.89700E+00 0.00000E+00
 -1      1963 5.29500E+01 3.89700E+00 0.00000E+00
 -1      1964 5.22000E+01 5.19600E+00 0.00000E+00
 -1      1965 5.95500E+01 3.62313E+00 0.00000E+00
 -1      1966 5.83500E+01 3.62313E+00 0.00000E+00
 -1      1967 6.44250E+01 3.62312E+00 0.00000E+00
 -1      1968 6.30750E+01 3.62312E+00 0.00000E+00
 -1      1969 6.73500E+01 3.70691E+00 0.00000E+00
 -1      1970 6.58500E+01 3.70691E+00 0.00000E+00
 -1      1971 7.03500E+01 3.79070E+00 0.00000E+00
 -1      1972 6.88500E+01 3.79070E+00 0.00000E+00
 -1      1973 7.33500E+01 3.79070E+00 0.00000E+00
 -1      1974 7.18500E+01 3.79070E+00 0.00000E+00
 -1      1975 7.11000E+01 4.98339E+00 0.00000E+00
 -1      1976 7.63500E+01 3.79070E+00 0.00000E+00
 -1      1977 7.48500E+01 3.79070E+00 0.00000E+00
 -1      1978 7.41000E+01 4.98339E+00 0.00000E+00
 -1      1979 7.93500E+01 3.79070E+00 0.00000E+00
 -1      1980 7.78500E+01 3.79070E+00 0.00000E+00
 -1      1981 7.71000E+01 4.98339E+00 0.00000E+00
 -1      1982 8.23500E+01 3.79070E+00 0.00000E+00
 -1      1983 8.08500E+01 3.79070E+00 0.00000E+00
 -1      1984 8.01000E+01 4.98339E+00 0.00000E+00
 -1      1985 8.52000E+01 3.79070E+00 0.00000E+00
 -1      1986 8.37750E+01 3.79070E+00 0.00000E+00
 -1      1987 8.30250E+01 4.98339E+00 0.00000E+00
 -1      1988 8.82000E+01 3.79070E+00 0.00000E+00
 -1      1989 8.67000E+01 3.79070E+00 0.00000E+00
 -1      1990 8.59500E+01 4.98339E+00 0.00000E+00
 -1      1991 9.12000E+01 3.79070E+00 0.00000E+00
 -1      1992 8.97000E+01 3.79070E+00 0.00000E+00
 -1      1993 8.89500E+01 4.98339E+00 0.00000E+00
 -1      1994 9.42000E+01 3.79070E+00 0.00000E+00
 -1      1995 9.27000E+01 3.79070E+00 0.00000E+00
 -1      1996 9.19500E+01 4.98339E+00 0.00000E+00
 -1      1997 9.72000E+01 3.79070E+00 0.00000E+00
 -1      1998 9.57000E+01 3.79070E+00 0.00000E+00
 -1      1999 9.49500E+01 4.98339E+00 0.00000E+00
 -1      2000 1.00200E+02 3.79070E+00 0.00000E+00
 -1      2001 9.87000E+01 3.79070E+00 0.00000E+00
 -1      2002 9.79500E+01 4.98339E+00 0.00000E+00
 -1      2003 1.03200E+02 3.79070E+00 0.00000E+00
 -1      2004 1.01700E+02 3.79070E+00 0.00000E+00
 -1      2005 1.00950E+02 4.98339E+00 0.00000E+00
 -1      2006 1.06050E+02 3.79070E+00 0.00000E+00
 -1      2007 1.04625E+02 3.79070E+00 0.00000E+00
 -1      2008 1.03875E+02 4.98339E+00 0.00000E+00
 -1      2009 1.09050E+02 3.79070E+00 0.00000E+00
 -1      2010 1.07550E+02 3.79070E+00 0.00000E+00
 -1      2011 1.06800E+02 4.98339E+00 0.00000E+00
 -1      2012 1.12050E+02 3.79070E+00 0.00000E+00
 -1      2013 1.10550E+02 3.79070E+00 0.00000E+00
 -1      2014 1.09800E+02 4.98339E+00 0.00000E+00
 -1      2015 1.15050E+02 3.79070E+00 0.00000E+00
 -1      2016 1.13550E+02 3.79070E+00 0.00000E+00
 -1      2017 1.12800E+02 4.98339E+00 0.00000E+00
 -1      2018 1.18050E+02 3.79070E+00 0.00000E+00
 -1      2019 1.16550E+02 3.79070E+00 0.00000E+00
 -1      2020 1.15800E+02 4.98339E+00 0.00000E+00
 -1      2021 1.21050E+02 3.79070E+00 0.00000E+00
 -1      2022 1.19550E+02 3.79070E+00 0.00000E+00
 -1      2023 1.18800E+02 4.98339E+00 0.00000E+00
 -1      2024 1.24050E+02 3.79070E+00 0.00000E+00
 -1      2025 1.22550E+02 3.79070E+00 0.00000E+00
 -1      2026 1.21800E+02 4.98339E+00 0.00000E+00
 -1      2027 1.26900E+02 3.79070E+00 0.00000E+00
 -1      2028 1.25475E+02 3.79070E+00 0.00000E+00
 -1      2029 1.24725E+02 4.98339E+00 0.00000E+00
 -1      2030 1.29900E+02 3.79070E+00 0.00000E+00
 -1      2031 1.28400E+02 3.79070E+00 0.00000E+00
 -1      2032 1.27650E+02 4.98339E+00 0.00000E+00
 -1      2033 1.32900E+02 3.79070E+00 0.00000E+00
 -1      2034 1.31400E+02 3.79070E+00 0.00000E+00
 -1      2035 1.30650E+02 4.98339E+00 0.00000E+00
 -1      2036 1.35900E+02 3.79070E+00 0.00000E+00
 -1      2037 1.34400E+02 3.79070E+00 0.00000E+00
 -1      2038 1.33650E+02 4.98339E+00 0.00000E+00
 -1      2039 1.38900E+02 3.79070E+00 0.00000E+00
 -1      2040 1.37400E+02 3.79070E+00 0.00000E+00
 -1      2041 1.36650E+02 4.98339E+00 0.00000E+00
 -1      2042 1.41900E+02 3.79070E+00 0.00000E+00
 -1      2043 1.40400E+02 3.79070E+00 0.00000E+00
 -1      2044 1.39650E+02 4.98339E+00 0.00000E+00
 -1      2045 1.44900E+02 3.79070E+00 0.00000E+00
 -1      2046 1.43400E+02 3.79070E+00 0.00000E+00
 -1      2047 1.42650E+02 4.98339E+00 0.00000E+00
 -1      2048 7.07381E+01 1.22783E+01 0.00000E+00
 -1      2049 7.09584E+01 1.31119E+01 0.00000E+00
 -1      2050 1.46103E+02 1.25375E+01 0.00000E+00
 -1      2051 1.46103E+02 1.10625E+01 0.00000E+00
 -1      2052 1.46103E+02 9.58750E+00 0.00000E+00
 -1      2053 1.46103E+02 8.11250E+00 0.00000E+00
 -1      2054 1.44804E+02 1.03250E+01 0.00000E+00
 -1      2055 1.46526E+02 3.51150E+00 0.00000E+00
 -1      2056 1.46103E+02 1.54375E+01 0.00000E+00
 -1      2057 1.46103E+02 1.39875E+01 0.00000E+00
 -1      2058 1.44804E+02 1.32500E+01 0.00000E+00
 -1      2059 1.46103E+02 1.83875E+01 0.00000E+00
 -1      2060 1.46103E+02 1.69125E+01 0.00000E+00
 -1      2061 1.44804E+02 1.61750E+01 0.00000E+00
 -1      2062 1.46103E+02 2.13375E+01 0.00000E+00
 -1      2063 1.46103E+02 1.98625E+01 0.00000E+00
 -1      2064 1.44804E+02 1.91250E+01 0.00000E+00
 -1      2065 1.46103E+02 2.42875E+01 0.00000E+00
 -1      2066 1.46103E+02 2.28125E+01 0.00000E+00
 -1      2067 1.44804E+02 2.20750E+01 0.00000E+00
 -1      2068 1.46103E+02 2.72375E+01 0.00000E+00
 -1      2069 1.46103E+02 2.57625E+01 0.00000E+00
 -1      2070 1.44804E+02 2.50250E+01 0.00000E+00
 -1      2071 1.46103E+02 3.01875E+01 0.00000E+00
 -1      2072 1.46103E+02 2.87125E+01 0.00000E+00
 -1      2073 1.44804E+02 2.79750E+01 0.00000E+00
 -1      2074 1.46103E+02 3.30875E+01 0.00000E+00
 -1      2075 1.46103E+02 3.16375E+01 0.00000E+00
 -1      2076 1.44804E+02 3.09000E+01 0.00000E+00
 -1      2077 1.46103E+02 3.60375E+01 0.00000E+00
 -1      2078 1.46103E+02 3.45625E+01 0.00000E+00
 -1      2079 1.44804E+02 3.38250E+01 0.00000E+00
 -1      2080 1.46103E+02 3.89875E+01 0.00000E+00
 -1      2081 1.46103E+02 3.75125E+01 0.00000E+00
 -1      2082 1.44804E+02 3.67750E+01 0.00000E+00
 -1      2083 1.46103E+02 4.19375E+01 0.00000E+00
 -1      2084 1.46103E+02 4.04625E+01 0.00000E+00
 -1      2085 1.44804E+02 3.97250E+01 0.00000E+00
 -1      2086 7.01172E+01 1.06817E+01 0.00000E+00
 -1      2087 7.04276E+01 1.14800E+01 0.00000E+00
 -1      2088 7.13669E+01 1.16776E+01 0.00000E+00
 -1      2089 7.08668E+01 1.42071E+01 0.00000E+00
 -1      2090 7.08265E+01 1.50649E+01 0.00000E+00
 -1      2091 3.89700E+00 3.74688E+01 0.00000E+00
 -1      2092 3.89700E+00 3.89437E+01 0.00000E+00
 -1      2093 5.19600E+00 3.96813E+01 0.00000E+00
 -1      2094 5.19600E+00 3.67438E+01 0.00000E+00
 -1      2095 6.60557E+01 6.62428E+00 0.00000E+00
 -1      2096 6.68730E+01 7.00177E+00 0.00000E+00
 -1      2097 6.43315E+01 6.07466E+00 0.00000E+00
 -1      2098 6.51439E+01 6.37895E+00 0.00000E+00
 -1      2099 6.24784E+01 5.77294E+00 0.00000E+00
 -1      2100 6.33162E+01 5.81793E+00 0.00000E+00
 -1      2101 6.07693E+01 5.78823E+00 0.00000E+00
 -1      2102 6.16238E+01 5.78059E+00 0.00000E+00
 -1      2103 6.20797E+01 5.11409E+00 0.00000E+00
 -1      2104 5.88259E+01 5.85195E+00 0.00000E+00
 -1      2105 5.96317E+01 5.55149E+00 0.00000E+00
 -1      2106 5.72884E+01 6.63869E+00 0.00000E+00
 -1      2107 5.80572E+01 6.24532E+00 0.00000E+00
 -1      2108 5.81813E+01 5.04162E+00 0.00000E+00
 -1      2109 5.57745E+01 8.32293E+00 0.00000E+00
 -1      2110 5.63643E+01 7.68920E+00 0.00000E+00
 -1      2111 5.46210E+01 9.61652E+00 0.00000E+00
 -1      2112 5.51978E+01 8.96973E+00 0.00000E+00
 -1      2113 5.49876E+01 8.18280E+00 0.00000E+00
 -1      2114 5.37615E+01 1.13869E+01 0.00000E+00
 -1      2115 5.40399E+01 1.05811E+01 0.00000E+00
 -1      2116 5.33180E+01 1.29759E+01 0.00000E+00
 -1      2117 5.35397E+01 1.21814E+01 0.00000E+00
 -1      2118 5.30268E+01 1.15532E+01 0.00000E+00
 -1      2119 5.29734E+01 1.48430E+01 0.00000E+00
 -1      2120 5.30304E+01 1.39830E+01 0.00000E+00
 -1      2121 5.34503E+01 1.67269E+01 0.00000E+00
 -1      2122 5.32132E+01 1.59125E+01 0.00000E+00
 -1      2123 5.40673E+01 1.83478E+01 0.00000E+00
 -1      2124 5.37506E+01 1.75833E+01 0.00000E+00
 -1      2125 5.50073E+01 1.99024E+01 0.00000E+00
 -1      2126 5.45282E+01 1.91986E+01 0.00000E+00
 -1      2127 5.61652E+01 2.13320E+01 0.00000E+00
 -1      2128 5.55524E+01 2.07420E+01 0.00000E+00
 -1      2129 5.77056E+01 2.23199E+01 0.00000E+00
 -1      2130 5.69967E+01 2.18762E+01 0.00000E+00
 -1      2131 5.93711E+01 2.30813E+01 0.00000E+00
 -1      2132 5.85737E+01 2.27900E+01 0.00000E+00
 -1      2133 6.12046E+01 2.35448E+01 0.00000E+00
 -1      2134 6.03219E+01 2.33819E+01 0.00000E+00
 -1      2135 6.32265E+01 2.35504E+01 0.00000E+00
 -1      2136 6.23369E+01 2.36610E+01 0.00000E+00
 -1      2137 6.50352E+01 2.30052E+01 0.00000E+00
 -1      2138 6.42058E+01 2.32579E+01 0.00000E+00
 -1      2139 6.66498E+01 2.22965E+01 0.00000E+00
 -1      2140 6.58425E+01 2.26508E+01 0.00000E+00
 -1      2141 6.56534E+01 2.35174E+01 0.00000E+00
 -1      2142 6.82847E+01 2.09595E+01 0.00000E+00
 -1      2143 6.76766E+01 2.16071E+01 0.00000E+00
 -1      2144 6.94808E+01 1.95809E+01 0.00000E+00
 -1      2145 6.89673E+01 2.02738E+01 0.00000E+00
 -1      2146 7.03267E+01 1.79104E+01 0.00000E+00
 -1      2147 6.99324E+01 1.86896E+01 0.00000E+00
 -1      2148 7.07675E+01 1.60086E+01 0.00000E+00
 -1      2149 7.06234E+01 1.68722E+01 0.00000E+00
 -1      2150 4.84800E+00 4.21150E+00 0.00000E+00
 -1      2151 6.78229E+01 7.73695E+00 0.00000E+00
 -1      2152 6.84111E+01 8.37878E+00 0.00000E+00
 -1      2153 6.92768E+01 8.22276E+00 0.00000E+00
 -1      2154 4.92300E+00 4.57510E+01 0.00000E+00
 -1      2155 1.45776E+02 4.70420E+00 0.00000E+00
 -1      2156 1.45776E+02 6.17920E+00 0.00000E+00
 -1      2157 7.04607E+01 9.87196E+00 0.00000E+00
 -1      2158 6.42300E+00 4.57510E+01 0.00000E+00
 -1      2159 6.77387E+01 6.84575E+00 0.00000E+00
 -1      2160 7.17300E+00 4.44520E+01 0.00000E+00
 -1      2161 7.09800E+00 5.51050E+00 0.00000E+00
 -1      2162 6.34800E+00 4.21150E+00 0.00000E+00
 -1      2163 5.75813E+01 4.01650E+00 0.00000E+00
 -1      2164 5.63063E+01 4.01650E+00 0.00000E+00
 -1      2165 6.18375E+01 3.45556E+00 0.00000E+00
 -1      2166 6.07125E+01 3.45556E+00 0.00000E+00
 -1      2167 6.51750E+01 4.73204E+00 0.00000E+00
 -1      2168 7.15857E+01 1.35712E+01 0.00000E+00
 -1      2169 1.44477E+02 6.91670E+00 0.00000E+00
 -1      2170 7.14350E+01 1.56102E+01 0.00000E+00
 -1      2171 1.45665E+02 4.31193E+01 0.00000E+00
 -1      2172 7.10793E+01 1.75922E+01 0.00000E+00
 -1      2173 7.03310E+01 1.95217E+01 0.00000E+00
 -1      2174 6.74874E+01 2.24736E+01 0.00000E+00
 -1      2175 6.72983E+01 2.33402E+01 0.00000E+00
 -1      2176 6.83251E+01 2.26508E+01 0.00000E+00
 -1      2177 6.38667E+01 2.41642E+01 0.00000E+00
 -1      2178 6.17552E+01 2.43405E+01 0.00000E+00
 -1      2179 5.96721E+01 2.39237E+01 0.00000E+00
 -1      2180 5.78531E+01 2.31530E+01 0.00000E+00
 -1      2181 5.61536E+01 2.21387E+01 0.00000E+00
 -1      2182 5.47771E+01 2.07548E+01 0.00000E+00
 -1      2183 5.37711E+01 1.90644E+01 0.00000E+00
 -1      2184 5.30098E+01 1.73572E+01 0.00000E+00
 -1      2185 5.25174E+01 1.33548E+01 0.00000E+00
 -1      2186 5.38297E+01 9.79412E+00 0.00000E+00
 -1      2187 5.64884E+01 6.48550E+00 0.00000E+00
 -1      2188 6.00876E+01 4.88499E+00 0.00000E+00
 -1      2189 6.58769E+01 5.86523E+00 0.00000E+00
 -1      2190 6.39497E+01 5.36317E+00 0.00000E+00
 -1      2191 5.55563E+01 5.31550E+00 0.00000E+00
 -1      2192 5.24696E+01 1.54313E+01 0.00000E+00
 -1      2193 6.91968E+01 2.10986E+01 0.00000E+00
 -1      2194 6.49500E+00 3.01125E+01 0.00000E+00
 -1      2195 6.49500E+00 3.15875E+01 0.00000E+00
 -1      2196 6.49500E+00 3.30625E+01 0.00000E+00
 -1      2197 6.49500E+00 3.45375E+01 0.00000E+00
 -1      2198 7.79400E+00 3.23250E+01 0.00000E+00
 -1      2199 6.49500E+00 2.42125E+01 0.00000E+00
 -1      2200 6.49500E+00 2.56875E+01 0.00000E+00
 -1      2201 6.49500E+00 2.12625E+01 0.00000E+00
 -1      2202 6.49500E+00 2.27375E+01 0.00000E+00
 -1      2203 7.79400E+00 2.34750E+01 0.00000E+00
 -1      2204 6.49500E+00 1.83625E+01 0.00000E+00
 -1      2205 6.49500E+00 1.98125E+01 0.00000E+00
 -1      2206 7.79400E+00 2.05500E+01 0.00000E+00
 -1      2207 6.49500E+00 1.54125E+01 0.00000E+00
 -1      2208 6.49500E+00 1.68875E+01 0.00000E+00
 -1      2209 7.79400E+00 1.76250E+01 0.00000E+00
 -1      2210 6.49500E+00 1.24625E+01 0.00000E+00
 -1      2211 6.49500E+00 1.39375E+01 0.00000E+00
 -1      2212 7.79400E+00 1.46750E+01 0.00000E+00
 -1      2213 6.49500E+00 9.51250E+00 0.00000E+00
 -1      2214 6.49500E+00 1.09875E+01 0.00000E+00
 -1      2215 7.79400E+00 1.17250E+01 0.00000E+00
 -1      2216 6.79650E+00 6.77400E+00 0.00000E+00
 -1      2217 6.79650E+00 8.24900E+00 0.00000E+00
 -1      2218 8.09550E+00 8.98650E+00 0.00000E+00
 -1      2219 8.69850E+00 6.45950E+00 0.00000E+00
 -1      2220 6.95840E+01 7.35076E+00 0.00000E+00
 -1      2221 7.01722E+01 7.99259E+00 0.00000E+00
 -1      2222 9.90000E+00 4.35050E+01 0.00000E+00
 -1      2223 1.14000E+01 4.35050E+01 0.00000E+00
 -1      2224 1.29000E+01 4.35050E+01 0.00000E+00
 -1      2225 1.44000E+01 4.35050E+01 0.00000E+00
 -1      2226 1.21500E+01 4.22060E+01 0.00000E+00
 -1      2227 1.59000E+01 4.35050E+01 0.00000E+00
 -1      2228 1.74000E+01 4.35050E+01 0.00000E+00
 -1      2229 1.51500E+01 4.22060E+01 0.00000E+00
 -1      2230 1.89000E+01 4.35050E+01 0.00000E+00
 -1      2231 2.04000E+01 4.35050E+01 0.00000E+00
 -1      2232 1.81500E+01 4.22060E+01 0.00000E+00
 -1      2233 2.19000E+01 4.35050E+01 0.00000E+00
 -1      2234 2.34000E+01 4.35050E+01 0.00000E+00
 -1      2235 2.11500E+01 4.22060E+01 0.00000E+00
 -1      2236 2.49000E+01 4.35050E+01 0.00000E+00
 -1      2237 2.64000E+01 4.35050E+01 0.00000E+00
 -1      2238 2.41500E+01 4.22060E+01 0.00000E+00
 -1      2239 2.79000E+01 4.35050E+01 0.00000E+00
 -1      2240 2.94000E+01 4.35050E+01 0.00000E+00
 -1      2241 2.71500E+01 4.22060E+01 0.00000E+00
 -1      2242 3.09000E+01 4.35050E+01 0.00000E+00
 -1      2243 3.24000E+01 4.35050E+01 0.00000E+00
 -1      2244 3.01500E+01 4.22060E+01 0.00000E+00
 -1      2245 3.39000E+01 4.35050E+01 0.00000E+00
 -1      2246 3.54000E+01 4.35050E+01 0.00000E+00
 -1      2247 3.31500E+01 4.22060E+01 0.00000E+00
 -1      2248 3.69000E+01 4.35050E+01 0.00000E+00
 -1      2249 3.84000E+01 4.35050E+01 0.00000E+00
 -1      2250 3.61500E+01 4.22060E+01 0.00000E+00
 -1      2251 3.99000E+01 4.35050E+01 0.00000E+00
 -1      2252 4.14000E+01 4.35050E+01 0.00000E+00
 -1      2253 3.91500E+01 4.22060E+01 0.00000E+00
 -1      2254 4.29000E+01 4.35050E+01 0.00000E+00
 -1      2255 4.44000E+01 4.35050E+01 0.00000E+00
 -1      2256 4.21500E+01 4.22060E+01 0.00000E+00
 -1      2257 4.59000E+01 4.35050E+01 0.00000E+00
 -1      2258 4.74000E+01 4.35050E+01 0.00000E+00
 -1      2259 4.51500E+01 4.22060E+01 0.00000E+00
 -1      2260 4.89000E+01 4.35050E+01 0.00000E+00
 -1      2261 5.04000E+01 4.35050E+01 0.00000E+00
 -1      2262 4.81500E+01 4.22060E+01 0.00000E+00
 -1      2263 5.19000E+01 4.35050E+01 0.00000E+00
 -1      2264 5.34000E+01 4.35050E+01 0.00000E+00
 -1      2265 5.11500E+01 4.22060E+01 0.00000E+00
 -1      2266 5.49000E+01 4.35050E+01 0.00000E+00
 -1      2267 5.64000E+01 4.35050E+01 0.00000E+00
 -1      2268 5.41500E+01 4.22060E+01 0.00000E+00
 -1      2269 5.79000E+01 4.35050E+01 0.00000E+00
 -1      2270 5.94000E+01 4.35050E+01 0.00000E+00
 -1      2271 5.71500E+01 4.22060E+01 0.00000E+00
 -1      2272 6.09000E+01 4.35050E+01 0.00000E+00
 -1      2273 6.24000E+01 4.35050E+01 0.00000E+00
 -1      2274 6.01500E+01 4.22060E+01 0.00000E+00
 -1      2275 6.39000E+01 4.35050E+01 0.00000E+00
 -1      2276 6.54000E+01 4.35050E+01 0.00000E+00
 -1      2277 6.31500E+01 4.22060E+01 0.00000E+00
 -1      2278 6.69000E+01 4.35050E+01 0.00000E+00
 -1      2279 6.84000E+01 4.35050E+01 0.00000E+00
 -1      2280 6.61500E+01 4.22060E+01 0.00000E+00
 -1      2281 6.99000E+01 4.35050E+01 0.00000E+00
 -1      2282 7.14000E+01 4.35050E+01 0.00000E+00
 -1      2283 6.91500E+01 4.22060E+01 0.00000E+00
 -1      2284 7.29000E+01 4.35050E+01 0.00000E+00
 -1      2285 7.44000E+01 4.35050E+01 0.00000E+00
 -1      2286 7.21500E+01 4.22060E+01 0.00000E+00
 -1      2287 7.59000E+01 4.35050E+01 0.00000E+00
 -1      2288 7.74000E+01 4.35050E+01 0.00000E+00
 -1      2289 7.51500E+01 4.22060E+01 0.00000E+00
 -1      2290 7.89000E+01 4.35050E+01 0.00000E+00
 -1      2291 8.04000E+01 4.35050E+01 0.00000E+00
 -1      2292 7.81500E+01 4.22060E+01 0.00000E+00
 -1      2293 8.19000E+01 4.35050E+01 0.00000E+00
 -1      2294 8.34000E+01 4.35050E+01 0.00000E+00
 -1      2295 8.11500E+01 4.22060E+01 0.00000E+00
 -1      2296 8.49000E+01 4.35050E+01 0.00000E+00
 -1      2297 8.64000E+01 4.35050E+01 0.00000E+00
 -1      2298 8.41500E+01 4.22060E+01 0.00000E+00
 -1      2299 8.79000E+01 4.35050E+01 0.00000E+00
 -1      2300 8.94000E+01 4.35050E+01 0.00000E+00
 -1      2301 8.71500E+01 4.22060E+01 0.00000E+00
 -1      2302 9.09000E+01 4.35050E+01 0.00000E+00
 -1      2303 9.24000E+01 4.35050E+01 0.00000E+00
 -1      2304 9.01500E+01 4.22060E+01 0.00000E+00
 -1      2305 9.39000E+01 4.35050E+01 0.00000E+00
 -1      2306 9.54000E+01 4.35050E+01 0.00000E+00
 -1      2307 9.31500E+01 4.22060E+01 0.00000E+00
 -1      2308 9.69000E+01 4.35050E+01 0.00000E+00
 -1      2309 9.84000E+01 4.35050E+01 0.00000E+00
 -1      2310 9.61500E+01 4.22060E+01 0.00000E+00
 -1      2311 9.99000E+01 4.35050E+01 0.00000E+00
 -1      2312 1.01400E+02 4.35050E+01 0.00000E+00
 -1      2313 9.91500E+01 4.22060E+01 0.00000E+00
 -1      2314 1.02900E+02 4.35050E+01 0.00000E+00
 -1      2315 1.04400E+02 4.35050E+01 0.00000E+00
 -1      2316 1.02150E+02 4.22060E+01 0.00000E+00
 -1      2317 1.05900E+02 4.35050E+01 0.00000E+00
 -1      2318 1.07400E+02 4.35050E+01 0.00000E+00
 -1      2319 1.05150E+02 4.22060E+01 0.00000E+00
 -1      2320 1.08900E+02 4.35050E+01 0.00000E+00
 -1      2321 1.10400E+02 4.35050E+01 0.00000E+00
 -1      2322 1.08150E+02 4.22060E+01 0.00000E+00
 -1      2323 1.11900E+02 4.35050E+01 0.00000E+00
 -1      2324 1.13400E+02 4.35050E+01 0.00000E+00
 -1      2325 1.11150E+02 4.22060E+01 0.00000E+00
 -1      2326 1.14900E+02 4.35050E+01 0.00000E+00
 -1      2327 1.16400E+02 4.35050E+01 0.00000E+00
 -1      2328 1.14150E+02 4.22060E+01 0.00000E+00
 -1      2329 1.17900E+02 4.35050E+01 0.00000E+00
 -1      2330 1.19400E+02 4.35050E+01 0.00000E+00
 -1      2331 1.17150E+02 4.22060E+01 0.00000E+00
 -1      2332 1.20900E+02 4.35050E+01 0.00000E+00
 -1      2333 1.22400E+02 4.35050E+01 0.00000E+00
 -1      2334 1.20150E+02 4.22060E+01 0.00000E+00
 -1      2335 1.23900E+02 4.35050E+01 0.00000E+00
 -1      2336 1.25400E+02 4.35050E+01 0.00000E+00
 -1      2337 1.23150E+02 4.22060E+01 0.00000E+00
 -1      2338 1.26900E+02 4.35050E+01 0.00000E+00
 -1      2339 1.28400E+02 4.35050E+01 0.00000E+00
 -1      2340 1.26150E+02 4.22060E+01 0.00000E+00
 -1      2341 1.29900E+02 4.35050E+01 0.00000E+00
 -1      2342 1.31400E+02 4.35050E+01 0.00000E+00
 -1      2343 1.29150E+02 4.22060E+01 0.00000E+00
 -1      2344 1.32900E+02 4.35050E+01 0.00000E+00
 -1      2345 1.34400E+02 4.35050E+01 0.00000E+00
 -1      2346 1.32150E+02 4.22060E+01 0.00000E+00
 -1      2347 1.35900E+02 4.35050E+01 0.00000E+00
 -1      2348 1.37400E+02 4.35050E+01 0.00000E+00
 -1      2349 1.35150E+02 4.22060E+01 0.00000E+00
 -1      2350 1.38900E+02 4.35050E+01 0.00000E+00
 -1      2351 1.40400E+02 4.35050E+01 0.00000E+00
 -1      2352 1.38150E+02 4.22060E+01 0.00000E+00
 -1      2353 1.16985E+01 6.45950E+00 0.00000E+00
 -1      2354 1.01985E+01 6.45950E+00 0.00000E+00
 -1      2355 9.89700E+00 7.72300E+00 0.00000E+00
 -1      2356 2.01375E+01 6.49500E+00 0.00000E+00
 -1      2357 1.87125E+01 6.49500E+00 0.00000E+00
 -1      2358 2.31375E+01 6.49500E+00 0.00000E+00
 -1      2359 2.16375E+01 6.49500E+00 0.00000E+00
 -1      2360 2.09250E+01 7.79400E+00 0.00000E+00
 -1      2361 2.61375E+01 6.49500E+00 0.00000E+00
 -1      2362 2.46375E+01 6.49500E+00 0.00000E+00
 -1      2363 2.39250E+01 7.79400E+00 0.00000E+00
 -1      2364 2.91375E+01 6.49500E+00 0.00000E+00
 -1      2365 2.76375E+01 6.49500E+00 0.00000E+00
 -1      2366 2.69250E+01 7.79400E+00 0.00000E+00
 -1      2367 3.21375E+01 6.49500E+00 0.00000E+00
 -1      2368 3.06375E+01 6.49500E+00 0.00000E+00
 -1      2369 2.99250E+01 7.79400E+00 0.00000E+00
 -1      2370 3.51375E+01 6.49500E+00 0.00000E+00
 -1      2371 3.36375E+01 6.49500E+00 0.00000E+00
 -1      2372 3.29250E+01 7.79400E+00 0.00000E+00
 -1      2373 3.81375E+01 6.49500E+00 0.00000E+00
 -1      2374 3.66375E+01 6.49500E+00 0.00000E+00
 -1      2375 3.59250E+01 7.79400E+00 0.00000E+00
 -1      2376 4.09875E+01 6.49500E+00 0.00000E+00
 -1      2377 3.95625E+01 6.49500E+00 0.00000E+00
 -1      2378 3.88500E+01 7.79400E+00 0.00000E+00
 -1      2379 4.39875E+01 6.49500E+00 0.00000E+00
 -1      2380 4.24875E+01 6.49500E+00 0.00000E+00
 -1      2381 4.17750E+01 7.79400E+00 0.00000E+00
 -1      2382 4.69875E+01 6.49500E+00 0.00000E+00
 -1      2383 4.54875E+01 6.49500E+00 0.00000E+00
 -1      2384 4.47750E+01 7.79400E+00 0.00000E+00
 -1      2385 4.99875E+01 6.49500E+00 0.00000E+00
 -1      2386 4.84875E+01 6.49500E+00 0.00000E+00
 -1      2387 4.77750E+01 7.79400E+00 0.00000E+00
 -1      2388 5.18754E+01 1.61262E+01 0.00000E+00
 -1      2389 5.16356E+01 1.50567E+01 0.00000E+00
 -1      2390 6.25125E+01 4.48068E+00 0.00000E+00
 -1      2391 6.81000E+01 4.89961E+00 0.00000E+00
 -1      2392 7.15397E+01 6.05199E+00 0.00000E+00
 -1      2393 7.00397E+01 6.05199E+00 0.00000E+00
 -1      2394 8.08500E+01 6.28239E+00 0.00000E+00
 -1      2395 7.93500E+01 6.28239E+00 0.00000E+00
 -1      2396 8.37000E+01 6.28239E+00 0.00000E+00
 -1      2397 8.22750E+01 6.28239E+00 0.00000E+00
 -1      2398 8.15250E+01 7.58139E+00 0.00000E+00
 -1      2399 8.67000E+01 6.28239E+00 0.00000E+00
 -1      2400 8.52000E+01 6.28239E+00 0.00000E+00
 -1      2401 8.44500E+01 7.58139E+00 0.00000E+00
 -1      2402 8.97000E+01 6.28239E+00 0.00000E+00
 -1      2403 8.82000E+01 6.28239E+00 0.00000E+00
 -1      2404 8.74500E+01 7.58139E+00 0.00000E+00
 -1      2405 9.27000E+01 6.28239E+00 0.00000E+00
 -1      2406 9.12000E+01 6.28239E+00 0.00000E+00
 -1      2407 9.04500E+01 7.58139E+00 0.00000E+00
 -1      2408 9.57000E+01 6.28239E+00 0.00000E+00
 -1      2409 9.42000E+01 6.28239E+00 0.00000E+00
 -1      2410 9.34500E+01 7.58139E+00 0.00000E+00
 -1      2411 9.87000E+01 6.28239E+00 0.00000E+00
 -1      2412 9.72000E+01 6.28239E+00 0.00000E+00
 -1      2413 9.64500E+01 7.58139E+00 0.00000E+00
 -1      2414 1.01700E+02 6.28239E+00 0.00000E+00
 -1      2415 1.00200E+02 6.28239E+00 0.00000E+00
 -1      2416 9.94500E+01 7.58139E+00 0.00000E+00
 -1      2417 1.04550E+02 6.28239E+00 0.00000E+00
 -1      2418 1.03125E+02 6.28239E+00 0.00000E+00
 -1      2419 1.02375E+02 7.58139E+00 0.00000E+00
 -1      2420 1.07550E+02 6.28239E+00 0.00000E+00
 -1      2421 1.06050E+02 6.28239E+00 0.00000E+00
 -1      2422 1.05300E+02 7.58139E+00 0.00000E+00
 -1      2423 1.10550E+02 6.28239E+00 0.00000E+00
 -1      2424 1.09050E+02 6.28239E+00 0.00000E+00
 -1      2425 1.08300E+02 7.58139E+00 0.00000E+00
 -1      2426 1.13550E+02 6.28239E+00 0.00000E+00
 -1      2427 1.12050E+02 6.28239E+00 0.00000E+00
 -1      2428 1.11300E+02 7.58139E+00 0.00000E+00
 -1      2429 1.16550E+02 6.28239E+00 0.00000E+00
 -1      2430 1.15050E+02 6.28239E+00 0.00000E+00
 -1      2431 1.14300E+02 7.58139E+00 0.00000E+00
 -1      2432 1.19550E+02 6.28239E+00 0.00000E+00
 -1      2433 1.18050E+02 6.28239E+00 0.00000E+00
 -1      2434 1.17300E+02 7.58139E+00 0.00000E+00
 -1      2435 1.22550E+02 6.28239E+00 0.00000E+00
 -1      2436 1.21050E+02 6.28239E+00 0.00000E+00
 -1      2437 1.20300E+02 7.58139E+00 0.00000E+00
 -1      2438 1.25400E+02 6.28239E+00 0.00000E+00
 -1      2439 1.23975E+02 6.28239E+00 0.00000E+00
 -1      2440 1.23225E+02 7.58139E+00 0.00000E+00
 -1      2441 1.28400E+02 6.28239E+00 0.00000E+00
 -1      2442 1.26900E+02 6.28239E+00 0.00000E+00
 -1      2443 1.26150E+02 7.58139E+00 0.00000E+00
 -1      2444 1.31400E+02 6.28239E+00 0.00000E+00
 -1      2445 1.29900E+02 6.28239E+00 0.00000E+00
 -1      2446 1.29150E+02 7.58139E+00 0.00000E+00
 -1      2447 1.34400E+02 6.28239E+00 0.00000E+00
 -1      2448 1.32900E+02 6.28239E+00 0.00000E+00
 -1      2449 1.32150E+02 7.58139E+00 0.00000E+00
 -1      2450 1.37400E+02 6.28239E+00 0.00000E+00
 -1      2451 1.35900E+02 6.28239E+00 0.00000E+00
 -1      2452 1.35150E+02 7.58139E+00 0.00000E+00
 -1      2453 1.40400E+02 6.28239E+00 0.00000E+00
 -1      2454 1.38900E+02 6.28239E+00 0.00000E+00
 -1      2455 1.38150E+02 7.58139E+00 0.00000E+00
 -1      2456 1.43189E+02 6.59954E+00 0.00000E+00
 -1      2457 1.41689E+02 6.59954E+00 0.00000E+00
 -1      2458 1.40939E+02 7.89854E+00 0.00000E+00
 -1      2459 1.43516E+02 8.53285E+00 0.00000E+00
 -1      2460 7.23204E+01 1.51918E+01 0.00000E+00
 -1      2461 7.22614E+01 1.61355E+01 0.00000E+00
 -1      2462 1.43505E+02 1.98625E+01 0.00000E+00
 -1      2463 1.43505E+02 1.83875E+01 0.00000E+00
 -1      2464 7.08288E+01 8.97441E+00 0.00000E+00
 -1      2465 7.14246E+01 9.98178E+00 0.00000E+00
 -1      2466 1.43505E+02 2.28125E+01 0.00000E+00
 -1      2467 1.43505E+02 2.13375E+01 0.00000E+00
 -1      2468 1.42206E+02 2.06000E+01 0.00000E+00
 -1      2469 1.43505E+02 2.57625E+01 0.00000E+00
 -1      2470 1.43505E+02 2.42875E+01 0.00000E+00
 -1      2471 1.42206E+02 2.35500E+01 0.00000E+00
 -1      2472 1.43505E+02 2.87125E+01 0.00000E+00
 -1      2473 1.43505E+02 2.72375E+01 0.00000E+00
 -1      2474 1.42206E+02 2.65000E+01 0.00000E+00
 -1      2475 1.43505E+02 3.16125E+01 0.00000E+00
 -1      2476 1.43505E+02 3.01625E+01 0.00000E+00
 -1      2477 1.42206E+02 2.94250E+01 0.00000E+00
 -1      2478 1.43505E+02 3.45625E+01 0.00000E+00
 -1      2479 1.43505E+02 3.30875E+01 0.00000E+00
 -1      2480 1.42206E+02 3.23500E+01 0.00000E+00
 -1      2481 1.43505E+02 3.75125E+01 0.00000E+00
 -1      2482 1.43505E+02 3.60375E+01 0.00000E+00
 -1      2483 1.42206E+02 3.53000E+01 0.00000E+00
 -1      2484 1.43505E+02 4.04625E+01 0.00000E+00
 -1      2485 1.43505E+02 3.89875E+01 0.00000E+00
 -1      2486 1.42206E+02 3.82500E+01 0.00000E+00
 -1      2487 7.19718E+01 1.09828E+01 0.00000E+00
 -1      2488 7.22823E+01 1.17811E+01 0.00000E+00
 -1      2489 7.20119E+01 1.72972E+01 0.00000E+00
 -1      2490 7.17152E+01 1.83355E+01 0.00000E+00
 -1      2491 1.72125E+01 6.49500E+00 0.00000E+00
 -1      2492 1.57125E+01 6.49500E+00 0.00000E+00
 -1      2493 1.79250E+01 7.79400E+00 0.00000E+00
 -1      2494 1.43505E+02 1.39750E+01 0.00000E+00
 -1      2495 1.43505E+02 1.25250E+01 0.00000E+00
 -1      2496 1.44321E+02 4.30606E+01 0.00000E+00
 -1      2497 6.46258E+01 2.49199E+01 0.00000E+00
 -1      2498 6.36465E+01 2.52124E+01 0.00000E+00
 -1      2499 1.43510E+02 1.12664E+01 0.00000E+00
 -1      2500 1.43510E+02 9.79142E+00 0.00000E+00
 -1      2501 1.42222E+02 9.47427E+00 0.00000E+00
 -1      2502 1.42211E+02 1.19914E+01 0.00000E+00
 -1      2503 1.43505E+02 1.69188E+01 0.00000E+00
 -1      2504 1.43505E+02 1.54438E+01 0.00000E+00
 -1      2505 1.42206E+02 1.47188E+01 0.00000E+00
 -1      2506 1.42206E+02 1.76563E+01 0.00000E+00
 -1      2507 7.78500E+01 6.28239E+00 0.00000E+00
 -1      2508 7.63500E+01 6.28239E+00 0.00000E+00
 -1      2509 7.86000E+01 7.58139E+00 0.00000E+00
 -1      2510 7.48500E+01 6.28239E+00 0.00000E+00
 -1      2511 7.33500E+01 6.28239E+00 0.00000E+00
 -1      2512 7.56000E+01 7.58139E+00 0.00000E+00
 -1      2513 7.25037E+01 1.30013E+01 0.00000E+00
 -1      2514 7.24121E+01 1.40965E+01 0.00000E+00
 -1      2515 7.32384E+01 1.46219E+01 0.00000E+00
 -1      2516 6.49500E+00 2.71625E+01 0.00000E+00
 -1      2517 6.49500E+00 2.86375E+01 0.00000E+00
 -1      2518 7.79400E+00 2.93750E+01 0.00000E+00
 -1      2519 7.79400E+00 2.64250E+01 0.00000E+00
 -1      2520 1.44555E+01 6.47725E+00 0.00000E+00
 -1      2521 1.29555E+01 6.47725E+00 0.00000E+00
 -1      2522 1.26540E+01 7.74075E+00 0.00000E+00
 -1      2523 1.51680E+01 7.77625E+00 0.00000E+00
 -1      2524 5.46322E+01 6.36600E+00 0.00000E+00
 -1      2525 5.29122E+01 9.89868E+00 0.00000E+00
 -1      2526 5.34934E+01 8.93414E+00 0.00000E+00
 -1      2527 5.20899E+01 1.17199E+01 0.00000E+00
 -1      2528 5.23116E+01 1.09254E+01 0.00000E+00
 -1      2529 7.01162E+01 2.13313E+01 0.00000E+00
 -1      2530 6.94335E+01 2.20169E+01 0.00000E+00
 -1      2531 5.15147E+01 1.37340E+01 0.00000E+00
 -1      2532 5.18023E+01 1.27270E+01 0.00000E+00
 -1      2533 5.10872E+01 1.20992E+01 0.00000E+00
 -1      2534 5.23508E+01 1.80692E+01 0.00000E+00
 -1      2535 5.20504E+01 1.72128E+01 0.00000E+00
 -1      2536 5.32476E+01 1.98983E+01 0.00000E+00
 -1      2537 5.27866E+01 1.90474E+01 0.00000E+00
 -1      2538 5.43377E+01 2.15775E+01 0.00000E+00
 -1      2539 5.37926E+01 2.07379E+01 0.00000E+00
 -1      2540 5.28082E+01 2.07209E+01 0.00000E+00
 -1      2541 5.61456E+01 2.30582E+01 0.00000E+00
 -1      2542 5.53141E+01 2.25139E+01 0.00000E+00
 -1      2543 5.78788E+01 2.41421E+01 0.00000E+00
 -1      2544 5.70108E+01 2.36721E+01 0.00000E+00
 -1      2545 5.99142E+01 2.48117E+01 0.00000E+00
 -1      2546 5.89634E+01 2.45111E+01 0.00000E+00
 -1      2547 6.22338E+01 2.52517E+01 0.00000E+00
 -1      2548 6.11015E+01 2.51354E+01 0.00000E+00
 -1      2549 6.62405E+01 2.42112E+01 0.00000E+00
 -1      2550 6.54331E+01 2.45656E+01 0.00000E+00
 -1      2551 6.52129E+01 2.56138E+01 0.00000E+00
 -1      2552 7.13218E+01 1.94637E+01 0.00000E+00
 -1      2553 7.08702E+01 2.03549E+01 0.00000E+00
 -1      2554 6.55950E+00 4.28890E+01 0.00000E+00
 -1      2555 8.53650E+00 4.32410E+01 0.00000E+00
 -1      2556 9.28650E+00 4.19420E+01 0.00000E+00
 -1      2557 6.55950E+00 4.14140E+01 0.00000E+00
 -1      2558 5.40599E+01 7.27440E+00 0.00000E+00
 -1      2559 5.31277E+01 6.10440E+00 0.00000E+00
 -1      2560 5.16277E+01 6.10440E+00 0.00000E+00
 -1      2561 5.34831E+01 7.92119E+00 0.00000E+00
 -1      2562 7.79400E+00 3.52687E+01 0.00000E+00
 -1      2563 6.49500E+00 3.60062E+01 0.00000E+00
 -1      2564 6.49500E+00 3.74750E+01 0.00000E+00
 -1      2565 6.91443E+01 6.28216E+00 0.00000E+00
 -1      2566 5.25657E+01 8.02575E+00 0.00000E+00
 -1      2567 6.81944E+01 5.54698E+00 0.00000E+00
 -1      2568 7.11361E+01 8.10241E+00 0.00000E+00
 -1      2569 6.29928E+01 2.60074E+01 0.00000E+00
 -1      2570 5.12164E+01 1.68382E+01 0.00000E+00
 -1      2571 5.03262E+01 1.51238E+01 0.00000E+00
 -1      2572 5.09205E+01 1.44289E+01 0.00000E+00
 -1      2573 5.02053E+01 1.38011E+01 0.00000E+00
 -1      2574 5.09152E+01 7.40340E+00 0.00000E+00
 -1      2575 6.01125E+01 4.48068E+00 0.00000E+00
 -1      2576 6.66944E+01 5.46319E+00 0.00000E+00
 -1      2577 7.22897E+01 7.35099E+00 0.00000E+00
 -1      2578 7.23400E+01 1.00853E+01 0.00000E+00
 -1      2579 7.31087E+01 1.23065E+01 0.00000E+00
 -1      2580 7.22544E+01 1.91687E+01 0.00000E+00
 -1      2581 7.28973E+01 1.68788E+01 0.00000E+00
 -1      2582 6.52725E+00 3.87101E+01 0.00000E+00
 -1      2583 6.52725E+00 4.01789E+01 0.00000E+00
 -1      2584 7.89075E+00 4.04429E+01 0.00000E+00
 -1      2585 7.82625E+00 3.79726E+01 0.00000E+00
 -1      2586 1.42758E+02 4.35929E+01 0.00000E+00
 -1      2587 1.43241E+02 4.17323E+01 0.00000E+00
 -1      2588 1.41942E+02 4.09948E+01 0.00000E+00
 -1      2589 1.41414E+02 4.35342E+01 0.00000E+00
 -1      2590 7.11069E+01 2.12733E+01 0.00000E+00
 -1      2591 6.92444E+01 2.28835E+01 0.00000E+00
 -1      2592 1.40664E+02 4.22352E+01 0.00000E+00
 -1      2593 6.70781E+01 2.43884E+01 0.00000E+00
 -1      2594 6.03928E+01 2.57229E+01 0.00000E+00
 -1      2595 5.81210E+01 2.50302E+01 0.00000E+00
 -1      2596 6.57825E+01 5.21786E+00 0.00000E+00
 -1      2597 5.43296E+01 2.24970E+01 0.00000E+00
 -1      2598 5.33452E+01 2.24801E+01 0.00000E+00
 -1      2599 5.43216E+01 2.34165E+01 0.00000E+00
 -1      2600 5.19753E+01 1.00654E+01 0.00000E+00
 -1      2601 6.12501E+01 4.71742E+00 0.00000E+00
 -1      2602 6.21046E+01 4.70978E+00 0.00000E+00
 -1      2603 5.18272E+01 1.89031E+01 0.00000E+00
 -1      2604 5.61713E+01 2.40473E+01 0.00000E+00
 -1      2605 9.09300E+00 1.98250E+01 0.00000E+00
 -1      2606 9.09300E+00 2.12750E+01 0.00000E+00
 -1      2607 9.09300E+00 2.27500E+01 0.00000E+00
 -1      2608 9.09300E+00 2.42250E+01 0.00000E+00
 -1      2609 1.03920E+01 2.20250E+01 0.00000E+00
 -1      2610 9.09300E+00 1.39375E+01 0.00000E+00
 -1      2611 9.09300E+00 1.54125E+01 0.00000E+00
 -1      2612 9.09300E+00 1.09875E+01 0.00000E+00
 -1      2613 9.09300E+00 1.24625E+01 0.00000E+00
 -1      2614 1.03920E+01 1.32000E+01 0.00000E+00
 -1      2615 9.64575E+00 8.72350E+00 0.00000E+00
 -1      2616 9.34425E+00 9.98700E+00 0.00000E+00
 -1      2617 1.06433E+01 1.07245E+01 0.00000E+00
 -1      2618 1.11458E+01 8.72350E+00 0.00000E+00
 -1      2619 6.82054E+01 2.46796E+01 0.00000E+00
 -1      2620 6.71475E+01 2.55506E+01 0.00000E+00
 -1      2621 1.44000E+01 4.09070E+01 0.00000E+00
 -1      2622 1.59000E+01 4.09070E+01 0.00000E+00
 -1      2623 1.74000E+01 4.09070E+01 0.00000E+00
 -1      2624 1.89000E+01 4.09070E+01 0.00000E+00
 -1      2625 1.66500E+01 3.96080E+01 0.00000E+00
 -1      2626 2.04000E+01 4.09070E+01 0.00000E+00
 -1      2627 2.19000E+01 4.09070E+01 0.00000E+00
 -1      2628 1.96500E+01 3.96080E+01 0.00000E+00
 -1      2629 2.34000E+01 4.09070E+01 0.00000E+00
 -1      2630 2.49000E+01 4.09070E+01 0.00000E+00
 -1      2631 2.26500E+01 3.96080E+01 0.00000E+00
 -1      2632 2.64000E+01 4.09070E+01 0.00000E+00
 -1      2633 2.79000E+01 4.09070E+01 0.00000E+00
 -1      2634 2.56500E+01 3.96080E+01 0.00000E+00
 -1      2635 2.94000E+01 4.09070E+01 0.00000E+00
 -1      2636 3.09000E+01 4.09070E+01 0.00000E+00
 -1      2637 2.86500E+01 3.96080E+01 0.00000E+00
 -1      2638 3.24000E+01 4.09070E+01 0.00000E+00
 -1      2639 3.39000E+01 4.09070E+01 0.00000E+00
 -1      2640 3.16500E+01 3.96080E+01 0.00000E+00
 -1      2641 3.54000E+01 4.09070E+01 0.00000E+00
 -1      2642 3.69000E+01 4.09070E+01 0.00000E+00
 -1      2643 3.46500E+01 3.96080E+01 0.00000E+00
 -1      2644 3.84000E+01 4.09070E+01 0.00000E+00
 -1      2645 3.99000E+01 4.09070E+01 0.00000E+00
 -1      2646 3.76500E+01 3.96080E+01 0.00000E+00
 -1      2647 4.14000E+01 4.09070E+01 0.00000E+00
 -1      2648 4.29000E+01 4.09070E+01 0.00000E+00
 -1      2649 4.06500E+01 3.96080E+01 0.00000E+00
 -1      2650 4.44000E+01 4.09070E+01 0.00000E+00
 -1      2651 4.59000E+01 4.09070E+01 0.00000E+00
 -1      2652 4.36500E+01 3.96080E+01 0.00000E+00
 -1      2653 4.74000E+01 4.09070E+01 0.00000E+00
 -1      2654 4.89000E+01 4.09070E+01 0.00000E+00
 -1      2655 4.66500E+01 3.96080E+01 0.00000E+00
 -1      2656 5.04000E+01 4.09070E+01 0.00000E+00
 -1      2657 5.19000E+01 4.09070E+01 0.00000E+00
 -1      2658 4.96500E+01 3.96080E+01 0.00000E+00
 -1      2659 5.34000E+01 4.09070E+01 0.00000E+00
 -1      2660 5.49000E+01 4.09070E+01 0.00000E+00
 -1      2661 5.26500E+01 3.96080E+01 0.00000E+00
 -1      2662 5.64000E+01 4.09070E+01 0.00000E+00
 -1      2663 5.79000E+01 4.09070E+01 0.00000E+00
 -1      2664 5.56500E+01 3.96080E+01 0.00000E+00
 -1      2665 5.94000E+01 4.09070E+01 0.00000E+00
 -1      2666 6.09000E+01 4.09070E+01 0.00000E+00
 -1      2667 5.86500E+01 3.96080E+01 0.00000E+00
 -1      2668 6.24000E+01 4.09070E+01 0.00000E+00
 -1      2669 6.39000E+01 4.09070E+01 0.00000E+00
 -1      2670 6.16500E+01 3.96080E+01 0.00000E+00
 -1      2671 6.54000E+01 4.09070E+01 0.00000E+00
 -1      2672 6.69000E+01 4.09070E+01 0.00000E+00
 -1      2673 6.46500E+01 3.96080E+01 0.00000E+00
 -1      2674 6.84000E+01 4.09070E+01 0.00000E+00
 -1      2675 6.99000E+01 4.09070E+01 0.00000E+00
 -1      2676 6.76500E+01 3.96080E+01 0.00000E+00
 -1      2677 7.14000E+01 4.09070E+01 0.00000E+00
 -1      2678 7.29000E+01 4.09070E+01 0.00000E+00
 -1      2679 7.06500E+01 3.96080E+01 0.00000E+00
 -1      2680 7.44000E+01 4.09070E+01 0.00000E+00
 -1      2681 7.59000E+01 4.09070E+01 0.00000E+00
 -1      2682 7.36500E+01 3.96080E+01 0.00000E+00
 -1      2683 7.74000E+01 4.09070E+01 0.00000E+00
 -1      2684 7.89000E+01 4.09070E+01 0.00000E+00
 -1      2685 7.66500E+01 3.96080E+01 0.00000E+00
 -1      2686 8.04000E+01 4.09070E+01 0.00000E+00
 -1      2687 8.19000E+01 4.09070E+01 0.00000E+00
 -1      2688 7.96500E+01 3.96080E+01 0.00000E+00
 -1      2689 8.34000E+01 4.09070E+01 0.00000E+00
 -1      2690 8.49000E+01 4.09070E+01 0.00000E+00
 -1      2691 8.26500E+01 3.96080E+01 0.00000E+00
 -1      2692 8.64000E+01 4.09070E+01 0.00000E+00
 -1      2693 8.79000E+01 4.09070E+01 0.00000E+00
 -1      2694 8.56500E+01 3.96080E+01 0.00000E+00
 -1      2695 8.94000E+01 4.09070E+01 0.00000E+00
 -1      2696 9.09000E+01 4.09070E+01 0.00000E+00
 -1      2697 8.86500E+01 3.96080E+01 0.00000E+00
 -1      2698 9.24000E+01 4.09070E+01 0.00000E+00
 -1      2699 9.39000E+01 4.09070E+01 0.00000E+00
 -1      2700 9.16500E+01 3.96080E+01 0.00000E+00
 -1      2701 9.54000E+01 4.09070E+01 0.00000E+00
 -1      2702 9.69000E+01 4.09070E+01 0.00000E+00
 -1      2703 9.46500E+01 3.96080E+01 0.00000E+00
 -1      2704 9.84000E+01 4.09070E+01 0.00000E+00
 -1      2705 9.99000E+01 4.09070E+01 0.00000E+00
 -1      2706 9.76500E+01 3.96080E+01 0.00000E+00
 -1      2707 1.01400E+02 4.09070E+01 0.00000E+00
 -1      2708 1.02900E+02 4.09070E+01 0.00000E+00
 -1      2709 1.00650E+02 3.96080E+01 0.00000E+00
 -1      2710 1.04400E+02 4.09070E+01 0.00000E+00
 -1      2711 1.05900E+02 4.09070E+01 0.00000E+00
 -1      2712 1.03650E+02 3.96080E+01 0.00000E+00
 -1      2713 1.07400E+02 4.09070E+01 0.00000E+00
 -1      2714 1.08900E+02 4.09070E+01 0.00000E+00
 -1      2715 1.06650E+02 3.96080E+01 0.00000E+00
 -1      2716 1.10400E+02 4.09070E+01 0.00000E+00
 -1      2717 1.11900E+02 4.09070E+01 0.00000E+00
 -1      2718 1.09650E+02 3.96080E+01 0.00000E+00
 -1      2719 1.13400E+02 4.09070E+01 0.00000E+00
 -1      2720 1.14900E+02 4.09070E+01 0.00000E+00
 -1      2721 1.12650E+02 3.96080E+01 0.00000E+00
 -1      2722 1.16400E+02 4.09070E+01 0.00000E+00
 -1      2723 1.17900E+02 4.09070E+01 0.00000E+00
 -1      2724 1.15650E+02 3.96080E+01 0.00000E+00
 -1      2725 1.19400E+02 4.09070E+01 0.00000E+00
 -1      2726 1.20900E+02 4.09070E+01 0.00000E+00
 -1      2727 1.18650E+02 3.96080E+01 0.00000E+00
 -1      2728 1.22400E+02 4.09070E+01 0.00000E+00
 -1      2729 1.23900E+02 4.09070E+01 0.00000E+00
 -1      2730 1.21650E+02 3.96080E+01 0.00000E+00
 -1      2731 1.25400E+02 4.09070E+01 0.00000E+00
 -1      2732 1.26900E+02 4.09070E+01 0.00000E+00
 -1      2733 1.24650E+02 3.96080E+01 0.00000E+00
 -1      2734 1.28400E+02 4.09070E+01 0.00000E+00
 -1      2735 1.29900E+02 4.09070E+01 0.00000E+00
 -1      2736 1.27650E+02 3.96080E+01 0.00000E+00
 -1      2737 1.31400E+02 4.09070E+01 0.00000E+00
 -1      2738 1.32900E+02 4.09070E+01 0.00000E+00
 -1      2739 1.30650E+02 3.96080E+01 0.00000E+00
 -1      2740 1.34400E+02 4.09070E+01 0.00000E+00
 -1      2741 1.35900E+02 4.09070E+01 0.00000E+00
 -1      2742 1.33650E+02 3.96080E+01 0.00000E+00
 -1      2743 1.37400E+02 4.09070E+01 0.00000E+00
 -1      2744 1.38900E+02 4.09070E+01 0.00000E+00
 -1      2745 1.36650E+02 3.96080E+01 0.00000E+00
 -1      2746 7.23616E+01 2.14629E+01 0.00000E+00
 -1      2747 7.16075E+01 2.24392E+01 0.00000E+00
 -1      2748 2.46750E+01 9.09300E+00 0.00000E+00
 -1      2749 2.31750E+01 9.09300E+00 0.00000E+00
 -1      2750 2.16750E+01 9.09300E+00 0.00000E+00
 -1      2751 2.01750E+01 9.09300E+00 0.00000E+00
 -1      2752 2.24250E+01 1.03920E+01 0.00000E+00
 -1      2753 3.06750E+01 9.09300E+00 0.00000E+00
 -1      2754 2.91750E+01 9.09300E+00 0.00000E+00
 -1      2755 3.36750E+01 9.09300E+00 0.00000E+00
 -1      2756 3.21750E+01 9.09300E+00 0.00000E+00
 -1      2757 3.14250E+01 1.03920E+01 0.00000E+00
 -1      2758 3.66750E+01 9.09300E+00 0.00000E+00
 -1      2759 3.51750E+01 9.09300E+00 0.00000E+00
 -1      2760 3.44250E+01 1.03920E+01 0.00000E+00
 -1      2761 3.95250E+01 9.09300E+00 0.00000E+00
 -1      2762 3.81000E+01 9.09300E+00 0.00000E+00
 -1      2763 3.73500E+01 1.03920E+01 0.00000E+00
 -1      2764 4.25250E+01 9.09300E+00 0.00000E+00
 -1      2765 4.10250E+01 9.09300E+00 0.00000E+00
 -1      2766 4.02750E+01 1.03920E+01 0.00000E+00
 -1      2767 4.55250E+01 9.09300E+00 0.00000E+00
 -1      2768 4.40250E+01 9.09300E+00 0.00000E+00
 -1      2769 4.32750E+01 1.03920E+01 0.00000E+00
 -1      2770 4.85250E+01 9.09300E+00 0.00000E+00
 -1      2771 4.70250E+01 9.09300E+00 0.00000E+00
 -1      2772 4.62750E+01 1.03920E+01 0.00000E+00
 -1      2773 8.52000E+01 8.88039E+00 0.00000E+00
 -1      2774 8.37000E+01 8.88039E+00 0.00000E+00
 -1      2775 6.43575E+01 5.13407E+00 0.00000E+00
 -1      2776 8.22750E+01 8.88039E+00 0.00000E+00
 -1      2777 8.08500E+01 8.88039E+00 0.00000E+00
 -1      2778 8.30250E+01 1.01794E+01 0.00000E+00
 -1      2779 9.12000E+01 8.88039E+00 0.00000E+00
 -1      2780 8.97000E+01 8.88039E+00 0.00000E+00
 -1      2781 9.42000E+01 8.88039E+00 0.00000E+00
 -1      2782 9.27000E+01 8.88039E+00 0.00000E+00
 -1      2783 9.19500E+01 1.01794E+01 0.00000E+00
 -1      2784 9.72000E+01 8.88039E+00 0.00000E+00
 -1      2785 9.57000E+01 8.88039E+00 0.00000E+00
 -1      2786 9.49500E+01 1.01794E+01 0.00000E+00
 -1      2787 1.00200E+02 8.88039E+00 0.00000E+00
 -1      2788 9.87000E+01 8.88039E+00 0.00000E+00
 -1      2789 9.79500E+01 1.01794E+01 0.00000E+00
 -1      2790 1.03050E+02 8.88039E+00 0.00000E+00
 -1      2791 1.01625E+02 8.88039E+00 0.00000E+00
 -1      2792 1.00875E+02 1.01794E+01 0.00000E+00
 -1      2793 1.06050E+02 8.88039E+00 0.00000E+00
 -1      2794 1.04550E+02 8.88039E+00 0.00000E+00
 -1      2795 1.03800E+02 1.01794E+01 0.00000E+00
 -1      2796 1.09050E+02 8.88039E+00 0.00000E+00
 -1      2797 1.07550E+02 8.88039E+00 0.00000E+00
 -1      2798 1.06800E+02 1.01794E+01 0.00000E+00
 -1      2799 1.12050E+02 8.88039E+00 0.00000E+00
 -1      2800 1.10550E+02 8.88039E+00 0.00000E+00
 -1      2801 1.09800E+02 1.01794E+01 0.00000E+00
 -1      2802 1.15050E+02 8.88039E+00 0.00000E+00
 -1      2803 1.13550E+02 8.88039E+00 0.00000E+00
 -1      2804 1.12800E+02 1.01794E+01 0.00000E+00
 -1      2805 1.18050E+02 8.88039E+00 0.00000E+00
 -1      2806 1.16550E+02 8.88039E+00 0.00000E+00
 -1      2807 1.15800E+02 1.01794E+01 0.00000E+00
 -1      2808 1.21050E+02 8.88039E+00 0.00000E+00
 -1      2809 1.19550E+02 8.88039E+00 0.00000E+00
 -1      2810 1.18800E+02 1.01794E+01 0.00000E+00
 -1      2811 1.23900E+02 8.88039E+00 0.00000E+00
 -1      2812 1.22475E+02 8.88039E+00 0.00000E+00
 -1      2813 1.21725E+02 1.01794E+01 0.00000E+00
 -1      2814 1.26900E+02 8.88039E+00 0.00000E+00
 -1      2815 1.25400E+02 8.88039E+00 0.00000E+00
 -1      2816 1.24650E+02 1.01794E+01 0.00000E+00
 -1      2817 1.29900E+02 8.88039E+00 0.00000E+00
 -1      2818 1.28400E+02 8.88039E+00 0.00000E+00
 -1      2819 1.27650E+02 1.01794E+01 0.00000E+00
 -1      2820 1.32900E+02 8.88039E+00 0.00000E+00
 -1      2821 1.31400E+02 8.88039E+00 0.00000E+00
 -1      2822 1.30650E+02 1.01794E+01 0.00000E+00
 -1      2823 1.35900E+02 8.88039E+00 0.00000E+00
 -1      2824 1.34400E+02 8.88039E+00 0.00000E+00
 -1      2825 1.33650E+02 1.01794E+01 0.00000E+00
 -1      2826 1.38900E+02 8.88039E+00 0.00000E+00
 -1      2827 1.37400E+02 8.88039E+00 0.00000E+00
 -1      2828 1.36650E+02 1.01794E+01 0.00000E+00
 -1      2829 1.41205E+02 9.33591E+00 0.00000E+00
 -1      2830 1.39917E+02 9.01875E+00 0.00000E+00
 -1      2831 1.39167E+02 1.03178E+01 0.00000E+00
 -1      2832 1.41200E+02 1.05945E+01 0.00000E+00
 -1      2833 1.40907E+02 2.42875E+01 0.00000E+00
 -1      2834 1.40907E+02 2.28125E+01 0.00000E+00
 -1      2835 7.42223E+01 1.41528E+01 0.00000E+00
 -1      2836 7.41307E+01 1.52480E+01 0.00000E+00
 -1      2837 7.29464E+01 8.33281E+00 0.00000E+00
 -1      2838 1.40907E+02 2.13375E+01 0.00000E+00
 -1      2839 1.40907E+02 1.98625E+01 0.00000E+00
 -1      2840 1.39608E+02 2.20750E+01 0.00000E+00
 -1      2841 1.40907E+02 3.01500E+01 0.00000E+00
 -1      2842 1.40907E+02 2.87000E+01 0.00000E+00
 -1      2843 1.40907E+02 3.31000E+01 0.00000E+00
 -1      2844 1.40907E+02 3.16250E+01 0.00000E+00
 -1      2845 1.39608E+02 3.09000E+01 0.00000E+00
 -1      2846 1.40907E+02 3.60500E+01 0.00000E+00
 -1      2847 1.40907E+02 3.45750E+01 0.00000E+00
 -1      2848 1.39608E+02 3.38500E+01 0.00000E+00
 -1      2849 7.40891E+01 1.14984E+01 0.00000E+00
 -1      2850 7.43105E+01 1.27186E+01 0.00000E+00
 -1      2851 7.93500E+01 8.88039E+00 0.00000E+00
 -1      2852 7.78500E+01 8.88039E+00 0.00000E+00
 -1      2853 8.01000E+01 1.01794E+01 0.00000E+00
 -1      2854 5.03745E+01 1.75312E+01 0.00000E+00
 -1      2855 5.01995E+01 1.64446E+01 0.00000E+00
 -1      2856 1.86750E+01 9.09300E+00 0.00000E+00
 -1      2857 1.71750E+01 9.09300E+00 0.00000E+00
 -1      2858 1.94250E+01 1.03920E+01 0.00000E+00
 -1      2859 1.40907E+02 2.72313E+01 0.00000E+00
 -1      2860 1.40907E+02 2.57563E+01 0.00000E+00
 -1      2861 1.39608E+02 2.50187E+01 0.00000E+00
 -1      2862 1.39608E+02 2.79562E+01 0.00000E+00
 -1      2863 6.37230E+01 2.68450E+01 0.00000E+00
 -1      2864 6.23102E+01 2.68842E+01 0.00000E+00
 -1      2865 8.82000E+01 8.88039E+00 0.00000E+00
 -1      2866 8.67000E+01 8.88039E+00 0.00000E+00
 -1      2867 8.89500E+01 1.01794E+01 0.00000E+00
 -1      2868 5.09710E+01 1.01669E+01 0.00000E+00
 -1      2869 5.15715E+01 9.14022E+00 0.00000E+00
 -1      2870 7.61482E+01 8.60660E+00 0.00000E+00
 -1      2871 7.46482E+01 8.60660E+00 0.00000E+00
 -1      2872 7.34945E+01 9.35802E+00 0.00000E+00
 -1      2873 7.68982E+01 9.90560E+00 0.00000E+00
 -1      2874 7.33400E+01 1.89145E+01 0.00000E+00
 -1      2875 7.29465E+01 2.00428E+01 0.00000E+00
 -1      2876 5.15613E+01 8.12727E+00 0.00000E+00
 -1      2877 4.99211E+01 8.51787E+00 0.00000E+00
 -1      2878 7.04223E+01 2.34118E+01 0.00000E+00
 -1      2879 6.93138E+01 2.40457E+01 0.00000E+00
 -1      2880 6.93833E+01 2.52079E+01 0.00000E+00
 -1      2881 2.76750E+01 9.09300E+00 0.00000E+00
 -1      2882 2.61750E+01 9.09300E+00 0.00000E+00
 -1      2883 2.84250E+01 1.03920E+01 0.00000E+00
 -1      2884 1.14000E+01 4.09070E+01 0.00000E+00
 -1      2885 1.29000E+01 4.09070E+01 0.00000E+00
 -1      2886 1.36500E+01 3.96080E+01 0.00000E+00
 -1      2887 6.33421E+01 4.87735E+00 0.00000E+00
 -1      2888 5.11853E+01 1.97753E+01 0.00000E+00
 -1      2889 5.07495E+01 1.87971E+01 0.00000E+00
 -1      2890 9.09300E+00 1.68813E+01 0.00000E+00
 -1      2891 9.09300E+00 1.83563E+01 0.00000E+00
 -1      2892 1.03920E+01 1.90812E+01 0.00000E+00
 -1      2893 1.03920E+01 1.61437E+01 0.00000E+00
 -1      2894 1.40928E+02 4.09655E+01 0.00000E+00
 -1      2895 1.41192E+02 3.96958E+01 0.00000E+00
 -1      2896 1.39914E+02 4.09362E+01 0.00000E+00
 -1      2897 9.09300E+00 3.15875E+01 0.00000E+00
 -1      2898 9.09300E+00 3.30625E+01 0.00000E+00
 -1      2899 4.98771E+01 1.22982E+01 0.00000E+00
 -1      2900 5.01647E+01 1.12911E+01 0.00000E+00
 -1      2901 5.61076E+01 2.50537E+01 0.00000E+00
 -1      2902 5.52424E+01 2.44398E+01 0.00000E+00
 -1      2903 5.22754E+01 2.14545E+01 0.00000E+00
 -1      2904 5.17304E+01 2.06149E+01 0.00000E+00
 -1      2905 5.06526E+01 2.05089E+01 0.00000E+00
 -1      2906 5.83601E+01 2.61059E+01 0.00000E+00
 -1      2907 5.72755E+01 2.57369E+01 0.00000E+00
 -1      2908 6.59612E+01 2.62219E+01 0.00000E+00
 -1      2909 6.51539E+01 2.65762E+01 0.00000E+00
 -1      2910 7.38605E+01 1.64780E+01 0.00000E+00
 -1      2911 7.36110E+01 1.76397E+01 0.00000E+00
 -1      2912 6.07168E+01 2.68738E+01 0.00000E+00
 -1      2913 5.95295E+01 2.65501E+01 0.00000E+00
 -1      2914 8.96362E+00 4.05429E+01 0.00000E+00
 -1      2915 1.03271E+01 4.08069E+01 0.00000E+00
 -1      2916 1.10771E+01 3.95079E+01 0.00000E+00
 -1      2917 8.93137E+00 3.93078E+01 0.00000E+00
 -1      2918 1.03920E+01 2.49750E+01 0.00000E+00
 -1      2919 9.09300E+00 2.57000E+01 0.00000E+00
 -1      2920 9.09300E+00 2.71750E+01 0.00000E+00
 -1      2921 1.24028E+01 8.74125E+00 0.00000E+00
 -1      2922 1.21515E+01 9.74175E+00 0.00000E+00
 -1      2923 1.36597E+01 8.75900E+00 0.00000E+00
 -1      2924 1.40907E+02 1.54531E+01 0.00000E+00
 -1      2925 1.40907E+02 1.39844E+01 0.00000E+00
 -1      2926 6.70885E+01 2.65130E+01 0.00000E+00
 -1      2927 7.16770E+01 2.36014E+01 0.00000E+00
 -1      2928 1.39164E+02 3.96372E+01 0.00000E+00
 -1      2929 7.34471E+01 2.12087E+01 0.00000E+00
 -1      2930 4.94844E+01 1.58168E+01 0.00000E+00
 -1      2931 4.91711E+01 9.81687E+00 0.00000E+00
 -1      2932 8.59500E+01 1.01794E+01 0.00000E+00
 -1      2933 4.86886E+01 1.36880E+01 0.00000E+00
 -1      2934 4.92828E+01 1.29931E+01 0.00000E+00
 -1      2935 4.83604E+01 1.21850E+01 0.00000E+00
 -1      2936 9.09300E+00 3.45313E+01 0.00000E+00
 -1      2937 9.09300E+00 3.60000E+01 0.00000E+00
 -1      2938 1.03920E+01 3.37938E+01 0.00000E+00
 -1      2939 4.97326E+01 1.84035E+01 0.00000E+00
 -1      2940 7.40418E+01 1.03591E+01 0.00000E+00
 -1      2941 6.44713E+01 2.74531E+01 0.00000E+00
 -1      2942 7.52027E+01 1.33447E+01 0.00000E+00
 -1      2943 9.09300E+00 2.86437E+01 0.00000E+00
 -1      2944 9.09300E+00 3.01187E+01 0.00000E+00
 -1      2945 1.03920E+01 3.08563E+01 0.00000E+00
 -1      2946 1.03920E+01 2.79188E+01 0.00000E+00
 -1      2947 1.40907E+02 1.83906E+01 0.00000E+00
 -1      2948 1.40907E+02 1.69219E+01 0.00000E+00
 -1      2949 1.39608E+02 1.61875E+01 0.00000E+00
 -1      2950 7.48444E+01 1.60089E+01 0.00000E+00
 -1      2951 7.43031E+01 1.85138E+01 0.00000E+00
 -1      2952 7.52436E+01 1.07711E+01 0.00000E+00
 -1      2953 1.41192E+02 3.82207E+01 0.00000E+00
 -1      2954 1.39529E+02 3.85665E+01 0.00000E+00
 -1      2955 1.40542E+02 3.71208E+01 0.00000E+00
 -1      2956 1.39243E+02 3.63957E+01 0.00000E+00
 -1      2957 1.38514E+02 3.85373E+01 0.00000E+00
 -1      2958 6.14470E+01 2.77114E+01 0.00000E+00
 -1      2959 2.54250E+01 1.03920E+01 0.00000E+00
 -1      2960 1.41051E+02 1.29187E+01 0.00000E+00
 -1      2961 1.41056E+02 1.16601E+01 0.00000E+00
 -1      2962 1.40039E+02 1.15218E+01 0.00000E+00
 -1      2963 1.39752E+02 1.36531E+01 0.00000E+00
 -1      2964 4.97609E+01 1.03659E+01 0.00000E+00
 -1      2965 5.42580E+01 2.44229E+01 0.00000E+00
 -1      2966 5.22674E+01 2.23741E+01 0.00000E+00
 -1      2967 5.11896E+01 2.22681E+01 0.00000E+00
 -1      2968 5.22593E+01 2.32936E+01 0.00000E+00
 -1      2969 5.63467E+01 2.61293E+01 0.00000E+00
 -1      2970 1.39608E+02 1.91281E+01 0.00000E+00
 -1      2971 5.86840E+01 2.72568E+01 0.00000E+00
 -1      2972 1.60459E+01 8.93487E+00 0.00000E+00
 -1      2973 1.47889E+01 8.91712E+00 0.00000E+00
 -1      2974 1.45376E+01 9.91763E+00 0.00000E+00
 -1      2975 1.67959E+01 1.02339E+01 0.00000E+00
 -1      2976 1.19003E+01 1.07423E+01 0.00000E+00
 -1      2977 1.16490E+01 1.17428E+01 0.00000E+00
 -1      2978 1.31573E+01 1.07600E+01 0.00000E+00
 -1      2979 1.16490E+01 1.32177E+01 0.00000E+00
 -1      2980 6.81865E+01 2.70696E+01 0.00000E+00
 -1      2981 6.70002E+01 2.77408E+01 0.00000E+00
 -1      2982 1.89000E+01 3.83090E+01 0.00000E+00
 -1      2983 2.04000E+01 3.83090E+01 0.00000E+00
 -1      2984 2.19000E+01 3.83090E+01 0.00000E+00
 -1      2985 2.34000E+01 3.83090E+01 0.00000E+00
 -1      2986 2.11500E+01 3.70100E+01 0.00000E+00
 -1      2987 2.49000E+01 3.83090E+01 0.00000E+00
 -1      2988 2.64000E+01 3.83090E+01 0.00000E+00
 -1      2989 2.41500E+01 3.70100E+01 0.00000E+00
 -1      2990 2.79000E+01 3.83090E+01 0.00000E+00
 -1      2991 2.94000E+01 3.83090E+01 0.00000E+00
 -1      2992 2.71500E+01 3.70100E+01 0.00000E+00
 -1      2993 3.09000E+01 3.83090E+01 0.00000E+00
 -1      2994 3.24000E+01 3.83090E+01 0.00000E+00
 -1      2995 3.01500E+01 3.70100E+01 0.00000E+00
 -1      2996 3.39000E+01 3.83090E+01 0.00000E+00
 -1      2997 3.54000E+01 3.83090E+01 0.00000E+00
 -1      2998 3.31500E+01 3.70100E+01 0.00000E+00
 -1      2999 3.69000E+01 3.83090E+01 0.00000E+00
 -1      3000 3.84000E+01 3.83090E+01 0.00000E+00
 -1      3001 3.61500E+01 3.70100E+01 0.00000E+00
 -1      3002 3.99000E+01 3.83090E+01 0.00000E+00
 -1      3003 4.14000E+01 3.83090E+01 0.00000E+00
 -1      3004 3.91500E+01 3.70100E+01 0.00000E+00
 -1      3005 4.29000E+01 3.83090E+01 0.00000E+00
 -1      3006 4.44000E+01 3.83090E+01 0.00000E+00
 -1      3007 4.21500E+01 3.70100E+01 0.00000E+00
 -1      3008 4.59000E+01 3.83090E+01 0.00000E+00
 -1      3009 4.74000E+01 3.83090E+01 0.00000E+00
 -1      3010 4.51500E+01 3.70100E+01 0.00000E+00
 -1      3011 4.89000E+01 3.83090E+01 0.00000E+00
 -1      3012 5.04000E+01 3.83090E+01 0.00000E+00
 -1      3013 4.81500E+01 3.70100E+01 0.00000E+00
 -1      3014 5.19000E+01 3.83090E+01 0.00000E+00
 -1      3015 5.34000E+01 3.83090E+01 0.00000E+00
 -1      3016 5.11500E+01 3.70100E+01 0.00000E+00
 -1      3017 5.49000E+01 3.83090E+01 0.00000E+00
 -1      3018 5.64000E+01 3.83090E+01 0.00000E+00
 -1      3019 5.41500E+01 3.70100E+01 0.00000E+00
 -1      3020 5.79000E+01 3.83090E+01 0.00000E+00
 -1      3021 5.94000E+01 3.83090E+01 0.00000E+00
 -1      3022 5.71500E+01 3.70100E+01 0.00000E+00
 -1      3023 6.09000E+01 3.83090E+01 0.00000E+00
 -1      3024 6.24000E+01 3.83090E+01 0.00000E+00
 -1      3025 6.01500E+01 3.70100E+01 0.00000E+00
 -1      3026 6.39000E+01 3.83090E+01 0.00000E+00
 -1      3027 6.54000E+01 3.83090E+01 0.00000E+00
 -1      3028 6.31500E+01 3.70100E+01 0.00000E+00
 -1      3029 6.69000E+01 3.83090E+01 0.00000E+00
 -1      3030 6.84000E+01 3.83090E+01 0.00000E+00
 -1      3031 6.61500E+01 3.70100E+01 0.00000E+00
 -1      3032 6.99000E+01 3.83090E+01 0.00000E+00
 -1      3033 7.14000E+01 3.83090E+01 0.00000E+00
 -1      3034 6.91500E+01 3.70100E+01 0.00000E+00
 -1      3035 7.29000E+01 3.83090E+01 0.00000E+00
 -1      3036 7.44000E+01 3.83090E+01 0.00000E+00
 -1      3037 7.21500E+01 3.70100E+01 0.00000E+00
 -1      3038 7.59000E+01 3.83090E+01 0.00000E+00
 -1      3039 7.74000E+01 3.83090E+01 0.00000E+00
 -1      3040 7.51500E+01 3.70100E+01 0.00000E+00
 -1      3041 7.89000E+01 3.83090E+01 0.00000E+00
 -1      3042 8.04000E+01 3.83090E+01 0.00000E+00
 -1      3043 7.81500E+01 3.70100E+01 0.00000E+00
 -1      3044 8.19000E+01 3.83090E+01 0.00000E+00
 -1      3045 8.34000E+01 3.83090E+01 0.00000E+00
 -1      3046 8.11500E+01 3.70100E+01 0.00000E+00
 -1      3047 8.49000E+01 3.83090E+01 0.00000E+00
 -1      3048 8.64000E+01 3.83090E+01 0.00000E+00
 -1      3049 8.41500E+01 3.70100E+01 0.00000E+00
 -1      3050 8.79000E+01 3.83090E+01 0.00000E+00
 -1      3051 8.94000E+01 3.83090E+01 0.00000E+00
 -1      3052 8.71500E+01 3.70100E+01 0.00000E+00
 -1      3053 9.09000E+01 3.83090E+01 0.00000E+00
 -1      3054 9.24000E+01 3.83090E+01 0.00000E+00
 -1      3055 9.01500E+01 3.70100E+01 0.00000E+00
 -1      3056 9.39000E+01 3.83090E+01 0.00000E+00
 -1      3057 9.54000E+01 3.83090E+01 0.00000E+00
 -1      3058 9.31500E+01 3.70100E+01 0.00000E+00
 -1      3059 9.69000E+01 3.83090E+01 0.00000E+00
 -1      3060 9.84000E+01 3.83090E+01 0.00000E+00
 -1      3061 9.61500E+01 3.70100E+01 0.00000E+00
 -1      3062 9.99000E+01 3.83090E+01 0.00000E+00
 -1      3063 1.01400E+02 3.83090E+01 0.00000E+00
 -1      3064 9.91500E+01 3.70100E+01 0.00000E+00
 -1      3065 1.02900E+02 3.83090E+01 0.00000E+00
 -1      3066 1.04400E+02 3.83090E+01 0.00000E+00
 -1      3067 1.02150E+02 3.70100E+01 0.00000E+00
 -1      3068 1.05900E+02 3.83090E+01 0.00000E+00
 -1      3069 1.07400E+02 3.83090E+01 0.00000E+00
 -1      3070 1.05150E+02 3.70100E+01 0.00000E+00
 -1      3071 1.08900E+02 3.83090E+01 0.00000E+00
 -1      3072 1.10400E+02 3.83090E+01 0.00000E+00
 -1      3073 1.08150E+02 3.70100E+01 0.00000E+00
 -1      3074 1.11900E+02 3.83090E+01 0.00000E+00
 -1      3075 1.13400E+02 3.83090E+01 0.00000E+00
 -1      3076 1.11150E+02 3.70100E+01 0.00000E+00
 -1      3077 1.14900E+02 3.83090E+01 0.00000E+00
 -1      3078 1.16400E+02 3.83090E+01 0.00000E+00
 -1      3079 1.14150E+02 3.70100E+01 0.00000E+00
 -1      3080 1.17900E+02 3.83090E+01 0.00000E+00
 -1      3081 1.19400E+02 3.83090E+01 0.00000E+00
 -1      3082 1.17150E+02 3.70100E+01 0.00000E+00
 -1      3083 1.20900E+02 3.83090E+01 0.00000E+00
 -1      3084 1.22400E+02 3.83090E+01 0.00000E+00
 -1      3085 1.20150E+02 3.70100E+01 0.00000E+00
 -1      3086 1.23900E+02 3.83090E+01 0.00000E+00
 -1      3087 1.25400E+02 3.83090E+01 0.00000E+00
 -1      3088 1.23150E+02 3.70100E+01 0.00000E+00
 -1      3089 1.26900E+02 3.83090E+01 0.00000E+00
 -1      3090 1.28400E+02 3.83090E+01 0.00000E+00
 -1      3091 1.26150E+02 3.70100E+01 0.00000E+00
 -1      3092 1.29900E+02 3.83090E+01 0.00000E+00
 -1      3093 1.31400E+02 3.83090E+01 0.00000E+00
 -1      3094 1.29150E+02 3.70100E+01 0.00000E+00
 -1      3095 1.32900E+02 3.83090E+01 0.00000E+00
 -1      3096 1.34400E+02 3.83090E+01 0.00000E+00
 -1      3097 1.32150E+02 3.70100E+01 0.00000E+00
 -1      3098 1.35707E+02 3.84231E+01 0.00000E+00
 -1      3099 1.37207E+02 3.84231E+01 0.00000E+00
 -1      3100 1.37572E+02 3.73524E+01 0.00000E+00
 -1      3101 1.34957E+02 3.71241E+01 0.00000E+00
 -1      3102 1.29000E+01 3.83090E+01 0.00000E+00
 -1      3103 1.44000E+01 3.83090E+01 0.00000E+00
 -1      3104 3.51750E+01 1.16910E+01 0.00000E+00
 -1      3105 3.36750E+01 1.16910E+01 0.00000E+00
 -1      3106 3.21750E+01 1.16910E+01 0.00000E+00
 -1      3107 3.06750E+01 1.16910E+01 0.00000E+00
 -1      3108 3.29250E+01 1.29900E+01 0.00000E+00
 -1      3109 4.10250E+01 1.16910E+01 0.00000E+00
 -1      3110 3.95250E+01 1.16910E+01 0.00000E+00
 -1      3111 4.40250E+01 1.16910E+01 0.00000E+00
 -1      3112 4.25250E+01 1.16910E+01 0.00000E+00
 -1      3113 4.17750E+01 1.29900E+01 0.00000E+00
 -1      3114 8.67000E+01 1.14784E+01 0.00000E+00
 -1      3115 8.52000E+01 1.14784E+01 0.00000E+00
 -1      3116 4.83648E+01 1.09411E+01 0.00000E+00
 -1      3117 8.37750E+01 1.14784E+01 0.00000E+00
 -1      3118 8.23500E+01 1.14784E+01 0.00000E+00
 -1      3119 8.45250E+01 1.27774E+01 0.00000E+00
 -1      3120 9.57000E+01 1.14784E+01 0.00000E+00
 -1      3121 9.42000E+01 1.14784E+01 0.00000E+00
 -1      3122 9.27000E+01 1.14784E+01 0.00000E+00
 -1      3123 9.12000E+01 1.14784E+01 0.00000E+00
 -1      3124 9.34500E+01 1.27774E+01 0.00000E+00
 -1      3125 1.01588E+02 1.14784E+01 0.00000E+00
 -1      3126 1.00162E+02 1.14784E+01 0.00000E+00
 -1      3127 1.04588E+02 1.14784E+01 0.00000E+00
 -1      3128 1.03088E+02 1.14784E+01 0.00000E+00
 -1      3129 1.02375E+02 1.27774E+01 0.00000E+00
 -1      3130 1.07588E+02 1.14784E+01 0.00000E+00
 -1      3131 1.06088E+02 1.14784E+01 0.00000E+00
 -1      3132 1.05375E+02 1.27774E+01 0.00000E+00
 -1      3133 1.10588E+02 1.14784E+01 0.00000E+00
 -1      3134 1.09088E+02 1.14784E+01 0.00000E+00
 -1      3135 1.08375E+02 1.27774E+01 0.00000E+00
 -1      3136 1.13588E+02 1.14784E+01 0.00000E+00
 -1      3137 1.12088E+02 1.14784E+01 0.00000E+00
 -1      3138 1.11375E+02 1.27774E+01 0.00000E+00
 -1      3139 1.16588E+02 1.14784E+01 0.00000E+00
 -1      3140 1.15088E+02 1.14784E+01 0.00000E+00
 -1      3141 1.14375E+02 1.27774E+01 0.00000E+00
 -1      3142 1.19588E+02 1.14784E+01 0.00000E+00
 -1      3143 1.18088E+02 1.14784E+01 0.00000E+00
 -1      3144 1.17375E+02 1.27774E+01 0.00000E+00
 -1      3145 1.22438E+02 1.14784E+01 0.00000E+00
 -1      3146 1.21012E+02 1.14784E+01 0.00000E+00
 -1      3147 1.20300E+02 1.27774E+01 0.00000E+00
 -1      3148 1.25438E+02 1.14784E+01 0.00000E+00
 -1      3149 1.23938E+02 1.14784E+01 0.00000E+00
 -1      3150 1.23225E+02 1.27774E+01 0.00000E+00
 -1      3151 1.28438E+02 1.14784E+01 0.00000E+00
 -1      3152 1.26938E+02 1.14784E+01 0.00000E+00
 -1      3153 1.26225E+02 1.27774E+01 0.00000E+00
 -1      3154 1.31438E+02 1.14784E+01 0.00000E+00
 -1      3155 1.29938E+02 1.14784E+01 0.00000E+00
 -1      3156 1.29225E+02 1.27774E+01 0.00000E+00
 -1      3157 1.34438E+02 1.14784E+01 0.00000E+00
 -1      3158 1.32938E+02 1.14784E+01 0.00000E+00
 -1      3159 1.32225E+02 1.27774E+01 0.00000E+00
 -1      3160 1.37438E+02 1.14784E+01 0.00000E+00
 -1      3161 1.35938E+02 1.14784E+01 0.00000E+00
 -1      3162 1.35225E+02 1.27774E+01 0.00000E+00
 -1      3163 1.38309E+02 2.28125E+01 0.00000E+00
 -1      3164 1.38309E+02 2.13375E+01 0.00000E+00
 -1      3165 1.38309E+02 3.45875E+01 0.00000E+00
 -1      3166 1.38309E+02 3.31125E+01 0.00000E+00
 -1      3167 1.38309E+02 3.16375E+01 0.00000E+00
 -1      3168 1.38309E+02 3.01625E+01 0.00000E+00
 -1      3169 1.37010E+02 3.23750E+01 0.00000E+00
 -1      3170 8.08500E+01 1.14784E+01 0.00000E+00
 -1      3171 7.93500E+01 1.14784E+01 0.00000E+00
 -1      3172 8.16000E+01 1.27774E+01 0.00000E+00
 -1      3173 4.84352E+01 1.63296E+01 0.00000E+00
 -1      3174 4.85619E+01 1.50088E+01 0.00000E+00
 -1      3175 4.76394E+01 1.42007E+01 0.00000E+00
 -1      3176 8.99606E+00 3.70363E+01 0.00000E+00
 -1      3177 9.02831E+00 3.82715E+01 0.00000E+00
 -1      3178 1.01012E+01 3.83715E+01 0.00000E+00
 -1      3179 1.02951E+01 3.62988E+01 0.00000E+00
 -1      3180 7.69454E+01 1.10449E+01 0.00000E+00
 -1      3181 2.01750E+01 1.16910E+01 0.00000E+00
 -1      3182 1.86750E+01 1.16910E+01 0.00000E+00
 -1      3183 9.86813E+01 1.14784E+01 0.00000E+00
 -1      3184 9.71813E+01 1.14784E+01 0.00000E+00
 -1      3185 9.64313E+01 1.27774E+01 0.00000E+00
 -1      3186 9.93938E+01 1.27774E+01 0.00000E+00
 -1      3187 3.80625E+01 1.16910E+01 0.00000E+00
 -1      3188 3.66375E+01 1.16910E+01 0.00000E+00
 -1      3189 3.58875E+01 1.29900E+01 0.00000E+00
 -1      3190 3.88125E+01 1.29900E+01 0.00000E+00
 -1      3191 2.31750E+01 1.16910E+01 0.00000E+00
 -1      3192 2.16750E+01 1.16910E+01 0.00000E+00
 -1      3193 2.09250E+01 1.29900E+01 0.00000E+00
 -1      3194 1.59000E+01 3.83090E+01 0.00000E+00
 -1      3195 1.74000E+01 3.83090E+01 0.00000E+00
 -1      3196 1.81500E+01 3.70100E+01 0.00000E+00
 -1      3197 1.38309E+02 1.69219E+01 0.00000E+00
 -1      3198 1.38309E+02 1.54531E+01 0.00000E+00
 -1      3199 8.97000E+01 1.14784E+01 0.00000E+00
 -1      3200 8.82000E+01 1.14784E+01 0.00000E+00
 -1      3201 8.74500E+01 1.27774E+01 0.00000E+00
 -1      3202 9.04500E+01 1.27774E+01 0.00000E+00
 -1      3203 6.53760E+01 2.83262E+01 0.00000E+00
 -1      3204 6.39451E+01 2.85950E+01 0.00000E+00
 -1      3205 2.61750E+01 1.16910E+01 0.00000E+00
 -1      3206 2.46750E+01 1.16910E+01 0.00000E+00
 -1      3207 2.39250E+01 1.29900E+01 0.00000E+00
 -1      3208 7.54414E+01 1.80895E+01 0.00000E+00
 -1      3209 7.51703E+01 1.93644E+01 0.00000E+00
 -1      3210 7.30262E+01 2.40372E+01 0.00000E+00
 -1      3211 7.18410E+01 2.50097E+01 0.00000E+00
 -1      3212 2.91750E+01 1.16910E+01 0.00000E+00
 -1      3213 2.76750E+01 1.16910E+01 0.00000E+00
 -1      3214 2.99250E+01 1.29900E+01 0.00000E+00
 -1      3215 1.38309E+02 1.98656E+01 0.00000E+00
 -1      3216 1.38309E+02 1.83937E+01 0.00000E+00
 -1      3217 1.37010E+02 2.06031E+01 0.00000E+00
 -1      3218 6.22375E+01 2.86579E+01 0.00000E+00
 -1      3219 6.06441E+01 2.86475E+01 0.00000E+00
 -1      3220 7.04035E+01 2.58018E+01 0.00000E+00
 -1      3221 6.92950E+01 2.64357E+01 0.00000E+00
 -1      3222 6.92067E+01 2.76635E+01 0.00000E+00
 -1      3223 7.81036E+01 1.19788E+01 0.00000E+00
 -1      3224 7.64491E+01 1.28443E+01 0.00000E+00
 -1      3225 7.63609E+01 1.42786E+01 0.00000E+00
 -1      3226 7.88536E+01 1.32778E+01 0.00000E+00
 -1      3227 5.89047E+01 2.84372E+01 0.00000E+00
 -1      3228 5.77353E+01 2.79930E+01 0.00000E+00
 -1      3229 7.59818E+01 1.56296E+01 0.00000E+00
 -1      3230 7.57116E+01 1.68595E+01 0.00000E+00
 -1      3231 7.65788E+01 1.77102E+01 0.00000E+00
 -1      3232 4.89371E+01 1.93275E+01 0.00000E+00
 -1      3233 4.85622E+01 1.80617E+01 0.00000E+00
 -1      3234 5.38941E+01 2.56763E+01 0.00000E+00
 -1      3235 5.29733E+01 2.46530E+01 0.00000E+00
 -1      3236 1.16910E+01 2.12875E+01 0.00000E+00
 -1      3237 1.16910E+01 2.27625E+01 0.00000E+00
 -1      3238 4.99950E+01 2.15325E+01 0.00000E+00
 -1      3239 4.94500E+01 2.06929E+01 0.00000E+00
 -1      3240 7.48424E+01 2.09529E+01 0.00000E+00
 -1      3241 7.42575E+01 2.23730E+01 0.00000E+00
 -1      3242 5.64130E+01 2.73558E+01 0.00000E+00
 -1      3243 5.52451E+01 2.66726E+01 0.00000E+00
 -1      3244 4.77706E+01 1.16360E+01 0.00000E+00
 -1      3245 4.71808E+01 1.10869E+01 0.00000E+00
 -1      3246 4.71763E+01 1.23308E+01 0.00000E+00
 -1      3247 1.36867E+02 1.44824E+01 0.00000E+00
 -1      3248 1.38167E+02 1.37481E+01 0.00000E+00
 -1      3249 7.72281E+01 1.51292E+01 0.00000E+00
 -1      3250 1.51500E+01 3.70100E+01 0.00000E+00
 -1      3251 7.59807E+01 2.05287E+01 0.00000E+00
 -1      3252 1.38309E+02 2.57500E+01 0.00000E+00
 -1      3253 1.38309E+02 2.42813E+01 0.00000E+00
 -1      3254 1.37010E+02 2.35438E+01 0.00000E+00
 -1      3255 1.37010E+02 1.76594E+01 0.00000E+00
 -1      3256 6.64740E+01 2.88827E+01 0.00000E+00
 -1      3257 4.56808E+01 1.10869E+01 0.00000E+00
 -1      3258 1.16910E+01 3.30594E+01 0.00000E+00
 -1      3259 1.16910E+01 3.45281E+01 0.00000E+00
 -1      3260 6.31422E+01 2.95311E+01 0.00000E+00
 -1      3261 6.04859E+01 3.03303E+01 0.00000E+00
 -1      3262 5.96953E+01 2.93837E+01 0.00000E+00
 -1      3263 5.87466E+01 3.01199E+01 0.00000E+00
 -1      3264 1.39023E+02 1.13834E+01 0.00000E+00
 -1      3265 5.66337E+01 2.85362E+01 0.00000E+00
 -1      3266 1.37010E+02 2.94312E+01 0.00000E+00
 -1      3267 1.38309E+02 2.86938E+01 0.00000E+00
 -1      3268 1.38309E+02 2.72250E+01 0.00000E+00
 -1      3269 5.39604E+01 2.69027E+01 0.00000E+00
 -1      3270 4.99870E+01 2.24521E+01 0.00000E+00
 -1      3271 4.76397E+01 1.72536E+01 0.00000E+00
 -1      3272 4.67172E+01 1.64456E+01 0.00000E+00
 -1      3273 4.68443E+01 1.81777E+01 0.00000E+00
 -1      3274 1.16910E+01 1.98188E+01 0.00000E+00
 -1      3275 1.29900E+01 2.05562E+01 0.00000E+00
 -1      3276 1.16910E+01 1.83500E+01 0.00000E+00
 -1      3277 1.16910E+01 3.01219E+01 0.00000E+00
 -1      3278 1.16910E+01 3.15906E+01 0.00000E+00
 -1      3279 1.29900E+01 3.23250E+01 0.00000E+00
 -1      3280 7.44215E+01 2.37813E+01 0.00000E+00
 -1      3281 7.45855E+01 2.51896E+01 0.00000E+00
 -1      3282 7.58167E+01 2.35255E+01 0.00000E+00
 -1      3283 7.17527E+01 2.62376E+01 0.00000E+00
 -1      3284 4.49308E+01 1.23859E+01 0.00000E+00
 -1      3285 1.38310E+02 1.26824E+01 0.00000E+00
 -1      3286 2.69250E+01 1.29900E+01 0.00000E+00
 -1      3287 5.18955E+01 2.45470E+01 0.00000E+00
 -1      3288 1.32611E+01 1.33376E+01 0.00000E+00
 -1      3289 1.20041E+01 1.47948E+01 0.00000E+00
 -1      3290 1.16910E+01 2.42375E+01 0.00000E+00
 -1      3291 1.16910E+01 2.57125E+01 0.00000E+00
 -1      3292 1.29900E+01 2.35000E+01 0.00000E+00
 -1      3293 1.20041E+01 1.62636E+01 0.00000E+00
 -1      3294 4.82796E+01 2.03511E+01 0.00000E+00
 -1      3295 1.75459E+01 1.15329E+01 0.00000E+00
 -1      3296 1.64167E+01 1.13748E+01 0.00000E+00
 -1      3297 1.82959E+01 1.28319E+01 0.00000E+00
 -1      3298 1.37758E+02 3.65053E+01 0.00000E+00
 -1      3299 1.38123E+02 3.54346E+01 0.00000E+00
 -1      3300 1.36824E+02 3.46971E+01 0.00000E+00
 -1      3301 1.36451E+02 3.63912E+01 0.00000E+00
 -1      3302 1.11741E+01 3.84716E+01 0.00000E+00
 -1      3303 1.19241E+01 3.71726E+01 0.00000E+00
 -1      3304 1.42864E+01 1.09181E+01 0.00000E+00
 -1      3305 7.84854E+01 1.47533E+01 0.00000E+00
 -1      3306 7.81062E+01 1.61043E+01 0.00000E+00
 -1      3307 2.34000E+01 3.57110E+01 0.00000E+00
 -1      3308 2.49000E+01 3.57110E+01 0.00000E+00
 -1      3309 2.64000E+01 3.57110E+01 0.00000E+00
 -1      3310 2.79000E+01 3.57110E+01 0.00000E+00
 -1      3311 2.56500E+01 3.44120E+01 0.00000E+00
 -1      3312 2.94000E+01 3.57110E+01 0.00000E+00
 -1      3313 3.09000E+01 3.57110E+01 0.00000E+00
 -1      3314 2.86500E+01 3.44120E+01 0.00000E+00
 -1      3315 3.24000E+01 3.57110E+01 0.00000E+00
 -1      3316 3.39000E+01 3.57110E+01 0.00000E+00
 -1      3317 3.16500E+01 3.44120E+01 0.00000E+00
 -1      3318 3.54000E+01 3.57110E+01 0.00000E+00
 -1      3319 3.69000E+01 3.57110E+01 0.00000E+00
 -1      3320 3.46500E+01 3.44120E+01 0.00000E+00
 -1      3321 3.84000E+01 3.57110E+01 0.00000E+00
 -1      3322 3.99000E+01 3.57110E+01 0.00000E+00
 -1      3323 3.76500E+01 3.44120E+01 0.00000E+00
 -1      3324 4.14000E+01 3.57110E+01 0.00000E+00
 -1      3325 4.29000E+01 3.57110E+01 0.00000E+00
 -1      3326 4.06500E+01 3.44120E+01 0.00000E+00
 -1      3327 4.44000E+01 3.57110E+01 0.00000E+00
 -1      3328 4.59000E+01 3.57110E+01 0.00000E+00
 -1      3329 4.36500E+01 3.44120E+01 0.00000E+00
 -1      3330 4.74000E+01 3.57110E+01 0.00000E+00
 -1      3331 4.89000E+01 3.57110E+01 0.00000E+00
 -1      3332 4.66500E+01 3.44120E+01 0.00000E+00
 -1      3333 5.04000E+01 3.57110E+01 0.00000E+00
 -1      3334 5.19000E+01 3.57110E+01 0.00000E+00
 -1      3335 4.96500E+01 3.44120E+01 0.00000E+00
 -1      3336 5.34000E+01 3.57110E+01 0.00000E+00
 -1      3337 5.49000E+01 3.57110E+01 0.00000E+00
 -1      3338 5.26500E+01 3.44120E+01 0.00000E+00
 -1      3339 5.64000E+01 3.57110E+01 0.00000E+00
 -1      3340 5.79000E+01 3.57110E+01 0.00000E+00
 -1      3341 5.56500E+01 3.44120E+01 0.00000E+00
 -1      3342 5.94000E+01 3.57110E+01 0.00000E+00
 -1      3343 6.09000E+01 3.57110E+01 0.00000E+00
 -1      3344 5.86500E+01 3.44120E+01 0.00000E+00
 -1      3345 6.24000E+01 3.57110E+01 0.00000E+00
 -1      3346 6.39000E+01 3.57110E+01 0.00000E+00
 -1      3347 6.16500E+01 3.44120E+01 0.00000E+00
 -1      3348 6.54000E+01 3.57110E+01 0.00000E+00
 -1      3349 6.69000E+01 3.57110E+01 0.00000E+00
 -1      3350 6.46500E+01 3.44120E+01 0.00000E+00
 -1      3351 6.84000E+01 3.57110E+01 0.00000E+00
 -1      3352 6.99000E+01 3.57110E+01 0.00000E+00
 -1      3353 6.76500E+01 3.44120E+01 0.00000E+00
 -1      3354 7.14000E+01 3.57110E+01 0.00000E+00
 -1      3355 7.29000E+01 3.57110E+01 0.00000E+00
 -1      3356 7.06500E+01 3.44120E+01 0.00000E+00
 -1      3357 7.44000E+01 3.57110E+01 0.00000E+00
 -1      3358 7.59000E+01 3.57110E+01 0.00000E+00
 -1      3359 7.36500E+01 3.44120E+01 0.00000E+00
 -1      3360 7.74000E+01 3.57110E+01 0.00000E+00
 -1      3361 7.89000E+01 3.57110E+01 0.00000E+00
 -1      3362 7.66500E+01 3.44120E+01 0.00000E+00
 -1      3363 8.04000E+01 3.57110E+01 0.00000E+00
 -1      3364 8.19000E+01 3.57110E+01 0.00000E+00
 -1      3365 7.96500E+01 3.44120E+01 0.00000E+00
 -1      3366 8.34000E+01 3.57110E+01 0.00000E+00
 -1      3367 8.49000E+01 3.57110E+01 0.00000E+00
 -1      3368 8.26500E+01 3.44120E+01 0.00000E+00
 -1      3369 8.64000E+01 3.57110E+01 0.00000E+00
 -1      3370 8.79000E+01 3.57110E+01 0.00000E+00
 -1      3371 8.56500E+01 3.44120E+01 0.00000E+00
 -1      3372 8.94000E+01 3.57110E+01 0.00000E+00
 -1      3373 9.09000E+01 3.57110E+01 0.00000E+00
 -1      3374 8.86500E+01 3.44120E+01 0.00000E+00
 -1      3375 9.24000E+01 3.57110E+01 0.00000E+00
 -1      3376 9.39000E+01 3.57110E+01 0.00000E+00
 -1      3377 9.16500E+01 3.44120E+01 0.00000E+00
 -1      3378 9.54000E+01 3.57110E+01 0.00000E+00
 -1      3379 9.69000E+01 3.57110E+01 0.00000E+00
 -1      3380 9.46500E+01 3.44120E+01 0.00000E+00
 -1      3381 9.84000E+01 3.57110E+01 0.00000E+00
 -1      3382 9.99000E+01 3.57110E+01 0.00000E+00
 -1      3383 9.76500E+01 3.44120E+01 0.00000E+00
 -1      3384 1.01400E+02 3.57110E+01 0.00000E+00
 -1      3385 1.02900E+02 3.57110E+01 0.00000E+00
 -1      3386 1.00650E+02 3.44120E+01 0.00000E+00
 -1      3387 1.04400E+02 3.57110E+01 0.00000E+00
 -1      3388 1.05900E+02 3.57110E+01 0.00000E+00
 -1      3389 1.03650E+02 3.44120E+01 0.00000E+00
 -1      3390 1.07400E+02 3.57110E+01 0.00000E+00
 -1      3391 1.08900E+02 3.57110E+01 0.00000E+00
 -1      3392 1.06650E+02 3.44120E+01 0.00000E+00
 -1      3393 1.10400E+02 3.57110E+01 0.00000E+00
 -1      3394 1.11900E+02 3.57110E+01 0.00000E+00
 -1      3395 1.09650E+02 3.44120E+01 0.00000E+00
 -1      3396 1.13400E+02 3.57110E+01 0.00000E+00
 -1      3397 1.14900E+02 3.57110E+01 0.00000E+00
 -1      3398 1.12650E+02 3.44120E+01 0.00000E+00
 -1      3399 1.16400E+02 3.57110E+01 0.00000E+00
 -1      3400 1.17900E+02 3.57110E+01 0.00000E+00
 -1      3401 1.15650E+02 3.44120E+01 0.00000E+00
 -1      3402 1.19400E+02 3.57110E+01 0.00000E+00
 -1      3403 1.20900E+02 3.57110E+01 0.00000E+00
 -1      3404 1.18650E+02 3.44120E+01 0.00000E+00
 -1      3405 1.22400E+02 3.57110E+01 0.00000E+00
 -1      3406 1.23900E+02 3.57110E+01 0.00000E+00
 -1      3407 1.21650E+02 3.44120E+01 0.00000E+00
 -1      3408 1.25400E+02 3.57110E+01 0.00000E+00
 -1      3409 1.26900E+02 3.57110E+01 0.00000E+00
 -1      3410 1.24650E+02 3.44120E+01 0.00000E+00
 -1      3411 1.28400E+02 3.57110E+01 0.00000E+00
 -1      3412 1.29900E+02 3.57110E+01 0.00000E+00
 -1      3413 1.27650E+02 3.44120E+01 0.00000E+00
 -1      3414 1.31400E+02 3.57110E+01 0.00000E+00
 -1      3415 1.32900E+02 3.57110E+01 0.00000E+00
 -1      3416 1.30650E+02 3.44120E+01 0.00000E+00
 -1      3417 2.16750E+01 1.42890E+01 0.00000E+00
 -1      3418 2.01750E+01 1.42890E+01 0.00000E+00
 -1      3419 4.25250E+01 1.41827E+01 0.00000E+00
 -1      3420 4.10250E+01 1.41827E+01 0.00000E+00
 -1      3421 1.35510E+02 1.61875E+01 0.00000E+00
 -1      3422 1.35367E+02 1.44824E+01 0.00000E+00
 -1      3423 1.33867E+02 1.44824E+01 0.00000E+00
 -1      3424 1.20210E+01 3.61362E+01 0.00000E+00
 -1      3425 6.40369E+01 3.06077E+01 0.00000E+00
 -1      3426 6.23293E+01 3.06707E+01 0.00000E+00
 -1      3427 8.52375E+01 1.40764E+01 0.00000E+00
 -1      3428 8.38125E+01 1.40764E+01 0.00000E+00
 -1      3429 1.06125E+02 1.40764E+01 0.00000E+00
 -1      3430 1.04625E+02 1.40764E+01 0.00000E+00
 -1      3431 1.03125E+02 1.40764E+01 0.00000E+00
 -1      3432 1.01625E+02 1.40764E+01 0.00000E+00
 -1      3433 1.03875E+02 1.53754E+01 0.00000E+00
 -1      3434 1.12125E+02 1.40764E+01 0.00000E+00
 -1      3435 1.10625E+02 1.40764E+01 0.00000E+00
 -1      3436 1.15125E+02 1.40764E+01 0.00000E+00
 -1      3437 1.13625E+02 1.40764E+01 0.00000E+00
 -1      3438 1.12875E+02 1.53754E+01 0.00000E+00
 -1      3439 1.18125E+02 1.40764E+01 0.00000E+00
 -1      3440 1.16625E+02 1.40764E+01 0.00000E+00
 -1      3441 1.15875E+02 1.53754E+01 0.00000E+00
 -1      3442 1.20975E+02 1.40764E+01 0.00000E+00
 -1      3443 1.19550E+02 1.40764E+01 0.00000E+00
 -1      3444 1.18800E+02 1.53754E+01 0.00000E+00
 -1      3445 1.23975E+02 1.40764E+01 0.00000E+00
 -1      3446 1.22475E+02 1.40764E+01 0.00000E+00
 -1      3447 1.21725E+02 1.53754E+01 0.00000E+00
 -1      3448 1.26975E+02 1.40764E+01 0.00000E+00
 -1      3449 1.25475E+02 1.40764E+01 0.00000E+00
 -1      3450 1.24725E+02 1.53754E+01 0.00000E+00
 -1      3451 1.29975E+02 1.40764E+01 0.00000E+00
 -1      3452 1.28475E+02 1.40764E+01 0.00000E+00
 -1      3453 1.27725E+02 1.53754E+01 0.00000E+00
 -1      3454 1.32671E+02 1.42794E+01 0.00000E+00
 -1      3455 1.31171E+02 1.42794E+01 0.00000E+00
 -1      3456 1.30421E+02 1.55784E+01 0.00000E+00
 -1      3457 1.32814E+02 1.59845E+01 0.00000E+00
 -1      3458 1.33200E+01 3.54019E+01 0.00000E+00
 -1      3459 1.35510E+02 1.76594E+01 0.00000E+00
 -1      3460 1.16910E+01 2.71844E+01 0.00000E+00
 -1      3461 1.16910E+01 2.86531E+01 0.00000E+00
 -1      3462 1.29900E+01 2.93875E+01 0.00000E+00
 -1      3463 4.65800E+01 1.35678E+01 0.00000E+00
 -1      3464 4.59902E+01 1.30188E+01 0.00000E+00
 -1      3465 4.43344E+01 1.36229E+01 0.00000E+00
 -1      3466 4.64533E+01 1.48886E+01 0.00000E+00
 -1      3467 8.20831E+01 1.36771E+01 0.00000E+00
 -1      3468 8.05831E+01 1.36771E+01 0.00000E+00
 -1      3469 7.93367E+01 1.41775E+01 0.00000E+00
 -1      3470 8.27956E+01 1.49761E+01 0.00000E+00
 -1      3471 1.50364E+01 1.22171E+01 0.00000E+00
 -1      3472 3.06750E+01 1.42890E+01 0.00000E+00
 -1      3473 2.91750E+01 1.42890E+01 0.00000E+00
 -1      3474 1.74000E+01 3.57110E+01 0.00000E+00
 -1      3475 1.89000E+01 3.57110E+01 0.00000E+00
 -1      3476 7.73127E+01 1.99755E+01 0.00000E+00
 -1      3477 7.69848E+01 2.15641E+01 0.00000E+00
 -1      3478 6.76905E+01 2.97121E+01 0.00000E+00
 -1      3479 6.60663E+01 3.02975E+01 0.00000E+00
 -1      3480 1.35711E+02 3.31125E+01 0.00000E+00
 -1      3481 1.35711E+02 3.16375E+01 0.00000E+00
 -1      3482 5.39281E+01 2.83608E+01 0.00000E+00
 -1      3483 5.25770E+01 2.73645E+01 0.00000E+00
 -1      3484 2.76750E+01 1.42890E+01 0.00000E+00
 -1      3485 2.61750E+01 1.42890E+01 0.00000E+00
 -1      3486 2.84250E+01 1.55880E+01 0.00000E+00
 -1      3487 1.09125E+02 1.40764E+01 0.00000E+00
 -1      3488 1.07625E+02 1.40764E+01 0.00000E+00
 -1      3489 1.06875E+02 1.53754E+01 0.00000E+00
 -1      3490 1.09875E+02 1.53754E+01 0.00000E+00
 -1      3491 1.53915E+01 1.37942E+01 0.00000E+00
 -1      3492 5.68135E+01 2.98538E+01 0.00000E+00
 -1      3493 5.54912E+01 2.92166E+01 0.00000E+00
 -1      3494 2.46750E+01 1.42890E+01 0.00000E+00
 -1      3495 2.31750E+01 1.42890E+01 0.00000E+00
 -1      3496 2.24250E+01 1.55880E+01 0.00000E+00
 -1      3497 2.54250E+01 1.55880E+01 0.00000E+00
 -1      3498 9.42000E+01 1.40764E+01 0.00000E+00
 -1      3499 9.27000E+01 1.40764E+01 0.00000E+00
 -1      3500 5.11024E+01 2.58307E+01 0.00000E+00
 -1      3501 5.03885E+01 2.44713E+01 0.00000E+00
 -1      3502 1.35711E+02 2.13391E+01 0.00000E+00
 -1      3503 1.35711E+02 1.98672E+01 0.00000E+00
 -1      3504 7.03114E+01 2.83092E+01 0.00000E+00
 -1      3505 6.92029E+01 2.89431E+01 0.00000E+00
 -1      3506 1.46100E+01 3.55564E+01 0.00000E+00
 -1      3507 1.61100E+01 3.55564E+01 0.00000E+00
 -1      3508 1.68600E+01 3.42574E+01 0.00000E+00
 -1      3509 1.42800E+01 3.39483E+01 0.00000E+00
 -1      3510 3.36750E+01 1.42890E+01 0.00000E+00
 -1      3511 3.21750E+01 1.42890E+01 0.00000E+00
 -1      3512 3.14250E+01 1.55880E+01 0.00000E+00
 -1      3513 7.78360E+01 1.73343E+01 0.00000E+00
 -1      3514 7.75658E+01 1.85643E+01 0.00000E+00
 -1      3515 7.90932E+01 1.69584E+01 0.00000E+00
 -1      3516 4.73199E+01 2.14906E+01 0.00000E+00
 -1      3517 4.68071E+01 2.01252E+01 0.00000E+00
 -1      3518 1.33031E+01 1.70011E+01 0.00000E+00
 -1      3519 7.31864E+01 2.67250E+01 0.00000E+00
 -1      3520 7.17489E+01 2.75171E+01 0.00000E+00
 -1      3521 7.17451E+01 2.87967E+01 0.00000E+00
 -1      3522 4.91939E+01 2.37357E+01 0.00000E+00
 -1      3523 2.04000E+01 3.57110E+01 0.00000E+00
 -1      3524 2.19000E+01 3.57110E+01 0.00000E+00
 -1      3525 2.26500E+01 3.44120E+01 0.00000E+00
 -1      3526 8.02148E+01 1.51526E+01 0.00000E+00
 -1      3527 1.97959E+01 1.54299E+01 0.00000E+00
 -1      3528 1.90459E+01 1.41309E+01 0.00000E+00
 -1      3529 1.79167E+01 1.39727E+01 0.00000E+00
 -1      3530 9.56813E+01 1.40764E+01 0.00000E+00
 -1      3531 9.49313E+01 1.53754E+01 0.00000E+00
 -1      3532 9.71625E+01 1.40764E+01 0.00000E+00
 -1      3533 1.34022E+02 3.59940E+01 0.00000E+00
 -1      3534 1.35329E+02 3.61082E+01 0.00000E+00
 -1      3535 1.35515E+02 3.52611E+01 0.00000E+00
 -1      3536 1.33272E+02 3.46950E+01 0.00000E+00
 -1      3537 1.37010E+02 2.64875E+01 0.00000E+00
 -1      3538 4.03125E+01 1.53754E+01 0.00000E+00
 -1      3539 3.95625E+01 1.41827E+01 0.00000E+00
 -1      3540 3.81000E+01 1.41827E+01 0.00000E+00
 -1      3541 3.66000E+01 1.42890E+01 0.00000E+00
 -1      3542 3.51375E+01 1.42890E+01 0.00000E+00
 -1      3543 3.43875E+01 1.55880E+01 0.00000E+00
 -1      3544 7.59770E+01 2.62134E+01 0.00000E+00
 -1      3545 7.45817E+01 2.64692E+01 0.00000E+00
 -1      3546 7.45779E+01 2.77488E+01 0.00000E+00
 -1      3547 8.67375E+01 1.40764E+01 0.00000E+00
 -1      3548 8.60250E+01 1.53754E+01 0.00000E+00
 -1      3549 8.82375E+01 1.40764E+01 0.00000E+00
 -1      3550 6.52534E+01 3.14371E+01 0.00000E+00
 -1      3551 5.41078E+01 2.96784E+01 0.00000E+00
 -1      3552 1.64976E+01 1.49267E+01 0.00000E+00
 -1      3553 1.47223E+01 1.60471E+01 0.00000E+00
 -1      3554 1.44092E+01 1.81336E+01 0.00000E+00
 -1      3555 1.72476E+01 1.62257E+01 0.00000E+00
 -1      3556 6.13806E+01 3.14069E+01 0.00000E+00
 -1      3557 1.00894E+02 1.53754E+01 0.00000E+00
 -1      3558 1.00144E+02 1.40764E+01 0.00000E+00
 -1      3559 9.86625E+01 1.40764E+01 0.00000E+00
 -1      3560 1.29900E+01 2.64469E+01 0.00000E+00
 -1      3561 4.56578E+01 1.58127E+01 0.00000E+00
 -1      3562 6.87952E+01 3.03578E+01 0.00000E+00
 -1      3563 1.35711E+02 3.01688E+01 0.00000E+00
 -1      3564 1.35711E+02 2.87000E+01 0.00000E+00
 -1      3565 1.34412E+02 3.09063E+01 0.00000E+00
 -1      3566 1.35711E+02 2.42766E+01 0.00000E+00
 -1      3567 1.35711E+02 2.28078E+01 0.00000E+00
 -1      3568 1.34412E+02 2.20719E+01 0.00000E+00
 -1      3569 7.85699E+01 1.95997E+01 0.00000E+00
 -1      3570 4.58846E+01 1.93171E+01 0.00000E+00
 -1      3571 4.49621E+01 1.85091E+01 0.00000E+00
 -1      3572 4.49250E+01 2.04565E+01 0.00000E+00
 -1      3573 4.46211E+01 1.53141E+01 0.00000E+00
 -1      3574 4.35617E+01 1.46813E+01 0.00000E+00
 -1      3575 4.28117E+01 1.58740E+01 0.00000E+00
 -1      3576 4.48851E+01 1.68711E+01 0.00000E+00
 -1      3577 1.96500E+01 3.44120E+01 0.00000E+00
 -1      3578 7.84808E+01 2.24192E+01 0.00000E+00
 -1      3579 7.71488E+01 2.29724E+01 0.00000E+00
 -1      3580 7.73128E+01 2.43806E+01 0.00000E+00
 -1      3581 9.12188E+01 1.40764E+01 0.00000E+00
 -1      3582 8.97188E+01 1.40764E+01 0.00000E+00
 -1      3583 8.90062E+01 1.53754E+01 0.00000E+00
 -1      3584 9.19688E+01 1.53754E+01 0.00000E+00
 -1      3585 5.10377E+01 2.87468E+01 0.00000E+00
 -1      3586 5.10700E+01 2.72888E+01 0.00000E+00
 -1      3587 4.95630E+01 2.72130E+01 0.00000E+00
 -1      3588 1.42890E+01 2.27625E+01 0.00000E+00
 -1      3589 1.42890E+01 2.42375E+01 0.00000E+00
 -1      3590 5.76040E+01 3.08003E+01 0.00000E+00
 -1      3591 1.42890E+01 1.98250E+01 0.00000E+00
 -1      3592 1.42890E+01 2.12938E+01 0.00000E+00
 -1      3593 1.55880E+01 2.20313E+01 0.00000E+00
 -1      3594 1.34211E+02 1.83953E+01 0.00000E+00
 -1      3595 1.42800E+01 3.24796E+01 0.00000E+00
 -1      3596 1.55700E+01 3.26341E+01 0.00000E+00
 -1      3597 1.42800E+01 3.10108E+01 0.00000E+00
 -1      3598 4.81229E+01 2.55290E+01 0.00000E+00
 -1      3599 4.77214E+01 2.35098E+01 0.00000E+00
 -1      3600 4.62489E+01 2.32838E+01 0.00000E+00
 -1      3601 1.35702E+02 3.44140E+01 0.00000E+00
 -1      3602 1.34403E+02 3.36765E+01 0.00000E+00
 -1      3603 1.35711E+02 2.72258E+01 0.00000E+00
 -1      3604 1.35711E+02 2.57508E+01 0.00000E+00
 -1      3605 1.34412E+02 2.50148E+01 0.00000E+00
 -1      3606 1.34412E+02 2.79633E+01 0.00000E+00
 -1      3607 2.79000E+01 3.31130E+01 0.00000E+00
 -1      3608 2.94000E+01 3.31130E+01 0.00000E+00
 -1      3609 3.09000E+01 3.31130E+01 0.00000E+00
 -1      3610 3.24000E+01 3.31130E+01 0.00000E+00
 -1      3611 3.01500E+01 3.18140E+01 0.00000E+00
 -1      3612 3.39000E+01 3.31130E+01 0.00000E+00
 -1      3613 3.54000E+01 3.31130E+01 0.00000E+00
 -1      3614 3.31500E+01 3.18140E+01 0.00000E+00
 -1      3615 3.69000E+01 3.31130E+01 0.00000E+00
 -1      3616 3.84000E+01 3.31130E+01 0.00000E+00
 -1      3617 3.61500E+01 3.18140E+01 0.00000E+00
 -1      3618 3.99000E+01 3.31130E+01 0.00000E+00
 -1      3619 4.14000E+01 3.31130E+01 0.00000E+00
 -1      3620 3.91500E+01 3.18140E+01 0.00000E+00
 -1      3621 4.29000E+01 3.31130E+01 0.00000E+00
 -1      3622 4.44000E+01 3.31130E+01 0.00000E+00
 -1      3623 4.21500E+01 3.18140E+01 0.00000E+00
 -1      3624 4.59000E+01 3.31130E+01 0.00000E+00
 -1      3625 4.74000E+01 3.31130E+01 0.00000E+00
 -1      3626 4.51500E+01 3.18140E+01 0.00000E+00
 -1      3627 4.89000E+01 3.31130E+01 0.00000E+00
 -1      3628 5.04000E+01 3.31130E+01 0.00000E+00
 -1      3629 4.81500E+01 3.18140E+01 0.00000E+00
 -1      3630 5.49105E+01 3.24731E+01 0.00000E+00
 -1      3631 5.64105E+01 3.24731E+01 0.00000E+00
 -1      3632 5.83436E+01 3.27392E+01 0.00000E+00
 -1      3633 5.98436E+01 3.27392E+01 0.00000E+00
 -1      3634 6.16870E+01 3.30797E+01 0.00000E+00
 -1      3635 6.31870E+01 3.30797E+01 0.00000E+00
 -1      3636 6.46870E+01 3.30797E+01 0.00000E+00
 -1      3637 6.67164E+01 3.27694E+01 0.00000E+00
 -1      3638 6.82164E+01 3.27694E+01 0.00000E+00
 -1      3639 7.29000E+01 3.31130E+01 0.00000E+00
 -1      3640 7.44000E+01 3.31130E+01 0.00000E+00
 -1      3641 7.59000E+01 3.31130E+01 0.00000E+00
 -1      3642 7.74000E+01 3.31130E+01 0.00000E+00
 -1      3643 7.51500E+01 3.18140E+01 0.00000E+00
 -1      3644 7.89000E+01 3.31130E+01 0.00000E+00
 -1      3645 8.04000E+01 3.31130E+01 0.00000E+00
 -1      3646 7.81500E+01 3.18140E+01 0.00000E+00
 -1      3647 8.19000E+01 3.31130E+01 0.00000E+00
 -1      3648 8.34000E+01 3.31130E+01 0.00000E+00
 -1      3649 8.11500E+01 3.18140E+01 0.00000E+00
 -1      3650 8.49000E+01 3.31130E+01 0.00000E+00
 -1      3651 8.64000E+01 3.31130E+01 0.00000E+00
 -1      3652 8.41500E+01 3.18140E+01 0.00000E+00
 -1      3653 8.79000E+01 3.31130E+01 0.00000E+00
 -1      3654 8.94000E+01 3.31130E+01 0.00000E+00
 -1      3655 8.71500E+01 3.18140E+01 0.00000E+00
 -1      3656 9.09000E+01 3.31130E+01 0.00000E+00
 -1      3657 9.24000E+01 3.31130E+01 0.00000E+00
 -1      3658 9.01500E+01 3.18140E+01 0.00000E+00
 -1      3659 9.39000E+01 3.31130E+01 0.00000E+00
 -1      3660 9.54000E+01 3.31130E+01 0.00000E+00
 -1      3661 9.31500E+01 3.18140E+01 0.00000E+00
 -1      3662 9.69000E+01 3.31130E+01 0.00000E+00
 -1      3663 9.84000E+01 3.31130E+01 0.00000E+00
 -1      3664 9.61500E+01 3.18140E+01 0.00000E+00
 -1      3665 9.99000E+01 3.31130E+01 0.00000E+00
 -1      3666 1.01400E+02 3.31130E+01 0.00000E+00
 -1      3667 9.91500E+01 3.18140E+01 0.00000E+00
 -1      3668 1.02900E+02 3.31130E+01 0.00000E+00
 -1      3669 1.04400E+02 3.31130E+01 0.00000E+00
 -1      3670 1.02150E+02 3.18140E+01 0.00000E+00
 -1      3671 1.05900E+02 3.31130E+01 0.00000E+00
 -1      3672 1.07400E+02 3.31130E+01 0.00000E+00
 -1      3673 1.05150E+02 3.18140E+01 0.00000E+00
 -1      3674 1.08900E+02 3.31130E+01 0.00000E+00
 -1      3675 1.10400E+02 3.31130E+01 0.00000E+00
 -1      3676 1.08150E+02 3.18140E+01 0.00000E+00
 -1      3677 1.11900E+02 3.31130E+01 0.00000E+00
 -1      3678 1.13400E+02 3.31130E+01 0.00000E+00
 -1      3679 1.11150E+02 3.18140E+01 0.00000E+00
 -1      3680 1.14900E+02 3.31130E+01 0.00000E+00
 -1      3681 1.16400E+02 3.31130E+01 0.00000E+00
 -1      3682 1.14150E+02 3.18140E+01 0.00000E+00
 -1      3683 1.17900E+02 3.31130E+01 0.00000E+00
 -1      3684 1.19400E+02 3.31130E+01 0.00000E+00
 -1      3685 1.17150E+02 3.18140E+01 0.00000E+00
 -1      3686 1.20900E+02 3.31130E+01 0.00000E+00
 -1      3687 1.22400E+02 3.31130E+01 0.00000E+00
 -1      3688 1.20150E+02 3.18140E+01 0.00000E+00
 -1      3689 1.23900E+02 3.31130E+01 0.00000E+00
 -1      3690 1.25400E+02 3.31130E+01 0.00000E+00
 -1      3691 1.23150E+02 3.18140E+01 0.00000E+00
 -1      3692 1.26900E+02 3.31130E+01 0.00000E+00
 -1      3693 1.28400E+02 3.31130E+01 0.00000E+00
 -1      3694 1.26150E+02 3.18140E+01 0.00000E+00
 -1      3695 1.29900E+02 3.31130E+01 0.00000E+00
 -1      3696 1.31400E+02 3.31130E+01 0.00000E+00
 -1      3697 1.29150E+02 3.18140E+01 0.00000E+00
 -1      3698 1.33281E+02 3.33935E+01 0.00000E+00
 -1      3699 3.21750E+01 1.68870E+01 0.00000E+00
 -1      3700 3.06750E+01 1.68870E+01 0.00000E+00
 -1      3701 1.16625E+02 1.66744E+01 0.00000E+00
 -1      3702 1.15125E+02 1.66744E+01 0.00000E+00
 -1      3703 1.13625E+02 1.66744E+01 0.00000E+00
 -1      3704 1.12125E+02 1.66744E+01 0.00000E+00
 -1      3705 1.14375E+02 1.79734E+01 0.00000E+00
 -1      3706 1.22475E+02 1.66744E+01 0.00000E+00
 -1      3707 1.20975E+02 1.66744E+01 0.00000E+00
 -1      3708 1.25475E+02 1.66744E+01 0.00000E+00
 -1      3709 1.23975E+02 1.66744E+01 0.00000E+00
 -1      3710 1.23225E+02 1.79734E+01 0.00000E+00
 -1      3711 1.28475E+02 1.66744E+01 0.00000E+00
 -1      3712 1.26975E+02 1.66744E+01 0.00000E+00
 -1      3713 1.26225E+02 1.79734E+01 0.00000E+00
 -1      3714 2.91750E+01 1.68870E+01 0.00000E+00
 -1      3715 2.76750E+01 1.68870E+01 0.00000E+00
 -1      3716 2.99250E+01 1.81860E+01 0.00000E+00
 -1      3717 8.13087E+01 1.58526E+01 0.00000E+00
 -1      3718 8.04573E+01 1.64285E+01 0.00000E+00
 -1      3719 1.04625E+02 1.66744E+01 0.00000E+00
 -1      3720 1.03125E+02 1.66744E+01 0.00000E+00
 -1      3721 7.34163E+01 2.99093E+01 0.00000E+00
 -1      3722 7.19788E+01 3.07014E+01 0.00000E+00
 -1      3723 1.42890E+01 2.57094E+01 0.00000E+00
 -1      3724 1.42890E+01 2.71812E+01 0.00000E+00
 -1      3725 1.55880E+01 2.49719E+01 0.00000E+00
 -1      3726 5.37556E+01 3.10378E+01 0.00000E+00
 -1      3727 5.21925E+01 3.01821E+01 0.00000E+00
 -1      3728 5.06855E+01 3.01063E+01 0.00000E+00
 -1      3729 5.29952E+01 3.29768E+01 0.00000E+00
 -1      3730 1.33216E+02 2.04001E+01 0.00000E+00
 -1      3731 1.33015E+02 1.81923E+01 0.00000E+00
 -1      3732 1.31818E+02 1.79893E+01 0.00000E+00
 -1      3733 7.99529E+01 1.91194E+01 0.00000E+00
 -1      3734 7.96998E+01 2.05306E+01 0.00000E+00
 -1      3735 2.19000E+01 3.31130E+01 0.00000E+00
 -1      3736 2.34000E+01 3.31130E+01 0.00000E+00
 -1      3737 8.30381E+01 1.62519E+01 0.00000E+00
 -1      3738 1.89000E+01 3.31130E+01 0.00000E+00
 -1      3739 2.04000E+01 3.31130E+01 0.00000E+00
 -1      3740 2.11500E+01 3.18140E+01 0.00000E+00
 -1      3741 1.65900E+01 3.27963E+01 0.00000E+00
 -1      3742 1.78800E+01 3.29508E+01 0.00000E+00
 -1      3743 1.86300E+01 3.16518E+01 0.00000E+00
 -1      3744 1.65900E+01 3.13275E+01 0.00000E+00
 -1      3745 8.01871E+01 1.76585E+01 0.00000E+00
 -1      3746 6.97288E+01 3.20004E+01 0.00000E+00
 -1      3747 1.19512E+02 1.66744E+01 0.00000E+00
 -1      3748 1.18088E+02 1.66744E+01 0.00000E+00
 -1      3749 1.17338E+02 1.79734E+01 0.00000E+00
 -1      3750 1.20262E+02 1.79734E+01 0.00000E+00
 -1      3751 1.42845E+01 2.83617E+01 0.00000E+00
 -1      3752 1.42845E+01 2.98304E+01 0.00000E+00
 -1      3753 1.55745E+01 2.99850E+01 0.00000E+00
 -1      3754 1.55835E+01 2.76242E+01 0.00000E+00
 -1      3755 2.49000E+01 3.31130E+01 0.00000E+00
 -1      3756 2.64000E+01 3.31130E+01 0.00000E+00
 -1      3757 2.41500E+01 3.18140E+01 0.00000E+00
 -1      3758 1.32531E+02 3.20945E+01 0.00000E+00
 -1      3759 2.01803E+01 1.67954E+01 0.00000E+00
 -1      3760 1.90512E+01 1.66373E+01 0.00000E+00
 -1      3761 2.61750E+01 1.68870E+01 0.00000E+00
 -1      3762 2.46750E+01 1.68870E+01 0.00000E+00
 -1      3763 2.69250E+01 1.81860E+01 0.00000E+00
 -1      3764 9.79125E+01 1.53754E+01 0.00000E+00
 -1      3765 5.07452E+01 3.16778E+01 0.00000E+00
 -1      3766 5.14952E+01 3.29768E+01 0.00000E+00
 -1      3767 7.12288E+01 3.20004E+01 0.00000E+00
 -1      3768 3.36375E+01 1.68870E+01 0.00000E+00
 -1      3769 3.28875E+01 1.81860E+01 0.00000E+00
 -1      3770 3.51000E+01 1.68870E+01 0.00000E+00
 -1      3771 4.10438E+01 1.65681E+01 0.00000E+00
 -1      3772 3.95812E+01 1.65681E+01 0.00000E+00
 -1      3773 3.73500E+01 1.54817E+01 0.00000E+00
 -1      3774 7.73090E+01 2.56602E+01 0.00000E+00
 -1      3775 7.73052E+01 2.69398E+01 0.00000E+00
 -1      3776 7.86410E+01 2.51071E+01 0.00000E+00
 -1      3777 1.33216E+02 2.18688E+01 0.00000E+00
 -1      3778 1.32020E+02 2.16658E+01 0.00000E+00
 -1      3779 1.33216E+02 2.33376E+01 0.00000E+00
 -1      3780 1.01644E+02 1.66744E+01 0.00000E+00
 -1      3781 1.00162E+02 1.66744E+01 0.00000E+00
 -1      3782 1.02394E+02 1.79734E+01 0.00000E+00
 -1      3783 1.11375E+02 1.79734E+01 0.00000E+00
 -1      3784 1.10625E+02 1.66744E+01 0.00000E+00
 -1      3785 1.09125E+02 1.66744E+01 0.00000E+00
 -1      3786 1.30745E+02 1.74333E+01 0.00000E+00
 -1      3787 1.29549E+02 1.72303E+01 0.00000E+00
 -1      3788 1.28799E+02 1.85293E+01 0.00000E+00
 -1      3789 1.30946E+02 1.96412E+01 0.00000E+00
 -1      3790 1.57082E+01 1.88711E+01 0.00000E+00
 -1      3791 1.68870E+01 2.42359E+01 0.00000E+00
 -1      3792 1.68870E+01 2.57078E+01 0.00000E+00
 -1      3793 7.47471E+01 2.88290E+01 0.00000E+00
 -1      3794 7.49808E+01 3.07337E+01 0.00000E+00
 -1      3795 7.64808E+01 3.07337E+01 0.00000E+00
 -1      3796 7.61424E+01 2.85732E+01 0.00000E+00
 -1      3797 1.32531E+02 3.06257E+01 0.00000E+00
 -1      3798 2.71500E+01 3.18140E+01 0.00000E+00
 -1      3799 1.06125E+02 1.66744E+01 0.00000E+00
 -1      3800 1.05375E+02 1.79734E+01 0.00000E+00
 -1      3801 1.07625E+02 1.66744E+01 0.00000E+00
 -1      3802 4.45303E+01 2.18377E+01 0.00000E+00
 -1      3803 4.36078E+01 2.10297E+01 0.00000E+00
 -1      3804 4.39254E+01 1.80105E+01 0.00000E+00
 -1      3805 4.20804E+01 1.70667E+01 0.00000E+00
 -1      3806 1.68870E+01 2.27672E+01 0.00000E+00
 -1      3807 1.81860E+01 2.35031E+01 0.00000E+00
 -1      3808 1.68870E+01 2.12984E+01 0.00000E+00
 -1      3809 4.49318E+01 2.38569E+01 0.00000E+00
 -1      3810 7.98638E+01 2.19389E+01 0.00000E+00
 -1      3811 8.00278E+01 2.33472E+01 0.00000E+00
 -1      3812 8.12468E+01 2.14587E+01 0.00000E+00
 -1      3813 9.27094E+01 1.66744E+01 0.00000E+00
 -1      3814 9.12281E+01 1.66744E+01 0.00000E+00
 -1      3815 4.80582E+01 2.84451E+01 0.00000E+00
 -1      3816 4.80905E+01 2.69870E+01 0.00000E+00
 -1      3817 4.66181E+01 2.67611E+01 0.00000E+00
 -1      3818 2.31750E+01 1.68870E+01 0.00000E+00
 -1      3819 2.16750E+01 1.68870E+01 0.00000E+00
 -1      3820 2.39250E+01 1.81860E+01 0.00000E+00
 -1      3821 8.44412E+01 1.69327E+01 0.00000E+00
 -1      3822 8.29543E+01 1.78092E+01 0.00000E+00
 -1      3823 2.09303E+01 1.80944E+01 0.00000E+00
 -1      3824 9.56719E+01 1.66744E+01 0.00000E+00
 -1      3825 9.41906E+01 1.66744E+01 0.00000E+00
 -1      3826 9.34500E+01 1.79734E+01 0.00000E+00
 -1      3827 8.74412E+01 1.69327E+01 0.00000E+00
 -1      3828 8.59412E+01 1.69327E+01 0.00000E+00
 -1      3829 8.58575E+01 1.84900E+01 0.00000E+00
 -1      3830 8.13170E+01 1.85894E+01 0.00000E+00
 -1      3831 8.27201E+01 1.92702E+01 0.00000E+00
 -1      3832 2.94000E+01 3.05150E+01 0.00000E+00
 -1      3833 3.09000E+01 3.05150E+01 0.00000E+00
 -1      3834 4.95903E+01 3.02425E+01 0.00000E+00
 -1      3835 3.24000E+01 3.05150E+01 0.00000E+00
 -1      3836 3.39000E+01 3.05150E+01 0.00000E+00
 -1      3837 3.16500E+01 2.92160E+01 0.00000E+00
 -1      3838 3.54000E+01 3.05150E+01 0.00000E+00
 -1      3839 3.69000E+01 3.05150E+01 0.00000E+00
 -1      3840 3.46500E+01 2.92160E+01 0.00000E+00
 -1      3841 3.84000E+01 3.05150E+01 0.00000E+00
 -1      3842 3.99000E+01 3.05150E+01 0.00000E+00
 -1      3843 3.76500E+01 2.92160E+01 0.00000E+00
 -1      3844 4.14000E+01 3.05150E+01 0.00000E+00
 -1      3845 4.29000E+01 3.05150E+01 0.00000E+00
 -1      3846 4.06500E+01 2.92160E+01 0.00000E+00
 -1      3847 4.51179E+01 3.00166E+01 0.00000E+00
 -1      3848 4.66179E+01 3.00166E+01 0.00000E+00
 -1      3849 4.80903E+01 3.02425E+01 0.00000E+00
 -1      3850 1.76320E+01 1.75912E+01 0.00000E+00
 -1      3851 7.79808E+01 3.07337E+01 0.00000E+00
 -1      3852 7.94808E+01 3.07337E+01 0.00000E+00
 -1      3853 7.78116E+01 2.96535E+01 0.00000E+00
 -1      3854 8.09808E+01 3.07337E+01 0.00000E+00
 -1      3855 8.24808E+01 3.07337E+01 0.00000E+00
 -1      3856 8.08116E+01 2.96535E+01 0.00000E+00
 -1      3857 8.39808E+01 3.07337E+01 0.00000E+00
 -1      3858 8.54808E+01 3.07337E+01 0.00000E+00
 -1      3859 8.38116E+01 2.96535E+01 0.00000E+00
 -1      3860 8.69808E+01 3.07337E+01 0.00000E+00
 -1      3861 8.84808E+01 3.07337E+01 0.00000E+00
 -1      3862 8.68116E+01 2.96535E+01 0.00000E+00
 -1      3863 8.99808E+01 3.07337E+01 0.00000E+00
 -1      3864 9.14808E+01 3.07337E+01 0.00000E+00
 -1      3865 8.98116E+01 2.96535E+01 0.00000E+00
 -1      3866 9.29808E+01 3.07337E+01 0.00000E+00
 -1      3867 9.44808E+01 3.07337E+01 0.00000E+00
 -1      3868 9.28116E+01 2.96535E+01 0.00000E+00
 -1      3869 9.59808E+01 3.07337E+01 0.00000E+00
 -1      3870 9.74808E+01 3.07337E+01 0.00000E+00
 -1      3871 9.58116E+01 2.96535E+01 0.00000E+00
 -1      3872 9.89808E+01 3.07337E+01 0.00000E+00
 -1      3873 1.00481E+02 3.07337E+01 0.00000E+00
 -1      3874 9.88116E+01 2.96535E+01 0.00000E+00
 -1      3875 1.01981E+02 3.07337E+01 0.00000E+00
 -1      3876 1.03481E+02 3.07337E+01 0.00000E+00
 -1      3877 1.01812E+02 2.96535E+01 0.00000E+00
 -1      3878 1.04981E+02 3.07337E+01 0.00000E+00
 -1      3879 1.06481E+02 3.07337E+01 0.00000E+00
 -1      3880 1.04812E+02 2.96535E+01 0.00000E+00
 -1      3881 1.07981E+02 3.07337E+01 0.00000E+00
 -1      3882 1.09481E+02 3.07337E+01 0.00000E+00
 -1      3883 1.07812E+02 2.96535E+01 0.00000E+00
 -1      3884 1.10981E+02 3.07337E+01 0.00000E+00
 -1      3885 1.12481E+02 3.07337E+01 0.00000E+00
 -1      3886 1.10812E+02 2.96535E+01 0.00000E+00
 -1      3887 1.13981E+02 3.07337E+01 0.00000E+00
 -1      3888 1.15481E+02 3.07337E+01 0.00000E+00
 -1      3889 1.13812E+02 2.96535E+01 0.00000E+00
 -1      3890 1.16981E+02 3.07337E+01 0.00000E+00
 -1      3891 1.18481E+02 3.07337E+01 0.00000E+00
 -1      3892 1.16812E+02 2.96535E+01 0.00000E+00
 -1      3893 1.19981E+02 3.07337E+01 0.00000E+00
 -1      3894 1.21481E+02 3.07337E+01 0.00000E+00
 -1      3895 1.19812E+02 2.96535E+01 0.00000E+00
 -1      3896 1.22981E+02 3.07337E+01 0.00000E+00
 -1      3897 1.24481E+02 3.07337E+01 0.00000E+00
 -1      3898 1.22812E+02 2.96535E+01 0.00000E+00
 -1      3899 1.25981E+02 3.07337E+01 0.00000E+00
 -1      3900 1.27481E+02 3.07337E+01 0.00000E+00
 -1      3901 1.25812E+02 2.96535E+01 0.00000E+00
 -1      3902 1.28981E+02 3.07337E+01 0.00000E+00
 -1      3903 1.30481E+02 3.07337E+01 0.00000E+00
 -1      3904 1.28812E+02 2.96535E+01 0.00000E+00
 -1      3905 3.80906E+01 1.66744E+01 0.00000E+00
 -1      3906 3.65906E+01 1.67807E+01 0.00000E+00
 -1      3907 3.58406E+01 1.80797E+01 0.00000E+00
 -1      3908 3.88219E+01 1.78671E+01 0.00000E+00
 -1      3909 1.26975E+02 1.92724E+01 0.00000E+00
 -1      3910 1.25475E+02 1.92724E+01 0.00000E+00
 -1      3911 1.23975E+02 1.92724E+01 0.00000E+00
 -1      3912 1.22475E+02 1.92724E+01 0.00000E+00
 -1      3913 1.24725E+02 2.05714E+01 0.00000E+00
 -1      3914 3.06750E+01 1.94850E+01 0.00000E+00
 -1      3915 2.91750E+01 1.94850E+01 0.00000E+00
 -1      3916 2.04000E+01 3.05150E+01 0.00000E+00
 -1      3917 2.19000E+01 3.05150E+01 0.00000E+00
 -1      3918 4.21575E+01 1.87046E+01 0.00000E+00
 -1      3919 9.86672E+01 1.66744E+01 0.00000E+00
 -1      3920 9.71672E+01 1.66744E+01 0.00000E+00
 -1      3921 9.64266E+01 1.79734E+01 0.00000E+00
 -1      3922 9.94172E+01 1.79734E+01 0.00000E+00
 -1      3923 9.00753E+01 1.68035E+01 0.00000E+00
 -1      3924 8.85941E+01 1.68035E+01 0.00000E+00
 -1      3925 8.85103E+01 1.83608E+01 0.00000E+00
 -1      3926 9.08159E+01 1.81025E+01 0.00000E+00
 -1      3927 2.64000E+01 3.05150E+01 0.00000E+00
 -1      3928 2.79000E+01 3.05150E+01 0.00000E+00
 -1      3929 2.86500E+01 2.92160E+01 0.00000E+00
 -1      3930 1.81815E+01 2.61523E+01 0.00000E+00
 -1      3931 1.68825E+01 2.68882E+01 0.00000E+00
 -1      3932 1.68780E+01 2.80686E+01 0.00000E+00
 -1      3933 2.15982E+01 1.94368E+01 0.00000E+00
 -1      3934 2.01035E+01 1.93451E+01 0.00000E+00
 -1      3935 2.34000E+01 3.05150E+01 0.00000E+00
 -1      3936 2.49000E+01 3.05150E+01 0.00000E+00
 -1      3937 2.26500E+01 2.92160E+01 0.00000E+00
 -1      3938 1.15125E+02 1.92724E+01 0.00000E+00
 -1      3939 1.13625E+02 1.92724E+01 0.00000E+00
 -1      3940 4.49548E+01 2.55739E+01 0.00000E+00
 -1      3941 4.32361E+01 2.41278E+01 0.00000E+00
 -1      3942 4.13681E+01 2.14670E+01 0.00000E+00
 -1      3943 4.17628E+01 2.00858E+01 0.00000E+00
 -1      3944 3.99178E+01 1.91420E+01 0.00000E+00
 -1      3945 8.45215E+01 1.98983E+01 0.00000E+00
 -1      3946 8.28841E+01 2.06785E+01 0.00000E+00
 -1      3947 8.30481E+01 2.20868E+01 0.00000E+00
 -1      3948 1.75118E+01 1.92826E+01 0.00000E+00
 -1      3949 4.43679E+01 2.87176E+01 0.00000E+00
 -1      3950 1.89135E+01 2.95733E+01 0.00000E+00
 -1      3951 1.96635E+01 2.82743E+01 0.00000E+00
 -1      3952 1.65945E+01 3.01471E+01 0.00000E+00
 -1      3953 1.18050E+02 1.92724E+01 0.00000E+00
 -1      3954 1.16588E+02 1.92724E+01 0.00000E+00
 -1      3955 1.15838E+02 2.05714E+01 0.00000E+00
 -1      3956 9.41906E+01 1.92724E+01 0.00000E+00
 -1      3957 9.27094E+01 1.92724E+01 0.00000E+00
 -1      3958 1.28049E+02 1.98283E+01 0.00000E+00
 -1      3959 1.27299E+02 2.11273E+01 0.00000E+00
 -1      3960 1.29122E+02 2.03842E+01 0.00000E+00
 -1      3961 3.84272E+01 1.92483E+01 0.00000E+00
 -1      3962 1.94787E+01 2.13609E+01 0.00000E+00
 -1      3963 1.88108E+01 2.00186E+01 0.00000E+00
 -1      3964 8.00240E+01 2.46268E+01 0.00000E+00
 -1      3965 8.00202E+01 2.59064E+01 0.00000E+00
 -1      3966 8.14070E+01 2.41465E+01 0.00000E+00
 -1      3967 1.33216E+02 2.48118E+01 0.00000E+00
 -1      3968 1.32020E+02 2.46088E+01 0.00000E+00
 -1      3969 1.33216E+02 2.62860E+01 0.00000E+00
 -1      3970 1.03134E+02 1.92724E+01 0.00000E+00
 -1      3971 1.01653E+02 1.92724E+01 0.00000E+00
 -1      3972 2.84250E+01 2.07840E+01 0.00000E+00
 -1      3973 2.76750E+01 1.94850E+01 0.00000E+00
 -1      3974 2.61750E+01 1.94850E+01 0.00000E+00
 -1      3975 1.12125E+02 1.92724E+01 0.00000E+00
 -1      3976 1.10625E+02 1.92724E+01 0.00000E+00
 -1      3977 1.12875E+02 2.05714E+01 0.00000E+00
 -1      3978 1.31108E+02 2.13030E+01 0.00000E+00
 -1      3979 1.30034E+02 2.07471E+01 0.00000E+00
 -1      3980 1.29284E+02 2.20461E+01 0.00000E+00
 -1      3981 1.31108E+02 2.27717E+01 0.00000E+00
 -1      3982 1.21762E+02 2.05714E+01 0.00000E+00
 -1      3983 1.21012E+02 1.92724E+01 0.00000E+00
 -1      3984 1.19550E+02 1.92724E+01 0.00000E+00
 -1      3985 3.21375E+01 1.94850E+01 0.00000E+00
 -1      3986 3.13875E+01 2.07840E+01 0.00000E+00
 -1      3987 3.36000E+01 1.94850E+01 0.00000E+00
 -1      3988 7.74738E+01 2.77565E+01 0.00000E+00
 -1      3989 7.76430E+01 2.88368E+01 0.00000E+00
 -1      3990 7.91430E+01 2.88368E+01 0.00000E+00
 -1      3991 7.88058E+01 2.72033E+01 0.00000E+00
 -1      3992 1.08375E+02 1.79734E+01 0.00000E+00
 -1      3993 1.06134E+02 1.92724E+01 0.00000E+00
 -1      3994 1.04634E+02 1.92724E+01 0.00000E+00
 -1      3995 1.03894E+02 2.05714E+01 0.00000E+00
 -1      3996 4.49224E+01 2.70320E+01 0.00000E+00
 -1      3997 8.60215E+01 1.98983E+01 0.00000E+00
 -1      3998 2.46750E+01 1.94850E+01 0.00000E+00
 -1      3999 2.31750E+01 1.94850E+01 0.00000E+00
 -1      4000 2.54250E+01 2.07840E+01 0.00000E+00
 -1      4001 1.96725E+01 2.59135E+01 0.00000E+00
 -1      4002 1.96680E+01 2.70939E+01 0.00000E+00
 -1      4003 2.11545E+01 2.80356E+01 0.00000E+00
 -1      4004 2.23482E+01 2.07358E+01 0.00000E+00
 -1      4005 2.56500E+01 2.92160E+01 0.00000E+00
 -1      4006 9.22972E+01 2.07005E+01 0.00000E+00
 -1      4007 9.15566E+01 1.94015E+01 0.00000E+00
 -1      4008 9.04037E+01 1.95307E+01 0.00000E+00
 -1      4009 4.14141E+01 2.49010E+01 0.00000E+00
 -1      4010 4.13911E+01 2.31840E+01 0.00000E+00
 -1      4011 3.95461E+01 2.22401E+01 0.00000E+00
 -1      4012 1.31335E+02 2.89485E+01 0.00000E+00
 -1      4013 1.33216E+02 2.77603E+01 0.00000E+00
 -1      4014 1.94787E+01 2.28297E+01 0.00000E+00
 -1      4015 1.94787E+01 2.42984E+01 0.00000E+00
 -1      4016 2.07713E+01 2.21563E+01 0.00000E+00
 -1      4017 2.09652E+01 2.52401E+01 0.00000E+00
 -1      4018 3.09000E+01 2.79170E+01 0.00000E+00
 -1      4019 3.24000E+01 2.79170E+01 0.00000E+00
 -1      4020 3.39000E+01 2.79170E+01 0.00000E+00
 -1      4021 3.54000E+01 2.79170E+01 0.00000E+00
 -1      4022 3.31500E+01 2.66180E+01 0.00000E+00
 -1      4023 3.69000E+01 2.79170E+01 0.00000E+00
 -1      4024 3.84000E+01 2.79170E+01 0.00000E+00
 -1      4025 3.61500E+01 2.66180E+01 0.00000E+00
 -1      4026 1.76145E+01 3.03093E+01 0.00000E+00
 -1      4027 9.56859E+01 1.92724E+01 0.00000E+00
 -1      4028 9.49453E+01 2.05714E+01 0.00000E+00
 -1      4029 9.71813E+01 1.92724E+01 0.00000E+00
 -1      4030 8.03574E+01 2.75398E+01 0.00000E+00
 -1      4031 8.18574E+01 2.75398E+01 0.00000E+00
 -1      4032 8.60616E+01 2.83545E+01 0.00000E+00
 -1      4033 8.75616E+01 2.83545E+01 0.00000E+00
 -1      4034 8.90616E+01 2.83545E+01 0.00000E+00
 -1      4035 9.05616E+01 2.83545E+01 0.00000E+00
 -1      4036 8.83116E+01 2.70555E+01 0.00000E+00
 -1      4037 9.20616E+01 2.83545E+01 0.00000E+00
 -1      4038 9.35616E+01 2.83545E+01 0.00000E+00
 -1      4039 9.13116E+01 2.70555E+01 0.00000E+00
 -1      4040 9.50616E+01 2.83545E+01 0.00000E+00
 -1      4041 9.65616E+01 2.83545E+01 0.00000E+00
 -1      4042 9.43116E+01 2.70555E+01 0.00000E+00
 -1      4043 9.80616E+01 2.83545E+01 0.00000E+00
 -1      4044 9.95616E+01 2.83545E+01 0.00000E+00
 -1      4045 9.73116E+01 2.70555E+01 0.00000E+00
 -1      4046 1.01062E+02 2.83545E+01 0.00000E+00
 -1      4047 1.02562E+02 2.83545E+01 0.00000E+00
 -1      4048 1.00312E+02 2.70555E+01 0.00000E+00
 -1      4049 1.04062E+02 2.83545E+01 0.00000E+00
 -1      4050 1.05562E+02 2.83545E+01 0.00000E+00
 -1      4051 1.03312E+02 2.70555E+01 0.00000E+00
 -1      4052 1.07062E+02 2.83545E+01 0.00000E+00
 -1      4053 1.08562E+02 2.83545E+01 0.00000E+00
 -1      4054 1.06312E+02 2.70555E+01 0.00000E+00
 -1      4055 1.10062E+02 2.83545E+01 0.00000E+00
 -1      4056 1.11562E+02 2.83545E+01 0.00000E+00
 -1      4057 1.09312E+02 2.70555E+01 0.00000E+00
 -1      4058 1.13062E+02 2.83545E+01 0.00000E+00
 -1      4059 1.14562E+02 2.83545E+01 0.00000E+00
 -1      4060 1.12312E+02 2.70555E+01 0.00000E+00
 -1      4061 1.16062E+02 2.83545E+01 0.00000E+00
 -1      4062 1.17562E+02 2.83545E+01 0.00000E+00
 -1      4063 1.15312E+02 2.70555E+01 0.00000E+00
 -1      4064 1.19062E+02 2.83545E+01 0.00000E+00
 -1      4065 1.20562E+02 2.83545E+01 0.00000E+00
 -1      4066 1.18312E+02 2.70555E+01 0.00000E+00
 -1      4067 1.22062E+02 2.83545E+01 0.00000E+00
 -1      4068 1.23562E+02 2.83545E+01 0.00000E+00
 -1      4069 1.21312E+02 2.70555E+01 0.00000E+00
 -1      4070 1.25062E+02 2.83545E+01 0.00000E+00
 -1      4071 1.26562E+02 2.83545E+01 0.00000E+00
 -1      4072 1.24312E+02 2.70555E+01 0.00000E+00
 -1      4073 2.21580E+01 2.42778E+01 0.00000E+00
 -1      4074 2.23518E+01 2.58929E+01 0.00000E+00
 -1      4075 1.25475E+02 2.18704E+01 0.00000E+00
 -1      4076 1.23975E+02 2.18704E+01 0.00000E+00
 -1      4077 4.27046E+01 2.75304E+01 0.00000E+00
 -1      4078 2.25032E+01 2.69642E+01 0.00000E+00
 -1      4079 2.24987E+01 2.81446E+01 0.00000E+00
 -1      4080 2.39987E+01 2.81446E+01 0.00000E+00
 -1      4081 2.36960E+01 2.60019E+01 0.00000E+00
 -1      4082 3.65812E+01 1.92724E+01 0.00000E+00
 -1      4083 3.50906E+01 1.93787E+01 0.00000E+00
 -1      4084 3.43406E+01 2.06777E+01 0.00000E+00
 -1      4085 8.46817E+01 2.25861E+01 0.00000E+00
 -1      4086 8.30443E+01 2.33663E+01 0.00000E+00
 -1      4087 8.30406E+01 2.46459E+01 0.00000E+00
 -1      4088 1.09130E+02 1.92724E+01 0.00000E+00
 -1      4089 1.07630E+02 1.92724E+01 0.00000E+00
 -1      4090 1.06889E+02 2.05714E+01 0.00000E+00
 -1      4091 1.09880E+02 2.05714E+01 0.00000E+00
 -1      4092 8.76319E+01 2.00882E+01 0.00000E+00
 -1      4093 8.62958E+01 2.14965E+01 0.00000E+00
 -1      4094 8.87847E+01 1.99590E+01 0.00000E+00
 -1      4095 3.76772E+01 2.05473E+01 0.00000E+00
 -1      4096 2.23482E+01 2.22045E+01 0.00000E+00
 -1      4097 2.79000E+01 2.79170E+01 0.00000E+00
 -1      4098 2.94000E+01 2.79170E+01 0.00000E+00
 -1      4099 3.01500E+01 2.66180E+01 0.00000E+00
 -1      4100 1.31108E+02 2.57202E+01 0.00000E+00
 -1      4101 1.31108E+02 2.42460E+01 0.00000E+00
 -1      4102 1.30196E+02 2.38831E+01 0.00000E+00
 -1      4103 2.51993E+01 2.80308E+01 0.00000E+00
 -1      4104 2.66993E+01 2.80308E+01 0.00000E+00
 -1      4105 2.74493E+01 2.67318E+01 0.00000E+00
 -1      4106 2.50480E+01 2.69594E+01 0.00000E+00
 -1      4107 2.37348E+01 2.28573E+01 0.00000E+00
 -1      4108 9.56930E+01 2.18704E+01 0.00000E+00
 -1      4109 9.41977E+01 2.18704E+01 0.00000E+00
 -1      4110 3.99000E+01 2.79170E+01 0.00000E+00
 -1      4111 4.14000E+01 2.79170E+01 0.00000E+00
 -1      4112 1.18800E+02 2.05714E+01 0.00000E+00
 -1      4113 1.26549E+02 2.24263E+01 0.00000E+00
 -1      4114 8.30616E+01 2.83545E+01 0.00000E+00
 -1      4115 8.45616E+01 2.83545E+01 0.00000E+00
 -1      4116 1.28004E+02 2.62064E+01 0.00000E+00
 -1      4117 1.28754E+02 2.75054E+01 0.00000E+00
 -1      4118 9.37925E+01 2.32985E+01 0.00000E+00
 -1      4119 9.30448E+01 2.19995E+01 0.00000E+00
 -1      4120 9.18920E+01 2.21287E+01 0.00000E+00
 -1      4121 1.30254E+02 2.75054E+01 0.00000E+00
 -1      4122 1.23262E+02 2.31694E+01 0.00000E+00
 -1      4123 1.22512E+02 2.18704E+01 0.00000E+00
 -1      4124 1.21050E+02 2.18704E+01 0.00000E+00
 -1      4125 2.91750E+01 2.20830E+01 0.00000E+00
 -1      4126 2.76750E+01 2.20830E+01 0.00000E+00
 -1      4127 4.19546E+01 2.62314E+01 0.00000E+00
 -1      4128 1.16569E+02 2.18704E+01 0.00000E+00
 -1      4129 1.15106E+02 2.18704E+01 0.00000E+00
 -1      4130 8.62921E+01 2.27760E+01 0.00000E+00
 -1      4131 1.13606E+02 2.18704E+01 0.00000E+00
 -1      4132 1.12106E+02 2.18704E+01 0.00000E+00
 -1      4133 1.14338E+02 2.31694E+01 0.00000E+00
 -1      4134 1.00895E+02 2.05653E+01 0.00000E+00
 -1      4135 1.00154E+02 1.92663E+01 0.00000E+00
 -1      4136 3.77002E+01 2.22643E+01 0.00000E+00
 -1      4137 1.04644E+02 2.18704E+01 0.00000E+00
 -1      4138 1.03144E+02 2.18704E+01 0.00000E+00
 -1      4139 9.86590E+01 1.92663E+01 0.00000E+00
 -1      4140 2.64549E+01 2.24701E+01 0.00000E+00
 -1      4141 2.49549E+01 2.24701E+01 0.00000E+00
 -1      4142 2.47647E+01 2.45434E+01 0.00000E+00
 -1      4143 2.72049E+01 2.37691E+01 0.00000E+00
 -1      4144 8.95253E+01 2.12580E+01 0.00000E+00
 -1      4145 3.91500E+01 2.66180E+01 0.00000E+00
 -1      4146 4.01096E+01 2.52876E+01 0.00000E+00
 -1      4147 1.02395E+02 2.31633E+01 0.00000E+00
 -1      4148 1.01645E+02 2.18643E+01 0.00000E+00
 -1      4149 1.00146E+02 2.18582E+01 0.00000E+00
 -1      4150 8.53116E+01 2.70555E+01 0.00000E+00
 -1      4151 3.21000E+01 2.20830E+01 0.00000E+00
 -1      4152 3.06375E+01 2.20830E+01 0.00000E+00
 -1      4153 2.98875E+01 2.33820E+01 0.00000E+00
 -1      4154 3.54000E+01 2.53190E+01 0.00000E+00
 -1      4155 3.69000E+01 2.53190E+01 0.00000E+00
 -1      4156 1.19559E+02 2.18704E+01 0.00000E+00
 -1      4157 1.18059E+02 2.18704E+01 0.00000E+00
 -1      4158 1.17328E+02 2.31694E+01 0.00000E+00
 -1      4159 1.20309E+02 2.31694E+01 0.00000E+00
 -1      4160 9.79184E+01 2.05653E+01 0.00000E+00
 -1      4161 8.26074E+01 2.62408E+01 0.00000E+00
 -1      4162 3.59906E+01 2.22957E+01 0.00000E+00
 -1      4163 3.45000E+01 2.24020E+01 0.00000E+00
 -1      4164 9.86585E+01 2.18612E+01 0.00000E+00
 -1      4165 9.71807E+01 2.18673E+01 0.00000E+00
 -1      4166 9.64330E+01 2.31663E+01 0.00000E+00
 -1      4167 9.94085E+01 2.31602E+01 0.00000E+00
 -1      4168 9.05616E+01 2.57565E+01 0.00000E+00
 -1      4169 9.20616E+01 2.57565E+01 0.00000E+00
 -1      4170 9.38785E+01 2.51124E+01 0.00000E+00
 -1      4171 9.53785E+01 2.51124E+01 0.00000E+00
 -1      4172 9.68662E+01 2.51094E+01 0.00000E+00
 -1      4173 9.83662E+01 2.51094E+01 0.00000E+00
 -1      4174 9.98539E+01 2.51063E+01 0.00000E+00
 -1      4175 1.01354E+02 2.51063E+01 0.00000E+00
 -1      4176 1.02853E+02 2.51124E+01 0.00000E+00
 -1      4177 1.04353E+02 2.51124E+01 0.00000E+00
 -1      4178 1.08562E+02 2.57565E+01 0.00000E+00
 -1      4179 1.10062E+02 2.57565E+01 0.00000E+00
 -1      4180 1.11825E+02 2.51124E+01 0.00000E+00
 -1      4181 1.13325E+02 2.51124E+01 0.00000E+00
 -1      4182 1.14825E+02 2.51124E+01 0.00000E+00
 -1      4183 1.16325E+02 2.51124E+01 0.00000E+00
 -1      4184 1.17815E+02 2.51124E+01 0.00000E+00
 -1      4185 1.19315E+02 2.51124E+01 0.00000E+00
 -1      4186 1.20806E+02 2.51124E+01 0.00000E+00
 -1      4187 1.22306E+02 2.51124E+01 0.00000E+00
 -1      4188 1.23768E+02 2.51124E+01 0.00000E+00
 -1      4189 1.25268E+02 2.51124E+01 0.00000E+00
 -1      4190 2.48967E+01 2.58881E+01 0.00000E+00
 -1      4191 8.78260E+01 2.33078E+01 0.00000E+00
 -1      4192 8.62118E+01 2.43975E+01 0.00000E+00
 -1      4193 8.42447E+01 2.54606E+01 0.00000E+00
 -1      4194 8.01888E+01 2.67231E+01 0.00000E+00
 -1      4195 3.78596E+01 2.39886E+01 0.00000E+00
 -1      4196 1.06139E+02 2.18704E+01 0.00000E+00
 -1      4197 1.05389E+02 2.31694E+01 0.00000E+00
 -1      4198 1.07634E+02 2.18704E+01 0.00000E+00
 -1      4199 3.86096E+01 2.52876E+01 0.00000E+00
 -1      4200 1.31166E+02 2.78682E+01 0.00000E+00
 -1      4201 8.72786E+01 2.59924E+01 0.00000E+00
 -1      4202 8.87786E+01 2.59924E+01 0.00000E+00
 -1      4203 1.05848E+02 2.51124E+01 0.00000E+00
 -1      4204 1.27460E+02 2.42634E+01 0.00000E+00
 -1      4205 8.57447E+01 2.54606E+01 0.00000E+00
 -1      4206 3.00000E+01 2.50000E+01 0.00000E+00
 -1      4207 3.15000E+01 2.50000E+01 0.00000E+00
 -1      4208 3.30000E+01 2.50000E+01 0.00000E+00
 -1      4209 2.61167E+01 2.55009E+01 0.00000E+00
 -1      4210 2.85375E+01 2.50000E+01 0.00000E+00
 -1      4211 2.73174E+01 2.53871E+01 0.00000E+00
 -1      4212 9.27256E+01 2.52416E+01 0.00000E+00
 -1      4213 1.11075E+02 2.38134E+01 0.00000E+00
 -1      4214 1.07348E+02 2.51124E+01 0.00000E+00
 -1      4215 1.08098E+02 2.38134E+01 0.00000E+00
 -1      4216 8.95286E+01 2.46934E+01 0.00000E+00
 -1      4217 9.12280E+01 2.26436E+01 0.00000E+00
 -1      4218 8.96089E+01 2.30719E+01 0.00000E+00
 -1      4219 3.37500E+01 2.37010E+01 0.00000E+00
 -1      4220 1.10343E+02 2.25144E+01 0.00000E+00
 -1      4221 1.08848E+02 2.25144E+01 0.00000E+00
 -1      4222 9.19756E+01 2.39426E+01 0.00000E+00
 -1      4223 1.29284E+02 2.35203E+01 0.00000E+00
 -3
    3C                          2029                                     1
 -1       166    8    0    1
 -2         6         7        23      1098      1263      1115
 -1       167    8    0    1
 -2         7         8       166      1099      1264      1265
 -1       168    8    0    1
 -2         8         9       167      1100      1266      1267
 -1       169    8    0    1
 -2         8       167       166      1267      1268      1264
 -1       170    8    0    1
 -2         9        10       168      1101      1269      1270
 -1       171    8    0    1
 -2         9       168       167      1270      1271      1266
 -1       172    8    0    1
 -2        10        11       169      1102      1272      1273
 -1       173    8    0    1
 -2        10       169       168      1273      1274      1269
 -1       174    8    0    1
 -2        11        12       170      1103      1275      1276
 -1       175    8    0    1
 -2        11       170       169      1276      1277      1272
 -1       176    8    0    1
 -2        12        13       171      1104      1278      1279
 -1       177    8    0    1
 -2        12       171       170      1279      1280      1275
 -1       178    8    0    1
 -2        13        14       172      1105      1281      1282
 -1       179    8    0    1
 -2        13       172       171      1282      1283      1278
 -1       180    8    0    1
 -2        14        15       173      1106      1284      1285
 -1       181    8    0    1
 -2        14       173       172      1285      1286      1281
 -1       182    8    0    1
 -2        15        16       174      1107      1287      1288
 -1       183    8    0    1
 -2        15       174       173      1288      1289      1284
 -1       184    8    0    1
 -2        16        17       175      1108      1290      1291
 -1       185    8    0    1
 -2        16       175       174      1291      1292      1287
 -1       186    8    0    1
 -2        17        18       176      1109      1293      1294
 -1       187    8    0    1
 -2        17       176       175      1294      1295      1290
 -1       188    8    0    1
 -2        18        19       177      1110      1296      1297
 -1       189    8    0    1
 -2        18       177       176      1297      1298      1293
 -1       190    8    0    1
 -2        19        20       178      1111      1299      1300
 -1       191    8    0    1
 -2        19       178       177      1300      1301      1296
 -1       192    8    0    1
 -2        20        21       179      1112      1302      1303
 -1       193    8    0    1
 -2        20       179       178      1303      1304      1299
 -1       194    8    0    1
 -2        21        22       180      1113      1305      1306
 -1       195    8    0    1
 -2        21       180       179      1306      1307      1302
 -1       196    8    0    1
 -2        22         5        72      1114      1165      1308
 -1       197    8    0    1
 -2        24        23       181      1116      1309      1310
 -1       198    8    0    1
 -2        25        24       182      1117      1311      1312
 -1       199    8    0    1
 -2        24       181       182      1310      1313      1311
 -1       200    8    0    1
 -2        26        25       183      1118      1314      1315
 -1       201    8    0    1
 -2        25       182       183      1312      1316      1314
 -1       202    8    0    1
 -2        27        26       184      1119      1317      1318
 -1       203    8    0    1
 -2        26       183       184      1315      1319      1317
 -1       204    8    0    1
 -2        28        27       185      1120      1320      1321
 -1       205    8    0    1
 -2        27       184       185      1318      1322      1320
 -1       206    8    0    1
 -2        29        28       186      1121      1323      1324
 -1       207    8    0    1
 -2        28       185       186      1321      1325      1323
 -1       208    8    0    1
 -2        30        29       187      1122      1326      1327
 -1       209    8    0    1
 -2        29       186       187      1324      1328      1326
 -1       210    8    0    1
 -2        31        30       188      1123      1329      1330
 -1       211    8    0    1
 -2        30       187       188      1327      1331      1329
 -1       212    8    0    1
 -2        32        31       189      1124      1332      1333
 -1       213    8    0    1
 -2        31       188       189      1330      1334      1332
 -1       214    8    0    1
 -2        33        32       190      1125      1335      1336
 -1       215    8    0    1
 -2        32       189       190      1333      1337      1335
 -1       216    8    0    1
 -2        34        33       191      1126      1338      1339
 -1       217    8    0    1
 -2        33       190       191      1336      1340      1338
 -1       218    8    0    1
 -2        35        34       192      1127      1341      1342
 -1       219    8    0    1
 -2        34       191       192      1339      1343      1341
 -1       220    8    0    1
 -2        36        35       193      1128      1344      1345
 -1       221    8    0    1
 -2        35       192       193      1342      1346      1344
 -1       222    8    0    1
 -2        37        36       194      1129      1347      1348
 -1       223    8    0    1
 -2        36       193       194      1345      1349      1347
 -1       224    8    0    1
 -2        38        37       195      1130      1350      1351
 -1       225    8    0    1
 -2        37       194       195      1348      1352      1350
 -1       226    8    0    1
 -2        39        38       196      1131      1353      1354
 -1       227    8    0    1
 -2        38       195       196      1351      1355      1353
 -1       228    8    0    1
 -2        40        39       197      1132      1356      1357
 -1       229    8    0    1
 -2        39       196       197      1354      1358      1356
 -1       230    8    0    1
 -2        41        40       198      1133      1359      1360
 -1       231    8    0    1
 -2        40       197       198      1357      1361      1359
 -1       232    8    0    1
 -2        42        41       199      1134      1362      1363
 -1       233    8    0    1
 -2        41       198       199      1360      1364      1362
 -1       234    8    0    1
 -2        43        42       200      1135      1365      1366
 -1       235    8    0    1
 -2        42       199       200      1363      1367      1365
 -1       236    8    0    1
 -2        44        43       201      1136      1368      1369
 -1       237    8    0    1
 -2        43       200       201      1366      1370      1368
 -1       238    8    0    1
 -2        45        44       202      1137      1371      1372
 -1       239    8    0    1
 -2        44       201       202      1369      1373      1371
 -1       240    8    0    1
 -2        46        45       203      1138      1374      1375
 -1       241    8    0    1
 -2        45       202       203      1372      1376      1374
 -1       242    8    0    1
 -2        47        46       204      1139      1377      1378
 -1       243    8    0    1
 -2        46       203       204      1375      1379      1377
 -1       244    8    0    1
 -2        48        47       205      1140      1380      1381
 -1       245    8    0    1
 -2        47       204       205      1378      1382      1380
 -1       246    8    0    1
 -2        49        48       206      1141      1383      1384
 -1       247    8    0    1
 -2        48       205       206      1381      1385      1383
 -1       248    8    0    1
 -2        50        49       207      1142      1386      1387
 -1       249    8    0    1
 -2        49       206       207      1384      1388      1386
 -1       250    8    0    1
 -2        51        50       208      1143      1389      1390
 -1       251    8    0    1
 -2        50       207       208      1387      1391      1389
 -1       252    8    0    1
 -2        52        51       209      1144      1392      1393
 -1       253    8    0    1
 -2        51       208       209      1390      1394      1392
 -1       254    8    0    1
 -2        53        52       210      1145      1395      1396
 -1       255    8    0    1
 -2        52       209       210      1393      1397      1395
 -1       256    8    0    1
 -2        54        53       211      1146      1398      1399
 -1       257    8    0    1
 -2        53       210       211      1396      1400      1398
 -1       258    8    0    1
 -2        55        54       212      1147      1401      1402
 -1       259    8    0    1
 -2        54       211       212      1399      1403      1401
 -1       260    8    0    1
 -2        56        55       213      1148      1404      1405
 -1       261    8    0    1
 -2        55       212       213      1402      1406      1404
 -1       262    8    0    1
 -2        57        56       214      1149      1407      1408
 -1       263    8    0    1
 -2        56       213       214      1405      1409      1407
 -1       264    8    0    1
 -2        58        57       215      1150      1410      1411
 -1       265    8    0    1
 -2        57       214       215      1408      1412      1410
 -1       266    8    0    1
 -2        59        58       216      1151      1413      1414
 -1       267    8    0    1
 -2        58       215       216      1411      1415      1413
 -1       268    8    0    1
 -2        60        59       217      1152      1416      1417
 -1       269    8    0    1
 -2        59       216       217      1414      1418      1416
 -1       270    8    0    1
 -2        61        60       218      1153      1419      1420
 -1       271    8    0    1
 -2        60       217       218      1417      1421      1419
 -1       272    8    0    1
 -2        62        61       219      1154      1422      1423
 -1       273    8    0    1
 -2        61       218       219      1420      1424      1422
 -1       274    8    0    1
 -2        63        62       220      1155      1425      1426
 -1       275    8    0    1
 -2        62       219       220      1423      1427      1425
 -1       276    8    0    1
 -2        64        63       221      1156      1428      1429
 -1       277    8    0    1
 -2        63       220       221      1426      1430      1428
 -1       278    8    0    1
 -2        65        64       222      1157      1431      1432
 -1       279    8    0    1
 -2        64       221       222      1429      1433      1431
 -1       280    8    0    1
 -2        66        65       223      1158      1434      1435
 -1       281    8    0    1
 -2        65       222       223      1432      1436      1434
 -1       282    8    0    1
 -2        67        66       224      1159      1437      1438
 -1       283    8    0    1
 -2        66       223       224      1435      1439      1437
 -1       284    8    0    1
 -2        68        67       225      1160      1440      1441
 -1       285    8    0    1
 -2        67       224       225      1438      1442      1440
 -1       286    8    0    1
 -2        69        68       226      1161      1443      1444
 -1       287    8    0    1
 -2        68       225       226      1441      1445      1443
 -1       288    8    0    1
 -2        70        69       227      1162      1446      1447
 -1       289    8    0    1
 -2        69       226       227      1444      1448      1446
 -1       290    8    0    1
 -2        71        70       228      1163      1449      1450
 -1       291    8    0    1
 -2        70       227       228      1447      1451      1449
 -1       292    8    0    1
 -2         4        71       137      1164      1452      1232
 -1       293    8    0    1
 -2       137        71       228      1452      1450      1453
 -1       294    8    0    1
 -2        72        73       229      1166      1454      1455
 -1       295    8    0    1
 -2        73        74       230      1167      1456      1457
 -1       296    8    0    1
 -2        73       230       229      1457      1458      1454
 -1       297    8    0    1
 -2        74        75       231      1168      1459      1460
 -1       298    8    0    1
 -2        74       231       230      1460      1461      1456
 -1       299    8    0    1
 -2        75        76       232      1169      1462      1463
 -1       300    8    0    1
 -2        75       232       231      1463      1464      1459
 -1       301    8    0    1
 -2        76        77       233      1170      1465      1466
 -1       302    8    0    1
 -2        76       233       232      1466      1467      1462
 -1       303    8    0    1
 -2        77        78       234      1171      1468      1469
 -1       304    8    0    1
 -2        77       234       233      1469      1470      1465
 -1       305    8    0    1
 -2        78        79       235      1172      1471      1472
 -1       306    8    0    1
 -2        78       235       234      1472      1473      1468
 -1       307    8    0    1
 -2        79        80       236      1173      1474      1475
 -1       308    8    0    1
 -2        79       236       235      1475      1476      1471
 -1       309    8    0    1
 -2        80        81       237      1174      1477      1478
 -1       310    8    0    1
 -2        80       237       236      1478      1479      1474
 -1       311    8    0    1
 -2        81        82       238      1175      1480      1481
 -1       312    8    0    1
 -2        81       238       237      1481      1482      1477
 -1       313    8    0    1
 -2        82        83       239      1176      1483      1484
 -1       314    8    0    1
 -2        82       239       238      1484      1485      1480
 -1       315    8    0    1
 -2        83        84       240      1177      1486      1487
 -1       316    8    0    1
 -2        83       240       239      1487      1488      1483
 -1       317    8    0    1
 -2        84        85       241      1178      1489      1490
 -1       318    8    0    1
 -2        84       241       240      1490      1491      1486
 -1       319    8    0    1
 -2        85        86       242      1179      1492      1493
 -1       320    8    0    1
 -2        85       242       241      1493      1494      1489
 -1       321    8    0    1
 -2        86        87       243      1180      1495      1496
 -1       322    8    0    1
 -2        86       243       242      1496      1497      1492
 -1       323    8    0    1
 -2        87        88       244      1181      1498      1499
 -1       324    8    0    1
 -2        87       244       243      1499      1500      1495
 -1       325    8    0    1
 -2        88        89       245      1182      1501      1502
 -1       326    8    0    1
 -2        88       245       244      1502      1503      1498
 -1       327    8    0    1
 -2        89        90       246      1183      1504      1505
 -1       328    8    0    1
 -2        89       246       245      1505      1506      1501
 -1       329    8    0    1
 -2        90        91       247      1184      1507      1508
 -1       330    8    0    1
 -2        90       247       246      1508      1509      1504
 -1       331    8    0    1
 -2        91        92       248      1185      1510      1511
 -1       332    8    0    1
 -2        91       248       247      1511      1512      1507
 -1       333    8    0    1
 -2        92        93       249      1186      1513      1514
 -1       334    8    0    1
 -2        92       249       248      1514      1515      1510
 -1       335    8    0    1
 -2        93        94       250      1187      1516      1517
 -1       336    8    0    1
 -2        93       250       249      1517      1518      1513
 -1       337    8    0    1
 -2        94        95       251      1188      1519      1520
 -1       338    8    0    1
 -2        94       251       250      1520      1521      1516
 -1       339    8    0    1
 -2        95        96       252      1189      1522      1523
 -1       340    8    0    1
 -2        95       252       251      1523      1524      1519
 -1       341    8    0    1
 -2        96        97       253      1190      1525      1526
 -1       342    8    0    1
 -2        96       253       252      1526      1527      1522
 -1       343    8    0    1
 -2        97        98       254      1191      1528      1529
 -1       344    8    0    1
 -2        97       254       253      1529      1530      1525
 -1       345    8    0    1
 -2        98        99       255      1192      1531      1532
 -1       346    8    0    1
 -2        98       255       254      1532      1533      1528
 -1       347    8    0    1
 -2        99       100       256      1193      1534      1535
 -1       348    8    0    1
 -2        99       256       255      1535      1536      1531
 -1       349    8    0    1
 -2       100       101       257      1194      1537      1538
 -1       350    8    0    1
 -2       100       257       256      1538      1539      1534
 -1       351    8    0    1
 -2       101       102       258      1195      1540      1541
 -1       352    8    0    1
 -2       101       258       257      1541      1542      1537
 -1       353    8    0    1
 -2       102       103       259      1196      1543      1544
 -1       354    8    0    1
 -2       102       259       258      1544      1545      1540
 -1       355    8    0    1
 -2       103       104       260      1197      1546      1547
 -1       356    8    0    1
 -2       103       260       259      1547      1548      1543
 -1       357    8    0    1
 -2       104       105       261      1198      1549      1550
 -1       358    8    0    1
 -2       104       261       260      1550      1551      1546
 -1       359    8    0    1
 -2       105       106       262      1199      1552      1553
 -1       360    8    0    1
 -2       105       262       261      1553      1554      1549
 -1       361    8    0    1
 -2       106       107       263      1200      1555      1556
 -1       362    8    0    1
 -2       106       263       262      1556      1557      1552
 -1       363    8    0    1
 -2       107       108       264      1201      1558      1559
 -1       364    8    0    1
 -2       107       264       263      1559      1560      1555
 -1       365    8    0    1
 -2       108       109       265      1202      1561      1562
 -1       366    8    0    1
 -2       108       265       264      1562      1563      1558
 -1       367    8    0    1
 -2       109       110       266      1203      1564      1565
 -1       368    8    0    1
 -2       109       266       265      1565      1566      1561
 -1       369    8    0    1
 -2       110       111       267      1204      1567      1568
 -1       370    8    0    1
 -2       110       267       266      1568      1569      1564
 -1       371    8    0    1
 -2       111       112       268      1205      1570      1571
 -1       372    8    0    1
 -2       111       268       267      1571      1572      1567
 -1       373    8    0    1
 -2       112       113       269      1206      1573      1574
 -1       374    8    0    1
 -2       112       269       268      1574      1575      1570
 -1       375    8    0    1
 -2       113       114       270      1207      1576      1577
 -1       376    8    0    1
 -2       113       270       269      1577      1578      1573
 -1       377    8    0    1
 -2       114       115       271      1208      1579      1580
 -1       378    8    0    1
 -2       114       271       270      1580      1581      1576
 -1       379    8    0    1
 -2       115       116       272      1209      1582      1583
 -1       380    8    0    1
 -2       115       272       271      1583      1584      1579
 -1       381    8    0    1
 -2       116       117       273      1210      1585      1586
 -1       382    8    0    1
 -2       116       273       272      1586      1587      1582
 -1       383    8    0    1
 -2       117       118       274      1211      1588      1589
 -1       384    8    0    1
 -2       117       274       273      1589      1590      1585
 -1       385    8    0    1
 -2       118       119       275      1212      1591      1592
 -1       386    8    0    1
 -2       118       275       274      1592      1593      1588
 -1       387    8    0    1
 -2       119       120       276      1213      1594      1595
 -1       388    8    0    1
 -2       119       276       275      1595      1596      1591
 -1       389    8    0    1
 -2       120       121       277      1214      1597      1598
 -1       390    8    0    1
 -2       120       277       276      1598      1599      1594
 -1       391    8    0    1
 -2       121         3       122      1215      1216      1600
 -1       392    8    0    1
 -2       122       123       278      1217      1601      1602
 -1       393    8    0    1
 -2       123       124       279      1218      1603      1604
 -1       394    8    0    1
 -2       123       279       278      1604      1605      1601
 -1       395    8    0    1
 -2       124       125       280      1219      1606      1607
 -1       396    8    0    1
 -2       124       280       279      1607      1608      1603
 -1       397    8    0    1
 -2       125       126       281      1220      1609      1610
 -1       398    8    0    1
 -2       125       281       280      1610      1611      1606
 -1       399    8    0    1
 -2       126       127       282      1221      1612      1613
 -1       400    8    0    1
 -2       126       282       281      1613      1614      1609
 -1       401    8    0    1
 -2       127       128       283      1222      1615      1616
 -1       402    8    0    1
 -2       127       283       282      1616      1617      1612
 -1       403    8    0    1
 -2       128       129       284      1223      1618      1619
 -1       404    8    0    1
 -2       128       284       283      1619      1620      1615
 -1       405    8    0    1
 -2       129       130       285      1224      1621      1622
 -1       406    8    0    1
 -2       129       285       284      1622      1623      1618
 -1       407    8    0    1
 -2       130       131       286      1225      1624      1625
 -1       408    8    0    1
 -2       130       286       285      1625      1626      1621
 -1       409    8    0    1
 -2       131       132       287      1226      1627      1628
 -1       410    8    0    1
 -2       131       287       286      1628      1629      1624
 -1       411    8    0    1
 -2       132       133       288      1227      1630      1631
 -1       412    8    0    1
 -2       132       288       287      1631      1632      1627
 -1       413    8    0    1
 -2       133       134       289      1228      1633      1634
 -1       414    8    0    1
 -2       133       289       288      1634      1635      1630
 -1       415    8    0    1
 -2       134       135       290      1229      1636      1637
 -1       416    8    0    1
 -2       134       290       289      1637      1638      1633
 -1       417    8    0    1
 -2       135       136       291      1230      1639      1640
 -1       418    8    0    1
 -2       135       291       290      1640      1641      1636
 -1       419    8    0    1
 -2       136       137       292      1231      1642      1643
 -1       420    8    0    1
 -2       291       136       292      1639      1643      1644
 -1       421    8    0    1
 -2       137       228       292      1453      1645      1642
 -1       422    8    0    1
 -2         2       138       293      1233      1646      1647
 -1       423    8    0    1
 -2       138       139       294      1234      1648      1649
 -1       424    8    0    1
 -2       139       140       295      1235      1650      1651
 -1       425    8    0    1
 -2       140       141       296      1236      1652      1653
 -1       426    8    0    1
 -2       141       142       297      1237      1654      1655
 -1       427    8    0    1
 -2       142       143       298      1238      1656      1657
 -1       428    8    0    1
 -2       143       144       299      1239      1658      1659
 -1       429    8    0    1
 -2       144       145       300      1240      1660      1661
 -1       430    8    0    1
 -2       145       146       301      1241      1662      1663
 -1       431    8    0    1
 -2       146       147       302      1242      1664      1665
 -1       432    8    0    1
 -2       147       148       303      1243      1666      1667
 -1       433    8    0    1
 -2       148       149       304      1244      1668      1669
 -1       434    8    0    1
 -2       149       150       305      1245      1670      1671
 -1       435    8    0    1
 -2       150       151       306      1246      1672      1673
 -1       436    8    0    1
 -2       151       152       307      1247      1674      1675
 -1       437    8    0    1
 -2       152       153       308      1248      1676      1677
 -1       438    8    0    1
 -2       153         1       309      1249      1678      1679
 -1       439    8    0    1
 -2         1       154       310      1250      1680      1681
 -1       440    8    0    1
 -2       154       155       311      1251      1682      1683
 -1       441    8    0    1
 -2       155       156       312      1252      1684      1685
 -1       442    8    0    1
 -2       156       157       313      1253      1686      1687
 -1       443    8    0    1
 -2       157       158       314      1254      1688      1689
 -1       444    8    0    1
 -2       158       159       315      1255      1690      1691
 -1       445    8    0    1
 -2       159       160       316      1256      1692      1693
 -1       446    8    0    1
 -2       160       161       317      1257      1694      1695
 -1       447    8    0    1
 -2       161       162       318      1258      1696      1697
 -1       448    8    0    1
 -2       162       163       319      1259      1698      1699
 -1       449    8    0    1
 -2       163       164       320      1260      1700      1701
 -1       450    8    0    1
 -2       164       165       321      1261      1702      1703
 -1       451    8    0    1
 -2       165         2       322      1262      1704      1705
 -1       452    8    0    1
 -2        22        72       180      1308      1706      1305
 -1       453    8    0    1
 -2       295       140       296      1650      1653      1707
 -1       454    8    0    1
 -2       121       122       277      1600      1708      1597
 -1       455    8    0    1
 -2       293       138       294      1646      1649      1709
 -1       456    8    0    1
 -2       294       139       295      1648      1651      1710
 -1       457    8    0    1
 -2         2       293       322      1647      1711      1704
 -1       458    8    0    1
 -2       141       297       296      1655      1712      1652
 -1       459    8    0    1
 -2       142       298       297      1657      1713      1654
 -1       460    8    0    1
 -2       143       299       298      1659      1714      1656
 -1       461    8    0    1
 -2       144       300       299      1661      1715      1658
 -1       462    8    0    1
 -2       145       301       300      1663      1716      1660
 -1       463    8    0    1
 -2       146       302       301      1665      1717      1662
 -1       464    8    0    1
 -2       147       303       302      1667      1718      1664
 -1       465    8    0    1
 -2       148       304       303      1669      1719      1666
 -1       466    8    0    1
 -2       149       305       304      1671      1720      1668
 -1       467    8    0    1
 -2       150       306       305      1673      1721      1670
 -1       468    8    0    1
 -2       151       307       306      1675      1722      1672
 -1       469    8    0    1
 -2       152       308       307      1677      1723      1674
 -1       470    8    0    1
 -2       153       309       308      1679      1724      1676
 -1       471    8    0    1
 -2         1       310       309      1681      1725      1678
 -1       472    8    0    1
 -2       154       311       310      1683      1726      1680
 -1       473    8    0    1
 -2       155       312       311      1685      1727      1682
 -1       474    8    0    1
 -2       156       313       312      1687      1728      1684
 -1       475    8    0    1
 -2       157       314       313      1689      1729      1686
 -1       476    8    0    1
 -2       158       315       314      1691      1730      1688
 -1       477    8    0    1
 -2       159       316       315      1693      1731      1690
 -1       478    8    0    1
 -2       160       317       316      1695      1732      1692
 -1       479    8    0    1
 -2       161       318       317      1697      1733      1694
 -1       480    8    0    1
 -2       162       319       318      1699      1734      1696
 -1       481    8    0    1
 -2       163       320       319      1701      1735      1698
 -1       482    8    0    1
 -2       164       321       320      1703      1736      1700
 -1       483    8    0    1
 -2       165       322       321      1705      1737      1702
 -1       484    8    0    1
 -2        23         7       166      1263      1265      1738
 -1       485    8    0    1
 -2       167       168       323      1271      1739      1740
 -1       486    8    0    1
 -2       166       167       324      1268      1741      1742
 -1       487    8    0    1
 -2       167       323       324      1740      1743      1741
 -1       488    8    0    1
 -2       169       170       325      1277      1744      1745
 -1       489    8    0    1
 -2       170       171       326      1280      1746      1747
 -1       490    8    0    1
 -2       170       326       325      1747      1748      1744
 -1       491    8    0    1
 -2       171       172       327      1283      1749      1750
 -1       492    8    0    1
 -2       171       327       326      1750      1751      1746
 -1       493    8    0    1
 -2       172       173       328      1286      1752      1753
 -1       494    8    0    1
 -2       172       328       327      1753      1754      1749
 -1       495    8    0    1
 -2       173       174       329      1289      1755      1756
 -1       496    8    0    1
 -2       173       329       328      1756      1757      1752
 -1       497    8    0    1
 -2       174       175       330      1292      1758      1759
 -1       498    8    0    1
 -2       174       330       329      1759      1760      1755
 -1       499    8    0    1
 -2       175       176       331      1295      1761      1762
 -1       500    8    0    1
 -2       175       331       330      1762      1763      1758
 -1       501    8    0    1
 -2       176       177       332      1298      1764      1765
 -1       502    8    0    1
 -2       176       332       331      1765      1766      1761
 -1       503    8    0    1
 -2       177       178       333      1301      1767      1768
 -1       504    8    0    1
 -2       177       333       332      1768      1769      1764
 -1       505    8    0    1
 -2       178       179       334      1304      1770      1771
 -1       506    8    0    1
 -2       178       334       333      1771      1772      1767
 -1       507    8    0    1
 -2       179       180       335      1307      1773      1774
 -1       508    8    0    1
 -2       179       335       334      1774      1775      1770
 -1       509    8    0    1
 -2       295       296       336      1707      1776      1777
 -1       510    8    0    1
 -2       181        23       166      1309      1738      1778
 -1       511    8    0    1
 -2        72       229       180      1455      1779      1706
 -1       512    8    0    1
 -2       183       182       337      1316      1780      1781
 -1       513    8    0    1
 -2       184       183       338      1319      1782      1783
 -1       514    8    0    1
 -2       183       337       338      1781      1784      1782
 -1       515    8    0    1
 -2       185       184       339      1322      1785      1786
 -1       516    8    0    1
 -2       184       338       339      1783      1787      1785
 -1       517    8    0    1
 -2       186       185       340      1325      1788      1789
 -1       518    8    0    1
 -2       185       339       340      1786      1790      1788
 -1       519    8    0    1
 -2       187       186       341      1328      1791      1792
 -1       520    8    0    1
 -2       186       340       341      1789      1793      1791
 -1       521    8    0    1
 -2       188       187       342      1331      1794      1795
 -1       522    8    0    1
 -2       187       341       342      1792      1796      1794
 -1       523    8    0    1
 -2       189       188       343      1334      1797      1798
 -1       524    8    0    1
 -2       188       342       343      1795      1799      1797
 -1       525    8    0    1
 -2       190       189       344      1337      1800      1801
 -1       526    8    0    1
 -2       189       343       344      1798      1802      1800
 -1       527    8    0    1
 -2       191       190       345      1340      1803      1804
 -1       528    8    0    1
 -2       190       344       345      1801      1805      1803
 -1       529    8    0    1
 -2       192       191       346      1343      1806      1807
 -1       530    8    0    1
 -2       191       345       346      1804      1808      1806
 -1       531    8    0    1
 -2       193       192       347      1346      1809      1810
 -1       532    8    0    1
 -2       192       346       347      1807      1811      1809
 -1       533    8    0    1
 -2       194       193       348      1349      1812      1813
 -1       534    8    0    1
 -2       193       347       348      1810      1814      1812
 -1       535    8    0    1
 -2       195       194       349      1352      1815      1816
 -1       536    8    0    1
 -2       194       348       349      1813      1817      1815
 -1       537    8    0    1
 -2       196       195       350      1355      1818      1819
 -1       538    8    0    1
 -2       195       349       350      1816      1820      1818
 -1       539    8    0    1
 -2       197       196       351      1358      1821      1822
 -1       540    8    0    1
 -2       196       350       351      1819      1823      1821
 -1       541    8    0    1
 -2       198       197       352      1361      1824      1825
 -1       542    8    0    1
 -2       197       351       352      1822      1826      1824
 -1       543    8    0    1
 -2       199       198       353      1364      1827      1828
 -1       544    8    0    1
 -2       198       352       353      1825      1829      1827
 -1       545    8    0    1
 -2       200       199       354      1367      1830      1831
 -1       546    8    0    1
 -2       199       353       354      1828      1832      1830
 -1       547    8    0    1
 -2       201       200       355      1370      1833      1834
 -1       548    8    0    1
 -2       200       354       355      1831      1835      1833
 -1       549    8    0    1
 -2       202       201       356      1373      1836      1837
 -1       550    8    0    1
 -2       201       355       356      1834      1838      1836
 -1       551    8    0    1
 -2       203       202       357      1376      1839      1840
 -1       552    8    0    1
 -2       202       356       357      1837      1841      1839
 -1       553    8    0    1
 -2       204       203       358      1379      1842      1843
 -1       554    8    0    1
 -2       203       357       358      1840      1844      1842
 -1       555    8    0    1
 -2       205       204       359      1382      1845      1846
 -1       556    8    0    1
 -2       204       358       359      1843      1847      1845
 -1       557    8    0    1
 -2       206       205       360      1385      1848      1849
 -1       558    8    0    1
 -2       205       359       360      1846      1850      1848
 -1       559    8    0    1
 -2       207       206       361      1388      1851      1852
 -1       560    8    0    1
 -2       206       360       361      1849      1853      1851
 -1       561    8    0    1
 -2       208       207       362      1391      1854      1855
 -1       562    8    0    1
 -2       207       361       362      1852      1856      1854
 -1       563    8    0    1
 -2       209       208       363      1394      1857      1858
 -1       564    8    0    1
 -2       208       362       363      1855      1859      1857
 -1       565    8    0    1
 -2       210       209       364      1397      1860      1861
 -1       566    8    0    1
 -2       209       363       364      1858      1862      1860
 -1       567    8    0    1
 -2       211       210       365      1400      1863      1864
 -1       568    8    0    1
 -2       210       364       365      1861      1865      1863
 -1       569    8    0    1
 -2       212       211       366      1403      1866      1867
 -1       570    8    0    1
 -2       211       365       366      1864      1868      1866
 -1       571    8    0    1
 -2       213       212       367      1406      1869      1870
 -1       572    8    0    1
 -2       212       366       367      1867      1871      1869
 -1       573    8    0    1
 -2       214       213       368      1409      1872      1873
 -1       574    8    0    1
 -2       213       367       368      1870      1874      1872
 -1       575    8    0    1
 -2       215       214       369      1412      1875      1876
 -1       576    8    0    1
 -2       214       368       369      1873      1877      1875
 -1       577    8    0    1
 -2       216       215       370      1415      1878      1879
 -1       578    8    0    1
 -2       215       369       370      1876      1880      1878
 -1       579    8    0    1
 -2       217       216       371      1418      1881      1882
 -1       580    8    0    1
 -2       216       370       371      1879      1883      1881
 -1       581    8    0    1
 -2       218       217       372      1421      1884      1885
 -1       582    8    0    1
 -2       217       371       372      1882      1886      1884
 -1       583    8    0    1
 -2       219       218       373      1424      1887      1888
 -1       584    8    0    1
 -2       218       372       373      1885      1889      1887
 -1       585    8    0    1
 -2       220       219       374      1427      1890      1891
 -1       586    8    0    1
 -2       219       373       374      1888      1892      1890
 -1       587    8    0    1
 -2       221       220       375      1430      1893      1894
 -1       588    8    0    1
 -2       220       374       375      1891      1895      1893
 -1       589    8    0    1
 -2       222       221       376      1433      1896      1897
 -1       590    8    0    1
 -2       221       375       376      1894      1898      1896
 -1       591    8    0    1
 -2       223       222       377      1436      1899      1900
 -1       592    8    0    1
 -2       222       376       377      1897      1901      1899
 -1       593    8    0    1
 -2       224       223       378      1439      1902      1903
 -1       594    8    0    1
 -2       223       377       378      1900      1904      1902
 -1       595    8    0    1
 -2       225       224       379      1442      1905      1906
 -1       596    8    0    1
 -2       224       378       379      1903      1907      1905
 -1       597    8    0    1
 -2       226       225       380      1445      1908      1909
 -1       598    8    0    1
 -2       225       379       380      1906      1910      1908
 -1       599    8    0    1
 -2       227       226       381      1448      1911      1912
 -1       600    8    0    1
 -2       226       380       381      1909      1913      1911
 -1       601    8    0    1
 -2       228       227       382      1451      1914      1915
 -1       602    8    0    1
 -2       292       228       382      1645      1915      1916
 -1       603    8    0    1
 -2       227       381       382      1912      1917      1914
 -1       604    8    0    1
 -2       231       232       383      1464      1918      1919
 -1       605    8    0    1
 -2       230       231       384      1461      1920      1921
 -1       606    8    0    1
 -2       231       383       384      1919      1922      1920
 -1       607    8    0    1
 -2       232       233       385      1467      1923      1924
 -1       608    8    0    1
 -2       232       385       383      1924      1925      1918
 -1       609    8    0    1
 -2       233       234       386      1470      1926      1927
 -1       610    8    0    1
 -2       233       386       385      1927      1928      1923
 -1       611    8    0    1
 -2       234       235       387      1473      1929      1930
 -1       612    8    0    1
 -2       234       387       386      1930      1931      1926
 -1       613    8    0    1
 -2       235       236       388      1476      1932      1933
 -1       614    8    0    1
 -2       235       388       387      1933      1934      1929
 -1       615    8    0    1
 -2       236       237       389      1479      1935      1936
 -1       616    8    0    1
 -2       236       389       388      1936      1937      1932
 -1       617    8    0    1
 -2       237       238       390      1482      1938      1939
 -1       618    8    0    1
 -2       237       390       389      1939      1940      1935
 -1       619    8    0    1
 -2       238       239       391      1485      1941      1942
 -1       620    8    0    1
 -2       238       391       390      1942      1943      1938
 -1       621    8    0    1
 -2       239       240       392      1488      1944      1945
 -1       622    8    0    1
 -2       239       392       391      1945      1946      1941
 -1       623    8    0    1
 -2       240       241       393      1491      1947      1948
 -1       624    8    0    1
 -2       240       393       392      1948      1949      1944
 -1       625    8    0    1
 -2       241       242       394      1494      1950      1951
 -1       626    8    0    1
 -2       241       394       393      1951      1952      1947
 -1       627    8    0    1
 -2       242       243       395      1497      1953      1954
 -1       628    8    0    1
 -2       242       395       394      1954      1955      1950
 -1       629    8    0    1
 -2       243       244       396      1500      1956      1957
 -1       630    8    0    1
 -2       243       396       395      1957      1958      1953
 -1       631    8    0    1
 -2       244       245       397      1503      1959      1960
 -1       632    8    0    1
 -2       244       397       396      1960      1961      1956
 -1       633    8    0    1
 -2       245       246       398      1506      1962      1963
 -1       634    8    0    1
 -2       245       398       397      1963      1964      1959
 -1       635    8    0    1
 -2       247       248       399      1512      1965      1966
 -1       636    8    0    1
 -2       249       250       400      1518      1967      1968
 -1       637    8    0    1
 -2       250       251       401      1521      1969      1970
 -1       638    8    0    1
 -2       251       252       402      1524      1971      1972
 -1       639    8    0    1
 -2       252       253       403      1527      1973      1974
 -1       640    8    0    1
 -2       252       403       402      1974      1975      1971
 -1       641    8    0    1
 -2       253       254       404      1530      1976      1977
 -1       642    8    0    1
 -2       253       404       403      1977      1978      1973
 -1       643    8    0    1
 -2       254       255       405      1533      1979      1980
 -1       644    8    0    1
 -2       254       405       404      1980      1981      1976
 -1       645    8    0    1
 -2       255       256       406      1536      1982      1983
 -1       646    8    0    1
 -2       255       406       405      1983      1984      1979
 -1       647    8    0    1
 -2       256       257       407      1539      1985      1986
 -1       648    8    0    1
 -2       256       407       406      1986      1987      1982
 -1       649    8    0    1
 -2       257       258       408      1542      1988      1989
 -1       650    8    0    1
 -2       257       408       407      1989      1990      1985
 -1       651    8    0    1
 -2       258       259       409      1545      1991      1992
 -1       652    8    0    1
 -2       258       409       408      1992      1993      1988
 -1       653    8    0    1
 -2       259       260       410      1548      1994      1995
 -1       654    8    0    1
 -2       259       410       409      1995      1996      1991
 -1       655    8    0    1
 -2       260       261       411      1551      1997      1998
 -1       656    8    0    1
 -2       260       411       410      1998      1999      1994
 -1       657    8    0    1
 -2       261       262       412      1554      2000      2001
 -1       658    8    0    1
 -2       261       412       411      2001      2002      1997
 -1       659    8    0    1
 -2       262       263       413      1557      2003      2004
 -1       660    8    0    1
 -2       262       413       412      2004      2005      2000
 -1       661    8    0    1
 -2       263       264       414      1560      2006      2007
 -1       662    8    0    1
 -2       263       414       413      2007      2008      2003
 -1       663    8    0    1
 -2       264       265       415      1563      2009      2010
 -1       664    8    0    1
 -2       264       415       414      2010      2011      2006
 -1       665    8    0    1
 -2       265       266       416      1566      2012      2013
 -1       666    8    0    1
 -2       265       416       415      2013      2014      2009
 -1       667    8    0    1
 -2       266       267       417      1569      2015      2016
 -1       668    8    0    1
 -2       266       417       416      2016      2017      2012
 -1       669    8    0    1
 -2       267       268       418      1572      2018      2019
 -1       670    8    0    1
 -2       267       418       417      2019      2020      2015
 -1       671    8    0    1
 -2       268       269       419      1575      2021      2022
 -1       672    8    0    1
 -2       268       419       418      2022      2023      2018
 -1       673    8    0    1
 -2       269       270       420      1578      2024      2025
 -1       674    8    0    1
 -2       269       420       419      2025      2026      2021
 -1       675    8    0    1
 -2       270       271       421      1581      2027      2028
 -1       676    8    0    1
 -2       270       421       420      2028      2029      2024
 -1       677    8    0    1
 -2       271       272       422      1584      2030      2031
 -1       678    8    0    1
 -2       271       422       421      2031      2032      2027
 -1       679    8    0    1
 -2       272       273       423      1587      2033      2034
 -1       680    8    0    1
 -2       272       423       422      2034      2035      2030
 -1       681    8    0    1
 -2       273       274       424      1590      2036      2037
 -1       682    8    0    1
 -2       273       424       423      2037      2038      2033
 -1       683    8    0    1
 -2       274       275       425      1593      2039      2040
 -1       684    8    0    1
 -2       274       425       424      2040      2041      2036
 -1       685    8    0    1
 -2       275       276       426      1596      2042      2043
 -1       686    8    0    1
 -2       275       426       425      2043      2044      2039
 -1       687    8    0    1
 -2       276       277       427      1599      2045      2046
 -1       688    8    0    1
 -2       276       427       426      2046      2047      2042
 -1       689    8    0    1
 -2       293       294       428      1709      2048      2049
 -1       690    8    0    1
 -2       280       281       429      1611      2050      2051
 -1       691    8    0    1
 -2       279       280       430      1608      2052      2053
 -1       692    8    0    1
 -2       280       429       430      2051      2054      2052
 -1       693    8    0    1
 -2       122       278       277      1602      2055      1708
 -1       694    8    0    1
 -2       281       282       431      1614      2056      2057
 -1       695    8    0    1
 -2       281       431       429      2057      2058      2050
 -1       696    8    0    1
 -2       282       283       432      1617      2059      2060
 -1       697    8    0    1
 -2       282       432       431      2060      2061      2056
 -1       698    8    0    1
 -2       283       284       433      1620      2062      2063
 -1       699    8    0    1
 -2       283       433       432      2063      2064      2059
 -1       700    8    0    1
 -2       284       285       434      1623      2065      2066
 -1       701    8    0    1
 -2       284       434       433      2066      2067      2062
 -1       702    8    0    1
 -2       285       286       435      1626      2068      2069
 -1       703    8    0    1
 -2       285       435       434      2069      2070      2065
 -1       704    8    0    1
 -2       286       287       436      1629      2071      2072
 -1       705    8    0    1
 -2       286       436       435      2072      2073      2068
 -1       706    8    0    1
 -2       287       288       437      1632      2074      2075
 -1       707    8    0    1
 -2       287       437       436      2075      2076      2071
 -1       708    8    0    1
 -2       288       289       438      1635      2077      2078
 -1       709    8    0    1
 -2       288       438       437      2078      2079      2074
 -1       710    8    0    1
 -2       289       290       439      1638      2080      2081
 -1       711    8    0    1
 -2       289       439       438      2081      2082      2077
 -1       712    8    0    1
 -2       290       291       440      1641      2083      2084
 -1       713    8    0    1
 -2       290       440       439      2084      2085      2080
 -1       714    8    0    1
 -2       294       295       441      1710      2086      2087
 -1       715    8    0    1
 -2       294       441       428      2087      2088      2048
 -1       716    8    0    1
 -2       322       293       442      1711      2089      2090
 -1       717    8    0    1
 -2       168       169       443      1274      2091      2092
 -1       718    8    0    1
 -2       323       168       443      1739      2092      2093
 -1       719    8    0    1
 -2       169       325       443      1745      2094      2091
 -1       720    8    0    1
 -2       297       298       444      1713      2095      2096
 -1       721    8    0    1
 -2       298       299       445      1714      2097      2098
 -1       722    8    0    1
 -2       299       300       446      1715      2099      2100
 -1       723    8    0    1
 -2       300       301       447      1716      2101      2102
 -1       724    8    0    1
 -2       300       447       446      2102      2103      2099
 -1       725    8    0    1
 -2       301       302       399      1717      2104      2105
 -1       726    8    0    1
 -2       302       303       448      1718      2106      2107
 -1       727    8    0    1
 -2       302       448       399      2107      2108      2104
 -1       728    8    0    1
 -2       303       304       449      1719      2109      2110
 -1       729    8    0    1
 -2       304       305       450      1720      2111      2112
 -1       730    8    0    1
 -2       304       450       449      2112      2113      2109
 -1       731    8    0    1
 -2       305       306       451      1721      2114      2115
 -1       732    8    0    1
 -2       306       307       452      1722      2116      2117
 -1       733    8    0    1
 -2       306       452       451      2117      2118      2114
 -1       734    8    0    1
 -2       307       308       453      1723      2119      2120
 -1       735    8    0    1
 -2       308       309       454      1724      2121      2122
 -1       736    8    0    1
 -2       309       310       455      1725      2123      2124
 -1       737    8    0    1
 -2       310       311       456      1726      2125      2126
 -1       738    8    0    1
 -2       311       312       457      1727      2127      2128
 -1       739    8    0    1
 -2       312       313       458      1728      2129      2130
 -1       740    8    0    1
 -2       313       314       459      1729      2131      2132
 -1       741    8    0    1
 -2       314       315       460      1730      2133      2134
 -1       742    8    0    1
 -2       315       316       461      1731      2135      2136
 -1       743    8    0    1
 -2       316       317       462      1732      2137      2138
 -1       744    8    0    1
 -2       317       318       463      1733      2139      2140
 -1       745    8    0    1
 -2       317       463       462      2140      2141      2137
 -1       746    8    0    1
 -2       318       319       464      1734      2142      2143
 -1       747    8    0    1
 -2       319       320       465      1735      2144      2145
 -1       748    8    0    1
 -2       320       321       466      1736      2146      2147
 -1       749    8    0    1
 -2       321       322       467      1737      2148      2149
 -1       750    8    0    1
 -2       180       229       335      1779      2150      1773
 -1       751    8    0    1
 -2       296       297       468      1712      2151      2152
 -1       752    8    0    1
 -2       296       468       336      2152      2153      1776
 -1       753    8    0    1
 -2       181       166       324      1778      1742      2154
 -1       754    8    0    1
 -2       277       278       427      2055      2155      2045
 -1       755    8    0    1
 -2       427       278       279      2155      1605      2156
 -1       756    8    0    1
 -2       295       336       441      1777      2157      2086
 -1       757    8    0    1
 -2       181       324       182      2154      2158      1313
 -1       758    8    0    1
 -2       297       444       468      2096      2159      2151
 -1       759    8    0    1
 -2       337       182       324      1780      2158      2160
 -1       760    8    0    1
 -2       230       384       335      1921      2161      2162
 -1       761    8    0    1
 -2       229       230       335      1458      2162      2150
 -1       762    8    0    1
 -2       247       399       448      1966      2108      2163
 -1       763    8    0    1
 -2       246       247       448      1509      2163      2164
 -1       764    8    0    1
 -2       248       249       469      1515      2165      2166
 -1       765    8    0    1
 -2       250       401       400      1970      2167      1967
 -1       766    8    0    1
 -2       293       428       442      2049      2168      2089
 -1       767    8    0    1
 -2       427       279       430      2156      2053      2169
 -1       768    8    0    1
 -2       322       442       467      2090      2170      2148
 -1       769    8    0    1
 -2       440       291       292      2083      1644      2171
 -1       770    8    0    1
 -2       466       321       467      2146      2149      2172
 -1       771    8    0    1
 -2       465       320       466      2144      2147      2173
 -1       772    8    0    1
 -2       463       318       470      2139      2174      2175
 -1       773    8    0    1
 -2       318       464       470      2143      2176      2174
 -1       774    8    0    1
 -2       461       316       462      2135      2138      2177
 -1       775    8    0    1
 -2       460       315       461      2133      2136      2178
 -1       776    8    0    1
 -2       459       314       460      2131      2134      2179
 -1       777    8    0    1
 -2       458       313       459      2129      2132      2180
 -1       778    8    0    1
 -2       457       312       458      2127      2130      2181
 -1       779    8    0    1
 -2       456       311       457      2125      2128      2182
 -1       780    8    0    1
 -2       455       310       456      2123      2126      2183
 -1       781    8    0    1
 -2       454       309       455      2121      2124      2184
 -1       782    8    0    1
 -2       452       307       453      2116      2120      2185
 -1       783    8    0    1
 -2       450       305       451      2111      2115      2186
 -1       784    8    0    1
 -2       448       303       449      2106      2110      2187
 -1       785    8    0    1
 -2       447       301       399      2101      2105      2188
 -1       786    8    0    1
 -2       444       298       445      2095      2098      2189
 -1       787    8    0    1
 -2       445       299       446      2097      2100      2190
 -1       788    8    0    1
 -2       246       448       398      2164      2191      1962
 -1       789    8    0    1
 -2       453       308       454      2119      2122      2192
 -1       790    8    0    1
 -2       464       319       465      2142      2145      2193
 -1       791    8    0    1
 -2       326       327       471      1751      2194      2195
 -1       792    8    0    1
 -2       325       326       472      1748      2196      2197
 -1       793    8    0    1
 -2       326       471       472      2195      2198      2196
 -1       794    8    0    1
 -2       328       329       473      1757      2199      2200
 -1       795    8    0    1
 -2       329       330       474      1760      2201      2202
 -1       796    8    0    1
 -2       329       474       473      2202      2203      2199
 -1       797    8    0    1
 -2       330       331       475      1763      2204      2205
 -1       798    8    0    1
 -2       330       475       474      2205      2206      2201
 -1       799    8    0    1
 -2       331       332       476      1766      2207      2208
 -1       800    8    0    1
 -2       331       476       475      2208      2209      2204
 -1       801    8    0    1
 -2       332       333       477      1769      2210      2211
 -1       802    8    0    1
 -2       332       477       476      2211      2212      2207
 -1       803    8    0    1
 -2       333       334       478      1772      2213      2214
 -1       804    8    0    1
 -2       333       478       477      2214      2215      2210
 -1       805    8    0    1
 -2       334       335       479      1775      2216      2217
 -1       806    8    0    1
 -2       478       334       479      2213      2217      2218
 -1       807    8    0    1
 -2       335       384       479      2161      2219      2216
 -1       808    8    0    1
 -2       336       468       480      2153      2220      2221
 -1       809    8    0    1
 -2       338       337       481      1784      2222      2223
 -1       810    8    0    1
 -2       339       338       482      1787      2224      2225
 -1       811    8    0    1
 -2       338       481       482      2223      2226      2224
 -1       812    8    0    1
 -2       340       339       483      1790      2227      2228
 -1       813    8    0    1
 -2       339       482       483      2225      2229      2227
 -1       814    8    0    1
 -2       341       340       484      1793      2230      2231
 -1       815    8    0    1
 -2       340       483       484      2228      2232      2230
 -1       816    8    0    1
 -2       342       341       485      1796      2233      2234
 -1       817    8    0    1
 -2       341       484       485      2231      2235      2233
 -1       818    8    0    1
 -2       343       342       486      1799      2236      2237
 -1       819    8    0    1
 -2       342       485       486      2234      2238      2236
 -1       820    8    0    1
 -2       344       343       487      1802      2239      2240
 -1       821    8    0    1
 -2       343       486       487      2237      2241      2239
 -1       822    8    0    1
 -2       345       344       488      1805      2242      2243
 -1       823    8    0    1
 -2       344       487       488      2240      2244      2242
 -1       824    8    0    1
 -2       346       345       489      1808      2245      2246
 -1       825    8    0    1
 -2       345       488       489      2243      2247      2245
 -1       826    8    0    1
 -2       347       346       490      1811      2248      2249
 -1       827    8    0    1
 -2       346       489       490      2246      2250      2248
 -1       828    8    0    1
 -2       348       347       491      1814      2251      2252
 -1       829    8    0    1
 -2       347       490       491      2249      2253      2251
 -1       830    8    0    1
 -2       349       348       492      1817      2254      2255
 -1       831    8    0    1
 -2       348       491       492      2252      2256      2254
 -1       832    8    0    1
 -2       350       349       493      1820      2257      2258
 -1       833    8    0    1
 -2       349       492       493      2255      2259      2257
 -1       834    8    0    1
 -2       351       350       494      1823      2260      2261
 -1       835    8    0    1
 -2       350       493       494      2258      2262      2260
 -1       836    8    0    1
 -2       352       351       495      1826      2263      2264
 -1       837    8    0    1
 -2       351       494       495      2261      2265      2263
 -1       838    8    0    1
 -2       353       352       496      1829      2266      2267
 -1       839    8    0    1
 -2       352       495       496      2264      2268      2266
 -1       840    8    0    1
 -2       354       353       497      1832      2269      2270
 -1       841    8    0    1
 -2       353       496       497      2267      2271      2269
 -1       842    8    0    1
 -2       355       354       498      1835      2272      2273
 -1       843    8    0    1
 -2       354       497       498      2270      2274      2272
 -1       844    8    0    1
 -2       356       355       499      1838      2275      2276
 -1       845    8    0    1
 -2       355       498       499      2273      2277      2275
 -1       846    8    0    1
 -2       357       356       500      1841      2278      2279
 -1       847    8    0    1
 -2       356       499       500      2276      2280      2278
 -1       848    8    0    1
 -2       358       357       501      1844      2281      2282
 -1       849    8    0    1
 -2       357       500       501      2279      2283      2281
 -1       850    8    0    1
 -2       359       358       502      1847      2284      2285
 -1       851    8    0    1
 -2       358       501       502      2282      2286      2284
 -1       852    8    0    1
 -2       360       359       503      1850      2287      2288
 -1       853    8    0    1
 -2       359       502       503      2285      2289      2287
 -1       854    8    0    1
 -2       361       360       504      1853      2290      2291
 -1       855    8    0    1
 -2       360       503       504      2288      2292      2290
 -1       856    8    0    1
 -2       362       361       505      1856      2293      2294
 -1       857    8    0    1
 -2       361       504       505      2291      2295      2293
 -1       858    8    0    1
 -2       363       362       506      1859      2296      2297
 -1       859    8    0    1
 -2       362       505       506      2294      2298      2296
 -1       860    8    0    1
 -2       364       363       507      1862      2299      2300
 -1       861    8    0    1
 -2       363       506       507      2297      2301      2299
 -1       862    8    0    1
 -2       365       364       508      1865      2302      2303
 -1       863    8    0    1
 -2       364       507       508      2300      2304      2302
 -1       864    8    0    1
 -2       366       365       509      1868      2305      2306
 -1       865    8    0    1
 -2       365       508       509      2303      2307      2305
 -1       866    8    0    1
 -2       367       366       510      1871      2308      2309
 -1       867    8    0    1
 -2       366       509       510      2306      2310      2308
 -1       868    8    0    1
 -2       368       367       511      1874      2311      2312
 -1       869    8    0    1
 -2       367       510       511      2309      2313      2311
 -1       870    8    0    1
 -2       369       368       512      1877      2314      2315
 -1       871    8    0    1
 -2       368       511       512      2312      2316      2314
 -1       872    8    0    1
 -2       370       369       513      1880      2317      2318
 -1       873    8    0    1
 -2       369       512       513      2315      2319      2317
 -1       874    8    0    1
 -2       371       370       514      1883      2320      2321
 -1       875    8    0    1
 -2       370       513       514      2318      2322      2320
 -1       876    8    0    1
 -2       372       371       515      1886      2323      2324
 -1       877    8    0    1
 -2       371       514       515      2321      2325      2323
 -1       878    8    0    1
 -2       373       372       516      1889      2326      2327
 -1       879    8    0    1
 -2       372       515       516      2324      2328      2326
 -1       880    8    0    1
 -2       374       373       517      1892      2329      2330
 -1       881    8    0    1
 -2       373       516       517      2327      2331      2329
 -1       882    8    0    1
 -2       375       374       518      1895      2332      2333
 -1       883    8    0    1
 -2       374       517       518      2330      2334      2332
 -1       884    8    0    1
 -2       376       375       519      1898      2335      2336
 -1       885    8    0    1
 -2       375       518       519      2333      2337      2335
 -1       886    8    0    1
 -2       377       376       520      1901      2338      2339
 -1       887    8    0    1
 -2       376       519       520      2336      2340      2338
 -1       888    8    0    1
 -2       378       377       521      1904      2341      2342
 -1       889    8    0    1
 -2       377       520       521      2339      2343      2341
 -1       890    8    0    1
 -2       379       378       522      1907      2344      2345
 -1       891    8    0    1
 -2       378       521       522      2342      2346      2344
 -1       892    8    0    1
 -2       380       379       523      1910      2347      2348
 -1       893    8    0    1
 -2       379       522       523      2345      2349      2347
 -1       894    8    0    1
 -2       381       380       524      1913      2350      2351
 -1       895    8    0    1
 -2       380       523       524      2348      2352      2350
 -1       896    8    0    1
 -2       384       383       525      1922      2353      2354
 -1       897    8    0    1
 -2       384       525       479      2354      2355      2219
 -1       898    8    0    1
 -2       386       387       526      1931      2356      2357
 -1       899    8    0    1
 -2       387       388       527      1934      2358      2359
 -1       900    8    0    1
 -2       387       527       526      2359      2360      2356
 -1       901    8    0    1
 -2       388       389       528      1937      2361      2362
 -1       902    8    0    1
 -2       388       528       527      2362      2363      2358
 -1       903    8    0    1
 -2       389       390       529      1940      2364      2365
 -1       904    8    0    1
 -2       389       529       528      2365      2366      2361
 -1       905    8    0    1
 -2       390       391       530      1943      2367      2368
 -1       906    8    0    1
 -2       390       530       529      2368      2369      2364
 -1       907    8    0    1
 -2       391       392       531      1946      2370      2371
 -1       908    8    0    1
 -2       391       531       530      2371      2372      2367
 -1       909    8    0    1
 -2       392       393       532      1949      2373      2374
 -1       910    8    0    1
 -2       392       532       531      2374      2375      2370
 -1       911    8    0    1
 -2       393       394       533      1952      2376      2377
 -1       912    8    0    1
 -2       393       533       532      2377      2378      2373
 -1       913    8    0    1
 -2       394       395       534      1955      2379      2380
 -1       914    8    0    1
 -2       394       534       533      2380      2381      2376
 -1       915    8    0    1
 -2       395       396       535      1958      2382      2383
 -1       916    8    0    1
 -2       395       535       534      2383      2384      2379
 -1       917    8    0    1
 -2       396       397       536      1961      2385      2386
 -1       918    8    0    1
 -2       396       536       535      2386      2387      2382
 -1       919    8    0    1
 -2       453       454       537      2192      2388      2389
 -1       920    8    0    1
 -2       469       249       400      2165      1968      2390
 -1       921    8    0    1
 -2       251       402       401      1972      2391      1969
 -1       922    8    0    1
 -2       402       403       480      1975      2392      2393
 -1       923    8    0    1
 -2       405       406       538      1984      2394      2395
 -1       924    8    0    1
 -2       406       407       539      1987      2396      2397
 -1       925    8    0    1
 -2       406       539       538      2397      2398      2394
 -1       926    8    0    1
 -2       407       408       540      1990      2399      2400
 -1       927    8    0    1
 -2       407       540       539      2400      2401      2396
 -1       928    8    0    1
 -2       408       409       541      1993      2402      2403
 -1       929    8    0    1
 -2       408       541       540      2403      2404      2399
 -1       930    8    0    1
 -2       409       410       542      1996      2405      2406
 -1       931    8    0    1
 -2       409       542       541      2406      2407      2402
 -1       932    8    0    1
 -2       410       411       543      1999      2408      2409
 -1       933    8    0    1
 -2       410       543       542      2409      2410      2405
 -1       934    8    0    1
 -2       411       412       544      2002      2411      2412
 -1       935    8    0    1
 -2       411       544       543      2412      2413      2408
 -1       936    8    0    1
 -2       412       413       545      2005      2414      2415
 -1       937    8    0    1
 -2       412       545       544      2415      2416      2411
 -1       938    8    0    1
 -2       413       414       546      2008      2417      2418
 -1       939    8    0    1
 -2       413       546       545      2418      2419      2414
 -1       940    8    0    1
 -2       414       415       547      2011      2420      2421
 -1       941    8    0    1
 -2       414       547       546      2421      2422      2417
 -1       942    8    0    1
 -2       415       416       548      2014      2423      2424
 -1       943    8    0    1
 -2       415       548       547      2424      2425      2420
 -1       944    8    0    1
 -2       416       417       549      2017      2426      2427
 -1       945    8    0    1
 -2       416       549       548      2427      2428      2423
 -1       946    8    0    1
 -2       417       418       550      2020      2429      2430
 -1       947    8    0    1
 -2       417       550       549      2430      2431      2426
 -1       948    8    0    1
 -2       418       419       551      2023      2432      2433
 -1       949    8    0    1
 -2       418       551       550      2433      2434      2429
 -1       950    8    0    1
 -2       419       420       552      2026      2435      2436
 -1       951    8    0    1
 -2       419       552       551      2436      2437      2432
 -1       952    8    0    1
 -2       420       421       553      2029      2438      2439
 -1       953    8    0    1
 -2       420       553       552      2439      2440      2435
 -1       954    8    0    1
 -2       421       422       554      2032      2441      2442
 -1       955    8    0    1
 -2       421       554       553      2442      2443      2438
 -1       956    8    0    1
 -2       422       423       555      2035      2444      2445
 -1       957    8    0    1
 -2       422       555       554      2445      2446      2441
 -1       958    8    0    1
 -2       423       424       556      2038      2447      2448
 -1       959    8    0    1
 -2       423       556       555      2448      2449      2444
 -1       960    8    0    1
 -2       424       425       557      2041      2450      2451
 -1       961    8    0    1
 -2       424       557       556      2451      2452      2447
 -1       962    8    0    1
 -2       425       426       558      2044      2453      2454
 -1       963    8    0    1
 -2       425       558       557      2454      2455      2450
 -1       964    8    0    1
 -2       426       427       559      2047      2456      2457
 -1       965    8    0    1
 -2       558       426       559      2453      2457      2458
 -1       966    8    0    1
 -2       427       430       559      2169      2459      2456
 -1       967    8    0    1
 -2       467       442       560      2170      2460      2461
 -1       968    8    0    1
 -2       432       433       561      2064      2462      2463
 -1       969    8    0    1
 -2       441       336       562      2157      2464      2465
 -1       970    8    0    1
 -2       433       434       563      2067      2466      2467
 -1       971    8    0    1
 -2       433       563       561      2467      2468      2462
 -1       972    8    0    1
 -2       434       435       564      2070      2469      2470
 -1       973    8    0    1
 -2       434       564       563      2470      2471      2466
 -1       974    8    0    1
 -2       435       436       565      2073      2472      2473
 -1       975    8    0    1
 -2       435       565       564      2473      2474      2469
 -1       976    8    0    1
 -2       436       437       566      2076      2475      2476
 -1       977    8    0    1
 -2       436       566       565      2476      2477      2472
 -1       978    8    0    1
 -2       437       438       567      2079      2478      2479
 -1       979    8    0    1
 -2       437       567       566      2479      2480      2475
 -1       980    8    0    1
 -2       438       439       568      2082      2481      2482
 -1       981    8    0    1
 -2       438       568       567      2482      2483      2478
 -1       982    8    0    1
 -2       439       440       569      2085      2484      2485
 -1       983    8    0    1
 -2       439       569       568      2485      2486      2481
 -1       984    8    0    1
 -2       428       441       570      2088      2487      2488
 -1       985    8    0    1
 -2       466       467       571      2172      2489      2490
 -1       986    8    0    1
 -2       385       386       572      1928      2491      2492
 -1       987    8    0    1
 -2       386       526       572      2357      2493      2491
 -1       988    8    0    1
 -2       429       431       573      2058      2494      2495
 -1       989    8    0    1
 -2       440       292       382      2171      1916      2496
 -1       990    8    0    1
 -2       461       462       574      2177      2497      2498
 -1       991    8    0    1
 -2       430       429       575      2054      2499      2500
 -1       992    8    0    1
 -2       559       430       575      2459      2500      2501
 -1       993    8    0    1
 -2       429       573       575      2495      2502      2499
 -1       994    8    0    1
 -2       431       432       576      2061      2503      2504
 -1       995    8    0    1
 -2       573       431       576      2494      2504      2505
 -1       996    8    0    1
 -2       432       561       576      2463      2506      2503
 -1       997    8    0    1
 -2       404       405       577      1981      2507      2508
 -1       998    8    0    1
 -2       405       538       577      2395      2509      2507
 -1       999    8    0    1
 -2       403       404       578      1978      2510      2511
 -1      1000    8    0    1
 -2       404       577       578      2508      2512      2510
 -1      1001    8    0    1
 -2       442       428       579      2168      2513      2514
 -1      1002    8    0    1
 -2       442       579       560      2514      2515      2460
 -1      1003    8    0    1
 -2       327       328       580      1754      2516      2517
 -1      1004    8    0    1
 -2       471       327       580      2194      2517      2518
 -1      1005    8    0    1
 -2       328       473       580      2200      2519      2516
 -1      1006    8    0    1
 -2       383       385       581      1925      2520      2521
 -1      1007    8    0    1
 -2       525       383       581      2353      2521      2522
 -1      1008    8    0    1
 -2       385       572       581      2492      2523      2520
 -1      1009    8    0    1
 -2       398       448       449      2191      2187      2524
 -1      1010    8    0    1
 -2       450       451       582      2186      2525      2526
 -1      1011    8    0    1
 -2       451       452       583      2118      2527      2528
 -1      1012    8    0    1
 -2       464       465       584      2193      2529      2530
 -1      1013    8    0    1
 -2       452       453       585      2185      2531      2532
 -1      1014    8    0    1
 -2       452       585       583      2532      2533      2527
 -1      1015    8    0    1
 -2       454       455       586      2184      2534      2535
 -1      1016    8    0    1
 -2       455       456       587      2183      2536      2537
 -1      1017    8    0    1
 -2       456       457       588      2182      2538      2539
 -1      1018    8    0    1
 -2       456       588       587      2539      2540      2536
 -1      1019    8    0    1
 -2       457       458       589      2181      2541      2542
 -1      1020    8    0    1
 -2       458       459       590      2180      2543      2544
 -1      1021    8    0    1
 -2       459       460       591      2179      2545      2546
 -1      1022    8    0    1
 -2       460       461       592      2178      2547      2548
 -1      1023    8    0    1
 -2       462       463       593      2141      2549      2550
 -1      1024    8    0    1
 -2       462       593       574      2550      2551      2497
 -1      1025    8    0    1
 -2       465       466       594      2173      2552      2553
 -1      1026    8    0    1
 -2       337       324       595      2160      2554      2555
 -1      1027    8    0    1
 -2       481       337       595      2222      2555      2556
 -1      1028    8    0    1
 -2       324       323       595      1743      2557      2554
 -1      1029    8    0    1
 -2       398       449       596      2524      2558      2559
 -1      1030    8    0    1
 -2       397       398       596      1964      2559      2560
 -1      1031    8    0    1
 -2       449       450       596      2113      2561      2558
 -1      1032    8    0    1
 -2       325       472       597      2197      2562      2563
 -1      1033    8    0    1
 -2       325       597       443      2563      2564      2094
 -1      1034    8    0    1
 -2       480       468       402      2220      2565      2393
 -1      1035    8    0    1
 -2       596       450       582      2561      2526      2566
 -1      1036    8    0    1
 -2       468       444       402      2159      2567      2565
 -1      1037    8    0    1
 -2       336       480       562      2221      2568      2464
 -1      1038    8    0    1
 -2       461       574       592      2498      2569      2547
 -1      1039    8    0    1
 -2       454       586       537      2535      2570      2388
 -1      1040    8    0    1
 -2       453       537       598      2389      2571      2572
 -1      1041    8    0    1
 -2       453       598       585      2572      2573      2531
 -1      1042    8    0    1
 -2       536       397       596      2385      2560      2574
 -1      1043    8    0    1
 -2       399       248       469      1965      2166      2575
 -1      1044    8    0    1
 -2       401       402       444      2391      2567      2576
 -1      1045    8    0    1
 -2       480       403       578      2392      2511      2577
 -1      1046    8    0    1
 -2       441       562       570      2465      2578      2487
 -1      1047    8    0    1
 -2       428       570       579      2488      2579      2513
 -1      1048    8    0    1
 -2       466       571       594      2490      2580      2552
 -1      1049    8    0    1
 -2       467       560       571      2461      2581      2489
 -1      1050    8    0    1
 -2       323       443       599      2093      2582      2583
 -1      1051    8    0    1
 -2       595       323       599      2557      2583      2584
 -1      1052    8    0    1
 -2       443       597       599      2564      2585      2582
 -1      1053    8    0    1
 -2       440       382       600      2496      2586      2587
 -1      1054    8    0    1
 -2       569       440       600      2484      2587      2588
 -1      1055    8    0    1
 -2       382       381       600      1917      2589      2586
 -1      1056    8    0    1
 -2       465       594       584      2553      2590      2529
 -1      1057    8    0    1
 -2       470       464       584      2176      2530      2591
 -1      1058    8    0    1
 -2       600       381       524      2589      2351      2592
 -1      1059    8    0    1
 -2       593       463       470      2549      2175      2593
 -1      1060    8    0    1
 -2       591       460       592      2545      2548      2594
 -1      1061    8    0    1
 -2       590       459       591      2543      2546      2595
 -1      1062    8    0    1
 -2       444       445       401      2189      2596      2576
 -1      1063    8    0    1
 -2       588       457       601      2538      2597      2598
 -1      1064    8    0    1
 -2       457       589       601      2542      2599      2597
 -1      1065    8    0    1
 -2       582       451       583      2525      2528      2600
 -1      1066    8    0    1
 -2       446       447       469      2103      2601      2602
 -1      1067    8    0    1
 -2       586       455       587      2534      2537      2603
 -1      1068    8    0    1
 -2       589       458       590      2541      2544      2604
 -1      1069    8    0    1
 -2       474       475       602      2206      2605      2606
 -1      1070    8    0    1
 -2       473       474       603      2203      2607      2608
 -1      1071    8    0    1
 -2       474       602       603      2606      2609      2607
 -1      1072    8    0    1
 -2       476       477       604      2212      2610      2611
 -1      1073    8    0    1
 -2       477       478       605      2215      2612      2613
 -1      1074    8    0    1
 -2       477       605       604      2613      2614      2610
 -1      1075    8    0    1
 -2       478       479       606      2218      2615      2616
 -1      1076    8    0    1
 -2       605       478       606      2612      2616      2617
 -1      1077    8    0    1
 -2       479       525       606      2355      2618      2615
 -1      1078    8    0    1
 -2       593       470       607      2593      2619      2620
 -1      1079    8    0    1
 -2       483       482       608      2229      2621      2622
 -1      1080    8    0    1
 -2       484       483       609      2232      2623      2624
 -1      1081    8    0    1
 -2       483       608       609      2622      2625      2623
 -1      1082    8    0    1
 -2       485       484       610      2235      2626      2627
 -1      1083    8    0    1
 -2       484       609       610      2624      2628      2626
 -1      1084    8    0    1
 -2       486       485       611      2238      2629      2630
 -1      1085    8    0    1
 -2       485       610       611      2627      2631      2629
 -1      1086    8    0    1
 -2       487       486       612      2241      2632      2633
 -1      1087    8    0    1
 -2       486       611       612      2630      2634      2632
 -1      1088    8    0    1
 -2       488       487       613      2244      2635      2636
 -1      1089    8    0    1
 -2       487       612       613      2633      2637      2635
 -1      1090    8    0    1
 -2       489       488       614      2247      2638      2639
 -1      1091    8    0    1
 -2       488       613       614      2636      2640      2638
 -1      1092    8    0    1
 -2       490       489       615      2250      2641      2642
 -1      1093    8    0    1
 -2       489       614       615      2639      2643      2641
 -1      1094    8    0    1
 -2       491       490       616      2253      2644      2645
 -1      1095    8    0    1
 -2       490       615       616      2642      2646      2644
 -1      1096    8    0    1
 -2       492       491       617      2256      2647      2648
 -1      1097    8    0    1
 -2       491       616       617      2645      2649      2647
 -1      1098    8    0    1
 -2       493       492       618      2259      2650      2651
 -1      1099    8    0    1
 -2       492       617       618      2648      2652      2650
 -1      1100    8    0    1
 -2       494       493       619      2262      2653      2654
 -1      1101    8    0    1
 -2       493       618       619      2651      2655      2653
 -1      1102    8    0    1
 -2       495       494       620      2265      2656      2657
 -1      1103    8    0    1
 -2       494       619       620      2654      2658      2656
 -1      1104    8    0    1
 -2       496       495       621      2268      2659      2660
 -1      1105    8    0    1
 -2       495       620       621      2657      2661      2659
 -1      1106    8    0    1
 -2       497       496       622      2271      2662      2663
 -1      1107    8    0    1
 -2       496       621       622      2660      2664      2662
 -1      1108    8    0    1
 -2       498       497       623      2274      2665      2666
 -1      1109    8    0    1
 -2       497       622       623      2663      2667      2665
 -1      1110    8    0    1
 -2       499       498       624      2277      2668      2669
 -1      1111    8    0    1
 -2       498       623       624      2666      2670      2668
 -1      1112    8    0    1
 -2       500       499       625      2280      2671      2672
 -1      1113    8    0    1
 -2       499       624       625      2669      2673      2671
 -1      1114    8    0    1
 -2       501       500       626      2283      2674      2675
 -1      1115    8    0    1
 -2       500       625       626      2672      2676      2674
 -1      1116    8    0    1
 -2       502       501       627      2286      2677      2678
 -1      1117    8    0    1
 -2       501       626       627      2675      2679      2677
 -1      1118    8    0    1
 -2       503       502       628      2289      2680      2681
 -1      1119    8    0    1
 -2       502       627       628      2678      2682      2680
 -1      1120    8    0    1
 -2       504       503       629      2292      2683      2684
 -1      1121    8    0    1
 -2       503       628       629      2681      2685      2683
 -1      1122    8    0    1
 -2       505       504       630      2295      2686      2687
 -1      1123    8    0    1
 -2       504       629       630      2684      2688      2686
 -1      1124    8    0    1
 -2       506       505       631      2298      2689      2690
 -1      1125    8    0    1
 -2       505       630       631      2687      2691      2689
 -1      1126    8    0    1
 -2       507       506       632      2301      2692      2693
 -1      1127    8    0    1
 -2       506       631       632      2690      2694      2692
 -1      1128    8    0    1
 -2       508       507       633      2304      2695      2696
 -1      1129    8    0    1
 -2       507       632       633      2693      2697      2695
 -1      1130    8    0    1
 -2       509       508       634      2307      2698      2699
 -1      1131    8    0    1
 -2       508       633       634      2696      2700      2698
 -1      1132    8    0    1
 -2       510       509       635      2310      2701      2702
 -1      1133    8    0    1
 -2       509       634       635      2699      2703      2701
 -1      1134    8    0    1
 -2       511       510       636      2313      2704      2705
 -1      1135    8    0    1
 -2       510       635       636      2702      2706      2704
 -1      1136    8    0    1
 -2       512       511       637      2316      2707      2708
 -1      1137    8    0    1
 -2       511       636       637      2705      2709      2707
 -1      1138    8    0    1
 -2       513       512       638      2319      2710      2711
 -1      1139    8    0    1
 -2       512       637       638      2708      2712      2710
 -1      1140    8    0    1
 -2       514       513       639      2322      2713      2714
 -1      1141    8    0    1
 -2       513       638       639      2711      2715      2713
 -1      1142    8    0    1
 -2       515       514       640      2325      2716      2717
 -1      1143    8    0    1
 -2       514       639       640      2714      2718      2716
 -1      1144    8    0    1
 -2       516       515       641      2328      2719      2720
 -1      1145    8    0    1
 -2       515       640       641      2717      2721      2719
 -1      1146    8    0    1
 -2       517       516       642      2331      2722      2723
 -1      1147    8    0    1
 -2       516       641       642      2720      2724      2722
 -1      1148    8    0    1
 -2       518       517       643      2334      2725      2726
 -1      1149    8    0    1
 -2       517       642       643      2723      2727      2725
 -1      1150    8    0    1
 -2       519       518       644      2337      2728      2729
 -1      1151    8    0    1
 -2       518       643       644      2726      2730      2728
 -1      1152    8    0    1
 -2       520       519       645      2340      2731      2732
 -1      1153    8    0    1
 -2       519       644       645      2729      2733      2731
 -1      1154    8    0    1
 -2       521       520       646      2343      2734      2735
 -1      1155    8    0    1
 -2       520       645       646      2732      2736      2734
 -1      1156    8    0    1
 -2       522       521       647      2346      2737      2738
 -1      1157    8    0    1
 -2       521       646       647      2735      2739      2737
 -1      1158    8    0    1
 -2       523       522       648      2349      2740      2741
 -1      1159    8    0    1
 -2       522       647       648      2738      2742      2740
 -1      1160    8    0    1
 -2       524       523       649      2352      2743      2744
 -1      1161    8    0    1
 -2       523       648       649      2741      2745      2743
 -1      1162    8    0    1
 -2       584       594       650      2590      2746      2747
 -1      1163    8    0    1
 -2       527       528       651      2363      2748      2749
 -1      1164    8    0    1
 -2       526       527       652      2360      2750      2751
 -1      1165    8    0    1
 -2       527       651       652      2749      2752      2750
 -1      1166    8    0    1
 -2       529       530       653      2369      2753      2754
 -1      1167    8    0    1
 -2       530       531       654      2372      2755      2756
 -1      1168    8    0    1
 -2       530       654       653      2756      2757      2753
 -1      1169    8    0    1
 -2       531       532       655      2375      2758      2759
 -1      1170    8    0    1
 -2       531       655       654      2759      2760      2755
 -1      1171    8    0    1
 -2       532       533       656      2378      2761      2762
 -1      1172    8    0    1
 -2       532       656       655      2762      2763      2758
 -1      1173    8    0    1
 -2       533       534       657      2381      2764      2765
 -1      1174    8    0    1
 -2       533       657       656      2765      2766      2761
 -1      1175    8    0    1
 -2       534       535       658      2384      2767      2768
 -1      1176    8    0    1
 -2       534       658       657      2768      2769      2764
 -1      1177    8    0    1
 -2       535       536       659      2387      2770      2771
 -1      1178    8    0    1
 -2       535       659       658      2771      2772      2767
 -1      1179    8    0    1
 -2       539       540       660      2401      2773      2774
 -1      1180    8    0    1
 -2       400       401       445      2167      2596      2775
 -1      1181    8    0    1
 -2       538       539       661      2398      2776      2777
 -1      1182    8    0    1
 -2       539       660       661      2774      2778      2776
 -1      1183    8    0    1
 -2       541       542       662      2407      2779      2780
 -1      1184    8    0    1
 -2       542       543       663      2410      2781      2782
 -1      1185    8    0    1
 -2       542       663       662      2782      2783      2779
 -1      1186    8    0    1
 -2       543       544       664      2413      2784      2785
 -1      1187    8    0    1
 -2       543       664       663      2785      2786      2781
 -1      1188    8    0    1
 -2       544       545       665      2416      2787      2788
 -1      1189    8    0    1
 -2       544       665       664      2788      2789      2784
 -1      1190    8    0    1
 -2       545       546       666      2419      2790      2791
 -1      1191    8    0    1
 -2       545       666       665      2791      2792      2787
 -1      1192    8    0    1
 -2       546       547       667      2422      2793      2794
 -1      1193    8    0    1
 -2       546       667       666      2794      2795      2790
 -1      1194    8    0    1
 -2       547       548       668      2425      2796      2797
 -1      1195    8    0    1
 -2       547       668       667      2797      2798      2793
 -1      1196    8    0    1
 -2       548       549       669      2428      2799      2800
 -1      1197    8    0    1
 -2       548       669       668      2800      2801      2796
 -1      1198    8    0    1
 -2       549       550       670      2431      2802      2803
 -1      1199    8    0    1
 -2       549       670       669      2803      2804      2799
 -1      1200    8    0    1
 -2       550       551       671      2434      2805      2806
 -1      1201    8    0    1
 -2       550       671       670      2806      2807      2802
 -1      1202    8    0    1
 -2       551       552       672      2437      2808      2809
 -1      1203    8    0    1
 -2       551       672       671      2809      2810      2805
 -1      1204    8    0    1
 -2       552       553       673      2440      2811      2812
 -1      1205    8    0    1
 -2       552       673       672      2812      2813      2808
 -1      1206    8    0    1
 -2       553       554       674      2443      2814      2815
 -1      1207    8    0    1
 -2       553       674       673      2815      2816      2811
 -1      1208    8    0    1
 -2       554       555       675      2446      2817      2818
 -1      1209    8    0    1
 -2       554       675       674      2818      2819      2814
 -1      1210    8    0    1
 -2       555       556       676      2449      2820      2821
 -1      1211    8    0    1
 -2       555       676       675      2821      2822      2817
 -1      1212    8    0    1
 -2       556       557       677      2452      2823      2824
 -1      1213    8    0    1
 -2       556       677       676      2824      2825      2820
 -1      1214    8    0    1
 -2       557       558       678      2455      2826      2827
 -1      1215    8    0    1
 -2       557       678       677      2827      2828      2823
 -1      1216    8    0    1
 -2       558       559       679      2458      2829      2830
 -1      1217    8    0    1
 -2       678       558       679      2826      2830      2831
 -1      1218    8    0    1
 -2       559       575       679      2501      2832      2829
 -1      1219    8    0    1
 -2       563       564       680      2471      2833      2834
 -1      1220    8    0    1
 -2       560       579       681      2515      2835      2836
 -1      1221    8    0    1
 -2       562       480       578      2568      2577      2837
 -1      1222    8    0    1
 -2       561       563       682      2468      2838      2839
 -1      1223    8    0    1
 -2       563       680       682      2834      2840      2838
 -1      1224    8    0    1
 -2       565       566       683      2477      2841      2842
 -1      1225    8    0    1
 -2       566       567       684      2480      2843      2844
 -1      1226    8    0    1
 -2       566       684       683      2844      2845      2841
 -1      1227    8    0    1
 -2       567       568       685      2483      2846      2847
 -1      1228    8    0    1
 -2       567       685       684      2847      2848      2843
 -1      1229    8    0    1
 -2       579       570       686      2579      2849      2850
 -1      1230    8    0    1
 -2       577       538       687      2509      2851      2852
 -1      1231    8    0    1
 -2       538       661       687      2777      2853      2851
 -1      1232    8    0    1
 -2       537       586       688      2570      2854      2855
 -1      1233    8    0    1
 -2       572       526       689      2493      2856      2857
 -1      1234    8    0    1
 -2       526       652       689      2751      2858      2856
 -1      1235    8    0    1
 -2       564       565       690      2474      2859      2860
 -1      1236    8    0    1
 -2       680       564       690      2833      2860      2861
 -1      1237    8    0    1
 -2       565       683       690      2842      2862      2859
 -1      1238    8    0    1
 -2       592       574       691      2569      2863      2864
 -1      1239    8    0    1
 -2       540       541       692      2404      2865      2866
 -1      1240    8    0    1
 -2       541       662       692      2780      2867      2865
 -1      1241    8    0    1
 -2       582       583       693      2600      2868      2869
 -1      1242    8    0    1
 -2       578       577       694      2512      2870      2871
 -1      1243    8    0    1
 -2       562       578       694      2837      2871      2872
 -1      1244    8    0    1
 -2       577       687       694      2852      2873      2870
 -1      1245    8    0    1
 -2       594       571       695      2580      2874      2875
 -1      1246    8    0    1
 -2       596       582       693      2566      2869      2876
 -1      1247    8    0    1
 -2       536       596       693      2574      2876      2877
 -1      1248    8    0    1
 -2       399       469       447      2575      2601      2188
 -1      1249    8    0    1
 -2       470       584       696      2591      2878      2879
 -1      1250    8    0    1
 -2       470       696       607      2879      2880      2619
 -1      1251    8    0    1
 -2       528       529       697      2366      2881      2882
 -1      1252    8    0    1
 -2       529       653       697      2754      2883      2881
 -1      1253    8    0    1
 -2       482       481       698      2226      2884      2885
 -1      1254    8    0    1
 -2       482       698       608      2885      2886      2621
 -1      1255    8    0    1
 -2       445       446       400      2190      2887      2775
 -1      1256    8    0    1
 -2       586       587       699      2603      2888      2889
 -1      1257    8    0    1
 -2       475       476       700      2209      2890      2891
 -1      1258    8    0    1
 -2       602       475       700      2605      2891      2892
 -1      1259    8    0    1
 -2       476       604       700      2611      2893      2890
 -1      1260    8    0    1
 -2       569       600       701      2588      2894      2895
 -1      1261    8    0    1
 -2       600       524       701      2592      2896      2894
 -1      1262    8    0    1
 -2       472       471       702      2198      2897      2898
 -1      1263    8    0    1
 -2       583       585       703      2533      2899      2900
 -1      1264    8    0    1
 -2       589       590       704      2604      2901      2902
 -1      1265    8    0    1
 -2       587       588       705      2540      2903      2904
 -1      1266    8    0    1
 -2       587       705       699      2904      2905      2888
 -1      1267    8    0    1
 -2       590       591       706      2595      2906      2907
 -1      1268    8    0    1
 -2       574       593       707      2551      2908      2909
 -1      1269    8    0    1
 -2       571       560       708      2581      2910      2911
 -1      1270    8    0    1
 -2       591       592       709      2594      2912      2913
 -1      1271    8    0    1
 -2       481       595       710      2556      2914      2915
 -1      1272    8    0    1
 -2       698       481       710      2884      2915      2916
 -1      1273    8    0    1
 -2       595       599       710      2584      2917      2914
 -1      1274    8    0    1
 -2       473       603       711      2608      2918      2919
 -1      1275    8    0    1
 -2       473       711       580      2919      2920      2519
 -1      1276    8    0    1
 -2       606       525       712      2618      2921      2922
 -1      1277    8    0    1
 -2       525       581       712      2522      2923      2921
 -1      1278    8    0    1
 -2       400       446       469      2887      2602      2390
 -1      1279    8    0    1
 -2       573       576       713      2505      2924      2925
 -1      1280    8    0    1
 -2       593       607       707      2620      2926      2908
 -1      1281    8    0    1
 -2       584       650       696      2747      2927      2878
 -1      1282    8    0    1
 -2       524       649       701      2744      2928      2896
 -1      1283    8    0    1
 -2       650       594       695      2746      2875      2929
 -1      1284    8    0    1
 -2       598       537       688      2571      2855      2930
 -1      1285    8    0    1
 -2       536       693       659      2877      2931      2770
 -1      1286    8    0    1
 -2       660       540       692      2773      2866      2932
 -1      1287    8    0    1
 -2       585       598       714      2573      2933      2934
 -1      1288    8    0    1
 -2       585       714       703      2934      2935      2899
 -1      1289    8    0    1
 -2       597       472       715      2562      2936      2937
 -1      1290    8    0    1
 -2       472       702       715      2898      2938      2936
 -1      1291    8    0    1
 -2       586       699       688      2889      2939      2854
 -1      1292    8    0    1
 -2       570       562       694      2578      2872      2940
 -1      1293    8    0    1
 -2       691       574       707      2863      2909      2941
 -1      1294    8    0    1
 -2       681       579       686      2835      2850      2942
 -1      1295    8    0    1
 -2       471       580       716      2518      2943      2944
 -1      1296    8    0    1
 -2       702       471       716      2897      2944      2945
 -1      1297    8    0    1
 -2       580       711       716      2920      2946      2943
 -1      1298    8    0    1
 -2       576       561       717      2506      2947      2948
 -1      1299    8    0    1
 -2       576       717       713      2948      2949      2924
 -1      1300    8    0    1
 -2       560       681       708      2836      2950      2910
 -1      1301    8    0    1
 -2       695       571       708      2874      2911      2951
 -1      1302    8    0    1
 -2       686       570       694      2849      2940      2952
 -1      1303    8    0    1
 -2       568       569       701      2486      2895      2953
 -1      1304    8    0    1
 -2       568       701       718      2953      2954      2955
 -1      1305    8    0    1
 -2       685       568       718      2846      2955      2956
 -1      1306    8    0    1
 -2       701       649       718      2928      2957      2954
 -1      1307    8    0    1
 -2       592       691       709      2864      2958      2912
 -1      1308    8    0    1
 -2       651       528       697      2748      2882      2959
 -1      1309    8    0    1
 -2       575       573       719      2502      2960      2961
 -1      1310    8    0    1
 -2       679       575       719      2832      2961      2962
 -1      1311    8    0    1
 -2       573       713       719      2925      2963      2960
 -1      1312    8    0    1
 -2       693       583       703      2868      2900      2964
 -1      1313    8    0    1
 -2       601       589       704      2599      2902      2965
 -1      1314    8    0    1
 -2       705       588       720      2903      2966      2967
 -1      1315    8    0    1
 -2       588       601       720      2598      2968      2966
 -1      1316    8    0    1
 -2       704       590       706      2901      2907      2969
 -1      1317    8    0    1
 -2       561       682       717      2839      2970      2947
 -1      1318    8    0    1
 -2       706       591       709      2906      2913      2971
 -1      1319    8    0    1
 -2       581       572       721      2523      2972      2973
 -1      1320    8    0    1
 -2       712       581       721      2923      2973      2974
 -1      1321    8    0    1
 -2       572       689       721      2857      2975      2972
 -1      1322    8    0    1
 -2       605       606       722      2617      2976      2977
 -1      1323    8    0    1
 -2       606       712       722      2922      2978      2976
 -1      1324    8    0    1
 -2       604       605       722      2614      2977      2979
 -1      1325    8    0    1
 -2       707       607       723      2926      2980      2981
 -1      1326    8    0    1
 -2       610       609       724      2628      2982      2983
 -1      1327    8    0    1
 -2       611       610       725      2631      2984      2985
 -1      1328    8    0    1
 -2       610       724       725      2983      2986      2984
 -1      1329    8    0    1
 -2       612       611       726      2634      2987      2988
 -1      1330    8    0    1
 -2       611       725       726      2985      2989      2987
 -1      1331    8    0    1
 -2       613       612       727      2637      2990      2991
 -1      1332    8    0    1
 -2       612       726       727      2988      2992      2990
 -1      1333    8    0    1
 -2       614       613       728      2640      2993      2994
 -1      1334    8    0    1
 -2       613       727       728      2991      2995      2993
 -1      1335    8    0    1
 -2       615       614       729      2643      2996      2997
 -1      1336    8    0    1
 -2       614       728       729      2994      2998      2996
 -1      1337    8    0    1
 -2       616       615       730      2646      2999      3000
 -1      1338    8    0    1
 -2       615       729       730      2997      3001      2999
 -1      1339    8    0    1
 -2       617       616       731      2649      3002      3003
 -1      1340    8    0    1
 -2       616       730       731      3000      3004      3002
 -1      1341    8    0    1
 -2       618       617       732      2652      3005      3006
 -1      1342    8    0    1
 -2       617       731       732      3003      3007      3005
 -1      1343    8    0    1
 -2       619       618       733      2655      3008      3009
 -1      1344    8    0    1
 -2       618       732       733      3006      3010      3008
 -1      1345    8    0    1
 -2       620       619       734      2658      3011      3012
 -1      1346    8    0    1
 -2       619       733       734      3009      3013      3011
 -1      1347    8    0    1
 -2       621       620       735      2661      3014      3015
 -1      1348    8    0    1
 -2       620       734       735      3012      3016      3014
 -1      1349    8    0    1
 -2       622       621       736      2664      3017      3018
 -1      1350    8    0    1
 -2       621       735       736      3015      3019      3017
 -1      1351    8    0    1
 -2       623       622       737      2667      3020      3021
 -1      1352    8    0    1
 -2       622       736       737      3018      3022      3020
 -1      1353    8    0    1
 -2       624       623       738      2670      3023      3024
 -1      1354    8    0    1
 -2       623       737       738      3021      3025      3023
 -1      1355    8    0    1
 -2       625       624       739      2673      3026      3027
 -1      1356    8    0    1
 -2       624       738       739      3024      3028      3026
 -1      1357    8    0    1
 -2       626       625       740      2676      3029      3030
 -1      1358    8    0    1
 -2       625       739       740      3027      3031      3029
 -1      1359    8    0    1
 -2       627       626       741      2679      3032      3033
 -1      1360    8    0    1
 -2       626       740       741      3030      3034      3032
 -1      1361    8    0    1
 -2       628       627       742      2682      3035      3036
 -1      1362    8    0    1
 -2       627       741       742      3033      3037      3035
 -1      1363    8    0    1
 -2       629       628       743      2685      3038      3039
 -1      1364    8    0    1
 -2       628       742       743      3036      3040      3038
 -1      1365    8    0    1
 -2       630       629       744      2688      3041      3042
 -1      1366    8    0    1
 -2       629       743       744      3039      3043      3041
 -1      1367    8    0    1
 -2       631       630       745      2691      3044      3045
 -1      1368    8    0    1
 -2       630       744       745      3042      3046      3044
 -1      1369    8    0    1
 -2       632       631       746      2694      3047      3048
 -1      1370    8    0    1
 -2       631       745       746      3045      3049      3047
 -1      1371    8    0    1
 -2       633       632       747      2697      3050      3051
 -1      1372    8    0    1
 -2       632       746       747      3048      3052      3050
 -1      1373    8    0    1
 -2       634       633       748      2700      3053      3054
 -1      1374    8    0    1
 -2       633       747       748      3051      3055      3053
 -1      1375    8    0    1
 -2       635       634       749      2703      3056      3057
 -1      1376    8    0    1
 -2       634       748       749      3054      3058      3056
 -1      1377    8    0    1
 -2       636       635       750      2706      3059      3060
 -1      1378    8    0    1
 -2       635       749       750      3057      3061      3059
 -1      1379    8    0    1
 -2       637       636       751      2709      3062      3063
 -1      1380    8    0    1
 -2       636       750       751      3060      3064      3062
 -1      1381    8    0    1
 -2       638       637       752      2712      3065      3066
 -1      1382    8    0    1
 -2       637       751       752      3063      3067      3065
 -1      1383    8    0    1
 -2       639       638       753      2715      3068      3069
 -1      1384    8    0    1
 -2       638       752       753      3066      3070      3068
 -1      1385    8    0    1
 -2       640       639       754      2718      3071      3072
 -1      1386    8    0    1
 -2       639       753       754      3069      3073      3071
 -1      1387    8    0    1
 -2       641       640       755      2721      3074      3075
 -1      1388    8    0    1
 -2       640       754       755      3072      3076      3074
 -1      1389    8    0    1
 -2       642       641       756      2724      3077      3078
 -1      1390    8    0    1
 -2       641       755       756      3075      3079      3077
 -1      1391    8    0    1
 -2       643       642       757      2727      3080      3081
 -1      1392    8    0    1
 -2       642       756       757      3078      3082      3080
 -1      1393    8    0    1
 -2       644       643       758      2730      3083      3084
 -1      1394    8    0    1
 -2       643       757       758      3081      3085      3083
 -1      1395    8    0    1
 -2       645       644       759      2733      3086      3087
 -1      1396    8    0    1
 -2       644       758       759      3084      3088      3086
 -1      1397    8    0    1
 -2       646       645       760      2736      3089      3090
 -1      1398    8    0    1
 -2       645       759       760      3087      3091      3089
 -1      1399    8    0    1
 -2       647       646       761      2739      3092      3093
 -1      1400    8    0    1
 -2       646       760       761      3090      3094      3092
 -1      1401    8    0    1
 -2       648       647       762      2742      3095      3096
 -1      1402    8    0    1
 -2       647       761       762      3093      3097      3095
 -1      1403    8    0    1
 -2       649       648       763      2745      3098      3099
 -1      1404    8    0    1
 -2       718       649       763      2957      3099      3100
 -1      1405    8    0    1
 -2       648       762       763      3096      3101      3098
 -1      1406    8    0    1
 -2       608       698       764      2886      3102      3103
 -1      1407    8    0    1
 -2       654       655       765      2760      3104      3105
 -1      1408    8    0    1
 -2       653       654       766      2757      3106      3107
 -1      1409    8    0    1
 -2       654       765       766      3105      3108      3106
 -1      1410    8    0    1
 -2       656       657       767      2766      3109      3110
 -1      1411    8    0    1
 -2       657       658       768      2769      3111      3112
 -1      1412    8    0    1
 -2       657       768       767      3112      3113      3109
 -1      1413    8    0    1
 -2       660       692       769      2932      3114      3115
 -1      1414    8    0    1
 -2       693       703       659      2964      3116      2931
 -1      1415    8    0    1
 -2       661       660       770      2778      3117      3118
 -1      1416    8    0    1
 -2       660       769       770      3115      3119      3117
 -1      1417    8    0    1
 -2       663       664       771      2786      3120      3121
 -1      1418    8    0    1
 -2       662       663       772      2783      3122      3123
 -1      1419    8    0    1
 -2       663       771       772      3121      3124      3122
 -1      1420    8    0    1
 -2       665       666       773      2792      3125      3126
 -1      1421    8    0    1
 -2       666       667       774      2795      3127      3128
 -1      1422    8    0    1
 -2       666       774       773      3128      3129      3125
 -1      1423    8    0    1
 -2       667       668       775      2798      3130      3131
 -1      1424    8    0    1
 -2       667       775       774      3131      3132      3127
 -1      1425    8    0    1
 -2       668       669       776      2801      3133      3134
 -1      1426    8    0    1
 -2       668       776       775      3134      3135      3130
 -1      1427    8    0    1
 -2       669       670       777      2804      3136      3137
 -1      1428    8    0    1
 -2       669       777       776      3137      3138      3133
 -1      1429    8    0    1
 -2       670       671       778      2807      3139      3140
 -1      1430    8    0    1
 -2       670       778       777      3140      3141      3136
 -1      1431    8    0    1
 -2       671       672       779      2810      3142      3143
 -1      1432    8    0    1
 -2       671       779       778      3143      3144      3139
 -1      1433    8    0    1
 -2       672       673       780      2813      3145      3146
 -1      1434    8    0    1
 -2       672       780       779      3146      3147      3142
 -1      1435    8    0    1
 -2       673       674       781      2816      3148      3149
 -1      1436    8    0    1
 -2       673       781       780      3149      3150      3145
 -1      1437    8    0    1
 -2       674       675       782      2819      3151      3152
 -1      1438    8    0    1
 -2       674       782       781      3152      3153      3148
 -1      1439    8    0    1
 -2       675       676       783      2822      3154      3155
 -1      1440    8    0    1
 -2       675       783       782      3155      3156      3151
 -1      1441    8    0    1
 -2       676       677       784      2825      3157      3158
 -1      1442    8    0    1
 -2       676       784       783      3158      3159      3154
 -1      1443    8    0    1
 -2       677       678       785      2828      3160      3161
 -1      1444    8    0    1
 -2       677       785       784      3161      3162      3157
 -1      1445    8    0    1
 -2       682       680       786      2840      3163      3164
 -1      1446    8    0    1
 -2       684       685       787      2848      3165      3166
 -1      1447    8    0    1
 -2       683       684       788      2845      3167      3168
 -1      1448    8    0    1
 -2       684       787       788      3166      3169      3167
 -1      1449    8    0    1
 -2       687       661       789      2853      3170      3171
 -1      1450    8    0    1
 -2       661       770       789      3118      3172      3170
 -1      1451    8    0    1
 -2       598       688       790      2930      3173      3174
 -1      1452    8    0    1
 -2       598       790       714      3174      3175      2933
 -1      1453    8    0    1
 -2       599       597       791      2585      3176      3177
 -1      1454    8    0    1
 -2       710       599       791      2917      3177      3178
 -1      1455    8    0    1
 -2       597       715       791      2937      3179      3176
 -1      1456    8    0    1
 -2       694       687       686      2873      3180      2952
 -1      1457    8    0    1
 -2       689       652       792      2858      3181      3182
 -1      1458    8    0    1
 -2       664       665       793      2789      3183      3184
 -1      1459    8    0    1
 -2       771       664       793      3120      3184      3185
 -1      1460    8    0    1
 -2       665       773       793      3126      3186      3183
 -1      1461    8    0    1
 -2       655       656       794      2763      3187      3188
 -1      1462    8    0    1
 -2       765       655       794      3104      3188      3189
 -1      1463    8    0    1
 -2       656       767       794      3110      3190      3187
 -1      1464    8    0    1
 -2       652       651       795      2752      3191      3192
 -1      1465    8    0    1
 -2       652       795       792      3192      3193      3181
 -1      1466    8    0    1
 -2       609       608       796      2625      3194      3195
 -1      1467    8    0    1
 -2       609       796       724      3195      3196      2982
 -1      1468    8    0    1
 -2       713       717       797      2949      3197      3198
 -1      1469    8    0    1
 -2       692       662       798      2867      3199      3200
 -1      1470    8    0    1
 -2       769       692       798      3114      3200      3201
 -1      1471    8    0    1
 -2       662       772       798      3123      3202      3199
 -1      1472    8    0    1
 -2       691       707       799      2941      3203      3204
 -1      1473    8    0    1
 -2       651       697       800      2959      3205      3206
 -1      1474    8    0    1
 -2       651       800       795      3206      3207      3191
 -1      1475    8    0    1
 -2       695       708       801      2951      3208      3209
 -1      1476    8    0    1
 -2       696       650       802      2927      3210      3211
 -1      1477    8    0    1
 -2       697       653       803      2883      3212      3213
 -1      1478    8    0    1
 -2       653       766       803      3107      3214      3212
 -1      1479    8    0    1
 -2       717       682       804      2970      3215      3216
 -1      1480    8    0    1
 -2       682       786       804      3164      3217      3215
 -1      1481    8    0    1
 -2       709       691       805      2958      3218      3219
 -1      1482    8    0    1
 -2       607       696       806      2880      3220      3221
 -1      1483    8    0    1
 -2       607       806       723      3221      3222      2980
 -1      1484    8    0    1
 -2       686       687       807      3180      3223      3224
 -1      1485    8    0    1
 -2       681       686       807      2942      3224      3225
 -1      1486    8    0    1
 -2       687       789       807      3171      3226      3223
 -1      1487    8    0    1
 -2       706       709       808      2971      3227      3228
 -1      1488    8    0    1
 -2       708       681       809      2950      3229      3230
 -1      1489    8    0    1
 -2       708       809       801      3230      3231      3208
 -1      1490    8    0    1
 -2       688       699       810      2939      3232      3233
 -1      1491    8    0    1
 -2       601       704       811      2965      3234      3235
 -1      1492    8    0    1
 -2       603       602       812      2609      3236      3237
 -1      1493    8    0    1
 -2       699       705       813      2905      3238      3239
 -1      1494    8    0    1
 -2       650       695       814      2929      3240      3241
 -1      1495    8    0    1
 -2       704       706       815      2969      3242      3243
 -1      1496    8    0    1
 -2       659       703       816      3116      3244      3245
 -1      1497    8    0    1
 -2       703       714       816      2935      3246      3244
 -1      1498    8    0    1
 -2       713       797       785      3198      3247      3248
 -1      1499    8    0    1
 -2       681       807       809      3225      3249      3229
 -1      1500    8    0    1
 -2       608       764       796      3103      3250      3194
 -1      1501    8    0    1
 -2       695       801       814      3209      3251      3240
 -1      1502    8    0    1
 -2       680       690       817      2861      3252      3253
 -1      1503    8    0    1
 -2       680       817       786      3253      3254      3163
 -1      1504    8    0    1
 -2       717       804       797      3216      3255      3197
 -1      1505    8    0    1
 -2       799       707       723      3203      2981      3256
 -1      1506    8    0    1
 -2       658       659       816      2772      3245      3257
 -1      1507    8    0    1
 -2       715       702       818      2938      3258      3259
 -1      1508    8    0    1
 -2       691       799       805      3204      3260      3218
 -1      1509    8    0    1
 -2       709       805       819      3219      3261      3262
 -1      1510    8    0    1
 -2       709       819       808      3262      3263      3227
 -1      1511    8    0    1
 -2       678       679       719      2831      2962      3264
 -1      1512    8    0    1
 -2       815       706       808      3242      3228      3265
 -1      1513    8    0    1
 -2       683       788       820      3168      3266      3267
 -1      1514    8    0    1
 -2       683       820       690      3267      3268      2862
 -1      1515    8    0    1
 -2       811       704       815      3234      3243      3269
 -1      1516    8    0    1
 -2       813       705       720      3238      2967      3270
 -1      1517    8    0    1
 -2       790       688       821      3173      3271      3272
 -1      1518    8    0    1
 -2       688       810       821      3233      3273      3271
 -1      1519    8    0    1
 -2       812       602       822      3236      3274      3275
 -1      1520    8    0    1
 -2       602       700       822      2892      3276      3274
 -1      1521    8    0    1
 -2       702       716       823      2945      3277      3278
 -1      1522    8    0    1
 -2       702       823       818      3278      3279      3258
 -1      1523    8    0    1
 -2       802       650       824      3210      3280      3281
 -1      1524    8    0    1
 -2       650       814       824      3241      3282      3280
 -1      1525    8    0    1
 -2       806       696       802      3220      3211      3283
 -1      1526    8    0    1
 -2       658       816       768      3257      3284      3111
 -1      1527    8    0    1
 -2       719       713       785      2963      3248      3285
 -1      1528    8    0    1
 -2       800       697       803      3205      3213      3286
 -1      1529    8    0    1
 -2       720       601       811      2968      3235      3287
 -1      1530    8    0    1
 -2       604       722       825      2979      3288      3289
 -1      1531    8    0    1
 -2       711       603       826      2918      3290      3291
 -1      1532    8    0    1
 -2       603       812       826      3237      3292      3290
 -1      1533    8    0    1
 -2       700       604       825      2893      3289      3293
 -1      1534    8    0    1
 -2       810       699       813      3232      3239      3294
 -1      1535    8    0    1
 -2       721       689       827      2975      3295      3296
 -1      1536    8    0    1
 -2       689       792       827      3182      3297      3295
 -1      1537    8    0    1
 -2       685       718       828      2956      3298      3299
 -1      1538    8    0    1
 -2       787       685       828      3165      3299      3300
 -1      1539    8    0    1
 -2       718       763       828      3100      3301      3298
 -1      1540    8    0    1
 -2       678       719       785      3264      3285      3160
 -1      1541    8    0    1
 -2       698       710       791      2916      3178      3302
 -1      1542    8    0    1
 -2       698       791       764      3302      3303      3102
 -1      1543    8    0    1
 -2       722       712       721      2978      2974      3304
 -1      1544    8    0    1
 -2       809       807       829      3249      3305      3306
 -1      1545    8    0    1
 -2       726       725       830      2989      3307      3308
 -1      1546    8    0    1
 -2       727       726       831      2992      3309      3310
 -1      1547    8    0    1
 -2       726       830       831      3308      3311      3309
 -1      1548    8    0    1
 -2       728       727       832      2995      3312      3313
 -1      1549    8    0    1
 -2       727       831       832      3310      3314      3312
 -1      1550    8    0    1
 -2       729       728       833      2998      3315      3316
 -1      1551    8    0    1
 -2       728       832       833      3313      3317      3315
 -1      1552    8    0    1
 -2       730       729       834      3001      3318      3319
 -1      1553    8    0    1
 -2       729       833       834      3316      3320      3318
 -1      1554    8    0    1
 -2       731       730       835      3004      3321      3322
 -1      1555    8    0    1
 -2       730       834       835      3319      3323      3321
 -1      1556    8    0    1
 -2       732       731       836      3007      3324      3325
 -1      1557    8    0    1
 -2       731       835       836      3322      3326      3324
 -1      1558    8    0    1
 -2       733       732       837      3010      3327      3328
 -1      1559    8    0    1
 -2       732       836       837      3325      3329      3327
 -1      1560    8    0    1
 -2       734       733       838      3013      3330      3331
 -1      1561    8    0    1
 -2       733       837       838      3328      3332      3330
 -1      1562    8    0    1
 -2       735       734       839      3016      3333      3334
 -1      1563    8    0    1
 -2       734       838       839      3331      3335      3333
 -1      1564    8    0    1
 -2       736       735       840      3019      3336      3337
 -1      1565    8    0    1
 -2       735       839       840      3334      3338      3336
 -1      1566    8    0    1
 -2       737       736       841      3022      3339      3340
 -1      1567    8    0    1
 -2       736       840       841      3337      3341      3339
 -1      1568    8    0    1
 -2       738       737       842      3025      3342      3343
 -1      1569    8    0    1
 -2       737       841       842      3340      3344      3342
 -1      1570    8    0    1
 -2       739       738       843      3028      3345      3346
 -1      1571    8    0    1
 -2       738       842       843      3343      3347      3345
 -1      1572    8    0    1
 -2       740       739       844      3031      3348      3349
 -1      1573    8    0    1
 -2       739       843       844      3346      3350      3348
 -1      1574    8    0    1
 -2       741       740       845      3034      3351      3352
 -1      1575    8    0    1
 -2       740       844       845      3349      3353      3351
 -1      1576    8    0    1
 -2       742       741       846      3037      3354      3355
 -1      1577    8    0    1
 -2       741       845       846      3352      3356      3354
 -1      1578    8    0    1
 -2       743       742       847      3040      3357      3358
 -1      1579    8    0    1
 -2       742       846       847      3355      3359      3357
 -1      1580    8    0    1
 -2       744       743       848      3043      3360      3361
 -1      1581    8    0    1
 -2       743       847       848      3358      3362      3360
 -1      1582    8    0    1
 -2       745       744       849      3046      3363      3364
 -1      1583    8    0    1
 -2       744       848       849      3361      3365      3363
 -1      1584    8    0    1
 -2       746       745       850      3049      3366      3367
 -1      1585    8    0    1
 -2       745       849       850      3364      3368      3366
 -1      1586    8    0    1
 -2       747       746       851      3052      3369      3370
 -1      1587    8    0    1
 -2       746       850       851      3367      3371      3369
 -1      1588    8    0    1
 -2       748       747       852      3055      3372      3373
 -1      1589    8    0    1
 -2       747       851       852      3370      3374      3372
 -1      1590    8    0    1
 -2       749       748       853      3058      3375      3376
 -1      1591    8    0    1
 -2       748       852       853      3373      3377      3375
 -1      1592    8    0    1
 -2       750       749       854      3061      3378      3379
 -1      1593    8    0    1
 -2       749       853       854      3376      3380      3378
 -1      1594    8    0    1
 -2       751       750       855      3064      3381      3382
 -1      1595    8    0    1
 -2       750       854       855      3379      3383      3381
 -1      1596    8    0    1
 -2       752       751       856      3067      3384      3385
 -1      1597    8    0    1
 -2       751       855       856      3382      3386      3384
 -1      1598    8    0    1
 -2       753       752       857      3070      3387      3388
 -1      1599    8    0    1
 -2       752       856       857      3385      3389      3387
 -1      1600    8    0    1
 -2       754       753       858      3073      3390      3391
 -1      1601    8    0    1
 -2       753       857       858      3388      3392      3390
 -1      1602    8    0    1
 -2       755       754       859      3076      3393      3394
 -1      1603    8    0    1
 -2       754       858       859      3391      3395      3393
 -1      1604    8    0    1
 -2       756       755       860      3079      3396      3397
 -1      1605    8    0    1
 -2       755       859       860      3394      3398      3396
 -1      1606    8    0    1
 -2       757       756       861      3082      3399      3400
 -1      1607    8    0    1
 -2       756       860       861      3397      3401      3399
 -1      1608    8    0    1
 -2       758       757       862      3085      3402      3403
 -1      1609    8    0    1
 -2       757       861       862      3400      3404      3402
 -1      1610    8    0    1
 -2       759       758       863      3088      3405      3406
 -1      1611    8    0    1
 -2       758       862       863      3403      3407      3405
 -1      1612    8    0    1
 -2       760       759       864      3091      3408      3409
 -1      1613    8    0    1
 -2       759       863       864      3406      3410      3408
 -1      1614    8    0    1
 -2       761       760       865      3094      3411      3412
 -1      1615    8    0    1
 -2       760       864       865      3409      3413      3411
 -1      1616    8    0    1
 -2       762       761       866      3097      3414      3415
 -1      1617    8    0    1
 -2       761       865       866      3412      3416      3414
 -1      1618    8    0    1
 -2       792       795       867      3193      3417      3418
 -1      1619    8    0    1
 -2       767       768       868      3113      3419      3420
 -1      1620    8    0    1
 -2       785       797       869      3247      3421      3422
 -1      1621    8    0    1
 -2       785       869       784      3422      3423      3162
 -1      1622    8    0    1
 -2       764       791       715      3303      3179      3424
 -1      1623    8    0    1
 -2       805       799       870      3260      3425      3426
 -1      1624    8    0    1
 -2       770       769       871      3119      3427      3428
 -1      1625    8    0    1
 -2       774       775       872      3132      3429      3430
 -1      1626    8    0    1
 -2       773       774       873      3129      3431      3432
 -1      1627    8    0    1
 -2       774       872       873      3430      3433      3431
 -1      1628    8    0    1
 -2       776       777       874      3138      3434      3435
 -1      1629    8    0    1
 -2       777       778       875      3141      3436      3437
 -1      1630    8    0    1
 -2       777       875       874      3437      3438      3434
 -1      1631    8    0    1
 -2       778       779       876      3144      3439      3440
 -1      1632    8    0    1
 -2       778       876       875      3440      3441      3436
 -1      1633    8    0    1
 -2       779       780       877      3147      3442      3443
 -1      1634    8    0    1
 -2       779       877       876      3443      3444      3439
 -1      1635    8    0    1
 -2       780       781       878      3150      3445      3446
 -1      1636    8    0    1
 -2       780       878       877      3446      3447      3442
 -1      1637    8    0    1
 -2       781       782       879      3153      3448      3449
 -1      1638    8    0    1
 -2       781       879       878      3449      3450      3445
 -1      1639    8    0    1
 -2       782       783       880      3156      3451      3452
 -1      1640    8    0    1
 -2       782       880       879      3452      3453      3448
 -1      1641    8    0    1
 -2       783       784       881      3159      3454      3455
 -1      1642    8    0    1
 -2       880       783       881      3451      3455      3456
 -1      1643    8    0    1
 -2       784       869       881      3423      3457      3454
 -1      1644    8    0    1
 -2       764       715       818      3424      3259      3458
 -1      1645    8    0    1
 -2       797       804       869      3255      3459      3421
 -1      1646    8    0    1
 -2       716       711       882      2946      3460      3461
 -1      1647    8    0    1
 -2       716       882       823      3461      3462      3277
 -1      1648    8    0    1
 -2       816       714       883      3246      3463      3464
 -1      1649    8    0    1
 -2       768       816       883      3284      3464      3465
 -1      1650    8    0    1
 -2       714       790       883      3175      3466      3463
 -1      1651    8    0    1
 -2       789       770       884      3172      3467      3468
 -1      1652    8    0    1
 -2       807       789       884      3226      3468      3469
 -1      1653    8    0    1
 -2       770       871       884      3428      3470      3467
 -1      1654    8    0    1
 -2       722       721       827      3304      3296      3471
 -1      1655    8    0    1
 -2       803       766       885      3214      3472      3473
 -1      1656    8    0    1
 -2       724       796       886      3196      3474      3475
 -1      1657    8    0    1
 -2       814       801       887      3251      3476      3477
 -1      1658    8    0    1
 -2       799       723       888      3256      3478      3479
 -1      1659    8    0    1
 -2       788       787       889      3169      3480      3481
 -1      1660    8    0    1
 -2       811       815       890      3269      3482      3483
 -1      1661    8    0    1
 -2       800       803       891      3286      3484      3485
 -1      1662    8    0    1
 -2       803       885       891      3473      3486      3484
 -1      1663    8    0    1
 -2       775       776       892      3135      3487      3488
 -1      1664    8    0    1
 -2       872       775       892      3429      3488      3489
 -1      1665    8    0    1
 -2       776       874       892      3435      3490      3487
 -1      1666    8    0    1
 -2       825       722       827      3288      3471      3491
 -1      1667    8    0    1
 -2       815       808       893      3265      3492      3493
 -1      1668    8    0    1
 -2       795       800       894      3207      3494      3495
 -1      1669    8    0    1
 -2       867       795       894      3417      3495      3496
 -1      1670    8    0    1
 -2       800       891       894      3485      3497      3494
 -1      1671    8    0    1
 -2       772       771       895      3124      3498      3499
 -1      1672    8    0    1
 -2       720       811       896      3287      3500      3501
 -1      1673    8    0    1
 -2       804       786       897      3217      3502      3503
 -1      1674    8    0    1
 -2       723       806       898      3222      3504      3505
 -1      1675    8    0    1
 -2       796       764       899      3250      3506      3507
 -1      1676    8    0    1
 -2       886       796       899      3474      3507      3508
 -1      1677    8    0    1
 -2       764       818       899      3458      3509      3506
 -1      1678    8    0    1
 -2       766       765       900      3108      3510      3511
 -1      1679    8    0    1
 -2       766       900       885      3511      3512      3472
 -1      1680    8    0    1
 -2       801       809       901      3231      3513      3514
 -1      1681    8    0    1
 -2       809       829       901      3306      3515      3513
 -1      1682    8    0    1
 -2       810       813       902      3294      3516      3517
 -1      1683    8    0    1
 -2       700       825       822      3293      3518      3276
 -1      1684    8    0    1
 -2       806       802       903      3283      3519      3520
 -1      1685    8    0    1
 -2       806       903       898      3520      3521      3504
 -1      1686    8    0    1
 -2       813       720       896      3270      3501      3522
 -1      1687    8    0    1
 -2       725       724       904      2986      3523      3524
 -1      1688    8    0    1
 -2       725       904       830      3524      3525      3307
 -1      1689    8    0    1
 -2       829       807       884      3305      3469      3526
 -1      1690    8    0    1
 -2       792       867       905      3418      3527      3528
 -1      1691    8    0    1
 -2       792       905       827      3528      3529      3297
 -1      1692    8    0    1
 -2       895       771       906      3498      3530      3531
 -1      1693    8    0    1
 -2       771       793       906      3185      3532      3530
 -1      1694    8    0    1
 -2       763       762       907      3101      3533      3534
 -1      1695    8    0    1
 -2       828       763       907      3301      3534      3535
 -1      1696    8    0    1
 -2       762       866       907      3415      3536      3533
 -1      1697    8    0    1
 -2       817       690       820      3252      3268      3537
 -1      1698    8    0    1
 -2       767       868       908      3420      3538      3539
 -1      1699    8    0    1
 -2       767       908       794      3539      3540      3190
 -1      1700    8    0    1
 -2       765       794       909      3189      3541      3542
 -1      1701    8    0    1
 -2       765       909       900      3542      3543      3510
 -1      1702    8    0    1
 -2       802       824       910      3281      3544      3545
 -1      1703    8    0    1
 -2       802       910       903      3545      3546      3519
 -1      1704    8    0    1
 -2       871       769       911      3427      3547      3548
 -1      1705    8    0    1
 -2       769       798       911      3201      3549      3547
 -1      1706    8    0    1
 -2       870       799       888      3425      3479      3550
 -1      1707    8    0    1
 -2       815       893       890      3493      3551      3482
 -1      1708    8    0    1
 -2       825       827       912      3491      3552      3553
 -1      1709    8    0    1
 -2       822       825       912      3518      3553      3554
 -1      1710    8    0    1
 -2       827       905       912      3529      3555      3552
 -1      1711    8    0    1
 -2       819       805       870      3261      3426      3556
 -1      1712    8    0    1
 -2       773       873       913      3432      3557      3558
 -1      1713    8    0    1
 -2       773       913       793      3558      3559      3186
 -1      1714    8    0    1
 -2       882       711       826      3460      3291      3560
 -1      1715    8    0    1
 -2       883       790       821      3466      3272      3561
 -1      1716    8    0    1
 -2       888       723       898      3478      3505      3562
 -1      1717    8    0    1
 -2       820       788       914      3266      3563      3564
 -1      1718    8    0    1
 -2       788       889       914      3481      3565      3563
 -1      1719    8    0    1
 -2       786       817       915      3254      3566      3567
 -1      1720    8    0    1
 -2       786       915       897      3567      3568      3502
 -1      1721    8    0    1
 -2       887       801       901      3476      3514      3569
 -1      1722    8    0    1
 -2       821       810       916      3273      3570      3571
 -1      1723    8    0    1
 -2       810       902       916      3517      3572      3570
 -1      1724    8    0    1
 -2       768       883       917      3465      3573      3574
 -1      1725    8    0    1
 -2       868       768       917      3419      3574      3575
 -1      1726    8    0    1
 -2       883       821       917      3561      3576      3573
 -1      1727    8    0    1
 -2       724       886       904      3475      3577      3523
 -1      1728    8    0    1
 -2       814       887       918      3477      3578      3579
 -1      1729    8    0    1
 -2       814       918       824      3579      3580      3282
 -1      1730    8    0    1
 -2       798       772       919      3202      3581      3582
 -1      1731    8    0    1
 -2       911       798       919      3549      3582      3583
 -1      1732    8    0    1
 -2       772       895       919      3499      3584      3581
 -1      1733    8    0    1
 -2       811       890       920      3483      3585      3586
 -1      1734    8    0    1
 -2       811       920       896      3586      3587      3500
 -1      1735    8    0    1
 -2       826       812       921      3292      3588      3589
 -1      1736    8    0    1
 -2       893       808       819      3492      3263      3590
 -1      1737    8    0    1
 -2       812       822       922      3275      3591      3592
 -1      1738    8    0    1
 -2       812       922       921      3592      3593      3588
 -1      1739    8    0    1
 -2       804       897       869      3503      3594      3459
 -1      1740    8    0    1
 -2       899       818       923      3509      3595      3596
 -1      1741    8    0    1
 -2       818       823       923      3279      3597      3595
 -1      1742    8    0    1
 -2       813       896       924      3522      3598      3599
 -1      1743    8    0    1
 -2       813       924       902      3599      3600      3516
 -1      1744    8    0    1
 -2       787       828       907      3300      3535      3601
 -1      1745    8    0    1
 -2       787       907       889      3601      3602      3480
 -1      1746    8    0    1
 -2       817       820       925      3537      3603      3604
 -1      1747    8    0    1
 -2       915       817       925      3566      3604      3605
 -1      1748    8    0    1
 -2       820       914       925      3564      3606      3603
 -1      1749    8    0    1
 -2       832       831       926      3314      3607      3608
 -1      1750    8    0    1
 -2       833       832       927      3317      3609      3610
 -1      1751    8    0    1
 -2       832       926       927      3608      3611      3609
 -1      1752    8    0    1
 -2       834       833       928      3320      3612      3613
 -1      1753    8    0    1
 -2       833       927       928      3610      3614      3612
 -1      1754    8    0    1
 -2       835       834       929      3323      3615      3616
 -1      1755    8    0    1
 -2       834       928       929      3613      3617      3615
 -1      1756    8    0    1
 -2       836       835       930      3326      3618      3619
 -1      1757    8    0    1
 -2       835       929       930      3616      3620      3618
 -1      1758    8    0    1
 -2       837       836       931      3329      3621      3622
 -1      1759    8    0    1
 -2       836       930       931      3619      3623      3621
 -1      1760    8    0    1
 -2       838       837       932      3332      3624      3625
 -1      1761    8    0    1
 -2       837       931       932      3622      3626      3624
 -1      1762    8    0    1
 -2       839       838       933      3335      3627      3628
 -1      1763    8    0    1
 -2       838       932       933      3625      3629      3627
 -1      1764    8    0    1
 -2       841       840       893      3341      3630      3631
 -1      1765    8    0    1
 -2       842       841       819      3344      3632      3633
 -1      1766    8    0    1
 -2       843       842       870      3347      3634      3635
 -1      1767    8    0    1
 -2       844       843       870      3350      3635      3636
 -1      1768    8    0    1
 -2       845       844       888      3353      3637      3638
 -1      1769    8    0    1
 -2       847       846       934      3359      3639      3640
 -1      1770    8    0    1
 -2       848       847       935      3362      3641      3642
 -1      1771    8    0    1
 -2       847       934       935      3640      3643      3641
 -1      1772    8    0    1
 -2       849       848       936      3365      3644      3645
 -1      1773    8    0    1
 -2       848       935       936      3642      3646      3644
 -1      1774    8    0    1
 -2       850       849       937      3368      3647      3648
 -1      1775    8    0    1
 -2       849       936       937      3645      3649      3647
 -1      1776    8    0    1
 -2       851       850       938      3371      3650      3651
 -1      1777    8    0    1
 -2       850       937       938      3648      3652      3650
 -1      1778    8    0    1
 -2       852       851       939      3374      3653      3654
 -1      1779    8    0    1
 -2       851       938       939      3651      3655      3653
 -1      1780    8    0    1
 -2       853       852       940      3377      3656      3657
 -1      1781    8    0    1
 -2       852       939       940      3654      3658      3656
 -1      1782    8    0    1
 -2       854       853       941      3380      3659      3660
 -1      1783    8    0    1
 -2       853       940       941      3657      3661      3659
 -1      1784    8    0    1
 -2       855       854       942      3383      3662      3663
 -1      1785    8    0    1
 -2       854       941       942      3660      3664      3662
 -1      1786    8    0    1
 -2       856       855       943      3386      3665      3666
 -1      1787    8    0    1
 -2       855       942       943      3663      3667      3665
 -1      1788    8    0    1
 -2       857       856       944      3389      3668      3669
 -1      1789    8    0    1
 -2       856       943       944      3666      3670      3668
 -1      1790    8    0    1
 -2       858       857       945      3392      3671      3672
 -1      1791    8    0    1
 -2       857       944       945      3669      3673      3671
 -1      1792    8    0    1
 -2       859       858       946      3395      3674      3675
 -1      1793    8    0    1
 -2       858       945       946      3672      3676      3674
 -1      1794    8    0    1
 -2       860       859       947      3398      3677      3678
 -1      1795    8    0    1
 -2       859       946       947      3675      3679      3677
 -1      1796    8    0    1
 -2       861       860       948      3401      3680      3681
 -1      1797    8    0    1
 -2       860       947       948      3678      3682      3680
 -1      1798    8    0    1
 -2       862       861       949      3404      3683      3684
 -1      1799    8    0    1
 -2       861       948       949      3681      3685      3683
 -1      1800    8    0    1
 -2       863       862       950      3407      3686      3687
 -1      1801    8    0    1
 -2       862       949       950      3684      3688      3686
 -1      1802    8    0    1
 -2       864       863       951      3410      3689      3690
 -1      1803    8    0    1
 -2       863       950       951      3687      3691      3689
 -1      1804    8    0    1
 -2       865       864       952      3413      3692      3693
 -1      1805    8    0    1
 -2       864       951       952      3690      3694      3692
 -1      1806    8    0    1
 -2       866       865       953      3416      3695      3696
 -1      1807    8    0    1
 -2       865       952       953      3693      3697      3695
 -1      1808    8    0    1
 -2       907       866       889      3536      3698      3602
 -1      1809    8    0    1
 -2       885       900       954      3512      3699      3700
 -1      1810    8    0    1
 -2       875       876       955      3441      3701      3702
 -1      1811    8    0    1
 -2       874       875       956      3438      3703      3704
 -1      1812    8    0    1
 -2       875       955       956      3702      3705      3703
 -1      1813    8    0    1
 -2       877       878       957      3447      3706      3707
 -1      1814    8    0    1
 -2       878       879       958      3450      3708      3709
 -1      1815    8    0    1
 -2       878       958       957      3709      3710      3706
 -1      1816    8    0    1
 -2       879       880       959      3453      3711      3712
 -1      1817    8    0    1
 -2       879       959       958      3712      3713      3708
 -1      1818    8    0    1
 -2       891       885       960      3486      3714      3715
 -1      1819    8    0    1
 -2       885       954       960      3700      3716      3714
 -1      1820    8    0    1
 -2       829       884       961      3526      3717      3718
 -1      1821    8    0    1
 -2       873       872       962      3433      3719      3720
 -1      1822    8    0    1
 -2       898       903       934      3521      3721      3722
 -1      1823    8    0    1
 -2       882       826       963      3560      3723      3724
 -1      1824    8    0    1
 -2       826       921       963      3589      3725      3723
 -1      1825    8    0    1
 -2       890       893       964      3551      3726      3727
 -1      1826    8    0    1
 -2       920       890       964      3585      3727      3728
 -1      1827    8    0    1
 -2       893       840       964      3630      3729      3726
 -1      1828    8    0    1
 -2       869       897       965      3594      3730      3731
 -1      1829    8    0    1
 -2       869       965       881      3731      3732      3457
 -1      1830    8    0    1
 -2       870       888       844      3550      3637      3636
 -1      1831    8    0    1
 -2       893       819       841      3590      3632      3631
 -1      1832    8    0    1
 -2       887       901       966      3569      3733      3734
 -1      1833    8    0    1
 -2       830       904       967      3525      3735      3736
 -1      1834    8    0    1
 -2       884       871       961      3470      3737      3717
 -1      1835    8    0    1
 -2       904       886       968      3577      3738      3739
 -1      1836    8    0    1
 -2       904       968       967      3739      3740      3735
 -1      1837    8    0    1
 -2       870       842       819      3634      3633      3556
 -1      1838    8    0    1
 -2       886       899       969      3508      3741      3742
 -1      1839    8    0    1
 -2       968       886       969      3738      3742      3743
 -1      1840    8    0    1
 -2       899       923       969      3596      3744      3741
 -1      1841    8    0    1
 -2       901       829       961      3515      3718      3745
 -1      1842    8    0    1
 -2       888       898       845      3562      3746      3638
 -1      1843    8    0    1
 -2       876       877       970      3444      3747      3748
 -1      1844    8    0    1
 -2       955       876       970      3701      3748      3749
 -1      1845    8    0    1
 -2       877       957       970      3707      3750      3747
 -1      1846    8    0    1
 -2       823       882       971      3462      3751      3752
 -1      1847    8    0    1
 -2       923       823       971      3597      3752      3753
 -1      1848    8    0    1
 -2       882       963       971      3724      3754      3751
 -1      1849    8    0    1
 -2       831       830       972      3311      3755      3756
 -1      1850    8    0    1
 -2       830       967       972      3736      3757      3755
 -1      1851    8    0    1
 -2       889       866       953      3698      3696      3758
 -1      1852    8    0    1
 -2       905       867       973      3527      3759      3760
 -1      1853    8    0    1
 -2       894       891       974      3497      3761      3762
 -1      1854    8    0    1
 -2       891       960       974      3715      3763      3761
 -1      1855    8    0    1
 -2       906       793       913      3532      3559      3764
 -1      1856    8    0    1
 -2       839       933       964      3628      3765      3766
 -1      1857    8    0    1
 -2       840       839       964      3338      3766      3729
 -1      1858    8    0    1
 -2       846       845       898      3356      3746      3767
 -1      1859    8    0    1
 -2       954       900       975      3699      3768      3769
 -1      1860    8    0    1
 -2       900       909       975      3543      3770      3768
 -1      1861    8    0    1
 -2       908       868       976      3538      3771      3772
 -1      1862    8    0    1
 -2       909       794       908      3541      3540      3773
 -1      1863    8    0    1
 -2       910       824       977      3544      3774      3775
 -1      1864    8    0    1
 -2       824       918       977      3580      3776      3774
 -1      1865    8    0    1
 -2       965       897       978      3730      3777      3778
 -1      1866    8    0    1
 -2       897       915       978      3568      3779      3777
 -1      1867    8    0    1
 -2       913       873       979      3557      3780      3781
 -1      1868    8    0    1
 -2       873       962       979      3720      3782      3780
 -1      1869    8    0    1
 -2       874       956       980      3704      3783      3784
 -1      1870    8    0    1
 -2       874       980       892      3784      3785      3490
 -1      1871    8    0    1
 -2       880       881       981      3456      3786      3787
 -1      1872    8    0    1
 -2       959       880       981      3711      3787      3788
 -1      1873    8    0    1
 -2       881       965       981      3732      3789      3786
 -1      1874    8    0    1
 -2       822       912       922      3554      3790      3591
 -1      1875    8    0    1
 -2       963       921       982      3725      3791      3792
 -1      1876    8    0    1
 -2       934       903       983      3721      3793      3794
 -1      1877    8    0    1
 -2       935       934       983      3643      3794      3795
 -1      1878    8    0    1
 -2       903       910       983      3546      3796      3793
 -1      1879    8    0    1
 -2       914       889       953      3565      3758      3797
 -1      1880    8    0    1
 -2       926       831       972      3607      3756      3798
 -1      1881    8    0    1
 -2       962       872       984      3719      3799      3800
 -1      1882    8    0    1
 -2       872       892       984      3489      3801      3799
 -1      1883    8    0    1
 -2       916       902       985      3572      3802      3803
 -1      1884    8    0    1
 -2       917       821       916      3576      3571      3804
 -1      1885    8    0    1
 -2       846       898       934      3767      3722      3639
 -1      1886    8    0    1
 -2       976       868       917      3771      3575      3805
 -1      1887    8    0    1
 -2       982       921       986      3791      3806      3807
 -1      1888    8    0    1
 -2       921       922       986      3593      3808      3806
 -1      1889    8    0    1
 -2       985       902       924      3802      3600      3809
 -1      1890    8    0    1
 -2       918       887       987      3578      3810      3811
 -1      1891    8    0    1
 -2       887       966       987      3734      3812      3810
 -1      1892    8    0    1
 -2       919       895       988      3584      3813      3814
 -1      1893    8    0    1
 -2       896       920       989      3587      3815      3816
 -1      1894    8    0    1
 -2       896       989       924      3816      3817      3598
 -1      1895    8    0    1
 -2       867       894       990      3496      3818      3819
 -1      1896    8    0    1
 -2       894       974       990      3762      3820      3818
 -1      1897    8    0    1
 -2       961       871       991      3737      3821      3822
 -1      1898    8    0    1
 -2       867       990       973      3819      3823      3759
 -1      1899    8    0    1
 -2       895       906       992      3531      3824      3825
 -1      1900    8    0    1
 -2       895       992       988      3825      3826      3813
 -1      1901    8    0    1
 -2       871       911       993      3548      3827      3828
 -1      1902    8    0    1
 -2       871       993       991      3828      3829      3821
 -1      1903    8    0    1
 -2       966       901       961      3733      3745      3830
 -1      1904    8    0    1
 -2       961       991       966      3822      3831      3830
 -1      1905    8    0    1
 -2       927       926       994      3611      3832      3833
 -1      1906    8    0    1
 -2       964       933       920      3765      3834      3728
 -1      1907    8    0    1
 -2       928       927       995      3614      3835      3836
 -1      1908    8    0    1
 -2       927       994       995      3833      3837      3835
 -1      1909    8    0    1
 -2       929       928       996      3617      3838      3839
 -1      1910    8    0    1
 -2       928       995       996      3836      3840      3838
 -1      1911    8    0    1
 -2       930       929       997      3620      3841      3842
 -1      1912    8    0    1
 -2       929       996       997      3839      3843      3841
 -1      1913    8    0    1
 -2       931       930       998      3623      3844      3845
 -1      1914    8    0    1
 -2       930       997       998      3842      3846      3844
 -1      1915    8    0    1
 -2       932       931       989      3626      3847      3848
 -1      1916    8    0    1
 -2       933       932       920      3629      3849      3834
 -1      1917    8    0    1
 -2       905       973       912      3760      3850      3555
 -1      1918    8    0    1
 -2       936       935       999      3646      3851      3852
 -1      1919    8    0    1
 -2       935       983       999      3795      3853      3851
 -1      1920    8    0    1
 -2       937       936      1000      3649      3854      3855
 -1      1921    8    0    1
 -2       936       999      1000      3852      3856      3854
 -1      1922    8    0    1
 -2       938       937      1001      3652      3857      3858
 -1      1923    8    0    1
 -2       937      1000      1001      3855      3859      3857
 -1      1924    8    0    1
 -2       939       938      1002      3655      3860      3861
 -1      1925    8    0    1
 -2       938      1001      1002      3858      3862      3860
 -1      1926    8    0    1
 -2       940       939      1003      3658      3863      3864
 -1      1927    8    0    1
 -2       939      1002      1003      3861      3865      3863
 -1      1928    8    0    1
 -2       941       940      1004      3661      3866      3867
 -1      1929    8    0    1
 -2       940      1003      1004      3864      3868      3866
 -1      1930    8    0    1
 -2       942       941      1005      3664      3869      3870
 -1      1931    8    0    1
 -2       941      1004      1005      3867      3871      3869
 -1      1932    8    0    1
 -2       943       942      1006      3667      3872      3873
 -1      1933    8    0    1
 -2       942      1005      1006      3870      3874      3872
 -1      1934    8    0    1
 -2       944       943      1007      3670      3875      3876
 -1      1935    8    0    1
 -2       943      1006      1007      3873      3877      3875
 -1      1936    8    0    1
 -2       945       944      1008      3673      3878      3879
 -1      1937    8    0    1
 -2       944      1007      1008      3876      3880      3878
 -1      1938    8    0    1
 -2       946       945      1009      3676      3881      3882
 -1      1939    8    0    1
 -2       945      1008      1009      3879      3883      3881
 -1      1940    8    0    1
 -2       947       946      1010      3679      3884      3885
 -1      1941    8    0    1
 -2       946      1009      1010      3882      3886      3884
 -1      1942    8    0    1
 -2       948       947      1011      3682      3887      3888
 -1      1943    8    0    1
 -2       947      1010      1011      3885      3889      3887
 -1      1944    8    0    1
 -2       949       948      1012      3685      3890      3891
 -1      1945    8    0    1
 -2       948      1011      1012      3888      3892      3890
 -1      1946    8    0    1
 -2       950       949      1013      3688      3893      3894
 -1      1947    8    0    1
 -2       949      1012      1013      3891      3895      3893
 -1      1948    8    0    1
 -2       951       950      1014      3691      3896      3897
 -1      1949    8    0    1
 -2       950      1013      1014      3894      3898      3896
 -1      1950    8    0    1
 -2       952       951      1015      3694      3899      3900
 -1      1951    8    0    1
 -2       951      1014      1015      3897      3901      3899
 -1      1952    8    0    1
 -2       953       952      1016      3697      3902      3903
 -1      1953    8    0    1
 -2       952      1015      1016      3900      3904      3902
 -1      1954    8    0    1
 -2       909       908      1017      3773      3905      3906
 -1      1955    8    0    1
 -2       975       909      1017      3770      3906      3907
 -1      1956    8    0    1
 -2       908       976      1017      3772      3908      3905
 -1      1957    8    0    1
 -2       958       959      1018      3713      3909      3910
 -1      1958    8    0    1
 -2       957       958      1019      3710      3911      3912
 -1      1959    8    0    1
 -2       958      1018      1019      3910      3913      3911
 -1      1960    8    0    1
 -2       960       954      1020      3716      3914      3915
 -1      1961    8    0    1
 -2       967       968      1021      3740      3916      3917
 -1      1962    8    0    1
 -2       917       916       976      3804      3918      3805
 -1      1963    8    0    1
 -2       906       913      1022      3764      3919      3920
 -1      1964    8    0    1
 -2       992       906      1022      3824      3920      3921
 -1      1965    8    0    1
 -2       913       979      1022      3781      3922      3919
 -1      1966    8    0    1
 -2       911       919      1023      3583      3923      3924
 -1      1967    8    0    1
 -2       993       911      1023      3827      3924      3925
 -1      1968    8    0    1
 -2       919       988      1023      3814      3926      3923
 -1      1969    8    0    1
 -2       926       972      1024      3798      3927      3928
 -1      1970    8    0    1
 -2       926      1024       994      3928      3929      3832
 -1      1971    8    0    1
 -2       963       982      1025      3792      3930      3931
 -1      1972    8    0    1
 -2       963      1025       971      3931      3932      3754
 -1      1973    8    0    1
 -2       973       990      1026      3823      3933      3934
 -1      1974    8    0    1
 -2       972       967      1027      3757      3935      3936
 -1      1975    8    0    1
 -2       967      1021      1027      3917      3937      3935
 -1      1976    8    0    1
 -2       956       955      1028      3705      3938      3939
 -1      1977    8    0    1
 -2       985       924      1029      3809      3940      3941
 -1      1978    8    0    1
 -2       916       985      1030      3803      3942      3943
 -1      1979    8    0    1
 -2       916      1030       976      3943      3944      3918
 -1      1980    8    0    1
 -2       966       991      1031      3831      3945      3946
 -1      1981    8    0    1
 -2       966      1031       987      3946      3947      3812
 -1      1982    8    0    1
 -2       912       973       922      3850      3948      3790
 -1      1983    8    0    1
 -2       920       932       989      3849      3848      3815
 -1      1984    8    0    1
 -2       989       931       998      3847      3845      3949
 -1      1985    8    0    1
 -2      1021       968      1025      3916      3950      3951
 -1      1986    8    0    1
 -2       969       923       971      3744      3753      3952
 -1      1987    8    0    1
 -2       955       970      1032      3749      3953      3954
 -1      1988    8    0    1
 -2       955      1032      1028      3954      3955      3938
 -1      1989    8    0    1
 -2       988       992      1033      3826      3956      3957
 -1      1990    8    0    1
 -2      1018       959      1034      3909      3958      3959
 -1      1991    8    0    1
 -2       959       981      1034      3788      3960      3958
 -1      1992    8    0    1
 -2      1017       976      1030      3908      3944      3961
 -1      1993    8    0    1
 -2       973      1026       986      3934      3962      3963
 -1      1994    8    0    1
 -2       986       922       973      3808      3948      3963
 -1      1995    8    0    1
 -2       977       918      1035      3776      3964      3965
 -1      1996    8    0    1
 -2       918       987      1035      3811      3966      3964
 -1      1997    8    0    1
 -2       978       915      1036      3779      3967      3968
 -1      1998    8    0    1
 -2       915       925      1036      3605      3969      3967
 -1      1999    8    0    1
 -2       979       962      1037      3782      3970      3971
 -1      2000    8    0    1
 -2       960      1020      1038      3915      3972      3973
 -1      2001    8    0    1
 -2       960      1038       974      3973      3974      3763
 -1      2002    8    0    1
 -2       980       956      1039      3783      3975      3976
 -1      2003    8    0    1
 -2       956      1028      1039      3939      3977      3975
 -1      2004    8    0    1
 -2       981       965      1040      3789      3978      3979
 -1      2005    8    0    1
 -2      1034       981      1040      3960      3979      3980
 -1      2006    8    0    1
 -2       965       978      1040      3778      3981      3978
 -1      2007    8    0    1
 -2       957      1019      1041      3912      3982      3983
 -1      2008    8    0    1
 -2       957      1041       970      3983      3984      3750
 -1      2009    8    0    1
 -2      1020       954      1042      3914      3985      3986
 -1      2010    8    0    1
 -2       954       975      1042      3769      3987      3985
 -1      2011    8    0    1
 -2       983       910      1043      3796      3988      3989
 -1      2012    8    0    1
 -2       999       983      1043      3853      3989      3990
 -1      2013    8    0    1
 -2       910       977      1043      3775      3991      3988
 -1      2014    8    0    1
 -2       892       980       984      3785      3992      3801
 -1      2015    8    0    1
 -2       962       984      1044      3800      3993      3994
 -1      2016    8    0    1
 -2       962      1044      1037      3994      3995      3970
 -1      2017    8    0    1
 -2      1029       924       989      3940      3817      3996
 -1      2018    8    0    1
 -2       991       993      1031      3829      3997      3945
 -1      2019    8    0    1
 -2       990       974      1045      3820      3998      3999
 -1      2020    8    0    1
 -2       974      1038      1045      3974      4000      3998
 -1      2021    8    0    1
 -2      1025       982      1046      3930      4001      4002
 -1      2022    8    0    1
 -2      1025      1046      1021      4002      4003      3951
 -1      2023    8    0    1
 -2      1026       990      1045      3933      3999      4004
 -1      2024    8    0    1
 -2       972      1027      1024      3936      4005      3927
 -1      2025    8    0    1
 -2       988      1033      1047      3957      4006      4007
 -1      2026    8    0    1
 -2       988      1047      1023      4007      4008      3926
 -1      2027    8    0    1
 -2       985      1029      1048      3941      4009      4010
 -1      2028    8    0    1
 -2       985      1048      1030      4010      4011      3942
 -1      2029    8    0    1
 -2       914       953      1036      3797      4012      4013
 -1      2030    8    0    1
 -2       925       914      1036      3606      4013      3969
 -1      2031    8    0    1
 -2       982       986      1049      3807      4014      4015
 -1      2032    8    0    1
 -2       986      1026      1049      3962      4016      4014
 -1      2033    8    0    1
 -2       982      1049      1046      4015      4017      4001
 -1      2034    8    0    1
 -2       995       994      1050      3837      4018      4019
 -1      2035    8    0    1
 -2       996       995      1051      3840      4020      4021
 -1      2036    8    0    1
 -2       995      1050      1051      4019      4022      4020
 -1      2037    8    0    1
 -2       997       996      1052      3843      4023      4024
 -1      2038    8    0    1
 -2       996      1051      1052      4021      4025      4023
 -1      2039    8    0    1
 -2      1025       968       971      3950      4026      3932
 -1      2040    8    0    1
 -2      1033       992      1053      3956      4027      4028
 -1      2041    8    0    1
 -2       992      1022      1053      3921      4029      4027
 -1      2042    8    0    1
 -2      1000       999      1035      3856      4030      4031
 -1      2043    8    0    1
 -2      1002      1001      1054      3862      4032      4033
 -1      2044    8    0    1
 -2      1003      1002      1055      3865      4034      4035
 -1      2045    8    0    1
 -2      1002      1054      1055      4033      4036      4034
 -1      2046    8    0    1
 -2      1004      1003      1056      3868      4037      4038
 -1      2047    8    0    1
 -2      1003      1055      1056      4035      4039      4037
 -1      2048    8    0    1
 -2      1005      1004      1057      3871      4040      4041
 -1      2049    8    0    1
 -2      1004      1056      1057      4038      4042      4040
 -1      2050    8    0    1
 -2      1006      1005      1058      3874      4043      4044
 -1      2051    8    0    1
 -2      1005      1057      1058      4041      4045      4043
 -1      2052    8    0    1
 -2      1007      1006      1059      3877      4046      4047
 -1      2053    8    0    1
 -2      1006      1058      1059      4044      4048      4046
 -1      2054    8    0    1
 -2      1008      1007      1060      3880      4049      4050
 -1      2055    8    0    1
 -2      1007      1059      1060      4047      4051      4049
 -1      2056    8    0    1
 -2      1009      1008      1061      3883      4052      4053
 -1      2057    8    0    1
 -2      1008      1060      1061      4050      4054      4052
 -1      2058    8    0    1
 -2      1010      1009      1062      3886      4055      4056
 -1      2059    8    0    1
 -2      1009      1061      1062      4053      4057      4055
 -1      2060    8    0    1
 -2      1011      1010      1063      3889      4058      4059
 -1      2061    8    0    1
 -2      1010      1062      1063      4056      4060      4058
 -1      2062    8    0    1
 -2      1012      1011      1064      3892      4061      4062
 -1      2063    8    0    1
 -2      1011      1063      1064      4059      4063      4061
 -1      2064    8    0    1
 -2      1013      1012      1065      3895      4064      4065
 -1      2065    8    0    1
 -2      1012      1064      1065      4062      4066      4064
 -1      2066    8    0    1
 -2      1014      1013      1066      3898      4067      4068
 -1      2067    8    0    1
 -2      1013      1065      1066      4065      4069      4067
 -1      2068    8    0    1
 -2      1015      1014      1067      3901      4070      4071
 -1      2069    8    0    1
 -2      1014      1066      1067      4068      4072      4070
 -1      2070    8    0    1
 -2      1046      1049      1068      4017      4073      4074
 -1      2071    8    0    1
 -2      1019      1018      1069      3913      4075      4076
 -1      2072    8    0    1
 -2      1029       989       998      3996      3949      4077
 -1      2073    8    0    1
 -2      1021      1046      1070      4003      4078      4079
 -1      2074    8    0    1
 -2      1027      1021      1070      3937      4079      4080
 -1      2075    8    0    1
 -2      1046      1068      1070      4074      4081      4078
 -1      2076    8    0    1
 -2       975      1017      1071      3907      4082      4083
 -1      2077    8    0    1
 -2       975      1071      1042      4083      4084      3987
 -1      2078    8    0    1
 -2       987      1031      1072      3947      4085      4086
 -1      2079    8    0    1
 -2       987      1072      1035      4086      4087      3966
 -1      2080    8    0    1
 -2       984       980      1073      3992      4088      4089
 -1      2081    8    0    1
 -2      1044       984      1073      3993      4089      4090
 -1      2082    8    0    1
 -2       980      1039      1073      3976      4091      4088
 -1      2083    8    0    1
 -2      1031       993      1074      3997      4092      4093
 -1      2084    8    0    1
 -2       993      1023      1074      3925      4094      4092
 -1      2085    8    0    1
 -2      1017      1030      1071      3961      4095      4082
 -1      2086    8    0    1
 -2      1026      1045      1049      4004      4096      4016
 -1      2087    8    0    1
 -2       994      1024      1075      3929      4097      4098
 -1      2088    8    0    1
 -2       994      1075      1050      4098      4099      4018
 -1      2089    8    0    1
 -2       978      1036      1076      3968      4100      4101
 -1      2090    8    0    1
 -2       978      1076      1040      4101      4102      3981
 -1      2091    8    0    1
 -2      1024      1027      1077      4005      4103      4104
 -1      2092    8    0    1
 -2      1075      1024      1077      4097      4104      4105
 -1      2093    8    0    1
 -2      1027      1070      1077      4080      4106      4103
 -1      2094    8    0    1
 -2      1049      1045      1068      4096      4107      4073
 -1      2095    8    0    1
 -2      1033      1053      1078      4028      4108      4109
 -1      2096    8    0    1
 -2       998       997      1079      3846      4110      4111
 -1      2097    8    0    1
 -2      1032       970      1041      3953      3984      4112
 -1      2098    8    0    1
 -2      1018      1034      1069      3959      4113      4075
 -1      2099    8    0    1
 -2      1001      1000      1080      3859      4114      4115
 -1      2100    8    0    1
 -2      1015      1067      1076      4071      4116      4117
 -1      2101    8    0    1
 -2      1033      1078      1081      4109      4118      4119
 -1      2102    8    0    1
 -2      1033      1081      1047      4119      4120      4006
 -1      2103    8    0    1
 -2      1016      1015      1076      3904      4117      4121
 -1      2104    8    0    1
 -2      1019      1069      1082      4076      4122      4123
 -1      2105    8    0    1
 -2      1019      1082      1041      4123      4124      3982
 -1      2106    8    0    1
 -2      1038      1020      1083      3972      4125      4126
 -1      2107    8    0    1
 -2      1029       998      1079      4077      4111      4127
 -1      2108    8    0    1
 -2      1028      1032      1084      3955      4128      4129
 -1      2109    8    0    1
 -2      1072      1031      1074      4085      4093      4130
 -1      2110    8    0    1
 -2      1039      1028      1085      3977      4131      4132
 -1      2111    8    0    1
 -2      1028      1084      1085      4129      4133      4131
 -1      2112    8    0    1
 -2       979      1037      1086      3971      4134      4135
 -1      2113    8    0    1
 -2      1071      1030      1048      4095      4011      4136
 -1      2114    8    0    1
 -2      1037      1044      1087      3995      4137      4138
 -1      2115    8    0    1
 -2      1022       979      1086      3922      4135      4139
 -1      2116    8    0    1
 -2      1045      1038      1088      4000      4140      4141
 -1      2117    8    0    1
 -2      1068      1045      1088      4107      4141      4142
 -1      2118    8    0    1
 -2      1038      1083      1088      4126      4143      4140
 -1      2119    8    0    1
 -2      1074      1023      1047      4094      4008      4144
 -1      2120    8    0    1
 -2       997      1052      1079      4024      4145      4110
 -1      2121    8    0    1
 -2      1048      1029      1079      4009      4127      4146
 -1      2122    8    0    1
 -2      1037      1087      1089      4138      4147      4148
 -1      2123    8    0    1
 -2      1037      1089      1086      4148      4149      4134
 -1      2124    8    0    1
 -2      1001      1080      1054      4115      4150      4032
 -1      2125    8    0    1
 -2      1020      1042      1090      3986      4151      4152
 -1      2126    8    0    1
 -2      1020      1090      1083      4152      4153      4125
 -1      2127    8    0    1
 -2      1052      1051      1091      4025      4154      4155
 -1      2128    8    0    1
 -2      1032      1041      1092      4112      4156      4157
 -1      2129    8    0    1
 -2      1084      1032      1092      4128      4157      4158
 -1      2130    8    0    1
 -2      1041      1082      1092      4124      4159      4156
 -1      2131    8    0    1
 -2      1053      1022      1086      4029      4139      4160
 -1      2132    8    0    1
 -2      1080      1000      1035      4114      4031      4161
 -1      2133    8    0    1
 -2      1042      1071      1091      4084      4162      4163
 -1      2134    8    0    1
 -2      1053      1086      1093      4160      4164      4165
 -1      2135    8    0    1
 -2      1078      1053      1093      4108      4165      4166
 -1      2136    8    0    1
 -2      1086      1089      1093      4149      4167      4164
 -1      2137    8    0    1
 -2      1056      1055      1094      4039      4168      4169
 -1      2138    8    0    1
 -2      1057      1056      1078      4042      4170      4171
 -1      2139    8    0    1
 -2      1058      1057      1093      4045      4172      4173
 -1      2140    8    0    1
 -2      1059      1058      1089      4048      4174      4175
 -1      2141    8    0    1
 -2      1060      1059      1087      4051      4176      4177
 -1      2142    8    0    1
 -2      1062      1061      1095      4057      4178      4179
 -1      2143    8    0    1
 -2      1063      1062      1085      4060      4180      4181
 -1      2144    8    0    1
 -2      1064      1063      1084      4063      4182      4183
 -1      2145    8    0    1
 -2      1065      1064      1092      4066      4184      4185
 -1      2146    8    0    1
 -2      1066      1065      1082      4069      4186      4187
 -1      2147    8    0    1
 -2      1067      1066      1069      4072      4188      4189
 -1      2148    8    0    1
 -2      1070      1068      1077      4081      4190      4106
 -1      2149    8    0    1
 -2      1072      1074      1096      4130      4191      4192
 -1      2150    8    0    1
 -2      1035      1072      1080      4087      4193      4161
 -1      2151    8    0    1
 -2      1043       977      1035      3991      3965      4194
 -1      2152    8    0    1
 -2      1071      1048      1091      4136      4195      4162
 -1      2153    8    0    1
 -2      1087      1044      1097      4137      4196      4197
 -1      2154    8    0    1
 -2      1044      1073      1097      4090      4198      4196
 -1      2155    8    0    1
 -2      1084      1063      1085      4182      4181      4133
 -1      2156    8    0    1
 -2      1069      1066      1082      4188      4187      4122
 -1      2157    8    0    1
 -2      1087      1059      1089      4176      4175      4147
 -1      2158    8    0    1
 -2      1048      1079      1052      4146      4145      4199
 -1      2159    8    0    1
 -2      1016      1076      1036      4121      4100      4200
 -1      2160    8    0    1
 -2      1048      1052      1091      4199      4155      4195
 -1      2161    8    0    1
 -2      1055      1054      1096      4036      4201      4202
 -1      2162    8    0    1
 -2      1057      1078      1093      4171      4166      4172
 -1      2163    8    0    1
 -2      1060      1087      1097      4177      4197      4203
 -1      2164    8    0    1
 -2      1064      1084      1092      4183      4158      4184
 -1      2165    8    0    1
 -2      1067      1069      1076      4189      4204      4116
 -1      2166    8    0    1
 -2      1080      1072      1054      4193      4205      4150
 -1      2167    8    0    1
 -2      1050      1075      1090      4099      4206      4207
 -1      2168    8    0    1
 -2      1051      1050      1090      4022      4207      4208
 -1      2169    8    0    1
 -2      1054      1072      1096      4205      4192      4201
 -1      2170    8    0    1
 -2      1068      1088      1077      4142      4209      4190
 -1      2171    8    0    1
 -2       971       968       969      4026      3743      3952
 -1      2172    8    0    1
 -2      1083      1090      1075      4153      4206      4210
 -1      2173    8    0    1
 -2      1089      1058      1093      4174      4173      4167
 -1      2174    8    0    1
 -2      1083      1075      1088      4210      4211      4143
 -1      2175    8    0    1
 -2      1088      1075      1077      4211      4105      4209
 -1      2176    8    0    1
 -2      1078      1056      1081      4170      4212      4118
 -1      2177    8    0    1
 -2      1062      1095      1085      4179      4213      4180
 -1      2178    8    0    1
 -2      1061      1060      1097      4054      4203      4214
 -1      2179    8    0    1
 -2      1065      1092      1082      4185      4159      4186
 -1      2180    8    0    1
 -2      1061      1097      1095      4214      4215      4178
 -1      2181    8    0    1
 -2      1094      1055      1096      4168      4202      4216
 -1      2182    8    0    1
 -2      1074      1047      1094      4144      4217      4218
 -1      2183    8    0    1
 -2      1042      1091      1090      4163      4219      4151
 -1      2184    8    0    1
 -2      1074      1094      1096      4218      4216      4191
 -1      2185    8    0    1
 -2      1091      1051      1090      4154      4208      4219
 -1      2186    8    0    1
 -2      1039      1085      1095      4132      4213      4220
 -1      2187    8    0    1
 -2      1039      1095      1073      4220      4221      4091
 -1      2188    8    0    1
 -2      1047      1081      1094      4120      4222      4217
 -1      2189    8    0    1
 -2      1076      1069      1034      4204      4113      4223
 -1      2190    8    0    1
 -2      1081      1056      1094      4212      4169      4222
 -1      2191    8    0    1
 -2      1040      1076      1034      4102      4223      3980
 -1      2192    8    0    1
 -2      1097      1073      1095      4198      4221      4215
 -1      2193    8    0    1
 -2       953      1016      1036      3903      4200      4012
 -1      2194    8    0    1
 -2      1035       999      1043      4030      3990      4194
 -3
    1PSTEP                         1           1           1          
  100CL  101 1.000000000        4223                     0    1           1
 -4  DISP        4    1
 -5  D1          1    2    1    0
 -5  D2          1    2    2    0
 -5  D3          1    2    3    0
 -5  ALL         1    2    0    0    1ALL
 -1         1 4.40599E-03 2.95281E-04-1.73420E-15
 -1         2 9.06615E-03 9.75251E-04-3.00780E-15
 -1         3 1.66380E-02 5.43793E-03-2.03242E-14
 -1         4 1.39511E-02 4.00782E-03-3.23031E-14
 -1         5 0.00000E+00 0.00000E+00 0.00000E+00
 -1         6 0.00000E+00 0.00000E+00 0.00000E+00
 -1         7 0.00000E+00 0.00000E+00 0.00000E+00
 -1         8 0.00000E+00 0.00000E+00 0.00000E+00
 -1         9 0.00000E+00 0.00000E+00 0.00000E+00
 -1        10 0.00000E+00 0.00000E+00 0.00000E+00
 -1        11 0.00000E+00 0.00000E+00 0.00000E+00
 -1        12 0.00000E+00 0.00000E+00 0.00000E+00
 -1        13 0.00000E+00 0.00000E+00 0.00000E+00
 -1        14 0.00000E+00 0.00000E+00 0.00000E+00
 -1        15 0.00000E+00 0.00000E+00 0.00000E+00
 -1        16 0.00000E+00 0.00000E+00 0.00000E+00
 -1        17 0.00000E+00 0.00000E+00 0.00000E+00
 -1        18 0.00000E+00 0.00000E+00 0.00000E+00
 -1        19 0.00000E+00 0.00000E+00 0.00000E+00
 -1        20 0.00000E+00 0.00000E+00 0.00000E+00
 -1        21 0.00000E+00 0.00000E+00 0.00000E+00
 -1        22 0.00000E+00 0.00000E+00 0.00000E+00
 -1        23 4.10157E-04-2.58642E-04-1.86144E-17
 -1        24 7.02100E-04-3.96434E-04-7.07544E-17
 -1        25 9.72942E-04-4.91156E-04-1.51351E-16
 -1        26 1.23895E-03-5.57170E-04-2.58054E-16
 -1        27 1.50483E-03-6.03718E-04-3.87060E-16
 -1        28 1.77284E-03-6.36342E-04-5.37873E-16
 -1        29 2.04408E-03-6.59004E-04-7.10220E-16
 -1        30 2.31909E-03-6.74771E-04-9.04570E-16
 -1        31 2.59793E-03-6.86157E-04-1.12410E-15
 -1        32 2.88033E-03-6.95279E-04-1.36616E-15
 -1        33 3.16561E-03-7.03910E-04-1.62940E-15
 -1        34 3.45262E-03-7.13421E-04-1.90916E-15
 -1        35 3.73968E-03-7.24609E-04-2.21107E-15
 -1        36 4.02458E-03-7.37426E-04-2.53945E-15
 -1        37 4.30466E-03-7.50643E-04-2.89466E-15
 -1        38 4.57720E-03-7.61544E-04-3.27675E-15
 -1        39 4.83992E-03-7.65818E-04-3.68667E-15
 -1        40 5.09170E-03-7.57851E-04-4.12730E-15
 -1        41 5.33319E-03-7.31515E-04-4.60127E-15
 -1        42 5.56711E-03-6.81397E-04-5.10872E-15
 -1        43 5.79789E-03-6.04119E-04-5.65641E-15
 -1        44 6.03076E-03-4.99262E-04-6.24375E-15
 -1        45 6.27049E-03-3.69486E-04-6.86533E-15
 -1        46 6.52037E-03-2.19800E-04-7.53227E-15
 -1        47 6.78171E-03-5.63077E-05-8.23459E-15
 -1        48 7.05392E-03 1.15070E-04-8.97558E-15
 -1        49 7.33514E-03 2.89504E-04-9.74825E-15
 -1        50 7.62292E-03 4.63650E-04-1.05498E-14
 -1        51 7.91480E-03 6.35603E-04-1.13808E-14
 -1        52 8.20869E-03 8.04597E-04-1.22384E-14
 -1        53 8.50306E-03 9.70632E-04-1.31159E-14
 -1        54 8.79691E-03 1.13413E-03-1.40126E-14
 -1        55 9.08969E-03 1.29569E-03-1.49156E-14
 -1        56 9.38117E-03 1.45592E-03-1.58189E-14
 -1        57 9.67137E-03 1.61532E-03-1.67290E-14
 -1        58 9.96040E-03 1.77433E-03-1.76407E-14
 -1        59 1.02484E-02 1.93323E-03-1.85439E-14
 -1        60 1.05357E-02 2.09221E-03-1.94510E-14
 -1        61 1.08224E-02 2.25141E-03-2.03670E-14
 -1        62 1.11086E-02 2.41086E-03-2.13125E-14
 -1        63 1.13946E-02 2.57059E-03-2.23017E-14
 -1        64 1.16803E-02 2.73059E-03-2.33266E-14
 -1        65 1.19659E-02 2.89082E-03-2.43898E-14
 -1        66 1.22515E-02 3.05125E-03-2.54807E-14
 -1        67 1.25371E-02 3.21184E-03-2.65852E-14
 -1        68 1.28227E-02 3.37256E-03-2.77057E-14
 -1        69 1.31083E-02 3.53335E-03-2.88530E-14
 -1        70 1.33940E-02 3.69419E-03-3.00058E-14
 -1        71 1.36797E-02 3.85503E-03-3.11711E-14
 -1        72 3.93865E-04 2.50014E-04 3.17265E-17
 -1        73 6.87692E-04 3.90234E-04 7.47388E-17
 -1        74 9.58806E-04 4.85978E-04 1.22823E-16
 -1        75 1.22479E-03 5.52062E-04 1.71883E-16
 -1        76 1.49070E-03 5.97758E-04 2.18043E-16
 -1        77 1.75912E-03 6.28473E-04 2.57434E-16
 -1        78 2.03169E-03 6.47913E-04 2.90485E-16
 -1        79 2.29573E-03 6.58487E-04 3.15638E-16
 -1        80 2.58047E-03 6.63484E-04 3.33189E-16
 -1        81 2.87414E-03 6.64305E-04 3.36818E-16
 -1        82 3.17960E-03 6.63395E-04 3.24918E-16
 -1        83 3.50106E-03 6.64181E-04 2.98545E-16
 -1        84 3.84456E-03 6.72205E-04 2.56963E-16
 -1        85 4.21817E-03 6.96950E-04 2.04325E-16
 -1        86 4.60946E-03 7.50629E-04 1.46936E-16
 -1        87 5.06611E-03 8.62966E-04 8.01429E-17
 -1        88 5.56386E-03 1.06488E-03 4.50622E-18
 -1        89 6.07098E-03 1.38094E-03-8.25146E-17
 -1        90 6.52294E-03 1.78531E-03-1.91477E-16
 -1        91 6.81622E-03 2.10744E-03-3.13192E-16
 -1        92 7.02245E-03 2.28570E-03-4.57676E-16
 -1        93 7.20538E-03 2.29150E-03-6.18049E-16
 -1        94 7.48739E-03 2.12702E-03-8.50862E-16
 -1        95 7.91556E-03 1.87456E-03-1.16757E-15
 -1        96 8.41808E-03 1.69026E-03-1.54770E-15
 -1        97 8.92475E-03 1.62138E-03-1.98251E-15
 -1        98 9.39538E-03 1.65058E-03-2.45413E-15
 -1        99 9.82037E-03 1.74466E-03-2.96685E-15
 -1       100 1.02052E-02 1.87639E-03-3.51084E-15
 -1       101 1.05422E-02 2.02039E-03-4.05223E-15
 -1       102 1.08754E-02 2.18193E-03-4.65021E-15
 -1       103 1.11932E-02 2.34818E-03-5.28381E-15
 -1       104 1.15003E-02 2.51615E-03-5.94562E-15
 -1       105 1.18003E-02 2.68436E-03-6.63271E-15
 -1       106 1.20955E-02 2.85210E-03-7.33963E-15
 -1       107 1.23873E-02 3.01908E-03-8.07152E-15
 -1       108 1.26625E-02 3.17694E-03-8.78804E-15
 -1       109 1.29507E-02 3.34231E-03-9.55626E-15
 -1       110 1.32378E-02 3.50693E-03-1.03217E-14
 -1       111 1.35243E-02 3.67091E-03-1.10867E-14
 -1       112 1.38103E-02 3.83433E-03-1.18783E-14
 -1       113 1.40961E-02 3.99729E-03-1.26860E-14
 -1       114 1.43817E-02 4.15986E-03-1.34910E-14
 -1       115 1.46530E-02 4.31402E-03-1.42656E-14
 -1       116 1.49385E-02 4.47605E-03-1.51031E-14
 -1       117 1.52240E-02 4.63790E-03-1.59634E-14
 -1       118 1.55096E-02 4.79961E-03-1.68309E-14
 -1       119 1.57952E-02 4.96124E-03-1.76955E-14
 -1       120 1.60808E-02 5.12283E-03-1.85784E-14
 -1       121 1.63665E-02 5.28441E-03-1.94679E-14
 -1       122 1.64790E-02 5.35365E-03-2.09820E-14
 -1       123 1.63201E-02 5.26934E-03-2.16604E-14
 -1       124 1.61612E-02 5.18500E-03-2.23321E-14
 -1       125 1.60023E-02 5.10062E-03-2.30099E-14
 -1       126 1.58434E-02 5.01622E-03-2.37005E-14
 -1       127 1.56874E-02 4.93322E-03-2.43865E-14
 -1       128 1.55287E-02 4.84878E-03-2.50825E-14
 -1       129 1.53701E-02 4.76434E-03-2.57965E-14
 -1       130 1.52116E-02 4.67990E-03-2.65300E-14
 -1       131 1.50531E-02 4.59547E-03-2.72666E-14
 -1       132 1.48948E-02 4.51105E-03-2.80157E-14
 -1       133 1.47392E-02 4.42807E-03-2.87622E-14
 -1       134 1.45810E-02 4.34367E-03-2.95033E-14
 -1       135 1.44228E-02 4.25931E-03-3.02238E-14
 -1       136 1.42647E-02 4.17498E-03-3.09402E-14
 -1       137 1.41066E-02 4.09067E-03-3.16335E-14
 -1       138 9.08715E-03 1.16302E-03-2.80827E-15
 -1       139 9.00420E-03 1.35006E-03-2.58114E-15
 -1       140 8.81688E-03 1.53282E-03-2.34141E-15
 -1       141 8.54124E-03 1.70118E-03-2.10223E-15
 -1       142 8.13230E-03 1.86651E-03-1.84674E-15
 -1       143 7.64744E-03 1.98231E-03-1.62302E-15
 -1       144 7.11688E-03 2.02744E-03-1.43899E-15
 -1       145 6.58180E-03 1.99116E-03-1.30298E-15
 -1       146 6.02561E-03 1.86835E-03-1.20077E-15
 -1       147 5.53733E-03 1.69242E-03-1.14358E-15
 -1       148 5.08792E-03 1.47030E-03-1.13073E-15
 -1       149 4.74302E-03 1.24883E-03-1.15931E-15
 -1       150 4.47490E-03 1.02056E-03-1.22455E-15
 -1       151 4.32090E-03 8.20930E-04-1.31291E-15
 -1       152 4.25464E-03 6.27828E-04-1.42751E-15
 -1       153 4.28630E-03 4.47777E-04-1.57106E-15
 -1       154 4.61706E-03 1.60308E-04-1.92476E-15
 -1       155 4.91442E-03 5.05025E-05-2.12864E-15
 -1       156 5.27373E-03-2.57228E-05-2.33124E-15
 -1       157 5.68139E-03-6.76679E-05-2.53008E-15
 -1       158 6.14650E-03-7.38186E-05-2.72993E-15
 -1       159 6.66096E-03-3.77781E-05-2.92298E-15
 -1       160 7.14750E-03 3.45128E-05-3.07568E-15
 -1       161 7.61777E-03 1.40772E-04-3.19339E-15
 -1       162 8.04777E-03 2.75865E-04-3.26746E-15
 -1       163 8.42875E-03 4.35497E-04-3.29213E-15
 -1       164 8.72241E-03 6.03364E-04-3.25412E-15
 -1       165 8.94690E-03 7.91269E-04-3.15299E-15
 -1       166 2.40669E-04-1.23742E-04-1.84653E-17
 -1       167 2.25684E-04-9.26386E-05-1.77403E-17
 -1       168 2.19875E-04-7.07140E-05-1.58260E-17
 -1       169 2.16889E-04-5.31153E-05-1.36609E-17
 -1       170 2.15186E-04-3.82353E-05-1.12588E-17
 -1       171 2.14150E-04-2.46261E-05-8.93112E-18
 -1       172 2.13586E-04-1.19512E-05-6.67123E-18
 -1       173 2.13404E-04 2.62231E-07-4.65190E-18
 -1       174 2.13587E-04 1.24444E-05-2.68679E-18
 -1       175 2.14168E-04 2.50374E-05-4.50622E-19
 -1       176 2.15218E-04 3.83080E-05 2.09387E-18
 -1       177 2.16997E-04 5.33541E-05 5.20417E-18
 -1       178 2.20041E-04 7.09411E-05 8.64990E-18
 -1       179 2.25909E-04 9.29520E-05 1.31832E-17
 -1       180 2.40978E-04 1.24310E-04 1.87160E-17
 -1       181 4.68763E-04-2.60189E-04-4.60888E-17
 -1       182 7.67509E-04-3.76066E-04-1.10487E-16
 -1       183 1.05251E-03-4.56076E-04-1.99774E-16
 -1       184 1.33170E-03-5.11920E-04-3.11139E-16
 -1       185 1.60884E-03-5.50731E-04-4.43696E-16
 -1       186 1.88613E-03-5.77396E-04-5.96985E-16
 -1       187 2.16480E-03-5.95535E-04-7.71603E-16
 -1       188 2.44550E-03-6.08026E-04-9.68731E-16
 -1       189 2.72845E-03-6.17267E-04-1.18798E-15
 -1       190 3.01348E-03-6.25303E-04-1.42864E-15
 -1       191 3.30007E-03-6.33826E-04-1.68824E-15
 -1       192 3.58735E-03-6.44070E-04-1.96784E-15
 -1       193 3.87403E-03-6.56574E-04-2.27131E-15
 -1       194 4.15852E-03-6.70846E-04-2.60042E-15
 -1       195 4.43903E-03-6.84974E-04-2.95654E-15
 -1       196 4.71390E-03-6.95354E-04-3.33978E-15
 -1       197 4.98197E-03-6.96709E-04-3.75119E-15
 -1       198 5.24305E-03-6.82633E-04-4.19522E-15
 -1       199 5.49823E-03-6.46709E-04-4.67137E-15
 -1       200 5.74987E-03-5.83978E-04-5.18337E-15
 -1       201 6.00120E-03-4.92283E-04-5.73512E-15
 -1       202 6.25555E-03-3.72891E-04-6.32502E-15
 -1       203 6.51561E-03-2.30130E-04-6.95534E-15
 -1       204 6.78287E-03-7.01930E-05-7.62386E-15
 -1       205 7.05755E-03 1.00339E-04-8.32759E-15
 -1       206 7.33881E-03 2.75726E-04-9.06562E-15
 -1       207 7.62521E-03 4.51746E-04-9.83494E-15
 -1       208 7.91512E-03 6.25812E-04-1.06331E-14
 -1       209 8.20702E-03 7.96728E-04-1.14573E-14
 -1       210 8.49971E-03 9.64280E-04-1.23055E-14
 -1       211 8.79230E-03 1.12884E-03-1.31740E-14
 -1       212 9.08428E-03 1.29103E-03-1.40563E-14
 -1       213 9.37535E-03 1.45154E-03-1.49456E-14
 -1       214 9.66544E-03 1.61100E-03-1.58419E-14
 -1       215 9.95457E-03 1.76989E-03-1.67439E-14
 -1       216 1.02428E-02 1.92858E-03-1.76443E-14
 -1       217 1.05304E-02 2.08732E-03-1.85444E-14
 -1       218 1.08174E-02 2.24626E-03-1.94499E-14
 -1       219 1.11039E-02 2.40547E-03-2.03690E-14
 -1       220 1.13902E-02 2.56499E-03-2.13212E-14
 -1       221 1.16761E-02 2.72481E-03-2.23114E-14
 -1       222 1.19620E-02 2.88490E-03-2.33395E-14
 -1       223 1.22477E-02 3.04522E-03-2.43953E-14
 -1       224 1.25334E-02 3.20573E-03-2.54778E-14
 -1       225 1.28191E-02 3.36639E-03-2.65773E-14
 -1       226 1.31047E-02 3.52716E-03-2.77012E-14
 -1       227 1.33904E-02 3.68798E-03-2.88393E-14
 -1       228 1.36761E-02 3.84883E-03-2.99932E-14
 -1       229 4.53486E-04 2.53034E-04 4.28700E-17
 -1       230 7.52862E-04 3.70410E-04 7.95195E-17
 -1       231 1.03840E-03 4.51010E-04 1.18066E-16
 -1       232 1.31806E-03 5.06446E-04 1.54966E-16
 -1       233 1.59593E-03 5.43803E-04 1.86774E-16
 -1       234 1.87457E-03 5.67721E-04 2.11084E-16
 -1       235 2.14167E-03 5.80990E-04 2.26930E-16
 -1       236 2.42676E-03 5.87380E-04 2.34933E-16
 -1       237 2.71740E-03 5.88070E-04 2.29919E-16
 -1       238 3.01540E-03 5.85125E-04 2.11524E-16
 -1       239 3.32307E-03 5.81127E-04 1.78456E-16
 -1       240 3.64344E-03 5.80036E-04 1.31869E-16
 -1       241 3.98034E-03 5.88667E-04 7.14794E-17
 -1       242 4.31989E-03 6.16846E-04 3.24583E-18
 -1       243 4.70222E-03 6.86961E-04-7.63007E-17
 -1       244 5.11334E-03 8.29165E-04-1.65795E-16
 -1       245 5.55193E-03 1.08020E-03-2.66958E-16
 -1       246 6.00608E-03 1.45511E-03-3.87568E-16
 -1       247 6.38758E-03 1.82475E-03-5.14156E-16
 -1       248 6.72833E-03 2.11385E-03-6.57006E-16
 -1       249 7.03508E-03 2.23336E-03-8.21039E-16
 -1       250 7.40827E-03 2.14502E-03-1.05514E-15
 -1       251 7.84951E-03 1.88106E-03-1.36217E-15
 -1       252 8.30583E-03 1.63986E-03-1.72723E-15
 -1       253 8.75133E-03 1.51732E-03-2.14823E-15
 -1       254 9.17143E-03 1.51174E-03-2.61441E-15
 -1       255 9.56299E-03 1.58764E-03-3.11982E-15
 -1       256 9.92871E-03 1.71170E-03-3.65769E-15
 -1       257 1.02564E-02 1.85361E-03-4.19757E-15
 -1       258 1.05853E-02 2.01553E-03-4.79074E-15
 -1       259 1.09018E-02 2.18321E-03-5.41464E-15
 -1       260 1.12092E-02 2.35286E-03-6.07179E-15
 -1       261 1.15101E-02 2.52267E-03-6.75473E-15
 -1       262 1.18064E-02 2.69180E-03-7.45942E-15
 -1       263 1.20994E-02 2.85994E-03-8.18656E-15
 -1       264 1.23755E-02 3.01870E-03-8.89516E-15
 -1       265 1.26646E-02 3.18484E-03-9.65537E-15
 -1       266 1.29525E-02 3.35008E-03-1.04254E-14
 -1       267 1.32396E-02 3.51454E-03-1.11980E-14
 -1       268 1.35261E-02 3.67834E-03-1.19838E-14
 -1       269 1.38123E-02 3.84159E-03-1.27888E-14
 -1       270 1.40982E-02 4.00439E-03-1.35998E-14
 -1       271 1.43697E-02 4.15870E-03-1.43810E-14
 -1       272 1.46554E-02 4.32086E-03-1.52181E-14
 -1       273 1.49411E-02 4.48280E-03-1.60709E-14
 -1       274 1.52267E-02 4.64457E-03-1.69434E-14
 -1       275 1.55124E-02 4.80623E-03-1.78182E-14
 -1       276 1.57980E-02 4.96782E-03-1.87026E-14
 -1       277 1.60837E-02 5.12939E-03-1.96019E-14
 -1       278 1.61521E-02 5.17155E-03-2.05377E-14
 -1       279 1.59932E-02 5.08724E-03-2.11960E-14
 -1       280 1.58343E-02 5.00291E-03-2.18590E-14
 -1       281 1.56754E-02 4.91856E-03-2.25303E-14
 -1       282 1.55193E-02 4.83563E-03-2.31941E-14
 -1       283 1.53606E-02 4.75126E-03-2.38781E-14
 -1       284 1.52019E-02 4.66689E-03-2.45732E-14
 -1       285 1.50434E-02 4.58252E-03-2.52829E-14
 -1       286 1.48849E-02 4.49816E-03-2.59976E-14
 -1       287 1.47265E-02 4.41379E-03-2.67174E-14
 -1       288 1.45709E-02 4.33087E-03-2.74302E-14
 -1       289 1.44126E-02 4.24652E-03-2.81562E-14
 -1       290 1.42545E-02 4.16218E-03-2.88759E-14
 -1       291 1.40963E-02 4.07785E-03-2.95777E-14
 -1       292 1.38862E-02 3.96334E-03-2.97899E-14
 -1       293 9.12091E-03 1.07425E-03-3.09556E-15
 -1       294 9.05863E-03 1.18022E-03-2.81970E-15
 -1       295 8.85969E-03 1.31043E-03-2.53056E-15
 -1       296 8.56199E-03 1.48853E-03-2.22897E-15
 -1       297 8.16217E-03 1.69731E-03-1.92426E-15
 -1       298 7.73562E-03 1.92745E-03-1.64714E-15
 -1       299 7.29759E-03 2.08548E-03-1.40441E-15
 -1       300 6.88185E-03 2.11085E-03-1.23352E-15
 -1       301 6.46193E-03 1.99818E-03-1.08722E-15
 -1       302 6.00547E-03 1.75553E-03-1.02130E-15
 -1       303 5.54960E-03 1.45572E-03-9.87857E-16
 -1       304 5.07949E-03 1.18478E-03-1.02594E-15
 -1       305 4.70147E-03 9.33750E-04-1.07010E-15
 -1       306 4.40973E-03 7.78885E-04-1.17397E-15
 -1       307 4.25388E-03 6.51630E-04-1.28310E-15
 -1       308 4.22977E-03 5.53632E-04-1.42457E-15
 -1       309 4.34261E-03 4.55836E-04-1.60154E-15
 -1       310 4.56264E-03 3.44825E-04-1.79093E-15
 -1       311 4.87248E-03 2.11827E-04-2.00647E-15
 -1       312 5.23110E-03 7.12016E-05-2.23615E-15
 -1       313 5.60315E-03-5.13702E-05-2.47010E-15
 -1       314 5.98358E-03-1.30877E-04-2.70789E-15
 -1       315 6.38293E-03-1.42816E-04-2.95608E-15
 -1       316 6.79305E-03-6.01734E-05-3.16573E-15
 -1       317 7.20903E-03 9.18034E-05-3.34064E-15
 -1       318 7.62306E-03 2.99488E-04-3.50025E-15
 -1       319 8.08004E-03 5.02610E-04-3.53604E-15
 -1       320 8.48034E-03 6.93867E-04-3.53154E-15
 -1       321 8.81110E-03 8.57851E-04-3.46706E-15
 -1       322 9.03579E-03 9.72229E-04-3.29731E-15
 -1       323 4.56144E-04-1.60531E-04-5.13133E-17
 -1       324 4.75150E-04-2.08907E-04-5.52096E-17
 -1       325 4.40434E-04-9.02838E-05-4.01358E-17
 -1       326 4.36940E-04-6.18966E-05-3.36577E-17
 -1       327 4.34872E-04-3.59130E-05-2.74066E-17
 -1       328 4.33886E-04-1.12930E-05-2.12944E-17
 -1       329 4.33871E-04 1.28415E-05-1.51246E-17
 -1       330 4.34850E-04 3.73414E-05-8.77526E-18
 -1       331 4.36929E-04 6.26797E-05-1.88719E-18
 -1       332 4.40535E-04 9.08367E-05 5.95295E-18
 -1       333 4.46449E-04 1.22922E-04 1.46842E-17
 -1       334 4.56663E-04 1.61269E-04 2.47300E-17
 -1       335 4.75973E-04 2.10079E-04 3.65105E-17
 -1       336 8.67700E-03 1.33940E-03-2.41706E-15
 -1       337 8.65204E-04-3.49652E-04-1.47855E-16
 -1       338 1.15282E-03-4.15388E-04-2.43075E-16
 -1       339 1.43737E-03-4.61483E-04-3.58495E-16
 -1       340 1.72048E-03-4.93224E-04-4.93092E-16
 -1       341 2.00337E-03-5.14659E-04-6.48190E-16
 -1       342 2.28694E-03-5.28992E-04-8.24271E-16
 -1       343 2.57171E-03-5.38868E-04-1.02151E-15
 -1       344 2.85796E-03-5.46544E-04-1.23940E-15
 -1       345 3.14571E-03-5.53958E-04-1.47782E-15
 -1       346 3.43473E-03-5.62693E-04-1.73554E-15
 -1       347 3.72447E-03-5.73807E-04-2.01501E-15
 -1       348 4.01409E-03-5.87549E-04-2.31934E-15
 -1       349 4.30240E-03-6.02943E-04-2.64977E-15
 -1       350 4.58801E-03-6.17367E-04-3.00643E-15
 -1       351 4.86953E-03-6.26291E-04-3.38925E-15
 -1       352 5.14601E-03-6.23446E-04-3.80253E-15
 -1       353 5.41737E-03-6.01666E-04-4.24822E-15
 -1       354 5.68478E-03-5.54385E-04-4.72630E-15
 -1       355 5.95051E-03-4.77410E-04-5.24517E-15
 -1       356 6.21740E-03-3.70209E-04-5.80085E-15
 -1       357 6.48796E-03-2.36087E-04-6.39586E-15
 -1       358 6.76370E-03-8.11522E-05-7.03030E-15
 -1       359 7.04489E-03 8.74020E-05-7.70070E-15
 -1       360 7.33085E-03 2.62904E-04-8.40477E-15
 -1       361 7.62031E-03 4.40212E-04-9.14145E-15
 -1       362 7.91194E-03 6.16017E-04-9.90598E-15
 -1       363 8.20457E-03 7.88649E-04-1.06995E-14
 -1       364 8.49733E-03 9.57639E-04-1.15167E-14
 -1       365 8.78964E-03 1.12326E-03-1.23550E-14
 -1       366 9.08118E-03 1.28614E-03-1.32128E-14
 -1       367 9.37182E-03 1.44702E-03-1.40844E-14
 -1       368 9.66154E-03 1.60659E-03-1.49676E-14
 -1       369 9.95042E-03 1.76543E-03-1.58579E-14
 -1       370 1.02386E-02 1.92396E-03-1.67473E-14
 -1       371 1.05261E-02 2.08249E-03-1.76423E-14
 -1       372 1.08131E-02 2.24119E-03-1.85401E-14
 -1       373 1.10997E-02 2.40017E-03-1.94410E-14
 -1       374 1.13860E-02 2.55948E-03-2.03626E-14
 -1       375 1.16721E-02 2.71911E-03-2.13160E-14
 -1       376 1.19581E-02 2.87905E-03-2.23070E-14
 -1       377 1.22439E-02 3.03925E-03-2.33363E-14
 -1       378 1.25297E-02 3.19966E-03-2.43868E-14
 -1       379 1.28154E-02 3.36026E-03-2.54636E-14
 -1       380 1.31011E-02 3.52098E-03-2.65637E-14
 -1       381 1.33868E-02 3.68179E-03-2.76828E-14
 -1       382 1.36365E-02 3.82256E-03-2.87297E-14
 -1       383 1.13901E-03 4.10308E-04 1.03277E-16
 -1       384 8.51023E-04 3.44591E-04 7.53317E-17
 -1       385 1.42407E-03 4.55502E-04 1.27099E-16
 -1       386 1.70792E-03 4.85211E-04 1.43796E-16
 -1       387 1.97776E-03 5.02484E-04 1.51751E-16
 -1       388 2.26313E-03 5.11839E-04 1.51040E-16
 -1       389 2.55082E-03 5.14368E-04 1.38653E-16
 -1       390 2.84167E-03 5.12081E-04 1.13692E-16
 -1       391 3.13652E-03 5.07167E-04 7.30515E-17
 -1       392 3.43619E-03 5.02599E-04 1.82857E-17
 -1       393 3.74167E-03 5.03123E-04-4.91144E-17
 -1       394 4.03858E-03 5.15702E-04-1.25940E-16
 -1       395 4.36079E-03 5.54729E-04-2.18009E-16
 -1       396 4.69898E-03 6.42189E-04-3.19843E-16
 -1       397 5.06599E-03 8.11497E-04-4.32746E-16
 -1       398 5.47904E-03 1.10342E-03-5.61302E-16
 -1       399 6.39551E-03 1.90371E-03-7.99145E-16
 -1       400 7.23096E-03 2.15396E-03-1.18284E-15
 -1       401 7.72646E-03 1.91177E-03-1.48933E-15
 -1       402 8.22364E-03 1.60989E-03-1.86477E-15
 -1       403 8.65482E-03 1.43958E-03-2.27318E-15
 -1       404 9.03761E-03 1.40084E-03-2.73361E-15
 -1       405 9.38778E-03 1.45541E-03-3.23019E-15
 -1       406 9.71920E-03 1.56677E-03-3.76297E-15
 -1       407 1.00233E-02 1.70215E-03-4.29408E-15
 -1       408 1.03357E-02 1.86094E-03-4.88777E-15
 -1       409 1.06418E-02 2.02766E-03-5.50897E-15
 -1       410 1.09431E-02 2.19749E-03-6.15543E-15
 -1       411 1.12405E-02 2.36799E-03-6.83147E-15
 -1       412 1.15349E-02 2.53798E-03-7.53238E-15
 -1       413 1.18270E-02 2.70699E-03-8.25585E-15
 -1       414 1.21028E-02 2.86650E-03-8.96302E-15
 -1       415 1.23918E-02 3.03333E-03-9.71779E-15
 -1       416 1.26798E-02 3.19915E-03-1.04876E-14
 -1       417 1.29671E-02 3.36409E-03-1.12614E-14
 -1       418 1.32538E-02 3.52828E-03-1.20449E-14
 -1       419 1.35402E-02 3.69184E-03-1.28469E-14
 -1       420 1.38263E-02 3.85488E-03-1.36615E-14
 -1       421 1.40980E-02 4.00938E-03-1.44432E-14
 -1       422 1.43838E-02 4.17168E-03-1.52792E-14
 -1       423 1.46695E-02 4.33372E-03-1.61321E-14
 -1       424 1.49553E-02 4.49557E-03-1.70006E-14
 -1       425 1.52409E-02 4.65727E-03-1.78815E-14
 -1       426 1.55266E-02 4.81888E-03-1.87731E-14
 -1       427 1.58123E-02 4.98045E-03-1.96733E-14
 -1       428 9.12550E-03 1.12441E-03-3.16070E-15
 -1       429 1.55074E-02 4.82087E-03-2.13739E-14
 -1       430 1.56663E-02 4.90518E-03-2.07228E-14
 -1       431 1.53512E-02 4.73798E-03-2.20226E-14
 -1       432 1.51925E-02 4.65367E-03-2.26877E-14
 -1       433 1.50338E-02 4.56937E-03-2.33614E-14
 -1       434 1.48752E-02 4.48507E-03-2.40469E-14
 -1       435 1.47167E-02 4.40077E-03-2.47378E-14
 -1       436 1.45582E-02 4.31647E-03-2.54343E-14
 -1       437 1.44026E-02 4.23360E-03-2.61256E-14
 -1       438 1.42443E-02 4.14930E-03-2.68307E-14
 -1       439 1.40861E-02 4.06499E-03-2.75343E-14
 -1       440 1.39279E-02 3.98069E-03-2.82337E-14
 -1       441 9.00218E-03 1.18478E-03-2.85371E-15
 -1       442 9.10878E-03 1.06219E-03-3.41809E-15
 -1       443 4.46174E-04-1.22366E-04-4.61125E-17
 -1       444 7.86589E-03 1.81729E-03-1.67700E-15
 -1       445 7.49053E-03 2.03349E-03-1.42007E-15
 -1       446 7.08805E-03 2.16478E-03-1.16237E-15
 -1       447 6.76723E-03 2.12374E-03-1.01792E-15
 -1       448 6.04254E-03 1.63350E-03-7.79650E-16
 -1       449 5.38596E-03 1.20138E-03-8.66152E-16
 -1       450 4.98720E-03 9.58293E-04-9.14877E-16
 -1       451 4.55347E-03 7.35715E-04-1.01468E-15
 -1       452 4.33419E-03 6.43457E-04-1.12080E-15
 -1       453 4.20668E-03 5.62211E-04-1.25253E-15
 -1       454 4.26628E-03 5.10044E-04-1.46002E-15
 -1       455 4.44706E-03 4.38907E-04-1.64716E-15
 -1       456 4.73986E-03 3.25247E-04-1.86789E-15
 -1       457 5.09903E-03 1.77139E-04-2.11409E-15
 -1       458 5.46754E-03 1.53595E-05-2.37949E-15
 -1       459 5.82632E-03-1.17443E-04-2.66029E-15
 -1       460 6.16422E-03-1.82750E-04-2.95012E-15
 -1       461 6.53390E-03-1.40915E-04-3.27448E-15
 -1       462 6.89884E-03 5.39698E-06-3.49051E-15
 -1       463 7.24586E-03 1.92488E-04-3.65410E-15
 -1       464 7.77807E-03 4.96838E-04-3.82076E-15
 -1       465 8.19870E-03 7.18421E-04-3.88090E-15
 -1       466 8.60496E-03 8.85238E-04-3.81023E-15
 -1       467 8.94394E-03 1.00212E-03-3.64446E-15
 -1       468 8.35478E-03 1.51635E-03-2.09382E-15
 -1       469 6.81373E-03 2.14954E-03-9.31052E-16
 -1       470 7.45186E-03 3.65684E-04-3.96886E-15
 -1       471 6.64195E-04-7.12336E-05-6.45405E-17
 -1       472 6.69054E-04-1.10691E-04-7.61381E-17
 -1       473 6.60515E-04 1.29315E-06-4.07186E-17
 -1       474 6.61332E-04 3.67901E-05-2.85010E-17
 -1       475 6.63989E-04 7.27436E-05-1.59479E-17
 -1       476 6.68952E-04 1.11738E-04-2.05321E-18
 -1       477 6.76979E-04 1.54825E-04 1.31968E-17
 -1       478 6.89761E-04 2.04142E-04 2.99138E-17
 -1       479 7.64487E-04 2.69001E-04 5.00088E-17
 -1       480 8.54060E-03 1.40856E-03-2.26901E-15
 -1       481 9.78561E-04-3.19275E-04-1.82197E-16
 -1       482 1.26553E-03-3.71041E-04-2.81544E-16
 -1       483 1.55199E-03-4.07602E-04-3.99071E-16
 -1       484 1.83807E-03-4.32566E-04-5.35708E-16
 -1       485 2.12425E-03-4.49116E-04-6.91816E-16
 -1       486 2.41102E-03-4.59966E-04-8.67358E-16
 -1       487 2.69885E-03-4.67468E-04-1.06327E-15
 -1       488 2.98812E-03-4.73687E-04-1.27857E-15
 -1       489 3.27908E-03-4.80436E-04-1.51426E-15
 -1       490 3.57185E-03-4.89194E-04-1.77140E-15
 -1       491 3.86624E-03-5.00907E-04-2.05147E-15
 -1       492 4.16167E-03-5.15625E-04-2.35597E-15
 -1       493 4.45706E-03-5.31997E-04-2.68516E-15
 -1       494 4.75082E-03-5.46721E-04-3.04131E-15
 -1       495 5.04122E-03-5.54217E-04-3.42372E-15
 -1       496 5.32695E-03-5.46922E-04-3.83759E-15
 -1       497 5.60793E-03-5.16559E-04-4.28518E-15
 -1       498 5.88572E-03-4.56316E-04-4.76888E-15
 -1       499 6.16314E-03-3.63115E-04-5.29278E-15
 -1       500 6.44322E-03-2.38769E-04-5.85436E-15
 -1       501 6.72793E-03-8.92974E-05-6.45438E-15
 -1       502 7.01761E-03 7.71687E-05-7.09163E-15
 -1       503 7.31123E-03 2.52688E-04-7.76227E-15
 -1       504 7.60714E-03 4.31020E-04-8.46756E-15
 -1       505 7.90370E-03 6.08131E-04-9.20166E-15
 -1       506 8.19973E-03 7.81964E-04-9.96099E-15
 -1       507 8.49453E-03 9.51896E-04-1.07496E-14
 -1       508 8.78784E-03 1.11817E-03-1.15596E-14
 -1       509 9.07966E-03 1.28144E-03-1.23895E-14
 -1       510 9.37015E-03 1.44250E-03-1.32421E-14
 -1       511 9.65952E-03 1.60210E-03-1.41054E-14
 -1       512 9.94797E-03 1.76085E-03-1.49784E-14
 -1       513 1.02357E-02 1.91922E-03-1.58592E-14
 -1       514 1.05229E-02 2.07755E-03-1.67438E-14
 -1       515 1.08097E-02 2.23605E-03-1.76327E-14
 -1       516 1.10961E-02 2.39482E-03-1.85237E-14
 -1       517 1.13823E-02 2.55394E-03-1.94230E-14
 -1       518 1.16684E-02 2.71341E-03-2.03441E-14
 -1       519 1.19543E-02 2.87320E-03-2.12996E-14
 -1       520 1.22402E-02 3.03328E-03-2.22933E-14
 -1       521 1.25260E-02 3.19360E-03-2.33163E-14
 -1       522 1.28117E-02 3.35413E-03-2.43624E-14
 -1       523 1.30974E-02 3.51480E-03-2.54365E-14
 -1       524 1.33832E-02 3.67559E-03-2.65280E-14
 -1       525 1.05117E-03 3.33791E-04 6.88502E-17
 -1       526 1.81679E-03 4.23754E-04 8.90706E-17
 -1       527 2.10245E-03 4.36834E-04 7.99260E-17
 -1       528 2.38810E-03 4.42444E-04 6.06205E-17
 -1       529 2.67381E-03 4.42687E-04 2.83722E-17
 -1       530 2.95930E-03 4.39661E-04-1.95156E-17
 -1       531 3.24393E-03 4.35861E-04-8.28771E-17
 -1       532 3.52664E-03 4.34769E-04-1.58432E-16
 -1       533 3.79226E-03 4.41035E-04-2.42306E-16
 -1       534 4.06801E-03 4.63131E-04-3.44319E-16
 -1       535 4.34160E-03 5.13630E-04-4.58099E-16
 -1       536 4.62209E-03 6.13610E-04-5.82345E-16
 -1       537 4.19059E-03 5.07800E-04-1.29136E-15
 -1       538 9.56228E-03 1.43426E-03-3.89234E-15
 -1       539 9.82773E-03 1.56043E-03-4.42127E-15
 -1       540 1.01103E-02 1.71210E-03-5.01022E-15
 -1       541 1.03958E-02 1.87426E-03-5.62975E-15
 -1       542 1.06833E-02 2.04152E-03-6.27357E-15
 -1       543 1.09718E-02 2.21075E-03-6.94157E-15
 -1       544 1.12604E-02 2.38030E-03-7.63662E-15
 -1       545 1.15489E-02 2.54931E-03-8.36081E-15
 -1       546 1.18225E-02 2.70905E-03-9.06608E-15
 -1       547 1.21102E-02 2.87622E-03-9.82222E-15
 -1       548 1.23974E-02 3.04241E-03-1.05884E-14
 -1       549 1.26842E-02 3.20769E-03-1.13669E-14
 -1       550 1.29708E-02 3.37219E-03-1.21511E-14
 -1       551 1.32571E-02 3.53602E-03-1.29497E-14
 -1       552 1.35432E-02 3.69928E-03-1.37658E-14
 -1       553 1.38149E-02 3.85395E-03-1.45494E-14
 -1       554 1.41007E-02 4.01640E-03-1.53845E-14
 -1       555 1.43865E-02 4.17855E-03-1.62346E-14
 -1       556 1.46723E-02 4.34047E-03-1.71003E-14
 -1       557 1.49581E-02 4.50223E-03-1.79828E-14
 -1       558 1.52438E-02 4.66387E-03-1.88739E-14
 -1       559 1.54550E-02 4.78454E-03-1.97904E-14
 -1       560 9.07243E-03 1.09379E-03-3.83901E-15
 -1       561 1.48657E-02 4.47178E-03-2.21714E-14
 -1       562 8.88424E-03 1.24597E-03-2.72343E-15
 -1       563 1.47070E-02 4.38754E-03-2.28318E-14
 -1       564 1.45485E-02 4.30331E-03-2.35017E-14
 -1       565 1.43900E-02 4.21908E-03-2.41741E-14
 -1       566 1.42343E-02 4.13627E-03-2.48428E-14
 -1       567 1.40760E-02 4.05203E-03-2.55278E-14
 -1       568 1.39178E-02 3.96778E-03-2.62159E-14
 -1       569 1.37596E-02 3.88351E-03-2.69047E-14
 -1       570 9.10871E-03 1.16647E-03-3.16761E-15
 -1       571 8.80346E-03 1.02185E-03-4.06092E-15
 -1       572 1.53088E-03 4.00800E-04 8.82439E-17
 -1       573 1.51819E-02 4.63958E-03-2.08761E-14
 -1       574 6.68046E-03-6.86249E-05-3.65887E-15
 -1       575 1.53184E-02 4.71206E-03-2.03328E-14
 -1       576 1.50237E-02 4.55567E-03-2.15225E-14
 -1       577 9.28265E-03 1.33429E-03-3.36643E-15
 -1       578 8.99145E-03 1.29143E-03-2.87118E-15
 -1       579 9.17592E-03 1.12813E-03-3.57491E-15
 -1       580 6.61453E-04-3.43246E-05-5.28311E-17
 -1       581 1.29123E-03 3.72786E-04 8.11322E-17
 -1       582 4.77375E-03 7.59527E-04-8.37211E-16
 -1       583 4.41435E-03 6.03592E-04-9.42475E-16
 -1       584 7.93801E-03 6.61977E-04-4.19564E-15
 -1       585 4.22494E-03 5.39206E-04-1.07044E-15
 -1       586 4.31837E-03 4.62833E-04-1.48481E-15
 -1       587 4.56079E-03 3.85275E-04-1.70415E-15
 -1       588 4.85318E-03 2.72601E-04-1.93132E-15
 -1       589 5.29096E-03 7.97975E-05-2.27331E-15
 -1       590 5.62182E-03-6.84665E-05-2.56592E-15
 -1       591 5.96058E-03-1.76391E-04-2.89051E-15
 -1       592 6.29035E-03-1.95898E-04-3.26289E-15
 -1       593 6.95531E-03 7.85438E-05-3.82929E-15
 -1       594 8.41124E-03 8.87429E-04-4.21399E-15
 -1       595 7.14140E-04-2.45192E-04-1.07346E-16
 -1       596 5.07503E-03 8.68049E-04-6.66429E-16
 -1       597 6.76803E-04-1.54019E-04-8.76781E-17
 -1       598 4.14377E-03 4.89277E-04-1.10992E-15
 -1       599 6.92751E-04-1.96405E-04-9.78492E-17
 -1       600 1.35732E-02 3.78264E-03-2.72977E-14
 -1       601 5.01811E-03 1.65550E-04-2.08205E-15
 -1       602 8.95651E-04 7.02543E-05-4.25312E-17
 -1       603 8.93137E-04 2.42939E-05-6.24873E-17
 -1       604 9.10342E-04 1.69113E-04 1.26716E-18
 -1       605 9.24337E-04 2.25772E-04 2.59294E-17
 -1       606 9.85248E-04 2.77275E-04 4.55941E-17
 -1       607 7.22567E-03 2.72616E-04-4.26819E-15
 -1       608 1.38551E-03-3.23175E-04-3.14754E-16
 -1       609 1.67256E-03-3.50781E-04-4.33827E-16
 -1       610 1.96009E-03-3.69292E-04-5.70826E-16
 -1       611 2.24816E-03-3.81150E-04-7.26080E-16
 -1       612 2.53710E-03-3.88576E-04-9.00020E-16
 -1       613 2.82739E-03-3.93589E-04-1.09384E-15
 -1       614 3.11961E-03-3.98049E-04-1.30711E-15
 -1       615 3.41436E-03-4.03667E-04-1.54073E-15
 -1       616 3.71213E-03-4.11924E-04-1.79774E-15
 -1       617 4.01305E-03-4.23842E-04-2.07572E-15
 -1       618 4.31666E-03-4.39521E-04-2.37784E-15
 -1       619 4.62158E-03-4.57425E-04-2.70665E-15
 -1       620 4.92552E-03-4.73528E-04-3.06130E-15
 -1       621 5.22583E-03-4.80724E-04-3.44423E-15
 -1       622 5.52066E-03-4.69301E-04-3.85961E-15
 -1       623 5.81023E-03-4.29102E-04-4.31087E-15
 -1       624 6.09727E-03-3.53067E-04-4.80093E-15
 -1       625 6.38584E-03-2.40270E-04-5.32980E-15
 -1       626 6.67917E-03-9.63661E-05-5.89530E-15
 -1       627 6.97816E-03 6.89233E-05-6.49940E-15
 -1       628 7.28140E-03 2.45499E-04-7.13697E-15
 -1       629 7.58632E-03 4.25430E-04-7.80976E-15
 -1       630 7.89048E-03 6.03799E-04-8.51569E-15
 -1       631 8.19224E-03 7.78319E-04-9.24561E-15
 -1       632 8.49092E-03 9.48452E-04-1.00011E-14
 -1       633 8.78650E-03 1.11462E-03-1.07830E-14
 -1       634 9.07938E-03 1.27763E-03-1.15892E-14
 -1       635 9.37011E-03 1.43839E-03-1.24152E-14
 -1       636 9.65921E-03 1.59768E-03-1.32584E-14
 -1       637 9.94716E-03 1.75615E-03-1.41126E-14
 -1       638 1.02343E-02 1.91428E-03-1.49783E-14
 -1       639 1.05209E-02 2.07238E-03-1.58510E-14
 -1       640 1.08072E-02 2.23068E-03-1.67304E-14
 -1       641 1.10933E-02 2.38928E-03-1.76110E-14
 -1       642 1.13792E-02 2.54825E-03-1.84958E-14
 -1       643 1.16651E-02 2.70759E-03-1.93957E-14
 -1       644 1.19509E-02 2.86727E-03-2.03194E-14
 -1       645 1.22366E-02 3.02725E-03-2.12763E-14
 -1       646 1.25224E-02 3.18751E-03-2.22662E-14
 -1       647 1.28081E-02 3.34797E-03-2.32837E-14
 -1       648 1.30938E-02 3.50861E-03-2.43256E-14
 -1       649 1.33796E-02 3.66937E-03-2.53934E-14
 -1       650 8.18592E-03 8.30708E-04-4.69523E-15
 -1       651 2.21930E-03 3.71386E-04-4.23178E-18
 -1       652 1.93487E-03 3.62072E-04 2.19314E-17
 -1       653 2.78210E-03 3.75655E-04-9.66939E-17
 -1       654 3.05802E-03 3.75041E-04-1.67032E-16
 -1       655 3.32759E-03 3.76229E-04-2.51199E-16
 -1       656 3.57507E-03 3.82443E-04-3.42466E-16
 -1       657 3.82292E-03 3.99145E-04-4.52834E-16
 -1       658 4.05382E-03 4.32873E-04-5.76355E-16
 -1       659 4.26493E-03 4.92439E-04-7.11172E-16
 -1       660 9.91021E-03 1.58103E-03-5.12430E-15
 -1       661 9.67618E-03 1.44701E-03-4.56807E-15
 -1       662 1.04387E-02 1.89528E-03-6.38060E-15
 -1       663 1.07144E-02 2.06034E-03-7.04657E-15
 -1       664 1.09943E-02 2.22729E-03-7.73648E-15
 -1       665 1.12769E-02 2.39479E-03-8.45342E-15
 -1       666 1.15468E-02 2.55375E-03-9.15987E-15
 -1       667 1.18318E-02 2.72053E-03-9.91992E-15
 -1       668 1.21172E-02 2.88659E-03-1.06887E-14
 -1       669 1.24030E-02 3.05190E-03-1.14665E-14
 -1       670 1.26888E-02 3.21649E-03-1.22530E-14
 -1       671 1.29747E-02 3.38044E-03-1.30532E-14
 -1       672 1.32605E-02 3.54383E-03-1.38638E-14
 -1       673 1.35321E-02 3.69861E-03-1.46506E-14
 -1       674 1.38179E-02 3.86117E-03-1.54912E-14
 -1       675 1.41037E-02 4.02340E-03-1.63380E-14
 -1       676 1.43894E-02 4.18539E-03-1.71959E-14
 -1       677 1.46752E-02 4.34719E-03-1.80735E-14
 -1       678 1.49609E-02 4.50886E-03-1.89704E-14
 -1       679 1.51397E-02 4.61047E-03-1.96463E-14
 -1       680 1.43804E-02 4.20577E-03-2.22982E-14
 -1       681 9.19267E-03 1.16300E-03-4.05608E-15
 -1       682 1.45389E-02 4.28993E-03-2.16508E-14
 -1       683 1.40648E-02 4.03818E-03-2.36076E-14
 -1       684 1.39064E-02 3.95401E-03-2.42703E-14
 -1       685 1.37481E-02 3.86982E-03-2.49407E-14
 -1       686 9.25012E-03 1.19553E-03-3.68308E-15
 -1       687 9.44595E-03 1.32513E-03-4.01490E-15
 -1       688 4.17235E-03 4.49233E-04-1.29002E-15
 -1       689 1.64937E-03 3.45142E-04 3.81944E-17
 -1       690 1.42225E-02 4.12198E-03-2.29508E-14
 -1       691 6.43040E-03-1.62380E-04-3.64202E-15
 -1       692 1.01696E-02 1.73435E-03-5.73863E-15
 -1       693 4.57555E-03 6.21751E-04-7.55418E-16
 -1       694 9.18786E-03 1.23660E-03-3.34178E-15
 -1       695 8.66792E-03 1.02466E-03-4.54032E-15
 -1       696 7.65438E-03 5.40654E-04-4.50458E-15
 -1       697 2.50204E-03 3.75210E-04-4.26735E-17
 -1       698 1.09938E-03-2.83928E-04-2.13168E-16
 -1       699 4.36671E-03 3.92310E-04-1.52690E-15
 -1       700 9.01145E-04 1.17901E-04-2.15960E-17
 -1       701 1.35696E-02 3.77643E-03-2.61440E-14
 -1       702 9.01697E-04-1.15802E-04-1.19445E-16
 -1       703 4.25517E-03 5.05437E-04-8.48857E-16
 -1       704 5.38992E-03-1.67451E-05-2.43504E-15
 -1       705 4.59802E-03 3.21429E-04-1.73594E-15
 -1       706 5.74257E-03-1.58437E-04-2.82040E-15
 -1       707 6.81353E-03 2.08008E-05-4.02680E-15
 -1       708 8.99270E-03 1.11518E-03-4.29670E-15
 -1       709 6.04059E-03-2.20075E-04-3.19744E-15
 -1       710 8.94736E-04-2.43279E-04-1.50477E-16
 -1       711 8.93336E-04-2.12083E-05-8.20030E-17
 -1       712 1.22423E-03 3.15448E-04 5.16216E-17
 -1       713 1.48553E-02 4.45777E-03-2.03801E-14
 -1       714 4.11736E-03 4.58569E-04-8.90562E-16
 -1       715 9.10566E-04-1.67772E-04-1.37321E-16
 -1       716 8.96136E-04-6.74038E-05-1.01021E-16
 -1       717 1.46973E-02 4.37393E-03-2.10142E-14
 -1       718 1.35638E-02 3.76959E-03-2.51705E-14
 -1       719 1.49975E-02 4.53411E-03-2.00125E-14
 -1       720 4.73436E-03 2.24396E-04-1.87581E-15
 -1       721 1.43689E-03 3.33945E-04 4.85452E-17
 -1       722 1.16115E-03 2.61680E-04 2.63088E-17
 -1       723 7.03197E-03 1.64744E-04-4.51735E-15
 -1       724 1.79722E-03-2.91077E-04-4.61602E-16
 -1       725 2.08536E-03-3.03529E-04-5.97738E-16
 -1       726 2.37445E-03-3.10812E-04-7.51305E-16
 -1       727 2.66480E-03-3.14673E-04-9.23212E-16
 -1       728 2.95706E-03-3.16797E-04-1.11502E-15
 -1       729 3.25211E-03-3.18855E-04-1.32558E-15
 -1       730 3.55101E-03-3.22558E-04-1.55736E-15
 -1       731 3.85471E-03-3.29609E-04-1.81116E-15
 -1       732 4.16371E-03-3.41453E-04-2.08642E-15
 -1       733 4.47750E-03-3.58649E-04-2.38759E-15
 -1       734 4.79406E-03-3.79739E-04-2.71480E-15
 -1       735 5.10981E-03-3.99660E-04-3.06727E-15
 -1       736 5.42064E-03-4.08648E-04-3.45067E-15
 -1       737 5.72419E-03-3.93088E-04-3.86804E-15
 -1       738 6.02189E-03-3.39922E-04-4.32362E-15
 -1       739 6.31876E-03-2.42633E-04-4.81850E-15
 -1       740 6.62034E-03-1.05173E-04-5.35225E-15
 -1       741 6.92911E-03 6.05957E-05-5.92287E-15
 -1       742 7.24351E-03 2.40596E-04-6.53076E-15
 -1       743 7.55968E-03 4.23928E-04-7.17252E-15
 -1       744 7.87376E-03 6.04249E-04-7.84871E-15
 -1       745 8.18324E-03 7.79187E-04-8.55058E-15
 -1       746 8.48726E-03 9.48689E-04-9.27331E-15
 -1       747 8.78609E-03 1.11373E-03-1.00247E-14
 -1       748 9.08058E-03 1.27552E-03-1.08058E-14
 -1       749 9.37178E-03 1.43519E-03-1.16077E-14
 -1       750 9.66066E-03 1.59362E-03-1.24302E-14
 -1       751 9.94800E-03 1.75144E-03-1.32650E-14
 -1       752 1.02344E-02 1.90910E-03-1.41120E-14
 -1       753 1.05202E-02 2.06688E-03-1.49711E-14
 -1       754 1.08058E-02 2.22496E-03-1.58340E-14
 -1       755 1.10913E-02 2.38342E-03-1.67032E-14
 -1       756 1.13768E-02 2.54228E-03-1.75760E-14
 -1       757 1.16622E-02 2.70153E-03-1.84621E-14
 -1       758 1.19478E-02 2.86115E-03-1.93632E-14
 -1       759 1.22334E-02 3.02110E-03-2.02867E-14
 -1       760 1.25190E-02 3.18131E-03-2.12449E-14
 -1       761 1.28046E-02 3.34175E-03-2.22287E-14
 -1       762 1.30903E-02 3.50237E-03-2.32370E-14
 -1       763 1.33271E-02 3.63595E-03-2.41927E-14
 -1       764 1.22458E-03-2.43395E-04-2.40110E-16
 -1       765 3.15141E-03 3.20462E-04-3.29045E-16
 -1       766 2.88651E-03 3.15471E-04-2.37301E-16
 -1       767 3.63155E-03 3.47711E-04-5.44690E-16
 -1       768 3.84847E-03 3.78549E-04-6.76773E-16
 -1       769 9.95219E-03 1.61011E-03-5.83965E-15
 -1       770 9.72996E-03 1.47624E-03-5.25875E-15
 -1       771 1.07343E-02 2.08075E-03-7.82575E-15
 -1       772 1.04643E-02 1.91884E-03-7.13814E-15
 -1       773 1.12819E-02 2.40590E-03-9.26192E-15
 -1       774 1.15634E-02 2.57129E-03-1.00222E-14
 -1       775 1.18464E-02 2.73651E-03-1.07997E-14
 -1       776 1.21305E-02 2.90133E-03-1.15816E-14
 -1       777 1.24152E-02 3.06565E-03-1.23702E-14
 -1       778 1.27003E-02 3.22947E-03-1.31695E-14
 -1       779 1.29856E-02 3.39281E-03-1.39812E-14
 -1       780 1.32569E-02 3.54758E-03-1.47689E-14
 -1       781 1.35425E-02 3.71015E-03-1.56114E-14
 -1       782 1.38281E-02 3.87241E-03-1.64611E-14
 -1       783 1.41138E-02 4.03443E-03-1.73205E-14
 -1       784 1.43996E-02 4.19625E-03-1.81919E-14
 -1       785 1.46853E-02 4.35793E-03-1.90841E-14
 -1       786 1.42123E-02 4.10815E-03-2.11352E-14
 -1       787 1.35798E-02 3.77256E-03-2.36993E-14
 -1       788 1.37382E-02 3.85667E-03-2.30484E-14
 -1       789 9.51836E-03 1.34946E-03-4.68010E-15
 -1       790 4.05389E-03 4.29133E-04-1.06339E-15
 -1       791 9.01356E-04-2.04519E-04-1.44578E-16
 -1       792 1.77072E-03 2.88387E-04-2.41642E-17
 -1       793 1.10063E-02 2.24283E-03-8.52991E-15
 -1       794 3.39893E-03 3.29996E-04-4.30452E-16
 -1       795 2.05433E-03 3.00812E-04-5.65987E-17
 -1       796 1.51009E-03-2.71630E-04-3.42472E-16
 -1       797 1.45289E-02 4.27599E-03-1.98870E-14
 -1       798 1.02024E-02 1.76106E-03-6.47650E-15
 -1       799 6.58292E-03-9.21541E-05-4.10121E-15
 -1       800 2.33583E-03 3.08071E-04-1.01407E-16
 -1       801 8.92944E-03 1.13654E-03-4.84834E-15
 -1       802 7.91242E-03 7.00399E-04-5.10484E-15
 -1       803 2.61383E-03 3.12211E-04-1.60641E-16
 -1       804 1.43705E-02 4.19205E-03-2.05074E-14
 -1       805 6.18978E-03-2.26980E-04-3.59836E-15
 -1       806 7.40393E-03 3.99306E-04-4.76270E-15
 -1       807 9.34305E-03 1.24894E-03-4.36323E-15
 -1       808 5.79378E-03-2.26115E-04-3.09213E-15
 -1       809 9.16992E-03 1.19861E-03-4.60703E-15
 -1       810 4.15571E-03 3.76769E-04-1.31669E-15
 -1       811 5.06108E-03 4.54317E-05-2.21805E-15
 -1       812 1.13130E-03 5.64760E-05-8.37614E-17
 -1       813 4.38635E-03 2.98566E-04-1.57730E-15
 -1       814 8.53873E-03 1.00370E-03-5.15092E-15
 -1       815 5.46470E-03-1.27010E-04-2.66351E-15
 -1       816 4.10392E-03 4.45044E-04-7.54794E-16
 -1       817 1.40544E-02 4.02444E-03-2.17662E-14
 -1       818 1.14694E-03-1.66664E-04-1.93012E-16
 -1       819 5.94561E-03-2.68941E-04-3.47329E-15
 -1       820 1.38959E-02 3.94039E-03-2.24068E-14
 -1       821 3.98599E-03 3.71768E-04-1.09341E-15
 -1       822 1.13644E-03 1.11376E-04-5.43694E-17
 -1       823 1.13767E-03-1.07820E-04-1.67032E-16
 -1       824 8.28714E-03 8.93866E-04-5.57855E-15
 -1       825 1.20971E-03 2.00185E-04-1.34780E-17
 -1       826 1.12993E-03 2.40115E-06-1.12083E-16
 -1       827 1.55887E-03 2.82117E-04-8.16540E-19
 -1       828 1.34534E-02 3.70426E-03-2.39469E-14
 -1       829 9.35854E-03 1.29131E-03-4.97433E-15
 -1       830 2.21299E-03-2.35305E-04-6.16464E-16
 -1       831 2.50234E-03-2.38072E-04-7.68391E-16
 -1       832 2.79332E-03-2.38076E-04-9.37540E-16
 -1       833 3.08685E-03-2.36669E-04-1.12630E-15
 -1       834 3.38425E-03-2.35393E-04-1.33576E-15
 -1       835 3.68717E-03-2.36126E-04-1.56315E-15
 -1       836 3.99725E-03-2.41138E-04-1.81224E-15
 -1       837 4.31550E-03-2.52866E-04-2.08615E-15
 -1       838 4.64140E-03-2.72972E-04-2.38432E-15
 -1       839 4.97198E-03-3.00488E-04-2.70746E-15
 -1       840 5.30146E-03-3.28243E-04-3.05867E-15
 -1       841 5.62340E-03-3.41756E-04-3.44279E-15
 -1       842 5.93625E-03-3.20010E-04-3.86291E-15
 -1       843 6.24310E-03-2.46444E-04-4.32286E-15
 -1       844 6.55341E-03-1.19188E-04-4.82340E-15
 -1       845 6.87297E-03 4.88294E-05-5.36294E-15
 -1       846 7.20002E-03 2.36087E-04-5.94037E-15
 -1       847 7.53003E-03 4.26380E-04-6.55010E-15
 -1       848 7.85636E-03 6.10379E-04-7.19670E-15
 -1       849 8.17524E-03 7.85850E-04-7.87141E-15
 -1       850 8.48558E-03 9.53863E-04-8.56789E-15
 -1       851 8.78806E-03 1.11652E-03-9.28792E-15
 -1       852 9.08422E-03 1.27585E-03-1.00392E-14
 -1       853 9.37575E-03 1.43338E-03-1.08154E-14
 -1       854 9.66415E-03 1.59015E-03-1.16153E-14
 -1       855 9.95060E-03 1.74679E-03-1.24335E-14
 -1       856 1.02359E-02 1.90367E-03-1.32614E-14
 -1       857 1.05208E-02 2.06098E-03-1.41031E-14
 -1       858 1.08054E-02 2.21878E-03-1.49517E-14
 -1       859 1.10901E-02 2.37709E-03-1.58061E-14
 -1       860 1.13749E-02 2.53589E-03-1.66631E-14
 -1       861 1.16599E-02 2.69513E-03-1.75396E-14
 -1       862 1.19450E-02 2.85476E-03-1.84280E-14
 -1       863 1.22304E-02 3.01472E-03-1.93269E-14
 -1       864 1.25158E-02 3.17495E-03-2.02509E-14
 -1       865 1.28013E-02 3.33540E-03-2.12006E-14
 -1       866 1.30869E-02 3.49604E-03-2.21816E-14
 -1       867 1.89462E-03 2.31109E-04-9.72699E-17
 -1       868 3.70555E-03 3.30024E-04-7.48279E-16
 -1       869 1.42432E-02 4.11441E-03-1.89806E-14
 -1       870 6.32744E-03-2.01208E-04-4.07691E-15
 -1       871 9.73319E-03 1.50290E-03-5.94776E-15
 -1       872 1.15702E-02 2.58442E-03-1.08775E-14
 -1       873 1.12899E-02 2.42083E-03-1.00967E-14
 -1       874 1.21355E-02 2.91181E-03-1.24575E-14
 -1       875 1.24195E-02 3.07519E-03-1.32586E-14
 -1       876 1.27042E-02 3.23826E-03-1.40709E-14
 -1       877 1.29750E-02 3.39288E-03-1.48551E-14
 -1       878 1.32603E-02 3.55535E-03-1.56991E-14
 -1       879 1.35457E-02 3.71756E-03-1.65553E-14
 -1       880 1.38313E-02 3.87954E-03-1.74180E-14
 -1       881 1.40372E-02 3.99704E-03-1.81940E-14
 -1       882 1.13208E-03-5.19242E-05-1.40021E-16
 -1       883 3.95315E-03 3.97908E-04-8.62069E-16
 -1       884 9.52104E-03 1.36789E-03-5.13431E-15
 -1       885 2.72709E-03 2.54223E-04-2.93700E-16
 -1       886 1.63792E-03-2.16339E-04-3.63845E-16
 -1       887 8.88879E-03 1.15218E-03-5.51808E-15
 -1       888 6.79743E-03 2.27692E-05-4.68184E-15
 -1       889 1.34116E-02 3.67527E-03-2.24966E-14
 -1       890 5.12451E-03-9.65031E-05-2.44347E-15
 -1       891 2.45393E-03 2.47738E-04-2.12890E-16
 -1       892 1.18522E-02 2.74817E-03-1.16659E-14
 -1       893 5.51141E-03-2.25898E-04-2.93022E-15
 -1       894 2.17584E-03 2.40720E-04-1.48248E-16
 -1       895 1.04762E-02 1.94128E-03-7.90300E-15
 -1       896 4.67919E-03 1.02397E-04-1.93133E-15
 -1       897 1.40440E-02 4.01032E-03-2.00120E-14
 -1       898 7.23175E-03 2.88184E-04-5.05412E-15
 -1       899 1.39114E-03-1.93537E-04-2.72033E-16
 -1       900 2.99309E-03 2.62568E-04-3.91573E-16
 -1       901 9.16527E-03 1.23767E-03-5.22281E-15
 -1       902 4.09754E-03 2.78217E-04-1.33791E-15
 -1       903 7.69268E-03 5.69555E-04-5.40862E-15
 -1       904 1.92483E-03-2.28488E-04-4.81789E-16
 -1       905 1.68369E-03 2.28589E-04-6.09017E-17
 -1       906 1.07416E-02 2.09832E-03-8.60643E-15
 -1       907 1.32702E-02 3.60013E-03-2.30522E-14
 -1       908 3.48727E-03 2.99412E-04-6.14834E-16
 -1       909 3.24283E-03 2.75169E-04-5.00888E-16
 -1       910 8.06491E-03 7.73139E-04-5.89705E-15
 -1       911 9.96992E-03 1.64194E-03-6.57985E-15
 -1       912 1.40705E-03 1.68426E-04-6.07560E-17
 -1       913 1.10156E-02 2.25990E-03-9.34612E-15
 -1       914 1.35694E-02 3.75891E-03-2.18711E-14
 -1       915 1.38861E-02 3.92672E-03-2.06227E-14
 -1       916 3.89870E-03 2.91796E-04-1.12010E-15
 -1       917 3.84341E-03 3.47470E-04-9.13549E-16
 -1       918 8.66529E-03 1.06977E-03-5.96396E-15
 -1       919 1.02180E-02 1.78840E-03-7.22969E-15
 -1       920 4.75387E-03-4.11485E-05-2.13433E-15
 -1       921 1.37060E-03 3.40562E-05-1.42132E-16
 -1       922 1.37426E-03 9.48689E-05-1.03646E-16
 -1       923 1.37962E-03-1.27453E-04-2.37640E-16
 -1       924 4.32912E-03 1.29122E-04-1.65561E-15
 -1       925 1.37277E-02 3.84282E-03-2.12437E-14
 -1       926 2.63091E-03-1.63038E-04-7.75980E-16
 -1       927 2.92142E-03-1.58778E-04-9.42002E-16
 -1       928 3.21499E-03-1.52995E-04-1.12781E-15
 -1       929 3.51352E-03-1.47170E-04-1.33282E-15
 -1       930 3.81950E-03-1.43569E-04-1.55674E-15
 -1       931 4.13561E-03-1.45534E-04-1.80153E-15
 -1       932 4.46391E-03-1.57252E-04-2.07208E-15
 -1       933 4.80396E-03-1.82891E-04-2.36593E-15
 -1       934 7.50184E-03 4.32015E-04-5.94456E-15
 -1       935 7.84273E-03 6.22768E-04-6.56211E-15
 -1       936 8.17244E-03 7.99423E-04-7.20755E-15
 -1       937 8.48935E-03 9.65062E-04-7.87975E-15
 -1       938 8.79501E-03 1.12382E-03-8.57297E-15
 -1       939 9.09205E-03 1.27915E-03-9.29098E-15
 -1       940 9.38310E-03 1.43326E-03-1.00403E-14
 -1       941 9.67030E-03 1.58743E-03-1.08138E-14
 -1       942 9.95527E-03 1.74224E-03-1.16108E-14
 -1       943 1.02391E-02 1.89794E-03-1.24245E-14
 -1       944 1.05225E-02 2.05456E-03-1.32486E-14
 -1       945 1.08060E-02 2.21201E-03-1.40801E-14
 -1       946 1.10896E-02 2.37018E-03-1.49202E-14
 -1       947 1.13736E-02 2.52897E-03-1.57673E-14
 -1       948 1.16580E-02 2.68827E-03-1.66259E-14
 -1       949 1.19427E-02 2.84798E-03-1.75017E-14
 -1       950 1.22276E-02 3.00803E-03-1.83879E-14
 -1       951 1.25128E-02 3.16835E-03-1.92859E-14
 -1       952 1.27981E-02 3.32887E-03-2.02033E-14
 -1       953 1.30836E-02 3.48957E-03-2.11507E-14
 -1       954 2.84671E-03 2.00396E-04-4.41348E-16
 -1       955 1.24233E-02 3.08445E-03-1.41474E-14
 -1       956 1.21394E-02 2.92192E-03-1.33371E-14
 -1       957 1.29784E-02 3.40095E-03-1.57800E-14
 -1       958 1.32635E-02 3.56299E-03-1.66387E-14
 -1       959 1.35489E-02 3.72486E-03-1.75104E-14
 -1       960 2.57662E-03 1.90174E-04-3.39030E-16
 -1       961 9.42449E-03 1.35389E-03-5.60757E-15
 -1       962 1.12946E-02 2.43472E-03-1.09430E-14
 -1       963 1.37138E-03-2.68401E-05-1.79920E-16
 -1       964 5.05748E-03-1.99771E-04-2.57617E-15
 -1       965 1.38381E-02 3.89311E-03-1.92120E-14
 -1       966 9.19283E-03 1.28148E-03-5.93626E-15
 -1       967 2.05468E-03-1.63128E-04-4.94806E-16
 -1       968 1.76833E-03-1.57418E-04-3.77899E-16
 -1       969 1.57325E-03-1.43098E-04-3.03560E-16
 -1       970 1.27006E-02 3.24278E-03-1.49543E-14
 -1       971 1.37415E-03-7.64597E-05-2.09298E-16
 -1       972 2.34220E-03-1.64760E-04-6.26892E-16
 -1       973 1.74237E-03 1.67557E-04-1.23264E-16
 -1       974 2.30109E-03 1.81886E-04-2.53629E-16
 -1       975 3.10290E-03 2.14526E-04-5.56538E-16
 -1       976 3.59265E-03 2.74206E-04-8.09252E-16
 -1       977 8.44856E-03 9.67490E-04-6.29885E-15
 -1       978 1.36802E-02 3.80963E-03-1.98078E-14
 -1       979 1.10203E-02 2.27548E-03-1.01732E-14
 -1       980 1.18565E-02 2.75932E-03-1.25340E-14
 -1       981 1.36935E-02 3.80906E-03-1.83585E-14
 -1       982 1.61332E-03 5.46647E-06-2.20286E-16
 -1       983 7.94436E-03 6.95021E-04-6.23151E-15
 -1       984 1.15747E-02 2.59682E-03-1.17374E-14
 -1       985 3.90156E-03 2.05979E-04-1.23371E-15
 -1       986 1.61453E-03 7.12781E-05-1.72083E-16
 -1       987 9.00448E-03 1.22008E-03-6.40109E-15
 -1       988 1.02157E-02 1.80867E-03-7.97710E-15
 -1       989 4.40320E-03-8.72502E-07-1.83875E-15
 -1       990 2.02187E-03 1.73475E-04-1.83481E-16
 -1       991 9.55406E-03 1.44374E-03-6.38491E-15
 -1       992 1.04770E-02 1.95972E-03-8.67579E-15
 -1       993 9.79639E-03 1.57598E-03-7.02496E-15
 -1       994 2.75908E-03-8.61296E-05-7.73565E-16
 -1       995 3.04743E-03-7.71582E-05-9.36280E-16
 -1       996 3.33895E-03-6.59841E-05-1.11931E-15
 -1       997 3.63623E-03-5.40907E-05-1.31866E-15
 -1       998 3.94280E-03-4.43283E-05-1.53835E-15
 -1       999 8.27768E-03 8.67607E-04-6.86333E-15
 -1      1000 8.59485E-03 1.02694E-03-7.51899E-15
 -1      1001 8.89792E-03 1.17939E-03-8.19937E-15
 -1      1002 9.19178E-03 1.32962E-03-8.90112E-15
 -1      1003 9.47961E-03 1.47999E-03-9.63371E-15
 -1      1004 9.76394E-03 1.63165E-03-1.03904E-14
 -1      1005 1.00465E-02 1.78495E-03-1.11732E-14
 -1      1006 1.03284E-02 1.93986E-03-1.19776E-14
 -1      1007 1.06104E-02 2.09615E-03-1.27924E-14
 -1      1008 1.08927E-02 2.25359E-03-1.36141E-14
 -1      1009 1.11755E-02 2.41192E-03-1.44435E-14
 -1      1010 1.14589E-02 2.57095E-03-1.52840E-14
 -1      1011 1.17428E-02 2.73052E-03-1.61353E-14
 -1      1012 1.20271E-02 2.89049E-03-1.70026E-14
 -1      1013 1.23118E-02 3.05077E-03-1.78817E-14
 -1      1014 1.25968E-02 3.21128E-03-1.87703E-14
 -1      1015 1.28821E-02 3.37197E-03-1.96739E-14
 -1      1016 1.31675E-02 3.53279E-03-2.06015E-14
 -1      1017 3.35466E-03 2.39930E-04-6.77274E-16
 -1      1018 1.32667E-02 3.57044E-03-1.75892E-14
 -1      1019 1.29816E-02 3.40878E-03-1.67158E-14
 -1      1020 2.70729E-03 1.33948E-04-4.79858E-16
 -1      1021 1.90099E-03-9.51206E-05-3.85068E-16
 -1      1022 1.07465E-02 2.11629E-03-9.41244E-15
 -1      1023 1.00037E-02 1.68973E-03-7.49425E-15
 -1      1024 2.47229E-03-9.23074E-05-6.28393E-16
 -1      1025 1.61516E-03-4.80209E-05-2.57796E-16
 -1      1026 1.85912E-03 1.09157E-04-2.02939E-16
 -1      1027 2.18629E-03-9.53693E-05-4.99326E-16
 -1      1028 1.21426E-02 2.93149E-03-1.42195E-14
 -1      1029 3.99213E-03 8.90926E-05-1.43365E-15
 -1      1030 3.54896E-03 2.08548E-04-9.12871E-16
 -1      1031 9.40222E-03 1.39827E-03-6.87106E-15
 -1      1032 1.24194E-02 3.08927E-03-1.50253E-14
 -1      1033 1.02067E-02 1.82416E-03-8.73788E-15
 -1      1034 1.34112E-02 3.65460E-03-1.84372E-14
 -1      1035 8.80595E-03 1.13645E-03-6.75214E-15
 -1      1036 1.35218E-02 3.72586E-03-2.04086E-14
 -1      1037 1.10201E-02 2.28821E-03-1.10041E-14
 -1      1038 2.43230E-03 1.23607E-04-3.73792E-16
 -1      1039 1.18596E-02 2.76975E-03-1.34068E-14
 -1      1040 1.35457E-02 3.73215E-03-1.91162E-14
 -1      1041 1.27038E-02 3.25108E-03-1.58747E-14
 -1      1042 2.97100E-03 1.47614E-04-5.99194E-16
 -1      1043 8.35875E-03 9.16996E-04-6.58222E-15
 -1      1044 1.12988E-02 2.44827E-03-1.18005E-14
 -1      1045 2.15388E-03 1.15250E-04-2.83915E-16
 -1      1046 1.89549E-03-3.69602E-05-3.38837E-16
 -1      1047 9.98862E-03 1.70452E-03-8.23761E-15
 -1      1048 3.59993E-03 1.19249E-04-1.08941E-15
 -1      1049 1.85579E-03 3.99685E-05-2.63024E-16
 -1      1050 2.88581E-03-8.24674E-06-7.61239E-16
 -1      1051 3.16948E-03 5.90182E-06-9.20928E-16
 -1      1052 3.45565E-03 2.34211E-05-1.09877E-15
 -1      1053 1.04750E-02 1.97610E-03-9.46860E-15
 -1      1054 9.21289E-03 1.33603E-03-8.17910E-15
 -1      1055 9.49591E-03 1.48074E-03-8.88027E-15
 -1      1056 9.77598E-03 1.62843E-03-9.60870E-15
 -1      1057 1.00549E-02 1.77914E-03-1.03633E-14
 -1      1058 1.03340E-02 1.93251E-03-1.11473E-14
 -1      1059 1.06136E-02 2.08802E-03-1.19485E-14
 -1      1060 1.08942E-02 2.24517E-03-1.27582E-14
 -1      1061 1.11756E-02 2.40353E-03-1.35754E-14
 -1      1062 1.14580E-02 2.56276E-03-1.44045E-14
 -1      1063 1.17412E-02 2.72259E-03-1.52418E-14
 -1      1064 1.20250E-02 2.88285E-03-1.60927E-14
 -1      1065 1.23093E-02 3.04340E-03-1.69580E-14
 -1      1066 1.25940E-02 3.20414E-03-1.78343E-14
 -1      1067 1.28791E-02 3.36503E-03-1.87203E-14
 -1      1068 2.11732E-03 1.30787E-05-3.74944E-16
 -1      1069 1.29846E-02 3.41634E-03-1.76542E-14
 -1      1070 2.15024E-03-4.02793E-05-4.36862E-16
 -1      1071 3.23325E-03 1.72244E-04-7.27489E-16
 -1      1072 9.22759E-03 1.33160E-03-7.24082E-15
 -1      1073 1.15785E-02 2.60876E-03-1.26008E-14
 -1      1074 9.65537E-03 1.53198E-03-7.63460E-15
 -1      1075 2.60265E-03-1.87398E-05-6.19588E-16
 -1      1076 1.33873E-02 3.64850E-03-1.97049E-14
 -1      1077 2.37671E-03-3.06280E-05-5.23917E-16
 -1      1078 1.01966E-02 1.83616E-03-9.51735E-15
 -1      1079 3.74757E-03 4.32970E-05-1.29310E-15
 -1      1080 8.92343E-03 1.19312E-03-7.50133E-15
 -1      1081 9.97304E-03 1.71494E-03-8.99600E-15
 -1      1082 1.27068E-02 3.25902E-03-1.68017E-14
 -1      1083 2.57151E-03 6.44528E-05-5.08613E-16
 -1      1084 1.21418E-02 2.93846E-03-1.51004E-14
 -1      1085 1.18584E-02 2.77738E-03-1.42726E-14
 -1      1086 1.07447E-02 2.13015E-03-1.02213E-14
 -1      1087 1.10199E-02 2.30011E-03-1.18467E-14
 -1      1088 2.34529E-03 3.76750E-05-4.39288E-16
 -1      1089 1.07426E-02 2.14264E-03-1.10483E-14
 -1      1090 2.84170E-03 7.62890E-05-6.30901E-16
 -1      1091 3.28614E-03 8.85630E-05-8.95107E-16
 -1      1092 1.24240E-02 3.09870E-03-1.59434E-14
 -1      1093 1.04684E-02 1.98793E-03-1.02737E-14
 -1      1094 9.79210E-03 1.62393E-03-8.84218E-15
 -1      1095 1.14572E-02 2.55364E-03-1.35365E-14
 -1      1096 9.43740E-03 1.44170E-03-8.08320E-15
 -1      1097 1.12989E-02 2.45893E-03-1.26519E-14
 -1      1098 0.00000E+00 0.00000E+00 0.00000E+00
 -1      1099 0.00000E+00 0.00000E+00 0.00000E+00
 -1      1100 0.00000E+00 0.00000E+00 0.00000E+00
 -1      1101 0.00000E+00 0.00000E+00 0.00000E+00
 -1      1102 0.00000E+00 0.00000E+00 0.00000E+00
 -1      1103 0.00000E+00 0.00000E+00 0.00000E+00
 -1      1104 0.00000E+00 0.00000E+00 0.00000E+00
 -1      1105 0.00000E+00 0.00000E+00 0.00000E+00
 -1      1106 0.00000E+00 0.00000E+00 0.00000E+00
 -1      1107 0.00000E+00 0.00000E+00 0.00000E+00
 -1      1108 0.00000E+00 0.00000E+00 0.00000E+00
 -1      1109 0.00000E+00 0.00000E+00 0.00000E+00
 -1      1110 0.00000E+00 0.00000E+00 0.00000E+00
 -1      1111 0.00000E+00 0.00000E+00 0.00000E+00
 -1      1112 0.00000E+00 0.00000E+00 0.00000E+00
 -1      1113 0.00000E+00 0.00000E+00 0.00000E+00
 -1      1114 0.00000E+00 0.00000E+00 0.00000E+00
 -1      1115 2.10975E-04-1.47459E-04-9.75782E-18
 -1      1116 5.50424E-04-3.34338E-04-4.91821E-17
 -1      1117 8.32650E-04-4.53173E-04-1.14180E-16
 -1      1118 1.10338E-03-5.32091E-04-2.07516E-16
 -1      1119 1.37073E-03-5.86547E-04-3.25911E-16
 -1      1120 1.63840E-03-6.24544E-04-4.66099E-16
 -1      1121 1.90838E-03-6.50925E-04-6.27401E-16
 -1      1122 2.18167E-03-6.69119E-04-8.10035E-16
 -1      1123 2.45866E-03-6.81852E-04-1.01687E-15
 -1      1124 2.73927E-03-6.91414E-04-1.24808E-15
 -1      1125 3.02305E-03-6.99759E-04-1.50075E-15
 -1      1126 3.30909E-03-7.08506E-04-1.77202E-15
 -1      1127 3.59599E-03-7.18813E-04-2.06255E-15
 -1      1128 3.88183E-03-7.31150E-04-2.37866E-15
 -1      1129 4.16421E-03-7.44970E-04-2.72100E-15
 -1      1130 4.44045E-03-7.58339E-04-3.09052E-15
 -1      1131 4.70807E-03-7.67685E-04-3.48618E-15
 -1      1132 4.96538E-03-7.67845E-04-3.91035E-15
 -1      1133 5.21213E-03-7.52615E-04-4.36784E-15
 -1      1134 5.44999E-03-7.15826E-04-4.85967E-15
 -1      1135 5.68250E-03-6.52742E-04-5.38938E-15
 -1      1136 5.91449E-03-5.61307E-04-5.95869E-15
 -1      1137 6.15095E-03-4.42733E-04-6.56054E-15
 -1      1138 6.39589E-03-3.01152E-04-7.20385E-15
 -1      1139 6.65159E-03-1.42512E-04-7.88982E-15
 -1      1140 6.91839E-03 2.68202E-05-8.60980E-15
 -1      1141 7.19507E-03 2.01240E-04-9.36524E-15
 -1      1142 7.47948E-03 3.76576E-04-1.01515E-14
 -1      1143 7.76918E-03 5.50231E-04-1.09701E-14
 -1      1144 8.06194E-03 7.20963E-04-1.18156E-14
 -1      1145 8.35596E-03 8.88502E-04-1.26810E-14
 -1      1146 8.64999E-03 1.05316E-03-1.35675E-14
 -1      1147 8.94324E-03 1.21552E-03-1.44653E-14
 -1      1148 9.23534E-03 1.37623E-03-1.53669E-14
 -1      1149 9.52617E-03 1.53589E-03-1.62735E-14
 -1      1150 9.81578E-03 1.69496E-03-1.71849E-14
 -1      1151 1.01043E-02 1.85382E-03-1.80922E-14
 -1      1152 1.03920E-02 2.01270E-03-1.89997E-14
 -1      1153 1.06790E-02 2.17175E-03-1.99120E-14
 -1      1154 1.09654E-02 2.33105E-03-2.08404E-14
 -1      1155 1.12516E-02 2.49064E-03-2.18122E-14
 -1      1156 1.15374E-02 2.65051E-03-2.28176E-14
 -1      1157 1.18231E-02 2.81063E-03-2.38618E-14
 -1      1158 1.21087E-02 2.97097E-03-2.49416E-14
 -1      1159 1.23943E-02 3.13150E-03-2.60406E-14
 -1      1160 1.26799E-02 3.29216E-03-2.71469E-14
 -1      1161 1.29655E-02 3.45293E-03-2.82827E-14
 -1      1162 1.32512E-02 3.61376E-03-2.94348E-14
 -1      1163 1.35368E-02 3.77461E-03-3.05924E-14
 -1      1164 1.38154E-02 3.93143E-03-3.17403E-14
 -1      1165 2.02206E-04 1.42220E-04 1.59378E-17
 -1      1166 5.35434E-04 3.27025E-04 5.46844E-17
 -1      1167 8.18335E-04 4.47634E-04 9.92181E-17
 -1      1168 1.08922E-03 5.27194E-04 1.47384E-16
 -1      1169 1.35665E-03 5.81314E-04 1.94438E-16
 -1      1170 1.62462E-03 6.17981E-04 2.36546E-16
 -1      1171 1.89559E-03 6.41832E-04 2.72284E-16
 -1      1172 2.16431E-03 6.55737E-04 3.01124E-16
 -1      1173 2.43892E-03 6.62642E-04 3.23079E-16
 -1      1174 2.72845E-03 6.64446E-04 3.33446E-16
 -1      1175 3.02837E-03 6.62945E-04 3.29110E-16
 -1      1176 3.34219E-03 6.60722E-04 3.09336E-16
 -1      1177 3.67493E-03 6.61739E-04 2.75198E-16
 -1      1178 4.03341E-03 6.72881E-04 2.28943E-16
 -1      1179 4.41573E-03 7.05257E-04 1.72754E-16
 -1      1180 4.83799E-03 7.78778E-04 1.11957E-16
 -1      1181 5.31462E-03 9.28889E-04 3.81368E-17
 -1      1182 5.82013E-03 1.19222E-03-4.42219E-17
 -1      1183 6.30701E-03 1.57772E-03-1.41461E-16
 -1      1184 6.68004E-03 1.97800E-03-2.60534E-16
 -1      1185 6.92506E-03 2.25443E-03-3.95652E-16
 -1      1186 7.11160E-03 2.34794E-03-5.47820E-16
 -1      1187 7.33514E-03 2.25280E-03-7.40429E-16
 -1      1188 7.68939E-03 2.00501E-03-1.01447E-15
 -1      1189 8.16273E-03 1.75527E-03-1.36672E-15
 -1      1190 8.67156E-03 1.62011E-03-1.77462E-15
 -1      1191 9.16024E-03 1.60558E-03-2.22740E-15
 -1      1192 9.60683E-03 1.67631E-03-2.71643E-15
 -1      1193 1.00109E-02 1.79717E-03-3.24087E-15
 -1      1194 1.03714E-02 1.94066E-03-3.78480E-15
 -1      1195 1.07070E-02 2.09669E-03-4.35634E-15
 -1      1196 1.10328E-02 2.26272E-03-4.97193E-15
 -1      1197 1.13456E-02 2.43104E-03-5.62027E-15
 -1      1198 1.16495E-02 2.59979E-03-6.29520E-15
 -1      1199 1.19473E-02 2.76813E-03-6.98827E-15
 -1      1200 1.22410E-02 2.93567E-03-7.70513E-15
 -1      1201 1.25246E-02 3.09816E-03-8.43311E-15
 -1      1202 1.28064E-02 3.25982E-03-9.17493E-15
 -1      1203 1.30941E-02 3.42482E-03-9.94085E-15
 -1      1204 1.33809E-02 3.58911E-03-1.07064E-14
 -1      1205 1.36672E-02 3.75279E-03-1.14840E-14
 -1      1206 1.39532E-02 3.91595E-03-1.22875E-14
 -1      1207 1.42389E-02 4.07869E-03-1.30866E-14
 -1      1208 1.45173E-02 4.23703E-03-1.38798E-14
 -1      1209 1.47957E-02 4.39511E-03-1.46878E-14
 -1      1210 1.50812E-02 4.55703E-03-1.55367E-14
 -1      1211 1.53668E-02 4.71880E-03-1.63989E-14
 -1      1212 1.56524E-02 4.88045E-03-1.72632E-14
 -1      1213 1.59380E-02 5.04205E-03-1.81386E-14
 -1      1214 1.62237E-02 5.20362E-03-1.90228E-14
 -1      1215 1.65022E-02 5.36117E-03-1.98907E-14
 -1      1216 1.65585E-02 5.39579E-03-2.06533E-14
 -1      1217 1.63996E-02 5.31149E-03-2.13159E-14
 -1      1218 1.62406E-02 5.22717E-03-2.19958E-14
 -1      1219 1.60817E-02 5.14281E-03-2.26654E-14
 -1      1220 1.59228E-02 5.05842E-03-2.33562E-14
 -1      1221 1.57654E-02 4.97472E-03-2.40457E-14
 -1      1222 1.56080E-02 4.89100E-03-2.47394E-14
 -1      1223 1.54494E-02 4.80656E-03-2.54376E-14
 -1      1224 1.52908E-02 4.72212E-03-2.61639E-14
 -1      1225 1.51323E-02 4.63769E-03-2.68950E-14
 -1      1226 1.49739E-02 4.55326E-03-2.76352E-14
 -1      1227 1.48170E-02 4.46956E-03-2.83886E-14
 -1      1228 1.46601E-02 4.38587E-03-2.91363E-14
 -1      1229 1.45019E-02 4.30149E-03-2.98650E-14
 -1      1230 1.43438E-02 4.21714E-03-3.05791E-14
 -1      1231 1.41856E-02 4.13282E-03-3.12887E-14
 -1      1232 1.40288E-02 4.04925E-03-3.19775E-14
 -1      1233 9.13610E-03 1.05668E-03-2.91896E-15
 -1      1234 9.09251E-03 1.21898E-03-2.70626E-15
 -1      1235 8.93185E-03 1.39179E-03-2.48103E-15
 -1      1236 8.67110E-03 1.57409E-03-2.24242E-15
 -1      1237 8.30858E-03 1.76787E-03-1.98936E-15
 -1      1238 7.85472E-03 1.94774E-03-1.75107E-15
 -1      1239 7.35944E-03 2.06108E-03-1.54526E-15
 -1      1240 6.85085E-03 2.07836E-03-1.38114E-15
 -1      1241 6.32899E-03 1.98583E-03-1.25927E-15
 -1      1242 5.81947E-03 1.80274E-03-1.17568E-15
 -1      1243 5.34415E-03 1.56589E-03-1.13305E-15
 -1      1244 4.92618E-03 1.31667E-03-1.13977E-15
 -1      1245 4.58960E-03 1.08362E-03-1.18669E-15
 -1      1246 4.35392E-03 8.80702E-04-1.26472E-15
 -1      1247 4.22955E-03 7.07697E-04-1.36792E-15
 -1      1248 4.21423E-03 5.48730E-04-1.49707E-15
 -1      1249 4.30782E-03 4.04246E-04-1.65466E-15
 -1      1250 4.49893E-03 2.68919E-04-1.84126E-15
 -1      1251 4.78029E-03 1.38943E-04-2.04537E-15
 -1      1252 5.12778E-03 2.49391E-05-2.24975E-15
 -1      1253 5.51531E-03-6.07442E-05-2.45013E-15
 -1      1254 5.93964E-03-1.08068E-04-2.65131E-15
 -1      1255 6.40608E-03-1.03885E-04-2.84793E-15
 -1      1256 6.88208E-03-4.29933E-05-3.01850E-15
 -1      1257 7.34489E-03 6.73053E-05-3.14917E-15
 -1      1258 7.79522E-03 2.15966E-04-3.24054E-15
 -1      1259 8.21790E-03 3.86968E-04-3.28836E-15
 -1      1260 8.58163E-03 5.62050E-04-3.27945E-15
 -1      1261 8.87044E-03 7.33784E-04-3.20905E-15
 -1      1262 9.06156E-03 8.98741E-04-3.08956E-15
 -1      1263 1.66498E-04-1.09538E-04-1.23599E-17
 -1      1264 1.12710E-04-5.61517E-05-1.19533E-17
 -1      1265 1.17712E-04-6.68353E-05-1.18720E-17
 -1      1266 1.08625E-04-4.25172E-05-1.18178E-17
 -1      1267 1.10476E-04-4.86851E-05-1.21431E-17
 -1      1268 2.26742E-04-1.05794E-04-2.87856E-17
 -1      1269 1.07017E-04-3.25789E-05-1.06116E-17
 -1      1270 1.07886E-04-3.73159E-05-1.10995E-17
 -1      1271 2.19526E-04-8.04421E-05-2.73354E-17
 -1      1272 1.06159E-04-2.43486E-05-9.39190E-18
 -1      1273 1.06634E-04-2.83420E-05-9.79848E-18
 -1      1274 2.16179E-04-6.12130E-05-2.45436E-17
 -1      1275 1.05664E-04-1.72380E-05-7.84691E-18
 -1      1276 1.05938E-04-2.07185E-05-8.32125E-18
 -1      1277 2.14317E-04-4.52707E-05-2.14672E-17
 -1      1278 1.05365E-04-1.06356E-05-6.54587E-18
 -1      1279 1.05527E-04-1.38867E-05-6.95245E-18
 -1      1280 2.13194E-04-3.11890E-05-1.82146E-17
 -1      1281 1.05215E-04-4.41631E-06-5.09575E-18
 -1      1282 1.05290E-04-7.50023E-06-5.51588E-18
 -1      1283 2.12528E-04-1.81612E-05-1.48807E-17
 -1      1284 1.05193E-04 1.63399E-06-3.76760E-18
 -1      1285 1.05192E-04-1.38992E-06-4.11997E-18
 -1      1286 2.12213E-04-5.80714E-06-1.15874E-17
 -1      1287 1.05300E-04 7.72155E-06-2.34459E-18
 -1      1288 1.05221E-04 4.65258E-06-2.69695E-18
 -1      1289 2.12215E-04 6.30602E-06-8.29415E-18
 -1      1290 1.05551E-04 1.40644E-05-7.86047E-19
 -1      1291 1.05382E-04 1.08369E-05-1.30104E-18
 -1      1292 2.12541E-04 1.86010E-05-4.89246E-18
 -1      1293 1.05980E-04 2.07911E-05 1.07065E-18
 -1      1294 1.05695E-04 1.73354E-05 4.87891E-19
 -1      1295 2.13229E-04 3.14214E-05-1.07065E-18
 -1      1296 1.06702E-04 2.84516E-05 2.99511E-18
 -1      1297 1.06215E-04 2.44685E-05 2.35814E-18
 -1      1298 2.14393E-04 4.54045E-05 3.25261E-18
 -1      1299 1.07972E-04 3.74380E-05 5.17707E-18
 -1      1300 1.07092E-04 3.26913E-05 4.39102E-18
 -1      1301 2.16320E-04 6.14339E-05 7.75205E-18
 -1      1302 1.10575E-04 4.88724E-05 7.99599E-18
 -1      1303 1.08712E-04 4.26694E-05 6.81692E-18
 -1      1304 2.19711E-04 8.07089E-05 1.30917E-17
 -1      1305 1.17828E-04 6.71280E-05 1.09911E-17
 -1      1306 1.12788E-04 5.63917E-05 9.59519E-18
 -1      1307 2.26953E-04 1.06231E-04 1.90549E-17
 -1      1308 1.58882E-04 1.04858E-04 1.49484E-17
 -1      1309 4.21167E-04-2.59184E-04-4.11590E-17
 -1      1310 5.74374E-04-3.32920E-04-6.55265E-17
 -1      1311 7.21826E-04-3.92152E-04-9.80254E-17
 -1      1312 8.65412E-04-4.40044E-04-1.37057E-16
 -1      1313 6.12593E-04-3.26250E-04-8.25891E-17
 -1      1314 1.00602E-03-4.79689E-04-1.82417E-16
 -1      1315 1.14463E-03-5.12238E-04-2.34093E-16
 -1      1316 9.06718E-04-4.24078E-04-1.58917E-16
 -1      1317 1.28207E-03-5.39560E-04-2.91217E-16
 -1      1318 1.41887E-03-5.62155E-04-3.54195E-16
 -1      1319 1.19063E-03-4.90533E-04-2.58989E-16
 -1      1320 1.55548E-03-5.81099E-04-4.22514E-16
 -1      1321 1.69217E-03-5.96753E-04-4.96009E-16
 -1      1322 1.46974E-03-5.36323E-04-3.80948E-16
 -1      1323 1.82920E-03-6.09775E-04-5.74641E-16
 -1      1324 1.96669E-03-6.20495E-04-6.58273E-16
 -1      1325 1.74740E-03-5.67770E-04-5.23846E-16
 -1      1326 2.10479E-03-6.29368E-04-7.47706E-16
 -1      1327 2.24353E-03-6.36691E-04-8.42913E-16
 -1      1328 2.02559E-03-5.89106E-04-6.87642E-16
 -1      1329 2.38298E-03-6.42817E-04-9.43906E-16
 -1      1330 2.52313E-03-6.48008E-04-1.05065E-15
 -1      1331 2.30537E-03-6.03532E-04-8.73149E-16
 -1      1332 2.66398E-03-6.52562E-04-1.16339E-15
 -1      1333 2.80549E-03-6.56703E-04-1.28142E-15
 -1      1334 2.58720E-03-6.13655E-04-1.08145E-15
 -1      1335 2.94759E-03-6.60691E-04-1.40426E-15
 -1      1336 3.09019E-03-6.64704E-04-1.53241E-15
 -1      1337 2.87114E-03-6.21694E-04-1.31095E-15
 -1      1338 3.23318E-03-6.68966E-04-1.66487E-15
 -1      1339 3.37642E-03-6.73590E-04-1.80224E-15
 -1      1340 3.15684E-03-6.29546E-04-1.56064E-15
 -1      1341 3.51974E-03-6.78740E-04-1.94552E-15
 -1      1342 3.66293E-03-6.84439E-04-2.09435E-15
 -1      1343 3.44362E-03-6.38734E-04-1.83044E-15
 -1      1344 3.80578E-03-6.90751E-04-2.24964E-15
 -1      1345 3.94804E-03-6.97568E-04-2.41099E-15
 -1      1346 3.73042E-03-6.50234E-04-2.12302E-15
 -1      1347 4.08946E-03-7.04795E-04-2.57877E-15
 -1      1348 4.22976E-03-7.12160E-04-2.75398E-15
 -1      1349 4.01582E-03-6.64167E-04-2.44011E-15
 -1      1350 4.36867E-03-7.19347E-04-2.93495E-15
 -1      1351 4.50596E-03-7.25891E-04-3.12265E-15
 -1      1352 4.29817E-03-6.79407E-04-2.78251E-15
 -1      1353 4.64141E-03-7.31224E-04-3.31728E-15
 -1      1354 4.77486E-03-7.34701E-04-3.51959E-15
 -1      1355 4.57578E-03-6.93204E-04-3.15194E-15
 -1      1356 4.90619E-03-7.35525E-04-3.72902E-15
 -1      1357 5.03540E-03-7.32937E-04-3.94541E-15
 -1      1358 4.84726E-03-7.00995E-04-3.54954E-15
 -1      1359 5.16256E-03-7.26028E-04-4.17055E-15
 -1      1360 5.28783E-03-7.14051E-04-4.40490E-15
 -1      1361 5.11194E-03-6.96671E-04-3.97695E-15
 -1      1362 5.41149E-03-6.96181E-04-4.64682E-15
 -1      1363 5.53388E-03-6.71846E-04-4.89787E-15
 -1      1364 5.37026E-03-6.73432E-04-4.43748E-15
 -1      1365 5.65545E-03-6.40522E-04-5.15954E-15
 -1      1366 5.77667E-03-6.01963E-04-5.42986E-15
 -1      1367 5.62391E-03-6.25189E-04-4.93311E-15
 -1      1368 5.89805E-03-5.56101E-04-5.71002E-15
 -1      1369 6.02008E-03-5.03085E-04-5.99977E-15
 -1      1370 5.87565E-03-5.48107E-04-5.46634E-15
 -1      1371 6.14323E-03-4.43322E-04-6.29926E-15
 -1      1372 6.26790E-03-3.77315E-04-6.60542E-15
 -1      1373 6.12875E-03-4.41703E-04-6.03864E-15
 -1      1374 6.39441E-03-3.05826E-04-6.92254E-15
 -1      1375 6.52300E-03-2.29580E-04-7.25175E-15
 -1      1376 6.38616E-03-3.08994E-04-6.64711E-15
 -1      1377 6.65380E-03-1.49480E-04-7.59004E-15
 -1      1378 6.78685E-03-6.63099E-05-7.93761E-15
 -1      1379 6.64997E-03-1.55617E-04-7.29545E-15
 -1      1380 6.92210E-03 1.90897E-05-8.29436E-15
 -1      1381 7.05944E-03 1.06016E-04-8.65740E-15
 -1      1382 6.92099E-03 1.16406E-05-7.98144E-15
 -1      1383 7.19870E-03 1.93827E-04-9.03056E-15
 -1      1384 7.33966E-03 2.81982E-04-9.41188E-15
 -1      1385 7.19891E-03 1.86320E-04-8.70155E-15
 -1      1386 7.48209E-03 3.70084E-04-9.80078E-15
 -1      1387 7.62575E-03 4.57771E-04-1.01974E-14
 -1      1388 7.48263E-03 3.63291E-04-9.45500E-15
 -1      1389 7.77039E-03 5.44869E-04-1.06013E-14
 -1      1390 7.91579E-03 6.31175E-04-1.10129E-14
 -1      1391 7.77063E-03 5.39134E-04-1.02386E-14
 -1      1392 8.06174E-03 7.16675E-04-1.14295E-14
 -1      1393 8.20805E-03 8.01286E-04-1.18522E-14
 -1      1394 8.06137E-03 7.12031E-04-1.10489E-14
 -1      1395 8.35457E-03 8.85088E-04-1.22817E-14
 -1      1396 8.50116E-03 9.68078E-04-1.27144E-14
 -1      1397 8.35351E-03 8.81385E-04-1.18864E-14
 -1      1398 8.64771E-03 1.05037E-03-1.31521E-14
 -1      1399 8.79415E-03 1.13202E-03-1.35948E-14
 -1      1400 8.64603E-03 1.04738E-03-1.27432E-14
 -1      1401 8.94040E-03 1.21313E-03-1.40392E-14
 -1      1402 9.08643E-03 1.29377E-03-1.44849E-14
 -1      1403 8.93824E-03 1.21061E-03-1.36170E-14
 -1      1404 9.23220E-03 1.37404E-03-1.49329E-14
 -1      1405 9.37770E-03 1.45401E-03-1.53820E-14
 -1      1406 9.22972E-03 1.37179E-03-1.45024E-14
 -1      1407 9.52293E-03 1.53376E-03-1.58331E-14
 -1      1408 9.66789E-03 1.61333E-03-1.62845E-14
 -1      1409 9.52028E-03 1.53161E-03-1.53951E-14
 -1      1410 9.81260E-03 1.69279E-03-1.67367E-14
 -1      1411 9.95705E-03 1.77219E-03-1.71897E-14
 -1      1412 9.80988E-03 1.69064E-03-1.62935E-14
 -1      1413 1.01013E-02 1.85155E-03-1.76428E-14
 -1      1414 1.02453E-02 1.93092E-03-1.80950E-14
 -1      1415 1.00986E-02 1.84932E-03-1.71945E-14
 -1      1416 1.03891E-02 2.01031E-03-1.85459E-14
 -1      1417 1.05328E-02 2.08974E-03-1.90014E-14
 -1      1418 1.03865E-02 2.00796E-03-1.80958E-14
 -1      1419 1.06763E-02 2.16923E-03-1.94561E-14
 -1      1420 1.08197E-02 2.24878E-03-1.99100E-14
 -1      1421 1.06738E-02 2.16675E-03-1.89978E-14
 -1      1422 1.09630E-02 2.32840E-03-2.03753E-14
 -1      1423 1.11061E-02 2.40810E-03-2.08494E-14
 -1      1424 1.09606E-02 2.32580E-03-1.99130E-14
 -1      1425 1.12492E-02 2.48788E-03-2.13297E-14
 -1      1426 1.13923E-02 2.56773E-03-2.18204E-14
 -1      1427 1.12470E-02 2.48515E-03-2.08510E-14
 -1      1428 1.15352E-02 2.64765E-03-2.23187E-14
 -1      1429 1.16782E-02 2.72764E-03-2.28251E-14
 -1      1430 1.15331E-02 2.64482E-03-2.18219E-14
 -1      1431 1.18211E-02 2.80769E-03-2.33434E-14
 -1      1432 1.19639E-02 2.88780E-03-2.38709E-14
 -1      1433 1.18190E-02 2.80478E-03-2.28292E-14
 -1      1434 1.21068E-02 2.96797E-03-2.44040E-14
 -1      1435 1.22496E-02 3.04819E-03-2.49431E-14
 -1      1436 1.21048E-02 2.96499E-03-2.38733E-14
 -1      1437 1.23924E-02 3.12845E-03-2.54867E-14
 -1      1438 1.25353E-02 3.20875E-03-2.60362E-14
 -1      1439 1.23906E-02 3.12542E-03-2.49414E-14
 -1      1440 1.26781E-02 3.28909E-03-2.65894E-14
 -1      1441 1.28209E-02 3.36945E-03-2.71429E-14
 -1      1442 1.26762E-02 3.28602E-03-2.60304E-14
 -1      1443 1.29637E-02 3.44984E-03-2.77075E-14
 -1      1444 1.31065E-02 3.53024E-03-2.82802E-14
 -1      1445 1.29619E-02 3.44675E-03-2.71421E-14
 -1      1446 1.32494E-02 3.61066E-03-2.88535E-14
 -1      1447 1.33922E-02 3.69108E-03-2.94276E-14
 -1      1448 1.32476E-02 3.60755E-03-2.82732E-14
 -1      1449 1.35350E-02 3.77151E-03-3.00066E-14
 -1      1450 1.36779E-02 3.85193E-03-3.05895E-14
 -1      1451 1.35333E-02 3.76840E-03-2.94213E-14
 -1      1452 1.38931E-02 3.97285E-03-3.14080E-14
 -1      1453 1.38913E-02 3.96976E-03-3.08143E-14
 -1      1454 5.59158E-04 3.26130E-04 5.91974E-17
 -1      1455 4.05467E-04 2.51082E-04 4.10913E-17
 -1      1456 8.50914E-04 4.34754E-04 1.00560E-16
 -1      1457 7.07014E-04 3.86261E-04 7.93229E-17
 -1      1458 5.97614E-04 3.20026E-04 6.23010E-17
 -1      1459 1.13056E-03 5.07321E-04 1.43128E-16
 -1      1460 9.91756E-04 4.74708E-04 1.21905E-16
 -1      1461 8.92319E-04 4.18932E-04 9.91774E-17
 -1      1462 1.40523E-03 5.56646E-04 1.83745E-16
 -1      1463 1.26819E-03 5.34470E-04 1.63931E-16
 -1      1464 1.17678E-03 4.85513E-04 1.36352E-16
 -1      1465 1.67934E-03 5.89566E-04 2.18521E-16
 -1      1466 1.54217E-03 5.74891E-04 2.01987E-16
 -1      1467 1.45656E-03 5.30420E-04 1.70206E-16
 -1      1468 1.95555E-03 6.10293E-04 2.46588E-16
 -1      1469 1.81707E-03 6.01256E-04 2.33415E-16
 -1      1470 1.73537E-03 5.59805E-04 1.97542E-16
 -1      1471 2.22160E-03 6.21370E-04 2.66876E-16
 -1      1472 2.08805E-03 6.16735E-04 2.57634E-16
 -1      1473 2.00864E-03 5.77252E-04 2.17396E-16
 -1      1474 2.50709E-03 6.26150E-04 2.78897E-16
 -1      1475 2.36355E-03 6.24498E-04 2.74249E-16
 -1      1476 2.28499E-03 5.86241E-04 2.29390E-16
 -1      1477 2.79996E-03 6.25799E-04 2.77786E-16
 -1      1478 2.65247E-03 6.26459E-04 2.79900E-16
 -1      1479 2.57318E-03 5.88775E-04 2.30827E-16
 -1      1480 3.10262E-03 6.22353E-04 2.63082E-16
 -1      1481 2.94989E-03 6.24269E-04 2.72162E-16
 -1      1482 2.86789E-03 5.86423E-04 2.19321E-16
 -1      1483 3.41828E-03 6.18489E-04 2.32277E-16
 -1      1484 3.25858E-03 6.20197E-04 2.49651E-16
 -1      1485 3.17117E-03 5.81241E-04 1.93178E-16
 -1      1486 3.75127E-03 6.18518E-04 1.89017E-16
 -1      1487 3.58229E-03 6.17581E-04 2.11948E-16
 -1      1488 3.48567E-03 5.76095E-04 1.52547E-16
 -1      1489 4.10698E-03 6.30162E-04 1.32761E-16
 -1      1490 3.92590E-03 6.22157E-04 1.62427E-16
 -1      1491 3.81467E-03 5.75810E-04 9.90419E-17
 -1      1492 4.47133E-03 6.64633E-04 7.04460E-17
 -1      1493 4.28562E-03 6.43484E-04 1.02430E-16
 -1      1494 4.15314E-03 5.88593E-04 3.51146E-17
 -1      1495 4.88705E-03 7.48797E-04-3.44234E-18
 -1      1496 4.67494E-03 6.98719E-04 3.48978E-17
 -1      1497 4.51296E-03 6.29048E-04-3.84485E-17
 -1      1498 5.33513E-03 9.17801E-04-8.85116E-17
 -1      1499 5.10757E-03 8.20132E-04-4.39780E-17
 -1      1500 4.90804E-03 7.25574E-04-1.23694E-16
 -1      1501 5.80313E-03 1.21077E-03-1.83894E-16
 -1      1502 5.56832E-03 1.04691E-03-1.34821E-16
 -1      1503 5.33177E-03 9.16659E-04-2.19917E-16
 -1      1504 6.26001E-03 1.62753E-03-3.01191E-16
 -1      1505 6.03630E-03 1.40758E-03-2.39853E-16
 -1      1506 5.78097E-03 1.24074E-03-3.31522E-16
 -1      1507 6.60946E-03 2.00295E-03-4.28870E-16
 -1      1508 6.44109E-03 1.82077E-03-3.60768E-16
 -1      1509 6.20406E-03 1.64697E-03-4.56788E-16
 -1      1510 6.89448E-03 2.25529E-03-5.74519E-16
 -1      1511 6.75589E-03 2.15051E-03-4.98896E-16
 -1      1512 6.56636E-03 2.01383E-03-5.94861E-16
 -1      1513 7.14371E-03 2.31364E-03-7.35550E-16
 -1      1514 7.01801E-03 2.30940E-03-6.52337E-16
 -1      1515 6.88441E-03 2.23978E-03-7.49401E-16
 -1      1516 7.46649E-03 2.16239E-03-9.67759E-16
 -1      1517 7.29826E-03 2.26174E-03-8.46694E-16
 -1      1518 7.21537E-03 2.25575E-03-9.45668E-16
 -1      1519 7.88855E-03 1.87261E-03-1.28275E-15
 -1      1520 7.66986E-03 2.01973E-03-1.11741E-15
 -1      1521 7.61928E-03 2.03711E-03-1.21534E-15
 -1      1522 8.35426E-03 1.64129E-03-1.65543E-15
 -1      1523 8.11935E-03 1.74216E-03-1.46245E-15
 -1      1524 8.07412E-03 1.73953E-03-1.55298E-15
 -1      1525 8.82142E-03 1.54247E-03-2.07957E-15
 -1      1526 8.58995E-03 1.57521E-03-1.86052E-15
 -1      1527 8.52909E-03 1.54100E-03-1.94670E-15
 -1      1528 9.26435E-03 1.55918E-03-2.54687E-15
 -1      1529 9.04688E-03 1.53881E-03-2.30794E-15
 -1      1530 8.96152E-03 1.47976E-03-2.38777E-15
 -1      1531 9.67440E-03 1.65094E-03-3.05324E-15
 -1      1532 9.47355E-03 1.59800E-03-2.79751E-15
 -1      1533 9.36573E-03 1.52422E-03-2.87284E-15
 -1      1534 1.00531E-02 1.78448E-03-3.59156E-15
 -1      1535 9.86737E-03 1.71403E-03-3.31820E-15
 -1      1536 9.74335E-03 1.63315E-03-3.39344E-15
 -1      1537 1.03889E-02 1.93117E-03-4.13318E-15
 -1      1538 1.02236E-02 1.85625E-03-3.85892E-15
 -1      1539 1.00897E-02 1.77277E-03-3.93068E-15
 -1      1540 1.07229E-02 2.09546E-03-4.73013E-15
 -1      1541 1.05580E-02 2.01256E-03-4.42821E-15
 -1      1542 1.04185E-02 1.92867E-03-4.49799E-15
 -1      1543 1.10423E-02 2.26394E-03-5.35890E-15
 -1      1544 1.08841E-02 2.17946E-03-5.04163E-15
 -1      1545 1.07417E-02 2.09613E-03-5.10797E-15
 -1      1546 1.13512E-02 2.43365E-03-6.01880E-15
 -1      1547 1.11978E-02 2.34880E-03-5.68514E-15
 -1      1548 1.10541E-02 2.26635E-03-5.74946E-15
 -1      1549 1.16528E-02 2.60315E-03-6.70223E-15
 -1      1550 1.15028E-02 2.51850E-03-6.35734E-15
 -1      1551 1.13587E-02 2.43697E-03-6.41819E-15
 -1      1552 1.19493E-02 2.77186E-03-7.40528E-15
 -1      1553 1.18016E-02 2.68765E-03-7.05175E-15
 -1      1554 1.16575E-02 2.60693E-03-7.11077E-15
 -1      1555 1.22422E-02 2.93956E-03-8.13328E-15
 -1      1556 1.20961E-02 2.85586E-03-7.76542E-15
 -1      1557 1.19524E-02 2.77584E-03-7.82517E-15
 -1      1558 1.25183E-02 3.09794E-03-8.84685E-15
 -1      1559 1.23805E-02 3.01887E-03-8.48830E-15
 -1      1560 1.22371E-02 2.93941E-03-8.54350E-15
 -1      1561 1.28071E-02 3.26372E-03-9.61096E-15
 -1      1562 1.26629E-02 3.18095E-03-9.22835E-15
 -1      1563 1.25198E-02 3.10193E-03-9.28023E-15
 -1      1564 1.30948E-02 3.42866E-03-1.03746E-14
 -1      1565 1.29511E-02 3.34629E-03-9.99283E-15
 -1      1566 1.28084E-02 3.26765E-03-1.00452E-14
 -1      1567 1.33817E-02 3.59287E-03-1.11489E-14
 -1      1568 1.32384E-02 3.51085E-03-1.07614E-14
 -1      1569 1.30959E-02 3.43250E-03-1.08142E-14
 -1      1570 1.36681E-02 3.75646E-03-1.19386E-14
 -1      1571 1.35250E-02 3.67474E-03-1.15406E-14
 -1      1572 1.33828E-02 3.59661E-03-1.15955E-14
 -1      1573 1.39541E-02 3.91955E-03-1.27379E-14
 -1      1574 1.38111E-02 3.83806E-03-1.23385E-14
 -1      1575 1.36692E-02 3.76011E-03-1.23889E-14
 -1      1576 1.42399E-02 4.08221E-03-1.35485E-14
 -1      1577 1.40970E-02 4.00093E-03-1.31424E-14
 -1      1578 1.39552E-02 3.92311E-03-1.31963E-14
 -1      1579 1.45113E-02 4.23643E-03-1.43303E-14
 -1      1580 1.43756E-02 4.15936E-03-1.39372E-14
 -1      1581 1.42340E-02 4.08165E-03-1.39928E-14
 -1      1582 1.47970E-02 4.39851E-03-1.51674E-14
 -1      1583 1.46541E-02 4.31750E-03-1.47458E-14
 -1      1584 1.45126E-02 4.23987E-03-1.48016E-14
 -1      1585 1.50826E-02 4.56039E-03-1.60229E-14
 -1      1586 1.49398E-02 4.47947E-03-1.55943E-14
 -1      1587 1.47982E-02 4.40190E-03-1.56485E-14
 -1      1588 1.53682E-02 4.72212E-03-1.68853E-14
 -1      1589 1.52254E-02 4.64127E-03-1.64525E-14
 -1      1590 1.50839E-02 4.56373E-03-1.65079E-14
 -1      1591 1.56538E-02 4.88375E-03-1.77608E-14
 -1      1592 1.55110E-02 4.80294E-03-1.73217E-14
 -1      1593 1.53695E-02 4.72543E-03-1.73794E-14
 -1      1594 1.59394E-02 5.04533E-03-1.86439E-14
 -1      1595 1.57966E-02 4.96454E-03-1.82012E-14
 -1      1596 1.56552E-02 4.88704E-03-1.82597E-14
 -1      1597 1.62251E-02 5.20690E-03-1.95323E-14
 -1      1598 1.60823E-02 5.12612E-03-1.90879E-14
 -1      1599 1.59409E-02 5.04861E-03-1.91497E-14
 -1      1600 1.64228E-02 5.31902E-03-2.02232E-14
 -1      1601 1.62361E-02 5.22044E-03-2.10936E-14
 -1      1602 1.63156E-02 5.26259E-03-2.07596E-14
 -1      1603 1.60772E-02 5.13611E-03-2.17633E-14
 -1      1604 1.61566E-02 5.17828E-03-2.14314E-14
 -1      1605 1.60727E-02 5.12939E-03-2.08658E-14
 -1      1606 1.59183E-02 5.05176E-03-2.24316E-14
 -1      1607 1.59977E-02 5.09394E-03-2.20960E-14
 -1      1608 1.59137E-02 5.04507E-03-2.15288E-14
 -1      1609 1.57594E-02 4.96739E-03-2.31158E-14
 -1      1610 1.58388E-02 5.00958E-03-2.27741E-14
 -1      1611 1.57548E-02 4.96073E-03-2.21957E-14
 -1      1612 1.56033E-02 4.88443E-03-2.37931E-14
 -1      1613 1.56813E-02 4.92591E-03-2.34520E-14
 -1      1614 1.55973E-02 4.87709E-03-2.28656E-14
 -1      1615 1.54446E-02 4.80003E-03-2.44834E-14
 -1      1616 1.55239E-02 4.84223E-03-2.41406E-14
 -1      1617 1.54399E-02 4.79344E-03-2.35416E-14
 -1      1618 1.52860E-02 4.71563E-03-2.51838E-14
 -1      1619 1.53653E-02 4.75783E-03-2.48289E-14
 -1      1620 1.52812E-02 4.70907E-03-2.42269E-14
 -1      1621 1.51274E-02 4.63122E-03-2.59037E-14
 -1      1622 1.52067E-02 4.67342E-03-2.55433E-14
 -1      1623 1.51226E-02 4.62471E-03-2.49256E-14
 -1      1624 1.49690E-02 4.54682E-03-2.66245E-14
 -1      1625 1.50482E-02 4.58902E-03-2.62651E-14
 -1      1626 1.49641E-02 4.54034E-03-2.56367E-14
 -1      1627 1.48106E-02 4.46243E-03-2.73593E-14
 -1      1628 1.48898E-02 4.50463E-03-2.69900E-14
 -1      1629 1.48057E-02 4.45598E-03-2.63513E-14
 -1      1630 1.46550E-02 4.37948E-03-2.80923E-14
 -1      1631 1.47328E-02 4.42095E-03-2.77268E-14
 -1      1632 1.46487E-02 4.37233E-03-2.70703E-14
 -1      1633 1.44968E-02 4.29511E-03-2.88274E-14
 -1      1634 1.45759E-02 4.33729E-03-2.84606E-14
 -1      1635 1.44917E-02 4.28869E-03-2.77937E-14
 -1      1636 1.43386E-02 4.21075E-03-2.95442E-14
 -1      1637 1.44177E-02 4.25293E-03-2.91879E-14
 -1      1638 1.43335E-02 4.20435E-03-2.85133E-14
 -1      1639 1.41805E-02 4.12642E-03-3.02515E-14
 -1      1640 1.42596E-02 4.16859E-03-2.98998E-14
 -1      1641 1.41754E-02 4.12002E-03-2.92218E-14
 -1      1642 1.39964E-02 4.02701E-03-3.07104E-14
 -1      1643 1.40754E-02 4.06917E-03-3.03641E-14
 -1      1644 1.39913E-02 4.02060E-03-2.96842E-14
 -1      1645 1.37812E-02 3.90608E-03-2.98978E-14
 -1      1646 9.15319E-03 1.08064E-03-2.95690E-15
 -1      1647 9.14878E-03 1.03300E-03-3.06029E-15
 -1      1648 9.05801E-03 1.20065E-03-2.71074E-15
 -1      1649 9.11952E-03 1.14288E-03-2.82284E-15
 -1      1650 8.82901E-03 1.34798E-03-2.45393E-15
 -1      1651 8.94920E-03 1.27347E-03-2.57442E-15
 -1      1652 8.51236E-03 1.54002E-03-2.18357E-15
 -1      1653 8.66890E-03 1.44907E-03-2.30812E-15
 -1      1654 8.08777E-03 1.76629E-03-1.90234E-15
 -1      1655 8.29026E-03 1.65287E-03-2.03162E-15
 -1      1656 7.64705E-03 1.98987E-03-1.65466E-15
 -1      1657 7.85590E-03 1.89497E-03-1.76413E-15
 -1      1658 7.19834E-03 2.12466E-03-1.44071E-15
 -1      1659 7.40085E-03 2.07647E-03-1.53328E-15
 -1      1660 6.76701E-03 2.12267E-03-1.28399E-15
 -1      1661 6.96499E-03 2.14055E-03-1.35138E-15
 -1      1662 6.31955E-03 1.97631E-03-1.15804E-15
 -1      1663 6.53212E-03 2.06445E-03-1.20601E-15
 -1      1664 5.85197E-03 1.72285E-03-1.09136E-15
 -1      1665 6.06195E-03 1.84658E-03-1.11863E-15
 -1      1666 5.38223E-03 1.41843E-03-1.06192E-15
 -1      1667 5.60303E-03 1.56050E-03-1.06826E-15
 -1      1668 4.93409E-03 1.15624E-03-1.09302E-15
 -1      1669 5.12458E-03 1.27511E-03-1.07686E-15
 -1      1670 4.57274E-03 9.19316E-04-1.14642E-15
 -1      1671 4.73461E-03 1.01649E-03-1.11465E-15
 -1      1672 4.32026E-03 7.68426E-04-1.24322E-15
 -1      1673 4.41711E-03 8.35118E-04-1.19882E-15
 -1      1674 4.19895E-03 6.44773E-04-1.35647E-15
 -1      1675 4.23910E-03 6.96177E-04-1.29975E-15
 -1      1676 4.21324E-03 5.41918E-04-1.49865E-15
 -1      1677 4.18860E-03 5.87095E-04-1.42842E-15
 -1      1678 4.35542E-03 4.35326E-04-1.67350E-15
 -1      1679 4.27620E-03 4.83666E-04-1.59185E-15
 -1      1680 4.60365E-03 3.14288E-04-1.87085E-15
 -1      1681 4.47598E-03 3.72916E-04-1.77568E-15
 -1      1682 4.93452E-03 1.73978E-04-2.08516E-15
 -1      1683 4.77283E-03 2.40847E-04-1.98471E-15
 -1      1684 5.30488E-03 3.31014E-05-2.30173E-15
 -1      1685 5.13125E-03 9.71603E-05-2.20237E-15
 -1      1686 5.68541E-03-8.32729E-05-2.51882E-15
 -1      1687 5.50942E-03-3.37162E-05-2.41872E-15
 -1      1688 6.07909E-03-1.50979E-04-2.73924E-15
 -1      1689 5.89522E-03-1.27248E-04-2.63781E-15
 -1      1690 6.49544E-03-1.43798E-04-2.95816E-15
 -1      1691 6.30123E-03-1.58956E-04-2.85956E-15
 -1      1692 6.91400E-03-4.85686E-05-3.13597E-15
 -1      1693 6.72315E-03-1.01048E-04-3.05840E-15
 -1      1694 7.34214E-03 1.12075E-04-3.27754E-15
 -1      1695 7.14238E-03 3.06137E-05-3.21780E-15
 -1      1696 7.76790E-03 3.19617E-04-3.39010E-15
 -1      1697 7.56558E-03 2.22205E-04-3.35203E-15
 -1      1698 8.21963E-03 5.21339E-04-3.41504E-15
 -1      1699 8.01934E-03 4.25260E-04-3.40331E-15
 -1      1700 8.60286E-03 7.03412E-04-3.39414E-15
 -1      1701 8.43495E-03 6.24317E-04-3.41295E-15
 -1      1702 8.91439E-03 8.60033E-04-3.30953E-15
 -1      1703 8.77976E-03 7.94196E-04-3.36119E-15
 -1      1704 9.10412E-03 9.74439E-04-3.15770E-15
 -1      1705 9.03436E-03 9.23567E-04-3.22923E-15
 -1      1706 2.77952E-04 1.70913E-04 2.87991E-17
 -1      1707 8.71348E-03 1.34356E-03-2.39908E-15
 -1      1708 1.62814E-02 5.24151E-03-2.02907E-14
 -1      1709 9.14355E-03 1.09748E-03-2.96652E-15
 -1      1710 8.99247E-03 1.19586E-03-2.68935E-15
 -1      1711 9.13697E-03 1.02636E-03-3.20392E-15
 -1      1712 8.33564E-03 1.55340E-03-2.09540E-15
 -1      1713 7.90882E-03 1.80998E-03-1.80197E-15
 -1      1714 7.47584E-03 2.04544E-03-1.54222E-15
 -1      1715 7.07685E-03 2.16528E-03-1.33482E-15
 -1      1716 6.68359E-03 2.12280E-03-1.17286E-15
 -1      1717 6.27505E-03 1.91590E-03-1.06363E-15
 -1      1718 5.81977E-03 1.60349E-03-1.00852E-15
 -1      1719 5.34253E-03 1.28240E-03-1.00785E-15
 -1      1720 4.88896E-03 1.00357E-03-1.04735E-15
 -1      1721 4.52402E-03 8.07349E-04-1.12194E-15
 -1      1722 4.27987E-03 6.84253E-04-1.22970E-15
 -1      1723 4.18343E-03 6.00732E-04-1.35532E-15
 -1      1724 4.23914E-03 5.34118E-04-1.51559E-15
 -1      1725 4.42950E-03 4.44733E-04-1.70457E-15
 -1      1726 4.72330E-03 3.23680E-04-1.91316E-15
 -1      1727 5.08299E-03 1.71517E-04-2.13859E-15
 -1      1728 5.46037E-03 1.35439E-05-2.37042E-15
 -1      1729 5.83133E-03-1.15439E-04-2.60661E-15
 -1      1730 6.20271E-03-1.80619E-04-2.84874E-15
 -1      1731 6.57578E-03-1.47739E-04-3.07561E-15
 -1      1732 6.96759E-03-1.54475E-05-3.26399E-15
 -1      1733 7.37509E-03 1.90374E-04-3.42692E-15
 -1      1734 7.81494E-03 4.26001E-04-3.52087E-15
 -1      1735 8.26885E-03 6.41800E-04-3.53577E-15
 -1      1736 8.66481E-03 8.22287E-04-3.50170E-15
 -1      1737 8.96954E-03 9.44041E-04-3.38644E-15
 -1      1738 2.85222E-04-1.74494E-04-3.03983E-17
 -1      1739 3.32770E-04-1.13663E-04-4.01426E-17
 -1      1740 3.36945E-04-1.29925E-04-4.20670E-17
 -1      1741 3.42912E-04-1.49029E-04-4.35172E-17
 -1      1742 3.52395E-04-1.71173E-04-4.39780E-17
 -1      1743 4.59298E-04-1.83910E-04-6.16504E-17
 -1      1744 3.24561E-04-6.26465E-05-3.13605E-17
 -1      1745 3.25883E-04-7.37437E-05-3.39897E-17
 -1      1746 3.22730E-04-4.17555E-05-2.65223E-17
 -1      1747 3.23547E-04-5.19106E-05-2.89482E-17
 -1      1748 4.36272E-04-7.58330E-05-4.41406E-17
 -1      1749 3.21678E-04-2.24829E-05-2.14265E-17
 -1      1750 3.22130E-04-3.19465E-05-2.40557E-17
 -1      1751 4.33785E-04-4.87442E-05-3.71204E-17
 -1      1752 3.21245E-04-4.07461E-06-1.64799E-17
 -1      1753 3.21393E-04-1.31961E-05-1.89735E-17
 -1      1754 4.32403E-04-2.35263E-05-2.99646E-17
 -1      1755 3.21389E-04 1.41252E-05-1.15739E-17
 -1      1756 3.21243E-04 5.02716E-06-1.41353E-17
 -1      1757 4.31947E-04 7.70863E-07-2.29309E-17
 -1      1758 3.22142E-04 3.27709E-05-6.16640E-18
 -1      1759 3.21678E-04 2.33681E-05-8.97177E-18
 -1      1760 4.32385E-04 2.50054E-05-1.55990E-17
 -1      1761 3.23585E-04 5.22425E-05-3.52366E-19
 -1      1762 3.22753E-04 4.23422E-05-3.44234E-18
 -1      1763 4.33779E-04 4.98425E-05-7.81981E-18
 -1      1764 3.26021E-04 7.41168E-05 6.00377E-18
 -1      1765 3.24634E-04 6.28944E-05 2.62919E-18
 -1      1766 4.36330E-04 7.64789E-05 4.06576E-19
 -1      1767 3.30053E-04 9.94037E-05 1.32273E-17
 -1      1768 3.27740E-04 8.63032E-05 9.47322E-18
 -1      1769 4.40537E-04 1.06473E-04 9.70361E-18
 -1      1770 3.37316E-04 1.30472E-04 2.15214E-17
 -1      1771 3.33088E-04 1.14131E-04 1.70762E-17
 -1      1772 4.47499E-04 1.41528E-04 2.00848E-17
 -1      1773 3.52931E-04 1.72089E-04 3.06287E-17
 -1      1774 3.43350E-04 1.49755E-04 2.58718E-17
 -1      1775 4.59985E-04 1.84864E-04 3.17942E-17
 -1      1776 8.59750E-03 1.35100E-03-2.34093E-15
 -1      1777 8.75914E-03 1.26833E-03-2.49429E-15
 -1      1778 3.40400E-04-1.88459E-04-3.98851E-17
 -1      1779 3.33183E-04 1.85243E-04 3.25125E-17
 -1      1780 8.08812E-04-3.67191E-04-1.36420E-16
 -1      1781 9.54650E-04-4.06882E-04-1.79598E-16
 -1      1782 1.09819E-03-4.40051E-04-2.28184E-16
 -1      1783 1.24070E-03-4.67412E-04-2.82123E-16
 -1      1784 1.00658E-03-3.88606E-04-1.99317E-16
 -1      1785 1.38210E-03-4.90357E-04-3.41307E-16
 -1      1786 1.52297E-03-5.09201E-04-4.05952E-16
 -1      1787 1.29378E-03-4.43447E-04-3.04119E-16
 -1      1788 1.66348E-03-5.24891E-04-4.75599E-16
 -1      1789 1.80387E-03-5.37690E-04-5.49934E-16
 -1      1790 1.57827E-03-4.81264E-04-4.29236E-16
 -1      1791 1.94435E-03-5.48253E-04-6.29705E-16
 -1      1792 2.08498E-03-5.56822E-04-7.14625E-16
 -1      1793 1.86163E-03-5.06859E-04-5.74288E-16
 -1      1794 2.22593E-03-5.63886E-04-8.05237E-16
 -1      1795 2.36720E-03-5.69666E-04-9.01175E-16
 -1      1796 2.14506E-03-5.23881E-04-7.39860E-16
 -1      1797 2.50891E-03-5.74558E-04-1.00232E-15
 -1      1798 2.65099E-03-5.78760E-04-1.10922E-15
 -1      1799 2.42931E-03-5.35247E-04-9.26546E-16
 -1      1800 2.79354E-03-5.82610E-04-1.22091E-15
 -1      1801 2.93645E-03-5.86280E-04-1.33772E-15
 -1      1802 2.71484E-03-5.43407E-04-1.13371E-15
 -1      1803 3.07977E-03-5.90057E-04-1.45989E-15
 -1      1804 3.22334E-03-5.94080E-04-1.58623E-15
 -1      1805 3.00181E-03-5.50476E-04-1.36162E-15
 -1      1806 3.36722E-03-5.98573E-04-1.71853E-15
 -1      1807 3.51115E-03-6.03622E-04-1.85644E-15
 -1      1808 3.29013E-03-5.58258E-04-1.60953E-15
 -1      1809 3.65520E-03-6.09353E-04-1.99947E-15
 -1      1810 3.79901E-03-6.15766E-04-2.14879E-15
 -1      1811 3.57943E-03-5.68146E-04-1.87911E-15
 -1      1812 3.94266E-03-6.22836E-04-2.30408E-15
 -1      1813 4.08574E-03-6.30434E-04-2.46633E-15
 -1      1814 3.86905E-03-5.80885E-04-2.17149E-15
 -1      1815 4.22832E-03-6.38321E-04-2.63419E-15
 -1      1816 4.36995E-03-6.46191E-04-2.80887E-15
 -1      1817 4.15801E-03-5.96205E-04-2.48873E-15
 -1      1818 4.51069E-03-6.53539E-04-2.99011E-15
 -1      1819 4.65018E-03-6.59855E-04-3.17814E-15
 -1      1820 4.44503E-03-6.12362E-04-2.83190E-15
 -1      1821 4.78841E-03-6.64363E-04-3.37434E-15
 -1      1822 4.92521E-03-6.66366E-04-3.57672E-15
 -1      1823 4.72872E-03-6.25745E-04-3.20151E-15
 -1      1824 5.06054E-03-6.64895E-04-3.78700E-15
 -1      1825 5.19449E-03-6.59158E-04-4.00460E-15
 -1      1826 5.00784E-03-6.30779E-04-3.59965E-15
 -1      1827 5.32701E-03-6.48165E-04-4.23174E-15
 -1      1828 5.45851E-03-6.31192E-04-4.46666E-15
 -1      1829 5.28184E-03-6.20418E-04-4.02909E-15
 -1      1830 5.58892E-03-6.07464E-04-4.71093E-15
 -1      1831 5.71893E-03-5.76522E-04-4.96472E-15
 -1      1832 5.55121E-03-5.87372E-04-4.49288E-15
 -1      1833 5.84847E-03-5.38023E-04-5.22718E-15
 -1      1834 5.97835E-03-4.91912E-04-5.49982E-15
 -1      1835 5.81768E-03-5.25883E-04-4.99178E-15
 -1      1836 6.10850E-03-4.38386E-04-5.78151E-15
 -1      1837 6.23967E-03-3.77810E-04-6.07392E-15
 -1      1838 6.08389E-03-4.33410E-04-5.52954E-15
 -1      1839 6.37178E-03-3.10857E-04-6.37496E-15
 -1      1840 6.50534E-03-2.38205E-04-6.68420E-15
 -1      1841 6.35258E-03-3.11443E-04-6.10510E-15
 -1      1842 6.64029E-03-1.60806E-04-7.00449E-15
 -1      1843 6.77681E-03-7.94592E-05-7.33428E-15
 -1      1844 6.62578E-03-1.65024E-04-6.71891E-15
 -1      1845 6.91487E-03 4.83893E-06-7.67362E-15
 -1      1846 7.05437E-03 9.13456E-05-8.02158E-15
 -1      1847 6.90438E-03-1.22645E-06-7.37018E-15
 -1      1848 7.19530E-03 1.79215E-04-8.37790E-15
 -1      1849 7.33735E-03 2.67869E-04-8.74130E-15
 -1      1850 7.18809E-03 1.72659E-04-8.05766E-15
 -1      1851 7.48057E-03 3.56710E-04-9.11441E-15
 -1      1852 7.62456E-03 4.45356E-04-9.49407E-15
 -1      1853 7.47588E-03 3.50517E-04-8.77849E-15
 -1      1854 7.76938E-03 5.33472E-04-9.88142E-15
 -1      1855 7.91463E-03 6.20852E-04-1.02757E-14
 -1      1856 7.76645E-03 5.28060E-04-9.52991E-15
 -1      1857 8.06038E-03 7.07371E-04-1.06757E-14
 -1      1858 8.20631E-03 7.92953E-04-1.10829E-14
 -1      1859 8.05854E-03 7.02847E-04-1.03082E-14
 -1      1860 8.35245E-03 8.77619E-04-1.14967E-14
 -1      1861 8.49859E-03 9.61372E-04-1.19157E-14
 -1      1862 8.35116E-03 8.73904E-04-1.11133E-14
 -1      1863 8.64473E-03 1.04431E-03-1.23397E-14
 -1      1864 8.79075E-03 1.12649E-03-1.27681E-14
 -1      1865 8.64360E-03 1.04124E-03-1.19405E-14
 -1      1866 8.93664E-03 1.20802E-03-1.32017E-14
 -1      1867 9.08234E-03 1.28898E-03-1.36372E-14
 -1      1868 8.93545E-03 1.20540E-03-1.27902E-14
 -1      1869 9.22785E-03 1.36948E-03-1.40756E-14
 -1      1870 9.37313E-03 1.44960E-03-1.45172E-14
 -1      1871 9.22648E-03 1.36713E-03-1.36534E-14
 -1      1872 9.51819E-03 1.52943E-03-1.49601E-14
 -1      1873 9.66303E-03 1.60902E-03-1.54059E-14
 -1      1874 9.51662E-03 1.52720E-03-1.45293E-14
 -1      1875 9.80766E-03 1.68847E-03-1.58520E-14
 -1      1876 9.95208E-03 1.76781E-03-1.62992E-14
 -1      1877 9.80591E-03 1.68627E-03-1.54125E-14
 -1      1878 1.00963E-02 1.84709E-03-1.67474E-14
 -1      1879 1.02403E-02 1.92635E-03-1.71970E-14
 -1      1880 1.00944E-02 1.84484E-03-1.63033E-14
 -1      1881 1.03842E-02 2.00562E-03-1.76448E-14
 -1      1882 1.05280E-02 2.08493E-03-1.80937E-14
 -1      1883 1.03822E-02 2.00328E-03-1.71957E-14
 -1      1884 1.06715E-02 2.16429E-03-1.85438E-14
 -1      1885 1.08150E-02 2.24372E-03-1.89953E-14
 -1      1886 1.06695E-02 2.16183E-03-1.80908E-14
 -1      1887 1.09584E-02 2.32322E-03-1.94501E-14
 -1      1888 1.11017E-02 2.40279E-03-1.99106E-14
 -1      1889 1.09563E-02 2.32064E-03-1.89920E-14
 -1      1890 1.12448E-02 2.48245E-03-2.03778E-14
 -1      1891 1.13880E-02 2.56220E-03-2.08511E-14
 -1      1892 1.12428E-02 2.47976E-03-1.99060E-14
 -1      1893 1.15310E-02 2.64202E-03-2.13332E-14
 -1      1894 1.16740E-02 2.72192E-03-2.18213E-14
 -1      1895 1.15290E-02 2.63923E-03-2.08475E-14
 -1      1896 1.18170E-02 2.80189E-03-2.23221E-14
 -1      1897 1.19600E-02 2.88193E-03-2.28324E-14
 -1      1898 1.18151E-02 2.79901E-03-2.18198E-14
 -1      1899 1.21029E-02 2.96203E-03-2.33475E-14
 -1      1900 1.22458E-02 3.04219E-03-2.38713E-14
 -1      1901 1.21009E-02 2.95908E-03-2.28291E-14
 -1      1902 1.23886E-02 3.12241E-03-2.44026E-14
 -1      1903 1.25315E-02 3.20267E-03-2.49379E-14
 -1      1904 1.23868E-02 3.11940E-03-2.38669E-14
 -1      1905 1.26744E-02 3.28297E-03-2.54779E-14
 -1      1906 1.28172E-02 3.36330E-03-2.60254E-14
 -1      1907 1.26725E-02 3.27992E-03-2.49309E-14
 -1      1908 1.29601E-02 3.44366E-03-2.65781E-14
 -1      1909 1.31029E-02 3.52405E-03-2.71355E-14
 -1      1910 1.29582E-02 3.44058E-03-2.60154E-14
 -1      1911 1.32458E-02 3.60446E-03-2.76984E-14
 -1      1912 1.33886E-02 3.68488E-03-2.82663E-14
 -1      1913 1.32439E-02 3.60136E-03-2.71258E-14
 -1      1914 1.35135E-02 3.75526E-03-2.87895E-14
 -1      1915 1.36563E-02 3.83569E-03-2.93647E-14
 -1      1916 1.37613E-02 3.89295E-03-2.92599E-14
 -1      1917 1.35116E-02 3.75216E-03-2.82079E-14
 -1      1918 1.22709E-03 4.62260E-04 1.27028E-16
 -1      1919 1.08427E-03 4.35080E-04 1.11646E-16
 -1      1920 9.40489E-04 4.01860E-04 9.54504E-17
 -1      1921 7.94391E-04 3.61851E-04 7.90654E-17
 -1      1922 9.92644E-04 3.83714E-04 8.94602E-17
 -1      1923 1.51013E-03 5.02861E-04 1.53537E-16
 -1      1924 1.36883E-03 4.84740E-04 1.40919E-16
 -1      1925 1.28032E-03 4.38150E-04 1.14722E-16
 -1      1926 1.79229E-03 5.28910E-04 1.73296E-16
 -1      1927 1.65117E-03 5.17499E-04 1.64406E-16
 -1      1928 1.56551E-03 4.74504E-04 1.34197E-16
 -1      1929 2.06131E-03 5.43427E-04 1.85141E-16
 -1      1930 1.92659E-03 5.37274E-04 1.80167E-16
 -1      1931 1.84284E-03 4.96886E-04 1.46164E-16
 -1      1932 2.34700E-03 5.50460E-04 1.88204E-16
 -1      1933 2.20374E-03 5.47876E-04 1.87879E-16
 -1      1934 2.12078E-03 5.09411E-04 1.49701E-16
 -1      1935 2.63656E-03 5.51067E-04 1.79137E-16
 -1      1936 2.49118E-03 5.51447E-04 1.85304E-16
 -1      1937 2.40762E-03 5.14404E-04 1.43033E-16
 -1      1938 2.93135E-03 5.47134E-04 1.57060E-16
 -1      1939 2.78314E-03 5.49541E-04 1.69664E-16
 -1      1940 2.69719E-03 5.13433E-04 1.24033E-16
 -1      1941 3.23290E-03 5.40807E-04 1.19737E-16
 -1      1942 3.08106E-03 5.44108E-04 1.40594E-16
 -1      1943 2.99033E-03 5.08411E-04 9.09646E-17
 -1      1944 3.54298E-03 5.35221E-04 6.98768E-17
 -1      1945 3.38657E-03 5.37675E-04 9.66973E-17
 -1      1946 3.28783E-03 5.01633E-04 4.35172E-17
 -1      1947 3.86372E-03 5.35770E-04 5.67851E-18
 -1      1948 3.70162E-03 5.34303E-04 3.91261E-17
 -1      1949 3.59048E-03 4.96556E-04-1.69136E-17
 -1      1950 4.18065E-03 5.50775E-04-6.61092E-17
 -1      1951 4.02029E-03 5.40836E-04-2.92057E-17
 -1      1952 3.89145E-03 4.98869E-04-8.95551E-17
 -1      1953 4.53065E-03 5.98397E-04-1.52303E-16
 -1      1954 4.35316E-03 5.69145E-04-1.08122E-16
 -1      1955 4.19986E-03 5.17955E-04-1.73892E-16
 -1      1956 4.90344E-03 7.06704E-04-2.48309E-16
 -1      1957 4.71403E-03 6.42394E-04-1.98883E-16
 -1      1958 4.52819E-03 5.72208E-04-2.70495E-16
 -1      1959 5.30916E-03 9.16454E-04-3.56540E-16
 -1      1960 5.10293E-03 7.95219E-04-3.00378E-16
 -1      1961 4.87932E-03 6.90380E-04-3.77302E-16
 -1      1962 5.75798E-03 1.26552E-03-4.84096E-16
 -1      1963 5.53067E-03 1.07003E-03-4.17960E-16
 -1      1964 5.27305E-03 9.15051E-04-4.98869E-16
 -1      1965 6.59170E-03 2.05171E-03-7.43871E-16
 -1      1966 6.40589E-03 1.88738E-03-6.65700E-16
 -1      1967 7.31405E-03 2.18730E-03-1.13432E-15
 -1      1968 7.10893E-03 2.24769E-03-1.01373E-15
 -1      1969 7.77217E-03 1.89975E-03-1.44273E-15
 -1      1970 7.53436E-03 2.05798E-03-1.28332E-15
 -1      1971 8.25033E-03 1.60568E-03-1.81415E-15
 -1      1972 8.01828E-03 1.73783E-03-1.62705E-15
 -1      1973 8.69113E-03 1.45328E-03-2.22707E-15
 -1      1974 8.47851E-03 1.51264E-03-2.01437E-15
 -1      1975 8.43632E-03 1.48403E-03-2.07800E-15
 -1      1976 9.09230E-03 1.43276E-03-2.68401E-15
 -1      1977 8.89724E-03 1.42936E-03-2.44980E-15
 -1      1978 8.84910E-03 1.38154E-03-2.51067E-15
 -1      1979 9.46333E-03 1.50338E-03-3.18586E-15
 -1      1980 9.28111E-03 1.45953E-03-2.92979E-15
 -1      1981 9.21473E-03 1.39897E-03-2.98580E-15
 -1      1982 9.81322E-03 1.62660E-03-3.71860E-15
 -1      1983 9.64034E-03 1.56021E-03-3.44977E-15
 -1      1984 9.55358E-03 1.49142E-03-3.50165E-15
 -1      1985 1.01310E-02 1.76944E-03-4.25551E-15
 -1      1986 9.97344E-03 1.69581E-03-3.98328E-15
 -1      1987 9.87004E-03 1.62213E-03-4.03495E-15
 -1      1988 1.04537E-02 1.93297E-03-4.84810E-15
 -1      1989 1.02935E-02 1.85008E-03-4.54706E-15
 -1      1990 1.01780E-02 1.77376E-03-4.59605E-15
 -1      1991 1.07668E-02 2.10226E-03-5.47151E-15
 -1      1992 1.06111E-02 2.01720E-03-5.15617E-15
 -1      1993 1.04872E-02 1.93973E-03-5.20318E-15
 -1      1994 1.10725E-02 2.27333E-03-6.12347E-15
 -1      1995 1.09203E-02 2.18773E-03-5.79440E-15
 -1      1996 1.07912E-02 2.10999E-03-5.83741E-15
 -1      1997 1.13728E-02 2.44429E-03-6.79991E-15
 -1      1998 1.12232E-02 2.35891E-03-6.45804E-15
 -1      1999 1.10908E-02 2.28135E-03-6.49810E-15
 -1      2000 1.16688E-02 2.61435E-03-7.50309E-15
 -1      2001 1.15212E-02 2.52948E-03-7.14976E-15
 -1      2002 1.13870E-02 2.45229E-03-7.18524E-15
 -1      2003 1.19619E-02 2.78321E-03-8.22583E-15
 -1      2004 1.18157E-02 2.69895E-03-7.86227E-15
 -1      2005 1.16804E-02 2.62220E-03-7.89801E-15
 -1      2006 1.22383E-02 2.94251E-03-8.93374E-15
 -1      2007 1.21003E-02 2.86301E-03-8.57678E-15
 -1      2008 1.19644E-02 2.78666E-03-8.61156E-15
 -1      2009 1.25276E-02 3.10909E-03-9.69237E-15
 -1      2010 1.23831E-02 3.02594E-03-9.31128E-15
 -1      2011 1.22470E-02 2.94997E-03-9.34357E-15
 -1      2012 1.28157E-02 3.27467E-03-1.04598E-14
 -1      2013 1.26718E-02 3.19201E-03-1.00766E-14
 -1      2014 1.25356E-02 3.11636E-03-1.01059E-14
 -1      2015 1.31031E-02 3.43940E-03-1.12339E-14
 -1      2016 1.29595E-02 3.35714E-03-1.08447E-14
 -1      2017 1.28233E-02 3.28176E-03-1.08779E-14
 -1      2018 1.33898E-02 3.60340E-03-1.20216E-14
 -1      2019 1.32465E-02 3.52148E-03-1.16261E-14
 -1      2020 1.31103E-02 3.44633E-03-1.16561E-14
 -1      2021 1.36761E-02 3.76680E-03-1.28217E-14
 -1      2022 1.35330E-02 3.68517E-03-1.24204E-14
 -1      2023 1.33969E-02 3.61019E-03-1.24503E-14
 -1      2024 1.39622E-02 3.92971E-03-1.36337E-14
 -1      2025 1.38192E-02 3.84831E-03-1.32251E-14
 -1      2026 1.36832E-02 3.77348E-03-1.32566E-14
 -1      2027 1.42338E-02 4.08411E-03-1.44169E-14
 -1      2028 1.40980E-02 4.00695E-03-1.40240E-14
 -1      2029 1.39621E-02 3.93223E-03-1.40555E-14
 -1      2030 1.45196E-02 4.24632E-03-1.52553E-14
 -1      2031 1.43767E-02 4.16525E-03-1.48330E-14
 -1      2032 1.42408E-02 4.09062E-03-1.48645E-14
 -1      2033 1.48053E-02 4.40830E-03-1.61108E-14
 -1      2034 1.46624E-02 4.32734E-03-1.56808E-14
 -1      2035 1.45266E-02 4.25277E-03-1.57112E-14
 -1      2036 1.50910E-02 4.57010E-03-1.69727E-14
 -1      2037 1.49481E-02 4.48922E-03-1.65412E-14
 -1      2038 1.48124E-02 4.41470E-03-1.65699E-14
 -1      2039 1.53767E-02 4.73177E-03-1.78522E-14
 -1      2040 1.52338E-02 4.65095E-03-1.74107E-14
 -1      2041 1.50981E-02 4.57646E-03-1.74431E-14
 -1      2042 1.56623E-02 4.89336E-03-1.87403E-14
 -1      2043 1.55195E-02 4.81257E-03-1.82942E-14
 -1      2044 1.53838E-02 4.73810E-03-1.83262E-14
 -1      2045 1.59480E-02 5.05493E-03-1.96371E-14
 -1      2046 1.58052E-02 4.97415E-03-1.91883E-14
 -1      2047 1.56695E-02 4.89968E-03-1.92223E-14
 -1      2048 9.12416E-03 1.10503E-03-2.99897E-15
 -1      2049 9.16418E-03 1.08470E-03-3.13952E-15
 -1      2050 1.55914E-02 4.86971E-03-2.19553E-14
 -1      2051 1.56708E-02 4.91188E-03-2.16210E-14
 -1      2052 1.57503E-02 4.95404E-03-2.12915E-14
 -1      2053 1.58297E-02 4.99620E-03-2.09648E-14
 -1      2054 1.55868E-02 4.86302E-03-2.10526E-14
 -1      2055 1.61179E-02 5.15047E-03-2.00647E-14
 -1      2056 1.54352E-02 4.78681E-03-2.26129E-14
 -1      2057 1.55133E-02 4.82826E-03-2.22830E-14
 -1      2058 1.54293E-02 4.77943E-03-2.17052E-14
 -1      2059 1.52765E-02 4.70247E-03-2.32873E-14
 -1      2060 1.53559E-02 4.74464E-03-2.29481E-14
 -1      2061 1.52718E-02 4.69583E-03-2.23615E-14
 -1      2062 1.51178E-02 4.61814E-03-2.39670E-14
 -1      2063 1.51971E-02 4.66031E-03-2.36277E-14
 -1      2064 1.51131E-02 4.61152E-03-2.30288E-14
 -1      2065 1.49592E-02 4.53380E-03-2.46666E-14
 -1      2066 1.50385E-02 4.57597E-03-2.43154E-14
 -1      2067 1.49545E-02 4.52722E-03-2.37077E-14
 -1      2068 1.48008E-02 4.44947E-03-2.53656E-14
 -1      2069 1.48800E-02 4.49164E-03-2.50155E-14
 -1      2070 1.47959E-02 4.44292E-03-2.43970E-14
 -1      2071 1.46423E-02 4.36514E-03-2.60731E-14
 -1      2072 1.47215E-02 4.40730E-03-2.57192E-14
 -1      2073 1.46374E-02 4.35862E-03-2.50889E-14
 -1      2074 1.44867E-02 4.28224E-03-2.67781E-14
 -1      2075 1.45645E-02 4.32369E-03-2.64226E-14
 -1      2076 1.44804E-02 4.27503E-03-2.57825E-14
 -1      2077 1.43285E-02 4.19791E-03-2.74937E-14
 -1      2078 1.44076E-02 4.24008E-03-2.71367E-14
 -1      2079 1.43234E-02 4.19145E-03-2.64824E-14
 -1      2080 1.41703E-02 4.11359E-03-2.82020E-14
 -1      2081 1.42493E-02 4.15575E-03-2.78494E-14
 -1      2082 1.41652E-02 4.10714E-03-2.71871E-14
 -1      2083 1.40121E-02 4.02928E-03-2.89006E-14
 -1      2084 1.40912E-02 4.07143E-03-2.85519E-14
 -1      2085 1.40070E-02 4.02284E-03-2.78861E-14
 -1      2086 8.94375E-03 1.18212E-03-2.70579E-15
 -1      2087 9.05242E-03 1.13892E-03-2.84987E-15
 -1      2088 9.10097E-03 1.11749E-03-3.01996E-15
 -1      2089 9.15948E-03 1.05595E-03-3.26310E-15
 -1      2090 9.11522E-03 1.03632E-03-3.36554E-15
 -1      2091 3.27554E-04-8.59148E-05-3.60768E-17
 -1      2092 3.29811E-04-9.90285E-05-3.83265E-17
 -1      2093 4.47093E-04-1.40908E-04-5.66360E-17
 -1      2094 4.40337E-04-1.05950E-04-5.08355E-17
 -1      2095 7.75126E-03 1.87616E-03-1.67937E-15
 -1      2096 7.95046E-03 1.73881E-03-1.81920E-15
 -1      2097 7.36687E-03 2.10055E-03-1.43004E-15
 -1      2098 7.54995E-03 2.00062E-03-1.54968E-15
 -1      2099 6.99088E-03 2.19879E-03-1.21501E-15
 -1      2100 7.15318E-03 2.17656E-03-1.30028E-15
 -1      2101 6.65404E-03 2.11566E-03-1.06753E-15
 -1      2102 6.81912E-03 2.17868E-03-1.14012E-15
 -1      2103 6.92716E-03 2.20941E-03-1.10388E-15
 -1      2104 6.27618E-03 1.85251E-03-9.23198E-16
 -1      2105 6.45865E-03 1.99270E-03-9.52824E-16
 -1      2106 5.87032E-03 1.52976E-03-8.92285E-16
 -1      2107 6.07748E-03 1.70012E-03-9.07504E-16
 -1      2108 6.25275E-03 1.78916E-03-7.99220E-16
 -1      2109 5.27526E-03 1.14554E-03-9.47837E-16
 -1      2110 5.50718E-03 1.29342E-03-9.28023E-16
 -1      2111 4.85285E-03 8.91638E-04-9.92987E-16
 -1      2112 5.05668E-03 1.01207E-03-9.69575E-16
 -1      2113 5.20185E-03 1.03456E-03-8.91987E-16
 -1      2114 4.45999E-03 7.13327E-04-1.09497E-15
 -1      2115 4.61742E-03 7.73348E-04-1.04310E-15
 -1      2116 4.25192E-03 6.30141E-04-1.20367E-15
 -1      2117 4.34078E-03 6.65909E-04-1.14920E-15
 -1      2118 4.40902E-03 6.50909E-04-1.07011E-15
 -1      2119 4.17477E-03 5.73255E-04-1.33954E-15
 -1      2120 4.18742E-03 5.90682E-04-1.27115E-15
 -1      2121 4.27703E-03 5.26414E-04-1.53459E-15
 -1      2122 4.21058E-03 5.49383E-04-1.44616E-15
 -1      2123 4.50163E-03 4.47619E-04-1.72811E-15
 -1      2124 4.37895E-03 4.89146E-04-1.63302E-15
 -1      2125 4.83016E-03 3.19298E-04-1.95139E-15
 -1      2126 4.66550E-03 3.85501E-04-1.84404E-15
 -1      2127 5.20961E-03 1.55045E-04-2.19182E-15
 -1      2128 5.03218E-03 2.37165E-04-2.07882E-15
 -1      2129 5.58128E-03-1.78931E-05-2.44249E-15
 -1      2130 5.41084E-03 6.11531E-05-2.32639E-15
 -1      2131 5.93544E-03-1.52122E-04-2.70294E-15
 -1      2132 5.77651E-03-9.56965E-05-2.58216E-15
 -1      2133 6.27248E-03-2.05983E-04-2.97109E-15
 -1      2134 6.11765E-03-1.92521E-04-2.84633E-15
 -1      2135 6.62658E-03-1.40772E-04-3.23594E-15
 -1      2136 6.46944E-03-1.86294E-04-3.12903E-15
 -1      2137 6.99458E-03 2.91568E-05-3.42836E-15
 -1      2138 6.82343E-03-6.17190E-05-3.33923E-15
 -1      2139 7.37305E-03 2.53424E-04-3.58684E-15
 -1      2140 7.18260E-03 1.33374E-04-3.50701E-15
 -1      2141 7.03417E-03 8.20445E-05-3.58215E-15
 -1      2142 7.87819E-03 5.38441E-04-3.68252E-15
 -1      2143 7.65792E-03 4.21274E-04-3.66460E-15
 -1      2144 8.31554E-03 7.58238E-04-3.71059E-15
 -1      2145 8.10842E-03 6.60831E-04-3.71032E-15
 -1      2146 8.71859E-03 9.15721E-04-3.64275E-15
 -1      2147 8.53969E-03 8.47502E-04-3.67549E-15
 -1      2148 9.02574E-03 1.00742E-03-3.47622E-15
 -1      2149 8.90424E-03 9.75281E-04-3.55998E-15
 -1      2150 4.52879E-04 2.30515E-04 4.20399E-17
 -1      2151 8.22012E-03 1.56755E-03-2.02636E-15
 -1      2152 8.41725E-03 1.45199E-03-2.18314E-15
 -1      2153 8.50403E-03 1.38016E-03-2.27359E-15
 -1      2154 4.59701E-04-2.33070E-04-5.94685E-17
 -1      2155 1.59822E-02 5.07600E-03-2.01043E-14
 -1      2156 1.59028E-02 5.03385E-03-2.04322E-14
 -1      2157 8.86313E-03 1.20713E-03-2.64989E-15
 -1      2158 6.08963E-04-2.93081E-04-8.85251E-17
 -1      2159 8.07843E-03 1.64315E-03-1.90085E-15
 -1      2160 6.65065E-04-2.86552E-04-1.03772E-16
 -1      2161 6.58534E-04 2.84403E-04 5.61075E-17
 -1      2162 6.02298E-04 2.90889E-04 5.69342E-17
 -1      2163 6.25105E-03 1.74493E-03-6.59114E-16
 -1      2164 6.04594E-03 1.53938E-03-5.87705E-16
 -1      2165 6.93624E-03 2.24484E-03-8.91892E-16
 -1      2166 6.77001E-03 2.17969E-03-8.07839E-16
 -1      2167 7.45769E-03 2.07820E-03-1.34658E-15
 -1      2168 9.17351E-03 1.08341E-03-3.30033E-15
 -1      2169 1.57393E-02 4.94282E-03-2.01983E-14
 -1      2170 9.07495E-03 1.04772E-03-3.53846E-15
 -1      2171 1.39071E-02 3.97202E-03-2.90135E-14
 -1      2172 8.80692E-03 9.81377E-04-3.73449E-15
 -1      2173 8.40284E-03 8.45446E-04-3.85172E-15
 -1      2174 7.47035E-03 3.52971E-04-3.74342E-15
 -1      2175 7.31295E-03 2.84313E-04-3.82029E-15
 -1      2176 7.56825E-03 4.48161E-04-3.90379E-15
 -1      2177 6.69112E-03-1.05736E-04-3.39312E-15
 -1      2178 6.35523E-03-2.08648E-04-3.12402E-15
 -1      2179 6.02537E-03-1.83607E-04-2.81963E-15
 -1      2180 5.68908E-03-6.12562E-05-2.53503E-15
 -1      2181 5.31944E-03 1.13019E-04-2.26216E-15
 -1      2182 4.94089E-03 2.88124E-04-2.00560E-15
 -1      2183 4.58641E-03 4.27255E-04-1.76732E-15
 -1      2184 4.32546E-03 5.11293E-04-1.55910E-15
 -1      2185 4.21569E-03 5.83499E-04-1.19002E-15
 -1      2186 4.75083E-03 7.92612E-04-9.66400E-16
 -1      2187 5.75600E-03 1.40112E-03-8.29496E-16
 -1      2188 6.59188E-03 2.07265E-03-9.17533E-16
 -1      2189 7.64214E-03 1.94317E-03-1.56250E-15
 -1      2190 7.26185E-03 2.15502E-03-1.30424E-15
 -1      2191 5.77249E-03 1.33725E-03-6.71284E-16
 -1      2192 4.18209E-03 5.52405E-04-1.35882E-15
 -1      2193 7.96484E-03 6.41885E-04-3.85594E-15
 -1      2194 5.46516E-04-5.24026E-05-5.00766E-17
 -1      2195 5.47859E-04-6.84771E-05-5.48606E-17
 -1      2196 5.49623E-04-8.52497E-05-5.95363E-17
 -1      2197 5.51851E-04-1.02777E-04-6.44016E-17
 -1      2198 6.64123E-04-9.08498E-05-7.69512E-17
 -1      2199 5.44529E-04 8.47828E-06-3.04254E-17
 -1      2200 5.44546E-04-6.46376E-06-3.54263E-17
 -1      2201 5.45467E-04 3.86565E-05-2.01797E-17
 -1      2202 5.44833E-04 2.34984E-05-2.54110E-17
 -1      2203 6.58736E-04 1.90137E-05-3.85840E-17
 -1      2204 5.47785E-04 6.95592E-05-9.77137E-18
 -1      2205 5.46443E-04 5.39062E-05-1.51924E-17
 -1      2206 6.60387E-04 5.46882E-05-2.52755E-17
 -1      2207 5.51904E-04 1.03525E-04 1.81604E-18
 -1      2208 5.49598E-04 8.61637E-05-4.11997E-18
 -1      2209 6.63968E-04 9.21078E-05-1.13299E-17
 -1      2210 5.58555E-04 1.41716E-04 1.48671E-17
 -1      2211 5.54866E-04 1.22016E-04 8.14507E-18
 -1      2212 6.70061E-04 1.33136E-04 4.20128E-18
 -1      2213 5.69465E-04 1.86543E-04 2.88127E-17
 -1      2214 5.63364E-04 1.63188E-04 2.15214E-17
 -1      2215 6.79707E-04 1.79415E-04 2.10200E-17
 -1      2216 6.15690E-04 2.46433E-04 4.56720E-17
 -1      2217 6.04840E-04 2.17167E-04 3.70526E-17
 -1      2218 7.22348E-04 2.36611E-04 3.92888E-17
 -1      2219 8.02376E-04 3.08049E-04 6.22468E-17
 -1      2220 8.42779E-03 1.41884E-03-2.19959E-15
 -1      2221 8.58893E-03 1.33107E-03-2.36332E-15
 -1      2222 9.17507E-04-3.37754E-04-1.72131E-16
 -1      2223 1.06216E-03-3.69523E-04-2.18114E-16
 -1      2224 1.20607E-03-3.96326E-04-2.68733E-16
 -1      2225 1.34965E-03-4.18600E-04-3.24569E-16
 -1      2226 1.11983E-03-3.49516E-04-2.35611E-16
 -1      2227 1.49270E-03-4.37219E-04-3.85353E-16
 -1      2228 1.63550E-03-4.52471E-04-4.51042E-16
 -1      2229 1.40740E-03-3.93055E-04-3.43882E-16
 -1      2230 1.77810E-03-4.65065E-04-5.21339E-16
 -1      2231 1.92063E-03-4.75249E-04-5.96691E-16
 -1      2232 1.69420E-03-4.23050E-04-4.71018E-16
 -1      2233 2.06320E-03-4.83570E-04-6.77206E-16
 -1      2234 2.20585E-03-4.90251E-04-7.62723E-16
 -1      2235 1.98065E-03-4.43057E-04-6.17223E-16
 -1      2236 2.34872E-03-4.95730E-04-8.53226E-16
 -1      2237 2.49180E-03-5.00214E-04-9.48962E-16
 -1      2238 2.26731E-03-4.56076E-04-7.82957E-16
 -1      2239 2.63521E-03-5.04067E-04-1.04990E-15
 -1      2240 2.77890E-03-5.07482E-04-1.15543E-15
 -1      2241 2.55470E-03-4.64655E-04-9.68789E-16
 -1      2242 2.92299E-03-5.10767E-04-1.26656E-15
 -1      2243 3.06740E-03-5.14100E-04-1.38266E-15
 -1      2244 2.84328E-03-4.71018E-04-1.17468E-15
 -1      2245 3.21224E-03-5.17735E-04-1.50312E-15
 -1      2246 3.35736E-03-5.21820E-04-1.62943E-15
 -1      2247 3.13339E-03-4.77136E-04-1.40041E-15
 -1      2248 3.50289E-03-5.26534E-04-1.76125E-15
 -1      2249 3.64860E-03-5.31973E-04-1.89878E-15
 -1      2250 3.42526E-03-4.84708E-04-1.64671E-15
 -1      2251 3.79461E-03-5.38202E-04-2.04151E-15
 -1      2252 3.94063E-03-5.45215E-04-2.19116E-15
 -1      2253 3.71888E-03-4.95026E-04-1.91577E-15
 -1      2254 4.08674E-03-5.52909E-04-2.34653E-15
 -1      2255 4.23258E-03-5.61115E-04-2.50830E-15
 -1      2256 4.01393E-03-5.08693E-04-2.20725E-15
 -1      2257 4.37821E-03-5.69498E-04-2.67708E-15
 -1      2258 4.52323E-03-5.77655E-04-2.85141E-15
 -1      2259 4.30958E-03-5.25158E-04-2.52433E-15
 -1      2260 4.66762E-03-5.84985E-04-3.03208E-15
 -1      2261 4.81105E-03-5.90802E-04-3.22099E-15
 -1      2262 4.60448E-03-5.42158E-04-2.86697E-15
 -1      2263 4.95345E-03-5.94253E-04-3.41723E-15
 -1      2264 5.09467E-03-5.94415E-04-3.61958E-15
 -1      2265 4.89689E-03-5.55196E-04-3.23693E-15
 -1      2266 5.23459E-03-5.90287E-04-3.83036E-15
 -1      2267 5.37339E-03-5.80866E-04-4.05006E-15
 -1      2268 5.18511E-03-5.57461E-04-3.63610E-15
 -1      2269 5.51092E-03-5.65221E-04-4.27795E-15
 -1      2270 5.64774E-03-5.42524E-04-4.51493E-15
 -1      2271 5.46833E-03-5.40603E-04-4.06707E-15
 -1      2272 5.78373E-03-5.12172E-04-4.76062E-15
 -1      2273 5.91968E-03-4.73799E-04-5.01618E-15
 -1      2274 5.74724E-03-4.96553E-04-4.53295E-15
 -1      2275 6.05551E-03-4.27327E-04-5.28149E-15
 -1      2276 6.19204E-03-3.72973E-04-5.55582E-15
 -1      2277 6.02422E-03-4.19982E-04-5.03743E-15
 -1      2278 6.32918E-03-3.11211E-04-5.84087E-15
 -1      2279 6.46754E-03-2.42770E-04-6.13462E-15
 -1      2280 6.30244E-03-3.10207E-04-5.57993E-15
 -1      2281 6.60700E-03-1.68515E-04-6.43791E-15
 -1      2282 6.74784E-03-8.94395E-05-6.75001E-15
 -1      2283 6.58461E-03-1.71448E-04-6.16078E-15
 -1      2284 6.88992E-03-6.54749E-06-7.07155E-15
 -1      2285 7.03319E-03 7.91942E-05-7.40278E-15
 -1      2286 6.87189E-03-1.12910E-05-6.77835E-15
 -1      2287 7.17755E-03 1.66872E-04-7.74299E-15
 -1      2288 7.32273E-03 2.55722E-04-8.09135E-15
 -1      2289 7.16384E-03 1.61762E-04-7.43189E-15
 -1      2290 7.46869E-03 3.45056E-04-8.44767E-15
 -1      2291 7.61505E-03 4.34384E-04-8.81181E-15
 -1      2292 7.45895E-03 3.40336E-04-8.12074E-15
 -1      2293 7.76185E-03 5.23276E-04-9.18186E-15
 -1      2294 7.90873E-03 6.11483E-04-9.55933E-15
 -1      2295 7.75545E-03 5.19202E-04-8.83960E-15
 -1      2296 8.05577E-03 6.98804E-04-9.94444E-15
 -1      2297 8.20266E-03 7.85161E-04-1.03358E-14
 -1      2298 8.05190E-03 6.95360E-04-9.58513E-15
 -1      2299 8.34951E-03 8.70516E-04-1.07348E-14
 -1      2300 8.49610E-03 9.54894E-04-1.11383E-14
 -1      2301 8.34736E-03 8.67575E-04-1.03606E-14
 -1      2302 8.64253E-03 1.03836E-03-1.15469E-14
 -1      2303 8.78866E-03 1.12098E-03-1.19619E-14
 -1      2304 8.64139E-03 1.03577E-03-1.11593E-14
 -1      2305 8.93457E-03 1.20286E-03-1.23816E-14
 -1      2306 9.08018E-03 1.28410E-03-1.28063E-14
 -1      2307 8.93390E-03 1.20049E-03-1.19792E-14
 -1      2308 9.22555E-03 1.36480E-03-1.32355E-14
 -1      2309 9.37065E-03 1.44506E-03-1.36670E-14
 -1      2310 9.22500E-03 1.36254E-03-1.28204E-14
 -1      2311 9.51552E-03 1.52497E-03-1.41008E-14
 -1      2312 9.66017E-03 1.60460E-03-1.45374E-14
 -1      2313 9.51487E-03 1.52273E-03-1.36771E-14
 -1      2314 9.80460E-03 1.68403E-03-1.49777E-14
 -1      2315 9.94884E-03 1.76333E-03-1.54182E-14
 -1      2316 9.80373E-03 1.68177E-03-1.45439E-14
 -1      2317 1.00929E-02 1.84255E-03-1.58601E-14
 -1      2318 1.02368E-02 1.92173E-03-1.63037E-14
 -1      2319 1.00918E-02 1.84022E-03-1.54204E-14
 -1      2320 1.03806E-02 2.00090E-03-1.67479E-14
 -1      2321 1.05242E-02 2.08010E-03-1.71930E-14
 -1      2322 1.03793E-02 1.99848E-03-1.63015E-14
 -1      2323 1.06677E-02 2.15935E-03-1.76375E-14
 -1      2324 1.08111E-02 2.23866E-03-1.80852E-14
 -1      2325 1.06662E-02 2.15683E-03-1.71875E-14
 -1      2326 1.09545E-02 2.31804E-03-1.85339E-14
 -1      2327 1.10977E-02 2.39751E-03-1.89835E-14
 -1      2328 1.09528E-02 2.31542E-03-1.80773E-14
 -1      2329 1.12409E-02 2.47706E-03-1.94404E-14
 -1      2330 1.13840E-02 2.55670E-03-1.99016E-14
 -1      2331 1.12392E-02 2.47434E-03-1.89759E-14
 -1      2332 1.15271E-02 2.63643E-03-2.03677E-14
 -1      2333 1.16701E-02 2.71624E-03-2.08407E-14
 -1      2334 1.15253E-02 2.63362E-03-1.98928E-14
 -1      2335 1.18131E-02 2.79613E-03-2.13228E-14
 -1      2336 1.19561E-02 2.87610E-03-2.18155E-14
 -1      2337 1.18113E-02 2.79324E-03-2.08319E-14
 -1      2338 1.20991E-02 2.95613E-03-2.23139E-14
 -1      2339 1.22420E-02 3.03623E-03-2.28212E-14
 -1      2340 1.20972E-02 2.95318E-03-2.18052E-14
 -1      2341 1.23849E-02 3.11639E-03-2.33360E-14
 -1      2342 1.25278E-02 3.19661E-03-2.38578E-14
 -1      2343 1.23830E-02 3.11339E-03-2.28117E-14
 -1      2344 1.26707E-02 3.27687E-03-2.43867E-14
 -1      2345 1.28135E-02 3.35717E-03-2.49192E-14
 -1      2346 1.26688E-02 3.27382E-03-2.38449E-14
 -1      2347 1.29564E-02 3.43751E-03-2.54577E-14
 -1      2348 1.30993E-02 3.51788E-03-2.60028E-14
 -1      2349 1.29546E-02 3.43443E-03-2.49041E-14
 -1      2350 1.32421E-02 3.59827E-03-2.65539E-14
 -1      2351 1.33850E-02 3.67868E-03-2.71114E-14
 -1      2352 1.32403E-02 3.59517E-03-2.59863E-14
 -1      2353 1.09186E-03 3.74157E-04 8.48659E-17
 -1      2354 9.47157E-04 3.43949E-04 7.39426E-17
 -1      2355 9.04665E-04 3.05930E-04 5.95498E-17
 -1      2356 1.89746E-03 4.64650E-04 1.16172E-16
 -1      2357 1.76174E-03 4.56457E-04 1.15224E-16
 -1      2358 2.18344E-03 4.75224E-04 1.11104E-16
 -1      2359 2.04035E-03 4.71008E-04 1.14831E-16
 -1      2360 1.95948E-03 4.32578E-04 8.30092E-17
 -1      2361 2.47036E-03 4.78494E-04 9.44340E-17
 -1      2362 2.32671E-03 4.77662E-04 1.04260E-16
 -1      2363 2.24548E-03 4.41075E-04 6.86978E-17
 -1      2364 2.75868E-03 4.76432E-04 6.48624E-17
 -1      2365 2.61426E-03 4.78028E-04 8.14642E-17
 -1      2366 2.53144E-03 4.43056E-04 4.23245E-17
 -1      2367 3.04861E-03 4.71032E-04 2.05456E-17
 -1      2368 2.90335E-03 4.74040E-04 4.44252E-17
 -1      2369 2.81726E-03 4.40501E-04 1.87025E-18
 -1      2370 3.34011E-03 4.64797E-04-3.72017E-17
 -1      2371 3.19404E-03 4.67873E-04-6.58653E-18
 -1      2372 3.10243E-03 4.35529E-04-5.32885E-17
 -1      2373 3.63289E-03 4.61518E-04-1.08800E-16
 -1      2374 3.48616E-03 4.62556E-04-7.12185E-17
 -1      2375 3.38599E-03 4.30876E-04-1.22406E-16
 -1      2376 3.91200E-03 4.66809E-04-1.88882E-16
 -1      2377 3.77207E-03 4.62793E-04-1.47045E-16
 -1      2378 3.65958E-03 4.30515E-04-2.01973E-16
 -1      2379 4.20778E-03 4.91222E-04-2.86446E-16
 -1      2380 4.05916E-03 4.75838E-04-2.36451E-16
 -1      2381 3.92899E-03 4.40071E-04-2.95011E-16
 -1      2382 4.51060E-03 5.51962E-04-3.93931E-16
 -1      2383 4.35742E-03 5.15495E-04-3.39084E-16
 -1      2384 4.20123E-03 4.69703E-04-4.02646E-16
 -1      2385 4.83491E-03 6.77026E-04-5.12570E-16
 -1      2386 4.66855E-03 6.03159E-04-4.51828E-16
 -1      2387 4.47505E-03 5.34529E-04-5.21623E-16
 -1      2388 4.19820E-03 5.33000E-04-1.37809E-15
 -1      2389 4.16197E-03 5.37360E-04-1.27620E-15
 -1      2390 7.01263E-03 2.22870E-03-1.06810E-15
 -1      2391 7.95888E-03 1.74528E-03-1.68707E-15
 -1      2392 8.57735E-03 1.39075E-03-2.28855E-15
 -1      2393 8.36226E-03 1.47955E-03-2.08441E-15
 -1      2394 9.63461E-03 1.48547E-03-3.83733E-15
 -1      2395 9.48256E-03 1.42476E-03-3.56782E-15
 -1      2396 9.91976E-03 1.62051E-03-4.36924E-15
 -1      2397 9.77724E-03 1.55031E-03-4.10033E-15
 -1      2398 9.69659E-03 1.48375E-03-4.16223E-15
 -1      2399 1.02179E-02 1.77920E-03-4.95727E-15
 -1      2400 1.00687E-02 1.69827E-03-4.65979E-15
 -1      2401 9.96904E-03 1.62723E-03-4.72093E-15
 -1      2402 1.05146E-02 1.94615E-03-5.57844E-15
 -1      2403 1.03662E-02 1.86196E-03-5.26414E-15
 -1      2404 1.02524E-02 1.78752E-03-5.32369E-15
 -1      2405 1.08099E-02 2.11642E-03-6.22316E-15
 -1      2406 1.06623E-02 2.03104E-03-5.89642E-15
 -1      2407 1.05387E-02 1.95444E-03-5.95470E-15
 -1      2408 1.11036E-02 2.28744E-03-6.89420E-15
 -1      2409 1.09569E-02 2.20193E-03-6.55707E-15
 -1      2410 1.08267E-02 2.12409E-03-6.61129E-15
 -1      2411 1.13958E-02 2.45796E-03-7.59465E-15
 -1      2412 1.12498E-02 2.37281E-03-7.24114E-15
 -1      2413 1.11154E-02 2.29437E-03-7.29480E-15
 -1      2414 1.16865E-02 2.62745E-03-8.31579E-15
 -1      2415 1.15413E-02 2.54286E-03-7.95193E-15
 -1      2416 1.14041E-02 2.46419E-03-8.00418E-15
 -1      2417 1.19616E-02 2.78737E-03-9.01865E-15
 -1      2418 1.18242E-02 2.70755E-03-8.66437E-15
 -1      2419 1.16853E-02 2.62888E-03-8.71686E-15
 -1      2420 1.22502E-02 2.95456E-03-9.77503E-15
 -1      2421 1.21060E-02 2.87111E-03-9.39503E-15
 -1      2422 1.19660E-02 2.79254E-03-9.44687E-15
 -1      2423 1.25381E-02 3.12068E-03-1.05423E-14
 -1      2424 1.23942E-02 3.03775E-03-1.01572E-14
 -1      2425 1.22535E-02 2.95932E-03-1.02079E-14
 -1      2426 1.28253E-02 3.28587E-03-1.13175E-14
 -1      2427 1.26817E-02 3.20339E-03-1.09289E-14
 -1      2428 1.25406E-02 3.12512E-03-1.09800E-14
 -1      2429 1.31120E-02 3.45025E-03-1.21040E-14
 -1      2430 1.29687E-02 3.36815E-03-1.17083E-14
 -1      2431 1.28274E-02 3.29004E-03-1.17614E-14
 -1      2432 1.33985E-02 3.61396E-03-1.29059E-14
 -1      2433 1.32553E-02 3.53218E-03-1.25045E-14
 -1      2434 1.31138E-02 3.45421E-03-1.25564E-14
 -1      2435 1.36846E-02 3.77712E-03-1.37173E-14
 -1      2436 1.35416E-02 3.69561E-03-1.33095E-14
 -1      2437 1.34000E-02 3.61775E-03-1.33627E-14
 -1      2438 1.39563E-02 3.93171E-03-1.45015E-14
 -1      2439 1.38205E-02 3.85446E-03-1.41067E-14
 -1      2440 1.36790E-02 3.77670E-03-1.41606E-14
 -1      2441 1.42422E-02 4.09408E-03-1.53374E-14
 -1      2442 1.40993E-02 4.01293E-03-1.49186E-14
 -1      2443 1.39578E-02 3.93526E-03-1.49703E-14
 -1      2444 1.45280E-02 4.25617E-03-1.61910E-14
 -1      2445 1.43851E-02 4.17516E-03-1.57626E-14
 -1      2446 1.42436E-02 4.09754E-03-1.58146E-14
 -1      2447 1.48138E-02 4.41805E-03-1.70559E-14
 -1      2448 1.46709E-02 4.33713E-03-1.66218E-14
 -1      2449 1.45294E-02 4.25956E-03-1.66726E-14
 -1      2450 1.50995E-02 4.57977E-03-1.79344E-14
 -1      2451 1.49566E-02 4.49892E-03-1.74933E-14
 -1      2452 1.48152E-02 4.42139E-03-1.75441E-14
 -1      2453 1.53852E-02 4.74139E-03-1.88298E-14
 -1      2454 1.52423E-02 4.66059E-03-1.83813E-14
 -1      2455 1.51009E-02 4.58308E-03-1.84322E-14
 -1      2456 1.56337E-02 4.88250E-03-1.97364E-14
 -1      2457 1.54908E-02 4.80172E-03-1.92828E-14
 -1      2458 1.53494E-02 4.72422E-03-1.93364E-14
 -1      2459 1.55607E-02 4.84486E-03-2.02588E-14
 -1      2460 9.12314E-03 1.08250E-03-3.63359E-15
 -1      2461 9.03937E-03 1.07232E-03-3.74776E-15
 -1      2462 1.49497E-02 4.52058E-03-2.27693E-14
 -1      2463 1.50290E-02 4.56272E-03-2.24388E-14
 -1      2464 8.78254E-03 1.23938E-03-2.58546E-15
 -1      2465 8.95116E-03 1.17453E-03-2.80534E-15
 -1      2466 1.47911E-02 4.43631E-03-2.34429E-14
 -1      2467 1.48704E-02 4.47845E-03-2.31037E-14
 -1      2468 1.47863E-02 4.42966E-03-2.25094E-14
 -1      2469 1.46326E-02 4.35205E-03-2.41220E-14
 -1      2470 1.47118E-02 4.39418E-03-2.37830E-14
 -1      2471 1.46277E-02 4.34542E-03-2.31758E-14
 -1      2472 1.44741E-02 4.26778E-03-2.48079E-14
 -1      2473 1.45533E-02 4.30991E-03-2.44641E-14
 -1      2474 1.44692E-02 4.26119E-03-2.38474E-14
 -1      2475 1.43184E-02 4.18494E-03-2.54898E-14
 -1      2476 1.43963E-02 4.22636E-03-2.51489E-14
 -1      2477 1.43121E-02 4.17768E-03-2.45215E-14
 -1      2478 1.41601E-02 4.10067E-03-2.61843E-14
 -1      2479 1.42393E-02 4.14281E-03-2.58348E-14
 -1      2480 1.41551E-02 4.09415E-03-2.51975E-14
 -1      2481 1.40019E-02 4.01639E-03-2.68793E-14
 -1      2482 1.40810E-02 4.05853E-03-2.65334E-14
 -1      2483 1.39969E-02 4.00990E-03-2.58848E-14
 -1      2484 1.38437E-02 3.93210E-03-2.75694E-14
 -1      2485 1.39228E-02 3.97424E-03-2.72243E-14
 -1      2486 1.38386E-02 3.92564E-03-2.65730E-14
 -1      2487 9.07521E-03 1.13413E-03-3.02166E-15
 -1      2488 9.14198E-03 1.11902E-03-3.17768E-15
 -1      2489 8.89224E-03 1.03931E-03-3.85649E-15
 -1      2490 8.71851E-03 9.95548E-04-3.94039E-15
 -1      2491 1.61889E-03 4.45104E-04 1.11930E-16
 -1      2492 1.47583E-03 4.30734E-04 1.06713E-16
 -1      2493 1.67325E-03 4.15378E-04 8.72647E-17
 -1      2494 1.52665E-02 4.68879E-03-2.14538E-14
 -1      2495 1.53446E-02 4.73022E-03-2.11321E-14
 -1      2496 1.37822E-02 3.90162E-03-2.84846E-14
 -1      2497 6.75223E-03-5.69588E-05-3.58841E-15
 -1      2498 6.59936E-03-1.35626E-04-3.47698E-15
 -1      2499 1.54129E-02 4.76647E-03-2.08553E-14
 -1      2500 1.54923E-02 4.80862E-03-2.05308E-14
 -1      2501 1.53867E-02 4.74830E-03-2.00652E-14
 -1      2502 1.52501E-02 4.67582E-03-2.06088E-14
 -1      2503 1.51081E-02 4.60468E-03-2.21071E-14
 -1      2504 1.51875E-02 4.64682E-03-2.17796E-14
 -1      2505 1.51028E-02 4.59763E-03-2.12038E-14
 -1      2506 1.49447E-02 4.51372E-03-2.18537E-14
 -1      2507 9.32873E-03 1.37444E-03-3.30819E-15
 -1      2508 9.17037E-03 1.33866E-03-3.05612E-15
 -1      2509 9.42673E-03 1.36294E-03-3.63336E-15
 -1      2510 9.00528E-03 1.32010E-03-2.81542E-15
 -1      2511 8.83026E-03 1.32826E-03-2.58508E-15
 -1      2512 9.14441E-03 1.28023E-03-3.12575E-15
 -1      2513 9.18591E-03 1.10353E-03-3.37571E-15
 -1      2514 9.17699E-03 1.09545E-03-3.50438E-15
 -1      2515 9.16988E-03 1.11233E-03-3.71383E-15
 -1      2516 5.44878E-04-2.15281E-05-4.03730E-17
 -1      2517 5.45528E-04-3.67711E-05-4.53603E-17
 -1      2518 6.60544E-04-5.27008E-05-6.45371E-17
 -1      2519 6.58798E-04-1.64867E-05-5.17300E-17
 -1      2520 1.35601E-03 4.16377E-04 1.01427E-16
 -1      2521 1.21229E-03 3.95087E-04 9.30923E-17
 -1      2522 1.16928E-03 3.57039E-04 7.45931E-17
 -1      2523 1.40989E-03 3.90098E-04 8.34023E-17
 -1      2524 5.47520E-03 1.11750E-03-7.15750E-16
 -1      2525 4.65825E-03 7.04574E-04-9.27626E-16
 -1      2526 4.88099E-03 8.05279E-04-8.76638E-16
 -1      2527 4.35166E-03 5.93850E-04-1.03324E-15
 -1      2528 4.46398E-03 6.24645E-04-9.80373E-16
 -1      2529 8.03810E-03 7.24062E-04-4.04332E-15
 -1      2530 7.82868E-03 6.10700E-04-4.01148E-15
 -1      2531 4.18077E-03 5.45532E-04-1.16340E-15
 -1      2532 4.24716E-03 5.62680E-04-1.09896E-15
 -1      2533 4.27998E-03 5.45971E-04-1.00958E-15
 -1      2534 4.36887E-03 4.92291E-04-1.57062E-15
 -1      2535 4.27297E-03 5.13407E-04-1.47795E-15
 -1      2536 4.65721E-03 4.01691E-04-1.79577E-15
 -1      2537 4.50697E-03 4.51495E-04-1.68621E-15
 -1      2538 4.99819E-03 2.60541E-04-2.03661E-15
 -1      2539 4.82321E-03 3.37867E-04-1.91451E-15
 -1      2540 4.71180E-03 3.63961E-04-1.82807E-15
 -1      2541 5.41650E-03 6.15424E-05-2.34255E-15
 -1      2542 5.23892E-03 1.49039E-04-2.21093E-15
 -1      2543 5.75629E-03-1.02425E-04-2.62933E-15
 -1      2544 5.59690E-03-2.61162E-05-2.48964E-15
 -1      2545 6.07750E-03-2.08360E-04-2.93645E-15
 -1      2546 5.93448E-03-1.68367E-04-2.79063E-15
 -1      2547 6.40000E-03-2.03863E-04-3.28380E-15
 -1      2548 6.24781E-03-2.23411E-04-3.12126E-15
 -1      2549 7.05036E-03 1.25249E-04-3.75294E-15
 -1      2550 6.89743E-03 2.52142E-05-3.66899E-15
 -1      2551 6.79213E-03-1.85208E-05-3.75351E-15
 -1      2552 8.50066E-03 9.25273E-04-4.01904E-15
 -1      2553 8.29633E-03 8.46299E-04-4.05272E-15
 -1      2554 5.89850E-04-2.32615E-04-8.77391E-17
 -1      2555 7.83185E-04-2.97577E-04-1.34007E-16
 -1      2556 8.42684E-04-2.85569E-04-1.49335E-16
 -1      2557 5.80170E-04-2.04731E-04-8.44458E-17
 -1      2558 5.24545E-03 9.79014E-04-7.65013E-16
 -1      2559 5.28642E-03 9.51979E-04-6.19540E-16
 -1      2560 5.08322E-03 8.08058E-04-5.50300E-16
 -1      2561 5.05630E-03 8.65875E-04-7.90682E-16
 -1      2562 6.69999E-04-1.32245E-04-8.89859E-17
 -1      2563 5.54698E-04-1.21330E-04-6.88062E-17
 -1      2564 5.58258E-04-1.41054E-04-7.30481E-17
 -1      2565 8.24396E-03 1.53392E-03-2.00011E-15
 -1      2566 4.92968E-03 7.74448E-04-7.54971E-16
 -1      2567 8.01867E-03 1.68914E-03-1.78452E-15
 -1      2568 8.71761E-03 1.28165E-03-2.51229E-15
 -1      2569 6.47811E-03-1.75412E-04-3.46909E-15
 -1      2570 4.21784E-03 5.07440E-04-1.39165E-15
 -1      2571 4.13666E-03 5.04920E-04-1.20200E-15
 -1      2572 4.15104E-03 5.23024E-04-1.18316E-15
 -1      2573 4.15187E-03 5.05112E-04-1.09353E-15
 -1      2574 4.83406E-03 6.89240E-04-6.26425E-16
 -1      2575 6.62369E-03 2.08823E-03-8.76144E-16
 -1      2576 7.75602E-03 1.86690E-03-1.60009E-15
 -1      2577 8.77781E-03 1.29103E-03-2.57704E-15
 -1      2578 9.02435E-03 1.16530E-03-2.95814E-15
 -1      2579 9.18807E-03 1.12399E-03-3.38110E-15
 -1      2580 8.62312E-03 9.89878E-04-4.14404E-15
 -1      2581 8.97685E-03 1.08116E-03-3.95550E-15
 -1      2582 5.65028E-04-1.59650E-04-7.70868E-17
 -1      2583 5.70738E-04-1.82637E-04-8.10035E-17
 -1      2584 6.99128E-04-2.21107E-04-1.09952E-16
 -1      2585 6.81347E-04-1.75324E-04-1.00018E-16
 -1      2586 1.36048E-02 3.80260E-03-2.80168E-14
 -1      2587 1.37505E-02 3.88166E-03-2.77653E-14
 -1      2588 1.36664E-02 3.83307E-03-2.71083E-14
 -1      2589 1.34800E-02 3.73221E-03-2.74967E-14
 -1      2590 8.16751E-03 8.09132E-04-4.21222E-15
 -1      2591 7.66944E-03 5.34177E-04-4.08835E-15
 -1      2592 1.34782E-02 3.72910E-03-2.69171E-14
 -1      2593 7.16068E-03 2.10955E-04-3.90805E-15
 -1      2594 6.14331E-03-2.24366E-04-3.08727E-15
 -1      2595 5.82162E-03-1.43042E-04-2.74013E-15
 -1      2596 7.58121E-03 1.99201E-03-1.46950E-15
 -1      2597 5.09829E-03 2.02606E-04-2.11380E-15
 -1      2598 4.96153E-03 2.42167E-04-2.02075E-15
 -1      2599 5.17746E-03 1.42422E-04-2.19025E-15
 -1      2600 4.56523E-03 6.36590E-04-8.93200E-16
 -1      2601 6.79995E-03 2.18616E-03-9.90473E-16
 -1      2602 6.93974E-03 2.22019E-03-1.06011E-15
 -1      2603 4.42178E-03 4.58837E-04-1.60002E-15
 -1      2604 5.49182E-03 7.08532E-06-2.43260E-15
 -1      2605 7.77274E-04 7.31796E-05-3.04661E-17
 -1      2606 7.75689E-04 5.25763E-05-3.89364E-17
 -1      2607 7.74648E-04 3.19656E-05-4.72983E-17
 -1      2608 7.74174E-04 1.15895E-05-5.57686E-17
 -1      2609 8.92114E-04 4.72535E-05-5.62836E-17
 -1      2610 7.90943E-04 1.64639E-04 7.54876E-18
 -1      2611 7.86260E-04 1.40141E-04-2.77827E-18
 -1      2612 8.04058E-04 2.18431E-04 2.87043E-17
 -1      2613 7.96853E-04 1.90663E-04 1.79978E-17
 -1      2614 9.14284E-04 1.97569E-04 1.20482E-17
 -1      2615 8.71619E-04 2.77298E-04 4.90737E-17
 -1      2616 8.33803E-04 2.43557E-04 3.72559E-17
 -1      2617 9.51718E-04 2.52219E-04 3.43963E-17
 -1      2618 1.01512E-03 3.06882E-04 5.61481E-17
 -1      2619 7.29616E-03 3.20769E-04-4.12996E-15
 -1      2620 7.06733E-03 1.69331E-04-4.05418E-15
 -1      2621 1.32314E-03-3.49425E-04-3.04498E-16
 -1      2622 1.46691E-03-3.66757E-04-3.61703E-16
 -1      2623 1.61058E-03-3.81179E-04-4.23232E-16
 -1      2624 1.75427E-03-3.92942E-04-4.89314E-16
 -1      2625 1.52764E-03-3.39719E-04-3.77858E-16
 -1      2626 1.89794E-03-4.02550E-04-5.60139E-16
 -1      2627 2.04166E-03-4.10227E-04-6.35681E-16
 -1      2628 1.81537E-03-3.62230E-04-5.05767E-16
 -1      2629 2.18547E-03-4.16405E-04-7.16265E-16
 -1      2630 2.32943E-03-4.21289E-04-8.01009E-16
 -1      2631 2.10344E-03-3.76850E-04-6.52175E-16
 -1      2632 2.47361E-03-4.25244E-04-8.90943E-16
 -1      2633 2.61804E-03-4.28471E-04-9.86055E-16
 -1      2634 2.39211E-03-3.85956E-04-8.16675E-16
 -1      2635 2.76284E-03-4.31278E-04-1.08622E-15
 -1      2636 2.90800E-03-4.33868E-04-1.19110E-15
 -1      2637 2.68180E-03-3.91693E-04-1.00108E-15
 -1      2638 3.05366E-03-4.36499E-04-1.30084E-15
 -1      2639 3.19978E-03-4.39371E-04-1.41521E-15
 -1      2640 2.97310E-03-3.96022E-04-1.20483E-15
 -1      2641 3.34652E-03-4.42692E-04-1.53556E-15
 -1      2642 3.49377E-03-4.46645E-04-1.66173E-15
 -1      2643 3.26662E-03-4.00763E-04-1.42829E-15
 -1      2644 3.64172E-03-4.51363E-04-1.79240E-15
 -1      2645 3.79017E-03-4.56981E-04-1.92927E-15
 -1      2646 3.56297E-03-4.07572E-04-1.67321E-15
 -1      2647 3.93929E-03-4.63517E-04-2.07218E-15
 -1      2648 4.08877E-03-4.70987E-04-2.22057E-15
 -1      2649 3.86253E-03-4.17796E-04-1.94029E-15
 -1      2650 4.23872E-03-4.79238E-04-2.37604E-15
 -1      2651 4.38874E-03-4.88067E-04-2.53747E-15
 -1      2652 4.16519E-03-4.32127E-04-2.23114E-15
 -1      2653 4.53882E-03-4.97085E-04-2.70472E-15
 -1      2654 4.68850E-03-5.05748E-04-2.87904E-15
 -1      2655 4.47002E-03-4.50001E-04-2.54640E-15
 -1      2656 4.83768E-03-5.13391E-04-3.06031E-15
 -1      2657 4.98592E-03-5.19040E-04-3.24858E-15
 -1      2658 4.77510E-03-4.68752E-04-2.88827E-15
 -1      2659 5.13303E-03-5.21771E-04-3.44471E-15
 -1      2660 5.27888E-03-5.20281E-04-3.64819E-15
 -1      2661 5.07772E-03-4.82747E-04-3.25712E-15
 -1      2662 5.42323E-03-5.13524E-04-3.86027E-15
 -1      2663 5.56640E-03-5.00153E-04-4.08068E-15
 -1      2664 5.37532E-03-4.83212E-04-3.65733E-15
 -1      2665 5.70825E-03-4.79284E-04-4.30943E-15
 -1      2666 5.84953E-03-4.49983E-04-4.54878E-15
 -1      2667 5.66687E-03-4.59545E-04-4.09078E-15
 -1      2668 5.99018E-03-4.11851E-04-4.79829E-15
 -1      2669 6.13123E-03-3.64768E-04-5.05601E-15
 -1      2670 5.95396E-03-4.02402E-04-4.56183E-15
 -1      2671 6.27261E-03-3.08970E-04-5.32341E-15
 -1      2672 6.41521E-03-2.45198E-04-5.60115E-15
 -1      2673 6.24046E-03-3.07399E-04-5.07125E-15
 -1      2674 6.55890E-03-1.74232E-04-5.88822E-15
 -1      2675 6.70411E-03-9.73655E-05-6.18377E-15
 -1      2676 6.53059E-03-1.77131E-04-5.61865E-15
 -1      2677 6.85062E-03-1.56348E-05-6.48922E-15
 -1      2678 6.99842E-03 6.96117E-05-6.80288E-15
 -1      2679 6.82661E-03-1.99715E-05-6.20351E-15
 -1      2680 7.14728E-03 1.57399E-04-7.12593E-15
 -1      2681 7.29684E-03 2.46644E-04-7.45779E-15
 -1      2682 7.12813E-03 1.53445E-04-6.82542E-15
 -1      2683 7.44696E-03 3.36598E-04-7.79840E-15
 -1      2684 7.59719E-03 4.26597E-04-8.14686E-15
 -1      2685 7.43284E-03 3.33665E-04-7.48037E-15
 -1      2686 7.74749E-03 5.16163E-04-8.50309E-15
 -1      2687 7.89743E-03 6.04994E-04-8.86471E-15
 -1      2688 7.73797E-03 5.14134E-04-8.17030E-15
 -1      2689 8.04710E-03 6.92848E-04-9.23339E-15
 -1      2690 8.19618E-03 7.79665E-04-9.60867E-15
 -1      2691 8.04135E-03 6.91337E-04-8.88739E-15
 -1      2692 8.34480E-03 8.65372E-04-9.99160E-15
 -1      2693 8.49277E-03 9.50042E-04-1.03816E-14
 -1      2694 8.34179E-03 8.64017E-04-9.62812E-15
 -1      2695 8.64023E-03 1.03370E-03-1.07773E-14
 -1      2696 8.78708E-03 1.11648E-03-1.11775E-14
 -1      2697 8.63900E-03 1.03227E-03-1.03983E-14
 -1      2698 8.93346E-03 1.19845E-03-1.15838E-14
 -1      2699 9.07933E-03 1.27974E-03-1.19953E-14
 -1      2700 8.93321E-03 1.19681E-03-1.11930E-14
 -1      2701 9.22480E-03 1.36045E-03-1.24108E-14
 -1      2702 9.36987E-03 1.44069E-03-1.28324E-14
 -1      2703 9.22495E-03 1.35859E-03-1.20077E-14
 -1      2704 9.51462E-03 1.52056E-03-1.32565E-14
 -1      2705 9.65908E-03 1.60013E-03-1.36831E-14
 -1      2706 9.51479E-03 1.51848E-03-1.28406E-14
 -1      2707 9.80328E-03 1.67950E-03-1.41142E-14
 -1      2708 9.94728E-03 1.75871E-03-1.45477E-14
 -1      2709 9.80326E-03 1.67723E-03-1.36884E-14
 -1      2710 1.00911E-02 1.83784E-03-1.49839E-14
 -1      2711 1.02347E-02 1.91692E-03-1.54208E-14
 -1      2712 1.00908E-02 1.83542E-03-1.45490E-14
 -1      2713 1.03783E-02 1.99600E-03-1.58580E-14
 -1      2714 1.05217E-02 2.07509E-03-1.62977E-14
 -1      2715 1.03776E-02 1.99344E-03-1.54186E-14
 -1      2716 1.06650E-02 2.15424E-03-1.67383E-14
 -1      2717 1.08082E-02 2.23345E-03-1.71796E-14
 -1      2718 1.06640E-02 2.15158E-03-1.62906E-14
 -1      2719 1.09514E-02 2.31274E-03-1.76230E-14
 -1      2720 1.10945E-02 2.39211E-03-1.80668E-14
 -1      2721 1.09502E-02 2.30998E-03-1.71696E-14
 -1      2722 1.12376E-02 2.47157E-03-1.85128E-14
 -1      2723 1.13806E-02 2.55112E-03-1.89651E-14
 -1      2724 1.12362E-02 2.46874E-03-1.80542E-14
 -1      2725 1.15236E-02 2.63077E-03-1.94202E-14
 -1      2726 1.16666E-02 2.71050E-03-1.98794E-14
 -1      2727 1.15221E-02 2.62787E-03-1.89509E-14
 -1      2728 1.18096E-02 2.79032E-03-2.03472E-14
 -1      2729 1.19525E-02 2.87023E-03-2.08209E-14
 -1      2730 1.18079E-02 2.78737E-03-1.98652E-14
 -1      2731 1.20954E-02 2.95021E-03-2.13046E-14
 -1      2732 1.22383E-02 3.03026E-03-2.17941E-14
 -1      2733 1.20937E-02 2.94721E-03-2.08080E-14
 -1      2734 1.23812E-02 3.11037E-03-2.22916E-14
 -1      2735 1.25241E-02 3.19054E-03-2.27978E-14
 -1      2736 1.23795E-02 3.10733E-03-2.17806E-14
 -1      2737 1.26670E-02 3.27077E-03-2.33122E-14
 -1      2738 1.28099E-02 3.35104E-03-2.38318E-14
 -1      2739 1.26652E-02 3.26770E-03-2.27842E-14
 -1      2740 1.29527E-02 3.43135E-03-2.43549E-14
 -1      2741 1.30956E-02 3.51170E-03-2.48856E-14
 -1      2742 1.29509E-02 3.42826E-03-2.38120E-14
 -1      2743 1.32385E-02 3.59207E-03-2.54226E-14
 -1      2744 1.33813E-02 3.67247E-03-2.59665E-14
 -1      2745 1.32367E-02 3.58897E-03-2.48645E-14
 -1      2746 8.28169E-03 8.85156E-04-4.46001E-15
 -1      2747 8.05007E-03 7.75650E-04-4.44637E-15
 -1      2748 2.30341E-03 4.07218E-04 2.33781E-17
 -1      2749 2.16087E-03 4.04612E-04 3.64970E-17
 -1      2750 2.01815E-03 4.00293E-04 4.67562E-17
 -1      2751 1.87519E-03 3.94108E-04 5.44676E-17
 -1      2752 2.07685E-03 3.68204E-04 7.31836E-18
 -1      2753 2.86989E-03 4.06257E-04-6.48759E-17
 -1      2754 2.72895E-03 4.07755E-04-3.71610E-17
 -1      2755 3.14920E-03 4.02681E-04-1.30104E-16
 -1      2756 3.00993E-03 4.04542E-04-9.56266E-17
 -1      2757 2.92042E-03 3.73952E-04-1.34360E-16
 -1      2758 3.42360E-03 4.00752E-04-2.09847E-16
 -1      2759 3.28703E-03 4.01403E-04-1.68512E-16
 -1      2760 3.19301E-03 3.72714E-04-2.11203E-16
 -1      2761 3.67741E-03 4.04263E-04-2.97857E-16
 -1      2762 3.55132E-03 4.01738E-04-2.52551E-16
 -1      2763 3.45086E-03 3.74523E-04-2.98738E-16
 -1      2764 3.93471E-03 4.19291E-04-4.04055E-16
 -1      2765 3.80718E-03 4.10132E-04-3.49208E-16
 -1      2766 3.69738E-03 3.83218E-04-3.99569E-16
 -1      2767 4.18044E-03 4.54322E-04-5.21786E-16
 -1      2768 4.05845E-03 4.33911E-04-4.61057E-16
 -1      2769 3.93419E-03 4.04457E-04-5.15877E-16
 -1      2770 4.41897E-03 5.22207E-04-6.51124E-16
 -1      2771 4.29936E-03 4.83307E-04-5.85225E-16
 -1      2772 4.15117E-03 4.44701E-04-6.44741E-16
 -1      2773 1.00092E-02 1.63837E-03-5.07739E-15
 -1      2774 9.87626E-03 1.56168E-03-4.78086E-15
 -1      2775 7.32641E-03 2.13439E-03-1.31571E-15
 -1      2776 9.75278E-03 1.49247E-03-4.50512E-15
 -1      2777 9.63107E-03 1.42692E-03-4.23720E-15
 -1      2778 9.79540E-03 1.50528E-03-4.85155E-15
 -1      2779 1.05593E-02 1.96447E-03-6.33425E-15
 -1      2780 1.04194E-02 1.88095E-03-6.01018E-15
 -1      2781 1.08414E-02 2.13291E-03-7.00091E-15
 -1      2782 1.06999E-02 2.04846E-03-6.66364E-15
 -1      2783 1.05760E-02 1.97526E-03-6.71444E-15
 -1      2784 1.11260E-02 2.30206E-03-7.69565E-15
 -1      2785 1.09834E-02 2.21744E-03-7.34493E-15
 -1      2786 1.08538E-02 2.14223E-03-7.39312E-15
 -1      2787 1.14117E-02 2.47093E-03-8.41598E-15
 -1      2788 1.12687E-02 2.38655E-03-8.05333E-15
 -1      2789 1.11351E-02 2.31010E-03-8.09932E-15
 -1      2790 1.16837E-02 2.63067E-03-9.11833E-15
 -1      2791 1.15477E-02 2.55090E-03-8.76561E-15
 -1      2792 1.14114E-02 2.47373E-03-8.81130E-15
 -1      2793 1.19703E-02 2.79793E-03-9.87543E-15
 -1      2794 1.18270E-02 2.71442E-03-9.49550E-15
 -1      2795 1.16889E-02 2.63686E-03-9.54143E-15
 -1      2796 1.22568E-02 2.96423E-03-1.06428E-14
 -1      2797 1.21135E-02 2.88120E-03-1.02583E-14
 -1      2798 1.19742E-02 2.80345E-03-1.03063E-14
 -1      2799 1.25432E-02 3.12965E-03-1.14196E-14
 -1      2800 1.24000E-02 3.04705E-03-1.10308E-14
 -1      2801 1.22599E-02 2.96923E-03-1.10805E-14
 -1      2802 1.28295E-02 3.29427E-03-1.22078E-14
 -1      2803 1.26864E-02 3.21205E-03-1.18121E-14
 -1      2804 1.25457E-02 3.13423E-03-1.18626E-14
 -1      2805 1.31157E-02 3.45820E-03-1.30078E-14
 -1      2806 1.29726E-02 3.37631E-03-1.26057E-14
 -1      2807 1.28316E-02 3.29853E-03-1.26557E-14
 -1      2808 1.34017E-02 3.62155E-03-1.38206E-14
 -1      2809 1.32587E-02 3.53994E-03-1.34138E-14
 -1      2810 1.31175E-02 3.46221E-03-1.34614E-14
 -1      2811 1.36734E-02 3.77629E-03-1.46032E-14
 -1      2812 1.35375E-02 3.69897E-03-1.42100E-14
 -1      2813 1.33962E-02 3.62129E-03-1.42603E-14
 -1      2814 1.39592E-02 3.93880E-03-1.54423E-14
 -1      2815 1.38163E-02 3.85759E-03-1.50214E-14
 -1      2816 1.36749E-02 3.77996E-03-1.50714E-14
 -1      2817 1.42451E-02 4.10100E-03-1.62933E-14
 -1      2818 1.41021E-02 4.01993E-03-1.58669E-14
 -1      2819 1.39607E-02 3.94234E-03-1.59178E-14
 -1      2820 1.45308E-02 4.26295E-03-1.71548E-14
 -1      2821 1.43879E-02 4.18200E-03-1.67225E-14
 -1      2822 1.42465E-02 4.10445E-03-1.67725E-14
 -1      2823 1.48166E-02 4.42473E-03-1.80323E-14
 -1      2824 1.46737E-02 4.34386E-03-1.75915E-14
 -1      2825 1.45323E-02 4.26633E-03-1.76388E-14
 -1      2826 1.51023E-02 4.58637E-03-1.89314E-14
 -1      2827 1.49595E-02 4.50556E-03-1.84802E-14
 -1      2828 1.48180E-02 4.42806E-03-1.85274E-14
 -1      2829 1.52973E-02 4.69751E-03-1.97249E-14
 -1      2830 1.51917E-02 4.63718E-03-1.92670E-14
 -1      2831 1.50503E-02 4.55968E-03-1.93137E-14
 -1      2832 1.52290E-02 4.66128E-03-1.99937E-14
 -1      2833 1.44644E-02 4.25455E-03-2.29061E-14
 -1      2834 1.45437E-02 4.29665E-03-2.25766E-14
 -1      2835 9.21243E-03 1.13892E-03-3.81952E-15
 -1      2836 9.15866E-03 1.13491E-03-3.95297E-15
 -1      2837 8.93188E-03 1.23145E-03-2.81149E-15
 -1      2838 1.46230E-02 4.33875E-03-2.22476E-14
 -1      2839 1.47023E-02 4.38085E-03-2.19211E-14
 -1      2840 1.44596E-02 4.24785E-03-2.19849E-14
 -1      2841 1.41495E-02 4.08723E-03-2.42335E-14
 -1      2842 1.42274E-02 4.12862E-03-2.39011E-14
 -1      2843 1.39912E-02 4.00302E-03-2.49071E-14
 -1      2844 1.40703E-02 4.04513E-03-2.45717E-14
 -1      2845 1.39855E-02 3.99610E-03-2.39528E-14
 -1      2846 1.38329E-02 3.91880E-03-2.55882E-14
 -1      2847 1.39120E-02 3.96091E-03-2.52455E-14
 -1      2848 1.38272E-02 3.91192E-03-2.46197E-14
 -1      2849 9.20350E-03 1.15309E-03-3.43331E-15
 -1      2850 9.23546E-03 1.14886E-03-3.63846E-15
 -1      2851 9.50639E-03 1.36403E-03-3.96307E-15
 -1      2852 9.38295E-03 1.30772E-03-3.69647E-15
 -1      2853 9.56592E-03 1.37279E-03-4.29649E-15
 -1      2854 4.22410E-03 4.79031E-04-1.38865E-15
 -1      2855 4.16100E-03 4.90064E-04-1.29490E-15
 -1      2856 1.73209E-03 3.85654E-04 5.95498E-17
 -1      2857 1.58878E-03 3.74732E-04 6.21654E-17
 -1      2858 1.79147E-03 3.55770E-04 2.86500E-17
 -1      2859 1.43062E-02 4.17054E-03-2.35689E-14
 -1      2860 1.43855E-02 4.21263E-03-2.32357E-14
 -1      2861 1.43014E-02 4.16388E-03-2.26363E-14
 -1      2862 1.41436E-02 4.08008E-03-2.32899E-14
 -1      2863 6.53731E-03-1.43004E-04-3.66439E-15
 -1      2864 6.36451E-03-2.07357E-04-3.46514E-15
 -1      2865 1.02811E-02 1.79858E-03-5.69252E-15
 -1      2866 1.01440E-02 1.71734E-03-5.38062E-15
 -1      2867 1.03039E-02 1.81084E-03-6.06242E-15
 -1      2868 4.48138E-03 5.81735E-04-8.50706E-16
 -1      2869 4.66553E-03 6.48229E-04-7.98000E-16
 -1      2870 9.23597E-03 1.26269E-03-3.36519E-15
 -1      2871 9.10721E-03 1.23240E-03-3.11859E-15
 -1      2872 9.05407E-03 1.19305E-03-3.03962E-15
 -1      2873 9.32999E-03 1.25609E-03-3.68266E-15
 -1      2874 8.73989E-03 1.04830E-03-4.30269E-15
 -1      2875 8.54603E-03 9.88013E-04-4.38211E-15
 -1      2876 4.80613E-03 6.96673E-04-7.15329E-16
 -1      2877 4.59641E-03 5.89144E-04-6.70410E-16
 -1      2878 7.76339E-03 6.18155E-04-4.35668E-15
 -1      2879 7.52628E-03 4.70216E-04-4.24244E-15
 -1      2880 7.41553E-03 4.11111E-04-4.39236E-15
 -1      2881 2.58755E-03 4.08529E-04-1.33086E-17
 -1      2882 2.44561E-03 4.08482E-04 6.62719E-18
 -1      2883 2.64235E-03 3.75197E-04-7.25331E-17
 -1      2884 1.03584E-03-3.04092E-04-2.04481E-16
 -1      2885 1.17949E-03-3.28621E-04-2.51982E-16
 -1      2886 1.24038E-03-3.06701E-04-2.67730E-16
 -1      2887 7.14691E-03 2.20635E-03-1.18883E-15
 -1      2888 4.45824E-03 4.21079E-04-1.62144E-15
 -1      2889 4.33649E-03 4.52475E-04-1.51199E-15
 -1      2890 7.82465E-04 1.16916E-04-1.21973E-17
 -1      2891 7.79524E-04 9.46390E-05-2.13859E-17
 -1      2892 8.96006E-04 9.40418E-05-3.48164E-17
 -1      2893 9.03121E-04 1.43499E-04-1.23328E-17
 -1      2894 1.35714E-02 3.77953E-03-2.67243E-14
 -1      2895 1.36646E-02 3.82996E-03-2.65314E-14
 -1      2896 1.34763E-02 3.72600E-03-2.63446E-14
 -1      2897 7.79847E-04-9.28491E-05-9.58435E-17
 -1      2898 7.82731E-04-1.15441E-04-1.03582E-16
 -1      2899 4.21925E-03 5.06214E-04-9.60945E-16
 -1      2900 4.31443E-03 5.25172E-04-8.97936E-16
 -1      2901 5.53218E-03-4.08554E-05-2.51486E-15
 -1      2902 5.37776E-03 3.80091E-05-2.36981E-15
 -1      2903 4.73166E-03 3.30087E-04-1.84343E-15
 -1      2904 4.58855E-03 3.82001E-04-1.73066E-15
 -1      2905 4.47573E-03 3.83672E-04-1.63746E-15
 -1      2906 5.87085E-03-1.82622E-04-2.86923E-15
 -1      2907 5.71836E-03-1.24982E-04-2.70704E-15
 -1      2908 6.85625E-03 3.44664E-05-3.93847E-15
 -1      2909 6.73169E-03-4.26703E-05-3.85190E-15
 -1      2910 9.05467E-03 1.11669E-03-4.07161E-15
 -1      2911 8.91873E-03 1.09254E-03-4.18243E-15
 -1      2912 6.16808E-03-2.35178E-04-3.24374E-15
 -1      2913 6.02518E-03-2.21994E-04-3.05677E-15
 -1      2914 8.00941E-04-2.47530E-04-1.35742E-16
 -1      2915 9.32602E-04-2.81743E-04-1.72930E-16
 -1      2916 9.94334E-04-2.65794E-04-1.87052E-16
 -1      2917 7.90409E-04-2.21704E-04-1.29955E-16
 -1      2918 8.91002E-04 1.55154E-06-7.65853E-17
 -1      2919 7.74234E-04-8.77539E-06-6.37917E-17
 -1      2920 7.74818E-04-2.92358E-05-7.21401E-17
 -1      2921 1.13527E-03 3.27747E-04 6.08373E-17
 -1      2922 1.10249E-03 2.99356E-04 4.80302E-17
 -1      2923 1.25559E-03 3.45650E-04 6.45371E-17
 -1      2924 1.49395E-02 4.50674E-03-2.09551E-14
 -1      2925 1.50186E-02 4.54868E-03-2.06362E-14
 -1      2926 6.99194E-03 1.30250E-04-4.15561E-15
 -1      2927 7.90845E-03 7.07619E-04-4.60364E-15
 -1      2928 1.34745E-02 3.72289E-03-2.57751E-14
 -1      2929 8.43108E-03 9.55854E-04-4.62300E-15
 -1      2930 4.11974E-03 4.77026E-04-1.20347E-15
 -1      2931 4.39843E-03 5.23265E-04-7.35408E-16
 -1      2932 1.00404E-02 1.65164E-03-5.43626E-15
 -1      2933 4.10728E-03 4.68016E-04-9.99933E-16
 -1      2934 4.15627E-03 4.84507E-04-9.80949E-16
 -1      2935 4.16199E-03 4.67304E-04-8.72715E-16
 -1      2936 7.86387E-04-1.38954E-04-1.11009E-16
 -1      2937 7.90864E-04-1.63626E-04-1.18368E-16
 -1      2938 9.03493E-04-1.41817E-04-1.34685E-16
 -1      2939 4.24391E-03 4.44039E-04-1.41122E-15
 -1      2940 9.15514E-03 1.17312E-03-3.26646E-15
 -1      2941 6.60679E-03-1.02785E-04-3.84180E-15
 -1      2942 9.26171E-03 1.17064E-03-3.87905E-15
 -1      2943 7.75935E-04-4.99203E-05-8.00819E-17
 -1      2944 7.77591E-04-7.11080E-05-8.79830E-17
 -1      2945 8.96527E-04-9.15790E-05-1.15996E-16
 -1      2946 8.92471E-04-4.42774E-05-9.64940E-17
 -1      2947 1.47814E-02 4.42286E-03-2.15996E-14
 -1      2948 1.48605E-02 4.46480E-03-2.12769E-14
 -1      2949 1.47763E-02 4.41585E-03-2.07072E-14
 -1      2950 9.12874E-03 1.14906E-03-4.18256E-15
 -1      2951 8.85334E-03 1.09317E-03-4.42369E-15
 -1      2952 9.24296E-03 1.19443E-03-3.52453E-15
 -1      2953 1.37436E-02 3.87209E-03-2.61922E-14
 -1      2954 1.35667E-02 3.77301E-03-2.56648E-14
 -1      2955 1.37408E-02 3.86867E-03-2.57023E-14
 -1      2956 1.36559E-02 3.81970E-03-2.50674E-14
 -1      2957 1.34717E-02 3.71947E-03-2.52920E-14
 -1      2958 6.23847E-03-2.30338E-04-3.42678E-15
 -1      2959 2.36074E-03 3.73989E-04-2.55601E-17
 -1      2960 1.50897E-02 4.58686E-03-2.04490E-14
 -1      2961 1.51579E-02 4.62309E-03-2.01784E-14
 -1      2962 1.50686E-02 4.57230E-03-1.98359E-14
 -1      2963 1.49264E-02 4.49595E-03-2.02036E-14
 -1      2964 4.38310E-03 5.30913E-04-8.06524E-16
 -1      2965 5.23304E-03 8.29937E-05-2.26871E-15
 -1      2966 4.81511E-03 2.75706E-04-1.91577E-15
 -1      2967 4.67705E-03 2.93492E-04-1.81524E-15
 -1      2968 4.88672E-03 2.16938E-04-1.98791E-15
 -1      2969 5.59523E-03-9.84752E-05-2.63648E-15
 -1      2970 1.46181E-02 4.33193E-03-2.13428E-14
 -1      2971 5.91173E-03-2.14466E-04-3.01738E-15
 -1      2972 1.48236E-03 3.68727E-04 6.51470E-17
 -1      2973 1.36219E-03 3.55772E-04 6.44423E-17
 -1      2974 1.32898E-03 3.27237E-04 4.88433E-17
 -1      2975 1.54203E-03 3.41746E-04 4.17689E-17
 -1      2976 1.07081E-03 2.72130E-04 3.62801E-17
 -1      2977 1.04024E-03 2.45974E-04 2.54245E-17
 -1      2978 1.19034E-03 2.89551E-04 3.68900E-17
 -1      2979 1.03184E-03 2.14655E-04 1.02728E-17
 -1      2980 7.10141E-03 2.11493E-04-4.40319E-15
 -1      2981 6.90807E-03 8.28149E-05-4.27773E-15
 -1      2982 1.73339E-03-3.22421E-04-4.54362E-16
 -1      2983 1.87744E-03-3.30870E-04-5.20769E-16
 -1      2984 2.02162E-03-3.37622E-04-5.91202E-16
 -1      2985 2.16598E-03-3.42869E-04-6.66269E-16
 -1      2986 1.94025E-03-2.98885E-04-5.33482E-16
 -1      2987 2.31053E-03-3.46934E-04-7.46067E-16
 -1      2988 2.45532E-03-3.50008E-04-8.30160E-16
 -1      2989 2.22909E-03-3.08322E-04-6.78345E-16
 -1      2990 2.60043E-03-3.52370E-04-9.19268E-16
 -1      2991 2.74592E-03-3.54222E-04-1.01355E-15
 -1      2992 2.51894E-03-3.13467E-04-8.41531E-16
 -1      2993 2.89192E-03-3.55805E-04-1.11216E-15
 -1      2994 3.03846E-03-3.57338E-04-1.21576E-15
 -1      2995 2.81031E-03-3.16055E-04-1.02324E-15
 -1      2996 3.18573E-03-3.59027E-04-1.32491E-15
 -1      2997 3.33375E-03-3.61114E-04-1.43905E-15
 -1      2998 3.10402E-03-3.17779E-04-1.22495E-15
 -1      2999 3.48272E-03-3.63765E-04-1.55815E-15
 -1      3000 3.63260E-03-3.67236E-04-1.68222E-15
 -1      3001 3.40108E-03-3.20362E-04-1.44677E-15
 -1      3002 3.78362E-03-3.71632E-04-1.81216E-15
 -1      3003 3.93562E-03-3.77176E-04-1.94816E-15
 -1      3004 3.70259E-03-3.25574E-04-1.68885E-15
 -1      3005 4.08879E-03-3.83881E-04-2.08989E-15
 -1      3006 4.24279E-03-3.91822E-04-2.23817E-15
 -1      3007 4.00936E-03-3.35116E-04-1.95303E-15
 -1      3008 4.39771E-03-4.00854E-04-2.39260E-15
 -1      3009 4.55303E-03-4.10740E-04-2.55294E-15
 -1      3010 4.32147E-03-3.50198E-04-2.24163E-15
 -1      3011 4.70869E-03-4.21074E-04-2.71945E-15
 -1      3012 4.86399E-03-4.31101E-04-2.89310E-15
 -1      3013 4.63764E-03-3.70631E-04-2.55572E-15
 -1      3014 5.01871E-03-4.40081E-04-3.07420E-15
 -1      3015 5.17222E-03-4.46525E-04-3.26274E-15
 -1      3016 4.95487E-03-3.93429E-04-2.89489E-15
 -1      3017 5.32418E-03-4.49400E-04-3.45885E-15
 -1      3018 5.47448E-03-4.46723E-04-3.66286E-15
 -1      3019 5.26879E-03-4.11077E-04-3.26413E-15
 -1      3020 5.62284E-03-4.37282E-04-3.87625E-15
 -1      3021 5.76985E-03-4.19304E-04-4.09809E-15
 -1      3022 5.57557E-03-4.11167E-04-3.66509E-15
 -1      3023 5.91538E-03-3.91978E-04-4.33033E-15
 -1      3024 6.06072E-03-3.54241E-04-4.57235E-15
 -1      3025 5.87456E-03-3.79234E-04-4.10263E-15
 -1      3026 6.20582E-03-3.06026E-04-4.82202E-15
 -1      3027 6.35215E-03-2.47950E-04-5.08229E-15
 -1      3028 6.16945E-03-3.04361E-04-4.57742E-15
 -1      3029 6.49960E-03-1.80618E-04-5.35296E-15
 -1      3030 6.64893E-03-1.05774E-04-5.63273E-15
 -1      3031 6.46676E-03-1.84978E-04-5.09053E-15
 -1      3032 6.79992E-03-2.45905E-05-5.92179E-15
 -1      3033 6.95260E-03 6.10156E-05-6.21943E-15
 -1      3034 6.77121E-03-3.00678E-05-5.64346E-15
 -1      3035 7.10664E-03 1.49912E-04-6.52709E-15
 -1      3036 7.26151E-03 2.40426E-04-6.84315E-15
 -1      3037 7.08320E-03 1.46130E-04-6.23309E-15
 -1      3038 7.41694E-03 3.31737E-04-7.16628E-15
 -1      3039 7.57225E-03 4.22898E-04-7.49911E-15
 -1      3040 7.39947E-03 3.30412E-04-6.85708E-15
 -1      3041 7.72732E-03 5.13404E-04-7.84014E-15
 -1      3042 7.88155E-03 6.02894E-04-8.18871E-15
 -1      3043 7.71563E-03 5.13829E-04-7.51501E-15
 -1      3044 8.03502E-03 6.91130E-04-8.54366E-15
 -1      3045 8.18732E-03 7.78115E-04-8.90331E-15
 -1      3046 8.02819E-03 6.92251E-04-8.20395E-15
 -1      3047 8.33863E-03 8.63779E-04-9.27036E-15
 -1      3048 8.48876E-03 9.48291E-04-9.64325E-15
 -1      3049 8.33540E-03 8.64760E-04-8.91610E-15
 -1      3050 8.63791E-03 1.03167E-03-1.00251E-14
 -1      3051 8.78601E-03 1.11414E-03-1.04128E-14
 -1      3052 8.63703E-03 1.03205E-03-9.65630E-15
 -1      3053 8.93328E-03 1.19575E-03-1.08040E-14
 -1      3054 9.07972E-03 1.27670E-03-1.12035E-14
 -1      3055 8.93372E-03 1.19536E-03-1.04218E-14
 -1      3056 9.22551E-03 1.35706E-03-1.16075E-14
 -1      3057 9.37069E-03 1.43699E-03-1.20158E-14
 -1      3058 9.22651E-03 1.35594E-03-1.12109E-14
 -1      3059 9.51540E-03 1.51656E-03-1.24296E-14
 -1      3060 9.65969E-03 1.59587E-03-1.28462E-14
 -1      3061 9.51647E-03 1.51484E-03-1.20219E-14
 -1      3062 9.80365E-03 1.67500E-03-1.32674E-14
 -1      3063 9.94734E-03 1.75401E-03-1.36911E-14
 -1      3064 9.80448E-03 1.67283E-03-1.28510E-14
 -1      3065 1.00908E-02 1.83296E-03-1.41175E-14
 -1      3066 1.02341E-02 1.91188E-03-1.45487E-14
 -1      3067 1.00913E-02 1.83047E-03-1.36916E-14
 -1      3068 1.03773E-02 1.99081E-03-1.49795E-14
 -1      3069 1.05204E-02 2.06979E-03-1.54109E-14
 -1      3070 1.03773E-02 1.98811E-03-1.45437E-14
 -1      3071 1.06634E-02 2.14883E-03-1.58466E-14
 -1      3072 1.08063E-02 2.22794E-03-1.62818E-14
 -1      3073 1.06630E-02 2.14598E-03-1.54038E-14
 -1      3074 1.09492E-02 2.30714E-03-1.67183E-14
 -1      3075 1.10921E-02 2.38644E-03-1.71568E-14
 -1      3076 1.09485E-02 2.30420E-03-1.62700E-14
 -1      3077 1.12350E-02 2.46583E-03-1.75969E-14
 -1      3078 1.13779E-02 2.54532E-03-1.80402E-14
 -1      3079 1.12340E-02 2.46283E-03-1.71412E-14
 -1      3080 1.15207E-02 2.62491E-03-1.84849E-14
 -1      3081 1.16635E-02 2.70459E-03-1.89351E-14
 -1      3082 1.15194E-02 2.62187E-03-1.80237E-14
 -1      3083 1.18064E-02 2.78437E-03-1.93906E-14
 -1      3084 1.19492E-02 2.86423E-03-1.98509E-14
 -1      3085 1.18050E-02 2.78130E-03-1.89199E-14
 -1      3086 1.20921E-02 2.94417E-03-2.03191E-14
 -1      3087 1.22349E-02 3.02418E-03-2.07936E-14
 -1      3088 1.20905E-02 2.94108E-03-1.98349E-14
 -1      3089 1.23778E-02 3.10426E-03-2.12738E-14
 -1      3090 1.25206E-02 3.18441E-03-2.17617E-14
 -1      3091 1.23761E-02 3.10116E-03-2.07744E-14
 -1      3092 1.26635E-02 3.26461E-03-2.22587E-14
 -1      3093 1.28063E-02 3.34486E-03-2.27644E-14
 -1      3094 1.26618E-02 3.26149E-03-2.17434E-14
 -1      3095 1.29492E-02 3.42515E-03-2.32776E-14
 -1      3096 1.30920E-02 3.50549E-03-2.37915E-14
 -1      3097 1.29474E-02 3.42203E-03-2.27434E-14
 -1      3098 1.32104E-02 3.57227E-03-2.42696E-14
 -1      3099 1.33533E-02 3.65265E-03-2.47984E-14
 -1      3100 1.34454E-02 3.70275E-03-2.46895E-14
 -1      3101 1.32087E-02 3.56914E-03-2.37262E-14
 -1      3102 1.15950E-03-2.65626E-04-2.33158E-16
 -1      3103 1.30249E-03-2.83804E-04-2.82042E-16
 -1      3104 3.23554E-03 3.45906E-04-2.94957E-16
 -1      3105 3.10382E-03 3.44638E-04-2.49692E-16
 -1      3106 2.96988E-03 3.43876E-04-2.07516E-16
 -1      3107 2.83391E-03 3.43668E-04-1.69529E-16
 -1      3108 3.01884E-03 3.16163E-04-2.84590E-16
 -1      3109 3.71644E-03 3.67443E-04-5.04466E-16
 -1      3110 3.59915E-03 3.58745E-04-4.45810E-16
 -1      3111 3.93338E-03 3.96093E-04-6.31283E-16
 -1      3112 3.82789E-03 3.80379E-04-5.66103E-16
 -1      3113 3.73643E-03 3.56976E-04-6.12059E-16
 -1      3114 1.00628E-02 1.66669E-03-5.79754E-15
 -1      3115 9.93866E-03 1.59067E-03-5.48983E-15
 -1      3116 4.24662E-03 4.81164E-04-7.81744E-16
 -1      3117 9.82482E-03 1.52139E-03-5.20200E-15
 -1      3118 9.71517E-03 1.45437E-03-4.92084E-15
 -1      3119 9.84310E-03 1.53798E-03-5.55448E-15
 -1      3120 1.08638E-02 2.15196E-03-7.78907E-15
 -1      3121 1.07258E-02 2.06904E-03-7.44005E-15
 -1      3122 1.05892E-02 1.98667E-03-7.09820E-15
 -1      3123 1.04541E-02 1.90482E-03-6.76392E-15
 -1      3124 1.05990E-02 1.99795E-03-7.48449E-15
 -1      3125 1.14138E-02 2.47886E-03-9.21729E-15
 -1      3126 1.12797E-02 2.39968E-03-8.86433E-15
 -1      3127 1.16971E-02 2.64527E-03-9.97615E-15
 -1      3128 1.15552E-02 2.56211E-03-9.59420E-15
 -1      3129 1.14223E-02 2.48814E-03-9.64501E-15
 -1      3130 1.19814E-02 2.81113E-03-1.07460E-14
 -1      3131 1.18391E-02 2.72827E-03-1.03590E-14
 -1      3132 1.17046E-02 2.65365E-03-1.04117E-14
 -1      3133 1.22664E-02 2.97634E-03-1.15264E-14
 -1      3134 1.21238E-02 2.89382E-03-1.11347E-14
 -1      3135 1.19882E-02 2.81880E-03-1.11876E-14
 -1      3136 1.25517E-02 3.14091E-03-1.23149E-14
 -1      3137 1.24090E-02 3.05870E-03-1.19202E-14
 -1      3138 1.22726E-02 2.98345E-03-1.19754E-14
 -1      3139 1.28373E-02 3.30486E-03-1.31144E-14
 -1      3140 1.26945E-02 3.22295E-03-1.27137E-14
 -1      3141 1.25576E-02 3.14757E-03-1.27692E-14
 -1      3142 1.31229E-02 3.46827E-03-1.39273E-14
 -1      3143 1.29801E-02 3.38662E-03-1.35185E-14
 -1      3144 1.28428E-02 3.31117E-03-1.35755E-14
 -1      3145 1.33943E-02 3.62307E-03-1.47136E-14
 -1      3146 1.32586E-02 3.54572E-03-1.43215E-14
 -1      3147 1.31212E-02 3.47024E-03-1.43760E-14
 -1      3148 1.36801E-02 3.78565E-03-1.55527E-14
 -1      3149 1.35372E-02 3.70441E-03-1.51309E-14
 -1      3150 1.33996E-02 3.62892E-03-1.51915E-14
 -1      3151 1.39658E-02 3.94791E-03-1.64058E-14
 -1      3152 1.38230E-02 3.86682E-03-1.59777E-14
 -1      3153 1.36852E-02 3.79133E-03-1.60364E-14
 -1      3154 1.42516E-02 4.10991E-03-1.72633E-14
 -1      3155 1.41087E-02 4.02894E-03-1.68330E-14
 -1      3156 1.39709E-02 3.95346E-03-1.68925E-14
 -1      3157 1.45373E-02 4.27173E-03-1.81407E-14
 -1      3158 1.43945E-02 4.19084E-03-1.77028E-14
 -1      3159 1.42567E-02 4.11537E-03-1.77615E-14
 -1      3160 1.48231E-02 4.43340E-03-1.90386E-14
 -1      3161 1.46802E-02 4.35258E-03-1.85876E-14
 -1      3162 1.45424E-02 4.27711E-03-1.86475E-14
 -1      3163 1.42963E-02 4.15697E-03-2.17259E-14
 -1      3164 1.43756E-02 4.19903E-03-2.14046E-14
 -1      3165 1.36639E-02 3.82119E-03-2.43292E-14
 -1      3166 1.37431E-02 3.86327E-03-2.39999E-14
 -1      3167 1.38223E-02 3.90534E-03-2.36719E-14
 -1      3168 1.39014E-02 3.94741E-03-2.33421E-14
 -1      3169 1.36590E-02 3.81461E-03-2.33888E-14
 -1      3170 9.60572E-03 1.38831E-03-4.63319E-15
 -1      3171 9.50246E-03 1.32558E-03-4.35330E-15
 -1      3172 9.62825E-03 1.40541E-03-4.97394E-15
 -1      3173 4.08783E-03 4.48254E-04-1.17667E-15
 -1      3174 4.08003E-03 4.58880E-04-1.08935E-15
 -1      3175 4.05340E-03 4.41003E-04-9.79319E-16
 -1      3176 7.85763E-04-1.80306E-04-1.21336E-16
 -1      3177 7.94080E-04-2.03570E-04-1.27787E-16
 -1      3178 8.95075E-04-2.24741E-04-1.54526E-16
 -1      3179 9.03334E-04-1.86756E-04-1.47668E-16
 -1      3180 9.35120E-03 1.24214E-03-3.85624E-15
 -1      3181 1.85144E-03 3.25850E-04-5.12286E-18
 -1      3182 1.70877E-03 3.17853E-04 5.82759E-18
 -1      3183 1.11410E-02 2.31738E-03-8.50066E-15
 -1      3184 1.10011E-02 2.23405E-03-8.13862E-15
 -1      3185 1.08700E-02 2.16059E-03-8.18075E-15
 -1      3186 1.11437E-02 2.32361E-03-8.89951E-15
 -1      3187 3.48053E-03 3.52363E-04-3.91641E-16
 -1      3188 3.36111E-03 3.48587E-04-3.42066E-16
 -1      3189 3.27453E-03 3.22246E-04-3.80934E-16
 -1      3190 3.51355E-03 3.34438E-04-4.89178E-16
 -1      3191 2.13572E-03 3.36467E-04-3.53992E-17
 -1      3192 1.99377E-03 3.32002E-04-1.89193E-17
 -1      3193 1.91184E-03 2.95980E-04-4.18909E-17
 -1      3194 1.44583E-03-2.99166E-04-3.35005E-16
 -1      3195 1.58953E-03-3.11922E-04-3.92251E-16
 -1      3196 1.65226E-03-2.83336E-04-4.05505E-16
 -1      3197 1.46130E-02 4.32498E-03-2.04586E-14
 -1      3198 1.46921E-02 4.36688E-03-2.01435E-14
 -1      3199 1.03211E-02 1.82410E-03-6.43376E-15
 -1      3200 1.01904E-02 1.74440E-03-6.11220E-15
 -1      3201 1.00779E-02 1.68168E-03-6.16060E-15
 -1      3202 1.03333E-02 1.83722E-03-6.80917E-15
 -1      3203 6.67919E-03-5.49711E-05-4.07697E-15
 -1      3204 6.50227E-03-1.47129E-04-3.88239E-15
 -1      3205 2.41780E-03 3.41601E-04-7.81710E-17
 -1      3206 2.27707E-03 3.39628E-04-5.51317E-17
 -1      3207 2.19475E-03 3.05221E-04-8.14778E-17
 -1      3208 8.97031E-03 1.13926E-03-4.57556E-15
 -1      3209 8.81200E-03 1.10013E-03-4.69839E-15
 -1      3210 8.02912E-03 7.78333E-04-4.90561E-15
 -1      3211 7.77074E-03 6.36292E-04-4.80730E-15
 -1      3212 2.69644E-03 3.43324E-04-1.35769E-16
 -1      3213 2.55761E-03 3.42805E-04-1.05019E-16
 -1      3214 2.75016E-03 3.13064E-04-2.01499E-16
 -1      3215 1.44547E-02 4.24101E-03-2.10882E-14
 -1      3216 1.45339E-02 4.28299E-03-2.07738E-14
 -1      3217 1.42914E-02 4.15010E-03-2.08365E-14
 -1      3218 6.30463E-03-2.17483E-04-3.63448E-15
 -1      3219 6.12576E-03-2.47084E-04-3.40784E-15
 -1      3220 7.50156E-03 4.73442E-04-4.64299E-15
 -1      3221 7.29625E-03 3.39678E-04-4.52267E-15
 -1      3222 7.19818E-03 2.76558E-04-4.64784E-15
 -1      3223 9.41874E-03 1.27425E-03-4.19930E-15
 -1      3224 9.32165E-03 1.20960E-03-4.02868E-15
 -1      3225 9.28374E-03 1.20206E-03-4.21475E-15
 -1      3226 9.43911E-03 1.29123E-03-4.52866E-15
 -1      3227 5.92623E-03-2.39461E-04-3.15609E-15
 -1      3228 5.78987E-03-2.06512E-04-2.96821E-15
 -1      3229 9.20123E-03 1.18339E-03-4.33703E-15
 -1      3230 9.09882E-03 1.16674E-03-4.45815E-15
 -1      3231 9.07174E-03 1.17953E-03-4.73659E-15
 -1      3232 4.24862E-03 4.04095E-04-1.42475E-15
 -1      3233 4.15372E-03 4.25838E-04-1.30861E-15
 -1      3234 5.24216E-03 2.38182E-05-2.33646E-15
 -1      3235 5.06780E-03 1.16003E-04-2.16293E-15
 -1      3236 1.01113E-03 6.47719E-05-6.47404E-17
 -1      3237 1.00972E-03 3.95158E-05-7.72087E-17
 -1      3238 4.49335E-03 3.32123E-04-1.66443E-15
 -1      3239 4.37926E-03 3.64164E-04-1.56050E-15
 -1      3240 8.59749E-03 1.03202E-03-4.84907E-15
 -1      3241 8.36564E-03 9.40068E-04-4.92459E-15
 -1      3242 5.62026E-03-1.48351E-04-2.75419E-15
 -1      3243 5.45606E-03-7.58164E-05-2.56364E-15
 -1      3244 4.16496E-03 4.58755E-04-8.03252E-16
 -1      3245 4.16612E-03 4.53028E-04-7.34804E-16
 -1      3246 4.09517E-03 4.41415E-04-8.22733E-16
 -1      3247 1.46070E-02 4.31696E-03-1.94983E-14
 -1      3248 1.47703E-02 4.40787E-03-1.97384E-14
 -1      3249 9.28439E-03 1.22488E-03-4.49560E-15
 -1      3250 1.36543E-03-2.59790E-04-2.94930E-16
 -1      3251 8.74534E-03 1.09031E-03-5.00760E-15
 -1      3252 1.41384E-02 4.07322E-03-2.23668E-14
 -1      3253 1.42173E-02 4.11510E-03-2.20451E-14
 -1      3254 1.41333E-02 4.06629E-03-2.14648E-14
 -1      3255 1.44497E-02 4.23402E-03-2.02116E-14
 -1      3256 6.78879E-03 1.31100E-05-4.31579E-15
 -1      3257 4.07063E-03 4.26434E-04-6.65639E-16
 -1      3258 1.02141E-03-1.41177E-04-1.59635E-16
 -1      3259 1.02637E-03-1.69621E-04-1.70504E-16
 -1      3260 6.38177E-03-1.91431E-04-3.85544E-15
 -1      3261 6.06979E-03-2.65340E-04-3.54732E-15
 -1      3262 6.00291E-03-2.58810E-04-3.34934E-15
 -1      3263 5.88204E-03-2.64760E-04-3.29146E-15
 -1      3264 1.49792E-02 4.52150E-03-1.94949E-14
 -1      3265 5.64909E-03-1.92334E-04-2.88459E-15
 -1      3266 1.38170E-02 3.89853E-03-2.27424E-14
 -1      3267 1.39803E-02 3.98929E-03-2.30141E-14
 -1      3268 1.40592E-02 4.03117E-03-2.26899E-14
 -1      3269 5.28602E-03-4.22387E-05-2.44532E-15
 -1      3270 4.55706E-03 2.84689E-04-1.73100E-15
 -1      3271 4.07103E-03 4.18293E-04-1.19382E-15
 -1      3272 4.00473E-03 4.04969E-04-1.08280E-15
 -1      3273 4.05346E-03 3.84564E-04-1.20738E-15
 -1      3274 1.01340E-03 9.03204E-05-5.20010E-17
 -1      3275 1.13157E-03 8.39501E-05-7.28177E-17
 -1      3276 1.01652E-03 1.16436E-04-3.86925E-17
 -1      3277 1.01417E-03-8.71431E-05-1.37070E-16
 -1      3278 1.01734E-03-1.13738E-04-1.48631E-16
 -1      3279 1.13992E-03-1.37329E-04-1.85615E-16
 -1      3280 8.22296E-03 8.77262E-04-5.13574E-15
 -1      3281 8.09757E-03 8.11214E-04-5.34514E-15
 -1      3282 8.40552E-03 9.61045E-04-5.37084E-15
 -1      3283 7.64405E-03 5.59206E-04-4.93933E-15
 -1      3284 3.96480E-03 4.01234E-04-7.18074E-16
 -1      3285 1.48414E-02 4.44604E-03-1.95546E-14
 -1      3286 2.47473E-03 3.10210E-04-1.34211E-16
 -1      3287 4.91694E-03 1.47798E-04-2.05329E-15
 -1      3288 1.18292E-03 2.31677E-04 4.67562E-18
 -1      3289 1.05751E-03 1.86800E-04-6.84403E-18
 -1      3290 1.00909E-03 1.44397E-05-8.93383E-17
 -1      3291 1.00924E-03-1.06050E-05-1.01522E-16
 -1      3292 1.12839E-03 2.94598E-05-1.02091E-16
 -1      3293 1.05177E-03 1.58002E-04-2.14672E-17
 -1      3294 4.25755E-03 3.57730E-04-1.45148E-15
 -1      3295 1.60255E-03 3.14394E-04 1.53144E-17
 -1      3296 1.49619E-03 3.09556E-04 2.28496E-17
 -1      3297 1.66372E-03 2.86738E-04-1.38507E-17
 -1      3298 1.35086E-02 3.73692E-03-2.45677E-14
 -1      3299 1.36007E-02 3.78702E-03-2.44554E-14
 -1      3300 1.35166E-02 3.73840E-03-2.38389E-14
 -1      3301 1.33902E-02 3.67009E-03-2.40835E-14
 -1      3302 9.96859E-04-2.44436E-04-1.83583E-16
 -1      3303 1.06024E-03-2.27034E-04-1.96078E-16
 -1      3304 1.29673E-03 2.99517E-04 3.42608E-17
 -1      3305 9.36719E-03 1.26787E-03-4.67398E-15
 -1      3306 9.27590E-03 1.24586E-03-4.79703E-15
 -1      3307 2.14811E-03-2.70299E-04-6.13686E-16
 -1      3308 2.29273E-03-2.73178E-04-6.88170E-16
 -1      3309 2.43763E-03-2.75120E-04-7.67331E-16
 -1      3310 2.58289E-03-2.76293E-04-8.50624E-16
 -1      3311 2.35675E-03-2.37459E-04-6.96261E-16
 -1      3312 2.72859E-03-2.76896E-04-9.37726E-16
 -1      3313 2.87483E-03-2.77127E-04-1.03029E-15
 -1      3314 2.64701E-03-2.38493E-04-8.56642E-16
 -1      3315 3.02177E-03-2.77161E-04-1.12879E-15
 -1      3316 3.16953E-03-2.77247E-04-1.23164E-15
 -1      3317 2.93931E-03-2.37420E-04-1.03594E-15
 -1      3318 3.31832E-03-2.77540E-04-1.33908E-15
 -1      3319 3.46826E-03-2.78359E-04-1.45135E-15
 -1      3320 3.23482E-03-2.35687E-04-1.23518E-15
 -1      3321 3.61962E-03-2.79842E-04-1.56911E-15
 -1      3322 3.77243E-03-2.82375E-04-1.69161E-15
 -1      3323 3.53511E-03-2.35019E-04-1.45355E-15
 -1      3324 3.92698E-03-2.86074E-04-1.82048E-15
 -1      3325 4.08315E-03-2.91336E-04-1.95516E-15
 -1      3326 3.84194E-03-2.37560E-04-1.69217E-15
 -1      3327 4.24117E-03-2.98228E-04-2.09571E-15
 -1      3328 4.40062E-03-3.06952E-04-2.24274E-15
 -1      3329 4.15680E-03-2.45865E-04-1.95437E-15
 -1      3330 4.56162E-03-3.17413E-04-2.39526E-15
 -1      3331 4.72335E-03-3.29403E-04-2.55430E-15
 -1      3332 4.48006E-03-2.62293E-04-2.23999E-15
 -1      3333 4.88572E-03-3.42494E-04-2.72089E-15
 -1      3334 5.04756E-03-3.55559E-04-2.89413E-15
 -1      3335 4.80992E-03-2.87642E-04-2.55097E-15
 -1      3336 5.20856E-03-3.67823E-04-3.07314E-15
 -1      3337 5.36772E-03-3.76667E-04-3.26143E-15
 -1      3338 5.14156E-03-3.18704E-04-2.88787E-15
 -1      3339 5.52458E-03-3.80718E-04-3.45884E-15
 -1      3340 5.67913E-03-3.77082E-04-3.66422E-15
 -1      3341 5.46810E-03-3.44266E-04-3.25601E-15
 -1      3342 5.83090E-03-3.64305E-04-3.87879E-15
 -1      3343 5.98153E-03-3.39799E-04-4.10326E-15
 -1      3344 5.78384E-03-3.44811E-04-3.65964E-15
 -1      3345 6.13073E-03-3.02979E-04-4.33644E-15
 -1      3346 6.28079E-03-2.53076E-04-4.57914E-15
 -1      3347 6.09002E-03-3.00190E-04-4.09922E-15
 -1      3348 6.43157E-03-1.90624E-04-4.83310E-15
 -1      3349 6.58481E-03-1.18160E-04-5.09690E-15
 -1      3350 6.39518E-03-1.97844E-04-4.57955E-15
 -1      3351 6.74016E-03-3.68021E-05-5.36957E-15
 -1      3352 6.89802E-03 5.05403E-05-5.65204E-15
 -1      3353 6.70781E-03-4.55433E-05-5.09956E-15
 -1      3354 7.05798E-03 1.42165E-04-5.94357E-15
 -1      3355 7.21903E-03 2.35647E-04-6.24369E-15
 -1      3356 7.03132E-03 1.36983E-04-5.65802E-15
 -1      3357 7.38086E-03 3.29949E-04-6.55205E-15
 -1      3358 7.54246E-03 4.23472E-04-6.86941E-15
 -1      3359 7.36146E-03 3.29579E-04-6.25106E-15
 -1      3360 7.70354E-03 5.15735E-04-7.19533E-15
 -1      3361 7.86320E-03 6.06303E-04-7.52920E-15
 -1      3362 7.69123E-03 5.18818E-04-6.87938E-15
 -1      3363 8.02149E-03 6.94998E-04-7.86904E-15
 -1      3364 8.17790E-03 7.81968E-04-8.21550E-15
 -1      3365 8.01510E-03 6.99352E-04-7.53859E-15
 -1      3366 8.33263E-03 8.67194E-04-8.56757E-15
 -1      3367 8.48548E-03 9.51039E-04-8.92601E-15
 -1      3368 8.33049E-03 8.71194E-04-8.22370E-15
 -1      3369 8.63675E-03 1.03355E-03-9.29138E-15
 -1      3370 8.78644E-03 1.11510E-03-9.66530E-15
 -1      3371 8.63726E-03 1.03633E-03-8.93254E-15
 -1      3372 8.93480E-03 1.19575E-03-1.00440E-14
 -1      3373 9.08196E-03 1.27580E-03-1.04280E-14
 -1      3374 8.93667E-03 1.19705E-03-9.66929E-15
 -1      3375 9.22813E-03 1.35531E-03-1.08200E-14
 -1      3376 9.37345E-03 1.43448E-03-1.12167E-14
 -1      3377 9.23046E-03 1.35524E-03-1.04327E-14
 -1      3378 9.51808E-03 1.51337E-03-1.16179E-14
 -1      3379 9.66216E-03 1.59211E-03-1.20249E-14
 -1      3380 9.52032E-03 1.51219E-03-1.12188E-14
 -1      3381 9.80579E-03 1.67074E-03-1.24369E-14
 -1      3382 9.94909E-03 1.74934E-03-1.28518E-14
 -1      3383 9.80763E-03 1.66875E-03-1.20261E-14
 -1      3384 1.00921E-02 1.82794E-03-1.32686E-14
 -1      3385 1.02350E-02 1.90659E-03-1.36886E-14
 -1      3386 1.00934E-02 1.82540E-03-1.28494E-14
 -1      3387 1.03777E-02 1.98531E-03-1.41126E-14
 -1      3388 1.05203E-02 2.06411E-03-1.45373E-14
 -1      3389 1.03784E-02 1.98242E-03-1.36841E-14
 -1      3390 1.06629E-02 2.14301E-03-1.49645E-14
 -1      3391 1.08055E-02 2.22202E-03-1.53938E-14
 -1      3392 1.06631E-02 2.13992E-03-1.45294E-14
 -1      3393 1.09480E-02 2.30114E-03-1.58236E-14
 -1      3394 1.10906E-02 2.38037E-03-1.62545E-14
 -1      3395 1.09477E-02 2.29794E-03-1.53802E-14
 -1      3396 1.12331E-02 2.45972E-03-1.66894E-14
 -1      3397 1.13757E-02 2.53917E-03-1.71259E-14
 -1      3398 1.12325E-02 2.45648E-03-1.62395E-14
 -1      3399 1.15183E-02 2.61873E-03-1.75632E-14
 -1      3400 1.16610E-02 2.69839E-03-1.80061E-14
 -1      3401 1.15173E-02 2.61548E-03-1.71066E-14
 -1      3402 1.18036E-02 2.77815E-03-1.84512E-14
 -1      3403 1.19463E-02 2.85800E-03-1.89022E-14
 -1      3404 1.18024E-02 2.77491E-03-1.79878E-14
 -1      3405 1.20890E-02 2.93793E-03-1.93560E-14
 -1      3406 1.22318E-02 3.01793E-03-1.98166E-14
 -1      3407 1.20876E-02 2.93470E-03-1.88825E-14
 -1      3408 1.23745E-02 3.09800E-03-2.02846E-14
 -1      3409 1.25173E-02 3.17814E-03-2.07549E-14
 -1      3410 1.23730E-02 3.09479E-03-1.97972E-14
 -1      3411 1.26601E-02 3.25834E-03-2.12358E-14
 -1      3412 1.28029E-02 3.33858E-03-2.17236E-14
 -1      3413 1.26585E-02 3.25514E-03-2.07358E-14
 -1      3414 1.29457E-02 3.41887E-03-2.22153E-14
 -1      3415 1.30886E-02 3.49920E-03-2.27199E-14
 -1      3416 1.29441E-02 3.41569E-03-2.16999E-14
 -1      3417 1.97286E-03 2.66238E-04-8.18708E-17
 -1      3418 1.83128E-03 2.60374E-04-6.21925E-17
 -1      3419 3.76457E-03 3.51556E-04-7.17173E-16
 -1      3420 3.65996E-03 3.34994E-04-6.48814E-16
 -1      3421 1.43860E-02 4.19522E-03-1.94412E-14
 -1      3422 1.44642E-02 4.23616E-03-1.90442E-14
 -1      3423 1.43213E-02 4.15533E-03-1.85969E-14
 -1      3424 1.06416E-03-2.06184E-04-1.91172E-16
 -1      3425 6.44618E-03-1.64860E-04-4.10331E-15
 -1      3426 6.26101E-03-2.31484E-04-3.84724E-15
 -1      3427 9.84862E-03 1.55274E-03-5.90179E-15
 -1      3428 9.74081E-03 1.48714E-03-5.61050E-15
 -1      3429 1.17080E-02 2.65994E-03-1.08393E-14
 -1      3430 1.15670E-02 2.57762E-03-1.04507E-14
 -1      3431 1.14264E-02 2.49530E-03-1.00659E-14
 -1      3432 1.12864E-02 2.41299E-03-9.68374E-15
 -1      3433 1.14298E-02 2.50226E-03-1.04878E-14
 -1      3434 1.22751E-02 2.98849E-03-1.24156E-14
 -1      3435 1.21330E-02 2.90648E-03-1.20184E-14
 -1      3436 1.25597E-02 3.15217E-03-1.32163E-14
 -1      3437 1.24173E-02 3.07038E-03-1.28139E-14
 -1      3438 1.22773E-02 2.99346E-03-1.28576E-14
 -1      3439 1.28448E-02 3.31543E-03-1.40280E-14
 -1      3440 1.27022E-02 3.23385E-03-1.36197E-14
 -1      3441 1.25617E-02 3.15672E-03-1.36619E-14
 -1      3442 1.31158E-02 3.47017E-03-1.48180E-14
 -1      3443 1.29803E-02 3.39284E-03-1.44218E-14
 -1      3444 1.28395E-02 3.31559E-03-1.44642E-14
 -1      3445 1.34013E-02 3.63272E-03-1.56575E-14
 -1      3446 1.32585E-02 3.55148E-03-1.52368E-14
 -1      3447 1.31175E-02 3.47415E-03-1.52799E-14
 -1      3448 1.36868E-02 3.79497E-03-1.65124E-14
 -1      3449 1.35440E-02 3.71387E-03-1.60832E-14
 -1      3450 1.34029E-02 3.63649E-03-1.61285E-14
 -1      3451 1.39725E-02 3.95698E-03-1.73710E-14
 -1      3452 1.38297E-02 3.87600E-03-1.69408E-14
 -1      3453 1.36884E-02 3.79858E-03-1.69878E-14
 -1      3454 1.42183E-02 4.09663E-03-1.82003E-14
 -1      3455 1.40755E-02 4.01574E-03-1.77593E-14
 -1      3456 1.39342E-02 3.93831E-03-1.78060E-14
 -1      3457 1.41402E-02 4.05575E-03-1.85934E-14
 -1      3458 1.18292E-03-2.04743E-04-2.21977E-16
 -1      3459 1.43068E-02 4.15327E-03-1.97491E-14
 -1      3460 1.01014E-03-3.57733E-05-1.13530E-16
 -1      3461 1.01176E-03-6.12029E-05-1.25442E-16
 -1      3462 1.13261E-03-7.98815E-05-1.58863E-16
 -1      3463 4.01833E-03 4.21000E-04-8.78529E-16
 -1      3464 4.00485E-03 4.13644E-04-8.10888E-16
 -1      3465 3.89127E-03 3.82593E-04-7.69025E-16
 -1      3466 3.98791E-03 4.12124E-04-9.61498E-16
 -1      3467 9.63229E-03 1.41665E-03-5.20469E-15
 -1      3468 9.53206E-03 1.35437E-03-4.91306E-15
 -1      3469 9.43866E-03 1.30236E-03-4.75085E-15
 -1      3470 9.62990E-03 1.43160E-03-5.54267E-15
 -1      3471 1.35831E-03 2.76106E-04 1.41217E-17
 -1      3472 2.80441E-03 2.84410E-04-2.71688E-16
 -1      3473 2.66906E-03 2.82157E-04-2.31152E-16
 -1      3474 1.57228E-03-2.45331E-04-3.59359E-16
 -1      3475 1.71581E-03-2.53974E-04-4.17093E-16
 -1      3476 8.91019E-03 1.15466E-03-5.18602E-15
 -1      3477 8.72301E-03 1.09296E-03-5.33808E-15
 -1      3478 6.89642E-03 8.17818E-05-4.61099E-15
 -1      3479 6.68330E-03-4.69737E-05-4.39912E-15
 -1      3480 1.34957E-02 3.72391E-03-2.31071E-14
 -1      3481 1.35749E-02 3.76595E-03-2.27871E-14
 -1      3482 5.30608E-03-1.09929E-04-2.56225E-15
 -1      3483 5.11503E-03-2.54180E-05-2.34082E-15
 -1      3484 2.53209E-03 2.79869E-04-1.93625E-16
 -1      3485 2.39372E-03 2.77486E-04-1.60191E-16
 -1      3486 2.59019E-03 2.50613E-04-2.56468E-16
 -1      3487 1.19911E-02 2.82439E-03-1.16233E-14
 -1      3488 1.18494E-02 2.74219E-03-1.12300E-14
 -1      3489 1.17110E-02 2.66609E-03-1.12698E-14
 -1      3490 1.19936E-02 2.82988E-03-1.20598E-14
 -1      3491 1.38161E-03 2.42166E-04-1.09640E-17
 -1      3492 5.66194E-03-2.34770E-04-3.02080E-15
 -1      3493 5.50650E-03-1.84869E-04-2.80872E-15
 -1      3494 2.25427E-03 2.74534E-04-1.30917E-16
 -1      3495 2.11389E-03 2.70915E-04-1.04680E-16
 -1      3496 2.03450E-03 2.36656E-04-1.25293E-16
 -1      3497 2.31443E-03 2.44458E-04-1.83569E-16
 -1      3498 1.06059E-02 2.00905E-03-7.87376E-15
 -1      3499 1.04725E-02 1.92898E-03-7.52688E-15
 -1      3500 4.87632E-03 8.77701E-05-2.08031E-15
 -1      3501 4.72346E-03 1.74813E-04-1.91396E-15
 -1      3502 1.41281E-02 4.05925E-03-2.05825E-14
 -1      3503 1.42072E-02 4.10118E-03-2.02740E-14
 -1      3504 7.29866E-03 3.40794E-04-4.91940E-15
 -1      3505 7.12035E-03 2.24033E-04-4.79169E-15
 -1      3506 1.30571E-03-2.20388E-04-2.62390E-16
 -1      3507 1.44833E-03-2.32605E-04-3.11532E-16
 -1      3508 1.51280E-03-2.06148E-04-3.21601E-16
 -1      3509 1.26689E-03-1.81267E-04-2.36275E-16
 -1      3510 3.06874E-03 2.90667E-04-3.65525E-16
 -1      3511 2.93775E-03 2.87248E-04-3.16560E-16
 -1      3512 2.85972E-03 2.57352E-04-3.45576E-16
 -1      3513 9.17710E-03 1.22336E-03-4.91996E-15
 -1      3514 9.05894E-03 1.19576E-03-5.03926E-15
 -1      3515 9.27914E-03 1.26872E-03-5.10554E-15
 -1      3516 4.23517E-03 3.02580E-04-1.46232E-15
 -1      3517 4.12618E-03 3.38086E-04-1.33504E-15
 -1      3518 1.16990E-03 1.54891E-04-3.80555E-17
 -1      3519 7.78591E-03 6.39410E-04-5.26532E-15
 -1      3520 7.53856E-03 4.91733E-04-5.09046E-15
 -1      3521 7.44901E-03 4.29458E-04-5.23844E-15
 -1      3522 4.54341E-03 2.17702E-04-1.75973E-15
 -1      3523 1.85964E-03-2.60896E-04-4.78662E-16
 -1      3524 2.00376E-03-2.66258E-04-5.44134E-16
 -1      3525 2.06781E-03-2.33000E-04-5.52713E-16
 -1      3526 9.44968E-03 1.32723E-03-5.06072E-15
 -1      3527 1.78808E-03 2.30756E-04-8.15320E-17
 -1      3528 1.72558E-03 2.58860E-04-4.59973E-17
 -1      3529 1.61969E-03 2.56348E-04-3.21737E-17
 -1      3530 1.07393E-02 2.08875E-03-8.22138E-15
 -1      3531 1.06087E-02 2.01851E-03-8.25975E-15
 -1      3532 1.08741E-02 2.16911E-03-8.57658E-15
 -1      3533 1.31802E-02 3.55124E-03-2.31625E-14
 -1      3534 1.32986E-02 3.61804E-03-2.36313E-14
 -1      3535 1.33618E-02 3.65218E-03-2.35130E-14
 -1      3536 1.31785E-02 3.54807E-03-2.26264E-14
 -1      3537 1.39751E-02 3.98241E-03-2.20986E-14
 -1      3538 3.59361E-03 3.11658E-04-6.82939E-16
 -1      3539 3.55156E-03 3.21549E-04-5.84670E-16
 -1      3540 3.43801E-03 3.11488E-04-5.23819E-16
 -1      3541 3.31555E-03 3.01300E-04-4.70544E-16
 -1      3542 3.19373E-03 2.95374E-04-4.16415E-16
 -1      3543 3.11722E-03 2.67157E-04-4.48426E-16
 -1      3544 8.16733E-03 8.39949E-04-5.74465E-15
 -1      3545 7.97957E-03 7.44866E-04-5.50154E-15
 -1      3546 7.87434E-03 6.78922E-04-5.65821E-15
 -1      3547 9.96698E-03 1.62407E-03-6.21579E-15
 -1      3548 9.85305E-03 1.56936E-03-6.26695E-15
 -1      3549 1.00895E-02 1.69831E-03-6.53446E-15
 -1      3550 6.55276E-03-1.14864E-04-4.38263E-15
 -1      3551 5.33493E-03-1.68808E-04-2.68856E-15
 -1      3552 1.47950E-03 2.24299E-04-3.63072E-17
 -1      3553 1.30648E-03 1.86019E-04-3.78251E-17
 -1      3554 1.26916E-03 1.39608E-04-6.14472E-17
 -1      3555 1.54329E-03 1.98837E-04-6.47811E-17
 -1      3556 6.14028E-03-2.62611E-04-3.77783E-15
 -1      3557 1.11525E-02 2.33978E-03-9.72463E-15
 -1      3558 1.11487E-02 2.33184E-03-9.31026E-15
 -1      3559 1.10118E-02 2.25082E-03-8.94245E-15
 -1      3560 1.12879E-03-2.47419E-05-1.30768E-16
 -1      3561 3.94327E-03 3.88000E-04-9.79915E-16
 -1      3562 6.99935E-03 1.43571E-04-4.87587E-15
 -1      3563 1.36537E-02 3.80779E-03-2.24691E-14
 -1      3564 1.37326E-02 3.84963E-03-2.21502E-14
 -1      3565 1.34905E-02 3.71709E-03-2.21962E-14
 -1      3566 1.39702E-02 3.97559E-03-2.12050E-14
 -1      3567 1.40492E-02 4.01742E-03-2.08955E-14
 -1      3568 1.39650E-02 3.96852E-03-2.03339E-14
 -1      3569 9.03993E-03 1.20579E-03-5.37756E-15
 -1      3570 4.02471E-03 3.40774E-04-1.22139E-15
 -1      3571 3.93549E-03 3.37542E-04-1.11331E-15
 -1      3572 3.98827E-03 2.93501E-04-1.23334E-15
 -1      3573 3.88401E-03 3.72308E-04-8.91512E-16
 -1      3574 3.82540E-03 3.61280E-04-7.98420E-16
 -1      3575 3.76686E-03 3.37064E-04-8.33074E-16
 -1      3576 3.90337E-03 3.61545E-04-1.00564E-15
 -1      3577 1.78000E-03-2.23812E-04-4.26498E-16
 -1      3578 8.77802E-03 1.12074E-03-5.74847E-15
 -1      3579 8.59780E-03 1.04615E-03-5.55875E-15
 -1      3580 8.47985E-03 9.93440E-04-5.77645E-15
 -1      3581 1.03428E-02 1.85108E-03-7.19101E-15
 -1      3582 1.02139E-02 1.77326E-03-6.85709E-15
 -1      3583 1.00946E-02 1.71269E-03-6.90831E-15
 -1      3584 1.03472E-02 1.86302E-03-7.57050E-15
 -1      3585 4.94624E-03-6.37960E-05-2.29394E-15
 -1      3586 4.92046E-03 9.87869E-06-2.18806E-15
 -1      3587 4.73026E-03 3.46721E-05-2.04101E-15
 -1      3588 1.24881E-03 4.62991E-05-1.14844E-16
 -1      3589 1.24811E-03 1.73866E-05-1.31758E-16
 -1      3590 5.74029E-03-2.68523E-04-3.20336E-15
 -1      3591 1.25333E-03 1.04500E-04-8.07731E-17
 -1      3592 1.25055E-03 7.52369E-05-9.80796E-17
 -1      3593 1.37025E-03 6.45293E-05-1.27502E-16
 -1      3594 1.41436E-02 4.06236E-03-1.95084E-14
 -1      3595 1.26115E-03-1.49371E-04-2.21679E-16
 -1      3596 1.38321E-03-1.60652E-04-2.60303E-16
 -1      3597 1.25649E-03-1.18328E-04-2.06351E-16
 -1      3598 4.50375E-03 1.28336E-04-1.79781E-15
 -1      3599 4.37246E-03 2.24021E-04-1.62798E-15
 -1      3600 4.21295E-03 2.18969E-04-1.50283E-15
 -1      3601 1.34250E-02 3.68632E-03-2.33902E-14
 -1      3602 1.33409E-02 3.63770E-03-2.27886E-14
 -1      3603 1.38118E-02 3.89161E-03-2.18345E-14
 -1      3604 1.38910E-02 3.93361E-03-2.15194E-14
 -1      3605 1.38069E-02 3.88477E-03-2.09502E-14
 -1      3606 1.36485E-02 3.80086E-03-2.15709E-14
 -1      3607 2.56591E-03-2.00957E-04-7.79406E-16
 -1      3608 2.71118E-03-2.00083E-04-8.60328E-16
 -1      3609 2.85700E-03-1.98678E-04-9.47362E-16
 -1      3610 3.00353E-03-1.96940E-04-1.03952E-15
 -1      3611 2.77523E-03-1.61076E-04-8.62944E-16
 -1      3612 3.15096E-03-1.94976E-04-1.13542E-15
 -1      3613 3.29950E-03-1.93081E-04-1.23629E-15
 -1      3614 3.06726E-03-1.55667E-04-1.03922E-15
 -1      3615 3.44945E-03-1.91369E-04-1.34192E-15
 -1      3616 3.60103E-03-1.90278E-04-1.45237E-15
 -1      3617 3.36332E-03-1.49361E-04-1.23446E-15
 -1      3618 3.75460E-03-1.89945E-04-1.56862E-15
 -1      3619 3.91031E-03-1.90975E-04-1.68985E-15
 -1      3620 3.66572E-03-1.44019E-04-1.44890E-15
 -1      3621 4.06857E-03-1.93564E-04-1.81722E-15
 -1      3622 4.22931E-03-1.98411E-04-1.95038E-15
 -1      3623 3.97720E-03-1.42515E-04-1.68469E-15
 -1      3624 4.39299E-03-2.05615E-04-2.08877E-15
 -1      3625 4.55887E-03-2.15810E-04-2.23309E-15
 -1      3626 4.30051E-03-1.48943E-04-1.94205E-15
 -1      3627 4.72728E-03-2.28914E-04-2.38482E-15
 -1      3628 4.89676E-03-2.44850E-04-2.54327E-15
 -1      3629 4.63681E-03-1.67857E-04-2.22382E-15
 -1      3630 5.41427E-03-2.81288E-04-3.00769E-15
 -1      3631 5.58230E-03-2.97326E-04-3.19506E-15
 -1      3632 5.78723E-03-3.13248E-04-3.47167E-15
 -1      3633 5.94619E-03-3.05310E-04-3.68043E-15
 -1      3634 6.12814E-03-2.78399E-04-3.98230E-15
 -1      3635 6.28346E-03-2.33994E-04-4.21325E-15
 -1      3636 6.43986E-03-1.72247E-04-4.45557E-15
 -1      3637 6.66493E-03-5.97683E-05-4.76576E-15
 -1      3638 6.82914E-03 3.11048E-05-5.02994E-15
 -1      3639 7.34148E-03 3.29905E-04-5.95448E-15
 -1      3640 7.51083E-03 4.28049E-04-6.25675E-15
 -1      3641 7.67956E-03 5.23559E-04-6.56616E-15
 -1      3642 7.84578E-03 6.16122E-04-6.88501E-15
 -1      3643 7.66877E-03 5.29523E-04-6.25898E-15
 -1      3644 8.00998E-03 7.05661E-04-7.21211E-15
 -1      3645 8.17116E-03 7.92561E-04-7.54430E-15
 -1      3646 8.00634E-03 7.13935E-04-6.88893E-15
 -1      3647 8.32981E-03 8.76948E-04-7.88231E-15
 -1      3648 8.48566E-03 9.59551E-04-8.22798E-15
 -1      3649 8.33088E-03 8.84641E-04-7.54667E-15
 -1      3650 8.63916E-03 1.04047E-03-8.57916E-15
 -1      3651 8.79039E-03 1.12036E-03-8.93613E-15
 -1      3652 8.64273E-03 1.04615E-03-8.22945E-15
 -1      3653 8.93973E-03 1.19929E-03-9.30175E-15
 -1      3654 9.08743E-03 1.27774E-03-9.67243E-15
 -1      3655 8.94423E-03 1.20259E-03-8.93693E-15
 -1      3656 9.23376E-03 1.35574E-03-1.00496E-14
 -1      3657 9.37900E-03 1.43359E-03-1.04336E-14
 -1      3658 9.23822E-03 1.35687E-03-9.67138E-15
 -1      3659 9.52332E-03 1.51130E-03-1.08226E-14
 -1      3660 9.66696E-03 1.58905E-03-1.12175E-14
 -1      3661 9.52721E-03 1.51072E-03-1.04306E-14
 -1      3662 9.81005E-03 1.66684E-03-1.16177E-14
 -1      3663 9.95276E-03 1.74477E-03-1.20237E-14
 -1      3664 9.81314E-03 1.66503E-03-1.12133E-14
 -1      3665 1.00952E-02 1.82282E-03-1.24326E-14
 -1      3666 1.02374E-02 1.90103E-03-1.28453E-14
 -1      3667 1.00974E-02 1.82018E-03-1.20180E-14
 -1      3668 1.03795E-02 1.97941E-03-1.32591E-14
 -1      3669 1.05215E-02 2.05796E-03-1.36758E-14
 -1      3670 1.03809E-02 1.97628E-03-1.28372E-14
 -1      3671 1.06636E-02 2.13668E-03-1.40968E-14
 -1      3672 1.08056E-02 2.21556E-03-1.45183E-14
 -1      3673 1.06643E-02 2.13327E-03-1.36668E-14
 -1      3674 1.09477E-02 2.29459E-03-1.49402E-14
 -1      3675 1.10898E-02 2.37377E-03-1.53647E-14
 -1      3676 1.09478E-02 2.29107E-03-1.45030E-14
 -1      3677 1.12319E-02 2.45309E-03-1.57909E-14
 -1      3678 1.13742E-02 2.53254E-03-1.62212E-14
 -1      3679 1.12316E-02 2.44954E-03-1.53477E-14
 -1      3680 1.15165E-02 2.61211E-03-1.66537E-14
 -1      3681 1.16589E-02 2.69178E-03-1.70872E-14
 -1      3682 1.15158E-02 2.60858E-03-1.62010E-14
 -1      3683 1.18013E-02 2.77156E-03-1.75241E-14
 -1      3684 1.19438E-02 2.85143E-03-1.79676E-14
 -1      3685 1.18003E-02 2.76809E-03-1.70664E-14
 -1      3686 1.20863E-02 2.93138E-03-1.84132E-14
 -1      3687 1.22289E-02 3.01141E-03-1.88629E-14
 -1      3688 1.20851E-02 2.92797E-03-1.79465E-14
 -1      3689 1.23716E-02 3.09151E-03-1.93167E-14
 -1      3690 1.25142E-02 3.17167E-03-1.97771E-14
 -1      3691 1.23702E-02 3.08815E-03-1.88423E-14
 -1      3692 1.26569E-02 3.25189E-03-2.02429E-14
 -1      3693 1.27997E-02 3.33216E-03-2.07123E-14
 -1      3694 1.26554E-02 3.24858E-03-1.97545E-14
 -1      3695 1.29424E-02 3.41246E-03-2.11899E-14
 -1      3696 1.30852E-02 3.49281E-03-2.16750E-14
 -1      3697 1.29408E-02 3.40919E-03-2.06870E-14
 -1      3698 1.32492E-02 3.58563E-03-2.23513E-14
 -1      3699 2.91713E-03 2.31518E-04-4.22554E-16
 -1      3700 2.78441E-03 2.26565E-04-3.71258E-16
 -1      3701 1.25636E-02 3.16122E-03-1.41131E-14
 -1      3702 1.24214E-02 3.07981E-03-1.37055E-14
 -1      3703 1.22794E-02 2.99835E-03-1.32989E-14
 -1      3704 1.21375E-02 2.91683E-03-1.28977E-14
 -1      3705 1.22812E-02 3.00314E-03-1.37437E-14
 -1      3706 1.31192E-02 3.47809E-03-1.57449E-14
 -1      3707 1.29766E-02 3.39693E-03-1.53234E-14
 -1      3708 1.34045E-02 3.64023E-03-1.66007E-14
 -1      3709 1.32619E-02 3.55919E-03-1.61697E-14
 -1      3710 1.31209E-02 3.48198E-03-1.62125E-14
 -1      3711 1.36900E-02 3.80218E-03-1.74626E-14
 -1      3712 1.35473E-02 3.72123E-03-1.70304E-14
 -1      3713 1.34061E-02 3.64394E-03-1.70714E-14
 -1      3714 2.64971E-03 2.22263E-04-3.23553E-16
 -1      3715 2.51338E-03 2.18552E-04-2.79629E-16
 -1      3716 2.71106E-03 1.94719E-04-3.93538E-16
 -1      3717 9.48551E-03 1.36110E-03-5.37715E-15
 -1      3718 9.39875E-03 1.32257E-03-5.29417E-15
 -1      3719 1.14324E-02 2.50902E-03-1.09142E-14
 -1      3720 1.12926E-02 2.42761E-03-1.05241E-14
 -1      3721 7.58133E-03 4.98726E-04-5.68855E-15
 -1      3722 7.36130E-03 3.62567E-04-5.50181E-15
 -1      3723 1.24840E-03-1.15000E-05-1.48183E-16
 -1      3724 1.24963E-03-4.05897E-05-1.64663E-16
 -1      3725 1.36883E-03 3.65488E-06-1.65720E-16
 -1      3726 5.29101E-03-2.14336E-04-2.75801E-15
 -1      3727 5.10319E-03-1.49851E-04-2.52068E-15
 -1      3728 4.91959E-03-1.21576E-04-2.35861E-15
 -1      3729 5.19221E-03-2.72394E-04-2.82073E-15
 -1      3730 1.39410E-02 3.95172E-03-1.96177E-14
 -1      3731 1.40406E-02 4.00372E-03-1.91051E-14
 -1      3732 1.39376E-02 3.94506E-03-1.87068E-14
 -1      3733 9.18233E-03 1.26393E-03-5.58180E-15
 -1      3734 9.04899E-03 1.22358E-03-5.73050E-15
 -1      3735 1.98844E-03-1.96605E-04-4.94749E-16
 -1      3736 2.13238E-03-1.99130E-04-5.59340E-16
 -1      3737 9.58519E-03 1.42555E-03-5.78304E-15
 -1      3738 1.70152E-03-1.87873E-04-3.77153E-16
 -1      3739 1.84482E-03-1.92896E-04-4.33884E-16
 -1      3740 1.91016E-03-1.61215E-04-4.39454E-16
 -1      3741 1.48036E-03-1.69893E-04-2.93927E-16
 -1      3742 1.60358E-03-1.79694E-04-3.39016E-16
 -1      3743 1.66925E-03-1.50842E-04-3.45102E-16
 -1      3744 1.47469E-03-1.35910E-04-2.75320E-16
 -1      3745 9.30395E-03 1.29736E-03-5.41961E-15
 -1      3746 7.03181E-03 1.55911E-04-5.22302E-15
 -1      3747 1.28377E-02 3.31774E-03-1.49119E-14
 -1      3748 1.27024E-02 3.24053E-03-1.45129E-14
 -1      3749 1.25618E-02 3.16361E-03-1.45549E-14
 -1      3750 1.28394E-02 3.32187E-03-1.53706E-14
 -1      3751 1.25090E-03-6.41627E-05-1.77836E-16
 -1      3752 1.25383E-03-9.39510E-05-1.93923E-16
 -1      3753 1.37495E-03-1.02118E-04-2.29241E-16
 -1      3754 1.37082E-03-5.17110E-05-1.99846E-16
 -1      3755 2.27658E-03-2.00619E-04-6.28512E-16
 -1      3756 2.42108E-03-2.01182E-04-7.02184E-16
 -1      3757 2.19733E-03-1.64679E-04-5.64395E-16
 -1      3758 1.32476E-02 3.58240E-03-2.18327E-14
 -1      3759 1.81666E-03 1.99455E-04-1.15332E-16
 -1      3760 1.71117E-03 1.98493E-04-9.50845E-17
 -1      3761 2.37567E-03 2.14924E-04-2.39582E-16
 -1      3762 2.23682E-03 2.11283E-04-2.03762E-16
 -1      3763 2.43823E-03 1.85886E-04-2.99673E-16
 -1      3764 1.08784E-02 2.17822E-03-8.97980E-15
 -1      3765 4.93607E-03-1.90934E-04-2.47816E-15
 -1      3766 5.02188E-03-2.52945E-04-2.65258E-15
 -1      3767 7.20486E-03 2.59193E-04-5.50428E-15
 -1      3768 3.04438E-03 2.37618E-04-4.76209E-16
 -1      3769 2.97396E-03 2.06534E-04-5.01444E-16
 -1      3770 3.16906E-03 2.44967E-04-5.33875E-16
 -1      3771 3.64146E-03 3.02891E-04-7.84081E-16
 -1      3772 3.53211E-03 2.86126E-04-7.13690E-16
 -1      3773 3.36365E-03 2.84934E-04-5.59597E-16
 -1      3774 8.36448E-03 9.37107E-04-5.94076E-15
 -1      3775 8.25659E-03 8.78402E-04-6.10373E-15
 -1      3776 8.55419E-03 1.02536E-03-6.14007E-15
 -1      3777 1.38621E-02 3.90995E-03-1.99252E-14
 -1      3778 1.37591E-02 3.85136E-03-1.95187E-14
 -1      3779 1.37832E-02 3.86818E-03-2.02287E-14
 -1      3780 1.11553E-02 2.34743E-03-1.01407E-14
 -1      3781 1.10186E-02 2.26747E-03-9.76153E-15
 -1      3782 1.11572E-02 2.35467E-03-1.05599E-14
 -1      3783 1.19978E-02 2.84052E-03-1.29346E-14
 -1      3784 1.19959E-02 2.83528E-03-1.24977E-14
 -1      3785 1.18545E-02 2.75368E-03-1.20986E-14
 -1      3786 1.38653E-02 3.90302E-03-1.82782E-14
 -1      3787 1.37623E-02 3.84430E-03-1.78885E-14
 -1      3788 1.36212E-02 3.76698E-03-1.79304E-14
 -1      3789 1.37658E-02 3.85110E-03-1.87839E-14
 -1      3790 1.38820E-03 1.31514E-04-8.65329E-17
 -1      3791 1.49000E-03 2.04188E-05-1.83555E-16
 -1      3792 1.49052E-03-1.15372E-05-2.04955E-16
 -1      3793 7.81385E-03 6.37487E-04-5.82248E-15
 -1      3794 7.71464E-03 5.65156E-04-6.09724E-15
 -1      3795 7.88742E-03 6.59610E-04-6.40381E-15
 -1      3796 7.99732E-03 7.36704E-04-6.07094E-15
 -1      3797 1.33265E-02 3.62418E-03-2.15253E-14
 -1      3798 2.48557E-03-1.64377E-04-7.05097E-16
 -1      3799 1.15727E-02 2.59052E-03-1.13054E-14
 -1      3800 1.14344E-02 2.51549E-03-1.13408E-14
 -1      3801 1.17134E-02 2.67210E-03-1.17006E-14
 -1      3802 3.99894E-03 2.47941E-04-1.29236E-15
 -1      3803 3.89573E-03 2.55558E-04-1.18377E-15
 -1      3804 3.85479E-03 3.25759E-04-1.02189E-15
 -1      3805 3.71611E-03 3.10213E-04-8.64936E-16
 -1      3806 1.49067E-03 5.21854E-05-1.62061E-16
 -1      3807 1.61179E-03 3.84628E-05-2.01499E-16
 -1      3808 1.49257E-03 8.40304E-05-1.40106E-16
 -1      3809 4.10374E-03 1.82578E-04-1.44307E-15
 -1      3810 8.94472E-03 1.19085E-03-5.95963E-15
 -1      3811 8.84039E-03 1.15207E-03-6.18802E-15
 -1      3812 9.10288E-03 1.25704E-03-6.17468E-15
 -1      3813 1.03479E-02 1.87359E-03-7.95144E-15
 -1      3814 1.02195E-02 1.79815E-03-7.61107E-15
 -1      3815 4.58083E-03-1.45388E-05-1.99041E-15
 -1      3816 4.54871E-03 5.67225E-05-1.89426E-15
 -1      3817 4.37311E-03 6.97904E-05-1.75566E-15
 -1      3818 2.09707E-03 2.07226E-04-1.71832E-16
 -1      3819 1.95661E-03 2.02653E-04-1.42762E-16
 -1      3820 2.16068E-03 1.77938E-04-2.21367E-16
 -1      3821 9.65297E-03 1.47428E-03-6.17425E-15
 -1      3822 9.49194E-03 1.39883E-03-5.99790E-15
 -1      3823 1.88103E-03 1.71152E-04-1.55881E-16
 -1      3824 1.06103E-02 2.02785E-03-8.65154E-15
 -1      3825 1.04783E-02 1.95015E-03-8.29785E-15
 -1      3826 1.03466E-02 1.88301E-03-8.33344E-15
 -1      3827 9.88928E-03 1.60880E-03-6.81127E-15
 -1      3828 9.76933E-03 1.53992E-03-6.48965E-15
 -1      3829 9.67708E-03 1.50893E-03-6.70870E-15
 -1      3830 9.32049E-03 1.32253E-03-5.77854E-15
 -1      3831 9.38096E-03 1.36405E-03-6.16465E-15
 -1      3832 2.69433E-03-1.24679E-04-7.81913E-16
 -1      3833 2.83897E-03-1.21577E-04-8.62374E-16
 -1      3834 4.79061E-03-1.12986E-04-2.25914E-15
 -1      3835 2.98416E-03-1.17865E-04-9.47660E-16
 -1      3836 3.13019E-03-1.13722E-04-1.03728E-15
 -1      3837 2.90221E-03-8.16251E-05-8.59325E-16
 -1      3838 3.27726E-03-1.09190E-04-1.13101E-15
 -1      3839 3.42573E-03-1.04640E-04-1.22996E-15
 -1      3840 3.19205E-03-7.10830E-05-1.03217E-15
 -1      3841 3.57596E-03-1.00141E-04-1.33425E-15
 -1      3842 3.72835E-03-9.63088E-05-1.44310E-15
 -1      3843 3.48639E-03-5.88394E-05-1.22374E-15
 -1      3844 3.88341E-03-9.32907E-05-1.55639E-15
 -1      3845 4.04151E-03-9.20753E-05-1.67596E-15
 -1      3846 3.78846E-03-4.70063E-05-1.43338E-15
 -1      3847 4.27494E-03-7.30541E-05-1.83225E-15
 -1      3848 4.44243E-03-7.82399E-05-1.96340E-15
 -1      3849 4.61500E-03-9.79471E-05-2.11392E-15
 -1      3850 1.57319E-03 1.69505E-04-9.25502E-17
 -1      3851 8.05647E-03 7.49100E-04-6.71987E-15
 -1      3852 8.22136E-03 8.34836E-04-7.04257E-15
 -1      3853 8.11000E-03 7.85632E-04-6.55032E-15
 -1      3854 8.38247E-03 9.17188E-04-7.37045E-15
 -1      3855 8.53992E-03 9.97355E-04-7.70366E-15
 -1      3856 8.43669E-03 9.50618E-04-7.19330E-15
 -1      3857 8.69406E-03 1.07556E-03-8.04439E-15
 -1      3858 8.84544E-03 1.15277E-03-8.39068E-15
 -1      3859 8.74724E-03 1.10527E-03-7.86034E-15
 -1      3860 8.99441E-03 1.22918E-03-8.74580E-15
 -1      3861 9.14151E-03 1.30531E-03-9.10615E-15
 -1      3862 9.04582E-03 1.25578E-03-8.55276E-15
 -1      3863 9.28699E-03 1.38127E-03-9.47151E-15
 -1      3864 9.43128E-03 1.45734E-03-9.84460E-15
 -1      3865 9.33651E-03 1.40550E-03-9.27256E-15
 -1      3866 9.57458E-03 1.53357E-03-1.02245E-14
 -1      3867 9.71720E-03 1.61007E-03-1.06087E-14
 -1      3868 9.62237E-03 1.55617E-03-1.00168E-14
 -1      3869 9.85928E-03 1.68686E-03-1.10005E-14
 -1      3870 1.00010E-02 1.76399E-03-1.13970E-14
 -1      3871 9.90562E-03 1.70844E-03-1.07862E-14
 -1      3872 1.01425E-02 1.84143E-03-1.17966E-14
 -1      3873 1.02839E-02 1.91918E-03-1.22027E-14
 -1      3874 1.01877E-02 1.86244E-03-1.15772E-14
 -1      3875 1.04252E-02 1.99723E-03-1.26099E-14
 -1      3876 1.05666E-02 2.07556E-03-1.30196E-14
 -1      3877 1.04695E-02 2.01798E-03-1.23831E-14
 -1      3878 1.07079E-02 2.15413E-03-1.34351E-14
 -1      3879 1.08494E-02 2.23294E-03-1.38505E-14
 -1      3880 1.07516E-02 2.17482E-03-1.32027E-14
 -1      3881 1.09909E-02 2.31195E-03-1.42686E-14
 -1      3882 1.11326E-02 2.39115E-03-1.46870E-14
 -1      3883 1.10341E-02 2.33270E-03-1.40321E-14
 -1      3884 1.12744E-02 2.47052E-03-1.51071E-14
 -1      3885 1.14163E-02 2.55003E-03-1.55304E-14
 -1      3886 1.13171E-02 2.49139E-03-1.48697E-14
 -1      3887 1.15583E-02 2.62968E-03-1.59579E-14
 -1      3888 1.17004E-02 2.70944E-03-1.63885E-14
 -1      3889 1.16007E-02 2.65069E-03-1.57150E-14
 -1      3890 1.18426E-02 2.78931E-03-1.68198E-14
 -1      3891 1.19849E-02 2.86927E-03-1.72546E-14
 -1      3892 1.18849E-02 2.81047E-03-1.65726E-14
 -1      3893 1.21272E-02 2.94931E-03-1.76949E-14
 -1      3894 1.22697E-02 3.02942E-03-1.81391E-14
 -1      3895 1.21694E-02 2.97060E-03-1.74449E-14
 -1      3896 1.24122E-02 3.10960E-03-1.85848E-14
 -1      3897 1.25548E-02 3.18983E-03-1.90347E-14
 -1      3898 1.24543E-02 3.13100E-03-1.83289E-14
 -1      3899 1.26974E-02 3.27011E-03-1.94909E-14
 -1      3900 1.28401E-02 3.35043E-03-1.99507E-14
 -1      3901 1.27394E-02 3.29160E-03-1.92282E-14
 -1      3902 1.29828E-02 3.43079E-03-2.04186E-14
 -1      3903 1.31255E-02 3.51118E-03-2.08901E-14
 -1      3904 1.30247E-02 3.45236E-03-2.01483E-14
 -1      3905 3.41534E-03 2.69977E-04-6.50684E-16
 -1      3906 3.29370E-03 2.56553E-04-5.90619E-16
 -1      3907 3.22758E-03 2.26096E-04-6.18822E-16
 -1      3908 3.47162E-03 2.56097E-04-7.45104E-16
 -1      3909 1.34077E-02 3.64761E-03-1.75466E-14
 -1      3910 1.32651E-02 3.56674E-03-1.71135E-14
 -1      3911 1.31225E-02 3.48583E-03-1.66780E-14
 -1      3912 1.29799E-02 3.40489E-03-1.62495E-14
 -1      3913 1.31241E-02 3.48962E-03-1.71493E-14
 -1      3914 2.77489E-03 1.67549E-04-4.67413E-16
 -1      3915 2.63944E-03 1.61991E-04-4.13393E-16
 -1      3916 1.83312E-03-1.26979E-04-3.87684E-16
 -1      3917 1.97604E-03-1.28846E-04-4.43384E-16
 -1      3918 3.73542E-03 2.84596E-04-9.63436E-16
 -1      3919 1.08816E-02 2.18715E-03-9.38590E-15
 -1      3920 1.07451E-02 2.10702E-03-9.01503E-15
 -1      3921 1.06117E-02 2.03711E-03-9.04885E-15
 -1      3922 1.08832E-02 2.19524E-03-9.79456E-15
 -1      3923 1.01146E-02 1.73809E-03-7.36906E-15
 -1      3924 9.99053E-03 1.66575E-03-7.04088E-15
 -1      3925 9.90165E-03 1.63196E-03-7.26525E-15
 -1      3926 1.01107E-02 1.74809E-03-7.74229E-15
 -1      3927 2.40625E-03-1.28826E-04-6.34258E-16
 -1      3928 2.55014E-03-1.27129E-04-7.05680E-16
 -1      3929 2.61465E-03-8.94924E-05-7.04352E-16
 -1      3930 1.61238E-03-2.12621E-05-2.44569E-16
 -1      3931 1.49135E-03-3.73344E-05-2.22085E-16
 -1      3932 1.49289E-03-6.33800E-05-2.39107E-16
 -1      3933 1.93867E-03 1.41283E-04-1.98870E-16
 -1      3934 1.79884E-03 1.38823E-04-1.65869E-16
 -1      3935 2.11921E-03-1.29746E-04-5.02948E-16
 -1      3936 2.26263E-03-1.29719E-04-5.66658E-16
 -1      3937 2.04237E-03-9.58355E-05-4.45092E-16
 -1      3938 1.22829E-02 3.00782E-03-1.41884E-14
 -1      3939 1.21411E-02 2.92672E-03-1.37791E-14
 -1      3940 4.15964E-03 1.15295E-04-1.55040E-15
 -1      3941 3.94616E-03 1.54613E-04-1.34033E-15
 -1      3942 3.71603E-03 2.11321E-04-1.07214E-15
 -1      3943 3.72408E-03 2.50191E-04-1.01903E-15
 -1      3944 3.56484E-03 2.44213E-04-8.66440E-16
 -1      3945 9.48350E-03 1.42395E-03-6.63356E-15
 -1      3946 9.29751E-03 1.34080E-03-6.40188E-15
 -1      3947 9.21022E-03 1.31280E-03-6.63987E-15
 -1      3948 1.55586E-03 1.30735E-04-1.18869E-16
 -1      3949 4.17137E-03-1.80625E-05-1.69203E-15
 -1      3950 1.68870E-03-1.01438E-04-3.21479E-16
 -1      3951 1.75602E-03-7.12373E-05-3.23106E-16
 -1      3952 1.47134E-03-1.09166E-04-2.59775E-16
 -1      3953 1.25600E-02 3.16592E-03-1.49956E-14
 -1      3954 1.24214E-02 3.08688E-03-1.45909E-14
 -1      3955 1.22809E-02 3.01034E-03-1.46234E-14
 -1      3956 1.03437E-02 1.89137E-03-8.71792E-15
 -1      3957 1.02129E-02 1.81660E-03-8.36745E-15
 -1      3958 1.34800E-02 3.68973E-03-1.79713E-14
 -1      3959 1.33389E-02 3.61254E-03-1.80112E-14
 -1      3960 1.35523E-02 3.73180E-03-1.83959E-14
 -1      3961 3.44448E-03 2.25335E-04-7.95493E-16
 -1      3962 1.73524E-03 9.00347E-05-1.92419E-16
 -1      3963 1.67557E-03 1.18866E-04-1.54119E-16
 -1      3964 8.73393E-03 1.10699E-03-6.35979E-15
 -1      3965 8.62982E-03 1.05813E-03-6.52936E-15
 -1      3966 8.90598E-03 1.18364E-03-6.58230E-15
 -1      3967 1.37039E-02 3.82626E-03-2.05328E-14
 -1      3968 1.36010E-02 3.76774E-03-2.01215E-14
 -1      3969 1.36247E-02 3.78434E-03-2.08372E-14
 -1      3970 1.11577E-02 2.36101E-03-1.09798E-14
 -1      3971 1.10207E-02 2.28182E-03-1.05919E-14
 -1      3972 2.56899E-03 1.28453E-04-4.30211E-16
 -1      3973 2.50259E-03 1.57108E-04-3.63425E-16
 -1      3974 2.36462E-03 1.52794E-04-3.17116E-16
 -1      3975 1.19995E-02 2.84562E-03-1.33732E-14
 -1      3976 1.18581E-02 2.76454E-03-1.29705E-14
 -1      3977 1.20010E-02 2.85054E-03-1.38140E-14
 -1      3978 1.36919E-02 3.81261E-03-1.91702E-14
 -1      3979 1.36196E-02 3.77060E-03-1.87397E-14
 -1      3980 1.34784E-02 3.69338E-03-1.87780E-14
 -1      3981 1.36129E-02 3.77090E-03-1.94707E-14
 -1      3982 1.28426E-02 3.32992E-03-1.62937E-14
 -1      3983 1.28410E-02 3.32594E-03-1.58334E-14
 -1      3984 1.27022E-02 3.24695E-03-1.54160E-14
 -1      3985 2.90551E-03 1.74067E-04-5.23968E-16
 -1      3986 2.83819E-03 1.40353E-04-5.42955E-16
 -1      3987 3.03440E-03 1.81772E-04-5.83667E-16
 -1      3988 8.21083E-03 8.50793E-04-6.24186E-15
 -1      3989 8.14926E-03 8.11743E-04-6.41356E-15
 -1      3990 8.31518E-03 8.94916E-04-6.72941E-15
 -1      3991 8.40059E-03 9.46194E-04-6.44749E-15
 -1      3992 1.17154E-02 2.67790E-03-1.21337E-14
 -1      3993 1.14369E-02 2.52218E-03-1.17690E-14
 -1      3994 1.12970E-02 2.44147E-03-1.13737E-14
 -1      3995 1.11593E-02 2.36792E-03-1.14029E-14
 -1      3996 4.19498E-03 5.36131E-05-1.63588E-15
 -1      3997 9.60654E-03 1.48828E-03-6.95544E-15
 -1      3998 2.22568E-03 1.48673E-04-2.74913E-16
 -1      3999 2.08598E-03 1.44628E-04-2.36573E-16
 -1      4000 2.29221E-03 1.19350E-04-3.32240E-16
 -1      4001 1.75242E-03-1.52392E-05-2.81283E-16
 -1      4002 1.75381E-03-4.31014E-05-3.02560E-16
 -1      4003 1.89658E-03-6.60288E-05-3.67463E-16
 -1      4004 2.00541E-03 1.12352E-04-2.46114E-16
 -1      4005 2.32819E-03-9.43025E-05-5.66455E-16
 -1      4006 1.00985E-02 1.76379E-03-8.49493E-15
 -1      4007 1.01051E-02 1.75658E-03-8.11791E-15
 -1      4008 9.99819E-03 1.69762E-03-7.87142E-15
 -1      4009 3.78915E-03 1.09883E-04-1.26098E-15
 -1      4010 3.75131E-03 1.64079E-04-1.16708E-15
 -1      4011 3.56983E-03 1.68500E-04-1.00646E-15
 -1      4012 1.33027E-02 3.60769E-03-2.07944E-14
 -1      4013 1.35455E-02 3.74242E-03-2.11439E-14
 -1      4014 1.73343E-03 5.61918E-05-2.19714E-16
 -1      4015 1.73303E-03 2.22389E-05-2.46453E-16
 -1      4016 1.85538E-03 7.47027E-05-2.37698E-16
 -1      4017 1.87345E-03 1.82609E-06-3.05799E-16
 -1      4018 2.82174E-03-4.69400E-05-7.75110E-16
 -1      4019 2.96478E-03-4.14614E-05-8.54216E-16
 -1      4020 3.10820E-03-3.50769E-05-9.37184E-16
 -1      4021 3.25248E-03-2.80338E-05-1.02421E-15
 -1      4022 3.02648E-03-1.15020E-06-8.45583E-16
 -1      4023 3.39773E-03-2.03142E-05-1.11634E-15
 -1      4024 3.54458E-03-1.22857E-05-1.21353E-15
 -1      4025 3.31116E-03 1.53880E-05-1.01400E-15
 -1      4026 1.56812E-03-1.15870E-04-2.92098E-16
 -1      4027 1.04771E-02 1.96796E-03-9.08181E-15
 -1      4028 1.03411E-02 1.89938E-03-9.11078E-15
 -1      4029 1.06118E-02 2.04560E-03-9.45076E-15
 -1      4030 8.53981E-03 1.01041E-03-6.81796E-15
 -1      4031 8.69437E-03 1.08452E-03-7.14201E-15
 -1      4032 9.05621E-03 1.26057E-03-8.19554E-15
 -1      4033 9.20143E-03 1.33377E-03-8.54706E-15
 -1      4034 9.34498E-03 1.40715E-03-8.90092E-15
 -1      4035 9.48738E-03 1.48105E-03-9.26153E-15
 -1      4036 9.35549E-03 1.40914E-03-8.53286E-15
 -1      4037 9.62889E-03 1.55548E-03-9.62988E-15
 -1      4038 9.76984E-03 1.63054E-03-1.00037E-14
 -1      4039 9.63673E-03 1.55482E-03-9.24689E-15
 -1      4040 9.91037E-03 1.70617E-03-1.03858E-14
 -1      4041 1.00507E-02 1.78242E-03-1.07735E-14
 -1      4042 9.91593E-03 1.70373E-03-9.98894E-15
 -1      4043 1.01910E-02 1.85918E-03-1.11681E-14
 -1      4044 1.03312E-02 1.93646E-03-1.15646E-14
 -1      4045 1.01947E-02 1.85567E-03-1.07594E-14
 -1      4046 1.04716E-02 2.01418E-03-1.19652E-14
 -1      4047 1.06120E-02 2.09231E-03-1.23688E-14
 -1      4048 1.04739E-02 2.01009E-03-1.15499E-14
 -1      4049 1.07526E-02 2.17077E-03-1.27768E-14
 -1      4050 1.08934E-02 2.24955E-03-1.31880E-14
 -1      4051 1.07539E-02 2.16644E-03-1.23560E-14
 -1      4052 1.10344E-02 2.32860E-03-1.35977E-14
 -1      4053 1.11756E-02 2.40786E-03-1.40145E-14
 -1      4054 1.10349E-02 2.32423E-03-1.31686E-14
 -1      4055 1.13169E-02 2.48733E-03-1.44310E-14
 -1      4056 1.14584E-02 2.56697E-03-1.48472E-14
 -1      4057 1.13168E-02 2.48305E-03-1.39941E-14
 -1      4058 1.16001E-02 2.64674E-03-1.52689E-14
 -1      4059 1.17419E-02 2.72664E-03-1.56938E-14
 -1      4060 1.15995E-02 2.64260E-03-1.48265E-14
 -1      4061 1.18839E-02 2.80665E-03-1.61200E-14
 -1      4062 1.20260E-02 2.88674E-03-1.65501E-14
 -1      4063 1.18830E-02 2.80266E-03-1.56696E-14
 -1      4064 1.21682E-02 2.96690E-03-1.69845E-14
 -1      4065 1.23105E-02 3.04713E-03-1.74213E-14
 -1      4066 1.21671E-02 2.96308E-03-1.65267E-14
 -1      4067 1.24529E-02 3.12742E-03-1.78616E-14
 -1      4068 1.25954E-02 3.20775E-03-1.83048E-14
 -1      4069 1.24516E-02 3.12374E-03-1.73965E-14
 -1      4070 1.27379E-02 3.28812E-03-1.87506E-14
 -1      4071 1.28805E-02 3.36853E-03-1.92028E-14
 -1      4072 1.27365E-02 3.28457E-03-1.82800E-14
 -1      4073 1.98498E-03 2.67575E-05-3.20693E-16
 -1      4074 2.00505E-03-1.24841E-05-3.62666E-16
 -1      4075 1.31256E-02 3.49335E-03-1.76219E-14
 -1      4076 1.29831E-02 3.41259E-03-1.71840E-14
 -1      4077 3.97184E-03 2.47451E-05-1.49543E-15
 -1      4078 2.02154E-03-3.89093E-05-3.91031E-16
 -1      4079 2.02435E-03-6.85830E-05-4.16279E-16
 -1      4080 2.16677E-03-6.76932E-05-4.72319E-16
 -1      4081 2.13213E-03-1.34163E-05-4.10072E-16
 -1      4082 3.29061E-03 2.07260E-04-7.07469E-16
 -1      4083 3.16377E-03 1.93667E-04-6.43962E-16
 -1      4084 3.10099E-03 1.59590E-04-6.65944E-16
 -1      4085 9.31784E-03 1.36825E-03-7.06089E-15
 -1      4086 9.11656E-03 1.27749E-03-6.82181E-15
 -1      4087 9.02194E-03 1.23854E-03-7.00046E-15
 -1      4088 1.17175E-02 2.68376E-03-1.25676E-14
 -1      4089 1.15768E-02 2.60278E-03-1.21663E-14
 -1      4090 1.14385E-02 2.52830E-03-1.21988E-14
 -1      4091 1.17189E-02 2.68912E-03-1.30018E-14
 -1      4092 9.72995E-03 1.55586E-03-7.33644E-15
 -1      4093 9.52996E-03 1.46504E-03-7.25197E-15
 -1      4094 9.83524E-03 1.61171E-03-7.57096E-15
 -1      4095 3.38956E-03 1.89893E-04-8.21527E-16
 -1      4096 2.00320E-03 7.71400E-05-2.79914E-16
 -1      4097 2.53646E-03-5.55121E-05-6.30355E-16
 -1      4098 2.67904E-03-5.16277E-05-7.00774E-16
 -1      4099 2.74316E-03-1.36418E-05-6.94540E-16
 -1      4100 1.34545E-02 3.68718E-03-2.00665E-14
 -1      4101 1.35337E-02 3.72904E-03-1.97703E-14
 -1      4102 1.34665E-02 3.69032E-03-1.94198E-14
 -1      4103 2.28039E-03-6.34319E-05-5.17476E-16
 -1      4104 2.42290E-03-6.10598E-05-5.80279E-16
 -1      4105 2.48866E-03-2.48891E-05-5.75874E-16
 -1      4106 2.26236E-03-3.57448E-05-4.83852E-16
 -1      4107 2.13269E-03 6.45054E-05-3.35181E-16
 -1      4108 1.03373E-02 1.90608E-03-9.50641E-15
 -1      4109 1.02025E-02 1.83056E-03-9.13743E-15
 -1      4110 3.69338E-03-4.03578E-06-1.31481E-15
 -1      4111 3.84492E-03 3.55695E-06-1.42044E-15
 -1      4112 1.25615E-02 3.17016E-03-1.54517E-14
 -1      4113 1.31978E-02 3.53542E-03-1.80450E-14
 -1      4114 8.75897E-03 1.11384E-03-7.51700E-15
 -1      4115 8.90899E-03 1.18751E-03-7.85259E-15
 -1      4116 1.31331E-02 3.50670E-03-1.92191E-14
 -1      4117 1.31346E-02 3.51016E-03-1.97020E-14
 -1      4118 1.00855E-02 1.77541E-03-9.26738E-15
 -1      4119 1.00919E-02 1.77009E-03-8.87917E-15
 -1      4120 9.98171E-03 1.71042E-03-8.62480E-15
 -1      4121 1.32773E-02 3.59066E-03-2.01650E-14
 -1      4122 1.28456E-02 3.33767E-03-1.72282E-14
 -1      4123 1.28441E-02 3.33384E-03-1.67598E-14
 -1      4124 1.27053E-02 3.25508E-03-1.63390E-14
 -1      4125 2.63777E-03 9.95598E-05-5.00563E-16
 -1      4126 2.49960E-03 9.43160E-05-4.44618E-16
 -1      4127 3.86940E-03 6.84535E-05-1.36973E-15
 -1      4128 1.22806E-02 3.01375E-03-1.50697E-14
 -1      4129 1.21422E-02 2.93501E-03-1.46625E-14
 -1      4130 9.44686E-03 1.43371E-03-7.44149E-15
 -1      4131 1.20005E-02 2.85429E-03-1.42489E-14
 -1      4132 1.18591E-02 2.77361E-03-1.38391E-14
 -1      4133 1.20000E-02 2.85786E-03-1.46873E-14
 -1      4134 1.08823E-02 2.20874E-03-1.06153E-14
 -1      4135 1.08831E-02 2.20227E-03-1.02023E-14
 -1      4136 3.40712E-03 1.48859E-04-9.04469E-16
 -1      4137 1.11597E-02 2.37394E-03-1.18256E-14
 -1      4138 1.10203E-02 2.29425E-03-1.14285E-14
 -1      4139 1.07464E-02 2.12321E-03-9.81994E-15
 -1      4140 2.38658E-03 8.10185E-05-4.13555E-16
 -1      4141 2.24687E-03 7.69723E-05-3.63560E-16
 -1      4142 2.23024E-03 2.51270E-05-4.11333E-16
 -1      4143 2.45747E-03 5.08855E-05-4.78567E-16
 -1      4144 9.82364E-03 1.61751E-03-7.94020E-15
 -1      4145 3.59989E-03 3.51216E-05-1.19998E-15
 -1      4146 3.67102E-03 8.55756E-05-1.19594E-15
 -1      4147 1.08812E-02 2.22110E-03-1.14505E-14
 -1      4148 1.08819E-02 2.21517E-03-1.10328E-14
 -1      4149 1.07441E-02 2.13653E-03-1.06386E-14
 -1      4150 9.06962E-03 1.26623E-03-7.84313E-15
 -1      4151 2.90465E-03 1.12627E-04-6.21722E-16
 -1      4152 2.77172E-03 1.05595E-04-5.59530E-16
 -1      4153 2.70561E-03 7.00485E-05-5.72987E-16
 -1      4154 3.22724E-03 4.83439E-05-9.15270E-16
 -1      4155 3.36789E-03 5.85928E-05-1.00034E-15
 -1      4156 1.25639E-02 3.17480E-03-1.59118E-14
 -1      4157 1.24217E-02 3.09402E-03-1.54882E-14
 -1      4158 1.22828E-02 3.01854E-03-1.55241E-14
 -1      4159 1.25653E-02 3.17884E-03-1.63728E-14
 -1      4160 1.06099E-02 2.05253E-03-9.85021E-15
 -1      4161 8.86381E-03 1.16658E-03-7.12859E-15
 -1      4162 3.25526E-03 1.33015E-04-8.15672E-16
 -1      4163 3.12252E-03 1.19431E-04-7.45863E-16
 -1      4164 1.06075E-02 2.05884E-03-1.02544E-14
 -1      4165 1.04724E-02 1.98224E-03-9.88014E-15
 -1      4166 1.03328E-02 1.91165E-03-9.90309E-15
 -1      4167 1.06056E-02 2.06494E-03-1.06659E-14
 -1      4168 9.64593E-03 1.55387E-03-8.86979E-15
 -1      4169 9.78422E-03 1.62687E-03-9.22930E-15
 -1      4170 9.98888E-03 1.73354E-03-9.57582E-15
 -1      4171 1.01266E-02 1.80865E-03-9.95146E-15
 -1      4172 1.02636E-02 1.88412E-03-1.03285E-14
 -1      4173 1.04019E-02 1.96088E-03-1.07176E-14
 -1      4174 1.05396E-02 2.03779E-03-1.11053E-14
 -1      4175 1.06787E-02 2.11578E-03-1.15017E-14
 -1      4176 1.08177E-02 2.19406E-03-1.19010E-14
 -1      4177 1.09575E-02 2.27295E-03-1.23051E-14
 -1      4178 1.13166E-02 2.47852E-03-1.35593E-14
 -1      4179 1.14577E-02 2.55830E-03-1.39709E-14
 -1      4180 1.16584E-02 2.66991E-03-1.43429E-14
 -1      4181 1.17999E-02 2.75010E-03-1.47594E-14
 -1      4182 1.19416E-02 2.83038E-03-1.51801E-14
 -1      4183 1.20834E-02 2.91073E-03-1.56009E-14
 -1      4184 1.22246E-02 2.99065E-03-1.60243E-14
 -1      4185 1.23667E-02 3.07111E-03-1.64536E-14
 -1      4186 1.25081E-02 3.15110E-03-1.68832E-14
 -1      4187 1.26504E-02 3.23163E-03-1.73206E-14
 -1      4188 1.27893E-02 3.31016E-03-1.77471E-14
 -1      4189 1.29318E-02 3.39072E-03-1.81896E-14
 -1      4190 2.24516E-03-8.51621E-06-4.50689E-16
 -1      4191 9.54918E-03 1.48935E-03-7.86453E-15
 -1      4192 9.33283E-03 1.38702E-03-7.66219E-15
 -1      4193 9.07746E-03 1.26691E-03-7.37798E-15
 -1      4194 8.58349E-03 1.03429E-03-6.67396E-15
 -1      4195 3.44124E-03 1.04287E-04-9.94877E-16
 -1      4196 1.12991E-02 2.45366E-03-1.22266E-14
 -1      4197 1.11593E-02 2.37931E-03-1.22504E-14
 -1      4198 1.14389E-02 2.53362E-03-1.26277E-14
 -1      4199 3.52832E-03 7.29287E-05-1.10121E-15
 -1      4200 1.33446E-02 3.62930E-03-2.05227E-14
 -1      4201 9.32662E-03 1.39093E-03-8.13827E-15
 -1      4202 9.46643E-03 1.46188E-03-8.48470E-15
 -1      4203 1.10972E-02 2.35194E-03-1.27087E-14
 -1      4204 1.31858E-02 3.53250E-03-1.86764E-14
 -1      4205 9.21849E-03 1.33535E-03-7.71301E-15
 -1      4206 2.72149E-03 2.89000E-05-6.32835E-16
 -1      4207 2.86136E-03 3.52762E-05-7.02333E-16
 -1      4208 3.00112E-03 4.27336E-05-7.75543E-16
 -1      4209 2.35913E-03 3.92859E-06-4.86807E-16
 -1      4210 2.58489E-03 2.36361E-05-5.69409E-16
 -1      4211 2.47169E-03 9.93348E-06-5.31286E-16
 -1      4212 9.87566E-03 1.67307E-03-9.31313E-15
 -1      4213 1.16577E-02 2.66528E-03-1.39042E-14
 -1      4214 1.12376E-02 2.43144E-03-1.31166E-14
 -1      4215 1.13780E-02 2.50627E-03-1.30933E-14
 -1      4216 9.61634E-03 1.53290E-03-8.46560E-15
 -1      4217 9.89267E-03 1.66582E-03-8.54786E-15
 -1      4218 9.72288E-03 1.57817E-03-8.23701E-15
 -1      4219 3.06209E-03 8.15154E-05-7.61937E-16
 -1      4220 1.16586E-02 2.66142E-03-1.34746E-14
 -1      4221 1.15181E-02 2.58129E-03-1.30671E-14
 -1      4222 9.88373E-03 1.66981E-03-8.92859E-15
 -1      4223 1.33992E-02 3.65159E-03-1.90726E-14
 -3
    1PSTEP                         2           1           1          
  100CL  101 1.000000000        4223                     0    1           1
 -4  STRESS      6    1
 -5  SXX         1    4    1    1
 -5  SYY         1    4    2    2
 -5  SZZ         1    4    3    3
 -5  SXY         1    4    1    2
 -5  SYZ         1    4    2    3
 -5  SZX         1    4    3    1
 -1         1-1.46681E+00-9.49539E+00-2.26830E+00-3.11567E+00-2.00606E-12-8.69999E-13
 -1         2-7.12751E-01-2.67609E+01-3.48383E+00-1.94429E-01 1.34887E-12-1.85726E-13
 -1         3 1.99999E+01 1.50757E-04 1.45155E-05 1.44918E-04 3.07829E-13-9.53622E-14
 -1         4 1.99999E+01 1.26861E-04 3.14452E-05-1.23871E-04 5.21421E-14 1.52564E-13
 -1         5 3.58522E+01 1.23196E+01 5.21281E+00 8.71041E+00-2.77556E-14 6.86118E-13
 -1         6 3.56033E+01 1.22067E+01 5.08549E+00-8.60301E+00-5.30687E-14-4.68653E-14
 -1         7 2.08253E+01 6.09997E+00-1.21985E-01-4.68455E+00-7.81319E-15-3.19685E-13
 -1         8 1.96999E+01 5.94232E+00 5.41200E-02-3.22129E+00 1.21431E-15-3.22129E-13
 -1         9 1.91702E+01 5.78120E+00 5.08417E-02-2.46448E+00 6.51042E-15-2.88543E-13
 -1        10 1.89221E+01 5.69961E+00 5.16850E-02-1.88630E+00 6.76716E-15-2.36327E-13
 -1        11 1.87871E+01 5.65493E+00 4.95997E-02-1.39537E+00 2.05044E-15-1.87097E-13
 -1        12 1.87096E+01 5.62906E+00 4.68968E-02-9.65337E-01 8.78854E-15-1.34730E-13
 -1        13 1.86644E+01 5.61409E+00 4.46463E-02-5.62575E-01 8.46133E-15-9.29350E-14
 -1        14 1.86437E+01 5.60725E+00 4.33326E-02-1.80086E-01 9.52038E-15-5.32009E-14
 -1        15 1.86444E+01 5.60743E+00 4.31769E-02 1.95082E-01 1.00852E-14-1.91190E-14
 -1        16 1.86670E+01 5.61476E+00 4.42515E-02 5.75746E-01 1.26559E-14 1.18774E-14
 -1        17 1.87152E+01 5.63042E+00 4.64757E-02 9.75748E-01 9.17192E-15 6.07316E-14
 -1        18 1.87961E+01 5.65723E+00 4.93010E-02 1.40304E+00 1.23348E-14 1.19198E-13
 -1        19 1.89346E+01 5.70317E+00 5.17040E-02 1.89306E+00 1.08516E-14 1.81802E-13
 -1        20 1.91851E+01 5.78571E+00 5.10671E-02 2.47265E+00 1.11317E-14 2.66793E-13
 -1        21 1.97167E+01 5.94884E+00 5.42149E-02 3.23307E+00 7.82707E-15 4.03204E-13
 -1        22 2.08041E+01 6.12006E+00-1.23728E-01 4.68952E+00-3.40006E-15 5.57141E-13
 -1        23 2.29920E+01-1.37868E+00-9.38861E-01-7.00483E-01-3.15442E-14-1.95316E-13
 -1        24 1.93944E+01-9.94623E-02-3.08609E-01 6.43215E-02-5.99694E-15-2.93581E-13
 -1        25 1.87575E+01-5.65986E-02-6.86666E-02 6.12025E-02-8.24818E-15-4.04544E-13
 -1        26 1.86094E+01-2.26509E-02-7.12902E-03 3.36373E-02-3.28513E-16-4.86887E-13
 -1        27 1.86841E+01-1.24652E-02 5.51638E-04 2.36659E-02-1.58696E-14-4.84019E-13
 -1        28 1.88732E+01-6.81782E-03 6.82290E-04 1.79263E-02-3.91663E-15-4.96662E-13
 -1        29 1.91192E+01-3.32607E-03 9.04542E-04 1.44137E-02 1.31068E-14-5.16650E-13
 -1        30 1.93866E+01-8.04684E-04 1.82417E-03 1.20532E-02-1.79434E-14-6.22176E-13
 -1        31 1.96478E+01 1.36480E-03 3.34086E-03 1.01930E-02 9.21480E-15-7.10003E-13
 -1        32 1.98760E+01 3.51259E-03 5.49612E-03 8.29544E-03-1.66680E-14-7.70150E-13
 -1        33 2.00412E+01 5.75557E-03 8.33755E-03 5.80832E-03 2.25048E-14-7.21249E-13
 -1        34 2.01083E+01 7.98448E-03 1.16969E-02 2.15725E-03-1.73394E-14-7.60236E-13
 -1        35 2.00389E+01 9.82745E-03 1.49951E-02-3.13745E-03 2.76301E-14-8.45208E-13
 -1        36 1.97979E+01 1.06541E-02 1.71333E-02-1.02098E-02 2.33813E-14-9.30932E-13
 -1        37 1.93651E+01 9.69461E-03 1.66002E-02-1.85007E-02-3.30578E-14-8.96993E-13
 -1        38 1.87511E+01 6.32643E-03 1.19414E-02-2.64693E-02 1.35649E-14-8.14666E-13
 -1        39 1.80113E+01 4.96454E-04 2.62331E-03-3.16569E-02 1.37511E-14-7.94280E-13
 -1        40 1.72503E+01-6.91183E-03-1.00868E-02-3.13874E-02-3.40479E-14-9.14208E-13
 -1        41 1.66071E+01-1.40773E-02-2.29077E-02-2.40628E-02 9.06838E-15-1.06733E-12
 -1        42 1.62200E+01-1.87981E-02-3.15399E-02-1.04323E-02 1.37495E-14-1.16646E-12
 -1        43 1.61815E+01-1.94580E-02-3.27139E-02 6.15775E-03-1.76766E-14-1.04508E-12
 -1        44 1.65043E+01-1.58475E-02-2.60023E-02 2.10216E-02 4.71992E-14-6.86688E-13
 -1        45 1.71170E+01-9.27331E-03-1.40631E-02 3.02813E-02-8.60092E-14-7.54820E-13
 -1        46 1.78913E+01-1.88354E-03-1.15446E-03 3.24857E-02 4.47083E-14-9.70486E-13
 -1        47 1.86870E+01 4.33026E-03 9.02242E-03 2.87399E-02 6.62364E-15-6.48464E-13
 -1        48 1.93909E+01 8.23058E-03 1.46711E-02 2.15935E-02-3.64770E-14-8.07143E-13
 -1        49 1.99373E+01 9.66435E-03 1.59318E-02 1.36693E-02-1.31152E-14-8.88955E-13
 -1        50 2.03072E+01 9.16521E-03 1.41169E-02 6.79581E-03-4.07555E-14-1.08997E-12
 -1        51 2.05164E+01 7.52361E-03 1.07948E-02 1.79905E-03-1.44266E-14-1.04593E-12
 -1        52 2.05988E+01 5.46229E-03 7.21311E-03-1.26717E-03 7.73855E-14-7.63707E-13
 -1        53 2.05930E+01 3.48331E-03 4.11095E-03-2.76546E-03-1.22967E-14-7.96593E-13
 -1        54 2.05341E+01 1.85318E-03 1.78313E-03-3.18412E-03 4.60160E-14-5.77755E-13
 -1        55 2.04493E+01 6.57566E-04 2.36533E-04-2.96757E-03-9.03405E-14-4.57115E-13
 -1        56 2.03577E+01-1.28338E-04-6.63305E-04-2.44913E-03-2.67191E-14-5.43314E-13
 -1        57 2.02711E+01-5.81104E-04-1.09187E-03-1.84556E-03 5.54072E-14-3.84533E-13
 -1        58 2.01958E+01-7.90333E-04-1.21166E-03-1.27916E-03 2.50323E-14-3.39249E-13
 -1        59 2.01342E+01-8.37644E-04-1.15072E-03-8.06232E-04 1.05391E-15-3.19935E-13
 -1        60 2.00862E+01-7.88068E-04-9.99648E-04-4.42246E-04-8.14294E-14-1.42697E-13
 -1        61 2.00505E+01-6.88721E-04-8.16957E-04-1.80409E-04 1.74002E-14-6.24914E-14
 -1        62 2.00252E+01-5.70999E-04-6.36962E-04-3.95161E-06-1.35071E-13-4.03554E-13
 -1        63 2.00083E+01-4.54012E-04-4.77257E-04 1.06580E-04 9.55909E-14-4.20863E-13
 -1        64 1.99979E+01-3.48006E-04-3.44723E-04 1.69484E-04-4.13826E-14-8.35138E-13
 -1        65 1.99923E+01-2.57212E-04-2.39825E-04 2.00226E-04 2.31284E-14-1.10672E-12
 -1        66 1.99902E+01-1.81974E-04-1.59324E-04 2.10958E-04 1.02642E-13-8.83501E-13
 -1        67 1.99904E+01-1.20188E-04-9.75516E-05 2.10532E-04-3.92642E-14-3.95621E-13
 -1        68 1.99922E+01-6.80851E-05-4.59852E-05 2.04535E-04 2.63683E-14-4.34644E-13
 -1        69 1.99948E+01-2.12923E-05 8.41774E-06 1.93311E-04-3.52489E-14-2.93434E-13
 -1        70 1.99975E+01 1.66785E-05 7.38044E-05 1.59003E-04 5.60792E-14 2.93575E-13
 -1        71 1.99995E+01-5.86503E-06 1.18848E-04 8.19769E-05 1.06153E-13 5.24052E-13
 -1        72 2.31926E+01-1.33827E+00-9.30172E-01 7.91353E-01-2.06536E-14 7.57949E-13
 -1        73 1.94379E+01-1.08463E-01-3.27573E-01-6.65426E-02-2.18228E-15 8.11974E-13
 -1        74 1.87624E+01-5.89104E-02-7.48543E-02-6.13691E-02-1.57578E-15 8.05854E-13
 -1        75 1.86077E+01-2.46616E-02-9.37836E-03-3.32315E-02 1.58207E-15 8.25008E-13
 -1        76 1.86973E+01-1.48381E-02-1.11015E-03-2.26342E-02 2.26295E-15 7.98453E-13
 -1        77 1.89301E+01-1.04662E-02-2.21761E-03-1.65091E-02-1.56998E-14 8.02996E-13
 -1        78 1.92664E+01-8.51962E-03-4.34268E-03-1.36313E-02-2.73777E-15 8.84804E-13
 -1        79 1.96788E+01-9.44587E-03-7.24537E-03-1.13909E-02 3.06564E-15 9.69833E-13
 -1        80 2.02281E+01-1.14703E-02-1.19456E-02-1.19525E-02 3.40353E-14 9.25431E-13
 -1        81 2.09435E+01-1.51883E-02-1.94301E-02-1.51520E-02-1.94095E-14 7.73491E-13
 -1        82 2.19011E+01-2.02718E-02-3.08070E-02-2.28931E-02 1.56389E-14 7.14533E-13
 -1        83 2.32115E+01-2.57986E-02-4.64383E-02-3.81313E-02-2.42263E-14 6.99820E-13
 -1        84 2.50132E+01-2.97011E-02-6.31084E-02-6.47856E-02 2.91809E-14 7.94111E-13
 -1        85 2.74295E+01-2.39051E-02-6.58958E-02-1.08772E-01 2.58734E-15 9.51662E-13
 -1        86 3.03099E+01-1.12011E-03-2.40469E-02-1.52970E-01 5.70702E-15 9.63833E-13
 -1        87 3.35327E+01 4.95096E-02 1.20200E-01-1.71978E-01 4.06983E-14 1.08329E-12
 -1        88 3.56828E+01 1.11568E-01 3.66015E-01-4.60317E-02-2.78050E-14 1.21862E-12
 -1        89 3.44119E+01 1.26465E-01 4.92958E-01 3.55860E-01 1.11057E-14 1.73002E-12
 -1        90 2.80419E+01 5.69578E-02-1.82837E-02 8.90919E-01-3.98011E-14 1.85757E-12
 -1        91 2.05246E+01-9.33491E-02-9.08117E-01 8.07355E-01 4.34791E-14 1.90448E-12
 -1        92 1.65085E+01-1.92920E-01-1.42843E+00 5.09912E-02-1.16018E-14 1.92646E-12
 -1        93 1.83507E+01-2.10342E-01-1.21939E+00-6.54823E-01-4.38330E-14 1.97037E-12
 -1        94 2.58212E+01-1.75208E-02-2.74349E-01-9.47206E-01 1.03684E-13 1.35802E-12
 -1        95 3.34195E+01 1.04401E-01 4.28258E-01-4.99177E-01 6.39853E-14 7.82041E-13
 -1        96 3.59442E+01 1.24192E-01 4.27404E-01-2.26798E-02-2.91564E-14 7.54417E-13
 -1        97 3.44113E+01 6.46744E-02 1.77585E-01 1.61256E-01 4.25870E-14 9.80212E-13
 -1        98 3.13181E+01 6.68778E-03-1.38865E-03 1.63900E-01-4.37997E-14 1.34758E-12
 -1        99 2.82464E+01-2.24844E-02-6.48238E-02 1.15273E-01 7.54110E-14 1.34608E-12
 -1       100 2.57793E+01-2.84267E-02-6.63207E-02 6.83103E-02 3.52335E-14 1.03245E-12
 -1       101 2.40329E+01-2.94781E-02-5.33638E-02 4.08797E-02-2.64474E-14 1.12975E-12
 -1       102 2.27334E+01-2.23596E-02-3.62930E-02 2.20166E-02-5.11093E-16 1.15630E-12
 -1       103 2.18392E+01-1.67857E-02-2.39057E-02 1.14244E-02-4.00588E-14 1.22521E-12
 -1       104 2.12300E+01-1.21343E-02-1.55342E-02 5.68384E-03 8.53224E-14 1.27886E-12
 -1       105 2.08162E+01-8.61977E-03-1.01050E-02 2.61744E-03 2.21617E-14 1.46338E-12
 -1       106 2.05354E+01-6.10649E-03-6.62516E-03 1.01899E-03-5.25009E-15 1.12554E-12
 -1       107 2.03453E+01-4.12113E-03-4.29322E-03-2.38473E-05 6.61805E-15 4.22874E-13
 -1       108 2.02216E+01-3.16744E-03-3.03168E-03-1.60230E-04 5.78006E-14 2.21754E-13
 -1       109 2.01332E+01-2.15760E-03-2.00422E-03-3.95513E-04-1.68247E-13 3.86195E-13
 -1       110 2.00745E+01-1.52553E-03-1.35200E-03-4.65131E-04 8.61122E-14 7.42454E-13
 -1       111 2.00362E+01-1.07735E-03-9.13819E-04-4.71044E-04-1.22286E-13 6.25936E-13
 -1       112 2.00120E+01-7.59167E-04-6.15596E-04-4.46203E-04 2.20765E-14 6.91574E-13
 -1       113 1.99976E+01-5.35662E-04-4.11442E-04-4.06688E-04-2.53465E-13 1.04912E-12
 -1       114 1.99898E+01-3.58134E-04-2.66042E-04-3.83839E-04 8.36014E-14 1.01319E-12
 -1       115 1.99866E+01-2.62522E-04-1.79277E-04-3.20722E-04 7.67515E-14 7.52969E-13
 -1       116 1.99863E+01-1.70834E-04-1.09535E-04-2.89725E-04 4.11716E-14 5.66649E-13
 -1       117 1.99879E+01-1.06116E-04-6.04984E-05-2.59324E-04 1.21219E-13 6.98020E-13
 -1       118 1.99907E+01-5.45812E-05-1.92444E-05-2.35514E-04 3.43089E-14 8.52210E-13
 -1       119 1.99940E+01-8.52500E-06 2.94824E-05-2.14034E-04-4.66098E-14 6.33856E-13
 -1       120 1.99972E+01 2.81330E-05 9.62798E-05-1.73038E-04-2.01510E-14 7.32909E-13
 -1       121 1.99994E+01 4.07310E-06 1.30631E-04-8.06566E-05-1.59581E-13 8.82200E-13
 -1       122 1.99998E+01-5.01139E-04 8.66368E-05-1.36797E-04 5.38258E-13-3.09029E-13
 -1       123 1.99998E+01-2.54729E-03 5.74653E-05-1.63385E-04-2.58945E-13-8.55332E-14
 -1       124 1.99998E+01-5.25649E-03-2.82432E-05-1.51250E-04 1.63539E-13 1.39665E-13
 -1       125 1.99998E+01-7.67615E-03-6.72220E-05-1.08397E-04-8.03303E-13 4.02799E-14
 -1       126 1.99998E+01-9.43687E-03-7.09744E-05-6.40317E-05-6.84874E-13-1.80590E-13
 -1       127 1.99998E+01-1.04800E-02-5.88733E-05-3.06142E-05-1.11496E-12 9.10417E-14
 -1       128 1.99998E+01-1.09492E-02-4.11314E-05-7.22269E-06-3.32934E-13 1.15279E-13
 -1       129 1.99998E+01-1.09894E-02-2.75636E-05 6.42437E-06-1.32834E-12 2.05316E-14
 -1       130 1.99998E+01-1.07346E-02-2.25426E-05 1.48659E-05-1.30837E-12-1.21615E-13
 -1       131 1.99998E+01-1.02375E-02-2.70509E-05 2.36494E-05-1.31464E-12-6.73908E-14
 -1       132 1.99998E+01-9.45940E-03-3.82790E-05 3.88117E-05-2.02962E-12 5.13474E-14
 -1       133 1.99998E+01-8.31905E-03-4.98837E-05 6.12145E-05-2.07045E-12 3.07938E-13
 -1       134 1.99998E+01-6.68119E-03-5.04442E-05 9.43388E-05-1.12864E-12 7.26509E-14
 -1       135 1.99998E+01-4.56466E-03-2.08753E-05 1.34197E-04-1.00409E-12-1.02213E-13
 -1       136 1.99998E+01-2.27868E-03 3.69948E-05 2.00417E-04-1.15472E-12-2.09198E-13
 -1       137 1.99998E+01-4.86621E-04 7.55474E-05 1.11526E-04-6.93463E-13 1.25544E-14
 -1       138-1.69364E+00-2.43804E+01-3.51857E+00-4.82059E+00 1.24870E-12 4.65371E-13
 -1       139-2.90363E+00-1.41744E+01-3.08529E+00-5.60233E+00 1.71990E-12 8.46712E-13
 -1       140 2.01993E-01-1.57087E+00-2.16899E+00 9.45142E-04 8.99503E-13 5.16198E-13
 -1       141 1.14744E+01 7.59973E+00-6.99260E-01 9.52211E+00-2.68674E-14 6.43929E-14
 -1       142 3.41003E+01 1.01932E+01 1.47715E+00 1.83023E+01-7.84373E-14-3.89244E-13
 -1       143 6.06137E+01 6.26562E+00 3.82514E+00 1.79793E+01-3.35482E-13-1.17339E-12
 -1       144 7.81491E+01 1.86077E+00 5.31837E+00 7.42100E+00-2.15362E-13-1.48717E-12
 -1       145 7.80018E+01 1.99726E+00 5.30126E+00-7.61254E+00 1.55626E-13-1.54260E-12
 -1       146 6.01390E+01 6.35319E+00 3.76131E+00-1.79463E+01 6.96027E-13-1.87117E-12
 -1       147 3.51882E+01 1.01386E+01 1.58142E+00-1.84249E+01 8.92675E-13-1.80611E-12
 -1       148 1.27630E+01 8.11553E+00-5.45972E-01-1.02867E+01 6.84619E-13-8.35665E-13
 -1       149 6.59076E-01-9.55591E-01-2.10285E+00-5.42963E-01 3.43947E-13-2.35645E-13
 -1       150-2.89634E+00-1.38060E+01-3.05735E+00 5.47431E+00-1.47105E-13 2.22045E-14
 -1       151-1.76796E+00-2.38707E+01-3.49494E+00 5.00199E+00-4.32904E-13 1.48069E-13
 -1       152-8.02424E-01-2.69360E+01-3.51143E+00 5.71002E-01-5.59053E-13-7.44196E-15
 -1       153-1.20885E+00-2.11929E+01-3.08256E+00-3.39152E+00-1.27859E-12-3.43385E-13
 -1       154 2.40796E+00 3.30015E+00-1.09101E+00 3.10781E+00-1.47993E-12-8.68972E-13
 -1       155 1.39141E+01 1.13075E+01 3.00941E-01 1.24669E+01-5.67213E-13-5.23526E-13
 -1       156 3.19701E+01 1.18054E+01 1.63710E+00 1.90156E+01 1.94844E-14 9.12603E-14
 -1       157 5.15316E+01 7.15795E+00 2.72505E+00 1.83186E+01 1.65937E-13 5.40956E-13
 -1       158 6.60544E+01 2.02351E+00 3.42871E+00 8.97285E+00 1.79828E-13 1.19568E-12
 -1       159 6.80533E+01 1.22751E+00 3.51660E+00-5.35432E+00-1.79263E-13 1.74182E-12
 -1       160 5.65049E+01 5.53710E+00 2.96492E+00-1.65515E+01-6.32161E-13 2.01633E-12
 -1       161 3.68886E+01 1.09902E+01 1.91349E+00-1.96579E+01-8.82988E-13 1.53050E-12
 -1       162 1.75091E+01 1.19672E+01 5.90501E-01-1.42563E+01-4.83169E-13 8.08131E-13
 -1       163 3.92804E+00 5.39602E+00-8.42300E-01-4.82896E+00-1.28286E-13 7.93809E-15
 -1       164-1.11282E+00-6.90402E+00-2.05844E+00 2.24784E+00 1.78246E-13-4.16056E-14
 -1       165-1.32743E+00-2.00359E+01-2.99905E+00 3.74227E+00 9.82325E-13-1.08358E-13
 -1       166 2.10427E+01 3.68309E+00-5.66148E-02-3.55301E+00-3.54716E-14-2.85046E-13
 -1       167 2.00293E+01 4.20726E+00-4.53923E-02-2.74413E+00 7.66141E-15-2.59057E-13
 -1       168 1.95424E+01 4.48453E+00-3.10050E-02-2.12796E+00 4.19985E-14-2.36540E-13
 -1       169 1.92836E+01 4.63183E+00-2.31783E-02-1.60883E+00 6.70475E-14-1.92592E-13
 -1       170 1.91337E+01 4.72129E+00-1.91366E-02-1.16142E+00 8.12495E-14-1.39584E-13
 -1       171 1.90415E+01 4.77926E+00-1.69413E-02-7.48743E-01 8.94949E-14-1.01984E-13
 -1       172 1.89908E+01 4.81288E+00-1.58427E-02-3.63135E-01 1.08520E-13-4.84552E-14
 -1       173 1.89744E+01 4.82539E+00-1.54945E-02 8.72655E-03 1.23334E-13-1.95798E-14
 -1       174 1.89907E+01 4.81719E+00-1.58069E-02 3.79377E-01 1.33782E-13 2.24647E-16
 -1       175 1.90426E+01 4.78655E+00-1.68701E-02 7.61785E-01 1.23255E-13 3.62236E-14
 -1       176 1.91362E+01 4.73047E+00-1.90381E-02 1.16329E+00 1.16500E-13 8.50223E-14
 -1       177 1.92930E+01 4.63808E+00-2.31572E-02 1.61501E+00 1.31520E-13 1.46749E-13
 -1       178 1.95578E+01 4.48623E+00-3.10073E-02 2.13348E+00 1.10458E-13 2.09941E-13
 -1       179 2.00500E+01 4.20316E+00-4.52605E-02 2.75235E+00 7.49921E-14 3.03868E-13
 -1       180 2.10651E+01 3.66767E+00-5.33917E-02 3.56999E+00 1.54078E-14 4.29632E-13
 -1       181 2.19946E+01 8.53790E-01 7.90507E-04-1.91719E+00-3.54508E-14-2.40117E-13
 -1       182 2.05073E+01 1.90330E-01-9.68355E-03-7.23305E-01-4.30957E-14-2.40595E-13
 -1       183 1.97744E+01 1.03734E-01 1.37437E-02-2.41604E-01-4.47663E-14-2.33970E-13
 -1       184 1.94832E+01 5.04467E-02 1.01146E-02-1.68876E-02 1.61915E-15-2.59175E-13
 -1       185 1.94097E+01 2.61902E-02 5.22229E-03 9.92007E-02 9.83512E-15-2.10334E-13
 -1       186 1.94602E+01 1.24932E-02 2.41681E-03 1.60077E-01-2.80891E-14-2.13745E-13
 -1       187 1.95779E+01 3.06302E-03 9.64388E-04 1.87121E-01-5.31185E-14-2.48626E-13
 -1       188 1.97260E+01-5.05718E-03 1.00837E-04 1.89017E-01-2.77814E-14-2.24756E-13
 -1       189 1.98760E+01-1.35651E-02-5.38295E-04 1.67926E-01-3.97652E-14-1.91176E-13
 -1       190 2.00024E+01-2.33875E-02-1.07678E-03 1.22391E-01 4.02559E-15-1.93005E-13
 -1       191 2.00795E+01-3.45944E-02-1.52114E-03 4.95597E-02-7.77774E-14-3.51721E-13
 -1       192 2.00811E+01-4.60551E-02-1.81418E-03-5.21576E-02-5.28049E-14-4.09241E-13
 -1       193 1.99828E+01-5.50880E-02-1.86716E-03-1.79636E-01-3.73035E-14-3.98989E-13
 -1       194 1.97675E+01-5.74872E-02-1.59640E-03-3.21232E-01 1.44273E-14-3.86073E-13
 -1       195 1.94330E+01-4.84227E-02-9.68935E-04-4.54154E-01 2.05938E-14-3.58031E-13
 -1       196 1.90012E+01-2.45697E-02-5.25988E-05-5.45547E-01 1.33286E-14-3.99008E-13
 -1       197 1.85234E+01 1.29745E-02 9.90359E-04-5.59821E-01-4.92959E-14-3.80600E-13
 -1       198 1.80771E+01 5.66476E-02 1.95093E-03-4.72187E-01-1.30217E-13-4.64623E-13
 -1       199 1.77504E+01 9.35127E-02 2.63139E-03-2.83463E-01-7.44843E-14-5.24992E-13
 -1       200 1.76171E+01 1.10440E-01 2.92275E-03-2.71712E-02 9.96534E-15-5.74990E-13
 -1       201 1.77111E+01 1.00932E-01 2.78332E-03 2.38470E-01 1.67075E-13-4.85709E-13
 -1       202 1.80136E+01 6.88985E-02 2.23754E-03 4.51975E-01-1.62602E-14-4.23422E-13
 -1       203 1.84610E+01 2.63938E-02 1.37299E-03 5.71952E-01-1.74935E-14-1.26573E-13
 -1       204 1.89680E+01-1.29445E-02 3.61646E-04 5.89270E-01 1.12721E-13-1.27910E-13
 -1       205 1.94540E+01-3.99261E-02-5.76837E-04 5.23336E-01-4.90704E-14-9.43082E-14
 -1       206 1.98619E+01-5.19303E-02-1.26904E-03 4.08259E-01-6.36581E-14-1.39142E-13
 -1       207 2.01636E+01-5.14486E-02-1.62400E-03 2.78328E-01-1.18951E-13-3.38816E-13
 -1       208 2.03566E+01-4.32286E-02-1.65946E-03 1.58876E-01 3.18120E-14-2.96766E-13
 -1       209 2.04550E+01-3.18709E-02-1.46107E-03 6.36575E-02 1.77820E-13-1.35200E-13
 -1       210 2.04810E+01-2.06429E-02-1.13692E-03-3.35164E-03 1.42245E-14-9.83306E-14
 -1       211 2.04576E+01-1.13027E-02-7.81996E-04-4.44797E-02 1.50121E-13 4.32229E-14
 -1       212 2.04054E+01-4.43841E-03-4.60664E-04-6.50571E-02 3.15828E-14-4.11375E-14
 -1       213 2.03400E+01 6.97031E-05-2.05498E-04-7.10805E-02-8.41731E-16-3.60940E-14
 -1       214 2.02724E+01 2.66779E-03-2.44827E-05-6.79033E-02 1.47310E-13 1.05154E-16
 -1       215 2.02094E+01 3.88087E-03 8.94057E-05-5.97041E-02-2.34769E-14-3.19689E-13
 -1       216 2.01547E+01 4.18306E-03 1.50019E-04-4.94270E-02 7.80516E-14-2.77715E-13
 -1       217 2.01095E+01 3.94723E-03 1.72520E-04-3.89547E-02 3.32413E-14-1.86489E-13
 -1       218 2.00739E+01 3.43950E-03 1.70362E-04-2.93594E-02 2.34753E-14 1.37408E-13
 -1       219 2.00470E+01 2.83431E-03 1.54086E-04-2.11472E-02-1.28286E-13 6.24475E-14
 -1       220 2.00274E+01 2.23598E-03 1.31198E-04-1.44614E-02-1.54027E-13 2.14071E-13
 -1       221 2.00139E+01 1.69938E-03 1.06567E-04-9.23369E-03-2.18860E-13-4.82569E-14
 -1       222 2.00050E+01 1.24676E-03 8.30079E-05-5.29029E-03-9.62832E-14-1.82637E-13
 -1       223 1.99998E+01 8.80031E-04 6.18410E-05-2.42101E-03 2.00248E-13 7.95215E-14
 -1       224 1.99972E+01 5.88699E-04 4.34011E-05-4.22491E-04 2.01354E-13-2.03316E-13
 -1       225 1.99964E+01 3.54524E-04 2.75515E-05 8.75024E-04 1.33404E-13-1.72001E-13
 -1       226 1.99967E+01 1.51209E-04 1.47949E-05 1.58997E-03 1.59409E-13-1.85992E-13
 -1       227 1.99977E+01-6.23557E-05 7.00052E-06 1.76974E-03 3.87667E-13-1.31196E-13
 -1       228 1.99988E+01-3.31223E-04 7.12588E-06 1.40144E-03 1.34936E-13 2.78889E-13
 -1       229 2.20565E+01 9.14490E-01 5.12319E-04 1.99200E+00-3.72619E-15 4.81306E-13
 -1       230 2.05538E+01 2.08207E-01-1.09849E-02 7.54864E-01 7.35696E-15 4.69519E-13
 -1       231 1.98098E+01 1.11287E-01 1.35779E-02 2.47017E-01 2.93428E-15 4.56002E-13
 -1       232 1.95264E+01 5.80561E-02 1.08876E-02 2.73591E-03 1.75242E-14 4.19613E-13
 -1       233 1.94851E+01 3.71602E-02 6.32726E-03-1.38147E-01 1.21647E-14 3.93806E-13
 -1       234 1.96011E+01 3.05080E-02 3.92650E-03-2.38149E-01-3.33195E-14 3.80025E-13
 -1       235 1.98212E+01 3.21257E-02 3.15303E-03-3.23120E-01-3.50443E-14 3.66522E-13
 -1       236 2.01584E+01 4.14736E-02 3.24573E-03-4.23113E-01 3.98726E-14 3.72536E-13
 -1       237 2.06137E+01 5.88606E-02 3.74126E-03-5.54597E-01 8.55730E-14 3.77482E-13
 -1       238 2.12147E+01 8.55987E-02 4.33168E-03-7.38436E-01 1.05133E-13 3.26627E-13
 -1       239 2.20035E+01 1.21985E-01 4.43234E-03-9.96690E-01 1.49967E-14 2.70781E-13
 -1       240 2.30315E+01 1.63605E-01 3.19581E-03-1.34488E+00-5.29628E-14 3.36309E-13
 -1       241 2.43438E+01 1.90520E-01-3.61349E-04-1.77098E+00-5.14541E-14 3.28622E-13
 -1       242 2.58672E+01 1.57455E-01-5.23337E-03-2.16634E+00-1.46528E-14 3.01358E-13
 -1       243 2.77016E+01-4.37799E-02-5.88976E-03-2.31942E+00-7.39747E-14 3.64528E-13
 -1       244 2.95644E+01-5.55538E-01 4.04463E-03-1.69601E+00-1.68636E-13 5.39829E-13
 -1       245 3.10610E+01-1.32086E+00 8.56979E-03 3.22198E-01-2.47960E-13 6.47159E-13
 -1       246 3.14548E+01-1.52811E+00-3.12635E-02 3.38476E+00-1.06366E-13 7.43650E-13
 -1       247 3.05844E+01-8.85445E-02-1.92228E-01 4.97447E+00-4.49363E-14 8.05951E-13
 -1       248 2.95682E+01 2.01278E+00-2.46550E-01 3.17416E+00 3.26544E-14 9.11085E-13
 -1       249 2.91554E+01 2.69936E+00-2.78590E-01-8.46345E-01 8.18789E-14 7.40138E-13
 -1       250 3.00838E+01 9.68357E-01-2.24044E-01-4.57514E+00 2.84078E-13 4.95743E-13
 -1       251 3.14318E+01-1.26750E+00-7.30854E-02-4.10397E+00 1.72536E-13 5.43177E-13
 -1       252 3.13752E+01-1.47184E+00 1.18074E-02-1.03991E+00 1.42207E-13 6.27558E-13
 -1       253 3.01032E+01-7.29064E-01 1.39759E-02 1.32854E+00-1.75106E-13 3.65050E-13
 -1       254 2.83165E+01-1.29624E-01-2.97726E-03 2.23082E+00-1.58877E-13 4.07745E-13
 -1       255 2.64916E+01 1.37052E-01-5.74118E-03 2.19276E+00-5.08347E-14 4.55878E-13
 -1       256 2.48813E+01 1.98540E-01-1.27485E-03 1.79253E+00 1.67593E-13 6.19811E-13
 -1       257 2.36313E+01 1.79823E-01 2.44993E-03 1.36448E+00 8.23720E-14 5.58472E-13
 -1       258 2.26101E+01 1.39062E-01 4.35887E-03 9.81221E-01-1.96329E-13 3.95085E-13
 -1       259 2.18536E+01 1.00031E-01 4.43099E-03 6.88929E-01-1.06518E-13 4.60670E-13
 -1       260 2.13039E+01 6.96491E-02 3.73721E-03 4.78289E-01-1.58382E-14 4.44411E-13
 -1       261 2.09094E+01 4.78234E-02 2.88217E-03 3.30431E-01-5.04388E-14 5.77573E-13
 -1       262 2.06287E+01 3.27076E-02 2.12514E-03 2.27814E-01 2.12817E-13 6.01613E-13
 -1       263 2.04301E+01 2.23669E-02 1.54830E-03 1.56767E-01 3.02075E-13 6.53376E-13
 -1       264 2.02957E+01 1.56529E-02 1.07808E-03 1.09590E-01 1.19964E-13 5.52233E-13
 -1       265 2.01954E+01 1.08397E-02 7.91258E-04 7.48663E-02-1.43056E-14 6.74469E-13
 -1       266 2.01257E+01 7.51028E-03 5.59552E-04 5.05825E-02-1.18306E-13 5.40580E-13
 -1       267 2.00776E+01 5.21592E-03 3.96987E-04 3.36248E-02 8.11213E-14 5.36792E-13
 -1       268 2.00450E+01 3.61958E-03 2.81471E-04 2.17686E-02-1.06339E-13 4.58633E-13
 -1       269 2.00235E+01 2.50141E-03 1.99646E-04 1.34982E-02-6.83211E-14 4.15055E-13
 -1       270 2.00097E+01 1.71229E-03 1.41464E-04 7.75529E-03-6.31142E-14 4.03442E-14
 -1       271 2.00018E+01 1.17754E-03 9.69303E-05 3.97627E-03 1.06516E-13 3.13240E-13
 -1       272 1.99972E+01 7.80377E-04 6.82523E-05 1.27138E-03-3.69220E-14 3.45257E-13
 -1       273 1.99953E+01 4.90525E-04 4.42142E-05-5.05611E-04-3.35962E-14 7.71111E-13
 -1       274 1.99951E+01 2.71711E-04 2.59444E-05-1.58655E-03-3.94941E-14 5.98690E-13
 -1       275 1.99959E+01 8.26077E-05 1.23378E-05-2.11625E-03 1.97487E-14 4.53056E-13
 -1       276 1.99972E+01-1.17773E-04 4.65794E-06-2.13578E-03-1.93193E-13 6.04585E-13
 -1       277 1.99986E+01-4.15056E-04 6.48748E-06-1.61434E-03 1.61909E-13 1.59229E-13
 -1       278 1.99995E+01-1.29431E-03-2.13006E-06-1.57022E-03 5.25811E-13-4.10508E-13
 -1       279 1.99998E+01-2.60697E-03-4.92895E-06-1.89386E-03 1.89869E-13 4.76650E-14
 -1       280 2.00000E+01-3.88052E-03-6.74689E-07-1.68937E-03 7.06850E-14-4.57439E-13
 -1       281 2.00000E+01-4.87887E-03 2.36450E-06-1.22694E-03-2.65359E-13 5.66434E-14
 -1       282 2.00000E+01-5.51607E-03 3.98375E-06-7.33621E-04-2.84362E-13-3.93859E-13
 -1       283 2.00000E+01-5.83068E-03 4.65475E-06-3.12326E-04-5.81062E-13 8.19394E-14
 -1       284 1.99999E+01-5.88990E-03 4.45764E-06-1.11124E-05-5.96783E-13-4.59228E-13
 -1       285 1.99999E+01-5.78475E-03 4.02189E-06 1.92108E-04-3.66999E-13 6.76686E-14
 -1       286 1.99999E+01-5.57189E-03 3.69180E-06 3.56374E-04-4.50242E-13-1.90355E-13
 -1       287 1.99999E+01-5.25612E-03 3.31327E-06 5.48778E-04-7.97307E-13-1.42922E-13
 -1       288 1.99999E+01-4.80444E-03 2.49335E-06 8.09637E-04-8.54862E-13-2.47776E-13
 -1       289 2.00000E+01-4.14359E-03 8.18020E-07 1.14289E-03-9.50244E-13 6.03765E-13
 -1       290 1.99999E+01-3.25782E-03-2.52564E-06 1.47200E-03-7.23587E-13 2.47946E-13
 -1       291 1.99998E+01-2.16190E-03-1.40444E-07 1.57763E-03-2.04034E-13-8.76455E-14
 -1       292 1.99995E+01-1.13617E-03-4.40670E-06 1.76857E-03 5.66900E-14 1.48510E-13
 -1       293-1.46069E+00-1.17072E+01-9.80525E-01-2.27054E-01 6.38770E-13-2.30649E-14
 -1       294 1.24352E+00-1.07669E+01-1.00921E+00 1.80051E+00 4.81948E-13 4.29434E-13
 -1       295 8.11838E+00-7.64721E+00-7.74454E-01 4.34881E+00 4.67626E-13-3.62342E-13
 -1       296 1.76593E+01-4.09515E+00-4.71225E-01 5.90091E+00 2.60458E-13-3.68594E-13
 -1       297 3.08535E+01-1.24487E+00 5.86564E-02 5.61571E+00-1.52378E-14-3.58880E-13
 -1       298 4.30502E+01 3.06971E+00 8.26154E-01 4.95425E+00 1.38202E-13-2.63622E-13
 -1       299 5.08740E+01 6.04901E+00 1.37014E+00 1.96630E+00 1.06942E-13-3.42171E-13
 -1       300 5.45648E+01 7.11044E+00 1.69097E+00-4.09704E-02 8.10185E-14-7.60548E-13
 -1       301 4.98179E+01 6.02822E+00 1.21133E+00-1.56543E+00 3.10002E-13-7.00967E-13
 -1       302 4.29162E+01 2.76994E+00 7.35009E-01-3.93970E+00 2.92506E-13-6.93667E-13
 -1       303 3.17705E+01-1.02540E+00 1.27031E-01-5.57316E+00-3.83027E-15-7.16649E-13
 -1       304 1.83237E+01-3.77407E+00-4.51750E-01-6.03793E+00 7.16649E-14-5.72542E-13
 -1       305 8.87492E+00-7.45225E+00-7.02688E-01-4.69105E+00-8.20455E-14-3.32307E-13
 -1       306 1.50498E+00-1.06261E+01-1.00248E+00-1.95266E+00-1.50907E-13-8.33222E-14
 -1       307-1.33219E+00-1.16627E+01-9.70195E-01-6.70434E-02-2.62353E-13-3.53884E-14
 -1       308-8.55405E-01-1.06474E+01-8.17868E-01 2.25894E+00-3.79544E-13-4.22329E-13
 -1       309 2.43743E+00-9.16164E+00-8.11239E-01 3.88311E+00-5.92998E-13-5.85879E-13
 -1       310 8.67334E+00-5.15506E+00-5.21708E-01 5.94860E+00-7.50844E-13-1.43552E-13
 -1       311 1.76918E+01-7.64720E-01-1.19692E-01 7.84776E+00-6.43374E-13-2.03448E-14
 -1       312 2.81228E+01 2.83335E+00 2.94457E-01 8.64755E+00-3.65041E-13 2.52853E-13
 -1       313 3.80533E+01 5.24470E+00 6.65104E-01 7.74461E+00-1.77417E-13 2.92877E-13
 -1       314 4.57349E+01 6.56924E+00 9.38524E-01 4.96489E+00-2.32342E-13 7.50650E-13
 -1       315 4.83719E+01 7.30111E+00 9.81937E-01 5.53577E-01-2.06696E-13 9.72986E-13
 -1       316 4.71657E+01 6.81795E+00 9.89099E-01-3.89749E+00-2.72588E-13 9.01001E-13
 -1       317 4.04242E+01 5.70226E+00 7.44798E-01-7.18140E+00-2.26506E-13 8.56148E-13
 -1       318 3.09298E+01 2.61927E+00 3.06864E-01-7.65958E+00-9.00668E-15 7.21201E-13
 -1       319 1.97138E+01 9.05404E-02-4.34537E-02-8.18183E+00 1.19016E-13 5.53391E-13
 -1       320 1.02329E+01-4.23756E+00-4.38020E-01-6.43211E+00 9.73110E-14 5.49838E-14
 -1       321 3.39176E+00-8.30493E+00-7.05437E-01-4.53045E+00 3.35038E-13 1.34427E-13
 -1       322-8.04067E-01-1.15891E+01-9.84315E-01-2.18056E+00 3.30541E-13 1.76872E-13
 -1       323 2.01775E+01 3.00936E+00-2.19325E-02-2.02037E+00 2.20719E-14-1.95101E-13
 -1       324 2.08032E+01 2.20604E+00-1.74343E-02-2.29644E+00-8.86140E-15-2.28909E-13
 -1       325 1.95821E+01 3.73060E+00-1.53705E-02-1.24399E+00 7.94636E-14-1.27908E-13
 -1       326 1.94337E+01 3.90329E+00-1.33395E-02-8.62758E-01 1.04649E-13-8.94883E-14
 -1       327 1.93434E+01 4.00818E+00-1.22319E-02-5.01844E-01 1.25854E-13-4.27657E-14
 -1       328 1.92994E+01 4.06019E+00-1.17335E-02-1.55558E-01 1.49937E-13-1.00458E-14
 -1       329 1.92982E+01 4.06439E+00-1.17192E-02 1.84208E-01 1.56965E-13 1.48401E-14
 -1       330 1.93409E+01 4.01926E+00-1.21852E-02 5.26553E-01 1.45285E-13 1.24453E-14
 -1       331 1.94313E+01 3.91972E+00-1.32728E-02 8.74770E-01 1.46729E-13 5.66890E-14
 -1       332 1.95853E+01 3.74583E+00-1.51930E-02 1.24879E+00 1.51919E-13 1.21801E-13
 -1       333 1.98267E+01 3.46422E+00-1.82985E-02 1.64401E+00 1.40269E-13 1.49536E-13
 -1       334 2.02061E+01 2.99748E+00-2.13884E-02 2.02742E+00 9.30430E-14 1.94015E-13
 -1       335 2.08285E+01 2.17148E+00-1.78005E-02 2.28484E+00 3.90278E-14 3.10673E-13
 -1       336 1.94629E+01-6.75383E+00-5.07123E-02 6.00578E+00 2.45165E-13-5.76414E-13
 -1       337 2.05338E+01 6.81998E-01 1.27081E-02-9.52105E-01-3.07146E-14-1.95180E-13
 -1       338 2.01450E+01 3.48400E-01 7.27708E-03-3.73805E-01-9.69038E-15-1.51398E-13
 -1       339 1.99305E+01 1.90480E-01 4.20224E-03-5.02742E-02 3.44816E-14-1.54104E-13
 -1       340 1.98420E+01 1.03550E-01 1.96416E-03 1.35967E-01 1.25567E-15-1.54451E-13
 -1       341 1.98401E+01 4.89546E-02 7.84247E-04 2.38686E-01-1.68094E-14-9.80630E-14
 -1       342 1.98930E+01 8.29506E-03 1.11910E-04 2.84346E-01-2.29168E-14-3.81520E-14
 -1       343 1.99762E+01-2.83971E-02-3.84072E-04 2.84416E-01 1.28092E-14-5.92024E-14
 -1       344 2.00695E+01-6.68601E-02-8.40440E-04 2.41598E-01-5.04587E-14-5.81945E-14
 -1       345 2.01546E+01-1.09482E-01-1.28945E-03 1.53820E-01-1.27537E-13-1.36202E-13
 -1       346 2.02127E+01-1.54620E-01-1.69886E-03 1.81048E-02-1.21448E-13-1.35008E-13
 -1       347 2.02247E+01-1.95347E-01-1.98280E-03-1.64585E-01-3.85496E-14-1.73143E-13
 -1       348 2.01715E+01-2.18762E-01-2.02028E-03-3.83383E-01 1.13302E-14-1.37470E-13
 -1       349 2.00378E+01-2.07519E-01-1.68546E-03-6.11677E-01-1.11973E-14-1.34538E-13
 -1       350 1.98192E+01-1.45321E-01-8.99708E-04-8.04471E-01-2.73915E-14-2.56841E-13
 -1       351 1.95304E+01-2.67245E-02 2.51999E-04-9.03573E-01 5.84991E-15-2.86975E-13
 -1       352 1.92124E+01 1.32452E-01 1.54593E-03-8.54305E-01-1.19219E-13-2.20747E-13
 -1       353 1.89302E+01 2.92110E-01 2.69811E-03-6.31112E-01-1.16112E-13-1.30100E-13
 -1       354 1.87558E+01 3.99568E-01 3.39119E-03-2.60015E-01-7.66939E-14-2.34163E-13
 -1       355 1.87409E+01 4.14447E-01 3.48541E-03 1.79366E-01 8.04402E-14-2.23933E-13
 -1       356 1.88925E+01 3.31358E-01 2.99124E-03 5.80566E-01 1.22537E-13-2.85231E-13
 -1       357 1.91703E+01 1.83212E-01 1.97535E-03 8.53246E-01 1.02988E-13-2.10916E-13
 -1       358 1.95056E+01 2.22873E-02 7.03875E-04 9.56475E-01 8.55486E-14-9.36009E-14
 -1       359 1.98306E+01-1.06368E-01-4.79898E-04 9.04055E-01 4.62685E-14-1.21790E-13
 -1       360 2.00983E+01-1.80673E-01-1.34928E-03 7.45391E-01 2.86637E-14-8.98460E-14
 -1       361 2.02881E+01-2.01568E-01-1.77518E-03 5.39292E-01-7.77542E-14 2.50526E-14
 -1       362 2.04003E+01-1.83826E-01-1.80736E-03 3.34340E-01-3.95766E-14 1.81667E-13
 -1       363 2.04477E+01-1.45627E-01-1.57132E-03 1.60732E-01 1.63385E-13 1.09144E-13
 -1       364 2.04472E+01-1.01935E-01-1.20442E-03 3.11194E-02 1.27444E-13-2.82345E-14
 -1       365 2.04152E+01-6.21930E-02-8.16748E-04-5.43509E-02 1.47026E-13 2.80076E-14
 -1       366 2.03656E+01-3.07929E-02-4.75992E-04-1.02432E-01 7.15269E-14 3.44520E-14
 -1       367 2.03086E+01-8.62070E-03-2.12405E-04-1.22415E-01 1.22122E-13 3.31338E-13
 -1       368 2.02513E+01 5.36868E-03-2.99153E-05-1.23410E-01 2.29616E-14 4.16662E-13
 -1       369 2.01982E+01 1.29896E-02 8.21125E-05-1.13020E-01-1.70931E-13 2.74227E-13
 -1       370 2.01516E+01 1.61261E-02 1.39992E-04-9.69298E-02 7.77391E-15 2.07240E-13
 -1       371 2.01125E+01 1.63924E-02 1.60245E-04-7.90153E-02 2.82192E-14 1.20098E-13
 -1       372 2.00808E+01 1.50209E-02 1.56867E-04-6.16744E-02 2.30803E-13 1.41999E-13
 -1       373 2.00560E+01 1.28731E-02 1.40454E-04-4.62095E-02 6.44474E-14 1.19604E-13
 -1       374 2.00372E+01 1.05034E-02 1.18339E-04-3.31752E-02 4.78434E-14 3.23029E-13
 -1       375 2.00233E+01 8.23563E-03 9.51539E-05-2.26570E-02-2.57288E-13 4.62926E-13
 -1       376 2.00136E+01 6.23288E-03 7.34979E-05-1.44751E-02-1.93072E-13 5.47060E-13
 -1       377 2.00071E+01 4.55260E-03 5.45615E-05-8.32581E-03 1.12285E-13 5.69770E-13
 -1       378 2.00029E+01 3.18614E-03 3.85866E-05-3.87293E-03 9.44723E-14 5.87523E-13
 -1       379 2.00005E+01 2.08398E-03 2.52086E-05-8.05311E-04 3.60407E-14 4.11275E-13
 -1       380 1.99994E+01 1.17175E-03 1.44945E-05 1.12692E-03-4.07171E-14 2.86607E-13
 -1       381 1.99991E+01 3.49996E-04 6.04998E-06 2.10955E-03 2.08287E-13 3.14138E-13
 -1       382 1.99991E+01-3.90675E-04-6.80680E-06 2.25842E-03 3.97692E-13 1.18075E-13
 -1       383 2.01834E+01 3.84522E-01 8.56161E-03 3.63958E-01 3.81646E-14 2.54724E-13
 -1       384 2.05595E+01 7.20513E-01 1.32002E-02 9.66530E-01 3.59109E-14 2.86201E-13
 -1       385 1.99863E+01 2.31710E-01 5.31227E-03 1.98414E-03 4.18164E-14 2.22009E-13
 -1       386 1.99282E+01 1.62952E-01 2.77002E-03-2.38818E-01 1.37507E-14 2.02850E-13
 -1       387 1.99737E+01 1.44427E-01 2.15238E-03-4.16033E-01-2.36586E-14 1.74113E-13
 -1       388 2.01059E+01 1.57313E-01 2.24850E-03-5.90488E-01 1.02321E-14 1.61184E-13
 -1       389 2.03114E+01 2.00732E-01 2.76368E-03-7.86254E-01 5.64902E-14 1.28837E-13
 -1       390 2.05850E+01 2.75539E-01 3.63634E-03-1.03383E+00 1.09318E-13 1.41683E-13
 -1       391 2.09249E+01 3.82382E-01 4.65798E-03-1.36264E+00 7.18906E-14 1.95717E-13
 -1       392 2.13314E+01 5.13291E-01 5.44224E-03-1.79733E+00-5.23986E-14 2.09131E-13
 -1       393 2.18069E+01 6.32145E-01 5.32035E-03-2.34547E+00-2.42386E-14 1.51402E-13
 -1       394 2.23447E+01 6.46041E-01 3.50985E-03-2.93663E+00 5.83409E-16 1.46844E-13
 -1       395 2.30928E+01 3.45584E-01 2.84771E-03-3.49505E+00-7.67945E-14 1.65865E-13
 -1       396 2.42742E+01-6.36157E-01 5.25843E-03-3.66857E+00-1.76337E-13 2.59245E-13
 -1       397 2.64247E+01-2.57084E+00 2.37625E-02-2.84666E+00-1.84654E-13 1.18826E-13
 -1       398 2.99098E+01-4.61652E+00-3.36530E-02-2.15704E-01-1.63168E-13 1.65059E-14
 -1       399 3.62564E+01 2.24198E+00-1.17713E-01 4.23459E+00 2.20102E-14 2.68216E-13
 -1       400 3.77439E+01 4.84655E+00 5.05592E-02-2.86655E+00 2.30205E-13 2.29095E-13
 -1       401 3.50079E+01-1.15614E+00-1.29397E-01-4.04789E+00 2.70658E-13 4.13156E-13
 -1       402 3.12428E+01-4.50480E+00-5.35101E-02-9.34143E-01 6.27155E-14 1.85487E-13
 -1       403 2.75776E+01-3.00959E+00 2.36341E-02 2.13023E+00 1.04559E-13 3.89421E-13
 -1       404 2.51489E+01-9.78514E-01 6.58882E-03 3.41025E+00-1.73794E-13 3.31310E-13
 -1       405 2.37623E+01 1.80114E-01 1.26293E-04 3.44325E+00-7.20105E-14 1.62418E-13
 -1       406 2.29046E+01 5.92640E-01 2.51842E-03 2.94130E+00-9.01490E-14 1.59540E-13
 -1       407 2.23057E+01 6.30254E-01 4.85944E-03 2.33816E+00-1.59248E-15 3.76786E-13
 -1       408 2.17954E+01 5.30882E-01 5.67183E-03 1.75219E+00 7.16263E-14 4.96653E-13
 -1       409 2.13790E+01 4.03991E-01 5.18314E-03 1.27635E+00-1.70897E-13 1.65494E-13
 -1       410 2.10422E+01 2.92594E-01 4.10965E-03 9.14849E-01-8.96414E-14 2.26978E-13
 -1       411 2.07758E+01 2.06839E-01 3.03723E-03 6.49852E-01 2.41690E-15 2.41166E-13
 -1       412 2.05694E+01 1.44649E-01 2.16205E-03 4.59274E-01 2.62537E-14 1.61858E-13
 -1       413 2.04124E+01 1.00778E-01 1.53026E-03 3.23496E-01 5.52992E-14 2.13864E-13
 -1       414 2.02993E+01 7.16482E-02 1.05581E-03 2.31057E-01 8.86611E-14 4.96452E-13
 -1       415 2.02103E+01 5.00877E-02 7.48146E-04 1.61385E-01 8.68590E-14 3.80710E-13
 -1       416 2.01450E+01 3.51292E-02 5.18656E-04 1.11876E-01-8.31816E-14 5.35021E-13
 -1       417 2.00977E+01 2.46843E-02 3.60838E-04 7.66614E-02 1.44542E-14 5.40898E-13
 -1       418 2.00639E+01 1.73468E-02 2.51308E-04 5.16121E-02-1.45312E-13 5.34633E-13
 -1       419 2.00401E+01 1.21608E-02 1.75414E-04 3.38273E-02-1.10171E-13 5.00818E-13
 -1       420 2.00238E+01 8.47080E-03 1.22953E-04 2.12520E-02-9.67653E-15 3.05015E-13
 -1       421 2.00134E+01 5.95939E-03 8.32923E-05 1.27976E-02-1.29934E-13 1.96125E-13
 -1       422 2.00063E+01 4.04573E-03 5.81926E-05 6.57098E-03-8.75810E-15 9.60198E-14
 -1       423 2.00020E+01 2.66218E-03 3.78334E-05 2.34503E-03-8.06885E-16 9.85890E-14
 -1       424 1.99997E+01 1.63816E-03 2.27326E-05-4.06331E-04 1.45778E-13 2.00645E-13
 -1       425 1.99988E+01 8.30919E-04 1.10856E-05-2.03665E-03 1.32395E-13 1.89887E-13
 -1       426 1.99986E+01 1.03513E-04 9.81554E-08-2.76649E-03-1.76544E-13-1.37664E-13
 -1       427 1.99990E+01-6.63655E-04-4.71008E-06-2.69943E-03 2.39354E-13-5.29786E-13
 -1       428 3.53022E+00-4.14720E+00 3.96840E-02 3.27903E+00 7.54188E-14 1.46827E-13
 -1       429 2.00005E+01-1.68975E-03 4.50292E-06-1.94680E-03 7.81994E-14-4.47695E-13
 -1       430 2.00002E+01-1.48974E-03-2.04388E-06-2.55486E-03-1.36532E-13-2.75071E-13
 -1       431 2.00006E+01-1.64635E-03 5.95648E-06-1.21086E-03-4.92458E-14-5.10868E-13
 -1       432 2.00004E+01-1.44061E-03 6.06716E-06-5.40974E-04-2.25642E-13-2.95045E-13
 -1       433 2.00002E+01-1.17022E-03 5.43381E-06-6.20183E-05-2.25549E-13 2.64960E-14
 -1       434 2.00001E+01-9.38811E-04 4.50676E-06 2.23980E-04-2.96766E-13-1.90668E-13
 -1       435 2.00000E+01-8.16729E-04 4.00682E-06 3.93811E-04-4.19632E-13-2.99227E-13
 -1       436 2.00001E+01-8.25110E-04 4.02937E-06 5.59419E-04-4.41067E-13-2.35847E-13
 -1       437 2.00002E+01-9.28239E-04 4.22339E-06 8.16640E-04-5.28141E-13-1.71376E-13
 -1       438 2.00003E+01-1.05863E-03 3.82042E-06 1.21775E-03-1.79355E-13 3.88379E-13
 -1       439 2.00003E+01-1.11863E-03 2.24799E-06 1.71297E-03-1.49987E-13 5.30651E-13
 -1       440 2.00001E+01-1.06775E-03-3.34229E-06 2.16217E-03 6.02003E-14 4.68446E-13
 -1       441 8.74571E+00-5.70428E+00-4.31542E-02 5.81617E+00 3.01842E-14-2.72921E-13
 -1       442 5.89028E-01-4.97822E+00-9.15376E-02-1.67331E+00 5.47305E-14 1.75721E-13
 -1       443 1.98136E+01 3.45633E+00-1.85849E-02-1.64142E+00 5.63173E-14-1.73241E-13
 -1       444 3.62082E+01-2.19331E+00 1.82121E-02-1.10782E+00 1.83494E-13-1.34615E-14
 -1       445 4.02056E+01 3.05385E+00 2.35390E-01-2.08871E+00 1.10884E-13 1.12549E-13
 -1       446 4.08922E+01 6.60263E+00 2.57288E-01-1.30347E+00 3.06671E-13 7.88258E-14
 -1       447 4.07856E+01 6.71750E+00 2.16184E-01 1.07433E+00 1.12299E-13-2.44735E-14
 -1       448 3.63227E+01-1.71086E+00-1.51407E-02 3.01846E+00-1.51101E-13 7.92144E-14
 -1       449 2.85190E+01-5.96011E+00-1.26020E-01-3.47216E+00-2.05572E-13-3.05964E-13
 -1       450 1.99949E+01-6.81969E+00-7.60392E-02-5.92995E+00-1.32006E-13-3.91825E-13
 -1       451 9.11622E+00-6.20286E+00-1.17691E-01-5.91340E+00 2.49800E-16-3.07365E-13
 -1       452 3.20736E+00-5.47832E+00-1.03044E-01-3.48985E+00-1.14075E-14-1.04736E-13
 -1       453 1.28009E+00-3.90095E+00 3.28106E-02 9.05316E-01-3.85716E-14-3.02647E-13
 -1       454 3.54148E+00-5.22422E+00-7.67472E-02 5.38723E+00-1.04070E-13-5.56083E-13
 -1       455 9.54342E+00-5.68084E+00-7.98347E-02 7.59777E+00-2.00340E-13-2.07251E-13
 -1       456 1.79412E+01-5.12892E+00-3.66439E-02 7.78562E+00-3.78114E-13 2.73899E-13
 -1       457 2.65976E+01-3.50010E+00 4.59278E-03 5.57483E+00-3.74728E-13 5.03014E-13
 -1       458 3.24521E+01 5.97862E-01 3.94391E-02 3.13733E+00-2.58569E-13 2.79277E-13
 -1       459 3.58509E+01 4.85965E+00 4.19847E-02 8.75626E-01-3.50747E-13 5.38417E-13
 -1       460 3.67507E+01 8.08857E+00 4.05054E-03-8.60938E-02-3.36897E-13 4.26319E-13
 -1       461 3.60071E+01 8.63835E+00-4.13596E-02 1.62638E-01-7.08322E-14 3.23637E-13
 -1       462 3.60424E+01 5.90274E+00 4.67087E-03-3.41525E-01 4.10505E-14 2.38101E-13
 -1       463 3.37520E+01 2.40571E+00 2.03730E-02-1.97454E+00 2.64025E-14 2.04753E-13
 -1       464 2.72735E+01-2.75919E+00-3.08754E-02-5.27782E+00 3.13014E-13 5.85421E-13
 -1       465 2.03343E+01-5.05205E+00 8.44270E-03-7.48291E+00 1.56916E-13 3.14464E-13
 -1       466 1.15816E+01-5.37321E+00-4.03865E-03-8.03713E+00 1.80717E-13 2.55143E-13
 -1       467 3.78260E+00-5.02545E+00-5.87428E-02-5.62505E+00 1.12382E-13 2.56822E-13
 -1       468 2.79314E+01-6.19734E+00-8.81203E-02 3.53809E+00 2.02838E-13-1.20140E-13
 -1       469 3.65267E+01 5.55827E+00-1.91961E-02 1.27042E+00 1.52600E-13 3.17003E-13
 -1       470 3.06736E+01-1.74596E+00-5.23548E-02-1.48400E+00 1.81645E-13 2.72296E-13
 -1       471 1.96771E+01 3.19567E+00-5.21602E-03-5.66309E-01 1.17218E-13-4.50420E-14
 -1       472 1.98036E+01 3.00023E+00-5.85748E-03-8.65728E-01 9.14642E-14-6.78721E-14
 -1       473 1.95738E+01 3.35081E+00-4.78100E-03 1.96347E-02 1.41450E-13 1.07179E-14
 -1       474 1.95946E+01 3.32325E+00-4.84954E-03 3.05950E-01 1.35646E-13-5.03883E-15
 -1       475 1.96656E+01 3.22219E+00-5.19526E-03 5.87339E-01 1.42082E-13 2.20141E-14
 -1       476 1.97941E+01 3.03111E+00-5.87034E-03 8.72580E-01 1.40675E-13 9.33659E-14
 -1       477 1.99879E+01 2.72478E+00-6.57893E-03 1.14958E+00 1.16402E-13 1.12606E-13
 -1       478 2.02490E+01 2.25762E+00-6.67542E-03 1.37459E+00 9.90693E-14 1.30966E-13
 -1       479 2.05007E+01 1.49681E+00-3.11282E-03 1.29358E+00 6.48687E-14 1.82023E-13
 -1       480 2.58870E+01-5.94811E+00 1.90050E-02 3.75728E+00 8.93036E-15-1.01461E-13
 -1       481 2.04138E+01 9.95311E-01 2.69770E-03-8.40824E-01-8.83430E-15-1.53479E-13
 -1       482 2.02663E+01 5.72325E-01 1.93103E-03-3.47418E-01 3.10591E-15-1.41134E-13
 -1       483 2.01502E+01 3.33561E-01 1.08705E-03-2.47059E-02 3.81629E-14-1.46272E-13
 -1       484 2.00888E+01 1.85446E-01 4.74531E-04 1.77085E-01 2.81958E-14-1.50438E-13
 -1       485 2.00785E+01 8.25156E-02 1.33528E-04 2.93618E-01 2.10788E-14-1.10425E-13
 -1       486 2.01094E+01-1.03220E-03-8.88890E-05 3.45016E-01-3.59293E-14-7.07273E-14
 -1       487 2.01717E+01-8.08779E-02-2.83893E-04 3.40002E-01-2.39451E-14-1.27650E-13
 -1       488 2.02561E+01-1.65952E-01-4.82572E-04 2.79320E-01-9.65429E-14-1.02440E-13
 -1       489 2.03527E+01-2.58217E-01-6.82414E-04 1.59191E-01-1.22052E-13-5.38486E-14
 -1       490 2.04488E+01-3.50481E-01-8.52382E-04-2.41367E-02-6.12500E-14 1.54226E-14
 -1       491 2.05265E+01-4.23848E-01-9.32397E-04-2.67932E-01 1.96229E-14 1.59344E-15
 -1       492 2.05619E+01-4.47413E-01-8.64802E-04-5.54554E-01-6.77797E-14 2.43557E-15
 -1       493 2.05286E+01-3.83933E-01-5.91668E-04-8.43050E-01-1.26792E-13-2.60092E-14
 -1       494 2.04074E+01-2.04895E-01-4.79463E-05-1.06577E+00 3.00476E-14 7.29759E-14
 -1       495 2.02022E+01 8.57133E-02 5.59189E-04-1.13837E+00-2.66429E-14 6.60959E-14
 -1       496 1.99549E+01 4.31737E-01 1.05074E-03-9.89898E-01-1.00559E-13 3.53133E-14
 -1       497 1.97428E+01 7.29034E-01 1.43803E-03-6.05438E-01-1.35046E-13 8.97095E-14
 -1       498 1.96478E+01 8.67016E-01 1.50614E-03-5.59221E-02-3.39128E-14 7.38244E-14
 -1       499 1.97121E+01 7.89524E-01 1.50146E-03 5.16584E-01-8.04239E-15-8.31374E-14
 -1       500 1.99107E+01 5.30283E-01 1.28090E-03 9.60021E-01 1.41375E-13-1.64174E-13
 -1       501 2.01681E+01 1.91781E-01 7.57137E-04 1.18105E+00 1.71425E-13-1.36182E-13
 -1       502 2.04023E+01-1.14608E-01 1.70283E-04 1.17419E+00 9.05014E-14-1.82734E-13
 -1       503 2.05618E+01-3.19275E-01-4.21203E-04 9.99545E-01 4.66791E-14-1.80061E-13
 -1       504 2.06336E+01-4.06311E-01-7.59182E-04 7.40762E-01 6.74710E-14-1.09922E-13
 -1       505 2.06324E+01-3.98589E-01-8.61682E-04 4.70542E-01 4.57809E-14 1.45623E-13
 -1       506 2.05832E+01-3.33713E-01-7.94441E-04 2.35372E-01-3.31961E-14 1.27375E-13
 -1       507 2.05097E+01-2.46284E-01-6.34199E-04 5.60007E-02 2.11383E-14 2.15504E-13
 -1       508 2.04287E+01-1.60258E-01-4.48231E-04-6.51561E-02 8.48076E-14 1.28876E-13
 -1       509 2.03507E+01-8.84022E-02-2.76868E-04-1.35872E-01 2.03916E-13 7.07043E-14
 -1       510 2.02808E+01-3.50484E-02-1.40013E-04-1.67889E-01 2.32776E-13 2.16259E-13
 -1       511 2.02208E+01 5.63848E-04-4.23156E-05-1.73097E-01 7.75508E-14 1.73361E-13
 -1       512 2.01709E+01 2.15922E-02 2.00430E-05-1.61643E-01-1.19069E-13 2.27372E-13
 -1       513 2.01302E+01 3.18436E-02 5.44762E-05-1.41294E-01-2.56160E-14 3.57451E-13
 -1       514 2.00975E+01 3.48314E-02 6.90437E-05-1.17491E-01-4.99872E-14 4.28895E-13
 -1       515 2.00718E+01 3.33842E-02 7.07699E-05-9.37281E-02 2.65141E-14 2.86321E-13
 -1       516 2.00518E+01 2.95738E-02 6.50816E-05-7.20121E-02 8.15623E-14 1.64903E-13
 -1       517 2.00365E+01 2.47994E-02 5.58263E-05-5.33070E-02 1.28492E-13 1.43422E-13
 -1       518 2.00250E+01 1.99300E-02 4.55037E-05-3.78945E-02 1.12816E-13 3.02380E-13
 -1       519 2.00166E+01 1.54486E-02 3.55747E-05-2.56492E-02-1.40303E-13 5.96760E-13
 -1       520 2.00105E+01 1.15750E-02 2.67316E-05-1.62339E-02-3.72586E-14 6.10806E-13
 -1       521 2.00063E+01 8.35893E-03 1.92516E-05-9.22951E-03 1.34945E-13 5.29569E-13
 -1       522 2.00035E+01 5.74580E-03 1.31174E-05-4.21778E-03-2.33447E-13 5.43122E-13
 -1       523 2.00017E+01 3.61333E-03 8.29864E-06-8.33778E-04-3.32695E-14 7.65711E-13
 -1       524 2.00007E+01 1.80761E-03 4.84561E-06 1.21023E-03 4.53410E-14 4.68897E-13
 -1       525 2.03820E+01 8.87354E-01 2.75103E-03 6.53490E-01 5.96973E-14 1.72021E-13
 -1       526 2.01158E+01 3.39533E-01 9.42057E-04-3.33063E-01 6.23423E-15 1.46740E-13
 -1       527 2.01003E+01 3.20457E-01 8.60575E-04-5.64140E-01 1.34050E-14 1.07166E-13
 -1       528 2.01156E+01 3.63610E-01 1.01974E-03-7.87282E-01 8.10280E-14 1.03297E-13
 -1       529 2.01416E+01 4.64410E-01 1.35881E-03-1.03507E+00 9.34357E-14 4.04954E-14
 -1       530 2.01528E+01 6.22479E-01 1.81777E-03-1.33644E+00 3.02897E-14 7.43133E-14
 -1       531 2.01164E+01 8.31726E-01 2.29341E-03-1.71701E+00-4.29322E-15 1.39367E-13
 -1       532 1.99939E+01 1.06183E+00 2.80383E-03-2.19679E+00-1.98307E-14 1.15199E-13
 -1       533 1.97742E+01 1.22261E+00 3.32573E-03-2.75714E+00 2.98516E-15 1.42159E-14
 -1       534 1.94663E+01 1.13260E+00 7.08034E-03-3.45565E+00-1.21742E-14-3.33798E-14
 -1       535 1.92818E+01 3.78392E-01 2.59028E-02-4.25465E+00-1.10033E-13-6.79994E-14
 -1       536 1.97635E+01-1.63044E+00 8.04977E-02-5.02431E+00-6.37112E-14-1.01173E-13
 -1       537 4.93761E+00-1.56905E+00 1.72281E-01 3.82129E+00 1.06304E-14-4.34472E-13
 -1       538 1.97426E+01 1.03114E+00 7.14998E-03 3.53653E+00-1.16930E-13 1.24020E-13
 -1       539 1.99893E+01 1.22701E+00 3.43469E-03 2.82472E+00-1.69753E-13 8.91784E-14
 -1       540 2.02074E+01 1.10996E+00 2.93639E-03 2.17789E+00-8.89739E-14 6.04388E-14
 -1       541 2.03299E+01 8.87287E-01 2.71333E-03 1.64585E+00 5.68951E-14 7.63742E-14
 -1       542 2.03680E+01 6.67713E-01 2.18831E-03 1.22495E+00-1.33408E-13-2.38870E-15
 -1       543 2.03524E+01 4.86698E-01 1.63550E-03 9.01644E-01-2.96299E-14-1.32515E-13
 -1       544 2.03093E+01 3.48925E-01 1.16069E-03 6.58295E-01-4.43539E-14-2.55334E-15
 -1       545 2.02568E+01 2.48310E-01 8.27702E-04 4.77774E-01 6.80817E-15 2.28302E-13
 -1       546 2.02071E+01 1.79362E-01 5.73025E-04 3.50319E-01-2.02862E-14 2.59559E-13
 -1       547 2.01599E+01 1.27327E-01 4.02748E-04 2.51195E-01 8.03676E-14 2.21804E-13
 -1       548 2.01203E+01 9.05247E-02 2.78693E-04 1.78776E-01-6.38179E-14 3.35773E-13
 -1       549 2.00882E+01 6.44309E-02 1.92974E-04 1.25951E-01-1.66395E-14 1.11584E-13
 -1       550 2.00631E+01 4.58577E-02 1.33758E-04 8.75025E-02-1.70381E-13 1.11768E-13
 -1       551 2.00440E+01 3.25765E-02 9.29431E-05 5.96085E-02-1.06805E-13 2.51778E-14
 -1       552 2.00298E+01 2.30329E-02 6.56121E-05 3.94753E-02-1.26644E-13 1.78870E-13
 -1       553 2.00199E+01 1.64574E-02 4.35972E-05 2.56435E-02-1.21291E-13 2.84652E-13
 -1       554 2.00125E+01 1.14073E-02 3.12665E-05 1.52197E-02-1.61363E-13 1.24285E-13
 -1       555 2.00074E+01 7.73819E-03 2.06239E-05 7.94124E-03-1.24033E-14 3.09389E-13
 -1       556 2.00041E+01 5.03816E-03 1.30646E-05 2.99715E-03 1.12635E-13 3.73122E-13
 -1       557 2.00020E+01 2.98747E-03 7.58956E-06-1.91651E-04 2.23024E-13-1.28048E-14
 -1       558 2.00008E+01 1.30985E-03 7.02149E-06-2.02208E-03 2.22954E-13-2.93795E-13
 -1       559 2.00004E+01 5.20096E-05 1.29984E-06-2.60736E-03 2.03318E-13-2.98866E-13
 -1       560 5.12571E+00-1.27872E+00 1.92835E-01-3.80564E+00-1.99753E-13 1.63855E-13
 -1       561 2.00007E+01 3.20195E-03 2.57660E-06 1.97749E-04 3.45967E-13-1.00754E-13
 -1       562 1.70296E+01-4.80262E+00 8.95265E-02 6.20595E+00-1.73042E-13-5.71890E-13
 -1       563 2.00003E+01 3.87140E-03 2.12819E-06 4.23474E-04-4.17464E-14-3.71033E-13
 -1       564 2.00001E+01 4.18169E-03 1.85815E-06 4.16606E-04-1.81173E-13-2.29820E-13
 -1       565 2.00001E+01 4.07794E-03 1.84052E-06 3.32175E-04-6.42512E-14-4.08910E-13
 -1       566 2.00003E+01 3.59609E-03 1.84242E-06 3.38597E-04-1.08631E-13-3.76794E-13
 -1       567 2.00006E+01 2.81191E-03 1.04345E-06 5.61753E-04-3.05855E-14 2.91916E-13
 -1       568 2.00008E+01 1.90252E-03-5.78599E-07 1.03496E-03 1.14254E-13 4.82825E-13
 -1       569 2.00007E+01 1.03815E-03 9.80655E-07 1.61895E-03 6.81871E-14 7.29811E-13
 -1       570 9.76194E+00-2.26263E+00 1.82283E-01 5.07438E+00-3.79592E-13-2.86784E-13
 -1       571 1.02722E+01-3.19746E+00 1.46700E-01-7.35726E+00 5.08621E-15 2.32855E-13
 -1       572 2.01774E+01 4.38113E-01 1.40447E-03-5.27352E-02 4.81139E-14 1.51933E-13
 -1       573 2.00013E+01 1.32994E-03 8.86560E-07-1.15390E-03 3.16370E-13-2.93679E-13
 -1       574 3.04614E+01 6.41443E+00-1.91774E-01 1.50756E+00 2.04142E-14 2.47885E-13
 -1       575 2.00011E+01 5.86607E-04 6.13072E-07-1.93670E-03 8.84112E-14 3.30111E-14
 -1       576 2.00011E+01 2.29980E-03 2.40797E-06-3.38864E-04 2.94066E-13-6.62109E-13
 -1       577 1.97414E+01 5.65972E-02 2.93995E-02 4.31503E+00-8.51281E-14 1.84640E-13
 -1       578 2.06586E+01-2.30663E+00 9.27998E-02 4.94614E+00-1.21087E-13-1.79336E-14
 -1       579 4.88568E+00-6.97517E-01 1.96439E-01 8.69183E-01-2.16058E-13 1.26510E-13
 -1       580 1.96016E+01 3.30877E+00-4.89277E-03-2.70457E-01 1.34815E-13-8.12176E-15
 -1       581 2.02683E+01 5.99992E-01 1.87105E-03 2.51698E-01 5.20057E-14 1.49442E-13
 -1       582 1.73365E+01-5.20399E+00 7.20841E-02-6.31131E+00-4.64073E-14-2.51500E-13
 -1       583 9.55880E+00-2.66179E+00 1.66256E-01-5.30582E+00 2.93168E-14-2.74877E-13
 -1       584 2.54253E+01-5.04745E+00 1.09715E-02-5.02801E+00 3.28640E-13 4.16965E-13
 -1       585 5.49069E+00-9.05524E-01 2.11217E-01-1.87579E+00 8.31869E-14-1.75970E-13
 -1       586 9.92162E+00-3.16011E+00 1.54568E-01 7.19212E+00 1.18135E-13-2.94993E-13
 -1       587 1.67802E+01-4.99729E+00 9.79605E-02 7.87376E+00-4.20358E-14 3.09766E-13
 -1       588 2.32175E+01-5.37686E+00 2.89598E-02 6.12915E+00-2.15043E-13 4.85261E-13
 -1       589 2.93198E+01-2.64755E+00-5.78340E-02 2.06999E+00-1.74897E-13 3.41914E-13
 -1       590 3.13109E+01 1.20908E+00-1.20872E-01-6.37917E-01-3.95316E-13 3.58068E-13
 -1       591 3.16753E+01 5.74088E+00-1.68108E-01-1.44718E+00-3.89841E-13 2.64976E-13
 -1       592 3.06268E+01 8.14727E+00-1.90260E-01-3.32067E-01-1.62925E-13 1.45525E-13
 -1       593 3.13579E+01 3.49427E+00-1.40668E-01 1.44010E+00 1.36002E-14 2.21365E-13
 -1       594 1.81744E+01-5.00275E+00 8.13069E-02-7.64986E+00 1.21667E-13 2.57067E-13
 -1       595 2.04424E+01 1.77277E+00-5.20970E-03-1.43579E+00 1.01208E-14-1.81198E-13
 -1       596 2.47344E+01-5.14894E+00 8.77203E-02-4.16920E+00-9.60135E-14-1.45330E-13
 -1       597 1.99853E+01 2.70060E+00-6.68176E-03-1.15064E+00 6.24655E-14-1.39807E-13
 -1       598 6.78359E+00 4.37163E-01 1.80425E-01 1.00068E+00 2.28107E-14-4.29816E-13
 -1       599 2.01949E+01 2.31271E+00-6.07036E-03-1.34160E+00 4.05272E-14-1.67795E-13
 -1       600 2.00002E+01 6.69042E-04 1.77096E-06 1.97334E-03 1.02339E-14 5.80409E-13
 -1       601 2.65751E+01-4.76823E+00-1.90521E-02 3.35236E+00-1.48027E-13 3.87426E-13
 -1       602 1.98425E+01 2.62591E+00-1.45495E-03 3.48941E-01 1.33609E-13 8.16925E-15
 -1       603 1.98013E+01 2.69685E+00-1.43476E-03 1.36184E-01 1.21001E-13 2.44244E-15
 -1       604 2.00809E+01 2.19048E+00-7.18401E-04 7.33620E-01 9.82377E-14 8.29901E-14
 -1       605 2.02482E+01 1.79818E+00-2.88174E-04 8.59580E-01 1.03046E-13 9.31711E-14
 -1       606 2.03630E+01 1.34067E+00 8.72465E-04 7.97254E-01 7.51233E-14 1.25110E-13
 -1       607 2.90386E+01-3.89623E-01-1.00791E-01 1.06537E+00 6.75918E-14 7.40449E-14
 -1       608 2.03038E+01 7.25019E-01 4.19531E-04-2.40389E-01 2.66110E-14-1.02717E-13
 -1       609 2.02553E+01 4.40968E-01 1.99613E-04 4.21323E-02 3.47632E-15-1.24055E-13
 -1       610 2.02251E+01 2.45943E-01 6.47244E-05 2.31340E-01 5.62022E-14-1.42333E-13
 -1       611 2.02250E+01 9.73211E-02-8.52888E-06 3.46262E-01 1.72170E-14-1.30493E-13
 -1       612 2.02603E+01-3.33866E-02-6.55749E-05 3.98914E-01-3.95701E-14-9.88687E-14
 -1       613 2.03339E+01-1.65252E-01-1.27992E-04 3.93274E-01 3.35198E-15-2.55906E-14
 -1       614 2.04472E+01-3.08585E-01-1.99802E-04 3.26134E-01-4.51321E-14 8.40542E-14
 -1       615 2.05983E+01-4.62310E-01-2.73491E-04 1.89496E-01-3.76870E-14 1.59344E-13
 -1       616 2.07777E+01-6.09259E-01-3.22395E-04-2.47793E-02-9.22275E-14 1.55382E-13
 -1       617 2.09629E+01-7.11639E-01-2.95342E-04-3.16711E-01-5.50349E-14 3.22498E-14
 -1       618 2.11160E+01-7.11724E-01-2.25417E-04-6.65593E-01-7.50253E-14 5.86548E-14
 -1       619 2.11871E+01-5.44818E-01-1.17603E-04-1.01570E+00 2.55516E-14 1.76461E-13
 -1       620 2.11336E+01-1.71099E-01 3.01039E-04-1.26849E+00 1.05086E-16 5.80597E-14
 -1       621 2.09528E+01 3.75015E-01 4.37600E-04-1.30024E+00-3.22591E-14 1.14858E-13
 -1       622 2.07095E+01 9.56673E-01 2.33519E-04-1.01757E+00-1.71853E-13 1.71906E-13
 -1       623 2.05234E+01 1.36307E+00 3.02661E-04-4.34525E-01-1.07959E-13 1.57855E-14
 -1       624 2.05001E+01 1.41971E+00 4.78623E-04 2.96657E-01-2.16623E-14 1.31893E-13
 -1       625 2.06544E+01 1.10196E+00 4.03575E-04 9.41966E-01-4.11355E-14 1.64659E-13
 -1       626 2.08982E+01 5.53672E-01 4.26006E-04 1.31759E+00 5.68031E-14-7.58587E-14
 -1       627 2.11067E+01-8.49215E-03 4.67329E-04 1.37371E+00 3.10704E-14-7.73877E-14
 -1       628 2.11987E+01-4.25042E-01-8.02487E-05 1.18345E+00 4.98915E-14-1.06237E-13
 -1       629 2.11607E+01-6.36663E-01-2.95088E-04 8.67338E-01 1.26353E-13-1.43550E-14
 -1       630 2.10272E+01-6.68687E-01-3.61657E-04 5.32632E-01 1.81410E-13 1.23213E-13
 -1       631 2.08481E+01-5.84542E-01-3.40511E-04 2.44734E-01 1.04190E-13 1.98920E-13
 -1       632 2.06642E+01-4.47350E-01-2.66555E-04 2.97481E-02-4.91281E-14 2.47509E-13
 -1       633 2.05002E+01-3.02957E-01-1.87113E-04-1.11626E-01-1.06216E-14 3.07264E-13
 -1       634 2.03663E+01-1.77326E-01-1.15988E-04-1.91234E-01 1.82656E-13 4.59901E-13
 -1       635 2.02633E+01-8.08188E-02-6.07856E-05-2.24756E-01 2.05026E-13 3.71524E-13
 -1       636 2.01873E+01-1.40427E-02-2.19717E-05-2.27075E-01 1.56120E-13 2.81539E-13
 -1       637 2.01328E+01 2.73129E-02 2.76519E-06-2.10383E-01-6.95433E-14 1.02671E-13
 -1       638 2.00942E+01 4.92510E-02 1.64772E-05-1.83761E-01 8.17340E-14 2.43845E-13
 -1       639 2.00672E+01 5.76453E-02 2.25573E-05-1.53469E-01-1.83341E-13 2.67909E-13
 -1       640 2.00482E+01 5.74105E-02 2.38007E-05-1.23489E-01-1.49577E-13 8.57184E-14
 -1       641 2.00347E+01 5.22696E-02 2.22193E-05-9.61054E-02-7.41308E-14-9.25773E-14
 -1       642 2.00251E+01 4.48230E-02 1.92313E-05-7.24170E-02 9.50142E-14-8.29872E-14
 -1       643 2.00182E+01 3.67509E-02 1.57752E-05-5.27482E-02 1.36558E-13-1.49592E-13
 -1       644 2.00131E+01 2.90432E-02 1.23956E-05-3.69573E-02 1.80303E-13 5.76938E-14
 -1       645 2.00093E+01 2.22052E-02 9.38202E-06-2.46529E-02-4.18189E-14 4.23991E-13
 -1       646 2.00065E+01 1.64202E-02 6.66222E-06-1.53400E-02 6.48936E-14 4.96826E-13
 -1       647 2.00045E+01 1.16693E-02 4.34144E-06-8.51426E-03 8.17964E-14 4.89981E-13
 -1       648 2.00029E+01 7.80933E-03 5.19431E-06-3.71117E-03-1.25385E-13 4.29377E-13
 -1       649 2.00018E+01 4.62275E-03 9.32904E-07-5.71965E-04 1.37507E-13 5.26932E-13
 -1       650 2.28033E+01-4.74003E+00 4.08824E-02-5.23031E+00 3.22700E-13 2.57986E-13
 -1       651 2.00241E+01 5.28172E-01 2.37299E-04-6.31914E-01 3.98290E-14 8.66251E-15
 -1       652 2.01214E+01 5.28592E-01 1.95756E-04-4.03680E-01 3.78586E-14 4.66021E-14
 -1       653 1.97092E+01 7.74408E-01 4.22421E-04-1.07655E+00 7.96701E-14 7.83996E-14
 -1       654 1.94137E+01 1.01112E+00 5.43251E-04-1.33283E+00 2.15198E-14 2.56864E-14
 -1       655 1.89481E+01 1.30475E+00 9.18341E-04-1.63148E+00 4.18657E-14-8.31023E-14
 -1       656 1.82780E+01 1.58914E+00 8.55260E-04-1.97115E+00 2.55221E-14-9.64755E-14
 -1       657 1.72595E+01 1.77862E+00 5.07049E-03-2.42086E+00 6.14133E-14-3.03256E-14
 -1       658 1.58791E+01 1.60563E+00 2.44764E-02-3.03803E+00-5.17691E-14-3.42556E-14
 -1       659 1.41191E+01 5.40588E-01 8.58419E-02-4.06516E+00 2.17023E-14-1.82205E-13
 -1       660 1.81851E+01 1.68893E+00 1.83923E-03 1.99043E+00-1.03925E-13-6.03246E-14
 -1       661 1.71718E+01 1.80113E+00 5.22147E-03 2.50288E+00-1.36488E-13 7.81726E-15
 -1       662 1.94121E+01 1.09529E+00 6.52866E-04 1.23485E+00 6.57301E-14-9.56226E-15
 -1       663 1.97091E+01 8.24332E-01 5.17786E-04 9.56635E-01 5.49789E-14-1.42755E-13
 -1       664 1.98821E+01 6.07740E-01 3.87863E-04 7.32051E-01-1.75698E-13-1.93532E-13
 -1       665 1.99765E+01 4.43156E-01 3.01582E-04 5.54013E-01-4.67572E-14-1.67893E-13
 -1       666 2.00216E+01 3.26495E-01 2.14449E-04 4.20908E-01 1.02626E-14-1.04893E-13
 -1       667 2.00418E+01 2.36084E-01 1.39565E-04 3.12169E-01 1.75447E-13-1.99303E-13
 -1       668 2.00466E+01 1.70634E-01 9.84019E-05 2.29228E-01-3.35179E-14-9.58583E-14
 -1       669 2.00437E+01 1.23287E-01 6.83077E-05 1.66400E-01 6.09414E-14-1.75868E-13
 -1       670 2.00375E+01 8.89999E-02 4.72869E-05 1.19149E-01 2.07193E-15-8.08443E-14
 -1       671 2.00303E+01 6.41070E-02 3.25601E-05 8.38609E-02-1.89979E-14-1.09541E-13
 -1       672 2.00236E+01 4.59841E-02 2.39196E-05 5.77244E-02-1.28412E-13-1.21446E-13
 -1       673 2.00180E+01 3.33318E-02 1.52597E-05 3.93256E-02-2.21709E-13-1.31433E-13
 -1       674 2.00131E+01 2.35081E-02 1.14465E-05 2.51272E-02-6.08154E-14-2.34153E-13
 -1       675 2.00093E+01 1.63163E-02 7.33509E-06 1.49593E-02-1.07514E-13-1.95425E-13
 -1       676 2.00064E+01 1.10018E-02 3.48306E-06 7.82209E-03-1.03796E-13 4.97431E-15
 -1       677 2.00042E+01 7.02311E-03 1.72959E-06 2.98624E-03 2.20369E-13 1.49357E-13
 -1       678 2.00025E+01 3.93676E-03 2.13108E-06-7.26002E-05 6.59724E-13 5.85293E-14
 -1       679 2.00017E+01 2.27172E-03-6.41308E-06-1.26567E-03 2.79063E-13-1.36468E-13
 -1       680 2.00000E+01 9.55329E-03 7.48289E-07 7.83868E-04-5.09106E-14-3.69849E-13
 -1       681 7.86350E+00 9.16672E-01 1.63844E-01-1.45516E+00-2.87543E-13 9.12534E-14
 -1       682 2.00006E+01 8.72480E-03 5.70841E-07 1.15007E-03 7.91106E-14-3.60948E-13
 -1       683 2.00000E+01 9.00571E-03 1.58877E-07-3.32967E-04 1.72639E-14-3.05021E-13
 -1       684 2.00005E+01 7.71680E-03-6.88714E-07-5.96449E-04 2.14744E-13-3.97693E-14
 -1       685 2.00011E+01 5.99069E-03-1.76234E-06-4.36811E-04 2.57941E-14 5.26936E-13
 -1       686 1.04225E+01 7.39133E-01 1.44394E-01 2.98990E+00-4.17831E-13-2.01207E-13
 -1       687 1.57599E+01 1.51068E+00 3.31391E-02 3.28086E+00-1.84554E-13 9.92262E-16
 -1       688 9.92724E+00-5.68518E-01 1.61577E-01 5.05849E+00 1.86354E-13-2.88713E-13
 -1       689 2.02082E+01 6.29403E-01 4.72802E-04-1.37530E-01 8.51208E-15 7.78646E-14
 -1       690 1.99998E+01 9.64570E-03 7.99341E-07 2.05775E-04-9.12381E-14-2.98086E-13
 -1       691 2.74073E+01 6.75632E+00-1.47896E-01 7.69135E-01-8.63198E-14-8.31236E-14
 -1       692 1.89294E+01 1.40419E+00 8.99605E-04 1.57452E+00 1.52212E-15-1.57065E-13
 -1       693 1.59903E+01-2.50485E+00 1.28941E-01-5.77576E+00-2.43347E-14-2.57024E-13
 -1       694 1.52751E+01-4.21064E-01 1.26607E-01 4.85310E+00-3.00898E-13-3.38857E-13
 -1       695 1.57451E+01-3.01807E+00 9.41468E-02-6.95419E+00 1.02612E-13 1.08490E-13
 -1       696 2.74603E+01-3.78164E+00-1.89110E-02-1.77009E+00 3.29765E-13 3.33660E-13
 -1       697 1.98973E+01 6.11785E-01 3.12009E-04-8.48750E-01 7.90697E-14 4.23640E-14
 -1       698 2.03399E+01 1.16127E+00-4.18105E-04-6.37367E-01 2.03438E-14-1.11796E-13
 -1       699 1.54348E+01-3.04743E+00 1.12997E-01 6.92843E+00 1.41574E-13 1.64209E-13
 -1       700 1.99383E+01 2.45984E+00-1.25695E-03 5.52531E-01 1.38508E-13 4.25090E-14
 -1       701 2.00012E+01 2.74166E-03-3.68508E-06 7.79950E-04 1.85659E-13 8.03427E-13
 -1       702 1.99619E+01 2.41088E+00-1.59233E-03-5.29866E-01 9.26766E-14-3.44835E-14
 -1       703 1.10732E+01 3.17158E-01 1.55791E-01-3.63255E+00 3.80286E-14-1.63307E-13
 -1       704 2.89725E+01-1.58582E+00-7.17660E-02-3.30899E-01-2.01689E-13 3.49509E-13
 -1       705 2.01732E+01-4.63369E+00 6.25058E-02 6.50776E+00-4.35971E-14 3.67985E-13
 -1       706 2.86907E+01 2.72935E+00-1.20766E-01-2.06133E+00-3.66596E-13 2.04725E-13
 -1       707 2.82260E+01 3.82226E+00-1.27469E-01 2.12085E+00 3.59678E-14 8.81552E-14
 -1       708 9.92885E+00-6.96271E-01 1.46657E-01-5.32889E+00-3.68906E-14-6.87367E-14
 -1       709 2.74365E+01 5.79916E+00-1.51709E-01-1.55255E+00-2.70860E-13-3.08850E-14
 -1       710 2.03077E+01 1.66581E+00 6.39659E-04-9.79725E-01 1.72276E-14-1.36317E-13
 -1       711 1.98099E+01 2.68324E+00-1.45071E-03-8.43031E-02 1.08117E-13 1.76619E-15
 -1       712 2.03145E+01 9.47089E-01 6.14628E-04 3.86495E-01 5.84590E-14 8.76524E-14
 -1       713 2.00020E+01 5.47392E-03 3.01885E-06 5.25877E-04 3.96266E-13-4.97154E-13
 -1       714 1.05176E+01 1.44296E+00 1.17369E-01-1.54982E+00 4.95931E-14-1.95621E-13
 -1       715 2.01006E+01 2.13537E+00-6.21029E-04-7.31625E-01 5.32233E-14-7.09942E-14
 -1       716 1.98647E+01 2.58885E+00-1.53113E-03-3.08314E-01 1.04077E-13-1.74080E-15
 -1       717 2.00013E+01 7.29799E-03-9.57922E-08 1.09803E-03 5.33195E-13-1.93256E-13
 -1       718 2.00015E+01 5.50285E-03-1.77261E-06-5.75052E-04 1.40675E-13 5.83027E-13
 -1       719 2.00021E+01 3.76537E-03 2.98866E-06-3.19278E-04 2.61409E-13 1.64314E-13
 -1       720 2.36277E+01-4.76132E+00 2.66032E-02 4.47294E+00-9.04884E-14 4.21108E-13
 -1       721 2.02650E+01 7.43970E-01-4.81295E-04 1.03517E-01 3.81858E-14 8.30383E-14
 -1       722 2.02918E+01 1.29557E+00 4.78949E-04 4.86142E-01 8.97954E-14 7.05415E-14
 -1       723 2.68116E+01 9.50361E-01-6.43805E-02 2.03076E+00 2.18913E-13-1.25020E-13
 -1       724 2.02977E+01 5.05378E-01 6.38351E-06 1.28279E-01 1.45295E-14-5.31279E-14
 -1       725 2.02911E+01 2.78174E-01-2.42371E-06 2.97339E-01 8.49192E-15-7.95381E-14
 -1       726 2.03068E+01 9.07200E-02-1.18373E-05 4.08890E-01 2.28626E-14-7.24519E-14
 -1       727 2.03604E+01-8.65139E-02-2.36655E-05 4.68882E-01 5.46477E-14-2.84939E-14
 -1       728 2.04661E+01-2.74897E-01-4.73476E-05 4.76213E-01 4.37743E-14-1.74821E-14
 -1       729 2.06359E+01-4.85065E-01-7.74467E-05 4.21734E-01 9.15052E-15 3.91696E-14
 -1       730 2.08758E+01-7.11010E-01-1.04706E-04 2.89155E-01-3.23623E-14 6.44448E-14
 -1       731 2.11782E+01-9.21409E-01-8.99519E-05 5.93243E-02-1.06395E-13 1.82191E-13
 -1       732 2.15117E+01-1.05089E+00 7.49645E-05-2.78625E-01-4.25588E-14 1.70200E-13
 -1       733 2.18138E+01-1.00215E+00-9.71663E-07-7.06393E-01-3.48327E-14 1.08784E-13
 -1       734 2.19959E+01-6.68031E-01-6.79857E-04-1.14949E+00-6.03730E-14 8.06440E-15
 -1       735 2.19823E+01 1.83637E-03-4.25194E-05-1.45302E+00 8.61610E-15 5.10037E-14
 -1       736 2.17726E+01 9.07614E-01-3.11312E-04-1.42667E+00-6.07604E-14 4.19937E-15
 -1       737 2.14887E+01 1.75499E+00-2.26754E-03-9.43275E-01-1.65852E-13 2.04057E-13
 -1       738 2.13379E+01 2.16889E+00 1.05108E-03-9.82915E-02-3.41703E-14 2.35772E-13
 -1       739 2.14310E+01 1.92655E+00-6.19059E-04 7.96201E-01-3.77369E-14 1.71190E-13
 -1       740 2.16877E+01 1.17639E+00-1.86822E-03 1.39968E+00-7.00131E-14 9.74657E-14
 -1       741 2.19331E+01 2.59139E-01 2.75933E-04 1.54675E+00 4.56239E-14 1.01624E-13
 -1       742 2.19924E+01-4.71053E-01-6.41260E-04 1.32755E+00-2.89362E-15 1.66531E-13
 -1       743 2.18510E+01-8.83101E-01-4.27989E-04 9.20876E-01 1.93429E-13 1.93888E-13
 -1       744 2.15625E+01-9.88588E-01-2.93744E-04 4.98264E-01 1.63712E-13 2.27203E-13
 -1       745 2.12191E+01-8.91013E-01-2.21191E-04 1.53761E-01 5.44874E-14 1.02322E-13
 -1       746 2.08902E+01-6.96092E-01-1.27032E-04-8.53154E-02 1.00983E-13 1.72636E-13
 -1       747 2.06139E+01-4.80933E-01-7.61369E-05-2.27447E-01 6.86481E-14 3.09026E-13
 -1       748 2.04020E+01-2.89537E-01-4.13562E-05-2.95162E-01 6.39769E-14 3.85705E-13
 -1       749 2.02506E+01-1.40026E-01-1.90342E-05-3.12086E-01-1.23398E-14 2.13740E-13
 -1       750 2.01487E+01-3.46887E-02-5.13342E-06-2.97670E-01 1.28991E-13-3.36801E-14
 -1       751 2.00838E+01 3.21648E-02 3.16884E-06-2.66217E-01 8.27742E-14 4.70386E-14
 -1       752 2.00448E+01 6.91426E-02 6.78039E-06-2.27440E-01 4.34098E-14 1.38216E-13
 -1       753 2.00227E+01 8.49009E-02 7.66586E-06-1.87490E-01-6.63199E-14 3.95995E-14
 -1       754 2.00112E+01 8.68122E-02 7.34364E-06-1.49960E-01-2.44823E-13 2.63093E-13
 -1       755 2.00057E+01 8.05638E-02 6.47738E-06-1.16704E-01-3.17307E-13 3.02490E-15
 -1       756 2.00036E+01 7.02110E-02 5.37457E-06-8.84346E-02-5.19733E-14-9.62032E-14
 -1       757 2.00030E+01 5.84331E-02 4.26439E-06-6.51737E-02 2.90566E-13-3.23764E-14
 -1       758 2.00030E+01 4.68661E-02 3.20751E-06-4.65525E-02 3.74243E-13 2.01573E-13
 -1       759 2.00031E+01 3.63957E-02 2.35716E-06-3.20109E-02 3.57737E-13 4.78181E-13
 -1       760 2.00031E+01 2.74035E-02 1.46002E-06-2.09277E-02 5.78032E-15 5.23286E-13
 -1       761 2.00029E+01 1.99441E-02 3.99512E-07-1.26941E-02 1.44648E-13 1.71887E-13
 -1       762 2.00025E+01 1.38685E-02 2.29980E-06-6.79007E-03-2.32140E-13 3.49973E-13
 -1       763 2.00021E+01 9.23733E-03-6.71606E-07-3.10088E-03 1.76209E-13 7.82027E-13
 -1       764 2.02916E+01 1.23864E+00-4.37876E-04-4.19547E-01 3.59196E-14-7.15956E-14
 -1       765 1.85698E+01 1.32376E+00 1.54718E-04-9.59320E-01 9.14892E-14 4.79660E-14
 -1       766 1.91509E+01 1.04732E+00 1.24618E-05-8.58501E-01 6.63494E-14 6.70978E-14
 -1       767 1.65472E+01 1.92698E+00 1.79723E-03-1.07226E+00 2.31521E-14-4.47515E-15
 -1       768 1.47191E+01 2.11252E+00 1.64294E-02-1.10668E+00 6.10803E-14-2.13549E-14
 -1       769 1.74815E+01 1.78197E+00 1.51440E-03 9.56810E-01-3.12140E-14 4.67146E-14
 -1       770 1.62434E+01 2.05427E+00 4.01009E-03 1.03761E+00-1.07360E-13-1.68843E-15
 -1       771 1.93658E+01 8.60470E-01 1.50498E-05 6.23312E-01-4.45846E-14-7.55589E-14
 -1       772 1.89745E+01 1.12870E+00-1.04093E-04 7.43681E-01 1.00428E-13-6.02351E-14
 -1       773 1.97729E+01 4.84226E-01 5.66057E-06 4.06561E-01 3.95158E-15-1.70450E-13
 -1       774 1.98723E+01 3.58389E-01 1.66780E-05 3.17314E-01 1.14949E-14 1.00263E-13
 -1       775 1.99325E+01 2.64350E-01 1.69548E-05 2.43387E-01 6.07389E-14 3.40311E-13
 -1       776 1.99680E+01 1.94511E-01 1.17013E-05 1.83550E-01 7.56884E-14 2.91945E-13
 -1       777 1.99882E+01 1.42768E-01 7.88705E-06 1.36084E-01 9.22079E-14 4.45889E-14
 -1       778 1.99991E+01 1.04448E-01 4.92831E-06 9.90354E-02-7.20111E-14 9.93430E-14
 -1       779 2.00045E+01 7.60602E-02 4.86754E-06 7.05686E-02 5.74790E-14-6.55974E-14
 -1       780 2.00066E+01 5.59206E-02 2.67221E-06 4.98856E-02-1.81302E-13-3.19494E-14
 -1       781 2.00071E+01 4.00686E-02 1.80200E-06 3.34650E-02-7.18095E-14-2.51680E-13
 -1       782 2.00066E+01 2.83248E-02 1.50693E-06 2.13911E-02-1.43856E-13-2.43289E-13
 -1       783 2.00056E+01 1.96226E-02 4.13300E-06 1.26981E-02-1.52595E-13-3.19246E-13
 -1       784 2.00045E+01 1.30586E-02 4.01770E-06 6.57212E-03-8.10797E-14-2.75581E-13
 -1       785 2.00033E+01 8.02322E-03-1.04886E-07 2.40777E-03 3.80106E-13-2.56509E-14
 -1       786 1.99996E+01 1.54144E-02 2.61386E-07 1.90386E-03-1.64975E-13-5.59532E-13
 -1       787 2.00008E+01 1.15439E-02 3.39996E-07-2.51275E-03 1.02658E-13 3.47661E-14
 -1       788 1.99997E+01 1.39771E-02-2.54962E-07-1.98597E-03 1.54424E-13-2.84404E-13
 -1       789 1.43645E+01 2.11927E+00 2.23364E-02 1.13449E+00-2.41646E-13-4.94379E-14
 -1       790 1.02884E+01 1.24914E+00 1.02715E-01 1.99017E+00 1.58855E-13-2.72872E-13
 -1       791 2.02018E+01 1.92784E+00 8.03253E-06-8.71540E-01 3.25442E-14-1.14354E-13
 -1       792 2.01406E+01 7.88221E-01 3.77262E-05-1.91597E-01 4.81996E-14-4.19668E-14
 -1       793 1.96149E+01 6.48558E-01 7.35189E-05 5.09198E-01-8.33322E-14-2.04496E-13
 -1       794 1.77431E+01 1.63444E+00 5.03602E-05-1.02855E+00 4.64134E-14 6.27962E-14
 -1       795 2.00092E+01 7.01984E-01 2.22546E-06-4.07519E-01 6.26401E-14-3.21340E-14
 -1       796 2.03067E+01 8.11618E-01 1.52776E-04-1.08112E-01 1.04910E-14-6.12291E-14
 -1       797 2.00020E+01 1.12352E-02 1.04972E-05 2.93457E-03 2.66661E-13-5.90689E-13
 -1       798 1.83770E+01 1.44478E+00-2.62579E-04 8.58831E-01-9.61552E-15 4.51239E-14
 -1       799 2.55444E+01 4.49495E+00-7.00833E-02 1.70707E+00-1.91305E-14-1.73511E-13
 -1       800 1.98192E+01 7.25414E-01 1.97696E-05-5.84060E-01 4.98896E-14-9.66776E-15
 -1       801 1.42485E+01-8.05527E-01 6.52569E-02-5.29013E+00-1.16462E-13-6.24570E-14
 -1       802 2.48632E+01-3.88230E+00-1.39455E-02-2.31767E+00 5.08081E-13 1.05538E-13
 -1       803 1.95468E+01 8.43538E-01 2.65527E-05-7.32566E-01 6.11651E-14 3.08563E-14
 -1       804 2.00007E+01 1.37058E-02-2.98767E-07 2.74600E-03 1.35407E-13-6.86348E-13
 -1       805 2.51830E+01 5.61705E+00-8.50391E-02-3.61098E-01-1.13475E-13-1.34411E-13
 -1       806 2.70217E+01-1.99929E+00-3.93438E-02 5.08533E-01 2.87117E-13-4.66484E-14
 -1       807 1.14774E+01 1.95908E+00 7.57649E-02 2.72179E-01-4.17500E-13-1.22229E-13
 -1       808 2.59834E+01 3.26997E+00-6.56216E-02-2.05694E+00-1.36984E-13 7.08643E-14
 -1       809 1.13051E+01 1.00486E+00 8.26025E-02-3.11382E+00-2.27954E-13-1.45686E-13
 -1       810 1.44013E+01-9.26709E-01 6.63030E-02 5.20787E+00 2.83129E-13-5.41928E-15
 -1       811 2.66495E+01-3.49883E+00-2.20355E-02 1.01050E+00-1.47665E-13 2.96886E-13
 -1       812 1.99688E+01 2.11535E+00-2.80229E-04 1.82680E-01 1.13323E-13 2.10905E-14
 -1       813 1.93705E+01-3.23362E+00 4.16324E-02 5.57862E+00 1.70034E-13 3.09830E-13
 -1       814 1.96189E+01-2.93445E+00 4.26741E-02-5.21303E+00 2.19809E-13 5.49109E-14
 -1       815 2.71403E+01-5.96009E-02-4.92923E-02-1.71490E+00-2.28734E-13 2.60366E-13
 -1       816 1.29642E+01 1.56026E+00 6.59260E-02-2.46717E+00 8.24232E-14-1.20275E-13
 -1       817 1.99989E+01 1.60574E-02-9.12478E-07 5.76856E-04-1.36563E-13-2.77469E-13
 -1       818 2.01673E+01 1.70254E+00-7.48946E-04-3.91522E-01 4.24974E-14-2.58113E-15
 -1       819 2.42357E+01 3.94068E+00-3.41932E-02-1.33431E+00-2.68353E-14-3.89766E-14
 -1       820 1.99990E+01 1.55477E-02 5.08663E-07-8.23617E-04 1.52608E-14 1.24924E-13
 -1       821 1.33211E+01 8.50540E-01 4.75122E-02 3.15298E+00 2.46362E-13-6.59143E-14
 -1       822 2.00209E+01 2.00372E+00-8.03472E-04 3.06367E-01 1.08492E-13 1.68070E-14
 -1       823 2.00709E+01 1.92868E+00-4.16516E-04-2.56168E-01 7.58075E-14-1.94469E-14
 -1       824 2.23617E+01-3.20261E+00 8.01195E-03-3.28962E+00 2.79069E-13 1.39158E-13
 -1       825 2.01805E+01 1.56350E+00 1.37499E-04 3.80340E-01 9.86970E-14 5.41698E-14
 -1       826 1.99616E+01 2.13741E+00-3.24900E-04 4.22771E-02 8.67029E-14 2.34587E-14
 -1       827 2.02185E+01 8.97895E-01 3.25350E-04-6.65089E-04 3.95526E-14 3.02533E-14
 -1       828 2.00015E+01 1.05873E-02 2.01471E-05-2.91434E-03 1.23014E-13 5.00477E-13
 -1       829 1.32810E+01 1.76868E+00 2.84140E-02-1.44016E+00-2.28598E-13-2.49004E-13
 -1       830 2.03024E+01 2.88428E-01 7.31990E-06 3.72120E-01 3.12936E-14 1.03655E-14
 -1       831 2.03301E+01 7.17388E-02 1.04932E-05 4.89400E-01 5.26586E-14 4.70445E-14
 -1       832 2.04049E+01-1.47711E-01-3.34974E-06 5.72566E-01 4.67022E-14 8.00922E-15
 -1       833 2.05521E+01-3.94185E-01-2.50682E-05 6.15654E-01 3.87698E-14-3.42778E-14
 -1       834 2.07959E+01-6.79528E-01-3.01498E-05 6.01400E-01-5.66164E-15 1.54311E-14
 -1       835 2.11528E+01-9.92788E-01-4.64447E-05 4.99735E-01-4.05972E-14-1.65251E-14
 -1       836 2.16207E+01-1.28552E+00 4.79861E-05 2.70183E-01-2.79712E-14 4.18316E-14
 -1       837 2.21561E+01-1.45066E+00 7.98605E-04-1.21281E-01-3.03952E-14 1.03709E-13
 -1       838 2.26603E+01-1.33151E+00-5.93893E-04-6.69607E-01-6.15434E-14 1.42205E-13
 -1       839 2.29854E+01-7.34523E-01-1.94265E-03-1.27680E+00 2.29955E-14 1.77200E-13
 -1       840 2.30009E+01 3.70829E-01 1.01323E-03-1.67349E+00 1.56414E-14 1.86737E-13
 -1       841 2.26765E+01 1.79505E+00-5.72136E-03-1.52403E+00-3.06179E-14 1.82235E-13
 -1       842 2.23650E+01 2.88068E+00-6.67326E-03-7.36477E-01-6.64835E-14 3.39502E-13
 -1       843 2.23553E+01 2.97441E+00-8.51275E-03 4.73134E-01-8.88144E-14 2.88993E-13
 -1       844 2.25769E+01 2.16295E+00-7.66645E-03 1.42878E+00-6.97701E-14 2.32724E-13
 -1       845 2.28760E+01 7.97456E-01-8.15176E-03 1.75461E+00-8.91212E-14 2.77040E-13
 -1       846 2.29913E+01-4.37593E-01 5.02904E-03 1.48122E+00 3.15865E-14 3.05373E-13
 -1       847 2.27208E+01-1.16348E+00-1.61977E-03 9.06381E-01 1.91632E-13 3.29063E-13
 -1       848 2.22256E+01-1.37367E+00-8.13068E-04 3.45375E-01 1.20442E-13 2.78002E-13
 -1       849 2.16668E+01-1.25617E+00-2.17217E-04-7.27466E-02-9.40564E-15 2.01125E-13
 -1       850 2.11519E+01-9.84400E-01 6.73811E-05-3.26311E-01 2.02446E-13 1.65162E-13
 -1       851 2.07359E+01-6.79705E-01 9.30683E-05-4.44760E-01 6.07093E-14 2.22908E-13
 -1       852 2.04306E+01-4.09351E-01 9.42529E-05-4.72398E-01 6.27911E-14 6.24296E-14
 -1       853 2.02232E+01-1.98962E-01 7.82495E-05-4.47392E-01-4.30204E-14 2.67503E-14
 -1       854 2.00925E+01-5.08690E-02 6.27369E-05-3.96274E-01 2.76619E-14 2.84554E-13
 -1       855 2.00170E+01 4.33809E-02 5.07283E-05-3.35772E-01-6.14889E-14 1.00905E-13
 -1       856 1.99784E+01 9.60073E-02 3.83196E-05-2.75507E-01 2.32004E-13-9.51135E-14
 -1       857 1.99630E+01 1.19059E-01 2.67203E-05-2.20396E-01-2.73544E-14-4.06027E-14
 -1       858 1.99608E+01 1.22704E-01 1.80335E-05-1.72518E-01-8.29582E-14 6.81615E-14
 -1       859 1.99654E+01 1.14748E-01 1.12849E-05-1.32367E-01-4.47107E-13-8.60846E-15
 -1       860 1.99726E+01 1.00827E-01 7.18407E-06-9.95602E-02-1.45631E-13 1.35248E-13
 -1       861 1.99801E+01 8.46602E-02 4.34414E-06-7.33034E-02 4.52261E-15 1.57965E-13
 -1       862 1.99868E+01 6.85664E-02 2.34230E-06-5.26794E-02 3.96888E-13 6.95429E-14
 -1       863 1.99921E+01 5.38420E-02 1.20836E-06-3.67573E-02 4.68030E-13-8.73851E-15
 -1       864 1.99960E+01 4.10712E-02 8.67884E-07-2.46830E-02 3.27539E-13-3.99388E-14
 -1       865 1.99986E+01 3.04155E-02 5.20785E-08-1.57175E-02-2.16467E-13 2.53063E-13
 -1       866 2.00002E+01 2.16692E-02-1.15787E-05-9.19357E-03 2.34941E-13 1.75374E-14
 -1       867 2.00297E+01 8.94398E-01 8.51044E-06-1.83512E-01 5.32465E-14-2.49488E-14
 -1       868 1.53552E+01 1.82731E+00 7.19960E-04 3.91080E-01 8.57931E-14-2.53846E-14
 -1       869 2.00021E+01 1.78722E-02-3.76152E-06 6.63016E-03 8.44165E-14-5.95311E-13
 -1       870 2.36312E+01 4.25049E+00-3.53227E-02 6.57735E-01-1.27112E-13-3.97564E-14
 -1       871 1.64368E+01 1.81715E+00-6.32239E-05-1.86774E-01-1.52302E-13-3.36320E-13
 -1       872 1.97951E+01 3.59116E-01-4.47717E-06 2.11022E-01-1.67344E-13 1.43572E-14
 -1       873 1.96794E+01 4.74409E-01-7.27741E-06 2.54353E-01-1.64009E-13-1.18438E-13
 -1       874 1.99213E+01 2.02505E-01-4.64649E-06 1.31984E-01 1.66387E-13 1.03301E-13
 -1       875 1.99536E+01 1.50920E-01-1.68575E-06 1.00329E-01 1.86897E-14 1.74685E-13
 -1       876 1.99743E+01 1.11790E-01 3.33988E-07 7.43775E-02-1.19459E-14-9.51794E-14
 -1       877 1.99866E+01 8.34745E-02 5.67822E-07 5.45792E-02-1.65866E-13-2.67710E-13
 -1       878 1.99946E+01 6.07934E-02-6.59554E-07 3.82018E-02-2.98804E-15-2.58973E-13
 -1       879 1.99992E+01 4.37235E-02 1.86099E-06 2.57273E-02 3.38780E-14-2.93291E-13
 -1       880 2.00016E+01 3.09975E-02 3.05871E-06 1.65006E-02-2.79693E-13-2.76600E-13
 -1       881 2.00020E+01 2.38945E-02 2.93811E-06 1.08751E-02-3.31095E-15-4.20817E-13
 -1       882 1.99978E+01 2.07305E+00-6.10634E-04-1.07381E-01 6.22329E-14 1.94167E-15
 -1       883 1.24850E+01 1.97367E+00 5.04861E-02 1.03168E-01 1.25570E-13-2.00760E-13
 -1       884 1.45663E+01 2.06284E+00 1.25589E-02-1.61785E-01-1.73677E-13-2.66053E-13
 -1       885 1.91861E+01 9.86478E-01-6.52650E-05-4.23300E-01 3.84155E-14 3.29080E-14
 -1       886 2.02908E+01 8.43954E-01-1.00483E-05 2.27060E-02 2.09221E-14-3.58518E-14
 -1       887 1.74040E+01-1.01339E+00 2.56211E-02-4.32936E+00 6.50931E-14-2.04211E-13
 -1       888 2.45575E+01 2.01854E+00-2.88238E-02 2.02892E+00 8.98327E-14 1.51011E-13
 -1       889 1.99995E+01 1.89455E-02 1.41941E-05-4.85942E-03 1.88795E-13-8.30835E-14
 -1       890 2.56327E+01-1.87683E+00-2.33404E-02-7.24204E-01-1.24941E-13 2.64100E-13
 -1       891 1.95724E+01 8.61924E-01-5.71720E-05-3.99011E-01 7.04598E-15 9.28572E-16
 -1       892 1.98714E+01 2.70372E-01-3.06027E-06 1.69250E-01-2.44248E-14 1.81991E-13
 -1       893 2.50717E+01 9.87617E-01-3.39368E-02-2.03427E+00-1.12858E-13 1.51990E-13
 -1       894 1.98450E+01 8.25379E-01-3.54385E-05-3.17073E-01 3.76226E-14-1.78623E-14
 -1       895 1.88803E+01 1.02820E+00-1.42982E-04 3.12665E-01 2.17965E-13-7.28702E-14
 -1       896 2.40812E+01-3.68278E+00 1.07653E-02 2.50017E+00-1.54629E-14 3.35480E-13
 -1       897 1.99989E+01 2.18984E-02-8.43327E-06 4.28822E-03 7.69241E-14-6.44363E-13
 -1       898 2.54942E+01-6.91648E-01-2.01355E-02 1.49177E+00 1.75550E-13 1.18725E-13
 -1       899 2.02534E+01 1.22223E+00 2.25482E-04-1.75918E-01 1.84512E-14-7.20270E-15
 -1       900 1.86432E+01 1.18124E+00-2.57712E-05-3.74121E-01 7.15958E-14 1.02412E-13
 -1       901 1.44290E+01 6.68989E-01 2.98887E-02-3.40156E+00-1.57187E-13-2.66027E-13
 -1       902 1.77846E+01-1.31342E+00 1.19733E-02 4.33587E+00 1.47642E-13 1.62017E-13
 -1       903 2.50171E+01-2.76961E+00-1.59879E-02-4.29981E-01 3.44043E-13 1.56776E-13
 -1       904 2.02973E+01 5.33735E-01-2.70524E-05 2.18618E-01 1.79517E-14-3.20209E-16
 -1       905 2.01245E+01 1.00668E+00 2.07150E-04-5.42880E-02 8.63586E-14-1.55250E-14
 -1       906 1.92523E+01 8.05556E-01-3.59009E-05 3.18078E-01-5.97925E-14-1.65126E-13
 -1       907 2.00011E+01 1.55408E-02 3.93785E-07-5.66803E-03 1.35900E-13 1.71966E-13
 -1       908 1.68477E+01 1.67421E+00 1.96422E-03-3.68132E-02 8.12408E-14 7.52619E-14
 -1       909 1.79048E+01 1.41275E+00 1.41227E-05-2.31183E-01 5.59486E-14 8.20780E-14
 -1       910 2.33841E+01-2.88516E+00 3.62073E-03-1.66279E+00 1.74931E-13 3.57754E-13
 -1       911 1.75681E+01 1.55539E+00 2.66299E-04 9.23733E-02-1.26835E-13-4.84121E-14
 -1       912 2.01281E+01 1.42440E+00-4.42533E-04 1.69885E-01 9.30693E-14 3.13748E-14
 -1       913 1.95087E+01 6.20152E-01-3.09894E-05 2.93046E-01-1.43469E-13-3.93534E-13
 -1       914 1.99978E+01 2.18624E-02-2.05468E-05-3.20346E-03 2.80291E-14-1.39869E-13
 -1       915 1.99975E+01 2.34961E-02-2.85986E-06 1.99006E-03-8.44278E-15-5.59688E-13
 -1       916 1.63248E+01 1.83411E-01 1.75334E-02 3.26456E+00 1.59371E-13-7.40694E-14
 -1       917 1.41848E+01 1.56598E+00 2.12142E-02 1.54245E+00 1.68019E-13-6.29457E-14
 -1       918 2.00904E+01-1.93267E+00 2.34606E-03-3.54902E+00 8.19114E-14 1.29586E-13
 -1       919 1.83404E+01 1.28189E+00-8.93369E-04 2.51079E-01 2.24948E-14 3.37682E-14
 -1       920 2.43574E+01-2.77247E+00 1.40488E-03 6.17503E-01-4.24307E-14 3.46243E-13
 -1       921 2.00483E+01 1.67869E+00-1.62772E-06 1.00702E-01 6.25440E-14 3.83282E-14
 -1       922 2.00637E+01 1.62620E+00 1.92397E-04 1.56798E-01 9.54257E-14 2.68224E-15
 -1       923 2.01793E+01 1.44131E+00 1.37698E-03-1.06512E-01 3.97034E-14 1.18717E-14
 -1       924 2.18405E+01-2.78948E+00 4.22807E-04 3.11928E+00-1.82246E-14 2.97273E-13
 -1       925 1.99972E+01 2.35508E-02 3.00376E-05-7.52391E-04-9.58584E-14 2.05590E-13
 -1       926 2.02838E+01 5.88931E-02 4.57908E-05 5.91400E-01 6.02120E-14 3.01984E-15
 -1       927 2.03706E+01-1.94726E-01-1.11938E-05 7.21484E-01 2.84573E-14 3.24449E-14
 -1       928 2.05550E+01-4.98821E-01-5.20249E-05 8.32710E-01 2.23037E-14 4.67361E-14
 -1       929 2.08776E+01-8.69573E-01 7.30774E-06 8.97465E-01-1.16098E-14 7.62094E-14
 -1       930 2.13756E+01-1.29552E+00 1.28036E-04 8.65417E-01 2.11800E-14 1.30192E-13
 -1       931 2.20610E+01-1.70926E+00-1.23219E-03 6.51422E-01 1.84974E-14 1.86584E-13
 -1       932 2.28767E+01-1.94229E+00 9.33423E-06 1.92582E-01-6.84446E-14 2.35045E-13
 -1       933 2.36616E+01-1.70695E+00-4.92466E-03-5.33317E-01-7.97409E-15 2.33108E-13
 -1       934 2.37718E+01-1.48757E+00-5.08011E-03 8.12043E-01 1.63251E-13 4.76155E-13
 -1       935 2.30190E+01-1.85434E+00 4.70743E-03 2.94590E-02 1.86134E-13 3.98759E-13
 -1       936 2.21469E+01-1.69265E+00 2.36975E-03-4.94817E-01-5.72597E-14 1.93063E-13
 -1       937 2.13899E+01-1.30743E+00 1.33871E-03-7.44970E-01 3.50426E-14 1.43683E-13
 -1       938 2.08052E+01-8.80146E-01 2.79579E-04-8.00473E-01 1.99620E-13 1.59523E-14
 -1       939 2.04025E+01-5.14399E-01 6.51119E-05-7.46638E-01-3.62769E-14-3.56734E-14
 -1       940 2.01445E+01-2.37157E-01-1.17098E-04-6.44789E-01 5.73428E-14 1.03148E-13
 -1       941 1.99940E+01-4.62114E-02-1.53165E-04-5.30504E-01 1.04820E-13 2.23529E-13
 -1       942 1.99169E+01 7.28075E-02-1.23345E-04-4.22447E-01 1.96522E-15 1.04786E-13
 -1       943 1.98866E+01 1.37689E-01-9.25845E-05-3.28751E-01-2.21914E-14 1.47838E-13
 -1       944 1.98839E+01 1.64830E-01-6.87059E-05-2.51411E-01-1.11461E-14 2.01443E-14
 -1       945 1.98957E+01 1.67594E-01-4.50534E-05-1.89550E-01-1.98136E-13-1.60323E-13
 -1       946 1.99137E+01 1.55859E-01-3.26371E-05-1.41059E-01-2.94851E-13-5.62169E-14
 -1       947 1.99328E+01 1.36837E-01-2.25666E-05-1.03675E-01-2.08350E-13 1.13890E-13
 -1       948 1.99504E+01 1.15145E-01-1.51313E-05-7.50865E-02 6.99269E-14 3.41771E-13
 -1       949 1.99653E+01 9.36590E-02-9.01767E-06-5.34683E-02 1.99361E-13 4.42867E-13
 -1       950 1.99771E+01 7.40168E-02-4.66954E-06-3.72680E-02 3.30159E-13 2.87747E-13
 -1       951 1.99858E+01 5.69908E-02 2.58325E-06-2.52304E-02 2.28357E-13 6.51445E-14
 -1       952 1.99921E+01 4.26174E-02-5.98070E-06-1.64225E-02 2.43492E-13-5.93211E-14
 -1       953 1.99961E+01 3.12519E-02 3.32931E-05-1.00284E-02-8.33232E-14 5.28013E-14
 -1       954 1.89492E+01 9.71392E-01-4.12827E-05 4.53554E-02 3.32622E-14 4.28984E-14
 -1       955 1.99370E+01 1.48595E-01-3.55442E-06 6.46628E-02 7.07721E-14-2.39150E-14
 -1       956 1.99007E+01 1.96728E-01-9.92109E-06 8.22257E-02 1.21379E-13-4.94926E-14
 -1       957 1.99770E+01 8.36870E-02-2.55461E-06 3.65290E-02-1.58073E-13-7.84022E-14
 -1       958 1.99878E+01 6.12571E-02 1.71418E-06 2.57914E-02-1.48575E-15 1.75415E-13
 -1       959 1.99944E+01 4.42054E-02-3.93658E-06 1.74878E-02-1.62629E-13 1.75259E-13
 -1       960 1.93788E+01 8.88059E-01-9.72043E-05-8.79061E-02 6.99088E-15 2.79076E-14
 -1       961 1.52365E+01 1.50531E+00 1.32341E-02-1.68412E+00-1.38125E-14-3.81890E-13
 -1       962 1.96616E+01 4.32999E-01-9.80219E-07 1.24914E-01-3.63089E-13-3.40798E-13
 -1       963 2.00763E+01 1.64410E+00 1.60252E-04 2.94913E-02 2.02710E-14 2.47517E-14
 -1       964 2.42587E+01-1.17973E+00-2.13820E-03-1.15887E+00-5.76839E-15 2.52057E-13
 -1       965 1.99971E+01 2.96134E-02-2.95208E-06 7.01961E-03 4.85677E-13-4.11859E-13
 -1       966 1.67433E+01 3.22210E-01 8.56812E-03-2.96214E+00-2.64396E-14-4.68690E-13
 -1       967 2.02561E+01 5.40020E-01-7.71244E-06 3.01394E-01 3.44880E-14 1.05309E-14
 -1       968 2.02543E+01 8.37567E-01-4.33907E-04 1.31208E-01 1.35755E-14 4.70915E-14
 -1       969 2.02249E+01 1.11310E+00-7.31043E-04 1.82736E-02 2.53029E-14 6.01166E-14
 -1       970 1.99609E+01 1.12080E-01-4.02242E-06 4.94291E-02 9.09461E-14-1.42187E-13
 -1       971 2.01253E+01 1.56065E+00 1.09787E-03-4.09616E-02 3.83733E-14-1.73969E-14
 -1       972 2.02564E+01 2.92263E-01 2.03171E-05 4.51597E-01 2.95769E-14 2.61094E-14
 -1       973 2.00581E+01 1.09299E+00 2.26541E-05-9.92528E-03 8.07840E-14 3.85076E-14
 -1       974 1.96951E+01 8.66115E-01-3.57298E-05-1.28519E-01 2.80677E-14 5.26011E-14
 -1       975 1.83957E+01 1.08115E+00 7.32911E-05 2.97835E-01 8.52343E-14 5.79011E-14
 -1       976 1.65780E+01 1.29259E+00 3.07434E-03 1.22749E+00 1.25984E-13-4.89979E-14
 -1       977 2.16064E+01-2.25938E+00-1.64600E-03-2.45840E+00-7.52202E-14 3.96098E-13
 -1       978 1.99950E+01 3.18654E-02-1.96636E-06 3.35325E-03 3.10946E-13-1.10067E-12
 -1       979 1.95078E+01 5.50893E-01-1.17762E-05 1.18185E-01-3.06973E-13-4.96211E-13
 -1       980 1.98479E+01 2.58001E-01-1.95375E-05 1.00281E-01 1.21807E-13-2.10565E-13
 -1       981 1.99957E+01 3.66689E-02-3.04447E-06 1.14245E-02 2.78539E-13-2.10608E-14
 -1       982 2.00929E+01 1.29922E+00 3.21717E-04 1.03858E-01 5.69183E-14 6.47425E-14
 -1       983 2.33592E+01-2.36854E+00 4.52324E-03-6.82559E-01 1.30992E-13 3.11606E-13
 -1       984 1.97713E+01 3.35807E-01-1.72905E-05 1.16307E-01-1.43750E-13-2.34592E-13
 -1       985 1.86300E+01-7.76255E-01 1.18319E-02 3.19491E+00 1.27785E-13 1.36362E-13
 -1       986 2.00621E+01 1.31489E+00-4.34584E-04 9.61388E-02 5.43649E-14 6.30749E-14
 -1       987 1.87448E+01-6.52004E-01 7.00004E-05-2.95634E+00-8.91086E-14 1.76582E-13
 -1       988 1.85697E+01 1.03012E+00 5.84864E-04-1.66821E-01 1.53611E-13-5.06350E-13
 -1       989 2.28589E+01-2.59442E+00 6.90119E-04 1.56693E+00-1.44856E-14 2.81693E-13
 -1       990 1.99171E+01 9.29564E-01-1.34714E-04-9.73715E-02 4.76495E-14 6.18103E-14
 -1       991 1.68702E+01 1.19932E+00 5.88760E-03-1.43517E+00-1.26151E-13-3.69207E-13
 -1       992 1.89851E+01 8.56921E-01 1.89029E-05-2.12169E-03 2.17014E-13-3.41036E-13
 -1       993 1.76691E+01 1.19941E+00 2.78799E-03-8.16904E-01-2.09819E-13-5.11852E-13
 -1       994 2.01436E+01 7.72183E-02 4.36670E-06 7.10958E-01 6.08636E-14 1.69234E-14
 -1       995 2.02156E+01-1.94672E-01 1.53995E-04 9.18432E-01 5.99892E-14 5.19837E-14
 -1       996 2.04130E+01-5.53813E-01-2.01403E-04 1.13866E+00 2.43570E-14 1.41706E-13
 -1       997 2.07995E+01-1.02208E+00 4.87354E-04 1.33827E+00 4.07974E-14 1.85994E-13
 -1       998 2.14410E+01-1.59155E+00 2.66771E-03 1.44766E+00 6.83067E-14 2.56510E-13
 -1       999 2.21981E+01-2.00344E+00 3.23034E-03-1.16870E+00-1.94267E-13 2.94669E-13
 -1      1000 2.12523E+01-1.42270E+00-2.51757E-03-1.27096E+00 2.26221E-14 1.41201E-13
 -1      1001 2.05991E+01-8.75186E-01 4.89781E-04-1.17380E+00 1.10803E-13-1.56734E-13
 -1      1002 2.01899E+01-4.55485E-01-3.87451E-05-9.96252E-01 1.56490E-13-1.04390E-13
 -1      1003 1.99514E+01-1.54539E-01-5.84902E-05-7.97452E-01 4.97768E-14-2.38990E-14
 -1      1004 1.98325E+01 3.84885E-02 4.36487E-07-6.15163E-01 3.91429E-14-6.01155E-14
 -1      1005 1.97881E+01 1.49487E-01 6.08195E-05-4.62257E-01 1.53990E-14-1.16666E-13
 -1      1006 1.97868E+01 2.02959E-01 5.31231E-05-3.41032E-01-7.48853E-14-8.30099E-15
 -1      1007 1.98082E+01 2.18324E-01 3.62503E-05-2.48184E-01-6.40690E-14-3.10499E-13
 -1      1008 1.98394E+01 2.10259E-01 2.94652E-05-1.78774E-01-2.87284E-13-4.54319E-13
 -1      1009 1.98723E+01 1.89507E-01 1.84146E-05-1.27551E-01-2.07447E-14-2.03055E-13
 -1      1010 1.99029E+01 1.62945E-01 4.12099E-06-9.04064E-02-1.84153E-13 2.07928E-13
 -1      1011 1.99291E+01 1.35295E-01-2.30485E-06-6.33329E-02 5.56223E-14 1.98604E-13
 -1      1012 1.99504E+01 1.09024E-01-2.54768E-06-4.38692E-02 1.97920E-13 8.01843E-14
 -1      1013 1.99668E+01 8.56453E-02-4.31661E-06-2.98954E-02 2.73032E-13 2.46846E-14
 -1      1014 1.99790E+01 6.56747E-02-2.03692E-06-1.98841E-02 1.13003E-13-8.30383E-14
 -1      1015 1.99876E+01 4.91358E-02-1.66091E-05-1.26357E-02 3.09688E-13-1.73728E-13
 -1      1016 1.99933E+01 3.58112E-02-5.69583E-05-7.68973E-03 2.17884E-14 4.59492E-14
 -1      1017 1.76211E+01 1.21816E+00 2.70866E-03 6.66270E-01 1.05237E-13 3.64952E-14
 -1      1018 1.99854E+01 5.78927E-02-3.57984E-05 1.43933E-02-1.00755E-13-2.12532E-13
 -1      1019 1.99741E+01 7.90795E-02 1.56012E-06 2.01569E-02-1.60323E-13 8.08479E-14
 -1      1020 1.93236E+01 7.68223E-01-1.63539E-04 3.00406E-01 1.00830E-14 1.13071E-13
 -1      1021 2.01895E+01 8.14879E-01-1.94196E-04 2.16901E-01 1.71000E-14 3.91487E-14
 -1      1022 1.92895E+01 6.93212E-01-1.12656E-05 8.26515E-02 6.07914E-14-3.53304E-13
 -1      1023 1.81527E+01 1.14387E+00 3.19546E-03-4.30982E-01-1.08774E-13-6.27495E-13
 -1      1024 2.01400E+01 3.11732E-01 2.06920E-04 5.27909E-01 1.20833E-14-2.13607E-14
 -1      1025 2.01355E+01 1.23786E+00-3.59291E-04 9.20763E-02 2.86702E-14 1.59134E-15
 -1      1026 2.00029E+01 1.06088E+00 5.79718E-04 4.92548E-02 1.77193E-14 4.97918E-14
 -1      1027 2.01660E+01 5.44909E-01 2.29835E-04 3.66101E-01 4.69991E-14 1.24748E-14
 -1      1028 1.98992E+01 1.81059E-01-7.93706E-06 3.95636E-02-2.89376E-14-2.04384E-13
 -1      1029 2.07100E+01-1.67417E+00-1.78881E-03 2.52480E+00 5.69762E-14 2.55928E-13
 -1      1030 1.78089E+01 5.62899E-01-1.43213E-03 1.80224E+00 1.42714E-13-3.48876E-14
 -1      1031 1.79591E+01 4.58440E-01-2.43916E-03-1.93339E+00-1.71064E-13-3.01241E-13
 -1      1032 1.99331E+01 1.39467E-01-1.05120E-05 3.34181E-02-1.38516E-13-3.58264E-14
 -1      1033 1.88993E+01 7.61615E-01 5.18323E-04-3.97054E-01 6.34001E-16-3.32819E-13
 -1      1034 1.99893E+01 4.74254E-02-2.49376E-05 8.68394E-03 1.83750E-13-1.03891E-12
 -1      1035 2.02323E+01-1.35698E+00-1.11953E-02-2.51192E+00-2.03438E-13 4.22133E-13
 -1      1036 1.99942E+01 3.22733E-02 7.36278E-06-9.51348E-04 4.88520E-14 3.16965E-13
 -1      1037 1.95647E+01 4.64892E-01-1.41975E-05-7.27824E-03-3.06414E-13-2.80917E-13
 -1      1038 1.96204E+01 7.98763E-01-3.21083E-04 1.35949E-01 2.74763E-14 8.61168E-14
 -1      1039 1.98498E+01 2.34590E-01 4.29475E-05 4.34116E-02 3.79380E-15-2.20157E-13
 -1      1040 1.99926E+01 3.93232E-02 5.91560E-05 5.34302E-03 2.30810E-13-1.30071E-12
 -1      1041 1.99576E+01 1.05337E-01-1.03856E-05 2.64774E-02-1.11770E-13 2.44027E-13
 -1      1042 1.89548E+01 7.63982E-01 1.16225E-03 5.73428E-01 7.74745E-14 9.10661E-14
 -1      1043 2.20806E+01-2.15749E+00 2.31024E-02-1.74555E+00-2.17091E-13 4.33266E-13
 -1      1044 1.96902E+01 3.75133E-01-4.18466E-05 2.67112E-02-1.51102E-13-4.31528E-13
 -1      1045 1.98457E+01 8.81006E-01-4.30188E-04 6.11947E-02 3.52554E-14 7.60309E-14
 -1      1046 2.01164E+01 9.18786E-01-1.08988E-04 1.98425E-01 5.16122E-14 7.50479E-14
 -1      1047 1.86593E+01 7.79979E-01-8.81424E-04-6.64907E-01-6.50881E-14-4.89537E-13
 -1      1048 1.92554E+01-3.44557E-01-2.08508E-03 2.04916E+00 1.28348E-13 1.24145E-13
 -1      1049 2.00398E+01 1.04574E+00-5.98656E-05 1.34764E-01 3.91170E-14 5.37317E-14
 -1      1050 1.98756E+01 1.58506E-01 3.38484E-04 8.31782E-01 7.46641E-14 2.91999E-14
 -1      1051 1.98785E+01-1.10913E-01-7.96151E-04 1.15169E+00 8.96297E-14 8.35004E-14
 -1      1052 2.00306E+01-5.02084E-01-2.44009E-04 1.52926E+00 8.84459E-14 1.67008E-13
 -1      1053 1.91810E+01 6.67029E-01 1.80143E-04-1.93932E-01 9.52338E-14-1.62028E-13
 -1      1054 1.98680E+01-4.13584E-01-1.08369E-03-1.39974E+00 1.36886E-13 3.19967E-13
 -1      1055 1.96599E+01-6.44570E-02 6.37831E-05-1.05474E+00 9.23872E-14 3.19180E-13
 -1      1056 1.95870E+01 1.43804E-01 6.71410E-04-7.72124E-01-4.95261E-14 3.30443E-13
 -1      1057 1.95890E+01 2.52511E-01-2.99268E-05-5.46746E-01-1.02722E-13 5.94851E-14
 -1      1058 1.96318E+01 2.96277E-01 4.21281E-05-3.78522E-01 9.68486E-14-1.50369E-13
 -1      1059 1.96902E+01 2.98560E-01 3.63095E-05-2.57842E-01-2.12735E-13-8.54665E-14
 -1      1060 1.97509E+01 2.77285E-01 2.08411E-05-1.73415E-01-1.76209E-13-1.33026E-13
 -1      1061 1.98080E+01 2.43410E-01 8.03403E-05-1.15318E-01 1.02283E-13-7.01479E-14
 -1      1062 1.98552E+01 2.07003E-01-4.37721E-05-7.55852E-02-4.47332E-14-1.37317E-13
 -1      1063 1.98948E+01 1.70502E-01 4.49554E-05-4.92059E-02 3.20281E-14-1.04693E-13
 -1      1064 1.99259E+01 1.36734E-01 1.11845E-06-3.19592E-02 5.27566E-14-1.21537E-13
 -1      1065 1.99498E+01 1.07303E-01 3.28320E-07-2.04333E-02-3.95214E-14-4.20805E-13
 -1      1066 1.99674E+01 8.24612E-02 6.68404E-06-1.28894E-02 2.30978E-13-5.80060E-13
 -1      1067 1.99801E+01 6.19932E-02 2.66421E-05-7.82627E-03 5.17660E-13-3.00787E-13
 -1      1068 1.99965E+01 7.92621E-01 1.32922E-04 2.45683E-01-9.85297E-15 6.71505E-14
 -1      1069 1.99761E+01 7.08587E-02 1.57620E-05 6.68944E-03 2.88772E-13-5.82335E-13
 -1      1070 2.00806E+01 6.75453E-01 3.47417E-04 3.19078E-01 3.83692E-15 7.51363E-14
 -1      1071 1.84549E+01 7.61706E-01 5.58585E-04 9.80526E-01 1.49115E-13 6.70823E-14
 -1      1072 1.90282E+01-2.04990E-01-2.17789E-03-2.02040E+00-1.10562E-13 2.82877E-13
 -1      1073 1.97825E+01 2.98488E-01 9.57824E-06 4.07212E-02-1.55371E-13-4.81534E-13
 -1      1074 1.84376E+01 6.10941E-01 5.67904E-05-1.25046E+00-3.24283E-14-2.03472E-13
 -1      1075 1.99317E+01 3.70106E-01-2.41716E-04 5.88535E-01 3.97673E-14 2.28791E-14
 -1      1076 1.99912E+01 3.98120E-02-1.73063E-05-2.20794E-04 4.10579E-13-3.63531E-13
 -1      1077 2.00102E+01 5.13779E-01-5.32394E-05 4.37781E-01 1.70479E-15 8.95372E-15
 -1      1078 1.92206E+01 5.27161E-01 1.65316E-04-4.87049E-01-1.47667E-13-1.97670E-13
 -1      1079 2.04293E+01-1.08521E+00 1.63055E-03 1.93573E+00 5.52015E-14 2.63793E-13
 -1      1080 2.03172E+01-9.45848E-01 3.42824E-03-1.77262E+00-9.23324E-14 3.64723E-13
 -1      1081 1.91191E+01 4.80620E-01-2.16065E-03-7.10440E-01-1.80699E-13-2.80283E-13
 -1      1082 1.99608E+01 9.45560E-02 1.71296E-07 7.98295E-03 3.98110E-15-3.48277E-13
 -1      1083 1.96648E+01 6.17194E-01 2.78991E-05 4.21387E-01 2.02258E-16 7.42740E-14
 -1      1084 1.99087E+01 1.60722E-01-2.22843E-06 6.01125E-03-1.17369E-13-8.06301E-14
 -1      1085 1.98670E+01 2.04886E-01-6.46844E-05-3.19600E-04-9.26567E-14-2.23220E-14
 -1      1086 1.93970E+01 5.65144E-01 2.94680E-05-7.42639E-02 5.07966E-15-8.59408E-14
 -1      1087 1.96462E+01 3.78043E-01-4.48050E-05-8.81904E-02-1.66971E-13 1.35773E-13
 -1      1088 1.98571E+01 6.81262E-01 4.07599E-04 3.23336E-01 2.52614E-14 6.25522E-14
 -1      1089 1.95283E+01 4.42098E-01-5.88743E-05-1.66967E-01-6.43835E-14 1.33923E-13
 -1      1090 1.94491E+01 5.09729E-01-4.20359E-04 6.74200E-01 5.86766E-14 4.71115E-14
 -1      1091 1.92908E+01 1.04363E-01-1.64319E-03 1.36592E+00 1.42851E-13 6.22487E-14
 -1      1092 1.99391E+01 1.24246E-01 6.43867E-06 8.14096E-03-3.20409E-13-2.22440E-13
 -1      1093 1.93862E+01 4.96567E-01-5.61751E-05-2.92840E-01-1.11179E-13 9.56535E-14
 -1      1094 1.92115E+01 3.32360E-01-1.51248E-03-9.01163E-01 8.84450E-14-8.51672E-14
 -1      1095 1.98055E+01 2.56164E-01 2.66754E-05-4.51698E-02-9.09533E-14 2.08774E-16
 -1      1096 1.92910E+01 1.14086E-02 1.75596E-03-1.39452E+00 4.60647E-14 1.94673E-13
 -1      1097 1.97392E+01 3.14846E-01-4.46158E-05-4.11717E-02-1.12388E-13 2.36596E-13
 -1      1098 2.78980E+01 9.06321E+00 2.31249E+00-6.65834E+00-1.98730E-14-1.85574E-13
 -1      1099 2.05618E+01 6.23253E+00 2.13244E-01-3.85662E+00-4.99600E-15-3.12791E-13
 -1      1100 1.94655E+01 5.86312E+00 7.81903E-02-2.82993E+00-1.06859E-15-3.04210E-13
 -1      1101 1.90561E+01 5.73538E+00 6.17871E-02-2.17137E+00 1.93942E-15-2.59515E-13
 -1      1102 1.88601E+01 5.67535E+00 5.77170E-02-1.63831E+00 3.05311E-15-2.13100E-13
 -1      1103 1.87524E+01 5.64196E+00 5.41064E-02-1.17863E+00 2.75127E-15-1.56860E-13
 -1      1104 1.86906E+01 5.62255E+00 5.12127E-02-7.62820E-01 3.26995E-15-1.11690E-13
 -1      1105 1.86574E+01 5.61196E+00 4.91458E-02-3.70737E-01 3.27342E-15-7.27326E-14
 -1      1106 1.86474E+01 5.60871E+00 4.83315E-02 7.54321E-03 4.42008E-15-3.44499E-14
 -1      1107 1.86592E+01 5.61243E+00 4.89055E-02 3.84888E-01 4.40750E-15 1.64799E-17
 -1      1108 1.86948E+01 5.62370E+00 5.08559E-02 7.74582E-01 4.83901E-15 3.57327E-14
 -1      1109 1.87603E+01 5.64431E+00 5.40770E-02 1.18766E+00 4.28130E-15 9.44982E-14
 -1      1110 1.88711E+01 5.67867E+00 5.77517E-02 1.64547E+00 5.21111E-15 1.49181E-13
 -1      1111 1.90700E+01 5.73964E+00 6.20739E-02 2.17874E+00 4.23966E-15 2.26453E-13
 -1      1112 1.94817E+01 5.86809E+00 7.85624E-02 2.84013E+00 4.49640E-15 3.34288E-13
 -1      1113 2.05835E+01 6.23937E+00 2.14338E-01 3.87037E+00 8.60423E-16 4.86160E-13
 -1      1114 2.79608E+01 9.09382E+00 2.35179E+00 6.69862E+00-1.39888E-14 6.18144E-13
 -1      1115 2.87182E+01 3.59235E+00 1.25266E+00-4.19044E+00-5.64548E-14-1.22624E-13
 -1      1116 2.02238E+01-1.78290E-01-6.16351E-01-1.05750E-01-1.83048E-14-2.39780E-13
 -1      1117 1.88868E+01-9.67917E-02-2.35846E-01 6.33273E-02-3.51455E-15-3.51280E-13
 -1      1118 1.86044E+01-4.89136E-02-6.03347E-02 4.11470E-02-9.35536E-15-4.67411E-13
 -1      1119 1.86074E+01-2.57928E-02-1.66970E-02 2.76984E-02-3.23352E-15-4.85462E-13
 -1      1120 1.87582E+01-1.42937E-02-6.74616E-03 2.04393E-02-1.09990E-14-5.02053E-13
 -1      1121 1.89862E+01-7.54156E-03-2.97704E-03 1.60734E-02-2.02041E-15-5.09308E-13
 -1      1122 1.92499E+01-2.97182E-03 6.78278E-06 1.32293E-02-9.11977E-16-5.49416E-13
 -1      1123 1.95200E+01 7.13031E-04 3.17451E-03 1.11257E-02-3.90896E-15-6.76410E-13
 -1      1124 1.97705E+01 4.24753E-03 6.91000E-03 9.20318E-03 4.71807E-15-7.42158E-13
 -1      1125 1.99737E+01 8.01449E-03 1.14721E-02 6.93685E-03 6.15610E-16-8.04398E-13
 -1      1126 2.00969E+01 1.20534E-02 1.68220E-02 3.78132E-03 5.17858E-15-7.24073E-13
 -1      1127 2.01028E+01 1.59770E-02 2.23665E-02-7.69423E-04 1.12865E-15-8.14047E-13
 -1      1128 1.99529E+01 1.88869E-02 2.67545E-02-6.99887E-03 1.23920E-14-8.92173E-13
 -1      1129 1.96169E+01 1.94158E-02 2.78954E-02-1.46756E-02 3.53233E-15-9.42892E-13
 -1      1130 1.90872E+01 1.60477E-02 2.34273E-02-2.27449E-02-2.98221E-15-8.77767E-13
 -1      1131 1.83952E+01 7.80357E-03 1.17787E-02-2.92243E-02 2.21784E-15-8.02629E-13
 -1      1132 1.76217E+01-4.84079E-03-6.42653E-03-3.15814E-02 1.48552E-15-8.62473E-13
 -1      1133 1.68933E+01-1.93441E-02-2.74669E-02-2.77145E-02 1.87740E-15-1.04051E-12
 -1      1134 1.63562E+01-3.14974E-02-4.51387E-02-1.72161E-02-1.43826E-14-1.11110E-12
 -1      1135 1.61334E+01-3.70643E-02-5.32238E-02-2.12180E-03 9.26342E-16-1.13306E-12
 -1      1136 1.62811E+01-3.39637E-02-4.86785E-02 1.35857E-02 1.58163E-14-9.41467E-13
 -1      1137 1.67678E+01-2.34463E-02-3.33369E-02 2.56592E-02-1.13965E-14-5.73562E-13
 -1      1138 1.74868E+01-9.38921E-03-1.28843E-02 3.14528E-02-6.10497E-14-9.48241E-13
 -1      1139 1.82958E+01 3.78583E-03 6.16132E-03 3.07847E-02 3.38158E-14-8.08478E-13
 -1      1140 1.90626E+01 1.30367E-02 1.93127E-02 2.54496E-02-3.85054E-14-7.39575E-13
 -1      1141 1.96958E+01 1.73968E-02 2.52024E-02 1.79965E-02 1.91572E-14-8.12853E-13
 -1      1142 2.01542E+01 1.75749E-02 2.49781E-02 1.06277E-02-5.57247E-14-1.01520E-12
 -1      1143 2.04392E+01 1.50575E-02 2.09423E-02 4.66927E-03-1.49208E-14-1.09919E-12
 -1      1144 2.05781E+01 1.13450E-02 1.53637E-02 5.76090E-04 2.75452E-14-9.49513E-13
 -1      1145 2.06095E+01 7.54696E-03 9.86565E-03-1.78531E-03-3.76478E-15-7.46489E-13
 -1      1146 2.05712E+01 4.29646E-03 5.31898E-03-2.82227E-03 3.32947E-14-7.48122E-13
 -1      1147 2.04949E+01 1.83926E-03 2.00712E-03-2.98976E-03-1.24470E-14-5.39268E-13
 -1      1148 2.04037E+01 1.73252E-04-1.40679E-04-2.67198E-03-5.25030E-14-4.40855E-13
 -1      1149 2.03129E+01-8.28151E-04-1.35495E-03-2.14412E-03 2.87083E-14-4.50083E-13
 -1      1150 2.02311E+01-1.33149E-03-1.90093E-03-1.57843E-03 2.86585E-14-4.35487E-13
 -1      1151 2.01623E+01-1.49557E-03-2.01431E-03-1.06780E-03 3.73291E-15-3.77528E-13
 -1      1152 2.01076E+01-1.45039E-03-1.87765E-03-6.51543E-04-1.85234E-14-2.04918E-13
 -1      1153 2.00661E+01-1.29210E-03-1.61915E-03-3.36778E-04-2.46831E-14-7.71819E-14
 -1      1154 2.00360E+01-1.08607E-03-1.32138E-03-1.13750E-04-3.52237E-14-2.34619E-13
 -1      1155 2.00153E+01-8.73120E-04-1.03259E-03 3.43111E-05 5.81753E-15-4.78180E-13
 -1      1156 2.00020E+01-6.76069E-04-7.77334E-04 1.25471E-04 3.82315E-14-5.53036E-13
 -1      1157 1.99943E+01-5.05430E-04-5.64768E-04 1.76180E-04-1.58334E-14-1.04094E-12
 -1      1158 1.99907E+01-3.63739E-04-3.94647E-04 2.00053E-04 1.97745E-14-9.96625E-13
 -1      1159 1.99899E+01-2.48540E-04-2.60958E-04 2.07527E-04 6.04277E-14-5.69228E-13
 -1      1160 1.99911E+01-1.54301E-04-1.53429E-04 2.05774E-04-6.04593E-14-3.05162E-13
 -1      1161 1.99934E+01-7.35811E-05-5.67493E-05 1.97944E-04 1.09836E-14-5.33146E-13
 -1      1162 1.99962E+01 2.70549E-06 4.65305E-05 1.77248E-04 2.29184E-14 7.63574E-14
 -1      1163 1.99986E+01 7.56190E-05 1.59590E-04 1.25748E-04 2.39651E-14 3.85332E-13
 -1      1164 1.99998E+01 1.69320E-05 7.63813E-05 6.28832E-07 1.22584E-13 3.96958E-13
 -1      1165 2.89998E+01 3.69217E+00 1.34398E+00 4.31119E+00-2.41751E-14 7.31193E-13
 -1      1166 2.03502E+01-1.76212E-01-6.28794E-01 1.35039E-01-1.21986E-14 8.03413E-13
 -1      1167 1.89013E+01-9.91546E-02-2.49199E-01-6.31269E-02-4.38885E-16 8.27430E-13
 -1      1168 1.86010E+01-5.20493E-02-6.60381E-02-4.09635E-02-3.29251E-15 8.20961E-13
 -1      1169 1.86079E+01-2.89959E-02-2.03216E-02-2.69999E-02 1.07726E-15 8.34232E-13
 -1      1170 1.87856E+01-1.88754E-02-1.14743E-02-1.93898E-02-1.72353E-14 7.95121E-13
 -1      1171 1.90761E+01-1.43818E-02-1.08747E-02-1.50558E-02 1.22406E-15 8.52315E-13
 -1      1172 1.94507E+01-1.45686E-02-1.33415E-02-1.30509E-02-3.73443E-15 9.43167E-13
 -1      1173 1.99247E+01-1.67420E-02-1.86970E-02-1.24977E-02 2.01510E-14 9.59456E-13
 -1      1174 2.05465E+01-2.19506E-02-2.78618E-02-1.45663E-02 7.87413E-15 8.93684E-13
 -1      1175 2.13664E+01-2.99942E-02-4.20452E-02-2.03924E-02-9.29855E-15 7.34801E-13
 -1      1176 2.24786E+01-4.04401E-02-6.17995E-02-3.22361E-02 1.16920E-15 6.92196E-13
 -1      1177 2.40116E+01-5.12433E-02-8.45390E-02-5.35457E-02-3.94823E-15 7.48332E-13
 -1      1178 2.61122E+01-5.43846E-02-9.74647E-02-8.76831E-02-1.17467E-14 9.03874E-13
 -1      1179 2.87973E+01-4.44250E-02-7.01595E-02-1.30531E-01 2.76346E-14 9.83782E-13
 -1      1180 3.19743E+01 1.16721E-02 5.45839E-02-1.62713E-01-1.61219E-14 1.03340E-12
 -1      1181 3.49633E+01 1.37377E-01 3.32223E-01-1.10912E-01 3.30291E-14 1.13553E-12
 -1      1182 3.57645E+01 3.00839E-01 6.31725E-01 1.51676E-01-2.91989E-14 1.49114E-12
 -1      1183 3.18585E+01 2.96389E-01 4.46753E-01 6.39685E-01-1.34406E-14 1.86451E-12
 -1      1184 2.40003E+01-9.12191E-04-5.26819E-01 8.52908E-01-2.24959E-14 1.85141E-12
 -1      1185 1.74494E+01-4.46518E-01-1.52067E+00 4.27967E-01 1.27467E-14 1.91713E-12
 -1      1186 1.63451E+01-6.71727E-01-1.72679E+00-3.34941E-01-9.31200E-15 2.07073E-12
 -1      1187 2.15826E+01-2.74254E-01-9.04316E-01-8.58114E-01 9.05734E-14 1.72035E-12
 -1      1188 3.01325E+01 2.69189E-01 2.51085E-01-7.59053E-01 5.28969E-14 1.07903E-12
 -1      1189 3.54627E+01 3.37643E-01 6.57141E-01-2.57730E-01 9.95731E-15 7.01605E-13
 -1      1190 3.56265E+01 1.79553E-01 4.19940E-01 7.13479E-02 7.32747E-15 8.81843E-13
 -1      1191 3.29740E+01 3.39454E-02 1.09329E-01 1.62177E-01-1.01395E-15 1.18347E-12
 -1      1192 2.97186E+01-3.72164E-02-5.61217E-02 1.40100E-01 4.64750E-14 1.37132E-12
 -1      1193 2.68957E+01-5.75098E-02-1.00483E-01 9.40515E-02-1.97065E-15 1.17671E-12
 -1      1194 2.47973E+01-5.81397E-02-9.40570E-02 5.42350E-02-1.99927E-14 1.03943E-12
 -1      1195 2.32963E+01-4.48973E-02-7.03396E-02 3.33352E-02 1.00133E-14 1.20525E-12
 -1      1196 2.22223E+01-3.37757E-02-4.93472E-02 1.81740E-02-3.59201E-14 1.14313E-12
 -1      1197 2.14894E+01-2.44045E-02-3.34846E-02 9.62166E-03 2.93481E-14 1.29587E-12
 -1      1198 2.09917E+01-1.72898E-02-2.24862E-02 4.89248E-03-2.54354E-16 1.32275E-12
 -1      1199 2.06542E+01-1.21422E-02-1.50964E-02 2.31322E-03 5.48940E-14 1.39041E-12
 -1      1200 2.04253E+01-8.38409E-03-1.01407E-02 9.11413E-04 2.06963E-14 7.36305E-13
 -1      1201 2.02732E+01-6.34380E-03-7.10685E-03-4.37457E-05 3.18922E-14 3.71078E-13
 -1      1202 2.01701E+01-4.27621E-03-4.82651E-03-1.55150E-04-4.23540E-14 2.54906E-13
 -1      1203 2.00988E+01-3.00999E-03-3.30872E-03-3.33450E-04-2.12065E-14 6.71127E-13
 -1      1204 2.00518E+01-2.12225E-03-2.27702E-03-4.04879E-04-5.08679E-14 5.96422E-13
 -1      1205 2.00216E+01-1.49456E-03-1.56674E-03-4.18274E-04 1.10064E-14 7.18354E-13
 -1      1206 2.00031E+01-1.04789E-03-1.07286E-03-4.02208E-04-9.74522E-14 8.14342E-13
 -1      1207 1.99925E+01-7.15394E-04-7.23774E-04-3.72828E-04-5.30417E-14 1.11696E-12
 -1      1208 1.99874E+01-5.28850E-04-4.96612E-04-3.51897E-04 4.51297E-14 9.78275E-13
 -1      1209 1.99859E+01-3.45123E-04-3.25813E-04-3.04783E-04 7.74985E-14 7.07353E-13
 -1      1210 1.99867E+01-2.21780E-04-2.00895E-04-2.72991E-04 7.72204E-14 7.18718E-13
 -1      1211 1.99891E+01-1.28492E-04-1.06235E-04-2.47324E-04 1.82957E-14 7.55034E-13
 -1      1212 1.99923E+01-5.07560E-05-1.97677E-05-2.25021E-04 8.71280E-14 7.35856E-13
 -1      1213 1.99957E+01 2.27859E-05 8.00969E-05-1.96210E-04-4.28770E-14 6.76743E-13
 -1      1214 1.99985E+01 1.05485E-04 1.95185E-04-1.31502E-04-4.36457E-14 8.36286E-13
 -1      1215 1.99998E+01 2.58742E-05 7.39343E-05 5.69446E-06 3.47147E-15 4.12726E-13
 -1      1216 1.99998E+01-6.14953E-05 3.90023E-05-4.15664E-05 5.24631E-13-2.41532E-13
 -1      1217 1.99999E+01-1.27614E-03 1.53674E-04-1.30187E-04-3.04701E-14-1.68106E-13
 -1      1218 1.99998E+01-3.88611E-03 1.60474E-05-1.58757E-04 2.26312E-14 1.40768E-14
 -1      1219 1.99998E+01-6.55638E-03-7.70771E-05-1.30374E-04-2.04634E-13 4.91515E-14
 -1      1220 1.99997E+01-8.68588E-03-1.08626E-04-8.80274E-05-8.47615E-13 2.66671E-14
 -1      1221 1.99997E+01-1.00799E-02-1.02329E-04-4.82495E-05-1.08887E-12-2.17339E-13
 -1      1222 1.99998E+01-1.08093E-02-7.79148E-05-2.03558E-05-5.48653E-13 2.01350E-13
 -1      1223 1.99998E+01-1.10350E-02-5.31859E-05-1.22869E-06-8.20372E-13-1.99806E-13
 -1      1224 1.99998E+01-1.09097E-02-3.82234E-05 1.06016E-05-1.38519E-12-5.71900E-14
 -1      1225 1.99998E+01-1.05324E-02-3.75853E-05 2.00444E-05-1.20890E-12-5.85137E-14
 -1      1226 1.99998E+01-9.90818E-03-4.97796E-05 3.24597E-05-1.61530E-12-4.19117E-14
 -1      1227 1.99998E+01-8.96712E-03-6.74099E-05 5.18010E-05-2.22887E-12 2.27849E-13
 -1      1228 1.99998E+01-7.58944E-03-7.72311E-05 7.95837E-05-1.65478E-12 1.47506E-13
 -1      1229 1.99998E+01-5.68619E-03-5.65688E-05 1.14374E-04-9.32396E-13-4.53794E-14
 -1      1230 1.99998E+01-3.34969E-03 2.99975E-05 1.61571E-04-1.23400E-12-3.02153E-14
 -1      1231 1.99999E+01-1.16008E-03 1.37980E-04 1.33630E-04-8.11244E-13-1.18196E-13
 -1      1232 1.99998E+01-4.79826E-05 4.98916E-05 3.14902E-05-3.70616E-13 2.92756E-14
 -1      1233-1.28516E+00-2.73396E+01-3.99974E+00-2.72680E+00 1.16832E-12 1.36592E-13
 -1      1234-2.56231E+00-2.07470E+01-3.76870E+00-5.94787E+00 1.62925E-12 6.79595E-13
 -1      1235-2.03607E+00-8.44700E+00-2.96327E+00-3.52533E+00 1.47082E-12 8.27893E-13
 -1      1236 5.03100E+00 3.20204E+00-1.59053E+00 4.34638E+00 3.41727E-13 2.30482E-13
 -1      1237 2.24252E+01 9.67565E+00 5.15210E-01 1.42283E+01-3.13083E-14-7.70495E-14
 -1      1238 4.85447E+01 8.91364E+00 3.16448E+00 1.92703E+01-2.76223E-13-7.70495E-13
 -1      1239 7.21007E+01 4.52855E+00 5.45120E+00 1.34928E+01-2.61291E-13-1.43885E-12
 -1      1240 8.18606E+01 2.06331E+00 6.40598E+00-9.81931E-02-2.85050E-14-1.45339E-12
 -1      1241 7.18321E+01 4.70487E+00 5.43419E+00-1.36619E+01 4.02539E-13-1.72662E-12
 -1      1242 4.89329E+01 9.09103E+00 3.27027E+00-1.92633E+01 8.68861E-13-1.97886E-12
 -1      1243 2.38038E+01 9.98942E+00 7.21280E-01-1.47608E+01 8.60645E-13-1.35314E-12
 -1      1244 5.87811E+00 3.82377E+00-1.47767E+00-5.04466E+00 4.62075E-13-5.11147E-13
 -1      1245-1.82856E+00-7.95527E+00-2.91692E+00 3.19589E+00 8.97060E-14-1.11688E-13
 -1      1246-2.64147E+00-2.03104E+01-3.76490E+00 5.97404E+00-3.66485E-13 9.17599E-14
 -1      1247-1.39071E+00-2.72996E+01-4.05006E+00 3.06647E+00-4.50168E-13 8.97442E-14
 -1      1248-1.15442E+00-2.58020E+01-3.80792E+00-1.68076E+00-8.72413E-13-1.81036E-13
 -1      1249-1.62813E+00-1.65521E+01-3.09150E+00-3.89363E+00-1.76259E-12-6.34270E-13
 -1      1250-2.22610E-02-3.36292E+00-1.87901E+00-5.66936E-01-1.88338E-12-9.47020E-13
 -1      1251 7.71847E+00 7.80611E+00-3.70787E-01 7.68646E+00-9.88987E-13-7.80709E-13
 -1      1252 2.30418E+01 1.23508E+01 1.22079E+00 1.62347E+01-2.56906E-13-1.59872E-13
 -1      1253 4.27006E+01 1.01621E+01 2.63911E+00 1.94567E+01 1.29119E-13 3.73923E-13
 -1      1254 6.07305E+01 4.88937E+00 3.69940E+00 1.43909E+01 1.77885E-13 8.64198E-13
 -1      1255 6.94851E+01 1.71604E+00 4.15989E+00 1.90460E+00-5.91888E-15 1.45875E-12
 -1      1256 6.44265E+01 3.58931E+00 3.89753E+00-1.15486E+01-4.06286E-13 1.96243E-12
 -1      1257 4.79318E+01 8.82357E+00 2.93265E+00-1.90227E+01-8.15625E-13 1.82854E-12
 -1      1258 2.74919E+01 1.23235E+01 1.57063E+00-1.75005E+01-8.14016E-13 1.23035E-12
 -1      1259 1.03317E+01 9.37429E+00-2.73054E-02-9.61994E+00-2.22489E-13 3.42171E-13
 -1      1260 8.76733E-01-8.60671E-01-1.62311E+00-7.64587E-01-8.88178E-16 4.47420E-14
 -1      1261-1.54075E+00-1.44344E+01-2.86724E+00 3.64777E+00 4.34763E-13-5.97300E-14
 -1      1262-1.02251E+00-2.51591E+01-3.72062E+00 2.11099E+00 1.40699E-12-1.57006E-13
 -1      1263 2.22483E+01 1.83799E+00-7.22764E-01-2.76438E+00-2.25098E-14-2.53075E-13
 -1      1264 2.03865E+01 4.68743E+00-4.73559E-02-3.25385E+00-1.18933E-14-3.16198E-13
 -1      1265 2.08837E+01 4.80302E+00-1.10954E-01-4.11107E+00-3.18079E-14-3.19446E-13
 -1      1266 1.95664E+01 4.99672E+00-1.91131E-02-2.59198E+00 9.76996E-15-2.91024E-13
 -1      1267 1.98634E+01 5.09241E+00 1.81077E-03-2.98635E+00 3.98293E-15-3.08212E-13
 -1      1268 2.05603E+01 3.94850E+00-2.51307E-02-3.01486E+00-9.32587E-15-2.72490E-13
 -1      1269 1.92133E+01 5.09100E+00-3.48501E-03-2.00483E+00 2.72178E-14-2.47875E-13
 -1      1270 1.93664E+01 5.14751E+00 1.17081E-02-2.29898E+00 2.51882E-14-2.73594E-13
 -1      1271 1.97909E+01 4.37143E+00-2.32324E-02-2.42423E+00 2.08895E-14-2.47233E-13
 -1      1272 1.90230E+01 5.14063E+00 2.89585E-03-1.50162E+00 3.74058E-14-1.96752E-13
 -1      1273 1.91091E+01 5.17267E+00 1.35058E-02-1.74921E+00 4.09447E-14-2.23939E-13
 -1      1274 1.94171E+01 4.56790E+00-1.90658E-02-1.86429E+00 5.26428E-14-2.16230E-13
 -1      1275 1.89129E+01 5.17241E+00 5.64712E-03-1.06349E+00 5.14580E-14-1.47674E-13
 -1      1276 1.89637E+01 5.19134E+00 1.30367E-02-1.27950E+00 4.33317E-14-1.71451E-13
 -1      1277 1.92119E+01 4.68211E+00-1.56838E-02-1.38276E+00 6.48522E-14-1.60750E-13
 -1      1278 1.88466E+01 5.19417E+00 7.04416E-03-6.55832E-01 5.53698E-14-1.02834E-13
 -1      1279 1.88768E+01 5.20524E+00 1.18609E-02-8.57659E-01 5.45172E-14-1.29429E-13
 -1      1280 1.90901E+01 4.75461E+00-1.36122E-02-9.53559E-01 8.22523E-14-1.26430E-13
 -1      1281 1.88130E+01 5.20817E+00 8.06647E-03-2.71707E-01 6.49943E-14-5.84151E-14
 -1      1282 1.88271E+01 5.21334E+00 1.05405E-02-4.63209E-01 6.15168E-14-7.82881E-14
 -1      1283 1.90184E+01 4.79980E+00-1.24891E-02-5.55065E-01 9.17429E-14-6.82024E-14
 -1      1284 1.88069E+01 5.21527E+00 9.09269E-03 1.01962E-01 7.17488E-14-2.28255E-14
 -1      1285 1.88068E+01 5.21529E+00 9.29327E-03-8.58255E-02 6.93075E-14-4.23706E-14
 -1      1286 1.89848E+01 4.82264E+00-1.19771E-02-1.76884E-01 1.10243E-13-3.53988E-14
 -1      1287 1.88281E+01 5.21576E+00 1.02946E-02 4.77831E-01 7.93896E-14 3.76262E-15
 -1      1288 1.88135E+01 5.21052E+00 8.14227E-03 2.87255E-01 7.70634E-14-1.35621E-14
 -1      1289 1.89847E+01 4.82485E+00-1.19343E-02 1.93823E-01 1.22142E-13-9.27383E-15
 -1      1290 1.88800E+01 5.20946E+00 1.16385E-02 8.69284E-01 7.08669E-14 4.53023E-14
 -1      1291 1.88487E+01 5.19822E+00 6.98106E-03 6.68900E-01 7.29078E-14 2.06449E-14
 -1      1292 1.90189E+01 4.80580E+00-1.23779E-02 5.69756E-01 1.23254E-13 2.11012E-14
 -1      1293 1.89695E+01 5.19687E+00 1.29602E-02 1.28411E+00 7.01106E-14 1.00397E-13
 -1      1294 1.89169E+01 5.17734E+00 5.44171E-03 1.06966E+00 6.89223E-14 6.87644E-14
 -1      1295 1.90924E+01 4.76314E+00-1.33579E-02 9.61058E-01 1.14709E-13 6.09027E-14
 -1      1296 1.91204E+01 5.17766E+00 1.36786E-02 1.75566E+00 7.78370E-14 1.66582E-13
 -1      1297 1.90319E+01 5.14465E+00 2.59361E-03 1.50864E+00 7.62099E-14 1.33994E-13
 -1      1298 1.92180E+01 4.69037E+00-1.54350E-02 1.38666E+00 1.13924E-13 1.16976E-13
 -1      1299 1.93817E+01 5.15092E+00 1.19792E-02 2.30581E+00 6.85042E-14 2.40717E-13
 -1      1300 1.92265E+01 5.09350E+00-3.72360E-03 2.01100E+00 6.83516E-14 1.93533E-13
 -1      1301 1.94298E+01 4.57257E+00-1.88004E-02 1.86988E+00 1.16698E-13 1.76952E-13
 -1      1302 1.98829E+01 5.09456E+00 2.53573E-03 2.99656E+00 4.45477E-14 3.56833E-13
 -1      1303 1.95834E+01 4.99664E+00-1.92935E-02 2.60006E+00 4.79825E-14 2.88491E-13
 -1      1304 1.98094E+01 4.37082E+00-2.28205E-02 2.43117E+00 8.59920E-14 2.62117E-13
 -1      1305 2.09098E+01 4.82956E+00-9.67064E-02 4.13267E+00 6.24500E-15 4.99448E-13
 -1      1306 2.04079E+01 4.68471E+00-4.70693E-02 3.26817E+00 1.83742E-14 4.23744E-13
 -1      1307 2.05862E+01 3.93841E+00-2.41597E-02 3.02610E+00 4.48530E-14 3.71370E-13
 -1      1308 2.23387E+01 1.87282E+00-7.14284E-01 2.82133E+00-1.32394E-14 6.49258E-13
 -1      1309 2.19997E+01 1.29884E-01-3.99843E-01-1.26065E+00-2.99483E-14-2.23127E-13
 -1      1310 2.07043E+01 3.04947E-01-1.63558E-01-7.84647E-01-2.25792E-14-2.66613E-13
 -1      1311 2.01242E+01 1.53453E-01-7.30016E-02-3.81285E-01-2.35784E-14-2.70053E-13
 -1      1312 1.96802E+01 9.15449E-02-1.44483E-02-3.09332E-01-2.39947E-14-3.14970E-13
 -1      1313 2.10132E+01 3.67425E-01-1.03956E-01-1.23285E+00-4.09325E-14-2.46497E-13
 -1      1314 1.93443E+01 6.54004E-02 3.20232E-03-1.13319E-01-2.51734E-14-3.12673E-13
 -1      1315 1.92173E+01 4.23990E-02 1.33827E-02-9.49456E-02-1.94861E-14-3.51257E-13
 -1      1316 2.00015E+01 1.34419E-01-3.53854E-02-4.61810E-01-4.53595E-14-2.41723E-13
 -1      1317 1.90815E+01 3.30419E-02 1.31884E-02-2.53603E-03-2.57910E-15-3.61905E-13
 -1      1318 1.90935E+01 2.09381E-02 1.10581E-02 7.71367E-03-1.16469E-14-3.77694E-13
 -1      1319 1.95694E+01 5.74751E-02-8.93320E-03-1.22622E-01-2.58127E-14-2.41399E-13
 -1      1320 1.90659E+01 1.78043E-02 8.60108E-03 5.50026E-02-2.31412E-15-3.52555E-13
 -1      1321 1.91451E+01 1.06434E-02 6.32603E-03 6.06113E-02 9.86190E-16-3.51158E-13
 -1      1322 1.94126E+01 2.70859E-02-4.05705E-03 4.42109E-02 1.31171E-14-2.58224E-13
 -1      1323 1.91776E+01 9.47637E-03 4.40993E-03 8.51964E-02-1.49882E-14-3.58267E-13
 -1      1324 1.92898E+01 4.56017E-03 3.42968E-03 8.79261E-02-7.45454E-15-3.78355E-13
 -1      1325 1.94159E+01 1.27956E-02-2.75694E-03 1.31531E-01-1.52786E-14-2.07160E-13
 -1      1326 1.93546E+01 4.02434E-03 2.10769E-03 9.86420E-02-1.15568E-14-3.85414E-13
 -1      1327 1.94798E+01 1.72296E-04 1.87756E-03 9.92677E-02-4.50971E-14-4.33731E-13
 -1      1328 1.95092E+01 4.30310E-03-1.69767E-03 1.74967E-01-3.13770E-14-2.37066E-13
 -1      1329 1.95587E+01-3.39254E-04 9.51228E-04 9.96539E-02-1.91659E-14-4.27511E-13
 -1      1330 1.96819E+01-3.75423E-03 9.83606E-04 9.83803E-02-7.27071E-15-4.51172E-13
 -1      1331 1.96487E+01-2.16015E-03-5.64214E-04 1.89246E-01-4.74226E-14-2.46882E-13
 -1      1332 1.97610E+01-4.61539E-03 3.92626E-04 8.92818E-02-1.64042E-14-4.54606E-13
 -1      1333 1.98685E+01-7.92139E-03 4.32962E-04 8.59417E-02-3.50748E-14-4.65950E-13
 -1      1334 1.98032E+01-8.43724E-03 6.38508E-04 1.79648E-01-2.85200E-14-2.22045E-13
 -1      1335 1.99348E+01-9.38403E-03 2.16722E-04 6.67090E-02-9.92522E-15-4.86461E-13
 -1      1336 2.00114E+01-1.26544E-02 1.36834E-04 6.09083E-02 1.25173E-14-4.71844E-13
 -1      1337 1.99467E+01-1.55434E-02 1.96881E-03 1.46434E-01-2.62130E-14-2.04316E-13
 -1      1338 2.00520E+01-1.48256E-02 3.68713E-04 3.03242E-02-2.34927E-14-5.12960E-13
 -1      1339 2.00808E+01-1.78326E-02 9.27059E-05 2.16365E-02-4.92553E-14-5.65235E-13
 -1      1340 2.00538E+01-2.38394E-02 3.48329E-03 8.73436E-02-3.52752E-14-2.54264E-13
 -1      1341 2.00821E+01-2.05847E-02 8.24870E-04-2.09709E-02-4.07101E-14-5.77438E-13
 -1      1342 2.00448E+01-2.27322E-02 2.98128E-04-3.27033E-02-2.75292E-14-6.12956E-13
 -1      1343 2.00984E+01-3.28509E-02 5.13979E-03 1.37431E-05-5.91909E-14-4.15292E-13
 -1      1344 1.99941E+01-2.55937E-02 1.50433E-03-8.60155E-02 2.54571E-15-6.29948E-13
 -1      1345 1.98750E+01-2.59128E-02 6.85742E-04-1.00268E-01-2.15305E-14-6.40077E-13
 -1      1346 2.00545E+01-4.09842E-02 6.71576E-03-1.14971E-01-3.39707E-14-4.15610E-13
 -1      1347 1.97630E+01-2.80207E-02 2.20992E-03-1.59392E-01 2.89317E-14-6.62402E-13
 -1      1348 1.95537E+01-2.53376E-02 1.07853E-03-1.74525E-01-7.14749E-15-6.48506E-13
 -1      1349 1.98997E+01-4.54086E-02 7.75764E-03-2.50406E-01-2.93949E-14-3.73816E-13
 -1      1350 1.93791E+01-2.55707E-02 2.62212E-03-2.29912E-01-1.13937E-14-6.18519E-13
 -1      1351 1.90862E+01-1.89431E-02 1.19520E-03-2.42945E-01 5.03091E-15-5.85781E-13
 -1      1352 1.96229E+01-4.24642E-02 7.61409E-03-3.89140E-01 2.41899E-14-3.92286E-13
 -1      1353 1.88602E+01-1.63479E-02 2.38469E-03-2.80880E-01 1.51517E-14-6.01037E-13
 -1      1354 1.85108E+01-5.73801E-03 7.53593E-04-2.87837E-01-7.03886E-15-5.91045E-13
 -1      1355 1.92322E+01-2.89264E-02 5.62089E-03-5.03159E-01 1.22226E-14-3.93208E-13
 -1      1356 1.82602E+01-1.85551E-04 1.30976E-03-2.93534E-01-1.61543E-14-5.68379E-13
 -1      1357 1.79038E+01 1.29184E-02-3.36129E-04-2.90611E-01-6.54735E-14-6.28044E-13
 -1      1358 1.87641E+01-4.05307E-03 1.47086E-03-5.57691E-01-1.56820E-14-3.83615E-13
 -1      1359 1.76691E+01 2.01913E-02-4.15581E-04-2.53845E-01-8.23547E-14-6.82315E-13
 -1      1360 1.73698E+01 3.27177E-02-1.80428E-03-2.39211E-01-5.02285E-14-7.50887E-13
 -1      1361 1.82847E+01 2.85278E-02-4.33126E-03-5.21735E-01-1.10896E-13-4.28054E-13
 -1      1362 1.71978E+01 3.92266E-02-2.20183E-03-1.60429E-01-3.51186E-14-7.78501E-13
 -1      1363 1.70185E+01 4.74274E-02-3.03640E-03-1.35799E-01-3.70836E-14-8.43958E-13
 -1      1364 1.78812E+01 6.05948E-02-1.02937E-02-3.82628E-01-9.75895E-14-5.13682E-13
 -1      1365 1.69482E+01 5.05105E-02-3.29848E-03-2.89773E-02 2.32973E-14-8.86347E-13
 -1      1366 1.69308E+01 5.16094E-02-3.37292E-03 2.66259E-04 1.14500E-14-8.11665E-13
 -1      1367 1.76400E+01 8.18970E-02-1.43661E-02-1.57513E-01-4.81559E-14-5.85521E-13
 -1      1368 1.69800E+01 4.99165E-02-3.25239E-03 1.10966E-01 7.28671E-14-7.36312E-13
 -1      1369 1.71303E+01 4.35451E-02-2.53964E-03 1.37603E-01 1.09110E-13-6.13216E-13
 -1      1370 1.76188E+01 8.48271E-02-1.49278E-02 1.06896E-01 9.58296E-14-5.45551E-13
 -1      1371 1.72891E+01 3.78959E-02-2.19205E-03 2.26677E-01 2.99201E-14-5.59868E-13
 -1      1372 1.75749E+01 2.62999E-02-8.49792E-04 2.44594E-01-5.71674E-14-5.70072E-13
 -1      1373 1.78257E+01 6.83971E-02-1.17573E-02 3.49410E-01 8.78221E-14-5.08000E-13
 -1      1374 1.78096E+01 1.91713E-02-7.16984E-04 2.94818E-01-6.28761E-14-4.97066E-13
 -1      1375 1.81727E+01 6.01368E-03 9.74255E-04 3.01284E-01 3.71101E-15-5.25455E-13
 -1      1376 1.82162E+01 3.87740E-02-6.18529E-03 5.17551E-01-3.62592E-14-2.65087E-13
 -1      1377 1.84382E+01 8.29203E-05 5.00914E-04 3.08766E-01 1.02860E-13-5.31228E-13
 -1      1378 1.88143E+01-1.12762E-02 2.25643E-03 3.04811E-01 6.22567E-14-3.80473E-13
 -1      1379 1.87107E+01 6.00924E-03-2.69629E-04 5.85857E-01 6.54043E-14-1.04026E-13
 -1      1380 1.90682E+01-1.43983E-02 1.08842E-03 2.77524E-01-2.60102E-14-3.84038E-13
 -1      1381 1.94043E+01-2.20532E-02 2.70251E-03 2.66620E-01-5.94576E-14-4.64516E-13
 -1      1382 1.92215E+01-2.07773E-02 4.29746E-03 5.60032E-01 1.82181E-14-1.35224E-13
 -1      1383 1.96167E+01-2.21758E-02 1.05278E-03 2.18721E-01-4.64095E-14-4.75259E-13
 -1      1384 1.98807E+01-2.58383E-02 2.41345E-03 2.04928E-01-4.01059E-14-5.80862E-13
 -1      1385 1.96772E+01-3.67206E-02 6.76014E-03 4.67657E-01-5.62298E-14-6.15150E-14
 -1      1386 2.00373E+01-2.37606E-02 6.39193E-04 1.50719E-01-8.69266E-14-6.07988E-13
 -1      1387 2.02189E+01-2.42352E-02 1.71679E-03 1.37318E-01-1.08364E-13-7.09783E-13
 -1      1388 2.00351E+01-4.16002E-02 7.25966E-03 3.43569E-01-8.49980E-14-2.73417E-13
 -1      1389 2.03186E+01-2.10856E-02 1.34705E-04 8.74078E-02 6.19817E-15-6.68746E-13
 -1      1390 2.04239E+01-1.95782E-02 9.43290E-04 7.63455E-02 1.29749E-14-6.67538E-13
 -1      1391 2.02812E+01-3.82398E-02 6.41810E-03 2.17862E-01-5.28371E-14-3.33005E-13
 -1      1392 2.04743E+01-1.63146E-02-2.64725E-04 3.65217E-02 5.31357E-14-5.70289E-13
 -1      1393 2.05184E+01-1.39290E-02 3.08742E-04 2.85149E-02 1.49867E-13-4.42898E-13
 -1      1394 2.04231E+01-3.03975E-02 4.93049E-03 1.10070E-01 8.13364E-14-2.55078E-13
 -1      1395 2.05313E+01-1.11404E-02-4.82967E-04 4.68480E-04 5.70131E-14-4.36910E-13
 -1      1396 2.05321E+01-8.65421E-03-1.04804E-04-4.60345E-03 1.20986E-15-4.25242E-13
 -1      1397 2.04805E+01-2.12824E-02 3.33207E-03 2.89031E-02 1.22268E-13-1.39783E-13
 -1      1398 2.05196E+01-6.57945E-03-5.32742E-04-2.18304E-02 7.63855E-14-3.76644E-13
 -1      1399 2.04937E+01-4.42603E-03-3.09719E-04-2.45135E-02 1.01675E-13-2.60760E-13
 -1      1400 2.04773E+01-1.29614E-02 1.93602E-03-2.49922E-02 6.38194E-14-3.14209E-14
 -1      1401 2.04665E+01-3.06478E-03-4.68144E-04-3.31448E-02 4.10908E-14-3.06259E-13
 -1      1402 2.04270E+01-1.41346E-03-3.61856E-04-3.41069E-02 1.56792E-15-2.75925E-13
 -1      1403 2.04358E+01-6.40540E-03 8.69600E-04-5.55848E-02 9.02452E-14-1.60799E-14
 -1      1404 2.03932E+01-6.42869E-04-3.48008E-04-3.66504E-02-4.53451E-14-2.38213E-13
 -1      1405 2.03496E+01 5.00898E-04-3.23553E-04-3.65059E-02-2.02649E-14-2.75284E-13
 -1      1406 2.03742E+01-1.81156E-03 1.40770E-04-6.86249E-02 3.23602E-14-5.06104E-14
 -1      1407 2.03149E+01 8.41451E-04-2.17397E-04-3.52018E-02 4.98003E-14-2.48671E-13
 -1      1408 2.02731E+01 1.55374E-03-2.44956E-04-3.44374E-02 1.03799E-13-1.45355E-13
 -1      1409 2.03059E+01 1.05045E-03-3.02164E-04-6.98299E-02 6.53728E-14 9.03319E-15
 -1      1410 2.02409E+01 1.61447E-03-1.03100E-04-3.10342E-02-3.66677E-15-3.34419E-13
 -1      1411 2.02041E+01 1.99823E-03-1.58996E-04-2.99957E-02 5.59353E-15-3.20233E-13
 -1      1412 2.02395E+01 2.57796E-03-5.30179E-04-6.39785E-02 4.51687E-14-1.92232E-13
 -1      1413 2.01762E+01 1.89854E-03-1.65524E-05-2.57247E-02 5.27158E-14-3.12729E-13
 -1      1414 2.01459E+01 2.05331E-03-8.34759E-05-2.46351E-02 3.32916E-14-2.95582E-13
 -1      1415 2.01802E+01 3.17922E-03-6.11345E-04-5.46291E-02 4.95297E-14-3.68092E-13
 -1      1416 2.01230E+01 1.87804E-03 4.09366E-05-2.02829E-02 5.60638E-14-2.24307E-13
 -1      1417 2.00991E+01 1.88640E-03-2.55125E-05-1.92706E-02-4.92958E-14-1.94076E-13
 -1      1418 2.01301E+01 3.19924E-03-6.01321E-04-4.41854E-02 6.36628E-14-2.01052E-13
 -1      1419 2.00811E+01 1.69024E-03 7.34085E-05-1.52847E-02-3.06520E-14-1.18430E-14
 -1      1420 2.00633E+01 1.61431E-03 1.41765E-05-1.44122E-02 2.39591E-14-4.77908E-14
 -1      1421 2.00898E+01 2.89710E-03-5.41225E-04-3.41136E-02 6.91651E-15-3.27485E-14
 -1      1422 2.00497E+01 1.42886E-03 8.68717E-05-1.10032E-02-4.46163E-14 3.80555E-17
 -1      1423 2.00369E+01 1.31187E-03 3.80537E-05-1.02902E-02-1.58064E-13-2.07896E-13
 -1      1424 2.00588E+01 2.45042E-03-4.59051E-04-2.51931E-02-2.59449E-14 9.01586E-14
 -1      1425 2.00271E+01 1.15269E-03 8.73075E-05-7.51715E-03-1.60168E-13-7.56955E-14
 -1      1426 2.00185E+01 1.02254E-03 4.96909E-05-6.95854E-03-6.55555E-14-2.11559E-13
 -1      1427 2.00358E+01 1.97080E-03-3.72377E-04-1.77404E-02-1.47740E-13 1.70673E-13
 -1      1428 2.00118E+01 8.94931E-04 7.97124E-05-4.79245E-03-7.84656E-14-2.48814E-13
 -1      1429 2.00063E+01 7.68052E-04 5.26072E-05-4.37047E-03-1.35173E-13-4.88783E-13
 -1      1430 2.00195E+01 1.52129E-03-2.91198E-04-1.17875E-02-2.01184E-13 5.03378E-14
 -1      1431 2.00020E+01 6.71285E-04 6.78046E-05-2.73837E-03-1.26600E-13-5.12107E-13
 -1      1432 1.99990E+01 5.56013E-04 4.97319E-05-2.43048E-03-2.81310E-14-6.20841E-13
 -1      1433 2.00086E+01 1.13190E-03-2.20343E-04-7.20928E-03-1.75803E-13-1.23854E-13
 -1      1434 1.99965E+01 4.86170E-04 5.40981E-05-1.24443E-03 8.03880E-14-4.68064E-13
 -1      1435 1.99952E+01 3.85357E-04 4.32770E-05-1.02814E-03 1.37506E-13-3.88807E-13
 -1      1436 2.00018E+01 8.11465E-04-1.61316E-04-3.81131E-03 7.43504E-14-6.38564E-14
 -1      1437 1.99940E+01 3.36949E-04 4.02082E-05-2.03267E-04 2.02589E-13-5.82308E-13
 -1      1438 1.99939E+01 2.49807E-04 3.49549E-05-5.90804E-05 1.01456E-13-3.98489E-13
 -1      1439 1.99980E+01 5.55812E-04-1.13577E-04-1.38518E-03 2.08347E-13-7.50515E-14
 -1      1440 1.99936E+01 2.16529E-04 2.74084E-05 4.75309E-04-7.41702E-15-3.05419E-13
 -1      1441 1.99943E+01 1.39788E-04 2.66567E-05 5.62111E-04 5.14930E-14-2.80381E-13
 -1      1442 1.99965E+01 3.52816E-04-7.52454E-05 2.56697E-04 1.38223E-13-1.71030E-13
 -1      1443 1.99946E+01 1.14273E-04 1.78349E-05 8.54913E-04 8.16618E-14-3.29430E-13
 -1      1444 1.99957E+01 4.23223E-05 2.19301E-05 8.92242E-04 2.74370E-14-2.55569E-13
 -1      1445 1.99964E+01 1.84353E-04-4.32583E-05 1.25937E-03 1.56069E-13-2.06212E-13
 -1      1446 1.99963E+01 1.33154E-05 1.60549E-05 9.61955E-04 1.68687E-13-1.59737E-13
 -1      1447 1.99975E+01-6.14229E-05 2.36931E-05 9.46710E-04 2.16970E-13 8.15734E-14
 -1      1448 1.99971E+01 2.24882E-05-1.36653E-05 1.70498E-03 2.54011E-13-1.46943E-13
 -1      1449 1.99981E+01-1.01123E-04 2.79143E-05 7.73326E-04 7.40295E-14 2.53622E-13
 -1      1450 1.99990E+01-1.71756E-04 3.91220E-05 7.10105E-04 6.99241E-14 3.95202E-13
 -1      1451 1.99982E+01-1.82404E-04 1.50860E-05 1.60350E-03 2.64764E-13 3.94171E-14
 -1      1452 1.99996E+01-1.92418E-04 8.21787E-05 1.43511E-04-2.46124E-13 2.84990E-13
 -1      1453 1.99994E+01-5.05464E-04 3.87999E-05 7.75269E-04-2.45999E-13 2.34323E-13
 -1      1454 2.07631E+01 3.25583E-01-1.74768E-01 8.26304E-01-1.26288E-15 6.39447E-13
 -1      1455 2.21198E+01 1.85991E-01-3.99658E-01 1.33496E+00-1.20043E-14 6.18422E-13
 -1      1456 1.97128E+01 9.49929E-02-1.76124E-02 3.23233E-01 7.60156E-15 6.32973E-13
 -1      1457 2.01767E+01 1.60623E-01-7.95985E-02 3.96507E-01 3.80598E-15 6.30567E-13
 -1      1458 2.10707E+01 4.12151E-01-1.02585E-01 1.29009E+00 3.98986E-15 4.82461E-13
 -1      1459 1.92372E+01 4.58954E-02 1.32342E-02 9.70077E-02 4.65947E-15 6.22571E-13
 -1      1460 1.93679E+01 6.94144E-02 1.60219E-03 1.16896E-01-1.48839E-15 6.17340E-13
 -1      1461 2.00413E+01 1.42472E-01-3.75635E-02 4.81049E-01 2.34188E-15 4.75647E-13
 -1      1462 1.91252E+01 2.49906E-02 1.19324E-02-1.54422E-02 1.21942E-14 6.06706E-13
 -1      1463 1.91048E+01 3.64683E-02 1.34147E-02-3.53702E-03 6.18212E-15 6.10803E-13
 -1      1464 1.96044E+01 6.35381E-02-1.00620E-02 1.18447E-01 1.09652E-14 4.43048E-13
 -1      1465 1.92164E+01 1.68658E-02 7.58424E-03-8.10843E-02-8.39650E-15 5.82919E-13
 -1      1466 1.91133E+01 2.25859E-02 9.37759E-03-7.29916E-02 8.82757E-15 5.84022E-13
 -1      1467 1.94662E+01 3.42561E-02-5.12657E-03-7.04201E-02 1.93309E-14 4.16737E-13
 -1      1468 1.94419E+01 1.47848E-02 4.96588E-03-1.28800E-01-1.96418E-14 6.22958E-13
 -1      1469 1.92813E+01 1.69546E-02 5.17289E-03-1.21897E-01-1.92212E-14 5.79500E-13
 -1      1470 1.95154E+01 2.44368E-02-4.42693E-03-1.89244E-01-1.55856E-14 3.79866E-13
 -1      1471 1.97596E+01 1.62871E-02 3.91358E-03-1.70948E-01-1.48687E-14 6.48358E-13
 -1      1472 1.95575E+01 1.65556E-02 2.90036E-03-1.64123E-01-2.20522E-14 6.20134E-13
 -1      1473 1.96892E+01 2.28349E-02-4.45782E-03-2.80870E-01-3.66239E-14 3.95150E-13
 -1      1474 2.02070E+01 2.10363E-02 3.28592E-03-2.22347E-01 4.36547E-14 6.24353E-13
 -1      1475 1.99338E+01 1.97765E-02 1.66615E-03-2.12424E-01 2.83029E-14 6.64252E-13
 -1      1476 1.99667E+01 2.86393E-02-4.93178E-03-3.72426E-01 7.13622E-15 3.89625E-13
 -1      1477 2.07984E+01 2.97965E-02 2.67316E-03-2.91431E-01 2.52949E-14 5.81262E-13
 -1      1478 2.04408E+01 2.71197E-02 5.18178E-04-2.77229E-01 4.70080E-14 6.38326E-13
 -1      1479 2.03591E+01 4.00802E-02-6.23131E-03-4.87399E-01 6.24635E-14 3.56568E-13
 -1      1480 2.15855E+01 4.26151E-02 1.33318E-03-3.89594E-01 5.30635E-14 5.21983E-13
 -1      1481 2.11068E+01 3.87376E-02-1.29805E-03-3.68618E-01 4.17114E-14 5.41522E-13
 -1      1482 2.08799E+01 5.91361E-02-8.47176E-03-6.44126E-01 8.80815E-14 3.77251E-13
 -1      1483 2.26432E+01 5.89511E-02-1.62624E-03-5.28951E-01-9.32761E-15 4.62099E-13
 -1      1484 2.19917E+01 5.51353E-02-4.63442E-03-4.98439E-01 2.21516E-14 4.78924E-13
 -1      1485 2.15650E+01 8.63941E-02-1.19689E-02-8.64313E-01 6.97402E-14 2.93148E-13
 -1      1486 2.40620E+01 7.54711E-02-6.58102E-03-7.18220E-01-5.54504E-15 5.32414E-13
 -1      1487 2.31755E+01 7.50429E-02-1.04179E-02-6.76128E-01-3.96697E-14 5.17742E-13
 -1      1488 2.24631E+01 1.20229E-01-1.68085E-02-1.16734E+00-2.91885E-14 3.10282E-13
 -1      1489 2.59151E+01 8.15555E-02-1.18213E-02-9.50130E-01-4.36387E-14 6.01755E-13
 -1      1490 2.47466E+01 8.99611E-02-1.88864E-02-8.98443E-01-9.26689E-15 5.58532E-13
 -1      1491 2.36275E+01 1.51138E-01-2.20486E-02-1.55650E+00-4.24955E-14 3.49165E-13
 -1      1492 2.80697E+01 4.89984E-02-1.00512E-02-1.16201E+00 9.27036E-15 6.28247E-13
 -1      1493 2.67129E+01 8.46573E-02-2.38072E-02-1.11815E+00 3.72922E-15 6.18672E-13
 -1      1494 2.50578E+01 1.45859E-01-2.35548E-02-1.97265E+00-5.06886E-14 2.75724E-13
 -1      1495 3.04984E+01-7.33073E-02 1.70057E-02-1.22336E+00-3.51602E-14 6.82593E-13
 -1      1496 2.90348E+01 1.87285E-02-1.03705E-02-1.22173E+00-4.80900E-14 6.47815E-13
 -1      1497 2.67647E+01 4.10924E-02-1.55782E-02-2.26660E+00-3.34080E-14 3.70183E-13
 -1      1498 3.23660E+01-3.24732E-01 7.71248E-02-8.07902E-01-7.81250E-14 8.56443E-13
 -1      1499 3.14636E+01-1.78071E-01 4.55978E-02-9.43130E-01-4.38538E-14 7.96183E-13
 -1      1500 2.86834E+01-2.88448E-01 1.64216E-02-2.06741E+00-1.13451E-13 4.33521E-13
 -1      1501 3.24496E+01-6.00282E-01 1.19679E-01 4.34611E-01-1.31013E-13 1.12485E-12
 -1      1502 3.30800E+01-5.16313E-01 1.33654E-01 7.56397E-02-1.54907E-13 9.44057E-13
 -1      1503 3.04514E+01-8.65922E-01 6.91741E-02-7.82057E-01-2.08115E-13 6.36172E-13
 -1      1504 2.97744E+01-5.07157E-01-4.44417E-02 2.16947E+00-6.16451E-14 1.29774E-12
 -1      1505 3.25041E+01-6.76499E-01 1.47680E-01 1.75605E+00-5.43142E-14 1.24711E-12
 -1      1506 3.14436E+01-1.27781E+00 7.08154E-02 1.87139E+00-2.03081E-13 6.91627E-13
 -1      1507 2.60758E+01 2.01586E-01-3.77675E-01 2.79646E+00-1.89293E-14 1.34326E-12
 -1      1508 2.92122E+01-1.86786E-01-1.03119E-01 2.83603E+00-6.92224E-14 1.30501E-12
 -1      1509 3.11799E+01-8.26882E-01-4.53251E-02 4.36140E+00-6.96665E-14 7.51958E-13
 -1      1510 2.36712E+01 1.07435E+00-5.91117E-01 1.47544E+00 3.51386E-14 1.37668E-12
 -1      1511 2.53456E+01 7.32494E-01-4.66337E-01 2.02323E+00 6.07292E-14 1.40227E-12
 -1      1512 2.99980E+01 9.29821E-01-2.63878E-01 4.26575E+00-2.37033E-14 8.43853E-13
 -1      1513 2.41304E+01 1.11054E+00-5.86861E-01-8.49760E-01 1.08802E-14 1.26399E-12
 -1      1514 2.34349E+01 1.18523E+00-6.43724E-01-2.79980E-01 3.82749E-14 1.30304E-12
 -1      1515 2.91149E+01 2.19019E+00-4.00821E-01 1.23262E+00 6.81122E-14 8.96789E-13
 -1      1516 2.77930E+01 1.67980E-01-2.58011E-01-2.72883E+00 2.35409E-13 9.20541E-13
 -1      1517 2.46999E+01 6.32276E-01-5.26826E-01-2.49522E+00 1.21680E-13 1.17042E-12
 -1      1518 2.94054E+01 1.76580E+00-3.50516E-01-2.89347E+00 1.75637E-13 5.92641E-13
 -1      1519 3.19960E+01-6.71681E-01 9.13111E-02-2.18496E+00 1.35665E-13 6.56752E-13
 -1      1520 2.87679E+01-3.31927E-01-1.30547E-01-2.56195E+00 1.27551E-13 8.99003E-13
 -1      1521 3.08211E+01-1.33729E-01-1.22744E-01-4.63900E+00 2.68729E-13 5.45346E-13
 -1      1522 3.33156E+01-6.02890E-01 1.51155E-01-4.59111E-01-1.51650E-14 6.56766E-13
 -1      1523 3.21626E+01-6.30119E-01 1.06726E-01-8.72581E-01 6.77652E-14 7.00690E-13
 -1      1524 3.16119E+01-1.24548E+00 7.20935E-02-2.60259E+00 1.59933E-13 6.09963E-13
 -1      1525 3.21289E+01-2.52131E-01 6.95899E-02 7.62627E-01-6.47087E-14 6.36220E-13
 -1      1526 3.27455E+01-3.97393E-01 9.99012E-02 5.75520E-01-8.09006E-14 5.48908E-13
 -1      1527 3.09068E+01-1.00085E+00 9.27016E-02 2.34280E-01-1.39888E-14 4.65821E-13
 -1      1528 2.98307E+01-1.16154E-02 5.22149E-05 1.18718E+00-1.13785E-13 8.28893E-13
 -1      1529 3.12130E+01-1.20159E-01 3.16999E-02 1.16620E+00-5.61842E-14 7.04589E-13
 -1      1530 2.92825E+01-4.02932E-01 3.34228E-02 1.84848E+00-1.67370E-13 4.26693E-13
 -1      1531 2.74374E+01 8.27355E-02-2.18100E-02 1.13523E+00 1.73533E-14 9.44828E-13
 -1      1532 2.88695E+01 3.02992E-02-7.16341E-03 1.17928E+00-5.78509E-14 8.99378E-13
 -1      1533 2.73960E+01-7.82557E-03-9.92495E-03 2.24219E+00-1.17500E-13 3.82736E-13
 -1      1534 2.54030E+01 9.75407E-02-1.84082E-02 9.13017E-01 1.17805E-13 8.47655E-13
 -1      1535 2.65855E+01 7.88929E-02-1.41495E-02 9.67821E-01 1.13545E-13 1.01397E-12
 -1      1536 2.56360E+01 1.41060E-01-2.43866E-02 2.00094E+00 7.30718E-14 6.04936E-13
 -1      1537 2.38953E+01 8.32272E-02-1.15301E-02 6.88116E-01-3.40561E-14 7.94982E-13
 -1      1538 2.47498E+01 8.23904E-02-8.24007E-03 7.31727E-01 5.02905E-14 7.80341E-13
 -1      1539 2.41944E+01 1.58912E-01-2.51316E-02 1.57681E+00 1.40625E-13 5.51875E-13
 -1      1540 2.27172E+01 6.28087E-02-5.61796E-03 4.90425E-01-5.73768E-14 7.59049E-13
 -1      1541 2.33605E+01 6.53422E-02-3.91545E-03 5.25228E-01-5.78686E-14 8.05862E-13
 -1      1542 2.30631E+01 1.35560E-01-1.81269E-02 1.17011E+00-8.07323E-14 5.24852E-13
 -1      1543 2.18785E+01 4.46771E-02-2.06214E-03 3.42155E-01-6.64607E-14 8.28097E-13
 -1      1544 2.23255E+01 4.88285E-02-2.80468E-04 3.66509E-01-1.41042E-14 8.56148E-13
 -1      1545 2.21857E+01 1.00596E-01-1.30223E-02 8.31896E-01-1.15671E-13 4.05496E-13
 -1      1546 2.12889E+01 3.09649E-02-3.69639E-04 2.36353E-01 2.20227E-14 8.76086E-13
 -1      1547 2.15956E+01 3.47575E-02 1.22764E-03 2.53040E-01-3.84376E-14 8.35110E-13
 -1      1548 2.15434E+01 7.07804E-02-9.06235E-03 5.81036E-01-7.42288E-14 3.80016E-13
 -1      1549 2.08777E+01 2.12293E-02 3.19747E-04 1.62600E-01-7.30275E-14 1.07520E-12
 -1      1550 2.10871E+01 2.42439E-02 1.60803E-03 1.73943E-01-2.52415E-14 9.55010E-13
 -1      1551 2.10805E+01 4.85597E-02-6.29439E-03 4.02469E-01-4.74109E-14 5.02488E-13
 -1      1552 2.05921E+01 1.45358E-02 5.43496E-04 1.11686E-01 1.25994E-13 9.34356E-13
 -1      1553 2.07348E+01 1.67770E-02 1.50017E-03 1.19387E-01 1.23574E-13 1.04550E-12
 -1      1554 2.07502E+01 3.29870E-02-4.39640E-03 2.77783E-01 6.03636E-14 5.82987E-13
 -1      1555 2.03945E+01 1.00492E-02 6.21321E-04 7.65939E-02 1.41163E-13 5.21657E-13
 -1      1556 2.04913E+01 1.14949E-02 1.20835E-03 8.18475E-02 1.62689E-13 8.11935E-13
 -1      1557 2.05157E+01 2.24359E-02-3.07035E-03 1.91360E-01 3.11652E-13 6.32727E-13
 -1      1558 2.02634E+01 7.06462E-03 5.04353E-04 5.33769E-02 5.65827E-14 3.69392E-13
 -1      1559 2.03269E+01 8.23916E-03 1.00961E-03 5.67817E-02 1.85708E-14 4.67709E-13
 -1      1560 2.03533E+01 1.49953E-02-2.35576E-03 1.32490E-01 1.64335E-13 5.73143E-13
 -1      1561 2.01675E+01 4.81614E-03 3.99723E-04 3.62792E-02-9.46593E-14 4.92555E-13
 -1      1562 2.02129E+01 5.64065E-03 7.15888E-04 3.88330E-02 5.95548E-14 4.35558E-13
 -1      1563 2.02385E+01 1.06654E-02-1.56367E-03 9.17797E-02 1.15693E-13 6.42348E-13
 -1      1564 2.01023E+01 3.33345E-03 3.20065E-04 2.43941E-02 8.18329E-15 6.33972E-13
 -1      1565 2.01326E+01 3.98021E-03 5.49282E-04 2.61468E-02-1.43346E-13 5.31086E-13
 -1      1566 2.01556E+01 7.26604E-03-1.12815E-03 6.23989E-02-9.74615E-14 6.25289E-13
 -1      1567 2.00584E+01 2.31030E-03 2.51393E-04 1.61112E-02-6.21871E-14 5.62547E-13
 -1      1568 2.00783E+01 2.78723E-03 4.05278E-04 1.73269E-02 6.21001E-14 6.86468E-13
 -1      1569 2.00981E+01 5.00182E-03-8.06125E-04 4.18786E-02-1.16011E-14 5.33650E-13
 -1      1570 2.00295E+01 1.59758E-03 1.95213E-04 1.03361E-02-5.59960E-14 6.40723E-13
 -1      1571 2.00422E+01 1.95255E-03 2.96563E-04 1.11785E-02-1.29287E-13 5.65523E-13
 -1      1572 2.00588E+01 3.44693E-03-5.74983E-04 2.75356E-02-1.36181E-14 4.09163E-13
 -1      1573 2.00112E+01 1.10029E-03 1.51969E-04 6.32046E-03-1.90394E-13 7.11861E-13
 -1      1574 2.00189E+01 1.36451E-03 2.15735E-04 6.90064E-03-2.52666E-14 6.45129E-13
 -1      1575 2.00325E+01 2.37095E-03-4.08261E-04 1.75161E-02-7.33325E-14 5.42215E-13
 -1      1576 2.00002E+01 7.57046E-04 1.19610E-04 3.54420E-03 5.79557E-14 4.42295E-13
 -1      1577 2.00045E+01 9.35624E-04 1.51932E-04 3.93921E-03-1.71230E-13 4.63864E-13
 -1      1578 2.00153E+01 1.63017E-03-2.85257E-04 1.05423E-02-1.30132E-13 1.22454E-13
 -1      1579 1.99945E+01 5.19691E-04 9.00885E-05 1.72221E-03 9.89337E-14 5.84047E-13
 -1      1580 1.99964E+01 6.60708E-04 1.11265E-04 1.97189E-03 5.64019E-14 6.42466E-13
 -1      1581 2.00049E+01 1.07711E-03-2.10219E-04 5.80267E-03 3.35742E-14 1.64499E-13
 -1      1582 1.99919E+01 3.28328E-04 6.53039E-05 4.21852E-04 1.29996E-16 4.73674E-13
 -1      1583 1.99923E+01 4.44082E-04 7.73827E-05 6.03160E-04 2.00242E-14 4.58638E-13
 -1      1584 1.99989E+01 7.50235E-04-1.38756E-04 2.57669E-03 8.96367E-14 3.23366E-13
 -1      1585 1.99917E+01 1.97596E-04 4.64892E-05-4.22376E-04 2.03514E-14 7.47477E-13
 -1      1586 1.99910E+01 2.95166E-04 5.35214E-05-3.10116E-04-2.83314E-14 6.31753E-13
 -1      1587 1.99958E+01 4.75379E-04-9.38791E-05 3.46176E-04-5.82235E-14 6.64521E-13
 -1      1588 1.99929E+01 9.68232E-05 3.20043E-05-9.28691E-04-3.20041E-14 7.68224E-13
 -1      1589 1.99917E+01 1.79101E-04 3.37854E-05-8.66636E-04-6.87529E-15 6.38706E-13
 -1      1590 1.99949E+01 2.80511E-04-5.92061E-05-1.07428E-03-4.98600E-14 6.86941E-13
 -1      1591 1.99949E+01 6.99381E-06 2.41904E-05-1.16242E-03 2.50758E-14 5.97627E-13
 -1      1592 1.99934E+01 8.30224E-05 2.06290E-05-1.14388E-03 6.21141E-14 5.96324E-13
 -1      1593 1.99953E+01 1.23769E-04-3.12881E-05-1.87618E-03 4.37920E-14 4.66132E-13
 -1      1594 1.99971E+01-9.22945E-05 2.60404E-05-1.13410E-03-9.84091E-14 6.52469E-13
 -1      1595 1.99956E+01-1.25911E-05 1.84068E-05-1.16443E-03-1.65858E-13 6.70204E-13
 -1      1596 1.99965E+01-3.01491E-05-4.18488E-06-2.15006E-03-8.75635E-14 7.01676E-13
 -1      1597 1.99989E+01-2.08380E-04 3.97927E-05-8.03479E-04 2.54909E-14 5.15560E-13
 -1      1598 1.99978E+01-1.40505E-04 3.02814E-05-8.92595E-04 2.40501E-14 5.04254E-13
 -1      1599 1.99979E+01-2.34241E-04 2.28790E-05-1.89948E-03-3.00280E-14 3.51260E-13
 -1      1600 1.99996E+01-2.22477E-04 8.30950E-05-1.67022E-04 2.10037E-13 2.39280E-13
 -1      1601 1.99997E+01-1.95953E-03 1.71651E-05-8.66692E-04 1.64275E-13-2.80886E-13
 -1      1602 1.99996E+01-1.02891E-03 1.38176E-05-7.71370E-04 4.71305E-13-3.18325E-13
 -1      1603 1.99998E+01-3.88666E-03-8.31647E-06-1.00438E-03 1.86174E-13 8.68120E-14
 -1      1604 1.99998E+01-2.65810E-03 6.38774E-06-1.00745E-03 1.18022E-13 4.10128E-14
 -1      1605 1.99997E+01-1.93311E-03 9.19315E-06-1.77251E-03 4.10135E-13-2.23321E-13
 -1      1606 1.99999E+01-5.70148E-03-1.84482E-05-8.75171E-04-3.04339E-13-3.19585E-13
 -1      1607 1.99999E+01-4.57396E-03-6.26842E-06-9.22650E-04 1.67963E-13-4.72696E-14
 -1      1608 1.99999E+01-3.26704E-03-1.21798E-05-1.81621E-03 1.42385E-13-1.19886E-13
 -1      1609 1.99999E+01-7.08147E-03-1.72443E-05-6.23258E-04-4.69797E-13 5.39438E-14
 -1      1610 1.99999E+01-6.24214E-03-9.01665E-06-6.81355E-04-5.77519E-13 1.04609E-13
 -1      1611 2.00000E+01-4.44481E-03-2.57308E-05-1.46503E-03-1.85001E-13-4.11345E-13
 -1      1612 1.99999E+01-7.93542E-03-1.28596E-05-3.64759E-04-6.84937E-13-1.09493E-13
 -1      1613 1.99999E+01-7.42474E-03-6.93513E-06-4.15238E-04-4.39671E-13-2.91439E-13
 -1      1614 2.00000E+01-5.27164E-03-2.68081E-05-9.79159E-04-3.19783E-13-1.70103E-13
 -1      1615 1.99999E+01-8.34686E-03-7.74240E-06-1.48447E-04-5.22726E-13 2.32279E-13
 -1      1616 1.99999E+01-8.10744E-03-4.37374E-06-1.86132E-04-7.60806E-13 2.16861E-13
 -1      1617 2.00000E+01-5.73620E-03-1.96345E-05-5.18184E-04-3.80145E-13-1.42987E-13
 -1      1618 1.99998E+01-8.41158E-03-3.57466E-06 4.26778E-06-9.66052E-13-3.63597E-13
 -1      1619 1.99999E+01-8.38122E-03-2.16544E-06-1.97699E-05-5.13309E-13-2.18541E-13
 -1      1620 1.99999E+01-5.90365E-03-1.14098E-05-1.56285E-04-6.21167E-13-1.21902E-13
 -1      1621 1.99998E+01-8.23873E-03-1.11416E-06 1.08117E-04-8.48269E-13-7.07859E-14
 -1      1622 1.99998E+01-8.35755E-03-1.64279E-06 9.21047E-05-8.40219E-13 1.41249E-13
 -1      1623 1.99999E+01-5.86461E-03-5.15528E-06 9.40197E-05-4.89429E-13-2.11160E-13
 -1      1624 1.99998E+01-7.88281E-03-5.42763E-07 1.95479E-04-9.35109E-13-1.02855E-13
 -1      1625 1.99998E+01-8.12638E-03-2.93091E-06 1.79648E-04-8.20862E-13-1.47408E-14
 -1      1626 1.99999E+01-5.69904E-03-2.96493E-06 2.74755E-04-3.17200E-13-6.81433E-14
 -1      1627 1.99998E+01-7.33066E-03-1.90967E-06 3.01417E-04-1.32910E-12-1.40078E-13
 -1      1628 1.99998E+01-7.71440E-03-6.03567E-06 2.78531E-04-1.03727E-12-1.30441E-13
 -1      1629 1.99999E+01-5.43895E-03-5.25254E-06 4.50363E-04-6.69066E-13-2.01807E-13
 -1      1630 1.99999E+01-6.53188E-03-4.60645E-06 4.45409E-04-1.46051E-12 6.91356E-14
 -1      1631 1.99999E+01-7.08859E-03-1.04472E-05 4.13253E-04-1.40142E-12-1.28495E-13
 -1      1632 1.99999E+01-5.06555E-03-1.05526E-05 6.76010E-04-8.35534E-13-2.86064E-13
 -1      1633 1.99999E+01-5.39074E-03-6.92099E-06 6.27464E-04-1.07419E-12 2.78135E-13
 -1      1634 1.99999E+01-6.17608E-03-1.49149E-05 5.86603E-04-1.47791E-12 4.43762E-13
 -1      1635 1.99999E+01-4.52003E-03-1.67081E-05 9.74984E-04-9.85646E-13 3.39242E-13
 -1      1636 1.99998E+01-3.92525E-03-7.67963E-06 8.04984E-04-8.64324E-13 2.19078E-14
 -1      1637 1.99999E+01-4.91106E-03-1.67304E-05 7.65748E-04-9.52734E-13 1.78557E-13
 -1      1638 1.99999E+01-3.74300E-03-1.86210E-05 1.31097E-03-8.82092E-13 4.04266E-13
 -1      1639 1.99998E+01-2.30911E-03-2.14232E-06 8.56774E-04-7.21908E-13-1.40932E-13
 -1      1640 1.99998E+01-3.34688E-03-1.24870E-05 8.48726E-04-6.11887E-13-8.73514E-14
 -1      1641 1.99998E+01-2.72692E-03-1.30337E-05 1.56040E-03-4.26449E-13 5.62564E-14
 -1      1642 1.99996E+01-9.45491E-04 9.52237E-07 8.68037E-04-3.54010E-13 9.63705E-14
 -1      1643 1.99997E+01-1.75495E-03-1.20438E-05 1.00440E-03-4.91254E-13-2.28379E-14
 -1      1644 1.99997E+01-1.55365E-03 4.57009E-05 1.66941E-03-8.46313E-14 8.01698E-14
 -1      1645 1.99992E+01-6.41270E-04 3.26602E-05 1.57893E-03 1.29902E-13 1.94209E-13
 -1      1646-1.05745E+00-1.73944E+01-1.88759E+00-2.09898E+00 9.14269E-13 2.02782E-13
 -1      1647-8.38836E-01-1.84395E+01-1.91478E+00-4.88951E-01 9.66893E-13-9.67004E-14
 -1      1648-1.26250E-01-1.21167E+01-1.69642E+00-1.72762E+00 1.05360E-12 5.65048E-13
 -1      1649-3.36034E-01-1.66799E+01-2.04160E+00-1.63340E+00 9.00613E-13 4.54622E-13
 -1      1650 4.92862E+00-4.47728E+00-1.15152E+00 2.09390E+00 7.22977E-13 5.00711E-14
 -1      1651 2.45194E+00-1.01671E+01-1.79699E+00-3.18513E-01 1.02751E-12 2.33535E-13
 -1      1652 1.47285E+01 1.93803E+00-4.21584E-01 7.33881E+00 8.83738E-14-1.58096E-13
 -1      1653 8.67165E+00-2.52213E+00-1.35198E+00 3.39901E+00 4.85390E-13 4.08562E-14
 -1      1654 3.20108E+01 4.52551E+00 7.26827E-01 1.13814E+01-2.77556E-14-3.71703E-13
 -1      1655 2.13689E+01 2.69741E+00-4.77262E-01 8.04840E+00-6.66134E-15-1.54987E-13
 -1      1656 5.04942E+01 4.86488E+00 2.02778E+00 1.13755E+01-7.68274E-14-6.91891E-13
 -1      1657 3.84035E+01 5.85512E+00 8.01805E-01 1.16953E+01 5.71765E-14-3.69926E-13
 -1      1658 6.27747E+01 3.81524E+00 2.80601E+00 4.99486E+00-5.01266E-14-9.59899E-13
 -1      1659 5.51806E+01 5.20258E+00 2.09076E+00 9.43365E+00-6.62248E-14-7.55396E-13
 -1      1660 6.49229E+01 3.95877E+00 2.89309E+00-3.23070E+00 9.91984E-14-1.13720E-12
 -1      1661 6.50415E+01 3.96510E+00 2.93636E+00 3.05994E+00-7.24976E-14-1.10029E-12
 -1      1662 5.43049E+01 5.15420E+00 1.90884E+00-9.12204E+00 4.51278E-13-1.25944E-12
 -1      1663 6.21899E+01 3.90072E+00 2.72158E+00-4.80776E+00 2.54935E-13-1.15341E-12
 -1      1664 3.86942E+01 5.61560E+00 7.41242E-01-1.12954E+01 5.37681E-13-1.22147E-12
 -1      1665 5.00429E+01 4.76054E+00 1.92230E+00-1.09069E+01 5.47840E-13-1.27987E-12
 -1      1666 2.23374E+01 3.01946E+00-4.04303E-01-8.43523E+00 3.20854E-13-8.20899E-13
 -1      1667 3.27956E+01 4.60585E+00 7.58145E-01-1.15124E+01 4.17666E-13-1.22213E-12
 -1      1668 9.26437E+00-2.03854E+00-1.29416E+00-3.75935E+00 1.88072E-13-3.78031E-13
 -1      1669 1.56502E+01 2.35963E+00-3.50429E-01-7.78397E+00 3.50830E-13-6.73683E-13
 -1      1670 2.92369E+00-9.88550E+00-1.72075E+00-2.38607E-02-7.50511E-14-1.46994E-13
 -1      1671 5.59228E+00-4.17368E+00-1.08487E+00-2.54511E+00 1.30340E-13-2.90878E-13
 -1      1672-2.18470E-01-1.63362E+01-2.01576E+00 1.55911E+00-2.91100E-13 2.60625E-14
 -1      1673 3.83836E-03-1.18350E+01-1.67398E+00 1.56158E+00-1.56319E-13-2.98511E-14
 -1      1674-8.28363E-01-1.83803E+01-1.89190E+00 5.44279E-01-4.16403E-13-1.24345E-14
 -1      1675-1.04333E+00-1.71067E+01-1.86944E+00 2.11309E+00-3.17135E-13 6.70020E-14
 -1      1676-5.10060E-01-1.53328E+01-1.59295E+00-2.16713E-01-8.01914E-13-3.55160E-13
 -1      1677-6.47667E-01-1.78072E+01-1.82589E+00 1.12688E+00-4.82892E-13-2.16827E-13
 -1      1678 1.11077E+00-9.07842E+00-1.24285E+00 5.14838E-01-1.27676E-12-6.70686E-13
 -1      1679 5.32316E-01-1.42649E+01-1.72506E+00 2.21983E-01-9.42357E-13-4.76799E-13
 -1      1680 6.04243E+00-9.07508E-01-6.01268E-01 4.35107E+00-1.13642E-12-4.56080E-13
 -1      1681 3.39625E+00-6.77620E+00-1.33255E+00 1.68054E+00-1.30873E-12-5.26412E-13
 -1      1682 1.58319E+01 5.34236E+00 1.74460E-01 9.75812E+00-6.07292E-13-2.86993E-13
 -1      1683 9.85212E+00 1.31796E+00-6.97414E-01 5.87825E+00-9.98757E-13-4.49973E-13
 -1      1684 2.95349E+01 7.46905E+00 9.02036E-01 1.34411E+01-1.74749E-13 1.28342E-13
 -1      1685 2.08966E+01 6.56388E+00 5.63740E-02 1.08247E+01-4.55636E-13-1.20570E-13
 -1      1686 4.38095E+01 6.37278E+00 1.48851E+00 1.28972E+01-3.58047E-15 3.95906E-13
 -1      1687 3.48233E+01 7.70419E+00 8.06227E-01 1.33587E+01-8.87623E-14 1.92513E-13
 -1      1688 5.47105E+01 4.25042E+00 1.83263E+00 7.25585E+00 1.00336E-14 9.50795E-13
 -1      1689 4.81890E+01 6.03897E+00 1.42155E+00 1.13290E+01-3.93990E-14 6.34826E-13
 -1      1690 5.72751E+01 3.80443E+00 1.82181E+00-1.85082E+00-1.48270E-13 1.30268E-12
 -1      1691 5.64024E+01 4.07727E+00 1.77152E+00 4.24052E+00-1.11300E-14 1.11611E-12
 -1      1692 5.13165E+01 5.37381E+00 1.55462E+00-9.86090E+00-4.06397E-13 1.45517E-12
 -1      1693 5.64611E+01 3.85962E+00 1.87085E+00-5.01753E+00-2.67925E-13 1.36985E-12
 -1      1694 3.83380E+01 7.57335E+00 9.61926E-01-1.33633E+01-5.01155E-13 1.19149E-12
 -1      1695 4.74239E+01 5.85529E+00 1.64205E+00-1.18728E+01-4.59369E-13 1.44684E-12
 -1      1696 2.41946E+01 6.70072E+00 2.00243E-01-1.12718E+01-2.43916E-13 7.70939E-13
 -1      1697 3.31367E+01 6.95556E+00 9.78226E-01-1.32378E+01-4.54969E-13 1.08002E-12
 -1      1698 1.15289E+01 2.70058E+00-5.92980E-01-6.86470E+00-1.75415E-14 1.97176E-13
 -1      1699 1.83990E+01 6.13299E+00 2.91837E-01-1.07947E+01-1.19571E-13 6.82676E-13
 -1      1700 4.29415E+00-5.06211E+00-1.21839E+00-2.35775E+00 1.46994E-13 3.58602E-14
 -1      1701 7.52126E+00 6.69192E-01-4.31171E-01-5.38795E+00-3.13083E-14 3.77476E-14
 -1      1702 8.85094E-01-1.33291E+01-1.67591E+00-4.39127E-01 6.01630E-13 2.15800E-14
 -1      1703 1.83166E+00-7.48133E+00-1.09162E+00-1.24961E+00 2.57572E-13 4.61298E-14
 -1      1704-6.33425E-01-1.83293E+01-1.95321E+00-9.12091E-01 8.60256E-13-4.75175E-14
 -1      1705-5.44673E-01-1.53262E+01-1.66702E+00 4.75502E-01 6.93112E-13 4.01901E-14
 -1      1706 2.29272E+01 1.97919E+00-2.76554E-02 2.73228E+00-9.21485E-15 5.72792E-13
 -1      1707 1.25250E+01-6.26005E+00-8.15525E-01 4.96098E+00 4.11449E-13-3.53439E-13
 -1      1708 1.99994E+01-5.47333E-04 5.35307E-05-8.78238E-04 3.04812E-13-1.16129E-13
 -1      1709-6.94779E-01-1.22141E+01-1.41344E+00 6.64885E-01 5.99520E-13 2.76834E-13
 -1      1710 4.18774E+00-9.88006E+00-1.20724E+00 2.98381E+00 4.74842E-13 5.59136E-14
 -1      1711-1.61347E+00-1.26704E+01-1.38337E+00-1.21827E+00 5.32713E-13 1.50990E-14
 -1      1712 2.44983E+01-2.56308E+00-1.20901E-01 6.02033E+00 1.10689E-13-3.42948E-13
 -1      1713 3.73949E+01 1.21863E+00 6.70141E-01 5.25816E+00 5.93969E-14-3.21188E-13
 -1      1714 4.84591E+01 5.20481E+00 1.67446E+00 3.64589E+00 1.46827E-13-3.03646E-13
 -1      1715 5.43656E+01 7.56340E+00 2.26646E+00 9.92908E-01 6.09512E-14-6.18061E-13
 -1      1716 5.39604E+01 7.49115E+00 2.19499E+00-9.08483E-01 1.95788E-13-7.72216E-13
 -1      1717 4.79198E+01 5.18213E+00 1.62011E+00-2.86791E+00 3.52163E-13-7.28639E-13
 -1      1718 3.80933E+01 1.34369E+00 7.94784E-01-4.75602E+00 1.49381E-13-6.96332E-13
 -1      1719 2.53279E+01-2.25240E+00-4.33481E-02-6.12389E+00 5.73985E-14-7.09877E-13
 -1      1720 1.32177E+01-6.05842E+00-7.75054E-01-5.15112E+00-5.14033E-14-4.62519E-13
 -1      1721 4.69689E+00-9.56295E+00-1.13523E+00-3.27036E+00-1.19127E-13-1.86892E-13
 -1      1722-4.56171E-01-1.21356E+01-1.39855E+00-8.63819E-01-1.96065E-13-2.96430E-14
 -1      1723-1.62571E+00-1.21039E+01-1.29756E+00 1.10856E+00-3.39923E-13-2.39808E-13
 -1      1724 3.41165E-01-1.08491E+01-1.18561E+00 2.99025E+00-4.96214E-13-5.36238E-13
 -1      1725 5.19528E+00-7.67954E+00-9.03613E-01 4.82213E+00-6.99663E-13-3.81990E-13
 -1      1726 1.30477E+01-3.09387E+00-3.83515E-01 6.87144E+00-7.63611E-13-1.03473E-13
 -1      1727 2.31465E+01 1.24555E+00 2.18481E-01 8.32177E+00-5.17031E-13 1.43885E-13
 -1      1728 3.37265E+01 4.51453E+00 7.92194E-01 8.39406E+00-2.63400E-13 2.83107E-13
 -1      1729 4.29723E+01 6.52399E+00 1.27601E+00 6.54334E+00-2.18450E-13 5.06706E-13
 -1      1730 4.85289E+01 7.62312E+00 1.55319E+00 2.82848E+00-1.90181E-13 9.70446E-13
 -1      1731 4.92307E+01 7.81967E+00 1.59803E+00-1.69127E+00-2.61235E-13 9.42579E-13
 -1      1732 4.50543E+01 6.90056E+00 1.39271E+00-5.75192E+00-2.47025E-13 9.27258E-13
 -1      1733 3.60546E+01 4.58358E+00 7.54045E-01-7.51060E+00-1.42025E-13 8.12239E-13
 -1      1734 2.58466E+01 1.84513E+00 4.02738E-01-8.31646E+00 1.31672E-13 7.43627E-13
 -1      1735 1.48845E+01-2.13151E+00-2.71822E-01-7.29278E+00 5.89528E-14 1.78746E-13
 -1      1736 6.50176E+00-6.82293E+00-7.90857E-01-5.34858E+00 2.15938E-13 1.56139E-13
 -1      1737 8.28566E-01-1.06748E+01-1.16569E+00-3.29425E+00 3.77032E-13 2.07834E-13
 -1      1738 2.28553E+01 1.97757E+00-2.42718E-02-2.68528E+00-3.72861E-14-2.35395E-13
 -1      1739 1.98577E+01 3.72616E+00-3.51157E-02-2.08309E+00 3.47170E-14-2.01346E-13
 -1      1740 2.00922E+01 3.56459E+00-4.22611E-02-2.37091E+00 1.15966E-14-2.07889E-13
 -1      1741 2.04070E+01 3.18006E+00-4.51421E-02-2.51972E+00 2.72785E-15-2.21080E-13
 -1      1742 2.06244E+01 2.80367E+00-1.41271E-01-2.79158E+00-2.08583E-14-2.46511E-13
 -1      1743 2.04746E+01 2.69456E+00-2.76701E-03-2.14905E+00 2.46873E-15-2.09652E-13
 -1      1744 1.93515E+01 4.22017E+00-2.03454E-02-1.20526E+00 7.67168E-14-1.20366E-13
 -1      1745 1.94361E+01 4.17733E+00-1.65585E-02-1.42550E+00 6.84305E-14-1.49863E-13
 -1      1746 1.92331E+01 4.33731E+00-1.68368E-02-8.07663E-01 9.87827E-14-8.62522E-14
 -1      1747 1.92866E+01 4.31059E+00-1.36648E-02-1.01127E+00 9.26824E-14-1.06765E-13
 -1      1748 1.95126E+01 3.82989E+00-8.96603E-03-1.05222E+00 8.51326E-14-1.14913E-13
 -1      1749 1.91644E+01 4.40771E+00-1.46848E-02-4.33975E-01 1.16680E-13-3.70919E-14
 -1      1750 1.91943E+01 4.39259E+00-1.26054E-02-6.24520E-01 1.07437E-13-6.38569E-14
 -1      1751 1.93922E+01 3.96513E+00-8.72287E-03-6.81442E-01 1.14826E-13-6.26981E-14
 -1      1752 1.91357E+01 4.44074E+00-1.33827E-02-7.46057E-02 1.37799E-13-9.69884E-15
 -1      1753 1.91457E+01 4.43524E+00-1.25530E-02-2.58428E-01 1.29808E-13-2.61180E-14
 -1      1754 1.93246E+01 4.04206E+00-8.50840E-03-3.28211E-01 1.34074E-13-2.95059E-14
 -1      1755 1.91447E+01 4.43927E+00-1.27146E-02 2.80806E-01 1.48512E-13 1.41172E-14
 -1      1756 1.91353E+01 4.44303E+00-1.32195E-02 9.76580E-02 1.43853E-13 2.74954E-15
 -1      1757 1.93019E+01 4.06987E+00-8.36215E-03 1.44135E-02 1.45894E-13 2.17534E-15
 -1      1758 1.91934E+01 4.40154E+00-1.27219E-02 6.43333E-01 1.35414E-13 2.73340E-14
 -1      1759 1.91632E+01 4.41555E+00-1.45716E-02 4.54562E-01 1.40796E-13 1.03337E-14
 -1      1760 1.93228E+01 4.05011E+00-8.33339E-03 3.55043E-01 1.50112E-13 1.70211E-14
 -1      1761 1.92867E+01 4.32338E+00-1.36322E-02 1.01813E+00 1.32474E-13 7.52644E-14
 -1      1762 1.92324E+01 4.34902E+00-1.68339E-02 8.20384E-01 1.34747E-13 4.71064E-14
 -1      1763 1.93902E+01 3.97945E+00-8.36799E-03 6.99903E-01 1.42878E-13 3.37282E-14
 -1      1764 1.94428E+01 4.18808E+00-1.63486E-02 1.43072E+00 1.42404E-13 1.32925E-13
 -1      1765 1.93537E+01 4.23226E+00-2.04573E-02 1.20886E+00 1.32616E-13 1.05830E-13
 -1      1766 1.95132E+01 3.84657E+00-8.54297E-03 1.06053E+00 1.43526E-13 8.96713E-14
 -1      1767 1.96928E+01 3.96240E+00-2.38194E-02 1.88573E+00 1.25734E-13 1.78788E-13
 -1      1768 1.95505E+01 4.04129E+00-2.64906E-02 1.63328E+00 1.33146E-13 1.44509E-13
 -1      1769 1.97133E+01 3.62665E+00-8.18423E-03 1.44486E+00 1.40236E-13 1.36698E-13
 -1      1770 2.01139E+01 3.55697E+00-4.25177E-02 2.37316E+00 8.53918E-14 2.45130E-13
 -1      1771 1.98751E+01 3.72366E+00-3.53811E-02 2.08597E+00 1.01105E-13 2.00971E-13
 -1      1772 2.00272E+01 3.27507E+00-4.84004E-03 1.83708E+00 1.19370E-13 1.75158E-13
 -1      1773 2.06534E+01 2.78842E+00-1.36632E-01 2.80011E+00 2.92821E-14 3.74104E-13
 -1      1774 2.04311E+01 3.16248E+00-4.56904E-02 2.52547E+00 5.90862E-14 3.02140E-13
 -1      1775 2.05201E+01 2.67914E+00 4.88069E-03 2.15695E+00 6.56252E-14 2.55258E-13
 -1      1776 1.88610E+01-5.48543E+00-1.44463E-01 5.96567E+00 3.10307E-13-5.17753E-13
 -1      1777 1.37817E+01-7.06348E+00-4.40605E-01 5.24812E+00 3.50719E-13-4.32848E-13
 -1      1778 2.18208E+01 2.44904E+00 9.02273E-02-2.99700E+00-3.35131E-14-2.37310E-13
 -1      1779 2.18507E+01 2.46468E+00 8.87627E-02 3.03333E+00 2.59862E-15 4.43562E-13
 -1      1780 2.05899E+01 5.03761E-01 3.26442E-02-8.65080E-01-3.35738E-14-2.19322E-13
 -1      1781 2.01801E+01 3.57205E-01 8.38099E-03-5.70983E-01-3.15113E-14-2.21317E-13
 -1      1782 2.00016E+01 2.63907E-01 2.75244E-02-3.27498E-01-3.68785E-14-2.01332E-13
 -1      1783 1.98351E+01 1.86049E-01 1.10165E-02-1.85453E-01-2.27162E-15-1.98295E-13
 -1      1784 2.02901E+01 4.91866E-01-6.35892E-03-6.44422E-01-2.32288E-14-1.75283E-13
 -1      1785 1.97328E+01 1.41395E-01 1.67693E-02-4.54513E-02 2.57433E-14-1.93535E-13
 -1      1786 1.96829E+01 1.02127E-01 7.44191E-03 3.04729E-02 2.90796E-14-1.70503E-13
 -1      1787 2.00006E+01 2.56009E-01-6.22514E-03-2.04480E-01 1.23651E-14-1.54684E-13
 -1      1788 1.96414E+01 7.71154E-02 8.83714E-03 1.10682E-01-3.23157E-15-1.68040E-13
 -1      1789 1.96585E+01 5.44514E-02 4.36942E-03 1.51583E-01-1.82692E-14-1.64830E-13
 -1      1790 1.98613E+01 1.38090E-01-5.07006E-03 4.72080E-02 1.47673E-14-1.60159E-13
 -1      1791 1.96592E+01 3.84185E-02 4.37633E-03 1.95383E-01-2.98742E-14-1.35644E-13
 -1      1792 1.97126E+01 2.31393E-02 2.25532E-03 2.14715E-01-3.47978E-14-1.64576E-13
 -1      1793 1.98253E+01 7.06051E-02-3.84357E-03 1.90139E-01-9.65363E-15-1.27643E-13
 -1      1794 1.97403E+01 1.09665E-02 1.90808E-03 2.33624E-01-3.56616E-14-1.36759E-13
 -1      1795 1.98102E+01-1.55916E-03 5.55390E-04 2.37078E-01-2.00536E-14-1.22907E-13
 -1      1796 1.98573E+01 2.53344E-02-2.61159E-03 2.63619E-01-2.30928E-14-6.90534E-14
 -1      1797 1.98529E+01-1.26521E-02 4.39134E-04 2.35995E-01-9.50206E-15-1.28171E-13
 -1      1798 1.99241E+01-2.50872E-02-1.09079E-03 2.25263E-01-7.36249E-15-1.10411E-13
 -1      1799 1.99305E+01-1.14931E-02-1.50262E-03 2.86252E-01-2.75523E-16-5.15197E-14
 -1      1800 1.99722E+01-3.67088E-02-5.38388E-04 2.05213E-01-4.58372E-14-1.07431E-13
 -1      1801 2.00314E+01-5.05022E-02-2.81752E-03 1.79773E-01-1.76291E-14-1.23397E-13
 -1      1802 2.00230E+01-4.74531E-02-5.07307E-04 2.64926E-01-2.66105E-14-5.42187E-14
 -1      1803 2.00757E+01-6.33028E-02-1.27259E-03 1.39679E-01-5.61255E-14-1.50288E-13
 -1      1804 2.01099E+01-7.86694E-02-4.57655E-03 9.81343E-02-1.06368E-13-2.08194E-13
 -1      1805 2.01162E+01-8.64279E-02 4.53685E-04 1.99804E-01-7.82473E-14-1.21883E-13
 -1      1806 2.01413E+01-9.21108E-02-1.88834E-03 3.65566E-02-9.57155E-14-2.42278E-13
 -1      1807 2.01377E+01-1.07646E-01-6.13698E-03-2.18187E-02-5.89175E-14-2.77729E-13
 -1      1808 2.01916E+01-1.28705E-01 1.45852E-03 8.81749E-02-1.34867E-13-1.28278E-13
 -1      1809 2.01461E+01-1.19607E-01-2.43942E-03-1.04489E-01-3.87589E-14-2.72858E-13
 -1      1810 2.00933E+01-1.31883E-01-7.08570E-03-1.77775E-01-3.60332E-14-2.89305E-13
 -1      1811 2.02303E+01-1.70032E-01 2.53411E-03-7.12180E-02-7.06828E-14-1.64308E-13
 -1      1812 2.00687E+01-1.38441E-01-2.91453E-03-2.76606E-01-1.75077E-15-2.73520E-13
 -1      1813 1.99594E+01-1.42068E-01-6.89436E-03-3.58076E-01 2.68882E-15-2.44501E-13
 -1      1814 2.02124E+01-2.00693E-01 3.60019E-03-2.72759E-01-3.75438E-15-1.61371E-13
 -1      1815 1.98934E+01-1.37953E-01-3.20803E-03-4.60972E-01 1.07640E-15-2.56953E-13
 -1      1816 1.97281E+01-1.26744E-01-5.10179E-03-5.37567E-01 2.85110E-14-2.39391E-13
 -1      1817 2.01202E+01-2.05974E-01 4.40522E-03-4.97962E-01-1.58172E-14-1.26073E-13
 -1      1818 1.96176E+01-1.07000E-01-3.07879E-03-6.24138E-01 5.85686E-15-2.96759E-13
 -1      1819 1.94082E+01-7.66859E-02-1.62746E-03-6.77020E-01 2.90631E-15-3.12983E-13
 -1      1820 1.99423E+01-1.69675E-01 4.50557E-03-7.11040E-01-2.15613E-14-2.12072E-13
 -1      1821 1.92601E+01-3.96742E-02-2.18215E-03-7.21060E-01 8.73726E-15-3.15975E-13
 -1      1822 1.90322E+01 8.35625E-03 2.92310E-03-7.29706E-01-1.34174E-14-3.32993E-13
 -1      1823 1.96829E+01-8.15911E-02 3.34965E-03-8.59923E-01-1.73126E-14-2.81482E-13
 -1      1824 1.88674E+01 5.77621E-02-1.84120E-04-7.06813E-01-7.55440E-14-3.20073E-13
 -1      1825 1.86575E+01 1.13808E-01 7.26303E-03-6.56752E-01-1.30373E-13-3.13380E-13
 -1      1826 1.93696E+01 5.27668E-02 5.93495E-04-8.87093E-01-5.01203E-14-2.66806E-13
 -1      1827 1.85100E+01 1.63256E-01 2.93770E-03-5.55788E-01-1.01377E-13-3.25273E-13
 -1      1828 1.83581E+01 2.10664E-01 9.89692E-03-4.47252E-01-6.67764E-14-3.00308E-13
 -1      1829 1.90573E+01 2.06121E-01-3.34728E-03-7.51073E-01-1.28450E-13-1.85126E-13
 -1      1830 1.82665E+01 2.43906E-01 6.53662E-03-2.80153E-01-8.39719E-14-3.52207E-13
 -1      1831 1.82052E+01 2.65728E-01 9.92749E-03-1.32414E-01-5.70655E-14-3.58655E-13
 -1      1832 1.88181E+01 3.34082E-01-7.10040E-03-4.51276E-01-9.72868E-14-1.82590E-13
 -1      1833 1.81971E+01 2.70300E-01 9.37025E-03 6.51513E-02 6.56697E-14-3.78023E-13
 -1      1834 1.82412E+01 2.58127E-01 7.61707E-03 2.18329E-01 1.56803E-13-3.58899E-13
 -1      1835 1.87183E+01 3.92506E-01-8.96023E-03-4.11137E-02-1.09630E-14-2.61932E-13
 -1      1836 1.83204E+01 2.32363E-01 1.01161E-02 3.98866E-01 1.40161E-13-3.59859E-13
 -1      1837 1.84618E+01 1.91256E-01 4.18363E-03 5.21792E-01 5.43727E-14-3.27997E-13
 -1      1838 1.87895E+01 3.59962E-01-7.88476E-03 3.84413E-01 1.09499E-13-2.41276E-13
 -1      1839 1.86065E+01 1.45315E-01 8.19100E-03 6.44912E-01 4.21599E-14-2.37067E-13
 -1      1840 1.88173E+01 9.08470E-02 9.59738E-04 7.13696E-01 5.99007E-14-1.50630E-13
 -1      1841 1.90137E+01 2.49342E-01-4.49812E-03 7.24727E-01 1.07810E-13-2.64471E-13
 -1      1842 1.89910E+01 4.08509E-02 4.21336E-03 7.60845E-01 3.48843E-14-1.11424E-13
 -1      1843 1.92329E+01-9.41776E-03-1.24962E-03 7.70436E-01 1.00687E-13-1.33379E-13
 -1      1844 1.93323E+01 1.00857E-01-5.14025E-04 9.13174E-01 8.93669E-14-1.56146E-13
 -1      1845 1.93996E+01-4.95880E-02-3.82836E-04 7.47459E-01 8.21638E-14-1.79640E-13
 -1      1846 1.96351E+01-8.38651E-02-2.30576E-03 7.09244E-01 2.23092E-14-8.09726E-14
 -1      1847 1.96730E+01-3.89857E-02 2.56769E-03 9.36735E-01 7.86373E-14-1.46337E-13
 -1      1848 1.97706E+01-1.07417E-01-4.19737E-03 6.38134E-01-8.41341E-16-1.07773E-13
 -1      1849 1.99718E+01-1.22365E-01-2.51005E-03 5.71800E-01 9.89812E-15-4.41843E-14
 -1      1850 1.99761E+01-1.37646E-01 4.09647E-03 8.28333E-01 1.70133E-14-1.01593E-13
 -1      1851 2.00660E+01-1.29561E-01-6.44255E-03 4.79001E-01-7.53464E-14-1.97884E-14
 -1      1852 2.02180E+01-1.28396E-01-2.22912E-03 4.04203E-01-6.58384E-14-1.13122E-13
 -1      1853 2.02074E+01-1.84426E-01 4.26713E-03 6.43272E-01-1.28237E-14-2.43218E-14
 -1      1854 2.02721E+01-1.23729E-01-7.05037E-03 3.11718E-01-8.10289E-14-1.06457E-13
 -1      1855 2.03721E+01-1.12559E-01-1.75638E-03 2.42921E-01-1.95631E-14-6.02409E-14
 -1      1856 2.03579E+01-1.86550E-01 3.62541E-03 4.35889E-01-5.70802E-14 9.10347E-14
 -1      1857 2.03931E+01-1.01552E-01-6.42777E-03 1.64500E-01 1.20209E-13-6.15200E-14
 -1      1858 2.04467E+01-8.63097E-02-1.25742E-03 1.09563E-01 2.13971E-13-1.63802E-14
 -1      1859 2.04355E+01-1.59808E-01 2.67676E-03 2.45671E-01 4.46355E-14 1.65993E-13
 -1      1860 2.04439E+01-7.35062E-02-5.12676E-03 5.09992E-02 1.59404E-13-4.58784E-14
 -1      1861 2.04610E+01-5.84310E-02-8.08431E-04 1.22225E-02 8.07531E-14-2.58313E-14
 -1      1862 2.04560E+01-1.20275E-01 1.74161E-03 9.38371E-02 1.47456E-13 1.65964E-14
 -1      1863 2.04429E+01-4.67017E-02-3.62541E-03-2.63880E-02 7.46011E-14 2.53909E-14
 -1      1864 2.04347E+01-3.41046E-02-4.38533E-04-5.02904E-02 1.64903E-13 8.60951E-14
 -1      1865 2.04369E+01-7.98632E-02 9.67577E-04-1.34942E-02 1.52503E-13 3.72624E-15
 -1      1866 2.04084E+01-2.47934E-02-2.24009E-03-7.20033E-02 8.41869E-14 4.38821E-14
 -1      1867 2.03848E+01-1.54738E-02-1.54136E-04-8.40430E-02 3.05765E-14 3.54035E-14
 -1      1868 2.03936E+01-4.53531E-02 3.92626E-04-7.98672E-02 9.03846E-14 2.49789E-14
 -1      1869 2.03554E+01-8.86843E-03-1.12793E-03-9.30706E-02-1.76098E-14 1.14185E-13
 -1      1870 2.03243E+01-2.69606E-03 4.90533E-05-9.66614E-02 2.86015E-14 1.16144E-13
 -1      1871 2.03384E+01-1.93485E-02 8.79149E-07-1.13464E-01 9.34349E-14 1.67661E-13
 -1      1872 2.02952E+01 1.49802E-03-3.29397E-04-9.71323E-02 2.77286E-14 2.01364E-13
 -1      1873 2.02623E+01 5.09370E-03 1.81239E-04-9.53426E-02 1.11228E-13 2.00610E-13
 -1      1874 2.02799E+01-1.79088E-03-2.42622E-04-1.23570E-01 9.14231E-14 4.24838E-13
 -1      1875 2.02356E+01 7.40459E-03 1.83464E-04-9.06955E-02-2.96415E-15 9.76105E-14
 -1      1876 2.02045E+01 9.11161E-03 2.55648E-04-8.59366E-02-6.48407E-14-1.00143E-14
 -1      1877 2.02239E+01 8.70308E-03-3.75094E-04-1.18575E-01-8.06530E-14 2.64142E-13
 -1      1878 2.01812E+01 1.00915E-02 4.68844E-04-7.87377E-02-3.47737E-14-6.04313E-14
 -1      1879 2.01539E+01 1.05413E-02 2.86309E-04-7.27217E-02 3.57809E-14-7.06147E-14
 -1      1880 2.01736E+01 1.39298E-02-4.29318E-04-1.05125E-01-8.63212E-14 3.17991E-13
 -1      1881 2.01345E+01 1.06649E-02 5.90628E-04-6.47152E-02 3.67215E-14-4.84545E-14
 -1      1882 2.01118E+01 1.03611E-02 2.86359E-04-5.85473E-02 9.43370E-15 1.06821E-14
 -1      1883 2.01305E+01 1.55894E-02-4.31696E-04-8.79879E-02 4.98279E-14 9.38128E-14
 -1      1884 2.00961E+01 9.99161E-03 6.05467E-04-5.08084E-02 1.63181E-13 2.05623E-14
 -1      1885 2.00781E+01 9.29862E-03 2.66947E-04-4.51259E-02 1.51779E-13 2.30888E-13
 -1      1886 2.00951E+01 1.50648E-02-4.02367E-04-7.02825E-02 1.13857E-13 1.18316E-13
 -1      1887 2.00658E+01 8.69094E-03 5.57785E-04-3.82355E-02 3.80589E-14 1.98617E-13
 -1      1888 2.00521E+01 7.85113E-03 2.36784E-04-3.33463E-02-2.89690E-14 1.55884E-13
 -1      1889 2.00670E+01 1.33723E-02-3.55987E-04-5.38419E-02 1.44904E-13 1.07660E-13
 -1      1890 2.00428E+01 7.16988E-03 4.79361E-04-2.75491E-02-5.55950E-15 2.71412E-13
 -1      1891 2.00328E+01 6.33064E-03 2.02157E-04-2.35472E-02-2.21237E-14 4.45654E-13
 -1      1892 2.00454E+01 1.11981E-02-3.02671E-04-3.95807E-02 8.95947E-14 1.85257E-13
 -1      1893 2.00260E+01 5.67269E-03 3.91087E-04-1.88779E-02-1.85009E-13 4.11112E-13
 -1      1894 2.00190E+01 4.91335E-03 1.67200E-04-1.57314E-02-2.11150E-13 3.51220E-13
 -1      1895 2.00293E+01 8.96739E-03-2.48992E-04-2.78082E-02-1.63785E-13 3.99725E-13
 -1      1896 2.00142E+01 4.32821E-03 3.05457E-04-1.21064E-02-2.29530E-13 2.85083E-13
 -1      1897 2.00096E+01 3.68249E-03 1.34270E-04-9.71927E-03-1.31678E-13 2.23829E-13
 -1      1898 2.00177E+01 6.91517E-03-1.98873E-04-1.84699E-02-2.05601E-13 4.62436E-13
 -1      1899 2.00064E+01 3.18839E-03 2.28996E-04-7.00045E-03 2.06866E-14 1.63870E-13
 -1      1900 2.00037E+01 2.66113E-03 1.04324E-04-5.25300E-03 2.17334E-13 3.07655E-13
 -1      1901 2.00097E+01 5.14747E-03-1.54328E-04-1.13190E-02-8.81499E-14 5.65862E-13
 -1      1902 2.00017E+01 2.25665E-03 1.64285E-04-3.28857E-03 1.59480E-13 3.58843E-13
 -1      1903 2.00002E+01 1.83499E-03 7.72288E-05-2.06335E-03 1.09174E-13 3.62097E-13
 -1      1904 2.00045E+01 3.68729E-03-1.16060E-04-6.03241E-03 1.81387E-13 5.45716E-13
 -1      1905 1.99991E+01 1.50634E-03 1.11545E-04-7.13520E-04 1.33677E-13 2.21559E-13
 -1      1906 1.99986E+01 1.16663E-03 5.20997E-05 8.86960E-05 1.55986E-13 1.75607E-13
 -1      1907 2.00014E+01 2.50578E-03-8.40138E-05-2.28466E-03 4.97916E-15 5.27770E-13
 -1      1908 1.99980E+01 8.92438E-04 6.98645E-05 9.36167E-04 4.76652E-14 1.63388E-14
 -1      1909 1.99981E+01 6.06420E-04 2.99520E-05 1.38540E-03 1.04704E-13 6.81007E-14
 -1      1910 1.99998E+01 1.54305E-03-5.72337E-05 2.06898E-04-1.53487E-14 2.56227E-13
 -1      1911 1.99980E+01 3.48367E-04 3.62048E-05 1.81644E-03 2.23418E-13-3.23446E-14
 -1      1912 1.99984E+01 8.03696E-05 1.03187E-05 1.94203E-03 3.40017E-13 8.57439E-14
 -1      1913 1.99991E+01 7.26780E-04-3.42243E-05 1.65674E-03 8.22958E-14 3.42755E-13
 -1      1914 1.99984E+01-1.49144E-04 1.99378E-05 1.99367E-03 4.12995E-13-4.90600E-14
 -1      1915 1.99989E+01-4.39639E-04-6.41881E-06 1.80480E-03 2.96632E-13 1.63532E-13
 -1      1916 1.99993E+01-7.71758E-04-1.71073E-05 2.04554E-03 2.61699E-13 1.46999E-13
 -1      1917 1.99990E+01-6.90455E-05-2.83542E-05 2.21284E-03 3.29217E-13 2.17768E-13
 -1      1918 1.98811E+01 2.05867E-01 1.28100E-02 1.71549E-01 3.19952E-14 3.42259E-13
 -1      1919 2.00386E+01 2.81494E-01 2.67414E-02 3.24591E-01 1.90872E-14 3.58368E-13
 -1      1920 2.02188E+01 3.80791E-01 9.70075E-03 5.83760E-01 1.66134E-14 3.74898E-13
 -1      1921 2.06222E+01 5.30393E-01 2.97420E-02 8.94222E-01 1.74825E-14 3.78489E-13
 -1      1922 2.03279E+01 5.28834E-01-4.16547E-03 6.48805E-01 3.28262E-14 2.65263E-13
 -1      1923 1.97525E+01 1.29445E-01 9.96952E-03-7.62262E-02 2.64675E-14 3.16940E-13
 -1      1924 1.97835E+01 1.63411E-01 1.72906E-02 1.43762E-02 2.10760E-14 3.19053E-13
 -1      1925 2.00480E+01 2.92096E-01-5.16491E-03 1.76941E-01 3.98371E-14 2.36798E-13
 -1      1926 1.97774E+01 9.83639E-02 8.32851E-03-2.44436E-01-1.38847E-14 2.80748E-13
 -1      1927 1.97247E+01 1.10683E-01 9.76367E-03-1.80247E-01 9.83415E-15 2.96736E-13
 -1      1928 1.99281E+01 1.85188E-01-5.74834E-03-1.22060E-01 3.42538E-14 2.23998E-13
 -1      1929 1.99092E+01 9.28481E-02 8.28871E-03-3.75076E-01-2.84532E-14 2.53598E-13
 -1      1930 1.97997E+01 9.24803E-02 5.52199E-03-3.21802E-01-2.04546E-14 2.67451E-13
 -1      1931 1.99290E+01 1.45543E-01-4.99569E-03-3.28648E-01-6.33911E-15 1.89896E-13
 -1      1932 2.01447E+01 1.07207E-01 9.64038E-03-5.13032E-01 1.86053E-14 2.64572E-13
 -1      1933 1.99735E+01 9.56519E-02 3.32884E-03-4.51914E-01-9.71337E-15 2.52216E-13
 -1      1934 2.00209E+01 1.44080E-01-4.02808E-03-5.02874E-01-8.07058E-15 1.80799E-13
 -1      1935 2.04772E+01 1.41308E-01 1.20640E-02-6.77823E-01 7.56071E-14 2.66866E-13
 -1      1936 2.02440E+01 1.19136E-01 2.25579E-03-6.00051E-01 3.12675E-14 2.51609E-13
 -1      1937 2.01913E+01 1.72371E-01-3.38397E-03-6.86679E-01 2.65374E-14 1.30665E-13
 -1      1938 2.09175E+01 1.96310E-01 1.54794E-02-8.95279E-01 1.09062E-13 2.40571E-13
 -1      1939 2.06087E+01 1.62352E-01 1.46257E-03-7.89154E-01 1.09963E-13 2.79670E-13
 -1      1940 2.04310E+01 2.31172E-01-2.80307E-03-9.07015E-01 7.54791E-14 1.56298E-13
 -1      1941 2.14851E+01 2.71878E-01 1.93062E-02-1.19079E+00 4.71984E-14 2.40888E-13
 -1      1942 2.10800E+01 2.26607E-01 5.18301E-04-1.04469E+00 1.03344E-13 2.46568E-13
 -1      1943 2.07373E+01 3.21390E-01-2.22518E-03-1.19392E+00 9.88649E-14 1.77228E-13
 -1      1944 2.22044E+01 3.59610E-01 2.23471E-02-1.58375E+00-5.77750E-14 2.92845E-13
 -1      1945 2.16785E+01 3.09078E-01-1.06469E-03-1.39027E+00-2.33138E-14 2.66790E-13
 -1      1946 2.11107E+01 4.39782E-01-1.67161E-03-1.57477E+00 8.97416E-15 2.15880E-13
 -1      1947 2.30958E+01 4.27292E-01 2.20506E-02-2.07023E+00-2.80964E-14 2.61377E-13
 -1      1948 2.24315E+01 3.91952E-01-3.60381E-03-1.83761E+00-4.44497E-14 2.52836E-13
 -1      1949 2.15534E+01 5.65643E-01-1.46694E-03-2.06659E+00-5.48155E-14 1.56919E-13
 -1      1950 2.41220E+01 3.93133E-01 1.54233E-02-2.55877E+00-2.42896E-14 2.06878E-13
 -1      1951 2.33531E+01 4.23895E-01-5.56620E-03-2.34757E+00-2.44058E-14 2.36393E-13
 -1      1952 2.20640E+01 6.33191E-01-1.48769E-03-2.63853E+00 1.11040E-14 1.44575E-13
 -1      1953 2.54054E+01 8.62858E-02 2.15171E-03-2.90904E+00-8.69487E-14 3.05374E-13
 -1      1954 2.45014E+01 2.93697E-01 1.51938E-03-2.81903E+00-6.39083E-14 2.49981E-13
 -1      1955 2.26939E+01 4.91782E-01-7.64825E-03-3.22375E+00-4.95001E-14 1.37811E-13
 -1      1956 2.69254E+01-7.55609E-01-2.04374E-02-2.68069E+00-1.92315E-13 3.88602E-13
 -1      1957 2.60342E+01-2.30359E-01 2.84125E-02-2.97137E+00-1.15593E-13 3.27478E-13
 -1      1958 2.36156E+01-1.53955E-01-1.94595E-02-3.61148E+00-1.15536E-13 2.39210E-13
 -1      1959 2.87925E+01-2.14149E+00-3.72498E-02-1.24367E+00-1.99396E-13 3.93187E-13
 -1      1960 2.80920E+01-1.38396E+00 7.59603E-02-2.21391E+00-2.06370E-13 3.57419E-13
 -1      1961 2.51961E+01-1.65438E+00-3.99724E-02-3.34242E+00-1.93595E-13 1.97543E-13
 -1      1962 3.08513E+01-3.01713E+00-3.61097E-02 1.57359E+00-1.44662E-13 3.71507E-13
 -1      1963 3.06303E+01-2.83864E+00 4.91163E-02 3.12390E-02-1.93741E-13 3.26586E-13
 -1      1964 2.78972E+01-3.55459E+00-5.35352E-02-1.67208E+00-1.60906E-13 5.14042E-14
 -1      1965 3.28396E+01 2.44191E+00-1.82524E-01 3.60671E+00-1.74860E-14 5.80341E-13
 -1      1966 3.31367E+01 7.00286E-01-2.65839E-01 4.35140E+00 9.43690E-16 5.59081E-13
 -1      1967 3.35696E+01 2.50432E+00-2.23818E-01-3.68202E+00 2.09499E-13 3.36495E-13
 -1      1968 3.31721E+01 4.15337E+00-1.30366E-01-1.85910E+00 1.78635E-13 4.71553E-13
 -1      1969 3.32266E+01-1.69247E+00-1.52850E-01-4.06522E+00 2.51937E-13 4.77951E-13
 -1      1970 3.26927E+01 4.96266E-01-1.16778E-01-4.36749E+00 2.55712E-13 4.69735E-13
 -1      1971 3.13686E+01-2.92336E+00 2.47078E-02-9.55603E-01 1.16809E-13 4.28040E-13
 -1      1972 3.14786E+01-2.67100E+00-5.82875E-02-2.49560E+00 4.30454E-14 3.90016E-13
 -1      1973 2.89334E+01-1.67340E+00 9.11331E-02 1.68796E+00-3.17801E-14 4.05554E-13
 -1      1974 2.94995E+01-2.39555E+00-3.84394E-02 5.47326E-01 2.16258E-13 5.07157E-13
 -1      1975 2.91259E+01-3.73181E+00-6.12559E-02 6.79816E-01 8.06161E-14 2.63845E-13
 -1      1976 2.67845E+01-4.17214E-01 4.18147E-02 2.79370E+00-1.69283E-13 3.69654E-13
 -1      1977 2.76176E+01-1.03545E+00-2.86817E-02 2.36956E+00-1.87808E-13 3.67838E-13
 -1      1978 2.61889E+01-2.04966E+00-4.37897E-02 2.87113E+00-4.02317E-14 3.76504E-13
 -1      1979 2.51497E+01 2.21244E-01 6.89508E-03 2.80002E+00-4.36253E-14 2.05762E-13
 -1      1980 2.60422E+01-6.31588E-02-7.31949E-03 2.83340E+00-8.52148E-14 2.51374E-13
 -1      1981 2.43760E+01-4.15755E-01-2.51602E-02 3.46694E+00-1.29915E-13 2.54960E-13
 -1      1982 2.39046E+01 4.14080E-01-2.92908E-03 2.35147E+00 1.29619E-14 3.76349E-13
 -1      1983 2.47113E+01 3.42842E-01 1.01059E-02 2.56883E+00-7.33684E-14 2.29169E-13
 -1      1984 2.33041E+01 3.81415E-01-1.05933E-02 3.20512E+00-7.61038E-14 9.42670E-14
 -1      1985 2.29777E+01 4.04023E-01-3.23094E-03 1.83871E+00 1.22560E-13 4.75670E-13
 -1      1986 2.36196E+01 4.25057E-01 2.00817E-02 2.07239E+00 1.20003E-13 5.08662E-13
 -1      1987 2.25870E+01 6.04067E-01-4.88050E-03 2.63906E+00-4.08076E-14 3.56989E-13
 -1      1988 2.22101E+01 3.28640E-01-1.18739E-03 1.35584E+00-9.31278E-14 4.55243E-13
 -1      1989 2.27346E+01 3.74218E-01 2.11611E-02 1.56765E+00 1.12810E-13 6.35965E-13
 -1      1990 2.20344E+01 5.73995E-01-1.08579E-03 2.04130E+00 3.06439E-14 4.43463E-13
 -1      1991 2.16229E+01 2.45119E-01 4.26156E-04 9.74004E-01-1.78260E-13 3.07836E-13
 -1      1992 2.20151E+01 2.91108E-01 1.91225E-02 1.13759E+00-2.26455E-13 2.52387E-13
 -1      1993 2.15707E+01 4.60327E-01-7.75538E-04 1.50920E+00-2.56592E-14 2.98738E-13
 -1      1994 2.11787E+01 1.75516E-01 1.15343E-03 6.89967E-01-2.37722E-14 3.29025E-13
 -1      1995 2.14649E+01 2.12827E-01 1.53311E-02 8.09486E-01-1.30690E-13 2.97902E-13
 -1      1996 2.11946E+01 3.41658E-01-1.06790E-03 1.09107E+00-1.43551E-13 1.45216E-13
 -1      1997 2.08473E+01 1.23265E-01 1.33749E-03 4.85218E-01 1.19444E-14 3.28127E-13
 -1      1998 2.10530E+01 1.50986E-01 1.15341E-02 5.70166E-01 5.45180E-15 3.15358E-13
 -1      1999 2.08948E+01 2.44049E-01-1.35917E-03 7.78788E-01-2.38819E-14 3.07652E-13
 -1      2000 2.06027E+01 8.59030E-02 1.26315E-03 3.39922E-01 9.09182E-14 3.28984E-13
 -1      2001 2.07493E+01 1.05643E-01 8.37067E-03 3.99539E-01 4.76372E-14 2.85124E-13
 -1      2002 2.06607E+01 1.71136E-01-1.45878E-03 5.51915E-01 2.05031E-14 1.82945E-13
 -1      2003 2.04242E+01 5.98690E-02 1.18834E-03 2.37511E-01 2.03478E-13 4.80282E-13
 -1      2004 2.05277E+01 7.34852E-02 5.93209E-03 2.79148E-01 1.70686E-13 3.87096E-13
 -1      2005 2.04812E+01 1.19134E-01-1.38915E-03 3.89442E-01 3.33581E-14 1.65551E-13
 -1      2006 2.02998E+01 4.25108E-02 9.62783E-04 1.68493E-01 1.06356E-13 5.24934E-13
 -1      2007 2.03703E+01 5.19449E-02 4.26433E-03 1.96526E-01 1.76832E-13 5.79943E-13
 -1      2008 2.03483E+01 8.30263E-02-1.44275E-03 2.75910E-01 8.78270E-14 2.89764E-13
 -1      2009 2.02045E+01 2.96708E-02 7.27831E-04 1.16725E-01 4.52446E-14 5.62918E-13
 -1      2010 2.02568E+01 3.62862E-02 2.95978E-03 1.37457E-01 1.48778E-13 5.03660E-13
 -1      2011 2.02490E+01 5.87623E-02-1.02293E-03 1.95241E-01 9.75838E-14 4.61619E-13
 -1      2012 2.01366E+01 2.07840E-02 5.63324E-04 8.02209E-02-6.42827E-14 5.69886E-13
 -1      2013 2.01730E+01 2.54843E-02 2.10545E-03 9.48035E-02-5.69577E-14 5.32619E-13
 -1      2014 2.01733E+01 4.09770E-02-8.44194E-04 1.35939E-01-1.38083E-14 4.27030E-13
 -1      2015 2.00886E+01 1.45946E-02 4.36515E-04 5.44187E-02 9.42070E-14 4.73341E-13
 -1      2016 2.01137E+01 1.78836E-02 1.47693E-03 6.46748E-02-8.83573E-14 5.71219E-13
 -1      2017 2.01181E+01 2.86797E-02-6.71735E-04 9.37797E-02-7.32196E-14 6.85716E-13
 -1      2018 2.00551E+01 1.02434E-02 3.34815E-04 3.61723E-02-4.79736E-14 4.33890E-13
 -1      2019 2.00722E+01 1.25590E-02 1.03448E-03 4.33883E-02 6.11894E-14 4.63333E-13
 -1      2020 2.00784E+01 2.01011E-02-5.23412E-04 6.37870E-02 3.82908E-15 4.55378E-13
 -1      2021 2.00323E+01 7.16865E-03 2.56192E-04 2.32945E-02-4.50693E-14 3.95396E-13
 -1      2022 2.00436E+01 8.80519E-03 7.22631E-04 2.83592E-02-1.11031E-13 5.07902E-13
 -1      2023 2.00502E+01 1.40770E-02-4.01302E-04 4.24675E-02-1.74547E-13 5.84315E-13
 -1      2024 2.00172E+01 4.99155E-03 2.01160E-04 1.42516E-02-3.18691E-14 1.69396E-13
 -1      2025 2.00244E+01 6.13089E-03 4.97578E-04 1.77805E-02 4.69014E-14 3.55857E-13
 -1      2026 2.00307E+01 9.83003E-03-3.01321E-04 2.73559E-02-1.79134E-14 4.56733E-13
 -1      2027 2.00079E+01 3.49844E-03 1.51421E-04 8.21530E-03-1.16228E-14 9.25025E-14
 -1      2028 2.00121E+01 4.30397E-03 3.47140E-04 1.05623E-02-8.43702E-14 1.93188E-13
 -1      2029 2.00177E+01 6.81390E-03-2.42917E-04 1.68939E-02-1.14535E-13 2.00508E-13
 -1      2030 2.00019E+01 2.35034E-03 1.08592E-04 3.79837E-03 3.39792E-14 1.92869E-13
 -1      2031 2.00044E+01 2.94024E-03 2.34046E-04 5.48846E-03 8.19438E-14 1.63187E-13
 -1      2032 2.00091E+01 4.74799E-03-1.66369E-04 9.58546E-03-1.12549E-13 1.41012E-13
 -1      2033 1.99988E+01 1.52185E-03 7.58036E-05 8.41577E-04-5.79190E-15 4.12917E-13
 -1      2034 1.99999E+01 1.96359E-03 1.57680E-04 1.95886E-03-6.51512E-14 2.69838E-13
 -1      2035 2.00036E+01 3.16891E-03-1.20926E-04 4.38549E-03 1.07671E-14 1.07672E-13
 -1      2036 1.99975E+01 9.03096E-04 4.88682E-05-1.04046E-03 2.47241E-14 3.61961E-13
 -1      2037 1.99977E+01 1.23785E-03 9.94783E-05-3.52144E-04 1.09491E-13 5.07624E-13
 -1      2038 2.00005E+01 2.02438E-03-8.46468E-05 9.15280E-04 1.17876E-13 1.13005E-13
 -1      2039 1.99974E+01 4.00446E-04 2.55192E-05-2.09260E-03 9.28375E-14 1.69411E-13
 -1      2040 1.99970E+01 6.77991E-04 5.76165E-05-1.74419E-03 1.35836E-13 2.69123E-13
 -1      2041 1.99990E+01 1.15528E-03-5.64208E-05-1.26467E-03 1.21422E-13 1.35339E-13
 -1      2042 1.99979E+01-8.28349E-05 4.51643E-06-2.44221E-03-2.14291E-13 1.78347E-13
 -1      2043 1.99973E+01 1.87330E-04 2.73526E-05-2.40214E-03-1.79548E-13 1.64062E-13
 -1      2044 1.99986E+01 4.35702E-04-3.30884E-05-2.43501E-03-3.43700E-14 1.15203E-13
 -1      2045 1.99988E+01-6.47916E-04-1.75423E-05-2.12977E-03 2.71914E-13-1.48391E-13
 -1      2046 1.99981E+01-2.99399E-04 1.83410E-05-2.37955E-03 6.29579E-14 5.08758E-14
 -1      2047 1.99988E+01-3.07430E-04-1.62466E-05-2.76360E-03 2.38072E-14-3.21994E-13
 -1      2048 2.74519E+00-7.17177E+00-3.07288E-01 2.86008E+00 3.11695E-13 3.05089E-13
 -1      2049 1.03700E+00-7.42958E+00-3.57788E-01 1.41008E+00 3.43420E-13 1.11855E-13
 -1      2050 2.00003E+01-3.26349E-03-6.39150E-07-1.57265E-03-2.95994E-14-3.50719E-13
 -1      2051 2.00002E+01-2.76500E-03 1.70611E-05-1.82613E-03 5.73543E-14-4.91095E-13
 -1      2052 2.00001E+01-2.67326E-03 3.45069E-07-2.09959E-03-3.50673E-14-2.95445E-13
 -1      2053 1.99999E+01-2.03780E-03-5.75377E-06-2.21830E-03-9.46755E-14-5.40068E-14
 -1      2054 2.00003E+01-1.61441E-03-5.82495E-06-2.25337E-03 1.69524E-14-3.98870E-13
 -1      2055 1.99991E+01-7.76229E-04 3.54775E-05-1.59424E-03 2.83154E-13-1.39701E-13
 -1      2056 2.00003E+01-3.56631E-03-2.17153E-06-9.62556E-04-2.66598E-13-5.46006E-13
 -1      2057 2.00003E+01-3.23254E-03 2.55600E-05-1.23500E-03-1.42383E-13-1.40690E-13
 -1      2058 2.00005E+01-1.69632E-03-8.36989E-06-1.57861E-03 9.44724E-15-4.16848E-13
 -1      2059 2.00002E+01-3.62810E-03-3.18153E-06-4.21884E-04-3.80027E-13-2.01930E-13
 -1      2060 2.00002E+01-3.45028E-03 2.54004E-05-6.52597E-04-2.72502E-13-3.02913E-13
 -1      2061 2.00005E+01-1.56228E-03-2.52941E-06-8.68535E-04-1.36765E-13-5.18946E-13
 -1      2062 2.00001E+01-3.52781E-03-2.06277E-06-3.58387E-05-4.37661E-13-1.42802E-13
 -1      2063 2.00001E+01-3.47911E-03 1.99236E-05-1.97330E-04-4.08926E-13 6.98437E-14
 -1      2064 2.00003E+01-1.30777E-03 4.63339E-06-2.91433E-04-2.26949E-13-1.19255E-13
 -1      2065 2.00000E+01-3.36067E-03 1.55698E-06 2.07256E-04-3.62445E-13-1.79501E-14
 -1      2066 2.00000E+01-3.40281E-03 1.15029E-05 1.02040E-04-4.06786E-13-1.86676E-13
 -1      2067 2.00002E+01-1.04207E-03 1.03555E-05 8.88741E-05-2.20390E-13-1.63217E-13
 -1      2068 1.99999E+01-3.18972E-03 7.45850E-06 3.75803E-04-4.44035E-13-3.12967E-13
 -1      2069 1.99999E+01-3.29736E-03 3.18051E-06 2.92789E-04-3.69753E-13-6.68210E-14
 -1      2070 2.00001E+01-8.57084E-04 1.31821E-05 3.11903E-04-3.14629E-13-1.85191E-13
 -1      2071 2.00000E+01-3.02991E-03 1.41277E-05 5.58590E-04-6.18877E-13-1.53149E-13
 -1      2072 2.00000E+01-3.19888E-03-3.09876E-06 4.59127E-04-4.61802E-13-3.21725E-13
 -1      2073 2.00000E+01-8.00818E-04 1.24468E-05 4.74188E-04-4.65259E-13-4.09489E-13
 -1      2074 2.00001E+01-2.84926E-03 1.93439E-05 8.21437E-04-6.78504E-13-2.94471E-13
 -1      2075 2.00000E+01-3.09299E-03-6.66129E-06 6.82899E-04-6.77234E-13-3.90610E-14
 -1      2076 2.00001E+01-8.65079E-04 8.92984E-06 6.81780E-04-4.94270E-13-9.71561E-14
 -1      2077 2.00001E+01-2.58217E-03 2.02631E-05 1.19129E-03-5.68732E-13 5.35510E-13
 -1      2078 2.00001E+01-2.92677E-03-7.36944E-06 1.00992E-03-5.38030E-13 1.10591E-13
 -1      2079 2.00002E+01-9.94338E-04 2.54703E-06 1.01019E-03-3.57692E-13-2.12020E-14
 -1      2080 2.00001E+01-2.17551E-03 1.36975E-05 1.59765E-03-4.27021E-13 4.13909E-13
 -1      2081 2.00001E+01-2.62114E-03-5.75910E-06 1.41947E-03-5.34047E-13 5.50451E-13
 -1      2082 2.00003E+01-1.10168E-03-4.34386E-06 1.46432E-03-1.70391E-13 4.76129E-13
 -1      2083 1.99999E+01-1.65300E-03-1.34099E-05 1.90773E-03-6.93074E-14 1.64756E-13
 -1      2084 2.00001E+01-2.13389E-03 3.82701E-06 1.79359E-03-2.61568E-13 4.09915E-13
 -1      2085 2.00002E+01-1.08666E-03-2.93068E-06 1.93123E-03-6.27637E-14 5.69410E-13
 -1      2086 8.64813E+00-6.56112E+00-2.59710E-01 5.25397E+00 2.35589E-13-2.80914E-13
 -1      2087 5.03824E+00-7.86400E+00-4.64740E-01 3.81290E+00 2.58904E-13 9.35640E-14
 -1      2088 6.00333E+00-5.28770E+00-1.43425E-01 4.49497E+00 9.30367E-14-2.37588E-14
 -1      2089-3.30353E-01-8.00939E+00-4.22637E-01-7.51142E-01 3.21326E-13 2.97540E-14
 -1      2090 2.89071E-02-8.03380E+00-4.32859E-01-2.17986E+00 1.60622E-13 1.91402E-13
 -1      2091 1.95413E+01 4.03524E+00-2.58908E-02-1.62889E+00 6.28820E-14-1.76269E-13
 -1      2092 1.96795E+01 3.95819E+00-2.37658E-02-1.88270E+00 4.81941E-14-1.92069E-13
 -1      2093 2.00054E+01 3.26916E+00-7.83439E-03-1.83124E+00 3.89853E-14-1.86332E-13
 -1      2094 1.97043E+01 3.61421E+00-9.08898E-03-1.44144E+00 6.72502E-14-1.51677E-13
 -1      2095 3.93369E+01 2.46919E-01 3.56864E-01 1.86249E+00 5.83422E-14-1.45106E-13
 -1      2096 3.35646E+01-1.86442E+00-9.76342E-02 2.00523E+00 8.37386E-14-2.20379E-13
 -1      2097 4.48450E+01 4.37062E+00 6.05792E-01 1.37295E-01 1.18794E-13-5.42899E-14
 -1      2098 4.14637E+01 2.72959E+00 3.52693E-01 1.05555E+00 1.01141E-13-1.02363E-13
 -1      2099 4.70294E+01 6.62009E+00 7.57823E-01-2.85897E-01 1.91736E-13-3.38146E-13
 -1      2100 4.54571E+01 6.17532E+00 6.47084E-01-1.17779E-01 1.51434E-13-9.75331E-14
 -1      2101 4.47059E+01 6.21754E+00 4.88117E-01-8.47645E-02 2.04503E-13-3.75089E-13
 -1      2102 4.72634E+01 6.80961E+00 8.40661E-01 1.17220E-01 1.20348E-13-3.42899E-13
 -1      2103 4.14131E+01 7.19658E+00 5.55389E-01-1.72797E-01 2.17715E-13 6.84244E-14
 -1      2104 3.93981E+01 2.07830E+00 5.95733E-02 8.32074E-01 1.45300E-13-2.03393E-13
 -1      2105 4.20119E+01 3.86190E+00 2.88095E-01 1.36123E+00 1.84908E-13-1.48492E-13
 -1      2106 3.44845E+01-1.63076E+00-8.51391E-02-9.60586E-01-7.50511E-14-2.78111E-13
 -1      2107 3.91423E+01 2.38355E-01 1.86819E-01-4.09531E-01 6.22592E-14-2.79221E-13
 -1      2108 3.69799E+01 6.34672E-01 2.05992E-01 3.71313E+00-5.29021E-14 1.59706E-13
 -1      2109 2.33956E+01-4.98194E+00-4.05953E-01-4.69316E+00-3.81917E-14-4.64739E-13
 -1      2110 2.97807E+01-3.41435E+00-5.76916E-02-4.52948E+00-7.82707E-14-4.86167E-13
 -1      2111 1.42627E+01-6.94442E+00-4.46280E-01-5.32111E+00-1.11688E-13-3.97959E-13
 -1      2112 1.93891E+01-5.30145E+00-1.61478E-01-6.01297E+00-1.42109E-14-5.20917E-13
 -1      2113 2.44137E+01-6.35852E+00-3.29596E-02-4.77456E+00-1.57430E-13-3.88273E-13
 -1      2114 5.26896E+00-8.18242E+00-5.62275E-01-3.88279E+00-7.58837E-14-2.15689E-13
 -1      2115 9.18013E+00-6.67561E+00-2.81096E-01-5.41097E+00-4.07452E-14-3.03965E-13
 -1      2116 8.95752E-01-8.21079E+00-4.62261E-01-1.66159E+00-1.32339E-13-3.88023E-14
 -1      2117 2.69935E+00-7.88053E+00-4.09854E-01-2.94105E+00-6.96110E-14-8.34888E-14
 -1      2118 6.02259E+00-6.13014E+00-2.32722E-01-4.68324E+00 4.21885E-15-2.55573E-13
 -1      2119 2.96248E-01-6.96935E+00-2.76404E-01 1.80242E+00-2.06973E-13-3.34843E-13
 -1      2120 1.40292E-01-7.52444E+00-3.61725E-01 1.51233E-01-1.34656E-13-1.93179E-13
 -1      2121 3.23634E+00-7.05891E+00-3.29222E-01 4.87882E+00-3.39617E-13-5.69211E-13
 -1      2122 1.36885E+00-7.62633E+00-3.80095E-01 3.68069E+00-2.35201E-13-4.68403E-13
 -1      2123 9.33013E+00-5.32621E+00-1.74905E-01 6.89027E+00-4.74509E-13-1.49505E-13
 -1      2124 5.94508E+00-7.19600E+00-4.43037E-01 5.67579E+00-3.70592E-13-3.89494E-13
 -1      2125 1.78687E+01-2.92780E+00-1.43341E-02 7.80555E+00-5.21805E-13 1.30784E-13
 -1      2126 1.32104E+01-5.10958E+00-3.51929E-01 6.84497E+00-5.54334E-13 4.69624E-14
 -1      2127 2.72087E+01-3.57770E-01 1.62120E-01 7.02631E+00-3.82361E-13 4.18943E-13
 -1      2128 2.22178E+01-2.34439E+00-1.70793E-01 6.72167E+00-4.95493E-13 2.93210E-13
 -1      2129 3.48418E+01 2.97050E+00 2.99419E-01 5.42080E+00-1.82757E-13 2.85660E-13
 -1      2130 3.01559E+01 1.35435E+00-1.87393E-02 5.75277E+00-2.82163E-13 2.55573E-13
 -1      2131 4.01173E+01 5.67556E+00 3.32224E-01 2.98751E+00-3.16497E-13 5.93581E-13
 -1      2132 3.67350E+01 4.62640E+00 1.36134E-01 3.97456E+00-2.50328E-13 4.12781E-13
 -1      2133 4.17669E+01 7.58131E+00 2.57763E-01 5.04354E-01-2.75668E-13 6.80164E-13
 -1      2134 4.08036E+01 7.03516E+00 2.58358E-01 1.99298E+00-3.03313E-13 5.94302E-13
 -1      2135 4.10028E+01 7.46472E+00 2.39487E-01-1.37061E+00-1.55820E-13 5.78482E-13
 -1      2136 4.14083E+01 7.82746E+00 2.28363E-01 7.74260E-03-1.80356E-13 6.06189E-13
 -1      2137 3.79864E+01 5.37885E+00 1.51313E-01-3.40944E+00-8.63198E-14 4.94660E-13
 -1      2138 4.08362E+01 6.34715E+00 3.12472E-01-2.22779E+00-1.13243E-13 4.98157E-13
 -1      2139 3.25636E+01 2.33908E+00 1.23814E-01-4.82987E+00-2.70270E-14 4.90497E-13
 -1      2140 3.69092E+01 4.11810E+00 4.06179E-01-4.65811E+00-9.90180E-14 4.56302E-13
 -1      2141 3.55390E+01 4.42194E+00 2.61907E-01-1.13814E+00 4.65461E-14 2.37033E-13
 -1      2142 2.35929E+01-1.68730E+00-1.70289E-01-6.59332E+00 2.35811E-13 6.18061E-13
 -1      2143 2.86640E+01-1.48954E-01 5.07097E-02-6.28252E+00 1.49547E-13 6.36602E-13
 -1      2144 1.53637E+01-4.68811E+00-2.79688E-01-7.05018E+00 1.22458E-13 1.69281E-13
 -1      2145 2.01394E+01-2.63859E+00 3.63177E-02-7.79127E+00 1.10356E-13 4.84279E-13
 -1      2146 7.45477E+00-6.60177E+00-3.51558E-01-6.24875E+00 2.07223E-13 1.75998E-13
 -1      2147 1.11445E+01-4.79178E+00-1.14237E-01-7.36230E+00 1.60982E-13 1.80904E-13
 -1      2148 1.52037E+00-8.01055E+00-4.71698E-01-3.74147E+00 2.11775E-13 2.11664E-13
 -1      2149 3.75487E+00-6.47492E+00-2.58035E-01-5.26376E+00 2.08222E-13 1.68865E-13
 -1      2150 2.15762E+01 1.74969E+00 7.74940E-02 2.30356E+00 1.52205E-14 3.98952E-13
 -1      2151 2.90487E+01-3.66866E+00-2.23650E-02 4.65970E+00 9.30367E-14-2.49578E-13
 -1      2152 2.28137E+01-5.30986E+00-3.79931E-01 4.71764E+00 2.29927E-13-2.52021E-13
 -1      2153 2.38453E+01-6.44828E+00-1.00582E-02 4.78879E+00 2.32314E-13-3.54272E-13
 -1      2154 2.15425E+01 1.73840E+00 7.91646E-02-2.28118E+00-2.42167E-14-2.39128E-13
 -1      2155 1.99992E+01-9.31842E-04-5.84923E-07-2.14356E-03 3.70446E-13-4.76299E-13
 -1      2156 1.99995E+01-1.55670E-03 8.43824E-06-2.31049E-03 1.59781E-13-3.90371E-13
 -1      2157 1.39109E+01-6.52611E+00-1.27266E-01 6.02165E+00 1.36613E-13-3.97779E-13
 -1      2158 2.07892E+01 1.10797E+00-2.00601E-02-1.55996E+00-2.14481E-14-2.37895E-13
 -1      2159 3.26374E+01-4.23174E+00 8.50948E-02 1.33213E+00 2.48329E-13-7.06102E-14
 -1      2160 2.06845E+01 1.33155E+00-1.92188E-02-1.60713E+00-1.93994E-14-2.13250E-13
 -1      2161 2.07005E+01 1.33331E+00-2.28051E-02 1.60335E+00 3.56729E-14 2.97234E-13
 -1      2162 2.08141E+01 1.10680E+00-2.24822E-02 1.56502E+00 2.26728E-14 3.87117E-13
 -1      2163 3.31877E+01-5.26913E-01-1.30581E-01 4.17034E+00-5.46230E-14 4.69930E-13
 -1      2164 3.34308E+01-2.07934E+00-7.34701E-02 3.39511E+00-1.19946E-13 4.23342E-13
 -1      2165 3.24954E+01 4.21645E+00-2.29896E-01 3.01879E-01 1.15796E-13 5.85185E-13
 -1      2166 3.27007E+01 3.68425E+00-2.20999E-01 2.22317E+00 8.01026E-14 6.28480E-13
 -1      2167 3.66075E+01 2.07460E+00 5.09553E-02-3.69617E+00 2.00007E-13 3.28626E-13
 -1      2168 1.71664E+00-4.95656E+00-1.79333E-01 8.39160E-01 9.09689E-14 1.52878E-13
 -1      2169 1.99996E+01-1.03569E-03 4.48184E-06-2.67032E-03-2.27837E-14-4.73251E-13
 -1      2170 1.94300E+00-5.37182E+00-2.24235E-01-3.68534E+00 8.58202E-14 2.00950E-13
 -1      2171 1.99998E+01-1.19087E-03-7.16061E-06 1.97757E-03 7.60889E-14 1.89065E-13
 -1      2172 7.50624E+00-5.48022E+00-1.20419E-01-6.90851E+00 1.39888E-13 2.96069E-13
 -1      2173 1.60172E+01-5.35246E+00-2.02179E-02-7.84960E+00 1.88960E-13 2.14578E-13
 -1      2174 3.08783E+01 8.56505E-02 7.44917E-02-4.16155E+00 1.09440E-13 4.61742E-13
 -1      2175 3.17822E+01-3.66302E-02-2.26956E-01-1.65729E+00 9.38208E-14 2.46692E-13
 -1      2176 2.94372E+01-1.94455E+00 1.55992E-01-3.38248E+00 2.63123E-13 4.40259E-13
 -1      2177 3.68053E+01 7.70204E+00 3.01948E-01-1.03564E-01-2.88658E-15 2.83190E-13
 -1      2178 3.71719E+01 8.79925E+00 2.83639E-01 3.36820E-02-2.07223E-13 4.14713E-13
 -1      2179 3.70197E+01 6.87047E+00 3.16180E-01 4.10690E-01-3.58602E-13 5.06872E-13
 -1      2180 3.47468E+01 3.01540E+00 2.67088E-01 2.06290E+00-2.90101E-13 4.36651E-13
 -1      2181 2.97412E+01-1.39156E+00 1.06931E-01 4.35561E+00-3.16441E-13 3.63598E-13
 -1      2182 2.25172E+01-4.20928E+00 6.57345E-02 6.86524E+00-4.05731E-13 4.02345E-13
 -1      2183 1.36841E+01-5.59759E+00-1.03872E-01 7.72478E+00-3.17246E-13 3.14367E-14
 -1      2184 6.37314E+00-5.77701E+00-1.99420E-01 6.50429E+00-1.38112E-13-4.36901E-13
 -1      2185 1.87195E+00-5.11333E+00-1.96586E-01-1.28443E+00-4.05231E-14-1.87961E-13
 -1      2186 1.44003E+01-6.69855E+00-1.42738E-01-6.02261E+00-6.65579E-14-3.37889E-13
 -1      2187 3.34446E+01-3.65675E+00 1.16833E-01-5.38600E-01-1.66367E-13-1.19904E-13
 -1      2188 3.87446E+01 4.75226E+00 2.12278E-01 2.75238E+00 8.41549E-14 7.26086E-14
 -1      2189 3.85456E+01 4.25794E-01 2.21421E-01-1.66477E+00 9.40775E-14 1.33227E-15
 -1      2190 4.12927E+01 5.22131E+00 5.12561E-01-1.83486E+00 2.02893E-13 1.30840E-13
 -1      2191 3.26051E+01-3.65660E+00-1.25384E-01 1.51674E+00-1.88587E-13 4.15223E-14
 -1      2192 2.04637E+00-4.98321E+00-1.66070E-01 3.16347E+00-9.65061E-14-3.88689E-13
 -1      2193 2.40707E+01-3.92795E+00 6.85579E-02-6.34388E+00 2.35201E-13 5.16476E-13
 -1      2194 1.95071E+01 3.59581E+00-1.12769E-02-5.36907E-01 1.22496E-13-4.01085E-14
 -1      2195 1.95551E+01 3.54377E+00-9.90724E-03-7.11809E-01 1.14157E-13-7.13752E-14
 -1      2196 1.96151E+01 3.44389E+00-1.30161E-02-8.67754E-01 9.98481E-14-7.97201E-14
 -1      2197 1.96905E+01 3.35633E+00-1.22886E-02-1.05085E+00 8.46001E-14-9.76649E-14
 -1      2198 1.97461E+01 3.11403E+00 3.83071E-04-7.15730E-01 1.07655E-13-6.24943E-14
 -1      2199 1.94345E+01 3.70284E+00-9.54847E-03 9.95743E-02 1.48731E-13 1.34337E-14
 -1      2200 1.94359E+01 3.70117E+00-9.18926E-03-6.57675E-02 1.44864E-13 5.61010E-15
 -1      2201 1.94669E+01 3.66616E+00-9.47904E-03 4.13745E-01 1.43234E-13 3.13811E-15
 -1      2202 1.94446E+01 3.68883E+00-9.90294E-03 2.47566E-01 1.46794E-13 2.44336E-15
 -1      2203 1.95888E+01 3.34909E+00-2.09475E-04 1.62883E-01 1.38095E-13 3.93522E-15
 -1      2204 1.95474E+01 3.56469E+00-1.02238E-02 7.27968E-01 1.44756E-13 3.55618E-14
 -1      2205 1.95003E+01 3.61429E+00-1.12354E-02 5.59722E-01 1.45731E-13 1.24744E-14
 -1      2206 1.96356E+01 3.28649E+00 3.07265E-04 4.46411E-01 1.40251E-13 5.12784E-15
 -1      2207 1.96877E+01 3.37866E+00-1.23263E-02 1.05644E+00 1.47040E-13 1.08528E-13
 -1      2208 1.96089E+01 3.46681E+00-1.32150E-02 8.77536E-01 1.43687E-13 7.76879E-14
 -1      2209 1.97364E+01 3.14427E+00 1.06265E-03 7.29987E-01 1.36376E-13 5.94000E-14
 -1      2210 1.98995E+01 3.07660E+00-1.72897E-02 1.38932E+00 1.27867E-13 1.35065E-13
 -1      2211 1.97836E+01 3.22291E+00-1.56594E-02 1.20434E+00 1.35259E-13 1.13966E-13
 -1      2212 1.98996E+01 2.90142E+00 2.31542E-03 1.01142E+00 1.25366E-13 9.44700E-14
 -1      2213 2.02065E+01 2.58880E+00-2.67915E-02 1.69056E+00 9.66976E-14 1.58033E-13
 -1      2214 2.00441E+01 2.84310E+00-1.69959E-02 1.51919E+00 1.26542E-13 1.35485E-13
 -1      2215 2.01304E+01 2.52643E+00 4.82683E-03 1.26583E+00 1.09312E-13 1.27528E-13
 -1      2216 2.06356E+01 1.78284E+00-1.84487E-02 1.73644E+00 5.21076E-14 2.45302E-13
 -1      2217 2.03867E+01 2.21544E+00-9.75964E-03 1.67900E+00 7.85604E-14 1.79542E-13
 -1      2218 2.03989E+01 1.91432E+00 7.79133E-03 1.34872E+00 8.09029E-14 1.56800E-13
 -1      2219 2.05069E+01 1.13250E+00 1.98807E-03 1.13568E+00 5.13999E-14 2.45083E-13
 -1      2220 2.66790E+01-6.17772E+00-1.08556E-01 3.60496E+00 1.29702E-13-6.95555E-14
 -1      2221 2.28169E+01-6.20828E+00 6.14389E-03 4.67647E+00 9.88098E-14-3.14998E-13
 -1      2222 2.04758E+01 8.68787E-01 1.34026E-02-9.14033E-01-2.29660E-14-1.70231E-13
 -1      2223 2.02798E+01 6.44677E-01-3.89073E-03-5.98660E-01-7.22946E-15-1.48598E-13
 -1      2224 2.02265E+01 4.89445E-01 1.62450E-02-3.73412E-01 4.62737E-16-1.33877E-13
 -1      2225 2.01053E+01 3.66250E-01 4.90511E-04-1.93909E-01 2.29105E-14-1.59637E-13
 -1      2226 2.03246E+01 7.70479E-01-2.65386E-03-5.82918E-01-7.96845E-15-1.38992E-13
 -1      2227 2.00574E+01 2.81673E-01 1.09697E-02-4.63016E-02 2.69203E-14-1.58153E-13
 -1      2228 2.00021E+01 2.09451E-01 1.05218E-03 5.89767E-02 2.18655E-14-1.52144E-13
 -1      2229 2.01892E+01 4.45048E-01-4.21737E-03-1.79510E-01 1.88588E-14-1.49763E-13
 -1      2230 1.99775E+01 1.57691E-01 6.67973E-03 1.50518E-01 2.37851E-14-1.45006E-13
 -1      2231 1.99687E+01 1.11084E-01 7.66381E-04 2.10026E-01 9.78601E-15-1.23818E-13
 -1      2232 2.01038E+01 2.53418E-01-4.14685E-03 8.04619E-02 3.73674E-14-1.50344E-13
 -1      2233 1.99676E+01 7.51077E-02 4.06552E-03 2.62096E-01 9.02226E-15-1.16058E-13
 -1      2234 1.99881E+01 4.03964E-02 1.39073E-04 2.90102E-01 8.50128E-15-8.28389E-14
 -1      2235 2.00719E+01 1.29572E-01-3.48593E-03 2.38434E-01 1.24362E-14-1.35690E-13
 -1      2236 2.00068E+01 1.09797E-02 2.57291E-03 3.11974E-01-3.62312E-14-6.47660E-14
 -1      2237 2.00433E+01-1.97987E-02-7.74288E-04 3.14934E-01-1.23870E-14-7.21482E-14
 -1      2238 2.00857E+01 3.76588E-02-2.73339E-03 3.21823E-01-2.64200E-15-8.40161E-14
 -1      2239 2.00776E+01-4.81352E-02 1.76426E-03 3.10460E-01-2.14677E-15-8.75977E-14
 -1      2240 2.01193E+01-7.97791E-02-1.96241E-03 2.90170E-01-3.53203E-14-7.79856E-14
 -1      2241 2.01351E+01-4.29932E-02-2.07321E-03 3.44860E-01-2.45874E-14-9.81469E-14
 -1      2242 2.01651E+01-1.10088E-01 1.34616E-03 2.59453E-01-7.73772E-14-7.69423E-14
 -1      2243 2.02022E+01-1.44792E-01-3.35952E-03 2.15116E-01-1.18661E-13-1.07635E-13
 -1      2244 2.02108E+01-1.24578E-01-1.49974E-03 3.12136E-01-6.04049E-14-1.25250E-13
 -1      2245 2.02548E+01-1.77621E-01 1.07813E-03 1.56188E-01-1.27802E-13-9.68563E-14
 -1      2246 2.02778E+01-2.14437E-01-4.78905E-03 8.64137E-02-1.23771E-13-9.85860E-14
 -1      2247 2.03036E+01-2.12414E-01-9.10272E-04 2.21971E-01-1.16052E-13-6.61539E-14
 -1      2248 2.03306E+01-2.47031E-01 7.14131E-04-2.54346E-03-1.04648E-13-5.60967E-14
 -1      2249 2.03305E+01-2.80849E-01-5.90850E-03-9.72432E-02-4.10475E-14-8.52761E-14
 -1      2250 2.04022E+01-3.03745E-01-1.54528E-04 7.03680E-02-8.92160E-14-2.65381E-14
 -1      2251 2.03736E+01-3.06255E-01 9.87759E-07-2.14752E-01-6.21031E-15-7.14728E-14
 -1      2252 2.03421E+01-3.27128E-01-6.19825E-03-3.28873E-01 2.76125E-15-7.39772E-14
 -1      2253 2.04918E+01-3.85401E-01 9.16991E-04-1.43522E-01-1.53625E-14 2.80758E-14
 -1      2254 2.03625E+01-3.34155E-01-1.25864E-03-4.66132E-01-1.75615E-14-7.34708E-14
 -1      2255 2.02940E+01-3.28255E-01-5.05878E-03-5.86068E-01-3.45900E-14-5.31192E-14
 -1      2256 2.05514E+01-4.32443E-01 2.34010E-03-4.09935E-01-1.96842E-14-1.79642E-14
 -1      2257 2.02765E+01-3.03617E-01-3.02677E-03-7.23068E-01-9.42338E-14-8.59094E-14
 -1      2258 2.01712E+01-2.57321E-01-2.06466E-03-8.25516E-01-8.24548E-14-1.24436E-13
 -1      2259 2.05553E+01-4.11027E-01 3.86368E-03-6.99941E-01-1.19759E-13-7.94926E-15
 -1      2260 2.01046E+01-1.91113E-01-4.79246E-03-9.29781E-01-5.07992E-15-9.73815E-14
 -1      2261 1.99714E+01-9.88759E-02 2.54341E-03-9.84044E-01 2.32439E-14-1.09326E-13
 -1      2262 2.04790E+01-2.88956E-01 4.84004E-03-9.59248E-01-3.58488E-14 8.28564E-15
 -1      2263 1.98576E+01 6.97714E-03-5.61872E-03-1.01590E+00 1.49049E-14-1.16574E-13
 -1      2264 1.97161E+01 1.33613E-01 7.44045E-03-9.92426E-01-5.40543E-14-7.70967E-14
 -1      2265 2.03130E+01-5.50522E-02 4.24614E-03-1.11099E+00 6.78751E-15 8.19207E-14
 -1      2266 1.95782E+01 2.58621E-01-4.36903E-03-9.19341E-01-1.04176E-13-1.11323E-13
 -1      2267 1.94561E+01 3.87549E-01 1.05669E-02-8.03470E-01-1.18231E-13-5.09248E-14
 -1      2268 2.00794E+01 2.59726E-01 1.32053E-03-1.07566E+00-8.77435E-14 4.21831E-14
 -1      2269 1.93374E+01 4.94436E-01-5.13542E-04-6.19661E-01-1.58869E-13-9.68312E-15
 -1      2270 1.92637E+01 5.82019E-01 1.02420E-02-4.24382E-01-1.11814E-13-5.23064E-14
 -1      2271 1.98394E+01 5.75888E-01-3.18615E-03-8.08110E-01-1.06361E-13 3.86232E-14
 -1      2272 1.92102E+01 6.31452E-01 4.81425E-03-1.63705E-01-5.45024E-14-6.73335E-14
 -1      2273 1.92046E+01 6.43632E-01 6.41016E-03 6.84335E-02-3.21054E-15-8.44897E-14
 -1      2274 1.96778E+01 7.88962E-01-6.91604E-03-3.35669E-01-1.05974E-13 1.09991E-13
 -1      2275 1.92401E+01 6.15837E-01 9.34042E-03 3.39798E-01 2.10149E-14-1.24533E-13
 -1      2276 1.93055E+01 5.48014E-01 1.11118E-03 5.51288E-01 5.75401E-14-2.00706E-13
 -1      2277 1.96613E+01 8.18565E-01-7.43999E-03 2.33182E-01-3.22355E-15-2.37407E-14
 -1      2278 1.94158E+01 4.54868E-01 1.07529E-02 7.62660E-01 1.11673E-13-2.43763E-13
 -1      2279 1.95368E+01 3.34898E-01-3.19743E-03 9.04982E-01 1.18365E-13-2.26540E-13
 -1      2280 1.97993E+01 6.53928E-01-4.33435E-03 7.47563E-01 5.13471E-14-1.28175E-13
 -1      2281 1.96795E+01 2.12717E-01 8.41769E-03 1.01231E+00 1.38431E-13-1.77537E-13
 -1      2282 1.98291E+01 8.41812E-02-5.08604E-03 1.06430E+00 1.40627E-13-9.89338E-14
 -1      2283 2.00374E+01 3.60596E-01 2.15420E-04 1.08204E+00 1.71801E-13-1.46843E-13
 -1      2284 1.99582E+01-2.72217E-02 3.78243E-03 1.06380E+00 1.16991E-13-1.19962E-13
 -1      2285 2.01080E+01-1.27902E-01-4.64342E-03 1.03393E+00 6.98034E-14-1.18469E-13
 -1      2286 2.02915E+01 4.22750E-02 3.61081E-03 1.18727E+00 1.45124E-13-2.20880E-13
 -1      2287 2.01948E+01-2.03309E-01-1.05110E-03 9.52905E-01 3.77647E-14-1.35813E-13
 -1      2288 2.03232E+01-2.59407E-01-2.98471E-03 8.68068E-01 4.14869E-14-6.19472E-14
 -1      2289 2.04923E+01-2.11729E-01 4.75086E-03 1.09265E+00 2.55618E-14-1.77786E-13
 -1      2290 2.03608E+01-2.92618E-01-4.52854E-03 7.45664E-01 5.52707E-14-8.63948E-14
 -1      2291 2.04564E+01-3.06139E-01-1.12668E-03 6.37018E-01 2.64944E-14-3.66923E-14
 -1      2292 2.06078E+01-3.58019E-01 4.10097E-03 8.72053E-01 6.16027E-14-1.54057E-13
 -1      2293 2.04536E+01-3.04975E-01-6.14265E-03 5.07978E-01-4.12730E-14 4.26895E-14
 -1      2294 2.05142E+01-2.88527E-01 2.72573E-04 4.00751E-01 4.38637E-14 2.00533E-13
 -1      2295 2.06408E+01-3.99021E-01 2.68594E-03 6.04801E-01 2.70383E-14 1.45185E-14
 -1      2296 2.04853E+01-2.66331E-01-6.19697E-03 2.87739E-01-2.31555E-14 1.53713E-13
 -1      2297 2.05149E+01-2.34594E-01 1.04646E-03 1.97336E-01 1.81841E-14 1.15746E-13
 -1      2298 2.06128E+01-3.64088E-01 1.30494E-03 3.50685E-01 3.44911E-14 1.57939E-13
 -1      2299 2.04732E+01-2.03831E-01-5.28981E-03 1.10734E-01 7.56491E-14 8.53452E-14
 -1      2300 2.04788E+01-1.68507E-01 1.30760E-03 4.34573E-02 8.82130E-14 1.22031E-13
 -1      2301 2.05491E+01-2.88996E-01 3.04538E-04 1.43014E-01-8.45298E-15 8.54501E-14
 -1      2302 2.04339E+01-1.37911E-01-3.98006E-03-1.52785E-02 1.32717E-13 2.80699E-15
 -1      2303 2.04228E+01-1.06197E-01 1.24954E-03-5.95180E-02 1.60224E-13 2.84411E-14
 -1      2304 2.04702E+01-2.02979E-01-2.82723E-04-7.03714E-03 5.01758E-14 2.50974E-13
 -1      2305 2.03803E+01-8.04883E-02-2.65545E-03-9.39774E-02 1.12488E-13-3.37618E-14
 -1      2306 2.03591E+01-5.56197E-02 1.04336E-03-1.18756E-01 1.19558E-13 5.88746E-14
 -1      2307 2.03897E+01-1.24471E-01-5.58438E-04-1.02483E-01 1.47983E-13 6.95380E-14
 -1      2308 2.03217E+01-3.64501E-02-1.52581E-03-1.34540E-01 1.69614E-13 6.39104E-14
 -1      2309 2.02956E+01-1.89789E-02 8.00973E-04-1.44699E-01 2.78360E-13 3.15511E-13
 -1      2310 2.03151E+01-6.21123E-02-6.43991E-04-1.53299E-01 1.86144E-13 1.19163E-13
 -1      2311 2.02641E+01-6.13439E-03-6.68628E-04-1.47530E-01 1.55873E-13 3.09439E-13
 -1      2312 2.02369E+01 4.83812E-03 5.80876E-04-1.47801E-01 2.27259E-14 3.07003E-13
 -1      2313 2.02498E+01-1.77553E-02-6.31085E-04-1.71416E-01 1.93687E-13 2.65144E-13
 -1      2314 2.02111E+01 1.24612E-02-8.10998E-05-1.42578E-01-6.46593E-14 2.36815E-13
 -1      2315 2.01853E+01 1.83958E-02 4.05197E-04-1.36909E-01-1.49842E-13 2.02308E-13
 -1      2316 2.01946E+01 1.05153E-02-5.75616E-04-1.67900E-01-4.41609E-14 1.42631E-13
 -1      2317 2.01646E+01 2.21508E-02 2.78966E-04-1.27383E-01-1.30578E-13 2.71584E-13
 -1      2318 2.01415E+01 2.45424E-02 2.75863E-04-1.18733E-01 1.46254E-14 2.66909E-13
 -1      2319 2.01493E+01 2.61540E-02-5.06858E-04-1.51714E-01-1.02348E-13 3.47857E-13
 -1      2320 2.01252E+01 2.56853E-02 4.66489E-04-1.07530E-01-1.35777E-14 2.84326E-13
 -1      2321 2.01056E+01 2.58091E-02 1.85910E-04-9.79249E-02-7.11975E-15 2.62664E-13
 -1      2322 2.01126E+01 3.28033E-02-4.37857E-04-1.29450E-01-2.12992E-16 4.12545E-13
 -1      2323 2.00929E+01 2.53531E-02 5.34196E-04-8.67258E-02 3.52762E-14 2.08310E-13
 -1      2324 2.00767E+01 2.41825E-02 1.25885E-04-7.74233E-02 8.19671E-14 1.91827E-13
 -1      2325 2.00835E+01 3.36221E-02-3.73447E-04-1.05553E-01-9.95815E-15 3.53416E-13
 -1      2326 2.00670E+01 2.28708E-02 5.25919E-04-6.71919E-02 1.30390E-13 1.42728E-13
 -1      2327 2.00542E+01 2.10875E-02 8.69289E-05-5.88807E-02 7.34779E-14 6.76951E-14
 -1      2328 2.00607E+01 3.10515E-02-3.15030E-04-8.27532E-02 2.52971E-14 2.28419E-13
 -1      2329 2.00469E+01 1.94222E-02 4.74780E-04-5.00775E-02 1.29512E-13 5.66301E-14
 -1      2330 2.00371E+01 1.74662E-02 6.19614E-05-4.30547E-02 1.13035E-13 8.61732E-14
 -1      2331 2.00432E+01 2.68209E-02-2.62666E-04-6.25191E-02 9.40074E-14 9.37878E-14
 -1      2332 2.00316E+01 1.57592E-02 4.03897E-04-3.58125E-02 4.11616E-14 1.94749E-13
 -1      2333 2.00244E+01 1.38887E-02 4.58081E-05-3.01281E-02-8.61680E-14 3.54567E-13
 -1      2334 2.00300E+01 2.20598E-02-2.16075E-04-4.54593E-02 1.27341E-13 1.98914E-13
 -1      2335 2.00204E+01 1.23139E-02 3.28215E-04-2.43850E-02-1.94804E-13 4.62805E-13
 -1      2336 2.00153E+01 1.06595E-02 3.48569E-05-1.99480E-02-9.11439E-14 5.42690E-13
 -1      2337 2.00202E+01 1.74412E-02-1.74975E-04-3.16420E-02-6.04497E-15 5.25810E-13
 -1      2338 2.00125E+01 9.29621E-03 2.56549E-04-1.55417E-02-9.90726E-14 6.11278E-13
 -1      2339 2.00089E+01 7.90474E-03 2.66248E-05-1.21943E-02-1.12387E-14 5.86945E-13
 -1      2340 2.00130E+01 1.33149E-02-1.39105E-04-2.08290E-02-8.14088E-14 6.13345E-13
 -1      2341 2.00070E+01 6.77151E-03 1.93499E-04-8.92395E-03 1.14963E-13 5.64608E-13
 -1      2342 2.00047E+01 5.63694E-03 1.94267E-05-6.49001E-03 1.71436E-13 5.05790E-13
 -1      2343 2.00080E+01 9.81486E-03-1.08191E-04-1.26377E-02 2.56967E-14 5.35803E-13
 -1      2344 2.00035E+01 4.71472E-03 1.40959E-04-4.15606E-03-8.79149E-14 4.78361E-13
 -1      2345 2.00021E+01 3.79862E-03 1.17939E-05-2.47082E-03-1.36459E-13 4.44604E-13
 -1      2346 2.00046E+01 6.93890E-03-8.18181E-05-6.64691E-03-4.80694E-14 5.20075E-13
 -1      2347 2.00013E+01 3.04379E-03 9.89629E-05-8.99605E-04 2.51036E-14 5.32537E-13
 -1      2348 2.00006E+01 2.29305E-03 5.09703E-06 1.69491E-04 3.22282E-14 4.93678E-13
 -1      2349 2.00024E+01 4.59838E-03-6.00139E-05-2.46145E-03-1.07808E-13 6.11901E-13
 -1      2350 2.00002E+01 1.63255E-03 6.17117E-05 1.12029E-03-1.65990E-14 4.18618E-13
 -1      2351 1.99999E+01 1.01332E-03 6.85910E-06 1.65955E-03 5.51579E-14 4.40979E-13
 -1      2352 2.00011E+01 2.67220E-03-4.05839E-05 2.47215E-04 3.51458E-15 6.38956E-13
 -1      2353 2.02805E+01 6.28753E-01 1.18347E-05 5.03673E-01 5.02679E-14 2.18359E-13
 -1      2354 2.04633E+01 8.17470E-01 8.46223E-03 8.17970E-01 5.08508E-14 2.34109E-13
 -1      2355 2.04395E+01 1.20441E+00 5.18631E-03 9.72951E-01 6.01333E-14 1.78220E-13
 -1      2356 2.00538E+01 2.42212E-01 4.79288E-03-3.78235E-01-5.33232E-15 1.64442E-13
 -1      2357 2.00343E+01 2.60833E-01 5.93850E-03-2.79752E-01 1.73920E-14 1.74169E-13
 -1      2358 2.01117E+01 2.43093E-01 6.15353E-03-5.81038E-01 1.30059E-14 1.55303E-13
 -1      2359 2.00457E+01 2.35696E-01 2.68368E-03-4.85568E-01-1.09825E-14 1.58845E-13
 -1      2360 2.00950E+01 3.25004E-01-3.05910E-03-4.49533E-01 2.98481E-15 1.21631E-13
 -1      2361 2.02222E+01 2.89953E-01 7.92112E-03-7.90293E-01 7.61652E-14 1.03112E-13
 -1      2362 2.01162E+01 2.59101E-01 3.60189E-04-6.85881E-01 3.96720E-14 1.32435E-13
 -1      2363 2.00989E+01 3.38465E-01-1.74165E-03-6.75231E-01 4.14080E-14 9.59504E-14
 -1      2364 2.03720E+01 3.81203E-01 1.01476E-02-1.03772E+00 9.24053E-14 6.31424E-14
 -1      2365 2.02291E+01 3.26729E-01-1.77256E-03-9.08947E-01 8.89039E-14 8.02925E-14
 -1      2366 2.01241E+01 4.11917E-01-2.03422E-05-9.09377E-01 9.41940E-14 8.80723E-14
 -1      2367 2.05472E+01 5.16688E-01 1.26827E-02-1.35216E+00 4.61835E-14 1.43205E-13
 -1      2368 2.03684E+01 4.38846E-01-4.01514E-03-1.18480E+00 7.45157E-14 9.59386E-14
 -1      2369 2.01485E+01 5.43249E-01 2.24768E-03-1.18276E+00 5.75409E-14 3.33214E-14
 -1      2370 2.07311E+01 6.88444E-01 1.51912E-02-1.75837E+00-1.75016E-14 1.64642E-13
 -1      2371 2.05166E+01 5.93035E-01-6.58644E-03-1.54121E+00 4.21156E-14 1.58510E-13
 -1      2372 2.01438E+01 7.29716E-01 5.24215E-03-1.52269E+00 2.28055E-14 1.17578E-13
 -1      2373 2.09050E+01 8.62450E-01 1.71327E-02-2.26996E+00-3.11903E-14 1.26827E-13
 -1      2374 2.06559E+01 7.71492E-01-9.27604E-03-2.00065E+00-3.56442E-14 1.48665E-13
 -1      2375 2.00753E+01 9.53663E-01 8.82784E-03-1.95234E+00-2.05996E-14 1.27163E-13
 -1      2376 2.10676E+01 9.41941E-01 1.87790E-02-2.84190E+00 1.31097E-14 7.26827E-14
 -1      2377 2.07788E+01 9.11539E-01-1.12654E-02-2.55785E+00-5.56109E-15 9.79617E-14
 -1      2378 1.99161E+01 1.15588E+00 1.38824E-02-2.47126E+00-6.94258E-15 6.79604E-14
 -1      2379 2.13044E+01 7.29152E-01 2.52239E-02-3.47297E+00-2.41992E-14 4.24916E-14
 -1      2380 2.09118E+01 8.87581E-01-5.30683E-03-3.19916E+00-3.84838E-15 7.00195E-14
 -1      2381 1.96530E+01 1.19618E+00 1.45010E-02-3.10103E+00-3.56681E-15-2.67389E-14
 -1      2382 2.18429E+01-1.82688E-01 3.75989E-02-3.97746E+00-1.26250E-13 1.14584E-13
 -1      2383 2.12396E+01 3.97679E-01 2.24955E-02-3.85926E+00-6.05661E-14 5.24511E-14
 -1      2384 1.93707E+01 7.69549E-01 1.19865E-02-3.85002E+00-5.67567E-14-6.44675E-14
 -1      2385 2.31292E+01-2.27593E+00 2.82745E-02-4.05610E+00-1.00378E-13 1.21431E-14
 -1      2386 2.21892E+01-9.90606E-01 9.21726E-02-4.26231E+00-1.11102E-13 6.72865E-14
 -1      2387 1.94370E+01-6.44444E-01 5.73181E-03-4.63448E+00-9.12742E-14-8.08381E-14
 -1      2388 4.20289E+00-3.39005E+00 4.58604E-02 4.68481E+00-5.85643E-14-4.85501E-13
 -1      2389 3.10318E+00-2.63495E+00 1.11618E-01 2.38813E+00-1.69031E-14-3.51774E-13
 -1      2390 3.73354E+01 5.57426E+00 7.86288E-02-8.33437E-01 2.29261E-13 2.67793E-13
 -1      2391 3.31620E+01-3.10751E+00-4.52753E-02-2.58920E+00 2.21115E-13 2.79332E-13
 -1      2392 2.70400E+01-4.36605E+00 1.36751E-01 2.82208E+00-3.96905E-15 1.31110E-13
 -1      2393 2.90291E+01-5.16702E+00 4.20038E-02 1.50947E+00 2.22322E-14 7.82430E-14
 -1      2394 2.13407E+01 8.16629E-01-5.65196E-04 3.24200E+00-4.64726E-14 1.65194E-13
 -1      2395 2.17780E+01 5.80956E-01 2.14815E-02 3.49429E+00-7.98294E-14 1.84556E-13
 -1      2396 2.11446E+01 9.17369E-01-9.00680E-03 2.58817E+00-1.22986E-13 2.38953E-13
 -1      2397 2.14600E+01 9.14226E-01 1.93966E-02 2.88184E+00-1.11733E-13 1.55742E-13
 -1      2398 1.98938E+01 1.14482E+00 1.28386E-02 3.17290E+00-1.76863E-13 1.26240E-13
 -1      2399 2.09947E+01 8.04412E-01-8.72998E-03 1.97052E+00-2.46934E-14 2.47992E-13
 -1      2400 2.12591E+01 8.83209E-01 1.69746E-02 2.25894E+00-8.61507E-14 1.71872E-13
 -1      2401 2.01283E+01 1.18283E+00 1.24487E-02 2.49665E+00-1.22924E-13 8.89141E-14
 -1      2402 2.08500E+01 6.30489E-01-6.33675E-03 1.46413E+00-4.49250E-15 2.26745E-13
 -1      2403 2.10678E+01 7.24648E-01 1.52359E-02 1.70160E+00 6.33681E-14 2.42114E-13
 -1      2404 2.02904E+01 1.00661E+00 9.83816E-03 1.90693E+00-1.26409E-14 3.49899E-14
 -1      2405 2.07032E+01 4.67813E-01-4.18615E-03 1.07117E+00-1.44074E-13 7.27877E-14
 -1      2406 2.08802E+01 5.50637E-01 1.28481E-02 1.25421E+00-1.54817E-13 1.32253E-13
 -1      2407 2.03609E+01 7.81290E-01 6.49726E-03 1.43084E+00-3.63828E-14 1.09865E-13
 -1      2408 2.05639E+01 3.37463E-01-2.60340E-03 7.75965E-01 1.73906E-14 1.83847E-13
 -1      2409 2.07044E+01 4.02167E-01 1.02206E-02 9.11939E-01-7.19604E-14 1.17690E-13
 -1      2410 2.03650E+01 5.78394E-01 3.69892E-03 1.05947E+00-1.15473E-13-1.10449E-13
 -1      2411 2.04402E+01 2.40064E-01-1.54663E-03 5.58466E-01 4.80302E-16 1.60426E-13
 -1      2412 2.05492E+01 2.87846E-01 7.81873E-03 6.57425E-01-1.92207E-14 1.30884E-13
 -1      2413 2.03314E+01 4.17581E-01 1.76945E-03 7.76933E-01 1.29157E-14-3.64731E-14
 -1      2414 2.03359E+01 1.70016E-01-7.32530E-04 4.00045E-01-3.60081E-14 3.05576E-13
 -1      2415 2.04188E+01 2.04099E-01 5.83323E-03 4.71282E-01 1.92394E-14 2.29807E-13
 -1      2416 2.02814E+01 2.97692E-01 5.88353E-04 5.65655E-01-1.06770E-14 7.59419E-14
 -1      2417 2.02547E+01 1.22272E-01-3.62794E-04 2.90168E-01 6.66264E-15 3.82401E-13
 -1      2418 2.03149E+01 1.45846E-01 4.36383E-03 3.39333E-01 8.93751E-15 2.43185E-13
 -1      2419 2.02291E+01 2.12409E-01-2.55426E-04 4.12356E-01-8.92727E-15 2.50128E-13
 -1      2420 2.01863E+01 8.63903E-02-2.09047E-04 2.05746E-01 8.90068E-14 3.31599E-13
 -1      2421 2.02334E+01 1.03706E-01 3.14667E-03 2.42913E-01 9.41999E-14 4.50376E-13
 -1      2422 2.01808E+01 1.52253E-01-3.13595E-04 2.99434E-01 1.69989E-14 2.68614E-13
 -1      2423 2.01336E+01 6.12138E-02-7.53786E-05 1.44851E-01-7.60691E-14 4.26007E-13
 -1      2424 2.01682E+01 7.34647E-02 2.29931E-03 1.71470E-01 3.30671E-15 3.34804E-13
 -1      2425 2.01376E+01 1.07930E-01-4.34031E-04 2.14032E-01-6.67543E-16 2.87753E-13
 -1      2426 2.00938E+01 4.34360E-02-1.12602E-06 1.00912E-01-3.82727E-14 3.43671E-13
 -1      2427 2.01189E+01 5.20997E-02 1.66171E-03 1.19972E-01-1.29303E-13 3.33234E-13
 -1      2428 2.01021E+01 7.66283E-02-4.49454E-04 1.51666E-01-6.40245E-14 2.57734E-13
 -1      2429 2.00642E+01 3.08179E-02 3.45441E-05 6.92412E-02-2.39860E-13 3.84747E-13
 -1      2430 2.00821E+01 3.69721E-02 1.19694E-03 8.28800E-02-4.73177E-14 2.81287E-13
 -1      2431 2.00739E+01 5.44473E-02-4.12496E-04 1.06215E-01 2.09286E-15 7.14413E-14
 -1      2432 2.00426E+01 2.18180E-02 4.94982E-05 4.64695E-02-1.22787E-13 3.02310E-13
 -1      2433 2.00552E+01 2.62083E-02 8.59432E-04 5.62070E-02-2.06525E-13 2.69879E-13
 -1      2434 2.00521E+01 3.86600E-02-3.54284E-04 7.31791E-02-1.87088E-13 8.88739E-14
 -1      2435 2.00272E+01 1.53855E-02 6.40809E-05 3.01761E-02-1.06232E-13 2.65530E-13
 -1      2436 2.00359E+01 1.85010E-02 6.10879E-04 3.70884E-02-1.31219E-13 3.39730E-13
 -1      2437 2.00357E+01 2.73757E-02-2.91040E-04 4.92593E-02-1.03361E-13 1.35294E-13
 -1      2438 2.00170E+01 1.09453E-02 5.75333E-05 1.90843E-02-1.26094E-13 2.24497E-13
 -1      2439 2.00226E+01 1.31294E-02 4.39712E-04 2.37761E-02-8.67569E-14 2.46882E-13
 -1      2440 2.00240E+01 1.93623E-02-2.57616E-04 3.23613E-02-7.58161E-14 2.67070E-13
 -1      2441 2.00096E+01 7.52220E-03 4.15392E-05 1.07883E-02-1.06845E-13 1.55809E-13
 -1      2442 2.00135E+01 9.16489E-03 3.07497E-04 1.42483E-02-1.34022E-13 2.60530E-13
 -1      2443 2.00155E+01 1.36843E-02-1.81262E-04 2.02756E-02-1.78835E-13 1.91705E-13
 -1      2444 2.00049E+01 5.04706E-03 3.14523E-05 5.06737E-03-1.08734E-14 2.97996E-13
 -1      2445 2.00072E+01 6.25176E-03 2.16333E-04 7.42954E-03 6.71697E-16 2.15496E-13
 -1      2446 2.00095E+01 9.38306E-03-1.38379E-04 1.14666E-02-7.28875E-14 1.40518E-13
 -1      2447 2.00020E+01 3.21906E-03 2.11935E-05 1.24491E-03 8.07260E-14 2.83963E-13
 -1      2448 2.00033E+01 4.11291E-03 1.47030E-04 2.79334E-03 1.53638E-14 2.01025E-13
 -1      2449 2.00054E+01 6.25178E-03-1.01936E-04 5.38462E-03 6.33796E-14 3.46431E-13
 -1      2450 2.00004E+01 1.81175E-03 1.09491E-05-1.14338E-03 1.07791E-13 1.31761E-13
 -1      2451 2.00011E+01 2.50678E-03 9.68436E-05-2.15775E-04 1.50999E-13 1.27434E-13
 -1      2452 2.00028E+01 3.91940E-03-7.22580E-05 1.33718E-03 1.45191E-13 2.10142E-13
 -1      2453 1.99997E+01 6.43714E-04 9.82898E-06-2.38523E-03 1.16099E-13-1.59815E-13
 -1      2454 1.99999E+01 1.20556E-03 5.62352E-05-1.97776E-03 1.52599E-13 1.21398E-13
 -1      2455 2.00012E+01 2.10444E-03-4.52832E-05-1.16393E-03 2.16007E-13-1.72161E-13
 -1      2456 1.99997E+01-3.95790E-04-4.44006E-06-2.66562E-03 1.77355E-13-4.50216E-13
 -1      2457 1.99996E+01 1.68590E-04 2.12474E-05-2.67214E-03 1.43116E-13-3.11345E-13
 -1      2458 2.00006E+01 6.50786E-04-2.85986E-05-2.34004E-03 2.65594E-13-3.92703E-13
 -1      2459 2.00003E+01-7.42071E-04-9.43840E-06-2.60594E-03-2.30712E-15-2.05165E-13
 -1      2460 2.95427E+00-2.95196E+00 8.35609E-02-2.65112E+00-6.42542E-14 1.64313E-13
 -1      2461 4.38392E+00-3.04867E+00 7.32789E-02-4.80483E+00-6.48648E-14 1.90403E-13
 -1      2462 2.00004E+01 9.87414E-04-1.83755E-05 5.47321E-05 3.52925E-14-7.85076E-14
 -1      2463 2.00006E+01 8.85973E-04 1.96550E-05-1.71490E-04 7.59662E-14-2.29785E-13
 -1      2464 1.81132E+01-5.93456E+00-3.04208E-02 6.17354E+00 1.11577E-14-5.70620E-13
 -1      2465 1.29930E+01-5.09521E+00 5.36281E-02 5.95305E+00-1.07359E-13-4.63574E-13
 -1      2466 2.00002E+01 1.43732E-03-1.42882E-05 3.08632E-04-2.07095E-13-4.04891E-13
 -1      2467 2.00003E+01 1.34493E-03 1.02920E-05 1.86044E-04-1.00960E-13-1.78844E-13
 -1      2468 2.00006E+01 3.59706E-03 2.52386E-05 3.24156E-04 1.47716E-13-1.53389E-13
 -1      2469 2.00000E+01 1.65920E-03-6.02538E-06 3.91747E-04-2.51604E-13-1.55770E-13
 -1      2470 2.00001E+01 1.60435E-03-9.80378E-07 3.30744E-04-2.63641E-13-1.85829E-13
 -1      2471 2.00002E+01 4.09907E-03 3.06468E-05 4.27679E-04-1.43257E-13-3.50511E-13
 -1      2472 2.00001E+01 1.61245E-03 4.05314E-06 4.36523E-04-2.64049E-13-3.05837E-13
 -1      2473 2.00000E+01 1.60536E-03-1.10726E-05 3.76512E-04-2.63410E-13-4.32295E-13
 -1      2474 2.00001E+01 4.20415E-03 3.11459E-05 3.73978E-04-1.08797E-13-2.96792E-13
 -1      2475 2.00003E+01 1.33116E-03 1.36489E-05 5.73249E-04-3.54254E-13-2.13755E-13
 -1      2476 2.00001E+01 1.35576E-03-1.77942E-05 4.62492E-04-2.82040E-13-2.02535E-13
 -1      2477 2.00002E+01 3.90178E-03 2.76025E-05 3.27749E-04-1.00046E-13-3.91933E-13
 -1      2478 2.00005E+01 8.82677E-04 1.85000E-05 8.89081E-04-1.21586E-13 3.04611E-13
 -1      2479 2.00004E+01 9.18722E-04-1.94659E-05 6.98529E-04-2.86033E-13-4.20494E-14
 -1      2480 2.00005E+01 3.25266E-03 1.87741E-05 4.37476E-04-9.57394E-14-1.45418E-13
 -1      2481 2.00006E+01 3.80430E-04 1.37045E-05 1.37064E-03-9.94422E-15 5.46533E-13
 -1      2482 2.00005E+01 4.05111E-04-1.33363E-05 1.12254E-03 6.21848E-15 5.35929E-13
 -1      2483 2.00007E+01 2.38798E-03 1.17670E-05 7.88793E-04 4.97379E-14 4.26405E-13
 -1      2484 2.00004E+01-2.01259E-05 6.52303E-06 1.87397E-03 3.17494E-14 6.71819E-13
 -1      2485 2.00005E+01-5.23495E-05-7.26023E-06 1.66389E-03-2.65891E-14 6.16784E-13
 -1      2486 2.00008E+01 1.44946E-03-9.95916E-06 1.31710E-03 7.80508E-14 5.55545E-13
 -1      2487 9.30527E+00-4.03010E+00 5.17442E-02 5.53959E+00-1.76775E-13-3.25073E-13
 -1      2488 6.75166E+00-3.10623E+00 1.35203E-01 4.08939E+00-1.78219E-13-6.75571E-14
 -1      2489 7.17046E+00-3.94512E+00 8.88398E-02-6.43074E+00 3.60267E-14 2.74808E-13
 -1      2490 1.07251E+01-4.34312E+00 2.31523E-02-7.76261E+00 7.74381E-14 2.09915E-13
 -1      2491 2.00617E+01 2.94119E-01 3.66967E-03-1.51574E-01 3.25701E-14 1.75278E-13
 -1      2492 2.00972E+01 3.48872E-01 9.30516E-03-1.65919E-02 4.55324E-14 1.85491E-13
 -1      2493 2.01304E+01 3.80500E-01-3.89547E-03-1.96739E-01 2.99363E-14 1.44284E-13
 -1      2494 2.00009E+01-1.62274E-04-1.23231E-05-1.18498E-03 1.10134E-13-4.15612E-13
 -1      2495 2.00009E+01-1.66069E-04 2.16566E-05-1.55281E-03 1.78470E-13-3.42087E-13
 -1      2496 1.99997E+01-6.36286E-04 2.15383E-05 2.20844E-03 2.24353E-13 2.48769E-13
 -1      2497 3.31194E+01 6.06055E+00-1.42766E-01 7.50262E-01 3.16969E-14 2.28761E-13
 -1      2498 3.29252E+01 7.41299E+00-2.01742E-01 7.30869E-01-1.50990E-14 2.44332E-13
 -1      2499 2.00008E+01-5.55534E-04-7.71232E-06-1.94796E-03 7.17682E-14-1.78369E-13
 -1      2500 2.00006E+01-4.70795E-04 1.11599E-05-2.24204E-03 2.88104E-14-2.03956E-13
 -1      2501 2.00008E+01 3.56390E-04 1.06364E-05-2.25895E-03 1.20904E-13-8.40747E-15
 -1      2502 2.00012E+01 9.77676E-04 3.77813E-06-1.54214E-03 2.61665E-13-1.30757E-13
 -1      2503 2.00007E+01 4.07507E-04-1.76111E-05-4.48815E-04-1.87274E-14-4.97778E-13
 -1      2504 2.00009E+01 3.37257E-04 2.37809E-05-7.79779E-04 1.64385E-13-6.56040E-13
 -1      2505 2.00012E+01 1.83290E-03 2.86202E-06-7.38181E-04 2.42162E-13-5.12602E-13
 -1      2506 2.00009E+01 2.79147E-03 1.66683E-05-5.56536E-05 2.84273E-13-3.20297E-13
 -1      2507 2.18235E+01 1.74155E-01 3.54728E-02 3.86307E+00-1.28357E-13 2.33018E-13
 -1      2508 2.24998E+01-5.36472E-01 3.28904E-02 3.90188E+00-1.38931E-13 2.70654E-13
 -1      2509 1.97188E+01 5.29974E-01 1.56237E-03 3.93119E+00-8.86253E-14 1.50482E-13
 -1      2510 2.31126E+01-1.47650E+00 1.16439E-01 4.09429E+00-1.29789E-13 2.05490E-13
 -1      2511 2.41921E+01-2.84962E+00 4.07553E-02 3.68323E+00-3.74700E-15 1.96329E-13
 -1      2512 2.00301E+01-1.17364E+00-2.02804E-02 4.65215E+00-1.08732E-13 1.15470E-13
 -1      2513 4.13220E+00-2.38741E+00 1.07169E-01 2.09726E+00-1.16462E-13 1.48992E-13
 -1      2514 2.80130E+00-2.68501E+00 8.57897E-02-4.81816E-01-8.11035E-14 1.72973E-13
 -1      2515 4.94258E+00-1.09199E+00 1.77359E-01-1.46073E+00-1.50102E-13 1.92235E-13
 -1      2516 1.94482E+01 3.67937E+00-1.01533E-02-2.15457E-01 1.42087E-13-1.38656E-14
 -1      2517 1.94723E+01 3.65403E+00-9.10862E-03-3.83920E-01 1.31453E-13-2.97366E-14
 -1      2518 1.96441E+01 3.26502E+00-2.23279E-04-4.18067E-01 1.25743E-13-1.93344E-14
 -1      2519 1.95922E+01 3.34145E+00-3.81066E-04-1.25166E-01 1.28438E-13-3.81249E-15
 -1      2520 2.01375E+01 4.06970E-01 3.17640E-03 1.21462E-01 5.62519E-14 1.76962E-13
 -1      2521 2.02394E+01 5.09729E-01 1.14195E-02 3.19268E-01 4.51353E-14 2.07729E-13
 -1      2522 2.03136E+01 7.44151E-01 3.61298E-04 4.50263E-01 5.07784E-14 1.69439E-13
 -1      2523 2.02063E+01 5.11142E-01-3.92022E-03 9.67769E-02 5.54998E-14 1.49006E-13
 -1      2524 2.95704E+01-5.56786E+00-3.72438E-02-1.55872E+00-1.93734E-13-1.15685E-13
 -1      2525 1.33124E+01-5.67076E+00-2.68801E-02-6.06223E+00-4.75731E-14-2.72504E-13
 -1      2526 1.85269E+01-6.07487E+00-3.29106E-02-6.05291E+00-9.45910E-14-2.76622E-13
 -1      2527 6.48435E+00-3.91470E+00 5.03078E-02-4.32975E+00 1.66256E-14-2.43194E-13
 -1      2528 9.34608E+00-4.36383E+00 4.37517E-02-5.69072E+00 1.23235E-14-2.97845E-13
 -1      2529 2.30245E+01-4.89915E+00 4.52042E-02-6.13912E+00 2.51243E-13 3.44960E-13
 -1      2530 2.62375E+01-4.02023E+00-4.08108E-02-5.30002E+00 3.26239E-13 5.05318E-13
 -1      2531 3.34673E+00-2.27167E+00 1.35212E-01-4.92967E-01 3.69392E-14-2.29483E-13
 -1      2532 4.33303E+00-3.14035E+00 7.86647E-02-2.77713E+00 3.16136E-14-1.24012E-13
 -1      2533 7.40487E+00-1.93878E+00 1.54568E-01-3.60455E+00 5.46924E-14-2.33341E-13
 -1      2534 9.71000E+00-4.41135E+00 4.15822E-02 7.50009E+00-3.05311E-14-2.60653E-13
 -1      2535 6.85907E+00-3.99734E+00 7.69169E-02 6.24966E+00 2.08167E-14-4.84890E-13
 -1      2536 1.72417E+01-5.15588E+00 7.48810E-03 7.89399E+00-1.91069E-13 3.14783E-13
 -1      2537 1.33117E+01-5.20095E+00 3.47929E-02 7.70791E+00-1.13243E-13 5.82173E-14
 -1      2538 2.45729E+01-4.57814E+00-6.54675E-02 5.80529E+00-2.99205E-13 4.90080E-13
 -1      2539 2.07586E+01-5.25425E+00-2.02493E-03 6.85040E+00-2.95042E-13 3.85109E-13
 -1      2540 2.01297E+01-5.26227E+00 9.04984E-02 7.06565E+00-1.49158E-13 4.00294E-13
 -1      2541 3.07238E+01-1.13325E+00-3.65572E-02 2.70672E+00-2.48891E-13 3.12417E-13
 -1      2542 2.80323E+01-2.98974E+00-2.26522E-02 3.81675E+00-2.59209E-13 3.84748E-13
 -1      2543 3.32270E+01 2.88302E+00-1.32034E-01 2.04439E-01-3.64458E-13 4.50584E-13
 -1      2544 3.19434E+01 8.70568E-01-6.04019E-02 1.08542E+00-3.30611E-13 3.34677E-13
 -1      2545 3.39077E+01 6.78404E+00-1.75903E-01-6.34382E-01-3.47666E-13 3.42198E-13
 -1      2546 3.37033E+01 5.26747E+00-9.35960E-02-4.55689E-01-3.93630E-13 4.31710E-13
 -1      2547 3.31307E+01 8.34250E+00-1.71579E-01 4.64910E-02-1.28453E-13 2.17722E-13
 -1      2548 3.35748E+01 8.04808E+00-1.25279E-01-3.96668E-01-2.78999E-13 2.59431E-13
 -1      2549 3.26846E+01 2.93211E+00-6.44944E-02-9.83552E-03 3.91909E-14 2.19602E-13
 -1      2550 3.33352E+01 4.50484E+00-1.73779E-01 4.46737E-01 3.31402E-14 2.86438E-13
 -1      2551 3.11382E+01 5.03596E+00-6.43751E-02 1.45778E+00 1.62093E-14 2.59251E-13
 -1      2552 1.51023E+01-5.06355E+00 8.29765E-02-7.75005E+00 2.04586E-13 2.43222E-13
 -1      2553 1.89719E+01-5.11615E+00-2.42545E-02-7.63770E+00 1.61704E-13 2.18863E-13
 -1      2554 2.05977E+01 1.96255E+00-1.32263E-02-1.82468E+00 6.61277E-15-2.03837E-13
 -1      2555 2.04750E+01 1.22813E+00-5.90701E-03-1.20617E+00-1.09773E-14-1.90012E-13
 -1      2556 2.04333E+01 1.39411E+00 3.31478E-03-1.13749E+00 2.61076E-16-1.67584E-13
 -1      2557 2.03321E+01 2.37640E+00-8.27964E-03-1.74416E+00 1.65059E-14-1.87518E-13
 -1      2558 2.62170E+01-5.86843E+00-8.63973E-02-3.69698E+00-1.40582E-13-1.99438E-13
 -1      2559 2.75825E+01-4.87402E+00 7.68390E-02-2.31986E+00-8.79852E-14-6.53887E-14
 -1      2560 2.57924E+01-3.65346E+00 1.51078E-01-3.39334E+00-1.47424E-13-5.31563E-14
 -1      2561 2.26395E+01-6.10036E+00 3.90075E-03-4.76139E+00-1.29813E-13-2.13961E-13
 -1      2562 1.99023E+01 2.87179E+00 1.20261E-03-1.00958E+00 7.13426E-14-1.01211E-13
 -1      2563 1.97835E+01 3.20432E+00-1.49903E-02-1.20353E+00 7.70748E-14-1.35136E-13
 -1      2564 1.98939E+01 3.06127E+00-1.66800E-02-1.39053E+00 6.24756E-14-1.58934E-13
 -1      2565 2.99805E+01-5.30926E+00-1.36151E-02 1.06284E+00 1.29369E-13 9.53959E-14
 -1      2566 2.13343E+01-5.04369E+00 1.48745E-01-5.29262E+00-5.42344E-14-1.87059E-13
 -1      2567 3.31878E+01-3.86123E+00-1.50100E-01-9.47395E-01 2.16896E-13 1.37113E-13
 -1      2568 2.15062E+01-5.63461E+00 1.04119E-02 5.17763E+00-3.21132E-14-3.81917E-13
 -1      2569 3.08413E+01 7.49491E+00-1.05132E-01 6.35765E-01-4.84612E-14 2.24751E-13
 -1      2570 7.38363E+00-2.47799E+00 1.55044E-01 5.57358E+00 5.05984E-14-4.21607E-13
 -1      2571 5.70977E+00-5.95483E-01 1.18781E-01 2.34253E+00 3.23699E-14-3.90521E-13
 -1      2572 4.37386E+00-1.53140E+00 1.61221E-01 9.29501E-01 7.76462E-15-3.75922E-13
 -1      2573 6.11904E+00-2.48723E-01 1.75933E-01-3.25320E-01 6.29696E-14-3.34788E-13
 -1      2574 2.18166E+01-3.41562E+00 3.43319E-03-4.72733E+00-7.55784E-14-1.05450E-13
 -1      2575 3.67753E+01 4.11424E+00 5.03087E-02 2.68530E+00 7.78821E-14 2.52298E-13
 -1      2576 3.54182E+01-1.38562E+00-6.99478E-03-2.62326E+00 2.10706E-13 2.45637E-13
 -1      2577 2.28293E+01-4.20022E+00 3.52535E-03 4.45849E+00-5.25968E-14-1.17351E-13
 -1      2578 1.32988E+01-3.70865E+00 8.59700E-02 5.73209E+00-2.68841E-13-4.34042E-13
 -1      2579 7.16274E+00-1.57229E+00 1.73239E-01 3.05599E+00-3.00190E-13-2.91711E-14
 -1      2580 1.42885E+01-4.17132E+00 1.30951E-01-7.64540E+00 1.17240E-13 1.76359E-13
 -1      2581 7.58631E+00-2.32472E+00 1.58663E-01-5.65562E+00-1.43996E-13 2.33258E-13
 -1      2582 2.00124E+01 2.86550E+00-1.53904E-02-1.50037E+00 5.02326E-14-1.71993E-13
 -1      2583 2.01690E+01 2.63334E+00-2.16254E-02-1.66785E+00 3.52276E-14-1.87458E-13
 -1      2584 2.03223E+01 2.07380E+00 1.69634E-03-1.39412E+00 1.95796E-14-1.75489E-13
 -1      2585 2.01018E+01 2.53194E+00 2.72392E-03-1.24775E+00 5.18084E-14-1.56997E-13
 -1      2586 1.99997E+01 9.17520E-05 3.16350E-06 2.11477E-03 1.93205E-13 2.91410E-13
 -1      2587 2.00001E+01-1.87067E-04-1.81508E-05 2.10910E-03 6.67993E-15 5.65727E-13
 -1      2588 2.00005E+01 9.10037E-04 2.17213E-05 1.78589E-03 2.42441E-15 7.24309E-13
 -1      2589 1.99997E+01 5.94970E-04 3.80795E-05 2.00373E-03 1.09430E-13 4.06102E-13
 -1      2590 2.19886E+01-5.12306E+00 8.69482E-02-6.40717E+00 1.80189E-13 3.43670E-13
 -1      2591 2.80886E+01-3.50853E+00-1.36957E-02-3.22309E+00 2.79693E-13 3.73757E-13
 -1      2592 2.00004E+01 1.16864E-03-4.19098E-05 1.60911E-03 4.94286E-14 4.71548E-13
 -1      2593 3.13753E+01 1.05370E+00-2.92915E-02-7.97356E-02 6.92918E-14 2.01006E-13
 -1      2594 3.14473E+01 7.12616E+00-8.02085E-02-9.11021E-01-2.67758E-13 1.88030E-13
 -1      2595 3.18126E+01 3.60564E+00-3.50824E-02-1.08252E+00-4.03039E-13 3.28099E-13
 -1      2596 3.73160E+01 3.47937E-01-1.44191E-01-2.78922E+00 1.50879E-13 2.55795E-13
 -1      2597 2.66892E+01-4.23441E+00 2.18903E-02 4.37246E+00-2.55518E-13 4.23661E-13
 -1      2598 2.50245E+01-4.88737E+00 7.27927E-02 4.83093E+00-1.83534E-13 4.56170E-13
 -1      2599 2.77126E+01-3.97292E+00-1.50624E-01 2.72129E+00-1.66561E-13 3.32637E-13
 -1      2600 1.34516E+01-4.06659E+00 1.33916E-01-5.85554E+00-3.69149E-14-2.70894E-13
 -1      2601 3.87979E+01 5.79330E+00 5.75285E-02 1.34059E+00 9.25371E-14 1.32810E-13
 -1      2602 3.87995E+01 6.42006E+00 2.23245E-01-1.68642E-01 2.52021E-13 2.10911E-13
 -1      2603 1.33768E+01-4.21133E+00 1.16739E-01 7.57682E+00 4.01068E-14 2.40086E-15
 -1      2604 3.06685E+01-7.35144E-01-9.86245E-03 7.29097E-01-2.71866E-13 3.88800E-13
 -1      2605 1.97508E+01 2.91536E+00-6.23389E-03 4.63901E-01 1.37893E-13 1.67717E-14
 -1      2606 1.97164E+01 2.96709E+00-5.85551E-03 3.30943E-01 1.37450E-13-3.44993E-15
 -1      2607 1.96948E+01 3.00272E+00-5.85100E-03 2.17527E-01 1.27788E-13-6.77344E-15
 -1      2608 1.96858E+01 3.01730E+00-5.28748E-03 8.10018E-02 1.32868E-13 4.43352E-15
 -1      2609 1.98280E+01 2.67695E+00 4.44796E-03 2.43044E-01 1.29635E-13-4.22926E-15
 -1      2610 2.00231E+01 2.44264E+00-9.65342E-03 9.32740E-01 1.10149E-13 9.49564E-14
 -1      2611 1.99359E+01 2.59814E+00-7.40177E-03 8.07121E-01 1.17578E-13 8.39710E-14
 -1      2612 2.02353E+01 2.00797E+00-1.04806E-02 1.10560E+00 1.00146E-13 1.16191E-13
 -1      2613 2.01257E+01 2.24674E+00-5.78459E-03 1.01261E+00 1.08579E-13 1.06754E-13
 -1      2614 2.01741E+01 2.01788E+00 7.26028E-03 8.01413E-01 1.01141E-13 9.52920E-14
 -1      2615 2.04150E+01 1.41064E+00-7.89831E-03 1.03591E+00 7.07394E-14 1.59336E-13
 -1      2616 2.03203E+01 1.79329E+00 1.96121E-03 1.09008E+00 8.07019E-14 1.33558E-13
 -1      2617 2.03082E+01 1.57937E+00 2.84406E-03 8.29768E-01 8.89066E-14 1.04371E-13
 -1      2618 2.03672E+01 1.12068E+00 9.21037E-04 7.25865E-01 6.84426E-14 1.54576E-13
 -1      2619 2.99219E+01-8.30206E-01-1.59774E-02-1.32520E-01 9.64090E-14 1.90403E-13
 -1      2620 2.99633E+01 1.40248E+00-2.08843E-01 1.20956E+00 2.55906E-14 1.29258E-13
 -1      2621 2.02965E+01 6.67982E-01 8.59072E-03-3.00536E-01 1.26321E-14-1.22545E-13
 -1      2622 2.02278E+01 5.16627E-01-2.91060E-03-1.30768E-01 3.51709E-14-1.23770E-13
 -1      2623 2.02138E+01 4.02544E-01 6.79675E-03 2.83169E-03 2.88141E-14-1.38165E-13
 -1      2624 2.01742E+01 3.04200E-01-1.44894E-03 1.11277E-01 2.04625E-14-1.53963E-13
 -1      2625 2.02700E+01 5.78721E-01-2.20278E-03-9.45394E-02 1.32838E-14-1.09483E-13
 -1      2626 2.01661E+01 2.27460E-01 5.02174E-03 1.99554E-01 3.62667E-14-1.54587E-13
 -1      2627 2.01539E+01 1.57504E-01-7.99646E-04 2.63801E-01 2.71190E-14-1.26112E-13
 -1      2628 2.02304E+01 3.39501E-01-2.79178E-03 1.40314E-01 2.99279E-14-1.36476E-13
 -1      2629 2.01592E+01 9.93679E-02 3.83125E-03 3.16260E-01 2.11056E-14-1.00250E-13
 -1      2630 2.01688E+01 4.24029E-02-7.26963E-04 3.46566E-01-1.27883E-15-1.00077E-13
 -1      2631 2.02160E+01 1.68132E-01-2.87474E-03 2.91646E-01 4.09189E-14-1.26086E-13
 -1      2632 2.01911E+01-8.84701E-03 3.24900E-03 3.68927E-01-4.63329E-14-7.94616E-14
 -1      2633 2.02169E+01-6.29245E-02-1.11952E-03 3.69999E-01-4.38139E-14-1.20858E-13
 -1      2634 2.02345E+01 2.88026E-02-2.84449E-03 3.75084E-01-1.34211E-14-1.11769E-13
 -1      2635 2.02584E+01-1.14789E-01 3.15622E-03 3.63948E-01-1.36731E-14-9.58327E-14
 -1      2636 2.02949E+01-1.72198E-01-1.90483E-03 3.36456E-01-4.09933E-14-7.39205E-14
 -1      2637 2.02894E+01-1.02324E-01-2.85618E-03 3.98594E-01-1.49707E-14-8.08417E-14
 -1      2638 2.03570E+01-2.28472E-01 3.37148E-03 3.00211E-01-6.14243E-14-3.78638E-14
 -1      2639 2.03987E+01-2.91164E-01-2.99209E-03 2.42419E-01-8.65196E-14 1.49959E-14
 -1      2640 2.03832E+01-2.39887E-01-2.87924E-03 3.62493E-01-2.08416E-14 2.69031E-14
 -1      2641 2.04805E+01-3.50977E-01 3.61863E-03 1.72029E-01-8.60537E-14 4.09475E-14
 -1      2642 2.05209E+01-4.15050E-01-4.19509E-03 8.19824E-02-5.36763E-14 6.60349E-14
 -1      2643 2.05159E+01-3.88339E-01-2.73987E-03 2.61042E-01-4.19152E-14 1.37183E-13
 -1      2644 2.06172E+01-4.71099E-01 3.49671E-03-2.62470E-02-6.42536E-14 7.07856E-14
 -1      2645 2.06481E+01-5.24800E-01-5.13169E-03-1.47567E-01-2.02274E-14 6.51689E-14
 -1      2646 2.06824E+01-5.38267E-01-2.13993E-03 8.59159E-02-6.03279E-14 1.60015E-13
 -1      2647 2.07464E+01-5.61809E-01 2.50608E-03-2.92888E-01-8.03741E-15-7.36119E-16
 -1      2648 2.07577E+01-5.84688E-01-5.18158E-03-4.37315E-01-6.43354E-14 7.50901E-15
 -1      2649 2.08677E+01-6.61785E-01-7.16854E-04-1.67427E-01-8.28772E-14 9.55682E-14
 -1      2650 2.08366E+01-5.80109E-01 1.61331E-04-6.08449E-01-8.38924E-14 1.59630E-15
 -1      2651 2.08182E+01-5.45904E-01-3.58461E-03-7.56154E-01-1.03128E-13-9.64371E-15
 -1      2652 2.10420E+01-7.10799E-01 1.69111E-03-4.89311E-01-5.09040E-14 3.85359E-14
 -1      2653 2.08502E+01-4.75438E-01-3.57010E-03-9.24720E-01-5.12347E-14 7.45540E-14
 -1      2654 2.07963E+01-3.61626E-01 2.63072E-04-1.04186E+00 1.74441E-14 1.01178E-13
 -1      2655 2.11605E+01-6.24195E-01 4.67438E-03-8.42212E-01-2.86924E-14 1.22758E-13
 -1      2656 2.07577E+01-2.11725E-01-7.60547E-03-1.15967E+00 2.16122E-14 6.05628E-14
 -1      2657 2.06725E+01-1.68577E-02 5.80956E-03-1.20233E+00-3.53699E-15 4.16427E-14
 -1      2658 2.11744E+01-3.51061E-01 6.98705E-03-1.14920E+00 3.59429E-15 1.14438E-13
 -1      2659 2.05628E+01 1.97205E-01-1.01392E-02-1.21106E+00-4.09886E-14 6.70955E-14
 -1      2660 2.04647E+01 4.36971E-01 1.06351E-02-1.14059E+00-8.06414E-14 1.07128E-13
 -1      2661 2.10570E+01 1.09435E-01 6.69552E-03-1.29740E+00 6.53232E-17 7.00276E-14
 -1      2662 2.03213E+01 6.61732E-01-8.85586E-03-9.98432E-01-1.18131E-13 1.16667E-13
 -1      2663 2.02400E+01 8.72193E-01 1.16492E-02-8.04318E-01-1.18943E-13 1.23546E-13
 -1      2664 2.08371E+01 6.69192E-01 2.16454E-03-1.17499E+00-1.06882E-13 1.72827E-13
 -1      2665 2.01313E+01 1.02794E+00-2.78378E-03-5.20319E-01-8.86955E-14 5.61592E-14
 -1      2666 2.00957E+01 1.12668E+00 7.27723E-03-2.38477E-01-6.07617E-14 4.53522E-14
 -1      2667 2.06110E+01 1.15598E+00-4.37532E-03-7.38142E-01-1.23711E-13 9.24152E-14
 -1      2668 2.00819E+01 1.14831E+00 5.23274E-03 1.14542E-01-2.05370E-14 8.28964E-14
 -1      2669 2.01072E+01 1.09257E+00-4.08818E-04 4.08614E-01-1.54082E-14 1.60791E-14
 -1      2670 2.04996E+01 1.38376E+00-7.65815E-03-7.05984E-02-7.51291E-14 5.13896E-14
 -1      2671 2.01965E+01 9.71062E-01 1.08428E-02 7.21889E-01-2.49800E-15 4.07084E-14
 -1      2672 2.02739E+01 7.86567E-01-7.27302E-03 9.47141E-01 7.10873E-14 3.26838E-14
 -1      2673 2.05695E+01 1.25603E+00-5.30220E-03 6.28953E-01-2.28535E-14 1.37502E-13
 -1      2674 2.04165E+01 5.75400E-01 1.12228E-02 1.13352E+00 1.04487E-13-1.01803E-13
 -1      2675 2.05191E+01 3.39143E-01-9.89999E-03 1.24155E+00 1.15355E-13-1.05724E-13
 -1      2676 2.07793E+01 8.28887E-01 3.91988E-04 1.14552E+00-1.45321E-14 6.79300E-14
 -1      2677 2.06436E+01 1.19702E-01 7.04217E-03 1.27550E+00 1.11217E-13-1.35220E-13
 -1      2678 2.07412E+01-8.77496E-02-8.10968E-03 1.26620E+00 9.58759E-14-1.49918E-13
 -1      2679 2.10149E+01 2.79666E-01 6.04298E-03 1.35970E+00 5.98078E-14-1.24571E-13
 -1      2680 2.08007E+01-2.53660E-01 1.37183E-03 1.17950E+00 3.94773E-14-1.76666E-13
 -1      2681 2.08714E+01-3.86028E-01-4.33623E-03 1.08611E+00 3.51042E-14-1.85877E-13
 -1      2682 2.11673E+01-2.09508E-01 7.19733E-03 1.28715E+00 3.38487E-14-1.14142E-13
 -1      2683 2.08576E+01-4.73744E-01-3.06892E-03 9.35225E-01 6.94937E-14-1.49432E-13
 -1      2684 2.08937E+01-5.24083E-01-4.16931E-04 8.01728E-01 9.79464E-14-1.11369E-13
 -1      2685 2.11904E+01-5.25854E-01 5.37440E-03 1.02815E+00 8.23293E-14-1.80405E-14
 -1      2686 2.08255E+01-5.41451E-01-5.24464E-03 6.38497E-01 1.11206E-13 5.51034E-15
 -1      2687 2.08306E+01-5.28901E-01 2.27285E-03 5.01633E-01 1.23846E-13 1.11988E-13
 -1      2688 2.10984E+01-6.50968E-01 2.42532E-03 6.98756E-01 1.55964E-13 2.21501E-14
 -1      2689 2.07358E+01-4.99372E-01-5.53042E-03 3.59047E-01 1.07637E-13 1.75132E-13
 -1      2690 2.07189E+01-4.51061E-01 3.50782E-03 2.41409E-01 4.27495E-14 2.28362E-13
 -1      2691 2.09369E+01-6.27288E-01-6.55548E-05 3.85629E-01 1.56232E-13 1.47666E-13
 -1      2692 2.06204E+01-3.99058E-01-4.73543E-03 1.33513E-01-1.99439E-14 2.00395E-13
 -1      2693 2.05910E+01-3.38269E-01 3.64504E-03 4.46871E-02-1.55380E-15 1.89668E-13
 -1      2694 2.07523E+01-5.17859E-01-1.55781E-03 1.33813E-01 5.72582E-15 2.50921E-13
 -1      2695 2.05027E+01-2.82114E-01-3.53466E-03-2.72403E-02-1.69668E-14 2.43762E-13
 -1      2696 2.04683E+01-2.24145E-01 3.15508E-03-8.66403E-02 1.25825E-14 2.29776E-13
 -1      2697 2.05772E+01-3.77419E-01-2.14086E-03-4.39668E-02-5.48308E-16 2.37949E-13
 -1      2698 2.03963E+01-1.74560E-01-2.34160E-03-1.27906E-01 9.84193E-14 2.66937E-13
 -1      2699 2.03617E+01-1.27089E-01 2.42770E-03-1.62095E-01 2.48509E-13 2.90944E-13
 -1      2700 2.04284E+01-2.42240E-01-2.12543E-03-1.53772E-01 5.33923E-14 3.52034E-13
 -1      2701 2.03065E+01-8.85950E-02-1.34673E-03-1.80231E-01 2.21420E-13 2.59718E-13
 -1      2702 2.02745E+01-5.38691E-02 1.70169E-03-1.95208E-01 1.91581E-13 2.50420E-13
 -1      2703 2.03107E+01-1.30800E-01-1.81878E-03-2.09638E-01 2.07402E-13 4.55836E-13
 -1      2704 2.02341E+01-2.69939E-02-6.02785E-04-1.97546E-01 1.52867E-13 2.62324E-13
 -1      2705 2.02058E+01-4.13276E-03 1.09192E-03-1.99278E-01 1.04351E-13 2.02283E-13
 -1      2706 2.02221E+01-4.87626E-02-1.42758E-03-2.26962E-01 1.98908E-13 3.08972E-13
 -1      2707 2.01771E+01 1.26746E-02-9.43456E-05-1.91906E-01 1.22363E-15 1.13076E-13
 -1      2708 2.01530E+01 2.59428E-02 6.32845E-04-1.85447E-01-8.25926E-14 1.36232E-13
 -1      2709 2.01576E+01 5.64517E-03-1.06129E-03-2.19319E-01 3.44608E-14 1.99703E-13
 -1      2710 2.01331E+01 3.49946E-02 2.20994E-04-1.72934E-01-1.42736E-14 2.91551E-13
 -1      2711 2.01129E+01 4.12508E-02 3.15586E-04-1.62138E-01-4.47225E-15 3.49563E-13
 -1      2712 2.01117E+01 3.75559E-02-7.64015E-04-1.97338E-01 4.98049E-14 1.69670E-13
 -1      2713 2.00993E+01 4.48590E-02 3.91424E-04-1.47649E-01-6.56837E-14 4.36773E-13
 -1      2714 2.00828E+01 4.64293E-02 1.13520E-04-1.35213E-01-1.00492E-13 4.09260E-13
 -1      2715 2.00794E+01 5.29135E-02-5.42111E-04-1.68668E-01-5.79213E-14 3.13371E-13
 -1      2716 2.00735E+01 4.65492E-02 4.60635E-04-1.20770E-01-8.94313E-14 2.29996E-13
 -1      2717 2.00603E+01 4.52838E-02-3.52856E-06-1.08423E-01-4.73848E-14 2.22979E-13
 -1      2718 2.00567E+01 5.71278E-02-3.84724E-04-1.38404E-01-1.86523E-13 9.56952E-14
 -1      2719 2.00539E+01 4.34050E-02 4.64122E-04-9.51892E-02-1.92227E-14 1.24300E-13
 -1      2720 2.00434E+01 4.06500E-02-6.26223E-05-8.39279E-02 1.25021E-14 8.05322E-14
 -1      2721 2.00407E+01 5.45338E-02-2.76558E-04-1.09655E-01-1.11677E-13 5.01803E-14
 -1      2722 2.00390E+01 3.78174E-02 4.28830E-04-7.24674E-02 8.07636E-14 3.04295E-14
 -1      2723 2.00309E+01 3.44775E-02-8.51194E-05-6.27672E-02 9.32247E-14 4.14834E-14
 -1      2724 2.00293E+01 4.83064E-02-2.03216E-04-8.40919E-02 2.08283E-15-1.06818E-13
 -1      2725 2.00278E+01 3.13682E-02 3.73884E-04-5.32530E-02 1.29333E-13 7.85247E-14
 -1      2726 2.00217E+01 2.80029E-02-8.64528E-05-4.52512E-02 1.04459E-13 7.05614E-14
 -1      2727 2.00212E+01 4.05958E-02-1.52977E-04-6.24120E-02 1.20273E-13-1.16649E-13
 -1      2728 2.00195E+01 2.50175E-02 3.12060E-04-3.76202E-02 1.92796E-13 2.52479E-13
 -1      2729 2.00149E+01 2.19362E-02-7.70836E-05-3.12508E-02 3.74318E-14 3.47545E-13
 -1      2730 2.00152E+01 3.27433E-02-1.17664E-04-4.46951E-02 1.70230E-13-3.18842E-14
 -1      2731 2.00133E+01 1.92803E-02 2.51359E-04-2.53136E-02-1.09876E-13 5.29014E-13
 -1      2732 2.00100E+01 1.66219E-02-6.37250E-05-2.04043E-02-2.19933E-14 5.38409E-13
 -1      2733 2.00109E+01 2.55007E-02-9.17318E-05-3.06673E-02 8.68798E-14 2.52495E-13
 -1      2734 2.00088E+01 1.43719E-02 1.96266E-04-1.59192E-02-2.48938E-14 5.34301E-13
 -1      2735 2.00065E+01 1.21653E-02-5.04405E-05-1.22565E-02 5.56124E-14 4.81967E-13
 -1      2736 2.00077E+01 1.92143E-02-7.18881E-05-1.98806E-02-2.39545E-14 4.82415E-13
 -1      2737 2.00056E+01 1.03158E-02 1.49112E-04-8.97664E-03 1.70516E-13 4.44480E-13
 -1      2738 2.00040E+01 8.52352E-03-3.91324E-05-6.34738E-03-5.21463E-14 6.40421E-13
 -1      2739 2.00053E+01 1.39681E-02-5.60771E-05-1.18320E-02 1.17508E-13 3.31151E-13
 -1      2740 2.00034E+01 7.02284E-03 1.11699E-04-4.04640E-03-1.47956E-13 5.54457E-13
 -1      2741 2.00023E+01 5.56316E-03-2.92698E-05-2.25877E-03-6.14175E-14 6.15339E-13
 -1      2742 2.00035E+01 9.68586E-03-4.27212E-05-6.03760E-03-8.98190E-14 5.82327E-13
 -1      2743 2.00019E+01 4.30592E-03 7.66936E-05-7.61108E-04-6.32695E-14 6.84819E-13
 -1      2744 2.00012E+01 3.13730E-03-9.24101E-06 3.20580E-04 6.73026E-14 5.36415E-13
 -1      2745 2.00022E+01 6.15465E-03-4.32329E-05-2.06631E-03 1.44067E-14 3.93799E-13
 -1      2746 2.07814E+01-4.68688E+00 1.49282E-01-6.32663E+00 1.64008E-13 2.51052E-13
 -1      2747 2.37790E+01-5.07901E+00-8.77147E-02-5.25318E+00 3.07240E-13 3.41192E-13
 -1      2748 2.00715E+01 4.47746E-01 2.91606E-03-7.10579E-01 6.20263E-14 6.11306E-14
 -1      2749 2.00645E+01 4.25765E-01-2.18644E-04-5.96154E-01 3.48977E-14 5.75825E-14
 -1      2750 2.01138E+01 4.23357E-01 1.82180E-03-4.85654E-01 3.05433E-14 7.63249E-14
 -1      2751 2.01246E+01 4.40064E-01 2.26886E-03-3.64645E-01 1.59124E-14 1.04475E-13
 -1      2752 2.00704E+01 5.27295E-01 1.03557E-04-5.18880E-01 4.48466E-14 1.87503E-14
 -1      2753 1.99268E+01 7.04053E-01 4.33636E-03-1.20435E+00 4.37415E-14 7.44944E-14
 -1      2754 1.99178E+01 6.11791E-01-5.83270E-03-1.05817E+00 9.08849E-14 8.37745E-14
 -1      2755 1.97553E+01 9.27586E-01 4.61051E-03-1.51971E+00-4.81928E-15 8.81690E-14
 -1      2756 1.97688E+01 8.04582E-01-9.29521E-03-1.34005E+00 2.75281E-14 6.30650E-14
 -1      2757 1.95849E+01 9.00959E-01 8.93729E-03-1.20312E+00 4.37801E-14 5.36588E-14
 -1      2758 1.94524E+01 1.18941E+00 4.64268E-03-1.90516E+00 9.83501E-15 2.84108E-14
 -1      2759 1.95096E+01 1.05127E+00-1.33629E-02-1.68403E+00 7.13026E-15 6.02134E-14
 -1      2760 1.92211E+01 1.17197E+00 1.44108E-02-1.48022E+00 2.94024E-14-2.41788E-14
 -1      2761 1.90018E+01 1.41319E+00 6.46919E-03-2.34897E+00 2.45004E-14-6.98389E-15
 -1      2762 1.90997E+01 1.30132E+00-1.87459E-02-2.09886E+00 1.46620E-14 2.08972E-14
 -1      2763 1.86741E+01 1.47091E+00 2.24547E-02-1.79808E+00 3.13021E-14-1.21380E-13
 -1      2764 1.83357E+01 1.46774E+00 1.59337E-02-2.92056E+00 1.29295E-14-2.45659E-14
 -1      2765 1.84778E+01 1.46977E+00-2.12324E-02-2.61012E+00 3.28617E-14-1.27576E-14
 -1      2766 1.78571E+01 1.71549E+00 3.08118E-02-2.19024E+00 4.59710E-14-6.01325E-14
 -1      2767 1.75418E+01 1.01731E+00 4.62447E-02-3.65529E+00-8.45574E-14-7.51482E-14
 -1      2768 1.76266E+01 1.33944E+00-1.07419E-02-3.28292E+00-2.25731E-14-2.67616E-14
 -1      2769 1.66654E+01 1.72119E+00 4.13364E-02-2.72036E+00 5.98219E-15-2.02627E-14
 -1      2770 1.68888E+01-5.55222E-01 1.01452E-01-4.63131E+00-3.36675E-14-1.41387E-13
 -1      2771 1.67336E+01 4.77962E-01 5.15404E-02-4.19311E+00-6.71581E-14-1.13951E-13
 -1      2772 1.50873E+01 1.08083E+00 4.98035E-02-3.52645E+00-1.23079E-14-1.01991E-13
 -1      2773 1.91643E+01 1.37471E+00-1.88520E-02 2.10091E+00-1.36998E-13 1.07083E-14
 -1      2774 1.90627E+01 1.46849E+00 8.91562E-03 2.39323E+00-1.37525E-13-1.67176E-14
 -1      2775 3.92667E+01 4.36443E+00 3.09728E-01-2.58770E+00 1.65090E-13 2.14939E-13
 -1      2776 1.85400E+01 1.47744E+00-2.20697E-02 2.68427E+00-1.32724E-13 3.34047E-14
 -1      2777 1.84382E+01 1.42755E+00 1.87899E-02 2.99842E+00-1.73396E-13 7.49960E-14
 -1      2778 1.77712E+01 1.78233E+00 3.47812E-02 2.23712E+00-9.20309E-14-1.00417E-13
 -1      2779 1.98734E+01 8.66274E-01-1.03627E-02 1.23679E+00 7.26090E-15-3.46876E-14
 -1      2780 1.98607E+01 9.98628E-01 5.06908E-03 1.43437E+00 5.89058E-14-4.52886E-14
 -1      2781 2.00201E+01 6.43896E-01-7.25670E-03 9.33225E-01-3.44282E-14-2.39091E-13
 -1      2782 2.00336E+01 7.53403E-01 4.70238E-03 1.08797E+00-1.38962E-14-1.47959E-13
 -1      2783 1.95886E+01 9.69651E-01 1.04584E-02 1.09333E+00 8.20510E-14-4.20359E-14
 -1      2784 2.00892E+01 4.69683E-01-4.98106E-03 6.97419E-01-1.07704E-13-1.08308E-13
 -1      2785 2.01157E+01 5.54154E-01 4.21943E-03 8.15901E-01-1.25061E-13-2.70300E-13
 -1      2786 1.98123E+01 7.21767E-01 6.51447E-03 8.42188E-01-1.10514E-13-1.88796E-13
 -1      2787 2.01130E+01 3.39500E-01-3.25157E-03 5.17065E-01 9.73494E-15-8.80436E-15
 -1      2788 2.01433E+01 4.01986E-01 3.57812E-03 6.06167E-01-5.84502E-14-1.51926E-13
 -1      2789 1.99386E+01 5.28473E-01 3.82795E-03 6.41144E-01-7.66736E-14-1.60352E-13
 -1      2790 2.01125E+01 2.48271E-01-2.18753E-03 3.86307E-01-3.13060E-14 3.22647E-14
 -1      2791 2.01409E+01 2.92404E-01 2.97486E-03 4.50199E-01 6.15339E-15 3.65944E-14
 -1      2792 2.00036E+01 3.86527E-01 2.12458E-03 4.85994E-01-3.18925E-14-1.74410E-13
 -1      2793 2.00998E+01 1.78278E-01-1.52687E-03 2.81978E-01 1.16192E-13-1.05871E-13
 -1      2794 2.01260E+01 2.11713E-01 2.33291E-03 3.31899E-01 1.01775E-13-8.63387E-15
 -1      2795 2.00342E+01 2.82038E-01 1.23773E-03 3.65290E-01 8.10560E-14-1.88477E-13
 -1      2796 2.00829E+01 1.28105E-01-1.01138E-03 2.04083E-01-1.06091E-13 9.96756E-14
 -1      2797 2.01049E+01 1.52133E-01 1.82383E-03 2.40930E-01 4.55078E-15 2.47624E-14
 -1      2798 2.00452E+01 2.03646E-01 6.09465E-04 2.69749E-01 8.02829E-14-1.28778E-13
 -1      2799 2.00658E+01 9.20776E-02-6.65970E-04 1.46151E-01 7.05196E-14-9.85733E-15
 -1      2800 2.00834E+01 1.09353E-01 1.40371E-03 1.73241E-01-1.52486E-15 7.71267E-14
 -1      2801 2.00453E+01 1.46962E-01 2.42157E-04 1.97077E-01-1.15384E-14-1.68075E-13
 -1      2802 2.00503E+01 6.61441E-02-4.37173E-04 1.03255E-01-4.44682E-14-7.20984E-14
 -1      2803 2.00641E+01 7.85959E-02 1.06720E-03 1.23109E-01 5.54254E-14-7.49528E-14
 -1      2804 2.00403E+01 1.06010E-01 4.26639E-05 1.42210E-01 2.71550E-14-1.55585E-13
 -1      2805 2.00372E+01 4.74132E-02-2.85638E-04 7.16492E-02-1.01577E-13-8.70121E-14
 -1      2806 2.00477E+01 5.64169E-02 8.03520E-04 8.61424E-02-1.46787E-13-4.48698E-14
 -1      2807 2.00334E+01 7.63673E-02-5.68977E-05 1.01074E-01-1.95275E-14-8.60050E-14
 -1      2808 2.00268E+01 3.38666E-02-1.68927E-04 4.85144E-02-1.41502E-13-4.64732E-14
 -1      2809 2.00346E+01 4.03632E-02 5.98521E-04 5.90267E-02-7.89086E-14-5.26509E-14
 -1      2810 2.00265E+01 5.48497E-02-1.00493E-04 7.04559E-02-4.94898E-14-7.88206E-14
 -1      2811 2.00191E+01 2.44219E-02-1.07839E-04 3.24208E-02-1.26537E-13 7.90407E-14
 -1      2812 2.00246E+01 2.90013E-02 4.47839E-04 3.97104E-02-1.54313E-13 7.02270E-14
 -1      2813 2.00203E+01 3.94375E-02-1.37336E-04 4.82871E-02-2.24846E-13-7.18654E-14
 -1      2814 2.00129E+01 1.70967E-02-7.70001E-05 2.01150E-02-1.51534E-13-7.16202E-14
 -1      2815 2.00170E+01 2.05954E-02 3.25469E-04 2.56086E-02-1.09701E-13 5.81933E-14
 -1      2816 2.00152E+01 2.82697E-02-1.01791E-04 3.20318E-02-1.00112E-13-2.66423E-13
 -1      2817 2.00084E+01 1.17595E-02-5.04489E-05 1.14044E-02-6.92832E-14-9.60612E-16
 -1      2818 2.00113E+01 1.43276E-02 2.38254E-04 1.52628E-02-1.38985E-13 2.42659E-16
 -1      2819 2.00109E+01 1.97869E-02-8.85815E-05 1.99001E-02-1.37578E-13-2.35817E-13
 -1      2820 2.00053E+01 7.82159E-03-3.37482E-05 5.37807E-03 1.06881E-13 2.11795E-13
 -1      2821 2.00072E+01 9.72065E-03 1.70455E-04 8.01138E-03 1.04667E-14 1.61361E-13
 -1      2822 2.00076E+01 1.35567E-02-7.57794E-05 1.12802E-02-1.01895E-13-1.16330E-13
 -1      2823 2.00031E+01 4.85491E-03-2.31833E-05 1.37848E-03 3.52766E-13 1.12764E-13
 -1      2824 2.00043E+01 6.29403E-03 1.20305E-04 3.08663E-03 2.79787E-13 3.64447E-13
 -1      2825 2.00050E+01 8.93337E-03-6.15323E-05 5.31965E-03 2.33241E-14 8.87326E-14
 -1      2826 2.00017E+01 2.53794E-03-6.27629E-07-1.05066E-03 3.88602E-13-1.73922E-13
 -1      2827 2.00024E+01 3.64210E-03 7.80560E-05-7.39670E-05 4.67195E-13-6.54001E-15
 -1      2828 2.00032E+01 5.43034E-03-4.36787E-05 1.37804E-03 4.73399E-13 2.58274E-14
 -1      2829 2.00011E+01 1.13095E-03 1.12029E-05-1.92345E-03 1.94124E-13-1.97752E-13
 -1      2830 2.00013E+01 1.87077E-03 2.91478E-05-1.61889E-03 2.83788E-13-2.36976E-13
 -1      2831 2.00021E+01 3.11111E-03-2.22496E-05-6.76615E-04 5.03396E-13-4.49419E-14
 -1      2832 2.00014E+01 1.38048E-03-2.17537E-05-1.60549E-03 9.65812E-14-6.51031E-14
 -1      2833 2.00000E+01 6.81025E-03-2.45885E-05 5.69814E-04-1.16220E-13-3.96509E-13
 -1      2834 2.00002E+01 6.67588E-03-4.49546E-06 6.25573E-04 9.11305E-15-4.43936E-13
 -1      2835 6.30678E+00 9.45886E-02 1.34457E-01-2.59946E-01-2.33836E-13 3.61933E-14
 -1      2836 6.50940E+00-1.66121E-01 1.68052E-01-2.65886E+00-2.16313E-13 1.42802E-13
 -1      2837 1.90982E+01-3.32716E+00 1.97400E-01 5.41541E+00-1.51532E-13-3.21410E-13
 -1      2838 2.00004E+01 6.23481E-03-3.45507E-05 7.54740E-04 2.02781E-14-3.84265E-13
 -1      2839 2.00007E+01 5.94282E-03 9.37502E-06 6.87395E-04 2.97320E-13-1.95459E-13
 -1      2840 2.00003E+01 9.26801E-03 5.08774E-05 9.82796E-04-8.55755E-16-4.37881E-13
 -1      2841 2.00002E+01 6.27502E-03 4.05346E-06-1.45048E-05-2.13079E-15-3.75678E-13
 -1      2842 2.00000E+01 6.48338E-03-3.02004E-05 2.89084E-05-2.74962E-14-3.18406E-13
 -1      2843 2.00006E+01 5.25248E-03 1.30324E-05-2.68828E-05 1.03735E-13 2.39900E-13
 -1      2844 2.00003E+01 5.60216E-03-3.58389E-05-1.03182E-04 6.16059E-14-1.98348E-13
 -1      2845 2.00003E+01 8.46748E-03 4.01233E-05-4.83695E-04 1.36070E-13-3.12712E-13
 -1      2846 2.00010E+01 3.89609E-03-9.82808E-07 2.98411E-04 6.29502E-14 4.21134E-13
 -1      2847 2.00008E+01 4.36058E-03-3.26986E-05 6.62822E-05 9.90816E-15 5.10864E-13
 -1      2848 2.00008E+01 6.95210E-03 2.88060E-05-5.40268E-04 1.39607E-13 2.91204E-13
 -1      2849 9.90637E+00-7.40542E-01 1.08772E-01 4.03113E+00-4.07119E-13-2.20823E-13
 -1      2850 7.76023E+00 1.20945E-01 2.04732E-01 1.95097E+00-3.32439E-13-1.19404E-13
 -1      2851 1.77468E+01 1.24024E+00 4.85478E-03 3.41299E+00-1.54902E-13 4.39388E-14
 -1      2852 1.77177E+01 7.57272E-01 4.32595E-02 3.79566E+00-1.14721E-13 3.21861E-14
 -1      2853 1.66109E+01 1.67972E+00 5.91200E-02 2.86908E+00-1.88023E-13 9.79000E-14
 -1      2854 9.69697E+00-1.91856E+00 8.92517E-02 6.14395E+00 1.44634E-13-3.04090E-13
 -1      2855 7.59944E+00-9.80408E-01 2.19455E-01 4.39403E+00 9.91429E-14-3.77698E-13
 -1      2856 2.01650E+01 4.78651E-01 5.35965E-04-2.37822E-01 9.21230E-15 1.10937E-13
 -1      2857 2.02002E+01 5.43610E-01 4.27976E-03-9.04699E-02 3.71127E-14 1.12900E-13
 -1      2858 2.01591E+01 5.74213E-01-1.14457E-03-2.73109E-01 1.75022E-14 6.35776E-14
 -1      2859 1.99999E+01 6.81783E-03-1.09636E-05 2.43949E-04-5.85212E-14-2.75244E-13
 -1      2860 1.99999E+01 6.86318E-03-1.89714E-05 3.37955E-04-1.24113E-13-3.58345E-13
 -1      2861 1.99999E+01 9.73527E-03 5.43534E-05 4.98364E-04-7.74948E-14-3.31798E-13
 -1      2862 1.99999E+01 9.45314E-03 5.05249E-05-7.00296E-05-8.62124E-14-2.05236E-13
 -1      2863 2.89636E+01 6.67233E+00-1.44730E-01 1.19104E+00-2.09277E-14 1.24373E-13
 -1      2864 2.89302E+01 7.41092E+00-1.87035E-01 1.56806E-01-9.88098E-14 4.75041E-14
 -1      2865 1.96052E+01 1.12603E+00-1.43548E-02 1.62118E+00 2.88369E-14-8.34172E-14
 -1      2866 1.95515E+01 1.26409E+00 5.70118E-03 1.86575E+00-2.73783E-14-7.41183E-14
 -1      2867 1.92154E+01 1.26566E+00 1.60223E-02 1.40190E+00 4.65151E-14-6.01524E-14
 -1      2868 1.28256E+01-2.50849E+00 1.52497E-01-5.52000E+00 7.81319E-15-2.47441E-13
 -1      2869 1.66717E+01-3.98627E+00 7.05701E-02-6.09188E+00-3.50830E-14-2.42667E-13
 -1      2870 1.75820E+01-8.56390E-02 1.00270E-01 4.49451E+00-1.33810E-13-7.68968E-14
 -1      2871 1.79597E+01-1.50658E+00 8.58632E-02 4.96592E+00-1.97120E-13-1.91729E-13
 -1      2872 1.58541E+01-2.49164E+00 8.81551E-02 5.52734E+00-2.61818E-13-4.25715E-13
 -1      2873 1.53903E+01 5.46607E-01 1.66127E-02 4.00906E+00-2.36526E-13-1.83992E-13
 -1      2874 1.32764E+01-2.96527E+00 1.95473E-01-7.06407E+00 9.55763E-14 1.70072E-13
 -1      2875 1.66011E+01-4.14761E+00-3.38492E-02-7.36106E+00 9.22873E-14 2.04281E-13
 -1      2876 2.03051E+01-4.01757E+00 7.28072E-02-5.16294E+00-7.24976E-14-1.86663E-13
 -1      2877 1.80671E+01-1.95772E+00 1.76441E-01-5.32342E+00-5.54071E-14-1.76761E-13
 -1      2878 2.65706E+01-4.22223E+00 4.91475E-02-3.26984E+00 3.25753E-13 3.99708E-13
 -1      2879 2.86347E+01-2.94031E+00-1.45002E-01-1.77275E+00 2.34229E-13 3.25934E-13
 -1      2880 2.84408E+01-2.10941E+00-1.20384E-02-3.06075E-01 2.09251E-13 2.00132E-13
 -1      2881 2.00189E+01 5.42239E-01 3.76414E-03-9.41707E-01 8.70224E-14 7.61345E-14
 -1      2882 2.00042E+01 4.84553E-01-2.89615E-03-8.18066E-01 8.92905E-14 8.14857E-14
 -1      2883 1.98149E+01 6.97067E-01 4.91574E-03-9.61742E-01 9.10128E-14 7.32233E-14
 -1      2884 2.03810E+01 1.09415E+00 5.97143E-03-7.43422E-01 7.94633E-15-1.32550E-13
 -1      2885 2.02995E+01 8.52804E-01-5.20905E-03-4.91155E-01 8.12306E-15-1.26835E-13
 -1      2886 2.03155E+01 9.41187E-01-3.41284E-04-4.32444E-01 1.80414E-14-1.08510E-13
 -1      2887 3.92194E+01 5.13604E+00-5.05352E-02-1.85751E+00 2.88214E-13 1.71307E-13
 -1      2888 1.59038E+01-4.07611E+00 4.53275E-02 7.42475E+00 4.96547E-14 2.25681E-13
 -1      2889 1.28442E+01-3.02298E+00 1.67410E-01 7.00458E+00 1.23526E-13-4.76286E-14
 -1      2890 1.98582E+01 2.73433E+00-8.18471E-03 7.04450E-01 1.42260E-13 6.71759E-14
 -1      2891 1.97971E+01 2.83307E+00-6.93895E-03 5.72850E-01 1.44898E-13 3.72898E-14
 -1      2892 1.98976E+01 2.56366E+00 6.31514E-03 4.51241E-01 1.33076E-13 2.62769E-14
 -1      2893 2.00220E+01 2.34576E+00 8.05519E-03 6.44542E-01 1.10061E-13 6.25118E-14
 -1      2894 2.00007E+01 1.65313E-03 7.28761E-07 1.36173E-03 1.51478E-13 7.49773E-13
 -1      2895 2.00009E+01 1.90169E-03-8.81797E-06 1.21686E-03 1.35509E-13 7.26932E-13
 -1      2896 2.00010E+01 2.37329E-03 4.87275E-05 9.51213E-04 1.94450E-13 6.90265E-13
 -1      2897 1.98174E+01 2.79496E+00-6.51358E-03-5.51898E-01 1.03913E-13-4.53136E-14
 -1      2898 1.98779E+01 2.69537E+00-7.17111E-03-6.92745E-01 9.21106E-14-5.57575E-14
 -1      2899 8.33569E+00-2.32338E-01 1.81140E-01-2.78914E+00 4.24591E-14-1.64729E-13
 -1      2900 1.02962E+01-1.16246E+00 1.44046E-01-4.50517E+00 3.49165E-14-1.93817E-13
 -1      2901 2.98586E+01-3.73093E-01-1.96760E-01-3.87243E-01-2.98775E-13 3.40047E-13
 -1      2902 2.93739E+01-2.01503E+00 1.12950E-02 7.53341E-01-1.53308E-13 3.58186E-13
 -1      2903 2.14866E+01-5.07646E+00 2.10890E-03 6.33422E+00-1.20487E-13 4.23437E-13
 -1      2904 1.86030E+01-4.75176E+00 1.06911E-01 7.07029E+00-5.52752E-14 3.53592E-13
 -1      2905 1.79379E+01-3.92257E+00 1.11524E-01 6.70767E+00 5.14311E-14 2.65309E-13
 -1      2906 2.99525E+01 4.08814E+00-2.10562E-01-1.67818E+00-3.89522E-13 2.01311E-13
 -1      2907 3.00476E+01 2.12234E+00-7.83216E-02-1.45411E+00-4.03705E-13 2.29955E-13
 -1      2908 2.98189E+01 3.73040E+00-7.66624E-02 1.84707E+00-2.05114E-14 1.56916E-13
 -1      2909 2.91887E+01 4.95693E+00-2.18932E-01 1.72435E+00 9.10383E-15 1.92985E-13
 -1      2910 7.59152E+00-9.45265E-01 1.76258E-01-4.53300E+00-1.52080E-13 6.32272E-14
 -1      2911 9.88168E+00-2.00760E+00 7.35871E-02-6.37173E+00-2.21212E-14 1.26343E-13
 -1      2912 2.88765E+01 6.93768E+00-2.06745E-01-8.99231E-01-2.15217E-13 4.53249E-14
 -1      2913 2.95102E+01 5.81668E+00-1.49722E-01-1.59404E+00-3.50137E-13 1.04167E-13
 -1      2914 2.03615E+01 1.71630E+00-6.47769E-03-1.19688E+00 1.66837E-14-1.62536E-13
 -1      2915 2.03531E+01 1.33318E+00-2.66251E-03-9.15041E-01 6.58848E-15-1.47998E-13
 -1      2916 2.03224E+01 1.41545E+00 3.45665E-04-8.06366E-01 1.89811E-14-1.17351E-13
 -1      2917 2.02568E+01 1.98680E+00-8.94393E-04-1.16471E+00 2.89315E-14-1.48674E-13
 -1      2918 1.98112E+01 2.70449E+00 4.00121E-03 2.62158E-02 1.13101E-13 1.43424E-14
 -1      2919 1.96888E+01 3.01005E+00-5.86469E-03-3.56902E-02 1.26801E-13 5.08838E-15
 -1      2920 1.97040E+01 2.98949E+00-5.17903E-03-1.74333E-01 1.22319E-13-7.63083E-15
 -1      2921 2.03480E+01 9.19910E-01 1.69773E-03 5.21001E-01 5.80109E-14 1.28655E-13
 -1      2922 2.03385E+01 1.14966E+00 3.20962E-03 5.93222E-01 7.01965E-14 1.01913E-13
 -1      2923 2.02897E+01 7.72212E-01-4.27975E-04 3.16451E-01 4.82002E-14 1.28630E-13
 -1      2924 2.00015E+01 3.84553E-03-3.06755E-05 7.77822E-05 3.97885E-13-6.68651E-13
 -1      2925 2.00017E+01 3.39097E-03 1.81826E-05-3.24225E-04 3.19107E-13-3.75674E-13
 -1      2926 2.87670E+01 1.72001E+00-1.02641E-01 1.58390E+00 4.27713E-14 1.05221E-13
 -1      2927 2.52763E+01-4.41211E+00 2.78650E-02-3.53676E+00 3.11064E-13 3.13090E-13
 -1      2928 2.00014E+01 3.60848E-03-4.37513E-05 1.41275E-04 1.74622E-13 6.61385E-13
 -1      2929 1.94254E+01-3.94643E+00 9.81223E-02-6.23436E+00 1.92485E-13 1.96697E-13
 -1      2930 8.20641E+00-8.01964E-02 1.83240E-01 3.11674E+00 9.57567E-14-3.26017E-13
 -1      2931 1.47634E+01-9.28138E-01 5.90810E-02-4.95268E+00 1.63064E-15-2.23543E-13
 -1      2932 1.86246E+01 1.57141E+00 2.33583E-02 1.77919E+00-7.52869E-14-1.00702E-13
 -1      2933 8.55268E+00 9.36779E-01 1.07041E-01-3.96771E-01 2.12139E-14-3.43725E-13
 -1      2934 8.28954E+00 3.13735E-01 1.80221E-01-1.71858E+00 5.93726E-14-2.06585E-13
 -1      2935 1.08207E+01 8.63859E-01 1.34040E-01-2.50999E+00 4.98317E-14-1.57513E-13
 -1      2936 1.99504E+01 2.56048E+00-6.36359E-03-8.03777E-01 7.24408E-14-6.74369E-14
 -1      2937 2.00334E+01 2.40610E+00-8.51604E-03-9.32572E-01 5.55311E-14-1.01876E-13
 -1      2938 2.00371E+01 2.29577E+00 6.01265E-03-6.33130E-01 7.34419E-14-4.95074E-14
 -1      2939 1.26420E+01-1.87089E+00 1.46374E-01 6.11450E+00 1.51865E-13-9.44245E-14
 -1      2940 1.27548E+01-1.16695E+00 2.22069E-01 4.86093E+00-3.70426E-13-3.26530E-13
 -1      2941 2.79131E+01 5.36092E+00-1.24560E-01 1.52367E+00-1.48909E-14 2.72005E-14
 -1      2942 9.00933E+00 8.40181E-01 1.71150E-01 8.62887E-01-3.49869E-13-1.07525E-13
 -1      2943 1.97302E+01 2.94150E+00-6.13481E-03-2.92832E-01 1.24380E-13 4.04364E-15
 -1      2944 1.97684E+01 2.88471E+00-5.68750E-03-4.33770E-01 1.13512E-13-2.01505E-14
 -1      2945 1.99195E+01 2.51586E+00 4.33671E-03-4.19404E-01 9.52026E-14-2.49036E-14
 -1      2946 1.98429E+01 2.65053E+00 3.93050E-03-1.96222E-01 1.01613E-13-6.84457E-15
 -1      2947 2.00010E+01 5.19144E-03-3.75203E-05 6.19159E-04 4.69578E-13-5.37784E-14
 -1      2948 2.00013E+01 4.79688E-03 2.09572E-05 3.88158E-04 4.17441E-13-3.56094E-13
 -1      2949 2.00017E+01 6.45943E-03 2.64694E-05 8.43573E-04 4.35830E-13-4.87705E-13
 -1      2950 8.85240E+00 1.37079E-01 1.87128E-01-3.40478E+00-1.27162E-13 8.27671E-14
 -1      2951 1.28578E+01-1.84775E+00 1.53902E-01-6.25489E+00 2.64788E-14-2.99205E-14
 -1      2952 1.29945E+01 5.49415E-03 1.30038E-01 4.00398E+00-3.71508E-13-2.46261E-13
 -1      2953 2.00010E+01 2.44995E-03 2.41255E-05 8.80171E-04 8.64271E-14 5.90235E-13
 -1      2954 2.00013E+01 4.06724E-03-1.96385E-05 1.03786E-04 1.08026E-13 6.05763E-13
 -1      2955 2.00011E+01 3.70312E-03-1.79606E-05 2.93351E-04 1.12949E-13 4.42161E-13
 -1      2956 2.00014E+01 5.87720E-03 5.16958E-05-5.17488E-04 4.44911E-14 5.11855E-13
 -1      2957 2.00017E+01 5.23486E-03 7.09067E-05-6.33621E-04 2.07663E-13 5.39469E-13
 -1      2958 2.75031E+01 6.42550E+00-1.40622E-01-4.13778E-01-1.90209E-13-9.84143E-14
 -1      2959 1.99641E+01 5.70998E-01 2.06520E-03-7.40272E-01 5.34747E-14 2.01962E-14
 -1      2960 2.00017E+01 2.49528E-03-2.10628E-05-7.39962E-04 2.83464E-13-1.11175E-13
 -1      2961 2.00016E+01 2.12333E-03 8.51442E-06-1.13114E-03 1.14390E-13 1.70987E-13
 -1      2962 2.00019E+01 3.00701E-03-2.38854E-06-7.77063E-04 2.77318E-13 8.25970E-14
 -1      2963 2.00020E+01 4.63111E-03-6.13747E-06 9.57119E-05 2.68418E-13-2.58089E-13
 -1      2964 1.33611E+01-1.08379E+00 1.44158E-01-4.76824E+00 2.01505E-14-2.31121E-13
 -1      2965 2.80169E+01-3.22144E+00-1.63757E-02 1.56676E+00-1.48093E-13 3.68663E-13
 -1      2966 2.35547E+01-5.02069E+00 7.36343E-02 5.26331E+00-1.43857E-13 4.44721E-13
 -1      2967 2.18369E+01-4.60187E+00 4.69737E-02 5.52777E+00-6.08194E-14 3.94925E-13
 -1      2968 2.48055E+01-4.88364E+00-9.58993E-02 3.93538E+00-1.29036E-13 4.20997E-13
 -1      2969 2.89955E+01 5.81378E-01-7.54073E-02-1.26651E+00-3.17399E-13 2.51160E-13
 -1      2970 2.00010E+01 8.11774E-03 3.87965E-05 1.14460E-03 3.56775E-13-2.22762E-13
 -1      2971 2.82062E+01 4.33038E+00-1.01510E-01-1.83298E+00-3.18606E-13 1.35197E-13
 -1      2972 2.02226E+01 5.93159E-01 5.00083E-04 2.39067E-02 5.06919E-14 1.32264E-13
 -1      2973 2.02726E+01 6.81638E-01 4.06173E-03 1.81923E-01 4.87849E-14 1.15777E-13
 -1      2974 2.02838E+01 8.32636E-01-4.50033E-03 2.43143E-01 5.01510E-14 8.24401E-14
 -1      2975 2.02282E+01 6.93211E-01-3.93027E-04-2.00255E-02 2.36269E-14 8.17484E-14
 -1      2976 2.03237E+01 1.32025E+00-6.12588E-04 6.40199E-01 8.69652E-14 8.36594E-14
 -1      2977 2.02662E+01 1.54329E+00-1.72018E-03 6.72557E-01 9.98028E-14 8.39409E-14
 -1      2978 2.03061E+01 1.13577E+00 5.03809E-03 4.37640E-01 7.89407E-14 6.55661E-14
 -1      2979 2.01884E+01 1.73272E+00-4.64736E-03 6.23007E-01 9.41808E-14 8.46684E-14
 -1      2980 2.79777E+01 4.58460E-01-2.01087E-02 1.58723E+00 1.58012E-13-5.45813E-14
 -1      2981 2.73958E+01 2.22856E+00-1.54664E-01 2.03281E+00 1.53121E-13-6.75571E-14
 -1      2982 2.02837E+01 4.84218E-01 4.37017E-03 8.13641E-02 9.93555E-15-9.58222E-14
 -1      2983 2.02621E+01 3.68210E-01-1.81108E-03 1.80658E-01 3.82027E-14-1.03346E-13
 -1      2984 2.02652E+01 2.71626E-01 3.86423E-03 2.60762E-01 3.19703E-14-1.13157E-13
 -1      2985 2.02596E+01 1.81892E-01-9.76837E-04 3.22833E-01 7.23769E-15-1.24690E-13
 -1      2986 2.02877E+01 3.89068E-01-1.89325E-03 2.15525E-01 1.09397E-14-5.48073E-14
 -1      2987 2.02728E+01 1.02587E-01 3.57898E-03 3.74193E-01 1.77673E-14-1.05406E-13
 -1      2988 2.02856E+01 2.35305E-02-6.09384E-04 4.05069E-01 2.99013E-15-8.24489E-14
 -1      2989 2.02910E+01 1.81351E-01-2.60763E-03 3.55387E-01 2.46814E-14-7.93138E-14
 -1      2990 2.03175E+01-5.14403E-02 3.72114E-03 4.30458E-01 5.40528E-15-6.61848E-14
 -1      2991 2.03493E+01-1.31227E-01-7.12954E-04 4.32361E-01 2.08472E-14-2.40027E-14
 -1      2992 2.03243E+01-1.53645E-03-3.30962E-03 4.41021E-01 2.24882E-14-5.71335E-14
 -1      2993 2.04078E+01-2.10645E-01 4.29930E-03 4.30974E-01 2.74233E-14-1.03751E-15
 -1      2994 2.04586E+01-2.98156E-01-1.30142E-03 4.02539E-01-3.70933E-15 4.04763E-14
 -1      2995 2.04022E+01-1.85080E-01-4.07660E-03 4.74898E-01 5.85574E-14-2.44157E-14
 -1      2996 2.05502E+01-3.85764E-01 5.17755E-03 3.69673E-01-1.99190E-14 6.85129E-14
 -1      2997 2.06184E+01-4.81782E-01-2.37112E-03 3.06946E-01-3.65639E-15 1.06493E-13
 -1      2998 2.05381E+01-3.85237E-01-4.82283E-03 4.51904E-01 2.19540E-14 3.81742E-15
 -1      2999 2.07463E+01-5.73938E-01 6.02221E-03 2.34692E-01-4.72574E-14 1.25269E-13
 -1      3000 2.08266E+01-6.69871E-01-3.80693E-03 1.33223E-01-8.00252E-14 1.02084E-13
 -1      3001 2.07416E+01-6.04053E-01-5.24175E-03 3.59246E-01-2.19689E-14 6.37641E-14
 -1      3002 2.09864E+01-7.52264E-01 6.23582E-03 1.29067E-02-1.13745E-13 1.77758E-13
 -1      3003 2.10684E+01-8.26460E-01-5.16141E-03-1.28406E-01-9.06400E-14 1.23651E-13
 -1      3004 2.10132E+01-8.22377E-01-4.79824E-03 1.78956E-01-5.49244E-14 1.22238E-13
 -1      3005 2.12426E+01-8.71340E-01 4.97197E-03-3.00387E-01-4.46829E-14 1.21982E-13
 -1      3006 2.13097E+01-8.87831E-01-5.58126E-03-4.72945E-01-5.06977E-14 1.41945E-13
 -1      3007 2.13352E+01-9.90956E-01-2.70731E-03-1.04712E-01-7.74429E-14 2.09601E-13
 -1      3008 2.14634E+01-8.55998E-01 1.15139E-03-6.85043E-01-5.20076E-14 1.17859E-13
 -1      3009 2.14958E+01-7.70255E-01-3.86840E-03-8.63037E-01 1.93867E-14 1.58088E-13
 -1      3010 2.16616E+01-1.02758E+00 1.34372E-03-4.89100E-01-4.44611E-14 1.10580E-13
 -1      3011 2.15807E+01-6.21724E-01-5.47670E-03-1.07586E+00-3.72722E-15 1.08856E-13
 -1      3012 2.15634E+01-3.99515E-01 1.19094E-03-1.21091E+00-4.80148E-14 4.60905E-14
 -1      3013 2.19164E+01-8.30473E-01 6.26504E-03-9.29456E-01-4.48947E-14 5.68971E-14
 -1      3014 2.15382E+01-1.19531E-01-1.22565E-02-1.34916E+00 4.09525E-15 5.00479E-14
 -1      3015 2.14733E+01 2.26392E-01 8.77240E-03-1.37648E+00-1.50986E-15 7.04731E-14
 -1      3016 2.20110E+01-3.23444E-01 9.78084E-03-1.31143E+00-2.67428E-14-7.47482E-15
 -1      3017 2.13389E+01 5.93106E-01-1.64809E-02-1.35038E+00-4.67042E-14 3.11846E-14
 -1      3018 2.12538E+01 9.77636E-01 1.38218E-02-1.21657E+00-1.30605E-13 6.90195E-14
 -1      3019 2.19008E+01 4.69733E-01 1.05533E-02-1.45989E+00-2.59983E-14 3.27986E-14
 -1      3020 2.10844E+01 1.31250E+00-1.35933E-02-9.73322E-01-1.87940E-13 1.58875E-13
 -1      3021 2.10203E+01 1.58748E+00 1.08969E-02-6.81583E-01-1.51990E-13 8.42670E-14
 -1      3022 2.16434E+01 1.33548E+00 8.22063E-04-1.20882E+00-1.10755E-13 1.31999E-13
 -1      3023 2.09294E+01 1.75091E+00-1.54593E-03-2.69100E-01-7.89494E-14 1.16645E-13
 -1      3024 2.09206E+01 1.78905E+00 1.70340E-03 1.03390E-01-8.08143E-15 1.83664E-13
 -1      3025 2.14135E+01 1.95684E+00-6.30203E-03-5.32376E-01-1.11175E-13 2.02152E-13
 -1      3026 2.09763E+01 1.69492E+00 9.44212E-03 5.40206E-01-2.60915E-14 1.86378E-13
 -1      3027 2.10306E+01 1.47846E+00-1.01795E-02 8.64612E-01-6.07826E-14 1.72641E-13
 -1      3028 2.13817E+01 2.04838E+00-4.72487E-03 3.57490E-01-3.19033E-14 2.07230E-13
 -1      3029 2.11858E+01 1.18120E+00 1.33463E-02 1.16425E+00-9.20665E-14 1.45677E-13
 -1      3030 2.12715E+01 8.15006E-01-1.67693E-02 1.34641E+00-2.08964E-14 6.28289E-14
 -1      3031 2.15681E+01 1.55095E+00-2.32750E-03 1.11760E+00-6.74183E-14 9.83546E-14
 -1      3032 2.14229E+01 4.48628E-01 1.05563E-02 1.43106E+00 5.81210E-14 6.08425E-14
 -1      3033 2.14971E+01 8.77518E-02-1.34901E-02 1.44785E+00 1.75634E-14 5.69821E-14
 -1      3034 2.18324E+01 7.29099E-01 7.83456E-03 1.49740E+00 2.52508E-15 1.21016E-13
 -1      3035 2.15498E+01-2.15523E-01 2.83038E-03 1.35218E+00-1.18971E-14 5.15461E-14
 -1      3036 2.15825E+01-4.68478E-01-7.22519E-03 1.24723E+00 2.50144E-14 1.10834E-13
 -1      3037 2.19847E+01-9.30132E-02 1.06702E-02 1.44907E+00 1.11133E-14 6.50634E-14
 -1      3038 2.15204E+01-6.47345E-01-3.28281E-03 1.05458E+00 1.30654E-13 1.17077E-13
 -1      3039 2.15021E+01-7.62345E-01-3.45097E-04 8.91768E-01 1.70832E-13 1.80191E-13
 -1      3040 2.19376E+01-6.70099E-01 7.77540E-03 1.12789E+00 8.98462E-14 2.10298E-13
 -1      3041 2.13567E+01-8.17648E-01-5.92879E-03 6.84137E-01 1.47232E-13 1.27610E-13
 -1      3042 2.12985E+01-8.20378E-01 4.17224E-03 5.17294E-01 1.70040E-13 1.97218E-13
 -1      3043 2.17094E+01-9.35479E-01 2.44668E-03 7.06945E-01 1.85778E-13 2.07043E-13
 -1      3044 2.11200E+01-7.89482E-01-5.83105E-03 3.43356E-01 1.20148E-13 1.06762E-13
 -1      3045 2.10411E+01-7.25425E-01 6.01058E-03 2.03042E-01 7.12889E-14 1.46984E-13
 -1      3046 2.13838E+01-9.43550E-01-1.82335E-03 3.21282E-01 1.07851E-13 1.25255E-13
 -1      3047 2.08680E+01-6.50193E-01-4.50378E-03 7.90711E-02 9.65391E-14 1.61035E-13
 -1      3048 2.07856E+01-5.59493E-01 6.00422E-03-2.36210E-02 1.07781E-14 2.30955E-13
 -1      3049 2.10429E+01-7.99019E-01-4.11161E-03 2.94944E-02 6.47009E-14 1.27195E-13
 -1      3050 2.06394E+01-4.72227E-01-2.94253E-03-9.98331E-02-2.52165E-14 3.03273E-13
 -1      3051 2.05645E+01-3.81851E-01 5.02151E-03-1.65890E-01 3.71257E-14 3.77117E-13
 -1      3052 2.07395E+01-5.94026E-01-4.73511E-03-1.60165E-01 8.63229E-14 2.60136E-13
 -1      3053 2.04522E+01-3.02025E-01-1.63236E-03-2.04395E-01 9.78926E-15 3.68492E-13
 -1      3054 2.03900E+01-2.25996E-01 3.74323E-03-2.40385E-01 1.25291E-13 4.58690E-13
 -1      3055 2.04969E+01-3.89875E-01-4.32502E-03-2.63958E-01 5.09252E-14 2.92654E-13
 -1      3056 2.03098E+01-1.62378E-01-6.99469E-04-2.52528E-01 7.93283E-14 3.78331E-13
 -1      3057 2.02612E+01-1.05424E-01 2.53960E-03-2.66431E-01 1.05013E-13 3.15463E-13
 -1      3058 2.03176E+01-2.18313E-01-3.48153E-03-3.05317E-01 4.68542E-14 3.79325E-13
 -1      3059 2.02073E+01-5.98391E-02-1.00695E-04-2.61909E-01 1.57193E-13 2.29408E-13
 -1      3060 2.01708E+01-2.13131E-02 1.56474E-03-2.61063E-01 1.53264E-13 1.76855E-13
 -1      3061 2.01934E+01-8.98561E-02-2.57354E-03-3.05851E-01 5.86157E-14 6.08689E-14
 -1      3062 2.01367E+01 8.12872E-03 2.48964E-04-2.47185E-01 1.22380E-13 2.02704E-13
 -1      3063 2.01100E+01 3.13738E-02 8.49843E-04-2.37494E-01-1.32433E-14 1.24556E-13
 -1      3064 2.01120E+01-2.92646E-03-1.77932E-03-2.82417E-01 1.08567E-13-2.30378E-14
 -1      3065 2.00898E+01 4.80589E-02 4.28129E-04-2.19328E-01 1.67777E-14 1.02168E-13
 -1      3066 2.00705E+01 5.98722E-02 3.66185E-04-2.05140E-01 8.77959E-14 1.14854E-13
 -1      3067 2.00616E+01 4.95993E-02-1.16290E-03-2.46978E-01 6.19716E-14 1.29133E-13
 -1      3068 2.00593E+01 6.73743E-02 4.98113E-04-1.85954E-01 1.07982E-14 1.10499E-13
 -1      3069 2.00454E+01 7.13456E-02 6.46963E-05-1.70240E-01-1.02080E-13 1.25164E-13
 -1      3070 2.00321E+01 7.63835E-02-7.22060E-04-2.07419E-01-1.44960E-14 5.46252E-14
 -1      3071 2.00399E+01 7.27822E-02 5.02007E-04-1.51982E-01-2.22662E-13 1.87075E-13
 -1      3072 2.00299E+01 7.18397E-02-1.04512E-04-1.36618E-01-2.34108E-13 2.20378E-13
 -1      3073 2.00159E+01 8.54853E-02-4.26370E-04-1.68571E-01-1.29589E-13 1.20881E-13
 -1      3074 2.00275E+01 6.96502E-02 4.68107E-04-1.20320E-01-2.00071E-13 6.83043E-14
 -1      3075 2.00203E+01 6.59779E-02-1.84264E-04-1.06371E-01-2.01791E-13-5.99332E-14
 -1      3076 2.00079E+01 8.34796E-02-2.38557E-04-1.33129E-01-3.03449E-13 1.72361E-13
 -1      3077 2.00197E+01 6.19192E-02 4.15089E-04-9.24615E-02-5.11603E-14-1.22289E-13
 -1      3078 2.00143E+01 5.70236E-02-2.08077E-04-8.04283E-02 4.08329E-14-1.15435E-13
 -1      3079 2.00043E+01 7.52708E-02-1.26883E-04-1.02355E-01-2.06185E-13 6.89029E-15
 -1      3080 2.00145E+01 5.22670E-02 3.54855E-04-6.89603E-02 1.45193E-13-2.10101E-14
 -1      3081 2.00105E+01 4.71110E-02-1.99730E-04-5.89782E-02 1.45867E-13-1.56251E-13
 -1      3082 2.00031E+01 6.42553E-02-6.39909E-05-7.65993E-02 1.23893E-13-4.09489E-14
 -1      3083 2.00109E+01 4.23778E-02 2.94482E-04-4.97922E-02 3.06975E-13 6.76601E-14
 -1      3084 2.00080E+01 3.75213E-02-1.75378E-04-4.17753E-02 2.67034E-13 9.62628E-14
 -1      3085 2.00029E+01 5.26078E-02-3.12358E-05-5.56792E-02 3.49196E-13 2.15590E-15
 -1      3086 2.00084E+01 3.32071E-02 2.38306E-04-3.46049E-02 1.93847E-13 2.07631E-13
 -1      3087 2.00061E+01 2.89294E-02-1.45139E-04-2.83506E-02 1.74082E-13 3.78347E-13
 -1      3088 2.00030E+01 4.16004E-02-1.59500E-05-3.91233E-02 3.22292E-13 3.05983E-13
 -1      3089 2.00064E+01 2.52097E-02 1.88457E-04-2.28915E-02 7.01569E-15 4.62332E-13
 -1      3090 2.00047E+01 2.16050E-02-1.15341E-04-1.81492E-02 7.42797E-14 5.31969E-13
 -1      3091 2.00030E+01 3.18751E-02-9.46107E-06-2.63372E-02 2.13291E-13 5.33125E-13
 -1      3092 2.00049E+01 1.85116E-02 1.45531E-04-1.41018E-02 1.25066E-13 4.25016E-13
 -1      3093 2.00036E+01 1.55582E-02-8.89207E-05-1.06180E-02 9.40185E-14 3.49575E-13
 -1      3094 2.00029E+01 2.36528E-02-7.83957E-06-1.67034E-02 2.00420E-14 3.17955E-13
 -1      3095 2.00036E+01 1.30381E-02 1.09385E-04-7.71505E-03-1.48411E-13 4.95925E-13
 -1      3096 2.00027E+01 1.06587E-02-5.78714E-05-5.25977E-03-2.43739E-13 4.27450E-13
 -1      3097 2.00026E+01 1.69061E-02-3.79348E-06-9.65301E-03 1.87247E-14 2.37807E-13
 -1      3098 2.00026E+01 8.73704E-03 8.67607E-05-3.46573E-03-4.18076E-14 5.41629E-13
 -1      3099 2.00019E+01 6.80278E-03-3.45188E-05-1.82291E-03 2.00525E-13 6.40520E-13
 -1      3100 2.00017E+01 7.26050E-03-5.09475E-05-1.79245E-03 2.36774E-13 7.41254E-13
 -1      3101 2.00022E+01 1.14884E-02-3.40484E-05-4.89057E-03-7.94195E-14 5.94790E-13
 -1      3102 2.03220E+01 1.21483E+00 5.50245E-03-5.30196E-01 2.41073E-14-9.69268E-14
 -1      3103 2.02938E+01 9.73774E-01-4.32653E-03-3.30091E-01 2.85569E-14-9.63672E-14
 -1      3104 1.87311E+01 1.30744E+00-5.25710E-03-1.28203E+00 7.21025E-14-4.19317E-14
 -1      3105 1.89675E+01 1.15783E+00-1.11982E-02-1.15715E+00 6.47662E-14 2.09555E-15
 -1      3106 1.92652E+01 1.02472E+00-3.05320E-03-1.08726E+00 4.02844E-14 4.13604E-14
 -1      3107 1.94152E+01 9.04758E-01-7.49904E-03-9.73791E-01 5.78281E-14 5.28402E-14
 -1      3108 1.89028E+01 1.20047E+00 1.48653E-02-9.10365E-01 7.82064E-14 5.40915E-14
 -1      3109 1.68412E+01 1.84768E+00-5.80077E-03-1.71617E+00 4.97792E-14-3.10017E-14
 -1      3110 1.73544E+01 1.73462E+00-2.29536E-02-1.54795E+00 1.80585E-14-5.22772E-14
 -1      3111 1.52569E+01 1.86464E+00 2.50686E-02-2.04157E+00-2.31640E-15-1.66030E-14
 -1      3112 1.59281E+01 1.90682E+00-2.01839E-02-1.81666E+00 6.77279E-14-3.84501E-15
 -1      3113 1.57864E+01 2.04450E+00 4.66143E-02-1.08834E+00 4.50681E-14 6.78992E-15
 -1      3114 1.81624E+01 1.57507E+00-1.79980E-02 1.28603E+00-6.09697E-14-3.76040E-14
 -1      3115 1.77851E+01 1.72869E+00-7.20572E-03 1.45167E+00-6.01290E-14-1.35109E-14
 -1      3116 1.26296E+01 4.28313E-01 1.28193E-01-3.80299E+00 4.06411E-14-1.97675E-13
 -1      3117 1.71353E+01 1.84123E+00-2.66130E-02 1.54567E+00-4.83944E-14-3.43952E-15
 -1      3118 1.66279E+01 1.92308E+00-6.88446E-03 1.74349E+00-9.23493E-14-9.86190E-16
 -1      3119 1.69576E+01 1.96082E+00 3.81515E-02 9.94481E-01-2.83491E-14-3.28431E-14
 -1      3120 1.96117E+01 7.26453E-01-6.57343E-03 6.82787E-01-1.52616E-13-5.20972E-14
 -1      3121 1.95260E+01 8.41883E-01-1.21775E-03 7.84324E-01-5.13196E-15-1.76529E-14
 -1      3122 1.93232E+01 9.66796E-01-9.21517E-03 8.58367E-01 9.95847E-14-1.29914E-14
 -1      3123 1.91741E+01 1.10898E+00-3.13738E-03 9.79923E-01 6.04317E-14 9.74568E-15
 -1      3124 1.92019E+01 1.00575E+00 1.11322E-02 6.83485E-01 1.82592E-14-3.99235E-14
 -1      3125 1.98919E+01 4.00867E-01-3.30692E-03 4.15654E-01 5.37451E-15-7.07911E-14
 -1      3126 1.98714E+01 4.65590E-01 5.52868E-04 4.78894E-01-2.30878E-14-1.08452E-13
 -1      3127 1.99535E+01 2.93776E-01-2.37674E-03 3.15954E-01 8.55679E-14 5.75917E-15
 -1      3128 1.99450E+01 3.44425E-01 7.24894E-04 3.68197E-01 7.57018E-14 6.29155E-14
 -1      3129 1.98305E+01 4.24122E-01 3.02098E-03 3.61262E-01-1.52718E-14-5.93008E-14
 -1      3130 1.99873E+01 2.14858E-01-1.67000E-03 2.37021E-01 1.75562E-14 9.93052E-14
 -1      3131 1.99864E+01 2.52125E-01 7.79970E-04 2.77480E-01 1.04512E-13 1.04336E-13
 -1      3132 1.99071E+01 3.13133E-01 1.89701E-03 2.79729E-01 3.20168E-14 1.75300E-13
 -1      3133 2.00044E+01 1.56903E-01-1.17327E-03 1.75390E-01 3.51680E-14 2.88028E-14
 -1      3134 2.00072E+01 1.84307E-01 7.52056E-04 2.06383E-01 6.21487E-14 7.51920E-14
 -1      3135 1.99530E+01 2.30457E-01 1.14471E-03 2.12908E-01 5.36187E-14 3.64460E-13
 -1      3136 2.00119E+01 1.14380E-01-8.22730E-04 1.27849E-01 4.36998E-14 2.03938E-14
 -1      3137 2.00162E+01 1.34523E-01 6.67662E-04 1.51378E-01 6.59994E-14 9.56662E-15
 -1      3138 1.99796E+01 1.69214E-01 6.70746E-04 1.59340E-01 1.09054E-13 1.89145E-13
 -1      3139 2.00142E+01 8.31463E-02-5.76704E-04 9.15721E-02 1.83280E-14 5.22429E-14
 -1      3140 2.00187E+01 9.79688E-02 5.63717E-04 1.09285E-01-2.66543E-14 1.41505E-13
 -1      3141 1.99944E+01 1.23908E-01 3.76723E-04 1.17167E-01-5.20935E-14-2.04771E-14
 -1      3142 2.00137E+01 6.02043E-02-3.85705E-04 6.41975E-02-5.14957E-14-7.95534E-14
 -1      3143 2.00178E+01 7.10950E-02 4.62364E-04 7.74041E-02 5.49560E-14-2.04433E-14
 -1      3144 2.00021E+01 9.03805E-02 1.96382E-04 8.44720E-02 5.14672E-14 5.39759E-14
 -1      3145 2.00122E+01 4.40055E-02-2.69393E-04 4.46365E-02-2.75501E-13-8.92000E-14
 -1      3146 2.00155E+01 5.17620E-02 3.71377E-04 5.40296E-02-2.04210E-13-1.22134E-13
 -1      3147 2.00056E+01 6.60111E-02 6.74844E-05 5.99845E-02-9.05736E-14-9.55306E-14
 -1      3148 2.00100E+01 3.13105E-02-1.97207E-04 2.93049E-02-1.03095E-13-2.73131E-13
 -1      3149 2.00129E+01 3.73347E-02 2.86670E-04 3.65520E-02-2.05828E-13-2.79820E-13
 -1      3150 2.00069E+01 4.79891E-02 3.70702E-05 4.14666E-02-9.34530E-14-1.22234E-13
 -1      3151 2.00079E+01 2.19635E-02-1.37291E-04 1.81728E-02-1.19721E-13-2.74085E-13
 -1      3152 2.00102E+01 2.64156E-02 2.20437E-04 2.33968E-02-7.68691E-14-1.98212E-13
 -1      3153 2.00068E+01 3.41747E-02 5.92591E-06 2.72702E-02-1.21191E-13-2.27655E-13
 -1      3154 2.00059E+01 1.50396E-02-9.87750E-05 1.02224E-02-1.97281E-13-1.23285E-13
 -1      3155 2.00077E+01 1.83635E-02 1.70456E-04 1.39274E-02-1.20567E-13-1.79971E-13
 -1      3156 2.00060E+01 2.39204E-02-1.87900E-05 1.69227E-02-1.27237E-13-3.11323E-13
 -1      3157 2.00043E+01 9.85032E-03-6.97530E-05 4.72911E-03-1.29216E-14-5.34174E-14
 -1      3158 2.00056E+01 1.23560E-02 1.33684E-04 7.27658E-03-1.38291E-13-1.83003E-13
 -1      3159 2.00049E+01 1.62091E-02-6.52056E-05 9.51924E-03-1.19892E-13-3.22719E-13
 -1      3160 2.00029E+01 5.88059E-03-3.15931E-05 1.15388E-03 5.94193E-13 2.84848E-14
 -1      3161 2.00039E+01 7.78837E-03 1.03540E-04 2.79194E-03 2.49551E-13-1.07455E-13
 -1      3162 2.00037E+01 1.03804E-02-8.22509E-05 4.37774E-03 1.34262E-13-2.53287E-13
 -1      3163 1.99997E+01 1.23863E-02-4.73176E-05 1.29454E-03-1.07252E-13-4.42204E-13
 -1      3164 2.00001E+01 1.20190E-02-2.68347E-06 1.56216E-03-1.07563E-13-4.20570E-13
 -1      3165 2.00010E+01 8.69461E-03-6.81249E-06-1.47150E-03 7.84790E-14 3.25690E-13
 -1      3166 2.00006E+01 9.54535E-03-5.32955E-05-1.52606E-03 1.60570E-13 8.40320E-15
 -1      3167 2.00002E+01 1.08109E-02 8.67782E-06-1.30967E-03 1.81864E-13-2.10436E-13
 -1      3168 1.99998E+01 1.13975E-02-5.33663E-05-1.11165E-03 9.23060E-14-2.34731E-13
 -1      3169 2.00003E+01 1.29042E-02 4.84234E-05-2.28874E-03 1.35401E-13-2.24797E-13
 -1      3170 1.56337E+01 1.94046E+00-2.90499E-02 1.86559E+00-2.13352E-13 4.70492E-14
 -1      3171 1.48509E+01 1.77686E+00-9.46559E-03 2.19864E+00-2.75823E-13 6.05314E-14
 -1      3172 1.54383E+01 2.13063E+00 5.12655E-02 1.09469E+00-1.47592E-13-3.38308E-14
 -1      3173 9.94709E+00 3.49025E-01 9.71030E-02 3.42731E+00 1.63536E-13-2.25292E-13
 -1      3174 8.63875E+00 8.79168E-01 1.72749E-01 1.50127E+00 8.54176E-14-3.61627E-13
 -1      3175 1.03635E+01 1.35018E+00 1.40704E-01 2.50203E-01 1.03602E-13-2.91350E-13
 -1      3176 2.00936E+01 2.30234E+00-6.35990E-03-1.01474E+00 4.71783E-14-1.27781E-13
 -1      3177 2.01859E+01 2.11112E+00-8.06952E-03-1.09690E+00 3.81229E-14-1.40853E-13
 -1      3178 2.02595E+01 1.81371E+00 5.83784E-03-9.27407E-01 2.26259E-14-1.24656E-13
 -1      3179 2.01643E+01 2.04711E+00 7.84692E-03-8.02451E-01 4.43529E-14-9.55894E-14
 -1      3180 1.34219E+01 1.23314E+00 1.48131E-01 3.07041E+00-2.91149E-13-1.32186E-13
 -1      3181 2.01300E+01 6.52764E-01-1.19069E-03-2.97258E-01 3.76546E-14 1.20478E-14
 -1      3182 2.01772E+01 7.14191E-01 1.56433E-03-1.62279E-01 1.93563E-14 2.07905E-14
 -1      3183 1.97881E+01 5.39819E-01-4.59744E-03 5.34865E-01-3.64622E-14-9.25189E-14
 -1      3184 1.97422E+01 6.29265E-01 3.32308E-06 6.17562E-01-7.80871E-14-1.12058E-13
 -1      3185 1.95103E+01 7.61866E-01 7.34909E-03 5.65847E-01-9.13899E-14-1.37742E-13
 -1      3186 1.97064E+01 5.70763E-01 4.63524E-03 4.57281E-01-2.38839E-15-2.08814E-13
 -1      3187 1.79687E+01 1.60319E+00-7.78636E-03-1.48159E+00 2.93632E-14-6.14013E-14
 -1      3188 1.83055E+01 1.45379E+00-1.67573E-02-1.34797E+00 4.32271E-14-3.89780E-14
 -1      3189 1.82194E+01 1.50330E+00 2.22890E-02-9.94853E-01 6.83314E-14 7.56986E-14
 -1      3190 1.72392E+01 1.81271E+00 3.18866E-02-1.05173E+00 3.16684E-14 2.28558E-14
 -1      3191 2.00140E+01 6.11469E-01-8.79493E-04-5.18737E-01 5.67883E-14-7.03070E-15
 -1      3192 2.00662E+01 6.19309E-01 1.17468E-04-4.04552E-01 6.12130E-14 1.64266E-15
 -1      3193 2.00781E+01 7.44019E-01 1.65617E-03-3.01771E-01 6.29343E-14-3.72986E-14
 -1      3194 2.03114E+01 7.79948E-01 4.57385E-03-1.78046E-01 2.15247E-14-8.10963E-14
 -1      3195 2.02804E+01 6.16469E-01-2.99144E-03-3.24002E-02 3.01479E-15-9.16560E-14
 -1      3196 2.02976E+01 6.55550E-01-9.29687E-04 1.33721E-02 1.22716E-14-6.07099E-14
 -1      3197 2.00016E+01 9.14289E-03-5.87216E-05 1.99311E-03 4.18904E-13-4.67651E-13
 -1      3198 2.00021E+01 8.32642E-03 3.43986E-05 1.77040E-03 3.30365E-13-4.51178E-13
 -1      3199 1.88665E+01 1.25740E+00-1.29647E-02 1.05979E+00-4.11054E-15 3.37036E-14
 -1      3200 1.86225E+01 1.41860E+00-5.64312E-03 1.20175E+00-1.68600E-14-4.63366E-14
 -1      3201 1.80027E+01 1.63812E+00 2.46624E-02 9.09529E-01-6.24258E-14 9.57825E-14
 -1      3202 1.87244E+01 1.30392E+00 1.65461E-02 8.01922E-01 6.51048E-14-2.35727E-14
 -1      3203 2.69385E+01 4.32475E+00-3.50183E-02 1.96665E+00 4.63518E-14-9.73804E-14
 -1      3204 2.63817E+01 5.51876E+00-1.38086E-01 1.20745E+00-5.45258E-14-1.22236E-13
 -1      3205 1.98529E+01 6.66005E-01-8.02164E-04-7.13987E-01 6.01547E-14 3.54426E-15
 -1      3206 1.99187E+01 6.27416E-01-2.01736E-03-6.08713E-01 3.89896E-14 6.00247E-15
 -1      3207 1.99215E+01 7.16234E-01 3.32361E-03-4.97236E-01 5.17379E-14-3.65799E-15
 -1      3208 1.22636E+01-6.87533E-01 1.43735E-01-5.26354E+00-7.83332E-14-1.11022E-13
 -1      3209 1.46713E+01-2.00604E+00-2.77885E-02-6.14231E+00-1.64174E-14-2.07889E-14
 -1      3210 2.39475E+01-4.19070E+00 4.04997E-02-3.68414E+00 4.15629E-13 2.33672E-13
 -1      3211 2.59681E+01-4.01407E+00-9.63239E-02-2.14772E+00 4.01533E-13 2.25195E-13
 -1      3212 1.96181E+01 8.06138E-01-1.47604E-03-8.99796E-01 7.10666E-14 4.28641E-14
 -1      3213 1.97140E+01 7.24897E-01-4.51939E-03-7.93734E-01 7.42427E-14 1.52928E-14
 -1      3214 1.93748E+01 9.54744E-01 9.53624E-03-7.96464E-01 5.77292E-14 5.79159E-14
 -1      3215 2.00005E+01 1.11041E-02-5.65400E-05 1.90718E-03 9.23629E-14-4.74951E-13
 -1      3216 2.00011E+01 1.04662E-02 1.32040E-05 1.94011E-03 3.65045E-13-4.40209E-13
 -1      3217 2.00003E+01 1.47418E-02 7.95981E-05 2.36430E-03-4.73680E-14-6.44154E-13
 -1      3218 2.62852E+01 6.21654E+00-1.01378E-01 2.07876E-01-1.10023E-13-1.35759E-13
 -1      3219 2.62897E+01 5.73242E+00-1.16163E-01-9.34423E-01-1.74943E-13-8.77718E-14
 -1      3220 2.73259E+01-2.66325E+00 2.98714E-02-5.27821E-01 3.26791E-13 1.31332E-13
 -1      3221 2.78226E+01-1.35771E+00-1.48374E-01 6.83239E-01 1.62481E-13-2.56462E-14
 -1      3222 2.70216E+01-5.50197E-01-3.75360E-02 1.27544E+00 2.36498E-13-7.03812E-14
 -1      3223 1.34905E+01 1.70140E+00 3.62905E-02 1.92958E+00-3.28758E-13-6.18394E-14
 -1      3224 1.06747E+01 1.32924E+00 3.52166E-02 1.58755E+00-4.03759E-13-1.86587E-13
 -1      3225 9.83151E+00 1.49243E+00 1.61030E-01-5.96267E-01-3.81639E-13-5.76900E-14
 -1      3226 1.30590E+01 2.09417E+00 8.69263E-02 7.48702E-01-3.48966E-13-1.10731E-13
 -1      3227 2.66203E+01 4.47031E+00-1.24145E-01-1.79822E+00-1.96398E-13 3.67831E-14
 -1      3228 2.73722E+01 3.10899E+00-4.85333E-02-2.10976E+00-2.44388E-13 1.48208E-13
 -1      3229 9.51026E+00 9.40400E-01 7.89333E-02-2.31366E+00-2.67855E-13-1.17545E-14
 -1      3230 1.05465E+01 1.36621E-01 7.92891E-02-4.21105E+00-1.13798E-13-9.31200E-14
 -1      3231 1.28261E+01 1.28218E-01 1.16027E-01-4.23343E+00-1.69538E-13-7.75144E-14
 -1      3232 1.46973E+01-2.05183E+00 2.85064E-02 6.10931E+00 2.02505E-13 8.46961E-14
 -1      3233 1.22587E+01-7.22822E-01 1.21286E-01 5.12677E+00 2.45880E-13-1.51240E-13
 -1      3234 2.75469E+01-2.75137E+00-1.49919E-01 4.26807E-01-1.61090E-13 3.33400E-13
 -1      3235 2.68338E+01-3.90005E+00 7.87434E-02 2.07802E+00-1.32937E-13 3.51233E-13
 -1      3236 1.99004E+01 2.36124E+00-4.78336E-03 2.61570E-01 1.25211E-13 1.74212E-14
 -1      3237 1.98833E+01 2.39864E+00-3.38354E-03 1.63037E-01 1.16050E-13 1.00899E-14
 -1      3238 1.96856E+01-3.95817E+00 3.24891E-02 6.08757E+00 7.48360E-14 3.17149E-13
 -1      3239 1.75308E+01-2.99975E+00 1.28020E-01 6.16897E+00 1.66103E-13 2.08333E-13
 -1      3240 1.79974E+01-2.87140E+00 1.53388E-01-6.02051E+00 1.73701E-13 3.24289E-14
 -1      3241 2.08955E+01-3.88209E+00-3.07883E-02-5.25172E+00 2.89494E-13 1.17739E-13
 -1      3242 2.77354E+01 1.17539E+00-1.55862E-01-1.81845E+00-2.92030E-13 2.55601E-13
 -1      3243 2.81816E+01-6.15219E-01 2.65797E-02-1.12947E+00-2.46976E-13 3.15969E-13
 -1      3244 1.20870E+01 9.01703E-01 9.96578E-02-3.04343E+00 6.36713E-14-1.29424E-13
 -1      3245 1.36437E+01 1.04108E+00 9.97283E-02-3.19583E+00 5.77698E-14-1.62204E-13
 -1      3246 1.16752E+01 1.44622E+00 6.19940E-02-1.99745E+00 8.34124E-14-1.23832E-13
 -1      3247 2.00028E+01 9.76604E-03 6.64862E-05 2.74163E-03 2.65968E-13-2.71892E-13
 -1      3248 2.00026E+01 6.76730E-03-3.06440E-05 1.40582E-03 3.68075E-13-1.45564E-13
 -1      3249 1.13532E+01 1.49740E+00 1.03743E-01-1.39801E+00-3.11007E-13-1.13264E-13
 -1      3250 2.02966E+01 1.02588E+00 4.61214E-04-2.59868E-01 2.53260E-14-6.63860E-14
 -1      3251 1.70269E+01-1.93706E+00 7.34663E-02-5.38926E+00 5.39013E-14 5.10356E-15
 -1      3252 1.99993E+01 1.27701E-02-2.93510E-05 3.47326E-04-3.51271E-14-3.79250E-13
 -1      3253 1.99994E+01 1.27298E-02-2.42634E-05 7.22864E-04-1.10100E-13-2.58989E-13
 -1      3254 1.99993E+01 1.59375E-02 7.86426E-05 1.25303E-03-8.46851E-14-3.57667E-13
 -1      3255 2.00013E+01 1.25444E-02 2.09993E-06 2.82690E-03 2.61885E-13-6.44292E-13
 -1      3256 2.62650E+01 2.72776E+00-7.02122E-02 1.94100E+00 1.07345E-13-1.93082E-13
 -1      3257 1.43885E+01 1.56825E+00 1.65160E-02-2.73828E+00 6.70037E-15-7.50858E-14
 -1      3258 2.00664E+01 2.04759E+00-3.02983E-03-4.65815E-01 7.68084E-14-1.22123E-14
 -1      3259 2.01265E+01 1.90526E+00-6.06117E-03-5.59037E-01 4.70325E-14-4.49852E-14
 -1      3260 2.53708E+01 5.08625E+00-9.95071E-02 6.83340E-01-9.13714E-14-1.55830E-13
 -1      3261 2.46947E+01 4.78997E+00-4.67445E-02-8.47638E-01-7.87009E-14-4.73614E-14
 -1      3262 2.57681E+01 4.69214E+00-9.91673E-02-1.41298E+00-1.35801E-13-3.06387E-14
 -1      3263 2.51658E+01 3.71823E+00-2.53445E-03-1.70518E+00-7.88120E-14 1.65042E-14
 -1      3264 2.00024E+01 3.97591E-03 3.72719E-05-1.51787E-04 5.18850E-13 1.51875E-13
 -1      3265 2.66166E+01 1.57404E+00-7.38771E-02-1.92340E+00-1.87350E-13 1.68705E-13
 -1      3266 1.99995E+01 1.49446E-02 7.31747E-05-1.42346E-03 9.25078E-14-8.81469E-14
 -1      3267 1.99995E+01 1.22200E-02-9.60419E-06-6.15042E-04-3.25019E-14-9.01722E-14
 -1      3268 1.99993E+01 1.25080E-02-4.09436E-05-2.66534E-04-8.71085E-14-1.18573E-13
 -1      3269 2.70233E+01-1.86724E+00-4.31830E-02-3.88612E-01-1.72222E-13 2.81067E-13
 -1      3270 2.12446E+01-4.10032E+00-3.17778E-02 5.08960E+00 5.24303E-14 3.93852E-13
 -1      3271 1.18353E+01 1.60006E-01 1.07005E-01 4.05497E+00 2.30527E-13-1.55750E-13
 -1      3272 1.17655E+01 1.03311E+00 4.62833E-02 2.62279E+00 2.02978E-13-1.36259E-13
 -1      3273 1.38636E+01 2.11968E-03 7.05612E-02 4.06957E+00 2.77144E-13-5.64757E-14
 -1      3274 1.99307E+01 2.30459E+00-3.92591E-03 3.30702E-01 1.18278E-13 2.09416E-14
 -1      3275 2.00025E+01 2.07651E+00 6.42119E-03 2.44611E-01 1.05760E-13 2.08821E-14
 -1      3276 1.99736E+01 2.21752E+00-6.45446E-03 4.24876E-01 1.27546E-13 3.33040E-14
 -1      3277 1.99665E+01 2.25080E+00-3.56275E-03-2.86562E-01 9.16748E-14-1.16922E-14
 -1      3278 2.00119E+01 2.15998E+00-4.61308E-03-3.90011E-01 8.45781E-14-2.53249E-14
 -1      3279 2.01241E+01 1.82994E+00 4.25361E-03-3.24350E-01 5.77423E-14-8.52931E-15
 -1      3280 2.26370E+01-3.91794E+00 3.56911E-02-4.16618E+00 3.20178E-13 1.38084E-13
 -1      3281 2.35616E+01-3.49765E+00 9.27090E-03-2.78571E+00 4.41533E-13 6.59394E-14
 -1      3282 2.10126E+01-3.11293E+00 8.19416E-06-4.27425E+00 2.21653E-13 8.33257E-14
 -1      3283 2.61013E+01-3.06957E+00-7.55379E-03-9.20200E-01 4.16883E-13 5.97092E-14
 -1      3284 1.38485E+01 1.88275E+00 4.02424E-02-1.76453E+00 7.28497E-14-9.19646E-14
 -1      3285 2.00026E+01 5.90593E-03-9.10567E-06 9.71409E-04 3.84591E-13 1.44810E-13
 -1      3286 1.96978E+01 7.89742E-01 5.80793E-03-6.59309E-01 5.99343E-14 1.92934E-16
 -1      3287 2.53584E+01-4.17859E+00 2.05648E-02 2.80769E+00-1.44718E-13 3.51386E-13
 -1      3288 2.02481E+01 1.44872E+00 8.06410E-03 4.34684E-01 8.65352E-14 7.65557E-14
 -1      3289 2.01258E+01 1.86255E+00-4.46055E-03 5.49258E-01 9.60379E-14 6.37733E-14
 -1      3290 1.98773E+01 2.40876E+00-4.29373E-03 8.52426E-02 1.03874E-13 2.41257E-14
 -1      3291 1.98836E+01 2.40295E+00-3.39435E-03-1.75047E-02 9.06772E-14 2.14725E-14
 -1      3292 1.99715E+01 2.14260E+00 5.76749E-03 1.12898E-01 9.86881E-14 1.90309E-14
 -1      3293 2.00602E+01 2.00243E+00-3.28494E-03 4.76711E-01 1.12074E-13 4.71980E-14
 -1      3294 1.68454E+01-2.07634E+00 7.91366E-02 5.51924E+00 2.12656E-13 1.36502E-13
 -1      3295 2.02106E+01 7.62570E-01-1.69366E-03-6.86309E-02 1.37673E-14 5.90148E-14
 -1      3296 2.02490E+01 8.35341E-01 5.52969E-03 4.95429E-02 2.34294E-14 5.69420E-14
 -1      3297 2.01764E+01 8.49931E-01 1.31793E-03-9.61656E-02 3.56186E-14-1.93480E-14
 -1      3298 2.00015E+01 7.89025E-03-2.84742E-05-1.73951E-03 1.60135E-13 6.52478E-13
 -1      3299 2.00012E+01 8.17172E-03-3.53977E-05-1.61341E-03 7.07412E-14 5.99775E-13
 -1      3300 2.00012E+01 1.11771E-02 4.88426E-05-2.72357E-03 9.34396E-14 2.67192E-13
 -1      3301 2.00018E+01 1.00537E-02 7.08592E-05-3.05029E-03 1.83376E-13 6.21123E-13
 -1      3302 2.02683E+01 1.53496E+00-4.99076E-03-7.58350E-01 2.87040E-14-1.11478E-13
 -1      3303 2.02435E+01 1.57011E+00-2.63080E-03-6.40043E-01 3.34279E-14-8.72382E-14
 -1      3304 2.02759E+01 1.00293E+00-3.37156E-03 2.90301E-01 6.34720E-14 6.77553E-14
 -1      3305 1.23265E+01 1.81460E+00 2.33372E-02-6.78827E-01-2.89529E-13-1.62717E-13
 -1      3306 1.23141E+01 1.40261E+00 5.66084E-02-2.24403E+00-2.07305E-13-2.26756E-13
 -1      3307 2.03024E+01 2.90326E-01 2.86820E-03 3.31928E-01 1.81119E-14-1.93066E-14
 -1      3308 2.03067E+01 1.85677E-01-3.05638E-04 3.91720E-01 2.79340E-14-2.66902E-14
 -1      3309 2.03250E+01 8.82015E-02 3.16580E-03 4.45919E-01 3.83874E-14-2.09948E-14
 -1      3310 2.03487E+01-1.07577E-02 2.60110E-04 4.80946E-01 6.43233E-14 1.06769E-14
 -1      3311 2.03081E+01 1.76972E-01-2.72431E-03 4.32187E-01 4.20222E-14 1.79861E-14
 -1      3312 2.03907E+01-1.09182E-01 3.91327E-03 5.16784E-01 6.32329E-14-3.02122E-15
 -1      3313 2.04400E+01-2.15148E-01 3.49635E-04 5.26802E-01 3.99810E-14-3.01595E-14
 -1      3314 2.03561E+01-4.23846E-02-4.11662E-03 5.32442E-01 5.05979E-14 4.84645E-14
 -1      3315 2.05193E+01-3.24414E-01 5.19030E-03 5.40904E-01 2.99207E-14-3.33664E-14
 -1      3316 2.05990E+01-4.45172E-01-1.91362E-04 5.21672E-01 2.03039E-14 2.20273E-15
 -1      3317 2.04631E+01-2.77032E-01-5.72884E-03 5.96018E-01 3.57222E-14-3.99781E-14
 -1      3318 2.07285E+01-5.68781E-01 6.92905E-03 5.05191E-01 1.10764E-14 1.09459E-14
 -1      3319 2.08405E+01-7.03730E-01-1.52298E-03 4.48600E-01 9.39987E-15 3.47196E-14
 -1      3320 2.06542E+01-5.44910E-01-7.38070E-03 6.11468E-01 2.17245E-14-2.27428E-14
 -1      3321 2.10290E+01-8.34486E-01 8.73533E-03 3.86831E-01-2.02353E-14 3.73108E-14
 -1      3322 2.11684E+01-9.69175E-01-3.72885E-03 2.82680E-01-6.64040E-14 6.11128E-14
 -1      3323 2.09506E+01-8.46149E-01-8.64478E-03 5.55134E-01-2.12048E-14 4.12155E-14
 -1      3324 2.14140E+01-1.08344E+00 9.73987E-03 1.56920E-01-8.13770E-14 8.23293E-14
 -1      3325 2.15655E+01-1.18221E+00-6.15313E-03-2.39991E-03-4.72735E-14 1.21831E-13
 -1      3326 2.13618E+01-1.15032E+00-8.66559E-03 3.91768E-01-3.17422E-14-1.38541E-14
 -1      3327 2.18440E+01-1.23366E+00 8.57751E-03-2.05947E-01-2.78095E-14 7.36319E-14
 -1      3328 2.19801E+01-1.23755E+00-7.53238E-03-4.14380E-01-6.26972E-15 9.07139E-14
 -1      3329 2.18684E+01-1.37791E+00-5.57130E-03 8.21882E-02-3.71377E-14 8.98552E-14
 -1      3330 2.22365E+01-1.16180E+00 2.38835E-03-6.87676E-01-4.46265E-14 1.11987E-13
 -1      3331 2.23201E+01-9.97733E-01-7.17946E-03-9.11832E-01-7.92294E-14 9.16699E-14
 -1      3332 2.24025E+01-1.39377E+00 1.02927E-03-3.89157E-01-1.15981E-14 1.21050E-13
 -1      3333 2.24745E+01-7.22239E-01-7.55640E-03-1.20138E+00-1.78356E-14 6.42251E-14
 -1      3334 2.24722E+01-3.38162E-01-6.69135E-04-1.36402E+00 1.93985E-14 1.09724E-13
 -1      3335 2.28380E+01-1.03957E+00 5.53854E-03-9.73084E-01-4.82635E-14 1.53938E-13
 -1      3336 2.24600E+01 1.34622E-01-1.90040E-02-1.53965E+00 4.52936E-15 1.34363E-13
 -1      3337 2.23884E+01 7.01513E-01 1.26746E-02-1.54920E+00-3.14469E-14 9.42870E-14
 -1      3338 2.30201E+01-1.68121E-01 9.64380E-03-1.48394E+00 3.31934E-14 1.98170E-13
 -1      3339 2.21946E+01 1.27519E+00-2.95457E-02-1.44966E+00-5.50653E-14 1.22959E-13
 -1      3340 2.21092E+01 1.82910E+00 1.40443E-02-1.22069E+00-9.22084E-14 2.06628E-13
 -1      3341 2.28743E+01 1.12651E+00 1.64164E-02-1.64255E+00-2.13341E-14 1.82114E-13
 -1      3342 2.19190E+01 2.25567E+00-1.87958E-02-8.25587E-01-1.12102E-13 2.79473E-13
 -1      3343 2.18490E+01 2.53490E+00-6.85605E-05-4.11404E-01-6.80103E-14 3.04216E-13
 -1      3344 2.25684E+01 2.29139E+00-5.21984E-03-1.14117E+00-4.34266E-14 2.58856E-13
 -1      3345 2.18466E+01 2.59872E+00 6.15359E-03 1.90974E-01-8.04144E-14 2.97505E-13
 -1      3346 2.18780E+01 2.42588E+00-1.06698E-02 6.26673E-01-6.66086E-14 2.20618E-13
 -1      3347 2.23589E+01 2.99724E+00-1.17979E-03-1.20139E-01-7.45667E-14 3.51726E-13
 -1      3348 2.20164E+01 2.09146E+00 1.01447E-02 1.09681E+00-6.35551E-14 1.83260E-13
 -1      3349 2.21077E+01 1.59623E+00-2.71679E-02 1.39306E+00-7.60334E-14 1.52360E-13
 -1      3350 2.24711E+01 2.56828E+00-1.19508E-02 9.47169E-01-7.50953E-14 2.42032E-13
 -1      3351 2.23160E+01 1.03777E+00 1.51942E-02 1.56209E+00-7.29785E-14 1.61648E-13
 -1      3352 2.23759E+01 4.50303E-01-2.81784E-02 1.61647E+00-5.58191E-15 1.32933E-13
 -1      3353 2.28054E+01 1.46915E+00 1.25333E-02 1.62813E+00-8.17814E-14 2.54109E-13
 -1      3354 2.24554E+01-4.37011E-02 6.47440E-03 1.50945E+00 7.17716E-14 9.98802E-14
 -1      3355 2.24630E+01-4.78619E-01-1.12981E-02 1.38705E+00 6.30035E-14 1.81757E-13
 -1      3356 2.29666E+01 2.15487E-01 1.63888E-02 1.65279E+00-2.63253E-14 2.45387E-13
 -1      3357 2.23464E+01-8.06409E-01-6.20720E-03 1.12097E+00 5.42062E-14 2.32950E-13
 -1      3358 2.22793E+01-1.02115E+00-3.94340E-04 9.10477E-01 1.78205E-13 2.06209E-13
 -1      3359 2.28688E+01-7.97823E-01 6.55219E-03 1.19996E+00 1.16220E-13 3.43527E-13
 -1      3360 2.20314E+01-1.13679E+00-8.77235E-03 6.34254E-01 1.72731E-13 2.18473E-13
 -1      3361 2.19017E+01-1.16518E+00 6.97131E-03 4.25766E-01 1.46143E-13 2.30838E-13
 -1      3362 2.24689E+01-1.27090E+00 3.25735E-04 6.19128E-01 1.82333E-13 3.23242E-13
 -1      3363 2.16122E+01-1.13635E+00-7.35529E-03 2.11398E-01 3.92667E-14 1.29795E-13
 -1      3364 2.14561E+01-1.05391E+00 9.39706E-03 4.74573E-02 3.71982E-14 1.34301E-13
 -1      3365 2.19292E+01-1.32399E+00-5.33906E-03 1.27959E-01 5.83355E-15 2.27619E-13
 -1      3366 2.11870E+01-9.50515E-01-4.68208E-03-8.89452E-02 9.43077E-14 1.35346E-13
 -1      3367 2.10350E+01-8.22716E-01 8.88833E-03-1.98561E-01 1.40248E-13 1.53932E-13
 -1      3368 2.13865E+01-1.13068E+00-7.79099E-03-2.06579E-01 1.00793E-13 1.65304E-13
 -1      3369 2.08168E+01-6.97108E-01-2.19974E-03-2.68098E-01 5.45372E-14 2.07539E-13
 -1      3370 2.06868E+01-5.67211E-01 7.01655E-03-3.30060E-01 5.62794E-14 2.13861E-13
 -1      3371 2.09215E+01-8.41677E-01-8.07296E-03-3.90436E-01 1.49387E-13 2.09743E-13
 -1      3372 2.05266E+01-4.50701E-01-4.89780E-04-3.52668E-01 7.51232E-14 1.25103E-13
 -1      3373 2.04253E+01-3.40703E-01 4.94680E-03-3.79318E-01 7.73094E-14 1.98111E-13
 -1      3374 2.05647E+01-5.52014E-01-6.86699E-03-4.61449E-01 4.62238E-14 9.22182E-14
 -1      3375 2.03167E+01-2.47095E-01 4.50269E-04-3.73467E-01-2.31769E-14 1.82104E-13
 -1      3376 2.02431E+01-1.64210E-01 3.17213E-03-3.76714E-01-4.59112E-14 1.08087E-13
 -1      3377 2.03132E+01-3.09572E-01-5.24596E-03-4.61367E-01 2.71501E-14 5.68076E-14
 -1      3378 2.01749E+01-9.65212E-02 8.66532E-04-3.55796E-01-2.07611E-14 1.61817E-13
 -1      3379 2.01246E+01-3.99636E-02 1.83073E-03-3.45076E-01 8.07192E-14 1.04090E-13
 -1      3380 2.01484E+01-1.28556E-01-3.69773E-03-4.22428E-01-1.92150E-14 1.61764E-13
 -1      3381 2.00854E+01 4.32905E-03 9.75520E-04-3.17844E-01 6.85862E-14-3.90292E-14
 -1      3382 2.00527E+01 3.89628E-02 9.01702E-04-2.99907E-01 4.30888E-14-5.51520E-17
 -1      3383 2.00487E+01-6.01819E-03-2.42149E-03-3.66105E-01-4.94412E-15 1.90495E-13
 -1      3384 2.00330E+01 6.46335E-02 9.24879E-04-2.71611E-01 1.65899E-13-3.51638E-14
 -1      3385 2.00128E+01 8.27704E-02 3.03207E-04-2.50924E-01 1.00464E-13 4.38282E-14
 -1      3386 1.99941E+01 6.83766E-02-1.47366E-03-3.05458E-01 1.05556E-13 4.08074E-14
 -1      3387 2.00052E+01 9.49068E-02 8.07955E-04-2.24404E-01 1.09476E-14 5.38893E-14
 -1      3388 1.99933E+01 1.01617E-01-5.20778E-05-2.03725E-01-5.32086E-14-1.22763E-14
 -1      3389 1.99688E+01 1.06847E-01-8.20099E-04-2.47652E-01 8.73151E-14-1.32408E-13
 -1      3390 1.99927E+01 1.04688E-01 6.75744E-04-1.80318E-01-7.61472E-14 3.34323E-14
 -1      3391 1.99860E+01 1.04121E-01-2.39722E-04-1.61210E-01-8.20353E-14 1.13172E-13
 -1      3392 1.99610E+01 1.20584E-01-3.98967E-04-1.96124E-01-7.31839E-14-8.39319E-15
 -1      3393 1.99889E+01 1.01647E-01 5.51026E-04-1.41367E-01-3.15085E-13 8.64572E-14
 -1      3394 1.99854E+01 9.69260E-02-3.17569E-04-1.24603E-01-3.95915E-13 1.76601E-14
 -1      3395 1.99628E+01 1.18653E-01-1.43754E-04-1.52117E-01-2.25701E-13 7.10103E-15
 -1      3396 1.99896E+01 9.14878E-02 4.42209E-04-1.08272E-01-2.68294E-13 5.22697E-14
 -1      3397 1.99878E+01 8.47988E-02-3.29561E-04-9.41028E-02-1.61589E-13 2.43968E-14
 -1      3398 1.99690E+01 1.07823E-01-5.16909E-06-1.15673E-01-3.18113E-13 1.24510E-13
 -1      3399 1.99922E+01 7.81335E-02 3.52015E-04-8.09712E-02-3.59694E-14-4.10898E-14
 -1      3400 1.99913E+01 7.08913E-02-3.05278E-04-6.93502E-02 1.96870E-13 4.77140E-14
 -1      3401 1.99765E+01 9.28257E-02 6.19691E-05-8.61790E-02-6.42099E-14 1.32716E-13
 -1      3402 1.99951E+01 6.40965E-02 2.77781E-04-5.90064E-02 4.16576E-13 2.59744E-14
 -1      3403 1.99947E+01 5.71505E-02-2.63752E-04-4.97172E-02 4.10735E-13 1.30918E-13
 -1      3404 1.99837E+01 7.67046E-02 8.55590E-05-6.27790E-02 2.09580E-13 1.31575E-13
 -1      3405 1.99978E+01 5.08525E-02 2.17613E-04-4.17213E-02 3.95670E-13 1.71377E-13
 -1      3406 1.99974E+01 4.46467E-02-2.17429E-04-3.44678E-02 4.23741E-13 3.06108E-13
 -1      3407 1.99896E+01 6.12858E-02 8.51082E-05-4.45446E-02 4.35378E-13 4.26291E-14
 -1      3408 1.99997E+01 3.91429E-02 1.69392E-04-2.84045E-02 3.90151E-13 3.43473E-13
 -1      3409 1.99994E+01 3.38552E-02-1.72524E-04-2.28727E-02 1.60025E-13 3.19838E-13
 -1      3410 1.99942E+01 4.75190E-02 7.28826E-05-3.05783E-02 4.02563E-13-4.44154E-14
 -1      3411 2.00010E+01 2.92386E-02 1.29473E-04-1.83691E-02-1.78735E-13 3.18399E-13
 -1      3412 2.00006E+01 2.48821E-02-1.31689E-04-1.42550E-02-7.03183E-14 1.46801E-13
 -1      3413 1.99974E+01 3.57946E-02 5.99682E-05-2.00867E-02 1.26782E-14 1.26827E-13
 -1      3414 2.00016E+01 2.10626E-02 8.61245E-05-1.09753E-02 2.28987E-13 9.58908E-15
 -1      3415 2.00013E+01 1.75852E-02-7.27201E-05-8.05271E-03 6.70600E-14 7.58177E-14
 -1      3416 1.99995E+01 2.61094E-02 4.36445E-05-1.23501E-02 5.85884E-14 2.18461E-13
 -1      3417 2.00140E+01 7.91525E-01-2.99457E-03-2.93048E-01 4.72286E-14-4.29369E-14
 -1      3418 2.00844E+01 8.45358E-01 6.41682E-05-1.87597E-01 5.18365E-14-4.28761E-14
 -1      3419 1.49645E+01 1.93607E+00-1.08123E-02-3.18355E-01 7.16961E-14-1.49915E-14
 -1      3420 1.58935E+01 1.87757E+00-1.36031E-02-3.84392E-01 5.32122E-14 1.25629E-14
 -1      3421 2.00020E+01 1.44062E-02-2.75111E-05 4.66143E-03 1.57659E-13-6.14431E-13
 -1      3422 2.00028E+01 1.27121E-02-1.31223E-05 4.58636E-03 1.68124E-13-2.55577E-13
 -1      3423 2.00036E+01 1.57470E-02 1.50054E-04 6.71935E-03-2.34466E-14-4.18612E-13
 -1      3424 2.01998E+01 1.67241E+00-2.70044E-03-5.80916E-01 4.51677E-14-6.72114E-14
 -1      3425 2.46113E+01 4.47957E+00-1.35011E-02 1.19714E+00-9.08856E-14-8.58966E-14
 -1      3426 2.43788E+01 4.87224E+00-8.25188E-02 1.15979E-01-1.28710E-13-8.11661E-14
 -1      3427 1.69089E+01 1.78410E+00-1.41966E-02 4.15194E-01-7.42080E-14-1.33080E-13
 -1      3428 1.63147E+01 1.91313E+00-6.29976E-03 3.92766E-01-1.69835E-13-2.03143E-13
 -1      3429 1.98606E+01 3.09536E-01-1.83410E-03 2.28593E-01-2.07718E-14 2.03464E-13
 -1      3430 1.98308E+01 3.58534E-01-4.99138E-04 2.62779E-01-9.59396E-14 8.14337E-14
 -1      3431 1.97711E+01 4.13827E-01-2.46385E-03 2.87953E-01-1.00530E-13-7.19169E-14
 -1      3432 1.97211E+01 4.78144E-01-1.19633E-03 3.28055E-01-7.15277E-14-1.75881E-13
 -1      3433 1.97452E+01 4.19683E-01 2.98484E-03 2.32704E-01-1.97518E-13-5.09887E-14
 -1      3434 1.99533E+01 1.71153E-01-1.00347E-03 1.34630E-01 1.80868E-13 9.24191E-14
 -1      3435 1.99439E+01 1.99154E-01 1.26574E-04 1.57375E-01 1.94558E-13 2.23573E-13
 -1      3436 1.99754E+01 1.26496E-01-7.35846E-04 1.00068E-01-6.36252E-14 4.01747E-14
 -1      3437 1.99706E+01 1.47563E-01 2.19219E-04 1.18039E-01-2.69967E-15 1.00524E-13
 -1      3438 1.99395E+01 1.77477E-01 8.26767E-04 1.15913E-01 4.89097E-14 1.62138E-13
 -1      3439 1.99888E+01 9.30077E-02-5.22379E-04 7.27196E-02 5.99286E-14-9.00095E-14
 -1      3440 1.99866E+01 1.08815E-01 2.47876E-04 8.66499E-02-7.66990E-14-6.44680E-14
 -1      3441 1.99652E+01 1.31813E-01 5.26237E-04 8.71046E-02-3.99470E-14 3.30587E-15
 -1      3442 1.99962E+01 6.89756E-02-3.78924E-04 5.23957E-02-1.75289E-13-2.98307E-14
 -1      3443 1.99957E+01 8.04019E-02 2.39246E-04 6.26444E-02-6.71369E-14-1.19790E-13
 -1      3444 1.99811E+01 9.79343E-02 3.20358E-04 6.42812E-02 1.31944E-14-1.41295E-13
 -1      3445 2.00006E+01 4.98620E-02-2.85138E-04 3.59389E-02 4.21147E-14-8.37371E-14
 -1      3446 2.00008E+01 5.88954E-02 2.08684E-04 4.40846E-02-4.86487E-14-2.14805E-14
 -1      3447 1.99911E+01 7.22804E-02 2.05259E-04 4.62074E-02-1.53431E-13-3.08530E-13
 -1      3448 2.00027E+01 3.55945E-02-2.01278E-04 2.36246E-02-1.04596E-13-2.14869E-13
 -1      3449 2.00033E+01 4.23470E-02 1.74932E-04 2.96574E-02 6.02448E-15-2.13975E-13
 -1      3450 1.99972E+01 5.23502E-02 1.26008E-04 3.18131E-02 6.25543E-14-2.99627E-13
 -1      3451 2.00035E+01 2.49811E-02-1.26331E-04 1.46067E-02-1.78839E-13-3.14732E-13
 -1      3452 2.00043E+01 2.99959E-02 1.47125E-04 1.89525E-02-1.74781E-13-2.27693E-13
 -1      3453 2.00005E+01 3.73471E-02 5.67277E-05 2.09762E-02-1.12426E-13-2.43616E-13
 -1      3454 2.00033E+01 1.82073E-02-5.62747E-05 8.75713E-03-1.07388E-14-2.86165E-13
 -1      3455 2.00040E+01 2.20712E-02 1.53207E-04 1.18469E-02-4.09386E-14-3.57066E-13
 -1      3456 2.00016E+01 2.73428E-02-5.63680E-05 1.35371E-02-1.84917E-13-3.75527E-13
 -1      3457 2.00019E+01 2.06943E-02-9.31693E-05 8.60779E-03 5.37149E-14-5.78132E-13
 -1      3458 2.02344E+01 1.48470E+00 3.10240E-03-4.10771E-01 4.11751E-14-4.36514E-14
 -1      3459 2.00012E+01 1.58284E-02-4.29353E-05 4.54193E-03 1.26040E-13-5.93732E-13
 -1      3460 1.99012E+01 2.37054E+00-3.92608E-03-9.95983E-02 8.70703E-14 6.14293E-15
 -1      3461 1.99285E+01 2.32329E+00-3.74441E-03-2.04509E-01 7.97544E-14-1.71976E-15
 -1      3462 2.00400E+01 2.01614E+00 4.96025E-03-1.81630E-01 6.46237E-14-1.11004E-14
 -1      3463 1.14808E+01 1.70553E+00 7.63736E-02-6.94731E-01 8.37160E-14-2.06515E-13
 -1      3464 1.27384E+01 1.78273E+00 8.43204E-02-1.16619E+00 1.02396E-13-1.67290E-13
 -1      3465 1.36422E+01 2.03409E+00 2.97572E-02-5.12733E-01 1.02604E-13-1.20827E-13
 -1      3466 1.13703E+01 1.59837E+00 6.12908E-02 1.03175E+00 1.46444E-13-2.60021E-13
 -1      3467 1.53445E+01 2.04201E+00-1.48226E-02 4.67239E-01-2.03845E-13-1.27247E-13
 -1      3468 1.45136E+01 2.06944E+00 2.28348E-02 4.60083E-01-2.03851E-13-1.64549E-13
 -1      3469 1.31452E+01 2.01680E+00 4.13927E-02 1.70079E-02-2.78046E-13-2.12413E-13
 -1      3470 1.55909E+01 1.96633E+00 3.05845E-02-1.59788E-01-1.39847E-13-3.24741E-13
 -1      3471 2.02470E+01 1.08054E+00-2.85296E-03 2.28302E-01 6.09445E-14 5.80449E-14
 -1      3472 1.91497E+01 1.00494E+00-7.08543E-03-6.32131E-01 5.66856E-14 5.39029E-14
 -1      3473 1.93550E+01 9.15624E-01-4.01720E-03-5.82964E-01 4.59984E-14 3.71602E-14
 -1      3474 2.03008E+01 8.33415E-01 1.60010E-03-4.48331E-02 2.23468E-14-6.43001E-14
 -1      3475 2.02933E+01 6.68360E-01-2.08114E-03 7.57265E-02 1.95816E-14-5.54006E-14
 -1      3476 1.60207E+01-8.32555E-01 1.02250E-01-4.80092E+00-5.47392E-14-1.48125E-13
 -1      3477 1.82902E+01-2.03843E+00-2.62777E-02-4.78759E+00 1.08177E-13-3.66998E-14
 -1      3478 2.57734E+01 1.65396E+00 2.09763E-02 2.08792E+00 1.51115E-13 2.31169E-14
 -1      3479 2.49728E+01 3.11658E+00-9.54716E-02 1.84404E+00 3.17940E-14 1.20876E-14
 -1      3480 2.00002E+01 1.51843E-02 1.67354E-05-3.70965E-03 1.45358E-13-8.67715E-14
 -1      3481 1.99995E+01 1.62977E-02-7.27313E-05-3.39186E-03 1.11891E-13-2.68198E-13
 -1      3482 2.62776E+01-1.13375E+00-9.39848E-02-1.15274E+00-1.95196E-13 2.36604E-13
 -1      3483 2.61655E+01-2.51928E+00 1.45898E-02 7.69983E-02-1.35527E-13 2.85693E-13
 -1      3484 1.95476E+01 8.44087E-01-4.73976E-03-5.60290E-01 3.66800E-14 2.13307E-14
 -1      3485 1.96894E+01 7.95570E-01-2.30143E-03-4.94130E-01 3.01315E-14-8.91876E-15
 -1      3486 1.94015E+01 9.32380E-01 8.25868E-03-4.13800E-01 2.34379E-14 6.54208E-15
 -1      3487 1.99175E+01 2.30610E-01-1.36121E-03 1.77309E-01-7.37605E-15 2.49915E-13
 -1      3488 1.99004E+01 2.67735E-01-8.56327E-05 2.05550E-01 1.14805E-14 2.85863E-13
 -1      3489 1.98384E+01 3.16656E-01 1.97376E-03 1.89977E-01-3.16391E-14 6.62050E-14
 -1      3490 1.98996E+01 2.37657E-01 1.28321E-03 1.50381E-01 8.42913E-14 1.44856E-13
 -1      3491 2.02054E+01 1.21211E+00-9.78346E-04 1.92016E-01 8.33708E-14 5.31106E-14
 -1      3492 2.54486E+01 1.99474E+00-1.07314E-01-2.01033E+00-9.77100E-14 1.25384E-13
 -1      3493 2.61767E+01 6.60498E-01 3.09750E-02-1.91940E+00-1.70610E-13 2.32935E-13
 -1      3494 1.98242E+01 7.68238E-01-3.56381E-03-4.47176E-01 4.62231E-14-1.49138E-14
 -1      3495 1.99243E+01 7.67182E-01-8.39599E-04-3.63244E-01 3.85193E-14-4.25155E-14
 -1      3496 1.99462E+01 8.62582E-01 3.93061E-03-2.52692E-01 3.93308E-14-2.75753E-14
 -1      3497 1.97227E+01 8.48842E-01 5.60213E-03-3.60300E-01 2.55274E-14 2.15848E-15
 -1      3498 1.91080E+01 9.41213E-01-5.74418E-03 4.74899E-01 7.44710E-14-2.01908E-13
 -1      3499 1.89064E+01 1.06732E+00-7.52439E-03 5.18357E-01 1.43429E-13-1.35992E-13
 -1      3500 2.51407E+01-3.65710E+00-5.43344E-02 1.80116E+00-9.13098E-14 3.10226E-13
 -1      3501 2.40965E+01-4.09328E+00 1.00499E-01 3.45686E+00-5.14987E-14 3.87902E-13
 -1      3502 1.99991E+01 1.84961E-02-7.95175E-05 3.00578E-03-7.90783E-14-6.48459E-13
 -1      3503 1.99999E+01 1.77476E-02 7.67911E-06 3.56525E-03 7.90531E-14-7.31675E-13
 -1      3504 2.63556E+01-1.18802E+00 3.35183E-02 1.04171E+00 1.80196E-13-3.15442E-14
 -1      3505 2.59994E+01-3.41273E-02-1.15798E-01 1.66426E+00 1.78579E-13-5.68122E-14
 -1      3506 2.02701E+01 1.23348E+00-8.96167E-04-2.97132E-01 3.60856E-14-4.88539E-14
 -1      3507 2.02784E+01 1.01325E+00-2.08422E-03-1.42992E-01 2.18766E-14-4.43647E-14
 -1      3508 2.02726E+01 1.03324E+00 1.10197E-03-7.57324E-02 1.82558E-14-1.96672E-14
 -1      3509 2.02119E+01 1.46444E+00 1.37663E-03-2.86216E-01 2.92201E-14-2.08009E-15
 -1      3510 1.85780E+01 1.23570E+00-1.04986E-02-6.53416E-01 7.67943E-14 8.38760E-14
 -1      3511 1.88785E+01 1.11418E+00-6.03105E-03-6.25130E-01 7.76138E-14 7.84563E-14
 -1      3512 1.89491E+01 1.09633E+00 1.21581E-02-4.02527E-01 5.17525E-14 6.87186E-14
 -1      3513 1.29255E+01 8.32650E-01 5.41673E-02-3.25751E+00-2.15937E-13-1.52919E-13
 -1      3514 1.41703E+01-1.16568E-01-1.60121E-02-4.32264E+00-1.56979E-13-1.26912E-13
 -1      3515 1.38890E+01 1.24673E+00 6.12924E-02-2.41341E+00-1.96456E-13-2.09398E-13
 -1      3516 1.83293E+01-2.31969E+00-4.61472E-02 4.99013E+00 1.58172E-13 2.54068E-13
 -1      3517 1.62101E+01-1.09749E+00 5.71920E-02 4.74174E+00 1.97946E-13 9.85566E-14
 -1      3518 2.01039E+01 1.81041E+00 6.01166E-03 3.48322E-01 1.09677E-13 3.32251E-14
 -1      3519 2.50343E+01-3.22338E+00 2.39340E-02-1.33566E+00 4.54488E-13 1.50925E-13
 -1      3520 2.58692E+01-2.54792E+00-9.24075E-02-3.78372E-02 3.57092E-13 1.04253E-13
 -1      3521 2.54228E+01-1.83000E+00-2.25451E-03 5.38598E-01 2.26417E-13 1.64644E-13
 -1      3522 2.20277E+01-3.60314E+00 3.54437E-02 4.08234E+00 5.12368E-14 3.62763E-13
 -1      3523 2.03021E+01 5.26939E-01 2.67180E-03 1.70840E-01 6.92250E-15-1.97496E-14
 -1      3524 2.02949E+01 4.00882E-01-1.20534E-03 2.58563E-01 8.10558E-15-2.87274E-14
 -1      3525 2.02945E+01 4.09080E-01-1.47526E-03 2.97097E-01 2.43775E-14 4.37089E-15
 -1      3526 1.38609E+01 1.89564E+00-7.05227E-03-7.86781E-01-1.94168E-13-2.73365E-13
 -1      3527 2.00800E+01 9.55453E-01 2.60503E-03-1.22885E-01 7.09896E-14-3.10485E-14
 -1      3528 2.01260E+01 8.94467E-01-2.95083E-03-1.23821E-01 6.84916E-14-3.26112E-14
 -1      3529 2.01669E+01 9.54181E-01-2.23422E-03-2.45366E-02 6.68467E-14 8.74889E-15
 -1      3530 1.92957E+01 8.26925E-01-4.32705E-03 4.64505E-01-3.30830E-14-2.23746E-13
 -1      3531 1.90935E+01 9.27022E-01 9.62513E-03 3.17002E-01 7.67280E-14-1.50546E-13
 -1      3532 1.94231E+01 7.23986E-01-4.32604E-03 4.18267E-01-1.50113E-13-2.23536E-13
 -1      3533 2.00019E+01 1.48686E-02 6.25403E-05-6.28424E-03-3.25601E-14 2.10058E-13
 -1      3534 2.00016E+01 1.22581E-02-2.77888E-05-4.40792E-03 1.52727E-13 5.07669E-13
 -1      3535 2.00013E+01 1.29457E-02-2.61831E-05-4.25584E-03 8.70373E-14 3.10837E-13
 -1      3536 2.00007E+01 1.86624E-02 2.50606E-05-7.44241E-03 1.81868E-13 1.42989E-14
 -1      3537 1.99991E+01 1.59975E-02 7.48809E-05-1.30052E-04-3.03867E-14-1.69622E-13
 -1      3538 1.62044E+01 1.80030E+00 3.73164E-02 1.67939E-01 7.95735E-14 4.47188E-14
 -1      3539 1.66448E+01 1.77096E+00-1.75010E-02-5.25784E-01 3.09206E-14 4.84354E-14
 -1      3540 1.72516E+01 1.64707E+00-1.32567E-02-5.52008E-01 4.92900E-14 9.83601E-14
 -1      3541 1.77868E+01 1.50221E+00-1.33788E-02-6.08697E-01 5.00953E-14 9.38754E-14
 -1      3542 1.82073E+01 1.36587E+00-8.97045E-03-6.08887E-01 6.80027E-14 9.30711E-14
 -1      3543 1.83234E+01 1.31626E+00 1.75664E-02-3.07418E-01 6.67370E-14 8.58740E-14
 -1      3544 2.28671E+01-3.04351E+00-3.61325E-03-2.47856E+00 2.53092E-13 2.43106E-13
 -1      3545 2.40927E+01-3.38995E+00-1.34328E-02-1.99095E+00 3.58990E-13 1.94082E-13
 -1      3546 2.42367E+01-2.81508E+00 1.80403E-02-1.04082E+00 2.69695E-13 2.59010E-13
 -1      3547 1.74759E+01 1.64818E+00-1.57914E-02 5.08082E-01-7.36442E-14-2.19399E-14
 -1      3548 1.70742E+01 1.69890E+00 2.00468E-02-4.66166E-02-1.41210E-13-1.98487E-13
 -1      3549 1.79377E+01 1.50123E+00-9.47994E-03 4.94237E-01-7.16977E-14-1.23813E-14
 -1      3550 2.41116E+01 3.18773E+00-3.80236E-02 1.41363E+00-2.55421E-14 5.31016E-14
 -1      3551 2.54524E+01-5.39421E-01-4.09445E-02-1.39299E+00-1.42488E-13 2.44652E-13
 -1      3552 2.01768E+01 1.17576E+00 2.98996E-03 8.98490E-02 7.40251E-14 3.98963E-14
 -1      3553 2.01434E+01 1.48412E+00-6.53500E-03 2.71587E-01 9.55008E-14 3.08618E-14
 -1      3554 2.00802E+01 1.71377E+00 1.01971E-03 2.47874E-01 9.88872E-14 1.29059E-14
 -1      3555 2.01264E+01 1.20702E+00-1.71441E-03 6.00081E-02 9.31683E-14 2.38268E-14
 -1      3556 2.39245E+01 4.20111E+00-4.45876E-02-3.24809E-01-9.80015E-14-2.76749E-14
 -1      3557 1.96061E+01 5.51834E-01 4.47550E-03 2.73976E-01-1.60911E-13-1.97455E-13
 -1      3558 1.96336E+01 5.49388E-01-3.28709E-03 3.52768E-01-8.32150E-14-3.06589E-13
 -1      3559 1.95534E+01 6.31213E-01-2.40708E-03 3.97185E-01-1.16454E-13-3.39343E-13
 -1      3560 1.99855E+01 2.12056E+00 5.16897E-03-3.21986E-02 7.10395E-14 1.77231E-14
 -1      3561 1.28047E+01 1.45058E+00 7.08672E-02 1.64364E+00 1.84443E-13-1.42247E-13
 -1      3562 2.51569E+01 7.02108E-01 4.19273E-03 1.83776E+00 1.73408E-13 1.02227E-13
 -1      3563 1.99988E+01 1.78565E-02-1.29533E-05-2.65235E-03 1.28332E-13-2.68757E-13
 -1      3564 1.99983E+01 1.86070E-02-7.07456E-05-1.93265E-03 6.94270E-14 4.28562E-14
 -1      3565 1.99988E+01 2.05463E-02 6.87930E-05-4.07320E-03 1.26534E-13-2.06651E-13
 -1      3566 1.99981E+01 1.96528E-02-4.89225E-05 1.20746E-03-1.58267E-13-3.00680E-13
 -1      3567 1.99985E+01 1.93252E-02-2.94972E-05 1.97278E-03-3.10368E-14-5.80670E-13
 -1      3568 1.99983E+01 2.29277E-02 9.51194E-05 3.15021E-03 1.08039E-13-5.86393E-13
 -1      3569 1.59730E+01-1.85666E-01 5.27074E-02-3.93689E+00-7.20361E-14-3.00584E-13
 -1      3570 1.54694E+01-3.44046E-01 4.79455E-02 4.20819E+00 2.25832E-13-4.67890E-14
 -1      3571 1.48365E+01 4.98817E-01 2.20707E-02 3.23963E+00 1.89489E-13-8.13169E-14
 -1      3572 1.70326E+01-5.36564E-01 2.34375E-02 3.72961E+00 1.50127E-13 3.55445E-14
 -1      3573 1.32531E+01 1.72868E+00 6.09877E-03 8.32227E-01 1.54113E-13-1.15109E-13
 -1      3574 1.43453E+01 1.87589E+00 2.58436E-02 2.05100E-01 1.16726E-13-6.86968E-14
 -1      3575 1.47792E+01 1.73012E+00 1.87704E-02 9.35224E-01 1.29529E-13-6.71338E-14
 -1      3576 1.37131E+01 1.15489E+00 1.61035E-02 2.35553E+00 2.02062E-13-5.17572E-14
 -1      3577 2.02913E+01 6.86151E-01-6.01343E-04 1.22810E-01 1.52733E-14-1.63145E-14
 -1      3578 1.87480E+01-1.52808E+00-7.47955E-03-3.99402E+00 8.59772E-14-1.36176E-14
 -1      3579 1.99730E+01-2.36397E+00 6.17867E-02-4.31911E+00 1.33530E-13 7.42514E-14
 -1      3580 2.11576E+01-2.57245E+00-2.75635E-03-3.42333E+00 1.55961E-13 1.65550E-13
 -1      3581 1.86360E+01 1.20505E+00-7.15804E-03 5.07689E-01 6.38355E-14-5.41269E-14
 -1      3582 1.83265E+01 1.34725E+00-1.20762E-02 5.41061E-01 4.11173E-15-2.38849E-14
 -1      3583 1.80109E+01 1.43573E+00 1.74342E-02 1.76223E-01-8.64947E-14-4.60409E-14
 -1      3584 1.86516E+01 1.17008E+00 1.36475E-02 2.85034E-01 1.39267E-13 5.92399E-14
 -1      3585 2.49845E+01-2.34671E+00-4.47553E-03-4.86493E-02-7.19190E-14 2.96645E-13
 -1      3586 2.54158E+01-3.14601E+00-6.15120E-03 8.52857E-01-8.52027E-14 2.86692E-13
 -1      3587 2.41275E+01-3.18337E+00-1.19697E-02 1.53993E+00-1.59590E-14 2.92027E-13
 -1      3588 2.00033E+01 1.88758E+00-4.20623E-03 1.36964E-01 9.12289E-14 3.70146E-14
 -1      3589 2.00036E+01 1.90075E+00-2.43388E-03 7.51447E-02 7.61218E-14 2.42226E-14
 -1      3590 2.47068E+01 2.51931E+00-3.60002E-02-1.77655E+00-4.47316E-14 3.54369E-14
 -1      3591 2.00313E+01 1.80254E+00-6.78776E-03 2.23266E-01 9.82039E-14 1.66258E-14
 -1      3592 2.00137E+01 1.86473E+00-2.33813E-03 1.71607E-01 1.08711E-13 2.10305E-14
 -1      3593 2.00625E+01 1.67219E+00 7.20435E-03 1.29272E-01 8.09847E-14 2.74724E-14
 -1      3594 2.00005E+01 2.02590E-02 7.80385E-05 5.57460E-03 9.57173E-14-6.50980E-13
 -1      3595 2.01681E+01 1.56615E+00-2.72880E-03-2.42368E-01 3.92710E-14 8.25685E-15
 -1      3596 2.02149E+01 1.33872E+00 1.67738E-03-1.40364E-01 2.85312E-14 1.55743E-14
 -1      3597 2.01266E+01 1.67811E+00-4.47859E-04-1.82814E-01 5.23317E-14-7.12324E-15
 -1      3598 2.28216E+01-3.29035E+00-4.14449E-02 2.82038E+00-1.40096E-14 3.23084E-13
 -1      3599 2.09300E+01-2.91666E+00 8.31245E-02 4.20046E+00 7.13986E-14 3.26229E-13
 -1      3600 1.99530E+01-2.17608E+00 5.27199E-03 3.84835E+00 7.06102E-14 2.33093E-13
 -1      3601 2.00009E+01 1.34673E-02-4.59693E-05-4.03409E-03 7.48490E-14 1.43418E-13
 -1      3602 2.00003E+01 1.73738E-02 1.90454E-05-5.30546E-03 1.89110E-13 1.72349E-14
 -1      3603 1.99981E+01 1.93932E-02-2.29837E-05-8.18864E-04 2.29074E-14 2.05108E-13
 -1      3604 1.99980E+01 1.96418E-02-4.44389E-05-3.38792E-05-1.66169E-13-1.21677E-13
 -1      3605 1.99973E+01 2.37264E-02 6.27229E-05 6.35393E-04-1.23904E-13-1.75244E-13
 -1      3606 1.99975E+01 2.29106E-02 6.45048E-05-2.02006E-03-4.25753E-14 1.69890E-13
 -1      3607 2.03132E+01 6.99609E-02 2.47617E-03 5.37298E-01 6.03410E-14 4.70854E-14
 -1      3608 2.03500E+01-4.49335E-02 1.78580E-03 5.84679E-01 5.79564E-14 3.63689E-14
 -1      3609 2.03968E+01-1.64718E-01 3.72314E-03 6.42617E-01 3.60150E-14 3.24883E-14
 -1      3610 2.04691E+01-2.95731E-01 2.10573E-03 6.72483E-01 2.94481E-14 2.03603E-14
 -1      3611 2.03134E+01-7.30021E-02-5.02086E-03 6.56847E-01 4.34846E-14 2.75840E-15
 -1      3612 2.05665E+01-4.36150E-01 5.81511E-03 7.17728E-01 3.38991E-14 3.42291E-14
 -1      3613 2.06847E+01-5.93075E-01 1.61485E-03 7.22081E-01-6.61168E-15 2.05743E-14
 -1      3614 2.04422E+01-3.54798E-01-7.75096E-03 7.78221E-01 2.32257E-14 5.79542E-14
 -1      3615 2.08545E+01-7.58226E-01 8.82327E-03 7.40394E-01-3.12374E-14 6.52002E-14
 -1      3616 2.10248E+01-9.40186E-01-1.67673E-04 7.04585E-01-3.92558E-14 4.00244E-14
 -1      3617 2.06877E+01-6.95608E-01-1.06544E-02 8.67755E-01 1.58640E-15 3.10089E-14
 -1      3618 2.12860E+01-1.11954E+00 1.23676E-02 6.70960E-01-6.46033E-15 3.91691E-14
 -1      3619 2.15048E+01-1.30665E+00-3.74584E-03 5.74589E-01 2.24227E-14 7.23512E-14
 -1      3620 2.10893E+01-1.09762E+00-1.33973E-02 8.87105E-01-1.52244E-15 1.14797E-13
 -1      3621 2.18633E+01-1.46531E+00 1.48133E-02 4.52158E-01-2.66578E-15 1.24133E-13
 -1      3622 2.21097E+01-1.59966E+00-7.47411E-03 2.74122E-01-4.69282E-14 1.57555E-13
 -1      3623 2.16712E+01-1.52462E+00-1.73507E-02 7.70012E-01 3.10851E-14 1.71908E-13
 -1      3624 2.25386E+01-1.67040E+00 1.38934E-02 3.07305E-02-6.48324E-14 1.97002E-13
 -1      3625 2.27700E+01-1.65946E+00-1.07917E-02-2.36674E-01-4.39098E-14 1.81667E-13
 -1      3626 2.24453E+01-1.82012E+00-3.94990E-03 4.27635E-01-4.09833E-14 2.12553E-13
 -1      3627 2.31707E+01-1.51311E+00 4.90075E-03-5.99492E-01-4.50046E-14 2.12426E-13
 -1      3628 2.33220E+01-1.24656E+00-1.77293E-02-8.99558E-01-9.33541E-15 2.47109E-13
 -1      3629 2.32723E+01-1.82332E+00 7.39592E-03-1.75472E-01-2.00178E-14 1.89410E-13
 -1      3630 2.39788E+01 6.16535E-01-2.32474E-02-1.80970E+00-4.98286E-14 1.37111E-13
 -1      3631 2.38360E+01 1.54328E+00 8.26762E-04-1.78265E+00-5.95496E-14 9.52587E-14
 -1      3632 2.33779E+01 2.76769E+00-4.57370E-02-1.42723E+00 2.75301E-15 5.80738E-14
 -1      3633 2.32509E+01 3.41342E+00-2.16204E-02-1.01557E+00-4.72625E-14 1.08302E-13
 -1      3634 2.29782E+01 3.62758E+00-1.00592E-02-1.07560E-01-9.62494E-14 1.44701E-13
 -1      3635 2.29879E+01 3.55625E+00-1.70440E-02 5.50141E-01-9.51201E-14 1.07027E-13
 -1      3636 2.30691E+01 3.14041E+00-3.40450E-02 1.09425E+00-9.70682E-14 1.16451E-13
 -1      3637 2.35230E+01 2.17576E+00-5.56247E-03 1.71714E+00 8.76903E-15 1.55101E-13
 -1      3638 2.36049E+01 1.28667E+00-6.30973E-02 1.83585E+00 1.55707E-14 2.67512E-13
 -1      3639 2.33903E+01-9.71200E-01-2.18295E-03 1.12283E+00 1.98040E-14 4.46011E-13
 -1      3640 2.32545E+01-1.31713E+00 2.43407E-03 8.51402E-01 2.10472E-13 3.94984E-13
 -1      3641 2.28609E+01-1.51699E+00-9.07163E-03 4.65246E-01 2.13849E-13 4.11009E-13
 -1      3642 2.26333E+01-1.57850E+00 1.46617E-02 2.03829E-01 1.64153E-13 3.11810E-13
 -1      3643 2.33560E+01-1.71626E+00-2.04410E-02 4.03325E-01 2.29526E-13 4.72700E-13
 -1      3644 2.21889E+01-1.55540E+00-8.63694E-03-7.81410E-02-8.28656E-15 2.58413E-13
 -1      3645 2.19292E+01-1.44027E+00 1.56699E-02-2.65453E-01-4.59992E-14 3.13658E-13
 -1      3646 2.25435E+01-1.80994E+00-1.36324E-02-2.53232E-01 6.44904E-14 2.41450E-13
 -1      3647 2.15382E+01-1.29903E+00-3.82523E-03-4.11718E-01 2.50798E-15 2.28457E-13
 -1      3648 2.12923E+01-1.11998E+00 1.25892E-02-5.20687E-01 1.14063E-13 1.94213E-13
 -1      3649 2.17296E+01-1.52423E+00-1.35781E-02-6.29006E-01-1.90256E-14 1.35071E-13
 -1      3650 2.09916E+01-9.43481E-01-3.12852E-04-5.66547E-01 2.32927E-13 8.51956E-14
 -1      3651 2.07890E+01-7.64275E-01 8.67360E-03-6.12120E-01 1.71516E-13 1.35314E-13
 -1      3652 2.10658E+01-1.10518E+00-1.00665E-02-7.79888E-01 1.35612E-13 7.61453E-14
 -1      3653 2.05812E+01-6.02417E-01 1.64678E-03-5.98201E-01 6.56690E-15 1.41098E-13
 -1      3654 2.04299E+01-4.53612E-01 5.36459E-03-6.02862E-01 8.08782E-15 4.50093E-14
 -1      3655 2.05819E+01-7.03266E-01-7.25217E-03-7.76024E-01 6.31707E-14-1.31251E-14
 -1      3656 2.02973E+01-3.25060E-01 2.28550E-03-5.60494E-01 2.29053E-14 1.10447E-13
 -1      3657 2.01928E+01-2.14618E-01 2.93342E-03-5.42261E-01 5.11730E-14 8.93478E-14
 -1      3658 2.02593E+01-3.78251E-01-4.64380E-03-6.96299E-01-6.42168E-15 1.53451E-14
 -1      3659 2.01158E+01-1.22425E-01 2.28121E-03-4.90298E-01 6.15339E-14 1.60851E-13
 -1      3660 2.00488E+01-4.79340E-02 1.32995E-03-4.61460E-01 6.80934E-14 2.82127E-13
 -1      3661 2.00609E+01-1.42208E-01-2.73930E-03-5.87189E-01 1.26272E-13 1.75119E-13
 -1      3662 2.00098E+01 1.20829E-02 1.98326E-03-4.10258E-01 2.46379E-14 1.97813E-13
 -1      3663 1.99701E+01 5.72448E-02 3.68613E-04-3.78363E-01-5.91039E-14 1.40140E-13
 -1      3664 1.99510E+01 1.38317E-02-1.38828E-03-4.75593E-01 4.74748E-14 1.21176E-13
 -1      3665 1.99551E+01 9.19544E-02 1.58123E-03-3.32835E-01-5.42497E-14 2.24918E-13
 -1      3666 1.99341E+01 1.15381E-01-1.67087E-04-3.02062E-01 1.15928E-13 7.69838E-14
 -1      3667 1.98999E+01 1.06170E-01-5.39238E-04-3.74644E-01-2.43554E-14 1.48513E-13
 -1      3668 1.99333E+01 1.31829E-01 1.19448E-03-2.63813E-01 1.29365E-13-1.35526E-14
 -1      3669 1.99240E+01 1.40327E-01-4.29882E-04-2.36190E-01 1.33679E-14 2.66449E-14
 -1      3670 1.98849E+01 1.52268E-01-4.53072E-05-2.89205E-01-2.36880E-14 6.69055E-14
 -1      3671 1.99306E+01 1.44580E-01 8.71497E-04-2.05187E-01-9.44014E-14-3.12387E-14
 -1      3672 1.99283E+01 1.43610E-01-5.26523E-04-1.81468E-01-1.62901E-13 9.27867E-15
 -1      3673 1.98902E+01 1.67139E-01 2.15222E-04-2.19743E-01-7.72214E-14-6.74406E-14
 -1      3674 1.99379E+01 1.40361E-01 6.22387E-04-1.56919E-01-1.84552E-13 8.07876E-15
 -1      3675 1.99393E+01 1.33962E-01-5.25397E-04-1.37182E-01-3.32919E-13 2.08942E-15
 -1      3676 1.99055E+01 1.62539E-01 3.30337E-04-1.64707E-01-2.45049E-13-2.23572E-13
 -1      3677 1.99494E+01 1.26667E-01 4.34019E-04-1.18108E-01-3.71553E-13 1.20907E-14
 -1      3678 1.99523E+01 1.17709E-01-4.77830E-04-1.02051E-01-1.45591E-13 1.24089E-13
 -1      3679 1.99241E+01 1.46961E-01 3.42109E-04-1.21909E-01-3.25207E-13-6.85136E-15
 -1      3680 1.99616E+01 1.08697E-01 3.05325E-04-8.73871E-02 1.08002E-14 2.01167E-13
 -1      3681 1.99649E+01 9.89877E-02-4.08960E-04-7.45701E-02 4.37145E-14 2.66128E-13
 -1      3682 1.99424E+01 1.26476E-01 3.21841E-04-8.90303E-02-4.46163E-14 2.45015E-13
 -1      3683 1.99727E+01 8.97295E-02 2.14418E-04-6.34380E-02 9.94027E-14 3.06402E-13
 -1      3684 1.99757E+01 8.03859E-02-3.35106E-04-5.33802E-02 2.65991E-13 2.29771E-13
 -1      3685 1.99586E+01 1.04755E-01 2.76452E-04-6.40146E-02 1.18707E-13 3.89666E-13
 -1      3686 1.99819E+01 7.17435E-02 1.51436E-04-4.50202E-02 3.24911E-13 1.52314E-13
 -1      3687 1.99843E+01 6.33625E-02-2.65186E-04-3.72530E-02 4.28461E-13 1.39748E-13
 -1      3688 1.99717E+01 8.40843E-02 2.24532E-04-4.51739E-02 2.71995E-13 3.34407E-13
 -1      3689 1.99890E+01 5.57627E-02 1.09690E-04-3.10384E-02 3.65138E-13 1.55507E-14
 -1      3690 1.99907E+01 4.85767E-02-2.07487E-04-2.51380E-02 3.08283E-13-9.51525E-14
 -1      3691 1.99819E+01 6.56633E-02 1.78008E-04-3.11084E-02 2.86487E-13 2.76633E-13
 -1      3692 1.99941E+01 4.21397E-02 7.96122E-05-2.05837E-02 2.50183E-13-5.53008E-14
 -1      3693 1.99952E+01 3.61957E-02-1.53494E-04-1.62056E-02 1.19623E-14 1.28090E-13
 -1      3694 1.99893E+01 4.99336E-02 1.38105E-04-2.07010E-02 2.59958E-13 3.16989E-15
 -1      3695 1.99974E+01 3.09457E-02 4.98631E-05-1.29252E-02-8.87824E-14 3.19503E-13
 -1      3696 1.99981E+01 2.61455E-02-9.50886E-05-9.68488E-03 6.86223E-14 9.87815E-14
 -1      3697 1.99944E+01 3.69599E-02 1.10294E-04-1.31700E-02 9.86752E-14 1.05064E-13
 -1      3698 1.99997E+01 2.03412E-02-2.06803E-05-6.99747E-03 1.98303E-13 2.50730E-14
 -1      3699 1.87732E+01 1.05528E+00-1.15815E-02-1.53288E-01 4.69921E-14 8.92949E-14
 -1      3700 1.90570E+01 9.85572E-01-1.22443E-03-1.94180E-01 3.85541E-14 3.22174E-14
 -1      3701 1.99547E+01 1.29422E-01-5.70252E-04 6.99039E-02-1.28985E-14-1.15463E-13
 -1      3702 1.99446E+01 1.49907E-01-7.88707E-05 8.21516E-02 6.85748E-14 5.54044E-14
 -1      3703 1.99258E+01 1.72900E-01-7.50857E-04 9.18346E-02 1.15630E-13 6.56898E-14
 -1      3704 1.99098E+01 1.99431E-01-2.79790E-04 1.06526E-01 1.43902E-13 6.18389E-14
 -1      3705 1.99210E+01 1.73447E-01 8.40194E-04 7.33406E-02 6.54109E-14-3.66280E-14
 -1      3706 1.99854E+01 7.17025E-02-3.31685E-04 3.75565E-02-9.83338E-14-2.54487E-13
 -1      3707 1.99816E+01 8.38803E-02 5.70636E-05 4.54558E-02-9.44749E-14-2.71458E-13
 -1      3708 1.99932E+01 5.20532E-02-2.44467E-04 2.58824E-02 9.14741E-14-1.28485E-13
 -1      3709 1.99911E+01 6.13252E-02 7.81514E-05 3.19622E-02-1.02004E-14-6.62974E-14
 -1      3710 1.99830E+01 7.27020E-02 2.63684E-04 3.10577E-02-1.75202E-13 4.85138E-14
 -1      3711 1.99979E+01 3.72828E-02-1.40272E-04 1.70721E-02-2.44085E-13-5.39812E-14
 -1      3712 1.99969E+01 4.41918E-02 9.36428E-05 2.15440E-02-7.64464E-14-8.22215E-14
 -1      3713 1.99915E+01 5.27893E-02 1.51968E-04 2.15259E-02-3.26063E-14 1.38395E-13
 -1      3714 1.92661E+01 9.22224E-01-8.23208E-03-2.48038E-01 2.14189E-14 2.71333E-14
 -1      3715 1.94686E+01 8.80348E-01-9.29141E-04-2.46737E-01 4.74918E-15 3.71196E-15
 -1      3716 1.91875E+01 9.38314E-01 8.33593E-03-2.57402E-02 1.98736E-14 1.48750E-14
 -1      3717 1.48853E+01 1.78818E+00 2.31385E-02-9.56658E-01-6.23572E-14-3.42146E-13
 -1      3718 1.43155E+01 1.64332E+00 3.43468E-02-1.55080E+00-1.46304E-13-3.18603E-13
 -1      3719 1.97246E+01 3.95312E-01-1.46310E-03 1.69684E-01-2.82418E-13-1.09950E-13
 -1      3720 1.96653E+01 4.50672E-01-1.98576E-03 1.87182E-01-2.64570E-13-2.05832E-13
 -1      3721 2.44548E+01-2.01004E+00 2.39727E-02 2.65101E-01 2.14072E-13 3.11457E-13
 -1      3722 2.45378E+01-1.18127E+00-3.38724E-02 1.10012E+00 1.25862E-13 3.35771E-13
 -1      3723 2.00151E+01 1.88291E+00-3.35080E-03 3.17247E-02 6.07932E-14 2.60410E-14
 -1      3724 2.00352E+01 1.85087E+00-2.75475E-03-3.55908E-02 4.73563E-14 9.68729E-15
 -1      3725 2.00677E+01 1.67655E+00 5.53261E-03 6.57884E-02 3.43407E-14 3.50779E-14
 -1      3726 2.46580E+01-1.98130E-01-2.13581E-02-1.58565E+00-9.09177E-14 2.23684E-13
 -1      3727 2.50252E+01-1.47704E+00 2.54504E-02-9.52607E-01-3.09128E-14 2.87820E-13
 -1      3728 2.43861E+01-2.01079E+00-6.56448E-03-2.94602E-01-1.41545E-14 3.07442E-13
 -1      3729 2.36070E+01-3.87188E-01-1.17914E-02-1.41981E+00-8.43271E-15 2.26974E-13
 -1      3730 1.99980E+01 2.55795E-02-5.16361E-05 5.55286E-03 2.74550E-13-5.47674E-13
 -1      3731 1.99996E+01 2.36434E-02-6.01431E-05 7.05745E-03 2.94631E-13-5.87847E-13
 -1      3732 1.99996E+01 2.72003E-02 1.24599E-04 9.15065E-03 2.02227E-13-4.93445E-13
 -1      3733 1.56968E+01 5.34276E-01 5.21281E-02-3.17762E+00-3.95950E-14-4.31998E-13
 -1      3734 1.69422E+01-3.85323E-01-2.62114E-02-3.63501E+00 2.06161E-14-3.10847E-13
 -1      3735 2.02798E+01 5.40959E-01 1.39538E-03 2.58523E-01 3.66384E-14 7.63754E-15
 -1      3736 2.02808E+01 4.12129E-01-9.26883E-05 3.37595E-01 3.95647E-14 1.76421E-14
 -1      3737 1.57778E+01 1.66113E+00-1.63497E-02-8.94004E-01-5.05004E-14-3.87586E-13
 -1      3738 2.02747E+01 8.45069E-01 1.06363E-03 7.65226E-02 1.19858E-14 2.95299E-14
 -1      3739 2.02749E+01 6.85519E-01-4.84932E-04 1.76953E-01 1.68506E-14 2.52947E-14
 -1      3740 2.02527E+01 6.89084E-01-1.24544E-04 2.20092E-01 2.19281E-14 1.47283E-14
 -1      3741 2.02381E+01 1.16728E+00-9.65144E-04-7.54985E-02 1.88780E-14 3.11094E-14
 -1      3742 2.02565E+01 9.78573E-01-1.51351E-03 2.12954E-02 1.88518E-14 3.20770E-14
 -1      3743 2.02375E+01 9.68248E-01-2.65914E-03 7.28949E-02 1.76948E-14 6.64275E-14
 -1      3744 2.02022E+01 1.28021E+00 1.38908E-03-4.62253E-02 3.51733E-14 3.17559E-14
 -1      3745 1.47480E+01 1.05702E+00-1.33348E-02-2.52156E+00-6.98118E-14-3.24657E-13
 -1      3746 2.41668E+01 2.21645E-01 1.90360E-03 1.68140E+00 8.69825E-14 2.73512E-13
 -1      3747 1.99731E+01 9.71424E-02-4.36628E-04 5.22605E-02 1.60598E-14-3.19973E-13
 -1      3748 1.99672E+01 1.12190E-01 7.29335E-06 6.17551E-02 8.95434E-14-1.44410E-13
 -1      3749 1.99503E+01 1.30883E-01 5.63430E-04 5.69502E-02 9.22046E-14-1.11205E-13
 -1      3750 1.99699E+01 9.82706E-02 3.95853E-04 4.28683E-02-2.00226E-14-1.17101E-13
 -1      3751 2.00566E+01 1.81029E+00-2.91437E-03-7.49395E-02 4.85335E-14-1.05186E-14
 -1      3752 2.00911E+01 1.73691E+00-3.82660E-03-1.40540E-01 5.97932E-14-1.19782E-14
 -1      3753 2.01535E+01 1.50651E+00 2.70258E-03-7.37257E-02 3.86807E-14 1.26797E-16
 -1      3754 2.01075E+01 1.61792E+00 6.74169E-03-4.45896E-03 2.66285E-14-5.13256E-15
 -1      3755 2.02838E+01 2.94414E-01 1.77499E-03 4.09633E-01 3.19612E-14 1.29774E-14
 -1      3756 2.02967E+01 1.81001E-01 9.61827E-04 4.72188E-01 2.88688E-14 3.60079E-14
 -1      3757 2.02513E+01 4.14338E-01-1.41908E-03 3.77030E-01 3.24269E-14 2.60216E-14
 -1      3758 1.99980E+01 2.48222E-02 1.70873E-05-7.31919E-03 7.70405E-14-3.48631E-14
 -1      3759 2.00360E+01 9.87707E-01-4.10827E-03-9.47278E-02 7.62642E-14 2.36759E-14
 -1      3760 2.00962E+01 1.06251E+00 4.89315E-03-3.31126E-02 8.73401E-14 1.53805E-14
 -1      3761 1.96222E+01 8.52788E-01-6.00447E-03-2.58551E-01 2.20152E-14 3.04812E-14
 -1      3762 1.97658E+01 8.50718E-01-4.21368E-04-2.24643E-01 4.02536E-14 3.05678E-14
 -1      3763 1.95533E+01 8.83331E-01 6.24523E-03-1.11505E-01 1.81076E-14 3.99669E-14
 -1      3764 1.93988E+01 7.19445E-01 6.55931E-03 3.06447E-01-9.44444E-14-2.72502E-13
 -1      3765 2.39450E+01-1.47394E+00-1.59824E-02-8.29138E-01-5.60316E-16 2.25996E-13
 -1      3766 2.36135E+01-9.28275E-01 1.88940E-03-1.22566E+00 5.07320E-15 2.28783E-13
 -1      3767 2.41340E+01-5.64730E-01-1.96575E-02 1.47588E+00 7.10196E-14 3.30775E-13
 -1      3768 1.85026E+01 1.13859E+00-1.77956E-03-4.52417E-02 8.67551E-14 9.00495E-14
 -1      3769 1.87046E+01 1.03950E+00 1.17923E-02 1.65877E-01 5.13613E-14 6.94280E-14
 -1      3770 1.81187E+01 1.21899E+00-1.56581E-02 4.93891E-02 8.08245E-14 6.82065E-14
 -1      3771 1.59976E+01 1.50963E+00-6.89786E-03 8.59378E-01 1.10271E-13-3.98050E-14
 -1      3772 1.66778E+01 1.47004E+00-5.27202E-03 5.70921E-01 1.16386E-13 1.38951E-14
 -1      3773 1.74502E+01 1.56849E+00 2.54597E-02-1.38440E-01 7.12525E-14 7.67212E-14
 -1      3774 2.19860E+01-2.69530E+00 1.55741E-02-2.86009E+00 9.81702E-14 3.44932E-13
 -1      3775 2.25100E+01-2.57640E+00 9.40922E-03-2.06857E+00 2.70773E-14 3.46164E-13
 -1      3776 2.08190E+01-2.13914E+00-2.37726E-02-3.02381E+00 5.81336E-14 3.24744E-13
 -1      3777 1.99969E+01 2.67011E-02-6.85528E-05 3.89597E-03 2.50480E-13-7.54378E-13
 -1      3778 1.99962E+01 3.09655E-02 1.12505E-04 5.18221E-03 4.36865E-13-7.38979E-13
 -1      3779 1.99962E+01 2.75564E-02-2.57816E-05 2.61551E-03 1.71204E-13-7.75674E-13
 -1      3780 1.95883E+01 5.12346E-01-1.75916E-03 1.88610E-01-2.39427E-13-2.39707E-13
 -1      3781 1.95002E+01 5.80192E-01-3.31759E-03 2.01844E-01-2.41090E-13-4.02690E-13
 -1      3782 1.95944E+01 4.95724E-01 3.60465E-03 1.22386E-01-3.07889E-13-3.86979E-13
 -1      3783 1.98774E+01 2.28588E-01 1.22411E-03 9.13209E-02 1.41694E-13-1.14672E-13
 -1      3784 1.98827E+01 2.29314E-01-9.61522E-04 1.16961E-01 1.41662E-13-4.29651E-14
 -1      3785 1.98576E+01 2.63573E-01-5.97907E-04 1.33818E-01 9.74840E-14 4.86511E-14
 -1      3786 1.99988E+01 3.01116E-02-6.65578E-05 1.13278E-02 2.23741E-14-2.66826E-13
 -1      3787 1.99988E+01 3.42167E-02 1.31221E-04 1.41173E-02-9.39969E-14-2.87922E-13
 -1      3788 1.99950E+01 4.04228E-02-2.40203E-05 1.42850E-02 5.68205E-14-3.41908E-14
 -1      3789 1.99963E+01 3.30278E-02-6.11899E-05 9.04546E-03 3.78962E-13-1.46660E-13
 -1      3790 2.01082E+01 1.54322E+00 8.06490E-03 1.66004E-01 9.33055E-14 2.07604E-14
 -1      3791 2.00647E+01 1.48091E+00-3.73290E-03 9.88355E-02 5.82125E-14 5.02709E-14
 -1      3792 2.00829E+01 1.46513E+00-1.99460E-03 6.97088E-02 3.04001E-14 4.06236E-14
 -1      3793 2.41009E+01-2.61034E+00-3.08058E-02-5.89527E-01 1.88884E-13 2.32003E-13
 -1      3794 2.36637E+01-1.94943E+00 1.22001E-02 1.02981E-01 1.75386E-13 4.25125E-13
 -1      3795 2.32656E+01-2.05583E+00 3.69200E-02-2.99248E-01 1.68558E-13 3.70662E-13
 -1      3796 2.33646E+01-2.56242E+00 1.76365E-02-1.14241E+00 1.20324E-13 3.48853E-13
 -1      3797 1.99969E+01 2.65258E-02-1.46348E-05-6.32116E-03-5.37131E-14-1.60014E-13
 -1      3798 2.02613E+01 1.72322E-01-3.01172E-03 5.21821E-01 4.58344E-14 9.15424E-15
 -1      3799 1.97799E+01 3.45888E-01-1.13036E-03 1.62107E-01-1.51710E-13-1.29013E-13
 -1      3800 1.97233E+01 3.86910E-01 2.52214E-03 1.21056E-01-2.50206E-13-2.99214E-13
 -1      3801 1.98187E+01 3.02146E-01-1.19856E-03 1.43963E-01-6.85282E-14 6.18017E-14
 -1      3802 1.83207E+01-9.53220E-01 6.78269E-02 3.76927E+00 1.29766E-13 1.21954E-13
 -1      3803 1.74232E+01-3.77292E-01-2.70450E-02 3.26662E+00 1.31921E-13 3.05775E-14
 -1      3804 1.52188E+01 8.56303E-01 1.92326E-02 2.48681E+00 1.59485E-13-6.99883E-14
 -1      3805 1.55054E+01 1.46587E+00 3.52063E-02 1.37664E+00 1.51404E-13-5.23833E-14
 -1      3806 2.00566E+01 1.48880E+00-1.77175E-03 1.01699E-01 6.51854E-14 4.41126E-14
 -1      3807 2.00834E+01 1.32066E+00 5.18428E-03 1.00419E-01 6.12366E-14 7.21909E-14
 -1      3808 2.00565E+01 1.45695E+00-5.60052E-03 1.24666E-01 7.34822E-14 1.87447E-14
 -1      3809 2.01485E+01-1.85753E+00-5.54960E-03 3.24434E+00 5.17689E-14 2.16350E-13
 -1      3810 1.82085E+01-7.79376E-01 4.87843E-02-3.58328E+00 5.05144E-14-4.62049E-14
 -1      3811 1.93363E+01-1.30014E+00-1.80885E-02-3.24738E+00-7.71301E-15 1.82487E-13
 -1      3812 1.77554E+01-2.19098E-01-9.75732E-03-3.01175E+00-6.80254E-14-2.28038E-13
 -1      3813 1.87108E+01 1.03541E+00-1.95413E-03 8.13801E-02 1.95558E-13-1.98953E-13
 -1      3814 1.84269E+01 1.13746E+00-1.21481E-02 3.15201E-02 9.17439E-14-1.32050E-13
 -1      3815 2.35829E+01-2.67014E+00 3.62026E-03 1.08942E+00-3.55369E-14 3.22307E-13
 -1      3816 2.34796E+01-3.11364E+00 2.02639E-02 1.98906E+00-1.33904E-14 2.63304E-13
 -1      3817 2.23062E+01-2.69286E+00-1.64750E-02 2.34081E+00-9.84586E-15 2.66910E-13
 -1      3818 1.98726E+01 8.68447E-01-4.81618E-03-2.03159E-01 4.67579E-14 3.35420E-14
 -1      3819 1.99723E+01 9.16804E-01 4.21584E-04-1.41863E-01 5.09154E-14 2.52561E-14
 -1      3820 1.98175E+01 9.02698E-01 4.79101E-03-1.15509E-01 4.32295E-14 6.44413E-14
 -1      3821 1.66408E+01 1.50860E+00 7.57596E-03-8.21633E-01-1.49334E-13-3.61329E-13
 -1      3822 1.61196E+01 1.37322E+00 2.72788E-02-1.54245E+00-9.02512E-14-3.69849E-13
 -1      3823 1.99937E+01 1.01432E+00 2.93579E-03-5.81333E-02 5.90460E-14 5.06823E-14
 -1      3824 1.91085E+01 8.33448E-01-2.21913E-03 1.62779E-01 7.15098E-14-2.01161E-13
 -1      3825 1.89144E+01 9.28599E-01-8.32879E-03 1.46772E-01 2.24325E-13-1.58223E-13
 -1      3826 1.88045E+01 9.53612E-01 9.26457E-03-7.92709E-02 2.14155E-13-4.24050E-13
 -1      3827 1.76095E+01 1.37561E+00 2.08686E-03-3.58355E-01-1.59358E-13-2.30463E-13
 -1      3828 1.70437E+01 1.48794E+00-7.75395E-03-5.51934E-01-2.02500E-13-3.47448E-13
 -1      3829 1.73253E+01 1.21989E+00 2.32536E-02-1.11421E+00-1.80009E-13-3.98213E-13
 -1      3830 1.59917E+01 9.03701E-01 2.06418E-02-2.36388E+00 1.61243E-15-3.79664E-13
 -1      3831 1.67088E+01 7.68865E-01-1.61624E-02-2.17160E+00-5.17394E-14-4.12743E-13
 -1      3832 2.02193E+01 6.94434E-02 1.28923E-03 6.48526E-01 5.74209E-14 2.55922E-15
 -1      3833 2.02656E+01-5.50386E-02 3.97327E-03 7.19721E-01 5.60019E-14 1.63983E-14
 -1      3834 2.40421E+01-2.18411E+00 7.33287E-03 6.76302E-03-2.68448E-14 2.83368E-13
 -1      3835 2.03026E+01-1.91374E-01 2.85222E-03 8.14985E-01 3.79812E-14 2.51687E-14
 -1      3836 2.03974E+01-3.44586E-01 4.73580E-03 8.81242E-01 3.57571E-14 3.92104E-14
 -1      3837 2.01644E+01-6.35752E-02-5.40303E-03 8.12905E-01 6.55688E-14 4.29093E-14
 -1      3838 2.04999E+01-5.17049E-01 5.87678E-03 9.78121E-01 2.54640E-14 7.91283E-14
 -1      3839 2.06605E+01-7.12720E-01 4.48940E-03 1.02596E+00 1.99595E-14 8.20719E-14
 -1      3840 2.02896E+01-3.83572E-01-9.35090E-03 1.02847E+00 3.45905E-14 1.04538E-13
 -1      3841 2.08628E+01-9.26841E-01 1.09394E-02 1.10564E+00 2.87508E-14 1.28277E-13
 -1      3842 2.11069E+01-1.16640E+00 3.79309E-03 1.11086E+00 1.39180E-14 1.64720E-13
 -1      3843 2.05671E+01-8.04296E-01-1.48492E-02 1.24089E+00 3.38199E-14 1.54957E-13
 -1      3844 2.14451E+01-1.41191E+00 1.82906E-02 1.14039E+00 4.05247E-14 1.71796E-13
 -1      3845 2.17776E+01-1.67642E+00 9.27847E-04 1.06397E+00 6.49081E-14 2.07811E-13
 -1      3846 2.10612E+01-1.32612E+00-1.94247E-02 1.39637E+00 4.99174E-14 2.23923E-13
 -1      3847 2.24621E+01-2.09627E+00 9.61116E-03 1.06072E+00 3.92915E-15 2.42984E-13
 -1      3848 2.28825E+01-2.27320E+00-9.45447E-03 8.55564E-01-6.18524E-14 2.84676E-13
 -1      3849 2.35885E+01-2.33177E+00 3.33549E-03 4.14097E-01-6.57382E-14 3.06623E-13
 -1      3850 2.00894E+01 1.24227E+00-4.59420E-03 7.07234E-02 9.47457E-14 3.83091E-14
 -1      3851 2.26221E+01-1.95786E+00-4.52343E-05-5.64002E-01-1.31349E-14 3.23657E-13
 -1      3852 2.22225E+01-1.79884E+00 2.89949E-02-7.94820E-01-8.23198E-14 2.31050E-13
 -1      3853 2.26671E+01-2.23241E+00-3.69082E-02-9.62051E-01-1.30842E-14 2.69484E-13
 -1      3854 2.17196E+01-1.57367E+00 5.13115E-03-9.01579E-01-1.01676E-14 1.46338E-13
 -1      3855 2.13451E+01-1.34523E+00 1.26547E-02-1.00250E+00 2.11815E-14 1.30556E-13
 -1      3856 2.16759E+01-1.75772E+00-2.51656E-02-1.23501E+00-5.90986E-14 2.48655E-13
 -1      3857 2.10058E+01-1.08888E+00 7.58935E-03-9.74277E-01 1.00375E-13-1.42757E-15
 -1      3858 2.07152E+01-8.70595E-01 5.86437E-03-9.81425E-01 1.68122E-13-1.19427E-13
 -1      3859 2.08651E+01-1.16305E+00-2.03449E-02-1.22883E+00 3.24976E-14 4.98776E-15
 -1      3860 2.05022E+01-6.61202E-01 5.31519E-03-9.09556E-01 1.27001E-13-7.64244E-14
 -1      3861 2.03006E+01-4.83644E-01 1.48440E-03-8.68275E-01 7.77415E-14-8.53812E-14
 -1      3862 2.03653E+01-6.78439E-01-1.18089E-02-1.08675E+00 1.35000E-13-2.31189E-13
 -1      3863 2.01796E+01-3.26604E-01 4.40460E-03-7.80356E-01 2.70608E-14-6.34212E-14
 -1      3864 2.00477E+01-1.98394E-01-9.38277E-04-7.19748E-01 8.87562E-14 5.54003E-14
 -1      3865 2.00531E+01-3.10973E-01-6.94677E-03-8.96508E-01 9.89529E-14-4.38745E-14
 -1      3866 1.99896E+01-9.21617E-02 3.26060E-03-6.35459E-01 8.71852E-14 4.47461E-14
 -1      3867 1.99105E+01-7.60681E-03-1.93439E-03-5.72443E-01 9.14310E-14 9.09590E-14
 -1      3868 1.98838E+01-6.06802E-02-3.38693E-03-7.04436E-01 4.77229E-14-6.38834E-15
 -1      3869 1.98912E+01 5.76352E-02 2.31899E-03-4.99670E-01 2.34367E-14 1.40559E-14
 -1      3870 1.98490E+01 1.07471E-01-2.08817E-03-4.42461E-01 2.99999E-14-1.29138E-14
 -1      3871 1.98072E+01 9.40624E-02-1.09815E-03-5.36391E-01 7.98542E-16-1.20529E-13
 -1      3872 1.98515E+01 1.42372E-01 1.52859E-03-3.83583E-01-3.26717E-14 5.44557E-14
 -1      3873 1.98333E+01 1.67176E-01-1.89282E-03-3.35246E-01-5.37153E-14 4.77029E-14
 -1      3874 1.97871E+01 1.77200E-01 7.08411E-06-3.99653E-01 2.37326E-15-1.01326E-14
 -1      3875 1.98468E+01 1.81170E-01 9.45793E-04-2.89346E-01-3.11423E-14-8.66429E-14
 -1      3876 1.98430E+01 1.89091E-01-1.57760E-03-2.50227E-01-6.85353E-14-1.62404E-13
 -1      3877 1.97986E+01 2.11932E-01 5.39437E-04-2.93000E-01-8.61137E-14-1.49325E-13
 -1      3878 1.98609E+01 1.89680E-01 5.40458E-04-2.15351E-01-1.46827E-13-2.45072E-13
 -1      3879 1.98650E+01 1.87113E-01-1.23596E-03-1.84586E-01-2.01049E-13-2.72826E-13
 -1      3880 1.98254E+01 2.15582E-01 7.33897E-04-2.12219E-01-2.08144E-13-4.30502E-13
 -1      3881 1.98834E+01 1.79891E-01 2.79564E-04-1.58474E-01-1.88739E-13-1.44982E-13
 -1      3882 1.98910E+01 1.71345E-01-9.34526E-04-1.34681E-01-2.04235E-13-2.78655E-14
 -1      3883 1.98576E+01 2.01076E-01 7.73112E-04-1.52312E-01-1.49321E-13-3.36635E-13
 -1      3884 1.99077E+01 1.60176E-01 1.02131E-04-1.15485E-01-2.95079E-13 1.57372E-13
 -1      3885 1.99163E+01 1.49014E-01-6.96330E-04-9.73441E-02-1.93950E-13 1.73899E-13
 -1      3886 1.98892E+01 1.77082E-01 6.79567E-04-1.08326E-01-1.37900E-13 1.86948E-14
 -1      3887 1.99305E+01 1.36495E-01 1.47911E-05-8.31812E-02-4.44486E-15 1.92952E-13
 -1      3888 1.99386E+01 1.24621E-01-5.06807E-04-6.94496E-02 5.24417E-14 2.35247E-13
 -1      3889 1.99174E+01 1.49910E-01 5.90915E-04-7.64298E-02-3.06371E-14 1.71522E-13
 -1      3890 1.99500E+01 1.12284E-01-3.55896E-05-5.91453E-02 1.04978E-13 1.76941E-13
 -1      3891 1.99570E+01 1.00967E-01-3.58295E-04-4.88469E-02 1.64342E-13 2.03809E-13
 -1      3892 1.99409E+01 1.22749E-01 4.85986E-04-5.32943E-02 9.96104E-14 1.59390E-13
 -1      3893 1.99658E+01 8.97159E-02-5.54633E-05-4.13784E-02 2.62968E-13 2.54835E-13
 -1      3894 1.99713E+01 7.96069E-02-2.49279E-04-3.37098E-02 2.77039E-13 7.77384E-14
 -1      3895 1.99595E+01 9.77760E-02 3.80866E-04-3.66796E-02 2.36125E-13 1.12740E-13
 -1      3896 1.99778E+01 6.98475E-02-5.74794E-05-2.83146E-02 2.19711E-13 1.64958E-13
 -1      3897 1.99820E+01 6.12078E-02-1.71202E-04-2.26529E-02 1.51835E-13-2.76822E-14
 -1      3898 1.99736E+01 7.59964E-02 2.91604E-04-2.47513E-02 2.03907E-13-4.69912E-14
 -1      3899 1.99866E+01 5.30101E-02-4.12674E-05-1.87634E-02 2.75306E-13-7.69230E-14
 -1      3900 1.99895E+01 4.57124E-02-1.54360E-04-1.46808E-02 3.06572E-13-1.54046E-13
 -1      3901 1.99839E+01 5.76718E-02 2.56040E-04-1.61666E-02 1.61925E-13-1.67291E-13
 -1      3902 1.99926E+01 3.91630E-02-6.36669E-05-1.19369E-02 1.82430E-13-2.30578E-14
 -1      3903 1.99946E+01 3.35698E-02-2.66818E-05-9.03819E-03-2.58367E-14 8.71922E-14
 -1      3904 1.99908E+01 4.27510E-02 1.57513E-04-1.01797E-02 2.22590E-13-9.87478E-14
 -1      3905 1.71930E+01 1.40650E+00-1.90534E-02 3.44391E-01 1.16556E-13 1.43737E-14
 -1      3906 1.77385E+01 1.31489E+00-4.34093E-03 2.07027E-01 8.78275E-14 6.03532E-14
 -1      3907 1.80622E+01 1.16160E+00 1.76422E-02 4.72814E-01 1.01199E-13 5.86614E-14
 -1      3908 1.71722E+01 1.29904E+00 3.57415E-02 9.29394E-01 1.12006E-13-1.09645E-14
 -1      3909 1.99897E+01 5.07653E-02-1.77176E-04 1.60739E-02-1.57362E-13 7.32267E-14
 -1      3910 1.99864E+01 5.97259E-02-1.44753E-05 1.99567E-02-6.23497E-14 4.80906E-14
 -1      3911 1.99805E+01 6.98547E-02-2.38069E-04 2.31587E-02-1.34611E-13 1.22165E-13
 -1      3912 1.99752E+01 8.14285E-02-6.59261E-05 2.81774E-02-2.00235E-13 8.75720E-14
 -1      3913 1.99803E+01 6.88125E-02 2.50659E-04 1.72568E-02-1.02762E-13-1.53561E-13
 -1      3914 1.91194E+01 8.51195E-01-1.00342E-02 1.80489E-01 1.94940E-14 6.69049E-14
 -1      3915 1.93468E+01 8.38091E-01 1.70054E-03 1.03372E-01 6.07533E-15 6.47601E-14
 -1      3916 2.02210E+01 8.25921E-01-1.40483E-03 1.75892E-01 1.59783E-14 2.27486E-14
 -1      3917 2.02229E+01 6.78598E-01 3.08914E-04 2.59942E-01 2.50147E-14-4.09040E-15
 -1      3918 1.63310E+01 7.83717E-01-3.89848E-03 2.18973E+00 1.44771E-13-6.03892E-14
 -1      3919 1.93919E+01 6.57393E-01-1.98848E-03 1.91289E-01-6.57723E-14-3.80540E-13
 -1      3920 1.92587E+01 7.40587E-01-5.29853E-03 1.94603E-01 2.94325E-14-2.34271E-13
 -1      3921 1.91570E+01 7.82381E-01 6.93316E-03 4.28455E-02 1.38259E-13-3.38933E-13
 -1      3922 1.94127E+01 6.27337E-01 5.04248E-03 1.02005E-01-1.80991E-13-4.30947E-13
 -1      3923 1.82315E+01 1.21620E+00-7.28416E-04-8.38669E-02 8.78919E-15-2.17841E-13
 -1      3924 1.78303E+01 1.32340E+00-1.35855E-02-1.91115E-01-1.18079E-13-1.52468E-13
 -1      3925 1.79534E+01 1.18976E+00 1.99629E-02-6.12249E-01-1.81135E-13-5.68148E-13
 -1      3926 1.83951E+01 1.09385E+00 1.19483E-02-2.93301E-01 2.18497E-14-6.03345E-13
 -1      3927 2.02010E+01 3.02406E-01 4.53077E-04 4.88244E-01 3.09177E-14 1.18516E-14
 -1      3928 2.02167E+01 1.87999E-01 2.65654E-03 5.62145E-01 3.26117E-14-7.44885E-15
 -1      3929 2.01327E+01 1.91652E-01-3.02035E-03 6.18621E-01 3.68155E-14-9.63305E-15
 -1      3930 2.01201E+01 1.27848E+00 4.47946E-03 9.88632E-02 4.28777E-14 2.55179E-14
 -1      3931 2.01027E+01 1.43107E+00-3.48131E-03 5.89680E-02 2.78100E-14 9.04925E-15
 -1      3932 2.01292E+01 1.39032E+00-2.46385E-03 2.82309E-02 3.14654E-14-1.10426E-14
 -1      3933 1.99502E+01 9.85201E-01-5.34103E-03-2.40087E-02 3.23783E-14 5.87791E-14
 -1      3934 2.00219E+01 1.08035E+00-2.11816E-03 1.82056E-02 4.65321E-14 3.81835E-14
 -1      3935 2.02118E+01 5.43030E-01-4.19589E-05 3.32676E-01 3.43959E-14 8.21451E-15
 -1      3936 2.02133E+01 4.20190E-01 1.41060E-03 4.10309E-01 3.69412E-14 2.81420E-14
 -1      3937 2.01744E+01 6.76721E-01-1.33763E-03 2.91460E-01 3.69960E-14 2.02625E-14
 -1      3938 1.99170E+01 1.64401E-01-4.96090E-04 5.25844E-02 4.38390E-14-7.29622E-14
 -1      3939 1.98986E+01 1.88257E-01-5.03225E-04 6.02228E-02 1.33584E-14-1.30039E-13
 -1      3940 2.12165E+01-2.19615E+00 6.90895E-03 2.82652E+00 1.42924E-14 2.66621E-13
 -1      3941 1.96360E+01-1.30017E+00-2.66639E-02 2.89059E+00 9.45346E-14 1.85680E-13
 -1      3942 1.81377E+01-6.44098E-02-4.02009E-03 2.46996E+00 1.30996E-13 6.35767E-14
 -1      3943 1.71863E+01 4.28867E-01 4.24917E-02 2.45429E+00 1.50025E-13-5.28304E-14
 -1      3944 1.71378E+01 8.70551E-01-2.98643E-02 1.55399E+00 1.40893E-13-6.11143E-14
 -1      3945 1.73682E+01 7.91112E-01-2.08733E-02-1.71962E+00-1.09294E-13-3.91486E-13
 -1      3946 1.74682E+01 4.40378E-01 3.85862E-02-2.40138E+00-1.36499E-13-4.27004E-13
 -1      3947 1.82891E+01-8.84363E-02-1.10349E-02-2.43518E+00-1.78598E-13-2.57327E-14
 -1      3948 2.00669E+01 1.34671E+00-6.77899E-04 8.18701E-02 8.81029E-14 2.40503E-15
 -1      3949 2.20498E+01-2.09031E+00-1.33974E-02 1.53664E+00 2.77614E-14 2.80912E-13
 -1      3950 2.01973E+01 1.05023E+00 2.64606E-03 1.09295E-01 1.26763E-14 2.36598E-14
 -1      3951 2.01603E+01 1.02712E+00-4.89236E-04 1.49139E-01 1.91711E-14 2.72220E-14
 -1      3952 2.01796E+01 1.34236E+00 3.18203E-03-1.85870E-02 3.02929E-14 2.45237E-14
 -1      3953 1.99462E+01 1.25330E-01-4.06165E-04 4.17754E-02 1.77629E-14-7.85277E-14
 -1      3954 1.99342E+01 1.43777E-01-2.65917E-04 4.86786E-02 6.51090E-14-4.09530E-14
 -1      3955 1.99180E+01 1.61078E-01 7.54316E-04 3.65492E-02-5.20358E-14-1.65910E-13
 -1      3956 1.89364E+01 8.18398E-01 1.72246E-03-1.93794E-01 1.19913E-13-3.80686E-13
 -1      3957 1.87201E+01 8.79778E-01-7.96434E-03-2.88199E-01 7.74964E-14-5.06327E-13
 -1      3958 1.99918E+01 4.62593E-02 8.49058E-05 1.32524E-02-4.01065E-15-1.88495E-13
 -1      3959 1.99872E+01 5.22567E-02-1.59331E-04 1.15338E-02 2.04378E-14-6.00516E-13
 -1      3960 1.99923E+01 4.19578E-02-1.12114E-04 1.01990E-02 2.64126E-13-3.57237E-13
 -1      3961 1.76894E+01 9.03192E-01 2.39361E-03 1.21531E+00 1.28428E-13 6.65700E-16
 -1      3962 2.00373E+01 1.19228E+00 2.83829E-03 7.76614E-02 3.39572E-14 5.00039E-14
 -1      3963 2.00639E+01 1.21640E+00 3.66654E-03 5.01098E-02 5.80506E-14 3.85383E-14
 -1      3964 2.02177E+01-1.56502E+00 3.17274E-02-2.97037E+00-4.58739E-14 3.26804E-13
 -1      3965 2.08515E+01-1.80916E+00-2.03768E-02-2.51260E+00-1.14356E-13 4.64632E-13
 -1      3966 1.94372E+01-1.01422E+00-2.17245E-02-2.74470E+00-1.27474E-13 3.27431E-13
 -1      3967 1.99958E+01 2.76460E-02-6.73244E-05 6.70484E-04-5.31508E-15-2.02370E-13
 -1      3968 1.99947E+01 3.21576E-02 6.44497E-05 1.19047E-03 1.93624E-13-4.23895E-13
 -1      3969 1.99958E+01 2.76685E-02 4.85468E-06-8.69318E-04-5.51438E-14 3.53343E-13
 -1      3970 1.96100E+01 4.50232E-01-5.46741E-04 6.03845E-02-3.46412E-13-4.30471E-13
 -1      3971 1.95296E+01 5.01947E-01-3.31595E-03 5.23671E-02-2.83704E-13-4.76247E-13
 -1      3972 1.94861E+01 7.87906E-01 4.79074E-03 2.13369E-01 1.48094E-14 1.01962E-13
 -1      3973 1.94883E+01 8.28833E-01-7.38523E-03 2.85181E-02 2.63930E-14 6.35985E-14
 -1      3974 1.96550E+01 8.39588E-01 9.12056E-04 8.61783E-04 2.77008E-14 5.42298E-14
 -1      3975 1.98742E+01 2.14953E-01-5.57691E-04 6.32213E-02 2.83029E-14-1.10940E-13
 -1      3976 1.98467E+01 2.44607E-01-9.81611E-04 7.04504E-02 1.29951E-14-1.87139E-13
 -1      3977 1.98781E+01 2.08638E-01 1.24196E-03 4.17084E-02 1.86731E-14-1.76409E-13
 -1      3978 1.99948E+01 3.42472E-02-5.75681E-05 6.23581E-03 4.28193E-13-7.62101E-13
 -1      3979 1.99942E+01 3.83159E-02 1.38036E-04 8.41573E-03 3.48478E-13-5.32363E-13
 -1      3980 1.99909E+01 4.36267E-02 9.68830E-05 6.84442E-03 1.67521E-13-1.28220E-12
 -1      3981 1.99938E+01 3.54328E-02-7.92270E-06 4.30209E-03 2.46192E-13-1.27898E-12
 -1      3982 1.99668E+01 9.25957E-02 3.84704E-04 2.32666E-02-1.31671E-13 2.14868E-13
 -1      3983 1.99667E+01 9.41171E-02-3.29377E-04 3.17501E-02-1.50072E-13 1.52845E-13
 -1      3984 1.99587E+01 1.08647E-01-1.42010E-04 3.76991E-02-5.29579E-14 7.68131E-14
 -1      3985 1.89513E+01 8.70798E-01 1.76326E-03 3.08134E-01 6.08211E-14 7.01783E-14
 -1      3986 1.91626E+01 7.66879E-01 6.31554E-03 4.29470E-01 4.54360E-14 1.16719E-13
 -1      3987 1.86536E+01 8.89332E-01-1.56933E-02 4.53030E-01 7.57395E-14 6.75892E-14
 -1      3988 2.26564E+01-2.55575E+00-1.33454E-02-1.73539E+00-2.11389E-14 3.77344E-13
 -1      3989 2.27320E+01-2.28812E+00 1.27045E-02-1.23508E+00-2.69021E-14 3.57414E-13
 -1      3990 2.21999E+01-2.03427E+00 4.15066E-02-1.45374E+00-2.16563E-13 3.70195E-13
 -1      3991 2.18426E+01-2.17715E+00 1.92053E-02-2.07932E+00-1.71791E-13 3.57203E-13
 -1      3992 1.98142E+01 2.98716E-01 1.75308E-03 1.08410E-01 1.66121E-14-1.85428E-13
 -1      3993 1.97282E+01 3.55771E-01-7.13497E-04 7.27085E-02-1.65973E-13-3.86806E-13
 -1      3994 1.96714E+01 4.00317E-01-2.15001E-03 7.37024E-02-2.96547E-13-4.20958E-13
 -1      3995 1.96346E+01 4.22776E-01 2.58990E-03 1.08356E-02-2.36782E-13-3.71830E-13
 -1      3996 2.18353E+01-2.16239E+00 1.73714E-02 2.08921E+00 3.08881E-14 2.87841E-13
 -1      3997 1.77655E+01 8.37250E-01-5.37944E-03-1.36595E+00-1.45000E-13-4.57928E-13
 -1      3998 1.97610E+01 8.63345E-01-5.71957E-03-3.07564E-02 3.18686E-14 7.96081E-14
 -1      3999 1.98808E+01 9.12032E-01 1.20709E-03-1.99849E-02 4.26977E-14 7.13655E-14
 -1      4000 1.97446E+01 8.47671E-01 5.29778E-03 9.33264E-02 3.84402E-14 8.85616E-14
 -1      4001 2.00994E+01 1.10329E+00-2.70095E-03 1.46026E-01 6.12983E-14 5.59865E-14
 -1      4002 2.01268E+01 1.07288E+00-8.99610E-04 1.45405E-01 4.45648E-14 3.03096E-14
 -1      4003 2.01584E+01 8.73816E-01 3.25184E-03 2.08617E-01 2.76397E-14 7.58435E-14
 -1      4004 1.99304E+01 9.63235E-01-3.41633E-06 5.02176E-02 2.49931E-14 5.97109E-14
 -1      4005 2.01478E+01 4.25657E-01-1.66771E-03 4.46245E-01 2.86654E-14 2.93459E-15
 -1      4006 1.87838E+01 7.75364E-01 1.61045E-03-5.25495E-01-2.15432E-14-4.09165E-13
 -1      4007 1.86098E+01 9.15169E-01 3.30420E-03-4.10835E-01 6.42512E-14-5.86718E-13
 -1      4008 1.83869E+01 9.39784E-01-1.06669E-02-5.48351E-01-1.00207E-13-7.19315E-13
 -1      4009 1.99344E+01-9.80849E-01-1.11682E-03 2.29302E+00 9.85202E-14 1.71864E-13
 -1      4010 1.90511E+01-4.97556E-01 4.17859E-02 2.55394E+00 1.31390E-13 1.36185E-13
 -1      4011 1.84631E+01 4.05714E-02-3.75918E-02 1.97864E+00 1.14296E-13 5.10772E-14
 -1      4012 1.99947E+01 3.23273E-02 8.12726E-06-5.54927E-03-6.33259E-14 1.73477E-13
 -1      4013 1.99960E+01 2.69258E-02-4.04079E-05-2.29147E-03-7.76593E-14 2.77856E-13
 -1      4014 2.00416E+01 1.17357E+00-4.84521E-03 1.07929E-01 4.39591E-14 7.12340E-14
 -1      4015 2.00663E+01 1.16855E+00-8.74482E-04 1.21169E-01 5.26519E-14 6.46722E-14
 -1      4016 2.00300E+01 1.06362E+00 5.50252E-03 9.34680E-02 1.89494E-14 5.06328E-14
 -1      4017 2.00813E+01 9.95845E-01 4.27175E-03 1.68284E-01 5.75688E-14 5.80014E-14
 -1      4018 2.00130E+01 1.12761E-01-1.21713E-03 7.68105E-01 6.91095E-14 1.28545E-14
 -1      4019 2.00576E+01-6.37514E-03 7.62275E-03 8.75972E-01 8.68503E-14 3.04022E-14
 -1      4020 2.00559E+01-1.57271E-01-8.16906E-04 1.03232E+00 7.48431E-14 7.41508E-14
 -1      4021 2.01671E+01-3.27889E-01 7.75583E-03 1.15041E+00 5.02743E-14 1.28251E-13
 -1      4022 1.98687E+01 3.71227E-02 1.38489E-03 9.89245E-01 7.52671E-14 5.04816E-14
 -1      4023 2.02399E+01-5.23312E-01 4.76972E-03 1.32483E+00 5.91563E-14 1.66388E-13
 -1      4024 2.04373E+01-7.60306E-01 8.73910E-03 1.44698E+00 6.31972E-14 2.03227E-13
 -1      4025 1.99330E+01-3.20863E-01-1.06720E-02 1.33384E+00 9.32557E-14 1.09849E-13
 -1      4026 2.01912E+01 1.19086E+00-5.57619E-04 3.74815E-02 2.52093E-14 2.06942E-14
 -1      4027 1.90699E+01 7.48279E-01-7.19728E-03-1.04267E-01 1.76756E-13-2.93318E-13
 -1      4028 1.90550E+01 7.20088E-01 5.12989E-03-2.90192E-01 6.14157E-14-2.20444E-13
 -1      4029 1.92302E+01 6.85105E-01 3.77857E-04-5.29312E-02 1.12393E-13-2.82772E-13
 -1      4030 2.13120E+01-1.73606E+00 5.80837E-03-1.87834E+00-2.13304E-13 3.82510E-13
 -1      4031 2.08489E+01-1.38711E+00 1.11370E-02-1.86126E+00-8.43097E-14 2.83302E-13
 -1      4032 2.02561E+01-6.41208E-01 8.25451E-03-1.29623E+00 1.52180E-13 9.27384E-14
 -1      4033 2.00451E+01-4.30317E-01 4.14924E-03-1.19103E+00 1.97224E-13 1.18706E-13
 -1      4034 1.99406E+01-2.52907E-01 7.27185E-03-1.03009E+00 9.24024E-14 1.58264E-13
 -1      4035 1.98150E+01-1.11004E-01 1.12576E-03-9.22353E-01 5.40908E-15 1.48506E-13
 -1      4036 1.97337E+01-2.48198E-01-1.13929E-02-1.22408E+00 1.27543E-13 3.24874E-13
 -1      4037 1.97806E+01 1.19252E-06 5.28599E-03-7.84152E-01-2.40472E-14 1.11680E-13
 -1      4038 1.97114E+01 8.43746E-02-2.29542E-03-6.90994E-01 1.37002E-14 1.32035E-13
 -1      4039 1.96123E+01 3.34552E-02-5.31654E-03-9.08907E-01-2.64812E-14 2.97718E-13
 -1      4040 1.97221E+01 1.51132E-01 4.94991E-03-5.78862E-01-6.96432E-14-2.79162E-14
 -1      4041 1.96891E+01 1.93093E-01-2.90566E-03-5.03855E-01-5.38047E-14-6.19524E-14
 -1      4042 1.95874E+01 2.01067E-01 4.94768E-04-6.54309E-01-4.78634E-14 2.24353E-13
 -1      4043 1.97174E+01 2.27158E-01 3.50932E-03-4.18803E-01 9.96225E-14-1.08497E-13
 -1      4044 1.97088E+01 2.42677E-01-2.58479E-03-3.60222E-01 2.68382E-14-8.80876E-15
 -1      4045 1.96140E+01 2.78772E-01 1.81858E-03-4.58744E-01 1.89781E-15-1.13890E-13
 -1      4046 1.97431E+01 2.53733E-01 2.29610E-03-2.98244E-01-1.69723E-13-9.12886E-14
 -1      4047 1.97483E+01 2.52831E-01-2.14272E-03-2.53907E-01-1.16249E-13-1.95060E-13
 -1      4048 1.96659E+01 3.01225E-01 2.14731E-03-3.15366E-01-7.93091E-14-9.59373E-14
 -1      4049 1.97822E+01 2.49830E-01 1.43630E-03-2.09882E-01-8.32431E-14-2.78050E-13
 -1      4050 1.97941E+01 2.39504E-01-1.66895E-03-1.77002E-01-2.90603E-13-2.88765E-13
 -1      4051 1.97254E+01 2.91080E-01 2.05219E-03-2.13624E-01-1.76598E-13-1.19731E-13
 -1      4052 1.98245E+01 2.28629E-01 8.57037E-04-1.46207E-01-1.56779E-13-2.62333E-13
 -1      4053 1.98393E+01 2.13856E-01-1.02648E-03-1.21977E-01 1.11647E-13-2.09144E-13
 -1      4054 1.97825E+01 2.62953E-01 1.49502E-03-1.43239E-01-9.85815E-14-9.15884E-14
 -1      4055 1.98643E+01 1.98855E-01 3.83903E-04-1.01637E-01 1.59043E-14-2.49084E-13
 -1      4056 1.98779E+01 1.82679E-01-1.02672E-03-8.41795E-02-1.12691E-13 9.61992E-17
 -1      4057 1.98351E+01 2.25629E-01 1.00313E-03-9.48298E-02 5.03393E-14-9.35736E-14
 -1      4058 1.98991E+01 1.67312E-01 2.71446E-04-6.95933E-02-6.25855E-14-1.62835E-14
 -1      4059 1.99112E+01 1.51240E-01-7.01984E-04-5.70196E-02 5.38889E-14 2.83035E-14
 -1      4060 1.98773E+01 1.90380E-01 1.03962E-03-6.17524E-02-3.05594E-14-1.24052E-13
 -1      4061 1.99275E+01 1.36262E-01 7.54798E-05-4.74711E-02 6.53824E-14 5.96102E-14
 -1      4062 1.99377E+01 1.21690E-01-5.12753E-04-3.84601E-02 1.35497E-13 6.55871E-14
 -1      4063 1.99127E+01 1.54652E-01 9.45510E-04-4.02486E-02 1.02236E-13-1.39599E-13
 -1      4064 1.99500E+01 1.08303E-01 1.04821E-05-3.20423E-02 1.12080E-13-1.69597E-13
 -1      4065 1.99579E+01 9.56298E-02-3.69790E-04-2.55789E-02 1.36031E-13-1.12163E-13
 -1      4066 1.99397E+01 1.22838E-01 7.38327E-04-2.59640E-02-2.32064E-14-2.82824E-13
 -1      4067 1.99670E+01 8.41377E-02-2.06349E-05-2.13187E-02 2.47574E-13-3.73873E-13
 -1      4068 1.99730E+01 7.35037E-02-2.51734E-04-1.66713E-02 2.01916E-13-3.20782E-13
 -1      4069 1.99600E+01 9.54420E-02 5.48455E-04-1.65114E-02 8.64059E-14-5.38625E-13
 -1      4070 1.99793E+01 6.39811E-02-3.23578E-05-1.38083E-02 2.92511E-13-2.58562E-13
 -1      4071 1.99834E+01 5.51323E-02-2.36739E-04-1.02089E-02 3.76945E-13-1.70805E-13
 -1      4072 1.99745E+01 7.27265E-02 3.80150E-04-1.03855E-02 3.52373E-13-4.23559E-13
 -1      4073 2.00146E+01 9.10056E-01-3.50695E-03 1.89158E-01 2.98655E-14 4.86608E-14
 -1      4074 2.00592E+01 8.49993E-01-1.07162E-03 2.23269E-01 2.46426E-14 8.13409E-14
 -1      4075 1.99808E+01 6.45923E-02 7.27292E-05 1.07096E-02 8.21188E-14-4.64757E-13
 -1      4076 1.99747E+01 7.49707E-02-9.32375E-05 1.32307E-02 6.98618E-14-3.21894E-13
 -1      4077 2.11221E+01-1.64051E+00 2.50094E-03 1.95788E+00 5.48286E-14 2.84735E-13
 -1      4078 2.00962E+01 7.90684E-01-2.22289E-03 2.58260E-01 2.43517E-14 9.00552E-14
 -1      4079 2.01364E+01 7.41234E-01-8.94230E-04 2.69864E-01 1.17602E-14 8.33541E-14
 -1      4080 2.01268E+01 6.14065E-01 2.23236E-03 3.43254E-01 2.79596E-14 2.86059E-14
 -1      4081 2.00385E+01 7.38801E-01 1.67159E-03 2.82326E-01-4.56883E-15 6.88431E-14
 -1      4082 1.80070E+01 9.38255E-01-2.44252E-02 8.38686E-01 1.07100E-13 6.65923E-14
 -1      4083 1.84298E+01 9.24506E-01 2.22802E-03 6.28278E-01 1.05818E-13 6.03095E-14
 -1      4084 1.87564E+01 7.97017E-01 2.36940E-02 7.61467E-01 1.09474E-13 7.12035E-14
 -1      4085 1.84402E+01 8.28093E-02-2.86902E-02-2.00433E+00-1.50058E-13 3.28398E-14
 -1      4086 1.89408E+01-3.68124E-01 3.11397E-02-2.45602E+00-1.41530E-13 3.32238E-13
 -1      4087 1.95630E+01-7.39656E-01-6.20705E-03-2.26090E+00-1.59918E-13 3.26111E-13
 -1      4088 1.98132E+01 2.78269E-01-6.74432E-04 7.17434E-02-2.99171E-14-4.11713E-13
 -1      4089 1.97744E+01 3.14970E-01-1.22090E-03 7.74140E-02-1.04620E-13-4.33845E-13
 -1      4090 1.97425E+01 3.38398E-01 2.04830E-03 3.42288E-02-1.30110E-13-5.06602E-13
 -1      4091 1.98196E+01 2.69137E-01 1.68156E-03 4.24484E-02-8.19266E-14-3.54005E-13
 -1      4092 1.80027E+01 8.65968E-01-2.18402E-02-1.05646E+00-7.38330E-14-4.26574E-13
 -1      4093 1.82588E+01 5.81912E-01 2.83710E-02-1.56911E+00-7.99341E-14-2.43805E-13
 -1      4094 1.82649E+01 8.88263E-01 1.07218E-03-8.49416E-01-9.08349E-14-4.98907E-13
 -1      4095 1.81960E+01 7.12727E-01 3.13232E-02 1.37153E+00 1.50481E-13 2.96919E-14
 -1      4096 1.99482E+01 9.55621E-01-6.58423E-04 1.05259E-01 2.98793E-14 4.59180E-14
 -1      4097 2.00379E+01 3.38711E-01-6.42022E-04 5.58241E-01 3.84782E-14-1.83621E-14
 -1      4098 2.00443E+01 2.30454E-01 4.43442E-03 6.53212E-01 5.79160E-14 6.52717E-15
 -1      4099 1.98957E+01 2.54600E-01-5.24835E-03 7.09052E-01 5.25319E-14 3.06824E-14
 -1      4100 1.99928E+01 3.62915E-02 1.02081E-04-6.39708E-04 2.50561E-13 2.26148E-14
 -1      4101 1.99928E+01 3.56928E-02-1.37598E-04 1.68762E-03 2.73901E-13-7.52214E-13
 -1      4102 1.99917E+01 3.94964E-02-8.25908E-05 2.45991E-03 2.07526E-13-8.63953E-13
 -1      4103 2.00918E+01 5.26458E-01-3.07807E-04 4.02276E-01 2.44491E-14 2.00701E-15
 -1      4104 2.00800E+01 4.16981E-01 2.65529E-03 4.83743E-01 9.90154E-15-2.12510E-14
 -1      4105 1.99693E+01 4.45104E-01 4.29230E-04 5.10435E-01 3.89842E-14 1.06104E-14
 -1      4106 2.00449E+01 5.92910E-01-4.42280E-04 3.76758E-01-9.23899E-15 2.75832E-14
 -1      4107 1.99190E+01 8.44044E-01 9.28200E-04 1.61427E-01 1.28037E-14 5.37371E-14
 -1      4108 1.92049E+01 6.04892E-01 3.69234E-03-3.34336E-01 2.41252E-14-1.81996E-13
 -1      4109 1.90545E+01 6.30015E-01-5.92462E-03-4.45678E-01-2.14592E-14-1.92991E-13
 -1      4110 2.06499E+01-1.04062E+00 1.18297E-02 1.62045E+00 5.28513E-14 2.36153E-13
 -1      4111 2.09822E+01-1.32513E+00 1.77499E-02 1.68654E+00 5.87369E-14 2.89182E-13
 -1      4112 1.99467E+01 1.22900E-01 5.30659E-04 2.99368E-02-1.60081E-13 3.92178E-14
 -1      4113 1.99830E+01 5.83864E-02-1.24422E-04 7.67581E-03 2.74430E-13-8.80110E-13
 -1      4114 2.08229E+01-1.16492E+00 1.48295E-02-1.50922E+00-3.43176E-14 2.39465E-13
 -1      4115 2.04848E+01-8.98207E-01 1.04187E-02-1.45173E+00-1.32782E-14 1.80347E-13
 -1      4116 1.99859E+01 5.02781E-02-8.06794E-05-3.75307E-03 5.20872E-13-3.24833E-13
 -1      4117 1.99892E+01 4.48861E-02 2.20997E-05-6.13193E-03 3.70950E-13-1.73579E-13
 -1      4118 1.91712E+01 5.12534E-01 1.67100E-03-5.93733E-01-1.75459E-13-2.51531E-13
 -1      4119 1.90195E+01 6.32466E-01 6.46150E-03-5.52595E-01-7.09749E-14-2.95061E-13
 -1      4120 1.89040E+01 6.28799E-01 1.65602E-03-6.94630E-01-1.17778E-13-2.79974E-13
 -1      4121 1.99919E+01 3.81815E-02-4.91021E-05-3.96645E-03 2.08063E-13-7.04357E-14
 -1      4122 1.99694E+01 8.33370E-02 4.69627E-04 7.48788E-03 1.82154E-13-4.81126E-13
 -1      4123 1.99671E+01 8.64576E-02-2.29377E-04 1.42019E-02-7.72715E-14-1.07980E-13
 -1      4124 1.99588E+01 9.95416E-02-2.29741E-04 1.68863E-02-8.35668E-14-5.15696E-14
 -1      4125 1.94845E+01 6.78505E-01-7.00386E-03 3.62326E-01-4.26948E-15 8.06054E-14
 -1      4126 1.96364E+01 7.14497E-01 1.41666E-04 2.78560E-01-4.02606E-15 7.70184E-14
 -1      4127 2.05571E+01-1.35429E+00 9.45306E-04 2.22031E+00 6.68437E-14 2.54733E-13
 -1      4128 1.99204E+01 1.49741E-01-3.15519E-04 2.00909E-02-1.85596E-13-8.16141E-14
 -1      4129 1.99029E+01 1.69773E-01-6.01569E-04 2.21875E-02-9.81127E-14-2.00846E-13
 -1      4130 1.86913E+01 2.14550E-01-5.71646E-03-1.63074E+00-7.20086E-14-2.85800E-14
 -1      4131 1.98823E+01 1.92872E-01-3.42267E-04 2.02265E-02-7.57557E-14-1.03778E-13
 -1      4132 1.98560E+01 2.17750E-01-1.23368E-03 2.11700E-02-3.77893E-14-1.73346E-13
 -1      4133 1.98909E+01 1.84064E-01 1.16734E-03 3.02498E-03-7.17092E-14-1.80123E-14
 -1      4134 1.94905E+01 5.18662E-01 3.43753E-03-3.89969E-02-1.52830E-13-1.49616E-13
 -1      4135 1.94484E+01 5.60715E-01-2.78986E-04 2.41219E-02-1.60732E-13-3.99390E-13
 -1      4136 1.87893E+01 2.21868E-01-6.05746E-03 1.54207E+00 1.55634E-13 7.13080E-14
 -1      4137 1.96679E+01 3.78034E-01 1.90214E-04-2.90714E-02-1.64275E-13-1.60452E-13
 -1      4138 1.96007E+01 4.15017E-01-3.27621E-03-5.00047E-02-2.28117E-13-3.66103E-14
 -1      4139 1.93337E+01 6.19937E-01-5.00900E-03-1.86552E-04 2.66139E-14-2.65575E-13
 -1      4140 1.97307E+01 7.31502E-01-4.91199E-03 2.35735E-01 3.08792E-14 7.85855E-14
 -1      4141 1.98420E+01 7.85032E-01-1.95834E-03 1.89713E-01 3.40896E-14 6.52006E-14
 -1      4142 1.99344E+01 7.43766E-01 4.36550E-03 2.85280E-01 2.77827E-16 6.09418E-14
 -1      4143 1.97732E+01 6.56663E-01 6.00494E-03 3.71789E-01 2.40113E-14 6.84312E-14
 -1      4144 1.85486E+01 6.98781E-01-1.45155E-03-9.45989E-01-6.52322E-14-3.51862E-13
 -1      4145 2.01850E+01-8.20140E-01-1.91560E-02 1.74066E+00 6.20079E-14 2.30038E-13
 -1      4146 1.98209E+01-7.46458E-01-1.18524E-02 2.01171E+00 9.32475E-14 1.88506E-13
 -1      4147 1.95968E+01 4.14281E-01 3.51082E-03-1.24772E-01-8.14645E-14 1.36869E-13
 -1      4148 1.95467E+01 4.56381E-01 8.13377E-04-8.47026E-02-2.02385E-13 3.68010E-15
 -1      4149 1.94560E+01 4.94308E-01-4.68809E-03-1.23446E-01 4.51825E-15 8.94840E-14
 -1      4150 2.00484E+01-7.01207E-01-1.65687E-02-1.59291E+00 1.73065E-14 3.12487E-13
 -1      4151 1.91791E+01 6.18534E-01-1.17910E-02 6.21468E-01 6.52759E-14 7.66921E-14
 -1      4152 1.93924E+01 6.52551E-01 5.85860E-03 4.85725E-01 4.05894E-14 6.84631E-14
 -1      4153 1.95640E+01 5.56283E-01-1.19206E-03 5.42388E-01 2.78204E-14 6.02735E-14
 -1      4154 1.95911E+01-2.19009E-02-7.22485E-03 1.25092E+00 1.19032E-13 7.22925E-14
 -1      4155 1.96994E+01-1.80895E-01 1.56565E-02 1.44157E+00 1.15772E-13 1.06424E-13
 -1      4156 1.99479E+01 1.14413E-01-2.77258E-04 1.75610E-02-1.90795E-13 3.17463E-14
 -1      4157 1.99354E+01 1.31166E-01-3.72749E-04 2.02813E-02-2.72301E-13-4.36865E-14
 -1      4158 1.99264E+01 1.43485E-01 9.79278E-04 7.28951E-03-2.10465E-13-2.14575E-13
 -1      4159 1.99517E+01 1.10129E-01 7.22630E-04 8.17327E-03-1.97075E-13-3.37462E-13
 -1      4160 1.93013E+01 6.20872E-01 4.44759E-03-1.31290E-01 2.81920E-14-1.20651E-13
 -1      4161 2.02743E+01-1.12670E+00-1.00886E-03-2.12409E+00-1.64748E-13 3.37410E-13
 -1      4162 1.88144E+01 3.93939E-01-2.49021E-02 1.20152E+00 1.47152E-13 5.88351E-14
 -1      4163 1.90848E+01 4.57045E-01-3.47764E-04 9.77786E-01 1.04552E-13 6.82745E-14
 -1      4164 1.93928E+01 5.36004E-01 1.88661E-03-1.80136E-01-6.80056E-14 5.36531E-14
 -1      4165 1.92748E+01 5.68883E-01-6.40584E-03-2.46582E-01-4.95051E-14-2.52117E-14
 -1      4166 1.93153E+01 5.17504E-01 4.10152E-03-3.83266E-01-1.19363E-13-8.83106E-14
 -1      4167 1.94685E+01 4.74481E-01 4.08279E-03-2.25755E-01-8.45440E-14 1.59591E-13
 -1      4168 1.94395E+01 1.45703E-01 5.74394E-03-9.82725E-01 1.18013E-13 1.48577E-13
 -1      4169 1.94132E+01 2.39052E-01 3.92685E-03-8.33280E-01-2.45784E-14 1.92983E-13
 -1      4170 1.93936E+01 3.44471E-01 2.54788E-03-6.42203E-01-1.53100E-13 3.48399E-14
 -1      4171 1.93953E+01 3.76583E-01-5.86855E-03-5.25704E-01-1.58425E-13-1.30383E-14
 -1      4172 1.94794E+01 3.83214E-01 1.59911E-03-4.26342E-01-8.08266E-14 1.50924E-14
 -1      4173 1.94992E+01 3.86190E-01-5.10127E-03-3.41989E-01 5.50428E-15-6.28118E-14
 -1      4174 1.95722E+01 3.74973E-01 3.89971E-04-2.76522E-01-2.52370E-14-5.92151E-14
 -1      4175 1.96006E+01 3.63162E-01-3.98026E-03-2.16943E-01-1.30195E-13 3.38477E-15
 -1      4176 1.96616E+01 3.42034E-01-2.19260E-04-1.74951E-01-1.83049E-13 8.65621E-14
 -1      4177 1.96916E+01 3.22825E-01-2.94552E-03-1.33975E-01-1.92203E-13 6.21524E-14
 -1      4178 1.98040E+01 2.49612E-01-6.90957E-04-8.08800E-02 3.54837E-14-2.52332E-14
 -1      4179 1.98275E+01 2.28988E-01-1.59611E-03-6.07576E-02-4.87124E-14-6.32193E-14
 -1      4180 1.98596E+01 2.07793E-01 1.34021E-04-3.73764E-02-8.78632E-14 1.38067E-14
 -1      4181 1.98782E+01 1.86186E-01-1.05798E-03-2.60524E-02-8.05502E-14-4.33270E-14
 -1      4182 1.98995E+01 1.65980E-01-4.35780E-04-2.13747E-02-6.51147E-14 1.28837E-14
 -1      4183 1.99150E+01 1.47999E-01-7.74554E-04-1.36483E-02-6.71011E-14-1.27953E-13
 -1      4184 1.99307E+01 1.30611E-01-4.48940E-04-1.16104E-02-1.74603E-13-1.95737E-13
 -1      4185 1.99427E+01 1.15366E-01-5.51570E-04-6.56179E-03-2.07111E-13-3.56862E-13
 -1      4186 1.99540E+01 1.00943E-01-3.63719E-04-5.92029E-03-1.03139E-14-3.16073E-13
 -1      4187 1.99629E+01 8.82999E-02-3.67572E-04-2.71053E-03 1.69627E-13-4.04414E-13
 -1      4188 1.99707E+01 7.66241E-02-3.05482E-04-2.72429E-03 2.60799E-13-4.60867E-13
 -1      4189 1.99778E+01 6.66252E-02 1.33250E-05-8.47565E-04 3.85512E-13-4.52403E-13
 -1      4190 1.99952E+01 6.52363E-01-2.03875E-03 3.38435E-01-1.45973E-14 4.24873E-14
 -1      4191 1.88583E+01 2.92702E-01-4.68778E-03-1.34179E+00-1.53710E-14-1.06696E-14
 -1      4192 1.91765E+01-7.80889E-02 6.55436E-03-1.69526E+00-2.97236E-14 2.34407E-13
 -1      4193 1.96637E+01-6.03005E-01-6.57443E-03-1.92646E+00-9.46057E-14 3.09786E-13
 -1      4194 2.10958E+01-1.81555E+00-2.33329E-02-2.18011E+00-2.06827E-13 4.86760E-13
 -1      4195 1.92979E+01-8.44369E-02 1.40086E-02 1.69099E+00 1.44238E-13 1.06937E-13
 -1      4196 1.97111E+01 3.40957E-01-2.23495E-03-8.89712E-03-8.83345E-14-8.30654E-14
 -1      4197 1.97003E+01 3.49704E-01 2.79766E-03-6.25413E-02-1.39328E-13 1.41094E-13
 -1      4198 1.97585E+01 3.05779E-01-1.02408E-03 1.85131E-05-1.79632E-13-4.05696E-14
 -1      4199 1.96707E+01-4.28726E-01-9.36548E-04 1.77645E+00 1.17121E-13 1.52898E-13
 -1      4200 1.99934E+01 3.42356E-02-6.80344E-05-4.17361E-03 1.18597E-14 1.73237E-13
 -1      4201 1.95990E+01-1.89074E-01 9.46071E-03-1.39017E+00 6.33253E-14 2.98356E-13
 -1      4202 1.94827E+01-2.67568E-02 1.75226E-03-1.21314E+00 1.35066E-13 2.33673E-13
 -1      4203 1.97404E+01 2.98414E-01-3.13211E-04-1.07685E-01-1.23270E-13 3.36008E-14
 -1      4204 1.99842E+01 5.46170E-02 9.99443E-06 2.79937E-03 4.28816E-13-6.02197E-13
 -1      4205 1.94881E+01-3.15010E-01 1.67891E-03-1.70502E+00-2.30497E-14 2.81378E-13
 -1      4206 1.97072E+01 4.29567E-01-4.96664E-04 6.32839E-01 3.11592E-14 4.58191E-14
 -1      4207 1.96616E+01 3.25643E-01-1.88662E-03 7.64700E-01 5.86036E-14 5.94162E-14
 -1      4208 1.96548E+01 2.23943E-01 7.00716E-03 9.18811E-01 8.67987E-14 6.69103E-14
 -1      4209 1.99278E+01 5.97373E-01-1.42595E-03 3.82482E-01 1.00208E-14 4.82612E-14
 -1      4210 1.98040E+01 4.96772E-01 2.42319E-03 5.10412E-01 1.66808E-14 6.35079E-14
 -1      4211 1.98845E+01 5.26207E-01-1.72729E-03 4.52619E-01 2.64221E-14 5.04368E-14
 -1      4212 1.93463E+01 3.05055E-01-4.04194E-03-7.50709E-01-1.46472E-13 4.76661E-14
 -1      4213 1.98398E+01 2.32149E-01 1.25335E-03-2.11220E-02-6.55676E-14-3.83996E-14
 -1      4214 1.97699E+01 2.76794E-01-1.37221E-03-8.03855E-02 3.69094E-15 6.13243E-14
 -1      4215 1.97776E+01 2.87486E-01 2.10209E-03-4.35314E-02-1.25425E-13 1.57584E-13
 -1      4216 1.92175E+01 1.65403E-01-1.18798E-02-1.14567E+00 7.67054E-14 8.25601E-15
 -1      4217 1.89528E+01 5.55687E-01 4.42593E-03-7.94452E-01-3.92015E-15-2.63919E-13
 -1      4218 1.88632E+01 4.71554E-01 4.47950E-03-1.06129E+00 2.60143E-14-1.18367E-13
 -1      4219 1.93627E+01 3.28099E-01 2.11518E-03 1.00682E+00 1.03167E-13 4.75091E-14
 -1      4220 1.98259E+01 2.46778E-01-6.21530E-05 5.25972E-04-8.21105E-14-1.12276E-13
 -1      4221 1.97914E+01 2.75886E-01-8.89312E-04-4.24673E-03-1.81829E-13-1.24742E-13
 -1      4222 1.91508E+01 3.90648E-01-9.94666E-03-8.11289E-01-5.09947E-14-1.89361E-13
 -1      4223 1.99906E+01 4.39222E-02 1.83597E-04 3.80273E-03 2.77967E-13-9.65181E-13
 -3
    1PSTEP                         3           1           1          
  100CL  101 1.000000000        4223                     0    1           1
 -4  TOSTRAIN    6    1
 -5  EXX         1    4    1    1
 -5  EYY         1    4    2    2
 -5  EZZ         1    4    3    3
 -5  EXY         1    4    1    2
 -5  EYZ         1    4    2    3
 -5  EZX         1    4    3    1
 -1         1 9.82046E-06-3.98803E-05 4.85887E-06-1.92875E-05-1.24167E-17-5.38607E-18
 -1         2 3.98127E-05-1.21438E-04 2.26584E-05-1.20361E-06 8.35005E-18-1.14977E-18
 -1         3 9.52376E-05-2.85706E-05-2.85715E-05 8.97109E-10 1.90561E-18-5.90338E-19
 -1         4 9.52375E-05-2.85708E-05-2.85714E-05-7.66823E-10 3.22784E-19 9.44446E-19
 -1         5 1.45679E-04 2.57667E-10-4.39939E-05 5.39216E-05-1.71524E-19 4.24702E-18
 -1         6 1.44837E-04 2.57092E-10-4.40834E-05-5.32567E-05-3.29496E-19-2.90109E-19
 -1         7 9.06280E-05-5.28653E-07-3.90455E-05-2.89996E-05-4.85985E-20-1.97909E-18
 -1         8 8.52427E-05 7.67491E-08-3.63740E-05-1.99413E-05 7.57036E-21-1.99414E-18
 -1         9 8.29552E-05 7.08575E-08-3.54028E-05-1.52563E-05 4.03399E-20-1.78620E-18
 -1        10 8.18892E-05 3.55617E-08-3.49278E-05-1.16771E-05 4.18620E-20-1.46295E-18
 -1        11 8.13131E-05 1.86475E-08-3.46810E-05-8.63802E-06 1.27055E-20-1.15821E-18
 -1        12 8.09850E-05 1.00007E-08-3.45463E-05-5.97589E-06 5.44004E-20-8.34043E-19
 -1        13 8.07940E-05 6.61773E-09-3.44709E-05-3.48261E-06 5.23812E-20-5.75321E-19
 -1        14 8.07072E-05 5.43713E-09-3.44378E-05-1.11482E-06 5.89358E-20-3.29330E-19
 -1        15 8.07107E-05 5.45929E-09-3.44399E-05 1.20765E-06 6.24319E-20-1.18346E-19
 -1        16 8.08062E-05 6.59136E-09-3.44775E-05 3.56414E-06 7.83357E-20 7.35314E-20
 -1        17 8.10101E-05 9.13748E-09-3.45581E-05 6.04035E-06 5.67893E-20 3.75967E-19
 -1        18 8.13531E-05 1.71804E-08-3.46986E-05 8.68549E-06 7.63388E-20 7.37880E-19
 -1        19 8.19435E-05 3.46745E-08-3.49506E-05 1.17190E-05 6.72068E-20 1.12544E-18
 -1        20 8.30196E-05 7.06917E-08-3.54295E-05 1.53069E-05 6.89273E-20 1.65156E-18
 -1        21 8.53133E-05 8.36361E-08-3.64069E-05 2.00143E-05 4.84926E-20 2.49602E-18
 -1        22 9.05011E-05-4.00294E-07-3.90523E-05 2.90304E-05-2.05405E-20 3.44885E-18
 -1        23 1.12797E-04-3.80697E-05-3.53470E-05-4.33632E-06-1.95400E-19-1.20914E-18
 -1        24 9.29372E-05-2.77390E-05-2.90337E-05 3.98181E-07-3.71139E-20-1.81742E-18
 -1        25 8.95003E-05-2.69678E-05-2.70425E-05 3.78872E-07-5.10602E-20-2.50432E-18
 -1        26 8.86588E-05-2.66825E-05-2.65865E-05 2.08231E-07-2.02577E-21-3.01405E-18
 -1        27 8.89888E-05-2.67517E-05-2.66711E-05 1.46503E-07-9.82405E-20-2.99631E-18
 -1        28 8.98810E-05-2.69951E-05-2.69487E-05 1.10972E-07-2.42465E-20-3.07457E-18
 -1        29 9.10474E-05-2.73303E-05-2.73041E-05 8.92275E-08 8.11371E-20-3.19831E-18
 -1        30 9.23158E-05-2.77016E-05-2.76853E-05 7.46152E-08-1.11079E-19-3.85157E-18
 -1        31 9.35541E-05-2.80665E-05-2.80543E-05 6.30992E-08 5.70434E-20-4.39525E-18
 -1        32 9.46347E-05-2.83854E-05-2.83731E-05 5.13527E-08-1.03183E-19-4.76759E-18
 -1        33 9.54142E-05-2.86148E-05-2.85988E-05 3.59563E-08 1.39316E-19-4.46488E-18
 -1        34 9.57257E-05-2.87048E-05-2.86819E-05 1.33544E-08-1.07341E-19-4.70622E-18
 -1        35 9.53880E-05-2.86016E-05-2.85697E-05-1.94223E-08 1.71045E-19-5.23224E-18
 -1        36 9.42360E-05-2.82564E-05-2.82163E-05-6.32033E-08 1.44742E-19-5.76292E-18
 -1        37 9.21773E-05-2.76420E-05-2.75992E-05-1.14528E-07-2.04646E-19-5.55283E-18
 -1        38 8.92649E-05-2.67742E-05-2.67395E-05-1.63857E-07 8.39741E-20-5.04315E-18
 -1        39 8.57637E-05-2.57318E-05-2.57187E-05-1.95971E-07 8.51257E-20-4.91699E-18
 -1        40 8.21687E-05-2.46618E-05-2.46815E-05-1.94303E-07-2.10771E-19-5.65938E-18
 -1        41 7.91344E-05-2.37588E-05-2.38135E-05-1.48960E-07 5.61374E-20-6.60735E-18
 -1        42 7.73102E-05-2.32159E-05-2.32948E-05-6.45806E-08 8.51152E-20-7.22097E-18
 -1        43 7.71294E-05-2.31624E-05-2.32445E-05 3.81194E-08-1.09424E-19-6.46954E-18
 -1        44 7.86519E-05-2.36160E-05-2.36788E-05 1.30134E-07 2.92184E-19-4.25089E-18
 -1        45 8.15427E-05-2.44769E-05-2.45065E-05 1.87455E-07-5.32439E-19-4.67268E-18
 -1        46 8.52009E-05-2.55663E-05-2.55618E-05 2.01102E-07 2.76766E-19-6.00779E-18
 -1        47 8.89665E-05-2.66879E-05-2.66589E-05 1.77913E-07 4.10029E-20-4.01429E-18
 -1        48 9.23051E-05-2.76831E-05-2.76432E-05 1.33674E-07-2.25812E-19-4.99659E-18
 -1        49 9.49028E-05-2.84586E-05-2.84198E-05 8.46196E-08-8.11890E-20-5.50304E-18
 -1        50 9.66677E-05-2.89868E-05-2.89562E-05 4.20693E-08-2.52297E-19-6.74741E-18
 -1        51 9.76710E-05-2.92887E-05-2.92685E-05 1.11370E-08-8.93082E-20-6.47479E-18
 -1        52 9.80713E-05-2.94111E-05-2.94003E-05-7.84436E-09 4.79054E-19-4.72771E-18
 -1        53 9.80511E-05-2.94079E-05-2.94040E-05-1.71195E-08-7.61232E-20-4.93129E-18
 -1        54 9.77760E-05-2.93281E-05-2.93285E-05-1.97112E-08 2.84861E-19-3.57658E-18
 -1        55 9.73762E-05-2.92105E-05-2.92131E-05-1.83707E-08-5.59251E-19-2.82976E-18
 -1        56 9.69425E-05-2.90821E-05-2.90854E-05-1.51613E-08-1.65404E-19-3.36337E-18
 -1        57 9.65316E-05-2.89600E-05-2.89631E-05-1.14249E-08 3.42997E-19-2.38044E-18
 -1        58 9.61734E-05-2.88532E-05-2.88558E-05-7.91859E-09 1.54962E-19-2.10012E-18
 -1        59 9.58798E-05-2.87654E-05-2.87674E-05-4.99096E-09 6.52395E-21-1.98055E-18
 -1        60 9.56509E-05-2.86968E-05-2.86981E-05-2.73771E-09-5.04087E-19-8.83365E-19
 -1        61 9.54806E-05-2.86456E-05-2.86464E-05-1.11682E-09 1.07716E-19-3.86852E-19
 -1        62 9.53599E-05-2.86092E-05-2.86097E-05-2.44624E-11-8.36154E-19-2.49819E-18
 -1        63 9.52791E-05-2.85848E-05-2.85849E-05 6.59784E-10 5.91753E-19-2.60534E-18
 -1        64 9.52291E-05-2.85696E-05-2.85696E-05 1.04919E-09-2.56178E-19-5.16990E-18
 -1        65 9.52022E-05-2.85613E-05-2.85612E-05 1.23949E-09 1.43176E-19-6.85112E-18
 -1        66 9.51918E-05-2.85580E-05-2.85579E-05 1.30593E-09 6.35402E-19-5.46929E-18
 -1        67 9.51929E-05-2.85582E-05-2.85581E-05 1.30329E-09-2.43064E-19-2.44908E-18
 -1        68 9.52011E-05-2.85605E-05-2.85604E-05 1.26617E-09 1.63233E-19-2.69065E-18
 -1        69 9.52132E-05-2.85641E-05-2.85639E-05 1.19669E-09-2.18207E-19-1.81650E-18
 -1        70 9.52259E-05-2.85678E-05-2.85675E-05 9.84303E-10 3.47157E-19 1.81737E-18
 -1        71 9.52354E-05-2.85709E-05-2.85701E-05 5.07476E-10 6.57138E-19 3.24413E-18
 -1        72 1.13682E-04-3.81762E-05-3.56499E-05 4.89885E-06-1.27928E-19 4.69193E-18
 -1        73 9.31842E-05-2.78169E-05-2.91733E-05-4.11930E-07-1.34797E-20 5.02644E-18
 -1        74 8.95357E-05-2.69770E-05-2.70757E-05-3.79904E-07-9.75081E-21 4.98857E-18
 -1        75 8.86567E-05-2.66864E-05-2.65918E-05-2.05719E-07 9.79216E-21 5.10721E-18
 -1        76 8.90575E-05-2.67795E-05-2.66945E-05-1.40116E-07 1.40075E-20 4.94280E-18
 -1        77 9.01616E-05-2.70897E-05-2.70387E-05-1.02199E-07-9.71859E-20 4.97093E-18
 -1        78 9.17634E-05-2.75579E-05-2.75320E-05-8.43840E-08-1.69493E-20 5.47734E-18
 -1        79 9.37325E-05-2.81472E-05-2.81336E-05-7.05153E-08 1.89797E-20 6.00373E-18
 -1        80 9.63578E-05-2.89348E-05-2.89378E-05-7.39917E-08 2.10695E-19 5.72885E-18
 -1        81 9.97803E-05-2.99638E-05-2.99901E-05-9.37981E-08-1.20156E-19 4.78828E-18
 -1        82 1.04364E-04-3.13398E-05-3.14051E-05-1.41719E-07 9.68099E-20 4.42331E-18
 -1        83 1.10634E-04-3.32157E-05-3.33435E-05-2.36051E-07-1.49971E-19 4.33224E-18
 -1        84 1.19243E-04-3.57845E-05-3.59913E-05-4.01054E-07 1.80646E-19 4.91589E-18
 -1        85 1.30745E-04-3.92046E-05-3.94646E-05-6.73349E-07 1.60192E-20 5.89138E-18
 -1        86 1.44369E-04-4.32708E-05-4.34127E-05-9.46959E-07 3.53256E-20 5.96650E-18
 -1        87 1.59437E-04-4.78398E-05-4.74022E-05-1.06463E-06 2.51946E-19 6.70612E-18
 -1        88 1.69236E-04-5.09670E-05-4.93918E-05-2.84958E-07-1.72133E-19 7.54385E-18
 -1        89 1.62981E-04-4.92619E-05-4.69931E-05 2.20294E-06 6.87553E-20 1.07098E-17
 -1        90 1.33478E-04-3.97625E-05-4.02283E-05 5.51521E-06-2.46381E-19 1.14993E-17
 -1        91 9.91669E-05-2.84681E-05-3.35119E-05 4.99791E-06 2.69198E-19 1.17901E-17
 -1        92 8.09281E-05-2.24616E-05-3.01100E-05 3.15660E-07-7.20772E-20 1.19258E-17
 -1        93 8.94268E-05-2.54749E-05-3.17214E-05-4.05367E-06-2.71342E-19 1.21976E-17
 -1        94 1.23375E-04-3.65790E-05-3.81689E-05-5.86365E-06 6.41892E-19 8.40638E-18
 -1        95 1.58380E-04-4.78568E-05-4.58520E-05-3.09014E-06 3.96120E-19 4.84143E-18
 -1        96 1.70375E-04-5.13681E-05-4.94911E-05-1.40399E-07-1.80478E-19 4.67022E-18
 -1        97 1.63517E-04-4.91048E-05-4.84058E-05 9.98251E-07 2.63626E-19 6.06801E-18
 -1        98 1.49126E-04-4.47063E-05-4.47563E-05 1.01462E-06-2.71139E-19 8.34243E-18
 -1        99 1.34632E-04-4.03665E-05-4.06286E-05 7.13592E-07 4.66829E-19 8.33300E-18
 -1       100 1.22894E-04-3.68682E-05-3.71028E-05 4.22873E-07 2.18116E-19 6.39129E-18
 -1       101 1.14561E-04-3.43968E-05-3.45447E-05 2.53065E-07-1.63719E-19 6.99373E-18
 -1       102 1.08338E-04-3.25309E-05-3.26171E-05 1.36294E-07-3.16397E-21 7.15801E-18
 -1       103 1.04054E-04-3.12447E-05-3.12887E-05 7.07224E-08-2.47985E-19 7.58461E-18
 -1       104 1.01135E-04-3.03641E-05-3.03852E-05 3.51857E-08 5.28185E-19 7.91677E-18
 -1       105 9.91515E-05-2.97640E-05-2.97732E-05 1.62032E-08 1.37192E-19 9.05899E-18
 -1       106 9.78058E-05-2.93559E-05-2.93591E-05 6.30801E-09-3.25001E-20 6.96764E-18
 -1       107 9.68945E-05-2.90782E-05-2.90793E-05-1.47626E-10 4.09680E-20 2.61779E-18
 -1       108 9.63021E-05-2.88987E-05-2.88979E-05-9.91897E-10 3.57813E-19 1.37276E-18
 -1       109 9.58783E-05-2.87691E-05-2.87682E-05-2.44842E-09-1.04153E-18 2.39073E-18
 -1       110 9.55968E-05-2.86831E-05-2.86821E-05-2.87938E-09 5.33075E-19 4.59614E-18
 -1       111 9.54132E-05-2.86269E-05-2.86259E-05-2.91599E-09-7.57007E-19 3.87484E-18
 -1       112 9.52972E-05-2.85913E-05-2.85904E-05-2.76221E-09 1.36664E-19 4.28117E-18
 -1       113 9.52278E-05-2.85699E-05-2.85691E-05-2.51759E-09-1.56907E-18 6.49453E-18
 -1       114 9.51904E-05-2.85582E-05-2.85576E-05-2.37614E-09 5.17533E-19 6.27215E-18
 -1       115 9.51751E-05-2.85533E-05-2.85528E-05-1.98542E-09 4.75129E-19 4.66124E-18
 -1       116 9.51731E-05-2.85525E-05-2.85521E-05-1.79353E-09 2.54872E-19 3.50783E-18
 -1       117 9.51806E-05-2.85545E-05-2.85543E-05-1.60534E-09 7.50406E-19 4.32107E-18
 -1       118 9.51938E-05-2.85583E-05-2.85581E-05-1.45794E-09 2.12388E-19 5.27558E-18
 -1       119 9.52094E-05-2.85629E-05-2.85627E-05-1.32497E-09-2.88537E-19 3.92387E-18
 -1       120 9.52245E-05-2.85674E-05-2.85670E-05-1.07118E-09-1.24744E-19 4.53706E-18
 -1       121 9.52352E-05-2.85708E-05-2.85700E-05-4.99303E-10-9.87883E-19 5.46124E-18
 -1       122 9.52380E-05-2.85737E-05-2.85701E-05-8.46841E-10 3.33207E-18-1.91304E-18
 -1       123 9.52408E-05-2.85834E-05-2.85673E-05-1.01143E-09-1.60300E-18-5.29491E-19
 -1       124 9.52447E-05-2.85961E-05-2.85638E-05-9.36311E-10 1.01238E-18 8.64591E-19
 -1       125 9.52481E-05-2.86076E-05-2.85605E-05-6.71029E-10-4.97283E-18 2.49352E-19
 -1       126 9.52506E-05-2.86159E-05-2.85580E-05-3.96387E-10-4.23969E-18-1.11794E-18
 -1       127 9.52520E-05-2.86209E-05-2.85564E-05-1.89516E-10-6.90211E-18 5.63592E-19
 -1       128 9.52527E-05-2.86232E-05-2.85557E-05-4.47119E-11-2.06102E-18 7.13630E-19
 -1       129 9.52528E-05-2.86234E-05-2.85556E-05 3.97699E-11-8.22308E-18 1.27101E-19
 -1       130 9.52524E-05-2.86222E-05-2.85559E-05 9.20272E-11-8.09945E-18-7.52856E-19
 -1       131 9.52517E-05-2.86198E-05-2.85566E-05 1.46401E-10-8.13824E-18-4.17181E-19
 -1       132 9.52506E-05-2.86161E-05-2.85578E-05 2.40263E-10-1.25643E-17 3.17865E-19
 -1       133 9.52490E-05-2.86107E-05-2.85595E-05 3.78947E-10-1.28170E-17 1.90628E-18
 -1       134 9.52467E-05-2.86029E-05-2.85618E-05 5.84002E-10-6.98683E-18 4.49743E-19
 -1       135 9.52437E-05-2.85928E-05-2.85647E-05 8.30743E-10-6.21582E-18-6.32745E-19
 -1       136 9.52405E-05-2.85821E-05-2.85678E-05 1.24068E-09-7.14829E-18-1.29504E-18
 -1       137 9.52379E-05-2.85736E-05-2.85701E-05 6.90398E-10-4.29287E-18 7.77175E-20
 -1       138 3.17908E-05-1.08651E-04 2.04936E-05-2.98417E-05 7.73045E-18 2.88087E-18
 -1       139 1.08299E-05-5.89416E-05 9.70532E-06-3.46811E-05 1.06489E-17 5.24155E-18
 -1       140 6.30453E-06-4.67036E-06-8.37297E-06 5.85088E-09 5.56967E-18 3.19416E-18
 -1       141 4.47822E-05 2.07961E-05-3.05786E-05 5.89464E-05-1.63901E-19 3.98105E-19
 -1       142 1.45711E-04-2.28607E-06-5.62424E-05 1.13300E-04-4.82809E-19-2.40811E-18
 -1       143 2.74221E-04-6.22191E-05-7.73268E-05 1.11301E-04-2.07745E-18-7.26543E-18
 -1       144 3.61883E-04-1.10378E-04-8.89743E-05 4.59395E-05-1.33319E-18-9.20492E-18
 -1       145 3.61011E-04-1.09494E-04-8.90403E-05-4.71252E-05 9.63566E-19-9.54945E-18
 -1       146 2.71927E-04-6.10329E-05-7.70779E-05-1.11096E-04 4.30843E-18-1.15840E-17
 -1       147 1.50820E-04-4.24907E-06-5.72219E-05-1.14059E-04 5.52647E-18-1.11808E-17
 -1       148 4.99627E-05 2.11924E-05-3.24264E-05-6.36793E-05 4.23855E-18-5.17283E-18
 -1       149 7.50766E-06-2.48790E-06-9.58999E-06-3.36120E-06 2.12986E-18-1.45859E-18
 -1       150 1.02984E-05-5.72376E-05 9.30167E-06 3.38886E-05-9.09290E-19 1.37219E-19
 -1       151 3.06749E-05-1.06152E-04 1.99841E-05 3.09647E-05-2.67959E-18 9.16596E-19
 -1       152 3.96753E-05-1.22104E-04 2.29053E-05 3.53478E-06-3.46082E-18-4.60574E-20
 -1       153 2.89228E-05-9.47880E-05 1.73237E-05-2.09951E-05-7.91573E-18-2.12581E-18
 -1       154 8.31054E-06 1.38337E-05-1.33497E-05 1.92388E-05-9.16278E-18-5.37993E-18
 -1       155 4.96741E-05 3.35382E-05-3.45978E-05 7.71760E-05-3.51138E-18-3.24160E-18
 -1       156 1.33035E-04 8.20605E-06-5.47407E-05 1.17716E-04 1.20067E-19 5.64971E-19
 -1       157 2.31270E-04-4.34241E-05-7.08658E-05 1.13401E-04 1.02756E-18 3.34790E-18
 -1       158 3.06756E-04-8.96258E-05-8.09270E-05 5.55462E-05 1.11318E-18 7.40137E-18
 -1       159 3.17286E-04-9.63975E-05-8.22269E-05-3.31458E-05-1.10977E-18 1.07828E-17
 -1       160 2.56925E-04-5.85897E-05-7.45128E-05-1.02462E-04-3.91324E-18 1.24806E-17
 -1       161 1.57226E-04-3.09720E-06-5.92865E-05-1.21692E-04-5.46484E-18 9.47533E-18
 -1       162 6.54373E-05 3.11300E-05-3.92971E-05-8.82532E-05-2.99087E-18 5.00300E-18
 -1       163 1.21996E-05 2.12871E-05-1.73310E-05-2.98936E-05-7.95787E-19 4.95514E-20
 -1       164 7.50435E-06-2.83459E-05 1.65053E-06 1.39152E-05 1.10368E-18-2.57498E-19
 -1       165 2.65860E-05-8.92284E-05 1.62379E-05 2.31664E-05 6.08085E-18-6.70850E-19
 -1       166 9.50228E-05-1.24417E-05-3.55922E-05-2.19948E-05-2.19567E-19-1.76458E-18
 -1       167 8.94319E-05-8.51382E-06-3.48398E-05-1.69874E-05 4.74008E-20-1.60370E-18
 -1       168 8.66969E-05-6.51854E-06-3.44718E-05-1.31731E-05 2.59980E-19-1.46436E-18
 -1       169 8.52427E-05-5.45848E-06-3.42752E-05-9.95942E-06 4.15054E-19-1.19227E-18
 -1       170 8.43953E-05-4.82414E-06-3.41696E-05-7.18973E-06 5.02975E-19-8.64093E-19
 -1       171 8.38703E-05-4.41948E-06-3.41103E-05-4.63508E-06 5.54015E-19-6.31344E-19
 -1       172 8.35796E-05-4.18864E-06-3.40807E-05-2.24798E-06 6.71789E-19-2.99982E-19
 -1       173 8.34828E-05-4.10605E-06-3.40734E-05 5.40215E-08 7.63497E-19-1.21205E-19
 -1       174 8.35726E-05-4.16791E-06-3.40865E-05 2.34852E-06 8.28174E-19 1.40952E-21
 -1       175 8.38652E-05-4.38653E-06-3.41220E-05 4.71581E-06 7.63005E-19 2.24252E-19
 -1       176 8.43940E-05-4.78416E-06-3.41859E-05 7.20133E-06 7.21191E-19 5.26318E-19
 -1       177 8.52789E-05-5.44230E-06-3.42976E-05 9.99766E-06 8.14171E-19 9.08430E-19
 -1       178 8.67678E-05-6.53244E-06-3.44963E-05 1.32073E-05 6.83791E-19 1.29963E-18
 -1       179 8.95365E-05-8.56322E-06-3.48630E-05 1.70383E-05 4.64220E-19 1.88111E-18
 -1       180 9.51468E-05-1.25516E-05-3.55868E-05 2.20999E-05 9.53574E-20 2.65952E-18
 -1       181 1.03515E-04-2.73563E-05-3.26368E-05-1.18683E-05-2.19540E-19-1.48638E-18
 -1       182 9.73957E-05-2.83760E-05-2.96141E-05-4.47760E-06-2.66776E-19-1.48939E-18
 -1       183 9.39958E-05-2.77748E-05-2.83318E-05-1.49564E-06-2.77106E-19-1.44838E-18
 -1       184 9.26905E-05-2.76073E-05-2.78570E-05-1.04542E-07 1.00304E-20-1.60443E-18
 -1       185 9.23824E-05-2.76109E-05-2.77407E-05 6.14099E-07 6.08863E-20-1.30207E-18
 -1       186 9.26461E-05-2.77442E-05-2.78066E-05 9.90953E-07-1.73886E-19-1.32319E-18
 -1       187 9.32224E-05-2.79552E-05-2.79682E-05 1.15837E-06-3.28828E-19-1.53911E-18
 -1       188 9.39403E-05-2.82042E-05-2.81723E-05 1.17010E-06-1.71980E-19-1.39135E-18
 -1       189 9.46677E-05-2.84581E-05-2.83774E-05 1.03954E-06-2.46166E-19-1.18347E-18
 -1       190 9.52843E-05-2.86846E-05-2.85465E-05 7.57658E-07 2.49196E-20-1.19479E-18
 -1       191 9.56681E-05-2.88475E-05-2.86428E-05 3.06798E-07-4.81480E-19-2.17732E-18
 -1       192 9.56926E-05-2.89040E-05-2.86301E-05-3.22881E-07-3.26884E-19-2.53340E-18
 -1       193 9.52378E-05-2.88066E-05-2.84771E-05-1.11203E-06-2.30928E-19-2.46993E-18
 -1       194 9.42154E-05-2.85108E-05-2.81648E-05-1.98858E-06 8.93123E-20-2.38997E-18
 -1       195 9.26087E-05-2.79906E-05-2.76969E-05-2.81143E-06 1.27485E-19-2.21638E-18
 -1       196 9.05173E-05-2.72616E-05-2.71098E-05-3.37719E-06 8.25121E-20-2.47005E-18
 -1       197 8.81869E-05-2.64017E-05-2.64759E-05-3.46556E-06-3.05165E-19-2.35610E-18
 -1       198 8.59975E-05-2.55574E-05-2.58960E-05-2.92306E-06-8.06110E-19-2.87623E-18
 -1       199 8.43882E-05-2.49161E-05-2.54787E-05-1.75477E-06-4.61090E-19-3.24995E-18
 -1       200 8.37290E-05-2.46456E-05-2.53111E-05-1.68202E-07 6.16928E-20-3.55946E-18
 -1       201 8.41904E-05-2.48249E-05-2.54325E-05 1.47624E-06 1.03428E-18-3.00677E-18
 -1       202 8.56776E-05-2.54089E-05-2.58215E-05 2.79794E-06-1.00656E-19-2.62119E-18
 -1       203 8.78701E-05-2.62492E-05-2.64041E-05 3.54065E-06-1.08292E-19-7.83563E-19
 -1       204 9.03417E-05-2.71593E-05-2.70769E-05 3.64786E-06 6.97794E-19-7.91825E-19
 -1       205 9.26960E-05-2.79807E-05-2.77371E-05 3.23970E-06-3.03769E-19-5.83814E-19
 -1       206 9.46563E-05-2.86196E-05-2.83059E-05 2.52732E-06-3.94076E-19-8.61357E-19
 -1       207 9.60929E-05-2.90478E-05-2.87394E-05 1.72298E-06-7.36367E-19-2.09743E-18
 -1       208 9.70003E-05-2.92843E-05-2.90270E-05 9.83517E-07 1.96932E-19-1.83712E-18
 -1       209 9.74525E-05-2.93711E-05-2.91829E-05 3.94070E-07 1.10079E-18-8.36953E-19
 -1       210 9.75595E-05-2.93552E-05-2.92344E-05-2.07483E-08 8.80559E-20-6.08713E-19
 -1       211 9.74345E-05-2.92779E-05-2.92128E-05-2.75350E-07 9.29318E-19 2.67570E-19
 -1       212 9.71755E-05-2.91710E-05-2.91464E-05-4.02735E-07 1.95513E-19-2.54660E-19
 -1       213 9.68572E-05-2.90565E-05-2.90582E-05-4.40022E-07-5.21077E-21-2.23439E-19
 -1       214 9.65314E-05-2.89478E-05-2.89645E-05-4.20354E-07 9.11917E-19 6.50784E-22
 -1       215 9.62296E-05-2.88522E-05-2.88757E-05-3.69597E-07-1.45333E-19-1.97903E-18
 -1       216 9.59684E-05-2.87727E-05-2.87976E-05-3.05977E-07 4.83176E-19-1.71919E-18
 -1       217 9.57538E-05-2.87094E-05-2.87327E-05-2.41148E-07 2.05780E-19-1.15445E-18
 -1       218 9.55850E-05-2.86609E-05-2.86811E-05-1.81748E-07 1.45324E-19 8.50623E-19
 -1       219 9.54575E-05-2.86253E-05-2.86418E-05-1.30911E-07-7.94148E-19 3.86580E-19
 -1       220 9.53652E-05-2.86001E-05-2.86131E-05-8.95230E-08-9.53503E-19 1.32520E-18
 -1       221 9.53015E-05-2.85833E-05-2.85931E-05-5.71609E-08-1.35485E-18-2.98733E-19
 -1       222 9.52602E-05-2.85728E-05-2.85800E-05-3.27494E-08-5.96039E-19-1.13061E-18
 -1       223 9.52358E-05-2.85670E-05-2.85721E-05-1.49872E-08 1.23963E-18 4.92276E-19
 -1       224 9.52238E-05-2.85647E-05-2.85680E-05-2.61542E-09 1.24648E-18-1.25862E-18
 -1       225 9.52203E-05-2.85646E-05-2.85666E-05 5.41682E-09 8.25833E-19-1.06477E-18
 -1       226 9.52223E-05-2.85661E-05-2.85669E-05 9.84267E-09 9.86816E-19-1.15138E-18
 -1       227 9.52271E-05-2.85684E-05-2.85680E-05 1.09555E-08 2.39984E-18-8.12164E-19
 -1       228 9.52327E-05-2.85713E-05-2.85692E-05 8.67555E-09 8.35318E-19 1.72645E-18
 -1       229 1.03724E-04-2.71554E-05-3.28133E-05 1.23314E-05-2.30552E-20 2.97949E-18
 -1       230 9.75934E-05-2.83554E-05-2.97123E-05 4.67297E-06 4.55413E-20 2.90656E-18
 -1       231 9.41538E-05-2.77891E-05-2.83940E-05 1.52916E-06 1.81384E-20 2.82285E-18
 -1       232 9.28845E-05-2.76340E-05-2.79260E-05 1.69366E-08 1.08486E-19 2.59760E-18
 -1       233 9.27239E-05-2.76679E-05-2.78588E-05-8.55196E-07 7.53049E-20 2.43785E-18
 -1       234 9.32894E-05-2.78619E-05-2.80265E-05-1.47425E-06-2.06264E-19 2.35253E-18
 -1       235 9.43362E-05-2.81675E-05-2.83469E-05-2.00026E-06-2.16940E-19 2.26894E-18
 -1       236 9.59284E-05-2.86048E-05-2.88415E-05-2.61927E-06 2.46831E-19 2.30618E-18
 -1       237 9.80710E-05-2.91732E-05-2.95144E-05-3.43322E-06 5.29736E-19 2.33680E-18
 -1       238 1.00894E-04-2.99052E-05-3.04083E-05-4.57127E-06 6.50819E-19 2.02197E-18
 -1       239 1.04598E-04-3.08590E-05-3.15867E-05-6.16998E-06 9.28312E-20 1.67626E-18
 -1       240 1.09435E-04-3.21276E-05-3.31206E-05-8.32543E-06-3.27875E-19 2.08191E-18
 -1       241 1.15651E-04-3.38691E-05-3.50507E-05-1.09632E-05-3.18524E-19 2.03432E-18
 -1       242 1.22960E-04-3.61959E-05-3.72031E-05-1.34107E-05-9.07086E-20 1.86556E-18
 -1       243 1.31983E-04-3.97737E-05-3.95392E-05-1.43583E-05-4.57940E-19 2.25663E-18
 -1       244 1.41571E-04-4.48861E-05-4.14220E-05-1.04991E-05-1.04394E-18 3.34183E-18
 -1       245 1.49784E-04-5.06750E-05-4.24452E-05 1.99456E-06-1.53497E-18 4.00619E-18
 -1       246 1.52013E-04-5.21675E-05-4.29013E-05 2.09533E-05-6.58456E-19 4.60362E-18
 -1       247 1.46041E-04-4.38390E-05-4.44809E-05 3.07944E-05-2.78092E-19 4.98921E-18
 -1       248 1.38278E-04-3.23034E-05-4.62898E-05 1.96495E-05 2.02335E-19 5.64009E-18
 -1       249 1.35377E-04-2.83984E-05-4.68334E-05-5.23928E-06 5.06526E-19 4.58180E-18
 -1       250 1.42193E-04-3.80456E-05-4.54271E-05-2.83223E-05 1.75886E-18 3.06893E-18
 -1       251 1.51590E-04-5.08339E-05-4.34399E-05-2.54055E-05 1.06804E-18 3.36256E-18
 -1       252 1.51491E-04-5.18473E-05-4.26628E-05-6.43751E-06 8.80358E-19 3.88491E-18
 -1       253 1.44370E-04-4.64962E-05-4.18965E-05 8.22427E-06-1.08398E-18 2.25986E-18
 -1       254 1.35030E-04-4.10652E-05-4.02812E-05 1.38098E-05-9.83518E-19 2.52412E-18
 -1       255 1.25963E-04-3.71843E-05-3.80683E-05 1.35742E-05-3.14689E-19 2.82212E-18
 -1       256 1.18201E-04-3.45975E-05-3.58345E-05 1.10966E-05 1.03747E-18 3.83690E-18
 -1       257 1.12270E-04-3.29062E-05-3.40042E-05 8.44677E-06 5.09911E-19 3.45719E-18
 -1       258 1.07462E-04-3.16441E-05-3.24780E-05 6.07423E-06-1.21537E-18 2.44576E-18
 -1       259 1.03916E-04-3.07495E-05-3.13413E-05 4.26480E-06-6.59399E-19 2.85177E-18
 -1       260 1.01342E-04-3.01078E-05-3.05158E-05 2.96084E-06-9.80490E-20 2.75112E-18
 -1       261 9.94963E-05-2.96470E-05-2.99252E-05 2.04552E-06-3.12238E-19 3.57545E-18
 -1       262 9.81820E-05-2.93168E-05-2.95061E-05 1.41028E-06 1.31744E-18 3.72427E-18
 -1       263 9.72519E-05-2.90815E-05-2.92104E-05 9.70465E-07 1.86999E-18 4.04471E-18
 -1       264 9.66221E-05-2.89208E-05-2.90110E-05 6.78416E-07 7.42636E-19 3.41859E-18
 -1       265 9.61520E-05-2.88001E-05-2.88623E-05 4.63458E-07-8.85588E-20 4.17528E-18
 -1       266 9.58250E-05-2.87160E-05-2.87590E-05 3.13130E-07-7.32368E-19 3.34645E-18
 -1       267 9.55997E-05-2.86581E-05-2.86879E-05 2.08153E-07 5.02179E-19 3.32300E-18
 -1       268 9.54470E-05-2.86189E-05-2.86396E-05 1.34758E-07-6.58289E-19 2.83916E-18
 -1       269 9.53461E-05-2.85933E-05-2.86076E-05 8.35600E-08-4.22940E-19 2.56939E-18
 -1       270 9.52818E-05-2.85774E-05-2.85871E-05 4.80090E-08-3.90707E-19 2.49749E-19
 -1       271 9.52448E-05-2.85685E-05-2.85752E-05 2.46150E-08 6.59388E-19 1.93910E-18
 -1       272 9.52235E-05-2.85638E-05-2.85682E-05 7.87047E-09-2.28565E-19 2.13731E-18
 -1       273 9.52148E-05-2.85624E-05-2.85651E-05-3.12997E-09-2.07976E-19 4.77354E-18
 -1       274 9.52142E-05-2.85631E-05-2.85646E-05-9.82152E-09-2.44487E-19 3.70618E-18
 -1       275 9.52185E-05-2.85652E-05-2.85656E-05-1.31006E-08 1.22254E-19 2.80463E-18
 -1       276 9.52250E-05-2.85680E-05-2.85673E-05-1.32215E-08-1.19596E-18 3.74267E-18
 -1       277 9.52320E-05-2.85714E-05-2.85688E-05-9.99356E-09 1.00229E-18 9.85702E-19
 -1       278 9.52374E-05-2.85768E-05-2.85688E-05-9.72041E-09 3.25502E-18-2.54124E-18
 -1       279 9.52409E-05-2.85836E-05-2.85675E-05-1.17239E-08 1.17538E-18 2.95069E-19
 -1       280 9.52435E-05-2.85899E-05-2.85658E-05-1.04580E-08 4.37574E-19-2.83176E-18
 -1       281 9.52452E-05-2.85947E-05-2.85645E-05-7.59536E-09-1.64270E-18 3.50649E-19
 -1       282 9.52460E-05-2.85977E-05-2.85635E-05-4.54146E-09-1.76034E-18-2.43817E-18
 -1       283 9.52462E-05-2.85991E-05-2.85630E-05-1.93345E-09-3.59705E-18 5.07244E-19
 -1       284 9.52460E-05-2.85993E-05-2.85629E-05-6.87908E-11-3.69437E-18-2.84284E-18
 -1       285 9.52457E-05-2.85988E-05-2.85630E-05 1.18924E-09-2.27190E-18 4.18901E-19
 -1       286 9.52454E-05-2.85978E-05-2.85633E-05 2.20613E-09-2.78721E-18-1.17839E-18
 -1       287 9.52451E-05-2.85963E-05-2.85638E-05 3.39720E-09-4.93571E-18-8.84752E-19
 -1       288 9.52446E-05-2.85942E-05-2.85645E-05 5.01204E-09-5.29200E-18-1.53385E-18
 -1       289 9.52438E-05-2.85911E-05-2.85654E-05 7.07504E-09-5.88247E-18 3.73759E-18
 -1       290 9.52424E-05-2.85868E-05-2.85667E-05 9.11237E-09-4.47935E-18 1.53491E-18
 -1       291 9.52401E-05-2.85814E-05-2.85680E-05 9.76625E-09-1.26307E-18-5.42568E-19
 -1       292 9.52373E-05-2.85761E-05-2.85691E-05 1.09483E-08 3.50938E-19 9.19347E-19
 -1       293 1.11697E-05-5.22613E-05 1.41422E-05-1.40557E-06 3.95437E-18-1.43254E-19
 -1       294 2.27445E-05-5.16058E-05 8.79909E-06 1.11460E-05 2.98431E-18 2.65841E-18
 -1       295 5.06899E-05-4.69066E-05-4.36099E-06 2.69212E-05 2.89516E-18-2.24310E-18
 -1       296 9.06154E-05-4.40551E-05-2.16213E-05 3.65295E-05 1.61317E-18-2.28275E-18
 -1       297 1.48616E-04-5.00882E-05-4.20187E-05 3.47639E-05-9.42324E-20-2.22156E-18
 -1       298 1.99435E-04-4.80628E-05-6.19515E-05 3.06692E-05 8.55397E-19-1.63266E-18
 -1       299 2.31658E-04-4.58296E-05-7.47941E-05 1.21723E-05 6.62380E-19-2.11779E-18
 -1       300 2.47259E-04-4.65061E-05-8.00552E-05-2.53626E-07 5.00808E-19-4.70822E-18
 -1       301 2.26886E-04-4.41930E-05-7.40119E-05-9.69073E-06 1.91927E-18-4.33999E-18
 -1       302 1.99356E-04-4.91687E-05-6.17659E-05-2.43886E-05 1.81077E-18-4.29276E-18
 -1       303 1.52571E-04-5.04507E-05-4.33166E-05-3.45005E-05-2.30816E-20-4.43697E-18
 -1       304 9.32926E-05-4.35031E-05-2.29364E-05-3.73777E-05 4.44692E-19-3.54441E-18
 -1       305 5.39114E-05-4.71615E-05-5.37852E-06-2.90398E-05-5.08432E-19-2.05699E-18
 -1       306 2.37788E-05-5.13182E-05 8.25640E-06-1.20879E-05-9.34066E-19-5.15843E-19
 -1       307 1.17032E-05-5.22475E-05 1.39441E-05-4.15031E-07-1.62419E-18-2.19911E-19
 -1       308 1.23056E-05-4.83114E-05 1.25379E-05 1.39839E-05-2.34999E-18-2.61447E-18
 -1       309 2.58538E-05-4.59500E-05 5.74296E-06 2.40383E-05-3.67019E-18-3.62678E-18
 -1       310 4.94113E-05-3.61931E-05-7.51044E-06 3.68247E-05-4.64788E-18-8.88696E-19
 -1       311 8.55102E-05-2.87446E-05-2.47515E-05 4.85814E-05-3.98338E-18-1.25996E-19
 -1       312 1.29450E-04-2.71040E-05-4.28209E-05 5.35324E-05-2.25967E-18 1.56553E-18
 -1       313 1.72764E-04-3.03373E-05-5.86872E-05 4.79428E-05-1.09836E-18 1.81286E-18
 -1       314 2.07060E-04-3.53942E-05-7.02510E-05 3.07350E-05-1.43826E-18 4.64746E-18
 -1       315 2.18510E-04-3.57383E-05-7.48570E-05 3.42690E-06-1.27934E-18 6.02330E-18
 -1       316 2.13446E-04-3.63262E-05-7.24096E-05-2.41273E-05-1.68750E-18 5.57792E-18
 -1       317 1.83286E-04-3.16592E-05-6.23483E-05-4.44563E-05-1.40224E-18 5.29946E-18
 -1       318 1.43105E-04-3.21511E-05-4.64660E-05-4.74165E-05-5.61159E-20 4.46471E-18
 -1       319 9.38081E-05-2.76694E-05-2.84989E-05-5.06494E-05 7.36707E-19 3.42604E-18
 -1       320 5.54076E-05-3.41715E-05-1.06506E-05-3.98178E-05 6.02240E-19 3.40401E-19
 -1       321 2.90232E-05-4.33849E-05 3.65959E-06-2.80457E-05 2.07438E-18 8.32104E-19
 -1       322 1.41331E-05-5.26313E-05 1.30173E-05-1.34987E-05 2.04537E-18 1.09479E-18
 -1       323 9.18156E-05-1.44634E-05-3.32285E-05-1.25071E-05 1.36636E-19-1.20781E-18
 -1       324 9.59363E-05-1.91890E-05-3.29534E-05-1.42160E-05-5.48454E-20-1.41705E-18
 -1       325 8.79407E-05-1.01877E-05-3.33771E-05-7.70091E-06 4.91918E-19-7.91817E-19
 -1       326 8.69843E-05-9.15626E-06-3.34021E-05-5.34088E-06 6.47826E-19-5.53983E-19
 -1       327 8.64028E-05-8.52936E-06-3.34176E-05-3.10665E-06 7.79099E-19-2.64738E-19
 -1       328 8.61186E-05-8.21961E-06-3.34268E-05-9.62978E-07 9.28180E-19-6.21874E-20
 -1       329 8.61065E-05-8.19783E-06-3.34309E-05 1.14034E-06 9.71686E-19 9.18568E-20
 -1       330 8.63752E-05-8.47316E-06-3.34297E-05 3.25961E-06 8.99386E-19 7.70337E-20
 -1       331 8.69492E-05-9.07467E-06-3.34218E-05 5.41524E-06 9.08321E-19 3.50926E-19
 -1       332 8.79337E-05-1.01200E-05-3.34025E-05 7.73063E-06 9.40447E-19 7.54008E-19
 -1       333 8.94901E-05-1.18014E-05-3.33599E-05 1.01772E-05 8.68330E-19 9.25691E-19
 -1       334 9.19678E-05-1.45615E-05-3.32497E-05 1.25507E-05 5.75979E-19 1.20104E-18
 -1       335 9.61065E-05-1.93891E-05-3.29418E-05 1.41443E-05 2.41593E-19 1.92321E-18
 -1       336 1.02401E-04-5.98928E-05-1.83973E-05 3.71786E-05 1.51735E-18-3.56818E-18
 -1       337 9.67875E-05-2.61045E-05-3.02478E-05-5.89398E-06-1.90149E-19-1.20825E-18
 -1       338 9.54202E-05-2.71299E-05-2.92416E-05-2.31403E-06-5.99938E-20-9.37225E-19
 -1       339 9.46291E-05-2.75711E-05-2.87243E-05-3.11221E-07 2.13457E-19-9.53981E-19
 -1       340 9.43351E-05-2.78555E-05-2.84843E-05 8.41703E-07 7.77405E-21-9.56126E-19
 -1       341 9.44056E-05-2.81110E-05-2.84092E-05 1.47758E-06-1.04059E-19-6.07056E-19
 -1       342 9.47165E-05-2.83792E-05-2.84299E-05 1.76024E-06-1.41866E-19-2.36180E-19
 -1       343 9.51658E-05-2.86721E-05-2.84987E-05 1.76067E-06 7.92950E-20-3.66491E-19
 -1       344 9.56659E-05-2.89879E-05-2.85792E-05 1.49561E-06-3.12363E-19-3.60251E-19
 -1       345 9.61324E-05-2.93117E-05-2.86420E-05 9.52219E-07-7.89513E-19-8.43156E-19
 -1       346 9.64745E-05-2.96092E-05-2.86626E-05 1.12077E-07-7.51819E-19-8.35761E-19
 -1       347 9.65902E-05-2.98199E-05-2.86229E-05-1.01886E-06-2.38640E-19-1.07184E-18
 -1       348 9.63701E-05-2.98552E-05-2.85135E-05-2.37332E-06 7.01383E-20-8.51007E-19
 -1       349 9.57171E-05-2.96113E-05-2.83371E-05-3.78657E-06-6.93173E-20-8.32853E-19
 -1       350 9.45861E-05-2.90039E-05-2.81098E-05-4.98006E-06-1.69567E-19-1.58997E-18
 -1       351 9.30398E-05-2.80282E-05-2.78612E-05-5.59355E-06 3.62139E-20-1.77651E-18
 -1       352 9.12963E-05-2.68178E-05-2.76282E-05-5.28856E-06-7.38022E-19-1.36653E-18
 -1       353 8.97226E-05-2.56560E-05-2.74476E-05-3.90688E-06-7.18793E-19-8.05379E-19
 -1       354 8.87378E-05-2.48962E-05-2.73487E-05-1.60962E-06-4.74768E-19-1.44958E-18
 -1       355 8.86451E-05-2.48041E-05-2.73481E-05 1.11036E-06 4.97963E-19-1.38625E-18
 -1       356 8.94866E-05-2.54157E-05-2.74484E-05 3.59398E-06 7.58562E-19-1.76571E-18
 -1       357 9.10224E-05-2.65165E-05-2.76384E-05 5.28200E-06 6.37544E-19-1.30567E-18
 -1       358 9.28508E-05-2.77600E-05-2.78936E-05 5.92104E-06 5.29587E-19-5.79433E-19
 -1       359 9.45840E-05-2.88352E-05-2.81797E-05 5.59653E-06 2.86424E-19-7.53936E-19
 -1       360 9.59662E-05-2.95703E-05-2.84602E-05 4.61432E-06 1.77441E-19-5.56188E-19
 -1       361 9.69003E-05-2.99402E-05-2.87034E-05 3.33847E-06-4.81335E-19 1.55087E-19
 -1       362 9.74097E-05-3.00161E-05-2.88893E-05 2.06972E-06-2.44999E-19 1.12461E-18
 -1       363 9.75804E-05-2.99023E-05-2.90105E-05 9.95010E-07 1.01143E-18 6.75652E-19
 -1       364 9.75150E-05-2.96940E-05-2.90704E-05 1.92644E-07 7.88937E-19-1.74785E-19
 -1       365 9.73055E-05-2.94596E-05-2.90797E-05-3.36458E-07 9.10163E-19 1.73380E-19
 -1       366 9.70237E-05-2.92397E-05-2.90520E-05-6.34105E-07 4.42785E-19 2.13274E-19
 -1       367 9.67203E-05-2.90530E-05-2.90010E-05-7.57808E-07 7.55992E-19 2.05114E-18
 -1       368 9.64273E-05-2.89049E-05-2.89383E-05-7.63969E-07 1.42143E-19 2.57934E-18
 -1       369 9.61633E-05-2.87929E-05-2.88728E-05-6.99648E-07-1.05814E-18 1.69760E-18
 -1       370 9.59368E-05-2.87114E-05-2.88104E-05-6.00042E-07 4.81242E-20 1.28292E-18
 -1       371 9.57501E-05-2.86543E-05-2.87548E-05-4.89143E-07 1.74690E-19 7.43462E-19
 -1       372 9.56011E-05-2.86155E-05-2.87076E-05-3.81794E-07 1.42878E-18 8.79044E-19
 -1       373 9.54861E-05-2.85903E-05-2.86691E-05-2.86059E-07 3.98960E-19 7.40404E-19
 -1       374 9.53998E-05-2.85747E-05-2.86389E-05-2.05371E-07 2.96174E-19 1.99970E-18
 -1       375 9.53374E-05-2.85657E-05-2.86161E-05-1.40258E-07-1.59274E-18 2.86573E-18
 -1       376 9.52939E-05-2.85613E-05-2.85994E-05-8.96081E-08-1.19521E-18 3.38656E-18
 -1       377 9.52651E-05-2.85599E-05-2.85877E-05-5.15407E-08 6.95097E-19 3.52715E-18
 -1       378 9.52474E-05-2.85605E-05-2.85800E-05-2.39753E-08 5.84829E-19 3.63705E-18
 -1       379 9.52377E-05-2.85623E-05-2.85751E-05-4.98526E-09 2.23109E-19 2.54599E-18
 -1       380 9.52336E-05-2.85650E-05-2.85722E-05 6.97615E-09-2.52058E-19 1.77424E-18
 -1       381 9.52332E-05-2.85685E-05-2.85706E-05 1.30591E-08 1.28940E-18 1.94466E-18
 -1       382 9.52345E-05-2.85720E-05-2.85696E-05 1.39807E-08 2.46190E-18 7.30939E-19
 -1       383 9.55498E-05-2.70146E-05-2.93420E-05 2.25307E-06 2.36256E-19 1.57686E-18
 -1       384 9.68542E-05-2.59586E-05-3.03372E-05 5.98328E-06 2.22306E-19 1.77172E-18
 -1       385 9.48342E-05-2.74561E-05-2.88576E-05 1.22828E-08 2.58864E-19 1.37435E-18
 -1       386 9.46593E-05-2.76968E-05-2.86884E-05-1.47840E-06 8.51231E-20 1.25574E-18
 -1       387 9.49035E-05-2.78492E-05-2.87299E-05-2.57544E-06-1.46458E-19 1.07784E-18
 -1       388 9.55142E-05-2.79768E-05-2.89367E-05-3.65540E-06 6.33426E-20 9.97807E-19
 -1       389 9.64304E-05-2.80644E-05-2.92899E-05-4.86729E-06 3.49700E-19 7.97564E-19
 -1       390 9.76249E-05-2.81002E-05-2.97834E-05-6.39990E-06 6.76731E-19 8.77083E-19
 -1       391 9.90896E-05-2.80785E-05-3.04168E-05-8.43541E-06 4.45035E-19 1.21158E-18
 -1       392 1.00837E-04-2.80370E-05-3.11808E-05-1.11263E-05-3.24376E-19 1.29462E-18
 -1       393 1.02932E-04-2.81500E-05-3.20304E-05-1.45196E-05-1.50056E-19 9.37251E-19
 -1       394 1.05475E-04-2.88496E-05-3.28272E-05-1.81791E-05 3.61064E-21 9.09031E-19
 -1       395 1.09468E-04-3.13482E-05-3.34699E-05-2.16360E-05-4.75391E-19 1.02678E-18
 -1       396 1.16493E-04-3.77142E-05-3.37436E-05-2.27102E-05-1.09161E-18 1.60484E-18
 -1       397 1.29471E-04-5.00257E-05-3.39638E-05-1.76222E-05-1.14316E-18 7.35592E-19
 -1       398 1.49071E-04-6.46636E-05-3.62935E-05-1.33531E-06-1.01002E-18 1.02147E-19
 -1       399 1.69615E-04-4.09506E-05-5.55582E-05 2.62142E-05 1.36478E-19 1.66040E-18
 -1       400 1.72737E-04-3.09133E-05-6.06028E-05-1.77453E-05 1.42407E-18 1.41804E-18
 -1       401 1.68541E-04-5.53319E-05-4.89758E-05-2.50583E-05 1.67559E-18 2.55762E-18
 -1       402 1.55287E-04-6.60076E-05-3.84520E-05-5.78279E-06 3.88219E-19 1.14825E-18
 -1       403 1.35587E-04-5.37617E-05-3.49846E-05 1.31872E-05 6.47292E-19 2.41068E-18
 -1       404 1.21145E-04-4.05960E-05-3.44978E-05 2.11111E-05-1.07589E-18 2.05097E-18
 -1       405 1.12896E-04-3.30887E-05-3.42029E-05 2.13154E-05-4.45778E-19 1.00545E-18
 -1       406 1.08219E-04-2.99024E-05-3.35555E-05 1.82080E-05-5.58070E-19 9.87629E-19
 -1       407 1.05310E-04-2.88710E-05-3.27425E-05 1.44743E-05-9.85668E-21 2.33249E-18
 -1       408 1.03021E-04-2.86164E-05-3.18677E-05 1.08469E-05 4.43400E-19 3.07452E-18
 -1       409 1.01220E-04-2.86250E-05-3.10938E-05 7.90124E-06-1.05793E-18 1.02449E-18
 -1       410 9.97771E-05-2.86729E-05-3.04587E-05 5.66335E-06-5.54925E-19 1.40510E-18
 -1       411 9.86325E-05-2.86991E-05-2.99607E-05 4.02290E-06 1.49604E-20 1.49293E-18
 -1       412 9.77397E-05-2.86991E-05-2.95812E-05 2.84313E-06 1.62524E-19 1.00197E-18
 -1       413 9.70559E-05-2.86829E-05-2.92973E-05 2.00259E-06 3.42330E-19 1.32392E-18
 -1       414 9.65596E-05-2.86594E-05-2.90964E-05 1.43035E-06 5.48855E-19 3.07327E-18
 -1       415 9.61667E-05-2.86344E-05-2.89398E-05 9.99047E-07 5.37699E-19 2.35678E-18
 -1       416 9.58776E-05-2.86120E-05-2.88263E-05 6.92569E-07-5.14934E-19 3.31203E-18
 -1       417 9.56676E-05-2.85940E-05-2.87445E-05 4.74570E-07 8.94783E-20 3.34842E-18
 -1       418 9.55172E-05-2.85805E-05-2.86863E-05 3.19503E-07-8.99552E-19 3.30963E-18
 -1       419 9.54116E-05-2.85711E-05-2.86453E-05 2.09407E-07-6.82010E-19 3.10030E-18
 -1       420 9.53393E-05-2.85653E-05-2.86170E-05 1.31560E-07-5.99022E-20 1.88819E-18
 -1       421 9.52932E-05-2.85623E-05-2.85987E-05 7.92234E-08-8.04351E-19 1.21411E-18
 -1       422 9.52621E-05-2.85612E-05-2.85859E-05 4.06775E-08-5.42168E-20 5.94408E-19
 -1       423 9.52438E-05-2.85617E-05-2.85779E-05 1.45169E-08-4.99503E-21 6.10313E-19
 -1       424 9.52345E-05-2.85633E-05-2.85733E-05-2.51538E-09 9.02435E-19 1.24209E-18
 -1       425 9.52311E-05-2.85657E-05-2.85708E-05-1.26078E-08 8.19588E-19 1.17549E-18
 -1       426 9.52315E-05-2.85690E-05-2.85696E-05-1.71259E-08-1.09289E-18-8.52207E-19
 -1       427 9.52343E-05-2.85732E-05-2.85691E-05-1.67108E-08 1.48171E-18-3.27963E-18
 -1       428 2.26785E-05-2.48485E-05 1.07038E-06 2.02988E-05 4.67086E-19 9.08760E-19
 -1       429 9.52430E-05-2.85802E-05-2.85697E-05-1.20516E-08 4.84091E-19-2.77145E-18
 -1       430 9.52410E-05-2.85788E-05-2.85695E-05-1.58158E-08-8.45197E-19-1.70282E-18
 -1       431 9.52432E-05-2.85801E-05-2.85699E-05-7.49577E-09-3.04855E-19-3.16252E-18
 -1       432 9.52422E-05-2.85789E-05-2.85700E-05-3.34889E-09-1.39683E-18-1.82647E-18
 -1       433 9.52409E-05-2.85773E-05-2.85701E-05-3.83923E-10-1.39626E-18 1.64023E-19
 -1       434 9.52398E-05-2.85760E-05-2.85702E-05 1.38654E-09-1.83712E-18-1.18032E-18
 -1       435 9.52393E-05-2.85753E-05-2.85703E-05 2.43788E-09-2.59772E-18-1.85236E-18
 -1       436 9.52396E-05-2.85755E-05-2.85703E-05 3.46307E-09-2.73041E-18-1.46000E-18
 -1       437 9.52403E-05-2.85761E-05-2.85703E-05 5.05539E-09-3.26945E-18-1.06090E-18
 -1       438 9.52411E-05-2.85769E-05-2.85703E-05 7.53848E-09-1.11030E-18 2.40425E-18
 -1       439 9.52412E-05-2.85772E-05-2.85703E-05 1.06041E-08-9.28488E-19 3.28498E-18
 -1       440 9.52400E-05-2.85766E-05-2.85700E-05 1.33849E-08 3.72668E-19 2.89990E-18
 -1       441 4.98569E-05-3.95955E-05-4.55040E-06 3.60049E-05 1.86453E-19-1.68983E-18
 -1       442 1.00474E-05-2.44165E-05 5.83438E-06-1.03586E-05 3.38760E-19 1.08759E-18
 -1       443 8.94392E-05-1.18198E-05-3.33312E-05-1.01612E-05 3.48629E-19-1.07245E-18
 -1       444 1.75527E-04-6.21963E-05-4.85059E-05-6.85794E-06 1.13587E-18-8.34327E-20
 -1       445 1.86756E-04-4.32307E-05-6.06783E-05-1.29301E-05 6.86732E-19 6.96473E-19
 -1       446 1.84925E-04-2.73438E-05-6.66245E-05-8.06908E-06 1.89778E-18 4.87997E-19
 -1       447 1.84312E-04-2.65858E-05-6.68321E-05 6.65063E-06 6.96049E-19-1.51725E-19
 -1       448 1.75431E-04-6.00149E-05-4.95176E-05 1.86857E-05-9.35389E-19 4.90220E-19
 -1       449 1.44499E-04-6.89429E-05-3.28270E-05-2.14943E-05-1.27277E-18-1.89407E-18
 -1       450 1.05065E-04-6.09302E-05-1.91838E-05-3.67092E-05-8.16752E-19-2.42553E-18
 -1       451 5.24399E-05-4.23925E-05-4.72237E-06-3.66068E-05 1.48231E-21-1.90291E-18
 -1       452 2.32465E-05-3.05220E-05 2.75355E-06-2.16038E-05-7.09390E-20-6.48404E-19
 -1       453 1.16216E-05-2.04516E-05 3.90033E-06 5.60434E-06-2.38731E-19-1.87395E-18
 -1       454 2.44370E-05-2.98268E-05 2.03844E-06 3.33495E-05-6.44169E-19-3.44245E-18
 -1       455 5.36744E-05-4.05710E-05-5.89813E-06 4.70338E-05-1.24048E-18-1.28304E-18
 -1       456 9.28136E-05-5.00013E-05-1.84777E-05 4.81967E-05-2.34056E-18 1.69544E-18
 -1       457 1.31649E-04-5.46703E-05-3.29745E-05 3.45109E-05-2.31992E-18 3.11401E-18
 -1       458 1.53624E-04-4.35696E-05-4.70265E-05 1.94216E-05-1.60067E-18 1.72869E-18
 -1       459 1.63716E-04-2.81344E-05-5.79580E-05 5.42054E-06-2.17147E-18 3.33318E-18
 -1       460 1.63442E-04-1.39898E-05-6.40368E-05-5.32961E-07-2.08540E-18 2.63904E-18
 -1       461 1.59181E-04-1.02446E-05-6.39762E-05 1.00681E-06-4.38763E-19 2.00350E-18
 -1       462 1.63191E-04-2.33875E-05-5.98994E-05-2.11421E-06 2.54004E-19 1.47458E-18
 -1       463 1.57258E-04-3.67905E-05-5.15569E-05-1.22234E-05 1.63477E-19 1.26780E-18
 -1       464 1.33860E-04-5.20571E-05-3.51675E-05-3.26722E-05 1.93753E-18 3.62435E-18
 -1       465 1.04035E-04-5.31185E-05-2.17916E-05-4.63228E-05 9.71653E-19 1.94659E-18
 -1       466 6.28324E-05-4.21261E-05-8.88840E-06-4.97537E-05 1.11840E-18 1.57964E-18
 -1       467 2.52755E-05-2.92505E-05 1.49577E-06-3.48217E-05 6.95838E-19 1.59030E-18
 -1       468 1.41986E-04-6.92873E-05-3.14683E-05 2.19025E-05 1.25551E-18-7.43695E-19
 -1       469 1.66024E-04-2.56856E-05-6.02128E-05 7.86449E-06 9.45077E-19 1.96247E-18
 -1       470 1.48634E-04-5.20588E-05-4.15746E-05-9.18670E-06 1.12451E-18 1.68549E-18
 -1       471 8.91425E-05-1.28852E-05-3.27002E-05-3.50572E-06 7.25638E-19-2.78831E-19
 -1       472 9.00253E-05-1.39957E-05-3.26048E-05-5.35927E-06 5.66207E-19-4.20161E-19
 -1       473 8.84287E-05-1.19996E-05-3.27723E-05 1.21548E-07 8.75645E-19 6.63523E-20
 -1       474 8.85670E-05-1.21604E-05-3.27629E-05 1.89397E-06 8.39714E-19-3.11946E-20
 -1       475 8.90499E-05-1.27425E-05-3.27215E-05 3.63591E-06 8.79558E-19 1.36280E-19
 -1       476 8.99359E-05-1.38351E-05-3.26354E-05 5.40168E-06 8.70843E-19 5.77975E-19
 -1       477 9.12976E-05-1.55697E-05-3.24781E-05 7.11644E-06 7.20583E-19 6.97087E-19
 -1       478 9.32081E-05-1.81670E-05-3.21841E-05 8.50938E-06 6.13288E-19 8.10741E-19
 -1       479 9.54886E-05-2.21546E-05-3.14399E-05 8.00786E-06 4.01561E-19 1.12681E-18
 -1       480 1.31742E-04-6.53329E-05-2.83936E-05 2.32594E-05 5.53748E-20-6.28075E-19
 -1       481 9.57830E-05-2.44269E-05-3.05717E-05-5.20510E-06-5.46874E-20-9.50112E-19
 -1       482 9.56857E-05-2.62292E-05-2.97602E-05-2.15068E-06 1.92291E-20-8.73684E-19
 -1       483 9.54752E-05-2.71992E-05-2.92573E-05-1.52941E-07 2.36247E-19-9.05490E-19
 -1       484 9.53955E-05-2.78159E-05-2.89610E-05 1.09624E-06 1.74546E-19-9.31283E-19
 -1       485 9.54937E-05-2.82908E-05-2.88008E-05 1.81764E-06 1.30488E-19-6.83585E-19
 -1       486 9.57607E-05-2.87325E-05-2.87267E-05 2.13581E-06-2.22419E-19-4.37835E-19
 -1       487 9.61717E-05-2.92014E-05-2.87025E-05 2.10477E-06-1.48232E-19-7.90215E-19
 -1       488 9.66955E-05-2.97269E-05-2.87025E-05 1.72912E-06-5.97646E-19-6.34151E-19
 -1       489 9.72877E-05-3.03040E-05-2.87097E-05 9.85470E-07-7.55559E-19-3.33348E-19
 -1       490 9.78772E-05-3.08803E-05-2.87160E-05-1.49418E-07-3.79167E-19 9.54732E-20
 -1       491 9.83518E-05-3.13405E-05-2.87224E-05-1.65862E-06 1.21476E-19 9.86441E-21
 -1       492 9.85541E-05-3.15034E-05-2.87391E-05-3.43295E-06-4.19588E-19 1.50774E-20
 -1       493 9.83048E-05-3.11540E-05-2.87810E-05-5.21888E-06-7.84904E-19-1.61009E-19
 -1       494 9.74709E-05-3.01291E-05-2.88610E-05-6.59764E-06 1.86010E-19 4.51755E-19
 -1       495 9.60777E-05-2.84529E-05-2.89801E-05-7.04706E-06-1.64933E-19 4.09165E-19
 -1       496 9.44050E-05-2.64526E-05-2.91187E-05-6.12794E-06-6.22511E-19 2.18606E-19
 -1       497 9.29696E-05-2.47344E-05-2.92386E-05-3.74795E-06-8.35998E-19 5.55344E-19
 -1       498 9.23200E-05-2.39417E-05-2.92996E-05-3.46184E-07-2.09933E-19 4.57008E-19
 -1       499 9.27369E-05-2.44026E-05-2.92808E-05 3.19790E-06-4.97859E-20-5.14661E-19
 -1       500 9.40537E-05-2.59206E-05-2.91954E-05 5.94299E-06 8.75181E-19-1.01631E-18
 -1       501 9.57634E-05-2.78994E-05-2.90819E-05 7.31128E-06 1.06120E-18-8.43034E-19
 -1       502 9.73174E-05-2.96922E-05-2.89816E-05 7.26878E-06 5.60247E-19-1.13121E-18
 -1       503 9.83699E-05-3.08937E-05-2.89199E-05 6.18766E-06 2.88967E-19-1.11466E-18
 -1       504 9.88368E-05-3.14103E-05-2.88998E-05 4.58567E-06 4.17678E-19-6.80469E-19
 -1       505 9.88202E-05-3.13717E-05-2.89096E-05 2.91288E-06 2.83406E-19 9.01475E-19
 -1       506 9.84933E-05-3.09926E-05-2.89317E-05 1.45707E-06-2.05500E-19 7.88513E-19
 -1       507 9.80178E-05-3.04714E-05-2.89507E-05 3.46671E-07 1.30856E-19 1.33407E-18
 -1       508 9.75092E-05-2.99464E-05-2.89571E-05-4.03347E-07 5.24999E-19 7.97805E-19
 -1       509 9.70349E-05-2.94930E-05-2.89475E-05-8.41115E-07 1.26234E-18 4.37693E-19
 -1       510 9.66255E-05-2.91393E-05-2.89232E-05-1.03931E-06 1.44100E-18 1.33875E-18
 -1       511 9.62890E-05-2.88842E-05-2.88879E-05-1.07155E-06 4.80076E-19 1.07318E-18
 -1       512 9.60210E-05-2.87128E-05-2.88463E-05-1.00065E-06-7.37092E-19 1.40754E-18
 -1       513 9.58123E-05-2.86058E-05-2.88026E-05-8.74676E-07-1.58575E-19 2.21279E-18
 -1       514 9.56526E-05-2.85450E-05-2.87602E-05-7.27328E-07-3.09445E-19 2.65506E-18
 -1       515 9.55320E-05-2.85151E-05-2.87213E-05-5.80222E-07 1.64135E-19 1.77246E-18
 -1       516 9.54422E-05-2.85046E-05-2.86873E-05-4.45789E-07 5.04909E-19 1.02083E-18
 -1       517 9.53762E-05-2.85055E-05-2.86587E-05-3.29996E-07 7.95427E-19 8.87852E-19
 -1       518 9.53285E-05-2.85123E-05-2.86354E-05-2.34585E-07 6.98382E-19 1.87188E-18
 -1       519 9.52948E-05-2.85216E-05-2.86170E-05-1.58781E-07-8.68542E-19 3.69423E-18
 -1       520 9.52716E-05-2.85314E-05-2.86029E-05-1.00496E-07-2.30648E-19 3.78118E-18
 -1       521 9.52563E-05-2.85407E-05-2.85923E-05-5.71351E-08 8.35374E-19 3.27828E-18
 -1       522 9.52467E-05-2.85491E-05-2.85846E-05-2.61101E-08-1.44515E-18 3.36218E-18
 -1       523 9.52412E-05-2.85567E-05-2.85790E-05-5.16148E-09-2.05954E-19 4.74011E-18
 -1       524 9.52388E-05-2.85638E-05-2.85750E-05 7.49192E-09 2.80683E-19 2.90270E-18
 -1       525 9.57858E-05-2.48956E-05-3.03718E-05 4.04542E-06 3.69554E-19 1.06489E-18
 -1       526 9.53031E-05-2.71214E-05-2.92174E-05-2.06182E-06 3.85929E-20 9.08389E-19
 -1       527 9.52569E-05-2.71900E-05-2.91685E-05-3.49229E-06 8.29832E-20 6.63407E-19
 -1       528 9.52675E-05-2.70065E-05-2.92511E-05-4.87365E-06 5.01602E-19 6.39458E-19
 -1       529 9.52472E-05-2.65642E-05-2.94307E-05-6.40757E-06 5.78412E-19 2.50686E-19
 -1       530 9.50740E-05-2.58282E-05-2.96704E-05-8.27320E-06 1.87508E-19 4.60035E-19
 -1       531 9.46009E-05-2.47804E-05-2.99150E-05-1.06291E-05-2.65773E-20 8.62748E-19
 -1       532 9.36881E-05-2.35104E-05-3.00663E-05-1.35992E-05-1.22761E-19 7.13139E-19
 -1       533 9.24114E-05-2.24316E-05-2.99796E-05-1.70680E-05 1.84807E-20 8.80029E-20
 -1       534 9.10686E-05-2.24258E-05-2.93933E-05-2.13921E-05-7.53628E-20-2.06633E-19
 -1       535 9.12407E-05-2.57806E-05-2.79627E-05-2.63383E-05-6.81173E-19-4.20962E-19
 -1       536 9.63261E-05-3.61126E-05-2.55211E-05-3.11029E-05-3.94347E-19-6.26262E-19
 -1       537 2.55078E-05-1.47715E-05-3.99185E-06 2.36556E-05 6.57774E-20-2.68975E-18
 -1       538 9.25292E-05-2.33038E-05-2.96427E-05 2.18928E-05-7.23848E-19 7.67744E-19
 -1       539 9.34295E-05-2.27182E-05-3.02927E-05 1.74863E-05-1.05085E-18 5.52059E-19
 -1       540 9.46359E-05-2.35864E-05-3.04394E-05 1.34822E-05-5.50791E-19 3.74146E-19
 -1       541 9.55378E-05-2.48215E-05-3.02974E-05 1.01886E-05 3.52209E-19 4.72792E-19
 -1       542 9.60336E-05-2.59207E-05-3.00406E-05 7.58305E-06-8.25861E-19-1.47879E-20
 -1       543 9.62183E-05-2.67595E-05-2.97623E-05 5.58161E-06-1.83423E-19-8.20330E-19
 -1       544 9.62110E-05-2.73534E-05-2.95063E-05 4.07516E-06-2.74572E-19-1.58069E-20
 -1       545 9.61051E-05-2.77571E-05-2.92891E-05 2.95765E-06 4.21456E-20 1.41330E-18
 -1       546 9.59671E-05-2.80140E-05-2.91208E-05 2.16864E-06-1.25582E-19 1.60680E-18
 -1       547 9.58171E-05-2.81941E-05-2.89799E-05 1.55502E-06 4.97513E-19 1.37307E-18
 -1       548 9.56810E-05-2.83125E-05-2.88712E-05 1.10671E-06-3.95063E-19 2.07860E-18
 -1       549 9.55658E-05-2.83909E-05-2.87885E-05 7.79697E-07-1.03006E-19 6.90760E-19
 -1       550 9.54729E-05-2.84434E-05-2.87265E-05 5.41682E-07-1.05474E-18 6.91900E-19
 -1       551 9.54009E-05-2.84793E-05-2.86804E-05 3.69005E-07-6.61174E-19 1.55863E-19
 -1       552 9.53470E-05-2.85044E-05-2.86466E-05 2.44371E-07-7.83986E-19 1.10729E-18
 -1       553 9.53094E-05-2.85216E-05-2.86232E-05 1.58745E-07-7.50848E-19 1.76213E-18
 -1       554 9.52813E-05-2.85350E-05-2.86054E-05 9.42173E-08-9.98915E-19 7.69381E-19
 -1       555 9.52624E-05-2.85452E-05-2.85930E-05 4.91601E-08-7.67825E-20 1.91526E-18
 -1       556 9.52503E-05-2.85533E-05-2.85844E-05 1.85538E-08 6.97266E-19 2.30980E-18
 -1       557 9.52433E-05-2.85600E-05-2.85785E-05-1.18641E-09 1.38063E-18-7.92678E-20
 -1       558 9.52399E-05-2.85663E-05-2.85744E-05-1.25176E-08 1.38019E-18-1.81873E-18
 -1       559 9.52402E-05-2.85718E-05-2.85721E-05-1.61408E-08 1.25863E-18-1.85012E-18
 -1       560 2.59594E-05-1.36871E-05-4.57743E-06-2.35588E-05-1.23664E-18 1.01453E-18
 -1       561 9.52370E-05-2.85572E-05-2.85770E-05 1.22416E-09 2.14170E-18-6.23714E-19
 -1       562 8.78265E-05-4.73256E-05-1.70409E-05 3.84178E-05-1.07076E-18-3.54033E-18
 -1       563 9.52341E-05-2.85535E-05-2.85774E-05 2.62151E-09-2.58430E-19-2.29687E-18
 -1       564 9.52325E-05-2.85516E-05-2.85775E-05 2.57899E-09-1.12155E-18-1.42270E-18
 -1       565 9.52327E-05-2.85521E-05-2.85774E-05 2.05632E-09-3.97745E-19-2.53135E-18
 -1       566 9.52343E-05-2.85547E-05-2.85770E-05 2.09608E-09-6.72476E-19-2.33253E-18
 -1       567 9.52369E-05-2.85589E-05-2.85763E-05 3.47752E-09-1.89339E-19 1.80710E-18
 -1       568 9.52392E-05-2.85635E-05-2.85753E-05 6.40689E-09 7.07285E-19 2.98892E-18
 -1       569 9.52398E-05-2.85674E-05-2.85739E-05 1.00221E-08 4.22110E-19 4.51788E-18
 -1       570 4.94573E-05-2.49805E-05-9.84527E-06 3.14129E-05-2.34972E-18-1.77522E-18
 -1       571 5.32736E-05-3.01102E-05-9.40826E-06-4.55450E-05 3.16049E-20 1.44154E-18
 -1       572 9.54549E-05-2.67406E-05-2.94440E-05-3.26456E-07 2.97847E-19 9.40539E-19
 -1       573 9.52424E-05-2.85670E-05-2.85752E-05-7.14318E-09 1.95848E-18-1.81801E-18
 -1       574 1.36165E-04-1.26974E-05-5.35929E-05 9.33253E-06 1.26631E-19 1.53451E-18
 -1       575 9.52425E-05-2.85702E-05-2.85738E-05-1.19891E-08 5.47307E-19 2.04354E-19
 -1       576 9.52402E-05-2.85621E-05-2.85763E-05-2.09773E-09 1.82041E-18-4.09877E-18
 -1       577 9.38837E-05-2.79745E-05-2.81428E-05 2.67121E-05-5.26970E-19 1.14301E-18
 -1       578 1.01537E-04-4.06289E-05-2.57752E-05 3.06189E-05-7.49571E-19-1.11120E-19
 -1       579 2.39810E-05-1.05817E-05-5.04766E-06 5.38066E-06-1.33752E-18 7.82870E-19
 -1       580 8.86210E-05-1.22392E-05-3.27524E-05-1.67426E-06 8.34570E-19-5.02760E-20
 -1       581 9.56558E-05-2.61003E-05-2.98029E-05 1.55813E-06 3.21939E-19 9.25117E-19
 -1       582 8.98861E-05-4.96503E-05-1.69889E-05-3.90700E-05-2.87356E-19-1.55690E-18
 -1       583 4.90832E-05-2.65681E-05-9.06119E-06-3.28455E-05 1.81583E-19-1.70148E-18
 -1       584 1.28268E-04-6.03730E-05-2.90590E-05-3.11257E-05 2.03447E-18 2.58115E-18
 -1       585 2.71380E-05-1.24576E-05-5.54445E-06-1.16121E-05 5.14956E-19-1.08918E-18
 -1       586 5.15394E-05-2.94427E-05-8.92326E-06 4.45227E-05 7.31254E-19-1.82604E-18
 -1       587 8.69047E-05-4.79083E-05-1.63662E-05 4.87423E-05-2.60463E-19 1.91747E-18
 -1       588 1.18200E-04-5.88134E-05-2.53488E-05 3.79424E-05-1.33117E-18 3.00399E-18
 -1       589 1.43483E-04-5.44102E-05-3.83786E-05 1.28142E-05-1.08269E-18 2.11668E-18
 -1       590 1.47545E-04-3.87997E-05-4.70327E-05-3.94901E-06-2.44710E-18 2.21663E-18
 -1       591 1.42874E-04-1.76728E-05-5.42523E-05-8.95871E-06-2.41341E-18 1.64049E-18
 -1       592 1.34475E-04-4.68421E-06-5.62975E-05-2.05565E-06-1.00850E-18 9.00872E-19
 -1       593 1.44532E-04-2.79566E-05-5.04587E-05 8.91490E-06 8.42268E-20 1.37029E-18
 -1       594 9.35756E-05-4.99023E-05-1.84295E-05-4.73563E-05 7.53118E-19 1.59139E-18
 -1       595 9.48197E-05-2.07542E-05-3.17608E-05-8.88824E-06 6.26573E-20-1.12170E-18
 -1       596 1.25013E-04-5.99789E-05-2.75615E-05-2.58093E-05-5.94379E-19-8.99721E-19
 -1       597 9.13195E-05-1.56809E-05-3.24402E-05-7.12299E-06 3.86691E-19-8.65471E-19
 -1       598 3.14205E-05-7.86687E-06-9.45620E-06 6.19469E-06 1.41236E-19-2.66095E-18
 -1       599 9.28712E-05-1.78283E-05-3.21827E-05-8.30512E-06 2.50882E-19-1.03873E-18
 -1       600 9.52383E-05-2.85686E-05-2.85727E-05 1.22159E-08 6.33529E-20 3.59301E-18
 -1       601 1.33387E-04-6.06430E-05-3.12433E-05 2.07527E-05-9.16357E-19 2.39835E-18
 -1       602 9.07387E-05-1.58400E-05-3.21046E-05 2.16011E-06 8.27103E-19 5.05718E-20
 -1       603 9.04413E-05-1.54434E-05-3.21470E-05 8.43042E-07 7.49052E-19 1.51192E-20
 -1       604 9.24952E-05-1.82551E-05-3.18197E-05 4.54146E-06 6.08138E-19 5.13748E-19
 -1       605 9.38515E-05-2.03628E-05-3.14962E-05 5.32121E-06 6.37901E-19 5.76773E-19
 -1       606 9.50501E-05-2.27070E-05-3.10011E-05 4.93538E-06 4.65048E-19 7.74490E-19
 -1       607 1.38979E-04-4.31950E-05-4.14070E-05 6.59514E-06 4.18381E-19 4.58165E-19
 -1       608 9.56483E-05-2.55535E-05-3.00391E-05-1.48812E-06 1.64735E-19-6.35869E-19
 -1       609 9.58236E-05-2.68366E-05-2.95652E-05 2.60819E-07 2.15200E-20-7.67959E-19
 -1       610 9.59584E-05-2.77219E-05-2.92440E-05 1.43211E-06 3.47918E-19-8.81110E-19
 -1       611 9.61707E-05-2.84295E-05-2.90320E-05 2.14353E-06 1.06581E-19-8.07812E-19
 -1       612 9.65256E-05-2.91022E-05-2.88960E-05 2.46947E-06-2.44957E-19-6.12044E-19
 -1       613 9.70644E-05-2.98352E-05-2.88130E-05 2.43455E-06 2.07503E-20-1.58418E-19
 -1       614 9.78089E-05-3.06795E-05-2.87704E-05 2.01892E-06-2.79389E-19 5.20336E-19
 -1       615 9.87480E-05-3.16272E-05-2.87670E-05 1.17307E-06-2.33300E-19 9.86415E-19
 -1       616 9.98120E-05-3.25831E-05-2.88135E-05-1.53395E-07-5.70932E-19 9.61889E-19
 -1       617 1.00841E-04-3.33354E-05-2.89318E-05-1.96059E-06-3.40693E-19 1.99642E-19
 -1       618 1.01569E-04-3.35545E-05-2.91500E-05-4.12034E-06-4.64443E-19 3.63101E-19
 -1       619 1.01670E-04-3.28615E-05-2.94896E-05-6.28768E-06 1.58177E-19 1.09238E-18
 -1       620 1.00880E-04-3.10060E-05-2.99449E-05-7.85254E-06 6.51198E-22 3.59416E-19
 -1       621 9.92387E-05-2.81474E-05-3.04662E-05-8.04912E-06-1.99700E-19 7.11025E-19
 -1       622 9.72496E-05-2.50297E-05-3.09506E-05-6.29924E-06-1.06385E-18 1.06418E-18
 -1       623 9.57829E-05-2.28288E-05-3.12650E-05-2.68992E-06-6.68318E-19 9.77196E-20
 -1       624 9.55908E-05-2.25261E-05-3.13118E-05 1.83645E-06-1.34100E-19 8.16478E-19
 -1       625 9.67793E-05-2.42594E-05-3.10785E-05 5.83122E-06-2.54649E-19 1.01932E-18
 -1       626 9.87237E-05-2.72187E-05-3.06435E-05 8.15651E-06 3.51639E-19-4.69601E-19
 -1       627 1.00520E-04-3.01936E-05-3.01381E-05 8.50389E-06 1.92342E-19-4.79067E-19
 -1       628 1.01554E-04-3.23078E-05-2.96771E-05 7.32614E-06 3.08852E-19-6.57655E-19
 -1       629 1.01675E-04-3.32609E-05-2.93214E-05 5.36924E-06 7.82187E-19-8.88646E-20
 -1       630 1.01086E-04-3.32226E-05-2.90854E-05 3.29724E-06 1.12301E-18 7.62745E-19
 -1       631 1.00112E-04-3.25661E-05-2.89496E-05 1.51502E-06 6.44984E-19 1.23141E-18
 -1       632 9.90406E-05-3.16502E-05-2.88825E-05 1.84155E-07-3.04126E-19 1.53220E-18
 -1       633 9.80531E-05-3.07284E-05-2.88541E-05-6.91016E-07-6.57528E-20 1.90211E-18
 -1       634 9.72358E-05-2.99389E-05-2.88419E-05-1.18383E-06 1.13073E-18 2.84701E-18
 -1       635 9.66076E-05-2.93324E-05-2.88324E-05-1.39135E-06 1.26921E-18 2.29991E-18
 -1       636 9.61503E-05-2.89059E-05-2.88191E-05-1.40570E-06 9.66455E-19 1.74286E-18
 -1       637 9.58313E-05-2.86311E-05-2.88001E-05-1.30237E-06-4.30506E-19 6.35580E-19
 -1       638 9.56164E-05-2.84715E-05-2.87763E-05-1.13757E-06 5.05972E-19 1.50952E-18
 -1       639 9.54756E-05-2.83929E-05-2.87496E-05-9.50045E-07-1.13497E-18 1.65848E-18
 -1       640 9.53855E-05-2.83669E-05-2.87222E-05-7.64454E-07-9.25954E-19 5.30637E-19
 -1       641 9.53288E-05-2.83722E-05-2.86956E-05-5.94938E-07-4.58905E-19-5.73098E-19
 -1       642 9.52937E-05-2.83939E-05-2.86713E-05-4.48296E-07 5.88183E-19-5.13730E-19
 -1       643 9.52721E-05-2.84224E-05-2.86498E-05-3.26537E-07 8.45356E-19-9.26045E-19
 -1       644 9.52589E-05-2.84518E-05-2.86315E-05-2.28783E-07 1.11616E-18 3.57152E-19
 -1       645 9.52507E-05-2.84790E-05-2.86164E-05-1.52613E-07-2.58879E-19 2.62471E-18
 -1       646 9.52457E-05-2.85026E-05-2.86042E-05-9.49618E-08 4.01722E-19 3.07559E-18
 -1       647 9.52427E-05-2.85222E-05-2.85944E-05-5.27074E-08 5.06359E-19 3.03321E-18
 -1       648 9.52409E-05-2.85384E-05-2.85867E-05-2.29739E-08-7.76196E-19 2.65805E-18
 -1       649 9.52400E-05-2.85520E-05-2.85806E-05-3.54074E-09 8.51232E-19 3.26196E-18
 -1       650 1.15300E-04-5.52061E-05-2.56100E-05-3.23781E-05 1.99765E-18 1.59706E-18
 -1       651 9.45979E-05-2.60911E-05-2.93592E-05-3.91185E-06 2.46561E-19 5.36250E-20
 -1       652 9.50608E-05-2.62281E-05-2.94991E-05-2.49897E-06 2.34363E-19 2.88489E-19
 -1       653 9.27464E-05-2.44689E-05-2.92603E-05-6.66435E-06 4.93196E-19 4.85332E-19
 -1       654 9.10012E-05-2.29198E-05-2.91758E-05-8.25082E-06 1.33219E-19 1.59011E-19
 -1       655 8.83637E-05-2.08569E-05-2.89282E-05-1.00996E-05 2.59169E-19-5.14443E-19
 -1       656 8.47666E-05-1.85453E-05-2.83775E-05-1.22023E-05 1.57993E-19-5.97228E-19
 -1       657 7.96400E-05-1.61941E-05-2.71732E-05-1.49863E-05 3.80184E-19-1.87728E-19
 -1       658 7.32859E-05-1.50735E-05-2.48616E-05-1.88069E-05-3.20475E-19-2.12053E-19
 -1       659 6.63388E-05-1.77185E-05-2.05336E-05-2.51653E-05 1.34367E-19-1.12796E-18
 -1       660 8.41803E-05-1.79388E-05-2.83827E-05 1.23217E-05-6.43344E-19-3.73439E-19
 -1       661 7.91899E-05-1.59618E-05-2.70793E-05 1.54940E-05-8.44929E-19 4.83975E-20
 -1       662 9.08731E-05-2.25169E-05-2.92932E-05 7.64433E-06 4.06901E-19-5.91948E-20
 -1       663 9.26743E-05-2.42312E-05-2.93310E-05 5.92203E-06 3.40346E-19-8.83721E-19
 -1       664 9.38079E-05-2.55095E-05-2.92693E-05 4.53175E-06-1.08765E-18-1.19805E-18
 -1       665 9.44925E-05-2.64280E-05-2.91695E-05 3.42960E-06-2.89449E-19-1.03934E-18
 -1       666 9.48743E-05-2.70479E-05-2.90677E-05 2.60562E-06 6.35305E-20-6.49338E-19
 -1       667 9.50997E-05-2.75071E-05-2.89677E-05 1.93248E-06 1.08610E-18-1.23378E-18
 -1       668 9.52162E-05-2.78256E-05-2.88813E-05 1.41903E-06-2.07492E-19-5.93409E-19
 -1       669 9.52700E-05-2.80469E-05-2.88097E-05 1.03009E-06 3.77256E-19-1.08871E-18
 -1       670 9.52893E-05-2.82012E-05-2.87519E-05 7.37588E-07 1.28262E-20-5.00465E-19
 -1       671 9.52910E-05-2.83096E-05-2.87062E-05 5.19139E-07-1.17606E-19-6.78111E-19
 -1       672 9.52848E-05-2.83862E-05-2.86707E-05 3.57341E-07-7.94932E-19-7.51807E-19
 -1       673 9.52762E-05-2.84385E-05-2.86447E-05 2.43444E-07-1.37248E-18-8.13635E-19
 -1       674 9.52671E-05-2.84783E-05-2.86237E-05 1.55549E-07-3.76476E-19-1.44952E-18
 -1       675 9.52591E-05-2.85070E-05-2.86080E-05 9.26053E-08-6.65561E-19-1.20978E-18
 -1       676 9.52527E-05-2.85281E-05-2.85962E-05 4.84225E-08-6.42545E-19 3.07934E-20
 -1       677 9.52478E-05-2.85439E-05-2.85874E-05 1.84862E-08 1.36419E-18 9.24592E-19
 -1       678 9.52445E-05-2.85563E-05-2.85807E-05-4.49430E-10 4.08401E-18 3.62324E-19
 -1       679 9.52430E-05-2.85630E-05-2.85771E-05-7.83507E-09 1.72753E-18-8.44802E-19
 -1       680 9.52243E-05-2.85259E-05-2.85850E-05 4.85252E-09-3.15161E-19-2.28954E-18
 -1       681 3.59016E-05-7.10253E-06-1.17629E-05-9.00812E-06-1.78003E-18 5.65024E-19
 -1       682 9.52282E-05-2.85307E-05-2.85847E-05 7.11949E-09 4.89733E-19-2.23444E-18
 -1       683 9.52252E-05-2.85285E-05-2.85843E-05-2.06123E-09 1.06872E-19-1.88823E-18
 -1       684 9.52296E-05-2.85354E-05-2.85832E-05-3.69230E-09 1.32937E-18-2.46191E-19
 -1       685 9.52347E-05-2.85445E-05-2.85816E-05-2.70407E-09 1.59678E-19 3.26198E-18
 -1       686 4.83690E-05-1.15759E-05-1.52577E-05 1.85089E-05-2.58656E-18-1.24546E-18
 -1       687 7.28417E-05-1.53678E-05-2.45145E-05 2.03101E-05-1.14248E-18 6.16084E-21
 -1       688 4.78539E-05-1.71198E-05-1.26002E-05 3.13145E-05 1.15363E-18-1.78724E-18
 -1       689 9.53299E-05-2.58724E-05-2.97658E-05-8.51374E-07 5.26932E-20 4.82018E-19
 -1       690 9.52232E-05-2.85252E-05-2.85849E-05 1.27384E-09-5.64807E-19-1.84529E-18
 -1       691 1.21070E-04-6.76903E-06-4.95094E-05 4.76131E-06-5.34319E-19-5.14599E-19
 -1       692 8.81326E-05-2.03566E-05-2.90436E-05 9.74704E-06 9.42408E-21-9.72307E-19
 -1       693 7.95386E-05-3.49554E-05-1.86510E-05-3.57547E-05-1.50587E-19-1.59120E-18
 -1       694 7.31591E-05-2.40075E-05-2.06171E-05 3.00430E-05-1.86267E-18-2.09770E-18
 -1       695 7.91535E-05-3.69992E-05-1.77331E-05-4.30497E-05 6.35275E-19 6.71512E-19
 -1       696 1.36193E-04-5.72097E-05-3.39167E-05-1.09577E-05 2.04140E-18 2.06558E-18
 -1       697 9.38744E-05-2.55118E-05-2.92972E-05-5.25416E-06 4.89480E-19 2.62254E-19
 -1       698 9.51981E-05-2.35265E-05-3.07179E-05-3.94560E-06 1.25937E-19-6.92068E-19
 -1       699 7.76912E-05-3.67228E-05-1.71582E-05 4.28903E-05 8.76520E-19 1.01655E-18
 -1       700 9.14321E-05-1.67680E-05-3.20033E-05 3.42043E-06 8.57433E-19 2.63150E-19
 -1       701 9.52397E-05-2.85600E-05-2.85770E-05 4.82826E-09 1.14932E-18 4.97360E-18
 -1       702 9.16149E-05-1.70344E-05-3.19687E-05-3.28012E-06 5.73713E-19-2.13469E-19
 -1       703 5.20540E-05-1.45312E-05-1.55301E-05-2.24872E-05 2.35422E-19-1.01096E-18
 -1       704 1.40332E-04-4.88384E-05-3.94656E-05-2.04842E-06-1.24854E-18 2.16375E-18
 -1       705 1.02593E-04-5.09733E-05-2.19017E-05 4.02861E-05-2.69806E-19 2.27795E-18
 -1       706 1.32896E-04-2.78172E-05-4.54608E-05-1.27606E-05-2.26933E-18 1.26735E-18
 -1       707 1.29131E-04-2.19395E-05-4.63902E-05 1.31291E-05 2.22584E-19 5.45780E-19
 -1       708 4.80654E-05-1.77092E-05-1.24910E-05-3.29884E-05-2.28328E-19-4.25528E-19
 -1       709 1.22582E-04-1.13632E-05-4.82019E-05-9.61104E-06-1.67678E-18-1.91244E-19
 -1       710 9.43226E-05-2.10794E-05-3.13877E-05-6.06496E-06 1.06648E-19-8.43865E-19
 -1       711 9.05018E-05-1.55205E-05-3.21400E-05-5.21876E-07 6.69299E-19 1.09335E-20
 -1       712 9.53820E-05-2.45117E-05-3.03708E-05 2.39259E-06 3.61890E-19 5.42610E-19
 -1       713 9.52398E-05-2.85482E-05-2.85821E-05 3.25543E-09 2.45307E-18-3.07762E-18
 -1       714 4.78546E-05-8.32153E-06-1.65275E-05-9.59413E-06 3.07023E-19-1.21089E-18
 -1       715 9.26673E-05-1.85458E-05-3.17686E-05-4.52911E-06 3.29477E-19-4.39489E-19
 -1       716 9.08975E-05-1.60480E-05-3.20838E-05-1.90861E-06 6.44284E-19-1.07782E-20
 -1       717 9.52339E-05-2.85386E-05-2.85837E-05 6.79735E-09 3.30073E-18-1.19635E-18
 -1       718 9.52375E-05-2.85474E-05-2.85815E-05-3.55985E-09 8.70844E-19 3.60922E-18
 -1       719 9.52426E-05-2.85565E-05-2.85797E-05-1.97648E-09 1.61824E-18 1.01718E-18
 -1       720 1.19277E-04-5.64649E-05-2.68253E-05 2.76896E-05-5.60153E-19 2.60685E-18
 -1       721 9.54379E-05-2.54066E-05-3.00151E-05 6.40820E-07 2.36388E-19 5.14047E-19
 -1       722 9.47760E-05-2.28195E-05-3.08368E-05 3.00945E-06 5.55876E-19 4.36685E-19
 -1       723 1.26409E-04-3.36848E-05-3.99665E-05 1.25714E-05 1.35520E-18-7.73923E-19
 -1       724 9.59336E-05-2.65901E-05-2.97186E-05 7.94110E-07 8.99449E-20-3.28887E-19
 -1       725 9.62271E-05-2.76627E-05-2.93847E-05 1.84067E-06 5.25688E-20-4.92379E-19
 -1       726 9.65695E-05-2.85777E-05-2.91394E-05 2.53122E-06 1.41530E-19-4.48512E-19
 -1       727 9.70780E-05-2.94983E-05-2.89628E-05 2.90261E-06 3.38295E-19-1.76391E-19
 -1       728 9.78505E-05-3.05463E-05-2.88448E-05 2.94798E-06 2.70983E-19-1.08223E-19
 -1       729 9.89593E-05-3.17896E-05-2.87873E-05 2.61074E-06 5.66463E-20 2.42479E-19
 -1       730 1.00424E-04-3.32081E-05-2.88073E-05 1.79001E-06-2.00338E-19 3.98944E-19
 -1       731 1.02165E-04-3.46421E-05-2.89387E-05 3.67246E-07-6.58636E-19 1.12785E-18
 -1       732 1.03938E-04-3.57353E-05-2.92293E-05-1.72482E-06-2.63459E-19 1.05362E-18
 -1       733 1.05307E-04-3.59348E-05-2.97310E-05-4.37291E-06-2.15630E-19 6.73424E-19
 -1       734 1.05698E-04-3.46028E-05-3.04716E-05-7.11587E-06-3.73737E-19 4.99216E-20
 -1       735 1.04675E-04-3.13945E-05-3.14062E-05-8.99487E-06 5.33370E-20 3.15739E-19
 -1       736 1.02383E-04-2.67812E-05-3.24017E-05-8.83177E-06-3.76136E-19 2.59979E-20
 -1       737 9.98233E-05-2.23378E-05-3.32161E-05-5.83932E-06-1.02671E-18 1.26321E-18
 -1       738 9.85093E-05-2.01562E-05-3.35762E-05-6.08471E-07-2.11530E-19 1.45954E-18
 -1       739 9.93013E-05-2.14409E-05-3.33709E-05 4.92886E-06-2.33612E-19 1.05975E-18
 -1       740 1.01597E-04-2.53779E-05-3.26718E-05 8.66467E-06-4.33417E-19 6.03358E-19
 -1       741 1.04073E-04-3.00994E-05-3.17019E-05 9.57510E-06 2.82431E-19 6.29104E-19
 -1       742 1.05400E-04-3.36599E-05-3.07479E-05 8.21816E-06-1.79135E-20 1.03091E-18
 -1       743 1.05315E-04-3.54204E-05-2.99562E-05 5.70066E-06 1.19742E-18 1.20026E-18
 -1       744 1.04091E-04-3.55108E-05-2.93927E-05 3.08449E-06 1.01346E-18 1.40649E-18
 -1       745 1.02317E-04-3.45556E-05-2.90412E-05 9.51854E-07 3.37304E-19 6.33421E-19
 -1       746 1.00472E-04-3.31578E-05-2.88494E-05-5.28143E-07 6.25133E-19 1.06870E-18
 -1       747 9.88484E-05-3.17384E-05-2.87617E-05-1.40800E-06 4.24965E-19 1.91302E-18
 -1       748 9.75659E-05-3.05244E-05-2.87322E-05-1.82719E-06 3.96048E-19 2.38770E-18
 -1       749 9.66314E-05-2.95962E-05-2.87294E-05-1.93196E-06-7.63892E-20 1.32316E-18
 -1       750 9.59956E-05-2.89490E-05-2.87343E-05-1.84272E-06 7.98517E-19-2.08496E-19
 -1       751 9.55911E-05-2.85380E-05-2.87371E-05-1.64801E-06 5.12412E-19 2.91191E-19
 -1       752 9.53524E-05-2.83061E-05-2.87341E-05-1.40796E-06 2.68727E-19 8.55621E-19
 -1       753 9.52249E-05-2.81996E-05-2.87251E-05-1.16065E-06-4.10552E-19 2.45140E-19
 -1       754 9.51672E-05-2.81740E-05-2.87114E-05-9.28322E-07-1.51557E-18 1.62867E-18
 -1       755 9.51503E-05-2.81960E-05-2.86947E-05-7.22452E-07-1.96428E-18 1.87256E-20
 -1       756 9.51549E-05-2.82422E-05-2.86768E-05-5.47452E-07-3.21739E-19-5.95543E-19
 -1       757 9.51689E-05-2.82975E-05-2.86592E-05-4.03456E-07 1.79874E-18-2.00425E-19
 -1       758 9.51855E-05-2.83526E-05-2.86427E-05-2.88182E-07 2.31674E-18 1.24783E-18
 -1       759 9.52009E-05-2.84026E-05-2.86279E-05-1.98162E-07 2.21456E-18 2.96017E-18
 -1       760 9.52136E-05-2.84453E-05-2.86150E-05-1.29553E-07 3.57829E-20 3.23939E-18
 -1       761 9.52232E-05-2.84805E-05-2.86040E-05-7.85825E-08 8.95437E-19 1.06406E-18
 -1       762 9.52300E-05-2.85089E-05-2.85948E-05-4.20338E-08-1.43706E-18 2.16650E-18
 -1       763 9.52348E-05-2.85304E-05-2.85876E-05-1.91959E-08 1.09082E-18 4.84112E-18
 -1       764 9.48578E-05-2.30891E-05-3.07596E-05-2.59720E-06 2.22359E-19-4.43211E-19
 -1       765 8.65364E-05-2.02249E-05-2.84187E-05-5.93865E-06 5.66362E-19 2.96931E-19
 -1       766 8.96986E-05-2.23712E-05-2.88546E-05-5.31453E-06 4.10734E-19 4.15367E-19
 -1       767 7.60410E-05-1.44654E-05-2.63832E-05-6.63779E-06 1.43321E-19-2.77031E-20
 -1       768 6.70495E-05-1.09911E-05-2.39669E-05-6.85090E-06 3.78122E-19-1.32198E-19
 -1       769 8.06976E-05-1.64903E-05-2.75121E-05 5.92311E-06-1.93225E-19 2.89185E-19
 -1       770 7.44090E-05-1.34283E-05-2.61204E-05 6.42333E-06-6.64607E-19-1.04527E-20
 -1       771 9.09890E-05-2.35680E-05-2.88947E-05 3.85860E-06-2.76000E-19-4.67745E-19
 -1       772 8.87427E-05-2.17316E-05-2.87194E-05 4.60374E-06 6.21697E-19-3.72884E-19
 -1       773 9.34649E-05-2.59412E-05-2.89387E-05 2.51681E-06 2.44622E-20-1.05517E-18
 -1       774 9.41178E-05-2.66823E-05-2.89008E-05 1.96432E-06 7.11587E-20 6.20675E-19
 -1       775 9.45389E-05-2.72162E-05-2.88525E-05 1.50668E-06 3.76003E-19 2.10669E-18
 -1       776 9.48077E-05-2.75995E-05-2.88035E-05 1.13626E-06 4.68547E-19 1.80728E-18
 -1       777 9.49779E-05-2.78747E-05-2.87585E-05 8.42428E-07 5.70811E-19 2.76027E-19
 -1       778 9.50846E-05-2.80728E-05-2.87193E-05 6.13076E-07-4.45783E-19 6.14980E-19
 -1       779 9.51509E-05-2.82157E-05-2.86865E-05 4.36853E-07 3.55822E-19-4.06079E-19
 -1       780 9.51898E-05-2.83146E-05-2.86608E-05 3.08816E-07-1.12235E-18-1.97782E-19
 -1       781 9.52147E-05-2.83908E-05-2.86388E-05 2.07164E-07-4.44535E-19-1.55802E-18
 -1       782 9.52291E-05-2.84460E-05-2.86213E-05 1.32421E-07-8.90535E-19-1.50607E-18
 -1       783 9.52369E-05-2.84860E-05-2.86075E-05 7.86076E-08-9.44633E-19-1.97628E-18
 -1       784 9.52409E-05-2.85157E-05-2.85965E-05 4.06845E-08-5.01922E-19-1.70598E-18
 -1       785 9.52424E-05-2.85380E-05-2.85876E-05 1.49052E-08 2.35304E-18-1.58792E-19
 -1       786 9.52140E-05-2.84974E-05-2.85928E-05 1.17858E-08-1.02128E-18-3.46377E-18
 -1       787 9.52255E-05-2.85176E-05-2.85891E-05-1.55551E-08 6.35502E-19 2.15219E-19
 -1       788 9.52169E-05-2.85045E-05-2.85910E-05-1.22941E-08 9.55956E-19-1.76060E-18
 -1       789 6.53430E-05-1.04609E-05-2.34419E-05 7.02301E-06-1.49591E-18-3.06054E-19
 -1       790 4.70611E-05-8.89612E-06-1.59931E-05 1.23201E-05 9.83367E-19-1.68912E-18
 -1       791 9.34450E-05-1.96796E-05-3.16137E-05-5.39525E-06 2.01464E-19-7.07907E-19
 -1       792 9.47815E-05-2.50189E-05-2.98981E-05-1.18607E-06 2.98379E-19-2.59794E-19
 -1       793 9.24777E-05-2.49330E-05-2.89475E-05 3.15218E-06-5.15866E-19-1.26593E-18
 -1       794 8.21559E-05-1.75643E-05-2.76819E-05-6.36720E-06 2.87322E-19 3.88740E-19
 -1       795 9.42793E-05-2.52419E-05-2.95875E-05-2.52274E-06 3.87772E-19-1.98925E-19
 -1       796 9.55391E-05-2.51450E-05-3.01684E-05-6.69264E-07 6.49447E-20-3.79038E-19
 -1       797 9.52317E-05-2.85208E-05-2.85903E-05 1.81664E-08 1.65076E-18-3.65664E-18
 -1       798 8.54460E-05-1.93726E-05-2.83181E-05 5.31657E-06-5.95241E-20 2.79340E-19
 -1       799 1.15319E-04-1.49874E-05-4.32471E-05 1.05676E-05-1.18505E-19-1.07410E-18
 -1       800 9.33406E-05-2.48588E-05-2.93493E-05-3.61561E-06 3.08840E-19-5.98481E-20
 -1       801 6.89075E-05-2.42841E-05-1.88935E-05-3.27484E-05-7.20984E-19-3.86671E-19
 -1       802 1.23962E-04-5.39862E-05-3.00392E-05-1.43475E-05 3.14525E-18 6.53334E-19
 -1       803 9.18750E-05-2.39072E-05-2.91290E-05-4.53493E-06 3.78641E-19 1.91016E-19
 -1       804 9.52220E-05-2.85072E-05-2.85921E-05 1.69991E-08 8.38232E-19-4.24882E-18
 -1       805 1.12016E-04-9.10640E-06-4.44050E-05-2.23537E-06-7.02508E-19-8.32069E-19
 -1       806 1.31587E-04-4.80666E-05-3.59336E-05 3.14806E-06 1.77741E-18-2.88759E-19
 -1       807 5.17473E-05-7.17556E-06-1.88342E-05 1.68492E-06-2.58453E-18-7.56612E-19
 -1       808 1.19153E-04-2.14541E-05-4.21030E-05-1.27334E-05-8.48039E-19 4.38704E-19
 -1       809 5.22802E-05-1.14831E-05-1.71923E-05-1.92761E-05-1.41116E-18-9.01878E-19
 -1       810 6.98066E-05-2.50809E-05-1.89336E-05 3.22392E-05 1.75273E-18-3.35240E-20
 -1       811 1.31932E-04-5.47003E-05-3.31773E-05 6.25546E-06-9.14137E-19 1.83787E-18
 -1       812 9.20680E-05-1.84534E-05-3.15501E-05 1.13088E-06 7.01525E-19 1.30560E-19
 -1       813 9.68005E-05-4.31298E-05-2.28544E-05 3.45343E-05 1.05258E-18 1.91801E-18
 -1       814 9.75544E-05-4.20615E-05-2.36317E-05-3.22711E-05 1.36070E-18 3.39912E-19
 -1       815 1.29395E-04-3.89853E-05-3.89215E-05-1.06161E-05-1.41596E-18 1.61176E-18
 -1       816 5.94113E-05-1.11847E-05-2.04353E-05-1.52729E-05 5.10233E-19-7.44555E-19
 -1       817 9.52101E-05-2.84935E-05-2.85929E-05 3.57101E-09-8.45391E-19-1.71767E-18
 -1       818 9.36038E-05-2.07021E-05-3.12462E-05-2.42371E-06 2.63079E-19-1.59786E-20
 -1       819 1.09827E-04-1.58084E-05-4.04147E-05-8.26002E-06-1.66111E-19-2.41282E-19
 -1       820 9.52113E-05-2.84960E-05-2.85922E-05-5.09858E-09 9.44719E-20 7.73337E-19
 -1       821 6.21509E-05-1.50478E-05-2.00190E-05 1.95184E-05 1.52509E-18-4.08045E-19
 -1       822 9.24761E-05-1.90586E-05-3.14675E-05 1.89656E-06 6.71614E-19 1.04043E-19
 -1       823 9.28211E-05-1.94880E-05-3.14300E-05-1.58580E-06 4.69285E-19-1.20386E-19
 -1       824 1.11048E-04-4.72073E-05-2.73320E-05-2.03643E-05 1.72757E-18 8.61456E-19
 -1       825 9.38639E-05-2.13842E-05-3.10622E-05 2.35449E-06 6.10982E-19 3.35338E-19
 -1       826 9.20020E-05-1.83379E-05-3.15715E-05 2.61715E-07 5.36732E-19 1.45221E-19
 -1       827 9.49954E-05-2.46084E-05-3.01647E-05-4.11722E-09 2.44849E-19 1.87282E-19
 -1       828 9.52299E-05-2.85231E-05-2.85885E-05-1.80411E-08 7.61514E-19 3.09819E-18
 -1       829 6.06754E-05-1.05911E-05-2.13642E-05-8.91526E-06-1.41512E-18-1.54141E-18
 -1       830 9.62660E-05-2.76299E-05-2.94154E-05 2.30360E-06 1.93722E-19 6.41672E-20
 -1       831 9.67073E-05-2.87013E-05-2.91454E-05 3.02962E-06 3.25982E-19 2.91228E-19
 -1       832 9.73774E-05-2.98533E-05-2.89389E-05 3.54445E-06 2.89109E-19 4.95809E-20
 -1       833 9.84305E-05-3.12372E-05-2.87972E-05 3.81119E-06 2.40004E-19-2.12195E-19
 -1       834 9.99987E-05-3.29442E-05-2.87378E-05 3.72295E-06-3.50485E-20 9.55262E-20
 -1       835 1.02146E-04-3.49458E-05-2.88003E-05 3.09360E-06-2.51317E-19-1.02299E-19
 -1       836 1.04792E-04-3.70083E-05-2.90500E-05 1.67256E-06-1.73155E-19 2.58958E-19
 -1       837 1.07576E-04-3.85606E-05-2.95754E-05-7.50784E-07-1.88161E-19 6.42008E-19
 -1       838 1.09809E-04-3.87116E-05-3.04726E-05-4.14519E-06-3.80984E-19 8.80317E-19
 -1       839 1.10506E-04-3.63313E-05-3.17962E-05-7.90400E-06 1.42351E-19 1.09695E-18
 -1       840 1.08997E-04-3.10940E-05-3.33833E-05-1.03597E-05 9.68364E-20 1.15599E-18
 -1       841 1.05427E-04-2.38390E-05-3.49866E-05-9.43445E-06-1.89532E-19 1.12812E-18
 -1       842 1.02394E-04-1.82230E-05-3.60971E-05-4.55915E-06-4.11565E-19 2.10167E-18
 -1       843 1.02217E-04-1.77601E-05-3.62258E-05 2.92893E-06-5.49804E-19 1.78900E-18
 -1       844 1.04430E-04-2.19420E-05-3.53792E-05 8.84486E-06-4.31911E-19 1.44067E-18
 -1       845 1.07806E-04-2.88709E-05-3.38580E-05 1.08619E-05-5.51702E-19 1.71501E-18
 -1       846 1.10100E-04-3.49357E-05-3.21956E-05 9.16945E-06 1.95536E-19 1.89041E-18
 -1       847 1.09858E-04-3.79963E-05-3.08038E-05 5.61093E-06 1.18629E-18 2.03706E-18
 -1       848 1.07800E-04-3.82910E-05-2.97924E-05 2.13804E-06 7.45597E-19 1.72097E-18
 -1       849 1.04970E-04-3.69340E-05-2.91591E-05-4.50336E-07-5.82246E-20 1.24506E-18
 -1       850 1.02130E-04-3.49048E-05-2.88105E-05-2.02002E-06 1.25324E-18 1.02243E-18
 -1       851 9.97130E-05-3.28595E-05-2.86512E-05-2.75328E-06 3.75820E-19 1.37990E-18
 -1       852 9.78731E-05-3.11360E-05-2.86013E-05-2.92437E-06 3.88707E-19 3.86469E-19
 -1       853 9.65851E-05-2.98379E-05-2.86057E-05-2.76957E-06-2.66317E-19 1.65597E-19
 -1       854 9.57511E-05-2.89459E-05-2.86306E-05-2.45312E-06 1.71240E-19 1.76152E-18
 -1       855 9.52569E-05-2.83892E-05-2.86574E-05-2.07859E-06-3.80646E-19 6.24647E-19
 -1       856 9.49982E-05-2.80835E-05-2.86776E-05-1.70552E-06 1.43622E-18-5.88798E-19
 -1       857 9.48918E-05-2.79516E-05-2.86885E-05-1.36435E-06-1.69337E-19-2.51350E-19
 -1       858 9.48762E-05-2.79312E-05-2.86906E-05-1.06797E-06-5.13551E-19 4.21952E-19
 -1       859 9.49092E-05-2.79755E-05-2.86858E-05-8.19416E-07-2.76780E-18-5.32904E-20
 -1       860 9.49634E-05-2.80521E-05-2.86762E-05-6.16325E-07-9.01523E-19 8.37247E-19
 -1       861 9.50224E-05-2.81399E-05-2.86639E-05-4.53783E-07 2.79971E-20 9.77879E-19
 -1       862 9.50772E-05-2.82261E-05-2.86505E-05-3.26110E-07 2.45693E-18 4.30504E-19
 -1       863 9.51237E-05-2.83038E-05-2.86371E-05-2.27545E-07 2.89733E-18-5.40955E-20
 -1       864 9.51605E-05-2.83702E-05-2.86244E-05-1.52800E-07 2.02762E-18-2.47240E-19
 -1       865 9.51881E-05-2.84246E-05-2.86129E-05-9.72990E-08-1.34003E-18 1.56658E-18
 -1       866 9.52080E-05-2.84685E-05-2.86027E-05-5.69126E-08 1.45440E-18 1.08565E-19
 -1       867 9.41018E-05-2.43548E-05-2.98915E-05-1.13603E-06 3.29621E-19-1.54445E-19
 -1       868 7.05086E-05-1.32356E-05-2.45430E-05 2.42097E-06 5.31101E-19-1.57144E-19
 -1       869 9.52225E-05-2.84893E-05-2.86000E-05 4.10438E-08 5.22579E-19-3.68526E-18
 -1       870 1.06508E-04-1.34680E-05-3.99993E-05 4.07169E-06-7.86894E-19-2.46113E-19
 -1       871 7.56746E-05-1.48279E-05-2.60774E-05-1.15622E-06-9.42818E-19-2.08198E-18
 -1       872 9.37492E-05-2.65686E-05-2.87917E-05 1.30633E-06-1.03594E-18 8.88777E-20
 -1       873 9.30339E-05-2.58544E-05-2.87912E-05 1.57456E-06-1.01529E-18-7.33190E-19
 -1       874 9.45742E-05-2.74947E-05-2.87484E-05 8.17044E-07 1.03002E-18 6.39482E-19
 -1       875 9.48018E-05-2.77865E-05-2.87208E-05 6.21081E-07 1.15698E-19 1.08138E-18
 -1       876 9.49558E-05-2.80023E-05-2.86944E-05 4.60432E-07-7.39508E-20-5.89206E-19
 -1       877 9.50552E-05-2.81548E-05-2.86716E-05 3.37871E-07-1.02679E-18-1.65725E-18
 -1       878 9.51256E-05-2.82743E-05-2.86506E-05 2.36487E-07-1.84974E-20-1.60317E-18
 -1       879 9.51720E-05-2.83621E-05-2.86328E-05 1.59264E-07 2.09721E-19-1.81561E-18
 -1       880 9.52013E-05-2.84261E-05-2.86179E-05 1.02146E-07-1.73143E-18-1.71229E-18
 -1       881 9.52133E-05-2.84605E-05-2.86084E-05 6.73223E-08-2.04964E-20-2.60506E-18
 -1       882 9.22671E-05-1.86958E-05-3.15327E-05-6.64739E-07 3.85251E-19 1.20197E-20
 -1       883 5.65607E-05-8.50937E-06-2.04148E-05 6.38658E-07 7.77335E-19-1.24278E-18
 -1       884 6.63983E-05-1.10038E-05-2.36961E-05-1.00153E-06-1.07514E-18-1.64700E-18
 -1       885 8.99530E-05-2.27110E-05-2.88182E-05-2.62043E-06 2.37810E-19 2.03716E-19
 -1       886 9.54170E-05-2.49680E-05-3.01925E-05 1.40561E-07 1.29518E-19-2.21940E-19
 -1       887 8.42873E-05-2.97251E-05-2.32932E-05-2.68008E-05 4.02947E-19-1.26417E-18
 -1       888 1.14098E-04-2.54289E-05-3.81030E-05 1.25600E-05 5.56107E-19 9.34828E-19
 -1       889 9.52086E-05-2.84805E-05-2.85977E-05-3.00821E-08 1.16873E-18-5.14327E-19
 -1       890 1.24775E-04-4.55220E-05-3.40481E-05-4.48317E-06-7.73417E-19 1.63490E-18
 -1       891 9.19705E-05-2.38560E-05-2.91921E-05-2.47007E-06 4.36184E-20 5.74797E-21
 -1       892 9.42394E-05-2.71002E-05-2.87739E-05 1.04774E-06-1.51201E-19 1.12661E-18
 -1       893 1.18027E-04-3.10653E-05-3.73892E-05-1.25931E-05-6.98640E-19 9.40895E-19
 -1       894 9.33208E-05-2.44195E-05-2.95292E-05-1.96283E-06 2.32902E-19-1.10576E-19
 -1       895 8.84378E-05-2.20755E-05-2.84415E-05 1.93554E-06 1.34931E-18-4.51102E-19
 -1       896 1.19918E-04-5.19542E-05-2.90894E-05 1.54772E-05-9.57139E-20 2.07680E-18
 -1       897 9.52014E-05-2.84655E-05-2.86011E-05 2.65461E-08 4.76197E-19-3.98891E-18
 -1       898 1.22418E-04-3.96851E-05-3.55281E-05 9.23475E-06 1.08673E-18 7.34967E-19
 -1       899 9.46982E-05-2.31135E-05-3.06783E-05-1.08902E-06 1.14222E-19-4.45881E-20
 -1       900 8.70899E-05-2.10082E-05-2.83208E-05-2.31599E-06 4.43210E-19 6.33978E-19
 -1       901 6.77110E-05-1.74698E-05-2.14262E-05-2.10573E-05-9.73059E-19-1.64686E-18
 -1       902 8.65479E-05-3.16781E-05-2.34733E-05 2.68411E-05 9.13962E-19 1.00295E-18
 -1       903 1.23108E-04-4.89045E-05-3.18583E-05-2.66179E-06 2.12980E-18 9.70516E-19
 -1       904 9.58911E-05-2.64544E-05-2.97587E-05 1.35335E-06 1.11129E-19-1.98226E-21
 -1       905 9.43928E-05-2.39560E-05-3.01865E-05-3.36068E-07 5.34601E-19-9.61073E-20
 -1       906 9.05268E-05-2.36672E-05-2.86542E-05 1.96905E-06-3.70143E-19-1.02221E-18
 -1       907 9.52213E-05-2.84990E-05-2.85952E-05-3.50878E-08 8.41286E-19 1.06455E-18
 -1       908 7.78325E-05-1.60985E-05-2.64505E-05-2.27891E-07 5.02919E-19 4.65906E-19
 -1       909 8.32429E-05-1.88510E-05-2.75965E-05-1.43113E-06 3.46352E-19 5.08103E-19
 -1       910 1.15469E-04-4.71499E-05-2.92670E-05-1.02934E-05 1.08291E-18 2.21467E-18
 -1       911 8.14352E-05-1.76910E-05-2.73180E-05 5.71835E-07-7.85169E-19-2.99692E-19
 -1       912 9.38138E-05-2.19709E-05-3.07914E-05 1.05167E-06 5.76143E-19 1.94225E-19
 -1       913 9.20125E-05-2.49163E-05-2.87556E-05 1.81409E-06-8.88144E-19-2.43616E-18
 -1       914 9.51964E-05-2.84642E-05-2.85996E-05-1.98309E-08 1.73514E-19-8.65855E-19
 -1       915 9.51924E-05-2.84559E-05-2.86014E-05 1.23194E-08-5.22648E-20-3.46473E-18
 -1       916 7.74503E-05-2.24729E-05-2.34997E-05 2.02092E-05 9.86582E-19-4.58528E-19
 -1       917 6.52794E-05-1.28373E-05-2.24001E-05 9.54849E-06 1.04012E-18-3.89678E-19
 -1       918 9.84262E-05-3.79071E-05-2.59284E-05-2.19701E-05 5.07072E-19 8.02192E-19
 -1       919 8.55054E-05-2.00951E-05-2.80361E-05 1.55430E-06 1.39253E-19 2.09040E-19
 -1       920 1.19946E-04-4.80005E-05-3.08289E-05 3.82264E-06-2.62675E-19 2.14341E-18
 -1       921 9.30697E-05-2.06466E-05-3.10385E-05 6.23394E-07 3.87177E-19 2.37270E-19
 -1       922 9.32178E-05-2.09188E-05-3.09846E-05 9.70655E-07 5.90731E-19 1.66043E-20
 -1       923 9.40310E-05-2.19662E-05-3.08801E-05-6.59361E-07 2.45783E-19 7.34913E-20
 -1       924 1.07987E-04-4.44846E-05-2.72138E-05 1.93099E-05-1.12827E-19 1.84026E-18
 -1       925 9.51909E-05-2.84553E-05-2.86009E-05-4.65766E-09-5.93409E-19 1.27270E-18
 -1       926 9.65051E-05-2.86964E-05-2.90607E-05 3.66104E-06 3.72741E-19 1.86943E-20
 -1       927 9.72810E-05-3.00281E-05-2.88227E-05 4.46633E-06 1.76164E-19 2.00849E-19
 -1       928 9.85935E-05-3.17395E-05-2.86519E-05 5.15487E-06 1.38071E-19 2.89319E-19
 -1       929 1.00660E-04-3.39660E-05-2.85829E-05 5.55573E-06-7.18708E-20 4.71772E-19
 -1       930 1.03639E-04-3.67059E-05-2.86852E-05 5.35734E-06 1.31115E-19 8.05949E-19
 -1       931 1.07496E-04-3.96533E-05-2.90798E-05 4.03261E-06 1.14510E-19 1.15504E-18
 -1       932 1.11711E-04-4.19301E-05-2.99063E-05 1.19217E-06-4.23704E-19 1.45504E-18
 -1       933 1.15120E-04-4.19236E-05-3.13872E-05-3.30149E-06-4.93661E-20 1.44305E-18
 -1       934 1.15331E-04-4.10361E-05-3.18588E-05 5.02693E-06 1.01060E-18 2.94762E-18
 -1       935 1.12256E-04-4.17211E-05-3.02127E-05 1.82365E-07 1.15226E-18 2.46851E-18
 -1       936 1.07876E-04-3.97020E-05-2.92090E-05-3.06316E-06-3.54464E-19 1.19515E-18
 -1       937 1.03723E-04-3.67848E-05-2.86829E-05-4.61172E-06 2.16931E-19 8.89466E-19
 -1       938 1.00329E-04-3.39132E-05-2.84630E-05-4.95531E-06 1.23574E-18 9.87519E-20
 -1       939 9.78897E-05-3.15961E-05-2.84113E-05-4.62204E-06-2.24571E-19-2.20836E-19
 -1       940 9.62654E-05-2.99071E-05-2.84397E-05-3.99155E-06 3.54979E-19 6.38539E-19
 -1       941 9.52755E-05-2.87826E-05-2.84975E-05-3.28408E-06 6.48888E-19 1.38375E-18
 -1       942 9.47385E-05-2.81058E-05-2.85573E-05-2.61515E-06 1.21657E-20 6.48675E-19
 -1       943 9.45016E-05-2.77537E-05-2.86066E-05-2.03513E-06-1.37375E-19 9.15189E-19
 -1       944 9.44499E-05-2.76206E-05-2.86414E-05-1.55635E-06-6.89996E-20 1.24703E-19
 -1       945 9.45020E-05-2.76243E-05-2.86621E-05-1.17341E-06-1.22655E-18-9.92478E-19
 -1       946 9.46044E-05-2.77059E-05-2.86709E-05-8.73219E-07-1.82527E-18-3.48009E-19
 -1       947 9.47226E-05-2.78238E-05-2.86710E-05-6.41797E-07-1.28979E-18 7.05032E-19
 -1       948 9.48374E-05-2.79522E-05-2.86651E-05-4.64821E-07 4.32881E-19 2.11572E-18
 -1       949 9.49390E-05-2.80758E-05-2.86557E-05-3.30994E-07 1.23414E-18 2.74156E-18
 -1       950 9.50231E-05-2.81862E-05-2.86444E-05-2.30707E-07 2.04384E-18 1.78129E-18
 -1       951 9.50893E-05-2.82798E-05-2.86326E-05-1.56188E-07 1.41364E-18 4.03275E-19
 -1       952 9.51397E-05-2.83572E-05-2.86211E-05-1.01663E-07 1.50733E-18-3.67226E-19
 -1       953 9.51751E-05-2.84172E-05-2.86104E-05-6.20806E-08-5.15810E-19 3.26865E-19
 -1       954 8.88466E-05-2.24445E-05-2.84582E-05 2.80772E-07 2.05907E-19 2.65562E-19
 -1       955 9.47256E-05-2.77738E-05-2.86937E-05 4.00293E-07 4.38113E-19-1.48045E-19
 -1       956 9.44841E-05-2.74927E-05-2.87106E-05 5.09016E-07 7.51391E-19-3.06383E-19
 -1       957 9.50091E-05-2.81401E-05-2.86581E-05 2.26132E-07-9.78549E-19-4.85347E-19
 -1       958 9.50924E-05-2.82623E-05-2.86415E-05 1.59661E-07-9.19751E-21 1.08590E-18
 -1       959 9.51484E-05-2.83530E-05-2.86266E-05 1.08258E-07-1.00675E-18 1.08494E-18
 -1       960 9.10116E-05-2.34550E-05-2.89531E-05-5.44181E-07 4.32765E-20 1.72762E-19
 -1       961 7.03856E-05-1.46172E-05-2.38539E-05-1.04255E-05-8.55057E-20-2.36408E-18
 -1       962 9.30082E-05-2.60261E-05-2.87066E-05 7.73279E-07-2.24769E-18-2.10970E-18
 -1       963 9.32527E-05-2.08516E-05-3.10284E-05 1.82565E-07 1.25487E-19 1.53225E-19
 -1       964 1.17206E-04-4.02700E-05-3.29801E-05-7.17394E-06-3.57110E-20 1.56035E-18
 -1       965 9.51820E-05-2.84263E-05-2.86096E-05 4.34547E-08 3.00657E-18-2.54960E-18
 -1       966 7.92575E-05-2.23969E-05-2.43385E-05-1.83371E-05-1.63674E-19-2.90141E-18
 -1       967 9.56863E-05-2.63658E-05-2.97088E-05 1.86578E-06 2.13497E-19 6.51916E-20
 -1       968 9.52532E-05-2.49457E-05-3.01333E-05 8.12240E-07 8.40387E-20 2.91519E-19
 -1       969 9.47199E-05-2.35912E-05-3.04863E-05 1.13122E-07 1.56637E-19 3.72150E-19
 -1       970 9.48918E-05-2.79819E-05-2.86757E-05 3.05990E-07 5.62999E-19-8.80207E-19
 -1       971 9.36037E-05-2.13203E-05-3.09747E-05-2.53572E-07 2.37549E-19-1.07695E-19
 -1       972 9.60413E-05-2.75460E-05-2.93551E-05 2.79560E-06 1.83095E-19 1.61630E-19
 -1       973 9.39534E-05-2.34497E-05-3.02158E-05-6.14422E-08 5.00091E-19 2.38380E-19
 -1       974 9.25490E-05-2.40115E-05-2.93734E-05-7.95591E-07 1.73753E-19 3.25625E-19
 -1       975 8.60542E-05-2.11314E-05-2.78238E-05 1.84374E-06 5.27641E-19 3.58434E-19
 -1       976 7.70921E-05-1.75321E-05-2.55148E-05 7.59874E-06 7.79901E-19-3.03316E-19
 -1       977 1.06118E-04-4.16229E-05-2.76464E-05-1.52187E-05-4.65648E-19 2.45204E-18
 -1       978 9.51686E-05-2.84125E-05-2.86098E-05 2.07582E-08 1.92490E-18-6.81368E-18
 -1       979 9.21073E-05-2.52450E-05-2.86553E-05 7.31619E-07-1.90031E-18-3.07178E-18
 -1       980 9.41451E-05-2.71255E-05-2.87228E-05 6.20788E-07 7.54046E-19-1.30349E-18
 -1       981 9.51653E-05-2.83907E-05-2.86177E-05 7.07231E-08 1.72429E-18-1.30377E-19
 -1       982 9.38240E-05-2.25178E-05-3.05587E-05 6.42933E-07 3.52351E-19 4.00787E-19
 -1       983 1.14611E-04-4.46555E-05-2.99651E-05-4.22536E-06 8.10900E-19 1.92899E-18
 -1       984 9.36694E-05-2.66456E-05-2.87245E-05 7.19999E-07-8.89879E-19-1.45224E-18
 -1       985 8.98065E-05-3.03277E-05-2.54491E-05 1.97780E-05 7.91050E-19 8.44144E-19
 -1       986 9.36559E-05-2.23981E-05-3.05406E-05 5.95145E-07 3.36545E-19 3.90464E-19
 -1       987 9.01922E-05-2.98831E-05-2.58465E-05-1.83011E-05-5.51623E-19 1.09312E-18
 -1       988 8.69548E-05-2.16237E-05-2.79970E-05-1.03270E-06 9.50924E-19-3.13455E-18
 -1       989 1.12557E-04-4.50109E-05-2.89459E-05 9.70006E-06-8.96701E-20 1.74381E-18
 -1       990 9.35158E-05-2.40264E-05-2.97816E-05-6.02776E-07 2.94973E-19 3.82635E-19
 -1       991 7.86127E-05-1.83977E-05-2.57856E-05-8.88441E-06-7.80931E-19-2.28557E-18
 -1       992 8.91810E-05-2.30410E-05-2.83456E-05-1.31343E-08 1.34342E-18-2.11117E-18
 -1       993 8.24210E-05-1.95341E-05-2.69417E-05-5.05702E-06-1.29888E-18-3.16861E-18
 -1       994 9.58114E-05-2.84088E-05-2.88868E-05 4.40117E-06 3.76774E-19 1.04764E-19
 -1       995 9.65427E-05-2.98067E-05-2.86006E-05 5.68553E-06 3.71362E-19 3.21804E-19
 -1       996 9.79960E-05-3.17983E-05-2.83712E-05 7.04883E-06 1.50781E-19 8.77226E-19
 -1       997 1.00505E-04-3.45813E-05-2.82511E-05 8.28454E-06 2.52555E-19 1.15139E-18
 -1       998 1.04370E-04-3.82126E-05-2.83436E-05 8.96169E-06 4.22850E-19 1.58792E-18
 -1       999 1.08563E-04-4.12563E-05-2.88341E-05-7.23481E-06-1.20260E-18 1.82415E-18
 -1      1000 1.03237E-04-3.71316E-05-2.83400E-05-7.86785E-06 1.40042E-19 8.74104E-19
 -1      1001 9.93408E-05-3.35956E-05-2.81748E-05-7.26641E-06 6.85923E-19-9.70257E-19
 -1      1002 9.67930E-05-3.10116E-05-2.81922E-05-6.16728E-06 9.68749E-19-6.46221E-19
 -1      1003 9.52277E-05-2.92379E-05-2.82816E-05-4.93660E-06 3.08142E-19-1.47946E-19
 -1      1004 9.43854E-05-2.81488E-05-2.83871E-05-3.80815E-06 2.42313E-19-3.72143E-19
 -1      1005 9.40156E-05-2.75570E-05-2.84820E-05-2.86159E-06 9.53270E-20-7.22219E-19
 -1      1006 9.39329E-05-2.73005E-05-2.85566E-05-2.11115E-06-4.63576E-19-5.13871E-20
 -1      1007 9.40129E-05-2.72579E-05-2.86092E-05-1.53638E-06-3.96618E-19-1.92214E-18
 -1      1008 9.41729E-05-2.73408E-05-2.86422E-05-1.10669E-06-1.77842E-18-2.81245E-18
 -1      1009 9.43592E-05-2.74866E-05-2.86596E-05-7.89600E-07-1.28419E-19-1.25701E-18
 -1      1010 9.45428E-05-2.76568E-05-2.86654E-05-5.59658E-07-1.13999E-18 1.28718E-18
 -1      1011 9.47070E-05-2.78258E-05-2.86634E-05-3.92061E-07 3.44329E-19 1.22945E-18
 -1      1012 9.48460E-05-2.79814E-05-2.86563E-05-2.71571E-07 1.22522E-18 4.96379E-19
 -1      1013 9.49578E-05-2.81162E-05-2.86464E-05-1.85067E-07 1.69020E-18 1.52809E-19
 -1      1014 9.50445E-05-2.82288E-05-2.86353E-05-1.23092E-07 6.99541E-19-5.14047E-19
 -1      1015 9.51089E-05-2.83197E-05-2.86240E-05-7.82212E-08 1.91711E-18-1.07546E-18
 -1      1016 9.51550E-05-2.83912E-05-2.86133E-05-4.76031E-08 1.34881E-19 2.84448E-19
 -1      1017 8.21658E-05-1.93761E-05-2.69003E-05 4.12453E-06 6.51465E-19 2.25925E-19
 -1      1018 9.50857E-05-2.82748E-05-2.86334E-05 8.91012E-08-6.23724E-19-1.31568E-18
 -1      1019 9.50018E-05-2.81579E-05-2.86474E-05 1.24781E-07-9.92475E-19 5.00487E-19
 -1      1020 9.09199E-05-2.39467E-05-2.87034E-05 1.85965E-06 6.24183E-20 6.99961E-19
 -1      1021 9.49766E-05-2.49615E-05-3.00072E-05 1.34272E-06 1.05858E-19 2.42349E-19
 -1      1022 9.08646E-05-2.42554E-05-2.85468E-05 5.11652E-07 3.76327E-19-2.18712E-18
 -1      1023 8.48027E-05-2.04899E-05-2.75513E-05-2.66798E-06-6.73359E-19-3.88449E-18
 -1      1024 9.54590E-05-2.72873E-05-2.92157E-05 3.26801E-06 7.48017E-20-1.32233E-19
 -1      1025 9.41153E-05-2.28699E-05-3.05350E-05 5.69996E-07 1.77482E-19 9.85141E-21
 -1      1026 9.37355E-05-2.35246E-05-3.00883E-05 3.04911E-07 1.09691E-19 3.08235E-19
 -1      1027 9.52498E-05-2.62141E-05-2.95859E-05 2.26634E-06 2.90947E-19 7.72249E-20
 -1      1028 9.44994E-05-2.75652E-05-2.86861E-05 2.44917E-07-1.79137E-19-1.26524E-18
 -1      1029 1.01013E-04-3.75553E-05-2.72025E-05 1.56297E-05 3.52707E-19 1.58432E-18
 -1      1030 8.40024E-05-2.27588E-05-2.62523E-05 1.11567E-05 8.83470E-19-2.15975E-19
 -1      1031 8.48682E-05-2.34694E-05-2.63224E-05-1.19686E-05-1.05897E-18-1.86483E-18
 -1      1032 9.47202E-05-2.78117E-05-2.86751E-05 2.06874E-07-8.57480E-19-2.21782E-19
 -1      1033 8.89077E-05-2.33729E-05-2.80845E-05-2.45795E-06 3.92497E-21-2.06031E-18
 -1      1034 9.51193E-05-2.83302E-05-2.86240E-05 5.37577E-08 1.13750E-18-6.43135E-18
 -1      1035 9.82988E-05-3.53491E-05-2.70181E-05-1.55500E-05-1.25938E-18 2.61320E-18
 -1      1036 9.51642E-05-2.84094E-05-2.86092E-05-5.88930E-09 3.02417E-19 1.96217E-18
 -1      1037 9.25011E-05-2.57358E-05-2.86138E-05-4.50557E-08-1.89685E-18-1.73901E-18
 -1      1038 9.22900E-05-2.42251E-05-2.91718E-05 8.41590E-07 1.70091E-19 5.33104E-19
 -1      1039 9.41879E-05-2.72399E-05-2.86918E-05 2.68739E-07 2.34854E-20-1.36287E-18
 -1      1040 9.51465E-05-2.83737E-05-2.86167E-05 3.30758E-08 1.42882E-18-8.05201E-18
 -1      1041 9.48857E-05-2.80092E-05-2.86614E-05 1.63908E-07-6.91908E-19 1.51064E-18
 -1      1042 8.91679E-05-2.34419E-05-2.81641E-05 3.54979E-06 4.79603E-19 5.63742E-19
 -1      1043 1.08195E-04-4.18504E-05-2.83515E-05-1.08058E-05-1.34390E-18 2.68212E-18
 -1      1044 9.32270E-05-2.63424E-05-2.86650E-05 1.65355E-07-9.35396E-19-2.67136E-18
 -1      1045 9.32453E-05-2.41551E-05-2.96116E-05 3.78824E-07 2.18248E-19 4.70668E-19
 -1      1046 9.44802E-05-2.43625E-05-3.00509E-05 1.22835E-06 3.19504E-19 4.64582E-19
 -1      1047 8.77406E-05-2.29406E-05-2.77745E-05-4.11609E-06-4.02926E-19-3.03047E-18
 -1      1048 9.21878E-05-2.91456E-05-2.70255E-05 1.26853E-05 7.94536E-19 7.68510E-19
 -1      1049 9.39340E-05-2.36485E-05-3.01226E-05 8.34253E-07 2.42153E-19 3.32625E-19
 -1      1050 9.44189E-05-2.76394E-05-2.86186E-05 5.14913E-06 4.62207E-19 1.80762E-19
 -1      1051 9.48193E-05-2.89249E-05-2.82433E-05 7.12953E-06 5.54849E-19 5.16908E-19
 -1      1052 9.61015E-05-3.10057E-05-2.78991E-05 9.46687E-06 5.47520E-19 1.03386E-18
 -1      1053 9.03850E-05-2.42254E-05-2.83535E-05-1.20053E-06 5.89543E-19-1.00303E-18
 -1      1054 9.52017E-05-3.03507E-05-2.77971E-05-8.66507E-06 8.47387E-19 1.98075E-18
 -1      1055 9.37107E-05-2.83926E-05-2.79932E-05-6.52932E-06 5.71921E-19 1.97588E-18
 -1      1056 9.30651E-05-2.72976E-05-2.81837E-05-4.77981E-06-3.06590E-19 2.04560E-18
 -1      1057 9.29204E-05-2.67819E-05-2.83452E-05-3.38462E-06-6.35900E-19 3.68241E-19
 -1      1058 9.30617E-05-2.66347E-05-2.84686E-05-2.34323E-06 5.99539E-19-9.30857E-19
 -1      1059 9.33365E-05-2.67072E-05-2.85552E-05-1.59616E-06-1.31693E-18-5.29078E-19
 -1      1060 9.36556E-05-2.68951E-05-2.86115E-05-1.07352E-06-1.09081E-18-8.23492E-19
 -1      1061 9.39760E-05-2.71382E-05-2.86445E-05-7.13876E-07 6.33182E-19-4.34249E-19
 -1      1062 9.42530E-05-2.73788E-05-2.86605E-05-4.67908E-07-2.76920E-19-8.50056E-19
 -1      1063 9.44936E-05-2.76093E-05-2.86645E-05-3.04608E-07 1.98269E-19-6.48101E-19
 -1      1064 9.46901E-05-2.78145E-05-2.86610E-05-1.97843E-07 3.26589E-19-7.52374E-19
 -1      1065 9.48457E-05-2.79887E-05-2.86530E-05-1.26492E-07-2.44657E-19-2.60499E-18
 -1      1066 9.49652E-05-2.81323E-05-2.86427E-05-7.97917E-08 1.42987E-18-3.59085E-18
 -1      1067 9.50546E-05-2.82478E-05-2.86314E-05-4.84483E-08 3.20456E-18-1.86202E-18
 -1      1068 9.40889E-05-2.47922E-05-2.96981E-05 1.52090E-06-6.09949E-20 4.15694E-19
 -1      1069 9.50229E-05-2.81998E-05-2.86384E-05 4.14108E-08 1.78763E-18-3.60493E-18
 -1      1070 9.46567E-05-2.54707E-05-2.96499E-05 1.97524E-06 2.37522E-20 4.65130E-19
 -1      1071 8.67917E-05-2.27378E-05-2.74497E-05 6.06992E-06 9.23091E-19 4.15271E-19
 -1      1072 9.09064E-05-2.81562E-05-2.69007E-05-1.25072E-05-6.84432E-19 1.75114E-18
 -1      1073 9.37761E-05-2.68394E-05-2.86871E-05 2.52083E-07-9.61818E-19-2.98093E-18
 -1      1074 8.69253E-05-2.34303E-05-2.72120E-05-7.74095E-06-2.00748E-19-1.25959E-18
 -1      1075 9.43845E-05-2.67111E-05-2.90037E-05 3.64331E-06 2.46178E-19 1.41633E-19
 -1      1076 9.51395E-05-2.83693E-05-2.86159E-05-1.36682E-09 2.54168E-18-2.25043E-18
 -1      1077 9.45528E-05-2.61394E-05-2.93202E-05 2.71007E-06 1.05535E-20 5.54280E-20
 -1      1078 9.07732E-05-2.49479E-05-2.82102E-05-3.01507E-06-9.14126E-19-1.22367E-18
 -1      1079 9.88303E-05-3.43547E-05-2.76267E-05 1.19831E-05 3.41722E-19 1.63300E-18
 -1      1080 9.80948E-05-3.35335E-05-2.76570E-05-1.09733E-05-5.71579E-19 2.25781E-18
 -1      1081 9.03599E-05-2.50213E-05-2.80099E-05-4.39796E-06-1.11861E-18-1.73508E-18
 -1      1082 9.49163E-05-2.80651E-05-2.86505E-05 4.94182E-08 2.46449E-20-2.15600E-18
 -1      1083 9.27602E-05-2.51536E-05-2.89741E-05 2.60859E-06 1.25214E-21 4.59791E-19
 -1      1084 9.45739E-05-2.76757E-05-2.86707E-05 3.72125E-08-7.26568E-19-4.99139E-19
 -1      1085 9.43121E-05-2.74057E-05-2.86744E-05-1.97848E-09-5.73589E-19-1.38184E-19
 -1      1086 9.15593E-05-2.50189E-05-2.85172E-05-4.59729E-07 3.14452E-20-5.32014E-19
 -1      1087 9.30134E-05-2.62658E-05-2.86063E-05-5.45941E-07-1.03363E-18 8.40500E-19
 -1      1088 9.35840E-05-2.51238E-05-2.93386E-05 2.00160E-06 1.56380E-19 3.87228E-19
 -1      1089 9.23604E-05-2.57923E-05-2.85294E-05-1.03360E-06-3.98565E-19 8.29045E-19
 -1      1090 9.18870E-05-2.53565E-05-2.85146E-05 4.17362E-06 3.63236E-19 2.91643E-19
 -1      1091 9.17143E-05-2.70590E-05-2.77152E-05 8.45572E-06 8.84315E-19 3.85351E-19
 -1      1092 9.47705E-05-2.78928E-05-2.86619E-05 5.03964E-08-1.98348E-18-1.37701E-18
 -1      1093 9.16060E-05-2.53299E-05-2.84042E-05-1.81282E-06-6.88250E-19 5.92141E-19
 -1      1094 9.10105E-05-2.58601E-05-2.79269E-05-5.57863E-06 5.47518E-19-5.27226E-19
 -1      1095 9.39459E-05-2.70738E-05-2.86594E-05-2.79623E-07-5.63044E-19 1.29236E-21
 -1      1096 9.18429E-05-2.75067E-05-2.75664E-05-8.63272E-06 2.85162E-19 1.20512E-18
 -1      1097 9.35462E-05-2.66995E-05-2.86488E-05-2.54872E-07-6.95736E-19 1.46464E-18
 -1      1098 1.16597E-04 2.57092E-10-4.17900E-05-4.12183E-05-1.23243E-19-1.14921E-18
 -1      1099 8.87051E-05 7.24315E-11-3.72622E-05-2.38743E-05-3.09167E-20-1.93632E-18
 -1      1100 8.42054E-05 4.18165E-11-3.58114E-05-1.75186E-05-6.61744E-21-1.88321E-18
 -1      1101 8.24618E-05 3.21149E-11-3.51222E-05-1.34418E-05 1.19908E-20-1.60651E-18
 -1      1102 8.16199E-05 2.70743E-11-3.47758E-05-1.01419E-05 1.88730E-20-1.31917E-18
 -1      1103 8.11599E-05 2.40036E-11-3.45914E-05-7.29629E-06 1.70201E-20-9.71031E-19
 -1      1104 8.08974E-05 2.20414E-11-3.44892E-05-4.72222E-06 2.02428E-20-6.91417E-19
 -1      1105 8.07574E-05 2.09079E-11-3.44365E-05-2.29504E-06 2.02643E-20-4.50251E-19
 -1      1106 8.07155E-05 2.05011E-11-3.44214E-05 4.66961E-08 2.73623E-20-2.13247E-19
 -1      1107 8.07656E-05 2.08066E-11-3.44408E-05 2.38264E-06 2.72804E-20 9.92617E-23
 -1      1108 8.09163E-05 2.18815E-11-3.44985E-05 4.79503E-06 2.99638E-20 2.21208E-19
 -1      1109 8.11941E-05 2.38325E-11-3.46062E-05 7.35221E-06 2.64896E-20 5.84982E-19
 -1      1110 8.16676E-05 2.70041E-11-3.47961E-05 1.01863E-05 3.22667E-20 9.23504E-19
 -1      1111 8.25216E-05 3.21811E-11-3.51468E-05 1.34874E-05 2.62316E-20 1.40185E-18
 -1      1112 8.42748E-05 4.20538E-11-3.58399E-05 1.75817E-05 2.77403E-20 2.06941E-18
 -1      1113 8.87972E-05 7.27884E-11-3.72978E-05 2.39595E-05 5.50571E-21 3.00946E-18
 -1      1114 1.16796E-04 2.57667E-10-4.17361E-05 4.14677E-05-8.59738E-20 3.82626E-18
 -1      1115 1.29832E-04-2.57090E-05-4.01929E-05-2.59408E-05-3.50036E-19-7.58942E-19
 -1      1116 9.74391E-05-2.88597E-05-3.15715E-05-6.54642E-07-1.13370E-19-1.48443E-18
 -1      1117 9.04121E-05-2.71051E-05-2.79659E-05 3.92026E-07-2.17582E-20-2.17462E-18
 -1      1118 8.87484E-05-2.67244E-05-2.67951E-05 2.54719E-07-5.79060E-20-2.89346E-18
 -1      1119 8.86675E-05-2.66810E-05-2.66247E-05 1.71466E-07-2.00145E-20-3.00519E-18
 -1      1120 8.93546E-05-2.68558E-05-2.68091E-05 1.26529E-07-6.80902E-20-3.10792E-18
 -1      1121 9.04255E-05-2.71548E-05-2.71265E-05 9.95021E-08-1.25086E-20-3.15284E-18
 -1      1122 9.16705E-05-2.75140E-05-2.74956E-05 8.18954E-08-5.64613E-21-3.40115E-18
 -1      1123 9.29467E-05-2.78868E-05-2.78716E-05 6.88734E-08-2.41983E-20-4.18731E-18
 -1      1124 9.41292E-05-2.82332E-05-2.82167E-05 5.69721E-08 2.92069E-20-4.59432E-18
 -1      1125 9.50848E-05-2.85120E-05-2.84906E-05 4.29424E-08 3.81165E-21-4.97960E-18
 -1      1126 9.56584E-05-2.86765E-05-2.86470E-05 2.34082E-08 3.20566E-20-4.48236E-18
 -1      1127 9.56730E-05-2.86742E-05-2.86346E-05-4.76309E-09 6.98968E-21-5.03934E-18
 -1      1128 9.49485E-05-2.84524E-05-2.84037E-05-4.33263E-08 7.67127E-20-5.52298E-18
 -1      1129 9.33461E-05-2.79715E-05-2.79190E-05-9.08487E-08 2.18640E-20-5.83696E-18
 -1      1130 9.08352E-05-2.72245E-05-2.71789E-05-1.40802E-07-1.84618E-20-5.43380E-18
 -1      1131 8.75683E-05-2.62585E-05-2.62339E-05-1.80912E-07 1.37291E-20-4.96867E-18
 -1      1132 8.39291E-05-2.51878E-05-2.51976E-05-1.95504E-07 9.19618E-21-5.33917E-18
 -1      1133 8.05112E-05-2.41862E-05-2.42365E-05-1.71566E-07 1.16252E-20-6.44131E-18
 -1      1134 7.79962E-05-2.34515E-05-2.35360E-05-1.06576E-07-8.90377E-20-6.87825E-18
 -1      1135 7.69546E-05-2.31481E-05-2.32482E-05-1.31350E-08 5.74063E-21-7.01419E-18
 -1      1136 7.76473E-05-2.33510E-05-2.34420E-05 8.41017E-08 9.79117E-20-5.82813E-18
 -1      1137 7.99280E-05-2.40181E-05-2.40793E-05 1.58843E-07-7.05519E-20-3.55058E-18
 -1      1138 8.33023E-05-2.50074E-05-2.50291E-05 1.94708E-07-3.77926E-19-5.87007E-18
 -1      1139 8.71088E-05-2.61277E-05-2.61130E-05 1.90572E-07 2.09336E-19-5.00488E-18
 -1      1140 9.07281E-05-2.71978E-05-2.71590E-05 1.57545E-07-2.38369E-19-4.57835E-18
 -1      1141 9.37286E-05-2.80900E-05-2.80417E-05 1.11407E-07 1.18595E-19-5.03191E-18
 -1      1142 9.59118E-05-2.87438E-05-2.86979E-05 6.57905E-08-3.44962E-19-6.28457E-18
 -1      1143 9.72780E-05-2.91570E-05-2.91206E-05 2.89050E-08-9.23663E-20-6.80454E-18
 -1      1144 9.79530E-05-2.93653E-05-2.93404E-05 3.56627E-09 1.70518E-19-5.87794E-18
 -1      1145 9.81155E-05-2.94203E-05-2.94059E-05-1.10519E-08-2.33071E-20-4.62112E-18
 -1      1146 9.79443E-05-2.93746E-05-2.93682E-05-1.74712E-08 2.06110E-19-4.63124E-18
 -1      1147 9.75892E-05-2.92725E-05-2.92715E-05-1.85080E-08-7.70525E-20-3.33833E-18
 -1      1148 9.71606E-05-2.91472E-05-2.91491E-05-1.65408E-08-3.25018E-19-2.72910E-18
 -1      1149 9.67312E-05-2.90204E-05-2.90237E-05-1.32731E-08 1.77718E-19-2.78623E-18
 -1      1150 9.63432E-05-2.89052E-05-2.89087E-05-9.77124E-09 1.77410E-19-2.69587E-18
 -1      1151 9.60162E-05-2.88076E-05-2.88108E-05-6.61019E-09 2.31083E-20-2.33708E-18
 -1      1152 9.57553E-05-2.87294E-05-2.87320E-05-4.03336E-09-1.14669E-19-1.26854E-18
 -1      1153 9.55569E-05-2.86697E-05-2.86717E-05-2.08482E-09-1.52800E-19-4.77793E-19
 -1      1154 9.54129E-05-2.86261E-05-2.86276E-05-7.04165E-10-2.18051E-19-1.45240E-18
 -1      1155 9.53136E-05-2.85959E-05-2.85969E-05 2.12402E-10 3.60132E-20-2.96016E-18
 -1      1156 9.52496E-05-2.85764E-05-2.85770E-05 7.76726E-10 2.36671E-19-3.42356E-18
 -1      1157 9.52123E-05-2.85648E-05-2.85652E-05 1.09064E-09-9.80166E-20-6.44394E-18
 -1      1158 9.51947E-05-2.85592E-05-2.85594E-05 1.23842E-09 1.22414E-19-6.16958E-18
 -1      1159 9.51908E-05-2.85578E-05-2.85579E-05 1.28469E-09 3.74076E-19-3.52379E-18
 -1      1160 9.51960E-05-2.85592E-05-2.85592E-05 1.27384E-09-3.74272E-19-1.88910E-18
 -1      1161 9.52068E-05-2.85622E-05-2.85621E-05 1.22537E-09 6.79936E-20-3.30043E-18
 -1      1162 9.52197E-05-2.85660E-05-2.85657E-05 1.09725E-09 1.41876E-19 4.72689E-19
 -1      1163 9.52313E-05-2.85694E-05-2.85688E-05 7.78442E-10 1.48355E-19 2.38539E-18
 -1      1164 9.52369E-05-2.85712E-05-2.85708E-05 3.89277E-12 7.58854E-19 2.45736E-18
 -1      1165 1.30900E-04-2.57666E-05-4.03030E-05 2.66883E-05-1.49713E-19 4.52612E-18
 -1      1166 9.80559E-05-2.90126E-05-3.18143E-05 8.35956E-07-7.55448E-20 4.97357E-18
 -1      1167 9.05039E-05-2.71180E-05-2.80469E-05-3.90786E-07-2.72639E-21 5.12217E-18
 -1      1168 8.87448E-05-2.67264E-05-2.68129E-05-2.53584E-07-2.03850E-20 5.08212E-18
 -1      1169 8.86795E-05-2.66917E-05-2.66380E-05-1.67142E-07 6.66873E-21 5.16428E-18
 -1      1170 8.94984E-05-2.69100E-05-2.68642E-05-1.20032E-07-1.06695E-19 4.92216E-18
 -1      1171 9.08747E-05-2.73045E-05-2.72828E-05-9.32023E-08 7.57946E-21 5.27625E-18
 -1      1172 9.26621E-05-2.78370E-05-2.78294E-05-8.07914E-08-2.31189E-20 5.83864E-18
 -1      1173 9.49302E-05-2.85169E-05-2.85290E-05-7.73667E-08 1.24744E-19 5.93950E-18
 -1      1174 9.79114E-05-2.94168E-05-2.94534E-05-9.01726E-08 4.87441E-20 5.53232E-18
 -1      1175 1.01848E-04-3.06062E-05-3.06808E-05-1.26238E-07-5.75635E-20 4.54881E-18
 -1      1176 1.07187E-04-3.22166E-05-3.23488E-05-1.99557E-07 7.23948E-21 4.28503E-18
 -1      1177 1.14535E-04-3.44256E-05-3.46317E-05-3.31474E-07-2.44482E-20 4.63242E-18
 -1      1178 1.24561E-04-3.74229E-05-3.76896E-05-5.42800E-07-7.27191E-20 5.59539E-18
 -1      1179 1.37294E-04-4.12503E-05-4.14096E-05-8.08050E-07 1.71068E-19 6.09017E-18
 -1      1180 1.52164E-04-4.57000E-05-4.54343E-05-1.00727E-06-9.98010E-20 6.39732E-18
 -1      1181 1.65821E-04-4.97680E-05-4.85618E-05-6.86598E-07 2.04492E-19 7.02947E-18
 -1      1182 1.68975E-04-5.05620E-05-4.85137E-05 9.38946E-07-1.80789E-19 9.23097E-18
 -1      1183 1.50646E-04-4.47390E-05-4.38082E-05 3.95996E-06-8.31680E-20 1.15425E-17
 -1      1184 1.15041E-04-3.35379E-05-3.67935E-05 5.27991E-06-1.39363E-19 1.14620E-17
 -1      1185 8.59028E-05-2.48817E-05-3.15312E-05 2.64932E-06 7.87741E-20 1.18680E-17
 -1      1186 8.12603E-05-2.40820E-05-3.06134E-05-2.07345E-06-5.77571E-20 1.28188E-17
 -1      1187 1.04458E-04-3.08464E-05-3.47467E-05-5.31213E-06 5.60577E-19 1.06497E-17
 -1      1188 1.42745E-04-4.21232E-05-4.22353E-05-4.69890E-06 3.27484E-19 6.68013E-18
 -1      1189 1.67449E-04-4.99919E-05-4.80141E-05-1.59547E-06 6.16216E-20 4.34295E-18
 -1      1190 1.68794E-04-5.06399E-05-4.91518E-05 4.41678E-07 4.53692E-20 5.45907E-18
 -1      1191 1.56814E-04-4.71003E-05-4.66336E-05 1.00395E-06-6.27334E-21 7.32641E-18
 -1      1192 1.41650E-04-4.25522E-05-4.26692E-05 8.67283E-07 2.87702E-19 8.48939E-18
 -1      1193 1.28300E-04-3.85527E-05-3.88187E-05 5.82223E-07-1.22026E-20 7.28438E-18
 -1      1194 1.18300E-04-3.55673E-05-3.57896E-05 3.35741E-07-1.23759E-19 6.43459E-18
 -1      1195 1.11099E-04-3.33937E-05-3.35512E-05 2.06361E-07 6.19889E-20 7.46109E-18
 -1      1196 1.05939E-04-3.18364E-05-3.19328E-05 1.12506E-07-2.22359E-19 7.07648E-18
 -1      1197 1.02413E-04-3.07675E-05-3.08237E-05 5.95627E-08 1.81679E-19 8.02204E-18
 -1      1198 1.00017E-04-3.00384E-05-3.00705E-05 3.02868E-08-1.57826E-21 8.18843E-18
 -1      1199 9.83921E-05-2.95422E-05-2.95605E-05 1.43199E-08 3.39821E-19 8.60727E-18
 -1      1200 9.72898E-05-2.92044E-05-2.92153E-05 5.64208E-09 1.28120E-19 4.55808E-18
 -1      1201 9.65584E-05-2.89818E-05-2.89865E-05-2.70807E-10 1.97428E-19 2.29715E-18
 -1      1202 9.60610E-05-2.88279E-05-2.88313E-05-9.60450E-10-2.62192E-19 1.57799E-18
 -1      1203 9.57175E-05-2.87221E-05-2.87240E-05-2.06422E-09-1.31277E-19 4.15460E-18
 -1      1204 9.54910E-05-2.86523E-05-2.86532E-05-2.50640E-09-3.14896E-19 3.69214E-18
 -1      1205 9.53455E-05-2.86072E-05-2.86077E-05-2.58932E-09 6.81347E-20 4.44695E-18
 -1      1206 9.52558E-05-2.85793E-05-2.85794E-05-2.48986E-09-6.03276E-19 5.04117E-18
 -1      1207 9.52045E-05-2.85631E-05-2.85631E-05-2.30798E-09-3.28353E-19 6.91451E-18
 -1      1208 9.51797E-05-2.85553E-05-2.85551E-05-2.17841E-09 2.79374E-19 6.05599E-18
 -1      1209 9.51719E-05-2.85525E-05-2.85524E-05-1.88675E-09 4.79752E-19 4.37885E-18
 -1      1210 9.51755E-05-2.85532E-05-2.85531E-05-1.68994E-09 4.78031E-19 4.44921E-18
 -1      1211 9.51864E-05-2.85563E-05-2.85562E-05-1.53105E-09 1.13259E-19 4.67402E-18
 -1      1212 9.52014E-05-2.85606E-05-2.85604E-05-1.39298E-09 5.39364E-19 4.55530E-18
 -1      1213 9.52173E-05-2.85652E-05-2.85649E-05-1.21463E-09-2.65429E-19 4.18936E-18
 -1      1214 9.52307E-05-2.85691E-05-2.85686E-05-8.14059E-10-2.70188E-19 5.17701E-18
 -1      1215 9.52369E-05-2.85711E-05-2.85708E-05 3.52514E-11 2.14901E-20 2.55497E-18
 -1      1216 9.52371E-05-2.85715E-05-2.85708E-05-2.57316E-10 3.24771E-18-1.49520E-18
 -1      1217 9.52391E-05-2.85776E-05-2.85687E-05-8.05921E-10-1.88624E-19-1.04066E-18
 -1      1218 9.52427E-05-2.85897E-05-2.85655E-05-9.82781E-10 1.40098E-19 8.71418E-20
 -1      1219 9.52464E-05-2.86022E-05-2.85621E-05-8.07077E-10-1.26678E-18 3.04271E-19
 -1      1220 9.52494E-05-2.86123E-05-2.85592E-05-5.44932E-10-5.24714E-18 1.65082E-19
 -1      1221 9.52514E-05-2.86189E-05-2.85571E-05-2.98688E-10-6.74060E-18-1.34543E-18
 -1      1222 9.52525E-05-2.86224E-05-2.85560E-05-1.26012E-10-3.39642E-18 1.24645E-18
 -1      1223 9.52528E-05-2.86236E-05-2.85556E-05-7.60616E-12-5.07849E-18-1.23690E-18
 -1      1224 9.52527E-05-2.86230E-05-2.85557E-05 6.56290E-11-8.57502E-18-3.54034E-19
 -1      1225 9.52521E-05-2.86212E-05-2.85562E-05 1.24084E-10-7.48369E-18-3.62228E-19
 -1      1226 9.52512E-05-2.86182E-05-2.85572E-05 2.00941E-10-9.99946E-18-2.59453E-19
 -1      1227 9.52499E-05-2.86137E-05-2.85586E-05 3.20673E-10-1.37978E-17 1.41049E-18
 -1      1228 9.52479E-05-2.86071E-05-2.85606E-05 4.92661E-10-1.02439E-17 9.13133E-19
 -1      1229 9.52452E-05-2.85981E-05-2.85632E-05 7.08029E-10-5.77198E-18-2.80920E-19
 -1      1230 9.52420E-05-2.85872E-05-2.85663E-05 1.00020E-09-7.63905E-18-1.87047E-19
 -1      1231 9.52390E-05-2.85770E-05-2.85690E-05 8.27236E-10-5.02199E-18-7.31687E-19
 -1      1232 9.52371E-05-2.85714E-05-2.85708E-05 1.94939E-10-2.29429E-18 1.81230E-19
 -1      1233 3.86507E-05-1.22639E-04 2.18462E-05-1.68802E-05 7.23228E-18 8.45577E-19
 -1      1234 2.28210E-05-8.97510E-05 1.53528E-05-3.68201E-05 1.00873E-17 4.20742E-18
 -1      1235 6.60480E-06-3.30819E-05 8.65012E-07-2.18235E-05 9.10730E-18 5.12455E-18
 -1      1236 2.16550E-05 1.03328E-05-1.93354E-05 2.69062E-05 2.11928E-18 1.42640E-18
 -1      1237 9.22283E-05 1.33025E-05-4.34050E-05 8.80799E-05-1.91429E-19-4.79421E-19
 -1      1238 2.13911E-04-3.14243E-05-6.70143E-05 1.19293E-04-1.70847E-18-4.77049E-18
 -1      1239 3.29080E-04-8.92239E-05-8.35123E-05 8.35268E-05-1.61741E-18-8.90909E-18
 -1      1240 3.77713E-04-1.16270E-04-8.93866E-05-6.07862E-07-1.76289E-19-8.99740E-18
 -1      1241 3.27573E-04-8.79763E-05-8.34614E-05-8.45739E-05 2.49218E-18-1.06879E-17
 -1      1242 2.15355E-04-3.12854E-05-6.73187E-05-1.19249E-04 5.37951E-18-1.22481E-17
 -1      1243 9.80505E-05 1.25328E-05-4.48414E-05-9.13764E-05 5.32614E-18-8.37207E-18
 -1      1244 2.46394E-05 1.19221E-05-2.08963E-05-3.12288E-05 2.86128E-18-3.16452E-18
 -1      1245 6.82425E-06-3.11030E-05 8.68210E-08 1.97841E-05 5.59042E-19-6.91179E-19
 -1      1246 2.18149E-05-8.75642E-05 1.48603E-05 3.69821E-05-2.26835E-18 5.67936E-19
 -1      1247 3.81628E-05-1.22226E-04 2.17002E-05 1.89829E-05-2.78674E-18 5.55601E-19
 -1      1248 3.68026E-05-1.15778E-04 2.03762E-05-1.04047E-05-5.40111E-18-1.12068E-18
 -1      1249 2.03093E-05-7.20773E-05 1.12504E-05-2.41034E-05-1.09098E-17-3.92706E-18
 -1      1250 7.38247E-06-1.32978E-05-4.11168E-06-3.50960E-06-1.16619E-17-5.86316E-18
 -1      1251 2.61327E-05 2.66753E-05-2.39436E-05 4.75828E-05-6.12405E-18-4.83486E-18
 -1      1252 9.03348E-05 2.41526E-05-4.47476E-05 1.00501E-04-1.59073E-18-9.89334E-19
 -1      1253 1.85049E-04-1.63801E-05-6.29509E-05 1.20446E-04 7.97905E-19 2.31409E-18
 -1      1254 2.76923E-04-6.87601E-05-7.61266E-05 8.90862E-05 1.10135E-18 5.34986E-18
 -1      1255 3.22487E-04-9.70355E-05-8.19069E-05 1.17904E-05-3.66871E-20 9.03011E-18
 -1      1256 2.96097E-04-8.05137E-05-7.86057E-05-7.14912E-05-2.51526E-18 1.21473E-17
 -1      1257 2.11452E-04-3.06465E-05-6.71141E-05-1.17759E-04-5.04832E-18 1.13197E-17
 -1      1258 1.11065E-04 1.71654E-05-4.94000E-05-1.08336E-04-5.03815E-18 7.61652E-18
 -1      1259 3.58458E-05 2.99189E-05-2.82815E-05-5.95520E-05-1.37897E-18 2.11928E-18
 -1      1260 7.72318E-06-3.03218E-06-7.75203E-06-4.73316E-06-8.47033E-21 2.76980E-19
 -1      1261 1.73797E-05-6.24379E-05 9.16807E-06 2.25815E-05 2.69272E-18-3.69306E-19
 -1      1262 3.63876E-05-1.13029E-04 1.96850E-05 1.30680E-05 8.71004E-18-9.71944E-19
 -1      1263 1.04351E-04-2.19984E-05-3.78507E-05-1.71128E-05-1.39337E-19-1.56659E-18
 -1      1264 9.04498E-05-6.73478E-06-3.60454E-05-2.01429E-05-7.35330E-20-1.95749E-18
 -1      1265 9.27431E-05-6.80377E-06-3.72236E-05-2.54495E-05-1.96935E-19-1.97750E-18
 -1      1266 8.60624E-05-4.13078E-06-3.51812E-05-1.60456E-05 6.04040E-20-1.80161E-18
 -1      1267 8.73101E-05-4.12929E-06-3.56425E-05-1.84869E-05 2.45640E-20-1.90805E-18
 -1      1268 9.23012E-05-1.05335E-05-3.51322E-05-1.86634E-05-5.77306E-20-1.68697E-18
 -1      1269 8.42240E-05-3.19972E-06-3.47370E-05-1.24109E-05 1.68454E-19-1.53445E-18
 -1      1270 8.48508E-05-3.17113E-06-3.49642E-05-1.42318E-05 1.55960E-19-1.69367E-18
 -1      1271 8.80307E-05-7.42319E-06-3.46282E-05-1.50071E-05 1.29318E-19-1.53048E-18
 -1      1272 8.32378E-05-2.70064E-06-3.45057E-05-9.29575E-06 2.31571E-19-1.21802E-18
 -1      1273 8.35868E-05-2.68623E-06-3.46239E-05-1.08285E-05 2.53461E-19-1.38632E-18
 -1      1274 8.59642E-05-5.95962E-06-3.43551E-05-1.15408E-05 3.25889E-19-1.33863E-18
 -1      1275 8.26641E-05-2.39597E-06-3.43807E-05-6.58351E-06 3.18547E-19-9.14147E-19
 -1      1276 8.28686E-05-2.38900E-06-3.44452E-05-7.92069E-06 2.68245E-19-1.06136E-18
 -1      1277 8.48189E-05-5.12738E-06-3.42090E-05-8.55996E-06 4.01470E-19-9.95131E-19
 -1      1278 8.23156E-05-2.19970E-06-3.43105E-05-4.05991E-06 3.42764E-19-6.36611E-19
 -1      1279 8.24363E-05-2.19690E-06-3.43464E-05-5.30932E-06 3.37490E-19-8.01227E-19
 -1      1280 8.41326E-05-4.61119E-06-3.41288E-05-5.90299E-06 5.09181E-19-7.82658E-19
 -1      1281 8.21338E-05-2.08638E-06-3.42775E-05-1.68199E-06 4.02346E-19-3.61630E-19
 -1      1282 8.21900E-05-2.08545E-06-3.42932E-05-2.86748E-06 3.80821E-19-4.84648E-19
 -1      1283 8.37250E-05-4.29518E-06-3.40855E-05-3.43612E-06 5.67934E-19-4.22219E-19
 -1      1284 8.20933E-05-2.04536E-06-3.42741E-05 6.31194E-07 4.44161E-19-1.41282E-19
 -1      1285 8.20925E-05-2.04545E-06-3.42730E-05-5.31301E-07 4.29047E-19-2.62289E-19
 -1      1286 8.35312E-05-4.13904E-06-3.40676E-05-1.09500E-06 6.82457E-19-2.19157E-19
 -1      1287 8.21919E-05-2.07505E-06-3.42994E-05 2.95800E-06 4.91454E-19 2.32934E-20
 -1      1288 8.21330E-05-2.07608E-06-3.42813E-05 1.77825E-06 4.77059E-19-8.39489E-20
 -1      1289 8.35277E-05-4.12845E-06-3.40705E-05 1.19986E-06 7.56115E-19-5.73865E-20
 -1      1290 8.24460E-05-2.18110E-06-3.43581E-05 5.38128E-06 4.38710E-19 2.80447E-19
 -1      1291 8.23195E-05-2.18321E-06-3.43194E-05 4.14081E-06 4.51330E-19 1.27796E-19
 -1      1292 8.37186E-05-4.26745E-06-3.40943E-05 3.52706E-06 7.62998E-19 1.30655E-19
 -1      1293 8.28884E-05-2.37084E-06-3.44617E-05 7.94924E-06 4.34012E-19 6.21497E-19
 -1      1294 8.26767E-05-2.37795E-06-3.43945E-05 6.62170E-06 4.26666E-19 4.25700E-19
 -1      1295 8.41305E-05-4.57406E-06-3.41429E-05 5.94941E-06 7.10103E-19 3.77009E-19
 -1      1296 8.36332E-05-2.67882E-06-3.46463E-05 1.08683E-05 4.81882E-19 1.03124E-18
 -1      1297 8.32747E-05-2.69377E-06-3.45255E-05 9.33920E-06 4.71771E-19 8.29497E-19
 -1      1298 8.48356E-05-5.09705E-06-3.42283E-05 8.58408E-06 7.05241E-19 7.24134E-19
 -1      1299 8.49183E-05-3.17711E-06-3.49896E-05 1.42741E-05 4.24046E-19 1.49009E-18
 -1      1300 8.42838E-05-3.20640E-06-3.47606E-05 1.24491E-05 4.23146E-19 1.19802E-18
 -1      1301 8.60175E-05-5.95588E-06-3.43786E-05 1.15755E-05 7.22413E-19 1.09537E-18
 -1      1302 8.73989E-05-4.14798E-06-3.56700E-05 1.85501E-05 2.75815E-19 2.20896E-18
 -1      1303 8.61438E-05-4.15517E-06-3.52062E-05 1.60956E-05 2.97070E-19 1.78586E-18
 -1      1304 8.81189E-05-7.45306E-06-3.46518E-05 1.50501E-05 5.32307E-19 1.62265E-18
 -1      1305 9.28091E-05-6.73502E-06-3.72310E-05 2.55832E-05 3.85400E-20 3.09183E-18
 -1      1306 9.05552E-05-6.77873E-06-3.60707E-05 2.02315E-05 1.13714E-19 2.62326E-18
 -1      1307 9.24378E-05-1.06200E-05-3.51502E-05 1.87330E-05 2.77615E-19 2.29890E-18
 -1      1308 1.04720E-04-2.19738E-05-3.79892E-05 1.74654E-05-8.13152E-20 4.01917E-18
 -1      1309 1.05146E-04-3.02384E-05-3.35177E-05-7.80403E-06-1.85500E-19-1.38130E-18
 -1      1310 9.83900E-05-2.78918E-05-3.07921E-05-4.85734E-06-1.39813E-19-1.65044E-18
 -1      1311 9.57147E-05-2.79139E-05-2.93157E-05-2.36034E-06-1.45928E-19-1.67177E-18
 -1      1312 9.36051E-05-2.76580E-05-2.83141E-05-1.91491E-06-1.48575E-19-1.94982E-18
 -1      1313 9.96862E-05-2.81206E-05-3.10387E-05-7.63191E-06-2.53422E-19-1.52593E-18
 -1      1314 9.20177E-05-2.73279E-05-2.77129E-05-7.01500E-07-1.55828E-19-1.93558E-18
 -1      1315 9.14310E-05-2.72704E-05-2.74501E-05-5.87759E-07-1.20636E-19-2.17444E-18
 -1      1316 9.51038E-05-2.78829E-05-2.89341E-05-2.85882E-06-2.80765E-19-1.49638E-18
 -1      1317 9.07982E-05-2.71208E-05-2.72437E-05-1.56992E-08-1.59646E-20-2.24038E-18
 -1      1318 9.08755E-05-2.71925E-05-2.72536E-05 4.77513E-08-7.21037E-20-2.33814E-18
 -1      1319 9.31180E-05-2.76698E-05-2.80809E-05-7.59091E-07-1.59785E-19-1.49436E-18
 -1      1320 9.07524E-05-2.71646E-05-2.72215E-05 3.40493E-07-1.43251E-20-2.18246E-18
 -1      1321 9.11428E-05-2.73085E-05-2.73352E-05 3.75213E-07 6.10790E-21-2.17383E-18
 -1      1322 9.24080E-05-2.75975E-05-2.77903E-05 2.73686E-07 8.12093E-20-1.59852E-18
 -1      1323 9.13022E-05-2.73578E-05-2.73891E-05 5.27406E-07-9.27848E-20-2.21782E-18
 -1      1324 9.18448E-05-2.75400E-05-2.75470E-05 5.44305E-07-4.61451E-20-2.34220E-18
 -1      1325 9.24425E-05-2.76722E-05-2.77685E-05 8.14239E-07-9.45831E-20-1.28242E-18
 -1      1326 9.21562E-05-2.76333E-05-2.76452E-05 6.10641E-07-7.15410E-20-2.38589E-18
 -1      1327 9.27579E-05-2.78301E-05-2.78195E-05 6.14515E-07-2.79172E-19-2.68500E-18
 -1      1328 9.28974E-05-2.78474E-05-2.78846E-05 1.08313E-06-1.94238E-19-1.46755E-18
 -1      1329 9.31360E-05-2.79440E-05-2.79360E-05 6.16905E-07-1.18646E-19-2.64651E-18
 -1      1330 9.37275E-05-2.81364E-05-2.81070E-05 6.09021E-07-4.50092E-20-2.79297E-18
 -1      1331 9.35690E-05-2.80790E-05-2.80691E-05 1.17153E-06-2.93568E-19-1.52832E-18
 -1      1332 9.41062E-05-2.82526E-05-2.82216E-05 5.52697E-07-1.01550E-19-2.81423E-18
 -1      1333 9.46224E-05-2.84219E-05-2.83701E-05 5.32020E-07-2.17130E-19-2.88445E-18
 -1      1334 9.43121E-05-2.83314E-05-2.82752E-05 1.11211E-06-1.76552E-19-1.37456E-18
 -1      1335 9.49409E-05-2.85233E-05-2.84639E-05 4.12961E-07-6.14413E-20-3.01143E-18
 -1      1336 9.53104E-05-2.86482E-05-2.85690E-05 3.77051E-07 7.74886E-20-2.92094E-18
 -1      1337 9.50035E-05-2.85720E-05-2.84636E-05 9.06494E-07-1.62271E-19-1.26481E-18
 -1      1338 9.55065E-05-2.87169E-05-2.86228E-05 1.87721E-07-1.45430E-19-3.17547E-18
 -1      1339 9.56480E-05-2.87719E-05-2.86609E-05 1.33940E-07-3.04914E-19-3.49907E-18
 -1      1340 9.55232E-05-2.87667E-05-2.85976E-05 5.40698E-07-2.18371E-19-1.57402E-18
 -1      1341 9.56571E-05-2.87879E-05-2.86553E-05-1.29820E-07-2.52014E-19-3.57461E-18
 -1      1342 9.54837E-05-2.87442E-05-2.86016E-05-2.02449E-07-1.70416E-19-3.79449E-18
 -1      1343 9.57462E-05-2.88758E-05-2.86406E-05 8.50764E-11-3.66420E-19-2.57085E-18
 -1      1344 9.52443E-05-2.86870E-05-2.85192E-05-5.32477E-07 1.57594E-20-3.89969E-18
 -1      1345 9.46787E-05-2.85172E-05-2.83525E-05-6.20709E-07-1.33285E-19-3.96239E-18
 -1      1346 9.55464E-05-2.88540E-05-2.85587E-05-7.11727E-07-2.10289E-19-2.57282E-18
 -1      1347 9.41463E-05-2.83694E-05-2.81823E-05-9.86715E-07 1.79101E-19-4.10059E-18
 -1      1348 9.31476E-05-2.80561E-05-2.78925E-05-1.08039E-06-4.42426E-20-4.01455E-18
 -1      1349 9.48145E-05-2.86555E-05-2.83264E-05-1.55013E-06-1.81970E-19-2.31410E-18
 -1      1350 9.23144E-05-2.78100E-05-2.76355E-05-1.42326E-06-7.05320E-20-3.82893E-18
 -1      1351 9.09119E-05-2.73579E-05-2.72332E-05-1.50394E-06 3.11450E-20-3.62625E-18
 -1      1352 9.34920E-05-2.82457E-05-2.79357E-05-2.40896E-06 1.49746E-19-2.42843E-18
 -1      1353 8.98305E-05-2.70244E-05-2.69085E-05-1.73878E-06 9.37973E-20-3.72070E-18
 -1      1354 8.81540E-05-2.64725E-05-2.64323E-05-1.78185E-06-4.35734E-20-3.65886E-18
 -1      1355 9.16152E-05-2.76203E-05-2.74065E-05-3.11479E-06 7.56655E-20-2.43414E-18
 -1      1356 8.69517E-05-2.60888E-05-2.60795E-05-1.81711E-06-1.00004E-19-3.51857E-18
 -1      1357 8.52380E-05-2.55148E-05-2.55969E-05-1.79902E-06-4.05312E-19-3.88789E-18
 -1      1358 8.93563E-05-2.68272E-05-2.67930E-05-3.45237E-06-9.70794E-20-2.37476E-18
 -1      1359 8.41104E-05-2.51449E-05-2.52724E-05-1.57142E-06-5.09815E-19-4.22386E-18
 -1      1360 8.26691E-05-2.46556E-05-2.48693E-05-1.48083E-06-3.10937E-19-4.64836E-18
 -1      1361 8.70354E-05-2.59790E-05-2.61824E-05-3.22979E-06-6.86502E-19-2.64985E-18
 -1      1362 8.18412E-05-2.43783E-05-2.46348E-05-9.93129E-07-2.17403E-19-4.81930E-18
 -1      1363 8.09771E-05-2.40820E-05-2.43944E-05-8.40660E-07-2.29566E-19-5.22451E-18
 -1      1364 8.50768E-05-2.52413E-05-2.56802E-05-2.36865E-06-6.04120E-19-3.17995E-18
 -1      1365 8.06380E-05-2.39664E-05-2.42995E-05-1.79383E-07 1.44221E-19-5.48691E-18
 -1      1366 8.05538E-05-2.39362E-05-2.42766E-05 1.64827E-09 7.08761E-20-5.02459E-18
 -1      1367 8.39034E-05-2.47895E-05-2.53854E-05-9.75078E-07-2.98096E-19-3.62465E-18
 -1      1368 8.07905E-05-2.40148E-05-2.43439E-05 6.86934E-07 4.51085E-19-4.55812E-18
 -1      1369 8.15141E-05-2.42608E-05-2.45461E-05 8.51831E-07 6.75449E-19-3.79607E-18
 -1      1370 8.37990E-05-2.47444E-05-2.53619E-05 6.61734E-07 5.93241E-19-3.37722E-18
 -1      1371 8.22782E-05-2.45152E-05-2.47633E-05 1.40324E-06 1.85216E-19-3.46582E-18
 -1      1372 8.36535E-05-2.49805E-05-2.51486E-05 1.51415E-06-3.53894E-19-3.52902E-18
 -1      1373 8.48032E-05-2.51227E-05-2.56189E-05 2.16302E-06 5.43659E-19-3.14476E-18
 -1      1374 8.47813E-05-2.53500E-05-2.54731E-05 1.82506E-06-3.89234E-19-3.07709E-18
 -1      1375 8.65268E-05-2.59338E-05-2.59650E-05 1.86509E-06 2.29725E-20-3.25286E-18
 -1      1376 8.66974E-05-2.58297E-05-2.61080E-05 3.20388E-06-2.24460E-19-1.64101E-18
 -1      1377 8.78003E-05-2.63407E-05-2.63381E-05 1.91141E-06 6.36752E-19-3.28857E-18
 -1      1378 8.96048E-05-2.69345E-05-2.68507E-05 1.88692E-06 3.85399E-19-2.35529E-18
 -1      1379 8.90904E-05-2.67006E-05-2.67394E-05 3.62673E-06 4.04883E-19-6.43973E-19
 -1      1380 9.08201E-05-2.73104E-05-2.72146E-05 1.71800E-06-1.61017E-19-2.37738E-18
 -1      1381 9.24288E-05-2.78292E-05-2.76760E-05 1.65050E-06-3.68076E-19-2.87558E-18
 -1      1382 9.15544E-05-2.75643E-05-2.74091E-05 3.46686E-06 1.12779E-19-8.37103E-19
 -1      1383 9.34430E-05-2.81309E-05-2.79872E-05 1.35398E-06-2.87296E-19-2.94206E-18
 -1      1384 9.47034E-05-2.85275E-05-2.83526E-05 1.26860E-06-2.48277E-19-3.59581E-18
 -1      1385 9.37439E-05-2.82948E-05-2.80257E-05 2.89502E-06-3.48089E-19-3.80804E-19
 -1      1386 9.54486E-05-2.87387E-05-2.85877E-05 9.33022E-07-5.38121E-19-3.76373E-18
 -1      1387 9.63127E-05-2.90020E-05-2.88414E-05 8.50063E-07-6.70829E-19-4.39389E-18
 -1      1388 9.54544E-05-2.88301E-05-2.85276E-05 2.12686E-06-5.26180E-19-1.69258E-18
 -1      1389 9.67850E-05-2.91271E-05-2.89958E-05 5.41096E-07 3.83696E-20-4.13986E-18
 -1      1390 9.72832E-05-2.92716E-05-2.91445E-05 4.72615E-07 8.03192E-20-4.13238E-18
 -1      1391 9.66225E-05-2.91644E-05-2.88879E-05 1.34867E-06-3.27087E-19-2.06146E-18
 -1      1392 9.75204E-05-2.93263E-05-2.92270E-05 2.26087E-07 3.28933E-19-3.53036E-18
 -1      1393 9.77262E-05-2.93788E-05-2.92906E-05 1.76521E-07 9.27749E-19-2.74175E-18
 -1      1394 9.72891E-05-2.93276E-05-2.91089E-05 6.81384E-07 5.03510E-19-1.57905E-18
 -1      1395 9.77847E-05-2.93828E-05-2.93168E-05 2.90011E-09 3.52938E-19-2.70468E-18
 -1      1396 9.77843E-05-2.93726E-05-2.93197E-05-2.84975E-08 7.48847E-21-2.63245E-18
 -1      1397 9.75519E-05-2.93640E-05-2.92116E-05 1.78924E-07 7.56897E-19-8.65326E-19
 -1      1398 9.77227E-05-2.93443E-05-2.93069E-05-1.35140E-07 4.72862E-19-2.33161E-18
 -1      1399 9.75957E-05-2.92973E-05-2.92718E-05-1.51750E-07 6.29415E-19-1.61423E-18
 -1      1400 9.75266E-05-2.93177E-05-2.92255E-05-1.54713E-07 3.95073E-19-1.94511E-19
 -1      1401 9.74645E-05-2.92518E-05-2.92357E-05-2.05182E-07 2.54372E-19-1.89589E-18
 -1      1402 9.72740E-05-2.91877E-05-2.91811E-05-2.11138E-07 9.70634E-21-1.70811E-18
 -1      1403 9.73210E-05-2.92257E-05-2.91806E-05-3.44096E-07 5.58661E-19-9.95413E-20
 -1      1404 9.71121E-05-2.91358E-05-2.91339E-05-2.26883E-07-2.80708E-19-1.47465E-18
 -1      1405 9.69028E-05-2.90681E-05-2.90732E-05-2.25989E-07-1.25449E-19-1.70414E-18
 -1      1406 9.70223E-05-2.91148E-05-2.91027E-05-4.24821E-07 2.00325E-19-3.13303E-19
 -1      1407 9.67368E-05-2.90170E-05-2.90235E-05-2.17916E-07 3.08287E-19-1.53939E-18
 -1      1408 9.65367E-05-2.89538E-05-2.89650E-05-2.13184E-07 6.42565E-19-8.99815E-19
 -1      1409 9.66935E-05-2.90029E-05-2.90113E-05-4.32280E-07 4.04689E-19 5.59191E-20
 -1      1410 9.63830E-05-2.89077E-05-2.89184E-05-1.92117E-07-2.26991E-20-2.07021E-18
 -1      1411 9.62076E-05-2.88533E-05-2.88667E-05-1.85688E-07 3.46265E-20-1.98240E-18
 -1      1412 9.63757E-05-2.89006E-05-2.89198E-05-3.96057E-07 2.79616E-19-1.19001E-18
 -1      1413 9.60746E-05-2.88141E-05-2.88260E-05-1.59248E-07 3.26336E-19-1.93594E-18
 -1      1414 9.59300E-05-2.87699E-05-2.87832E-05-1.52503E-07 2.06091E-19-1.82979E-18
 -1      1415 9.60923E-05-2.88128E-05-2.88362E-05-3.38180E-07 3.06612E-19-2.27867E-18
 -1      1416 9.58209E-05-2.87382E-05-2.87496E-05-1.25561E-07 3.47061E-19-1.38857E-18
 -1      1417 9.57075E-05-2.87040E-05-2.87159E-05-1.19294E-07-3.05165E-19-1.20142E-18
 -1      1418 9.58539E-05-2.87412E-05-2.87647E-05-2.73528E-07 3.94103E-19-1.24461E-18
 -1      1419 9.56219E-05-2.86794E-05-2.86894E-05-9.46197E-08-1.89750E-19-7.33134E-20
 -1      1420 9.55371E-05-2.86541E-05-2.86641E-05-8.92181E-08 1.48318E-19-2.95848E-19
 -1      1421 9.56625E-05-2.86852E-05-2.87065E-05-2.11180E-07 4.28163E-20-2.02728E-19
 -1      1422 9.54726E-05-2.86357E-05-2.86440E-05-6.81150E-08-2.76196E-19 2.35540E-22
 -1      1423 9.54120E-05-2.86180E-05-2.86259E-05-6.37010E-08-9.78491E-19-1.28698E-18
 -1      1424 9.55152E-05-2.86431E-05-2.86611E-05-1.55957E-07-1.60611E-19 5.58125E-19
 -1      1425 9.53655E-05-2.86048E-05-2.86114E-05-4.65347E-08-9.91516E-19-4.68591E-19
 -1      1426 9.53246E-05-2.85931E-05-2.85991E-05-4.30767E-08-4.05819E-19-1.30965E-18
 -1      1427 9.54063E-05-2.86126E-05-2.86272E-05-1.09822E-07-9.14580E-19 1.05655E-18
 -1      1428 9.52927E-05-2.85841E-05-2.85891E-05-2.96675E-08-4.85739E-19-1.54027E-18
 -1      1429 9.52671E-05-2.85769E-05-2.85813E-05-2.70553E-08-8.36784E-19-3.02580E-18
 -1      1430 9.53293E-05-2.85916E-05-2.86029E-05-7.29702E-08-1.24543E-18 3.11615E-19
 -1      1431 9.52465E-05-2.85712E-05-2.85749E-05-1.69518E-08-7.83715E-19-3.17018E-18
 -1      1432 9.52324E-05-2.85674E-05-2.85706E-05-1.50458E-08-1.74144E-19-3.84330E-18
 -1      1433 9.52777E-05-2.85780E-05-2.85864E-05-4.46289E-08-1.08830E-18-7.66714E-19
 -1      1434 9.52204E-05-2.85641E-05-2.85668E-05-7.70363E-09 4.97640E-19-2.89754E-18
 -1      1435 9.52146E-05-2.85628E-05-2.85649E-05-6.36469E-09 8.51227E-19-2.40690E-18
 -1      1436 9.52456E-05-2.85699E-05-2.85759E-05-2.35938E-08 4.60265E-19-3.95302E-19
 -1      1437 9.52089E-05-2.85613E-05-2.85631E-05-1.25832E-09 1.25412E-18-3.60477E-18
 -1      1438 9.52088E-05-2.85616E-05-2.85629E-05-3.65736E-10 6.28059E-19-2.46684E-18
 -1      1439 9.52281E-05-2.85658E-05-2.85700E-05-8.57491E-09 1.28977E-18-4.64605E-19
 -1      1440 9.52073E-05-2.85613E-05-2.85625E-05 2.94239E-09-4.59149E-20-1.89069E-18
 -1      1441 9.52109E-05-2.85627E-05-2.85634E-05 3.47974E-09 3.18766E-19-1.73569E-18
 -1      1442 9.52209E-05-2.85646E-05-2.85673E-05 1.58908E-09 8.55663E-19-1.05876E-18
 -1      1443 9.52122E-05-2.85632E-05-2.85638E-05 5.29232E-09 5.05526E-19-2.03933E-18
 -1      1444 9.52177E-05-2.85652E-05-2.85653E-05 5.52340E-09 1.69848E-19-1.58209E-18
 -1      1445 9.52207E-05-2.85653E-05-2.85667E-05 7.79611E-09 9.66142E-19-1.27655E-18
 -1      1446 9.52203E-05-2.85661E-05-2.85661E-05 5.95496E-09 1.04425E-18-9.88846E-19
 -1      1447 9.52262E-05-2.85682E-05-2.85676E-05 5.86058E-09 1.34315E-18 5.04978E-19
 -1      1448 9.52244E-05-2.85672E-05-2.85674E-05 1.05546E-08 1.57245E-18-9.09650E-19
 -1      1449 9.52291E-05-2.85692E-05-2.85684E-05 4.78725E-09 4.58278E-19 1.57004E-18
 -1      1450 9.52336E-05-2.85709E-05-2.85696E-05 4.39589E-09 4.32864E-19 2.44649E-18
 -1      1451 9.52299E-05-2.85698E-05-2.85686E-05 9.92640E-09 1.63901E-18 2.44011E-19
 -1      1452 9.52365E-05-2.85719E-05-2.85702E-05 8.88404E-10-1.52362E-18 1.76422E-18
 -1      1453 9.52359E-05-2.85730E-05-2.85697E-05 4.79928E-09-1.52285E-18 1.45057E-18
 -1      1454 9.86564E-05-2.78615E-05-3.09589E-05 5.11522E-06-7.83505E-21 3.95850E-18
 -1      1455 1.05638E-04-3.01431E-05-3.37685E-05 8.26405E-06-7.43271E-20 3.82838E-18
 -1      1456 9.37600E-05-2.76837E-05-2.83807E-05 2.00096E-06 4.70633E-20 3.91837E-18
 -1      1457 9.59639E-05-2.79453E-05-2.94324E-05 2.45456E-06 2.35581E-20 3.90351E-18
 -1      1458 9.98944E-05-2.79918E-05-3.11783E-05 7.98626E-06 2.47228E-20 2.98666E-18
 -1      1459 9.15212E-05-2.72821E-05-2.74843E-05 6.00524E-07 2.88454E-20 3.85400E-18
 -1      1460 9.21267E-05-2.73402E-05-2.77600E-05 7.23640E-07-9.21810E-21 3.82160E-18
 -1      1461 9.52851E-05-2.78984E-05-2.90129E-05 2.97792E-06 1.44790E-20 2.94447E-18
 -1      1462 9.10197E-05-2.72198E-05-2.73006E-05-9.55947E-08 7.54852E-20 3.75577E-18
 -1      1463 9.09040E-05-2.71381E-05-2.72808E-05-2.18959E-08 3.82687E-20 3.78110E-18
 -1      1464 9.32779E-05-2.76894E-05-2.81450E-05 7.33244E-07 6.78817E-20 2.74265E-18
 -1      1465 9.14718E-05-2.73825E-05-2.74400E-05-5.01950E-07-5.19767E-20 3.60855E-18
 -1      1466 9.09700E-05-2.72105E-05-2.72923E-05-4.51852E-07 5.46485E-20 3.61537E-18
 -1      1467 9.26548E-05-2.76385E-05-2.78823E-05-4.35934E-07 1.19663E-19 2.57980E-18
 -1      1468 9.25523E-05-2.77109E-05-2.77716E-05-7.97334E-07-1.21592E-19 3.85641E-18
 -1      1469 9.17842E-05-2.74714E-05-2.75443E-05-7.54602E-07-1.18988E-19 3.58740E-18
 -1      1470 9.29021E-05-2.77565E-05-2.79352E-05-1.17151E-06-9.64790E-20 2.35156E-18
 -1      1471 9.40645E-05-2.81560E-05-2.82326E-05-1.05825E-06-9.20404E-20 4.01364E-18
 -1      1472 9.31032E-05-2.78646E-05-2.79492E-05-1.01600E-06-1.36515E-19 3.83891E-18
 -1      1473 9.37319E-05-2.80123E-05-2.81813E-05-1.73872E-06-2.26724E-19 2.44616E-18
 -1      1474 9.61893E-05-2.87717E-05-2.88816E-05-1.37643E-06 2.70245E-19 3.86505E-18
 -1      1475 9.48925E-05-2.83851E-05-2.84972E-05-1.31500E-06 1.75215E-19 4.11204E-18
 -1      1476 9.50456E-05-2.83804E-05-2.85882E-05-2.30549E-06 4.41781E-20 2.41196E-18
 -1      1477 9.89935E-05-2.95739E-05-2.97418E-05-1.80409E-06 1.56592E-19 3.59828E-18
 -1      1478 9.72977E-05-2.90728E-05-2.92374E-05-1.71618E-06 2.91002E-19 3.95153E-18
 -1      1479 9.68996E-05-2.88846E-05-2.91713E-05-3.01723E-06 3.86684E-19 2.20732E-18
 -1      1480 1.02725E-04-3.06354E-05-3.08909E-05-2.41177E-06 3.28487E-19 3.23132E-18
 -1      1481 1.00455E-04-2.99663E-05-3.02142E-05-2.28192E-06 2.58209E-19 3.35228E-18
 -1      1482 9.93559E-05-2.95348E-05-2.99533E-05-3.98745E-06 5.45258E-19 2.33536E-18
 -1      1483 1.07743E-04-3.20644E-05-3.24394E-05-3.27446E-06-5.77504E-20 2.86067E-18
 -1      1484 1.04650E-04-3.11475E-05-3.15175E-05-3.08558E-06 1.37127E-19 2.96476E-18
 -1      1485 1.02584E-04-3.03786E-05-3.09875E-05-5.35051E-06 4.31729E-19 1.81473E-18
 -1      1486 1.14483E-04-3.40056E-05-3.45135E-05-4.44612E-06-3.43313E-20 3.29586E-18
 -1      1487 1.10267E-04-3.27357E-05-3.32647E-05-4.18555E-06-2.45573E-19 3.20509E-18
 -1      1488 1.06819E-04-3.14936E-05-3.23419E-05-7.22639E-06-1.80689E-19 1.92079E-18
 -1      1489 1.23305E-04-3.66163E-05-3.71943E-05-5.88176E-06-2.70151E-19 3.72520E-18
 -1      1490 1.17739E-04-3.48969E-05-3.55707E-05-5.56179E-06-5.73666E-20 3.45759E-18
 -1      1491 1.12327E-04-3.30023E-05-3.40744E-05-9.63548E-06-2.63070E-19 2.16150E-18
 -1      1492 1.33610E-04-3.98519E-05-4.02175E-05-7.19339E-06 5.73865E-20 3.88905E-18
 -1      1493 1.27117E-04-3.77242E-05-3.83956E-05-6.92188E-06 2.30816E-20 3.82997E-18
 -1      1494 1.19148E-04-3.50686E-05-3.61173E-05-1.22117E-05-3.13786E-19 1.70686E-18
 -1      1495 1.45311E-04-4.39425E-05-4.33834E-05-7.57315E-06-2.17661E-19 4.22553E-18
 -1      1496 1.38249E-04-4.13743E-05-4.15544E-05-7.56310E-06-2.97706E-19 4.01028E-18
 -1      1497 1.27414E-04-3.80173E-05-3.83682E-05-1.40313E-05-2.06812E-19 2.29165E-18
 -1      1498 1.54477E-04-4.78936E-05-4.54059E-05-5.00130E-06-4.83656E-19 5.30180E-18
 -1      1499 1.50016E-04-4.58611E-05-4.44765E-05-5.83842E-06-2.71461E-19 4.92867E-18
 -1      1500 1.36976E-04-4.23733E-05-4.04861E-05-1.27983E-05-7.02349E-19 2.68372E-18
 -1      1501 1.55208E-04-4.93860E-05-4.49291E-05 2.69045E-06-8.11113E-19 6.96325E-18
 -1      1502 1.58070E-04-4.99067E-05-4.58831E-05 4.68246E-07-9.58947E-19 5.84416E-18
 -1      1503 1.46145E-04-4.77242E-05-4.19355E-05-4.84130E-06-1.28836E-18 3.93821E-18
 -1      1504 1.42571E-04-4.48863E-05-4.20219E-05 1.34301E-05-3.81602E-19 8.03347E-18
 -1      1505 1.55537E-04-4.98668E-05-4.47648E-05 1.08708E-05-3.36246E-19 7.72049E-18
 -1      1506 1.51456E-04-5.11054E-05-4.27568E-05 1.15848E-05-1.25718E-18 4.28149E-18
 -1      1507 1.24422E-04-3.57517E-05-3.93376E-05 1.73114E-05-1.17314E-19 8.31596E-18
 -1      1508 1.39520E-04-4.24739E-05-4.19560E-05 1.75564E-05-4.28493E-19 8.07900E-18
 -1      1509 1.49722E-04-4.84155E-05-4.35773E-05 2.69992E-05-4.31140E-19 4.65506E-18
 -1      1510 1.12030E-04-2.78556E-05-3.81657E-05 9.13369E-06 2.17687E-19 8.52242E-18
 -1      1511 1.20313E-04-3.20538E-05-3.94751E-05 1.25248E-05 3.76294E-19 8.68061E-18
 -1      1512 1.41897E-04-3.80497E-05-4.54392E-05 2.64071E-05-1.46960E-19 5.22389E-18
 -1      1513 1.14159E-04-2.83454E-05-3.88531E-05-5.26042E-06 6.69156E-20 7.82489E-18
 -1      1514 1.10821E-04-2.69150E-05-3.82370E-05-1.73321E-06 2.36322E-19 8.06656E-18
 -1      1515 1.36086E-04-3.05906E-05-4.66302E-05 7.63048E-06 4.20975E-19 5.55153E-18
 -1      1516 1.32476E-04-3.85358E-05-4.11729E-05-1.68928E-05 1.45732E-18 5.69820E-18
 -1      1517 1.17468E-04-3.15221E-05-3.86975E-05-1.54466E-05 7.53648E-19 7.24594E-18
 -1      1518 1.38004E-04-3.30985E-05-4.61994E-05-1.79120E-05 1.08759E-18 3.66871E-18
 -1      1519 1.53191E-04-4.90375E-05-4.43142E-05-1.35259E-05 8.39793E-19 4.06618E-18
 -1      1520 1.37651E-04-4.24912E-05-4.12445E-05-1.58597E-05 7.89594E-19 5.56501E-18
 -1      1521 1.47133E-04-4.44916E-05-4.44236E-05-2.87176E-05 1.66336E-18 3.37604E-18
 -1      1522 1.59291E-04-5.06805E-05-4.60126E-05-2.84212E-06-9.38354E-20 4.06565E-18
 -1      1523 1.53903E-04-4.90996E-05-4.45382E-05-5.40169E-06 4.19493E-19 4.33766E-18
 -1      1524 1.52209E-04-5.11936E-05-4.30372E-05-1.61113E-05 9.90056E-19 3.77610E-18
 -1      1525 1.53255E-04-4.71985E-05-4.52068E-05 4.72103E-06-4.00541E-19 3.93839E-18
 -1      1526 1.56356E-04-4.88143E-05-4.57358E-05 3.56274E-06-5.00755E-19 3.39803E-18
 -1      1527 1.48473E-04-4.90509E-05-4.22813E-05 1.45030E-06-8.65826E-20 2.88366E-18
 -1      1528 1.42068E-04-4.26707E-05-4.25985E-05 7.34918E-06-7.04381E-19 5.13133E-18
 -1      1529 1.48760E-04-4.52075E-05-4.42674E-05 7.21933E-06-3.47800E-19 4.36174E-18
 -1      1530 1.39968E-04-4.37986E-05-4.10973E-05 1.14430E-05-1.03608E-18 2.64146E-18
 -1      1531 1.30567E-04-3.87711E-05-3.94183E-05 7.02763E-06 1.07426E-19 5.84897E-18
 -1      1532 1.37441E-04-4.10877E-05-4.13196E-05 7.30029E-06-3.58130E-19 5.56781E-18
 -1      1533 1.30482E-04-3.91602E-05-3.91732E-05 1.38802E-05-7.27370E-19 2.36934E-18
 -1      1534 1.20854E-04-3.57992E-05-3.65170E-05 5.65201E-06 7.29256E-19 5.24732E-18
 -1      1535 1.26505E-04-3.75833E-05-3.81593E-05 5.99127E-06 7.02885E-19 6.27694E-18
 -1      1536 1.21910E-04-3.59164E-05-3.69406E-05 1.23868E-05 4.52349E-19 3.74487E-18
 -1      1537 1.13685E-04-3.37234E-05-3.43100E-05 4.25977E-06-2.10825E-19 4.92131E-18
 -1      1538 1.17750E-04-3.49528E-05-3.55138E-05 4.52974E-06 3.11318E-19 4.83063E-18
 -1      1539 1.15020E-04-3.37708E-05-3.49101E-05 9.76122E-06 8.70538E-19 3.41636E-18
 -1      1540 1.08096E-04-3.21461E-05-3.25697E-05 3.03596E-06-3.55198E-19 4.69888E-18
 -1      1541 1.11153E-04-3.30555E-05-3.34842E-05 3.25141E-06-3.58235E-19 4.98871E-18
 -1      1542 1.09657E-04-3.22759E-05-3.32273E-05 7.24353E-06-4.99783E-19 3.24909E-18
 -1      1543 1.04122E-04-3.10393E-05-3.13286E-05 2.11810E-06-4.11426E-19 5.12632E-18
 -1      1544 1.06242E-04-3.16606E-05-3.19646E-05 2.26886E-06-8.73106E-20 5.29998E-18
 -1      1545 1.05521E-04-3.11962E-05-3.18995E-05 5.14983E-06-7.16060E-19 2.51021E-18
 -1      1546 1.01332E-04-3.02647E-05-3.04587E-05 1.46314E-06 1.36326E-19 5.42340E-18
 -1      1547 1.02785E-04-3.06871E-05-3.08947E-05 1.56644E-06-2.37953E-19 5.16973E-18
 -1      1548 1.02499E-04-3.04263E-05-3.09205E-05 3.59689E-06-4.59522E-19 2.35248E-18
 -1      1549 9.93868E-05-2.97246E-05-2.98541E-05 1.00657E-06-4.52072E-19 6.65599E-18
 -1      1550 1.00378E-04-3.00113E-05-3.01514E-05 1.07679E-06-1.56259E-19 5.91197E-18
 -1      1551 1.00323E-04-2.98748E-05-3.02144E-05 2.49148E-06-2.93494E-19 3.11064E-18
 -1      1552 9.80361E-05-2.93488E-05-2.94355E-05 6.91389E-07 7.79963E-19 5.78411E-18
 -1      1553 9.87110E-05-2.95434E-05-2.96380E-05 7.39063E-07 7.64980E-19 6.47213E-18
 -1      1554 9.87695E-05-2.94797E-05-2.97112E-05 1.71961E-06 3.73684E-19 3.60897E-18
 -1      1555 9.71012E-05-2.90880E-05-2.91463E-05 4.74153E-07 8.73867E-19 3.22931E-18
 -1      1556 9.75596E-05-2.92203E-05-2.92840E-05 5.06675E-07 1.00712E-18 5.02626E-18
 -1      1557 9.76663E-05-2.91970E-05-2.93548E-05 1.18461E-06 1.92928E-18 3.91688E-18
 -1      1558 9.64814E-05-2.89147E-05-2.89554E-05 3.30428E-07 3.50273E-19 2.28671E-18
 -1      1559 9.67814E-05-2.90006E-05-2.90453E-05 3.51506E-07 1.14962E-19 2.89534E-18
 -1      1560 9.69022E-05-2.90013E-05-2.91087E-05 8.20178E-07 1.01731E-18 3.54803E-18
 -1      1561 9.60283E-05-2.87884E-05-2.88157E-05 2.24586E-07-5.85986E-19 3.04915E-18
 -1      1562 9.62428E-05-2.88497E-05-2.88802E-05 2.40395E-07 3.68672E-19 2.69631E-18
 -1      1563 9.63606E-05-2.88591E-05-2.89348E-05 5.68160E-07 7.16192E-19 3.97644E-18
 -1      1564 9.57198E-05-2.87021E-05-2.87208E-05 1.51011E-07 5.06578E-20 3.92459E-18
 -1      1565 9.58629E-05-2.87427E-05-2.87639E-05 1.61861E-07-8.87377E-19 3.28768E-18
 -1      1566 9.59701E-05-2.87574E-05-2.88094E-05 3.86279E-07-6.03334E-19 3.87084E-18
 -1      1567 9.55125E-05-2.86442E-05-2.86569E-05 9.97358E-08-3.84968E-19 3.48243E-18
 -1      1568 9.56063E-05-2.86706E-05-2.86853E-05 1.07262E-07 3.84429E-19 4.24957E-18
 -1      1569 9.56992E-05-2.86866E-05-2.87226E-05 2.59249E-07-7.18175E-20 3.30355E-18
 -1      1570 9.53762E-05-2.86063E-05-2.86150E-05 6.39851E-08-3.46641E-19 3.96638E-18
 -1      1571 9.54359E-05-2.86228E-05-2.86331E-05 6.92003E-08-8.00345E-19 3.50086E-18
 -1      1572 9.55140E-05-2.86382E-05-2.86631E-05 1.70459E-07-8.43025E-20 2.53291E-18
 -1      1573 9.52896E-05-2.85824E-05-2.85883E-05 3.91267E-08-1.17863E-18 4.40676E-18
 -1      1574 9.53257E-05-2.85922E-05-2.85993E-05 4.27183E-08-1.56412E-19 3.99366E-18
 -1      1575 9.53899E-05-2.86059E-05-2.86231E-05 1.08433E-07-4.53963E-19 3.35657E-18
 -1      1576 9.52378E-05-2.85683E-05-2.85722E-05 2.19403E-08 3.58774E-19 2.73802E-18
 -1      1577 9.52577E-05-2.85735E-05-2.85784E-05 2.43856E-08-1.06000E-18 2.87154E-18
 -1      1578 9.53092E-05-2.85852E-05-2.85970E-05 6.52616E-08-8.05576E-19 7.58048E-19
 -1      1579 9.52110E-05-2.85612E-05-2.85639E-05 1.06613E-08 6.12447E-19 3.61553E-18
 -1      1580 9.52197E-05-2.85633E-05-2.85667E-05 1.22069E-08 3.49154E-19 3.97717E-18
 -1      1581 9.52601E-05-2.85730E-05-2.85810E-05 3.59213E-08 2.07840E-19 1.01832E-18
 -1      1582 9.51990E-05-2.85584E-05-2.85600E-05 2.61146E-09 8.04640E-22 2.93227E-18
 -1      1583 9.52008E-05-2.85585E-05-2.85607E-05 3.73385E-09 1.23959E-19 2.83919E-18
 -1      1584 9.52318E-05-2.85660E-05-2.85715E-05 1.59509E-08 5.54894E-19 2.00179E-18
 -1      1585 9.51980E-05-2.85586E-05-2.85596E-05-2.61471E-09 1.25985E-19 4.62724E-18
 -1      1586 9.51950E-05-2.85573E-05-2.85588E-05-1.91976E-09-1.75385E-19 3.91085E-18
 -1      1587 9.52176E-05-2.85630E-05-2.85666E-05 2.14300E-09-3.60431E-19 4.11370E-18
 -1      1588 9.52040E-05-2.85608E-05-2.85612E-05-5.74904E-09-1.98120E-19 4.75567E-18
 -1      1589 9.51981E-05-2.85587E-05-2.85596E-05-5.36489E-09-4.25613E-20 3.95390E-18
 -1      1590 9.52135E-05-2.85627E-05-2.85648E-05-6.65031E-09-3.08657E-19 4.25249E-18
 -1      1591 9.52138E-05-2.85641E-05-2.85640E-05-7.19595E-09 1.55231E-19 3.69960E-18
 -1      1592 9.52065E-05-2.85616E-05-2.85620E-05-7.08113E-09 3.84516E-19 3.69153E-18
 -1      1593 9.52158E-05-2.85641E-05-2.85651E-05-1.16145E-08 2.71093E-19 2.88558E-18
 -1      1594 9.52243E-05-2.85678E-05-2.85670E-05-7.02064E-09-6.09199E-19 4.03909E-18
 -1      1595 9.52173E-05-2.85653E-05-2.85651E-05-7.20839E-09-1.02674E-18 4.14888E-18
 -1      1596 9.52216E-05-2.85666E-05-2.85664E-05-1.33099E-08-5.42060E-19 4.34371E-18
 -1      1597 9.52331E-05-2.85709E-05-2.85694E-05-4.97392E-09 1.57801E-19 3.19156E-18
 -1      1598 9.52279E-05-2.85690E-05-2.85680E-05-5.52559E-09 1.48881E-19 3.12157E-18
 -1      1599 9.52286E-05-2.85696E-05-2.85680E-05-1.17587E-08-1.85888E-19 2.17447E-18
 -1      1600 9.52364E-05-2.85720E-05-2.85701E-05-1.03395E-09 1.30023E-18 1.48126E-18
 -1      1601 9.52395E-05-2.85804E-05-2.85681E-05-5.36524E-09 1.01694E-18-1.73882E-18
 -1      1602 9.52378E-05-2.85758E-05-2.85694E-05-4.77515E-09 2.91760E-18-1.97058E-18
 -1      1603 9.52428E-05-2.85897E-05-2.85657E-05-6.21761E-09 1.15250E-18 5.37407E-19
 -1      1604 9.52407E-05-2.85838E-05-2.85673E-05-6.23661E-09 7.30615E-19 2.53889E-19
 -1      1605 9.52393E-05-2.85802E-05-2.85682E-05-1.09727E-08 2.53893E-18-1.38246E-18
 -1      1606 9.52458E-05-2.85984E-05-2.85632E-05-5.41772E-09-1.88400E-18-1.97838E-18
 -1      1607 9.52439E-05-2.85930E-05-2.85647E-05-5.71164E-09 1.03977E-18-2.92621E-19
 -1      1608 9.52421E-05-2.85868E-05-2.85666E-05-1.12432E-08 8.81433E-19-7.42152E-19
 -1      1609 9.52478E-05-2.86050E-05-2.85613E-05-3.85827E-09-2.90827E-18 3.33938E-19
 -1      1610 9.52465E-05-2.86010E-05-2.85624E-05-4.21791E-09-3.57512E-18 6.47579E-19
 -1      1611 9.52443E-05-2.85925E-05-2.85651E-05-9.06925E-09-1.14524E-18-2.54642E-18
 -1      1612 9.52489E-05-2.86090E-05-2.85600E-05-2.25803E-09-4.24009E-18-6.77813E-19
 -1      1613 9.52482E-05-2.86066E-05-2.85607E-05-2.57052E-09-2.72177E-18-1.80414E-18
 -1      1614 9.52456E-05-2.85965E-05-2.85640E-05-6.06146E-09-1.97961E-18-1.05302E-18
 -1      1615 9.52494E-05-2.86110E-05-2.85594E-05-9.18955E-10-3.23592E-18 1.43792E-18
 -1      1616 9.52491E-05-2.86098E-05-2.85597E-05-1.15225E-09-4.70975E-18 1.34247E-18
 -1      1617 9.52461E-05-2.85986E-05-2.85633E-05-3.20780E-09-2.35328E-18-8.85160E-19
 -1      1618 9.52494E-05-2.86113E-05-2.85592E-05 2.64196E-11-5.98032E-18-2.25084E-18
 -1      1619 9.52494E-05-2.86111E-05-2.85593E-05-1.22385E-10-3.17763E-18-1.35288E-18
 -1      1620 9.52461E-05-2.85994E-05-2.85629E-05-9.67477E-10-3.84532E-18-7.54630E-19
 -1      1621 9.52491E-05-2.86104E-05-2.85594E-05 6.69298E-10-5.25119E-18-4.38198E-19
 -1      1622 9.52493E-05-2.86110E-05-2.85593E-05 5.70172E-10-5.20136E-18 8.74398E-19
 -1      1623 9.52459E-05-2.85992E-05-2.85629E-05 5.82027E-10-3.02980E-18-1.30718E-18
 -1      1624 9.52486E-05-2.86087E-05-2.85599E-05 1.21011E-09-5.78877E-18-6.36721E-19
 -1      1625 9.52489E-05-2.86099E-05-2.85596E-05 1.11210E-09-5.08153E-18-9.12529E-20
 -1      1626 9.52456E-05-2.85984E-05-2.85631E-05 1.70086E-09-1.96362E-18-4.21839E-19
 -1      1627 9.52478E-05-2.86061E-05-2.85607E-05 1.86591E-09-8.22778E-18-8.67151E-19
 -1      1628 9.52484E-05-2.86079E-05-2.85602E-05 1.72424E-09-6.42118E-18-8.07490E-19
 -1      1629 9.52453E-05-2.85971E-05-2.85635E-05 2.78796E-09-4.14184E-18-1.24928E-18
 -1      1630 9.52468E-05-2.86023E-05-2.85619E-05 2.75729E-09-9.04124E-18 4.27982E-19
 -1      1631 9.52476E-05-2.86050E-05-2.85612E-05 2.55824E-09-8.67546E-18-7.95443E-19
 -1      1632 9.52449E-05-2.85954E-05-2.85641E-05 4.18482E-09-5.17235E-18-1.77087E-18
 -1      1633 9.52452E-05-2.85969E-05-2.85636E-05 3.88430E-09-6.64977E-18 1.72179E-18
 -1      1634 9.52463E-05-2.86006E-05-2.85625E-05 3.63135E-09-9.14896E-18 2.74710E-18
 -1      1635 9.52442E-05-2.85928E-05-2.85649E-05 6.03562E-09-6.10162E-18 2.10007E-18
 -1      1636 9.52429E-05-2.85899E-05-2.85656E-05 4.98323E-09-5.35058E-18 1.35620E-19
 -1      1637 9.52445E-05-2.85946E-05-2.85643E-05 4.74035E-09-5.89787E-18 1.10535E-18
 -1      1638 9.52431E-05-2.85891E-05-2.85661E-05 8.11556E-09-5.46057E-18 2.50260E-18
 -1      1639 9.52404E-05-2.85821E-05-2.85678E-05 5.30384E-09-4.46895E-18-8.72434E-19
 -1      1640 9.52420E-05-2.85871E-05-2.85664E-05 5.25402E-09-3.78787E-18-5.40747E-19
 -1      1641 9.52412E-05-2.85842E-05-2.85674E-05 9.65960E-09-2.63992E-18 3.48254E-19
 -1      1642 9.52376E-05-2.85754E-05-2.85695E-05 5.37356E-09-2.19149E-18 5.96580E-19
 -1      1643 9.52390E-05-2.85793E-05-2.85685E-05 6.21772E-09-3.04110E-18-1.41377E-19
 -1      1644 9.52389E-05-2.85785E-05-2.85686E-05 1.03344E-08-5.23908E-19 4.96289E-19
 -1      1645 9.52349E-05-2.85733E-05-2.85692E-05 9.77435E-09 8.04155E-19 1.20225E-18
 -1      1646 2.25102E-05-7.86231E-05 1.73712E-05-1.29937E-05 5.65987E-18 1.25530E-18
 -1      1647 2.50831E-05-8.38734E-05 1.84225E-05-3.02684E-06 5.98535E-18-5.98641E-19
 -1      1648 1.91319E-05-5.50948E-05 9.41174E-06-1.06948E-05 6.52385E-18 3.49782E-18
 -1      1649 2.51448E-05-7.60314E-05 1.45866E-05-1.01115E-05 5.57559E-18 2.81427E-18
 -1      1650 3.15108E-05-2.67162E-05-6.12822E-06 1.29623E-05 4.47742E-18 3.10438E-19
 -1      1651 2.87675E-05-4.93506E-05 2.46460E-06-1.97174E-06 6.36122E-18 1.44504E-18
 -1      1652 6.79692E-05-1.12097E-05-2.58168E-05 4.54307E-05 5.48030E-19-9.79170E-19
 -1      1653 4.68280E-05-2.24668E-05-1.52230E-05 2.10415E-05 3.00612E-18 2.53263E-19
 -1      1654 1.44929E-04-2.52180E-05-4.87337E-05 7.04563E-05-1.71101E-19-2.30224E-18
 -1      1655 9.85852E-05-1.70004E-05-3.66532E-05 4.98235E-05-3.98105E-20-9.58841E-19
 -1      1656 2.30602E-04-5.18652E-05-6.94282E-05 7.04196E-05-4.76880E-19-4.28429E-18
 -1      1657 1.73364E-04-2.81260E-05-5.94084E-05 7.23997E-05 3.54907E-19-2.29038E-18
 -1      1658 2.89468E-04-7.55188E-05-8.17665E-05 3.09206E-05-3.10014E-19-5.94109E-18
 -1      1659 2.52346E-04-5.70420E-05-7.63057E-05 5.83988E-05-4.09752E-19-4.67901E-18
 -1      1660 2.99368E-04-7.80286E-05-8.46258E-05-1.99996E-05 6.14099E-19-7.03969E-18
 -1      1661 2.99862E-04-7.82298E-05-8.45981E-05 1.89425E-05-4.48927E-19-6.81078E-18
 -1      1662 2.48505E-04-5.57615E-05-7.58518E-05-5.64698E-05 2.79351E-18-7.79609E-18
 -1      1663 2.86682E-04-7.41558E-05-8.14552E-05-2.97623E-05 1.57802E-18-7.14049E-18
 -1      1664 1.75177E-04-2.95954E-05-5.97700E-05-6.99241E-05 3.32884E-18-7.56062E-18
 -1      1665 2.28753E-04-5.15668E-05-6.91368E-05-6.75192E-05 3.39025E-18-7.92315E-18
 -1      1666 1.02633E-04-1.69547E-05-3.81494E-05-5.22181E-05 1.98629E-18-5.08050E-18
 -1      1667 1.48507E-04-2.60013E-05-4.98204E-05-7.12673E-05 2.58684E-18-7.56570E-18
 -1      1668 4.88771E-05-2.10934E-05-1.64853E-05-2.32722E-05 1.16298E-18-2.34035E-18
 -1      1669 7.16544E-05-1.06205E-05-2.73970E-05-4.81865E-05 2.17179E-18-4.17248E-18
 -1      1670 3.05027E-05-4.87923E-05 1.75140E-06-1.47709E-07-4.64174E-19-9.10137E-19
 -1      1671 3.41421E-05-2.63138E-05-7.19263E-06-1.57555E-05 8.05528E-19-1.80206E-18
 -1      1672 2.51768E-05-7.45999E-05 1.40507E-05 9.65163E-06-1.80249E-18 1.61360E-19
 -1      1673 1.93168E-05-5.39713E-05 8.93034E-06 9.66694E-06-9.65618E-19-1.84971E-19
 -1      1674 2.50157E-05-8.36393E-05 1.84320E-05 3.36935E-06-2.57771E-18-7.70800E-20
 -1      1675 2.21406E-05-7.72995E-05 1.70266E-05 1.30810E-05-1.96300E-18 4.14623E-19
 -1      1676 2.17507E-05-7.00088E-05 1.50471E-05-1.34156E-06-4.96446E-18-2.19869E-18
 -1      1677 2.49631E-05-8.12624E-05 1.76693E-05 6.97592E-06-2.98939E-18-1.34255E-18
 -1      1678 2.00341E-05-4.30419E-05 5.46402E-06 3.18709E-06-7.90282E-18-4.15216E-18
 -1      1679 2.53776E-05-6.62242E-05 1.14034E-05 1.37418E-06-5.83352E-18-2.95178E-18
 -1      1680 3.09289E-05-1.20946E-05-1.01988E-05 2.69352E-05-7.03630E-18-2.82443E-18
 -1      1681 2.77566E-05-3.52158E-05-1.51697E-06 1.04033E-05-8.10272E-18-3.25854E-18
 -1      1682 6.75090E-05 2.57352E-06-2.94182E-05 6.04074E-05-3.75913E-18-1.77708E-18
 -1      1683 4.60284E-05-6.80216E-06-1.92783E-05 3.63892E-05-6.18419E-18-2.78589E-18
 -1      1684 1.28684E-04-7.91447E-06-4.85674E-05 8.32066E-05-1.08166E-18 7.95364E-19
 -1      1685 9.00502E-05 1.32372E-06-3.89609E-05 6.70102E-05-2.81977E-18-7.46236E-19
 -1      1686 1.97386E-04-3.43648E-05-6.46008E-05 7.98399E-05-2.20229E-20 2.45047E-18
 -1      1687 1.53667E-04-1.42127E-05-5.69143E-05 8.26970E-05-5.49724E-19 1.19262E-18
 -1      1688 2.51836E-04-6.05359E-05-7.55031E-05 4.49172E-05 6.21510E-20 5.88603E-18
 -1      1689 2.18814E-04-4.21153E-05-7.06993E-05 7.01321E-05-2.43628E-19 3.92939E-18
 -1      1690 2.64701E-04-6.63078E-05-7.85812E-05-1.14575E-05-9.17125E-19 8.06460E-18
 -1      1691 2.60228E-04-6.36901E-05-7.79638E-05 2.62508E-05-6.90332E-20 6.90882E-18
 -1      1692 2.34467E-04-4.99406E-05-7.35832E-05-6.10437E-05-2.51548E-18 9.00735E-18
 -1      1693 2.60676E-04-6.49522E-05-7.72636E-05-3.10609E-05-1.65891E-18 8.48007E-18
 -1      1694 1.70368E-04-2.00791E-05-6.10070E-05-8.27250E-05-3.10226E-18 7.37427E-18
 -1      1695 2.15118E-04-4.22119E-05-6.82939E-05-7.34982E-05-2.84360E-18 8.95568E-18
 -1      1696 1.05354E-04-2.94156E-06-4.31826E-05-6.97777E-05-1.50941E-18 4.77218E-18
 -1      1697 1.46460E-04-1.56139E-05-5.26165E-05-8.19482E-05-2.81638E-18 6.68817E-18
 -1      1698 5.18885E-05-2.76280E-06-2.31515E-05-4.24958E-05-1.06726E-19 1.21973E-18
 -1      1699 7.84358E-05 2.50356E-06-3.36559E-05-6.68245E-05-7.40307E-19 4.22669E-18
 -1      1700 2.94205E-05-2.84992E-05-4.70477E-06-1.45956E-05 9.09713E-19 2.21923E-19
 -1      1701 3.54755E-05-6.94207E-06-1.37538E-05-3.33540E-05-1.94818E-19 2.33781E-19
 -1      1702 2.56504E-05-6.23420E-05 9.79656E-06-2.71841E-06 3.72440E-18 1.33434E-19
 -1      1703 2.09692E-05-3.66826E-05 2.87276E-06-7.73568E-06 1.59581E-18 2.86085E-19
 -1      1704 2.59587E-05-8.35870E-05 1.77885E-05-5.64628E-06 5.32572E-18-2.93920E-19
 -1      1705 2.16824E-05-6.98224E-05 1.47345E-05 2.94358E-06 4.28937E-18 2.49028E-19
 -1      1706 1.06389E-04-2.32889E-05-3.57123E-05 1.69141E-05-5.70159E-20 3.54568E-18
 -1      1707 6.97506E-05-4.65375E-05-1.28333E-05 3.07108E-05 2.54788E-18-2.18789E-18
 -1      1708 9.52357E-05-2.85732E-05-2.85695E-05-5.43671E-09 1.88693E-18-7.18897E-19
 -1      1709 1.61594E-05-5.51506E-05 1.17106E-05 4.11596E-06 3.71149E-18 1.71355E-18
 -1      1710 3.57806E-05-5.13057E-05 2.38313E-06 1.84712E-05 2.93836E-18 3.46013E-19
 -1      1711 1.23937E-05-5.60542E-05 1.38181E-05-7.54169E-06 3.29782E-18 9.35971E-20
 -1      1712 1.20493E-04-4.70301E-05-3.19118E-05 3.72687E-05 6.85250E-19-2.12351E-18
 -1      1713 1.75372E-04-4.85755E-05-5.19710E-05 3.25505E-05 3.68036E-19-1.98799E-18
 -1      1714 2.20930E-04-4.68346E-05-6.86891E-05 2.25698E-05 9.09078E-19-1.88041E-18
 -1      1715 2.44841E-04-4.48867E-05-7.76773E-05 6.14657E-06 3.77777E-19-3.82605E-18
 -1      1716 2.43117E-04-4.45498E-05-7.73356E-05-5.62394E-06 1.21210E-18-4.78023E-18
 -1      1717 2.18472E-04-4.60946E-05-6.81451E-05-1.77537E-05 2.17984E-18-4.51045E-18
 -1      1718 1.78342E-04-4.91559E-05-5.25540E-05-2.94420E-05 9.24748E-19-4.30801E-18
 -1      1719 1.23889E-04-4.68465E-05-3.31714E-05-3.79098E-05 3.55754E-19-4.39441E-18
 -1      1720 7.27037E-05-4.66249E-05-1.39183E-05-3.18879E-05-3.18484E-19-2.86297E-18
 -1      1721 3.76492E-05-5.06259E-05 1.54565E-06-2.02451E-05-7.37766E-19-1.15699E-18
 -1      1722 1.71622E-05-5.51388E-05 1.13284E-05-5.34745E-06-1.21422E-18-1.83383E-19
 -1      1723 1.14034E-05-5.34614E-05 1.34348E-05 6.86253E-06-2.10440E-18-1.48527E-18
 -1      1724 1.88171E-05-5.04562E-05 9.36560E-06 1.85111E-05-3.07219E-18-3.31910E-18
 -1      1725 3.70011E-05-4.27002E-05-7.53973E-07 2.98513E-05-4.33173E-18-2.36462E-18
 -1      1726 6.70994E-05-3.28244E-05-1.60460E-05 4.25375E-05-4.72814E-18-6.41627E-19
 -1      1727 1.08130E-04-2.74473E-05-3.38053E-05 5.15157E-05-3.20051E-18 8.90232E-19
 -1      1728 1.53021E-04-2.78147E-05-5.08577E-05 5.19632E-05-1.63054E-18 1.75251E-18
 -1      1729 1.93487E-04-3.21453E-05-6.46328E-05 4.05064E-05-1.35229E-18 3.13656E-18
 -1      1730 2.17981E-04-3.52452E-05-7.28210E-05 1.75097E-05-1.17738E-18 6.00758E-18
 -1      1731 2.20978E-04-3.53759E-05-7.38908E-05-1.04697E-05-1.61699E-18 5.83521E-18
 -1      1732 2.02697E-04-3.34931E-05-6.75893E-05-3.56071E-05-1.52889E-18 5.73992E-18
 -1      1733 1.64063E-04-3.07572E-05-5.44639E-05-4.64942E-05-8.79220E-19 5.02799E-18
 -1      1734 1.19868E-04-2.87127E-05-3.76418E-05-5.14828E-05 8.15269E-19 4.60278E-18
 -1      1735 7.43121E-05-3.10253E-05-1.95130E-05-4.51458E-05 3.65071E-19 1.10750E-18
 -1      1736 4.18376E-05-4.06486E-05-3.30717E-06-3.31103E-05 1.33747E-18 9.66570E-19
 -1      1737 2.08606E-05-5.03509E-05 8.51518E-06-2.03930E-05 2.33485E-18 1.28664E-18
 -1      1738 1.06044E-04-2.31988E-05-3.55912E-05-1.66231E-05-2.30896E-19-1.45711E-18
 -1      1739 8.92875E-05-1.05744E-05-3.38584E-05-1.28953E-05 2.14915E-19-1.24641E-18
 -1      1740 9.06452E-05-1.16685E-05-3.39966E-05-1.46771E-05 7.17794E-20-1.28696E-18
 -1      1741 9.26978E-05-1.39452E-05-3.39108E-05-1.55982E-05 1.68844E-20-1.36859E-18
 -1      1742 9.44080E-05-1.59108E-05-3.41414E-05-1.72812E-05-1.29133E-19-1.52604E-18
 -1      1743 9.36527E-05-1.64143E-05-3.31120E-05-1.33037E-05 1.52863E-20-1.29784E-18
 -1      1744 8.61502E-05-7.51988E-06-3.37707E-05-7.46113E-06 4.74913E-19-7.45138E-19
 -1      1745 8.66090E-05-7.85018E-06-3.38124E-05-8.82451E-06 4.23616E-19-9.27739E-19
 -1      1746 8.54141E-05-6.79794E-06-3.37522E-05-4.99982E-06 6.11511E-19-5.33935E-19
 -1      1747 8.57024E-05-7.00614E-06-3.37753E-05-6.26023E-06 5.73747E-19-6.60924E-19
 -1      1748 8.74586E-05-9.62473E-06-3.33891E-05-6.51373E-06 5.27012E-19-7.11375E-19
 -1      1749 8.49831E-05-6.36759E-06-3.37443E-05-2.68651E-06 7.22306E-19-2.29625E-19
 -1      1750 8.51443E-05-6.48530E-06-3.37556E-05-3.86607E-06 6.65084E-19-3.95313E-19
 -1      1751 8.66919E-05-8.80913E-06-3.34092E-05-4.21845E-06 7.10829E-19-3.88146E-19
 -1      1752 8.47976E-05-6.17120E-06-3.37444E-05-4.61845E-07 8.53040E-19-6.00335E-20
 -1      1753 8.48519E-05-6.21291E-06-3.37468E-05-1.59979E-06 8.03571E-19-1.61704E-19
 -1      1754 8.62597E-05-8.34653E-06-3.34215E-05-2.03178E-06 8.29983E-19-1.82655E-19
 -1      1755 8.48415E-05-6.19200E-06-3.37519E-05 1.73832E-06 9.19359E-19 8.73900E-20
 -1      1756 8.47924E-05-6.16003E-06-3.37463E-05 6.04550E-07 8.90520E-19 1.70333E-20
 -1      1757 8.61117E-05-8.18189E-06-3.34281E-05 8.92264E-08 9.03153E-19 1.34797E-20
 -1      1758 8.51274E-05-6.44125E-06-3.37676E-05 3.98254E-06 8.38281E-19 1.69235E-19
 -1      1759 8.49661E-05-6.32873E-06-3.37533E-05 2.81395E-06 8.71593E-19 6.39642E-20
 -1      1760 8.62395E-05-8.30589E-06-3.34296E-05 2.19789E-06 9.29267E-19 1.05356E-19
 -1      1761 8.56845E-05-6.94540E-06-3.37936E-05 6.30272E-06 8.20077E-19 4.65881E-19
 -1      1762 8.53940E-05-6.74118E-06-3.37679E-05 5.07857E-06 8.34149E-19 2.91604E-19
 -1      1763 8.66614E-05-8.73858E-06-3.34251E-05 4.33273E-06 8.84483E-19 2.08794E-19
 -1      1764 8.66251E-05-7.80883E-06-3.38362E-05 8.85685E-06 8.81550E-19 8.22866E-19
 -1      1765 8.61437E-05-7.46534E-06-3.37917E-05 7.48342E-06 8.20955E-19 6.55127E-19
 -1      1766 8.74372E-05-9.54684E-06-3.34118E-05 6.56521E-06 8.88498E-19 5.55085E-19
 -1      1767 8.81488E-05-9.23000E-06-3.39066E-05 1.16735E-05 7.78350E-19 1.10675E-18
 -1      1768 8.73622E-05-8.64718E-06-3.38287E-05 1.01108E-05 8.24239E-19 8.94559E-19
 -1      1769 8.87038E-05-1.08805E-05-3.33818E-05 8.94437E-06 8.68126E-19 8.46212E-19
 -1      1770 9.07599E-05-1.17355E-05-3.40180E-05 1.46910E-05 5.28608E-19 1.51751E-18
 -1      1771 8.93742E-05-1.06107E-05-3.38809E-05 1.29131E-05 6.25891E-19 1.24403E-18
 -1      1772 9.06958E-05-1.30078E-05-3.33120E-05 1.13724E-05 7.38960E-19 1.08431E-18
 -1      1773 9.45615E-05-1.60315E-05-3.41390E-05 1.73340E-05 1.81252E-19 2.31584E-18
 -1      1774 9.28382E-05-1.40625E-05-3.39226E-05 1.56338E-05 3.65764E-19 1.87035E-18
 -1      1775 9.38804E-05-1.65636E-05-3.31185E-05 1.33526E-05 4.06253E-19 1.58017E-18
 -1      1776 9.78568E-05-5.28589E-05-1.97958E-05 3.69303E-05 1.92107E-18-3.20517E-18
 -1      1777 7.63471E-05-5.26943E-05-1.16955E-05 3.24884E-05 2.17222E-18-2.67959E-18
 -1      1778 1.00281E-04-1.96393E-05-3.42415E-05-1.85529E-05-2.07510E-19-1.46897E-18
 -1      1779 1.00403E-04-1.96055E-05-3.43136E-05 1.87777E-05 1.60804E-20 2.74576E-18
 -1      1780 9.72810E-05-2.70620E-05-2.99784E-05-5.35526E-06-2.07814E-19-1.35770E-18
 -1      1781 9.55737E-05-2.71398E-05-2.92992E-05-3.53466E-06-1.95069E-19-1.37006E-18
 -1      1782 9.48294E-05-2.73563E-05-2.88197E-05-2.02737E-06-2.28289E-19-1.24634E-18
 -1      1783 9.41716E-05-2.74657E-05-2.85492E-05-1.14804E-06-1.40621E-20-1.22754E-18
 -1      1784 9.59258E-05-2.66345E-05-2.97188E-05-3.98928E-06-1.43804E-19-1.08509E-18
 -1      1785 9.37398E-05-2.75404E-05-2.83119E-05-2.81365E-07 1.59368E-19-1.19808E-18
 -1      1786 9.35713E-05-2.76427E-05-2.82288E-05 1.88642E-07 1.80018E-19-1.05550E-18
 -1      1787 9.48839E-05-2.73442E-05-2.89676E-05-1.26583E-06 7.65440E-20-9.57571E-19
 -1      1788 9.34075E-05-2.77045E-05-2.81272E-05 6.85174E-07-2.00062E-20-1.04024E-18
 -1      1789 9.35277E-05-2.78305E-05-2.81405E-05 9.38371E-07-1.13097E-19-1.02038E-18
 -1      1790 9.43878E-05-2.77085E-05-2.85948E-05 2.92240E-07 9.14167E-20-9.91457E-19
 -1      1791 9.35540E-05-2.79079E-05-2.81186E-05 1.20951E-06-1.84936E-19-8.39698E-19
 -1      1792 9.38335E-05-2.80540E-05-2.81832E-05 1.32919E-06-2.15414E-19-1.01881E-18
 -1      1793 9.43106E-05-2.79801E-05-2.84410E-05 1.17705E-06-5.97613E-20-7.90173E-19
 -1      1794 9.39831E-05-2.81510E-05-2.82070E-05 1.44624E-06-2.20763E-19-8.46600E-19
 -1      1795 9.43356E-05-2.83085E-05-2.82954E-05 1.46763E-06-1.24141E-19-7.60851E-19
 -1      1796 9.45263E-05-2.82433E-05-2.84163E-05 1.63193E-06-1.42955E-19-4.27474E-19
 -1      1797 9.45553E-05-2.84222E-05-2.83412E-05 1.46092E-06-5.88216E-20-7.93437E-19
 -1      1798 9.49142E-05-2.85809E-05-2.84324E-05 1.39449E-06-4.55772E-20-6.83494E-19
 -1      1799 9.49256E-05-2.85247E-05-2.84628E-05 1.77204E-06-1.70554E-21-3.18931E-19
 -1      1800 9.51589E-05-2.87058E-05-2.84818E-05 1.27037E-06-2.83754E-19-6.65047E-19
 -1      1801 9.54638E-05-2.88527E-05-2.85575E-05 1.11288E-06-1.09132E-19-7.63887E-19
 -1      1802 9.54163E-05-2.88296E-05-2.85389E-05 1.64002E-06-1.64731E-19-3.35640E-19
 -1      1803 9.56910E-05-2.89793E-05-2.85953E-05 8.64682E-07-3.47444E-19-9.30350E-19
 -1      1804 9.58806E-05-2.90966E-05-2.86379E-05 6.07498E-07-6.58469E-19-1.28882E-18
 -1      1805 9.59141E-05-2.91496E-05-2.86118E-05 1.23688E-06-4.84387E-19-7.54512E-19
 -1      1806 9.60452E-05-2.92092E-05-2.86507E-05 2.26303E-07-5.92526E-19-1.49982E-18
 -1      1807 9.60563E-05-2.92720E-05-2.86436E-05-1.35068E-07-3.64730E-19-1.71928E-18
 -1      1808 9.63323E-05-2.94601E-05-2.86543E-05 5.45845E-07-8.34887E-19-7.94100E-19
 -1      1809 9.61083E-05-2.93462E-05-2.86209E-05-6.46834E-07-2.39935E-19-1.68912E-18
 -1      1810 9.58809E-05-2.93226E-05-2.85500E-05-1.10051E-06-2.23062E-19-1.79094E-18
 -1      1811 9.65738E-05-2.97137E-05-2.86454E-05-4.40873E-07-4.37562E-19-1.01714E-18
 -1      1812 9.57674E-05-2.93247E-05-2.84857E-05-1.71233E-06-1.08377E-20-1.69322E-18
 -1      1813 9.52575E-05-2.91801E-05-2.83433E-05-2.21666E-06 1.66462E-20-1.51358E-18
 -1      1814 9.65313E-05-2.98357E-05-2.85711E-05-1.68851E-06-2.32405E-20-9.98963E-19
 -1      1815 9.49324E-05-2.90715E-05-2.82374E-05-2.85363E-06 6.66708E-21-1.59066E-18
 -1      1816 9.41315E-05-2.87792E-05-2.80262E-05-3.32780E-06 1.76497E-19-1.48195E-18
 -1      1817 9.60982E-05-2.97302E-05-2.84279E-05-3.08262E-06-9.79183E-20-7.80453E-19
 -1      1818 9.35742E-05-2.85302E-05-2.78869E-05-3.86371E-06 3.62553E-20-1.83708E-18
 -1      1819 9.25321E-05-2.80889E-05-2.76243E-05-4.19108E-06 1.79928E-20-1.93751E-18
 -1      1820 9.51994E-05-2.93034E-05-2.82252E-05-4.40168E-06-1.33476E-19-1.31283E-18
 -1      1821 9.17745E-05-2.77002E-05-2.74681E-05-4.46370E-06 5.40879E-20-1.95604E-18
 -1      1822 9.06136E-05-2.71533E-05-2.71869E-05-4.51723E-06-8.30604E-20-2.06139E-18
 -1      1823 9.38398E-05-2.85117E-05-2.79859E-05-5.32333E-06-1.07174E-19-1.74251E-18
 -1      1824 8.97624E-05-2.66781E-05-2.70368E-05-4.37551E-06-4.67653E-19-1.98140E-18
 -1      1825 8.86722E-05-2.61220E-05-2.67815E-05-4.06561E-06-8.07072E-19-1.93997E-18
 -1      1826 9.21601E-05-2.74205E-05-2.77435E-05-5.49153E-06-3.10266E-19-1.65166E-18
 -1      1827 8.79056E-05-2.56697E-05-2.66621E-05-3.44059E-06-6.27569E-19-2.01360E-18
 -1      1828 8.71045E-05-2.52369E-05-2.64797E-05-2.76870E-06-4.13385E-19-1.85905E-18
 -1      1829 9.04593E-05-2.62384E-05-2.75351E-05-4.64950E-06-7.95167E-19-1.14601E-18
 -1      1830 8.66256E-05-2.49429E-05-2.64123E-05-1.73428E-06-5.19817E-19-2.18033E-18
 -1      1831 8.62977E-05-2.47563E-05-2.63398E-05-8.19705E-07-3.53266E-19-2.22024E-18
 -1      1832 8.91430E-05-2.52820E-05-2.73941E-05-2.79362E-06-6.02247E-19-1.13032E-18
 -1      1833 8.62533E-05-2.47221E-05-2.63374E-05 4.03318E-07 4.06529E-19-2.34014E-18
 -1      1834 8.64831E-05-2.48405E-05-2.63913E-05 1.35156E-06 9.70690E-19-2.22176E-18
 -1      1835 8.85870E-05-2.48586E-05-2.73439E-05-2.54513E-07-6.78685E-20-1.62148E-18
 -1      1836 8.68935E-05-2.50799E-05-2.64557E-05 2.46917E-06 8.67663E-19-2.22770E-18
 -1      1837 8.76340E-05-2.54692E-05-2.66273E-05 3.23014E-06 3.36593E-19-2.03046E-18
 -1      1838 8.89710E-05-2.51168E-05-2.73940E-05 2.37970E-06 6.77851E-19-1.49361E-18
 -1      1839 8.83832E-05-2.59005E-05-2.67493E-05 3.99231E-06 2.60990E-19-1.46756E-18
 -1      1840 8.94752E-05-2.64507E-05-2.70071E-05 4.41812E-06 3.70815E-19-9.32477E-19
 -1      1841 9.01918E-05-2.59687E-05-2.75401E-05 4.48641E-06 6.67392E-19-1.63720E-18
 -1      1842 9.03689E-05-2.69415E-05-2.71683E-05 4.70999E-06 2.15950E-19-6.89774E-19
 -1      1843 9.16003E-05-2.75186E-05-2.74680E-05 4.76936E-06 6.23298E-19-8.25678E-19
 -1      1844 9.19154E-05-2.71366E-05-2.77641E-05 5.65298E-06 5.53224E-19-9.66618E-19
 -1      1845 9.24503E-05-2.79492E-05-2.76446E-05 4.62713E-06 5.08633E-19-1.11206E-18
 -1      1846 9.36235E-05-2.84462E-05-2.79413E-05 4.39056E-06 1.38105E-19-5.01258E-19
 -1      1847 9.37330E-05-2.82936E-05-2.80364E-05 5.79884E-06 4.86803E-19-9.05898E-19
 -1      1848 9.43050E-05-2.87492E-05-2.81102E-05 3.95035E-06-5.20793E-21-6.67167E-19
 -1      1849 9.52821E-05-2.91102E-05-2.83683E-05 3.53971E-06 6.12742E-20-2.73521E-19
 -1      1850 9.53149E-05-2.91985E-05-2.83211E-05 5.12778E-06 1.05321E-19-6.28909E-19
 -1      1851 9.57467E-05-2.92735E-05-2.85113E-05 2.96525E-06-4.66434E-19-1.22500E-19
 -1      1852 9.64630E-05-2.94911E-05-2.87101E-05 2.50221E-06-4.07568E-19-7.00280E-19
 -1      1853 9.64831E-05-2.97520E-05-2.85839E-05 3.98216E-06-7.93862E-20-1.50564E-19
 -1      1854 9.67205E-05-2.95392E-05-2.88169E-05 1.92968E-06-5.01606E-19-6.59017E-19
 -1      1855 9.71731E-05-2.96364E-05-2.89505E-05 1.50380E-06-1.21106E-19-3.72919E-19
 -1      1856 9.72038E-05-2.99763E-05-2.87990E-05 2.69836E-06-3.53355E-19 5.63548E-19
 -1      1857 9.72643E-05-2.96074E-05-2.90186E-05 1.01833E-06 7.44150E-19-3.80838E-19
 -1      1858 9.74902E-05-2.96187E-05-2.90922E-05 6.78244E-07 1.32459E-18-1.01402E-19
 -1      1859 9.75364E-05-2.99584E-05-2.89525E-05 1.52082E-06 2.76316E-19 1.02758E-18
 -1      1860 9.74641E-05-2.95482E-05-2.91249E-05 3.15709E-07 9.86785E-19-2.84010E-19
 -1      1861 9.75180E-05-2.95071E-05-2.91504E-05 7.56628E-08 4.99898E-19-1.59909E-19
 -1      1862 9.75789E-05-2.97981E-05-2.90428E-05 5.80896E-07 9.12822E-19 1.02740E-19
 -1      1863 9.74193E-05-2.94214E-05-2.91548E-05-1.63354E-07 4.61817E-19 1.57181E-19
 -1      1864 9.73576E-05-2.93542E-05-2.91458E-05-3.11322E-07 1.02083E-18 5.32970E-19
 -1      1865 9.74311E-05-2.95772E-05-2.90768E-05-8.35358E-08 9.44070E-19 2.30668E-20
 -1      1866 9.72215E-05-2.92697E-05-2.91301E-05-4.45735E-07 5.21157E-19 2.71651E-19
 -1      1867 9.70929E-05-2.91946E-05-2.90998E-05-5.20266E-07 1.89284E-19 2.19165E-19
 -1      1868 9.71766E-05-2.93503E-05-2.90671E-05-4.94416E-07 5.59524E-19 1.54632E-19
 -1      1869 9.69446E-05-2.91197E-05-2.90718E-05-5.76151E-07-1.09013E-19 7.06862E-19
 -1      1870 9.67863E-05-2.90477E-05-2.90307E-05-5.98380E-07 1.77057E-19 7.18986E-19
 -1      1871 9.68771E-05-2.91470E-05-2.90272E-05-7.02394E-07 5.78407E-19 1.03790E-18
 -1      1872 9.66420E-05-2.89855E-05-2.89968E-05-6.01295E-07 1.71653E-19 1.24654E-18
 -1      1873 9.64798E-05-2.89222E-05-2.89526E-05-5.90216E-07 6.88555E-19 1.24187E-18
 -1      1874 9.65740E-05-2.89795E-05-2.89699E-05-7.64956E-07 5.65953E-19 2.62995E-18
 -1      1875 9.63490E-05-2.88729E-05-2.89177E-05-5.61448E-07-1.83497E-20 6.04255E-19
 -1      1876 9.61987E-05-2.88206E-05-2.88754E-05-5.31989E-07-4.01395E-19-6.19932E-20
 -1      1877 9.62924E-05-2.88493E-05-2.89055E-05-7.34036E-07-4.99280E-19 1.63516E-18
 -1      1878 9.60859E-05-2.87829E-05-2.88425E-05-4.87424E-07-2.15266E-19-3.74098E-19
 -1      1879 9.59557E-05-2.87416E-05-2.88050E-05-4.50182E-07 2.21501E-19-4.37139E-19
 -1      1880 9.60454E-05-2.87525E-05-2.88414E-05-6.50775E-07-5.34369E-19 1.96852E-18
 -1      1881 9.58623E-05-2.87136E-05-2.87759E-05-4.00618E-07 2.27324E-19-2.99956E-19
 -1      1882 9.57552E-05-2.86822E-05-2.87446E-05-3.62436E-07 5.83990E-20 6.61272E-20
 -1      1883 9.58381E-05-2.86831E-05-2.87823E-05-5.44687E-07 3.08458E-19 5.80746E-19
 -1      1884 9.56805E-05-2.86620E-05-2.87201E-05-3.14528E-07 1.01017E-18 1.27290E-19
 -1      1885 9.55962E-05-2.86391E-05-2.86950E-05-2.79351E-07 9.39582E-19 1.42931E-18
 -1      1886 9.56702E-05-2.86350E-05-2.87308E-05-4.35082E-07 7.04827E-19 7.32432E-19
 -1      1887 9.55383E-05-2.86249E-05-2.86752E-05-2.36696E-07 2.35603E-19 1.22953E-18
 -1      1888 9.54746E-05-2.86088E-05-2.86559E-05-2.06429E-07-1.79332E-19 9.64994E-19
 -1      1889 9.55386E-05-2.86030E-05-2.86880E-05-3.33307E-07 8.97025E-19 6.66465E-19
 -1      1890 9.54311E-05-2.85991E-05-2.86406E-05-1.70542E-07-3.44158E-20 1.68017E-18
 -1      1891 9.53849E-05-2.85884E-05-2.86263E-05-1.45768E-07-1.36956E-19 2.75881E-18
 -1      1892 9.54386E-05-2.85825E-05-2.86537E-05-2.45023E-07 5.54634E-19 1.14683E-18
 -1      1893 9.53533E-05-2.85821E-05-2.86148E-05-1.16863E-07-1.14529E-18 2.54498E-18
 -1      1894 9.53213E-05-2.85754E-05-2.86048E-05-9.73849E-08-1.30712E-18 2.17422E-18
 -1      1895 9.53650E-05-2.85702E-05-2.86272E-05-1.72146E-07-1.01391E-18 2.47449E-18
 -1      1896 9.52993E-05-2.85716E-05-2.85965E-05-7.49444E-08-1.42090E-18 1.76480E-18
 -1      1897 9.52785E-05-2.85678E-05-2.85898E-05-6.01669E-08-8.15152E-19 1.38561E-18
 -1      1898 9.53127E-05-2.85635E-05-2.86075E-05-1.14337E-07-1.27277E-18 2.86270E-18
 -1      1899 9.52639E-05-2.85658E-05-2.85841E-05-4.33361E-08 1.28060E-19 1.01443E-18
 -1      1900 9.52516E-05-2.85641E-05-2.85800E-05-3.25186E-08 1.34540E-18 1.90453E-18
 -1      1901 9.52772E-05-2.85606E-05-2.85934E-05-7.00698E-08-5.45690E-19 3.50295E-18
 -1      1902 9.52425E-05-2.85633E-05-2.85762E-05-2.03578E-08 9.87260E-19 2.22141E-18
 -1      1903 9.52364E-05-2.85631E-05-2.85740E-05-1.27731E-08 6.75837E-19 2.24155E-18
 -1      1904 9.52545E-05-2.85602E-05-2.85837E-05-3.73435E-08 1.12287E-18 3.37824E-18
 -1      1905 9.52314E-05-2.85631E-05-2.85717E-05-4.41703E-09 8.27523E-19 1.37155E-18
 -1      1906 9.52296E-05-2.85639E-05-2.85708E-05 5.49070E-10 9.65628E-19 1.08709E-18
 -1      1907 9.52413E-05-2.85614E-05-2.85774E-05-1.41431E-08 3.08234E-20 3.26715E-18
 -1      1908 9.52274E-05-2.85645E-05-2.85696E-05 5.79532E-09 2.95070E-19 1.01145E-19
 -1      1909 9.52283E-05-2.85659E-05-2.85695E-05 8.57630E-09 6.48167E-19 4.21576E-19
 -1      1910 9.52348E-05-2.85637E-05-2.85736E-05 1.28079E-09-9.50159E-20 1.58617E-18
 -1      1911 9.52280E-05-2.85669E-05-2.85689E-05 1.12446E-08 1.38306E-18-2.00229E-19
 -1      1912 9.52303E-05-2.85688E-05-2.85692E-05 1.20221E-08 2.10487E-18 5.30796E-19
 -1      1913 9.52329E-05-2.85667E-05-2.85714E-05 1.02560E-08 5.09450E-19 2.12182E-18
 -1      1914 9.52309E-05-2.85699E-05-2.85689E-05 1.23418E-08 2.55664E-18-3.03705E-19
 -1      1915 9.52336E-05-2.85720E-05-2.85693E-05 1.11726E-08 1.83629E-18 1.01234E-18
 -1      1916 9.52357E-05-2.85740E-05-2.85694E-05 1.26629E-08 1.62004E-18 9.09997E-19
 -1      1917 9.52336E-05-2.85703E-05-2.85701E-05 1.36985E-08 2.03801E-18 1.34809E-18
 -1      1918 9.43593E-05-2.74395E-05-2.86346E-05 1.06197E-06 1.98080E-19 2.11875E-18
 -1      1919 9.49815E-05-2.73243E-05-2.89014E-05 2.00937E-06 1.18141E-19 2.21846E-18
 -1      1920 9.57219E-05-2.70845E-05-2.93817E-05 3.61375E-06 1.02862E-19 2.32079E-18
 -1      1921 9.74010E-05-2.69772E-05-3.00764E-05 5.53566E-06 1.08208E-19 2.34304E-18
 -1      1922 9.60502E-05-2.65157E-05-2.98152E-05 4.01641E-06 2.03215E-19 1.64210E-18
 -1      1923 9.38603E-05-2.76157E-05-2.83553E-05-4.71876E-07 1.63848E-19 1.96202E-18
 -1      1924 9.39492E-05-2.75087E-05-2.84133E-05 8.89955E-08 1.30473E-19 1.97509E-18
 -1      1925 9.50567E-05-2.72417E-05-2.90819E-05 1.09535E-06 2.46606E-19 1.46589E-18
 -1      1926 9.40258E-05-2.77970E-05-2.83543E-05-1.51317E-06-8.59507E-20 1.73796E-18
 -1      1927 9.37550E-05-2.76650E-05-2.82898E-05-1.11582E-06 6.08755E-20 1.83694E-18
 -1      1928 9.46394E-05-2.75787E-05-2.87606E-05-7.55608E-07 2.12046E-19 1.38666E-18
 -1      1929 9.46612E-05-2.80114E-05-2.85349E-05-2.32190E-06-1.76140E-19 1.56989E-18
 -1      1930 9.41441E-05-2.78527E-05-2.83911E-05-1.99211E-06-1.26623E-19 1.65565E-18
 -1      1931 9.46993E-05-2.77698E-05-2.87017E-05-2.03449E-06-3.92414E-20 1.17555E-18
 -1      1932 9.57600E-05-2.82813E-05-2.88853E-05-3.17591E-06 1.15177E-19 1.63782E-18
 -1      1933 9.49706E-05-2.80829E-05-2.86544E-05-2.79756E-06-6.01311E-20 1.56134E-18
 -1      1934 9.51374E-05-2.79094E-05-2.88262E-05-3.11303E-06-4.99617E-20 1.11923E-18
 -1      1935 9.72913E-05-2.85975E-05-2.93975E-05-4.19605E-06 4.68042E-19 1.65203E-18
 -1      1936 9.62268E-05-2.83560E-05-2.90795E-05-3.71460E-06 1.93554E-19 1.55758E-18
 -1      1937 9.59076E-05-2.80190E-05-2.91071E-05-4.25087E-06 1.64280E-19 8.08879E-19
 -1      1938 9.93045E-05-2.89694E-05-3.00889E-05-5.54220E-06 6.75145E-19 1.48925E-18
 -1      1939 9.79027E-05-2.86700E-05-2.96660E-05-4.88524E-06 6.80723E-19 1.73129E-18
 -1      1940 9.69641E-05-2.80823E-05-2.95307E-05-5.61486E-06 4.67250E-19 9.67556E-19
 -1      1941 1.01894E-04-2.94259E-05-3.09894E-05-7.37157E-06 2.92173E-19 1.49121E-18
 -1      1942 1.00056E-04-2.90359E-05-3.04355E-05-6.46713E-06 6.39745E-19 1.52637E-18
 -1      1943 9.82933E-05-2.80912E-05-3.00945E-05-7.39093E-06 6.12021E-19 1.09713E-18
 -1      1944 1.05189E-04-3.00400E-05-3.21278E-05-9.80415E-06-3.57660E-19 1.81284E-18
 -1      1945 1.02791E-04-2.94960E-05-3.14160E-05-8.60642E-06-1.44326E-19 1.65156E-18
 -1      1946 9.99015E-05-2.80616E-05-3.07944E-05-9.74858E-06 5.55501E-20 1.33640E-18
 -1      1947 1.09338E-04-3.09908E-05-3.34994E-05-1.28157E-05-1.73920E-19 1.61804E-18
 -1      1948 1.06262E-04-3.01735E-05-3.26222E-05-1.13757E-05-2.75160E-19 1.56517E-18
 -1      1949 1.01829E-04-2.80950E-05-3.16056E-05-1.27932E-05-3.39336E-19 9.71400E-19
 -1      1950 1.14283E-04-3.26100E-05-3.49482E-05-1.58400E-05-1.50368E-19 1.28070E-18
 -1      1951 1.10608E-04-3.13351E-05-3.39937E-05-1.45326E-05-1.51076E-19 1.46340E-18
 -1      1952 1.04164E-04-2.85027E-05-3.24317E-05-1.63338E-05 6.87354E-20 8.94990E-19
 -1      1953 1.20852E-04-3.58856E-05-3.64064E-05-1.80084E-05-5.38250E-19 1.89042E-18
 -1      1954 1.16252E-04-3.36057E-05-3.54144E-05-1.74511E-05-3.95621E-19 1.54752E-18
 -1      1955 1.07375E-04-3.00671E-05-3.31588E-05-1.99565E-05-3.06429E-19 8.53114E-19
 -1      1956 1.29325E-04-4.20339E-05-3.74828E-05-1.65948E-05-1.19058E-18 2.40564E-18
 -1      1957 1.24261E-04-3.83292E-05-3.67273E-05-1.83942E-05-7.15571E-19 2.02723E-18
 -1      1958 1.12703E-04-3.44419E-05-3.36093E-05-2.23568E-05-7.15200E-19 1.48083E-18
 -1      1959 1.40220E-04-5.12766E-05-3.82503E-05-7.69888E-06-1.23434E-18 2.43401E-18
 -1      1960 1.35640E-04-4.68303E-05-3.77927E-05-1.37051E-05-1.27754E-18 2.21262E-18
 -1      1961 1.22402E-04-4.38154E-05-3.38214E-05-2.06912E-05-1.19839E-18 1.22289E-18
 -1      1962 1.51273E-04-5.83890E-05-3.99351E-05 9.74129E-06-8.95526E-19 2.29975E-18
 -1      1963 1.49843E-04-5.73450E-05-3.94684E-05 1.93384E-07-1.19935E-18 2.02171E-18
 -1      1964 1.37998E-04-5.67033E-05-3.50301E-05-1.03509E-05-9.96058E-19 3.18233E-19
 -1      1965 1.53151E-04-3.50248E-05-5.12713E-05 2.23272E-05-1.08420E-19 3.59290E-18
 -1      1966 1.57173E-04-4.36237E-05-4.96045E-05 2.69372E-05 5.92923E-21 3.46087E-18
 -1      1967 1.56597E-04-3.57114E-05-5.25999E-05-2.27935E-05 1.29723E-18 2.08307E-18
 -1      1968 1.52215E-04-2.74245E-05-5.39429E-05-1.15087E-05 1.10623E-18 2.91909E-18
 -1      1969 1.60858E-04-5.53076E-05-4.57767E-05-2.51656E-05 1.55960E-18 2.95869E-18
 -1      1970 1.55137E-04-4.41739E-05-4.79689E-05-2.70368E-05 1.58332E-18 2.90786E-18
 -1      1971 1.53515E-04-5.87683E-05-4.05184E-05-5.91563E-06 7.23181E-19 2.64978E-18
 -1      1972 1.53797E-04-5.76053E-05-4.14313E-05-1.54490E-05 2.66511E-19 2.41447E-18
 -1      1973 1.40039E-04-4.94322E-05-3.85090E-05 1.04493E-05-1.96723E-19 2.51058E-18
 -1      1974 1.43951E-04-5.34946E-05-3.89030E-05 3.38821E-06 1.33874E-18 3.13954E-18
 -1      1975 1.44113E-04-5.92914E-05-3.65689E-05 4.20838E-06 4.99061E-19 1.63332E-18
 -1      1976 1.28081E-04-4.03100E-05-3.74684E-05 1.72943E-05-1.04794E-18 2.28834E-18
 -1      1977 1.33032E-04-4.43434E-05-3.81111E-05 1.46687E-05-1.16266E-18 2.27710E-18
 -1      1978 1.27700E-04-4.71104E-05-3.46931E-05 1.77736E-05-2.48922E-19 2.33072E-18
 -1      1979 1.19435E-04-3.48845E-05-3.62114E-05 1.73335E-05-2.70060E-19 1.27377E-18
 -1      1980 1.24111E-04-3.74934E-05-3.71478E-05 1.75401E-05-5.27516E-19 1.55613E-18
 -1      1981 1.16706E-04-3.67667E-05-3.43487E-05 2.14620E-05-8.04258E-19 1.57832E-18
 -1      1982 1.13244E-04-3.21735E-05-3.47550E-05 1.45567E-05 8.02431E-20 2.32978E-18
 -1      1983 1.17168E-04-3.36836E-05-3.57434E-05 1.59023E-05-4.54188E-19 1.41866E-18
 -1      1984 1.10442E-04-3.14602E-05-3.38869E-05 1.98412E-05-4.71119E-19 5.83559E-19
 -1      1985 1.08845E-04-3.08967E-05-3.34178E-05 1.13825E-05 7.58703E-19 2.94463E-18
 -1      1986 1.11838E-04-3.17469E-05-3.42539E-05 1.28291E-05 7.42868E-19 3.14886E-18
 -1      1987 1.06701E-04-2.93837E-05-3.31534E-05 1.63371E-05-2.52621E-19 2.20993E-18
 -1      1988 1.05295E-04-3.01621E-05-3.22038E-05 8.39330E-06-5.76505E-19 2.81817E-18
 -1      1989 1.07695E-04-3.07262E-05-3.29118E-05 9.70453E-06 6.98352E-19 3.93693E-18
 -1      1990 1.04107E-04-2.87428E-05-3.23028E-05 1.26366E-05 1.89706E-19 2.74525E-18
 -1      1991 1.02616E-04-2.97233E-05-3.12381E-05 6.02955E-06-1.10351E-18 1.90565E-18
 -1      1992 1.04391E-04-3.00913E-05-3.17750E-05 7.04223E-06-1.40186E-18 1.56240E-18
 -1      1993 1.02061E-04-2.86221E-05-3.14766E-05 9.34264E-06-1.58842E-19 1.84933E-18
 -1      1994 1.00599E-04-2.94212E-05-3.05006E-05 4.27122E-06-1.47169E-19 2.03682E-18
 -1      1995 1.01888E-04-2.96726E-05-3.08952E-05 5.01110E-06-8.09036E-19 1.84415E-18
 -1      1996 1.00440E-04-2.86495E-05-3.07711E-05 6.75426E-06-8.88650E-19 8.98958E-19
 -1      1997 9.90947E-05-2.91967E-05-2.99515E-05 3.00373E-06 7.39466E-20 2.03126E-18
 -1      1998 1.00020E-04-2.93733E-05-3.02365E-05 3.52960E-06 3.37523E-20 1.95221E-18
 -1      1999 9.91523E-05-2.86856E-05-3.02048E-05 4.82107E-06-1.47847E-19 1.90451E-18
 -1      2000 9.79835E-05-2.90252E-05-2.95491E-05 2.10428E-06 5.62827E-19 2.03657E-18
 -1      2001 9.86434E-05-2.91508E-05-2.97529E-05 2.47334E-06 2.94897E-19 1.76505E-18
 -1      2002 9.81420E-05-2.86983E-05-2.97667E-05 3.41662E-06 1.26923E-19 1.13252E-18
 -1      2003 9.71706E-05-2.88940E-05-2.92572E-05 1.47030E-06 1.25962E-18 2.97318E-18
 -1      2004 9.76374E-05-2.89838E-05-2.94020E-05 1.72806E-06 1.05663E-18 2.39631E-18
 -1      2005 9.73615E-05-2.86896E-05-2.94357E-05 2.41083E-06 2.06502E-19 1.02484E-18
 -1      2006 9.66037E-05-2.87987E-05-2.90559E-05 1.04305E-06 6.58393E-19 3.24959E-18
 -1      2007 9.69214E-05-2.88592E-05-2.91544E-05 1.21659E-06 1.09468E-18 3.59012E-18
 -1      2008 9.67803E-05-2.86716E-05-2.91945E-05 1.70801E-06 5.43692E-19 1.79378E-18
 -1      2009 9.61684E-05-2.87233E-05-2.89025E-05 7.22585E-07 2.80085E-19 3.48473E-18
 -1      2010 9.64047E-05-2.87697E-05-2.89760E-05 8.50924E-07 9.21004E-19 3.11789E-18
 -1      2011 9.63412E-05-2.86458E-05-2.90159E-05 1.20864E-06 6.04089E-19 2.85764E-18
 -1      2012 9.58579E-05-2.86684E-05-2.87935E-05 4.96606E-07-3.97940E-19 3.52787E-18
 -1      2013 9.60226E-05-2.87002E-05-2.88450E-05 5.86879E-07-3.52595E-19 3.29717E-18
 -1      2014 9.60059E-05-2.86226E-05-2.88815E-05 8.41525E-07-8.54792E-20 2.64352E-18
 -1      2015 9.56384E-05-2.86291E-05-2.87167E-05 3.36877E-07 5.83186E-19 2.93021E-18
 -1      2016 9.57519E-05-2.86508E-05-2.87524E-05 4.00368E-07-5.46974E-19 3.53612E-18
 -1      2017 9.57604E-05-2.86026E-05-2.87843E-05 5.80541E-07-4.53264E-19 4.24491E-18
 -1      2018 9.54856E-05-2.86019E-05-2.86632E-05 2.23924E-07-2.96980E-19 2.68598E-18
 -1      2019 9.55626E-05-2.86163E-05-2.86876E-05 2.68594E-07 3.78791E-19 2.86825E-18
 -1      2020 9.55833E-05-2.85869E-05-2.87146E-05 3.94872E-07 2.37035E-20 2.81901E-18
 -1      2021 9.53813E-05-2.85838E-05-2.86266E-05 1.44204E-07-2.79000E-19 2.44769E-18
 -1      2022 9.54323E-05-2.85929E-05-2.86429E-05 1.75557E-07-6.87337E-19 3.14416E-18
 -1      2023 9.54577E-05-2.85756E-05-2.86652E-05 2.62894E-07-1.08053E-18 3.61719E-18
 -1      2024 9.53124E-05-2.85724E-05-2.86021E-05 8.82241E-08-1.97285E-19 1.04864E-18
 -1      2025 9.53448E-05-2.85778E-05-2.86127E-05 1.10070E-07 2.90342E-19 2.20292E-18
 -1      2026 9.53704E-05-2.85680E-05-2.86307E-05 1.69346E-07-1.10893E-19 2.82740E-18
 -1      2027 9.52703E-05-2.85662E-05-2.85869E-05 5.08566E-08-7.19508E-20 5.72634E-19
 -1      2028 9.52891E-05-2.85687E-05-2.85932E-05 6.53857E-08-5.22292E-19 1.19592E-18
 -1      2029 9.53128E-05-2.85639E-05-2.86075E-05 1.04581E-07-7.09026E-19 1.24124E-18
 -1      2030 9.52437E-05-2.85631E-05-2.85770E-05 2.35137E-08 2.10347E-19 1.19395E-18
 -1      2031 9.52545E-05-2.85640E-05-2.85808E-05 3.39762E-08 5.07271E-19 1.01021E-18
 -1      2032 9.52750E-05-2.85616E-05-2.85920E-05 5.93386E-08-6.96731E-19 8.72929E-19
 -1      2033 9.52299E-05-2.85625E-05-2.85715E-05 5.20976E-09-3.58546E-20 2.55615E-18
 -1      2034 9.52344E-05-2.85621E-05-2.85733E-05 1.21263E-08-4.03317E-19 1.67043E-18
 -1      2035 9.52511E-05-2.85614E-05-2.85817E-05 2.71483E-08 6.66536E-20 6.66541E-19
 -1      2036 9.52247E-05-2.85636E-05-2.85689E-05-6.44094E-09 1.53054E-19 2.24071E-18
 -1      2037 9.52251E-05-2.85623E-05-2.85694E-05-2.17994E-09 6.77801E-19 3.14244E-18
 -1      2038 9.52379E-05-2.85624E-05-2.85755E-05 5.66602E-09 7.29707E-19 6.99557E-19
 -1      2039 9.52250E-05-2.85658E-05-2.85681E-05-1.29542E-08 5.74708E-19 1.04874E-18
 -1      2040 9.52229E-05-2.85640E-05-2.85679E-05-1.07974E-08 8.40891E-19 1.66600E-18
 -1      2041 9.52320E-05-2.85645E-05-2.85720E-05-7.82890E-09 7.51663E-19 8.37811E-19
 -1      2042 9.52284E-05-2.85689E-05-2.85684E-05-1.51185E-08-1.32656E-18 1.10406E-18
 -1      2043 9.52251E-05-2.85668E-05-2.85678E-05-1.48704E-08-1.11149E-18 1.01562E-18
 -1      2044 9.52308E-05-2.85673E-05-2.85702E-05-1.50738E-08-2.12767E-19 7.13160E-19
 -1      2045 9.52331E-05-2.85727E-05-2.85688E-05-1.31843E-08 1.68328E-18-9.18609E-19
 -1      2046 9.52296E-05-2.85702E-05-2.85682E-05-1.47305E-08 3.89740E-19 3.14946E-19
 -1      2047 9.52327E-05-2.85711E-05-2.85693E-05-1.71080E-08 1.47378E-19-1.99329E-18
 -1      2048 2.37567E-05-3.76340E-05 4.86041E-06 1.77052E-05 1.93039E-18 1.88931E-18
 -1      2049 1.60629E-05-3.63493E-05 7.42850E-06 8.72906E-06 2.12637E-18 6.91602E-19
 -1      2050 9.52441E-05-2.85874E-05-2.85672E-05-9.73547E-09-1.83234E-19-2.17112E-18
 -1      2051 9.52431E-05-2.85850E-05-2.85677E-05-1.13046E-08 3.55050E-19-3.04011E-18
 -1      2052 9.52425E-05-2.85843E-05-2.85678E-05-1.29975E-08-2.17083E-19-1.82894E-18
 -1      2053 9.52407E-05-2.85810E-05-2.85684E-05-1.37323E-08-5.86087E-19-3.34328E-19
 -1      2054 9.52421E-05-2.85796E-05-2.85696E-05-1.39494E-08 1.04943E-19-2.46919E-18
 -1      2055 9.52348E-05-2.85739E-05-2.85688E-05-9.86911E-09 1.75286E-18-8.64818E-19
 -1      2056 9.52445E-05-2.85888E-05-2.85667E-05-5.95868E-09-1.65037E-18-3.38003E-18
 -1      2057 9.52442E-05-2.85873E-05-2.85671E-05-7.64526E-09-8.81417E-19-8.70940E-19
 -1      2058 9.52431E-05-2.85803E-05-2.85698E-05-9.77232E-09 5.84829E-20-2.58049E-18
 -1      2059 9.52441E-05-2.85890E-05-2.85665E-05-2.61166E-09-2.35255E-18-1.25004E-18
 -1      2060 9.52441E-05-2.85882E-05-2.85667E-05-4.03989E-09-1.68692E-18-1.87518E-18
 -1      2061 9.52427E-05-2.85796E-05-2.85699E-05-5.37664E-09-8.46643E-19-3.21253E-18
 -1      2062 9.52434E-05-2.85883E-05-2.85665E-05-2.21858E-10-2.70933E-18-8.84011E-19
 -1      2063 9.52436E-05-2.85882E-05-2.85665E-05-1.22157E-09-2.53144E-18 4.32365E-19
 -1      2064 9.52415E-05-2.85781E-05-2.85700E-05-1.80411E-09-1.40492E-18-7.38247E-19
 -1      2065 9.52427E-05-2.85874E-05-2.85666E-05 1.28301E-09-2.24371E-18-1.11120E-19
 -1      2066 9.52430E-05-2.85877E-05-2.85665E-05 6.31676E-10-2.51820E-18-1.15561E-18
 -1      2067 9.52403E-05-2.85766E-05-2.85701E-05 5.50173E-10-1.36432E-18-1.01039E-18
 -1      2068 9.52424E-05-2.85866E-05-2.85668E-05 2.32640E-09-2.74879E-18-1.93742E-18
 -1      2069 9.52425E-05-2.85871E-05-2.85666E-05 1.81250E-09-2.28895E-18-4.13654E-19
 -1      2070 9.52396E-05-2.85756E-05-2.85702E-05 1.93083E-09-1.94770E-18-1.14642E-18
 -1      2071 9.52424E-05-2.85859E-05-2.85670E-05 3.45794E-09-3.83115E-18-9.48064E-19
 -1      2072 9.52425E-05-2.85866E-05-2.85668E-05 2.84221E-09-2.85878E-18-1.99163E-18
 -1      2073 9.52395E-05-2.85753E-05-2.85703E-05 2.93545E-09-2.88018E-18-2.53493E-18
 -1      2074 9.52425E-05-2.85851E-05-2.85674E-05 5.08508E-09-4.20026E-18-1.82291E-18
 -1      2075 9.52426E-05-2.85862E-05-2.85671E-05 4.22747E-09-4.19240E-18-2.41806E-19
 -1      2076 9.52399E-05-2.85757E-05-2.85703E-05 4.22054E-09-3.05977E-18-6.01443E-19
 -1      2077 9.52424E-05-2.85840E-05-2.85678E-05 7.37466E-09-3.52072E-18 3.31506E-18
 -1      2078 9.52428E-05-2.85855E-05-2.85674E-05 6.25188E-09-3.33066E-18 6.84611E-19
 -1      2079 9.52407E-05-2.85765E-05-2.85703E-05 6.25353E-09-2.21429E-18-1.31251E-19
 -1      2080 9.52417E-05-2.85820E-05-2.85684E-05 9.89021E-09-2.64346E-18 2.56229E-18
 -1      2081 9.52425E-05-2.85841E-05-2.85679E-05 8.78721E-09-3.30601E-18 3.40755E-18
 -1      2082 9.52411E-05-2.85771E-05-2.85703E-05 9.06484E-09-1.05480E-18 2.94746E-18
 -1      2083 9.52398E-05-2.85791E-05-2.85689E-05 1.18098E-08-4.29046E-19 1.01992E-18
 -1      2084 9.52414E-05-2.85817E-05-2.85684E-05 1.11032E-08-1.61923E-18 2.53757E-18
 -1      2085 9.52406E-05-2.85769E-05-2.85702E-05 1.19552E-08-3.88537E-19 3.52492E-18
 -1      2086 5.09256E-05-4.32269E-05-4.21816E-06 3.25246E-05 1.45774E-18-1.73928E-18
 -1      2087 3.58898E-05-4.39812E-05 1.82375E-06 2.36037E-05 1.60259E-18 5.78947E-19
 -1      2088 3.63460E-05-3.35508E-05-1.70531E-06 2.78260E-05 5.75559E-19-1.47595E-19
 -1      2089 1.04726E-05-3.70643E-05 9.90137E-06-4.64993E-06 1.98915E-18 1.83383E-19
 -1      2090 1.22329E-05-3.76791E-05 9.37432E-06-1.34943E-05 9.93993E-19 1.18458E-18
 -1      2091 8.73261E-05-8.66370E-06-3.38041E-05-1.00836E-05 3.89265E-19-1.09119E-18
 -1      2092 8.80912E-05-9.23107E-06-3.38813E-05-1.16548E-05 2.98341E-19-1.18908E-18
 -1      2093 9.06049E-05-1.30006E-05-3.32867E-05-1.13363E-05 2.41332E-19-1.15350E-18
 -1      2094 8.86800E-05-1.09256E-05-3.33555E-05-8.92323E-06 4.16312E-19-9.38962E-19
 -1      2095 1.86456E-04-5.55295E-05-5.48489E-05 1.15297E-05 3.61048E-19-8.97855E-19
 -1      2096 1.62634E-04-5.66881E-05-4.57508E-05 1.24133E-05 5.18384E-19-1.36288E-18
 -1      2097 2.06438E-04-4.41172E-05-6.74233E-05 8.49921E-07 7.35225E-19-3.36272E-19
 -1      2098 1.93043E-04-4.67397E-05-6.14538E-05 6.53438E-06 6.26169E-19-6.34428E-19
 -1      2099 2.13410E-04-3.67433E-05-7.30335E-05-1.76984E-06 1.18712E-18-2.09344E-18
 -1      2100 2.06716E-04-3.64568E-05-7.06792E-05-7.29105E-07 9.37242E-19-6.03087E-19
 -1      2101 2.03306E-04-3.49555E-05-7.04234E-05-5.24732E-07 1.26674E-18-2.32256E-18
 -1      2102 2.14135E-04-3.62933E-05-7.32440E-05 7.25649E-07 7.46236E-19-2.12266E-18
 -1      2103 1.86131E-04-2.56856E-05-6.67977E-05-1.06969E-06 1.34763E-18 4.23649E-19
 -1      2104 1.84556E-04-4.64714E-05-5.89683E-05 5.15093E-06 8.99761E-19-1.25911E-18
 -1      2105 1.94128E-04-4.20385E-05-6.41621E-05 8.42668E-06 1.14477E-18-9.19878E-19
 -1      2106 1.66663E-04-5.69074E-05-4.73393E-05-5.94649E-06-4.64598E-19-1.72202E-18
 -1      2107 1.85785E-04-5.50495E-05-5.53685E-05-2.53519E-06 3.85374E-19-1.72795E-18
 -1      2108 1.74894E-04-5.01004E-05-5.27541E-05 2.29860E-05-3.27378E-19 9.88911E-19
 -1      2109 1.19105E-04-5.65660E-05-2.82384E-05-2.90529E-05-2.36322E-19-2.87695E-18
 -1      2110 1.46773E-04-5.87203E-05-3.79410E-05-2.80396E-05-4.84079E-19-3.00951E-18
 -1      2111 7.84757E-05-5.28064E-05-1.25798E-05-3.29402E-05-6.91179E-19-2.46338E-18
 -1      2112 1.00133E-04-5.27130E-05-2.08942E-05-3.72231E-05-8.72444E-20-3.22465E-18
 -1      2113 1.25386E-04-6.51083E-05-2.59500E-05-2.95568E-05-9.74935E-19-2.40346E-18
 -1      2114 3.75827E-05-4.56877E-05 1.48458E-06-2.40363E-05-4.69680E-19-1.33535E-18
 -1      2115 5.36530E-05-4.45015E-05-4.91643E-06-3.34965E-05-2.50722E-19-1.88179E-18
 -1      2116 1.66556E-05-3.97183E-05 8.24881E-06-1.02861E-05-8.19293E-19-2.40981E-19
 -1      2117 2.46975E-05-4.07971E-05 5.45000E-06-1.82065E-05-4.30716E-19-5.16690E-19
 -1      2118 3.77688E-05-3.74624E-05-9.54555E-07-2.89915E-05 2.58345E-20-1.58183E-18
 -1      2119 1.17618E-05-3.32158E-05 8.21680E-06 1.11579E-05-1.28156E-18-2.07311E-18
 -1      2120 1.19340E-05-3.55143E-05 8.82628E-06 9.36206E-07-8.33586E-19-1.19601E-18
 -1      2121 2.59656E-05-3.77669E-05 3.89310E-06 3.02022E-05-2.10149E-18-3.52323E-18
 -1      2122 1.79561E-05-3.77284E-05 7.12929E-06 2.27852E-05-1.45605E-18-2.89939E-18
 -1      2123 5.22879E-05-3.84418E-05-6.55277E-06 4.26541E-05-2.93709E-18-9.25436E-19
 -1      2124 3.92228E-05-4.21267E-05-3.22665E-07 3.51358E-05-2.29419E-18-2.41087E-18
 -1      2125 8.92921E-05-3.94481E-05-2.14124E-05 4.83201E-05-3.23101E-18 8.09763E-19
 -1      2126 7.07089E-05-4.27006E-05-1.32485E-05 4.23736E-05-3.43133E-18 2.90744E-19
 -1      2127 1.29845E-04-4.08049E-05-3.75865E-05 4.34962E-05-2.36661E-18 2.59319E-18
 -1      2128 1.09392E-04-4.26595E-05-2.92039E-05 4.16103E-05-3.06753E-18 1.81562E-18
 -1      2129 1.61242E-04-3.60565E-05-5.25918E-05 3.35573E-05-1.13137E-18 1.76860E-18
 -1      2130 1.41692E-04-3.66038E-05-4.51039E-05 3.56124E-05-1.74616E-18 1.58141E-18
 -1      2131 1.82452E-04-3.07586E-05-6.38364E-05 1.84941E-05-1.95919E-18 3.67485E-18
 -1      2132 1.68125E-04-3.06425E-05-5.84395E-05 2.46044E-05-1.54965E-18 2.55550E-18
 -1      2133 1.87691E-04-2.39337E-05-6.92699E-05 3.12219E-06-1.70635E-18 4.21060E-18
 -1      2134 1.83884E-04-2.51592E-05-6.71108E-05 1.23375E-05-1.87787E-18 3.67909E-18
 -1      2135 1.84245E-04-2.33713E-05-6.80989E-05-8.48473E-06-9.64347E-19 3.58104E-18
 -1      2136 1.85674E-04-2.22073E-05-6.92494E-05 4.79304E-08-1.11681E-18 3.75265E-18
 -1      2137 1.72987E-04-2.88689E-05-6.12299E-05-2.11061E-05-5.34690E-19 3.06202E-18
 -1      2138 1.84944E-04-2.85593E-05-6.59168E-05-1.37911E-05-7.01343E-19 3.08405E-18
 -1      2139 1.51546E-04-3.55578E-05-4.92713E-05-2.98992E-05-1.67395E-19 3.03661E-18
 -1      2140 1.69295E-04-3.36978E-05-5.66763E-05-2.88359E-05-6.12987E-19 2.82613E-18
 -1      2141 1.62542E-04-3.00873E-05-5.58399E-05-7.04565E-06 2.88203E-19 1.46791E-18
 -1      2142 1.15001E-04-4.14956E-05-3.21046E-05-4.08158E-05 1.45944E-18 3.82605E-18
 -1      2143 1.36636E-04-4.17304E-05-4.04944E-05-3.88918E-05 9.25383E-19 3.94124E-18
 -1      2144 8.02575E-05-4.38729E-05-1.65827E-05-4.36440E-05 7.58094E-19 1.04757E-18
 -1      2145 9.96195E-05-4.13872E-05-2.48282E-05-4.82316E-05 6.83132E-19 2.99807E-18
 -1      2146 4.54322E-05-4.15844E-05-2.89265E-06-3.86827E-05 1.28198E-18 1.08971E-18
 -1      2147 6.00775E-05-3.85755E-05-9.61925E-06-4.55761E-05 9.96111E-19 1.11994E-18
 -1      2148 1.93573E-05-3.96436E-05 7.02551E-06-2.31615E-05 1.31078E-18 1.30994E-18
 -1      2149 2.74989E-05-3.58284E-05 2.65704E-06-3.25852E-05 1.28961E-18 1.04545E-18
 -1      2150 1.00133E-04-2.26020E-05-3.29536E-05 1.42601E-05 9.42324E-20 2.46963E-18
 -1      2151 1.43600E-04-5.89360E-05-3.63637E-05 2.88457E-05 5.75982E-19-1.54499E-18
 -1      2152 1.16765E-04-5.73333E-05-2.68147E-05 2.92044E-05 1.42344E-18-1.56108E-18
 -1      2153 1.22775E-04-6.47564E-05-2.49008E-05 2.96449E-05 1.43741E-18-2.19318E-18
 -1      2154 9.99868E-05-2.26100E-05-3.28814E-05-1.41216E-05-1.49925E-19-1.48035E-18
 -1      2155 9.52354E-05-2.85747E-05-2.85689E-05-1.32696E-08 2.29324E-18-2.94852E-18
 -1      2156 9.52381E-05-2.85782E-05-2.85685E-05-1.43030E-08 9.89118E-19-2.41658E-18
 -1      2157 7.57471E-05-5.07676E-05-1.11557E-05 3.72769E-05 8.45339E-19-2.46254E-18
 -1      2158 9.74419E-05-2.43941E-05-3.13772E-05-9.65690E-06-1.32719E-19-1.47267E-18
 -1      2159 1.61340E-04-6.68976E-05-4.01743E-05 8.24652E-06 1.53715E-18-4.37069E-19
 -1      2160 9.66227E-05-2.31811E-05-3.15429E-05-9.94888E-06-1.20107E-19-1.32010E-18
 -1      2161 9.67018E-05-2.31905E-05-3.15855E-05 9.92548E-06 2.20824E-19 1.84002E-18
 -1      2162 9.75656E-05-2.44318E-05-3.14226E-05 9.68822E-06 1.40343E-19 2.39644E-18
 -1      2163 1.58976E-04-4.97336E-05-4.72801E-05 2.58164E-05-3.38178E-19 2.90882E-18
 -1      2164 1.62270E-04-5.75550E-05-4.51377E-05 2.10173E-05-7.42583E-19 2.62083E-18
 -1      2165 1.49045E-04-2.60153E-05-5.35403E-05 1.86877E-06 7.17013E-19 3.62250E-18
 -1      2166 1.50770E-04-2.88555E-05-5.30309E-05 1.37625E-05 4.96361E-19 3.89058E-18
 -1      2167 1.71285E-04-4.24902E-05-5.50175E-05-2.28810E-05 1.23752E-18 2.03457E-18
 -1      2168 1.55115E-05-2.57988E-05 3.77448E-06 5.19480E-06 5.63171E-19 9.46983E-19
 -1      2169 9.52379E-05-2.85759E-05-2.85694E-05-1.65306E-08-1.41042E-19-2.92965E-18
 -1      2170 1.72467E-05-2.80355E-05 3.83053E-06-2.28140E-05 5.31090E-19 1.24429E-18
 -1      2171 9.52387E-05-2.85768E-05-2.85694E-05 1.22421E-08 4.71027E-19 1.17040E-18
 -1      2172 4.37449E-05-3.66475E-05-3.46773E-06-4.27670E-05 8.66515E-19 1.83298E-18
 -1      2173 8.39476E-05-4.83407E-05-1.53316E-05-4.85928E-05 1.17018E-18 1.32841E-18
 -1      2174 1.46811E-04-4.38104E-05-4.38795E-05-2.57620E-05 6.77626E-19 2.85874E-18
 -1      2175 1.51720E-04-4.52534E-05-4.64316E-05-1.02594E-05 5.80906E-19 1.52699E-18
 -1      2176 1.42732E-04-5.15357E-05-3.85323E-05-2.09392E-05 1.62895E-18 2.72533E-18
 -1      2177 1.63829E-04-1.63340E-05-6.21441E-05-6.41109E-07-1.77877E-20 1.75336E-18
 -1      2178 1.64033E-04-1.16067E-05-6.43224E-05 2.08507E-07-1.28283E-18 2.56730E-18
 -1      2179 1.66018E-04-2.06204E-05-6.11946E-05 2.54237E-06-2.21986E-18 3.13783E-18
 -1      2180 1.60772E-04-3.56608E-05-5.26742E-05 1.27704E-05-1.79613E-18 2.70331E-18
 -1      2181 1.43460E-04-4.92666E-05-3.99903E-05 2.69633E-05-1.95898E-18 2.25141E-18
 -1      2182 1.13144E-04-5.23055E-05-2.58411E-05 4.24991E-05-2.51188E-18 2.49028E-18
 -1      2183 7.33075E-05-4.60556E-05-1.20468E-05 4.78201E-05-1.96342E-18 1.94553E-19
 -1      2184 3.88860E-05-3.63292E-05-1.80123E-06 4.02647E-05-8.55503E-19-2.70436E-18
 -1      2185 1.64997E-05-2.67426E-05 3.69441E-06-7.95123E-06-2.50828E-19-1.16340E-18
 -1      2186 7.83460E-05-5.22658E-05-1.16822E-05-3.72828E-05-4.11658E-19-2.09169E-18
 -1      2187 1.64317E-04-6.53580E-05-4.19977E-05-3.33419E-06-1.02999E-18-7.42848E-19
 -1      2188 1.77406E-04-3.30228E-05-6.11275E-05 1.70385E-05 5.21349E-19 4.48292E-19
 -1      2189 1.82626E-04-5.33538E-05-5.46190E-05-1.03057E-05 5.82547E-19 8.89385E-21
 -1      2190 1.88441E-04-3.48585E-05-6.40079E-05-1.13587E-05 1.25573E-18 8.09763E-19
 -1      2191 1.60665E-04-6.38119E-05-4.19520E-05 9.38935E-06-1.16738E-18 2.57074E-19
 -1      2192 1.71008E-05-2.64157E-05 3.40467E-06 1.95834E-05-5.97158E-19-2.40642E-18
 -1      2193 1.20136E-04-5.31892E-05-2.84489E-05-3.92716E-05 1.45541E-18 3.19734E-18
 -1      2194 8.77701E-05-1.07282E-05-3.30578E-05-3.32371E-06 7.58310E-19-2.48287E-19
 -1      2195 8.80710E-05-1.10466E-05-3.30455E-05-4.40644E-06 7.06689E-19-4.41847E-19
 -1      2196 8.85039E-05-1.16035E-05-3.30034E-05-5.37181E-06 6.18107E-19-4.93503E-19
 -1      2197 8.89872E-05-1.21292E-05-3.29826E-05-6.50529E-06 5.23715E-19-6.04596E-19
 -1      2198 8.95800E-05-1.33806E-05-3.26555E-05-4.43071E-06 6.66438E-19-3.86866E-19
 -1      2199 8.72690E-05-1.01173E-05-3.30988E-05 6.16412E-07 9.20715E-19 8.31680E-20
 -1      2200 8.72775E-05-1.01278E-05-3.30967E-05-4.07132E-07 8.96779E-19 3.47416E-20
 -1      2201 8.74756E-05-1.03384E-05-3.30923E-05 2.56128E-06 8.86685E-19 1.94222E-20
 -1      2202 8.73377E-05-1.01980E-05-3.30949E-05 1.53255E-06 9.08724E-19 1.51341E-20
 -1      2203 8.84961E-05-1.20357E-05-3.27695E-05 1.00832E-06 8.54872E-19 2.43588E-20
 -1      2204 8.80053E-05-1.09356E-05-3.30660E-05 4.50647E-06 8.96106E-19 2.20149E-19
 -1      2205 8.77113E-05-1.06306E-05-3.30743E-05 3.46495E-06 9.02147E-19 7.72190E-20
 -1      2206 8.88076E-05-1.24014E-05-3.27444E-05 2.76349E-06 8.68220E-19 3.17439E-20
 -1      2207 8.89417E-05-1.20188E-05-3.30106E-05 6.53989E-06 9.10245E-19 6.71829E-19
 -1      2208 8.84421E-05-1.14852E-05-3.30283E-05 5.43236E-06 8.89493E-19 4.80929E-19
 -1      2209 8.94895E-05-1.32236E-05-3.26816E-05 4.51897E-06 8.44230E-19 3.67715E-19
 -1      2210 9.03890E-05-1.37526E-05-3.29053E-05 8.60056E-06 7.91560E-19 8.36101E-19
 -1      2211 8.96260E-05-1.28928E-05-3.29411E-05 7.45543E-06 8.37314E-19 7.05506E-19
 -1      2212 9.06118E-05-1.46150E-05-3.25619E-05 6.26116E-06 7.76075E-19 5.84810E-19
 -1      2213 9.25615E-05-1.65006E-05-3.26923E-05 1.04654E-05 5.98605E-19 9.78310E-19
 -1      2214 9.14106E-05-1.50715E-05-3.27769E-05 9.40452E-06 7.83360E-19 8.38721E-19
 -1      2215 9.22428E-05-1.67339E-05-3.23439E-05 7.83609E-06 6.76695E-19 7.89458E-19
 -1      2216 9.57440E-05-2.09633E-05-3.21141E-05 1.07494E-05 3.22561E-19 1.51854E-18
 -1      2217 9.39283E-05-1.85601E-05-3.23352E-05 1.03938E-05 4.86313E-19 1.11145E-18
 -1      2218 9.43915E-05-2.00365E-05-3.18389E-05 8.34923E-06 5.00828E-19 9.70668E-19
 -1      2219 9.60313E-05-2.39056E-05-3.09040E-05 7.03040E-06 3.18180E-19 1.51719E-18
 -1      2220 1.36023E-04-6.73755E-05-2.98045E-05 2.23164E-05 8.02564E-19-4.30293E-19
 -1      2221 1.17512E-04-6.21676E-05-2.36973E-05 2.89496E-05 6.11558E-19-1.95008E-18
 -1      2222 9.62435E-05-2.51332E-05-3.04284E-05-5.65830E-06-1.42172E-19-1.05381E-18
 -1      2223 9.56551E-05-2.58957E-05-2.99106E-05-3.70599E-06-4.47571E-20-9.19896E-19
 -1      2224 9.55944E-05-2.65875E-05-2.95169E-05-2.31160E-06 2.86370E-21-8.28760E-19
 -1      2225 9.52154E-05-2.69784E-05-2.92427E-05-1.20039E-06 1.41827E-19-9.88233E-19
 -1      2226 9.56868E-05-2.53624E-05-3.01484E-05-3.60854E-06-4.93281E-20-8.60427E-19
 -1      2227 9.50936E-05-2.73279E-05-2.90036E-05-2.86629E-07 1.66650E-19-9.79044E-19
 -1      2228 9.49475E-05-2.75786E-05-2.88687E-05 3.65094E-07 1.35358E-19-9.41842E-19
 -1      2229 9.55091E-05-2.67163E-05-2.94975E-05-1.11125E-06 1.16747E-19-9.27103E-19
 -1      2230 9.48964E-05-2.77980E-05-2.87328E-05 9.31779E-07 1.47242E-19-8.97655E-19
 -1      2231 9.49291E-05-2.79988E-05-2.86817E-05 1.30016E-06 6.05802E-20-7.66492E-19
 -1      2232 9.53764E-05-2.75071E-05-2.91015E-05 4.98097E-07 2.31323E-19-9.30700E-19
 -1      2233 9.49706E-05-2.81733E-05-2.86130E-05 1.62250E-06 5.58524E-20-7.18453E-19
 -1      2234 9.51233E-05-2.83622E-05-2.86114E-05 1.79587E-06 5.26269E-20-5.12812E-19
 -1      2235 9.54006E-05-2.80522E-05-2.88759E-05 1.47602E-06 7.69866E-20-8.39988E-19
 -1      2236 9.52509E-05-2.85325E-05-2.85845E-05 1.93127E-06-2.24288E-19-4.00932E-19
 -1      2237 9.54735E-05-2.87264E-05-2.86086E-05 1.94959E-06-7.66811E-20-4.46631E-19
 -1      2238 9.55963E-05-2.85106E-05-2.87607E-05 1.99224E-06-1.63551E-20-5.20100E-19
 -1      2239 9.56740E-05-2.89140E-05-2.86051E-05 1.92190E-06-1.32895E-20-5.42272E-19
 -1      2240 9.59228E-05-2.91189E-05-2.86372E-05 1.79629E-06-2.18649E-19-4.82768E-19
 -1      2241 9.59459E-05-2.89662E-05-2.87129E-05 2.13485E-06-1.52208E-19-6.07576E-19
 -1      2242 9.61797E-05-2.93335E-05-2.86436E-05 1.60614E-06-4.79001E-19-4.76309E-19
 -1      2243 9.64124E-05-2.95449E-05-2.86694E-05 1.33167E-06-7.34569E-19-6.66313E-19
 -1      2244 9.64222E-05-2.94637E-05-2.87018E-05 1.93227E-06-3.73935E-19-7.75358E-19
 -1      2245 9.67034E-05-2.97827E-05-2.86765E-05 9.66876E-07-7.91157E-19-5.99587E-19
 -1      2246 9.68742E-05-2.99826E-05-2.86848E-05 5.34942E-07-7.66199E-19-6.10295E-19
 -1      2247 9.69883E-05-3.00153E-05-2.87060E-05 1.37411E-06-7.18415E-19-4.09524E-19
 -1      2248 9.71641E-05-3.02210E-05-2.86874E-05-1.57452E-08-6.47821E-19-3.47265E-19
 -1      2249 9.72213E-05-3.03724E-05-2.86704E-05-6.01982E-07-2.54106E-19-5.27899E-19
 -1      2250 9.75877E-05-3.05922E-05-2.87129E-05 4.35612E-07-5.52289E-19-1.64283E-19
 -1      2251 9.74548E-05-3.05636E-05-2.86677E-05-1.32942E-06-3.84449E-20-4.42451E-19
 -1      2252 9.73434E-05-3.06091E-05-2.86223E-05-2.03588E-06 1.70937E-20-4.57954E-19
 -1      2253 9.81294E-05-3.11106E-05-2.87191E-05-8.88470E-07-9.51010E-20 1.73803E-19
 -1      2254 9.74433E-05-3.06787E-05-2.86179E-05-2.88558E-06-1.08714E-19-4.54819E-19
 -1      2255 9.71142E-05-3.05473E-05-2.85466E-05-3.62804E-06-2.14129E-19-3.28833E-19
 -1      2256 9.84783E-05-3.14217E-05-2.87302E-05-2.53769E-06-1.21854E-19-1.11207E-19
 -1      2257 9.69928E-05-3.04079E-05-2.85471E-05-4.47613E-06-5.83353E-19-5.31820E-19
 -1      2258 9.64238E-05-3.00384E-05-2.84582E-05-5.11034E-06-5.10434E-19-7.70321E-19
 -1      2259 9.84638E-05-3.13274E-05-2.87591E-05-4.33297E-06-7.41366E-19-4.92098E-20
 -1      2260 9.60161E-05-2.96241E-05-2.84707E-05-5.75579E-06-3.14469E-20-6.02837E-19
 -1      2261 9.52397E-05-2.90051E-05-2.83773E-05-6.09170E-06 1.43891E-19-6.76784E-19
 -1      2262 9.79249E-05-3.06386E-05-2.88199E-05-5.93820E-06-2.21921E-19 5.12922E-20
 -1      2263 9.45582E-05-2.83268E-05-2.84048E-05-6.28889E-06 9.22682E-20-7.21648E-19
 -1      2264 9.36847E-05-2.75402E-05-2.83213E-05-6.14359E-06-3.34620E-19-4.77266E-19
 -1      2265 9.68013E-05-2.92868E-05-2.89197E-05-6.87758E-06 4.20185E-20 5.07128E-19
 -1      2266 9.28664E-05-2.67311E-05-2.83592E-05-5.69116E-06-6.44899E-19-6.89146E-19
 -1      2267 9.20796E-05-2.59641E-05-2.82978E-05-4.97386E-06-7.31908E-19-3.15246E-19
 -1      2268 9.52431E-05-2.74499E-05-2.90496E-05-6.65883E-06-5.43176E-19 2.61133E-19
 -1      2269 9.13774E-05-2.52697E-05-2.83337E-05-3.83600E-06-9.83478E-19-5.99416E-20
 -1      2270 9.08857E-05-2.47626E-05-2.83022E-05-2.62713E-06-6.92178E-19-3.23801E-19
 -1      2271 9.36554E-05-2.55952E-05-2.91799E-05-5.00258E-06-6.58425E-19 2.39096E-19
 -1      2272 9.05683E-05-2.44431E-05-2.83223E-05-1.01341E-06-3.37390E-19-4.16825E-19
 -1      2273 9.05221E-05-2.43795E-05-2.83242E-05 4.23636E-07-1.98738E-20-5.23032E-19
 -1      2274 9.25866E-05-2.43443E-05-2.92712E-05-2.07795E-06-6.56029E-19 6.80898E-19
 -1      2275 9.07264E-05-2.45666E-05-2.83211E-05 2.10351E-06 1.30092E-19-7.70919E-19
 -1      2276 9.11465E-05-2.49713E-05-2.83569E-05 3.41274E-06 3.56202E-19-1.24247E-18
 -1      2277 9.24666E-05-2.41791E-05-2.92924E-05 1.44351E-06-1.99549E-20-1.46967E-19
 -1      2278 9.17912E-05-2.55862E-05-2.83355E-05 4.72123E-06 6.91315E-19-1.50901E-18
 -1      2279 9.25587E-05-2.63105E-05-2.84034E-05 5.60227E-06 7.32737E-19-1.40239E-18
 -1      2280 9.33544E-05-2.51646E-05-2.92395E-05 4.62777E-06 3.17864E-19-7.93467E-19
 -1      2281 9.33960E-05-2.71127E-05-2.83774E-05 6.26668E-06 8.56952E-19-1.09904E-18
 -1      2282 9.43114E-05-2.79192E-05-2.84718E-05 6.58852E-06 8.70551E-19-6.12447E-19
 -1      2283 9.49009E-05-2.69081E-05-2.91390E-05 6.69834E-06 1.06353E-18-9.09028E-19
 -1      2284 9.50724E-05-2.86467E-05-2.84548E-05 6.58540E-06 7.24231E-19-7.42620E-19
 -1      2285 9.59419E-05-2.93282E-05-2.85652E-05 6.40054E-06 4.32116E-19-7.33378E-19
 -1      2286 9.65607E-05-2.87917E-05-2.90311E-05 7.34976E-06 8.98387E-19-1.36736E-18
 -1      2287 9.64576E-05-2.98163E-05-2.85643E-05 5.89894E-06 2.33782E-19-8.40750E-19
 -1      2288 9.71520E-05-3.02641E-05-2.86768E-05 5.37375E-06 2.56822E-19-3.83483E-19
 -1      2289 9.78779E-05-3.02897E-05-2.89496E-05 6.76402E-06 1.58240E-19-1.10058E-18
 -1      2290 9.73809E-05-3.04739E-05-2.86905E-05 4.61601E-06 3.42150E-19-5.34825E-19
 -1      2291 9.78505E-05-3.06797E-05-2.87915E-05 3.94345E-06 1.64015E-19-2.27143E-19
 -1      2292 9.86379E-05-3.11504E-05-2.89087E-05 5.39842E-06 3.81350E-19-9.53685E-19
 -1      2293 9.78425E-05-3.06629E-05-2.88130E-05 3.14462E-06-2.55500E-19 2.64268E-19
 -1      2294 9.80984E-05-3.06803E-05-2.88925E-05 2.48084E-06 2.71536E-19 1.24139E-18
 -1      2295 9.88556E-05-3.13908E-05-2.89040E-05 3.74401E-06 1.67380E-19 8.98763E-20
 -1      2296 9.79383E-05-3.05241E-05-2.89137E-05 1.78124E-06-1.43344E-19 9.51554E-19
 -1      2297 9.80237E-05-3.04256E-05-2.89669E-05 1.22161E-06 1.12569E-19 7.16525E-19
 -1      2298 9.86746E-05-3.11825E-05-2.89206E-05 2.17091E-06 2.13516E-19 9.77715E-19
 -1      2299 9.77903E-05-3.02105E-05-2.89815E-05 6.85498E-07 4.68304E-19 5.28327E-19
 -1      2300 9.77569E-05-3.00597E-05-2.90085E-05 2.69021E-07 5.46080E-19 7.55430E-19
 -1      2301 9.82653E-05-3.07325E-05-2.89416E-05 8.85322E-07-5.23274E-20 5.28977E-19
 -1      2302 9.75069E-05-2.98423E-05-2.90132E-05-9.45815E-08 8.21584E-19 1.73766E-20
 -1      2303 9.74013E-05-2.96829E-05-2.90177E-05-3.68445E-07 9.91866E-19 1.76064E-19
 -1      2304 9.77674E-05-3.02093E-05-2.89545E-05-4.35633E-08 3.10613E-19 1.55365E-18
 -1      2305 9.71678E-05-2.94942E-05-2.90124E-05-5.81765E-07 6.96355E-19-2.09001E-19
 -1      2306 9.70261E-05-2.93508E-05-2.90000E-05-7.35157E-07 7.40120E-19 3.64462E-19
 -1      2307 9.72722E-05-2.97200E-05-2.89529E-05-6.34417E-07 9.16087E-19 4.30473E-19
 -1      2308 9.68242E-05-2.92024E-05-2.89862E-05-8.32867E-07 1.04999E-18 3.95636E-19
 -1      2309 9.66719E-05-2.90853E-05-2.89628E-05-8.95755E-07 1.72318E-18 1.95317E-18
 -1      2310 9.68280E-05-2.93164E-05-2.89358E-05-9.48991E-07 1.15232E-18 7.37677E-19
 -1      2311 9.65055E-05-2.89770E-05-2.89432E-05-9.13283E-07 9.64927E-19 1.91558E-18
 -1      2312 9.63586E-05-2.88877E-05-2.89141E-05-9.14956E-07 1.40684E-19 1.90049E-18
 -1      2313 9.64537E-05-2.90119E-05-2.89059E-05-1.06114E-06 1.19901E-18 1.64137E-18
 -1      2314 9.62259E-05-2.88136E-05-2.88913E-05-8.82628E-07-4.00272E-19 1.46600E-18
 -1      2315 9.60936E-05-2.87491E-05-2.88605E-05-8.47530E-07-9.27594E-19 1.25238E-18
 -1      2316 9.61508E-05-2.87986E-05-2.88673E-05-1.03938E-06-2.73377E-19 8.82952E-19
 -1      2317 9.59900E-05-2.87015E-05-2.88369E-05-7.88564E-07-8.08342E-19 1.68124E-18
 -1      2318 9.58766E-05-2.86572E-05-2.88074E-05-7.35016E-07 9.05379E-20 1.65229E-18
 -1      2319 9.59122E-05-2.86594E-05-2.88244E-05-9.39183E-07-6.33580E-19 2.15340E-18
 -1      2320 9.57970E-05-2.86287E-05-2.87848E-05-6.65665E-07-8.40522E-20 1.76011E-18
 -1      2321 9.57036E-05-2.85996E-05-2.87582E-05-6.06202E-07-4.40748E-20 1.62601E-18
 -1      2322 9.57281E-05-2.85755E-05-2.87813E-05-8.01355E-07-1.31853E-21 2.55385E-18
 -1      2323 9.56433E-05-2.85841E-05-2.87378E-05-5.36874E-07 2.18377E-19 1.28954E-18
 -1      2324 9.55688E-05-2.85661E-05-2.87150E-05-4.79287E-07 5.07415E-19 1.18750E-18
 -1      2325 9.55882E-05-2.85301E-05-2.87405E-05-6.53422E-07-6.16457E-20 2.18781E-18
 -1      2326 9.55237E-05-2.85590E-05-2.86973E-05-4.15950E-07 8.07178E-19 8.83557E-19
 -1      2327 9.54662E-05-2.85486E-05-2.86786E-05-3.64500E-07 4.54863E-19 4.19065E-19
 -1      2328 9.54834E-05-2.85099E-05-2.87041E-05-5.12282E-07 1.56601E-19 1.41402E-18
 -1      2329 9.54329E-05-2.85466E-05-2.86639E-05-3.10004E-07 8.01741E-19 3.50568E-19
 -1      2330 9.53898E-05-2.85414E-05-2.86491E-05-2.66529E-07 6.99739E-19 5.33453E-19
 -1      2331 9.54060E-05-2.85051E-05-2.86727E-05-3.87023E-07 5.81950E-19 5.80591E-19
 -1      2332 9.53657E-05-2.85422E-05-2.86372E-05-2.21696E-07 2.54810E-19 1.20559E-18
 -1      2333 9.53344E-05-2.85402E-05-2.86259E-05-1.86507E-07-5.33421E-19 2.19494E-18
 -1      2334 9.53496E-05-2.85089E-05-2.86468E-05-2.81415E-07 7.88299E-19 1.23138E-18
 -1      2335 9.53174E-05-2.85425E-05-2.86167E-05-1.50955E-07-1.20593E-18 2.86498E-18
 -1      2336 9.52956E-05-2.85425E-05-2.86083E-05-1.23488E-07-5.64224E-19 3.35951E-18
 -1      2337 9.53094E-05-2.85169E-05-2.86260E-05-1.95879E-07-3.74212E-20 3.25502E-18
 -1      2338 9.52838E-05-2.85453E-05-2.86013E-05-9.62104E-08-6.13307E-19 3.78410E-18
 -1      2339 9.52693E-05-2.85466E-05-2.85954E-05-7.54886E-08-6.95729E-20 3.63347E-18
 -1      2340 9.52814E-05-2.85265E-05-2.86097E-05-1.28941E-07-5.03959E-19 3.79690E-18
 -1      2341 9.52615E-05-2.85495E-05-2.85902E-05-5.52435E-08 7.11676E-19 3.49519E-18
 -1      2342 9.52526E-05-2.85514E-05-2.85861E-05-4.01763E-08 1.06127E-18 3.13108E-18
 -1      2343 9.52625E-05-2.85360E-05-2.85975E-05-7.82332E-08 1.59075E-19 3.31688E-18
 -1      2344 9.52476E-05-2.85541E-05-2.85824E-05-2.57280E-08-5.44235E-19 2.96128E-18
 -1      2345 9.52427E-05-2.85564E-05-2.85798E-05-1.52956E-08-8.44749E-19 2.75231E-18
 -1      2346 9.52504E-05-2.85449E-05-2.85884E-05-4.11475E-08-2.97573E-19 3.21951E-18
 -1      2347 9.52399E-05-2.85590E-05-2.85772E-05-5.56898E-09 1.55403E-19 3.29666E-18
 -1      2348 9.52378E-05-2.85614E-05-2.85756E-05 1.04923E-09 1.99508E-19 3.05610E-18
 -1      2349 9.52431E-05-2.85529E-05-2.85817E-05-1.52375E-08-6.67386E-19 3.78796E-18
 -1      2350 9.52365E-05-2.85640E-05-2.85737E-05 6.93515E-09-1.02756E-19 2.59144E-18
 -1      2351 9.52362E-05-2.85665E-05-2.85727E-05 1.02734E-08 3.41453E-19 2.72987E-18
 -1      2352 9.52394E-05-2.85602E-05-2.85770E-05 1.53038E-09 2.17569E-20 3.95544E-18
 -1      2353 9.56756E-05-2.59781E-05-2.98703E-05 3.11797E-06 3.11179E-19 1.35174E-18
 -1      2354 9.62642E-05-2.53526E-05-3.03607E-05 5.06362E-06 3.14792E-19 1.44924E-18
 -1      2355 9.56030E-05-2.34714E-05-3.08952E-05 6.02303E-06 3.72254E-19 1.10326E-18
 -1      2356 9.51415E-05-2.75018E-05-2.89715E-05-2.34145E-06-3.30086E-20 1.01797E-18
 -1      2357 9.50206E-05-2.73869E-05-2.89648E-05-1.73180E-06 1.07665E-19 1.07819E-18
 -1      2358 9.54140E-05-2.75822E-05-2.90490E-05-3.59690E-06 8.05128E-20 9.61403E-19
 -1      2359 9.51153E-05-2.75182E-05-2.89607E-05-3.00590E-06-6.79860E-20 9.83325E-19
 -1      2360 9.52308E-05-2.71552E-05-2.91861E-05-2.78282E-06 1.84776E-20 7.52954E-19
 -1      2361 9.58705E-05-2.75194E-05-2.92653E-05-4.89229E-06 4.71496E-19 6.38310E-19
 -1      2362 9.54206E-05-2.75041E-05-2.91058E-05-4.24593E-06 2.45592E-19 8.19836E-19
 -1      2363 9.52282E-05-2.70986E-05-2.92046E-05-4.18000E-06 2.56335E-19 5.93979E-19
 -1      2364 9.64506E-05-2.73021E-05-2.95992E-05-6.42399E-06 5.72032E-19 3.90880E-19
 -1      2365 9.58648E-05-2.73403E-05-2.93739E-05-5.62682E-06 5.50359E-19 4.97050E-19
 -1      2366 9.52408E-05-2.67872E-05-2.93373E-05-5.62947E-06 5.83106E-19 5.45210E-19
 -1      2367 9.70877E-05-2.69109E-05-3.00309E-05-8.37054E-06 2.85898E-19 8.86505E-19
 -1      2368 9.63710E-05-2.70022E-05-2.97437E-05-7.33445E-06 4.61287E-19 5.93905E-19
 -1      2369 9.51661E-05-2.61999E-05-2.95490E-05-7.32186E-06 3.56206E-19 2.06275E-19
 -1      2370 9.77146E-05-2.63593E-05-3.05271E-05-1.08852E-05-1.08347E-19 1.01921E-18
 -1      2371 9.68602E-05-2.64760E-05-3.01880E-05-9.54084E-06 2.60714E-19 9.81253E-19
 -1      2372 9.48730E-05-2.53095E-05-2.97944E-05-9.42616E-06 1.41177E-19 7.27868E-19
 -1      2373 9.82911E-05-2.57819E-05-3.10148E-05-1.40521E-05-1.93090E-19 7.85119E-19
 -1      2374 9.72726E-05-2.58214E-05-3.06548E-05-1.23850E-05-2.20660E-19 9.20307E-19
 -1      2375 9.42216E-05-2.41503E-05-2.99993E-05-1.20859E-05-1.27525E-19 7.87200E-19
 -1      2376 9.89495E-05-2.56380E-05-3.13528E-05-1.75927E-05 8.11530E-20 4.49939E-19
 -1      2377 9.76606E-05-2.53273E-05-3.10399E-05-1.58343E-05-3.44273E-20 6.06428E-19
 -1      2378 9.31676E-05-2.29672E-05-3.00368E-05-1.52983E-05-4.29778E-20 4.20709E-19
 -1      2379 1.00372E-04-2.69987E-05-3.13564E-05-2.14993E-05-1.49802E-19 2.63042E-19
 -1      2380 9.83198E-05-2.56399E-05-3.11673E-05-1.98043E-05-2.38220E-20 4.33453E-19
 -1      2381 9.18562E-05-2.24003E-05-2.97155E-05-1.91969E-05-2.20791E-20-1.65527E-19
 -1      2382 1.04221E-04-3.21278E-05-3.07641E-05-2.46224E-05-7.81560E-19 7.09324E-19
 -1      2383 1.00541E-04-2.84807E-05-3.08033E-05-2.38907E-05-3.74938E-19 3.24692E-19
 -1      2384 9.11247E-05-2.40250E-05-2.87146E-05-2.38335E-05-3.51353E-19-3.99111E-19
 -1      2385 1.13350E-04-4.39198E-05-2.96557E-05-2.51092E-05-6.21405E-19 7.51742E-20
 -1      2386 1.06946E-04-3.65477E-05-2.98448E-05-2.63857E-05-6.87764E-19 4.16568E-19
 -1      2387 9.34695E-05-3.08441E-05-2.68192E-05-2.86896E-05-5.65050E-19-5.00385E-19
 -1      2388 2.47912E-05-2.22127E-05-9.42818E-07 2.90012E-05-3.62530E-19-3.00570E-18
 -1      2389 1.83818E-05-1.71400E-05-1.37382E-07 1.47837E-05-1.04556E-19-2.17772E-18
 -1      2390 1.69712E-04-2.69045E-05-6.09251E-05-5.15937E-06 1.42047E-18 1.65775E-18
 -1      2391 1.62418E-04-6.21073E-05-4.31506E-05-1.60284E-05 1.36887E-18 1.72922E-18
 -1      2392 1.34804E-04-5.96146E-05-3.17401E-05 1.74700E-05-2.44581E-20 8.11616E-19
 -1      2393 1.45555E-04-6.61351E-05-3.38887E-05 9.34435E-06 1.37431E-19 4.84291E-19
 -1      2394 1.00457E-04-2.65972E-05-3.16561E-05 2.00695E-05-2.87689E-19 1.02263E-18
 -1      2395 1.02844E-04-2.83757E-05-3.18391E-05 2.16313E-05-4.94178E-19 1.14249E-18
 -1      2396 9.93907E-05-2.58252E-05-3.15599E-05 1.60220E-05-7.61340E-19 1.47923E-18
 -1      2397 1.00857E-04-2.63314E-05-3.18708E-05 1.78399E-05-6.91682E-19 9.64117E-19
 -1      2398 9.30784E-05-2.29865E-05-2.99940E-05 1.96418E-05-1.09486E-18 7.81490E-19
 -1      2399 9.88380E-05-2.61494E-05-3.11831E-05 1.21984E-05-1.52863E-19 1.53519E-18
 -1      2400 9.99476E-05-2.61886E-05-3.15510E-05 1.39839E-05-5.33313E-19 1.06397E-18
 -1      2401 9.41417E-05-2.31400E-05-3.03852E-05 1.54555E-05-7.60959E-19 5.50419E-19
 -1      2402 9.83941E-05-2.67744E-05-3.07166E-05 9.06366E-06-2.78098E-20 1.40366E-18
 -1      2403 9.92661E-05-2.66680E-05-3.10596E-05 1.05337E-05 3.92276E-19 1.49880E-18
 -1      2404 9.51688E-05-2.42069E-05-3.03774E-05 1.18048E-05-7.82529E-20 2.16605E-19
 -1      2405 9.79245E-05-2.73424E-05-3.02643E-05 6.63107E-06-8.91888E-19 4.50591E-19
 -1      2406 9.86246E-05-2.72251E-05-3.05543E-05 7.76415E-06-9.58385E-19 8.18708E-19
 -1      2407 9.58314E-05-2.53759E-05-3.01722E-05 8.85756E-06-2.25226E-19 6.80115E-19
 -1      2408 9.74452E-05-2.77664E-05-2.98716E-05 4.80359E-06 1.07653E-19 1.13810E-18
 -1      2409 9.80033E-05-2.76773E-05-3.01036E-05 5.64533E-06-4.45470E-19 7.28560E-19
 -1      2410 9.61448E-05-2.63439E-05-2.99016E-05 6.55863E-06-7.14835E-19-6.83734E-19
 -1      2411 9.69934E-05-2.80549E-05-2.95505E-05 3.45717E-06 2.97454E-21 9.93115E-19
 -1      2412 9.74312E-05-2.79965E-05-2.97300E-05 4.06978E-06-1.18985E-19 8.10235E-19
 -1      2413 9.62172E-05-2.70589E-05-2.96330E-05 4.80959E-06 7.99536E-20-2.25786E-19
 -1      2414 9.65960E-05-2.82407E-05-2.92977E-05 2.47647E-06-2.22908E-19 1.89166E-18
 -1      2415 9.69324E-05-2.82061E-05-2.94335E-05 2.91746E-06 1.19101E-19 1.42261E-18
 -1      2416 9.61518E-05-2.75566E-05-2.93958E-05 3.50167E-06-6.60959E-20 4.70117E-19
 -1      2417 9.62768E-05-2.83525E-05-2.91117E-05 1.79628E-06 4.12453E-20 2.36725E-18
 -1      2418 9.65232E-05-2.83331E-05-2.92089E-05 2.10063E-06 5.53272E-20 1.50543E-18
 -1      2419 9.60261E-05-2.78869E-05-2.92034E-05 2.55268E-06-5.52648E-20 1.54841E-18
 -1      2420 9.60020E-05-2.84258E-05-2.89619E-05 1.27367E-06 5.50995E-19 2.05276E-18
 -1      2421 9.61967E-05-2.84155E-05-2.90380E-05 1.50374E-06 5.83142E-19 2.78804E-18
 -1      2422 9.58818E-05-2.81042E-05-2.90486E-05 1.85364E-06 1.05231E-19 1.66285E-18
 -1      2423 9.57871E-05-2.84707E-05-2.88501E-05 8.96696E-07-4.70904E-19 2.63719E-18
 -1      2424 9.59310E-05-2.84652E-05-2.89058E-05 1.06148E-06 2.04702E-20 2.07260E-18
 -1      2425 9.57398E-05-2.82534E-05-2.89243E-05 1.32496E-06-4.13259E-21 1.78133E-18
 -1      2426 9.56226E-05-2.84986E-05-2.87675E-05 6.24695E-07-2.36927E-19 2.12749E-18
 -1      2427 9.57274E-05-2.84955E-05-2.88078E-05 7.42683E-07-8.00445E-19 2.06287E-18
 -1      2428 9.56153E-05-2.83517E-05-2.88288E-05 9.38885E-07-3.96342E-19 1.59550E-18
 -1      2429 9.54995E-05-2.85164E-05-2.87069E-05 4.28636E-07-1.48485E-18 2.38177E-18
 -1      2430 9.55747E-05-2.85144E-05-2.87359E-05 5.13066E-07-2.92919E-19 1.74130E-18
 -1      2431 9.55126E-05-2.84171E-05-2.87567E-05 6.57523E-07 1.29558E-20 4.42256E-19
 -1      2432 9.54096E-05-2.85284E-05-2.86632E-05 2.87668E-07-7.60107E-19 1.87144E-18
 -1      2433 9.54625E-05-2.85268E-05-2.86837E-05 3.47948E-07-1.27849E-18 1.67068E-18
 -1      2434 9.54315E-05-2.84613E-05-2.87028E-05 4.53014E-07-1.15817E-18 5.50172E-19
 -1      2435 9.53456E-05-2.85371E-05-2.86320E-05 1.86804E-07-6.57624E-19 1.64376E-18
 -1      2436 9.53819E-05-2.85355E-05-2.86463E-05 2.29595E-07-8.12311E-19 2.10309E-18
 -1      2437 9.53696E-05-2.84917E-05-2.86630E-05 3.04938E-07-6.39853E-19 8.37535E-19
 -1      2438 9.53032E-05-2.85436E-05-2.86110E-05 1.18141E-07-7.80582E-19 1.38974E-18
 -1      2439 9.53265E-05-2.85419E-05-2.86204E-05 1.47186E-07-5.37067E-19 1.52832E-18
 -1      2440 9.53250E-05-2.85131E-05-2.86346E-05 2.00332E-07-4.69338E-19 1.65329E-18
 -1      2441 9.52730E-05-2.85494E-05-2.85957E-05 6.67849E-08-6.61424E-19 9.64534E-19
 -1      2442 9.52887E-05-2.85475E-05-2.86023E-05 8.82036E-08-8.29657E-19 1.61280E-18
 -1      2443 9.52928E-05-2.85282E-05-2.86140E-05 1.25515E-07-1.10707E-18 1.18675E-18
 -1      2444 9.52541E-05-2.85544E-05-2.85855E-05 3.13694E-08-6.73115E-20 1.84474E-18
 -1      2445 9.52633E-05-2.85523E-05-2.85897E-05 4.59924E-08 4.15809E-21 1.33402E-18
 -1      2446 9.52700E-05-2.85401E-05-2.85990E-05 7.09839E-08-4.51208E-19 8.69870E-19
 -1      2447 9.52430E-05-2.85590E-05-2.85788E-05 7.70658E-09 4.99733E-19 1.75786E-18
 -1      2448 9.52479E-05-2.85568E-05-2.85814E-05 1.72921E-08 9.51091E-20 1.24444E-18
 -1      2449 9.52550E-05-2.85492E-05-2.85886E-05 3.33334E-08 3.92350E-19 2.14457E-18
 -1      2450 9.52376E-05-2.85634E-05-2.85746E-05-7.07808E-09 6.67276E-19 8.15662E-19
 -1      2451 9.52394E-05-2.85611E-05-2.85761E-05-1.33575E-09 9.34758E-19 7.88876E-19
 -1      2452 9.52459E-05-2.85566E-05-2.85813E-05 8.27777E-09 8.98799E-19 1.30088E-18
 -1      2453 9.52359E-05-2.85680E-05-2.85719E-05-1.47657E-08 7.18710E-19-9.89329E-19
 -1      2454 9.52358E-05-2.85656E-05-2.85727E-05-1.22433E-08 9.44662E-19 7.51513E-19
 -1      2455 9.52409E-05-2.85631E-05-2.85764E-05-7.20528E-09 1.33719E-18-1.06576E-18
 -1      2456 9.52372E-05-2.85729E-05-2.85705E-05-1.65014E-08 1.09791E-18-2.78705E-18
 -1      2457 9.52360E-05-2.85701E-05-2.85710E-05-1.65418E-08 8.85956E-19-1.92738E-18
 -1      2458 9.52398E-05-2.85691E-05-2.85733E-05-1.44860E-08 1.64416E-18-2.43102E-18
 -1      2459 9.52406E-05-2.85754E-05-2.85708E-05-1.61320E-08-1.42822E-20-1.27007E-18
 -1      2460 1.81656E-05-1.83967E-05 3.94607E-07-1.64117E-05-3.97841E-19 1.01729E-18
 -1      2461 2.51264E-05-2.08849E-05-1.55856E-06-2.97442E-05-4.01705E-19 1.17865E-18
 -1      2462 9.52388E-05-2.85673E-05-2.85736E-05 3.38818E-10 2.18477E-19-4.85999E-19
 -1      2463 9.52397E-05-2.85681E-05-2.85735E-05-1.06160E-09 4.70267E-19-1.42248E-18
 -1      2464 9.47749E-05-5.40924E-05-1.75430E-05 3.82171E-05 6.86097E-20-3.53245E-18
 -1      2465 6.90735E-05-4.29009E-05-1.10271E-05 3.68522E-05-6.64074E-19-2.86932E-18
 -1      2466 9.52369E-05-2.85648E-05-2.85738E-05 1.91058E-09-1.28202E-18-2.50647E-18
 -1      2467 9.52376E-05-2.85655E-05-2.85737E-05 1.15170E-09-6.24989E-19-1.10713E-18
 -1      2468 9.52355E-05-2.85551E-05-2.85772E-05 2.00668E-09 9.14433E-19-9.49552E-19
 -1      2469 9.52359E-05-2.85636E-05-2.85739E-05 2.42510E-09-1.55755E-18-9.64289E-19
 -1      2470 9.52362E-05-2.85639E-05-2.85738E-05 2.04746E-09-1.63206E-18-1.15037E-18
 -1      2471 9.52333E-05-2.85523E-05-2.85775E-05 2.64754E-09-8.86831E-19-2.16983E-18
 -1      2472 9.52362E-05-2.85639E-05-2.85738E-05 2.70228E-09-1.63459E-18-1.89327E-18
 -1      2473 9.52360E-05-2.85638E-05-2.85738E-05 2.33079E-09-1.63063E-18-2.67611E-18
 -1      2474 9.52326E-05-2.85516E-05-2.85775E-05 2.31510E-09-6.73502E-19-1.83728E-18
 -1      2475 9.52374E-05-2.85655E-05-2.85736E-05 3.54868E-09-2.19300E-18-1.32325E-18
 -1      2476 9.52369E-05-2.85652E-05-2.85737E-05 2.86304E-09-1.74596E-18-1.25379E-18
 -1      2477 9.52335E-05-2.85532E-05-2.85772E-05 2.02892E-09-6.19330E-19-2.42625E-18
 -1      2478 9.52390E-05-2.85679E-05-2.85733E-05 5.50384E-09-7.52674E-19 1.88568E-18
 -1      2479 9.52385E-05-2.85675E-05-2.85733E-05 4.32423E-09-1.77068E-18-2.60306E-19
 -1      2480 9.52356E-05-2.85566E-05-2.85766E-05 2.70819E-09-5.92672E-19-9.00206E-19
 -1      2481 9.52402E-05-2.85704E-05-2.85727E-05 8.48491E-09-6.15594E-20 3.38330E-18
 -1      2482 9.52401E-05-2.85703E-05-2.85728E-05 6.94903E-09 3.84954E-20 3.31766E-18
 -1      2483 9.52380E-05-2.85611E-05-2.85758E-05 4.88300E-09 3.07902E-19 2.63965E-18
 -1      2484 9.52398E-05-2.85721E-05-2.85719E-05 1.16008E-08 1.96544E-19 4.15888E-18
 -1      2485 9.52406E-05-2.85724E-05-2.85721E-05 1.03003E-08-1.64599E-19 3.81819E-18
 -1      2486 9.52396E-05-2.85656E-05-2.85746E-05 8.15346E-09 4.83171E-19 3.43909E-18
 -1      2487 4.99942E-05-3.25581E-05-7.28955E-06 3.42927E-05-1.09458E-18-2.01213E-18
 -1      2488 3.63951E-05-2.46299E-05-4.56393E-06 2.53153E-05-1.10347E-18-4.18858E-19
 -1      2489 3.96540E-05-2.91567E-05-4.18458E-06-3.98094E-05 2.23193E-19 1.70148E-18
 -1      2490 5.72431E-05-3.60361E-05-9.00682E-06-4.80542E-05 4.79632E-19 1.29935E-18
 -1      2491 9.51067E-05-2.72643E-05-2.90623E-05-9.38312E-07 2.01624E-19 1.08505E-18
 -1      2492 9.51894E-05-2.70623E-05-2.91644E-05-1.02711E-07 2.81867E-19 1.14828E-18
 -1      2493 9.53211E-05-2.69403E-05-2.93199E-05-1.21791E-06 1.85320E-19 8.93186E-19
 -1      2494 9.52428E-05-2.85735E-05-2.85726E-05-7.33556E-09 6.81785E-19-2.57284E-18
 -1      2495 9.52427E-05-2.85736E-05-2.85724E-05-9.61265E-09 1.10481E-18-2.11768E-18
 -1      2496 9.52375E-05-2.85740E-05-2.85700E-05 1.36713E-08 1.38885E-18 1.54000E-18
 -1      2497 1.49257E-04-1.82497E-05-5.66512E-05 4.64448E-06 1.95876E-19 1.41645E-18
 -1      2498 1.46485E-04-1.14479E-05-5.85867E-05 4.52443E-06-9.33854E-20 1.51248E-18
 -1      2499 9.52428E-05-2.85752E-05-2.85718E-05-1.20588E-08 4.44280E-19-1.10419E-18
 -1      2500 9.52417E-05-2.85746E-05-2.85716E-05-1.38793E-08 1.78350E-19-1.26258E-18
 -1      2501 9.52413E-05-2.85709E-05-2.85730E-05-1.39839E-08 7.48451E-19-5.20463E-20
 -1      2502 9.52425E-05-2.85685E-05-2.85745E-05-9.54658E-09 1.61983E-18-8.09447E-19
 -1      2503 9.52411E-05-2.85705E-05-2.85732E-05-2.77838E-09-1.15932E-19-3.08148E-18
 -1      2504 9.52418E-05-2.85711E-05-2.85730E-05-4.82720E-09 1.01762E-18-4.06120E-18
 -1      2505 9.52413E-05-2.85645E-05-2.85758E-05-4.56969E-09 1.49910E-18-3.17325E-18
 -1      2506 9.52386E-05-2.85595E-05-2.85767E-05-3.44522E-10 1.75978E-18-1.98279E-18
 -1      2507 1.03622E-04-3.03977E-05-3.12562E-05 2.39143E-05-7.94583E-19 1.44249E-18
 -1      2508 1.07861E-04-3.47441E-05-3.12195E-05 2.41545E-05-8.60083E-19 1.67548E-18
 -1      2509 9.31399E-05-2.56483E-05-2.89194E-05 2.43360E-05-5.48633E-19 9.31551E-19
 -1      2510 1.12003E-04-4.02153E-05-3.03543E-05 2.53456E-05-8.03411E-19 1.27211E-18
 -1      2511 1.19213E-04-4.81880E-05-3.02952E-05 2.28010E-05-2.30816E-20 1.21536E-18
 -1      2512 9.70871E-05-3.41742E-05-2.70344E-05 2.87990E-05-6.73153E-19 7.14737E-19
 -1      2513 2.29346E-05-1.74248E-05-1.98222E-06 1.29830E-05-7.21037E-19 9.21995E-19
 -1      2514 1.70527E-05-1.69102E-05 2.42394E-07-2.98267E-06-5.02066E-19 1.07065E-18
 -1      2515 2.48427E-05-1.25141E-05-4.65629E-06-9.04261E-06-9.29142E-19 1.19029E-18
 -1      2516 8.73685E-05-1.02478E-05-3.30877E-05-1.33378E-06 8.79583E-19-8.58415E-20
 -1      2517 8.75182E-05-1.04044E-05-3.30810E-05-2.37664E-06 8.13756E-19-1.84077E-19
 -1      2518 8.88795E-05-1.25150E-05-3.27284E-05-2.58803E-06 7.78408E-19-1.19686E-19
 -1      2519 8.85233E-05-1.20767E-05-3.27642E-05-7.74835E-07 7.95090E-19-2.36011E-20
 -1      2520 9.53069E-05-2.68344E-05-2.93341E-05 7.51909E-07 3.48223E-19 1.09548E-18
 -1      2521 9.56336E-05-2.65025E-05-2.95872E-05 1.97642E-06 2.79413E-19 1.28594E-18
 -1      2522 9.56679E-05-2.54764E-05-3.00808E-05 2.78734E-06 3.14340E-19 1.04891E-18
 -1      2523 9.54960E-05-2.64266E-05-2.96150E-05 5.99095E-07 3.43569E-19 9.22419E-19
 -1      2524 1.48819E-04-6.87039E-05-3.44667E-05-9.64925E-06-1.19961E-18-7.16166E-19
 -1      2525 7.15317E-05-4.59829E-05-1.10446E-05-3.75281E-05-2.94556E-19-1.68687E-18
 -1      2526 9.69489E-05-5.53480E-05-1.79454E-05-3.74704E-05-5.84876E-19-1.71233E-18
 -1      2527 3.63984E-05-2.79767E-05-3.43137E-06-2.68032E-05 1.02915E-19-1.50475E-18
 -1      2528 5.06767E-05-3.41942E-05-6.90916E-06-3.52283E-05 7.62330E-20-1.84399E-18
 -1      2529 1.16575E-04-5.62860E-05-2.56781E-05-3.80041E-05 1.55515E-18 2.13537E-18
 -1      2530 1.30742E-04-5.65677E-05-3.19332E-05-3.28097E-05 2.01975E-18 3.12788E-18
 -1      2531 1.89889E-05-1.57917E-05-8.91929E-07-3.05170E-06 2.28699E-19-1.42132E-18
 -1      2532 2.50073E-05-2.12565E-05-1.32924E-06-1.71917E-05 1.95453E-19-7.67412E-19
 -1      2533 3.78102E-05-2.00315E-05-7.07266E-06-2.23139E-05 3.38496E-19-1.44398E-18
 -1      2534 5.24806E-05-3.49372E-05-7.37149E-06 4.64292E-05-1.89100E-19-1.61381E-18
 -1      2535 3.82628E-05-2.89435E-05-3.72191E-06 3.86884E-05 1.28961E-19-3.00167E-18
 -1      2536 8.94581E-05-4.91935E-05-1.72298E-05 4.88675E-05-1.18267E-18 1.94855E-18
 -1      2537 7.07695E-05-4.38329E-05-1.14212E-05 4.77156E-05-7.01767E-19 3.60307E-19
 -1      2538 1.23647E-04-5.68112E-05-2.88756E-05 3.59375E-05-1.85204E-18 3.03397E-18
 -1      2539 1.06359E-04-5.46724E-05-2.21587E-05 4.24072E-05-1.82705E-18 2.38419E-18
 -1      2540 1.03244E-04-5.39444E-05-2.08082E-05 4.37397E-05-9.23689E-19 2.47799E-18
 -1      2541 1.47975E-04-4.92354E-05-4.24464E-05 1.67559E-05-1.54065E-18 1.93356E-18
 -1      2542 1.37791E-04-5.42507E-05-3.58830E-05 2.36275E-05-1.60460E-18 2.38186E-18
 -1      2543 1.54294E-04-3.35498E-05-5.22144E-05 1.26558E-06-2.25607E-18 2.78928E-18
 -1      2544 1.50954E-04-4.14016E-05-4.71647E-05 6.71926E-06-2.04654E-18 2.07184E-18
 -1      2545 1.52025E-04-1.58833E-05-5.89687E-05-3.92713E-06-2.15210E-18 2.11822E-18
 -1      2546 1.53100E-04-2.29306E-05-5.61182E-05-2.82093E-06-2.43649E-18 2.67239E-18
 -1      2547 1.46093E-04-7.35836E-06-6.00645E-05 2.87801E-07-7.95364E-19 1.34784E-18
 -1      2548 1.48562E-04-9.46089E-06-6.00579E-05-2.45556E-06-1.72752E-18 1.60608E-18
 -1      2549 1.51544E-04-3.26377E-05-5.11881E-05-6.08865E-08 2.42675E-19 1.35949E-18
 -1      2550 1.52552E-04-2.59218E-05-5.48847E-05 2.76551E-06 2.05194E-19 1.77305E-18
 -1      2551 1.41175E-04-2.04104E-05-5.19839E-05 9.02435E-06 1.00373E-19 1.60502E-18
 -1      2552 7.90308E-05-4.58054E-05-1.39459E-05-4.79765E-05 1.26631E-18 1.50571E-18
 -1      2553 9.76859E-05-5.14307E-05-1.99094E-05-4.72810E-05 1.00119E-18 1.35482E-18
 -1      2554 9.52994E-05-2.00609E-05-3.22919E-05-1.12956E-05 4.09620E-20-1.26185E-18
 -1      2555 9.57539E-05-2.33933E-05-3.10326E-05-7.46679E-06-6.79545E-20-1.17626E-18
 -1      2556 9.53053E-05-2.25566E-05-3.11663E-05-7.04161E-06 1.61466E-21-1.03743E-18
 -1      2557 9.34366E-05-1.77178E-05-3.24802E-05-1.07972E-05 1.02190E-19-1.16085E-18
 -1      2558 1.33350E-04-6.52743E-05-2.94807E-05-2.28860E-05-8.70750E-19-1.23471E-18
 -1      2559 1.38198E-04-6.27229E-05-3.20748E-05-1.43610E-05-5.44642E-19-4.04842E-19
 -1      2560 1.27824E-04-5.44595E-05-3.09076E-05-2.10064E-05-9.12678E-19-3.29059E-19
 -1      2561 1.16516E-04-6.13970E-05-2.36087E-05-2.94752E-05-8.03411E-19-1.32444E-18
 -1      2562 9.06686E-05-1.47584E-05-3.25287E-05-6.24976E-06 4.41645E-19-6.26546E-19
 -1      2563 8.96508E-05-1.29820E-05-3.29111E-05-7.45045E-06 4.77132E-19-8.36564E-19
 -1      2564 9.03833E-05-1.38185E-05-3.28725E-05-8.60807E-06 3.86753E-19-9.83882E-19
 -1      2565 1.50368E-04-6.80920E-05-3.53095E-05 6.57950E-06 8.00658E-19 5.90594E-19
 -1      2566 1.08585E-04-5.47076E-05-2.25640E-05-3.27638E-05-3.35425E-19-1.15789E-18
 -1      2567 1.63768E-04-6.55835E-05-4.26099E-05-5.86483E-06 1.34255E-18 8.48515E-19
 -1      2568 1.10445E-04-5.75695E-05-2.26241E-05 3.20520E-05-1.98841E-19-2.36420E-18
 -1      2569 1.36306E-04-8.21874E-06-5.52666E-05 3.93569E-06-2.99638E-19 1.39136E-18
 -1      2570 3.84786E-05-2.25695E-05-6.26975E-06 3.45031E-05 3.12979E-19-2.60992E-18
 -1      2571 2.78704E-05-1.11621E-05-6.74049E-06 1.45014E-05 2.00482E-19-2.41743E-18
 -1      2572 2.27853E-05-1.37711E-05-3.29294E-06 5.75405E-06 4.81088E-20-2.32722E-18
 -1      2573 2.92423E-05-1.01772E-05-7.54839E-06-2.01388E-06 3.89817E-19-2.07269E-18
 -1      2574 1.08763E-04-4.74363E-05-2.62708E-05-2.92644E-05-4.67774E-19-6.52745E-19
 -1      2575 1.69171E-04-3.30165E-05-5.81741E-05 1.66233E-05 4.82385E-19 1.56193E-18
 -1      2576 1.70648E-04-5.71857E-05-4.86513E-05-1.62392E-05 1.30454E-18 1.52085E-18
 -1      2577 1.14706E-04-5.26193E-05-2.65962E-05 2.76002E-05-3.25578E-19-7.26490E-19
 -1      2578 6.85027E-05-3.67813E-05-1.32908E-05 3.54844E-05-1.66378E-18-2.68689E-18
 -1      2579 3.61069E-05-1.79671E-05-7.16140E-06 1.89180E-05-1.85818E-18-1.80842E-19
 -1      2580 7.38126E-05-4.04627E-05-1.38296E-05-4.73287E-05 7.25907E-19 1.09172E-18
 -1      2581 3.92197E-05-2.21343E-05-6.76103E-06-3.50110E-05-8.91608E-19 1.44419E-18
 -1      2582 9.12256E-05-1.49219E-05-3.27560E-05-9.28800E-06 3.10961E-19-1.06472E-18
 -1      2583 9.23119E-05-1.62423E-05-3.26778E-05-1.03248E-05 2.18075E-19-1.16048E-18
 -1      2584 9.38080E-05-1.91591E-05-3.19864E-05-8.63026E-06 1.21208E-19-1.08637E-18
 -1      2585 9.21020E-05-1.66639E-05-3.23210E-05-7.72419E-06 3.20719E-19-9.71878E-19
 -1      2586 9.52364E-05-2.85705E-05-2.85711E-05 1.30914E-08 1.19603E-18 1.80397E-18
 -1      2587 9.52391E-05-2.85725E-05-2.85715E-05 1.30563E-08 4.13519E-20 3.50212E-18
 -1      2588 9.52391E-05-2.85678E-05-2.85733E-05 1.10555E-08 1.50082E-20 4.48382E-18
 -1      2589 9.52358E-05-2.85682E-05-2.85717E-05 1.24040E-08 6.77422E-19 2.51397E-18
 -1      2590 1.11902E-04-5.59320E-05-2.36795E-05-3.96634E-05 1.11512E-18 2.12754E-18
 -1      2591 1.38787E-04-5.68143E-05-3.51796E-05-1.99524E-05 1.73134E-18 2.31325E-18
 -1      2592 9.52382E-05-2.85663E-05-2.85738E-05 9.96115E-09 3.05987E-19 2.91911E-18
 -1      2593 1.47943E-04-3.97624E-05-4.64666E-05-4.93601E-07 4.28810E-19 1.24408E-18
 -1      2594 1.39683E-04-1.08760E-05-5.54869E-05-5.63966E-06-1.65786E-18 1.16414E-18
 -1      2595 1.46388E-04-2.82268E-05-5.07646E-05-6.70133E-06-2.49494E-18 2.03097E-18
 -1      2596 1.77404E-04-5.14457E-05-5.44923E-05-1.72666E-05 9.34277E-19 1.58353E-18
 -1      2597 1.33110E-04-5.83226E-05-3.19741E-05 2.70676E-05-1.58141E-18 2.62284E-18
 -1      2598 1.26042E-04-5.91264E-05-2.84206E-05 2.99058E-05-1.13629E-18 2.82385E-18
 -1      2599 1.37855E-04-5.82929E-05-3.46311E-05 1.68461E-05-1.03102E-18 2.05924E-18
 -1      2600 6.96731E-05-3.87725E-05-1.27694E-05-3.62486E-05-2.28275E-19-1.67670E-18
 -1      2601 1.76393E-04-2.79206E-05-6.34277E-05 8.29888E-06 5.73018E-19 8.22257E-19
 -1      2602 1.75269E-04-2.51751E-05-6.35363E-05-1.04397E-06 1.55896E-18 1.30573E-18
 -1      2603 6.95484E-05-3.93304E-05-1.25376E-05 4.69041E-05 2.48392E-19 1.49290E-20
 -1      2604 1.47105E-04-4.72988E-05-4.28090E-05 4.51346E-06-1.68300E-18 2.40684E-18
 -1      2605 8.98954E-05-1.43238E-05-3.24099E-05 2.87177E-06 8.53622E-19 1.03826E-19
 -1      2606 8.96574E-05-1.40290E-05-3.24329E-05 2.04869E-06 8.50879E-19-2.13561E-20
 -1      2607 8.95033E-05-1.38283E-05-3.24528E-05 1.34660E-06 7.91069E-19-4.19347E-20
 -1      2608 8.94393E-05-1.37470E-05-3.24582E-05 5.01440E-07 8.22513E-19 2.74459E-20
 -1      2609 9.05885E-05-1.55847E-05-3.21288E-05 1.50456E-06 8.02505E-19-2.61819E-20
 -1      2610 9.18724E-05-1.69590E-05-3.21399E-05 5.77411E-06 6.81875E-19 5.87831E-19
 -1      2611 9.12320E-05-1.60973E-05-3.22268E-05 4.99647E-06 7.27866E-19 5.19817E-19
 -1      2612 9.35049E-05-1.93308E-05-3.18260E-05 6.84418E-06 6.19954E-19 7.19280E-19
 -1      2613 9.26354E-05-1.80440E-05-3.19882E-05 6.26857E-06 6.72152E-19 6.60864E-19
 -1      2614 9.31743E-05-1.92216E-05-3.16683E-05 4.96113E-06 6.26110E-19 5.89903E-19
 -1      2615 9.52105E-05-2.24357E-05-3.12171E-05 6.41280E-06 4.37909E-19 9.86363E-19
 -1      2616 9.41987E-05-2.04923E-05-3.15815E-05 6.74808E-06 4.99584E-19 8.26787E-19
 -1      2617 9.44455E-05-2.14950E-05-3.12544E-05 5.13666E-06 5.50374E-19 6.46110E-19
 -1      2618 9.53843E-05-2.37607E-05-3.06926E-05 4.49345E-06 4.23692E-19 9.56903E-19
 -1      2619 1.43694E-04-4.66761E-05-4.16357E-05-8.20360E-07 5.96735E-19 1.17865E-18
 -1      2620 1.40977E-04-3.58278E-05-4.58027E-05 7.48772E-06 1.58183E-19 8.00023E-19
 -1      2621 9.56832E-05-2.58263E-05-2.99083E-05-1.86046E-06 7.81994E-20-7.58610E-19
 -1      2622 9.55891E-05-2.64326E-05-2.96488E-05-8.09516E-07 2.17725E-19-7.66194E-19
 -1      2623 9.56713E-05-2.69696E-05-2.94195E-05 1.75295E-08 1.78373E-19-8.55306E-19
 -1      2624 9.56353E-05-2.73697E-05-2.92618E-05 6.88860E-07 1.26673E-19-9.53102E-19
 -1      2625 9.57002E-05-2.61982E-05-2.97944E-05-5.85244E-07 8.22324E-20-6.77750E-19
 -1      2626 9.56971E-05-2.77328E-05-2.91098E-05 1.23533E-06 2.24508E-19-9.56964E-19
 -1      2627 9.57472E-05-2.80402E-05-2.90201E-05 1.63305E-06 1.67880E-19-7.80695E-19
 -1      2628 9.58541E-05-2.72799E-05-2.93988E-05 8.68609E-07 1.85268E-19-8.44851E-19
 -1      2629 9.58488E-05-2.83312E-05-2.89226E-05 1.95780E-06 1.30653E-19-6.20593E-19
 -1      2630 9.59826E-05-2.86097E-05-2.88767E-05 2.14541E-06-7.91664E-21-6.19527E-19
 -1      2631 9.60306E-05-2.80753E-05-2.91339E-05 1.80543E-06 2.53308E-19-7.80532E-19
 -1      2632 9.61562E-05-2.88912E-05-2.88164E-05 2.28383E-06-2.86823E-19-4.91905E-19
 -1      2633 9.63623E-05-2.91793E-05-2.87967E-05 2.29047E-06-2.71229E-19-7.48166E-19
 -1      2634 9.63175E-05-2.87652E-05-2.89611E-05 2.32195E-06-8.30828E-20-6.91906E-19
 -1      2635 9.66282E-05-2.94917E-05-2.87616E-05 2.25301E-06-8.46429E-20-5.93250E-19
 -1      2636 9.68910E-05-2.98100E-05-2.87558E-05 2.08282E-06-2.53768E-19-4.57603E-19
 -1      2637 9.67666E-05-2.94681E-05-2.88523E-05 2.46749E-06-9.26759E-20-5.00449E-19
 -1      2638 9.72596E-05-3.01742E-05-2.87390E-05 1.85845E-06-3.80245E-19-2.34395E-19
 -1      2639 9.75568E-05-3.05232E-05-2.87393E-05 1.50069E-06-5.35597E-19 9.28319E-20
 -1      2640 9.74096E-05-3.02570E-05-2.87899E-05 2.24400E-06-1.29020E-19 1.66543E-19
 -1      2641 9.80224E-05-3.09343E-05-2.87392E-05 1.06494E-06-5.32713E-19 2.53484E-19
 -1      2642 9.83176E-05-3.12860E-05-2.87427E-05 5.07510E-07-3.32282E-19 4.08788E-19
 -1      2643 9.82534E-05-3.11537E-05-2.87667E-05 1.61597E-06-2.59475E-19 8.49226E-19
 -1      2644 9.88452E-05-3.17015E-05-2.87635E-05-1.62481E-07-3.97761E-19 4.38197E-19
 -1      2645 9.90814E-05-3.19890E-05-2.87720E-05-9.13510E-07-1.25217E-19 4.03427E-19
 -1      2646 9.92598E-05-3.21065E-05-2.87876E-05 5.31860E-07-3.73459E-19 9.90568E-19
 -1      2647 9.95913E-05-3.23166E-05-2.88232E-05-1.81311E-06-4.97557E-20-4.55694E-21
 -1      2648 9.96888E-05-3.24307E-05-2.88432E-05-2.70719E-06-3.98266E-19 4.64842E-20
 -1      2649 1.00317E-04-3.29614E-05-2.88691E-05-1.03645E-06-5.13049E-19 5.91613E-19
 -1      2650 1.00051E-04-3.25293E-05-2.89371E-05-3.76659E-06-5.19334E-19 9.88202E-21
 -1      2651 9.99195E-05-3.23348E-05-2.89776E-05-4.68096E-06-6.38412E-19-5.96994E-20
 -1      2652 1.01213E-04-3.34471E-05-2.90365E-05-3.02907E-06-3.15120E-19 2.38556E-19
 -1      2653 9.99709E-05-3.20449E-05-2.91238E-05-5.72446E-06-3.17168E-19 4.61525E-19
 -1      2654 9.95464E-05-3.14314E-05-2.91912E-05-6.44962E-06 1.07987E-19 6.26339E-19
 -1      2655 1.01649E-04-3.32083E-05-2.93153E-05-5.21369E-06-1.77619E-19 7.59929E-19
 -1      2656 9.91597E-05-3.06513E-05-2.93877E-05-7.17892E-06 1.33789E-19 3.74913E-19
 -1      2657 9.84564E-05-2.96207E-05-2.94804E-05-7.44297E-06-2.18956E-20 2.57788E-19
 -1      2658 1.01322E-04-3.19308E-05-2.97143E-05-7.11412E-06 2.22510E-20 7.08427E-19
 -1      2659 9.76511E-05-2.84219E-05-2.97055E-05-7.49702E-06-2.53740E-19 4.15353E-19
 -1      2660 9.68116E-05-2.71697E-05-2.98089E-05-7.06077E-06-4.99209E-19 6.63176E-19
 -1      2661 1.00105E-04-2.95698E-05-3.02058E-05-8.03153E-06 4.03871E-22 4.33503E-19
 -1      2662 9.58352E-05-2.58666E-05-3.00179E-05-6.18077E-06-7.31287E-19 7.22227E-19
 -1      2663 9.51183E-05-2.47776E-05-3.01048E-05-4.97911E-06-7.36318E-19 7.64807E-19
 -1      2664 9.82650E-05-2.65837E-05-3.07129E-05-7.27376E-06-6.61650E-19 1.06988E-18
 -1      2665 9.43987E-05-2.38600E-05-3.02407E-05-3.22102E-06-5.49067E-19 3.47652E-19
 -1      2666 9.40737E-05-2.33534E-05-3.02830E-05-1.47629E-06-3.76142E-19 2.80752E-19
 -1      2667 9.65027E-05-2.39335E-05-3.11166E-05-4.56945E-06-7.65832E-19 5.72094E-19
 -1      2668 9.39801E-05-2.32277E-05-3.03039E-05 7.09070E-07-1.27131E-19 5.13168E-19
 -1      2669 9.41883E-05-2.35213E-05-3.02873E-05 2.52952E-06-9.53855E-20 9.95380E-20
 -1      2670 9.56514E-05-2.26849E-05-3.12984E-05-4.37038E-07-4.65086E-19 3.18125E-19
 -1      2671 9.47712E-05-2.42436E-05-3.01878E-05 4.46883E-06-1.54650E-20 2.52004E-19
 -1      2672 9.54291E-05-2.52068E-05-3.01210E-05 5.86326E-06 4.40064E-19 2.02328E-19
 -1      2673 9.61631E-05-2.33963E-05-3.12045E-05 3.89352E-06-1.41476E-19 8.51200E-19
 -1      2674 9.63835E-05-2.64425E-05-2.99350E-05 7.01703E-06 6.46824E-19-6.30211E-19
 -1      2675 9.72398E-05-2.76839E-05-2.98447E-05 7.68578E-06 7.14101E-19-6.54483E-19
 -1      2676 9.77643E-05-2.57382E-05-3.08670E-05 7.09131E-06-8.99606E-20 4.20520E-19
 -1      2677 9.81217E-05-2.89309E-05-2.96283E-05 7.89594E-06 6.88489E-19-8.37078E-19
 -1      2678 9.89045E-05-3.00365E-05-2.95435E-05 7.83837E-06 5.93519E-19-9.28061E-19
 -1      2679 9.96627E-05-2.86981E-05-3.03920E-05 8.41721E-06 3.70241E-19-7.71151E-19
 -1      2680 9.94115E-05-3.09252E-05-2.93464E-05 7.30168E-06 2.44383E-19-1.09365E-18
 -1      2681 9.99451E-05-3.16483E-05-2.92854E-05 6.72355E-06 2.17312E-19-1.15067E-18
 -1      2682 1.01086E-04-3.12469E-05-2.99054E-05 7.96808E-06 2.09540E-19-7.06595E-19
 -1      2683 1.00003E-04-3.20481E-05-2.91344E-05 5.78949E-06 4.30200E-19-9.25053E-19
 -1      2684 1.00243E-04-3.23431E-05-2.91014E-05 4.96308E-06 6.06335E-19-6.89426E-19
 -1      2685 1.01650E-04-3.27837E-05-2.94952E-05 6.36473E-06 5.09658E-19-1.11679E-19
 -1      2686 9.99501E-05-3.23216E-05-2.90022E-05 3.95260E-06 6.88418E-19 3.41115E-20
 -1      2687 9.99457E-05-3.22798E-05-2.89916E-05 3.10534E-06 7.66668E-19 6.93256E-19
 -1      2688 1.01395E-04-3.32439E-05-2.91991E-05 4.32563E-06 9.65493E-19 1.37119E-19
 -1      2689 9.94631E-05-3.19926E-05-2.89355E-05 2.22267E-06 6.66321E-19 1.08415E-18
 -1      2690 9.93008E-05-3.17513E-05-2.89374E-05 1.49444E-06 2.64640E-19 1.41367E-18
 -1      2691 1.00596E-04-3.28968E-05-2.90140E-05 2.38723E-06 9.67153E-19 9.14124E-19
 -1      2692 9.87690E-05-3.13512E-05-2.89101E-05 8.26510E-07-1.23462E-19 1.24054E-18
 -1      2693 9.85303E-05-3.10317E-05-2.89151E-05 2.76634E-07-9.61877E-21 1.17414E-18
 -1      2694 9.95624E-05-3.21099E-05-2.89137E-05 8.28367E-07 3.54459E-20 1.55332E-18
 -1      2695 9.80401E-05-3.06279E-05-2.89034E-05-1.68631E-07-1.05033E-19 1.50900E-18
 -1      2696 9.77839E-05-3.03123E-05-2.89052E-05-5.36345E-07 7.78916E-20 1.42242E-18
 -1      2697 9.85289E-05-3.11902E-05-2.88670E-05-2.72175E-07-3.39397E-21 1.47302E-18
 -1      2698 9.73778E-05-2.99654E-05-2.88993E-05-7.91799E-07 6.09263E-19 1.65247E-18
 -1      2699 9.71386E-05-2.96968E-05-2.88950E-05-1.00345E-06 1.53839E-18 1.80108E-18
 -1      2700 9.76271E-05-3.03339E-05-2.88475E-05-9.51920E-07 3.30524E-19 2.17926E-18
 -1      2701 9.68262E-05-2.94293E-05-2.88892E-05-1.11571E-06 1.37069E-18 1.60778E-18
 -1      2702 9.66197E-05-2.92225E-05-2.88785E-05-1.20843E-06 1.18598E-18 1.55022E-18
 -1      2703 9.69071E-05-2.96355E-05-2.88371E-05-1.29776E-06 1.28392E-18 2.82184E-18
 -1      2704 9.63921E-05-2.90335E-05-2.88701E-05-1.22290E-06 9.46317E-19 1.62391E-18
 -1      2705 9.62224E-05-2.88867E-05-2.88543E-05-1.23363E-06 6.45985E-19 1.25223E-18
 -1      2706 9.63675E-05-2.91189E-05-2.88259E-05-1.40501E-06 1.23134E-18 1.91268E-18
 -1      2707 9.60636E-05-2.87640E-05-2.88430E-05-1.18799E-06 7.57485E-21 6.99995E-19
 -1      2708 9.59286E-05-2.86673E-05-2.88240E-05-1.14801E-06-5.11287E-19 8.43341E-19
 -1      2709 9.59822E-05-2.87682E-05-2.88098E-05-1.35769E-06 2.13329E-19 1.23626E-18
 -1      2710 9.58215E-05-2.85952E-05-2.88105E-05-1.07054E-06-8.83604E-20 1.80484E-18
 -1      2711 9.57166E-05-2.85368E-05-2.87902E-05-1.00371E-06-2.76854E-20 2.16396E-18
 -1      2712 9.57176E-05-2.85511E-05-2.87883E-05-1.22162E-06 3.08316E-19 1.05034E-18
 -1      2713 9.56463E-05-2.85002E-05-2.87755E-05-9.14020E-07-4.06613E-19 2.70383E-18
 -1      2714 9.55660E-05-2.84688E-05-2.87555E-05-8.37033E-07-6.22096E-19 2.53351E-18
 -1      2715 9.55414E-05-2.84321E-05-2.87630E-05-1.04414E-06-3.58560E-19 1.93991E-18
 -1      2716 9.55209E-05-2.84554E-05-2.87407E-05-7.47621E-07-5.53623E-19 1.42379E-18
 -1      2717 9.54604E-05-2.84419E-05-2.87222E-05-6.71192E-07-2.93334E-19 1.38034E-18
 -1      2718 9.54270E-05-2.83798E-05-2.87359E-05-8.56785E-07-1.15467E-18 5.92399E-19
 -1      2719 9.54320E-05-2.84424E-05-2.87082E-05-5.89267E-07-1.18998E-19 7.69475E-19
 -1      2720 9.53870E-05-2.84398E-05-2.86919E-05-5.19554E-07 7.73940E-20 4.98533E-19
 -1      2721 9.53544E-05-2.83695E-05-2.87088E-05-6.78814E-07-6.91333E-19 3.10640E-19
 -1      2722 9.53692E-05-2.84477E-05-2.86791E-05-4.48608E-07 4.99965E-19 1.88373E-19
 -1      2723 9.53362E-05-2.84513E-05-2.86653E-05-3.88559E-07 5.77105E-19 2.56802E-19
 -1      2724 9.53091E-05-2.83830E-05-2.86833E-05-5.20569E-07 1.28937E-20-6.61255E-19
 -1      2725 9.53252E-05-2.84623E-05-2.86542E-05-3.29662E-07 8.00635E-19 4.86105E-19
 -1      2726 9.53014E-05-2.84689E-05-2.86428E-05-2.80127E-07 6.46650E-19 4.36809E-19
 -1      2727 9.52812E-05-2.84081E-05-2.86604E-05-3.86360E-07 7.44545E-19-7.22112E-19
 -1      2728 9.52946E-05-2.84805E-05-2.86335E-05-2.32887E-07 1.19350E-18 1.56297E-18
 -1      2729 9.52777E-05-2.84881E-05-2.86244E-05-1.93457E-07 2.31721E-19 2.15147E-18
 -1      2730 9.52641E-05-2.84371E-05-2.86405E-05-2.76684E-07 1.05381E-18-1.97378E-19
 -1      2731 9.52735E-05-2.84990E-05-2.86168E-05-1.56703E-07-6.80186E-19 3.27485E-18
 -1      2732 9.52619E-05-2.85064E-05-2.86097E-05-1.26312E-07-1.36149E-19 3.33301E-18
 -1      2733 9.52536E-05-2.84654E-05-2.86238E-05-1.89845E-07 5.37827E-19 1.56306E-18
 -1      2734 9.52593E-05-2.85159E-05-2.86036E-05-9.85474E-08-1.54104E-19 3.30757E-18
 -1      2735 9.52516E-05-2.85227E-05-2.85983E-05-7.58737E-08 3.44267E-19 2.98361E-18
 -1      2736 9.52473E-05-2.84908E-05-2.86102E-05-1.23070E-07-1.48290E-19 2.98638E-18
 -1      2737 9.52499E-05-2.85305E-05-2.85935E-05-5.55696E-08 1.05557E-18 2.75154E-18
 -1      2738 9.52451E-05-2.85365E-05-2.85895E-05-3.92933E-08-3.22811E-19 3.96451E-18
 -1      2739 9.52434E-05-2.85124E-05-2.85992E-05-7.32455E-08 7.27433E-19 2.04998E-18
 -1      2740 9.52441E-05-2.85430E-05-2.85858E-05-2.50491E-08-9.15920E-19 3.43235E-18
 -1      2741 9.52413E-05-2.85482E-05-2.85829E-05-1.39828E-08-3.80204E-19 3.80924E-18
 -1      2742 9.52412E-05-2.85303E-05-2.85905E-05-3.73756E-08-5.56022E-19 3.60488E-18
 -1      2743 9.52408E-05-2.85537E-05-2.85799E-05-4.71162E-09-3.91669E-19 4.23936E-18
 -1      2744 9.52396E-05-2.85583E-05-2.85777E-05 1.98454E-09 4.16635E-19 3.32067E-18
 -1      2745 9.52399E-05-2.85452E-05-2.85836E-05-1.27915E-08 8.91845E-20 2.43781E-18
 -1      2746 1.05441E-04-5.22195E-05-2.22813E-05-3.91648E-05 1.01527E-18 1.55415E-18
 -1      2747 1.20614E-04-5.80305E-05-2.71320E-05-3.25197E-05 1.90180E-18 2.11218E-18
 -1      2748 9.49348E-05-2.65456E-05-2.92993E-05-4.39882E-06 3.83973E-19 3.78427E-19
 -1      2749 9.49371E-05-2.66358E-05-2.92728E-05-3.69048E-06 2.16033E-19 3.56463E-19
 -1      2750 9.51724E-05-2.67206E-05-2.93301E-05-3.00643E-06 1.89078E-19 4.72488E-19
 -1      2751 9.51995E-05-2.66571E-05-2.93673E-05-2.25732E-06 9.85053E-20 6.46750E-19
 -1      2752 9.48201E-05-2.61613E-05-2.94248E-05-3.21211E-06 2.77622E-19 1.16074E-19
 -1      2753 9.38775E-05-2.51204E-05-2.94520E-05-7.45552E-06 2.70781E-19 4.61156E-19
 -1      2754 9.39810E-05-2.55324E-05-2.93558E-05-6.55059E-06 5.62620E-19 5.18605E-19
 -1      2755 9.27412E-05-2.38114E-05-2.95250E-05-9.40771E-06-2.98364E-20 5.45807E-19
 -1      2756 9.30012E-05-2.43966E-05-2.94349E-05-8.29556E-06 1.70413E-19 3.90403E-19
 -1      2757 9.19614E-05-2.37009E-05-2.92229E-05-7.44791E-06 2.71020E-19 3.32174E-19
 -1      2758 9.09249E-05-2.21320E-05-2.94662E-05-1.17938E-05 6.08855E-20 1.75878E-19
 -1      2759 9.14202E-05-2.28457E-05-2.94363E-05-1.04249E-05 4.41390E-20 3.72748E-19
 -1      2760 8.98343E-05-2.18985E-05-2.90644E-05-9.16327E-06 1.82017E-19-1.49680E-19
 -1      2761 8.84569E-05-2.04252E-05-2.91335E-05-1.45413E-05 1.51669E-19-4.32334E-20
 -1      2762 8.91185E-05-2.10617E-05-2.92335E-05-1.29929E-05 9.07653E-20 1.29364E-19
 -1      2763 8.67911E-05-1.97051E-05-2.86717E-05-1.11310E-05 1.93777E-19-7.51401E-19
 -1      2764 8.51934E-05-1.92274E-05-2.82148E-05-1.80797E-05 8.00413E-20-1.52076E-19
 -1      2765 8.59203E-05-1.93676E-05-2.85977E-05-1.61579E-05 2.03433E-19-7.89792E-20
 -1      2766 8.25392E-05-1.73852E-05-2.78142E-05-1.35587E-05 2.84582E-19-3.72248E-19
 -1      2767 8.20131E-05-2.02815E-05-2.62928E-05-2.26280E-05-5.23453E-19-4.65193E-19
 -1      2768 8.20379E-05-1.87872E-05-2.71455E-05-2.03229E-05-1.39741E-19-1.65668E-19
 -1      2769 7.68412E-05-1.56706E-05-2.60697E-05-1.68404E-05 3.70395E-20-1.25435E-19
 -1      2770 8.10713E-05-2.69158E-05-2.28506E-05-2.86700E-05-2.08423E-19-8.75303E-19
 -1      2771 7.89274E-05-2.17028E-05-2.43425E-05-2.59574E-05-4.15761E-19-7.05420E-19
 -1      2772 7.02290E-05-1.64776E-05-2.28601E-05-2.18304E-05-7.61933E-20-6.31410E-19
 -1      2773 8.93217E-05-2.08044E-05-2.94312E-05 1.30056E-05-8.48081E-19 6.62903E-20
 -1      2774 8.86640E-05-2.02523E-05-2.92878E-05 1.48152E-05-8.51352E-19-1.03486E-19
 -1      2775 1.80307E-04-3.57547E-05-6.08552E-05-1.60191E-05 1.02152E-18 1.33027E-18
 -1      2776 8.62066E-05-1.94188E-05-2.87014E-05 1.66169E-05-8.21620E-19 2.06792E-19
 -1      2777 8.57345E-05-1.95692E-05-2.82901E-05 1.85616E-05-1.07340E-18 4.64257E-19
 -1      2778 8.20289E-05-1.69498E-05-2.77680E-05 1.38489E-05-5.69712E-19-6.21625E-19
 -1      2779 9.34126E-05-2.42507E-05-2.96775E-05 7.65631E-06 4.49473E-20-2.14734E-19
 -1      2780 9.31410E-05-2.36243E-05-2.97749E-05 8.87941E-06 3.64656E-19-2.80360E-19
 -1      2781 9.44241E-05-2.55235E-05-2.95545E-05 5.77711E-06-2.13128E-19-1.48009E-18
 -1      2782 9.43149E-05-2.50384E-05-2.96733E-05 6.73503E-06-8.60218E-20-9.15937E-19
 -1      2783 9.18790E-05-2.33813E-05-2.93192E-05 6.76826E-06 5.07935E-19-2.60221E-19
 -1      2784 9.49989E-05-2.64551E-05-2.93935E-05 4.31736E-06-6.66741E-19-6.70477E-19
 -1      2785 9.49913E-05-2.61039E-05-2.95082E-05 5.05081E-06-7.74183E-19-1.67329E-18
 -1      2786 9.33038E-05-2.48756E-05-2.93033E-05 5.21355E-06-6.84134E-19-1.16874E-18
 -1      2787 9.52958E-05-2.71115E-05-2.92333E-05 3.20088E-06 6.02645E-20-5.45032E-20
 -1      2788 9.53411E-05-2.68670E-05-2.93334E-05 3.75246E-06-3.61834E-19-9.40494E-19
 -1      2789 9.41854E-05-2.59727E-05-2.92205E-05 3.96899E-06-4.74646E-19-9.92657E-19
 -1      2790 9.54222E-05-2.75468E-05-2.90972E-05 2.39142E-06-1.93799E-19 1.99733E-19
 -1      2791 9.54873E-05-2.73846E-05-2.91763E-05 2.78695E-06 3.80925E-20 2.26537E-19
 -1      2792 9.47001E-05-2.67390E-05-2.91186E-05 3.00853E-06-1.97429E-19-1.07968E-18
 -1      2793 9.54606E-05-2.78628E-05-2.89759E-05 1.74558E-06 7.19285E-19-6.55390E-19
 -1      2794 9.55323E-05-2.77466E-05-2.90428E-05 2.05461E-06 6.30035E-19-5.34482E-20
 -1      2795 9.49962E-05-2.72790E-05-2.90173E-05 2.26132E-06 5.01775E-19-1.16676E-18
 -1      2796 9.54514E-05-2.80784E-05-2.88777E-05 1.26337E-06-6.56752E-19 6.17039E-19
 -1      2797 9.55176E-05-2.79994E-05-2.89299E-05 1.49147E-06 2.81713E-20 1.53291E-19
 -1      2798 9.51614E-05-2.76671E-05-2.89240E-05 1.66987E-06 4.96989E-19-7.97195E-19
 -1      2799 9.54206E-05-2.82259E-05-2.88001E-05 9.04743E-07 4.36550E-19-6.10214E-20
 -1      2800 9.54772E-05-2.81719E-05-2.88402E-05 1.07244E-06-9.43958E-21 4.77451E-19
 -1      2801 9.52434E-05-2.79366E-05-2.88449E-05 1.22000E-06-7.14280E-20-1.04046E-18
 -1      2802 9.53836E-05-2.83276E-05-2.87398E-05 6.39197E-07-2.75279E-19-4.46324E-19
 -1      2803 9.54294E-05-2.82902E-05-2.87702E-05 7.62103E-07 3.43109E-19-4.63993E-19
 -1      2804 9.52784E-05-2.81242E-05-2.87802E-05 8.80346E-07 1.68102E-19-9.63146E-19
 -1      2805 9.53480E-05-2.83984E-05-2.86937E-05 4.43543E-07-6.28808E-19-5.38646E-19
 -1      2806 9.53837E-05-2.83721E-05-2.87164E-05 5.33262E-07-9.08679E-19-2.77765E-19
 -1      2807 9.52883E-05-2.82555E-05-2.87286E-05 6.25696E-07-1.20884E-19-5.32412E-19
 -1      2808 9.53176E-05-2.84482E-05-2.86589E-05 3.00327E-07-8.75965E-19-2.87691E-19
 -1      2809 9.53444E-05-2.84295E-05-2.86757E-05 3.65404E-07-4.88482E-19-3.25934E-19
 -1      2810 9.52859E-05-2.83479E-05-2.86881E-05 4.36155E-07-3.06365E-19-4.87937E-19
 -1      2811 9.52943E-05-2.84822E-05-2.86341E-05 2.00700E-07-7.83323E-19 4.89300E-19
 -1      2812 9.53131E-05-2.84691E-05-2.86458E-05 2.45826E-07-9.55268E-19 4.34738E-19
 -1      2813 9.52787E-05-2.84124E-05-2.86574E-05 2.98920E-07-1.39190E-18-4.44881E-19
 -1      2814 9.52753E-05-2.85084E-05-2.86147E-05 1.24521E-07-9.38067E-19-4.43363E-19
 -1      2815 9.52893E-05-2.84981E-05-2.86236E-05 1.58530E-07-6.79100E-19 3.60244E-19
 -1      2816 9.52700E-05-2.84583E-05-2.86340E-05 1.98292E-07-6.19740E-19-1.64928E-18
 -1      2817 9.52616E-05-2.85274E-05-2.86005E-05 7.05987E-08-4.28896E-19-5.94662E-21
 -1      2818 9.52710E-05-2.85197E-05-2.86069E-05 9.44843E-08-8.60384E-19 1.50219E-21
 -1      2819 9.52618E-05-2.84926E-05-2.86157E-05 1.23191E-07-8.51676E-19-1.45982E-18
 -1      2820 9.52521E-05-2.85417E-05-2.85903E-05 3.32928E-08 6.61643E-19 1.31111E-18
 -1      2821 9.52582E-05-2.85356E-05-2.85948E-05 4.95943E-08 6.47940E-20 9.98900E-19
 -1      2822 9.52548E-05-2.85176E-05-2.86020E-05 6.98298E-08-6.30778E-19-7.20136E-19
 -1      2823 9.52460E-05-2.85527E-05-2.85829E-05 8.53343E-09 2.18379E-18 6.98064E-19
 -1      2824 9.52495E-05-2.85478E-05-2.85860E-05 1.91077E-08 1.73202E-18 2.25610E-18
 -1      2825 9.52495E-05-2.85360E-05-2.85917E-05 3.29312E-08 1.44387E-19 5.49297E-19
 -1      2826 9.52424E-05-2.85617E-05-2.85774E-05-6.50407E-09 2.40563E-18-1.07666E-18
 -1      2827 9.52442E-05-2.85576E-05-2.85797E-05-4.57891E-10 2.89216E-18-4.04858E-20
 -1      2828 9.52455E-05-2.85501E-05-2.85839E-05 8.53073E-09 2.93056E-18 1.59884E-19
 -1      2829 9.52417E-05-2.85676E-05-2.85746E-05-1.19071E-08 1.20172E-18-1.22418E-18
 -1      2830 9.52416E-05-2.85644E-05-2.85758E-05-1.00217E-08 1.75678E-18-1.46700E-18
 -1      2831 9.52434E-05-2.85595E-05-2.85789E-05-4.18857E-09 3.11626E-18-2.78212E-19
 -1      2832 9.52427E-05-2.85668E-05-2.85755E-05-9.93877E-09 5.97884E-19-4.03019E-19
 -1      2833 9.52284E-05-2.85390E-05-2.85813E-05 3.52742E-09-7.19457E-19-2.45458E-18
 -1      2834 9.52293E-05-2.85399E-05-2.85812E-05 3.87259E-09 5.64141E-20-2.74817E-18
 -1      2835 2.97051E-05-8.75134E-06-8.50454E-06-1.60919E-06-1.44755E-18 2.24040E-19
 -1      2836 3.09944E-05-1.03303E-05-8.26157E-06-1.64596E-05-1.33895E-18 8.84091E-19
 -1      2837 9.54149E-05-4.34088E-05-2.15901E-05 3.35240E-05-9.37877E-19-1.98968E-18
 -1      2838 9.52310E-05-2.85422E-05-2.85810E-05 4.67220E-09 1.25531E-19-2.37878E-18
 -1      2839 9.52328E-05-2.85441E-05-2.85808E-05 4.25530E-09 1.84055E-18-1.20998E-18
 -1      2840 9.52263E-05-2.85278E-05-2.85849E-05 6.08397E-09-5.29753E-21-2.71069E-18
 -1      2841 9.52299E-05-2.85418E-05-2.85806E-05-8.97915E-11-1.31906E-20-2.32563E-18
 -1      2842 9.52289E-05-2.85405E-05-2.85808E-05 1.78957E-10-1.70215E-19-1.97108E-18
 -1      2843 9.52334E-05-2.85473E-05-2.85797E-05-1.66417E-10 6.42171E-19 1.48510E-18
 -1      2844 9.52318E-05-2.85452E-05-2.85801E-05-6.38746E-10 3.81370E-19-1.22787E-18
 -1      2845 9.52274E-05-2.85316E-05-2.85838E-05-2.99431E-09 8.42336E-19-1.93584E-18
 -1      2846 9.52371E-05-2.85542E-05-2.85784E-05 1.84731E-09 3.89692E-19 2.60702E-18
 -1      2847 9.52357E-05-2.85518E-05-2.85790E-05 4.10318E-10 6.13362E-20 3.16249E-18
 -1      2848 9.52321E-05-2.85396E-05-2.85824E-05-3.34452E-09 8.64234E-19 1.80269E-18
 -1      2849 4.80757E-05-1.78337E-05-1.25761E-05 2.49546E-05-2.52013E-18-1.36690E-18
 -1      2850 3.64882E-05-1.08026E-05-1.02839E-05 1.20774E-05-2.05795E-18-7.39248E-19
 -1      2851 8.27297E-05-1.94535E-05-2.71012E-05 2.11281E-05-9.58921E-19 2.71977E-19
 -1      2852 8.32266E-05-2.17668E-05-2.61869E-05 2.34969E-05-7.10164E-19 1.99265E-19
 -1      2853 7.66154E-05-1.58156E-05-2.58479E-05 1.77610E-05-1.16395E-18 6.06045E-19
 -1      2854 4.87894E-05-2.31163E-05-1.06870E-05 3.80340E-05 8.95208E-19-1.88232E-18
 -1      2855 3.72749E-05-1.58385E-05-8.41074E-06 2.72011E-05 6.13569E-19-2.33781E-18
 -1      2856 9.53392E-05-2.65286E-05-2.94884E-05-1.47223E-06 5.70283E-20 6.86753E-19
 -1      2857 9.54089E-05-2.62750E-05-2.96137E-05-5.60052E-07 2.29745E-19 6.98904E-19
 -1      2858 9.51770E-05-2.60627E-05-2.96244E-05-1.69068E-06 1.08346E-19 3.93575E-19
 -1      2859 9.52280E-05-2.85388E-05-2.85811E-05 1.51016E-09-3.62274E-19-1.70389E-18
 -1      2860 9.52279E-05-2.85386E-05-2.85812E-05 2.09210E-09-7.68316E-19-2.21833E-18
 -1      2861 9.52238E-05-2.85250E-05-2.85850E-05 3.08511E-09-4.79730E-19-2.05399E-18
 -1      2862 9.52242E-05-2.85264E-05-2.85846E-05-4.33517E-10-5.33696E-19-1.27051E-18
 -1      2863 1.28597E-04-9.39676E-06-5.15976E-05 7.37311E-06-1.28749E-19 7.69953E-19
 -1      2864 1.27443E-04-5.77153E-06-5.28065E-05 9.70705E-07-6.11981E-19 2.94086E-19
 -1      2865 9.17702E-05-2.26249E-05-2.96845E-05 1.00359E-05 1.78516E-19-5.16393E-19
 -1      2866 9.12885E-05-2.19194E-05-2.97094E-05 1.15499E-05-1.69483E-19-4.58825E-19
 -1      2867 8.96707E-05-2.14465E-05-2.91823E-05 8.67844E-06 2.87951E-19-3.72370E-19
 -1      2868 6.44401E-05-3.04854E-05-1.40126E-05-3.41714E-05 4.84926E-20-1.53186E-18
 -1      2869 8.49828E-05-4.28997E-05-1.77860E-05-3.77116E-05-2.17687E-19-1.50200E-18
 -1      2870 8.37029E-05-2.56682E-05-2.45173E-05 2.78231E-05-8.28319E-19-4.75980E-19
 -1      2871 8.75518E-05-3.29535E-05-2.30955E-05 3.07414E-05-1.22036E-18-1.18701E-18
 -1      2872 7.89291E-05-3.46395E-05-1.86694E-05 3.42169E-05-1.62069E-18-2.63544E-18
 -1      2873 7.24827E-05-1.94070E-05-2.26879E-05 2.48180E-05-1.46416E-18-1.13894E-18
 -1      2874 6.71779E-05-3.33659E-05-1.37994E-05-4.37299E-05 5.91864E-19 1.05286E-18
 -1      2875 8.50265E-05-4.34181E-05-1.79519E-05-4.55685E-05 5.71324E-19 1.26451E-18
 -1      2876 1.02326E-04-4.82426E-05-2.29212E-05-3.19611E-05-4.48716E-19-1.15546E-18
 -1      2877 8.85785E-05-3.53847E-05-2.21732E-05-3.29545E-05-3.43048E-19-1.09426E-18
 -1      2878 1.32488E-04-5.81341E-05-3.16922E-05-2.02419E-05 2.01660E-18 2.47445E-18
 -1      2879 1.40763E-04-5.47011E-05-3.73968E-05-1.09741E-05 1.44999E-18 2.01774E-18
 -1      2880 1.38463E-04-5.06573E-05-3.76736E-05-1.89475E-06 1.29536E-18 1.23879E-18
 -1      2881 9.45481E-05-2.60217E-05-2.93551E-05-5.82961E-06 5.38710E-19 4.71310E-19
 -1      2882 9.45700E-05-2.62659E-05-2.92834E-05-5.06422E-06 5.52751E-19 5.04435E-19
 -1      2883 9.33538E-05-2.49947E-05-2.92794E-05-5.95364E-06 5.63414E-19 4.53287E-19
 -1      2884 9.54809E-05-2.39140E-05-3.06504E-05-4.60214E-06 4.91916E-20-8.20547E-19
 -1      2885 9.54534E-05-2.49309E-05-3.02424E-05-3.04049E-06 5.02843E-20-7.85171E-19
 -1      2886 9.53964E-05-2.45398E-05-3.03683E-05-2.67703E-06 1.11684E-19-6.71725E-19
 -1      2887 1.79494E-04-3.14981E-05-6.36055E-05-1.14989E-05 1.78385E-18 1.06091E-18
 -1      2888 8.14907E-05-4.21945E-05-1.66809E-05 4.59627E-05 3.07473E-19 1.39697E-18
 -1      2889 6.52420E-05-3.29831E-05-1.32331E-05 4.33617E-05 7.64659E-19-2.94767E-19
 -1      2890 9.06682E-05-1.53365E-05-3.23140E-05 4.36088E-06 8.80656E-19 4.15845E-19
 -1      2891 9.02344E-05-1.47808E-05-3.23618E-05 3.54622E-06 8.96991E-19 2.30841E-19
 -1      2892 9.10790E-05-1.62263E-05-3.20574E-05 2.79340E-06 8.23806E-19 1.62666E-19
 -1      2893 9.19803E-05-1.74441E-05-3.19156E-05 3.99002E-06 6.81333E-19 3.86977E-19
 -1      2894 9.52392E-05-2.85646E-05-2.85748E-05 8.42976E-09 9.37720E-19 4.64145E-18
 -1      2895 9.52396E-05-2.85636E-05-2.85754E-05 7.53292E-09 8.38865E-19 4.50006E-18
 -1      2896 9.52395E-05-2.85616E-05-2.85760E-05 5.88846E-09 1.20374E-18 4.27307E-18
 -1      2897 9.03849E-05-1.49919E-05-3.23343E-05-3.41651E-06 6.43270E-19-2.80513E-19
 -1      2898 9.08164E-05-1.55516E-05-3.22817E-05-4.28842E-06 5.70209E-19-3.45166E-19
 -1      2899 3.97669E-05-1.32733E-05-1.07136E-05-1.72661E-05 2.62898E-19-1.01940E-18
 -1      2900 5.04845E-05-2.04502E-05-1.23623E-05-2.78892E-05 2.15993E-19-1.19982E-18
 -1      2901 1.42998E-04-4.41506E-05-4.30590E-05-2.39722E-06-1.84950E-18 2.10530E-18
 -1      2902 1.42738E-04-5.15742E-05-3.90303E-05 4.66354E-06-9.49021E-19 2.21753E-18
 -1      2903 1.09566E-04-5.48718E-05-2.34330E-05 3.92118E-05-7.45813E-19 2.62129E-18
 -1      2904 9.52214E-05-4.93559E-05-1.92784E-05 4.37685E-05-3.42201E-19 2.18894E-18
 -1      2905 9.08628E-05-4.44638E-05-1.94908E-05 4.15237E-05 3.18590E-19 1.64229E-18
 -1      2906 1.37092E-04-2.30212E-05-4.96322E-05-1.03887E-05-2.41129E-18 1.24641E-18
 -1      2907 1.40164E-04-3.27068E-05-4.63300E-05-9.00162E-06-2.49906E-18 1.42354E-18
 -1      2908 1.36775E-04-2.47251E-05-4.82926E-05 1.14342E-05-1.26949E-19 9.71441E-19
 -1      2909 1.32225E-04-1.77809E-05-4.98220E-05 1.06746E-05 5.63277E-20 1.19469E-18
 -1      2910 3.72487E-05-1.55981E-05-8.65532E-06-2.80614E-05-9.41530E-19 3.91117E-19
 -1      2911 4.98185E-05-2.37818E-05-1.08983E-05-3.94441E-05-1.36902E-19 7.82447E-19
 -1      2912 1.27892E-04-7.92026E-06-5.21477E-05-5.56667E-06-1.33238E-18 2.80527E-19
 -1      2913 1.32429E-04-1.42450E-05-5.11799E-05-9.86785E-06-2.16735E-18 6.44910E-19
 -1      2914 9.45170E-05-2.09058E-05-3.15706E-05-7.40927E-06 1.03278E-19-1.00617E-18
 -1      2915 9.50187E-05-2.27236E-05-3.09930E-05-5.66454E-06 4.07858E-20-9.16180E-19
 -1      2916 9.47507E-05-2.22922E-05-3.10524E-05-4.99179E-06 1.17502E-19-7.26459E-19
 -1      2917 9.36241E-05-1.94761E-05-3.17809E-05-7.21008E-06 1.79099E-19-9.20374E-19
 -1      2918 9.04699E-05-1.54289E-05-3.21462E-05 1.62288E-07 7.00147E-19 8.87863E-20
 -1      2919 8.94645E-05-1.37849E-05-3.24548E-05-2.20939E-07 7.84960E-19 3.15007E-20
 -1      2920 8.95654E-05-1.39056E-05-3.24440E-05-1.07920E-06 7.57212E-19-4.72403E-20
 -1      2921 9.55789E-05-2.46905E-05-3.03747E-05 3.22524E-06 3.59115E-19 7.96434E-19
 -1      2922 9.52031E-05-2.35850E-05-3.06821E-05 3.67232E-06 4.34549E-19 6.30891E-19
 -1      2923 9.55149E-05-2.53074E-05-3.00904E-05 1.95898E-06 2.98383E-19 7.96283E-19
 -1      2924 9.52399E-05-2.85552E-05-2.85792E-05 4.81509E-10 2.46310E-18-4.13927E-18
 -1      2925 9.52412E-05-2.85577E-05-2.85786E-05-2.00711E-09 1.97542E-18-2.32560E-18
 -1      2926 1.34675E-04-3.27585E-05-4.40416E-05 9.80509E-06 2.64751E-19 6.51368E-19
 -1      2927 1.26627E-04-5.71589E-05-2.96733E-05-2.18942E-05 1.92562E-18 1.93817E-18
 -1      2928 9.52396E-05-2.85562E-05-2.85788E-05 8.74557E-10 1.08099E-18 4.09429E-18
 -1      2929 9.79993E-05-4.66832E-05-2.16455E-05-3.85936E-05 1.19167E-18 1.21768E-18
 -1      2930 3.89309E-05-1.23671E-05-1.07363E-05 1.92941E-05 5.92817E-19-2.01827E-18
 -1      2931 7.15435E-05-2.55947E-05-1.94833E-05-3.06595E-05 1.01115E-20-1.38395E-18
 -1      2932 8.64105E-05-1.91571E-05-2.87403E-05 1.10140E-05-4.66059E-19-6.23390E-19
 -1      2933 3.92359E-05-7.91018E-06-1.30466E-05-2.45620E-06 1.31317E-19-2.12775E-18
 -1      2934 3.87684E-05-1.06057E-05-1.14322E-05-1.06389E-05 3.67559E-19-1.27860E-18
 -1      2935 5.01017E-05-1.15360E-05-1.60540E-05-1.55381E-05 3.08479E-19-9.74935E-19
 -1      2936 9.13531E-05-1.62987E-05-3.21887E-05-4.97576E-06 4.48443E-19-4.17470E-19
 -1      2937 9.19719E-05-1.71493E-05-3.20969E-05-5.77306E-06 3.43764E-19-6.30659E-19
 -1      2938 9.21266E-05-1.77008E-05-3.18755E-05-3.91938E-06 4.54641E-19-3.06475E-19
 -1      2939 6.26638E-05-2.71782E-05-1.46904E-05 3.78517E-05 9.40207E-19-5.84559E-19
 -1      2940 6.20872E-05-2.40953E-05-1.54967E-05 3.00915E-05-2.29313E-18-2.02134E-18
 -1      2941 1.25439E-04-1.41697E-05-4.81274E-05 9.43222E-06-9.21148E-20 1.68401E-19
 -1      2942 4.14568E-05-9.11411E-06-1.32557E-05 5.34168E-06-2.16586E-18-6.65662E-19
 -1      2943 8.97601E-05-1.41702E-05-3.24174E-05-1.81277E-06 7.69972E-19 2.50321E-20
 -1      2944 9.00222E-05-1.44957E-05-3.23886E-05-2.68524E-06 7.02693E-19-1.24744E-19
 -1      2945 9.12546E-05-1.64824E-05-3.20299E-05-2.59631E-06 5.89349E-19-1.54165E-19
 -1      2946 9.06980E-05-1.57311E-05-3.21148E-05-1.21471E-06 6.29036E-19-4.23732E-20
 -1      2947 9.52353E-05-2.85480E-05-2.85804E-05 3.83289E-09 2.90691E-18-3.32914E-19
 -1      2948 9.52372E-05-2.85504E-05-2.85800E-05 2.40288E-09 2.58416E-18-2.20439E-18
 -1      2949 9.52369E-05-2.85431E-05-2.85830E-05 5.22212E-09 2.69800E-18-3.01913E-18
 -1      2950 4.16911E-05-1.22609E-05-1.19510E-05-2.10772E-05-7.87185E-19 5.12349E-19
 -1      2951 6.36472E-05-2.73869E-05-1.49957E-05-3.87207E-05 1.64007E-19-1.85288E-19
 -1      2952 6.16847E-05-1.87231E-05-1.79521E-05 2.47866E-05-2.29980E-18-1.52445E-18
 -1      2953 9.52395E-05-2.85613E-05-2.85763E-05 5.44867E-09 5.35025E-19 3.65383E-18
 -1      2954 9.52387E-05-2.85539E-05-2.85793E-05 6.42483E-10 6.68735E-19 3.74996E-18
 -1      2955 9.52381E-05-2.85554E-05-2.85784E-05 1.81598E-09 6.99206E-19 2.73719E-18
 -1      2956 9.52362E-05-2.85455E-05-2.85816E-05-3.20350E-09 2.75421E-19 3.16862E-18
 -1      2957 9.52388E-05-2.85491E-05-2.85811E-05-3.92241E-09 1.28553E-18 3.33957E-18
 -1      2958 1.21989E-04-8.49162E-06-4.91390E-05-2.56148E-06-1.17738E-18-6.09228E-19
 -1      2959 9.42487E-05-2.58041E-05-2.93261E-05-4.58264E-06 3.31034E-19 1.25024E-19
 -1      2960 9.52424E-05-2.85619E-05-2.85775E-05-4.58071E-09 1.75478E-18-6.88225E-19
 -1      2961 9.52427E-05-2.85636E-05-2.85767E-05-7.00228E-09 7.08126E-19 1.05849E-18
 -1      2962 9.52429E-05-2.85598E-05-2.85785E-05-4.81039E-09 1.71673E-18 5.11315E-19
 -1      2963 9.52410E-05-2.85522E-05-2.85809E-05 5.92502E-10 1.66163E-18-1.59769E-18
 -1      2964 6.49668E-05-2.44542E-05-1.68526E-05-2.95177E-05 1.24779E-19-1.43085E-18
 -1      2965 1.38039E-04-5.53410E-05-3.55001E-05 9.69899E-06-9.16728E-19 2.28222E-18
 -1      2966 1.19232E-04-5.76628E-05-2.61265E-05 3.25824E-05-8.90655E-19 2.75302E-18
 -1      2967 1.10492E-04-5.31763E-05-2.43978E-05 3.42196E-05-3.76506E-19 2.44478E-18
 -1      2968 1.25235E-04-5.85548E-05-2.89165E-05 2.43619E-05-7.98805E-19 2.60621E-18
 -1      2969 1.37351E-04-3.85459E-05-4.26118E-05-7.84028E-06-1.96485E-18 1.55494E-18
 -1      2970 9.52311E-05-2.85342E-05-2.85842E-05 7.08561E-09 2.20861E-18-1.37900E-18
 -1      2971 1.28274E-04-1.95287E-05-4.69643E-05-1.13470E-05-1.97221E-18 8.36921E-19
 -1      2972 9.54500E-05-2.60656E-05-2.97344E-05 1.47994E-07 3.13807E-19 8.18778E-19
 -1      2973 9.55567E-05-2.57208E-05-2.99153E-05 1.12619E-06 3.02001E-19 7.16713E-19
 -1      2974 9.54065E-05-2.50055E-05-3.01878E-05 1.50517E-06 3.10459E-19 5.10344E-19
 -1      2975 9.53348E-05-2.55958E-05-2.98895E-05-1.23967E-07 1.46261E-19 5.06061E-19
 -1      2976 9.48945E-05-2.27461E-05-3.09229E-05 3.96314E-06 5.38355E-19 5.17892E-19
 -1      2977 9.43033E-05-2.16002E-05-3.11646E-05 4.16345E-06 6.17827E-19 5.19633E-19
 -1      2978 9.50658E-05-2.36074E-05-3.06072E-05 2.70920E-06 4.88680E-19 4.05886E-19
 -1      2979 9.36666E-05-2.05829E-05-3.13380E-05 3.85671E-06 5.83024E-19 5.24138E-19
 -1      2980 1.32601E-04-3.77563E-05-4.07189E-05 9.82573E-06 9.78111E-19-3.37913E-19
 -1      2981 1.27494E-04-2.83037E-05-4.30570E-05 1.25841E-05 9.47830E-19-4.18143E-19
 -1      2982 9.58912E-05-2.66772E-05-2.96477E-05 5.03683E-07 6.15058E-20-5.93185E-19
 -1      2983 9.59628E-05-2.71899E-05-2.94805E-05 1.11836E-06 2.36493E-19-6.39760E-19
 -1      2984 9.61073E-05-2.76623E-05-2.93199E-05 1.61424E-06 1.97911E-19-7.00495E-19
 -1      2985 9.62160E-05-2.80748E-05-2.92068E-05 1.99849E-06 4.48048E-20-7.71890E-19
 -1      2986 9.60551E-05-2.71270E-05-2.95473E-05 1.33420E-06 6.77221E-20-3.39283E-19
 -1      2987 9.63854E-05-2.84777E-05-2.90906E-05 2.31643E-06 1.09988E-19-6.52515E-19
 -1      2988 9.65653E-05-2.88665E-05-2.90159E-05 2.50757E-06 1.85102E-20-5.10397E-19
 -1      2989 9.63683E-05-2.81198E-05-2.92586E-05 2.20001E-06 1.52789E-19-4.90990E-19
 -1      2990 9.68180E-05-2.92752E-05-2.89337E-05 2.66474E-06 3.34613E-20-4.09716E-19
 -1      2991 9.70900E-05-2.96943E-05-2.88864E-05 2.67652E-06 1.29054E-19-1.48588E-19
 -1      2992 9.67891E-05-2.90372E-05-2.90482E-05 2.73013E-06 1.39213E-19-3.53683E-19
 -1      2993 9.74746E-05-3.01632E-05-2.88326E-05 2.66794E-06 1.69763E-19-6.42285E-21
 -1      2994 9.78498E-05-3.06445E-05-2.88069E-05 2.49191E-06-2.29624E-20 2.50568E-19
 -1      2995 9.74237E-05-3.00216E-05-2.89011E-05 2.93984E-06 3.62498E-19-1.51145E-19
 -1      2996 9.84019E-05-3.12018E-05-2.87817E-05 2.28845E-06-1.23308E-19 4.24128E-19
 -1      2997 9.88743E-05-3.17456E-05-2.87778E-05 1.90014E-06-2.26348E-20 6.59240E-19
 -1      2998 9.83579E-05-3.11678E-05-2.88128E-05 2.79750E-06 1.35905E-19 2.36320E-20
 -1      2999 9.96032E-05-3.23792E-05-2.87890E-05 1.45285E-06-2.92546E-19 7.75477E-19
 -1      3000 1.00137E-04-3.29367E-05-2.88134E-05 8.24712E-07-4.95394E-19 6.31946E-19
 -1      3001 9.96401E-05-3.24999E-05-2.87929E-05 2.22390E-06-1.35997E-19 3.94730E-19
 -1      3002 1.01001E-04-3.35717E-05-2.88763E-05 7.98987E-08-7.04135E-19 1.10041E-18
 -1      3003 1.01514E-04-3.40259E-05-2.89417E-05-7.94896E-07-5.61105E-19 7.65461E-19
 -1      3004 1.01245E-04-3.39281E-05-2.88669E-05 1.10782E-06-3.40008E-19 7.56714E-19
 -1      3005 1.02393E-04-3.45029E-05-2.90781E-05-1.85954E-06-2.76608E-19 7.55129E-19
 -1      3006 1.02751E-04-3.46622E-05-2.92006E-05-2.92775E-06-3.13843E-19 8.78707E-19
 -1      3007 1.03016E-04-3.51938E-05-2.90761E-05-6.48215E-07-4.79407E-19 1.29753E-18
 -1      3008 1.03428E-04-3.47399E-05-2.94337E-05-4.24074E-06-3.21952E-19 7.29605E-19
 -1      3009 1.03467E-04-3.43707E-05-2.96264E-05-5.34261E-06 1.20013E-19 9.78638E-19
 -1      3010 1.04617E-04-3.58403E-05-2.94708E-05-3.02776E-06-2.75234E-19 6.84545E-19
 -1      3011 1.03661E-04-3.37824E-05-2.99675E-05-6.66007E-06-2.30728E-20 6.73870E-19
 -1      3012 1.03252E-04-3.27090E-05-3.02284E-05-7.49613E-06-2.97233E-19 2.85322E-19
 -1      3013 1.05541E-04-3.52727E-05-3.00929E-05-5.75378E-06-2.77920E-19 3.52220E-19
 -1      3014 1.02751E-04-3.13205E-05-3.06565E-05-8.35197E-06 2.53514E-20 3.09820E-19
 -1      3015 1.01918E-04-2.96106E-05-3.09577E-05-8.52104E-06-9.34755E-21 4.36262E-19
 -1      3016 1.05262E-04-3.29984E-05-3.09356E-05-8.11836E-06-1.65550E-19-4.62733E-20
 -1      3017 1.00790E-04-2.76363E-05-3.14100E-05-8.35947E-06-2.89123E-19 1.93047E-19
 -1      3018 9.97921E-05-2.57269E-05-3.16934E-05-7.53116E-06-8.08509E-19 4.27264E-19
 -1      3019 1.03603E-04-2.90651E-05-3.19077E-05-9.03743E-06-1.60940E-19 2.03040E-19
 -1      3020 9.85465E-05-2.38512E-05-3.20604E-05-6.02533E-06-1.16344E-18 9.83515E-19
 -1      3021 9.78131E-05-2.24851E-05-3.22449E-05-4.21932E-06-9.40893E-19 5.21653E-19
 -1      3022 1.01155E-04-2.45609E-05-3.28231E-05-7.48317E-06-6.85622E-19 8.17139E-19
 -1      3023 9.71648E-05-2.15593E-05-3.24078E-05-1.66585E-06-4.88734E-19 7.22088E-19
 -1      3024 9.70637E-05-2.13697E-05-3.24342E-05 6.40032E-07-5.00271E-20 1.13697E-18
 -1      3025 9.91826E-05-2.12634E-05-3.34162E-05-3.29566E-06-6.88230E-19 1.25142E-18
 -1      3026 9.74522E-05-2.19085E-05-3.23425E-05 3.34414E-06-1.61519E-19 1.15377E-18
 -1      3027 9.80482E-05-2.29889E-05-3.22043E-05 5.35236E-06-3.76274E-19 1.06873E-18
 -1      3028 9.88981E-05-2.07844E-05-3.34940E-05 2.21304E-06-1.97497E-19 1.28285E-18
 -1      3029 9.91781E-05-2.46597E-05-3.18893E-05 7.20725E-06-5.69939E-19 9.01808E-19
 -1      3030 1.00153E-04-2.64830E-05-3.16321E-05 8.33494E-06-1.29359E-19 3.88942E-19
 -1      3031 1.00493E-04-2.34228E-05-3.30383E-05 6.91847E-06-4.17351E-19 6.08864E-19
 -1      3032 1.01358E-04-2.84829E-05-3.11948E-05 8.85895E-06 3.59797E-19 3.76643E-19
 -1      3033 1.02261E-04-3.02730E-05-3.08997E-05 8.96285E-06 1.08728E-19 3.52747E-19
 -1      3034 1.02911E-04-2.77284E-05-3.21934E-05 9.26961E-06 1.56259E-20 7.49148E-19
 -1      3035 1.02922E-04-3.18158E-05-3.04641E-05 8.37063E-06-7.36489E-20 3.19096E-19
 -1      3036 1.03453E-04-3.30526E-05-3.01973E-05 7.72093E-06 1.54852E-19 6.86118E-19
 -1      3037 1.04807E-04-3.18648E-05-3.12230E-05 8.97042E-06 6.87958E-20 4.02773E-19
 -1      3038 1.03407E-04-3.38213E-05-2.98343E-05 6.52832E-06 8.08812E-19 7.24763E-19
 -1      3039 1.03480E-04-3.43469E-05-2.96298E-05 5.52047E-06 1.05753E-18 1.11547E-18
 -1      3040 1.05411E-04-3.45414E-05-3.03451E-05 6.98216E-06 5.56191E-19 1.30185E-18
 -1      3041 1.02875E-04-3.43947E-05-2.93697E-05 4.23513E-06 9.11438E-19 7.89969E-19
 -1      3042 1.02588E-04-3.43390E-05-2.92346E-05 3.20230E-06 1.05263E-18 1.22088E-18
 -1      3043 1.04711E-04-3.54717E-05-2.96654E-05 4.37633E-06 1.15005E-18 1.28169E-18
 -1      3044 1.01708E-04-3.39226E-05-2.90714E-05 2.12554E-06 7.43775E-19 6.60909E-19
 -1      3045 1.01223E-04-3.35217E-05-2.89937E-05 1.25693E-06 4.41312E-19 9.09902E-19
 -1      3046 1.03178E-04-3.50388E-05-2.92090E-05 1.98889E-06 6.67648E-19 7.75390E-19
 -1      3047 1.00307E-04-3.29012E-05-2.89041E-05 4.89488E-07 5.97623E-19 9.96882E-19
 -1      3048 9.97696E-05-3.23665E-05-2.88658E-05-1.46225E-07 6.67218E-20 1.42972E-18
 -1      3049 1.01352E-04-3.38603E-05-2.89394E-05 1.82585E-07 4.00530E-19 7.87397E-19
 -1      3050 9.89615E-05-3.17293E-05-2.88242E-05-6.18015E-07-1.56102E-19 1.87741E-18
 -1      3051 9.84645E-05-3.12034E-05-2.88084E-05-1.02694E-06 2.29826E-19 2.33453E-18
 -1      3052 9.96148E-05-3.24497E-05-2.88018E-05-9.91497E-07 5.34380E-19 1.61037E-18
 -1      3053 9.78251E-05-3.06533E-05-2.87937E-05-1.26531E-06 6.06005E-20 2.28114E-18
 -1      3054 9.74128E-05-3.02101E-05-2.87879E-05-1.48810E-06 7.75610E-19 2.83951E-18
 -1      3055 9.81673E-05-3.11316E-05-2.87449E-05-1.63402E-06 3.15251E-19 1.81166E-18
 -1      3056 9.69461E-05-2.97862E-05-2.87853E-05-1.56327E-06 4.91080E-19 2.34205E-18
 -1      3057 9.66288E-05-2.94502E-05-2.87818E-05-1.64934E-06 6.50082E-19 1.95286E-18
 -1      3058 9.70674E-05-3.00598E-05-2.87299E-05-1.89006E-06 2.90050E-19 2.34820E-18
 -1      3059 9.63109E-05-2.91524E-05-2.87826E-05-1.62134E-06 9.73100E-19 1.42014E-18
 -1      3060 9.60797E-05-2.89192E-05-2.87776E-05-1.61610E-06 9.48778E-19 1.09481E-18
 -1      3061 9.62910E-05-2.92719E-05-2.87316E-05-1.89337E-06 3.62859E-19 3.76808E-19
 -1      3062 9.58772E-05-2.87284E-05-2.87772E-05-1.53019E-06 7.57590E-19 1.25483E-18
 -1      3063 9.57159E-05-2.85804E-05-2.87694E-05-1.47020E-06-8.19826E-20 7.71060E-19
 -1      3064 9.57781E-05-2.87428E-05-2.87357E-05-1.74829E-06 6.72083E-19-1.42615E-19
 -1      3065 9.55962E-05-2.84714E-05-2.87663E-05-1.35774E-06 1.03862E-19 6.32470E-19
 -1      3066 9.54876E-05-2.83875E-05-2.87559E-05-1.26992E-06 5.43499E-19 7.11002E-19
 -1      3067 9.54620E-05-2.84215E-05-2.87358E-05-1.52891E-06 3.83634E-19 7.99398E-19
 -1      3068 9.54235E-05-2.83360E-05-2.87500E-05-1.15115E-06 6.68458E-20 6.84040E-19
 -1      3069 9.53523E-05-2.82967E-05-2.87379E-05-1.05387E-06-6.31926E-19 7.74823E-19
 -1      3070 9.52827E-05-2.82525E-05-2.87298E-05-1.28403E-06-8.97370E-20 3.38156E-19
 -1      3071 9.53232E-05-2.82825E-05-2.87300E-05-9.40840E-07-1.37839E-18 1.15809E-18
 -1      3072 9.52778E-05-2.82718E-05-2.87172E-05-8.45729E-07-1.44924E-18 1.36425E-18
 -1      3073 9.51925E-05-2.81865E-05-2.87184E-05-1.04354E-06-8.02215E-19 7.48312E-19
 -1      3074 9.52691E-05-2.82798E-05-2.87080E-05-7.44839E-07-1.23853E-18 4.22836E-19
 -1      3075 9.52406E-05-2.82859E-05-2.86955E-05-6.58487E-07-1.24918E-18-3.71015E-19
 -1      3076 9.51567E-05-2.81848E-05-2.87031E-05-8.24134E-07-1.87849E-18 1.06700E-18
 -1      3077 9.52427E-05-2.83053E-05-2.86860E-05-5.72381E-07-3.16707E-19-7.57027E-19
 -1      3078 9.52250E-05-2.83200E-05-2.86743E-05-4.97889E-07 2.52775E-19-7.14595E-19
 -1      3079 9.51514E-05-2.82190E-05-2.86858E-05-6.33627E-07-1.27639E-18 4.26542E-20
 -1      3080 9.52319E-05-2.83437E-05-2.86651E-05-4.26897E-07 8.98815E-19-1.30062E-19
 -1      3081 9.52211E-05-2.83618E-05-2.86547E-05-3.65103E-07 9.02984E-19-9.67269E-19
 -1      3082 9.51612E-05-2.82698E-05-2.86680E-05-4.74186E-07 7.66956E-19-2.53493E-19
 -1      3083 9.52292E-05-2.83857E-05-2.86462E-05-3.08237E-07 1.90032E-18 4.18848E-19
 -1      3084 9.52226E-05-2.84039E-05-2.86372E-05-2.58609E-07 1.65307E-18 5.95913E-19
 -1      3085 9.51768E-05-2.83250E-05-2.86509E-05-3.44681E-07 2.16169E-18 1.33460E-20
 -1      3086 9.52302E-05-2.84256E-05-2.86297E-05-2.14221E-07 1.20001E-18 1.28534E-18
 -1      3087 9.52262E-05-2.84422E-05-2.86222E-05-1.75504E-07 1.07765E-18 2.34215E-18
 -1      3088 9.51929E-05-2.83776E-05-2.86352E-05-2.42192E-07 1.99514E-18 1.89418E-18
 -1      3089 9.52325E-05-2.84608E-05-2.86157E-05-1.41709E-07 4.34305E-20 2.86205E-18
 -1      3090 9.52300E-05-2.84752E-05-2.86096E-05-1.12352E-07 4.59826E-19 3.29314E-18
 -1      3091 9.52070E-05-2.84240E-05-2.86213E-05-1.63040E-07 1.32037E-18 3.30030E-18
 -1      3092 9.52347E-05-2.84905E-05-2.86042E-05-8.72971E-08 7.74220E-19 2.63105E-18
 -1      3093 9.52332E-05-2.85024E-05-2.85992E-05-6.57306E-08 5.82019E-19 2.16404E-18
 -1      3094 9.52182E-05-2.84629E-05-2.86094E-05-1.03402E-07 1.24069E-19 1.96830E-18
 -1      3095 9.52365E-05-2.85146E-05-2.85947E-05-4.77598E-08-9.18733E-19 3.07001E-18
 -1      3096 9.52357E-05-2.85244E-05-2.85907E-05-3.25605E-08-1.50886E-18 2.64612E-18
 -1      3097 9.52264E-05-2.84946E-05-2.85993E-05-5.97567E-08 1.15915E-19 1.47214E-18
 -1      3098 9.52379E-05-2.85337E-05-2.85872E-05-2.14545E-08-2.58809E-19 3.35294E-18
 -1      3099 9.52375E-05-2.85417E-05-2.85840E-05-1.12847E-08 1.24134E-18 3.96512E-18
 -1      3100 9.52359E-05-2.85392E-05-2.85845E-05-1.10961E-08 1.46575E-18 4.58871E-18
 -1      3101 9.52322E-05-2.85198E-05-2.85911E-05-3.02750E-08-4.91645E-19 3.68203E-18
 -1      3102 9.50281E-05-2.32544E-05-3.07407E-05-3.28217E-06 1.49236E-19-6.00023E-19
 -1      3103 9.52523E-05-2.43480E-05-3.04029E-05-2.04342E-06 1.76782E-19-5.96559E-19
 -1      3104 8.73355E-05-2.05253E-05-2.86515E-05-7.93637E-06 4.46347E-19-2.59578E-19
 -1      3105 8.86834E-05-2.15670E-05-2.88038E-05-7.16329E-06 4.00934E-19 1.29727E-20
 -1      3106 9.02793E-05-2.26377E-05-2.90001E-05-6.73065E-06 2.49378E-19 2.56041E-19
 -1      3107 9.11714E-05-2.34169E-05-2.90642E-05-6.02823E-06 3.57984E-19 3.27107E-19
 -1      3108 8.82771E-05-2.13087E-05-2.86482E-05-5.63559E-06 4.84136E-19 3.34851E-19
 -1      3109 7.75648E-05-1.52520E-05-2.67260E-05-1.06239E-05 3.08155E-19-1.91913E-19
 -1      3110 8.01947E-05-1.64991E-05-2.73793E-05-9.58252E-06 1.11788E-19-3.23619E-19
 -1      3111 6.99525E-05-1.29522E-05-2.43400E-05-1.26383E-05-1.43383E-20-1.02795E-19
 -1      3112 7.31528E-05-1.36455E-05-2.55745E-05-1.12460E-05 4.19281E-19-2.37963E-20
 -1      3113 7.21860E-05-1.28829E-05-2.52507E-05-6.73737E-06 2.78998E-19 4.20373E-20
 -1      3114 8.42633E-05-1.84203E-05-2.82821E-05 7.96113E-06-3.77429E-19-2.32788E-19
 -1      3115 8.22317E-05-1.71652E-05-2.79112E-05 8.98651E-06-3.72225E-19-8.36428E-20
 -1      3116 5.93457E-05-1.61858E-05-1.80437E-05-2.35423E-05 2.51569E-19-1.22343E-18
 -1      3117 7.90043E-05-1.56732E-05-2.72360E-05 9.56845E-06-2.99583E-19-2.12933E-20
 -1      3118 7.64433E-05-1.45869E-05-2.65342E-05 1.07931E-05-5.71688E-19-6.10128E-21
 -1      3119 7.78948E-05-1.49424E-05-2.68446E-05 6.15631E-06-1.75486E-19-2.03313E-19
 -1      3120 9.23607E-05-2.45480E-05-2.90858E-05 4.22678E-06-9.44764E-19-3.22506E-19
 -1      3121 9.17798E-05-2.38835E-05-2.91027E-05 4.85534E-06-3.17691E-20-1.09279E-19
 -1      3122 9.06472E-05-2.29876E-05-2.90296E-05 5.31370E-06 6.16477E-19-8.04220E-20
 -1      3123 8.97253E-05-2.21062E-05-2.89907E-05 6.06619E-06 3.74101E-19 6.03297E-20
 -1      3124 8.99848E-05-2.26579E-05-2.88150E-05 4.23110E-06 1.13032E-19-2.47145E-19
 -1      3125 9.41553E-05-2.65034E-05-2.90054E-05 2.57310E-06 3.32710E-20-4.38231E-19
 -1      3126 9.39599E-05-2.61714E-05-2.90502E-05 2.96458E-06-1.42925E-19-6.71372E-19
 -1      3127 9.46003E-05-2.71026E-05-2.89360E-05 1.95591E-06 5.29706E-19 3.56519E-20
 -1      3128 9.44832E-05-2.68538E-05-2.89815E-05 2.27932E-06 4.68630E-19 3.89477E-19
 -1      3129 9.38208E-05-2.63140E-05-2.89208E-05 2.23638E-06-9.45395E-20-3.67100E-19
 -1      3130 9.48731E-05-2.75278E-05-2.88682E-05 1.46727E-06 1.08681E-19 6.14747E-19
 -1      3131 9.48122E-05-2.73526E-05-2.89085E-05 1.71773E-06 6.46981E-19 6.45892E-19
 -1      3132 9.43458E-05-2.69504E-05-2.88771E-05 1.73166E-06 1.98199E-19 1.08519E-18
 -1      3133 9.50367E-05-2.78289E-05-2.88075E-05 1.08575E-06 2.17707E-19 1.78303E-19
 -1      3134 9.50082E-05-2.77052E-05-2.88415E-05 1.27761E-06 3.84730E-19 4.65474E-19
 -1      3135 9.46834E-05-2.74085E-05-2.88280E-05 1.31800E-06 3.31925E-19 2.25618E-18
 -1      3136 9.51327E-05-2.80426E-05-2.87558E-05 7.91448E-07 2.70523E-19 1.26248E-19
 -1      3137 9.51221E-05-2.79549E-05-2.87836E-05 9.37102E-07 4.08567E-19 5.92220E-20
 -1      3138 9.48983E-05-2.77375E-05-2.87808E-05 9.86392E-07 6.75094E-19 1.17090E-18
 -1      3139 9.51877E-05-2.81949E-05-2.87132E-05 5.66875E-07 1.13459E-19 3.23408E-19
 -1      3140 9.51862E-05-2.81324E-05-2.87354E-05 6.76528E-07-1.65003E-19 8.75982E-19
 -1      3141 9.50340E-05-2.79740E-05-2.87387E-05 7.25318E-07-3.22484E-19-1.26763E-19
 -1      3142 9.52181E-05-2.83038E-05-2.86789E-05 3.97413E-07-3.18783E-19-4.92474E-19
 -1      3143 9.52208E-05-2.82590E-05-2.86963E-05 4.79168E-07 3.40204E-19-1.26554E-19
 -1      3144 9.51189E-05-2.81444E-05-2.87027E-05 5.22922E-07 3.18606E-19 3.34136E-19
 -1      3145 9.52335E-05-2.83789E-05-2.86529E-05 2.76321E-07-1.70548E-18-5.52190E-19
 -1      3146 9.52376E-05-2.83477E-05-2.86658E-05 3.34469E-07-1.26416E-18-7.56068E-19
 -1      3147 9.51705E-05-2.82652E-05-2.86735E-05 3.71333E-07-5.60694E-19-5.91380E-19
 -1      3148 9.52413E-05-2.84364E-05-2.86314E-05 1.81411E-07-6.38206E-19-1.69081E-18
 -1      3149 9.52457E-05-2.84125E-05-2.86418E-05 2.26274E-07-1.27417E-18-1.73222E-18
 -1      3150 9.52021E-05-2.83527E-05-2.86496E-05 2.56698E-07-5.78518E-19-7.56688E-19
 -1      3151 9.52445E-05-2.84779E-05-2.86147E-05 1.12498E-07-7.41127E-19-1.69672E-18
 -1      3152 9.52484E-05-2.84605E-05-2.86226E-05 1.44838E-07-4.75856E-19-1.22703E-18
 -1      3153 9.52215E-05-2.84184E-05-2.86299E-05 1.68816E-07-7.50231E-19-1.40929E-18
 -1      3154 9.52450E-05-2.85082E-05-2.86019E-05 6.32817E-08-1.22126E-18-7.63193E-19
 -1      3155 9.52482E-05-2.84952E-05-2.86078E-05 8.62173E-08-7.46368E-19-1.11410E-18
 -1      3156 9.52325E-05-2.84661E-05-2.86143E-05 1.04760E-07-7.87655E-19-1.92723E-18
 -1      3157 9.52444E-05-2.85305E-05-2.85919E-05 2.92755E-08-7.99910E-20-3.30679E-19
 -1      3158 9.52469E-05-2.85208E-05-2.85964E-05 4.50455E-08-8.56088E-19-1.13288E-18
 -1      3159 9.52383E-05-2.85011E-05-2.86019E-05 5.89287E-08-7.42191E-19-1.99778E-18
 -1      3160 9.52435E-05-2.85475E-05-2.85841E-05 7.14304E-09 3.67834E-18 1.76334E-19
 -1      3161 9.52453E-05-2.85400E-05-2.85876E-05 1.72835E-08 1.54484E-18-6.65197E-19
 -1      3162 9.52411E-05-2.85272E-05-2.85920E-05 2.71003E-08 8.31143E-19-1.56797E-18
 -1      3163 9.52190E-05-2.85119E-05-2.85889E-05 8.01383E-09-6.63938E-19-2.73745E-18
 -1      3164 9.52213E-05-2.85143E-05-2.85887E-05 9.67051E-09-6.65864E-19-2.60353E-18
 -1      3165 9.52303E-05-2.85314E-05-2.85853E-05-9.10931E-09 4.85822E-19 2.01617E-18
 -1      3166 9.52273E-05-2.85267E-05-2.85862E-05-9.44701E-09 9.94008E-19 5.20198E-20
 -1      3167 9.52235E-05-2.85202E-05-2.85871E-05-8.10749E-09 1.12583E-18-1.30270E-18
 -1      3168 9.52208E-05-2.85168E-05-2.85877E-05-6.88164E-09 5.71418E-19-1.45310E-18
 -1      3169 9.52211E-05-2.85105E-05-2.85901E-05-1.41684E-08 8.38198E-19-1.39160E-18
 -1      3170 7.17155E-05-1.30520E-05-2.52442E-05 1.15489E-05-1.32075E-18 2.91247E-19
 -1      3171 6.81937E-05-1.27408E-05-2.37990E-05 1.36106E-05-1.70747E-18 3.74706E-19
 -1      3172 7.03986E-05-1.19821E-05-2.48543E-05 6.77668E-06-9.13666E-19-2.09434E-19
 -1      3173 4.67298E-05-1.26868E-05-1.42463E-05 2.12167E-05 1.01238E-18-1.39453E-18
 -1      3174 3.96342E-05-8.40134E-06-1.27744E-05 9.29358E-06 5.28754E-19-2.23860E-18
 -1      3175 4.72202E-05-8.57658E-06-1.60638E-05 1.54887E-06 6.41353E-19-1.80354E-18
 -1      3176 9.24038E-05-1.77325E-05-3.20245E-05-6.28173E-06 2.92057E-19-7.91023E-19
 -1      3177 9.31191E-05-1.87726E-05-3.18913E-05-6.79034E-06 2.35999E-19-8.71949E-19
 -1      3178 9.38746E-05-2.03138E-05-3.15054E-05-5.74109E-06 1.40066E-19-7.71679E-19
 -1      3179 9.30849E-05-1.90692E-05-3.16933E-05-4.96755E-06 2.74565E-19-5.91744E-19
 -1      3180 6.19404E-05-1.35136E-05-2.02303E-05 1.90073E-05-1.80237E-18-8.18181E-19
 -1      3181 9.49266E-05-2.56471E-05-2.96954E-05-1.84017E-06 2.33100E-19 7.45819E-20
 -1      3182 9.50596E-05-2.54260E-05-2.98375E-05-1.00459E-06 1.19825E-19 1.28703E-19
 -1      3183 9.34644E-05-2.56916E-05-2.90618E-05 3.31107E-06-2.25719E-19-5.72736E-19
 -1      3184 9.31116E-05-2.52067E-05-2.91021E-05 3.82300E-06-4.83396E-19-6.93693E-19
 -1      3185 9.18073E-05-2.42544E-05-2.89253E-05 3.50287E-06-5.65747E-19-8.52691E-19
 -1      3186 9.30179E-05-2.54407E-05-2.89453E-05 2.83079E-06-1.47852E-20-1.29266E-18
 -1      3187 8.32863E-05-1.80243E-05-2.79970E-05-9.17173E-06 1.81775E-19-3.80106E-19
 -1      3188 8.51160E-05-1.92039E-05-2.83073E-05-8.34460E-06 2.67596E-19-2.41292E-19
 -1      3189 8.45796E-05-1.89010E-05-2.80691E-05-6.15861E-06 4.23004E-19 4.68609E-19
 -1      3190 7.94565E-05-1.60411E-05-2.70652E-05-6.51072E-06 1.96043E-19 1.41488E-19
 -1      3191 9.44324E-05-2.56784E-05-2.94691E-05-3.21123E-06 3.51547E-19-4.35231E-20
 -1      3192 9.46686E-05-2.57171E-05-2.95502E-05-2.50437E-06 3.78938E-19 1.01689E-20
 -1      3193 9.45447E-05-2.51424E-05-2.97380E-05-1.86810E-06 3.89593E-19-2.30896E-19
 -1      3194 9.56004E-05-2.53089E-05-3.01088E-05-1.10219E-06 1.33248E-19-5.02024E-19
 -1      3195 9.56968E-05-2.60321E-05-2.98669E-05-2.00573E-07 1.86632E-20-5.67394E-19
 -1      3196 9.57201E-05-2.58736E-05-2.99375E-05 8.27799E-08 7.59678E-20-3.75823E-19
 -1      3197 9.52326E-05-2.85301E-05-2.85870E-05 1.23383E-08 2.59322E-18-2.89498E-18
 -1      3198 9.52362E-05-2.85349E-05-2.85862E-05 1.09596E-08 2.04512E-18-2.79301E-18
 -1      3199 8.80625E-05-2.09460E-05-2.88101E-05 6.56058E-06-2.54461E-20 2.08642E-19
 -1      3200 8.66601E-05-1.98403E-05-2.86570E-05 7.43938E-06-1.04370E-19-2.86847E-19
 -1      3201 8.33517E-05-1.79528E-05-2.79409E-05 5.63042E-06-3.86446E-19 5.92940E-19
 -1      3202 8.72774E-05-2.05636E-05-2.85331E-05 4.96428E-06 4.03029E-19-1.45928E-19
 -1      3203 1.22151E-04-1.78396E-05-4.48286E-05 1.21745E-05 2.86932E-19-6.02823E-19
 -1      3204 1.17940E-04-1.12110E-05-4.62296E-05 7.47470E-06-3.37754E-19-7.56718E-19
 -1      3205 9.35873E-05-2.51887E-05-2.93165E-05-4.41992E-06 3.72386E-19 2.19408E-20
 -1      3206 9.39577E-05-2.54648E-05-2.93612E-05-3.76822E-06 2.41364E-19 3.71582E-20
 -1      3207 9.38366E-05-2.50535E-05-2.94667E-05-3.07813E-06 3.20282E-19-2.26449E-20
 -1      3208 5.91750E-05-2.09988E-05-1.58528E-05-3.25838E-05-4.84873E-19-6.87261E-19
 -1      3209 7.27688E-05-3.04719E-05-1.82256E-05-3.80238E-05-1.01697E-19-1.28855E-19
 -1      3210 1.19965E-04-5.42243E-05-2.80312E-05-2.28066E-05 2.57292E-18 1.44652E-18
 -1      3211 1.29530E-04-5.60743E-05-3.18216E-05-1.32954E-05 2.48562E-18 1.39407E-18
 -1      3212 9.22699E-05-2.41850E-05-2.91845E-05-5.57017E-06 4.39937E-19 2.65349E-19
 -1      3213 9.28472E-05-2.47045E-05-2.92200E-05-4.91359E-06 4.59598E-19 9.46700E-20
 -1      3214 9.08835E-05-2.31455E-05-2.89968E-05-4.93049E-06 3.57371E-19 3.58527E-19
 -1      3215 9.52249E-05-2.85193E-05-2.85883E-05 1.18063E-08 5.71770E-19-2.94017E-18
 -1      3216 9.52282E-05-2.85231E-05-2.85879E-05 1.20102E-08 2.25980E-18-2.72510E-18
 -1      3217 9.52181E-05-2.85017E-05-2.85925E-05 1.46362E-08-2.93231E-19-3.98762E-18
 -1      3218 1.16431E-04-7.80281E-06-4.69138E-05 1.28685E-06-6.81332E-19-8.40419E-19
 -1      3219 1.17166E-04-1.00935E-05-4.62990E-05-5.78452E-06-1.08293E-18-5.43358E-19
 -1      3220 1.33885E-04-5.17617E-05-3.50901E-05-3.26746E-06 2.02301E-18 8.13046E-19
 -1      3221 1.34640E-04-4.59999E-05-3.85135E-05 4.22958E-06 1.00580E-18-1.58819E-19
 -1      3222 1.29514E-04-4.11687E-05-3.79951E-05 7.89559E-06 1.46406E-18-4.35693E-19
 -1      3223 6.17579E-05-1.12220E-05-2.15299E-05 1.19450E-05-2.03521E-18-3.82727E-19
 -1      3224 4.88828E-05-8.97022E-06-1.69808E-05 9.82767E-06-2.49944E-18-1.15493E-18
 -1      3225 4.44546E-05-7.16826E-06-1.54102E-05-3.69118E-06-2.36252E-18-3.57024E-19
 -1      3226 5.90697E-05-8.80759E-06-2.12334E-05 4.63482E-06-2.16027E-18-6.85488E-19
 -1      3227 1.20555E-04-1.65645E-05-4.50063E-05-1.11318E-05-1.21576E-18 2.27693E-19
 -1      3228 1.25972E-04-2.42290E-05-4.37756E-05-1.30604E-05-1.51301E-18 9.17496E-19
 -1      3229 4.38308E-05-9.22076E-06-1.45536E-05-1.43226E-05-1.65813E-18-7.28448E-20
 -1      3230 4.99132E-05-1.45292E-05-1.48841E-05-2.60684E-05-7.04467E-19-5.76300E-19
 -1      3231 6.07279E-05-1.78782E-05-1.79537E-05-2.62070E-05-1.04953E-18-4.79844E-19
 -1      3232 7.28778E-05-3.08076E-05-1.79293E-05 3.78195E-05 1.25366E-18 5.24313E-19
 -1      3233 5.92341E-05-2.11277E-05-1.59023E-05 3.17371E-05 1.52212E-18-9.36077E-19
 -1      3234 1.35320E-04-5.22403E-05-3.61361E-05 2.64214E-06-9.97242E-19 2.06390E-18
 -1      3235 1.33239E-04-5.70182E-05-3.23876E-05 1.28639E-05-8.22985E-19 2.17428E-18
 -1      3236 9.13972E-05-1.71782E-05-3.18251E-05 1.61924E-06 7.75117E-19 1.07845E-19
 -1      3237 9.12604E-05-1.69777E-05-3.18474E-05 1.00928E-06 7.18405E-19 6.24612E-20
 -1      3238 9.93490E-05-4.70171E-05-2.23130E-05 3.76850E-05 4.63274E-19 1.96321E-18
 -1      3239 8.75825E-05-3.95114E-05-2.01490E-05 3.81889E-05 1.02840E-18 1.28971E-18
 -1      3240 8.95848E-05-3.96031E-05-2.08782E-05-3.72698E-05 1.07526E-18 2.00720E-19
 -1      3241 1.05092E-04-4.82928E-05-2.44514E-05-3.25107E-05 1.79208E-18 7.28845E-19
 -1      3242 1.30617E-04-3.38022E-05-4.20433E-05-1.12571E-05-1.80767E-18 1.58231E-18
 -1      3243 1.35039E-04-4.32270E-05-3.92540E-05-6.99198E-06-1.52889E-18 1.95606E-18
 -1      3244 5.61266E-05-1.31157E-05-1.80807E-05-1.88403E-05 3.94161E-19-8.01293E-19
 -1      3245 6.33404E-05-1.46760E-05-2.05034E-05-1.97837E-05 3.57633E-19-1.00416E-18
 -1      3246 5.34414E-05-9.88061E-06-1.84496E-05-1.23651E-05 5.16359E-19-7.66618E-19
 -1      3247 9.52375E-05-2.85290E-05-2.85891E-05 1.69720E-08 1.64647E-18-1.68314E-18
 -1      3248 9.52407E-05-2.85428E-05-2.85849E-05 8.70268E-09 2.27856E-18-9.01108E-19
 -1      3249 5.17753E-05-9.23653E-06-1.78639E-05-8.65436E-06-1.92528E-18-7.01132E-19
 -1      3250 9.51844E-05-2.41107E-05-3.04585E-05-1.60871E-06 1.56780E-19-4.10961E-19
 -1      3251 8.37426E-05-3.36531E-05-2.12070E-05-3.33621E-05 3.33678E-19 3.15520E-20
 -1      3252 9.52167E-05-2.85096E-05-2.85889E-05 2.15011E-09-2.17454E-19-2.34774E-18
 -1      3253 9.52173E-05-2.85100E-05-2.85889E-05 4.47487E-09-6.81574E-19-1.60327E-18
 -1      3254 9.52121E-05-2.84947E-05-2.85929E-05 7.75682E-09-5.24241E-19-2.21413E-18
 -1      3255 9.52264E-05-2.85136E-05-2.85912E-05 1.74998E-08 1.62119E-18-3.98848E-18
 -1      3256 1.21275E-04-2.44319E-05-4.17526E-05 1.20157E-05 6.64603E-19-1.19524E-18
 -1      3257 6.62527E-05-1.31107E-05-2.27167E-05-1.69513E-05 4.14781E-20-4.64836E-19
 -1      3258 9.26337E-05-1.89116E-05-3.16059E-05-2.88361E-06 4.75481E-19-7.55998E-20
 -1      3259 9.31274E-05-1.96708E-05-3.15028E-05-3.46070E-06 2.91153E-19-2.78480E-19
 -1      3260 1.13689E-04-1.18816E-05-4.39839E-05 4.23020E-06-5.65765E-19-9.64665E-19
 -1      3261 1.10818E-04-1.24020E-05-4.23436E-05-5.24728E-06-4.87150E-19-2.93193E-19
 -1      3262 1.16144E-04-1.43264E-05-4.39869E-05-8.74701E-06-8.40627E-19-1.89656E-19
 -1      3263 1.14529E-04-1.82416E-05-4.12749E-05-1.05559E-05-4.87838E-19 1.02167E-19
 -1      3264 9.52436E-05-2.85559E-05-2.85803E-05-9.39632E-10 3.21193E-18 9.40181E-19
 -1      3265 1.24603E-04-3.04227E-05-4.06241E-05-1.19068E-05-1.15988E-18 1.04442E-18
 -1      3266 9.52141E-05-2.84996E-05-2.85917E-05-8.81187E-09 5.72667E-19-5.45671E-19
 -1      3267 9.52183E-05-2.85125E-05-2.85882E-05-3.80740E-09-2.01202E-19-5.58209E-19
 -1      3268 9.52172E-05-2.85109E-05-2.85886E-05-1.64998E-09-5.39243E-19-7.34021E-19
 -1      3269 1.31412E-04-4.74346E-05-3.61429E-05-2.40569E-06-1.06613E-18 1.73999E-18
 -1      3270 1.07068E-04-4.98294E-05-2.46432E-05 3.15070E-05 3.24546E-19 2.43817E-18
 -1      3271 5.59771E-05-1.62985E-05-1.66266E-05 2.51022E-05 1.42707E-18-9.64029E-19
 -1      3272 5.44843E-05-1.19544E-05-1.80633E-05 1.62363E-05 1.25653E-18-8.43539E-19
 -1      3273 6.59135E-05-1.98959E-05-1.94722E-05 2.51926E-05 1.71565E-18-3.49560E-19
 -1      3274 9.16216E-05-1.74926E-05-3.17834E-05 2.04720E-06 7.32198E-19 1.29638E-19
 -1      3275 9.22746E-05-1.86961E-05-3.15109E-05 1.51426E-06 6.54703E-19 1.29270E-19
 -1      3276 9.19537E-05-1.79649E-05-3.17323E-05 2.63018E-06 7.89570E-19 2.06166E-19
 -1      3277 9.18685E-05-1.78005E-05-3.17560E-05-1.77395E-06 5.67511E-19-7.23816E-20
 -1      3278 9.22155E-05-1.82962E-05-3.16960E-05-2.41435E-06 5.23579E-19-1.56775E-19
 -1      3279 9.32090E-05-2.00409E-05-3.13427E-05-2.00788E-06 3.57453E-19-5.28006E-20
 -1      3280 1.13341E-04-5.10464E-05-2.65715E-05-2.57906E-05 1.98203E-18 8.54805E-19
 -1      3281 1.17182E-04-5.03282E-05-2.86187E-05-1.72449E-05 2.73331E-18 4.08197E-19
 -1      3282 1.04507E-04-4.48415E-05-2.55709E-05-2.64596E-05 1.37213E-18 5.15817E-19
 -1      3283 1.28688E-04-5.18937E-05-3.29384E-05-5.69648E-06 2.58072E-18 3.69624E-19
 -1      3284 6.31979E-05-1.08755E-05-2.22815E-05-1.09233E-05 4.50976E-19-5.69312E-19
 -1      3285 9.52420E-05-2.85470E-05-2.85836E-05 6.01348E-09 2.38080E-18 8.96445E-19
 -1      3286 9.26624E-05-2.43873E-05-2.92402E-05-4.08144E-06 3.71021E-19 1.19445E-21
 -1      3287 1.26694E-04-5.61537E-05-3.01589E-05 1.73809E-05-8.95870E-19 2.17523E-18
 -1      3288 9.43385E-05-2.20387E-05-3.09571E-05 2.69090E-06 5.35694E-19 4.73918E-19
 -1      3289 9.31826E-05-1.98755E-05-3.14331E-05 3.40017E-06 5.94522E-19 3.94787E-19
 -1      3290 9.12190E-05-1.69198E-05-3.18577E-05 5.27692E-07 6.43032E-19 1.49350E-19
 -1      3291 9.12559E-05-1.69577E-05-3.18541E-05-1.08363E-07 5.61335E-19 1.32925E-19
 -1      3292 9.20331E-05-1.83361E-05-3.15641E-05 6.98895E-07 6.10926E-19 1.17810E-19
 -1      3293 9.26690E-05-1.91174E-05-3.15338E-05 2.95107E-06 6.93795E-19 2.92178E-19
 -1      3294 8.30694E-05-3.40653E-05-2.07219E-05 3.41667E-05 1.31645E-18 8.45048E-19
 -1      3295 9.51542E-05-2.52386E-05-2.99698E-05-4.24858E-07 8.52257E-20 3.65330E-19
 -1      3296 9.52225E-05-2.49572E-05-3.00941E-05 3.06694E-07 1.45039E-19 3.52498E-19
 -1      3297 9.48622E-05-2.47781E-05-3.00314E-05-5.95311E-07 2.20495E-19-1.19774E-19
 -1      3298 9.52339E-05-2.85359E-05-2.85849E-05-1.07684E-08 9.91312E-19 4.03915E-18
 -1      3299 9.52323E-05-2.85342E-05-2.85850E-05-9.98780E-09 4.37922E-19 3.71289E-18
 -1      3300 9.52276E-05-2.85199E-05-2.85888E-05-1.68602E-08 5.78435E-19 1.65405E-18
 -1      3301 9.52324E-05-2.85263E-05-2.85881E-05-1.88828E-08 1.13518E-18 3.84504E-18
 -1      3302 9.43300E-05-2.16382E-05-3.11713E-05-4.69455E-06 1.77692E-19-6.90104E-19
 -1      3303 9.41584E-05-2.14388E-05-3.11748E-05-3.96217E-06 2.06934E-19-5.40046E-19
 -1      3304 9.51242E-05-2.41850E-05-3.04144E-05 1.79710E-06 3.92925E-19 4.19438E-19
 -1      3305 5.60721E-05-9.00171E-06-2.00905E-05-4.20226E-06-1.79231E-18-1.00725E-18
 -1      3306 5.65541E-05-1.09934E-05-1.93258E-05-1.38916E-05-1.28332E-18-1.40364E-18
 -1      3307 9.62591E-05-2.76250E-05-2.94045E-05 2.05479E-06 1.12121E-19-1.19517E-19
 -1      3308 9.64339E-05-2.81250E-05-2.92763E-05 2.42493E-06 1.72925E-19-1.65225E-19
 -1      3309 9.66551E-05-2.86202E-05-2.91466E-05 2.76045E-06 2.37636E-19-1.29968E-19
 -1      3310 9.69134E-05-2.91211E-05-2.90529E-05 2.97728E-06 3.98192E-19 6.60951E-20
 -1      3311 9.64562E-05-2.81649E-05-2.92773E-05 2.67544E-06 2.60137E-19 1.11343E-19
 -1      3312 9.72491E-05-2.96551E-05-2.89550E-05 3.19914E-06 3.91442E-19-1.87030E-20
 -1      3313 9.76400E-05-3.02250E-05-2.88909E-05 3.26116E-06 2.47501E-19-1.86702E-19
 -1      3314 9.70002E-05-2.92761E-05-2.90392E-05 3.29607E-06 3.13225E-19 3.00018E-19
 -1      3315 9.81670E-05-3.08655E-05-2.88251E-05 3.34845E-06 1.85223E-19-2.06554E-19
 -1      3316 9.87268E-05-3.15468E-05-2.87921E-05 3.22940E-06 1.25691E-19 1.36358E-20
 -1      3317 9.78475E-05-3.05441E-05-2.88646E-05 3.68963E-06 2.21137E-19-2.47483E-19
 -1      3318 9.95099E-05-3.23306E-05-2.87666E-05 3.12737E-06 6.85687E-20 6.77606E-20
 -1      3319 1.00248E-04-3.31210E-05-2.87740E-05 2.77705E-06 5.81895E-20 2.14931E-19
 -1      3320 9.91422E-05-3.20902E-05-2.87627E-05 3.78528E-06 1.34486E-19-1.40788E-19
 -1      3321 1.01318E-04-3.40276E-05-2.88077E-05 2.39467E-06-1.25266E-19 2.30973E-19
 -1      3322 1.02192E-04-3.48503E-05-2.88737E-05 1.74992E-06-4.11072E-19 3.78316E-19
 -1      3323 1.00986E-04-3.39464E-05-2.87619E-05 3.43654E-06-1.31269E-19 2.55143E-19
 -1      3324 1.03505E-04-3.57646E-05-2.89973E-05 9.71408E-07-5.03762E-19 5.09657E-19
 -1      3325 1.04391E-04-3.64287E-05-2.91483E-05-1.48566E-08-2.92645E-19 7.54190E-19
 -1      3326 1.03379E-04-3.59822E-05-2.89148E-05 2.42523E-06-1.96500E-19-8.57633E-20
 -1      3327 1.05769E-04-3.70925E-05-2.94024E-05-1.27491E-06-1.72154E-19 4.55817E-19
 -1      3328 1.06446E-04-3.72825E-05-2.96681E-05-2.56521E-06-3.88105E-20 5.61563E-19
 -1      3329 1.06112E-04-3.77941E-05-2.92987E-05 5.08784E-07-2.29902E-19 5.56247E-19
 -1      3330 1.07544E-04-3.73022E-05-3.00953E-05-4.25704E-06-2.76259E-19 6.93253E-19
 -1      3331 1.07722E-04-3.66266E-05-3.04946E-05-5.64468E-06-4.90468E-19 5.67481E-19
 -1      3332 1.08668E-04-3.86421E-05-3.00076E-05-2.40907E-06-7.17997E-20 7.49358E-19
 -1      3333 1.08064E-04-3.55349E-05-3.11107E-05-7.43713E-06-1.10412E-19 3.97583E-19
 -1      3334 1.07495E-04-3.37125E-05-3.16233E-05-8.44394E-06 1.20079E-19 6.79245E-19
 -1      3335 1.10230E-04-3.75840E-05-3.11143E-05-6.02385E-06-2.98773E-19 9.52950E-19
 -1      3336 1.06787E-04-3.14175E-05-3.23685E-05-9.53114E-06 2.80315E-20 8.31770E-19
 -1      3337 1.05591E-04-2.86610E-05-3.29253E-05-9.59028E-06-1.94672E-19 5.83681E-19
 -1      3338 1.09846E-04-3.37002E-05-3.25998E-05-9.18632E-06 2.05480E-19 1.22677E-18
 -1      3339 1.03909E-04-2.55920E-05-3.36689E-05-8.97411E-06-3.40875E-19 7.61177E-19
 -1      3340 1.02649E-04-2.28946E-05-3.41306E-05-7.55663E-06-5.70814E-19 1.27913E-18
 -1      3341 1.07292E-04-2.73366E-05-3.42086E-05-1.01682E-05-1.32046E-19 1.12737E-18
 -1      3342 1.01181E-04-2.05447E-05-3.46248E-05-5.11077E-06-6.93963E-19 1.73008E-18
 -1      3343 1.00422E-04-1.91418E-05-3.48345E-05-2.54678E-06-4.21015E-19 1.88324E-18
 -1      3344 1.04203E-04-2.13218E-05-3.55389E-05-7.06441E-06-2.68832E-19 1.60244E-18
 -1      3345 1.00310E-04-1.88434E-05-3.48926E-05 1.18222E-06-4.97801E-19 1.84169E-18
 -1      3346 1.00731E-04-1.96872E-05-3.47706E-05 3.87941E-06-4.12343E-19 1.36573E-18
 -1      3347 1.02191E-04-1.76670E-05-3.62286E-05-7.43715E-07-4.61598E-19 2.17736E-18
 -1      3348 1.01838E-04-2.15071E-05-3.43915E-05 6.78977E-06-3.93434E-19 1.13447E-18
 -1      3349 1.03033E-04-2.39425E-05-3.39921E-05 8.62371E-06-4.70679E-19 9.43182E-19
 -1      3350 1.03353E-04-1.98545E-05-3.58274E-05 5.86342E-06-4.64872E-19 1.49829E-18
 -1      3351 1.04763E-04-2.69600E-05-3.32902E-05 9.67008E-06-4.51780E-19 1.00068E-18
 -1      3352 1.05949E-04-2.97811E-05-3.27431E-05 1.00067E-05-3.45596E-20 8.22916E-19
 -1      3353 1.06480E-04-2.56011E-05-3.46182E-05 1.00789E-05-5.06268E-19 1.57306E-18
 -1      3354 1.06983E-04-3.22964E-05-3.19858E-05 9.34423E-06 4.44299E-19 6.18308E-19
 -1      3355 1.07667E-04-3.43530E-05-3.14601E-05 8.58652E-06 3.90020E-19 1.12516E-18
 -1      3356 1.09033E-04-3.18067E-05-3.30392E-05 1.02316E-05-1.62961E-19 1.51907E-18
 -1      3357 1.07573E-04-3.57547E-05-3.08010E-05 6.93935E-06 3.35560E-19 1.44208E-18
 -1      3358 1.07551E-04-3.66897E-05-3.03707E-05 5.63628E-06 1.10317E-18 1.27653E-18
 -1      3359 1.10029E-04-3.64782E-05-3.14988E-05 7.42830E-06 7.19456E-19 2.12660E-18
 -1      3360 1.06548E-04-3.68742E-05-2.98913E-05 3.92633E-06 1.06929E-18 1.35245E-18
 -1      3361 1.05949E-04-3.68466E-05-2.95905E-05 2.63570E-06 9.04697E-19 1.42900E-18
 -1      3362 1.08810E-04-3.81509E-05-3.02813E-05 3.83269E-06 1.12873E-18 2.00102E-18
 -1      3363 1.04549E-04-3.62753E-05-2.92863E-05 1.30865E-06 2.43080E-19 8.03490E-19
 -1      3364 1.03664E-04-3.56837E-05-2.91013E-05 2.93783E-07 2.30276E-19 8.31384E-19
 -1      3365 1.06324E-04-3.76245E-05-2.94615E-05 7.92128E-07 3.61149E-20 1.40907E-18
 -1      3366 1.02255E-04-3.47867E-05-2.89316E-05-5.50613E-07 5.83809E-19 8.37855E-19
 -1      3367 1.01329E-04-3.39803E-05-2.88323E-05-1.22919E-06 8.68202E-19 9.52912E-19
 -1      3368 1.03467E-04-3.59252E-05-2.89740E-05-1.27882E-06 6.23955E-19 1.02331E-18
 -1      3369 1.00127E-04-3.30547E-05-2.87529E-05-1.65965E-06 3.37611E-19 1.28477E-18
 -1      3370 9.93088E-05-3.22636E-05-2.87088E-05-2.04323E-06 3.48397E-19 1.32390E-18
 -1      3371 1.00840E-04-3.38843E-05-2.87239E-05-2.41699E-06 9.24775E-19 1.29841E-18
 -1      3372 9.83905E-05-3.14693E-05-2.86823E-05-2.18318E-06 4.65049E-19 7.74448E-19
 -1      3373 9.77431E-05-3.08085E-05-2.86688E-05-2.34816E-06 4.78582E-19 1.22640E-18
 -1      3374 9.87256E-05-3.19970E-05-2.86223E-05-2.85659E-06 2.86148E-19 5.70875E-19
 -1      3375 9.70985E-05-3.02011E-05-2.86687E-05-2.31194E-06-1.43476E-19 1.12731E-18
 -1      3376 9.66260E-05-2.97053E-05-2.86691E-05-2.33204E-06-2.84212E-19 6.69112E-19
 -1      3377 9.71791E-05-3.04855E-05-2.86015E-05-2.85608E-06 1.68072E-19 3.51665E-19
 -1      3378 9.62076E-05-2.92821E-05-2.86793E-05-2.20255E-06-1.28521E-19 1.00172E-18
 -1      3379 9.58857E-05-2.89423E-05-2.86836E-05-2.13618E-06 4.99691E-19 6.44370E-19
 -1      3380 9.61338E-05-2.93903E-05-2.86174E-05-2.61503E-06-1.18950E-19 1.00140E-18
 -1      3381 9.56371E-05-2.86742E-05-2.86949E-05-1.96761E-06 4.24581E-19-2.41609E-19
 -1      3382 9.54321E-05-2.84625E-05-2.86981E-05-1.85657E-06 2.66740E-19-3.41470E-22
 -1      3383 9.54820E-05-2.86662E-05-2.86439E-05-2.26636E-06-3.06065E-20 1.17926E-18
 -1      3384 9.53014E-05-2.83121E-05-2.87064E-05-1.68140E-06 1.02699E-18-2.17681E-19
 -1      3385 9.51802E-05-2.81960E-05-2.87065E-05-1.55334E-06 6.21920E-19 2.71317E-19
 -1      3386 9.51145E-05-2.82353E-05-2.86677E-05-1.89093E-06 6.53439E-19 2.52617E-19
 -1      3387 9.51260E-05-2.81280E-05-2.87106E-05-1.38917E-06 6.77710E-20 3.33600E-19
 -1      3388 9.50611E-05-2.80779E-05-2.87073E-05-1.26115E-06-3.29387E-19-7.59963E-20
 -1      3389 9.49380E-05-2.80169E-05-2.86834E-05-1.53309E-06 5.40522E-19-8.19670E-19
 -1      3390 9.50526E-05-2.80634E-05-2.87073E-05-1.11625E-06-4.71387E-19 2.06962E-19
 -1      3391 9.50232E-05-2.80553E-05-2.87014E-05-9.97969E-07-5.07837E-19 7.00586E-19
 -1      3392 9.48807E-05-2.79409E-05-2.86899E-05-1.21410E-06-4.53043E-19-5.19578E-20
 -1      3393 9.50392E-05-2.80723E-05-2.86981E-05-8.75132E-07-1.95053E-18 5.35211E-19
 -1      3394 9.50305E-05-2.80885E-05-2.86905E-05-7.71353E-07-2.45090E-18 1.09324E-19
 -1      3395 9.48916E-05-2.79531E-05-2.86885E-05-9.41679E-07-1.39720E-18 4.39587E-20
 -1      3396 9.50572E-05-2.81215E-05-2.86852E-05-6.70256E-07-1.66086E-18 3.23574E-19
 -1      3397 9.50594E-05-2.81498E-05-2.86767E-05-5.82541E-07-1.00032E-18 1.51028E-19
 -1      3398 9.49364E-05-2.80137E-05-2.86812E-05-7.16069E-07-1.96927E-18 7.70774E-19
 -1      3399 9.50887E-05-2.81887E-05-2.86702E-05-5.01250E-07-2.22668E-19-2.54365E-19
 -1      3400 9.50957E-05-2.82210E-05-2.86617E-05-4.29311E-07 1.21872E-18 2.95372E-19
 -1      3401 9.49935E-05-2.80959E-05-2.86702E-05-5.33489E-07-3.97490E-19 8.21573E-19
 -1      3402 9.51230E-05-2.82597E-05-2.86547E-05-3.65278E-07 2.57881E-18 1.60794E-19
 -1      3403 9.51314E-05-2.82913E-05-2.86467E-05-3.07773E-07 2.54264E-18 8.10443E-19
 -1      3404 9.50505E-05-2.81829E-05-2.86572E-05-3.88632E-07 1.29740E-18 8.14512E-19
 -1      3405 9.51545E-05-2.83264E-05-2.86398E-05-2.58275E-07 2.44938E-18 1.06091E-18
 -1      3406 9.51623E-05-2.83548E-05-2.86325E-05-2.13372E-07 2.62316E-18 1.89496E-18
 -1      3407 9.51011E-05-2.82649E-05-2.86438E-05-2.75752E-07 2.69520E-18 2.63894E-19
 -1      3408 9.51806E-05-2.83849E-05-2.86261E-05-1.75837E-07 2.41522E-18 2.12626E-18
 -1      3409 9.51871E-05-2.84091E-05-2.86197E-05-1.41593E-07 9.90630E-19 1.97995E-18
 -1      3410 9.51426E-05-2.83370E-05-2.86307E-05-1.89295E-07 2.49206E-18-2.74952E-19
 -1      3411 9.52008E-05-2.84338E-05-2.86140E-05-1.13713E-07-1.10645E-18 1.97104E-18
 -1      3412 9.52057E-05-2.84536E-05-2.86085E-05-8.82452E-08-4.35304E-19 9.08766E-19
 -1      3413 9.51747E-05-2.83974E-05-2.86186E-05-1.24346E-07 7.84841E-20 7.85120E-19
 -1      3414 9.52155E-05-2.84736E-05-2.86034E-05-6.79424E-08 1.41754E-18 5.93610E-20
 -1      3415 9.52192E-05-2.84894E-05-2.85987E-05-4.98501E-08 4.15133E-19 4.69348E-19
 -1      3416 9.51982E-05-2.84464E-05-2.86078E-05-7.64532E-08 3.62690E-19 1.35238E-18
 -1      3417 9.41781E-05-2.48179E-05-2.97364E-05-1.81411E-06 2.92367E-19-2.65800E-19
 -1      3418 9.44324E-05-2.46666E-05-2.98994E-05-1.16132E-06 3.20893E-19-2.65423E-19
 -1      3419 6.85094E-05-1.21431E-05-2.41952E-05-1.97077E-06 4.43835E-19-9.28030E-20
 -1      3420 7.30206E-05-1.37448E-05-2.54520E-05-2.37957E-06 3.29413E-19 7.77715E-20
 -1      3421 9.52272E-05-2.85057E-05-2.85950E-05 2.88565E-08 9.75986E-19-3.80362E-18
 -1      3422 9.52335E-05-2.85149E-05-2.85937E-05 2.83918E-08 1.04077E-18-1.58214E-18
 -1      3423 9.52324E-05-2.85018E-05-2.85983E-05 4.15960E-08-1.45146E-19-2.59141E-18
 -1      3424 9.38044E-05-2.08892E-05-3.12589E-05-3.59615E-06 2.79608E-19-4.16071E-19
 -1      3425 1.10817E-04-1.38084E-05-4.16227E-05 7.41085E-06-5.62642E-19-5.31738E-19
 -1      3426 1.09247E-04-1.15078E-05-4.21802E-05 7.17964E-07-7.96793E-19-5.02460E-19
 -1      3427 7.79903E-05-1.56396E-05-2.67719E-05 2.57025E-06-4.59376E-19-8.23829E-19
 -1      3428 7.49650E-05-1.41876E-05-2.60697E-05 2.43141E-06-1.05136E-18-1.25755E-18
 -1      3429 9.41347E-05-2.68957E-05-2.88232E-05 1.41510E-06-1.28587E-19 1.25954E-18
 -1      3430 9.39207E-05-2.66216E-05-2.88442E-05 1.62673E-06-5.93912E-19 5.04114E-19
 -1      3431 9.35606E-05-2.62704E-05-2.88474E-05 1.78257E-06-6.22329E-19-4.45200E-19
 -1      3432 9.32286E-05-2.58944E-05-2.88618E-05 2.03081E-06-4.42790E-19-1.08879E-18
 -1      3433 9.34212E-05-2.62133E-05-2.87928E-05 1.44055E-06-1.22273E-18-3.15644E-19
 -1      3434 9.47728E-05-2.76883E-05-2.87541E-05 8.33423E-07 1.11966E-18 5.72118E-19
 -1      3435 9.46862E-05-2.75431E-05-2.87752E-05 9.74224E-07 1.20441E-18 1.38403E-18
 -1      3436 9.49414E-05-2.79329E-05-2.87205E-05 6.19471E-07-3.93870E-19 2.48701E-19
 -1      3437 9.48870E-05-2.78271E-05-2.87392E-05 7.30715E-07-1.67122E-20 6.22291E-19
 -1      3438 9.46955E-05-2.76411E-05-2.87347E-05 7.17556E-07 3.02774E-19 1.00371E-18
 -1      3439 9.50525E-05-2.81118E-05-2.86907E-05 4.50169E-07 3.70986E-19-5.57201E-19
 -1      3440 9.50187E-05-2.80345E-05-2.87066E-05 5.36404E-07-4.74803E-19-3.99088E-19
 -1      3441 9.48834E-05-2.78948E-05-2.87075E-05 5.39219E-07-2.47291E-19 2.04649E-20
 -1      3442 9.51222E-05-2.82371E-05-2.86664E-05 3.24354E-07-1.08512E-18-1.84666E-19
 -1      3443 9.51023E-05-2.81827E-05-2.86790E-05 3.87799E-07-4.15610E-19-7.41557E-19
 -1      3444 9.50080E-05-2.80786E-05-2.86829E-05 3.97931E-07 8.16794E-20-8.74682E-19
 -1      3445 9.51700E-05-2.83344E-05-2.86449E-05 2.22479E-07 2.60710E-19-5.18373E-19
 -1      3446 9.51573E-05-2.82924E-05-2.86557E-05 2.72905E-07-3.01159E-19-1.32974E-19
 -1      3447 9.50921E-05-2.82148E-05-2.86610E-05 2.86046E-07-9.49808E-19-1.90995E-18
 -1      3448 9.52006E-05-2.84055E-05-2.86271E-05 1.46247E-07-6.47501E-19-1.33014E-18
 -1      3449 9.51932E-05-2.83748E-05-2.86358E-05 1.83593E-07 3.72944E-20-1.32461E-18
 -1      3450 9.51497E-05-2.83183E-05-2.86416E-05 1.96938E-07 3.87241E-19-1.85484E-18
 -1      3451 9.52193E-05-2.84573E-05-2.86127E-05 9.04222E-08-1.10710E-18-1.94834E-18
 -1      3452 9.52153E-05-2.84349E-05-2.86197E-05 1.17325E-07-1.08198E-18-1.40953E-18
 -1      3453 9.51870E-05-2.83944E-05-2.86252E-05 1.29852E-07-6.95968E-19-1.50810E-18
 -1      3454 9.52278E-05-2.84893E-05-2.86024E-05 5.42108E-08-6.64782E-20-1.77150E-18
 -1      3455 9.52256E-05-2.84723E-05-2.86080E-05 7.33377E-08-2.53430E-19-2.21041E-18
 -1      3456 9.52068E-05-2.84435E-05-2.86131E-05 8.38014E-08-1.14472E-18-2.32469E-18
 -1      3457 9.52175E-05-2.84754E-05-2.86041E-05 5.32863E-08 3.32521E-19-3.57891E-18
 -1      3458 9.42290E-05-2.18408E-05-3.10126E-05-2.54287E-06 2.54894E-19-2.70223E-19
 -1      3459 9.52214E-05-2.84978E-05-2.85960E-05 2.81167E-08 7.80250E-19-3.67549E-18
 -1      3460 9.13865E-05-1.71363E-05-3.18354E-05-6.16561E-07 5.39007E-19 3.80276E-20
 -1      3461 9.15838E-05-1.74006E-05-3.18060E-05-1.26601E-06 4.93718E-19-1.06471E-20
 -1      3462 9.25413E-05-1.90350E-05-3.14852E-05-1.12438E-06 4.00052E-19-6.87172E-20
 -1      3463 5.21247E-05-8.38862E-06-1.84739E-05-4.30072E-06 5.18249E-19-1.27838E-18
 -1      3464 5.79917E-05-9.82897E-06-2.03429E-05-7.21926E-06 6.33882E-19-1.03560E-18
 -1      3465 6.20144E-05-9.84519E-06-2.22530E-05-3.17406E-06 6.35175E-19-7.47983E-19
 -1      3466 5.17733E-05-8.71957E-06-1.82348E-05 6.38702E-06 9.06550E-19-1.60968E-18
 -1      3467 7.01728E-05-1.21756E-05-2.49084E-05 2.89243E-06-1.26190E-18-7.87717E-19
 -1      3468 6.61232E-05-1.09118E-05-2.35813E-05 2.84813E-06-1.26193E-18-1.01864E-18
 -1      3469 5.96561E-05-9.23426E-06-2.14629E-05 1.05287E-07-1.72124E-18-1.31493E-18
 -1      3470 7.13895E-05-1.29529E-05-2.49361E-05-9.89164E-07-8.65721E-19-2.01030E-18
 -1      3471 9.48748E-05-2.37748E-05-3.04815E-05 1.41330E-06 3.77277E-19 3.59326E-19
 -1      3472 8.97638E-05-2.25612E-05-2.88262E-05-3.91319E-06 3.50910E-19 3.33684E-19
 -1      3473 9.08643E-05-2.32841E-05-2.89771E-05-3.60882E-06 2.84752E-19 2.30040E-19
 -1      3474 9.54777E-05-2.50348E-05-3.01841E-05-2.77538E-07 1.38337E-19-3.98049E-19
 -1      3475 9.56829E-05-2.58048E-05-2.99551E-05 4.68783E-07 1.21219E-19-3.42956E-19
 -1      3476 7.73323E-05-2.69973E-05-2.12104E-05-2.97200E-05-3.38886E-19-9.16966E-19
 -1      3477 9.00459E-05-3.57982E-05-2.33420E-05-2.96375E-05 6.69656E-19-2.27190E-19
 -1      3478 1.20338E-04-2.89731E-05-3.90821E-05 1.29252E-05 9.35495E-19 1.43096E-19
 -1      3479 1.14602E-04-2.06981E-05-4.05823E-05 1.14155E-05 1.96856E-19 7.48433E-20
 -1      3480 9.52174E-05-2.84995E-05-2.85934E-05-2.29645E-08 8.99834E-19-5.37157E-19
 -1      3481 9.52126E-05-2.84930E-05-2.85944E-05-2.09972E-08 6.92656E-19-1.66027E-18
 -1      3482 1.26885E-04-4.28040E-05-3.63674E-05-7.13598E-06-1.20836E-18 1.46468E-18
 -1      3483 1.28176E-04-4.93966E-05-3.37108E-05 4.76656E-07-8.38960E-19 1.76862E-18
 -1      3484 9.18847E-05-2.38989E-05-2.91535E-05-3.46846E-06 2.27068E-19 1.32047E-19
 -1      3485 9.26258E-05-2.43360E-05-2.92752E-05-3.05890E-06 1.86528E-19-5.52120E-20
 -1      3486 9.10443E-05-2.32883E-05-2.90091E-05-2.56162E-06 1.45092E-19 4.04983E-20
 -1      3487 9.45180E-05-2.73535E-05-2.87896E-05 1.09763E-06-4.56612E-20 1.54710E-18
 -1      3488 9.43812E-05-2.71540E-05-2.88120E-05 1.27245E-06 7.10702E-20 1.76963E-18
 -1      3489 9.40132E-05-2.68355E-05-2.87835E-05 1.17605E-06-1.95861E-19 4.09840E-19
 -1      3490 9.44188E-05-2.72982E-05-2.87614E-05 9.30932E-07 5.21803E-19 8.96726E-19
 -1      3491 9.44860E-05-2.30915E-05-3.06011E-05 1.18867E-06 5.16105E-19 3.28780E-19
 -1      3492 1.18487E-04-2.67030E-05-3.97157E-05-1.24449E-05-6.04861E-19 7.76187E-19
 -1      3493 1.23663E-04-3.42943E-05-3.81913E-05-1.18820E-05-1.05617E-18 1.44199E-18
 -1      3494 9.33085E-05-2.46569E-05-2.94347E-05-2.76823E-06 2.86143E-19-9.23234E-20
 -1      3495 9.37830E-05-2.48089E-05-2.95633E-05-2.24865E-06 2.38453E-19-2.63190E-19
 -1      3496 9.37441E-05-2.43927E-05-2.97081E-05-1.56428E-06 2.43476E-19-1.70704E-19
 -1      3497 9.26972E-05-2.41412E-05-2.93613E-05-2.23043E-06 1.58026E-19 1.33619E-20
 -1      3498 8.96539E-05-2.28069E-05-2.86690E-05 2.93985E-06 4.61011E-19-1.24991E-18
 -1      3499 8.85165E-05-2.19159E-05-2.85697E-05 3.20888E-06 8.87892E-19-8.41858E-19
 -1      3500 1.25020E-04-5.32525E-05-3.09497E-05 1.11501E-05-5.65249E-19 1.92045E-18
 -1      3501 1.20449E-04-5.40590E-05-2.80975E-05 2.13996E-05-3.18776E-19 2.40131E-18
 -1      3502 9.52074E-05-2.84819E-05-2.85969E-05 1.86072E-08-4.89533E-19-4.01427E-18
 -1      3503 9.52121E-05-2.84867E-05-2.85966E-05 2.20706E-08 4.89377E-19-4.52942E-18
 -1      3504 1.27152E-04-4.33561E-05-3.57941E-05 6.44870E-06 1.11554E-18-1.95241E-19
 -1      3505 1.24021E-04-3.71391E-05-3.76447E-05 1.03025E-05 1.10550E-18-3.51677E-19
 -1      3506 9.47636E-05-2.30823E-05-3.07237E-05-1.83939E-06 2.23388E-19-3.02429E-19
 -1      3507 9.51191E-05-2.41411E-05-3.04265E-05-8.85188E-07 1.35427E-19-2.74639E-19
 -1      3508 9.50585E-05-2.40422E-05-3.04316E-05-4.68820E-07 1.13012E-19-1.21750E-19
 -1      3509 9.41530E-05-2.19026E-05-3.09596E-05-1.77182E-06 1.80887E-19-1.28769E-20
 -1      3510 8.67166E-05-2.06408E-05-2.83553E-05-4.04495E-06 4.75391E-19 5.19230E-19
 -1      3511 8.83145E-05-2.16550E-05-2.85897E-05-3.86985E-06 4.80468E-19 4.85680E-19
 -1      3512 8.86503E-05-2.18669E-05-2.85784E-05-2.49184E-06 3.20372E-19 4.25400E-19
 -1      3513 6.02833E-05-1.45774E-05-1.93966E-05-2.01655E-05-1.33676E-18-9.46665E-19
 -1      3514 6.76672E-05-2.07756E-05-2.01531E-05-2.67592E-05-9.71772E-19-7.85729E-19
 -1      3515 6.42697E-05-1.39922E-05-2.13307E-05-1.49402E-05-1.21617E-18-1.29628E-18
 -1      3516 9.06620E-05-3.71649E-05-2.30906E-05 3.08913E-05 9.79144E-19 1.57278E-18
 -1      3517 7.86769E-05-2.84651E-05-2.13171E-05 2.93536E-05 1.22539E-18 6.10075E-19
 -1      3518 9.31381E-05-2.01075E-05-3.12776E-05 2.15628E-06 6.78953E-19 2.05678E-19
 -1      3519 1.23782E-04-5.11470E-05-3.10445E-05-8.26834E-06 2.81349E-18 9.34304E-19
 -1      3520 1.26958E-04-4.89569E-05-3.37561E-05-2.34230E-07 2.21059E-18 6.45373E-19
 -1      3521 1.23678E-04-4.50294E-05-3.37147E-05 3.33418E-06 1.40165E-18 1.01922E-18
 -1      3522 1.09991E-04-4.86766E-05-2.61520E-05 2.52716E-05 3.17161E-19 2.24571E-18
 -1      3523 9.59201E-05-2.64976E-05-2.97430E-05 1.05758E-06 4.28536E-20-1.22259E-19
 -1      3524 9.60714E-05-2.70820E-05-2.95711E-05 1.60063E-06 5.01773E-20-1.77836E-19
 -1      3525 9.60581E-05-2.70420E-05-2.95835E-05 1.83917E-06 1.50908E-19 2.70580E-20
 -1      3526 6.33061E-05-1.07643E-05-2.25429E-05-4.87055E-06-1.20198E-18-1.69224E-18
 -1      3527 9.42502E-05-2.41396E-05-3.00382E-05-7.60715E-07 4.39459E-19-1.92205E-19
 -1      3528 9.45644E-05-2.44878E-05-3.00433E-05-7.66510E-07 4.23996E-19-2.01878E-19
 -1      3529 9.46727E-05-2.42629E-05-3.01835E-05-1.51893E-07 4.13813E-19 5.41595E-20
 -1      3530 9.07090E-05-2.36213E-05-2.87672E-05 2.87550E-06-2.04800E-19-1.38510E-18
 -1      3531 8.95832E-05-2.28757E-05-2.85549E-05 1.96240E-06 4.74984E-19-9.31955E-19
 -1      3532 9.14631E-05-2.42936E-05-2.88022E-05 2.58927E-06-9.29273E-19-1.38379E-18
 -1      3533 9.52256E-05-2.85034E-05-2.85950E-05-3.89025E-08-2.01562E-19 1.30036E-18
 -1      3534 9.52283E-05-2.85153E-05-2.85914E-05-2.72871E-08 9.45453E-19 3.14271E-18
 -1      3535 9.52257E-05-2.85116E-05-2.85919E-05-2.63457E-08 5.38802E-19 1.92423E-18
 -1      3536 9.52147E-05-2.84836E-05-2.85990E-05-4.60721E-08 1.12585E-18 8.85169E-20
 -1      3537 9.52107E-05-2.84940E-05-2.85926E-05-8.05081E-10-1.88108E-19-1.05004E-18
 -1      3538 7.45387E-05-1.46296E-05-2.55433E-05 1.03962E-06 4.92598E-19 2.76832E-19
 -1      3539 7.67560E-05-1.53201E-05-2.63916E-05-3.25485E-06 1.91413E-19 2.99833E-19
 -1      3540 7.98166E-05-1.67831E-05-2.70613E-05-3.41719E-06 3.05129E-19 6.08897E-19
 -1      3541 8.25724E-05-1.82373E-05-2.76195E-05-3.76813E-06 3.10113E-19 5.81136E-19
 -1      3542 8.47632E-05-1.94936E-05-2.80044E-05-3.76930E-06 4.20969E-19 5.76153E-19
 -1      3543 8.53487E-05-1.99335E-05-2.79730E-05-1.90306E-06 4.13132E-19 5.31601E-19
 -1      3544 1.13244E-04-4.71550E-05-2.83366E-05-1.53434E-05 1.56677E-18 1.50494E-18
 -1      3545 1.19589E-04-5.05416E-05-2.96394E-05-1.23249E-05 2.22232E-18 1.20146E-18
 -1      3546 1.19409E-04-4.80548E-05-3.05164E-05-6.44317E-06 1.66954E-18 1.60340E-18
 -1      3547 8.08867E-05-1.70946E-05-2.73953E-05 3.14527E-06-4.55896E-19-1.35816E-19
 -1      3548 7.88499E-05-1.63303E-05-2.67232E-05-2.88579E-07-8.74161E-19-1.22873E-18
 -1      3549 8.32864E-05-1.84630E-05-2.78150E-05 3.05956E-06-4.43844E-19-7.66437E-20
 -1      3550 1.10318E-04-1.92112E-05-3.91801E-05 8.75105E-06-1.58144E-19 3.28728E-19
 -1      3551 1.22031E-04-3.88707E-05-3.57849E-05-8.62329E-06-8.82062E-19 1.51452E-18
 -1      3552 9.43960E-05-2.32294E-05-3.04894E-05 5.56208E-07 4.58251E-19 2.46977E-19
 -1      3553 9.38103E-05-2.16998E-05-3.09276E-05 1.68125E-06 5.91196E-19 1.91050E-19
 -1      3554 9.31702E-05-2.05266E-05-3.11294E-05 1.53446E-06 6.12160E-19 7.98935E-20
 -1      3555 9.41180E-05-2.30018E-05-3.04844E-05 3.71479E-07 5.76756E-19 1.47499E-19
 -1      3556 1.07988E-04-1.41088E-05-4.03917E-05-2.01072E-06-6.06687E-19-1.71316E-19
 -1      3557 9.25677E-05-2.53873E-05-2.87758E-05 1.69604E-06-9.96116E-19-1.22234E-18
 -1      3558 9.27131E-05-2.54271E-05-2.88485E-05 2.18380E-06-5.15140E-19-1.89793E-18
 -1      3559 9.22130E-05-2.49242E-05-2.88466E-05 2.45877E-06-7.20906E-19-2.10069E-18
 -1      3560 9.21321E-05-1.84602E-05-3.15554E-05-1.99324E-07 4.39768E-19 1.09714E-19
 -1      3561 5.88013E-05-1.14862E-05-2.00272E-05 1.01749E-05 1.14179E-18-8.80597E-19
 -1      3562 1.18786E-04-3.26010E-05-3.69215E-05 1.13766E-05 1.07347E-18 6.32839E-19
 -1      3563 9.52069E-05-2.84847E-05-2.85953E-05-1.64193E-08 7.94439E-19-1.66373E-18
 -1      3564 9.52035E-05-2.84803E-05-2.85959E-05-1.19641E-08 4.29786E-19 2.65301E-19
 -1      3565 9.52028E-05-2.84719E-05-2.85987E-05-2.52151E-08 7.83307E-19-1.27927E-18
 -1      3566 9.52012E-05-2.84751E-05-2.85971E-05 7.47478E-09-9.79748E-19-1.86135E-18
 -1      3567 9.52035E-05-2.84773E-05-2.85971E-05 1.22125E-08-1.92132E-19-3.59462E-18
 -1      3568 9.51970E-05-2.84599E-05-2.86013E-05 1.95013E-08 6.68811E-19-3.63005E-18
 -1      3569 7.62520E-05-2.37780E-05-2.23024E-05-2.43712E-05-4.45923E-19-1.86077E-18
 -1      3570 7.40869E-05-2.38060E-05-2.13794E-05 2.60507E-05 1.39800E-18-2.89659E-19
 -1      3571 6.99058E-05-1.88512E-05-2.18025E-05 2.00548E-05 1.17302E-18-5.03389E-19
 -1      3572 8.18408E-05-2.69209E-05-2.34542E-05 2.30881E-05 9.29354E-19 2.20030E-19
 -1      3573 6.06318E-05-1.07099E-05-2.13735E-05 5.15188E-06 9.54024E-19-7.12593E-19
 -1      3574 6.55943E-05-1.15974E-05-2.30501E-05 1.26967E-06 7.22595E-19-4.25263E-19
 -1      3575 6.78786E-05-1.29013E-05-2.34953E-05 5.78948E-06 8.01844E-19-4.15589E-19
 -1      3576 6.36275E-05-1.41136E-05-2.11633E-05 1.45818E-05 1.25086E-18-3.20417E-19
 -1      3577 9.56460E-05-2.57194E-05-2.99707E-05 7.60251E-07 9.45489E-20-1.00995E-19
 -1      3578 9.14701E-05-3.40488E-05-2.46356E-05-2.47249E-05 5.32234E-19-8.43195E-20
 -1      3579 9.83986E-05-3.98782E-05-2.48616E-05-2.67374E-05 8.26612E-19 4.59631E-19
 -1      3580 1.04430E-04-4.24710E-05-2.65634E-05-2.11920E-05 9.65473E-19 1.02483E-18
 -1      3581 8.70317E-05-2.08743E-05-2.83785E-05 3.14284E-06 3.95171E-19-3.35071E-19
 -1      3582 8.53616E-05-1.97479E-05-2.81628E-05 3.34943E-06 2.54532E-20-1.47856E-19
 -1      3583 8.36905E-05-1.89180E-05-2.76980E-05 1.09090E-06-5.35442E-19-2.85017E-19
 -1      3584 8.71260E-05-2.10928E-05-2.82517E-05 1.76449E-06 8.62131E-19 3.66722E-19
 -1      3585 1.22333E-04-4.68606E-05-3.23611E-05-3.01163E-07-4.45199E-19 1.83638E-18
 -1      3586 1.25531E-04-5.12805E-05-3.18433E-05 5.27959E-06-5.27463E-19 1.77476E-18
 -1      3587 1.19458E-04-4.96096E-05-2.99772E-05 9.53288E-06-9.87951E-20 1.80779E-18
 -1      3588 9.25632E-05-1.95817E-05-3.12927E-05 8.47875E-07 5.64750E-19 2.29138E-19
 -1      3589 9.25433E-05-1.95219E-05-3.13035E-05 4.65181E-07 4.71230E-19 1.49949E-19
 -1      3590 1.14104E-04-2.32473E-05-3.90659E-05-1.09977E-05-2.76900E-19 2.19395E-19
 -1      3591 9.28216E-05-2.00229E-05-3.12235E-05 1.38212E-06 6.07929E-19 1.02922E-19
 -1      3592 9.26430E-05-1.97081E-05-3.12661E-05 1.06233E-06 6.72971E-19 1.30189E-19
 -1      3593 9.31367E-05-2.07082E-05-3.10153E-05 8.00254E-07 5.01334E-19 1.70067E-19
 -1      3594 9.52114E-05-2.84758E-05-2.86007E-05 3.45094E-08 5.92536E-19-4.02988E-18
 -1      3595 9.38052E-05-2.13499E-05-3.10620E-05-1.50037E-06 2.43106E-19 5.11131E-20
 -1      3596 9.43467E-05-2.25060E-05-3.07829E-05-8.68917E-07 1.76622E-19 9.64119E-20
 -1      3597 9.34445E-05-2.07607E-05-3.11518E-05-1.13171E-06 3.23958E-19-4.40962E-20
 -1      3598 1.13434E-04-4.82114E-05-2.80992E-05 1.74595E-05-8.67282E-20 2.00004E-18
 -1      3599 1.03714E-04-4.39075E-05-2.53374E-05 2.60028E-05 4.41986E-19 2.01953E-18
 -1      3600 9.81152E-05-3.88741E-05-2.53704E-05 2.38231E-05 4.37095E-19 1.44296E-18
 -1      3601 9.52232E-05-2.85085E-05-2.85922E-05-2.49730E-08 4.63351E-19 8.87825E-19
 -1      3602 9.52145E-05-2.84891E-05-2.85965E-05-3.28433E-08 1.17068E-18 1.06692E-19
 -1      3603 9.52014E-05-2.84763E-05-2.85965E-05-5.06916E-09 1.41808E-19 1.26972E-18
 -1      3604 9.52006E-05-2.84750E-05-2.85969E-05-2.09729E-10-1.02867E-18-7.53238E-19
 -1      3605 9.51912E-05-2.84547E-05-2.86012E-05 3.93339E-09-7.67025E-19-1.08484E-18
 -1      3606 9.51934E-05-2.84588E-05-2.86003E-05-1.25051E-08-2.63561E-19 1.05170E-18
 -1      3607 9.66260E-05-2.86892E-05-2.91070E-05 3.32613E-06 3.73540E-19 2.91481E-19
 -1      3608 9.69664E-05-2.92879E-05-2.89987E-05 3.61944E-06 3.58778E-19 2.25141E-19
 -1      3609 9.73577E-05-2.99280E-05-2.88853E-05 3.97810E-06 2.22950E-19 2.01118E-19
 -1      3610 9.78912E-05-3.06528E-05-2.88090E-05 4.16299E-06 1.82298E-19 1.26040E-19
 -1      3611 9.68421E-05-2.93596E-05-2.89388E-05 4.06620E-06 2.69190E-19 1.70759E-20
 -1      3612 9.85503E-05-3.14659E-05-2.87299E-05 4.44308E-06 2.09852E-19 2.11895E-19
 -1      3613 9.93434E-05-3.23760E-05-2.86946E-05 4.47002E-06-4.09285E-20 1.27364E-19
 -1      3614 9.78617E-05-3.08816E-05-2.87332E-05 4.81756E-06 1.43779E-19 3.58764E-19
 -1      3615 1.00377E-04-3.34153E-05-2.86669E-05 4.58339E-06-1.93375E-19 4.03620E-19
 -1      3616 1.01461E-04-3.45122E-05-2.86930E-05 4.36171E-06-2.43012E-19 2.47770E-19
 -1      3617 9.95220E-05-3.28511E-05-2.86109E-05 5.37181E-06 9.82112E-21 1.91960E-19
 -1      3618 1.02944E-04-3.57574E-05-2.87504E-05 4.15356E-06-3.99925E-20 2.42475E-19
 -1      3619 1.04276E-04-3.69379E-05-2.88723E-05 3.55698E-06 1.38808E-19 4.47888E-19
 -1      3620 1.02012E-04-3.53352E-05-2.86233E-05 5.49160E-06-9.42614E-21 7.10647E-19
 -1      3621 1.06183E-04-3.82321E-05-2.90695E-05 2.79907E-06-1.65029E-20 7.68447E-19
 -1      3622 1.07580E-04-3.91921E-05-2.93357E-05 1.69695E-06-2.90507E-19 9.75335E-19
 -1      3623 1.05399E-04-3.81942E-05-2.88635E-05 4.76674E-06 1.92432E-19 1.06419E-18
 -1      3624 1.09693E-04-4.01722E-05-2.97456E-05 1.90236E-07-4.01343E-19 1.21953E-18
 -1      3625 1.10815E-04-4.04154E-05-3.02093E-05-1.46513E-06-2.71825E-19 1.12461E-18
 -1      3626 1.09488E-04-4.07263E-05-2.94834E-05 2.64727E-06-2.53704E-19 1.31581E-18
 -1      3627 1.12491E-04-4.03134E-05-3.09161E-05-3.71114E-06-2.78598E-19 1.31502E-18
 -1      3628 1.12863E-04-3.92278E-05-3.16207E-05-5.56869E-06-5.77868E-20 1.52972E-18
 -1      3629 1.13415E-04-4.19392E-05-3.06062E-05-1.08625E-06-1.23923E-19 1.17254E-18
 -1      3630 1.13337E-04-3.12863E-05-3.52469E-05-1.12029E-05-3.08454E-19 8.48780E-19
 -1      3631 1.11299E-04-2.67037E-05-3.62522E-05-1.10354E-05-3.68631E-19 5.89694E-19
 -1      3632 1.07435E-04-2.01521E-05-3.75686E-05-8.83521E-06 1.70432E-20 3.59503E-19
 -1      3633 1.05873E-04-1.69303E-05-3.81948E-05-6.28686E-06-2.92570E-19 6.70440E-19
 -1      3634 1.04252E-04-1.55375E-05-3.80562E-05-6.65846E-07-5.95861E-19 8.95757E-19
 -1      3635 1.04410E-04-1.58810E-05-3.80014E-05 3.40563E-06-5.88820E-19 6.62545E-19
 -1      3636 1.05415E-04-1.79528E-05-3.76042E-05 6.77391E-06-6.00904E-19 7.20878E-19
 -1      3637 1.08914E-04-2.32356E-05-3.67390E-05 1.06299E-05 5.42895E-20 9.60147E-19
 -1      3638 1.10656E-04-2.75041E-05-3.58598E-05 1.13648E-05 9.63930E-20 1.65603E-18
 -1      3639 1.12773E-04-3.80364E-05-3.20377E-05 6.95083E-06 1.22598E-19 2.76102E-18
 -1      3640 1.12614E-04-3.94962E-05-3.13275E-05 5.27058E-06 1.30292E-18 2.44514E-18
 -1      3641 1.11042E-04-3.98693E-05-3.05345E-05 2.88009E-06 1.32383E-18 2.54434E-18
 -1      3642 1.10012E-04-3.98709E-05-3.00084E-05 1.26180E-06 1.01618E-18 1.93025E-18
 -1      3643 1.13700E-04-4.15092E-05-3.10112E-05 2.49677E-06 1.42088E-18 2.92623E-18
 -1      3644 1.07896E-04-3.90927E-05-2.95175E-05-4.83730E-07-5.12951E-20 1.59970E-18
 -1      3645 1.06460E-04-3.82083E-05-2.91953E-05-1.64328E-06-2.84756E-19 1.94169E-18
 -1      3646 1.09955E-04-4.08043E-05-2.96843E-05-1.56763E-06 3.99227E-19 1.49469E-18
 -1      3647 1.04424E-04-3.69492E-05-2.89313E-05-2.54873E-06 1.55270E-20 1.41426E-18
 -1      3648 1.02974E-04-3.57689E-05-2.87577E-05-3.22330E-06 7.06106E-19 1.20227E-18
 -1      3649 1.05671E-04-3.82811E-05-2.89294E-05-3.89385E-06-1.17777E-19 8.36157E-19
 -1      3650 1.01308E-04-3.44803E-05-2.86417E-05-3.50719E-06 1.44193E-18 5.27402E-19
 -1      3651 1.00075E-04-3.33503E-05-2.85654E-05-3.78931E-06 1.06177E-18 8.37660E-19
 -1      3652 1.01907E-04-3.53424E-05-2.85632E-05-4.82788E-06 8.39506E-19 4.71374E-19
 -1      3653 9.88640E-05-3.22727E-05-2.85333E-05-3.70315E-06 4.06526E-20 8.73467E-19
 -1      3654 9.79254E-05-3.13532E-05-2.85120E-05-3.73200E-06 5.00674E-20 2.78629E-19
 -1      3655 9.90241E-05-3.27412E-05-2.84326E-05-4.80396E-06 3.91057E-19-8.12515E-20
 -1      3656 9.71149E-05-3.05473E-05-2.85209E-05-3.46973E-06 1.41795E-19 6.83722E-19
 -1      3657 9.64588E-05-2.98731E-05-2.85263E-05-3.35685E-06 3.16785E-19 5.53105E-19
 -1      3658 9.70200E-05-3.07365E-05-2.84237E-05-4.31042E-06-3.97529E-20 9.49942E-20
 -1      3659 9.59614E-05-2.93232E-05-2.85512E-05-3.03518E-06 3.80924E-19 9.95747E-19
 -1      3660 9.55369E-05-2.88712E-05-2.85663E-05-2.85666E-06 4.21531E-19 1.74650E-18
 -1      3661 9.57351E-05-2.93317E-05-2.84683E-05-3.63498E-06 7.81685E-19 1.08407E-18
 -1      3662 9.52644E-05-2.85307E-05-2.85932E-05-2.53969E-06 1.52520E-19 1.22456E-18
 -1      3663 9.50132E-05-2.82566E-05-2.86087E-05-2.34225E-06-3.65881E-19 8.67530E-19
 -1      3664 9.49872E-05-2.84336E-05-2.85279E-05-2.94415E-06 2.93891E-19 7.50137E-19
 -1      3665 9.48908E-05-2.80717E-05-2.86312E-05-2.06041E-06-3.35831E-19 1.39235E-18
 -1      3666 9.47595E-05-2.79276E-05-2.86429E-05-1.86991E-06 7.17648E-19 4.76566E-19
 -1      3667 9.46105E-05-2.79221E-05-2.85827E-05-2.31923E-06-1.50772E-19 9.19366E-19
 -1      3668 9.47302E-05-2.78500E-05-2.86587E-05-1.63313E-06 8.00832E-19-8.38973E-20
 -1      3669 9.46764E-05-2.77940E-05-2.86654E-05-1.46213E-06 8.27536E-20 1.64945E-19
 -1      3670 9.44725E-05-2.76818E-05-2.86247E-05-1.79031E-06-1.46640E-19 4.14177E-19
 -1      3671 9.46997E-05-2.77850E-05-2.86746E-05-1.27021E-06-5.84390E-19-1.93382E-19
 -1      3672 9.46921E-05-2.77843E-05-2.86766E-05-1.12337E-06-1.00843E-18 5.74394E-20
 -1      3673 9.44763E-05-2.76190E-05-2.86524E-05-1.36032E-06-4.78037E-19-4.17490E-19
 -1      3674 9.47411E-05-2.78152E-05-2.86803E-05-9.71402E-07-1.14247E-18 5.00113E-20
 -1      3675 9.47582E-05-2.78460E-05-2.86785E-05-8.49219E-07-2.06093E-18 1.29345E-20
 -1      3676 9.45553E-05-2.76629E-05-2.86670E-05-1.01961E-06-1.51697E-18-1.38402E-18
 -1      3677 9.48157E-05-2.78966E-05-2.86781E-05-7.31147E-07-2.30009E-18 7.48469E-20
 -1      3678 9.48435E-05-2.79421E-05-2.86737E-05-6.31744E-07-9.01277E-19 7.68171E-19
 -1      3679 9.46663E-05-2.77637E-05-2.86713E-05-7.54677E-07-2.01318E-18-4.24132E-20
 -1      3680 9.48997E-05-2.79995E-05-2.86705E-05-5.40968E-07 6.68587E-20 1.24532E-18
 -1      3681 9.49300E-05-2.80493E-05-2.86646E-05-4.61624E-07 2.70613E-19 1.64746E-18
 -1      3682 9.47828E-05-2.78874E-05-2.86683E-05-5.51140E-07-2.76196E-19 1.51676E-18
 -1      3683 9.49798E-05-2.81055E-05-2.86597E-05-3.92712E-07 6.15350E-19 1.89678E-18
 -1      3684 9.50080E-05-2.81534E-05-2.86531E-05-3.30449E-07 1.64661E-18 1.42239E-18
 -1      3685 9.48907E-05-2.80138E-05-2.86606E-05-3.96281E-07 7.34850E-19 2.41222E-18
 -1      3686 9.50493E-05-2.82042E-05-2.86474E-05-2.78697E-07 2.01135E-18 9.42897E-19
 -1      3687 9.50732E-05-2.82469E-05-2.86408E-05-2.30614E-07 2.65238E-18 8.65109E-19
 -1      3688 9.49831E-05-2.81310E-05-2.86501E-05-2.79648E-07 1.68378E-18 2.07014E-18
 -1      3689 9.51058E-05-2.82903E-05-2.86348E-05-1.92143E-07 2.26038E-18 9.62662E-20
 -1      3690 9.51248E-05-2.83266E-05-2.86286E-05-1.55616E-07 1.90842E-18-5.89039E-19
 -1      3691 9.50579E-05-2.82332E-05-2.86385E-05-1.92576E-07 1.77349E-18 1.71249E-18
 -1      3692 9.51495E-05-2.83624E-05-2.86228E-05-1.27423E-07 1.54875E-18-3.42338E-19
 -1      3693 9.51638E-05-2.83920E-05-2.86170E-05-1.00320E-07 7.40524E-20 7.92935E-19
 -1      3694 9.51157E-05-2.83186E-05-2.86268E-05-1.28149E-07 1.60926E-18 1.96231E-20
 -1      3695 9.51814E-05-2.84204E-05-2.86117E-05-8.00130E-08-5.49605E-19 1.97788E-18
 -1      3696 9.51918E-05-2.84441E-05-2.86065E-05-5.99540E-08 4.24805E-19 6.11504E-19
 -1      3697 9.51585E-05-2.83876E-05-2.86157E-05-8.15288E-08 6.10847E-19 6.50393E-19
 -1      3698 9.52078E-05-2.84742E-05-2.86002E-05-4.33177E-08 1.22759E-18 1.55214E-19
 -1      3699 8.79050E-05-2.17771E-05-2.83815E-05-9.48924E-07 2.90901E-19 5.52778E-19
 -1      3700 8.93416E-05-2.25294E-05-2.86381E-05-1.20206E-06 2.38669E-19 1.99441E-19
 -1      3701 9.48382E-05-2.78896E-05-2.86943E-05 4.32739E-07-7.98476E-20-7.14768E-19
 -1      3702 9.47603E-05-2.77784E-05-2.87068E-05 5.08557E-07 4.24511E-19 3.42980E-19
 -1      3703 9.46391E-05-2.76411E-05-2.87161E-05 5.68500E-07 7.15807E-19 4.06651E-19
 -1      3704 9.45241E-05-2.74925E-05-2.87288E-05 6.59450E-07 8.90823E-19 3.82812E-19
 -1      3705 9.46129E-05-2.76338E-05-2.87023E-05 4.54013E-07 4.04925E-19-2.26745E-19
 -1      3706 9.50664E-05-2.82086E-05-2.86545E-05 2.32493E-07-6.08733E-19-1.57540E-18
 -1      3707 9.50307E-05-2.81458E-05-2.86647E-05 2.81393E-07-5.84845E-19-1.68046E-18
 -1      3708 9.51317E-05-2.83135E-05-2.86372E-05 1.60224E-07 5.66269E-19-7.95382E-19
 -1      3709 9.51082E-05-2.82669E-05-2.86460E-05 1.97861E-07-6.31452E-20-4.10413E-19
 -1      3710 9.50530E-05-2.82013E-05-2.86498E-05 1.92262E-07-1.08459E-18 3.00323E-19
 -1      3711 9.51749E-05-2.83907E-05-2.86223E-05 1.05685E-07-1.51100E-18-3.34169E-19
 -1      3712 9.51601E-05-2.83567E-05-2.86297E-05 1.33368E-07-4.73239E-19-5.08990E-19
 -1      3713 9.51220E-05-2.83081E-05-2.86340E-05 1.33255E-07-2.01849E-19 8.56728E-19
 -1      3714 9.04374E-05-2.31196E-05-2.88796E-05-1.53547E-06 1.32593E-19 1.67969E-19
 -1      3715 9.14514E-05-2.36189E-05-2.90744E-05-1.52742E-06 2.93994E-20 2.29793E-20
 -1      3716 9.00166E-05-2.29544E-05-2.87114E-05-1.59344E-07 1.23027E-19 9.20838E-20
 -1      3717 6.82946E-05-1.27826E-05-2.37090E-05-5.92217E-06-3.86019E-19-2.11805E-18
 -1      3718 6.57723E-05-1.26744E-05-2.26347E-05-9.60018E-06-9.05692E-19-1.97228E-18
 -1      3719 9.33641E-05-2.62935E-05-2.87497E-05 1.05042E-06-1.74830E-18-6.80640E-19
 -1      3720 9.30033E-05-2.59444E-05-2.87466E-05 1.15875E-06-1.63781E-18-1.27420E-18
 -1      3721 1.19288E-04-4.45413E-05-3.19497E-05 1.64110E-06 1.32520E-18 1.92806E-18
 -1      3722 1.18583E-04-4.06307E-05-3.35278E-05 6.81024E-06 7.79138E-19 2.07857E-18
 -1      3723 9.26248E-05-1.96219E-05-3.12988E-05 1.96391E-07 3.76339E-19 1.61206E-19
 -1      3724 9.27654E-05-1.98041E-05-3.12789E-05-2.20324E-07 2.93158E-19 5.99688E-20
 -1      3725 9.31574E-05-2.06924E-05-3.10368E-05 4.07262E-07 2.12585E-19 2.17149E-19
 -1      3726 1.17733E-04-3.61387E-05-3.50444E-05-9.81596E-06-5.62834E-19 1.38471E-18
 -1      3727 1.21241E-04-4.28201E-05-3.35190E-05-5.89709E-06-1.91363E-19 1.78173E-18
 -1      3728 1.19006E-04-4.44031E-05-3.19960E-05-1.82373E-06-8.76249E-20 1.90320E-18
 -1      3729 1.12984E-04-3.55512E-05-3.32273E-05-8.78932E-06-5.22067E-20 1.40509E-18
 -1      3730 9.51920E-05-2.84466E-05-2.86053E-05 3.43748E-08 1.69960E-18-3.39036E-18
 -1      3731 9.52024E-05-2.84582E-05-2.86049E-05 4.36890E-08 1.82391E-18-3.63905E-18
 -1      3732 9.51972E-05-2.84415E-05-2.86091E-05 5.66469E-08 1.25188E-18-3.05466E-18
 -1      3733 7.39091E-05-1.99544E-05-2.29391E-05-1.96710E-05-2.45115E-19-2.67428E-18
 -1      3734 8.12652E-05-2.60006E-05-2.37775E-05-2.25025E-05 1.27624E-19-1.92427E-18
 -1      3735 9.57958E-05-2.63972E-05-2.97373E-05 1.60038E-06 2.26809E-19 4.72799E-20
 -1      3736 9.59864E-05-2.70098E-05-2.95617E-05 2.08988E-06 2.44925E-19 1.09213E-19
 -1      3737 7.27827E-05-1.46062E-05-2.49906E-05-5.53431E-06-3.12623E-19-2.39935E-18
 -1      3738 9.53374E-05-2.49412E-05-3.01660E-05 4.73711E-07 7.41979E-20 1.82804E-19
 -1      3739 9.55687E-05-2.56991E-05-2.99458E-05 1.09542E-06 1.04313E-19 1.56586E-19
 -1      3740 9.54571E-05-2.56509E-05-2.99174E-05 1.36247E-06 1.35745E-19 9.11751E-20
 -1      3741 9.47059E-05-2.33518E-05-3.05837E-05-4.67372E-07 1.16864E-19 1.92582E-19
 -1      3742 9.50638E-05-2.42758E-05-3.03430E-05 1.31829E-07 1.16702E-19 1.98572E-19
 -1      3743 9.49898E-05-2.42963E-05-3.03066E-05 4.51254E-07 1.09540E-19 4.11217E-19
 -1      3744 9.43699E-05-2.27660E-05-3.06825E-05-2.86157E-07 2.17739E-19 1.96584E-19
 -1      3745 6.87375E-05-1.60161E-05-2.26421E-05-1.56097E-05-4.32165E-19-2.00980E-18
 -1      3746 1.14761E-04-3.34713E-05-3.48316E-05 1.04087E-05 5.38461E-19 1.69317E-18
 -1      3747 9.49718E-05-2.80698E-05-2.86738E-05 3.23518E-07 9.94180E-20-1.98079E-18
 -1      3748 9.49217E-05-2.79904E-05-2.86848E-05 3.82294E-07 5.54316E-19-8.93969E-19
 -1      3749 9.48137E-05-2.78780E-05-2.86847E-05 3.52549E-07 5.70791E-19-6.88410E-19
 -1      3750 9.49538E-05-2.80610E-05-2.86669E-05 2.65375E-07-1.23949E-19-7.24908E-19
 -1      3751 9.29255E-05-2.00276E-05-3.12523E-05-4.63911E-07 3.00445E-19-6.51151E-20
 -1      3752 9.31959E-05-2.04250E-05-3.12011E-05-8.70012E-07 3.70149E-19-7.41504E-20
 -1      3753 9.38131E-05-2.16207E-05-3.09300E-05-4.56397E-07 2.39452E-19 7.85408E-22
 -1      3754 9.34291E-05-2.10303E-05-3.10042E-05-2.76031E-08 1.64843E-19-3.17732E-20
 -1      3755 9.61662E-05-2.75774E-05-2.93889E-05 2.53583E-06 1.97855E-19 8.03366E-20
 -1      3756 9.63912E-05-2.81348E-05-2.92493E-05 2.92307E-06 1.78712E-19 2.22906E-19
 -1      3757 9.58451E-05-2.69554E-05-2.95292E-05 2.33399E-06 2.00738E-19 1.61086E-19
 -1      3758 9.51931E-05-2.84504E-05-2.86040E-05-4.53093E-08 4.76917E-19-2.15819E-19
 -1      3759 9.40045E-05-2.39137E-05-3.00535E-05-5.86410E-07 4.72111E-19 1.46564E-19
 -1      3760 9.41711E-05-2.36562E-05-3.02034E-05-2.04983E-07 5.40677E-19 9.52119E-20
 -1      3761 9.22293E-05-2.39622E-05-2.92786E-05-1.60055E-06 1.36285E-19 1.88693E-19
 -1      3762 9.29081E-05-2.41852E-05-2.94542E-05-1.39065E-06 2.49189E-19 1.89229E-19
 -1      3763 9.18402E-05-2.37359E-05-2.91655E-05-6.90267E-07 1.12095E-19 2.47414E-19
 -1      3764 9.13383E-05-2.42961E-05-2.87092E-05 1.89705E-06-5.84656E-19-1.68691E-18
 -1      3765 1.16152E-04-4.12031E-05-3.21777E-05-5.13276E-06-3.46754E-21 1.39902E-18
 -1      3766 1.13768E-04-3.81566E-05-3.23984E-05-7.58744E-06 3.14064E-20 1.41628E-18
 -1      3767 1.15759E-04-3.71383E-05-3.37641E-05 9.13640E-06 4.39635E-19 2.04766E-18
 -1      3768 8.64834E-05-2.10078E-05-2.80673E-05-2.80067E-07 5.37055E-19 5.57449E-19
 -1      3769 8.75678E-05-2.17877E-05-2.81497E-05 1.02686E-06 3.17948E-19 4.29793E-19
 -1      3770 8.45607E-05-2.00568E-05-2.76999E-05 3.05742E-07 5.00343E-19 4.22229E-19
 -1      3771 7.40323E-05-1.56551E-05-2.50432E-05 5.31996E-06 6.82629E-19-2.46409E-19
 -1      3772 7.73254E-05-1.68176E-05-2.59505E-05 3.53428E-06 7.20484E-19 8.60235E-20
 -1      3773 8.08193E-05-1.74963E-05-2.70484E-05-8.57008E-07 4.41091E-19 4.74942E-19
 -1      3774 1.08523E-04-4.42656E-05-2.74840E-05-1.77053E-05 6.07723E-19 2.13529E-18
 -1      3775 1.10858E-04-4.44392E-05-2.84318E-05-1.28054E-05 1.67620E-19 2.14292E-18
 -1      3776 1.02228E-04-3.98939E-05-2.67987E-05-1.87188E-05 3.59880E-19 2.01032E-18
 -1      3777 9.51852E-05-2.84397E-05-2.86054E-05 2.41179E-08 1.55059E-18-4.66996E-18
 -1      3778 9.51756E-05-2.84187E-05-2.86097E-05 3.20804E-08 2.70440E-18-4.57464E-18
 -1      3779 9.51808E-05-2.84348E-05-2.86055E-05 1.61912E-08 1.05983E-18-4.80179E-18
 -1      3780 9.25484E-05-2.55411E-05-2.87236E-05 1.16758E-06-1.48217E-18-1.48390E-18
 -1      3781 9.20339E-05-2.50898E-05-2.87020E-05 1.24951E-06-1.49246E-18-2.49284E-18
 -1      3782 9.25935E-05-2.56366E-05-2.86831E-05 7.57627E-07-1.90598E-18-2.39558E-18
 -1      3783 9.43262E-05-2.73096E-05-2.87171E-05 5.65320E-07 8.77152E-19-7.09877E-19
 -1      3784 9.43533E-05-2.73105E-05-2.87360E-05 7.24047E-07 8.76953E-19-2.65974E-19
 -1      3785 9.41841E-05-2.71120E-05-2.87473E-05 8.28394E-07 6.03472E-19 3.01174E-19
 -1      3786 9.51896E-05-2.84263E-05-2.86131E-05 7.01246E-08 1.38506E-19-1.65178E-18
 -1      3787 9.51832E-05-2.84069E-05-2.86179E-05 8.73930E-08-5.81886E-19-1.78237E-18
 -1      3788 9.51564E-05-2.83717E-05-2.86221E-05 8.84311E-08 3.51746E-19-2.11657E-19
 -1      3789 9.51733E-05-2.84087E-05-2.86136E-05 5.59957E-08 2.34596E-18-9.07893E-19
 -1      3790 9.35370E-05-2.13888E-05-3.08921E-05 1.02765E-06 5.77606E-19 1.28517E-19
 -1      3791 9.34361E-05-2.16066E-05-3.07973E-05 6.11839E-07 3.60363E-19 3.11201E-19
 -1      3792 9.35424E-05-2.17101E-05-3.07923E-05 4.31531E-07 1.88191E-19 2.51479E-19
 -1      3793 1.18539E-04-4.68161E-05-3.08475E-05-3.64946E-06 1.16929E-18 1.43620E-18
 -1      3794 1.15452E-04-4.31058E-05-3.09623E-05 6.37500E-07 1.08572E-18 2.63173E-18
 -1      3795 1.13673E-04-4.30791E-05-3.01239E-05-1.85249E-06 1.04346E-18 2.29458E-18
 -1      3796 1.14895E-04-4.56052E-05-2.96334E-05-7.07209E-06 7.44861E-19 2.15956E-18
 -1      3797 9.51856E-05-2.84407E-05-2.86050E-05-3.91310E-08-3.32510E-19-9.90563E-19
 -1      3798 9.62406E-05-2.81199E-05-2.92053E-05 3.23032E-06 2.83736E-19 5.66691E-20
 -1      3799 9.36975E-05-2.66083E-05-2.87565E-05 1.00352E-06-9.39158E-19-7.98650E-19
 -1      3800 9.33642E-05-2.63373E-05-2.87169E-05 7.49395E-07-1.54890E-18-1.85228E-18
 -1      3801 9.39448E-05-2.68719E-05-2.87498E-05 8.91201E-07-4.24222E-19 3.82582E-19
 -1      3802 8.85061E-05-3.08084E-05-2.44876E-05 2.33336E-05 8.03318E-19 7.54951E-19
 -1      3803 8.35453E-05-2.66483E-05-2.44801E-05 2.02219E-05 8.16652E-19 1.89279E-19
 -1      3804 7.12199E-05-1.76911E-05-2.28729E-05 1.53946E-05 9.87296E-19-4.33271E-19
 -1      3805 7.16910E-05-1.52206E-05-2.40771E-05 8.52208E-06 9.37263E-19-3.24271E-19
 -1      3806 9.33831E-05-2.15602E-05-3.07875E-05 6.29565E-07 4.03528E-19 2.73078E-19
 -1      3807 9.37410E-05-2.24091E-05-3.05525E-05 6.21644E-07 3.79084E-19 4.46896E-19
 -1      3808 9.34337E-05-2.17063E-05-3.07601E-05 7.71742E-07 4.54890E-19 1.16039E-19
 -1      3809 9.86069E-05-3.76210E-05-2.61564E-05 2.00840E-05 3.20466E-19 1.33930E-18
 -1      3810 8.77508E-05-2.97931E-05-2.46664E-05-2.21822E-05 3.12707E-19-2.86029E-19
 -1      3811 9.39607E-05-3.37886E-05-2.58521E-05-2.01028E-05-4.77490E-20 1.12968E-18
 -1      3812 8.48766E-05-2.63943E-05-2.50984E-05-1.86442E-05-4.21101E-19-1.41166E-18
 -1      3813 8.76227E-05-2.17964E-05-2.82182E-05 5.03782E-07 1.21059E-18-1.23161E-18
 -1      3814 8.61396E-05-2.08904E-05-2.80070E-05 1.95125E-07 5.67938E-19-8.17450E-19
 -1      3815 1.16109E-04-4.64100E-05-2.98582E-05 6.74400E-06-2.19990E-19 1.99523E-18
 -1      3816 1.16227E-04-4.83981E-05-2.89977E-05 1.23132E-05-8.28901E-20 1.62998E-18
 -1      3817 1.10090E-04-4.46656E-05-2.80974E-05 1.44908E-05-6.09500E-20 1.65230E-18
 -1      3818 9.33977E-05-2.42471E-05-2.96530E-05-1.25765E-06 2.89454E-19 2.07641E-19
 -1      3819 9.37959E-05-2.41667E-05-2.98396E-05-8.78197E-07 3.15191E-19 1.56347E-19
 -1      3820 9.30726E-05-2.40190E-05-2.95775E-05-7.15056E-07 2.67612E-19 3.98922E-19
 -1      3821 7.70758E-05-1.65996E-05-2.58916E-05-5.08630E-06-9.24450E-19-2.23679E-18
 -1      3822 7.47595E-05-1.65279E-05-2.48599E-05-9.54847E-06-5.58698E-19-2.28954E-18
 -1      3823 9.37548E-05-2.37365E-05-2.99975E-05-3.59873E-07 3.65523E-19 3.13748E-19
 -1      3824 8.98052E-05-2.33258E-05-2.84990E-05 1.00768E-06 4.42681E-19-1.24528E-18
 -1      3825 8.87541E-05-2.25868E-05-2.83869E-05 9.08588E-07 1.38868E-18-9.79478E-19
 -1      3826 8.81697E-05-2.23358E-05-2.81818E-05-4.90725E-07 1.32572E-18-2.62507E-18
 -1      3827 8.18866E-05-1.86089E-05-2.71117E-05-2.21839E-06-9.86501E-19-1.42668E-18
 -1      3828 7.90460E-05-1.72517E-05-2.65107E-05-3.41673E-06-1.25357E-18-2.15087E-18
 -1      3829 8.07255E-05-1.89746E-05-2.63824E-05-6.89751E-06-1.11434E-18-2.46513E-18
 -1      3830 7.48303E-05-1.85714E-05-2.40379E-05-1.46335E-05 9.99234E-21-2.35029E-18
 -1      3831 7.84906E-05-2.01854E-05-2.50451E-05-1.34432E-05-3.20291E-19-2.55507E-18
 -1      3832 9.61812E-05-2.85558E-05-2.89778E-05 4.01469E-06 3.55463E-19 1.58427E-20
 -1      3833 9.65758E-05-2.92186E-05-2.88533E-05 4.45542E-06 3.46678E-19 1.01514E-19
 -1      3834 1.17596E-04-4.47569E-05-3.11908E-05 4.18663E-08-1.66184E-19 1.75418E-18
 -1      3835 9.69484E-05-2.99191E-05-2.87168E-05 5.04515E-06 2.35122E-19 1.55807E-19
 -1      3836 9.76159E-05-3.07868E-05-2.86243E-05 5.45531E-06 2.21353E-19 2.42730E-19
 -1      3837 9.61197E-05-2.91014E-05-2.87413E-05 5.03227E-06 4.05902E-19 2.65630E-19
 -1      3838 9.83489E-05-3.17561E-05-2.85190E-05 6.05504E-06 1.57634E-19 4.89842E-19
 -1      3839 9.93951E-05-3.29153E-05-2.84755E-05 6.35119E-06 1.23560E-19 5.08064E-19
 -1      3840 9.71784E-05-3.07983E-05-2.84817E-05 6.36670E-06 2.14132E-19 6.47141E-19
 -1      3841 1.00655E-04-3.42331E-05-2.84278E-05 6.84443E-06 1.77980E-19 7.94096E-19
 -1      3842 1.02170E-04-3.57124E-05-2.84683E-05 6.87674E-06 8.61600E-20 1.01970E-18
 -1      3843 9.91088E-05-3.31903E-05-2.83033E-05 7.68168E-06 2.09362E-19 9.59257E-19
 -1      3844 1.04110E-04-3.73854E-05-2.85318E-05 7.05956E-06 2.50868E-19 1.06350E-18
 -1      3845 1.06097E-04-3.90952E-05-2.87116E-05 6.58647E-06 4.01811E-19 1.28645E-18
 -1      3846 1.02214E-04-3.63746E-05-2.82855E-05 8.64420E-06 3.09012E-19 1.38619E-18
 -1      3847 1.09943E-04-4.20847E-05-2.90482E-05 6.56639E-06 2.43257E-20 1.50419E-18
 -1      3848 1.12225E-04-4.35006E-05-2.94869E-05 5.29635E-06-3.82895E-19 1.76228E-18
 -1      3849 1.15653E-04-4.48064E-05-3.03509E-05 2.56346E-06-4.06950E-19 1.89814E-18
 -1      3850 9.38955E-05-2.27770E-05-3.04956E-05 4.37811E-07 5.86521E-19 2.37151E-19
 -1      3851 1.10521E-04-4.16404E-05-2.95206E-05-3.49144E-06-8.13119E-20 2.00359E-18
 -1      3852 1.08350E-04-4.03537E-05-2.90386E-05-4.92032E-06-5.09598E-19 1.43031E-18
 -1      3853 1.11180E-04-4.29593E-05-2.93681E-05-5.95556E-06-8.10075E-20 1.66823E-18
 -1      3854 1.05667E-04-3.85289E-05-2.87554E-05-5.58120E-06-6.29402E-20 9.05906E-19
 -1      3855 1.03547E-04-3.69170E-05-2.85110E-05-6.20596E-06 1.31123E-19 8.08203E-19
 -1      3856 1.05765E-04-3.92997E-05-2.85743E-05-7.64529E-06-3.65840E-19 1.53930E-18
 -1      3857 1.01572E-04-3.52043E-05-2.84166E-05-6.03124E-06 6.21368E-19-8.83677E-21
 -1      3858 9.98791E-05-3.37472E-05-2.83215E-05-6.07549E-06 1.04076E-18-7.39311E-19
 -1      3859 1.01048E-04-3.53165E-05-2.82427E-05-7.60704E-06 2.01177E-19 3.08737E-20
 -1      3860 9.85667E-05-3.24451E-05-2.83190E-05-5.63058E-06 7.86198E-19-4.73104E-19
 -1      3861 9.73582E-05-3.13060E-05-2.83028E-05-5.37504E-06 4.81257E-19-5.28551E-19
 -1      3862 9.79636E-05-3.23071E-05-2.81803E-05-6.72748E-06 8.35710E-19-1.43117E-18
 -1      3863 9.65535E-05-3.03895E-05-2.83404E-05-4.83077E-06 1.67519E-19-3.92608E-19
 -1      3864 9.57502E-05-2.95830E-05-2.83607E-05-4.45558E-06 5.49443E-19 3.42954E-19
 -1      3865 9.59454E-05-3.01183E-05-2.82362E-05-5.54981E-06 6.12566E-19-2.71604E-19
 -1      3866 9.53155E-05-2.90001E-05-2.84094E-05-3.93379E-06 5.39718E-19 2.76999E-19
 -1      3867 9.48255E-05-2.84770E-05-2.84419E-05-3.54370E-06 5.66001E-19 5.63079E-19
 -1      3868 9.47761E-05-2.86895E-05-2.83348E-05-4.36079E-06 2.95427E-19-3.95469E-20
 -1      3869 9.46341E-05-2.81448E-05-2.84872E-05-3.09319E-06 1.45084E-19 8.70129E-20
 -1      3870 9.43683E-05-2.78409E-05-2.85191E-05-2.73904E-06 1.85714E-19-7.99428E-20
 -1      3871 9.41873E-05-2.78466E-05-2.84356E-05-3.32052E-06 4.94323E-21-7.46129E-19
 -1      3872 9.43252E-05-2.76834E-05-2.85553E-05-2.37456E-06-2.02254E-19 3.37107E-19
 -1      3873 9.42080E-05-2.75344E-05-2.85811E-05-2.07534E-06-3.32523E-19 2.95303E-19
 -1      3874 9.39712E-05-2.74235E-05-2.85204E-05-2.47404E-06 1.46915E-20-6.27255E-20
 -1      3875 9.42484E-05-2.74912E-05-2.86069E-05-1.79119E-06-1.92785E-19-5.36361E-19
 -1      3876 9.42228E-05-2.74445E-05-2.86248E-05-1.54903E-06-4.24266E-19-1.00536E-18
 -1      3877 9.39754E-05-2.72752E-05-2.85839E-05-1.81381E-06-5.33085E-19-9.24394E-19
 -1      3878 9.43042E-05-2.74703E-05-2.86412E-05-1.33313E-06-9.08927E-19-1.51711E-18
 -1      3879 9.43299E-05-2.74858E-05-2.86518E-05-1.14268E-06-1.24459E-18-1.68892E-18
 -1      3880 9.40977E-05-2.72965E-05-2.86265E-05-1.31374E-06-1.28851E-18-2.66501E-18
 -1      3881 9.44253E-05-2.75486E-05-2.86604E-05-9.81029E-07-1.16838E-18-8.97510E-19
 -1      3882 9.44758E-05-2.75985E-05-2.86650E-05-8.33738E-07-1.26431E-18-1.72501E-19
 -1      3883 9.42716E-05-2.74116E-05-2.86516E-05-9.42885E-07-9.24371E-19-2.08393E-18
 -1      3884 9.45696E-05-2.76770E-05-2.86679E-05-7.14907E-07-1.82668E-18 9.74209E-19
 -1      3885 9.46276E-05-2.77413E-05-2.86681E-05-6.02606E-07-1.20064E-18 1.07652E-18
 -1      3886 9.44567E-05-2.75709E-05-2.86629E-05-6.70587E-07-8.53668E-19 1.15730E-19
 -1      3887 9.47120E-05-2.78221E-05-2.86670E-05-5.14931E-07-2.75157E-20 1.19446E-18
 -1      3888 9.47684E-05-2.78895E-05-2.86641E-05-4.29926E-07 3.24639E-19 1.45629E-18
 -1      3889 9.46295E-05-2.77403E-05-2.86647E-05-4.73137E-07-1.89658E-19 1.06181E-18
 -1      3890 9.48397E-05-2.79653E-05-2.86606E-05-3.66138E-07 6.49865E-19 1.09535E-18
 -1      3891 9.48895E-05-2.80287E-05-2.86559E-05-3.02386E-07 1.01735E-18 1.26167E-18
 -1      3892 9.47806E-05-2.79032E-05-2.86600E-05-3.29917E-07 6.16636E-19 9.86700E-19
 -1      3893 9.49470E-05-2.80952E-05-2.86510E-05-2.56152E-07 1.62790E-18 1.57755E-18
 -1      3894 9.49882E-05-2.81510E-05-2.86454E-05-2.08680E-07 1.71500E-18 4.81237E-19
 -1      3895 9.49051E-05-2.80485E-05-2.86515E-05-2.27064E-07 1.46172E-18 6.97912E-19
 -1      3896 9.50328E-05-2.82071E-05-2.86398E-05-1.75281E-07 1.36012E-18 1.02117E-18
 -1      3897 9.50651E-05-2.82540E-05-2.86340E-05-1.40232E-07 9.39932E-19-1.71366E-19
 -1      3898 9.50035E-05-2.81723E-05-2.86409E-05-1.53222E-07 1.26228E-18-2.90898E-19
 -1      3899 9.50988E-05-2.82999E-05-2.86283E-05-1.16154E-07 1.70427E-18-4.76190E-19
 -1      3900 9.51232E-05-2.83386E-05-2.86225E-05-9.08814E-08 1.89783E-18-9.53619E-19
 -1      3901 9.50789E-05-2.82742E-05-2.86297E-05-1.00079E-07 1.00239E-18-1.03561E-18
 -1      3902 9.51471E-05-2.83743E-05-2.86171E-05-7.38949E-08 1.12933E-18-1.42739E-19
 -1      3903 9.51647E-05-2.84039E-05-2.86119E-05-5.59507E-08-1.59942E-19 5.39761E-19
 -1      3904 9.51331E-05-2.83550E-05-2.86186E-05-6.30169E-08 1.37794E-18-6.11296E-19
 -1      3905 7.98892E-05-1.78366E-05-2.66614E-05 2.13194E-06 7.21535E-19 8.89848E-20
 -1      3906 8.25968E-05-1.90731E-05-2.72398E-05 1.28160E-06 5.43699E-19 3.73616E-19
 -1      3907 8.43260E-05-2.02970E-05-2.73786E-05 2.92695E-06 6.26470E-19 3.63140E-19
 -1      3908 7.98654E-05-1.83968E-05-2.62172E-05 5.75339E-06 6.93374E-19-6.78727E-20
 -1      3909 9.51167E-05-2.83147E-05-2.86301E-05 9.95054E-08-9.74144E-19 4.53308E-19
 -1      3910 9.50880E-05-2.82676E-05-2.86374E-05 1.23542E-07-3.85974E-19 2.97704E-19
 -1      3911 9.50459E-05-2.82106E-05-2.86445E-05 1.43363E-07-8.33307E-19 7.56258E-19
 -1      3912 9.50038E-05-2.81482E-05-2.86527E-05 1.74432E-07-1.23955E-18 5.42112E-19
 -1      3913 9.50456E-05-2.82160E-05-2.86404E-05 1.06828E-07-6.36143E-19-9.50613E-19
 -1      3914 8.98433E-05-2.32459E-05-2.85773E-05 1.11732E-06 1.20677E-19 4.14173E-19
 -1      3915 9.09278E-05-2.36498E-05-2.88274E-05 6.39921E-07 3.76098E-20 4.00897E-19
 -1      3916 9.51125E-05-2.49521E-05-3.00737E-05 1.08886E-06 9.89137E-20 1.40824E-19
 -1      3917 9.53298E-05-2.56589E-05-2.98579E-05 1.60916E-06 1.54853E-19-2.53215E-20
 -1      3918 7.66527E-05-1.95925E-05-2.44682E-05 1.35555E-05 8.96194E-19-3.73846E-19
 -1      3919 9.14060E-05-2.45694E-05-2.86513E-05 1.18417E-06-4.07162E-19-2.35573E-18
 -1      3920 9.06579E-05-2.39783E-05-2.85957E-05 1.20469E-06 1.82201E-19-1.45025E-18
 -1      3921 9.00961E-05-2.36514E-05-2.84518E-05 2.65234E-07 8.55892E-19-2.09816E-18
 -1      3922 9.15380E-05-2.47523E-05-2.86046E-05 6.31462E-07-1.12042E-18-2.66776E-18
 -1      3923 8.50802E-05-2.02525E-05-2.77859E-05-5.19176E-07 5.44095E-20-1.34854E-18
 -1      3924 8.30349E-05-1.91505E-05-2.74271E-05-1.18309E-06-7.30968E-19-9.43852E-19
 -1      3925 8.37644E-05-2.00107E-05-2.72524E-05-3.79011E-06-1.12131E-18-3.51711E-18
 -1      3926 8.60162E-05-2.10870E-05-2.77845E-05-1.81567E-06 1.35262E-19-3.73499E-18
 -1      3927 9.57624E-05-2.74191E-05-2.92884E-05 3.02246E-06 1.91396E-19 7.33670E-20
 -1      3928 9.59976E-05-2.79895E-05-2.91369E-05 3.47995E-06 2.01882E-19-4.61119E-20
 -1      3929 9.56007E-05-2.78441E-05-2.90492E-05 3.82956E-06 2.27906E-19-5.96331E-20
 -1      3930 9.39771E-05-2.26614E-05-3.05480E-05 6.12010E-07 2.65433E-19 1.57968E-19
 -1      3931 9.36879E-05-2.18986E-05-3.07792E-05 3.65040E-07 1.72157E-19 5.60190E-20
 -1      3932 9.38705E-05-2.21318E-05-3.07538E-05 1.74763E-07 1.94786E-19-6.83593E-20
 -1      3933 9.36009E-05-2.38012E-05-2.99331E-05-1.48625E-07 2.00438E-19 3.63870E-19
 -1      3934 9.38018E-05-2.34551E-05-3.01561E-05 1.12701E-07 2.88056E-19 2.36374E-19
 -1      3935 9.54707E-05-2.62880E-05-2.96499E-05 2.05942E-06 2.12927E-19 5.08517E-20
 -1      3936 9.56516E-05-2.68773E-05-2.94697E-05 2.54001E-06 2.28683E-19 1.74213E-19
 -1      3937 9.51037E-05-2.55962E-05-2.97937E-05 1.80427E-06 2.29023E-19 1.25434E-19
 -1      3938 9.46087E-05-2.76693E-05-2.86901E-05 3.25523E-07 2.71384E-19-4.51671E-19
 -1      3939 9.44869E-05-2.75293E-05-2.86979E-05 3.72808E-07 8.26951E-20-8.05002E-19
 -1      3940 1.04158E-04-4.07770E-05-2.71390E-05 1.74975E-05 8.84752E-20 1.65050E-18
 -1      3941 9.54004E-05-3.42047E-05-2.63211E-05 1.78941E-05 5.85217E-19 1.14945E-18
 -1      3942 8.64675E-05-2.62119E-05-2.58381E-05 1.52903E-05 8.10931E-19 3.93573E-19
 -1      3943 8.11660E-05-2.25703E-05-2.49621E-05 1.51932E-05 9.28730E-19-3.27054E-19
 -1      3944 8.04076E-05-2.02944E-05-2.58684E-05 9.61995E-06 8.72202E-19-3.78329E-19
 -1      3945 8.16056E-05-2.10148E-05-2.60413E-05-1.06452E-05-6.76574E-19-2.42349E-18
 -1      3946 8.24978E-05-2.29127E-05-2.54000E-05-1.48657E-05-8.44996E-19-2.64336E-18
 -1      3947 8.72331E-05-2.65327E-05-2.60535E-05-1.50749E-05-1.10561E-18-1.59300E-19
 -1      3948 9.36337E-05-2.22531E-05-3.05941E-05 5.06815E-07 5.45398E-19 1.48878E-20
 -1      3949 1.08004E-04-4.14344E-05-2.85773E-05 9.51252E-06 1.71858E-19 1.73898E-18
 -1      3950 9.46736E-05-2.38560E-05-3.03410E-05 6.76586E-07 7.84721E-20 1.46465E-19
 -1      3951 9.45346E-05-2.39086E-05-3.02700E-05 9.23240E-07 1.18678E-19 1.68517E-19
 -1      3952 9.41711E-05-2.24403E-05-3.07305E-05-1.15062E-07 1.87528E-19 1.51814E-19
 -1      3953 9.48035E-05-2.78972E-05-2.86756E-05 2.58610E-07 1.09961E-19-4.86124E-19
 -1      3954 9.47197E-05-2.77924E-05-2.86841E-05 3.01344E-07 4.03056E-19-2.53518E-19
 -1      3955 9.46164E-05-2.76883E-05-2.86808E-05 2.26257E-07-3.22126E-19-1.02706E-18
 -1      3956 8.90015E-05-2.31573E-05-2.82129E-05-1.19968E-06 7.42320E-19-2.35662E-18
 -1      3957 8.78977E-05-2.25421E-05-2.80377E-05-1.78409E-06 4.79740E-19-3.13440E-18
 -1      3958 9.51327E-05-2.83395E-05-2.86254E-05 8.20389E-08-2.48278E-20-1.16687E-18
 -1      3959 9.51029E-05-2.83041E-05-2.86286E-05 7.13996E-08 1.26520E-19-3.71748E-18
 -1      3960 9.51415E-05-2.83604E-05-2.86209E-05 6.31366E-08 1.63507E-18-2.21147E-18
 -1      3961 8.29415E-05-2.09731E-05-2.65494E-05 7.52337E-06 7.95026E-19 4.12101E-21
 -1      3962 9.37084E-05-2.29513E-05-3.03145E-05 4.80761E-07 2.10211E-19 3.09548E-19
 -1      3963 9.37996E-05-2.28756E-05-3.03830E-05 3.10204E-07 3.59361E-19 2.38570E-19
 -1      3964 9.84649E-05-3.63802E-05-2.64955E-05-1.83880E-05-2.83982E-19 2.02307E-18
 -1      3965 1.01907E-04-3.83739E-05-2.73004E-05-1.55542E-05-7.07919E-19 2.87630E-18
 -1      3966 9.40379E-05-3.25660E-05-2.64220E-05-1.69910E-05-7.89134E-19 2.02695E-18
 -1      3967 9.51787E-05-2.84337E-05-2.86053E-05 4.15062E-09-3.29029E-20-1.25277E-18
 -1      3968 9.51667E-05-2.84108E-05-2.86095E-05 7.36958E-09 1.19862E-18-2.62411E-18
 -1      3969 9.51787E-05-2.84337E-05-2.86050E-05-5.38149E-09-3.41366E-19 2.18736E-18
 -1      3970 9.27384E-05-2.58695E-05-2.86600E-05 3.73809E-07-2.14445E-18-2.66482E-18
 -1      3971 9.22859E-05-2.55045E-05-2.86323E-05 3.24177E-07-1.75626E-18-2.94819E-18
 -1      3972 9.16586E-05-2.40922E-05-2.89401E-05 1.32086E-06 9.16768E-20 6.31195E-19
 -1      3973 9.16281E-05-2.38831E-05-2.90597E-05 1.76541E-07 1.63384E-19 3.93704E-19
 -1      3974 9.23943E-05-2.40818E-05-2.92736E-05 5.33485E-09 1.71481E-19 3.35708E-19
 -1      3975 9.43329E-05-2.73674E-05-2.87015E-05 3.91370E-07 1.75208E-19-6.86768E-19
 -1      3976 9.41602E-05-2.71863E-05-2.87066E-05 4.36121E-07 8.04459E-20-1.15848E-18
 -1      3977 9.43578E-05-2.74055E-05-2.86894E-05 2.58195E-07 1.15595E-19-1.09205E-18
 -1      3978 9.51643E-05-2.84008E-05-2.86131E-05 3.86026E-08 2.65072E-18-4.71777E-18
 -1      3979 9.51556E-05-2.83809E-05-2.86172E-05 5.20974E-08 2.15725E-18-3.29558E-18
 -1      3980 9.51325E-05-2.83509E-05-2.86204E-05 4.23702E-08 1.03703E-18-7.93745E-18
 -1      3981 9.51579E-05-2.83938E-05-2.86132E-05 2.66320E-08 1.52404E-18-7.91752E-18
 -1      3982 9.49470E-05-2.80836E-05-2.86544E-05 1.44031E-07-8.15104E-19 1.33013E-18
 -1      3983 9.49455E-05-2.80752E-05-2.86599E-05 1.96548E-07-9.29018E-19 9.46185E-19
 -1      3984 9.48866E-05-2.79949E-05-2.86684E-05 2.33375E-07-3.27835E-19 4.75510E-19
 -1      3985 8.89980E-05-2.29292E-05-2.83090E-05 1.90750E-06 3.76512E-19 4.34437E-19
 -1      3986 9.01457E-05-2.37323E-05-2.84406E-05 2.65863E-06 2.81270E-19 7.22547E-19
 -1      3987 8.75786E-05-2.23907E-05-2.79932E-05 2.80447E-06 4.68865E-19 4.18409E-19
 -1      3988 1.11558E-04-4.45174E-05-2.87788E-05-1.07429E-05-1.30863E-19 2.33594E-18
 -1      3989 1.11498E-04-4.33882E-05-2.91450E-05-7.64574E-06-1.66541E-19 2.21256E-18
 -1      3990 1.08561E-04-4.14605E-05-2.86104E-05-8.99935E-06-1.34063E-18 2.29169E-18
 -1      3991 1.07095E-04-4.15986E-05-2.80021E-05-1.28720E-05-1.06347E-18 2.21126E-18
 -1      3992 9.39242E-05-2.68861E-05-2.87244E-05 6.71113E-07 1.02837E-19-1.14789E-18
 -1      3993 9.34368E-05-2.64880E-05-2.86948E-05 4.50100E-07-1.02745E-18-2.39451E-18
 -1      3994 9.31047E-05-2.61927E-05-2.86842E-05 4.56253E-07-1.83576E-18-2.60593E-18
 -1      3995 9.28906E-05-2.60400E-05-2.86411E-05 6.70777E-08-1.46579E-18-2.30181E-18
 -1      3996 1.07042E-04-4.15152E-05-2.80215E-05 1.29332E-05 1.91208E-19 1.78187E-18
 -1      3997 8.34090E-05-2.13846E-05-2.66009E-05-8.45589E-06-8.97620E-19-2.83479E-18
 -1      3998 9.28747E-05-2.41106E-05-2.94906E-05-1.90397E-07 1.97281E-19 4.92812E-19
 -1      3999 9.33656E-05-2.40598E-05-2.96982E-05-1.23716E-07 2.64319E-19 4.41787E-19
 -1      4000 9.28033E-05-2.41776E-05-2.93923E-05 5.77735E-07 2.37963E-19 5.48238E-19
 -1      4001 9.41394E-05-2.34559E-05-3.03025E-05 9.03969E-07 3.79466E-19 3.46583E-19
 -1      4002 9.43105E-05-2.36423E-05-3.02895E-05 9.00126E-07 2.75877E-19 1.87631E-19
 -1      4003 9.47392E-05-2.46413E-05-3.00305E-05 1.29144E-06 1.71103E-19 4.69507E-19
 -1      4004 9.35306E-05-2.38852E-05-2.98481E-05 3.10871E-07 1.54720E-19 3.69639E-19
 -1      4005 9.53362E-05-2.67533E-05-2.93986E-05 2.76247E-06 1.77452E-19 1.81666E-20
 -1      4006 8.83365E-05-2.31440E-05-2.79339E-05-3.25306E-06-1.33362E-19-2.53293E-18
 -1      4007 8.73060E-05-2.22322E-05-2.78771E-05-2.54326E-06 3.97746E-19-3.63207E-18
 -1      4008 8.62293E-05-2.17766E-05-2.76603E-05-3.39456E-06-6.20333E-19-4.45290E-18
 -1      4009 9.63286E-05-3.31469E-05-2.70818E-05 1.41949E-05 6.09884E-19 1.06393E-18
 -1      4010 9.13706E-05-2.96448E-05-2.63061E-05 1.58101E-05 8.13370E-19 8.43049E-19
 -1      4011 8.79154E-05-2.61290E-05-2.66129E-05 1.22487E-05 7.07550E-19 3.16183E-19
 -1      4012 9.51665E-05-2.84099E-05-2.86100E-05-3.43526E-08-3.92018E-19 1.07391E-18
 -1      4013 9.51806E-05-2.84374E-05-2.86044E-05-1.41853E-08-4.80748E-19 1.72006E-18
 -1      4014 9.37664E-05-2.30354E-05-3.03304E-05 6.68129E-07 2.72128E-19 4.40973E-19
 -1      4015 9.38858E-05-2.31004E-05-3.03397E-05 7.50094E-07 3.25940E-19 4.00352E-19
 -1      4016 9.38538E-05-2.35574E-05-3.01076E-05 5.78611E-07 1.17306E-19 3.13441E-19
 -1      4017 9.41964E-05-2.39515E-05-3.00898E-05 1.04176E-06 3.56378E-19 3.59056E-19
 -1      4018 9.51406E-05-2.80513E-05-2.87569E-05 4.75494E-06 4.27821E-19 7.95758E-20
 -1      4019 9.55106E-05-2.86950E-05-2.86083E-05 5.42268E-06 5.37646E-19 1.88205E-19
 -1      4020 9.57299E-05-2.93990E-05-2.84304E-05 6.39054E-06 4.63315E-19 4.59030E-19
 -1      4021 9.64912E-05-3.03826E-05-2.83048E-05 7.12157E-06 3.11222E-19 7.93937E-19
 -1      4022 9.45578E-05-2.82091E-05-2.84303E-05 6.12390E-06 4.65939E-19 3.12506E-19
 -1      4023 9.71212E-05-3.14129E-05-2.81438E-05 8.20135E-06 3.66206E-19 1.03002E-18
 -1      4024 9.83943E-05-3.28292E-05-2.80684E-05 8.95748E-06 3.91220E-19 1.25807E-18
 -1      4025 9.53926E-05-2.99884E-05-2.80681E-05 8.25712E-06 5.77295E-19 6.80015E-19
 -1      4026 9.44481E-05-2.31730E-05-3.05484E-05 2.32029E-07 1.56057E-19 1.28107E-19
 -1      4027 8.97506E-05-2.36693E-05-2.83460E-05-6.45462E-07 1.09421E-18-1.81578E-18
 -1      4028 8.97022E-05-2.37998E-05-2.82257E-05-1.79643E-06 3.80193E-19-1.36465E-18
 -1      4029 9.05933E-05-2.42099E-05-2.84487E-05-3.27669E-07 6.95768E-19-1.75049E-18
 -1      4030 1.03957E-04-3.87209E-05-2.79379E-05-1.16278E-05-1.32044E-18 2.36792E-18
 -1      4031 1.01246E-04-3.64053E-05-2.77495E-05-1.15221E-05-5.21918E-19 1.75377E-18
 -1      4032 9.73617E-05-3.20024E-05-2.79819E-05-8.02430E-06 9.42068E-19 5.74094E-19
 -1      4033 9.60615E-05-3.06909E-05-2.80013E-05-7.37307E-06 1.22091E-18 7.34846E-19
 -1      4034 9.53061E-05-2.97013E-05-2.80906E-05-6.37676E-06 5.72015E-19 9.79730E-19
 -1      4035 9.45141E-05-2.88373E-05-2.81432E-05-5.70981E-06 3.34851E-20 9.19320E-19
 -1      4036 9.43409E-05-2.93566E-05-2.78907E-05-7.57763E-06 7.89549E-19 2.01113E-18
 -1      4037 9.41858E-05-2.82656E-05-2.82328E-05-4.85427E-06-1.48863E-19 6.91350E-19
 -1      4038 9.37464E-05-2.77540E-05-2.82906E-05-4.27758E-06 8.48108E-20 8.17362E-19
 -1      4039 9.33515E-05-2.78506E-05-2.80906E-05-5.62657E-06-1.63931E-19 1.84302E-18
 -1      4040 9.36917E-05-2.74618E-05-2.83667E-05-3.58343E-06-4.31125E-19-1.72814E-19
 -1      4041 9.34858E-05-2.72036E-05-2.84169E-05-3.11910E-06-3.33077E-19-3.83515E-19
 -1      4042 9.29852E-05-2.70252E-05-2.82668E-05-4.05048E-06-2.96297E-19 1.38885E-18
 -1      4043 9.35630E-05-2.70911E-05-2.84756E-05-2.59259E-06 6.16710E-19-6.71651E-19
 -1      4044 9.35086E-05-2.69962E-05-2.85145E-05-2.22994E-06 1.66141E-19-5.45303E-20
 -1      4045 9.29992E-05-2.66951E-05-2.84096E-05-2.83984E-06 1.17480E-20-7.05034E-19
 -1      4046 9.36491E-05-2.69995E-05-2.85560E-05-1.84627E-06-1.05067E-18-5.65120E-19
 -1      4047 9.36815E-05-2.70049E-05-2.85833E-05-1.57180E-06-7.19634E-19-1.20752E-18
 -1      4048 9.32137E-05-2.66628E-05-2.85142E-05-1.95226E-06-4.90961E-19-5.93898E-19
 -1      4049 9.38420E-05-2.70727E-05-2.86104E-05-1.29927E-06-5.15315E-19-1.72126E-18
 -1      4050 9.39180E-05-2.71345E-05-2.86274E-05-1.09573E-06-1.79897E-18-1.78759E-18
 -1      4051 9.35119E-05-2.67960E-05-2.85852E-05-1.32244E-06-1.09323E-18-7.41192E-19
 -1      4052 9.40746E-05-2.72332E-05-2.86433E-05-9.05089E-07-9.70539E-19-1.62396E-18
 -1      4053 9.41688E-05-2.73220E-05-2.86523E-05-7.55098E-07 6.91146E-19-1.29470E-18
 -1      4054 9.38248E-05-2.70107E-05-2.86293E-05-8.86717E-07-6.10266E-19-5.66976E-19
 -1      4055 9.43071E-05-2.74311E-05-2.86598E-05-6.29181E-07 9.84554E-20-1.54195E-18
 -1      4056 9.43974E-05-2.75257E-05-2.86629E-05-5.21111E-07-6.97611E-19 5.95518E-22
 -1      4057 9.41290E-05-2.72628E-05-2.86534E-05-5.87042E-07 3.11624E-19-5.79265E-19
 -1      4058 9.45180E-05-2.76309E-05-2.86649E-05-4.30816E-07-3.87434E-19-1.00803E-19
 -1      4059 9.46003E-05-2.77234E-05-2.86640E-05-3.52979E-07 3.33598E-19 1.75212E-19
 -1      4060 9.43801E-05-2.74910E-05-2.86631E-05-3.82277E-07-1.89177E-19-7.67940E-19
 -1      4061 9.46981E-05-2.78191E-05-2.86622E-05-2.93869E-07 4.04748E-19 3.69016E-19
 -1      4062 9.47682E-05-2.79022E-05-2.86587E-05-2.38086E-07 8.38791E-19 4.06015E-19
 -1      4063 9.46002E-05-2.77117E-05-2.86632E-05-2.49158E-07 6.32891E-19-8.64181E-19
 -1      4064 9.48452E-05-2.79843E-05-2.86546E-05-1.98357E-07 6.93828E-19-1.04988E-18
 -1      4065 9.49018E-05-2.80554E-05-2.86497E-05-1.58345E-07 8.42094E-19-6.94345E-19
 -1      4066 9.47744E-05-2.79014E-05-2.86572E-05-1.60729E-07-1.43659E-19-1.75082E-18
 -1      4067 9.49607E-05-2.81236E-05-2.86446E-05-1.31973E-07 1.53260E-18-2.31445E-18
 -1      4068 9.50047E-05-2.81824E-05-2.86390E-05-1.03203E-07 1.24996E-18-1.98580E-18
 -1      4069 9.49104E-05-2.80605E-05-2.86480E-05-1.02213E-07 5.34894E-19-3.33435E-18
 -1      4070 9.50480E-05-2.82371E-05-2.86334E-05-8.54798E-08 1.81078E-18-1.60062E-18
 -1      4071 9.50808E-05-2.82849E-05-2.86277E-05-6.31980E-08 2.33347E-18-1.05737E-18
 -1      4072 9.50124E-05-2.81893E-05-2.86371E-05-6.42909E-08 2.18135E-18-2.62203E-18
 -1      4073 9.40124E-05-2.42536E-05-2.99090E-05 1.17098E-06 1.84882E-19 3.01233E-19
 -1      4074 9.43074E-05-2.46069E-05-2.98754E-05 1.38214E-06 1.52550E-19 5.03539E-19
 -1      4075 9.50545E-05-2.82366E-05-2.86360E-05 6.62976E-08 5.08354E-19-2.87707E-18
 -1      4076 9.50108E-05-2.81782E-05-2.86429E-05 8.19041E-08 4.32478E-19-1.99268E-18
 -1      4077 1.02922E-04-3.79900E-05-2.78190E-05 1.21202E-05 3.39417E-19 1.76265E-18
 -1      4078 9.45696E-05-2.49404E-05-2.98489E-05 1.59875E-06 1.50748E-19 5.57485E-19
 -1      4079 9.48299E-05-2.52353E-05-2.98294E-05 1.67059E-06 7.28010E-20 5.16001E-19
 -1      4080 9.49615E-05-2.58316E-05-2.96192E-05 2.12490E-06 1.73083E-19 1.77084E-19
 -1      4081 9.43635E-05-2.51107E-05-2.96739E-05 1.74773E-06-2.82834E-20 4.26172E-19
 -1      4082 8.44423E-05-2.12216E-05-2.71810E-05 5.19186E-06 6.63000E-19 4.12236E-19
 -1      4083 8.64370E-05-2.19291E-05-2.76384E-05 3.88934E-06 6.55062E-19 3.73344E-19
 -1      4084 8.81435E-05-2.30333E-05-2.78206E-05 4.71384E-06 6.77693E-19 4.40781E-19
 -1      4085 8.77332E-05-2.59078E-05-2.65981E-05-1.24078E-05-9.28930E-19 2.03292E-19
 -1      4086 9.06755E-05-2.88557E-05-2.63840E-05-1.52039E-05-8.76138E-19 2.05671E-18
 -1      4087 9.42227E-05-3.14605E-05-2.69201E-05-1.39961E-05-9.89970E-19 2.01878E-18
 -1      4088 9.39520E-05-2.69785E-05-2.87053E-05 4.44126E-07-1.85201E-19-2.54870E-18
 -1      4089 9.37154E-05-2.67475E-05-2.87048E-05 4.79230E-07-6.47645E-19-2.68571E-18
 -1      4090 9.35256E-05-2.65951E-05-2.86772E-05 2.11892E-07-8.05443E-19-3.13611E-18
 -1      4091 9.39923E-05-2.70346E-05-2.86902E-05 2.62776E-07-5.07165E-19-2.19146E-18
 -1      4092 8.45214E-05-2.15633E-05-2.70593E-05-6.53998E-06-4.57062E-19-2.64070E-18
 -1      4093 8.60746E-05-2.33535E-05-2.67801E-05-9.71351E-06-4.94829E-19-1.50926E-18
 -1      4094 8.57054E-05-2.18645E-05-2.73566E-05-5.25829E-06-5.62311E-19-3.08847E-18
 -1      4095 8.55847E-05-2.26451E-05-2.68633E-05 8.49045E-06 9.31548E-19 1.83806E-19
 -1      4096 9.36273E-05-2.39459E-05-2.98658E-05 6.51603E-07 1.84967E-19 2.84254E-19
 -1      4097 9.49355E-05-2.70117E-05-2.91125E-05 3.45578E-06 2.38198E-19-1.13670E-19
 -1      4098 9.51136E-05-2.75437E-05-2.89429E-05 4.04369E-06 3.58527E-19 4.04061E-20
 -1      4099 9.43854E-05-2.72026E-05-2.88112E-05 4.38937E-06 3.25198E-19 1.89939E-19
 -1      4100 9.51519E-05-2.83885E-05-2.86125E-05-3.96010E-09 1.55109E-18 1.39996E-19
 -1      4101 9.51532E-05-2.83910E-05-2.86128E-05 1.04471E-08 1.69558E-18-4.65656E-18
 -1      4102 9.51421E-05-2.83713E-05-2.86163E-05 1.52280E-08 1.28469E-18-5.34828E-18
 -1      4103 9.49236E-05-2.61952E-05-2.94561E-05 2.49028E-06 1.51352E-19 1.24243E-20
 -1      4104 9.50196E-05-2.67039E-05-2.92688E-05 2.99460E-06 6.12953E-20-1.31554E-19
 -1      4105 9.44554E-05-2.64086E-05-2.91614E-05 3.15983E-06 2.41331E-19 6.56840E-20
 -1      4106 9.46056E-05-2.58116E-05-2.94847E-05 2.33231E-06-5.71937E-20 1.70753E-19
 -1      4107 9.36455E-05-2.44378E-05-2.96571E-05 9.99310E-07 7.92607E-20 3.32659E-19
 -1      4108 9.05823E-05-2.45603E-05-2.82821E-05-2.06970E-06 1.49346E-19-1.12664E-18
 -1      4109 8.98444E-05-2.42122E-05-2.81490E-05-2.75896E-06-1.32842E-19-1.19471E-18
 -1      4110 9.98027E-05-3.44721E-05-2.79569E-05 1.00314E-05 3.27174E-19 1.46190E-18
 -1      4111 1.01783E-04-3.63101E-05-2.79970E-05 1.04405E-05 3.63612E-19 1.79017E-18
 -1      4112 9.48080E-05-2.79108E-05-2.86683E-05 1.85323E-07-9.90977E-19 2.42777E-19
 -1      4113 9.50739E-05-2.82689E-05-2.86312E-05 4.75169E-08 1.69885E-18-5.44830E-18
 -1      4114 1.00800E-04-3.53154E-05-2.80122E-05-9.34278E-06-2.12441E-19 1.48240E-18
 -1      4115 9.88151E-05-3.35561E-05-2.79313E-05-8.98688E-06-8.21953E-20 1.11644E-18
 -1      4116 9.50994E-05-2.83118E-05-2.86235E-05-2.32333E-08 3.22444E-18-2.01087E-18
 -1      4117 9.51225E-05-2.83423E-05-2.86200E-05-3.79596E-08 2.29636E-18-1.07454E-18
 -1      4118 9.05566E-05-2.49491E-05-2.81116E-05-3.67549E-06-1.08617E-18-1.55710E-18
 -1      4119 8.96564E-05-2.41682E-05-2.80435E-05-3.42083E-06-4.39369E-19-1.82657E-18
 -1      4120 8.91182E-05-2.40137E-05-2.78960E-05-4.30009E-06-7.29098E-19-1.73317E-18
 -1      4121 9.51451E-05-2.83780E-05-2.86147E-05-2.45542E-08 1.28801E-18-4.36031E-19
 -1      4122 9.49727E-05-2.81315E-05-2.86445E-05 4.63535E-08 1.12762E-18-2.97840E-18
 -1      4123 9.49583E-05-2.81124E-05-2.86490E-05 8.79166E-08-4.78347E-19-6.68445E-19
 -1      4124 9.49000E-05-2.80382E-05-2.86559E-05 1.04534E-07-5.17318E-19-3.19240E-19
 -1      4125 9.18241E-05-2.45940E-05-2.88377E-05 2.24297E-06-2.64305E-20 4.98985E-19
 -1      4126 9.24857E-05-2.46498E-05-2.90720E-05 1.72442E-06-2.49236E-20 4.76781E-19
 -1      4127 9.98241E-05-3.58176E-05-2.74280E-05 1.37448E-05 4.13792E-19 1.57692E-18
 -1      4128 9.46455E-05-2.77442E-05-2.86731E-05 1.24372E-07-1.14892E-18-5.05230E-19
 -1      4129 9.45342E-05-2.76235E-05-2.86782E-05 1.37351E-07-6.07364E-19-1.24333E-18
 -1      4130 8.87077E-05-2.56720E-05-2.70355E-05-1.00950E-05-4.45771E-19-1.76920E-19
 -1      4131 9.44024E-05-2.74843E-05-2.86804E-05 1.25211E-07-4.68964E-19-6.42432E-19
 -1      4132 9.42431E-05-2.73271E-05-2.86827E-05 1.31052E-07-2.33934E-19-1.07310E-18
 -1      4133 9.44539E-05-2.75407E-05-2.86730E-05 1.87260E-08-4.43914E-19-1.11505E-19
 -1      4134 9.20661E-05-2.53787E-05-2.85682E-05-2.41409E-07-9.46089E-19-9.26193E-19
 -1      4135 9.18110E-05-2.51130E-05-2.85858E-05 1.49326E-07-9.95007E-19-2.47241E-18
 -1      4136 8.91648E-05-2.57768E-05-2.71877E-05 9.54616E-06 9.63445E-19 4.41431E-19
 -1      4137 9.31161E-05-2.62970E-05-2.86361E-05-1.79966E-07-1.01694E-18-9.93274E-19
 -1      4138 9.27485E-05-2.60201E-05-2.86095E-05-3.09553E-07-1.41215E-18-2.26635E-19
 -1      4139 9.11869E-05-2.46604E-05-2.85291E-05-1.15485E-09 1.64752E-19-1.64403E-18
 -1      4140 9.29178E-05-2.46964E-05-2.92551E-05 1.45931E-06 1.91157E-19 4.86482E-19
 -1      4141 9.33670E-05-2.46047E-05-2.94765E-05 1.17441E-06 2.11031E-19 4.03624E-19
 -1      4142 9.38569E-05-2.49422E-05-2.95194E-05 1.76602E-06 1.71950E-21 3.77258E-19
 -1      4143 9.32116E-05-2.51291E-05-2.91570E-05 2.30155E-06 1.48642E-19 4.23622E-19
 -1      4144 8.73307E-05-2.31684E-05-2.75032E-05-5.85612E-06-4.03820E-19-2.17819E-18
 -1      4145 9.73181E-05-3.27138E-05-2.77553E-05 1.07755E-05 3.83858E-19 1.42405E-18
 -1      4146 9.54686E-05-3.18532E-05-2.73057E-05 1.24534E-05 5.77245E-19 1.16694E-18
 -1      4147 9.27213E-05-2.60277E-05-2.85706E-05-7.72398E-07-5.04304E-19 8.47287E-19
 -1      4148 9.24265E-05-2.57518E-05-2.85720E-05-5.24350E-07-1.25286E-18 2.27815E-20
 -1      4149 9.19483E-05-2.54338E-05-2.85228E-05-7.64192E-07 2.79701E-20 5.53948E-19
 -1      4150 9.64941E-05-3.19560E-05-2.77178E-05-9.86089E-06 1.07134E-19 1.93445E-18
 -1      4151 9.04623E-05-2.44365E-05-2.83385E-05 3.84718E-06 4.04087E-19 4.74761E-19
 -1      4152 9.14040E-05-2.46044E-05-2.86077E-05 3.00687E-06 2.51267E-19 4.23819E-19
 -1      4153 9.23687E-05-2.52978E-05-2.87489E-05 3.35764E-06 1.72221E-19 3.73122E-19
 -1      4154 9.33327E-05-2.80813E-05-2.79904E-05 7.74381E-06 7.36863E-19 4.47527E-19
 -1      4155 9.40429E-05-2.90258E-05-2.78091E-05 8.92399E-06 7.16683E-19 6.58820E-19
 -1      4156 9.48270E-05-2.79518E-05-2.86618E-05 1.08711E-07-1.18111E-18 1.96525E-19
 -1      4157 9.47438E-05-2.78541E-05-2.86684E-05 1.25551E-07-1.68567E-18-2.70440E-19
 -1      4158 9.46812E-05-2.77844E-05-2.86666E-05 4.51256E-08-1.30288E-18-1.32832E-18
 -1      4159 9.48499E-05-2.79791E-05-2.86563E-05 5.05964E-08-1.21999E-18-2.08905E-18
 -1      4160 9.10179E-05-2.46232E-05-2.84391E-05-8.12746E-07 1.74522E-19-7.46890E-19
 -1      4161 9.81554E-05-3.43271E-05-2.73586E-05-1.31491E-05-1.01986E-18 2.08872E-18
 -1      4162 8.90650E-05-2.49662E-05-2.75590E-05 7.43796E-06 9.10938E-19 3.64218E-19
 -1      4163 9.02277E-05-2.50871E-05-2.79186E-05 6.05296E-06 6.47225E-19 4.22650E-19
 -1      4164 9.15783E-05-2.51543E-05-2.84607E-05-1.11513E-06-4.20987E-19 3.32138E-19
 -1      4165 9.09810E-05-2.48173E-05-2.83786E-05-1.52646E-06-3.06460E-19-1.56072E-19
 -1      4166 9.12322E-05-2.51348E-05-2.83130E-05-2.37260E-06-7.38915E-19-5.46684E-19
 -1      4167 9.20237E-05-2.55586E-05-2.84706E-05-1.39753E-06-5.23367E-19 9.87946E-19
 -1      4168 9.23525E-05-2.70850E-05-2.79515E-05-6.08354E-06 7.30554E-19 9.19765E-19
 -1      4169 9.20966E-05-2.66004E-05-2.80559E-05-5.15840E-06-1.52152E-19 1.19466E-18
 -1      4170 9.18545E-05-2.60684E-05-2.81851E-05-3.97555E-06-9.47760E-19 2.15676E-19
 -1      4171 9.18291E-05-2.59060E-05-2.82735E-05-3.25436E-06-9.80724E-19-8.07138E-20
 -1      4172 9.22094E-05-2.60052E-05-2.83676E-05-2.63926E-06-5.00356E-19 9.34290E-20
 -1      4173 9.23090E-05-2.60097E-05-2.84320E-05-2.11707E-06 3.40738E-20-3.88835E-19
 -1      4174 9.26648E-05-2.61753E-05-2.84941E-05-1.71180E-06-1.56229E-19-3.66569E-19
 -1      4175 9.28232E-05-2.62659E-05-2.85387E-05-1.34298E-06-8.05969E-19 2.09531E-20
 -1      4176 9.31382E-05-2.64589E-05-2.85776E-05-1.08303E-06-1.13316E-18 5.35860E-19
 -1      4177 9.33127E-05-2.65894E-05-2.86061E-05-8.29370E-07-1.18983E-18 3.84753E-19
 -1      4178 9.39489E-05-2.71017E-05-2.86512E-05-5.00686E-07 2.19661E-19-1.56206E-19
 -1      4179 9.40918E-05-2.72323E-05-2.86597E-05-3.76119E-07-3.01553E-19-3.91358E-19
 -1      4180 9.42725E-05-2.73816E-05-2.86671E-05-2.31378E-07-5.43915E-19 8.54697E-20
 -1      4181 9.43938E-05-2.75094E-05-2.86685E-05-1.61277E-07-4.98644E-19-2.68215E-19
 -1      4182 9.45233E-05-2.76369E-05-2.86671E-05-1.32319E-07-4.03091E-19 7.97563E-20
 -1      4183 9.46232E-05-2.77442E-05-2.86652E-05-8.44893E-08-4.15388E-19-7.92090E-19
 -1      4184 9.47221E-05-2.78498E-05-2.86611E-05-7.18737E-08-1.08088E-18-1.21171E-18
 -1      4185 9.48012E-05-2.79394E-05-2.86570E-05-4.06206E-08-1.28211E-18-2.20915E-18
 -1      4186 9.48751E-05-2.80244E-05-2.86516E-05-3.66494E-08-6.38477E-20-1.95664E-18
 -1      4187 9.49359E-05-2.80975E-05-2.86464E-05-1.67795E-08 1.05007E-18-2.50352E-18
 -1      4188 9.49897E-05-2.81643E-05-2.86405E-05-1.68646E-08 1.61447E-18-2.85298E-18
 -1      4189 9.50372E-05-2.82225E-05-2.86348E-05-5.24683E-09 2.38650E-18-2.80059E-18
 -1      4190 9.42860E-05-2.54551E-05-2.95062E-05 2.09507E-06-9.03651E-20 2.63016E-19
 -1      4191 8.93899E-05-2.55399E-05-2.73809E-05-8.30630E-06-9.51555E-20-6.60504E-20
 -1      4192 9.14190E-05-2.77763E-05-2.72523E-05-1.04945E-05-1.84006E-19 1.45109E-18
 -1      4193 9.45076E-05-3.09531E-05-2.72609E-05-1.19257E-05-5.85650E-19 1.91772E-18
 -1      4194 1.03083E-04-3.87491E-05-2.76544E-05-1.34959E-05-1.28036E-18 3.01327E-18
 -1      4195 9.19953E-05-2.79905E-05-2.73811E-05 1.04680E-05 8.92904E-19 6.61994E-19
 -1      4196 9.33786E-05-2.65319E-05-2.86565E-05-5.50774E-08-5.46833E-19-5.14215E-19
 -1      4197 9.33074E-05-2.64820E-05-2.86295E-05-3.87160E-07-8.62504E-19 8.73438E-19
 -1      4198 9.36527E-05-2.67689E-05-2.86681E-05 1.14605E-10-1.11201E-18-2.51145E-19
 -1      4199 9.42837E-05-3.01412E-05-2.74930E-05 1.09971E-05 7.25030E-19 9.46513E-19
 -1      4200 9.51580E-05-2.83989E-05-2.86113E-05-2.58366E-08 7.34172E-20 1.07242E-18
 -1      4201 9.35849E-05-2.89124E-05-2.76833E-05-8.60581E-06 3.92012E-19 1.84697E-18
 -1      4202 9.28106E-05-2.79624E-05-2.77859E-05-7.50989E-06 8.36125E-19 1.44655E-18
 -1      4203 9.35760E-05-2.67791E-05-2.86283E-05-6.66623E-07-7.63098E-19 2.08005E-19
 -1      4204 9.50850E-05-2.82889E-05-2.86269E-05 1.73295E-08 2.65458E-18-3.72789E-18
 -1      4205 9.32483E-05-2.93426E-05-2.73822E-05-1.05549E-05-1.42690E-19 1.74186E-18
 -1      4206 9.32307E-05-2.61068E-05-2.87691E-05 3.91757E-06 1.92891E-19 2.83643E-19
 -1      4207 9.31641E-05-2.65346E-05-2.85622E-05 4.73386E-06 3.62784E-19 3.67815E-19
 -1      4208 9.32642E-05-2.70219E-05-2.83648E-05 5.68788E-06 5.37326E-19 4.14208E-19
 -1      4209 9.40430E-05-2.56216E-05-2.93285E-05 2.36775E-06 6.20339E-20 2.98759E-19
 -1      4210 9.35916E-05-2.59293E-05-2.89896E-05 3.15969E-06 1.03263E-19 3.93145E-19
 -1      4211 9.39389E-05-2.58982E-05-2.91664E-05 2.80193E-06 1.63566E-19 3.12228E-19
 -1      4212 9.16950E-05-2.61791E-05-2.80925E-05-4.64725E-06-9.06729E-19 2.95076E-19
 -1      4213 9.41420E-05-2.72389E-05-2.86683E-05-1.30755E-07-4.05895E-19-2.37712E-19
 -1      4214 9.37490E-05-2.69227E-05-2.86447E-05-4.97624E-07 2.28486E-20 3.79627E-19
 -1      4215 9.37656E-05-2.68878E-05-2.86545E-05-2.69480E-07-7.76439E-19 9.75523E-19
 -1      4216 9.12926E-05-2.66490E-05-2.77464E-05-7.09226E-06 4.74844E-19 5.11089E-20
 -1      4217 8.94513E-05-2.44356E-05-2.78482E-05-4.91803E-06-2.42662E-20-1.63378E-18
 -1      4218 8.91449E-05-2.47084E-05-2.75998E-05-6.56987E-06 1.61044E-19-7.32752E-19
 -1      4219 9.17317E-05-2.61017E-05-2.81197E-05 6.23267E-06 6.38653E-19 2.94104E-19
 -1      4220 9.40567E-05-2.71475E-05-2.86756E-05 3.25602E-09-5.08303E-19-6.95042E-19
 -1      4221 9.38517E-05-2.69584E-05-2.86717E-05-2.62893E-08-1.12561E-18-7.72212E-19
 -1      4222 9.06503E-05-2.54838E-05-2.79637E-05-5.02227E-06-3.15681E-19-1.17224E-18
 -1      4223 9.51304E-05-2.83491E-05-2.86199E-05 2.35407E-08 1.72075E-18-5.97493E-18
 -3
    1PSTEP                         4           1           1          
  100CL  101 1.000000000        4223                     0    1           1
 -4  ERROR       1    1
 -5  STR(%)      1    1    0    0
 -1         1 4.84432E+01
 -1         2 2.39342E+01
 -1         3 5.19351E-04
 -1         4 4.45521E-04
 -1         5 1.32099E+01
 -1         6 1.30869E+01
 -1         7 1.30869E+01
 -1         8 3.62442E+00
 -1         9 1.81305E+00
 -1        10 1.29090E+00
 -1        11 1.04091E+00
 -1        12 8.89693E-01
 -1        13 7.89026E-01
 -1        14 7.22415E-01
 -1        15 7.20008E-01
 -1        16 7.85037E-01
 -1        17 8.80068E-01
 -1        18 1.03904E+00
 -1        19 1.29254E+00
 -1        20 1.82181E+00
 -1        21 3.65367E+00
 -1        22 1.32099E+01
 -1        23 1.30869E+01
 -1        24 4.31319E+00
 -1        25 3.31213E+00
 -1        26 2.07235E+00
 -1        27 1.37354E+00
 -1        28 1.02740E+00
 -1        29 7.71920E-01
 -1        30 5.63595E-01
 -1        31 3.86566E-01
 -1        32 2.72886E-01
 -1        33 2.19932E-01
 -1        34 1.89084E-01
 -1        35 3.36096E-01
 -1        36 5.51686E-01
 -1        37 7.66047E-01
 -1        38 1.18223E+00
 -1        39 1.67143E+00
 -1        40 2.12774E+00
 -1        41 2.38028E+00
 -1        42 2.38028E+00
 -1        43 2.41232E+00
 -1        44 2.41232E+00
 -1        45 2.23182E+00
 -1        46 1.81780E+00
 -1        47 1.30160E+00
 -1        48 8.73090E-01
 -1        49 6.65115E-01
 -1        50 4.65751E-01
 -1        51 3.19798E-01
 -1        52 2.71152E-01
 -1        53 2.11334E-01
 -1        54 1.97547E-01
 -1        55 1.64772E-01
 -1        56 1.25846E-01
 -1        57 9.72502E-02
 -1        58 8.79703E-02
 -1        59 7.43775E-02
 -1        60 5.96179E-02
 -1        61 4.55966E-02
 -1        62 3.57568E-02
 -1        63 3.07317E-02
 -1        64 2.52650E-02
 -1        65 1.98988E-02
 -1        66 1.49238E-02
 -1        67 1.05016E-02
 -1        68 8.29360E-03
 -1        69 5.80516E-03
 -1        70 3.16711E-03
 -1        71 2.36535E-03
 -1        72 1.32099E+01
 -1        73 4.29998E+00
 -1        74 3.39309E+00
 -1        75 2.14974E+00
 -1        76 1.46377E+00
 -1        77 1.15106E+00
 -1        78 9.47295E-01
 -1        79 7.91143E-01
 -1        80 8.59291E-01
 -1        81 1.10059E+00
 -1        82 1.41176E+00
 -1        83 1.77213E+00
 -1        84 2.40938E+00
 -1        85 3.23057E+00
 -1        86 4.30597E+00
 -1        87 5.00881E+00
 -1        88 5.00881E+00
 -1        89 4.47944E+00
 -1        90 9.00859E+00
 -1        91 1.39322E+01
 -1        92 1.39322E+01
 -1        93 1.38848E+01
 -1        94 1.10719E+01
 -1        95 4.88760E+00
 -1        96 4.98843E+00
 -1        97 4.98843E+00
 -1        98 4.54129E+00
 -1        99 3.42968E+00
 -1       100 2.56590E+00
 -1       101 1.74875E+00
 -1       102 1.36671E+00
 -1       103 1.01175E+00
 -1       104 7.27265E-01
 -1       105 5.13449E-01
 -1       106 3.58585E-01
 -1       107 2.48585E-01
 -1       108 1.65851E-01
 -1       109 1.19496E-01
 -1       110 9.01506E-02
 -1       111 6.98904E-02
 -1       112 5.37844E-02
 -1       113 4.09783E-02
 -1       114 3.07849E-02
 -1       115 2.29037E-02
 -1       116 1.63817E-02
 -1       117 1.24803E-02
 -1       118 9.40759E-03
 -1       119 6.34878E-03
 -1       120 3.50837E-03
 -1       121 2.72187E-03
 -1       122 1.68342E-03
 -1       123 6.31950E-04
 -1       124 3.94998E-04
 -1       125 4.93558E-04
 -1       126 4.93558E-04
 -1       127 4.49252E-04
 -1       128 3.38906E-04
 -1       129 2.33215E-04
 -1       130 1.67818E-04
 -1       131 2.15651E-04
 -1       132 2.95522E-04
 -1       133 3.49691E-04
 -1       134 3.49691E-04
 -1       135 2.97600E-04
 -1       136 7.31884E-04
 -1       137 1.44499E-03
 -1       138 2.48095E+01
 -1       139 2.61269E+01
 -1       140 3.31744E+01
 -1       141 3.31744E+01
 -1       142 1.48127E+01
 -1       143 1.34144E+01
 -1       144 1.34144E+01
 -1       145 1.37851E+01
 -1       146 1.37851E+01
 -1       147 1.41280E+01
 -1       148 3.07191E+01
 -1       149 3.07191E+01
 -1       150 2.66387E+01
 -1       151 2.48242E+01
 -1       152 2.50726E+01
 -1       153 2.50726E+01
 -1       154 4.84432E+01
 -1       155 2.21547E+01
 -1       156 1.14248E+01
 -1       157 1.18517E+01
 -1       158 1.18517E+01
 -1       159 1.17842E+01
 -1       160 1.17842E+01
 -1       161 1.16864E+01
 -1       162 1.88171E+01
 -1       163 4.60938E+01
 -1       164 4.60938E+01
 -1       165 2.39333E+01
 -1       166 6.01601E+00
 -1       167 2.28276E+00
 -1       168 1.51022E+00
 -1       169 1.15971E+00
 -1       170 9.65858E-01
 -1       171 8.48354E-01
 -1       172 7.69619E-01
 -1       173 7.18659E-01
 -1       174 7.66966E-01
 -1       175 8.42381E-01
 -1       176 9.64730E-01
 -1       177 1.16018E+00
 -1       178 1.51537E+00
 -1       179 2.29627E+00
 -1       180 6.11357E+00
 -1       181 4.31319E+00
 -1       182 3.31213E+00
 -1       183 2.07235E+00
 -1       184 1.40063E+00
 -1       185 1.02740E+00
 -1       186 7.71920E-01
 -1       187 5.63595E-01
 -1       188 4.12867E-01
 -1       189 3.00535E-01
 -1       190 2.29865E-01
 -1       191 2.11240E-01
 -1       192 2.73688E-01
 -1       193 4.58130E-01
 -1       194 6.94662E-01
 -1       195 9.59060E-01
 -1       196 1.27403E+00
 -1       197 1.67143E+00
 -1       198 2.12774E+00
 -1       199 2.38028E+00
 -1       200 2.33737E+00
 -1       201 2.41232E+00
 -1       202 2.23182E+00
 -1       203 1.81780E+00
 -1       204 1.37811E+00
 -1       205 1.01650E+00
 -1       206 7.41658E-01
 -1       207 4.82230E-01
 -1       208 3.19798E-01
 -1       209 2.71152E-01
 -1       210 2.11334E-01
 -1       211 1.97547E-01
 -1       212 1.64772E-01
 -1       213 1.26429E-01
 -1       214 1.00419E-01
 -1       215 8.79703E-02
 -1       216 7.43775E-02
 -1       217 5.96179E-02
 -1       218 4.63978E-02
 -1       219 3.58228E-02
 -1       220 3.07317E-02
 -1       221 2.52650E-02
 -1       222 1.98988E-02
 -1       223 1.49238E-02
 -1       224 1.06519E-02
 -1       225 8.29360E-03
 -1       226 5.80516E-03
 -1       227 3.48356E-03
 -1       228 2.36535E-03
 -1       229 4.29998E+00
 -1       230 3.39309E+00
 -1       231 2.14974E+00
 -1       232 1.46377E+00
 -1       233 1.15106E+00
 -1       234 9.47295E-01
 -1       235 7.91143E-01
 -1       236 7.21930E-01
 -1       237 8.59291E-01
 -1       238 1.14485E+00
 -1       239 1.72691E+00
 -1       240 2.41989E+00
 -1       241 3.11121E+00
 -1       242 3.63577E+00
 -1       243 4.30597E+00
 -1       244 5.00881E+00
 -1       245 4.71017E+00
 -1       246 5.37767E+00
 -1       247 9.00859E+00
 -1       248 1.39322E+01
 -1       249 1.38848E+01
 -1       250 1.10719E+01
 -1       251 5.41892E+00
 -1       252 4.43578E+00
 -1       253 4.98843E+00
 -1       254 4.54129E+00
 -1       255 3.69267E+00
 -1       256 3.08287E+00
 -1       257 2.40855E+00
 -1       258 1.84194E+00
 -1       259 1.29942E+00
 -1       260 8.85619E-01
 -1       261 5.89378E-01
 -1       262 3.85080E-01
 -1       263 2.71925E-01
 -1       264 1.85675E-01
 -1       265 1.37363E-01
 -1       266 9.60709E-02
 -1       267 6.98904E-02
 -1       268 5.37844E-02
 -1       269 4.09783E-02
 -1       270 3.07849E-02
 -1       271 2.29037E-02
 -1       272 1.70487E-02
 -1       273 1.24803E-02
 -1       274 9.40759E-03
 -1       275 6.34878E-03
 -1       276 3.93335E-03
 -1       277 2.72187E-03
 -1       278 1.45764E-03
 -1       279 1.26685E-03
 -1       280 8.59312E-04
 -1       281 8.59312E-04
 -1       282 8.49725E-04
 -1       283 7.24561E-04
 -1       284 5.07479E-04
 -1       285 3.09527E-04
 -1       286 2.95205E-04
 -1       287 4.44708E-04
 -1       288 5.75618E-04
 -1       289 6.01824E-04
 -1       290 6.76647E-04
 -1       291 6.76647E-04
 -1       292 1.24018E-03
 -1       293 2.79892E+01
 -1       294 2.68361E+01
 -1       295 3.17751E+01
 -1       296 3.31744E+01
 -1       297 1.48127E+01
 -1       298 1.23249E+01
 -1       299 1.34144E+01
 -1       300 1.25529E+01
 -1       301 1.37851E+01
 -1       302 1.25805E+01
 -1       303 1.41280E+01
 -1       304 3.07191E+01
 -1       305 3.00696E+01
 -1       306 2.48242E+01
 -1       307 3.12420E+01
 -1       308 3.12420E+01
 -1       309 3.03013E+01
 -1       310 4.84432E+01
 -1       311 2.40441E+01
 -1       312 1.13015E+01
 -1       313 1.14248E+01
 -1       314 1.18517E+01
 -1       315 1.16439E+01
 -1       316 1.17842E+01
 -1       317 1.16864E+01
 -1       318 1.04990E+01
 -1       319 1.94782E+01
 -1       320 4.60938E+01
 -1       321 2.75422E+01
 -1       322 2.79892E+01
 -1       323 1.06828E+00
 -1       324 2.44673E+00
 -1       325 7.90489E-01
 -1       326 6.90279E-01
 -1       327 6.19379E-01
 -1       328 5.66936E-01
 -1       329 5.65342E-01
 -1       330 6.15040E-01
 -1       331 6.89135E-01
 -1       332 7.90452E-01
 -1       333 9.23578E-01
 -1       334 1.07728E+00
 -1       335 2.43645E+00
 -1       336 2.16679E+01
 -1       337 1.69296E+00
 -1       338 1.21586E+00
 -1       339 8.39101E-01
 -1       340 6.34562E-01
 -1       341 5.10441E-01
 -1       342 3.91263E-01
 -1       343 3.01959E-01
 -1       344 2.38906E-01
 -1       345 2.42809E-01
 -1       346 2.93901E-01
 -1       347 3.95972E-01
 -1       348 5.72262E-01
 -1       349 7.72681E-01
 -1       350 1.03462E+00
 -1       351 1.26384E+00
 -1       352 1.52143E+00
 -1       353 1.69526E+00
 -1       354 1.71429E+00
 -1       355 1.70447E+00
 -1       356 1.72481E+00
 -1       357 1.58697E+00
 -1       358 1.32038E+00
 -1       359 1.08831E+00
 -1       360 8.16158E-01
 -1       361 5.79504E-01
 -1       362 3.77016E-01
 -1       363 2.07053E-01
 -1       364 1.14253E-01
 -1       365 1.22728E-01
 -1       366 1.30148E-01
 -1       367 1.19140E-01
 -1       368 1.03709E-01
 -1       369 8.78886E-02
 -1       370 7.53067E-02
 -1       371 6.04172E-02
 -1       372 4.63978E-02
 -1       373 3.58228E-02
 -1       374 2.65223E-02
 -1       375 1.89414E-02
 -1       376 1.51884E-02
 -1       377 1.23048E-02
 -1       378 9.41378E-03
 -1       379 6.66752E-03
 -1       380 4.60277E-03
 -1       381 3.14849E-03
 -1       382 1.79779E-03
 -1       383 1.23992E+00
 -1       384 1.70797E+00
 -1       385 8.52048E-01
 -1       386 7.01744E-01
 -1       387 5.84417E-01
 -1       388 4.90625E-01
 -1       389 6.14219E-01
 -1       390 9.19812E-01
 -1       391 1.42170E+00
 -1       392 2.06194E+00
 -1       393 2.80413E+00
 -1       394 3.61688E+00
 -1       395 4.35551E+00
 -1       396 4.96540E+00
 -1       397 7.38806E+00
 -1       398 6.82256E+00
 -1       399 1.03106E+01
 -1       400 9.02883E+00
 -1       401 5.63643E+00
 -1       402 6.99729E+00
 -1       403 7.84164E+00
 -1       404 5.45046E+00
 -1       405 4.45753E+00
 -1       406 3.82452E+00
 -1       407 3.03295E+00
 -1       408 2.32030E+00
 -1       409 1.67255E+00
 -1       410 1.17283E+00
 -1       411 8.06895E-01
 -1       412 5.47567E-01
 -1       413 3.67354E-01
 -1       414 2.39262E-01
 -1       415 1.62996E-01
 -1       416 1.05069E-01
 -1       417 6.65884E-02
 -1       418 4.75868E-02
 -1       419 3.35323E-02
 -1       420 2.41025E-02
 -1       421 1.88597E-02
 -1       422 1.42952E-02
 -1       423 1.03397E-02
 -1       424 7.46462E-03
 -1       425 5.17078E-03
 -1       426 3.41978E-03
 -1       427 2.24053E-03
 -1       428 3.99299E+01
 -1       429 1.28193E-03
 -1       430 1.80435E-03
 -1       431 1.08389E-03
 -1       432 1.00893E-03
 -1       433 7.16085E-04
 -1       434 4.12479E-04
 -1       435 2.26913E-04
 -1       436 3.51644E-04
 -1       437 6.15277E-04
 -1       438 7.61301E-04
 -1       439 9.00973E-04
 -1       440 1.27813E-03
 -1       441 2.27803E+01
 -1       442 3.99299E+01
 -1       443 9.18618E-01
 -1       444 7.72454E+00
 -1       445 9.01111E+00
 -1       446 1.12897E+01
 -1       447 1.12945E+01
 -1       448 8.06968E+00
 -1       449 1.24144E+01
 -1       450 2.07358E+01
 -1       451 2.34279E+01
 -1       452 3.62812E+01
 -1       453 3.62812E+01
 -1       454 2.63906E+01
 -1       455 3.03013E+01
 -1       456 1.78412E+01
 -1       457 1.01027E+01
 -1       458 7.01696E+00
 -1       459 9.59750E+00
 -1       460 1.08290E+01
 -1       461 1.13055E+01
 -1       462 1.03763E+01
 -1       463 7.45384E+00
 -1       464 8.72687E+00
 -1       465 1.59081E+01
 -1       466 2.75422E+01
 -1       467 2.74912E+01
 -1       468 1.26704E+01
 -1       469 9.02883E+00
 -1       470 5.08417E+00
 -1       471 4.83828E-01
 -1       472 5.15919E-01
 -1       473 4.08498E-01
 -1       474 4.36986E-01
 -1       475 4.75591E-01
 -1       476 5.10738E-01
 -1       477 5.19842E-01
 -1       478 5.19842E-01
 -1       479 7.92662E-01
 -1       480 1.04331E+01
 -1       481 7.59773E-01
 -1       482 6.40093E-01
 -1       483 5.09844E-01
 -1       484 3.81268E-01
 -1       485 3.29402E-01
 -1       486 2.73728E-01
 -1       487 2.34566E-01
 -1       488 2.42809E-01
 -1       489 2.93901E-01
 -1       490 3.92350E-01
 -1       491 5.29560E-01
 -1       492 6.82227E-01
 -1       493 8.77348E-01
 -1       494 1.08115E+00
 -1       495 1.20101E+00
 -1       496 1.30621E+00
 -1       497 1.32059E+00
 -1       498 1.24481E+00
 -1       499 1.31395E+00
 -1       500 1.32223E+00
 -1       501 1.22129E+00
 -1       502 1.10435E+00
 -1       503 9.06272E-01
 -1       504 6.62951E-01
 -1       505 4.87845E-01
 -1       506 3.22554E-01
 -1       507 2.12053E-01
 -1       508 1.67171E-01
 -1       509 1.25297E-01
 -1       510 1.16160E-01
 -1       511 1.08845E-01
 -1       512 9.66844E-02
 -1       513 8.25365E-02
 -1       514 6.92900E-02
 -1       515 5.52062E-02
 -1       516 4.19981E-02
 -1       517 3.05556E-02
 -1       518 2.12115E-02
 -1       519 1.39544E-02
 -1       520 9.45131E-03
 -1       521 6.70766E-03
 -1       522 5.41727E-03
 -1       523 4.00369E-03
 -1       524 2.64202E-03
 -1       525 7.41980E-01
 -1       526 3.56426E-01
 -1       527 2.74681E-01
 -1       528 3.51428E-01
 -1       529 6.20501E-01
 -1       530 9.80684E-01
 -1       531 1.47021E+00
 -1       532 2.15905E+00
 -1       533 3.16014E+00
 -1       534 4.62098E+00
 -1       535 6.99806E+00
 -1       536 8.11391E+00
 -1       537 2.63906E+01
 -1       538 5.02368E+00
 -1       539 3.46171E+00
 -1       540 2.46697E+00
 -1       541 1.73080E+00
 -1       542 1.22270E+00
 -1       543 8.62279E-01
 -1       544 6.05505E-01
 -1       545 4.22711E-01
 -1       546 2.92819E-01
 -1       547 2.05386E-01
 -1       548 1.39925E-01
 -1       549 9.39685E-02
 -1       550 6.19720E-02
 -1       551 3.98663E-02
 -1       552 2.47493E-02
 -1       553 1.51337E-02
 -1       554 1.16701E-02
 -1       555 9.39601E-03
 -1       556 7.14874E-03
 -1       557 5.04221E-03
 -1       558 3.36586E-03
 -1       559 2.45191E-03
 -1       560 2.74912E+01
 -1       561 9.30142E-04
 -1       562 1.68451E+01
 -1       563 8.49249E-04
 -1       564 8.38896E-04
 -1       565 7.47179E-04
 -1       566 7.47179E-04
 -1       567 8.12570E-04
 -1       568 1.16385E-03
 -1       569 9.18950E-04
 -1       570 2.27803E+01
 -1       571 2.01686E+01
 -1       572 4.66117E-01
 -1       573 1.33715E-03
 -1       574 7.57091E+00
 -1       575 1.63929E-03
 -1       576 1.33715E-03
 -1       577 5.99538E+00
 -1       578 7.97248E+00
 -1       579 3.99299E+01
 -1       580 4.45768E-01
 -1       581 5.81485E-01
 -1       582 1.63457E+01
 -1       583 2.34279E+01
 -1       584 8.49596E+00
 -1       585 3.62812E+01
 -1       586 2.10947E+01
 -1       587 1.38546E+01
 -1       588 8.51124E+00
 -1       589 4.69474E+00
 -1       590 4.87917E+00
 -1       591 6.66274E+00
 -1       592 8.24034E+00
 -1       593 5.51018E+00
 -1       594 1.27476E+01
 -1       595 8.52840E-01
 -1       596 1.00245E+01
 -1       597 5.15919E-01
 -1       598 2.19670E+01
 -1       599 4.70525E-01
 -1       600 1.69371E-03
 -1       601 5.24966E+00
 -1       602 3.37229E-01
 -1       603 3.10334E-01
 -1       604 3.59053E-01
 -1       605 3.49627E-01
 -1       606 3.87776E-01
 -1       607 2.87894E+00
 -1       608 3.26328E-01
 -1       609 2.96876E-01
 -1       610 2.42189E-01
 -1       611 2.13981E-01
 -1       612 2.00976E-01
 -1       613 2.22245E-01
 -1       614 2.88591E-01
 -1       615 3.92350E-01
 -1       616 5.29560E-01
 -1       617 6.82227E-01
 -1       618 8.42932E-01
 -1       619 9.90339E-01
 -1       620 1.12093E+00
 -1       621 1.21752E+00
 -1       622 1.35060E+00
 -1       623 1.29424E+00
 -1       624 1.26320E+00
 -1       625 1.33934E+00
 -1       626 1.23483E+00
 -1       627 1.12498E+00
 -1       628 9.79577E-01
 -1       629 8.45054E-01
 -1       630 6.58581E-01
 -1       631 4.87845E-01
 -1       632 3.51365E-01
 -1       633 2.62739E-01
 -1       634 1.83820E-01
 -1       635 1.49284E-01
 -1       636 1.31488E-01
 -1       637 1.10770E-01
 -1       638 9.42583E-02
 -1       639 7.73300E-02
 -1       640 6.21746E-02
 -1       641 4.81812E-02
 -1       642 3.60794E-02
 -1       643 2.61135E-02
 -1       644 1.82368E-02
 -1       645 1.22434E-02
 -1       646 7.85599E-03
 -1       647 4.77638E-03
 -1       648 2.91955E-03
 -1       649 2.21124E-03
 -1       650 8.76732E+00
 -1       651 2.83641E-01
 -1       652 1.67339E-01
 -1       653 8.07394E-01
 -1       654 1.30092E+00
 -1       655 1.95797E+00
 -1       656 2.97495E+00
 -1       657 4.55716E+00
 -1       658 6.04327E+00
 -1       659 8.57390E+00
 -1       660 3.35216E+00
 -1       661 5.28659E+00
 -1       662 1.56703E+00
 -1       663 1.05789E+00
 -1       664 7.10143E-01
 -1       665 4.73544E-01
 -1       666 3.14992E-01
 -1       667 2.12539E-01
 -1       668 1.46385E-01
 -1       669 1.03921E-01
 -1       670 7.26724E-02
 -1       671 4.99276E-02
 -1       672 3.35598E-02
 -1       673 2.18542E-02
 -1       674 1.42398E-02
 -1       675 8.67479E-03
 -1       676 5.23369E-03
 -1       677 4.10849E-03
 -1       678 3.07696E-03
 -1       679 1.96285E-03
 -1       680 1.79550E-03
 -1       681 1.64803E+01
 -1       682 1.79550E-03
 -1       683 1.66158E-03
 -1       684 1.49178E-03
 -1       685 1.17291E-03
 -1       686 1.64803E+01
 -1       687 1.02909E+01
 -1       688 1.53318E+01
 -1       689 2.15900E-01
 -1       690 1.72831E-03
 -1       691 5.25757E+00
 -1       692 2.31328E+00
 -1       693 1.33016E+01
 -1       694 1.09623E+01
 -1       695 1.08779E+01
 -1       696 5.26064E+00
 -1       697 4.74729E-01
 -1       698 3.70146E-01
 -1       699 1.07020E+01
 -1       700 3.59053E-01
 -1       701 1.67629E-03
 -1       702 3.66759E-01
 -1       703 1.62238E+01
 -1       704 3.81205E+00
 -1       705 6.88272E+00
 -1       706 3.75853E+00
 -1       707 4.24325E+00
 -1       708 1.56428E+01
 -1       709 5.93620E+00
 -1       710 3.79221E-01
 -1       711 3.24033E-01
 -1       712 3.00112E-01
 -1       713 1.97495E-03
 -1       714 1.24971E+01
 -1       715 3.66759E-01
 -1       716 3.51509E-01
 -1       717 1.56891E-03
 -1       718 1.29545E-03
 -1       719 1.97495E-03
 -1       720 5.60552E+00
 -1       721 2.41324E-01
 -1       722 2.96057E-01
 -1       723 2.75656E+00
 -1       724 1.58726E-01
 -1       725 1.36917E-01
 -1       726 1.38021E-01
 -1       727 1.52763E-01
 -1       728 2.25003E-01
 -1       729 3.14890E-01
 -1       730 4.65145E-01
 -1       731 6.51492E-01
 -1       732 8.42932E-01
 -1       733 1.01358E+00
 -1       734 1.21066E+00
 -1       735 1.23478E+00
 -1       736 1.42204E+00
 -1       737 1.72599E+00
 -1       738 1.42040E+00
 -1       739 1.58866E+00
 -1       740 1.58448E+00
 -1       741 1.25810E+00
 -1       742 1.19307E+00
 -1       743 1.04478E+00
 -1       744 8.45054E-01
 -1       745 6.57449E-01
 -1       746 5.19043E-01
 -1       747 3.74128E-01
 -1       748 2.62739E-01
 -1       749 2.10021E-01
 -1       750 1.69751E-01
 -1       751 1.34985E-01
 -1       752 1.11291E-01
 -1       753 8.95230E-02
 -1       754 6.94911E-02
 -1       755 5.22890E-02
 -1       756 3.87600E-02
 -1       757 2.82132E-02
 -1       758 2.00500E-02
 -1       759 1.38880E-02
 -1       760 9.35494E-03
 -1       761 6.12405E-03
 -1       762 3.88222E-03
 -1       763 2.06009E-03
 -1       764 2.82535E-01
 -1       765 1.46634E+00
 -1       766 9.70451E-01
 -1       767 3.59513E+00
 -1       768 5.04110E+00
 -1       769 2.57875E+00
 -1       770 4.06147E+00
 -1       771 8.30159E-01
 -1       772 1.20513E+00
 -1       773 4.00450E-01
 -1       774 2.72562E-01
 -1       775 1.86100E-01
 -1       776 1.25834E-01
 -1       777 8.50285E-02
 -1       778 5.76358E-02
 -1       779 3.82863E-02
 -1       780 2.51806E-02
 -1       781 1.67098E-02
 -1       782 1.10872E-02
 -1       783 7.05884E-03
 -1       784 4.69492E-03
 -1       785 2.72170E-03
 -1       786 3.26032E-03
 -1       787 2.15559E-03
 -1       788 3.10948E-03
 -1       789 6.64763E+00
 -1       790 1.12555E+01
 -1       791 2.74105E-01
 -1       792 1.83233E-01
 -1       793 5.74803E-01
 -1       794 2.26765E+00
 -1       795 2.45556E-01
 -1       796 1.53873E-01
 -1       797 2.69088E-03
 -1       798 1.76436E+00
 -1       799 3.81739E+00
 -1       800 3.70443E-01
 -1       801 8.54358E+00
 -1       802 3.98665E+00
 -1       803 6.16346E-01
 -1       804 3.26032E-03
 -1       805 3.79600E+00
 -1       806 2.81244E+00
 -1       807 1.02909E+01
 -1       808 3.57616E+00
 -1       809 9.30595E+00
 -1       810 9.19648E+00
 -1       811 4.33375E+00
 -1       812 2.53379E-01
 -1       813 6.93884E+00
 -1       814 7.72993E+00
 -1       815 2.75047E+00
 -1       816 6.06759E+00
 -1       817 3.12178E-03
 -1       818 2.87082E-01
 -1       819 3.77753E+00
 -1       820 3.10948E-03
 -1       821 6.95444E+00
 -1       822 3.29297E-01
 -1       823 2.87082E-01
 -1       824 4.17514E+00
 -1       825 3.29297E-01
 -1       826 2.51714E-01
 -1       827 1.88522E-01
 -1       828 1.55821E-03
 -1       829 5.88337E+00
 -1       830 9.28742E-02
 -1       831 1.32704E-01
 -1       832 1.98447E-01
 -1       833 3.12145E-01
 -1       834 4.53184E-01
 -1       835 6.18418E-01
 -1       836 8.46548E-01
 -1       837 1.07831E+00
 -1       838 1.21963E+00
 -1       839 1.49815E+00
 -1       840 2.30434E+00
 -1       841 2.91403E+00
 -1       842 2.52956E+00
 -1       843 1.58866E+00
 -1       844 2.58563E+00
 -1       845 2.95447E+00
 -1       846 2.40693E+00
 -1       847 1.24900E+00
 -1       848 1.11201E+00
 -1       849 9.27713E-01
 -1       850 7.03001E-01
 -1       851 5.19043E-01
 -1       852 3.80706E-01
 -1       853 2.94512E-01
 -1       854 2.22787E-01
 -1       855 1.75863E-01
 -1       856 1.38178E-01
 -1       857 1.05256E-01
 -1       858 7.98222E-02
 -1       859 6.27991E-02
 -1       860 4.94037E-02
 -1       861 3.73476E-02
 -1       862 2.71562E-02
 -1       863 1.89694E-02
 -1       864 1.30188E-02
 -1       865 8.58102E-03
 -1       866 5.33194E-03
 -1       867 2.32975E-01
 -1       868 4.15597E+00
 -1       869 6.45489E-03
 -1       870 2.97440E+00
 -1       871 3.39491E+00
 -1       872 2.08204E-01
 -1       873 2.85894E-01
 -1       874 1.04529E-01
 -1       875 7.25320E-02
 -1       876 4.94593E-02
 -1       877 3.41137E-02
 -1       878 2.31619E-02
 -1       879 1.50582E-02
 -1       880 9.44755E-03
 -1       881 8.23442E-03
 -1       882 2.77089E-01
 -1       883 6.74171E+00
 -1       884 6.13041E+00
 -1       885 7.20555E-01
 -1       886 1.10577E-01
 -1       887 5.14086E+00
 -1       888 2.95447E+00
 -1       889 4.28277E-03
 -1       890 2.09411E+00
 -1       891 4.81879E-01
 -1       892 1.48425E-01
 -1       893 2.91403E+00
 -1       894 3.19815E-01
 -1       895 7.57903E-01
 -1       896 5.60552E+00
 -1       897 6.45489E-03
 -1       898 2.95447E+00
 -1       899 1.50313E-01
 -1       900 1.04654E+00
 -1       901 5.88337E+00
 -1       902 5.54480E+00
 -1       903 2.19689E+00
 -1       904 8.36555E-02
 -1       905 1.62044E-01
 -1       906 5.38484E-01
 -1       907 2.99534E-03
 -1       908 2.39591E+00
 -1       909 1.55991E+00
 -1       910 2.96887E+00
 -1       911 1.74390E+00
 -1       912 1.98980E-01
 -1       913 3.95650E-01
 -1       914 4.76676E-03
 -1       915 5.15247E-03
 -1       916 5.00060E+00
 -1       917 5.00060E+00
 -1       918 3.77123E+00
 -1       919 1.13285E+00
 -1       920 3.04082E+00
 -1       921 1.69460E-01
 -1       922 1.98980E-01
 -1       923 1.73934E-01
 -1       924 5.09457E+00
 -1       925 3.88805E-03
 -1       926 2.31132E-01
 -1       927 3.24408E-01
 -1       928 4.71867E-01
 -1       929 6.48694E-01
 -1       930 8.46548E-01
 -1       931 1.50272E+00
 -1       932 1.79663E+00
 -1       933 1.49815E+00
 -1       934 2.40693E+00
 -1       935 1.42489E+00
 -1       936 1.16435E+00
 -1       937 1.01481E+00
 -1       938 7.84119E-01
 -1       939 6.44869E-01
 -1       940 4.95291E-01
 -1       941 3.55853E-01
 -1       942 2.42557E-01
 -1       943 1.65799E-01
 -1       944 1.19495E-01
 -1       945 9.94449E-02
 -1       946 7.98222E-02
 -1       947 6.18192E-02
 -1       948 4.65390E-02
 -1       949 3.39825E-02
 -1       950 2.40557E-02
 -1       951 1.64567E-02
 -1       952 1.10365E-02
 -1       953 7.09853E-03
 -1       954 7.70593E-01
 -1       955 5.57101E-02
 -1       956 7.73130E-02
 -1       957 2.69411E-02
 -1       958 1.89685E-02
 -1       959 1.28203E-02
 -1       960 5.68795E-01
 -1       961 4.01495E+00
 -1       962 1.95619E-01
 -1       963 1.87834E-01
 -1       964 2.30434E+00
 -1       965 8.23442E-03
 -1       966 3.63036E+00
 -1       967 1.26172E-01
 -1       968 1.89408E-01
 -1       969 1.50141E-01
 -1       970 3.94014E-02
 -1       971 1.89408E-01
 -1       972 1.63692E-01
 -1       973 1.87168E-01
 -1       974 3.97760E-01
 -1       975 1.08538E+00
 -1       976 4.15597E+00
 -1       977 2.86750E+00
 -1       978 5.72114E-03
 -1       979 2.86233E-01
 -1       980 1.04986E-01
 -1       981 9.01561E-03
 -1       982 1.13308E-01
 -1       983 2.09599E+00
 -1       984 1.39526E-01
 -1       985 3.77544E+00
 -1       986 1.08844E-01
 -1       987 2.96665E+00
 -1       988 7.50256E-01
 -1       989 2.81539E+00
 -1       990 2.72519E-01
 -1       991 2.75924E+00
 -1       992 5.81859E-01
 -1       993 1.96500E+00
 -1       994 3.72970E-01
 -1       995 5.42898E-01
 -1       996 7.36571E-01
 -1       997 1.00431E+00
 -1       998 2.03625E+00
 -1       999 2.29860E+00
 -1      1000 1.63393E+00
 -1      1001 1.01481E+00
 -1      1002 7.59254E-01
 -1      1003 5.51515E-01
 -1      1004 3.95411E-01
 -1      1005 2.72567E-01
 -1      1006 2.01250E-01
 -1      1007 1.48698E-01
 -1      1008 1.08842E-01
 -1      1009 8.22228E-02
 -1      1010 6.13486E-02
 -1      1011 4.52486E-02
 -1      1012 3.24154E-02
 -1      1013 2.27843E-02
 -1      1014 1.56210E-02
 -1      1015 1.42865E-02
 -1      1016 7.09525E-03
 -1      1017 1.59862E+00
 -1      1018 1.38349E-02
 -1      1019 1.94558E-02
 -1      1020 6.09549E-01
 -1      1021 1.55306E-01
 -1      1022 4.12099E-01
 -1      1023 1.13285E+00
 -1      1024 2.63935E-01
 -1      1025 1.89408E-01
 -1      1026 2.50538E-01
 -1      1027 1.95427E-01
 -1      1028 5.72493E-02
 -1      1029 3.77544E+00
 -1      1030 2.36399E+00
 -1      1031 2.05749E+00
 -1      1032 3.99614E-02
 -1      1033 6.59566E-01
 -1      1034 1.93463E-02
 -1      1035 2.29860E+00
 -1      1036 4.82105E-03
 -1      1037 2.23529E-01
 -1      1038 3.99029E-01
 -1      1039 8.31061E-02
 -1      1040 8.12704E-03
 -1      1041 2.86759E-02
 -1      1042 8.55607E-01
 -1      1043 2.29860E+00
 -1      1044 1.63034E-01
 -1      1045 2.73239E-01
 -1      1046 1.50310E-01
 -1      1047 1.05386E+00
 -1      1048 2.23919E+00
 -1      1049 2.50538E-01
 -1      1050 6.09626E-01
 -1      1051 8.01656E-01
 -1      1052 1.17684E+00
 -1      1053 4.14710E-01
 -1      1054 1.26180E+00
 -1      1055 6.91442E-01
 -1      1056 6.78568E-01
 -1      1057 4.86323E-01
 -1      1058 3.38672E-01
 -1      1059 2.36878E-01
 -1      1060 1.61942E-01
 -1      1061 1.08842E-01
 -1      1062 8.25066E-02
 -1      1063 5.64438E-02
 -1      1064 3.96712E-02
 -1      1065 2.95722E-02
 -1      1066 2.13885E-02
 -1      1067 1.59511E-02
 -1      1068 2.37493E-01
 -1      1069 1.93463E-02
 -1      1070 1.95427E-01
 -1      1071 1.57802E+00
 -1      1072 1.65803E+00
 -1      1073 1.18030E-01
 -1      1074 1.36792E+00
 -1      1075 6.11008E-01
 -1      1076 1.93463E-02
 -1      1077 2.63935E-01
 -1      1078 5.68953E-01
 -1      1079 2.04540E+00
 -1      1080 1.65803E+00
 -1      1081 6.78568E-01
 -1      1082 2.51156E-02
 -1      1083 6.11008E-01
 -1      1084 5.07125E-02
 -1      1085 8.25066E-02
 -1      1086 2.97038E-01
 -1      1087 1.67052E-01
 -1      1088 3.43246E-01
 -1      1089 2.69010E-01
 -1      1090 7.16305E-01
 -1      1091 1.43096E+00
 -1      1092 3.56366E-02
 -1      1093 4.24724E-01
 -1      1094 1.05386E+00
 -1      1095 8.85502E-02
 -1      1096 1.21907E+00
 -1      1097 1.18037E-01
 -1      1098 1.30869E+01
 -1      1099 8.35564E+00
 -1      1100 2.71874E+00
 -1      1101 1.55198E+00
 -1      1102 1.16591E+00
 -1      1103 9.65303E-01
 -1      1104 8.39359E-01
 -1      1105 7.55720E-01
 -1      1106 7.21212E-01
 -1      1107 7.52522E-01
 -1      1108 8.32552E-01
 -1      1109 9.59552E-01
 -1      1110 1.16579E+00
 -1      1111 1.55718E+00
 -1      1112 2.73774E+00
 -1      1113 8.43180E+00
 -1      1114 1.32099E+01
 -1      1115 1.30869E+01
 -1      1116 8.70002E+00
 -1      1117 3.81266E+00
 -1      1118 2.69224E+00
 -1      1119 1.72294E+00
 -1      1120 1.20047E+00
 -1      1121 8.99662E-01
 -1      1122 6.67758E-01
 -1      1123 4.75080E-01
 -1      1124 3.29726E-01
 -1      1125 2.46409E-01
 -1      1126 2.04508E-01
 -1      1127 2.62590E-01
 -1      1128 4.43891E-01
 -1      1129 6.58867E-01
 -1      1130 9.74136E-01
 -1      1131 1.42683E+00
 -1      1132 1.89958E+00
 -1      1133 2.25401E+00
 -1      1134 2.38028E+00
 -1      1135 2.39630E+00
 -1      1136 2.41232E+00
 -1      1137 2.32207E+00
 -1      1138 2.02481E+00
 -1      1139 1.55970E+00
 -1      1140 1.08734E+00
 -1      1141 7.69103E-01
 -1      1142 5.65433E-01
 -1      1143 3.92775E-01
 -1      1144 2.95475E-01
 -1      1145 2.41243E-01
 -1      1146 2.04440E-01
 -1      1147 1.81159E-01
 -1      1148 1.45309E-01
 -1      1149 1.11548E-01
 -1      1150 9.26102E-02
 -1      1151 8.11739E-02
 -1      1152 6.69977E-02
 -1      1153 5.26072E-02
 -1      1154 4.06767E-02
 -1      1155 3.32443E-02
 -1      1156 2.79983E-02
 -1      1157 2.25819E-02
 -1      1158 1.74113E-02
 -1      1159 1.27127E-02
 -1      1160 9.39762E-03
 -1      1161 7.04938E-03
 -1      1162 4.48613E-03
 -1      1163 2.76623E-03
 -1      1164 1.40544E-03
 -1      1165 1.32099E+01
 -1      1166 8.75496E+00
 -1      1167 3.84653E+00
 -1      1168 2.77141E+00
 -1      1169 1.80675E+00
 -1      1170 1.30741E+00
 -1      1171 1.04918E+00
 -1      1172 8.69219E-01
 -1      1173 8.25217E-01
 -1      1174 9.79940E-01
 -1      1175 1.25617E+00
 -1      1176 1.59194E+00
 -1      1177 2.09075E+00
 -1      1178 2.81997E+00
 -1      1179 3.76827E+00
 -1      1180 4.65739E+00
 -1      1181 5.00881E+00
 -1      1182 4.74412E+00
 -1      1183 6.74401E+00
 -1      1184 1.14704E+01
 -1      1185 1.39322E+01
 -1      1186 1.39085E+01
 -1      1187 1.24784E+01
 -1      1188 7.97975E+00
 -1      1189 4.93802E+00
 -1      1190 4.98843E+00
 -1      1191 4.76486E+00
 -1      1192 3.98548E+00
 -1      1193 2.99779E+00
 -1      1194 2.15733E+00
 -1      1195 1.55773E+00
 -1      1196 1.18923E+00
 -1      1197 8.69508E-01
 -1      1198 6.20357E-01
 -1      1199 4.36017E-01
 -1      1200 3.03585E-01
 -1      1201 2.07218E-01
 -1      1202 1.42674E-01
 -1      1203 1.04823E-01
 -1      1204 8.00205E-02
 -1      1205 6.18374E-02
 -1      1206 4.73814E-02
 -1      1207 3.58816E-02
 -1      1208 2.68443E-02
 -1      1209 1.96427E-02
 -1      1210 1.44310E-02
 -1      1211 1.09439E-02
 -1      1212 7.87819E-03
 -1      1213 4.92858E-03
 -1      1214 3.11512E-03
 -1      1215 1.62061E-03
 -1      1216 1.10139E-03
 -1      1217 1.15769E-03
 -1      1218 5.13474E-04
 -1      1219 4.44278E-04
 -1      1220 4.93558E-04
 -1      1221 4.71405E-04
 -1      1222 3.94079E-04
 -1      1223 2.86061E-04
 -1      1224 2.00516E-04
 -1      1225 1.91735E-04
 -1      1226 2.55587E-04
 -1      1227 3.22607E-04
 -1      1228 3.49691E-04
 -1      1229 3.23645E-04
 -1      1230 5.14742E-04
 -1      1231 1.08844E-03
 -1      1232 9.45258E-04
 -1      1233 2.43719E+01
 -1      1234 2.54682E+01
 -1      1235 2.96507E+01
 -1      1236 3.31744E+01
 -1      1237 2.39936E+01
 -1      1238 1.41136E+01
 -1      1239 1.34144E+01
 -1      1240 1.35998E+01
 -1      1241 1.37851E+01
 -1      1242 1.39565E+01
 -1      1243 2.24236E+01
 -1      1244 3.07191E+01
 -1      1245 2.86789E+01
 -1      1246 2.57314E+01
 -1      1247 2.49484E+01
 -1      1248 2.50726E+01
 -1      1249 3.67579E+01
 -1      1250 4.84432E+01
 -1      1251 3.52990E+01
 -1      1252 1.67898E+01
 -1      1253 1.16383E+01
 -1      1254 1.18517E+01
 -1      1255 1.18179E+01
 -1      1256 1.17842E+01
 -1      1257 1.17353E+01
 -1      1258 1.52517E+01
 -1      1259 3.24555E+01
 -1      1260 4.60938E+01
 -1      1261 3.50136E+01
 -1      1262 2.39338E+01
 -1      1263 1.30869E+01
 -1      1264 4.82022E+00
 -1      1265 9.55143E+00
 -1      1266 2.04791E+00
 -1      1267 2.95359E+00
 -1      1268 4.14939E+00
 -1      1269 1.40056E+00
 -1      1270 1.66164E+00
 -1      1271 1.89649E+00
 -1      1272 1.10031E+00
 -1      1273 1.22531E+00
 -1      1274 1.33496E+00
 -1      1275 9.27776E-01
 -1      1276 1.00339E+00
 -1      1277 1.06278E+00
 -1      1278 8.18690E-01
 -1      1279 8.69023E-01
 -1      1280 9.07106E-01
 -1      1281 7.46017E-01
 -1      1282 7.79323E-01
 -1      1283 8.08987E-01
 -1      1284 7.19333E-01
 -1      1285 7.20537E-01
 -1      1286 7.44139E-01
 -1      1287 7.76001E-01
 -1      1288 7.43487E-01
 -1      1289 7.42812E-01
 -1      1290 8.61224E-01
 -1      1291 8.13709E-01
 -1      1292 8.04673E-01
 -1      1293 1.00188E+00
 -1      1294 9.22399E-01
 -1      1295 9.03555E-01
 -1      1296 1.22636E+00
 -1      1297 1.09961E+00
 -1      1298 1.06246E+00
 -1      1299 1.66859E+00
 -1      1300 1.40396E+00
 -1      1301 1.33777E+00
 -1      1302 2.97497E+00
 -1      1303 2.05904E+00
 -1      1304 1.90582E+00
 -1      1305 9.66175E+00
 -1      1306 4.88362E+00
 -1      1307 4.20492E+00
 -1      1308 1.32099E+01
 -1      1309 8.70002E+00
 -1      1310 4.31319E+00
 -1      1311 3.81266E+00
 -1      1312 3.31213E+00
 -1      1313 3.81266E+00
 -1      1314 2.69224E+00
 -1      1315 2.07235E+00
 -1      1316 2.69224E+00
 -1      1317 1.73649E+00
 -1      1318 1.38708E+00
 -1      1319 1.73649E+00
 -1      1320 1.20047E+00
 -1      1321 1.02740E+00
 -1      1322 1.21402E+00
 -1      1323 8.99662E-01
 -1      1324 7.71920E-01
 -1      1325 8.99662E-01
 -1      1326 6.67758E-01
 -1      1327 5.63595E-01
 -1      1328 6.67758E-01
 -1      1329 4.88231E-01
 -1      1330 3.99716E-01
 -1      1331 4.88231E-01
 -1      1332 3.43550E-01
 -1      1333 2.86711E-01
 -1      1334 3.56701E-01
 -1      1335 2.51376E-01
 -1      1336 2.24898E-01
 -1      1337 2.65200E-01
 -1      1338 2.15586E-01
 -1      1339 2.00162E-01
 -1      1340 2.20553E-01
 -1      1341 2.31386E-01
 -1      1342 3.04892E-01
 -1      1343 2.42464E-01
 -1      1344 3.97113E-01
 -1      1345 5.04908E-01
 -1      1346 3.65909E-01
 -1      1347 6.23174E-01
 -1      1348 7.30355E-01
 -1      1349 5.76396E-01
 -1      1350 8.62554E-01
 -1      1351 1.07064E+00
 -1      1352 8.26861E-01
 -1      1353 1.22813E+00
 -1      1354 1.47273E+00
 -1      1355 1.11655E+00
 -1      1356 1.67143E+00
 -1      1357 1.89958E+00
 -1      1358 1.47273E+00
 -1      1359 2.12774E+00
 -1      1360 2.25401E+00
 -1      1361 1.89958E+00
 -1      1362 2.38028E+00
 -1      1363 2.38028E+00
 -1      1364 2.25401E+00
 -1      1365 2.35882E+00
 -1      1366 2.37484E+00
 -1      1367 2.35882E+00
 -1      1368 2.41232E+00
 -1      1369 2.41232E+00
 -1      1370 2.37484E+00
 -1      1371 2.32207E+00
 -1      1372 2.23182E+00
 -1      1373 2.32207E+00
 -1      1374 2.02481E+00
 -1      1375 1.81780E+00
 -1      1376 2.02481E+00
 -1      1377 1.59796E+00
 -1      1378 1.33985E+00
 -1      1379 1.59796E+00
 -1      1380 1.15905E+00
 -1      1381 9.44795E-01
 -1      1382 1.19731E+00
 -1      1383 8.07374E-01
 -1      1384 7.03387E-01
 -1      1385 8.79079E-01
 -1      1386 5.73673E-01
 -1      1387 4.73991E-01
 -1      1388 6.11944E-01
 -1      1389 3.92775E-01
 -1      1390 3.19798E-01
 -1      1391 4.01014E-01
 -1      1392 2.95475E-01
 -1      1393 2.71152E-01
 -1      1394 2.95475E-01
 -1      1395 2.41243E-01
 -1      1396 2.11334E-01
 -1      1397 2.41243E-01
 -1      1398 2.04440E-01
 -1      1399 1.97547E-01
 -1      1400 2.04440E-01
 -1      1401 1.81159E-01
 -1      1402 1.64772E-01
 -1      1403 1.81159E-01
 -1      1404 1.45600E-01
 -1      1405 1.26138E-01
 -1      1406 1.45600E-01
 -1      1407 1.13132E-01
 -1      1408 9.88345E-02
 -1      1409 1.13424E-01
 -1      1410 9.26102E-02
 -1      1411 8.79703E-02
 -1      1412 9.41946E-02
 -1      1413 8.11739E-02
 -1      1414 7.43775E-02
 -1      1415 8.11739E-02
 -1      1416 6.69977E-02
 -1      1417 5.96179E-02
 -1      1418 6.69977E-02
 -1      1419 5.30078E-02
 -1      1420 4.59972E-02
 -1      1421 5.30078E-02
 -1      1422 4.07097E-02
 -1      1423 3.57898E-02
 -1      1424 4.11103E-02
 -1      1425 3.32443E-02
 -1      1426 3.07317E-02
 -1      1427 3.32772E-02
 -1      1428 2.79983E-02
 -1      1429 2.52650E-02
 -1      1430 2.79983E-02
 -1      1431 2.25819E-02
 -1      1432 1.98988E-02
 -1      1433 2.25819E-02
 -1      1434 1.74113E-02
 -1      1435 1.49238E-02
 -1      1436 1.74113E-02
 -1      1437 1.27879E-02
 -1      1438 1.05768E-02
 -1      1439 1.27879E-02
 -1      1440 9.39762E-03
 -1      1441 8.29360E-03
 -1      1442 9.47274E-03
 -1      1443 7.04938E-03
 -1      1444 5.80516E-03
 -1      1445 7.04938E-03
 -1      1446 4.64436E-03
 -1      1447 3.32533E-03
 -1      1448 4.64436E-03
 -1      1449 2.76623E-03
 -1      1450 2.36535E-03
 -1      1451 2.92445E-03
 -1      1452 1.90517E-03
 -1      1453 1.90517E-03
 -1      1454 4.29998E+00
 -1      1455 8.75496E+00
 -1      1456 3.39309E+00
 -1      1457 3.84653E+00
 -1      1458 3.84653E+00
 -1      1459 2.14974E+00
 -1      1460 2.77141E+00
 -1      1461 2.77141E+00
 -1      1462 1.46377E+00
 -1      1463 1.80675E+00
 -1      1464 1.80675E+00
 -1      1465 1.15106E+00
 -1      1466 1.30741E+00
 -1      1467 1.30741E+00
 -1      1468 9.47295E-01
 -1      1469 1.04918E+00
 -1      1470 1.04918E+00
 -1      1471 7.91143E-01
 -1      1472 8.69219E-01
 -1      1473 8.69219E-01
 -1      1474 7.90610E-01
 -1      1475 7.56537E-01
 -1      1476 7.56537E-01
 -1      1477 9.79940E-01
 -1      1478 8.59291E-01
 -1      1479 7.90610E-01
 -1      1480 1.27830E+00
 -1      1481 1.12272E+00
 -1      1482 1.00207E+00
 -1      1483 1.74952E+00
 -1      1484 1.56933E+00
 -1      1485 1.43588E+00
 -1      1486 2.41464E+00
 -1      1487 2.09601E+00
 -1      1488 2.07340E+00
 -1      1489 3.17089E+00
 -1      1490 2.76029E+00
 -1      1491 2.76555E+00
 -1      1492 3.97087E+00
 -1      1493 3.43317E+00
 -1      1494 3.37349E+00
 -1      1495 4.65739E+00
 -1      1496 4.30597E+00
 -1      1497 3.97087E+00
 -1      1498 5.00881E+00
 -1      1499 5.00881E+00
 -1      1500 4.65739E+00
 -1      1501 4.59480E+00
 -1      1502 4.85949E+00
 -1      1503 4.85949E+00
 -1      1504 7.19313E+00
 -1      1505 4.92856E+00
 -1      1506 5.04392E+00
 -1      1507 1.14704E+01
 -1      1508 9.00859E+00
 -1      1509 7.19313E+00
 -1      1510 1.39322E+01
 -1      1511 1.39322E+01
 -1      1512 1.14704E+01
 -1      1513 1.38848E+01
 -1      1514 1.39085E+01
 -1      1515 1.39085E+01
 -1      1516 1.10719E+01
 -1      1517 1.24784E+01
 -1      1518 1.24784E+01
 -1      1519 5.15326E+00
 -1      1520 8.24541E+00
 -1      1521 8.24541E+00
 -1      1522 4.71211E+00
 -1      1523 4.66169E+00
 -1      1524 4.92735E+00
 -1      1525 4.98843E+00
 -1      1526 4.98843E+00
 -1      1527 4.71211E+00
 -1      1528 4.54129E+00
 -1      1529 4.76486E+00
 -1      1530 4.76486E+00
 -1      1531 3.56118E+00
 -1      1532 4.11698E+00
 -1      1533 4.11698E+00
 -1      1534 2.82439E+00
 -1      1535 3.25628E+00
 -1      1536 3.38777E+00
 -1      1537 2.07865E+00
 -1      1538 2.48723E+00
 -1      1539 2.74571E+00
 -1      1540 1.60433E+00
 -1      1541 1.79535E+00
 -1      1542 2.12525E+00
 -1      1543 1.15559E+00
 -1      1544 1.33307E+00
 -1      1545 1.57068E+00
 -1      1546 8.06442E-01
 -1      1547 9.48685E-01
 -1      1548 1.09252E+00
 -1      1549 5.51414E-01
 -1      1550 6.58322E-01
 -1      1551 7.37499E-01
 -1      1552 3.71832E-01
 -1      1553 4.49265E-01
 -1      1554 4.87229E-01
 -1      1555 2.60255E-01
 -1      1556 3.15255E-01
 -1      1557 3.28503E-01
 -1      1558 1.75763E-01
 -1      1559 2.17130E-01
 -1      1560 2.28800E-01
 -1      1561 1.28430E-01
 -1      1562 1.51607E-01
 -1      1563 1.61519E-01
 -1      1564 9.31107E-02
 -1      1565 1.07784E-01
 -1      1566 1.16717E-01
 -1      1567 6.98904E-02
 -1      1568 8.00205E-02
 -1      1569 8.29806E-02
 -1      1570 5.37844E-02
 -1      1571 6.18374E-02
 -1      1572 6.18374E-02
 -1      1573 4.09783E-02
 -1      1574 4.73814E-02
 -1      1575 4.73814E-02
 -1      1576 3.07849E-02
 -1      1577 3.58816E-02
 -1      1578 3.58816E-02
 -1      1579 2.29037E-02
 -1      1580 2.68443E-02
 -1      1581 2.68443E-02
 -1      1582 1.67152E-02
 -1      1583 1.99762E-02
 -1      1584 1.99762E-02
 -1      1585 1.24803E-02
 -1      1586 1.44310E-02
 -1      1587 1.47645E-02
 -1      1588 9.40759E-03
 -1      1589 1.09439E-02
 -1      1590 1.09439E-02
 -1      1591 6.34878E-03
 -1      1592 7.87819E-03
 -1      1593 7.87819E-03
 -1      1594 3.72086E-03
 -1      1595 5.14107E-03
 -1      1596 5.14107E-03
 -1      1597 2.72187E-03
 -1      1598 3.11512E-03
 -1      1599 3.32761E-03
 -1      1600 2.20265E-03
 -1      1601 1.04479E-03
 -1      1602 1.57053E-03
 -1      1603 8.30922E-04
 -1      1604 9.49398E-04
 -1      1605 1.36224E-03
 -1      1606 6.76435E-04
 -1      1607 6.27155E-04
 -1      1608 1.06308E-03
 -1      1609 6.76435E-04
 -1      1610 6.76435E-04
 -1      1611 8.59312E-04
 -1      1612 6.49489E-04
 -1      1613 6.71641E-04
 -1      1614 8.54518E-04
 -1      1615 5.31734E-04
 -1      1616 5.86906E-04
 -1      1617 7.87143E-04
 -1      1618 3.70347E-04
 -1      1619 4.23193E-04
 -1      1620 6.16020E-04
 -1      1621 2.38672E-04
 -1      1622 2.71371E-04
 -1      1623 4.08503E-04
 -1      1624 2.55428E-04
 -1      1625 2.31511E-04
 -1      1626 3.02366E-04
 -1      1627 3.70115E-04
 -1      1628 3.30180E-04
 -1      1629 3.69956E-04
 -1      1630 4.62654E-04
 -1      1631 4.35570E-04
 -1      1632 5.10163E-04
 -1      1633 4.75758E-04
 -1      1634 4.75758E-04
 -1      1635 5.88721E-04
 -1      1636 4.87123E-04
 -1      1637 5.13169E-04
 -1      1638 6.39235E-04
 -1      1639 7.04265E-04
 -1      1640 4.87123E-04
 -1      1641 6.76647E-04
 -1      1642 1.34259E-03
 -1      1643 9.86030E-04
 -1      1644 9.58411E-04
 -1      1645 1.80277E-03
 -1      1646 2.63994E+01
 -1      1647 2.59617E+01
 -1      1648 2.64815E+01
 -1      1649 2.58228E+01
 -1      1650 3.24748E+01
 -1      1651 2.89510E+01
 -1      1652 3.31744E+01
 -1      1653 3.31744E+01
 -1      1654 1.48127E+01
 -1      1655 2.39936E+01
 -1      1656 1.28696E+01
 -1      1657 1.35688E+01
 -1      1658 1.34144E+01
 -1      1659 1.34144E+01
 -1      1660 1.31690E+01
 -1      1661 1.29836E+01
 -1      1662 1.37851E+01
 -1      1663 1.37851E+01
 -1      1664 1.33542E+01
 -1      1665 1.31828E+01
 -1      1666 2.24236E+01
 -1      1667 1.41280E+01
 -1      1668 3.07191E+01
 -1      1669 3.07191E+01
 -1      1670 2.83542E+01
 -1      1671 3.03944E+01
 -1      1672 2.48242E+01
 -1      1673 2.57314E+01
 -1      1674 2.81573E+01
 -1      1675 2.80331E+01
 -1      1676 2.81573E+01
 -1      1677 2.81573E+01
 -1      1678 3.93723E+01
 -1      1679 2.76870E+01
 -1      1680 4.84432E+01
 -1      1681 4.84432E+01
 -1      1682 2.30994E+01
 -1      1683 3.62436E+01
 -1      1684 1.13632E+01
 -1      1685 1.67281E+01
 -1      1686 1.16383E+01
 -1      1687 1.14248E+01
 -1      1688 1.18517E+01
 -1      1689 1.18517E+01
 -1      1690 1.17140E+01
 -1      1691 1.17478E+01
 -1      1692 1.17842E+01
 -1      1693 1.17842E+01
 -1      1694 1.16864E+01
 -1      1695 1.17353E+01
 -1      1696 1.46580E+01
 -1      1697 1.10927E+01
 -1      1698 3.27860E+01
 -1      1699 1.91476E+01
 -1      1700 4.60938E+01
 -1      1701 4.60938E+01
 -1      1702 2.57377E+01
 -1      1703 3.68180E+01
 -1      1704 2.59617E+01
 -1      1705 2.59613E+01
 -1      1706 9.66175E+00
 -1      1707 3.24748E+01
 -1      1708 2.20265E-03
 -1      1709 2.74127E+01
 -1      1710 2.93056E+01
 -1      1711 2.79892E+01
 -1      1712 2.39936E+01
 -1      1713 1.35688E+01
 -1      1714 1.28696E+01
 -1      1715 1.29836E+01
 -1      1716 1.31690E+01
 -1      1717 1.31828E+01
 -1      1718 1.33542E+01
 -1      1719 2.24236E+01
 -1      1720 3.03944E+01
 -1      1721 2.74469E+01
 -1      1722 2.80331E+01
 -1      1723 3.12420E+01
 -1      1724 3.07717E+01
 -1      1725 3.93723E+01
 -1      1726 3.62436E+01
 -1      1727 1.76728E+01
 -1      1728 1.13632E+01
 -1      1729 1.16383E+01
 -1      1730 1.17478E+01
 -1      1731 1.17140E+01
 -1      1732 1.17353E+01
 -1      1733 1.10927E+01
 -1      1734 1.49886E+01
 -1      1735 3.27860E+01
 -1      1736 3.68180E+01
 -1      1737 2.77657E+01
 -1      1738 9.55143E+00
 -1      1739 1.28925E+00
 -1      1740 1.67552E+00
 -1      1741 2.36475E+00
 -1      1742 4.23137E+00
 -1      1743 1.75751E+00
 -1      1744 8.78174E-01
 -1      1745 9.75098E-01
 -1      1746 7.69316E-01
 -1      1747 8.28069E-01
 -1      1748 7.40384E-01
 -1      1749 6.94499E-01
 -1      1750 7.33866E-01
 -1      1751 6.54829E-01
 -1      1752 6.42797E-01
 -1      1753 6.68278E-01
 -1      1754 5.93157E-01
 -1      1755 6.66154E-01
 -1      1756 6.42001E-01
 -1      1757 5.66139E-01
 -1      1758 7.28710E-01
 -1      1759 6.91003E-01
 -1      1760 5.90191E-01
 -1      1761 8.26932E-01
 -1      1762 7.65758E-01
 -1      1763 6.52087E-01
 -1      1764 9.75317E-01
 -1      1765 8.77591E-01
 -1      1766 7.39793E-01
 -1      1767 1.21947E+00
 -1      1768 1.04188E+00
 -1      1769 8.57015E-01
 -1      1770 1.68678E+00
 -1      1771 1.29632E+00
 -1      1772 1.00043E+00
 -1      1773 4.27501E+00
 -1      1774 2.36636E+00
 -1      1775 1.75687E+00
 -1      1776 2.74212E+01
 -1      1777 2.67215E+01
 -1      1778 5.16460E+00
 -1      1779 5.20677E+00
 -1      1780 2.50254E+00
 -1      1781 1.88265E+00
 -1      1782 1.64411E+00
 -1      1783 1.30825E+00
 -1      1784 1.45441E+00
 -1      1785 1.11987E+00
 -1      1786 9.33252E-01
 -1      1787 1.02748E+00
 -1      1788 8.30982E-01
 -1      1789 7.03241E-01
 -1      1790 7.36831E-01
 -1      1791 6.41181E-01
 -1      1792 5.37018E-01
 -1      1793 5.72501E-01
 -1      1794 4.77429E-01
 -1      1795 4.02065E-01
 -1      1796 4.50852E-01
 -1      1797 3.57413E-01
 -1      1798 3.01247E-01
 -1      1799 3.46611E-01
 -1      1800 2.69720E-01
 -1      1801 2.34385E-01
 -1      1802 2.70432E-01
 -1      1803 2.36337E-01
 -1      1804 2.27024E-01
 -1      1805 2.40857E-01
 -1      1806 2.52571E-01
 -1      1807 2.83795E-01
 -1      1808 2.68355E-01
 -1      1809 3.34830E-01
 -1      1810 4.27051E-01
 -1      1811 3.44936E-01
 -1      1812 5.15196E-01
 -1      1813 6.33462E-01
 -1      1814 4.84117E-01
 -1      1815 7.33671E-01
 -1      1816 8.65871E-01
 -1      1817 6.72471E-01
 -1      1818 9.96839E-01
 -1      1819 1.15433E+00
 -1      1820 9.03649E-01
 -1      1821 1.26894E+00
 -1      1822 1.46763E+00
 -1      1823 1.14923E+00
 -1      1824 1.59643E+00
 -1      1825 1.82458E+00
 -1      1826 1.39263E+00
 -1      1827 1.91150E+00
 -1      1828 2.03777E+00
 -1      1829 1.60834E+00
 -1      1830 2.04728E+00
 -1      1831 2.02583E+00
 -1      1832 1.70478E+00
 -1      1833 2.02092E+00
 -1      1834 2.05840E+00
 -1      1835 1.70938E+00
 -1      1836 2.06857E+00
 -1      1837 1.97832E+00
 -1      1838 1.71464E+00
 -1      1839 1.90939E+00
 -1      1840 1.70239E+00
 -1      1841 1.65589E+00
 -1      1842 1.56909E+00
 -1      1843 1.34924E+00
 -1      1844 1.45367E+00
 -1      1845 1.23321E+00
 -1      1846 1.05240E+00
 -1      1847 1.20434E+00
 -1      1848 9.16329E-01
 -1      1849 7.78908E-01
 -1      1850 9.52234E-01
 -1      1851 6.60581E-01
 -1      1852 5.30867E-01
 -1      1853 6.97831E-01
 -1      1854 4.29623E-01
 -1      1855 3.48407E-01
 -1      1856 4.78260E-01
 -1      1857 2.63426E-01
 -1      1858 2.39102E-01
 -1      1859 2.92035E-01
 -1      1860 1.92702E-01
 -1      1861 1.62793E-01
 -1      1862 1.60653E-01
 -1      1863 1.67031E-01
 -1      1864 1.60137E-01
 -1      1865 1.18490E-01
 -1      1866 1.63847E-01
 -1      1867 1.47460E-01
 -1      1868 1.26438E-01
 -1      1869 1.41956E-01
 -1      1870 1.22785E-01
 -1      1871 1.24644E-01
 -1      1872 1.15069E-01
 -1      1873 1.02064E-01
 -1      1874 1.11425E-01
 -1      1875 9.41538E-02
 -1      1876 8.79294E-02
 -1      1877 9.57988E-02
 -1      1878 8.16385E-02
 -1      1879 7.48421E-02
 -1      1880 8.15976E-02
 -1      1881 6.73973E-02
 -1      1882 6.00175E-02
 -1      1883 6.78619E-02
 -1      1884 5.30078E-02
 -1      1885 4.63978E-02
 -1      1886 5.34075E-02
 -1      1887 4.11103E-02
 -1      1888 3.58228E-02
 -1      1889 4.11103E-02
 -1      1890 3.11725E-02
 -1      1891 2.86270E-02
 -1      1892 3.11725E-02
 -1      1893 2.48365E-02
 -1      1894 2.21032E-02
 -1      1895 2.27318E-02
 -1      1896 2.02267E-02
 -1      1897 1.75436E-02
 -1      1898 1.70649E-02
 -1      1899 1.61018E-02
 -1      1900 1.36143E-02
 -1      1901 1.37466E-02
 -1      1902 1.21688E-02
 -1      1903 1.00328E-02
 -1      1904 1.08593E-02
 -1      1905 8.65971E-03
 -1      1906 7.48056E-03
 -1      1907 8.04065E-03
 -1      1908 6.44818E-03
 -1      1909 5.20396E-03
 -1      1910 5.63515E-03
 -1      1911 4.47682E-03
 -1      1912 3.31602E-03
 -1      1913 3.87563E-03
 -1      1914 2.64067E-03
 -1      1915 2.08157E-03
 -1      1916 1.51898E-03
 -1      1917 2.47314E-03
 -1      1918 1.35184E+00
 -1      1919 1.69483E+00
 -1      1920 1.92885E+00
 -1      1921 2.55053E+00
 -1      1922 1.47394E+00
 -1      1923 1.00155E+00
 -1      1924 1.15791E+00
 -1      1925 1.04598E+00
 -1      1926 8.24520E-01
 -1      1927 9.26402E-01
 -1      1928 7.76896E-01
 -1      1929 6.87780E-01
 -1      1930 7.65856E-01
 -1      1931 6.43081E-01
 -1      1932 6.06277E-01
 -1      1933 6.40884E-01
 -1      1934 5.37521E-01
 -1      1935 7.36755E-01
 -1      1936 6.68074E-01
 -1      1937 5.52422E-01
 -1      1938 1.03233E+00
 -1      1939 8.89551E-01
 -1      1940 7.67015E-01
 -1      1941 1.57431E+00
 -1      1942 1.28328E+00
 -1      1943 1.17076E+00
 -1      1944 2.24092E+00
 -1      1945 1.89443E+00
 -1      1946 1.74182E+00
 -1      1947 2.95767E+00
 -1      1948 2.61201E+00
 -1      1949 2.43303E+00
 -1      1950 3.62633E+00
 -1      1951 3.36405E+00
 -1      1952 3.21051E+00
 -1      1953 4.33074E+00
 -1      1954 3.99564E+00
 -1      1955 3.98620E+00
 -1      1956 4.98711E+00
 -1      1957 4.63569E+00
 -1      1958 4.66046E+00
 -1      1959 6.04911E+00
 -1      1960 6.19844E+00
 -1      1961 6.17673E+00
 -1      1962 6.10011E+00
 -1      1963 5.76636E+00
 -1      1964 7.10531E+00
 -1      1965 1.21214E+01
 -1      1966 9.65962E+00
 -1      1967 1.00504E+01
 -1      1968 1.14568E+01
 -1      1969 5.52767E+00
 -1      1970 8.35416E+00
 -1      1971 5.71654E+00
 -1      1972 6.20811E+00
 -1      1973 6.41504E+00
 -1      1974 6.13871E+00
 -1      1975 7.41947E+00
 -1      1976 4.99587E+00
 -1      1977 5.21945E+00
 -1      1978 6.64605E+00
 -1      1979 4.07510E+00
 -1      1980 4.49941E+00
 -1      1981 4.95400E+00
 -1      1982 3.45369E+00
 -1      1983 3.75859E+00
 -1      1984 4.14102E+00
 -1      1985 2.72075E+00
 -1      1986 3.05791E+00
 -1      1987 3.42874E+00
 -1      1988 2.08112E+00
 -1      1989 2.36443E+00
 -1      1990 2.67663E+00
 -1      1991 1.48599E+00
 -1      1992 1.75725E+00
 -1      1993 1.99643E+00
 -1      1994 1.02922E+00
 -1      1995 1.23613E+00
 -1      1996 1.42269E+00
 -1      1997 6.98137E-01
 -1      1998 8.46257E-01
 -1      1999 9.89863E-01
 -1      2000 4.66324E-01
 -1      2001 5.68473E-01
 -1      2002 6.77231E-01
 -1      2003 3.19639E-01
 -1      2004 3.76217E-01
 -1      2005 4.57461E-01
 -1      2006 2.12468E-01
 -1      2007 2.55593E-01
 -1      2008 3.03308E-01
 -1      2009 1.50179E-01
 -1      2010 1.74335E-01
 -1      2011 2.01129E-01
 -1      2012 1.00570E-01
 -1      2013 1.21216E-01
 -1      2014 1.34032E-01
 -1      2015 6.82394E-02
 -1      2016 8.13297E-02
 -1      2017 8.58286E-02
 -1      2018 5.06856E-02
 -1      2019 5.87386E-02
 -1      2020 5.70876E-02
 -1      2021 3.72553E-02
 -1      2022 4.36584E-02
 -1      2023 4.05595E-02
 -1      2024 2.74437E-02
 -1      2025 3.25404E-02
 -1      2026 2.88174E-02
 -1      2027 2.08817E-02
 -1      2028 2.48223E-02
 -1      2029 2.14811E-02
 -1      2030 1.56720E-02
 -1      2031 1.85995E-02
 -1      2032 1.65774E-02
 -1      2033 1.14100E-02
 -1      2034 1.36942E-02
 -1      2035 1.23175E-02
 -1      2036 8.43611E-03
 -1      2037 9.97245E-03
 -1      2038 8.90216E-03
 -1      2039 5.75978E-03
 -1      2040 7.28919E-03
 -1      2041 6.31770E-03
 -1      2042 3.67657E-03
 -1      2043 4.88428E-03
 -1      2044 4.29528E-03
 -1      2045 2.48120E-03
 -1      2046 3.08694E-03
 -1      2047 2.83016E-03
 -1      2048 3.33830E+01
 -1      2049 3.39596E+01
 -1      2050 1.07062E-03
 -1      2051 1.07062E-03
 -1      2052 1.33183E-03
 -1      2053 1.53560E-03
 -1      2054 1.54314E-03
 -1      2055 2.08975E-03
 -1      2056 9.66808E-04
 -1      2057 9.71602E-04
 -1      2058 1.18291E-03
 -1      2059 8.66746E-04
 -1      2060 9.29328E-04
 -1      2061 1.04641E-03
 -1      2062 6.11782E-04
 -1      2063 7.20323E-04
 -1      2064 8.62508E-04
 -1      2065 3.61003E-04
 -1      2066 4.59979E-04
 -1      2067 5.64282E-04
 -1      2068 2.61059E-04
 -1      2069 2.68220E-04
 -1      2070 3.19696E-04
 -1      2071 3.98176E-04
 -1      2072 3.23424E-04
 -1      2073 2.89279E-04
 -1      2074 5.95447E-04
 -1      2075 5.29992E-04
 -1      2076 4.83460E-04
 -1      2077 6.81563E-04
 -1      2078 6.68459E-04
 -1      2079 6.88289E-04
 -1      2080 7.88810E-04
 -1      2081 7.51399E-04
 -1      2082 8.31137E-04
 -1      2083 9.77387E-04
 -1      2084 9.77387E-04
 -1      2085 1.08955E-03
 -1      2086 2.72777E+01
 -1      2087 2.48082E+01
 -1      2088 3.13551E+01
 -1      2089 3.39596E+01
 -1      2090 3.39596E+01
 -1      2091 1.03916E+00
 -1      2092 1.21442E+00
 -1      2093 9.93451E-01
 -1      2094 8.54553E-01
 -1      2095 1.00247E+01
 -1      2096 1.12686E+01
 -1      2097 1.12128E+01
 -1      2098 1.06680E+01
 -1      2099 1.19213E+01
 -1      2100 1.23521E+01
 -1      2101 1.25398E+01
 -1      2102 1.19237E+01
 -1      2103 1.12921E+01
 -1      2104 1.14455E+01
 -1      2105 1.20479E+01
 -1      2106 1.10988E+01
 -1      2107 1.03251E+01
 -1      2108 9.19016E+00
 -1      2109 2.15668E+01
 -1      2110 1.32712E+01
 -1      2111 2.54027E+01
 -1      2112 2.57275E+01
 -1      2113 1.65751E+01
 -1      2114 2.41260E+01
 -1      2115 2.67488E+01
 -1      2116 3.37616E+01
 -1      2117 3.05527E+01
 -1      2118 2.98545E+01
 -1      2119 3.37616E+01
 -1      2120 3.37616E+01
 -1      2121 2.83460E+01
 -1      2122 2.88163E+01
 -1      2123 3.93723E+01
 -1      2124 3.03013E+01
 -1      2125 2.09426E+01
 -1      2126 3.31422E+01
 -1      2127 1.07021E+01
 -1      2128 1.70734E+01
 -1      2129 9.22087E+00
 -1      2130 9.15924E+00
 -1      2131 1.07246E+01
 -1      2132 1.05111E+01
 -1      2133 1.12364E+01
 -1      2134 1.13403E+01
 -1      2135 1.15448E+01
 -1      2136 1.14747E+01
 -1      2137 1.10314E+01
 -1      2138 1.10803E+01
 -1      2139 8.97641E+00
 -1      2140 9.57010E+00
 -1      2141 8.91509E+00
 -1      2142 1.41025E+01
 -1      2143 9.61292E+00
 -1      2144 3.10009E+01
 -1      2145 1.76931E+01
 -1      2146 2.75422E+01
 -1      2147 3.68180E+01
 -1      2148 2.77402E+01
 -1      2149 2.75167E+01
 -1      2150 3.36822E+00
 -1      2151 1.37415E+01
 -1      2152 2.29224E+01
 -1      2153 1.71691E+01
 -1      2154 3.37996E+00
 -1      2155 1.84908E-03
 -1      2156 1.75369E-03
 -1      2157 2.22241E+01
 -1      2158 2.87943E+00
 -1      2159 1.01974E+01
 -1      2160 2.06985E+00
 -1      2161 2.07221E+00
 -1      2162 2.91477E+00
 -1      2163 8.53914E+00
 -1      2164 6.72368E+00
 -1      2165 1.14568E+01
 -1      2166 1.14805E+01
 -1      2167 7.33263E+00
 -1      2168 3.99299E+01
 -1      2169 2.02244E-03
 -1      2170 3.37106E+01
 -1      2171 1.25915E-03
 -1      2172 2.75167E+01
 -1      2173 2.17251E+01
 -1      2174 7.79158E+00
 -1      2175 6.26901E+00
 -1      2176 6.90552E+00
 -1      2177 1.08409E+01
 -1      2178 1.10672E+01
 -1      2179 1.02132E+01
 -1      2180 8.30723E+00
 -1      2181 8.55984E+00
 -1      2182 1.39719E+01
 -1      2183 2.40712E+01
 -1      2184 2.83460E+01
 -1      2185 3.62812E+01
 -1      2186 2.20819E+01
 -1      2187 1.02420E+01
 -1      2188 1.08026E+01
 -1      2189 8.36782E+00
 -1      2190 1.01504E+01
 -1      2191 7.44612E+00
 -1      2192 3.13359E+01
 -1      2193 1.23175E+01
 -1      2194 5.51603E-01
 -1      2195 5.87053E-01
 -1      2196 6.03099E-01
 -1      2197 6.53204E-01
 -1      2198 4.99873E-01
 -1      2199 4.86920E-01
 -1      2200 4.87717E-01
 -1      2201 5.26013E-01
 -1      2202 5.01164E-01
 -1      2203 4.22742E-01
 -1      2204 5.82363E-01
 -1      2205 5.45316E-01
 -1      2206 4.56288E-01
 -1      2207 6.50595E-01
 -1      2208 5.99936E-01
 -1      2209 4.93165E-01
 -1      2210 7.21710E-01
 -1      2211 6.55147E-01
 -1      2212 5.15290E-01
 -1      2213 7.98562E-01
 -1      2214 7.21710E-01
 -1      2215 5.19842E-01
 -1      2216 1.61456E+00
 -1      2217 9.34972E-01
 -1      2218 6.56252E-01
 -1      2219 1.25031E+00
 -1      2220 1.15517E+01
 -1      2221 1.60505E+01
 -1      2222 1.22637E+00
 -1      2223 9.87819E-01
 -1      2224 9.27979E-01
 -1      2225 7.39597E-01
 -1      2226 6.99933E-01
 -1      2227 6.74472E-01
 -1      2228 5.72203E-01
 -1      2229 5.74969E-01
 -1      2230 5.07915E-01
 -1      2231 4.45855E-01
 -1      2232 4.45556E-01
 -1      2233 4.19922E-01
 -1      2234 3.60333E-01
 -1      2235 3.55335E-01
 -1      2236 3.32496E-01
 -1      2237 2.87844E-01
 -1      2238 3.01565E-01
 -1      2239 2.68263E-01
 -1      2240 2.36736E-01
 -1      2241 2.54147E-01
 -1      2242 2.40857E-01
 -1      2243 2.42809E-01
 -1      2244 2.38688E-01
 -1      2245 2.68355E-01
 -1      2246 2.93901E-01
 -1      2247 2.68355E-01
 -1      2248 3.43126E-01
 -1      2249 3.94161E-01
 -1      2250 3.43126E-01
 -1      2251 4.62766E-01
 -1      2252 5.50911E-01
 -1      2253 4.60955E-01
 -1      2254 6.27244E-01
 -1      2255 7.27454E-01
 -1      2256 6.05893E-01
 -1      2257 8.25014E-01
 -1      2258 9.55982E-01
 -1      2259 7.79787E-01
 -1      2260 1.05788E+00
 -1      2261 1.17250E+00
 -1      2262 9.79249E-01
 -1      2263 1.23243E+00
 -1      2264 1.36122E+00
 -1      2265 1.14108E+00
 -1      2266 1.41382E+00
 -1      2267 1.50074E+00
 -1      2268 1.25361E+00
 -1      2269 1.50792E+00
 -1      2270 1.51744E+00
 -1      2271 1.31340E+00
 -1      2272 1.47955E+00
 -1      2273 1.47464E+00
 -1      2274 1.28270E+00
 -1      2275 1.50921E+00
 -1      2276 1.51938E+00
 -1      2277 1.27938E+00
 -1      2278 1.52352E+00
 -1      2279 1.45460E+00
 -1      2280 1.31809E+00
 -1      2281 1.40413E+00
 -1      2282 1.27083E+00
 -1      2283 1.27176E+00
 -1      2284 1.21236E+00
 -1      2285 1.09633E+00
 -1      2286 1.16282E+00
 -1      2287 9.97291E-01
 -1      2288 8.61215E-01
 -1      2289 1.00531E+00
 -1      2290 7.39554E-01
 -1      2291 6.21228E-01
 -1      2292 7.84611E-01
 -1      2293 5.33675E-01
 -1      2294 4.32430E-01
 -1      2295 5.75398E-01
 -1      2296 3.49785E-01
 -1      2297 2.64804E-01
 -1      2298 4.05199E-01
 -1      2299 2.09553E-01
 -1      2300 1.63153E-01
 -1      2301 2.67303E-01
 -1      2302 1.40712E-01
 -1      2303 1.44950E-01
 -1      2304 1.89612E-01
 -1      2305 1.24013E-01
 -1      2306 1.27722E-01
 -1      2307 1.46234E-01
 -1      2308 1.23154E-01
 -1      2309 1.17650E-01
 -1      2310 1.20729E-01
 -1      2311 1.13993E-01
 -1      2312 1.06277E-01
 -1      2313 1.12503E-01
 -1      2314 1.00197E-01
 -1      2315 9.22865E-02
 -1      2316 1.02765E-01
 -1      2317 8.52126E-02
 -1      2318 7.89216E-02
 -1      2319 8.96104E-02
 -1      2320 7.22983E-02
 -1      2321 6.48536E-02
 -1      2322 7.59133E-02
 -1      2323 5.78117E-02
 -1      2324 5.08020E-02
 -1      2325 6.22481E-02
 -1      2326 4.41980E-02
 -1      2327 3.89104E-02
 -1      2328 4.86021E-02
 -1      2329 3.31892E-02
 -1      2330 2.85389E-02
 -1      2331 3.62769E-02
 -1      2332 2.38669E-02
 -1      2333 2.00764E-02
 -1      2334 2.58836E-02
 -1      2335 1.64479E-02
 -1      2336 1.45714E-02
 -1      2337 1.75830E-02
 -1      2338 1.23199E-02
 -1      2339 1.08780E-02
 -1      2340 1.17029E-02
 -1      2341 9.50621E-03
 -1      2342 8.06072E-03
 -1      2343 8.07949E-03
 -1      2344 7.41553E-03
 -1      2345 6.04240E-03
 -1      2346 6.06247E-03
 -1      2347 5.33561E-03
 -1      2348 4.30323E-03
 -1      2349 4.71048E-03
 -1      2350 3.62239E-03
 -1      2351 2.89525E-03
 -1      2352 3.32286E-03
 -1      2353 9.90949E-01
 -1      2354 1.22497E+00
 -1      2355 7.67321E-01
 -1      2356 4.70421E-01
 -1      2357 5.29085E-01
 -1      2358 3.82653E-01
 -1      2359 4.29549E-01
 -1      2360 3.15553E-01
 -1      2361 4.82823E-01
 -1      2362 4.21026E-01
 -1      2363 3.13054E-01
 -1      2364 7.70156E-01
 -1      2365 6.17360E-01
 -1      2366 4.85964E-01
 -1      2367 1.20119E+00
 -1      2368 9.50248E-01
 -1      2369 8.00593E-01
 -1      2370 1.76607E+00
 -1      2371 1.44595E+00
 -1      2372 1.22545E+00
 -1      2373 2.48159E+00
 -1      2374 2.11050E+00
 -1      2375 1.81463E+00
 -1      2376 3.38851E+00
 -1      2377 2.98213E+00
 -1      2378 2.65960E+00
 -1      2379 4.48824E+00
 -1      2380 4.11893E+00
 -1      2381 3.89056E+00
 -1      2382 5.98173E+00
 -1      2383 5.67679E+00
 -1      2384 5.80952E+00
 -1      2385 7.75098E+00
 -1      2386 6.53966E+00
 -1      2387 7.55598E+00
 -1      2388 2.63906E+01
 -1      2389 3.13359E+01
 -1      2390 9.02883E+00
 -1      2391 6.31686E+00
 -1      2392 9.13737E+00
 -1      2393 8.71520E+00
 -1      2394 4.42410E+00
 -1      2395 4.74061E+00
 -1      2396 3.24733E+00
 -1      2397 3.64311E+00
 -1      2398 4.24269E+00
 -1      2399 2.39363E+00
 -1      2400 2.74996E+00
 -1      2401 2.96434E+00
 -1      2402 1.70168E+00
 -1      2403 2.02555E+00
 -1      2404 2.09889E+00
 -1      2405 1.19776E+00
 -1      2406 1.44763E+00
 -1      2407 1.47675E+00
 -1      2408 8.34587E-01
 -1      2409 1.01755E+00
 -1      2410 1.04249E+00
 -1      2411 5.76536E-01
 -1      2412 7.06200E-01
 -1      2413 7.33892E-01
 -1      2414 3.95032E-01
 -1      2415 4.85139E-01
 -1      2416 5.14108E-01
 -1      2417 2.66040E-01
 -1      2418 3.30087E-01
 -1      2419 3.57765E-01
 -1      2420 1.84191E-01
 -1      2421 2.22324E-01
 -1      2422 2.49102E-01
 -1      2423 1.22497E-01
 -1      2424 1.51460E-01
 -1      2425 1.72656E-01
 -1      2426 8.02785E-02
 -1      2427 9.95187E-02
 -1      2428 1.16947E-01
 -1      2429 5.47794E-02
 -1      2430 6.42802E-02
 -1      2431 7.79703E-02
 -1      2432 3.66993E-02
 -1      2433 4.37266E-02
 -1      2434 5.09192E-02
 -1      2435 2.44259E-02
 -1      2436 2.91408E-02
 -1      2437 3.23078E-02
 -1      2438 1.69967E-02
 -1      2439 1.96181E-02
 -1      2440 1.99415E-02
 -1      2441 1.29827E-02
 -1      2442 1.52649E-02
 -1      2443 1.34019E-02
 -1      2444 9.86786E-03
 -1      2445 1.18456E-02
 -1      2446 1.05331E-02
 -1      2447 7.30668E-03
 -1      2448 8.74423E-03
 -1      2449 8.27238E-03
 -1      2450 5.10649E-03
 -1      2451 6.25341E-03
 -1      2452 6.09548E-03
 -1      2453 3.39282E-03
 -1      2454 4.26832E-03
 -1      2455 4.20403E-03
 -1      2456 2.34622E-03
 -1      2457 2.93585E-03
 -1      2458 2.90888E-03
 -1      2459 2.12813E-03
 -1      2460 3.37106E+01
 -1      2461 2.74912E+01
 -1      2462 8.23113E-04
 -1      2463 9.69537E-04
 -1      2464 1.92565E+01
 -1      2465 1.98127E+01
 -1      2466 6.30864E-04
 -1      2467 7.82667E-04
 -1      2468 8.89695E-04
 -1      2469 5.32905E-04
 -1      2470 6.25687E-04
 -1      2471 8.44072E-04
 -1      2472 5.49411E-04
 -1      2473 4.87046E-04
 -1      2474 7.93038E-04
 -1      2475 6.81228E-04
 -1      2476 5.49411E-04
 -1      2477 7.47179E-04
 -1      2478 7.86935E-04
 -1      2479 7.13924E-04
 -1      2480 7.79875E-04
 -1      2481 1.03241E-03
 -1      2482 9.62577E-04
 -1      2483 9.88212E-04
 -1      2484 1.09854E-03
 -1      2485 9.09962E-04
 -1      2486 1.04140E-03
 -1      2487 2.27803E+01
 -1      2488 3.13551E+01
 -1      2489 2.38299E+01
 -1      2490 2.38554E+01
 -1      2491 5.83931E-01
 -1      2492 6.59083E-01
 -1      2493 4.11271E-01
 -1      2494 1.21052E-03
 -1      2495 1.30954E-03
 -1      2496 1.53796E-03
 -1      2497 8.97363E+00
 -1      2498 9.43821E+00
 -1      2499 1.46061E-03
 -1      2500 1.72182E-03
 -1      2501 2.04560E-03
 -1      2502 1.48822E-03
 -1      2503 1.17304E-03
 -1      2504 1.21052E-03
 -1      2505 1.33715E-03
 -1      2506 1.13365E-03
 -1      2507 5.22646E+00
 -1      2508 5.72292E+00
 -1      2509 5.50953E+00
 -1      2510 6.71147E+00
 -1      2511 7.90706E+00
 -1      2512 6.98393E+00
 -1      2513 3.99299E+01
 -1      2514 3.99299E+01
 -1      2515 3.37106E+01
 -1      2516 5.06352E-01
 -1      2517 5.32573E-01
 -1      2518 4.64798E-01
 -1      2519 4.27133E-01
 -1      2520 7.16767E-01
 -1      2521 9.10701E-01
 -1      2522 6.61732E-01
 -1      2523 5.23801E-01
 -1      2524 9.61847E+00
 -1      2525 1.98868E+01
 -1      2526 1.85408E+01
 -1      2527 2.98545E+01
 -1      2528 2.34279E+01
 -1      2529 1.22020E+01
 -1      2530 8.61141E+00
 -1      2531 3.62812E+01
 -1      2532 3.62812E+01
 -1      2533 2.98545E+01
 -1      2534 2.56980E+01
 -1      2535 2.37427E+01
 -1      2536 1.58479E+01
 -1      2537 2.20780E+01
 -1      2538 9.30698E+00
 -1      2539 1.31762E+01
 -1      2540 1.11829E+01
 -1      2541 5.85585E+00
 -1      2542 7.39873E+00
 -1      2543 7.23833E+00
 -1      2544 5.94807E+00
 -1      2545 8.74585E+00
 -1      2546 8.13012E+00
 -1      2547 9.77292E+00
 -1      2548 9.53465E+00
 -1      2549 6.48201E+00
 -1      2550 7.94326E+00
 -1      2551 6.54054E+00
 -1      2552 2.01449E+01
 -1      2553 1.43278E+01
 -1      2554 1.64979E+00
 -1      2555 1.27290E+00
 -1      2556 8.06306E-01
 -1      2557 9.60562E-01
 -1      2558 1.12194E+01
 -1      2559 8.42351E+00
 -1      2560 8.70626E+00
 -1      2561 1.53801E+01
 -1      2562 5.15919E-01
 -1      2563 6.53204E-01
 -1      2564 7.17268E-01
 -1      2565 9.83383E+00
 -1      2566 1.31851E+01
 -1      2567 7.36092E+00
 -1      2568 1.36391E+01
 -1      2569 7.90563E+00
 -1      2570 2.37427E+01
 -1      2571 2.41788E+01
 -1      2572 2.91241E+01
 -1      2573 2.91241E+01
 -1      2574 9.06918E+00
 -1      2575 9.66974E+00
 -1      2576 6.68048E+00
 -1      2577 9.20279E+00
 -1      2578 1.98127E+01
 -1      2579 3.13551E+01
 -1      2580 1.64581E+01
 -1      2581 2.38299E+01
 -1      2582 6.94571E-01
 -1      2583 7.69405E-01
 -1      2584 6.61682E-01
 -1      2585 4.93222E-01
 -1      2586 1.74575E-03
 -1      2587 1.48592E-03
 -1      2588 1.30633E-03
 -1      2589 2.42110E-03
 -1      2590 1.06218E+01
 -1      2591 6.79006E+00
 -1      2592 2.16787E-03
 -1      2593 5.29717E+00
 -1      2594 7.45154E+00
 -1      2595 5.77096E+00
 -1      2596 7.32377E+00
 -1      2597 7.67619E+00
 -1      2598 6.88045E+00
 -1      2599 4.97220E+00
 -1      2600 1.98868E+01
 -1      2601 1.01617E+01
 -1      2602 1.01593E+01
 -1      2603 1.74747E+01
 -1      2604 4.78696E+00
 -1      2605 4.06410E-01
 -1      2606 3.87107E-01
 -1      2607 3.73660E-01
 -1      2608 3.59416E-01
 -1      2609 3.23782E-01
 -1      2610 4.39447E-01
 -1      2611 4.34895E-01
 -1      2612 4.34734E-01
 -1      2613 4.34734E-01
 -1      2614 3.54340E-01
 -1      2615 5.90219E-01
 -1      2616 4.53809E-01
 -1      2617 3.68701E-01
 -1      2618 5.64878E-01
 -1      2619 3.98156E+00
 -1      2620 4.19456E+00
 -1      2621 4.83211E-01
 -1      2622 4.18086E-01
 -1      2623 4.03360E-01
 -1      2624 3.39072E-01
 -1      2625 3.11602E-01
 -1      2626 3.11729E-01
 -1      2627 2.85796E-01
 -1      2628 2.69533E-01
 -1      2629 2.71692E-01
 -1      2630 2.43855E-01
 -1      2631 2.28085E-01
 -1      2632 2.37352E-01
 -1      2633 2.17771E-01
 -1      2634 2.07478E-01
 -1      2635 2.28406E-01
 -1      2636 2.32527E-01
 -1      2637 2.11610E-01
 -1      2638 2.65700E-01
 -1      2639 2.91246E-01
 -1      2640 2.55418E-01
 -1      2641 3.43126E-01
 -1      2642 3.92350E-01
 -1      2643 3.40470E-01
 -1      2644 4.60955E-01
 -1      2645 5.29560E-01
 -1      2646 4.60955E-01
 -1      2647 6.05893E-01
 -1      2648 6.82227E-01
 -1      2649 6.05893E-01
 -1      2650 7.62579E-01
 -1      2651 8.60140E-01
 -1      2652 7.62579E-01
 -1      2653 9.33843E-01
 -1      2654 1.03574E+00
 -1      2655 9.16635E-01
 -1      2656 1.10104E+00
 -1      2657 1.16097E+00
 -1      2658 1.05563E+00
 -1      2659 1.20927E+00
 -1      2660 1.26186E+00
 -1      2661 1.16922E+00
 -1      2662 1.32841E+00
 -1      2663 1.33560E+00
 -1      2664 1.28406E+00
 -1      2665 1.30742E+00
 -1      2666 1.26953E+00
 -1      2667 1.32242E+00
 -1      2668 1.25401E+00
 -1      2669 1.28858E+00
 -1      2670 1.27872E+00
 -1      2671 1.32665E+00
 -1      2672 1.33079E+00
 -1      2673 1.30127E+00
 -1      2674 1.27853E+00
 -1      2675 1.22806E+00
 -1      2676 1.28709E+00
 -1      2677 1.17313E+00
 -1      2678 1.11466E+00
 -1      2679 1.17991E+00
 -1      2680 1.04196E+00
 -1      2681 9.42924E-01
 -1      2682 1.05228E+00
 -1      2683 8.75663E-01
 -1      2684 7.54003E-01
 -1      2685 9.12315E-01
 -1      2686 6.60766E-01
 -1      2687 5.73213E-01
 -1      2688 7.51817E-01
 -1      2689 4.87845E-01
 -1      2690 4.05199E-01
 -1      2691 5.73213E-01
 -1      2692 3.36959E-01
 -1      2693 2.81709E-01
 -1      2694 4.19605E-01
 -1      2695 2.37396E-01
 -1      2696 2.14955E-01
 -1      2697 3.07052E-01
 -1      2698 1.75495E-01
 -1      2699 1.54558E-01
 -1      2700 2.23280E-01
 -1      2701 1.37290E-01
 -1      2702 1.32722E-01
 -1      2703 1.66552E-01
 -1      2704 1.23824E-01
 -1      2705 1.20166E-01
 -1      2706 1.40386E-01
 -1      2707 1.09808E-01
 -1      2708 1.03727E-01
 -1      2709 1.21129E-01
 -1      2710 9.54713E-02
 -1      2711 8.83974E-02
 -1      2712 1.02514E-01
 -1      2713 7.99332E-02
 -1      2714 7.33100E-02
 -1      2715 8.57941E-02
 -1      2716 6.57323E-02
 -1      2717 5.86904E-02
 -1      2718 6.97523E-02
 -1      2719 5.16937E-02
 -1      2720 4.50897E-02
 -1      2721 5.51779E-02
 -1      2722 3.90388E-02
 -1      2723 3.33175E-02
 -1      2724 4.21303E-02
 -1      2725 2.83346E-02
 -1      2726 2.36625E-02
 -1      2727 3.10965E-02
 -1      2728 1.97241E-02
 -1      2729 1.60956E-02
 -1      2730 2.21751E-02
 -1      2731 1.30989E-02
 -1      2732 1.08473E-02
 -1      2733 1.52401E-02
 -1      2734 8.65365E-03
 -1      2735 7.28182E-03
 -1      2736 1.00497E-02
 -1      2737 5.74202E-03
 -1      2738 5.09683E-03
 -1      2739 6.31619E-03
 -1      2740 4.16841E-03
 -1      2741 3.46162E-03
 -1      2742 3.84797E-03
 -1      2743 3.10747E-03
 -1      2744 2.42663E-03
 -1      2745 2.56539E-03
 -1      2746 1.07575E+01
 -1      2747 8.63164E+00
 -1      2748 3.17534E-01
 -1      2749 2.79161E-01
 -1      2750 2.21010E-01
 -1      2751 2.61883E-01
 -1      2752 2.25490E-01
 -1      2753 8.94039E-01
 -1      2754 7.13948E-01
 -1      2755 1.38556E+00
 -1      2756 1.14080E+00
 -1      2757 1.05416E+00
 -1      2758 2.05851E+00
 -1      2759 1.71409E+00
 -1      2760 1.62945E+00
 -1      2761 3.06755E+00
 -1      2762 2.56700E+00
 -1      2763 2.46646E+00
 -1      2764 4.58907E+00
 -1      2765 3.85865E+00
 -1      2766 3.76606E+00
 -1      2767 6.52067E+00
 -1      2768 5.33212E+00
 -1      2769 5.30022E+00
 -1      2770 8.34390E+00
 -1      2771 7.78598E+00
 -1      2772 7.30859E+00
 -1      2773 2.90956E+00
 -1      2774 3.40693E+00
 -1      2775 9.01997E+00
 -1      2776 4.37415E+00
 -1      2777 5.15514E+00
 -1      2778 4.31938E+00
 -1      2779 1.39487E+00
 -1      2780 1.64892E+00
 -1      2781 9.60085E-01
 -1      2782 1.14029E+00
 -1      2783 1.31246E+00
 -1      2784 6.57824E-01
 -1      2785 7.86211E-01
 -1      2786 8.84017E-01
 -1      2787 4.48127E-01
 -1      2788 5.39524E-01
 -1      2789 5.91844E-01
 -1      2790 3.03905E-01
 -1      2791 3.68851E-01
 -1      2792 3.94268E-01
 -1      2793 2.08963E-01
 -1      2794 2.52679E-01
 -1      2795 2.63766E-01
 -1      2796 1.43155E-01
 -1      2797 1.75886E-01
 -1      2798 1.79462E-01
 -1      2799 9.89446E-02
 -1      2800 1.21923E-01
 -1      2801 1.25153E-01
 -1      2802 6.73222E-02
 -1      2803 8.33205E-02
 -1      2804 8.82966E-02
 -1      2805 4.48969E-02
 -1      2806 5.59498E-02
 -1      2807 6.13000E-02
 -1      2808 2.91545E-02
 -1      2809 3.67131E-02
 -1      2810 4.17437E-02
 -1      2811 1.84939E-02
 -1      2812 2.33017E-02
 -1      2813 2.77070E-02
 -1      2814 1.29550E-02
 -1      2815 1.46867E-02
 -1      2816 1.80470E-02
 -1      2817 9.03540E-03
 -1      2818 1.01725E-02
 -1      2819 1.14573E-02
 -1      2820 6.19122E-03
 -1      2821 7.31485E-03
 -1      2822 6.95424E-03
 -1      2823 4.57535E-03
 -1      2824 5.62862E-03
 -1      2825 4.67109E-03
 -1      2826 3.22141E-03
 -1      2827 4.05959E-03
 -1      2828 3.59272E-03
 -1      2829 2.20738E-03
 -1      2830 2.66436E-03
 -1      2831 2.51991E-03
 -1      2832 1.80107E-03
 -1      2833 1.31720E-03
 -1      2834 1.32237E-03
 -1      2835 2.82051E+01
 -1      2836 2.19858E+01
 -1      2837 1.24088E+01
 -1      2838 1.32237E-03
 -1      2839 1.36282E-03
 -1      2840 1.79550E-03
 -1      2841 1.20438E-03
 -1      2842 1.20438E-03
 -1      2843 1.15218E-03
 -1      2844 1.11948E-03
 -1      2845 1.57668E-03
 -1      2846 1.16838E-03
 -1      2847 9.92738E-04
 -1      2848 1.33235E-03
 -1      2849 1.96303E+01
 -1      2850 2.82051E+01
 -1      2851 7.65730E+00
 -1      2852 8.14315E+00
 -1      2853 7.78875E+00
 -1      2854 1.82133E+01
 -1      2855 2.08612E+01
 -1      2856 2.86163E-01
 -1      2857 3.41009E-01
 -1      2858 1.91620E-01
 -1      2859 1.23775E-03
 -1      2860 1.28360E-03
 -1      2861 1.76191E-03
 -1      2862 1.69495E-03
 -1      2863 6.41424E+00
 -1      2864 6.74896E+00
 -1      2865 2.02204E+00
 -1      2866 2.39013E+00
 -1      2867 1.94016E+00
 -1      2868 1.83648E+01
 -1      2869 1.48237E+01
 -1      2870 8.47882E+00
 -1      2871 9.46737E+00
 -1      2872 1.39037E+01
 -1      2873 1.06266E+01
 -1      2874 1.55232E+01
 -1      2875 1.18127E+01
 -1      2876 1.16630E+01
 -1      2877 1.07078E+01
 -1      2878 6.87830E+00
 -1      2879 5.17241E+00
 -1      2880 4.06979E+00
 -1      2881 5.47615E-01
 -1      2882 4.13078E-01
 -1      2883 6.41062E-01
 -1      2884 5.64959E-01
 -1      2885 5.05120E-01
 -1      2886 3.48237E-01
 -1      2887 1.01593E+01
 -1      2888 1.22783E+01
 -1      2889 1.58984E+01
 -1      2890 4.34895E-01
 -1      2891 4.17322E-01
 -1      2892 3.48141E-01
 -1      2893 3.59053E-01
 -1      2894 1.68500E-03
 -1      2895 1.29762E-03
 -1      2896 2.15916E-03
 -1      2897 4.25293E-01
 -1      2898 4.41339E-01
 -1      2899 2.62525E+01
 -1      2900 1.98258E+01
 -1      2901 4.34561E+00
 -1      2902 4.25340E+00
 -1      2903 7.69698E+00
 -1      2904 1.03687E+01
 -1      2905 8.79235E+00
 -1      2906 5.21064E+00
 -1      2907 4.31885E+00
 -1      2908 4.87672E+00
 -1      2909 5.90708E+00
 -1      2910 2.15670E+01
 -1      2911 1.79057E+01
 -1      2912 7.08827E+00
 -1      2913 6.29947E+00
 -1      2914 6.16030E-01
 -1      2915 5.69497E-01
 -1      2916 3.74684E-01
 -1      2917 4.24873E-01
 -1      2918 3.17183E-01
 -1      2919 3.66266E-01
 -1      2920 3.84900E-01
 -1      2921 5.21046E-01
 -1      2922 3.43944E-01
 -1      2923 4.40799E-01
 -1      2924 1.65605E-03
 -1      2925 1.65605E-03
 -1      2926 3.56110E+00
 -1      2927 7.01398E+00
 -1      2928 1.94377E-03
 -1      2929 9.82259E+00
 -1      2930 1.86494E+01
 -1      2931 1.09378E+01
 -1      2932 2.83272E+00
 -1      2933 1.72321E+01
 -1      2934 2.43891E+01
 -1      2935 1.43604E+01
 -1      2936 4.41339E-01
 -1      2937 4.41339E-01
 -1      2938 3.66759E-01
 -1      2939 1.30169E+01
 -1      2940 1.68713E+01
 -1      2941 4.75041E+00
 -1      2942 1.64803E+01
 -1      2943 3.98639E-01
 -1      2944 4.17668E-01
 -1      2945 3.59134E-01
 -1      2946 3.37771E-01
 -1      2947 1.24953E-03
 -1      2948 1.45303E-03
 -1      2949 1.77193E-03
 -1      2950 1.60615E+01
 -1      2951 1.32603E+01
 -1      2952 1.37213E+01
 -1      2953 1.42007E-03
 -1      2954 1.48587E-03
 -1      2955 1.22965E-03
 -1      2956 1.23418E-03
 -1      2957 1.75335E-03
 -1      2958 5.59689E+00
 -1      2959 3.79185E-01
 -1      2960 1.65605E-03
 -1      2961 1.80712E-03
 -1      2962 1.96890E-03
 -1      2963 1.97495E-03
 -1      2964 1.47627E+01
 -1      2965 4.53085E+00
 -1      2966 7.05838E+00
 -1      2967 6.24412E+00
 -1      2968 5.42759E+00
 -1      2969 3.78529E+00
 -1      2970 1.68221E-03
 -1      2971 4.84737E+00
 -1      2972 3.53720E-01
 -1      2973 4.11404E-01
 -1      2974 2.70718E-01
 -1      2975 2.28612E-01
 -1      2976 3.41917E-01
 -1      2977 3.22842E-01
 -1      2978 2.98085E-01
 -1      2979 3.27555E-01
 -1      2980 2.81775E+00
 -1      2981 3.49991E+00
 -1      2982 2.27801E-01
 -1      2983 2.00457E-01
 -1      2984 1.89553E-01
 -1      2985 1.75449E-01
 -1      2986 1.47822E-01
 -1      2987 1.76001E-01
 -1      2988 1.69498E-01
 -1      2989 1.37469E-01
 -1      2990 1.76869E-01
 -1      2991 1.87504E-01
 -1      2992 1.45392E-01
 -1      2993 2.23624E-01
 -1      2994 2.56797E-01
 -1      2995 1.88883E-01
 -1      2996 3.01740E-01
 -1      2997 3.53620E-01
 -1      2998 2.69946E-01
 -1      2999 4.28747E-01
 -1      3000 4.97352E-01
 -1      3001 3.90017E-01
 -1      3002 5.90526E-01
 -1      3003 6.66859E-01
 -1      3004 5.58318E-01
 -1      3005 7.62579E-01
 -1      3006 8.42932E-01
 -1      3007 7.47212E-01
 -1      3008 9.28255E-01
 -1      3009 1.00196E+00
 -1      3010 9.28255E-01
 -1      3011 1.10050E+00
 -1      3012 1.16579E+00
 -1      3013 1.11212E+00
 -1      3014 1.17785E+00
 -1      3015 1.22615E+00
 -1      3016 1.22272E+00
 -1      3017 1.31978E+00
 -1      3018 1.38632E+00
 -1      3019 1.32841E+00
 -1      3020 1.53829E+00
 -1      3021 1.51011E+00
 -1      3022 1.57402E+00
 -1      3023 1.35732E+00
 -1      3024 1.34180E+00
 -1      3025 1.57319E+00
 -1      3026 1.42593E+00
 -1      3027 1.46400E+00
 -1      3028 1.50453E+00
 -1      3029 1.46191E+00
 -1      3030 1.40966E+00
 -1      3031 1.58657E+00
 -1      3032 1.24647E+00
 -1      3033 1.19154E+00
 -1      3034 1.42129E+00
 -1      3035 1.15902E+00
 -1      3036 1.08632E+00
 -1      3037 1.22558E+00
 -1      3038 1.01218E+00
 -1      3039 9.44915E-01
 -1      3040 1.11892E+00
 -1      3041 8.45054E-01
 -1      3042 7.51817E-01
 -1      3043 9.44915E-01
 -1      3044 6.58015E-01
 -1      3045 5.72647E-01
 -1      3046 7.51251E-01
 -1      3047 5.03444E-01
 -1      3048 4.35204E-01
 -1      3049 5.88246E-01
 -1      3050 3.62747E-01
 -1      3051 3.18434E-01
 -1      3052 4.46586E-01
 -1      3053 2.62739E-01
 -1      3054 2.23280E-01
 -1      3055 3.18434E-01
 -1      3056 1.96920E-01
 -1      3057 1.79652E-01
 -1      3058 2.36380E-01
 -1      3059 1.59517E-01
 -1      3060 1.50619E-01
 -1      3061 1.89886E-01
 -1      3062 1.33236E-01
 -1      3063 1.22877E-01
 -1      3064 1.52368E-01
 -1      3065 1.11031E-01
 -1      3066 1.02775E-01
 -1      3067 1.23138E-01
 -1      3068 9.18906E-02
 -1      3069 8.34265E-02
 -1      3070 1.00407E-01
 -1      3071 7.34105E-02
 -1      3072 6.58329E-02
 -1      3073 7.95071E-02
 -1      3074 5.72318E-02
 -1      3075 5.02351E-02
 -1      3076 6.08901E-02
 -1      3077 4.34706E-02
 -1      3078 3.74197E-02
 -1      3079 4.55245E-02
 -1      3080 3.21463E-02
 -1      3081 2.71634E-02
 -1      3082 3.34866E-02
 -1      3083 2.30817E-02
 -1      3084 1.91434E-02
 -1      3085 2.41316E-02
 -1      3086 1.60624E-02
 -1      3087 1.30657E-02
 -1      3088 1.69690E-02
 -1      3089 1.07992E-02
 -1      3090 8.60546E-03
 -1      3091 1.16215E-02
 -1      3092 6.99002E-03
 -1      3093 5.45022E-03
 -1      3094 7.73949E-03
 -1      3095 4.32930E-03
 -1      3096 3.40088E-03
 -1      3097 5.00314E-03
 -1      3098 2.48982E-03
 -1      3099 2.13566E-03
 -1      3100 1.67777E-03
 -1      3101 2.97115E-03
 -1      3102 3.26341E-01
 -1      3103 3.04431E-01
 -1      3104 1.71216E+00
 -1      3105 1.38363E+00
 -1      3106 1.13569E+00
 -1      3107 8.88923E-01
 -1      3108 1.21840E+00
 -1      3109 4.07614E+00
 -1      3110 3.28504E+00
 -1      3111 5.54219E+00
 -1      3112 4.79913E+00
 -1      3113 4.31812E+00
 -1      3114 2.44601E+00
 -1      3115 2.96545E+00
 -1      3116 1.23988E+01
 -1      3117 3.70681E+00
 -1      3118 4.67403E+00
 -1      3119 3.32011E+00
 -1      3120 7.70151E-01
 -1      3121 9.44025E-01
 -1      3122 1.13151E+00
 -1      3123 1.38608E+00
 -1      3124 1.01764E+00
 -1      3125 3.57721E-01
 -1      3126 4.36997E-01
 -1      3127 2.42551E-01
 -1      3128 2.93777E-01
 -1      3129 3.36506E-01
 -1      3130 1.66243E-01
 -1      3131 1.99320E-01
 -1      3132 2.29331E-01
 -1      3133 1.14877E-01
 -1      3134 1.36110E-01
 -1      3135 1.55967E-01
 -1      3136 7.88504E-02
 -1      3137 9.44746E-02
 -1      3138 1.05431E-01
 -1      3139 5.37817E-02
 -1      3140 6.51541E-02
 -1      3141 7.13321E-02
 -1      3142 3.59231E-02
 -1      3143 4.41069E-02
 -1      3144 4.79610E-02
 -1      3145 2.35174E-02
 -1      3146 2.93702E-02
 -1      3147 3.17335E-02
 -1      3148 1.54748E-02
 -1      3149 1.92820E-02
 -1      3150 2.09452E-02
 -1      3151 9.88099E-03
 -1      3152 1.26635E-02
 -1      3153 1.38985E-02
 -1      3154 6.14626E-03
 -1      3155 7.86682E-03
 -1      3156 9.07301E-03
 -1      3157 4.40170E-03
 -1      3158 4.96431E-03
 -1      3159 5.87688E-03
 -1      3160 2.89933E-03
 -1      3161 3.41510E-03
 -1      3162 3.70831E-03
 -1      3163 2.52791E-03
 -1      3164 2.52791E-03
 -1      3165 1.66425E-03
 -1      3166 1.82369E-03
 -1      3167 2.30063E-03
 -1      3168 2.38553E-03
 -1      3169 2.63254E-03
 -1      3170 5.96711E+00
 -1      3171 8.46928E+00
 -1      3172 5.35455E+00
 -1      3173 1.32937E+01
 -1      3174 1.66113E+01
 -1      3175 1.18763E+01
 -1      3176 3.95012E-01
 -1      3177 3.72315E-01
 -1      3178 3.26663E-01
 -1      3179 3.20432E-01
 -1      3180 1.33856E+01
 -1      3181 1.75286E-01
 -1      3182 1.99567E-01
 -1      3183 5.24173E-01
 -1      3184 6.42473E-01
 -1      3185 7.02481E-01
 -1      3186 4.87627E-01
 -1      3187 2.62130E+00
 -1      3188 2.11281E+00
 -1      3189 1.86699E+00
 -1      3190 2.93139E+00
 -1      3191 2.64599E-01
 -1      3192 2.06448E-01
 -1      3193 2.14394E-01
 -1      3194 2.40100E-01
 -1      3195 2.25375E-01
 -1      3196 1.56299E-01
 -1      3197 2.12989E-03
 -1      3198 2.33291E-03
 -1      3199 1.66569E+00
 -1      3200 2.03882E+00
 -1      3201 2.17155E+00
 -1      3202 1.48474E+00
 -1      3203 4.03032E+00
 -1      3204 4.53748E+00
 -1      3205 4.22586E-01
 -1      3206 3.27042E-01
 -1      3207 3.07999E-01
 -1      3208 1.20932E+01
 -1      3209 9.71072E+00
 -1      3210 6.37698E+00
 -1      3211 4.62365E+00
 -1      3212 7.11870E-01
 -1      3213 5.45538E-01
 -1      3214 7.93399E-01
 -1      3215 2.52791E-03
 -1      3216 2.41462E-03
 -1      3217 3.26032E-03
 -1      3218 4.52678E+00
 -1      3219 4.86610E+00
 -1      3220 4.03654E+00
 -1      3221 2.84569E+00
 -1      3222 2.78450E+00
 -1      3223 1.02909E+01
 -1      3224 1.33856E+01
 -1      3225 1.33856E+01
 -1      3226 8.46928E+00
 -1      3227 4.75618E+00
 -1      3228 3.66734E+00
 -1      3229 1.28931E+01
 -1      3230 1.24744E+01
 -1      3231 8.92476E+00
 -1      3232 9.94923E+00
 -1      3233 1.22642E+01
 -1      3234 4.07290E+00
 -1      3235 4.79171E+00
 -1      3236 2.95304E-01
 -1      3237 2.81856E-01
 -1      3238 6.91078E+00
 -1      3239 8.82041E+00
 -1      3240 9.30389E+00
 -1      3241 8.24862E+00
 -1      3242 3.25450E+00
 -1      3243 3.28126E+00
 -1      3244 1.11457E+01
 -1      3245 7.32075E+00
 -1      3246 9.28233E+00
 -1      3247 2.70629E-03
 -1      3248 2.34833E-03
 -1      3249 9.79843E+00
 -1      3250 2.18204E-01
 -1      3251 8.13675E+00
 -1      3252 2.42505E-03
 -1      3253 2.45864E-03
 -1      3254 3.19105E-03
 -1      3255 2.97560E-03
 -1      3256 3.28697E+00
 -1      3257 6.05543E+00
 -1      3258 3.26920E-01
 -1      3259 3.26920E-01
 -1      3260 3.80669E+00
 -1      3261 3.78676E+00
 -1      3262 4.85687E+00
 -1      3263 3.67684E+00
 -1      3264 2.52595E-03
 -1      3265 3.16331E+00
 -1      3266 3.10948E-03
 -1      3267 2.38553E-03
 -1      3268 2.41890E-03
 -1      3269 3.54211E+00
 -1      3270 6.27218E+00
 -1      3271 1.11431E+01
 -1      3272 9.10495E+00
 -1      3273 8.07546E+00
 -1      3274 3.33263E-01
 -1      3275 2.91338E-01
 -1      3276 3.44175E-01
 -1      3277 3.19296E-01
 -1      3278 3.26920E-01
 -1      3279 2.87082E-01
 -1      3280 6.47123E+00
 -1      3281 4.08089E+00
 -1      3282 5.95253E+00
 -1      3283 3.39954E+00
 -1      3284 5.55435E+00
 -1      3285 2.34833E-03
 -1      3286 4.93395E-01
 -1      3287 4.96963E+00
 -1      3288 3.12677E-01
 -1      3289 3.44175E-01
 -1      3290 2.81024E-01
 -1      3291 2.87874E-01
 -1      3292 2.52547E-01
 -1      3293 3.44175E-01
 -1      3294 8.06766E+00
 -1      3295 2.02211E-01
 -1      3296 2.14923E-01
 -1      3297 1.85877E-01
 -1      3298 1.42683E-03
 -1      3299 1.36556E-03
 -1      3300 1.85690E-03
 -1      3301 1.80915E-03
 -1      3302 3.22126E-01
 -1      3303 2.78320E-01
 -1      3304 2.68691E-01
 -1      3305 8.08715E+00
 -1      3306 7.59466E+00
 -1      3307 1.14896E-01
 -1      3308 1.15448E-01
 -1      3309 1.35362E-01
 -1      3310 1.42733E-01
 -1      3311 1.12789E-01
 -1      3312 1.75605E-01
 -1      3313 2.11725E-01
 -1      3314 1.65576E-01
 -1      3315 2.68574E-01
 -1      3316 3.13517E-01
 -1      3317 2.55296E-01
 -1      3318 3.84037E-01
 -1      3319 4.59164E-01
 -1      3320 3.82665E-01
 -1      3321 5.41781E-01
 -1      3322 6.34955E-01
 -1      3323 5.35801E-01
 -1      3324 7.49020E-01
 -1      3325 8.44740E-01
 -1      3326 7.32483E-01
 -1      3327 9.60620E-01
 -1      3328 1.04594E+00
 -1      3329 9.62428E-01
 -1      3330 1.11661E+00
 -1      3331 1.21515E+00
 -1      3332 1.14897E+00
 -1      3333 1.35440E+00
 -1      3334 1.36646E+00
 -1      3335 1.35889E+00
 -1      3336 1.76956E+00
 -1      3337 1.86319E+00
 -1      3338 1.90124E+00
 -1      3339 2.16804E+00
 -1      3340 2.32001E+00
 -1      3341 2.60919E+00
 -1      3342 2.12777E+00
 -1      3343 1.97498E+00
 -1      3344 2.72180E+00
 -1      3345 1.50453E+00
 -1      3346 1.58866E+00
 -1      3347 2.05911E+00
 -1      3348 2.08715E+00
 -1      3349 2.08506E+00
 -1      3350 2.08715E+00
 -1      3351 2.26948E+00
 -1      3352 2.10629E+00
 -1      3353 2.77005E+00
 -1      3354 1.83251E+00
 -1      3355 1.80000E+00
 -1      3356 2.68070E+00
 -1      3357 1.22104E+00
 -1      3358 1.14689E+00
 -1      3359 1.82797E+00
 -1      3360 1.07839E+00
 -1      3361 9.78533E-01
 -1      3362 1.18051E+00
 -1      3363 8.86384E-01
 -1      3364 7.92581E-01
 -1      3365 1.01986E+00
 -1      3366 6.80225E-01
 -1      3367 6.11022E-01
 -1      3368 8.15357E-01
 -1      3369 5.19043E-01
 -1      3370 4.46586E-01
 -1      3371 6.11022E-01
 -1      3372 3.77417E-01
 -1      3373 3.21723E-01
 -1      3374 4.49874E-01
 -1      3375 2.78626E-01
 -1      3376 2.52267E-01
 -1      3377 3.37609E-01
 -1      3378 2.16404E-01
 -1      3379 1.96269E-01
 -1      3380 2.58650E-01
 -1      3381 1.72807E-01
 -1      3382 1.55424E-01
 -1      3383 1.99325E-01
 -1      3384 1.36581E-01
 -1      3385 1.24734E-01
 -1      3386 1.57020E-01
 -1      3387 1.08274E-01
 -1      3388 9.73895E-02
 -1      3389 1.21717E-01
 -1      3390 8.46726E-02
 -1      3391 7.46567E-02
 -1      3392 9.25391E-02
 -1      3393 6.61451E-02
 -1      3394 5.75441E-02
 -1      3395 7.13107E-02
 -1      3396 5.08463E-02
 -1      3397 4.40818E-02
 -1      3398 5.61014E-02
 -1      3399 3.80538E-02
 -1      3400 3.27804E-02
 -1      3401 4.33756E-02
 -1      3402 2.76847E-02
 -1      3403 2.36031E-02
 -1      3404 3.22519E-02
 -1      3405 1.95097E-02
 -1      3406 1.64287E-02
 -1      3407 2.30628E-02
 -1      3408 1.34534E-02
 -1      3409 1.11869E-02
 -1      3410 1.59941E-02
 -1      3411 8.96798E-03
 -1      3412 7.35253E-03
 -1      3413 1.07999E-02
 -1      3414 5.72800E-03
 -1      3415 4.60708E-03
 -1      3416 6.95648E-03
 -1      3417 2.39265E-01
 -1      3418 2.08104E-01
 -1      3419 4.59854E+00
 -1      3420 3.87555E+00
 -1      3421 4.57288E-03
 -1      3422 4.58830E-03
 -1      3423 5.57491E-03
 -1      3424 3.24647E-01
 -1      3425 3.39589E+00
 -1      3426 3.38520E+00
 -1      3427 2.98683E+00
 -1      3428 3.72819E+00
 -1      3429 1.97152E-01
 -1      3430 2.40383E-01
 -1      3431 2.79228E-01
 -1      3432 3.43172E-01
 -1      3433 2.47049E-01
 -1      3434 9.47790E-02
 -1      3435 1.15182E-01
 -1      3436 6.50839E-02
 -1      3437 7.87802E-02
 -1      3438 8.85307E-02
 -1      3439 4.38728E-02
 -1      3440 5.35476E-02
 -1      3441 6.09957E-02
 -1      3442 2.96472E-02
 -1      3443 3.62000E-02
 -1      3444 4.17865E-02
 -1      3445 1.99359E-02
 -1      3446 2.41713E-02
 -1      3447 2.86378E-02
 -1      3448 1.30727E-02
 -1      3449 1.58840E-02
 -1      3450 1.91101E-02
 -1      3451 8.25319E-03
 -1      3452 1.02674E-02
 -1      3453 1.22529E-02
 -1      3454 6.46467E-03
 -1      3455 7.64663E-03
 -1      3456 8.84098E-03
 -1      3457 7.34465E-03
 -1      3458 2.84809E-01
 -1      3459 4.85761E-03
 -1      3460 3.00561E-01
 -1      3461 3.14299E-01
 -1      3462 2.82086E-01
 -1      3463 9.61939E+00
 -1      3464 6.40465E+00
 -1      3465 5.89141E+00
 -1      3466 8.99859E+00
 -1      3467 5.09594E+00
 -1      3468 6.38902E+00
 -1      3469 8.21067E+00
 -1      3470 4.76266E+00
 -1      3471 2.42290E-01
 -1      3472 8.45503E-01
 -1      3473 6.68450E-01
 -1      3474 1.32225E-01
 -1      3475 1.34651E-01
 -1      3476 6.84222E+00
 -1      3477 6.43539E+00
 -1      3478 2.85552E+00
 -1      3479 3.38593E+00
 -1      3480 3.21918E-03
 -1      3481 3.69613E-03
 -1      3482 2.42229E+00
 -1      3483 3.21393E+00
 -1      3484 5.49113E-01
 -1      3485 4.26161E-01
 -1      3486 6.01217E-01
 -1      3487 1.37130E-01
 -1      3488 1.67263E-01
 -1      3489 1.78315E-01
 -1      3490 1.26477E-01
 -1      3491 2.58910E-01
 -1      3492 3.24509E+00
 -1      3493 2.83225E+00
 -1      3494 3.45129E-01
 -1      3495 2.82686E-01
 -1      3496 2.76395E-01
 -1      3497 4.00847E-01
 -1      3498 7.94031E-01
 -1      3499 9.81514E-01
 -1      3500 4.96963E+00
 -1      3501 5.60552E+00
 -1      3502 4.85761E-03
 -1      3503 4.85761E-03
 -1      3504 2.88345E+00
 -1      3505 2.85552E+00
 -1      3506 2.16424E-01
 -1      3507 1.52093E-01
 -1      3508 1.30445E-01
 -1      3509 2.18697E-01
 -1      3510 1.25644E+00
 -1      3511 1.00849E+00
 -1      3512 8.83546E-01
 -1      3513 7.59466E+00
 -1      3514 7.21348E+00
 -1      3515 5.88337E+00
 -1      3516 6.24182E+00
 -1      3517 7.37064E+00
 -1      3518 3.29297E-01
 -1      3519 3.09177E+00
 -1      3520 2.50466E+00
 -1      3521 2.57568E+00
 -1      3522 6.27218E+00
 -1      3523 1.21191E-01
 -1      3524 1.10286E-01
 -1      3525 8.82648E-02
 -1      3526 6.00689E+00
 -1      3527 1.97509E-01
 -1      3528 1.72638E-01
 -1      3529 1.75283E-01
 -1      3530 6.84322E-01
 -1      3531 6.48193E-01
 -1      3532 5.56643E-01
 -1      3533 3.43878E-03
 -1      3534 2.52771E-03
 -1      3535 2.27677E-03
 -1      3536 4.16364E-03
 -1      3537 3.11563E-03
 -1      3538 3.27594E+00
 -1      3539 2.99552E+00
 -1      3540 2.33178E+00
 -1      3541 1.91378E+00
 -1      3542 1.51313E+00
 -1      3543 1.30322E+00
 -1      3544 3.57200E+00
 -1      3545 3.47776E+00
 -1      3546 2.58288E+00
 -1      3547 2.16132E+00
 -1      3548 2.56940E+00
 -1      3549 1.75413E+00
 -1      3550 2.96443E+00
 -1      3551 2.50407E+00
 -1      3552 1.93751E-01
 -1      3553 2.64139E-01
 -1      3554 2.64139E-01
 -1      3555 1.80512E-01
 -1      3556 3.37596E+00
 -1      3557 3.40772E-01
 -1      3558 3.98050E-01
 -1      3559 4.85227E-01
 -1      3560 2.64402E-01
 -1      3561 6.84808E+00
 -1      3562 2.95447E+00
 -1      3563 3.93812E-03
 -1      3564 3.93812E-03
 -1      3565 4.52477E-03
 -1      3566 4.13712E-03
 -1      3567 4.20639E-03
 -1      3568 5.80368E-03
 -1      3569 5.51212E+00
 -1      3570 7.09854E+00
 -1      3571 5.97752E+00
 -1      3572 5.27270E+00
 -1      3573 5.87115E+00
 -1      3574 5.02085E+00
 -1      3575 4.57828E+00
 -1      3576 5.97752E+00
 -1      3577 9.71162E-02
 -1      3578 4.45604E+00
 -1      3579 5.75058E+00
 -1      3580 3.97318E+00
 -1      3581 1.16899E+00
 -1      3582 1.44860E+00
 -1      3583 1.43837E+00
 -1      3584 9.45375E-01
 -1      3585 2.56746E+00
 -1      3586 3.68728E+00
 -1      3587 4.32317E+00
 -1      3588 2.11420E-01
 -1      3589 2.10587E-01
 -1      3590 3.34578E+00
 -1      3591 2.64139E-01
 -1      3592 2.26180E-01
 -1      3593 1.84220E-01
 -1      3594 6.45489E-03
 -1      3595 2.30508E-01
 -1      3596 1.62123E-01
 -1      3597 2.30508E-01
 -1      3598 5.35005E+00
 -1      3599 6.01671E+00
 -1      3600 5.31969E+00
 -1      3601 2.57546E-03
 -1      3602 3.63905E-03
 -1      3603 3.49877E-03
 -1      3604 3.50491E-03
 -1      3605 4.52026E-03
 -1      3606 4.32741E-03
 -1      3607 1.81918E-01
 -1      3608 2.14790E-01
 -1      3609 2.61428E-01
 -1      3610 3.18276E-01
 -1      3611 2.77770E-01
 -1      3612 3.92006E-01
 -1      3613 4.62526E-01
 -1      3614 3.98137E-01
 -1      3615 5.50939E-01
 -1      3616 6.33556E-01
 -1      3617 5.60280E-01
 -1      3618 7.32483E-01
 -1      3619 8.46548E-01
 -1      3620 7.47621E-01
 -1      3621 1.17463E+00
 -1      3622 1.29051E+00
 -1      3623 1.17463E+00
 -1      3624 1.43747E+00
 -1      3625 1.50813E+00
 -1      3626 1.64967E+00
 -1      3627 1.35889E+00
 -1      3628 1.49815E+00
 -1      3629 1.64739E+00
 -1      3630 2.60919E+00
 -1      3631 2.91403E+00
 -1      3632 3.34578E+00
 -1      3633 3.15355E+00
 -1      3634 2.75198E+00
 -1      3635 2.28153E+00
 -1      3636 2.78001E+00
 -1      3637 2.77005E+00
 -1      3638 2.95447E+00
 -1      3639 2.40693E+00
 -1      3640 1.82797E+00
 -1      3641 1.33694E+00
 -1      3642 1.26845E+00
 -1      3643 1.91591E+00
 -1      3644 1.13818E+00
 -1      3645 1.04603E+00
 -1      3646 1.29462E+00
 -1      3647 9.71260E-01
 -1      3648 8.58904E-01
 -1      3649 1.08958E+00
 -1      3650 7.43560E-01
 -1      3651 6.51581E-01
 -1      3652 8.99463E-01
 -1      3653 5.81956E-01
 -1      3654 5.12787E-01
 -1      3655 7.14494E-01
 -1      3656 4.37999E-01
 -1      3657 3.94902E-01
 -1      3658 5.70080E-01
 -1      3659 3.25183E-01
 -1      3660 2.89320E-01
 -1      3661 4.25572E-01
 -1      3662 2.32672E-01
 -1      3663 2.09210E-01
 -1      3664 2.99205E-01
 -1      3665 1.70831E-01
 -1      3666 1.51988E-01
 -1      3667 2.04178E-01
 -1      3668 1.28836E-01
 -1      3669 1.12375E-01
 -1      3670 1.42647E-01
 -1      3671 1.02350E-01
 -1      3672 8.96336E-02
 -1      3673 1.09470E-01
 -1      3674 7.98222E-02
 -1      3675 7.13107E-02
 -1      3676 8.96336E-02
 -1      3677 6.23092E-02
 -1      3678 5.56115E-02
 -1      3679 7.08207E-02
 -1      3680 4.79714E-02
 -1      3681 4.19433E-02
 -1      3682 5.41791E-02
 -1      3683 3.56651E-02
 -1      3684 3.05693E-02
 -1      3685 4.02608E-02
 -1      3686 2.56059E-02
 -1      3687 2.15125E-02
 -1      3688 2.90191E-02
 -1      3689 1.77131E-02
 -1      3690 1.47378E-02
 -1      3691 2.02562E-02
 -1      3692 1.20276E-02
 -1      3693 9.80874E-03
 -1      3694 1.37466E-02
 -1      3695 7.83977E-03
 -1      3696 6.21524E-03
 -1      3697 9.06750E-03
 -1      3698 4.80735E-03
 -1      3699 9.08566E-01
 -1      3700 7.45574E-01
 -1      3701 5.25847E-02
 -1      3702 6.41210E-02
 -1      3703 7.49225E-02
 -1      3704 9.09213E-02
 -1      3705 6.65116E-02
 -1      3706 2.50515E-02
 -1      3707 3.05274E-02
 -1      3708 1.70133E-02
 -1      3709 2.10652E-02
 -1      3710 2.29548E-02
 -1      3711 1.11339E-02
 -1      3712 1.39393E-02
 -1      3713 1.58944E-02
 -1      3714 6.44675E-01
 -1      3715 5.25337E-01
 -1      3716 6.69694E-01
 -1      3717 5.07268E+00
 -1      3718 4.94916E+00
 -1      3719 2.01911E-01
 -1      3720 2.40756E-01
 -1      3721 2.30191E+00
 -1      3722 2.68070E+00
 -1      3723 2.19774E-01
 -1      3724 2.32462E-01
 -1      3725 1.78647E-01
 -1      3726 2.60919E+00
 -1      3727 2.19922E+00
 -1      3728 2.67258E+00
 -1      3729 2.30434E+00
 -1      3730 7.34465E-03
 -1      3731 7.34465E-03
 -1      3732 8.23442E-03
 -1      3733 4.75687E+00
 -1      3734 4.38561E+00
 -1      3735 1.04914E-01
 -1      3736 1.09523E-01
 -1      3737 3.70493E+00
 -1      3738 1.49993E-01
 -1      3739 1.36532E-01
 -1      3740 1.57790E-01
 -1      3741 1.50227E-01
 -1      3742 1.30359E-01
 -1      3743 1.69774E-01
 -1      3744 1.62037E-01
 -1      3745 4.94916E+00
 -1      3746 2.95447E+00
 -1      3747 3.67575E-02
 -1      3748 4.44304E-02
 -1      3749 4.75557E-02
 -1      3750 3.31712E-02
 -1      3751 2.33249E-01
 -1      3752 2.38245E-01
 -1      3753 1.81671E-01
 -1      3754 1.88621E-01
 -1      3755 1.28283E-01
 -1      3756 1.48198E-01
 -1      3757 1.44932E-01
 -1      3758 5.69065E-03
 -1      3759 2.10071E-01
 -1      3760 1.74606E-01
 -1      3761 4.39820E-01
 -1      3762 3.58788E-01
 -1      3763 4.83278E-01
 -1      3764 4.67067E-01
 -1      3765 1.90124E+00
 -1      3766 1.90124E+00
 -1      3767 2.68070E+00
 -1      3768 1.06596E+00
 -1      3769 9.27987E-01
 -1      3770 1.32265E+00
 -1      3771 4.15597E+00
 -1      3772 3.27594E+00
 -1      3773 1.97791E+00
 -1      3774 3.52132E+00
 -1      3775 2.91818E+00
 -1      3776 3.31936E+00
 -1      3777 6.08801E-03
 -1      3778 6.97778E-03
 -1      3779 5.43680E-03
 -1      3780 2.86064E-01
 -1      3781 3.40942E-01
 -1      3782 2.40926E-01
 -1      3783 9.11494E-02
 -1      3784 1.04758E-01
 -1      3785 1.26706E-01
 -1      3786 8.62501E-03
 -1      3787 9.23158E-03
 -1      3788 1.09179E-02
 -1      3789 8.62501E-03
 -1      3790 1.98980E-01
 -1      3791 1.41384E-01
 -1      3792 1.50571E-01
 -1      3793 2.14644E+00
 -1      3794 2.25146E+00
 -1      3795 1.76044E+00
 -1      3796 2.53243E+00
 -1      3797 5.93265E-03
 -1      3798 1.97412E-01
 -1      3799 1.73865E-01
 -1      3800 1.67572E-01
 -1      3801 1.43976E-01
 -1      3802 4.66012E+00
 -1      3803 4.38802E+00
 -1      3804 5.00060E+00
 -1      3805 4.57828E+00
 -1      3806 1.39152E-01
 -1      3807 1.11076E-01
 -1      3808 1.53912E-01
 -1      3809 4.43501E+00
 -1      3810 4.05376E+00
 -1      3811 3.36894E+00
 -1      3812 3.29851E+00
 -1      3813 7.54080E-01
 -1      3814 9.41551E-01
 -1      3815 2.92810E+00
 -1      3816 4.21045E+00
 -1      3817 3.95498E+00
 -1      3818 2.96167E-01
 -1      3819 2.52747E-01
 -1      3820 3.35140E-01
 -1      3821 3.07707E+00
 -1      3822 3.38709E+00
 -1      3823 2.29843E-01
 -1      3824 5.60171E-01
 -1      3825 6.69881E-01
 -1      3826 6.66057E-01
 -1      3827 1.85445E+00
 -1      3828 2.67996E+00
 -1      3829 2.36212E+00
 -1      3830 3.82266E+00
 -1      3831 3.19480E+00
 -1      3832 3.02051E-01
 -1      3833 3.48689E-01
 -1      3834 2.26948E+00
 -1      3835 4.33653E-01
 -1      3836 5.07383E-01
 -1      3837 4.57934E-01
 -1      3838 6.04219E-01
 -1      3839 6.92632E-01
 -1      3840 6.39735E-01
 -1      3841 8.26500E-01
 -1      3842 9.25427E-01
 -1      3843 8.70439E-01
 -1      3844 1.44140E+00
 -1      3845 1.76948E+00
 -1      3846 1.52028E+00
 -1      3847 2.15905E+00
 -1      3848 2.30601E+00
 -1      3849 2.41872E+00
 -1      3850 1.93074E-01
 -1      3851 1.86174E+00
 -1      3852 1.73148E+00
 -1      3853 2.19730E+00
 -1      3854 1.39914E+00
 -1      3855 1.32437E+00
 -1      3856 1.96626E+00
 -1      3857 1.01481E+00
 -1      3858 8.99463E-01
 -1      3859 1.32437E+00
 -1      3860 7.71687E-01
 -1      3861 7.02061E-01
 -1      3862 8.87031E-01
 -1      3863 5.98192E-01
 -1      3864 5.23403E-01
 -1      3865 6.55384E-01
 -1      3866 4.45351E-01
 -1      3867 3.75632E-01
 -1      3868 4.73463E-01
 -1      3869 3.14210E-01
 -1      3870 2.57562E-01
 -1      3871 3.33989E-01
 -1      3872 2.21904E-01
 -1      3873 1.83524E-01
 -1      3874 2.36908E-01
 -1      3875 1.57248E-01
 -1      3876 1.34096E-01
 -1      3877 1.74974E-01
 -1      3878 1.14169E-01
 -1      3879 1.04144E-01
 -1      3880 1.28770E-01
 -1      3881 9.08338E-02
 -1      3882 8.10225E-02
 -1      3883 9.55326E-02
 -1      3884 7.05854E-02
 -1      3885 6.15839E-02
 -1      3886 7.17857E-02
 -1      3887 5.35339E-02
 -1      3888 4.58938E-02
 -1      3889 5.32986E-02
 -1      3890 3.94772E-02
 -1      3891 3.31990E-02
 -1      3892 3.88320E-02
 -1      3893 2.83834E-02
 -1      3894 2.34200E-02
 -1      3895 2.75999E-02
 -1      3896 1.98383E-02
 -1      3897 1.60389E-02
 -1      3898 1.92026E-02
 -1      3899 1.53716E-02
 -1      3900 1.26615E-02
 -1      3901 1.49537E-02
 -1      3902 9.06586E-03
 -1      3903 7.09689E-03
 -1      3904 1.06909E-02
 -1      3905 1.99727E+00
 -1      3906 1.57927E+00
 -1      3907 1.34200E+00
 -1      3908 2.87730E+00
 -1      3909 1.33276E-02
 -1      3910 1.64017E-02
 -1      3911 1.92121E-02
 -1      3912 2.31984E-02
 -1      3913 1.66453E-02
 -1      3914 6.90071E-01
 -1      3915 5.89172E-01
 -1      3916 1.72357E-01
 -1      3917 1.40739E-01
 -1      3918 4.57828E+00
 -1      3919 4.03875E-01
 -1      3920 4.75292E-01
 -1      3921 4.96979E-01
 -1      3922 3.49166E-01
 -1      3923 1.13285E+00
 -1      3924 1.43837E+00
 -1      3925 1.54892E+00
 -1      3926 9.41551E-01
 -1      3927 2.13814E-01
 -1      3928 2.47534E-01
 -1      3929 3.18453E-01
 -1      3930 1.51358E-01
 -1      3931 1.88621E-01
 -1      3932 1.89408E-01
 -1      3933 2.61528E-01
 -1      3934 2.18853E-01
 -1      3935 1.60799E-01
 -1      3936 1.79560E-01
 -1      3937 1.75366E-01
 -1      3938 5.64797E-02
 -1      3939 6.72812E-02
 -1      3940 4.43501E+00
 -1      3941 3.77544E+00
 -1      3942 3.06971E+00
 -1      3943 3.68229E+00
 -1      3944 3.25998E+00
 -1      3945 2.40836E+00
 -1      3946 2.84392E+00
 -1      3947 2.51207E+00
 -1      3948 1.93074E-01
 -1      3949 2.42582E+00
 -1      3950 1.89408E-01
 -1      3951 1.72357E-01
 -1      3952 1.69774E-01
 -1      3953 3.96814E-02
 -1      3954 4.78358E-02
 -1      3955 4.86053E-02
 -1      3956 6.20712E-01
 -1      3957 7.04911E-01
 -1      3958 1.60833E-02
 -1      3959 1.65906E-02
 -1      3960 1.41809E-02
 -1      3961 1.98131E+00
 -1      3962 1.79691E-01
 -1      3963 1.48006E-01
 -1      3964 3.03491E+00
 -1      3965 2.58305E+00
 -1      3966 2.63263E+00
 -1      3967 4.98676E-03
 -1      3968 5.27110E-03
 -1      3969 4.35455E-03
 -1      3970 2.09574E-01
 -1      3971 2.54881E-01
 -1      3972 5.04289E-01
 -1      3973 4.83912E-01
 -1      3974 3.98395E-01
 -1      3975 8.02096E-02
 -1      3976 9.40460E-02
 -1      3977 7.01777E-02
 -1      3978 8.18073E-03
 -1      3979 8.57132E-03
 -1      3980 1.37367E-02
 -1      3981 6.92409E-03
 -1      3982 2.40659E-02
 -1      3983 2.78085E-02
 -1      3984 3.40386E-02
 -1      3985 8.13100E-01
 -1      3986 7.32578E-01
 -1      3987 9.70494E-01
 -1      3988 2.63373E+00
 -1      3989 2.19730E+00
 -1      3990 2.29860E+00
 -1      3991 2.58305E+00
 -1      3992 1.22256E-01
 -1      3993 1.51280E-01
 -1      3994 1.79326E-01
 -1      3995 1.93281E-01
 -1      3996 3.29541E+00
 -1      3997 2.01125E+00
 -1      3998 3.35500E-01
 -1      3999 2.72879E-01
 -1      4000 3.36134E-01
 -1      4001 1.31809E-01
 -1      4002 1.69859E-01
 -1      4003 1.52808E-01
 -1      4004 2.61888E-01
 -1      4005 2.29681E-01
 -1      4006 8.56712E-01
 -1      4007 9.02057E-01
 -1      4008 1.09335E+00
 -1      4009 3.00731E+00
 -1      4010 3.00731E+00
 -1      4011 2.30159E+00
 -1      4012 5.95979E-03
 -1      4013 4.79391E-03
 -1      4014 1.79691E-01
 -1      4015 1.81923E-01
 -1      4016 2.50538E-01
 -1      4017 2.00424E-01
 -1      4018 4.91298E-01
 -1      4019 5.76262E-01
 -1      4020 6.72277E-01
 -1      4021 7.69113E-01
 -1      4022 7.05641E-01
 -1      4023 9.56707E-01
 -1      4024 1.09057E+00
 -1      4025 9.89249E-01
 -1      4026 1.89408E-01
 -1      4027 4.98284E-01
 -1      4028 5.37138E-01
 -1      4029 4.13405E-01
 -1      4030 2.29860E+00
 -1      4031 1.96626E+00
 -1      4032 1.13830E+00
 -1      4033 1.01052E+00
 -1      4034 7.25348E-01
 -1      4035 6.21478E-01
 -1      4036 9.76619E-01
 -1      4037 6.15041E-01
 -1      4038 5.36989E-01
 -1      4039 6.85005E-01
 -1      4040 4.40867E-01
 -1      4041 3.79445E-01
 -1      4042 5.82446E-01
 -1      4043 3.05619E-01
 -1      4044 2.69961E-01
 -1      4045 4.12498E-01
 -1      4046 2.19064E-01
 -1      4047 1.92788E-01
 -1      4048 2.87775E-01
 -1      4049 1.55320E-01
 -1      4050 1.35392E-01
 -1      4051 1.99410E-01
 -1      4052 1.08842E-01
 -1      4053 9.55326E-02
 -1      4054 1.35392E-01
 -1      4055 8.23647E-02
 -1      4056 7.19276E-02
 -1      4057 9.56746E-02
 -1      4058 5.88962E-02
 -1      4059 5.08462E-02
 -1      4060 6.94752E-02
 -1      4061 4.24599E-02
 -1      4062 3.60433E-02
 -1      4063 4.80575E-02
 -1      4064 3.09938E-02
 -1      4065 2.61783E-02
 -1      4066 3.46217E-02
 -1      4067 2.20864E-02
 -1      4068 1.85047E-02
 -1      4069 2.54803E-02
 -1      4070 1.57861E-02
 -1      4071 1.51188E-02
 -1      4072 1.86698E-02
 -1      4073 2.44016E-01
 -1      4074 1.93902E-01
 -1      4075 1.65906E-02
 -1      4076 1.94010E-02
 -1      4077 2.90585E+00
 -1      4078 1.72869E-01
 -1      4079 1.75366E-01
 -1      4080 1.95427E-01
 -1      4081 2.16460E-01
 -1      4082 1.58832E+00
 -1      4083 1.33170E+00
 -1      4084 1.21681E+00
 -1      4085 1.85776E+00
 -1      4086 2.31234E+00
 -1      4087 1.97831E+00
 -1      4088 1.11508E-01
 -1      4089 1.28778E-01
 -1      4090 1.40532E-01
 -1      4091 1.00568E-01
 -1      4092 1.66646E+00
 -1      4093 1.71271E+00
 -1      4094 1.25038E+00
 -1      4095 1.97100E+00
 -1      4096 2.61888E-01
 -1      4097 4.37472E-01
 -1      4098 4.91989E-01
 -1      4099 6.10317E-01
 -1      4100 1.20837E-02
 -1      4101 1.25337E-02
 -1      4102 1.37367E-02
 -1      4103 2.29681E-01
 -1      4104 2.63935E-01
 -1      4105 4.37472E-01
 -1      4106 2.29681E-01
 -1      4107 2.55366E-01
 -1      4108 4.91832E-01
 -1      4109 6.14259E-01
 -1      4110 1.52485E+00
 -1      4111 2.04082E+00
 -1      4112 3.43187E-02
 -1      4113 1.93463E-02
 -1      4114 1.64598E+00
 -1      4115 1.33642E+00
 -1      4116 1.76487E-02
 -1      4117 1.68164E-02
 -1      4118 6.23761E-01
 -1      4119 6.69067E-01
 -1      4120 8.66213E-01
 -1      4121 1.32208E-02
 -1      4122 2.22309E-02
 -1      4123 2.22857E-02
 -1      4124 2.68958E-02
 -1      4125 6.10278E-01
 -1      4126 5.05019E-01
 -1      4127 2.91042E+00
 -1      4128 4.53369E-02
 -1      4129 5.39809E-02
 -1      4130 1.51297E+00
 -1      4131 6.98780E-02
 -1      4132 8.28064E-02
 -1      4133 6.66096E-02
 -1      4134 2.60284E-01
 -1      4135 2.91636E-01
 -1      4136 1.90860E+00
 -1      4137 1.65043E-01
 -1      4138 1.95291E-01
 -1      4139 3.54569E-01
 -1      4140 3.71138E-01
 -1      4141 3.08242E-01
 -1      4142 2.90370E-01
 -1      4143 4.77127E-01
 -1      4144 1.21089E+00
 -1      4145 1.61112E+00
 -1      4146 2.14229E+00
 -1      4147 2.18031E-01
 -1      4148 2.46269E-01
 -1      4149 2.83024E-01
 -1      4150 1.45991E+00
 -1      4151 7.85956E-01
 -1      4152 6.62927E-01
 -1      4153 6.63656E-01
 -1      4154 1.11631E+00
 -1      4155 1.30390E+00
 -1      4156 3.21562E-02
 -1      4157 3.77990E-02
 -1      4158 4.31745E-02
 -1      4159 3.03761E-02
 -1      4160 3.55874E-01
 -1      4161 1.97831E+00
 -1      4162 1.50449E+00
 -1      4163 1.14328E+00
 -1      4164 3.60881E-01
 -1      4165 4.19717E-01
 -1      4166 4.96839E-01
 -1      4167 3.46867E-01
 -1      4168 8.72650E-01
 -1      4169 8.66213E-01
 -1      4170 6.23761E-01
 -1      4171 5.27638E-01
 -1      4172 4.55524E-01
 -1      4173 3.81698E-01
 -1      4174 3.03841E-01
 -1      4175 2.52944E-01
 -1      4176 2.01965E-01
 -1      4177 1.64497E-01
 -1      4178 9.86963E-02
 -1      4179 8.55284E-02
 -1      4180 8.25066E-02
 -1      4181 6.94752E-02
 -1      4182 5.35781E-02
 -1      4183 4.51918E-02
 -1      4184 3.76539E-02
 -1      4185 3.26044E-02
 -1      4186 2.73439E-02
 -1      4187 2.32520E-02
 -1      4188 2.03674E-02
 -1      4189 1.76487E-02
 -1      4190 2.50714E-01
 -1      4191 1.29350E+00
 -1      4192 1.43855E+00
 -1      4193 1.65803E+00
 -1      4194 2.29860E+00
 -1      4195 1.83507E+00
 -1      4196 1.40535E-01
 -1      4197 1.42545E-01
 -1      4198 1.18034E-01
 -1      4199 1.70802E+00
 -1      4200 5.95815E-03
 -1      4201 1.24043E+00
 -1      4202 9.55257E-01
 -1      4203 1.39989E-01
 -1      4204 1.93463E-02
 -1      4205 1.45991E+00
 -1      4206 6.63656E-01
 -1      4207 6.62965E-01
 -1      4208 7.58980E-01
 -1      4209 3.03591E-01
 -1      4210 6.11008E-01
 -1      4211 4.77127E-01
 -1      4212 6.78568E-01
 -1      4213 8.55284E-02
 -1      4214 1.13440E-01
 -1      4215 1.03294E-01
 -1      4216 1.13647E+00
 -1      4217 1.05386E+00
 -1      4218 1.21089E+00
 -1      4219 1.07363E+00
 -1      4220 8.58282E-02
 -1      4221 1.03290E-01
 -1      4222 8.66213E-01
 -1      4223 1.93463E-02
 -3
 9999
