    1C
    1UUSER                                                              
    1UDATE              27.october.2022                                 
    1UTIME              00:43:49                                        
    1UHOST                                                              
    1UPGM               CalculiX                                        
    1UVERSION           Version 2.17                             
    1UCOMPILETIME       Thu Jul 23 21:43:50 CEST 2020                    
    1UDIR                                                               
    1UDBN                                                               
    1UMAT    1SOLIDMATERIAL                                             
    2C                          4264                                     1
 -1         1 1.10807E+02 3.54546E+01 0.00000E+00
 -1         2 1.24019E+02 3.22295E+01 0.00000E+00
 -1         3 1.50000E+02 0.00000E+00 0.00000E+00
 -1         4 1.50000E+02 5.00000E+01 0.00000E+00
 -1         5 0.00000E+00 0.00000E+00 0.00000E+00
 -1         6 0.00000E+00 5.00000E+01 0.00000E+00
 -1         7 0.00000E+00 4.70500E+01 0.00000E+00
 -1         8 0.00000E+00 4.41000E+01 0.00000E+00
 -1         9 0.00000E+00 4.11500E+01 0.00000E+00
 -1        10 0.00000E+00 3.82000E+01 0.00000E+00
 -1        11 0.00000E+00 3.52500E+01 0.00000E+00
 -1        12 0.00000E+00 3.23500E+01 0.00000E+00
 -1        13 0.00000E+00 2.94000E+01 0.00000E+00
 -1        14 0.00000E+00 2.64500E+01 0.00000E+00
 -1        15 0.00000E+00 2.35000E+01 0.00000E+00
 -1        16 0.00000E+00 2.05500E+01 0.00000E+00
 -1        17 0.00000E+00 1.76000E+01 0.00000E+00
 -1        18 0.00000E+00 1.47000E+01 0.00000E+00
 -1        19 0.00000E+00 1.17500E+01 0.00000E+00
 -1        20 0.00000E+00 8.80000E+00 0.00000E+00
 -1        21 0.00000E+00 5.85000E+00 0.00000E+00
 -1        22 0.00000E+00 2.90000E+00 0.00000E+00
 -1        23 3.15000E+00 5.00000E+01 0.00000E+00
 -1        24 6.15000E+00 5.00000E+01 0.00000E+00
 -1        25 9.15000E+00 5.00000E+01 0.00000E+00
 -1        26 1.21500E+01 5.00000E+01 0.00000E+00
 -1        27 1.51500E+01 5.00000E+01 0.00000E+00
 -1        28 1.81500E+01 5.00000E+01 0.00000E+00
 -1        29 2.11500E+01 5.00000E+01 0.00000E+00
 -1        30 2.41500E+01 5.00000E+01 0.00000E+00
 -1        31 2.71500E+01 5.00000E+01 0.00000E+00
 -1        32 3.01500E+01 5.00000E+01 0.00000E+00
 -1        33 3.31500E+01 5.00000E+01 0.00000E+00
 -1        34 3.61500E+01 5.00000E+01 0.00000E+00
 -1        35 3.91500E+01 5.00000E+01 0.00000E+00
 -1        36 4.23000E+01 5.00000E+01 0.00000E+00
 -1        37 4.53000E+01 5.00000E+01 0.00000E+00
 -1        38 4.83000E+01 5.00000E+01 0.00000E+00
 -1        39 5.13000E+01 5.00000E+01 0.00000E+00
 -1        40 5.43000E+01 5.00000E+01 0.00000E+00
 -1        41 5.73000E+01 5.00000E+01 0.00000E+00
 -1        42 6.03000E+01 5.00000E+01 0.00000E+00
 -1        43 6.33000E+01 5.00000E+01 0.00000E+00
 -1        44 6.63000E+01 5.00000E+01 0.00000E+00
 -1        45 6.93000E+01 5.00000E+01 0.00000E+00
 -1        46 7.23000E+01 5.00000E+01 0.00000E+00
 -1        47 7.53000E+01 5.00000E+01 0.00000E+00
 -1        48 7.83000E+01 5.00000E+01 0.00000E+00
 -1        49 8.14500E+01 5.00000E+01 0.00000E+00
 -1        50 8.44500E+01 5.00000E+01 0.00000E+00
 -1        51 8.74500E+01 5.00000E+01 0.00000E+00
 -1        52 9.04500E+01 5.00000E+01 0.00000E+00
 -1        53 9.34500E+01 5.00000E+01 0.00000E+00
 -1        54 9.64500E+01 5.00000E+01 0.00000E+00
 -1        55 9.94500E+01 5.00000E+01 0.00000E+00
 -1        56 1.02450E+02 5.00000E+01 0.00000E+00
 -1        57 1.05450E+02 5.00000E+01 0.00000E+00
 -1        58 1.08450E+02 5.00000E+01 0.00000E+00
 -1        59 1.11450E+02 5.00000E+01 0.00000E+00
 -1        60 1.14450E+02 5.00000E+01 0.00000E+00
 -1        61 1.17150E+02 5.00000E+01 0.00000E+00
 -1        62 1.20000E+02 5.00000E+01 0.00000E+00
 -1        63 1.23000E+02 5.00000E+01 0.00000E+00
 -1        64 1.26000E+02 5.00000E+01 0.00000E+00
 -1        65 1.29000E+02 5.00000E+01 0.00000E+00
 -1        66 1.32000E+02 5.00000E+01 0.00000E+00
 -1        67 1.35000E+02 5.00000E+01 0.00000E+00
 -1        68 1.38000E+02 5.00000E+01 0.00000E+00
 -1        69 1.41000E+02 5.00000E+01 0.00000E+00
 -1        70 1.44000E+02 5.00000E+01 0.00000E+00
 -1        71 1.47000E+02 5.00000E+01 0.00000E+00
 -1        72 3.15000E+00 0.00000E+00 0.00000E+00
 -1        73 6.15000E+00 0.00000E+00 0.00000E+00
 -1        74 9.15000E+00 0.00000E+00 0.00000E+00
 -1        75 1.21500E+01 0.00000E+00 0.00000E+00
 -1        76 1.51500E+01 0.00000E+00 0.00000E+00
 -1        77 1.81500E+01 0.00000E+00 0.00000E+00
 -1        78 2.11500E+01 0.00000E+00 0.00000E+00
 -1        79 2.41500E+01 0.00000E+00 0.00000E+00
 -1        80 2.71500E+01 0.00000E+00 0.00000E+00
 -1        81 3.01500E+01 0.00000E+00 0.00000E+00
 -1        82 3.31500E+01 0.00000E+00 0.00000E+00
 -1        83 3.61500E+01 0.00000E+00 0.00000E+00
 -1        84 3.91500E+01 0.00000E+00 0.00000E+00
 -1        85 4.21500E+01 0.00000E+00 0.00000E+00
 -1        86 4.51500E+01 0.00000E+00 0.00000E+00
 -1        87 4.81500E+01 0.00000E+00 0.00000E+00
 -1        88 5.11500E+01 0.00000E+00 0.00000E+00
 -1        89 5.41500E+01 0.00000E+00 0.00000E+00
 -1        90 5.71500E+01 0.00000E+00 0.00000E+00
 -1        91 6.01500E+01 0.00000E+00 0.00000E+00
 -1        92 6.31500E+01 0.00000E+00 0.00000E+00
 -1        93 6.61500E+01 0.00000E+00 0.00000E+00
 -1        94 6.91500E+01 0.00000E+00 0.00000E+00
 -1        95 7.21500E+01 0.00000E+00 0.00000E+00
 -1        96 7.51500E+01 0.00000E+00 0.00000E+00
 -1        97 7.81500E+01 0.00000E+00 0.00000E+00
 -1        98 8.11500E+01 0.00000E+00 0.00000E+00
 -1        99 8.41500E+01 0.00000E+00 0.00000E+00
 -1       100 8.71500E+01 0.00000E+00 0.00000E+00
 -1       101 9.01500E+01 0.00000E+00 0.00000E+00
 -1       102 9.31500E+01 0.00000E+00 0.00000E+00
 -1       103 9.61500E+01 0.00000E+00 0.00000E+00
 -1       104 9.91500E+01 0.00000E+00 0.00000E+00
 -1       105 1.02150E+02 0.00000E+00 0.00000E+00
 -1       106 1.05150E+02 0.00000E+00 0.00000E+00
 -1       107 1.08150E+02 0.00000E+00 0.00000E+00
 -1       108 1.11150E+02 0.00000E+00 0.00000E+00
 -1       109 1.14150E+02 0.00000E+00 0.00000E+00
 -1       110 1.17150E+02 0.00000E+00 0.00000E+00
 -1       111 1.20150E+02 0.00000E+00 0.00000E+00
 -1       112 1.23150E+02 0.00000E+00 0.00000E+00
 -1       113 1.26150E+02 0.00000E+00 0.00000E+00
 -1       114 1.29150E+02 0.00000E+00 0.00000E+00
 -1       115 1.32150E+02 0.00000E+00 0.00000E+00
 -1       116 1.35150E+02 0.00000E+00 0.00000E+00
 -1       117 1.38150E+02 0.00000E+00 0.00000E+00
 -1       118 1.41150E+02 0.00000E+00 0.00000E+00
 -1       119 1.44150E+02 0.00000E+00 0.00000E+00
 -1       120 1.47150E+02 0.00000E+00 0.00000E+00
 -1       121 1.50000E+02 2.95000E+00 0.00000E+00
 -1       122 1.50000E+02 5.90000E+00 0.00000E+00
 -1       123 1.50000E+02 8.85000E+00 0.00000E+00
 -1       124 1.50000E+02 1.18000E+01 0.00000E+00
 -1       125 1.50000E+02 1.47500E+01 0.00000E+00
 -1       126 1.50000E+02 1.76500E+01 0.00000E+00
 -1       127 1.50000E+02 2.06000E+01 0.00000E+00
 -1       128 1.50000E+02 2.35500E+01 0.00000E+00
 -1       129 1.50000E+02 2.65000E+01 0.00000E+00
 -1       130 1.50000E+02 2.94500E+01 0.00000E+00
 -1       131 1.50000E+02 3.24000E+01 0.00000E+00
 -1       132 1.50000E+02 3.53000E+01 0.00000E+00
 -1       133 1.50000E+02 3.82500E+01 0.00000E+00
 -1       134 1.50000E+02 4.12000E+01 0.00000E+00
 -1       135 1.50000E+02 4.41500E+01 0.00000E+00
 -1       136 1.50000E+02 4.71000E+01 0.00000E+00
 -1       137 1.23846E+02 3.06800E+01 0.00000E+00
 -1       138 1.23347E+02 2.92352E+01 0.00000E+00
 -1       139 1.22561E+02 2.79528E+01 0.00000E+00
 -1       140 1.21564E+02 2.69049E+01 0.00000E+00
 -1       141 1.20351E+02 2.60730E+01 0.00000E+00
 -1       142 1.18973E+02 2.55075E+01 0.00000E+00
 -1       143 1.17427E+02 2.52414E+01 0.00000E+00
 -1       144 1.15933E+02 2.53143E+01 0.00000E+00
 -1       145 1.14503E+02 2.56975E+01 0.00000E+00
 -1       146 1.13095E+02 2.64329E+01 0.00000E+00
 -1       147 1.11986E+02 2.73649E+01 0.00000E+00
 -1       148 1.11115E+02 2.84690E+01 0.00000E+00
 -1       149 1.10467E+02 2.97666E+01 0.00000E+00
 -1       150 1.10104E+02 3.11421E+01 0.00000E+00
 -1       151 1.10034E+02 3.26738E+01 0.00000E+00
 -1       152 1.10270E+02 3.40854E+01 0.00000E+00
 -1       153 1.11564E+02 3.66162E+01 0.00000E+00
 -1       154 1.12619E+02 3.76730E+01 0.00000E+00
 -1       155 1.13798E+02 3.84444E+01 0.00000E+00
 -1       156 1.15104E+02 3.89624E+01 0.00000E+00
 -1       157 1.16445E+02 3.92059E+01 0.00000E+00
 -1       158 1.17851E+02 3.91799E+01 0.00000E+00
 -1       159 1.19315E+02 3.88426E+01 0.00000E+00
 -1       160 1.20635E+02 3.82234E+01 0.00000E+00
 -1       161 1.21822E+02 3.73221E+01 0.00000E+00
 -1       162 1.22784E+02 3.62009E+01 0.00000E+00
 -1       163 1.23464E+02 3.49626E+01 0.00000E+00
 -1       164 1.23874E+02 3.36493E+01 0.00000E+00
 -1       165 2.59800E+00 4.55750E+01 0.00000E+00
 -1       166 2.59800E+00 4.26250E+01 0.00000E+00
 -1       167 2.59800E+00 3.96750E+01 0.00000E+00
 -1       168 2.59800E+00 3.67250E+01 0.00000E+00
 -1       169 2.59800E+00 3.38250E+01 0.00000E+00
 -1       170 2.59800E+00 3.08750E+01 0.00000E+00
 -1       171 2.59800E+00 2.79250E+01 0.00000E+00
 -1       172 2.59800E+00 2.49750E+01 0.00000E+00
 -1       173 2.59800E+00 2.20250E+01 0.00000E+00
 -1       174 2.59800E+00 1.90750E+01 0.00000E+00
 -1       175 2.59800E+00 1.61750E+01 0.00000E+00
 -1       176 2.59800E+00 1.32250E+01 0.00000E+00
 -1       177 2.59800E+00 1.02750E+01 0.00000E+00
 -1       178 2.59800E+00 7.32500E+00 0.00000E+00
 -1       179 2.59800E+00 4.37500E+00 0.00000E+00
 -1       180 2.87400E+00 2.18750E+00 0.00000E+00
 -1       181 4.65000E+00 4.74020E+01 0.00000E+00
 -1       182 7.65000E+00 4.74020E+01 0.00000E+00
 -1       183 1.06500E+01 4.74020E+01 0.00000E+00
 -1       184 1.36500E+01 4.74020E+01 0.00000E+00
 -1       185 1.66500E+01 4.74020E+01 0.00000E+00
 -1       186 1.96500E+01 4.74020E+01 0.00000E+00
 -1       187 2.26500E+01 4.74020E+01 0.00000E+00
 -1       188 2.56500E+01 4.74020E+01 0.00000E+00
 -1       189 2.86500E+01 4.74020E+01 0.00000E+00
 -1       190 3.16500E+01 4.74020E+01 0.00000E+00
 -1       191 3.46500E+01 4.74020E+01 0.00000E+00
 -1       192 3.76500E+01 4.74020E+01 0.00000E+00
 -1       193 4.08000E+01 4.74020E+01 0.00000E+00
 -1       194 4.38000E+01 4.74020E+01 0.00000E+00
 -1       195 4.68000E+01 4.74020E+01 0.00000E+00
 -1       196 4.98000E+01 4.74020E+01 0.00000E+00
 -1       197 5.28000E+01 4.74020E+01 0.00000E+00
 -1       198 5.58000E+01 4.74020E+01 0.00000E+00
 -1       199 5.88000E+01 4.74020E+01 0.00000E+00
 -1       200 6.18000E+01 4.74020E+01 0.00000E+00
 -1       201 6.48000E+01 4.74020E+01 0.00000E+00
 -1       202 6.78000E+01 4.74020E+01 0.00000E+00
 -1       203 7.08000E+01 4.74020E+01 0.00000E+00
 -1       204 7.38000E+01 4.74020E+01 0.00000E+00
 -1       205 7.68000E+01 4.74020E+01 0.00000E+00
 -1       206 7.99500E+01 4.74020E+01 0.00000E+00
 -1       207 8.29500E+01 4.74020E+01 0.00000E+00
 -1       208 8.59500E+01 4.74020E+01 0.00000E+00
 -1       209 8.89500E+01 4.74020E+01 0.00000E+00
 -1       210 9.19500E+01 4.74020E+01 0.00000E+00
 -1       211 9.49500E+01 4.74020E+01 0.00000E+00
 -1       212 9.79500E+01 4.74020E+01 0.00000E+00
 -1       213 1.00950E+02 4.74020E+01 0.00000E+00
 -1       214 1.03950E+02 4.74020E+01 0.00000E+00
 -1       215 1.06950E+02 4.74020E+01 0.00000E+00
 -1       216 1.09950E+02 4.74020E+01 0.00000E+00
 -1       217 1.12950E+02 4.74020E+01 0.00000E+00
 -1       218 1.15650E+02 4.74020E+01 0.00000E+00
 -1       219 1.18500E+02 4.74020E+01 0.00000E+00
 -1       220 1.21500E+02 4.74020E+01 0.00000E+00
 -1       221 1.24500E+02 4.74020E+01 0.00000E+00
 -1       222 1.27500E+02 4.74020E+01 0.00000E+00
 -1       223 1.30500E+02 4.74020E+01 0.00000E+00
 -1       224 1.33500E+02 4.74020E+01 0.00000E+00
 -1       225 1.36500E+02 4.74020E+01 0.00000E+00
 -1       226 1.39500E+02 4.74020E+01 0.00000E+00
 -1       227 1.42500E+02 4.74020E+01 0.00000E+00
 -1       228 1.45500E+02 4.74020E+01 0.00000E+00
 -1       229 1.47750E+02 4.72510E+01 0.00000E+00
 -1       230 5.87400E+00 2.18750E+00 0.00000E+00
 -1       231 8.87400E+00 2.18750E+00 0.00000E+00
 -1       232 1.18740E+01 2.18750E+00 0.00000E+00
 -1       233 1.48740E+01 2.18750E+00 0.00000E+00
 -1       234 1.78740E+01 2.18750E+00 0.00000E+00
 -1       235 2.08740E+01 2.18750E+00 0.00000E+00
 -1       236 2.38740E+01 2.18750E+00 0.00000E+00
 -1       237 2.68740E+01 2.18750E+00 0.00000E+00
 -1       238 2.98740E+01 2.18750E+00 0.00000E+00
 -1       239 3.28740E+01 2.18750E+00 0.00000E+00
 -1       240 3.58740E+01 2.18750E+00 0.00000E+00
 -1       241 3.88740E+01 2.18750E+00 0.00000E+00
 -1       242 4.18740E+01 2.18750E+00 0.00000E+00
 -1       243 4.48740E+01 2.18750E+00 0.00000E+00
 -1       244 4.78740E+01 2.18750E+00 0.00000E+00
 -1       245 5.08740E+01 2.18750E+00 0.00000E+00
 -1       246 5.38740E+01 2.18750E+00 0.00000E+00
 -1       247 5.68740E+01 2.18750E+00 0.00000E+00
 -1       248 5.98740E+01 2.18750E+00 0.00000E+00
 -1       249 6.28740E+01 2.18750E+00 0.00000E+00
 -1       250 6.58740E+01 2.18750E+00 0.00000E+00
 -1       251 6.88740E+01 2.18750E+00 0.00000E+00
 -1       252 7.18740E+01 2.18750E+00 0.00000E+00
 -1       253 7.48740E+01 2.18750E+00 0.00000E+00
 -1       254 7.78740E+01 2.18750E+00 0.00000E+00
 -1       255 8.08740E+01 2.18750E+00 0.00000E+00
 -1       256 8.38740E+01 2.18750E+00 0.00000E+00
 -1       257 8.68740E+01 2.18750E+00 0.00000E+00
 -1       258 8.98740E+01 2.18750E+00 0.00000E+00
 -1       259 9.28740E+01 2.18750E+00 0.00000E+00
 -1       260 9.58740E+01 2.18750E+00 0.00000E+00
 -1       261 9.88740E+01 2.18750E+00 0.00000E+00
 -1       262 1.01874E+02 2.18750E+00 0.00000E+00
 -1       263 1.04874E+02 2.18750E+00 0.00000E+00
 -1       264 1.07874E+02 2.18750E+00 0.00000E+00
 -1       265 1.10874E+02 2.18750E+00 0.00000E+00
 -1       266 1.13874E+02 2.18750E+00 0.00000E+00
 -1       267 1.16874E+02 2.18750E+00 0.00000E+00
 -1       268 1.19874E+02 2.18750E+00 0.00000E+00
 -1       269 1.22874E+02 2.18750E+00 0.00000E+00
 -1       270 1.25874E+02 2.18750E+00 0.00000E+00
 -1       271 1.28874E+02 2.18750E+00 0.00000E+00
 -1       272 1.31874E+02 2.18750E+00 0.00000E+00
 -1       273 1.34874E+02 2.18750E+00 0.00000E+00
 -1       274 1.37874E+02 2.18750E+00 0.00000E+00
 -1       275 1.40874E+02 2.18750E+00 0.00000E+00
 -1       276 1.43874E+02 2.18750E+00 0.00000E+00
 -1       277 1.46874E+02 2.18750E+00 0.00000E+00
 -1       278 1.47402E+02 4.42500E+00 0.00000E+00
 -1       279 1.47402E+02 7.37500E+00 0.00000E+00
 -1       280 1.47402E+02 1.03250E+01 0.00000E+00
 -1       281 1.47402E+02 1.32750E+01 0.00000E+00
 -1       282 1.47402E+02 1.61750E+01 0.00000E+00
 -1       283 1.47402E+02 1.91250E+01 0.00000E+00
 -1       284 1.47402E+02 2.20750E+01 0.00000E+00
 -1       285 1.47402E+02 2.50250E+01 0.00000E+00
 -1       286 1.47402E+02 2.79750E+01 0.00000E+00
 -1       287 1.47402E+02 3.09250E+01 0.00000E+00
 -1       288 1.47402E+02 3.38250E+01 0.00000E+00
 -1       289 1.47402E+02 3.67750E+01 0.00000E+00
 -1       290 1.47402E+02 3.97250E+01 0.00000E+00
 -1       291 1.47402E+02 4.26750E+01 0.00000E+00
 -1       292 1.47576E+02 4.49630E+01 0.00000E+00
 -1       293 1.25304E+02 3.13010E+01 0.00000E+00
 -1       294 1.24980E+02 2.94796E+01 0.00000E+00
 -1       295 1.24059E+02 2.79169E+01 0.00000E+00
 -1       296 1.22940E+02 2.65929E+01 0.00000E+00
 -1       297 1.21690E+02 2.54201E+01 0.00000E+00
 -1       298 1.20122E+02 2.46686E+01 0.00000E+00
 -1       299 1.18463E+02 2.38494E+01 0.00000E+00
 -1       300 1.16617E+02 2.39832E+01 0.00000E+00
 -1       301 1.14905E+02 2.43348E+01 0.00000E+00
 -1       302 1.13083E+02 2.46935E+01 0.00000E+00
 -1       303 1.11707E+02 2.59065E+01 0.00000E+00
 -1       304 1.10599E+02 2.71662E+01 0.00000E+00
 -1       305 1.09632E+02 2.85385E+01 0.00000E+00
 -1       306 1.09113E+02 3.01453E+01 0.00000E+00
 -1       307 1.08691E+02 3.18442E+01 0.00000E+00
 -1       308 1.08956E+02 3.35798E+01 0.00000E+00
 -1       309 1.09098E+02 3.53347E+01 0.00000E+00
 -1       310 1.10170E+02 3.66978E+01 0.00000E+00
 -1       311 1.11114E+02 3.81191E+01 0.00000E+00
 -1       312 1.12545E+02 3.90734E+01 0.00000E+00
 -1       313 1.14004E+02 3.98303E+01 0.00000E+00
 -1       314 1.15558E+02 4.02770E+01 0.00000E+00
 -1       315 1.17171E+02 4.04051E+01 0.00000E+00
 -1       316 1.18893E+02 4.03560E+01 0.00000E+00
 -1       317 1.20525E+02 3.97066E+01 0.00000E+00
 -1       318 1.22114E+02 3.89385E+01 0.00000E+00
 -1       319 1.23287E+02 3.76054E+01 0.00000E+00
 -1       320 1.24187E+02 3.61653E+01 0.00000E+00
 -1       321 1.24826E+02 3.46673E+01 0.00000E+00
 -1       322 1.25153E+02 3.30630E+01 0.00000E+00
 -1       323 5.19600E+00 4.11500E+01 0.00000E+00
 -1       324 5.19600E+00 4.41000E+01 0.00000E+00
 -1       325 5.19600E+00 3.52750E+01 0.00000E+00
 -1       326 5.19600E+00 3.23250E+01 0.00000E+00
 -1       327 5.19600E+00 2.93750E+01 0.00000E+00
 -1       328 5.19600E+00 2.64250E+01 0.00000E+00
 -1       329 5.19600E+00 2.34750E+01 0.00000E+00
 -1       330 5.19600E+00 2.05250E+01 0.00000E+00
 -1       331 5.19600E+00 1.76250E+01 0.00000E+00
 -1       332 5.19600E+00 1.46750E+01 0.00000E+00
 -1       333 5.19600E+00 1.17250E+01 0.00000E+00
 -1       334 5.19600E+00 8.77500E+00 0.00000E+00
 -1       335 5.19600E+00 5.82500E+00 0.00000E+00
 -1       336 5.53500E+00 4.00625E+00 0.00000E+00
 -1       337 8.53500E+00 4.00625E+00 0.00000E+00
 -1       338 9.15000E+00 4.48040E+01 0.00000E+00
 -1       339 1.21500E+01 4.48040E+01 0.00000E+00
 -1       340 1.51500E+01 4.48040E+01 0.00000E+00
 -1       341 1.81500E+01 4.48040E+01 0.00000E+00
 -1       342 2.11500E+01 4.48040E+01 0.00000E+00
 -1       343 2.41500E+01 4.48040E+01 0.00000E+00
 -1       344 2.71500E+01 4.48040E+01 0.00000E+00
 -1       345 3.01500E+01 4.48040E+01 0.00000E+00
 -1       346 3.31500E+01 4.48040E+01 0.00000E+00
 -1       347 3.61500E+01 4.48040E+01 0.00000E+00
 -1       348 3.93000E+01 4.48040E+01 0.00000E+00
 -1       349 4.23000E+01 4.48040E+01 0.00000E+00
 -1       350 4.53000E+01 4.48040E+01 0.00000E+00
 -1       351 4.83000E+01 4.48040E+01 0.00000E+00
 -1       352 5.13000E+01 4.48040E+01 0.00000E+00
 -1       353 5.43000E+01 4.48040E+01 0.00000E+00
 -1       354 5.73000E+01 4.48040E+01 0.00000E+00
 -1       355 6.03000E+01 4.48040E+01 0.00000E+00
 -1       356 6.33000E+01 4.48040E+01 0.00000E+00
 -1       357 6.63000E+01 4.48040E+01 0.00000E+00
 -1       358 6.93000E+01 4.48040E+01 0.00000E+00
 -1       359 7.23000E+01 4.48040E+01 0.00000E+00
 -1       360 7.53000E+01 4.48040E+01 0.00000E+00
 -1       361 7.84500E+01 4.48040E+01 0.00000E+00
 -1       362 8.14500E+01 4.48040E+01 0.00000E+00
 -1       363 8.44500E+01 4.48040E+01 0.00000E+00
 -1       364 8.74500E+01 4.48040E+01 0.00000E+00
 -1       365 9.04500E+01 4.48040E+01 0.00000E+00
 -1       366 9.34500E+01 4.48040E+01 0.00000E+00
 -1       367 9.64500E+01 4.48040E+01 0.00000E+00
 -1       368 9.94500E+01 4.48040E+01 0.00000E+00
 -1       369 1.02450E+02 4.48040E+01 0.00000E+00
 -1       370 1.05450E+02 4.48040E+01 0.00000E+00
 -1       371 1.08450E+02 4.48040E+01 0.00000E+00
 -1       372 1.11450E+02 4.48040E+01 0.00000E+00
 -1       373 1.14150E+02 4.48040E+01 0.00000E+00
 -1       374 1.17000E+02 4.48040E+01 0.00000E+00
 -1       375 1.20000E+02 4.48040E+01 0.00000E+00
 -1       376 1.23000E+02 4.48040E+01 0.00000E+00
 -1       377 1.26000E+02 4.48040E+01 0.00000E+00
 -1       378 1.29000E+02 4.48040E+01 0.00000E+00
 -1       379 1.32000E+02 4.48040E+01 0.00000E+00
 -1       380 1.35000E+02 4.48040E+01 0.00000E+00
 -1       381 1.38000E+02 4.48040E+01 0.00000E+00
 -1       382 1.41000E+02 4.48040E+01 0.00000E+00
 -1       383 1.44000E+02 4.48040E+01 0.00000E+00
 -1       384 1.33740E+01 4.78550E+00 0.00000E+00
 -1       385 1.63740E+01 4.78550E+00 0.00000E+00
 -1       386 1.93740E+01 4.78550E+00 0.00000E+00
 -1       387 2.23740E+01 4.78550E+00 0.00000E+00
 -1       388 2.53740E+01 4.78550E+00 0.00000E+00
 -1       389 2.83740E+01 4.78550E+00 0.00000E+00
 -1       390 3.13740E+01 4.78550E+00 0.00000E+00
 -1       391 3.43740E+01 4.78550E+00 0.00000E+00
 -1       392 3.73740E+01 4.78550E+00 0.00000E+00
 -1       393 4.03740E+01 4.78550E+00 0.00000E+00
 -1       394 4.33740E+01 4.78550E+00 0.00000E+00
 -1       395 4.63740E+01 4.78550E+00 0.00000E+00
 -1       396 4.93740E+01 4.78550E+00 0.00000E+00
 -1       397 5.23740E+01 4.78550E+00 0.00000E+00
 -1       398 5.53740E+01 4.78550E+00 0.00000E+00
 -1       399 5.83740E+01 4.78550E+00 0.00000E+00
 -1       400 6.13740E+01 4.78550E+00 0.00000E+00
 -1       401 6.43740E+01 4.78550E+00 0.00000E+00
 -1       402 6.73740E+01 4.78550E+00 0.00000E+00
 -1       403 7.03740E+01 4.78550E+00 0.00000E+00
 -1       404 7.33740E+01 4.78550E+00 0.00000E+00
 -1       405 7.63740E+01 4.78550E+00 0.00000E+00
 -1       406 7.93740E+01 4.78550E+00 0.00000E+00
 -1       407 8.23740E+01 4.78550E+00 0.00000E+00
 -1       408 8.53740E+01 4.78550E+00 0.00000E+00
 -1       409 8.83740E+01 4.78550E+00 0.00000E+00
 -1       410 9.13740E+01 4.78550E+00 0.00000E+00
 -1       411 9.43740E+01 4.78550E+00 0.00000E+00
 -1       412 9.73740E+01 4.78550E+00 0.00000E+00
 -1       413 1.00374E+02 4.78550E+00 0.00000E+00
 -1       414 1.03374E+02 4.78550E+00 0.00000E+00
 -1       415 1.06374E+02 4.78550E+00 0.00000E+00
 -1       416 1.09374E+02 4.78550E+00 0.00000E+00
 -1       417 1.12374E+02 4.78550E+00 0.00000E+00
 -1       418 1.15374E+02 4.78550E+00 0.00000E+00
 -1       419 1.18374E+02 4.78550E+00 0.00000E+00
 -1       420 1.21374E+02 4.78550E+00 0.00000E+00
 -1       421 1.24374E+02 4.78550E+00 0.00000E+00
 -1       422 1.27374E+02 4.78550E+00 0.00000E+00
 -1       423 1.30374E+02 4.78550E+00 0.00000E+00
 -1       424 1.33374E+02 4.78550E+00 0.00000E+00
 -1       425 1.36374E+02 4.78550E+00 0.00000E+00
 -1       426 1.39374E+02 4.78550E+00 0.00000E+00
 -1       427 1.42374E+02 4.78550E+00 0.00000E+00
 -1       428 1.44888E+02 4.60525E+00 0.00000E+00
 -1       429 1.44804E+02 1.18000E+01 0.00000E+00
 -1       430 1.44804E+02 8.85000E+00 0.00000E+00
 -1       431 1.44804E+02 1.47000E+01 0.00000E+00
 -1       432 1.44804E+02 1.76500E+01 0.00000E+00
 -1       433 1.44804E+02 2.06000E+01 0.00000E+00
 -1       434 1.44804E+02 2.35500E+01 0.00000E+00
 -1       435 1.44804E+02 2.65000E+01 0.00000E+00
 -1       436 1.44804E+02 2.94500E+01 0.00000E+00
 -1       437 1.44804E+02 3.23500E+01 0.00000E+00
 -1       438 1.44804E+02 3.53000E+01 0.00000E+00
 -1       439 1.44804E+02 3.82500E+01 0.00000E+00
 -1       440 1.44804E+02 4.12000E+01 0.00000E+00
 -1       441 1.09545E+01 4.39587E+00 0.00000E+00
 -1       442 1.25636E+02 2.80403E+01 0.00000E+00
 -1       443 1.23374E+02 2.48779E+01 0.00000E+00
 -1       444 1.26687E+02 3.23072E+01 0.00000E+00
 -1       445 1.24490E+02 2.64183E+01 0.00000E+00
 -1       446 5.19600E+00 3.82125E+01 0.00000E+00
 -1       447 1.21611E+02 2.35731E+01 0.00000E+00
 -1       448 1.19952E+02 2.27539E+01 0.00000E+00
 -1       449 1.17428E+02 2.23728E+01 0.00000E+00
 -1       450 1.15715E+02 2.27244E+01 0.00000E+00
 -1       451 1.13678E+02 2.29136E+01 0.00000E+00
 -1       452 1.11316E+02 2.40763E+01 0.00000E+00
 -1       453 1.10054E+02 2.55695E+01 0.00000E+00
 -1       454 1.09087E+02 2.69418E+01 0.00000E+00
 -1       455 1.08059E+02 2.89183E+01 0.00000E+00
 -1       456 1.07636E+02 3.06171E+01 0.00000E+00
 -1       457 1.07376E+02 3.29333E+01 0.00000E+00
 -1       458 1.07518E+02 3.46882E+01 0.00000E+00
 -1       459 1.08615E+02 3.68178E+01 0.00000E+00
 -1       460 1.09559E+02 3.82391E+01 0.00000E+00
 -1       461 1.11017E+02 3.98139E+01 0.00000E+00
 -1       462 1.12477E+02 4.05708E+01 0.00000E+00
 -1       463 1.14423E+02 4.12994E+01 0.00000E+00
 -1       464 1.16262E+02 4.16332E+01 0.00000E+00
 -1       465 1.18071E+02 4.17599E+01 0.00000E+00
 -1       466 1.20250E+02 4.13913E+01 0.00000E+00
 -1       467 1.21920E+02 4.05649E+01 0.00000E+00
 -1       468 1.23862E+02 3.92942E+01 0.00000E+00
 -1       469 1.24907E+02 3.76165E+01 0.00000E+00
 -1       470 1.25698E+02 3.59253E+01 0.00000E+00
 -1       471 1.26360E+02 3.39115E+01 0.00000E+00
 -1       472 1.26501E+02 3.01485E+01 0.00000E+00
 -1       473 1.07036E+02 3.61713E+01 0.00000E+00
 -1       474 7.79400E+00 3.08500E+01 0.00000E+00
 -1       475 7.79400E+00 3.38000E+01 0.00000E+00
 -1       476 7.79400E+00 2.49500E+01 0.00000E+00
 -1       477 7.79400E+00 2.20000E+01 0.00000E+00
 -1       478 7.79400E+00 1.91000E+01 0.00000E+00
 -1       479 7.79400E+00 1.61500E+01 0.00000E+00
 -1       480 7.79400E+00 1.32000E+01 0.00000E+00
 -1       481 7.79400E+00 1.02500E+01 0.00000E+00
 -1       482 7.79400E+00 7.30000E+00 0.00000E+00
 -1       483 8.16450E+00 5.65312E+00 0.00000E+00
 -1       484 1.06500E+01 4.22060E+01 0.00000E+00
 -1       485 1.26258E+02 2.63845E+01 0.00000E+00
 -1       486 1.25143E+02 2.48441E+01 0.00000E+00
 -1       487 1.36500E+01 4.22060E+01 0.00000E+00
 -1       488 1.66500E+01 4.22060E+01 0.00000E+00
 -1       489 1.96500E+01 4.22060E+01 0.00000E+00
 -1       490 2.26500E+01 4.22060E+01 0.00000E+00
 -1       491 2.56500E+01 4.22060E+01 0.00000E+00
 -1       492 2.86500E+01 4.22060E+01 0.00000E+00
 -1       493 3.16500E+01 4.22060E+01 0.00000E+00
 -1       494 3.46500E+01 4.22060E+01 0.00000E+00
 -1       495 3.78000E+01 4.22060E+01 0.00000E+00
 -1       496 4.08000E+01 4.22060E+01 0.00000E+00
 -1       497 4.38000E+01 4.22060E+01 0.00000E+00
 -1       498 4.68000E+01 4.22060E+01 0.00000E+00
 -1       499 4.98000E+01 4.22060E+01 0.00000E+00
 -1       500 5.28000E+01 4.22060E+01 0.00000E+00
 -1       501 5.58000E+01 4.22060E+01 0.00000E+00
 -1       502 5.88000E+01 4.22060E+01 0.00000E+00
 -1       503 6.18000E+01 4.22060E+01 0.00000E+00
 -1       504 6.48000E+01 4.22060E+01 0.00000E+00
 -1       505 6.78000E+01 4.22060E+01 0.00000E+00
 -1       506 7.08000E+01 4.22060E+01 0.00000E+00
 -1       507 7.38000E+01 4.22060E+01 0.00000E+00
 -1       508 7.69500E+01 4.22060E+01 0.00000E+00
 -1       509 7.99500E+01 4.22060E+01 0.00000E+00
 -1       510 8.29500E+01 4.22060E+01 0.00000E+00
 -1       511 8.59500E+01 4.22060E+01 0.00000E+00
 -1       512 8.89500E+01 4.22060E+01 0.00000E+00
 -1       513 9.19500E+01 4.22060E+01 0.00000E+00
 -1       514 9.49500E+01 4.22060E+01 0.00000E+00
 -1       515 9.79500E+01 4.22060E+01 0.00000E+00
 -1       516 1.00950E+02 4.22060E+01 0.00000E+00
 -1       517 1.03950E+02 4.22060E+01 0.00000E+00
 -1       518 1.06950E+02 4.22060E+01 0.00000E+00
 -1       519 1.12800E+02 4.27537E+01 0.00000E+00
 -1       520 1.15575E+02 4.30889E+01 0.00000E+00
 -1       521 1.21500E+02 4.25862E+01 0.00000E+00
 -1       522 1.24500E+02 4.25862E+01 0.00000E+00
 -1       523 1.27500E+02 4.25862E+01 0.00000E+00
 -1       524 1.30500E+02 4.25862E+01 0.00000E+00
 -1       525 1.33500E+02 4.25862E+01 0.00000E+00
 -1       526 1.36500E+02 4.25862E+01 0.00000E+00
 -1       527 1.39500E+02 4.25862E+01 0.00000E+00
 -1       528 1.42152E+02 4.18931E+01 0.00000E+00
 -1       529 2.08740E+01 7.38350E+00 0.00000E+00
 -1       530 1.78740E+01 7.38350E+00 0.00000E+00
 -1       531 1.48740E+01 7.38350E+00 0.00000E+00
 -1       532 2.38740E+01 7.38350E+00 0.00000E+00
 -1       533 2.68740E+01 7.38350E+00 0.00000E+00
 -1       534 2.98740E+01 7.38350E+00 0.00000E+00
 -1       535 3.28740E+01 7.38350E+00 0.00000E+00
 -1       536 3.58740E+01 7.38350E+00 0.00000E+00
 -1       537 3.88740E+01 7.38350E+00 0.00000E+00
 -1       538 4.18740E+01 7.38350E+00 0.00000E+00
 -1       539 4.48740E+01 7.38350E+00 0.00000E+00
 -1       540 4.78740E+01 7.38350E+00 0.00000E+00
 -1       541 5.08740E+01 7.38350E+00 0.00000E+00
 -1       542 5.38740E+01 7.38350E+00 0.00000E+00
 -1       543 5.68740E+01 7.38350E+00 0.00000E+00
 -1       544 5.98740E+01 7.38350E+00 0.00000E+00
 -1       545 6.28740E+01 7.38350E+00 0.00000E+00
 -1       546 6.58740E+01 7.38350E+00 0.00000E+00
 -1       547 6.88740E+01 7.38350E+00 0.00000E+00
 -1       548 7.18740E+01 7.38350E+00 0.00000E+00
 -1       549 7.48740E+01 7.38350E+00 0.00000E+00
 -1       550 7.78740E+01 7.38350E+00 0.00000E+00
 -1       551 8.08740E+01 7.38350E+00 0.00000E+00
 -1       552 8.38740E+01 7.38350E+00 0.00000E+00
 -1       553 8.68740E+01 7.38350E+00 0.00000E+00
 -1       554 8.98740E+01 7.38350E+00 0.00000E+00
 -1       555 9.28740E+01 7.38350E+00 0.00000E+00
 -1       556 9.58740E+01 7.38350E+00 0.00000E+00
 -1       557 9.88740E+01 7.38350E+00 0.00000E+00
 -1       558 1.01874E+02 7.38350E+00 0.00000E+00
 -1       559 1.04874E+02 7.38350E+00 0.00000E+00
 -1       560 1.07874E+02 7.38350E+00 0.00000E+00
 -1       561 1.10874E+02 7.38350E+00 0.00000E+00
 -1       562 1.13874E+02 7.38350E+00 0.00000E+00
 -1       563 1.16874E+02 7.38350E+00 0.00000E+00
 -1       564 1.19874E+02 7.38350E+00 0.00000E+00
 -1       565 1.22874E+02 7.38350E+00 0.00000E+00
 -1       566 1.25874E+02 7.38350E+00 0.00000E+00
 -1       567 1.28874E+02 7.38350E+00 0.00000E+00
 -1       568 1.31874E+02 7.38350E+00 0.00000E+00
 -1       569 1.34874E+02 7.38350E+00 0.00000E+00
 -1       570 1.37874E+02 7.38350E+00 0.00000E+00
 -1       571 1.40874E+02 7.38350E+00 0.00000E+00
 -1       572 1.42206E+02 1.61750E+01 0.00000E+00
 -1       573 1.42206E+02 1.32750E+01 0.00000E+00
 -1       574 1.42206E+02 1.03250E+01 0.00000E+00
 -1       575 1.28219E+02 3.10876E+01 0.00000E+00
 -1       576 1.42206E+02 1.91250E+01 0.00000E+00
 -1       577 1.42206E+02 2.20750E+01 0.00000E+00
 -1       578 1.42206E+02 2.50250E+01 0.00000E+00
 -1       579 1.42206E+02 2.79750E+01 0.00000E+00
 -1       580 1.42206E+02 3.08750E+01 0.00000E+00
 -1       581 1.42206E+02 3.38250E+01 0.00000E+00
 -1       582 1.42206E+02 3.67750E+01 0.00000E+00
 -1       583 1.42179E+02 3.93340E+01 0.00000E+00
 -1       584 1.27420E+02 3.53754E+01 0.00000E+00
 -1       585 7.92300E+00 4.16780E+01 0.00000E+00
 -1       586 1.23463E+02 2.29142E+01 0.00000E+00
 -1       587 1.28122E+02 3.34347E+01 0.00000E+00
 -1       588 1.09247E+02 2.36076E+01 0.00000E+00
 -1       589 7.79400E+00 2.79000E+01 0.00000E+00
 -1       590 1.11814E+02 2.21065E+01 0.00000E+00
 -1       591 1.21541E+02 2.16256E+01 0.00000E+00
 -1       592 1.18921E+02 2.10332E+01 0.00000E+00
 -1       593 1.16227E+02 2.08685E+01 0.00000E+00
 -1       594 1.14190E+02 2.10577E+01 0.00000E+00
 -1       595 1.08280E+02 2.49799E+01 0.00000E+00
 -1       596 1.07051E+02 2.71389E+01 0.00000E+00
 -1       597 1.06183E+02 2.93534E+01 0.00000E+00
 -1       598 1.05802E+02 3.15839E+01 0.00000E+00
 -1       599 1.05821E+02 3.39419E+01 0.00000E+00
 -1       600 1.07729E+02 3.84312E+01 0.00000E+00
 -1       601 1.09186E+02 4.00060E+01 0.00000E+00
 -1       602 1.10996E+02 4.16405E+01 0.00000E+00
 -1       603 1.19419E+02 4.31015E+01 0.00000E+00
 -1       604 1.23739E+02 4.12245E+01 0.00000E+00
 -1       605 1.25698E+02 3.92735E+01 0.00000E+00
 -1       606 1.26704E+02 3.74268E+01 0.00000E+00
 -1       607 1.27500E+02 2.85074E+01 0.00000E+00
 -1       608 7.79400E+00 3.67375E+01 0.00000E+00
 -1       609 1.05840E+01 6.04275E+00 0.00000E+00
 -1       610 1.09950E+02 4.24186E+01 0.00000E+00
 -1       611 1.18131E+02 4.32186E+01 0.00000E+00
 -1       612 1.27290E+01 6.71313E+00 0.00000E+00
 -1       613 1.05339E+02 3.54250E+01 0.00000E+00
 -1       614 1.09745E+02 2.16377E+01 0.00000E+00
 -1       615 1.03920E+01 2.05500E+01 0.00000E+00
 -1       616 1.03920E+01 2.35000E+01 0.00000E+00
 -1       617 1.03920E+01 1.46750E+01 0.00000E+00
 -1       618 1.03920E+01 1.17250E+01 0.00000E+00
 -1       619 1.02135E+01 7.68962E+00 0.00000E+00
 -1       620 1.23457E+02 2.08452E+01 0.00000E+00
 -1       621 1.28603E+02 3.69383E+01 0.00000E+00
 -1       622 1.27022E+02 2.46574E+01 0.00000E+00
 -1       623 1.21500E+01 3.96080E+01 0.00000E+00
 -1       624 1.51500E+01 3.96080E+01 0.00000E+00
 -1       625 1.81500E+01 3.96080E+01 0.00000E+00
 -1       626 2.11500E+01 3.96080E+01 0.00000E+00
 -1       627 2.41500E+01 3.96080E+01 0.00000E+00
 -1       628 2.71500E+01 3.96080E+01 0.00000E+00
 -1       629 3.01500E+01 3.96080E+01 0.00000E+00
 -1       630 3.31500E+01 3.96080E+01 0.00000E+00
 -1       631 3.63000E+01 3.96080E+01 0.00000E+00
 -1       632 3.93000E+01 3.96080E+01 0.00000E+00
 -1       633 4.23000E+01 3.96080E+01 0.00000E+00
 -1       634 4.53000E+01 3.96080E+01 0.00000E+00
 -1       635 4.83000E+01 3.96080E+01 0.00000E+00
 -1       636 5.13000E+01 3.96080E+01 0.00000E+00
 -1       637 5.43000E+01 3.96080E+01 0.00000E+00
 -1       638 5.73000E+01 3.96080E+01 0.00000E+00
 -1       639 6.03000E+01 3.96080E+01 0.00000E+00
 -1       640 6.33000E+01 3.96080E+01 0.00000E+00
 -1       641 6.63000E+01 3.96080E+01 0.00000E+00
 -1       642 6.93000E+01 3.96080E+01 0.00000E+00
 -1       643 7.23000E+01 3.96080E+01 0.00000E+00
 -1       644 7.54500E+01 3.96080E+01 0.00000E+00
 -1       645 7.84500E+01 3.96080E+01 0.00000E+00
 -1       646 8.14500E+01 3.96080E+01 0.00000E+00
 -1       647 8.44500E+01 3.96080E+01 0.00000E+00
 -1       648 8.74500E+01 3.96080E+01 0.00000E+00
 -1       649 9.04500E+01 3.96080E+01 0.00000E+00
 -1       650 9.34500E+01 3.96080E+01 0.00000E+00
 -1       651 9.64500E+01 3.96080E+01 0.00000E+00
 -1       652 9.94500E+01 3.96080E+01 0.00000E+00
 -1       653 1.02450E+02 3.96080E+01 0.00000E+00
 -1       654 1.27707E+02 3.91707E+01 0.00000E+00
 -1       655 1.29000E+02 4.02008E+01 0.00000E+00
 -1       656 1.32000E+02 4.02008E+01 0.00000E+00
 -1       657 1.35000E+02 4.02008E+01 0.00000E+00
 -1       658 1.38000E+02 4.02008E+01 0.00000E+00
 -1       659 1.40089E+02 3.97674E+01 0.00000E+00
 -1       660 1.93740E+01 9.98150E+00 0.00000E+00
 -1       661 2.23740E+01 9.98150E+00 0.00000E+00
 -1       662 1.63740E+01 9.98150E+00 0.00000E+00
 -1       663 2.83740E+01 9.98150E+00 0.00000E+00
 -1       664 3.13740E+01 9.98150E+00 0.00000E+00
 -1       665 3.43740E+01 9.98150E+00 0.00000E+00
 -1       666 3.73740E+01 9.98150E+00 0.00000E+00
 -1       667 4.03740E+01 9.98150E+00 0.00000E+00
 -1       668 4.33740E+01 9.98150E+00 0.00000E+00
 -1       669 4.63740E+01 9.98150E+00 0.00000E+00
 -1       670 4.93740E+01 9.98150E+00 0.00000E+00
 -1       671 5.23740E+01 9.98150E+00 0.00000E+00
 -1       672 5.53740E+01 9.98150E+00 0.00000E+00
 -1       673 5.83740E+01 9.98150E+00 0.00000E+00
 -1       674 6.13740E+01 9.98150E+00 0.00000E+00
 -1       675 6.43740E+01 9.98150E+00 0.00000E+00
 -1       676 6.73740E+01 9.98150E+00 0.00000E+00
 -1       677 7.03740E+01 9.98150E+00 0.00000E+00
 -1       678 7.33740E+01 9.98150E+00 0.00000E+00
 -1       679 7.63740E+01 9.98150E+00 0.00000E+00
 -1       680 7.93740E+01 9.98150E+00 0.00000E+00
 -1       681 8.23740E+01 9.98150E+00 0.00000E+00
 -1       682 8.53740E+01 9.98150E+00 0.00000E+00
 -1       683 8.83740E+01 9.98150E+00 0.00000E+00
 -1       684 9.13740E+01 9.98150E+00 0.00000E+00
 -1       685 9.43740E+01 9.98150E+00 0.00000E+00
 -1       686 9.73740E+01 9.98150E+00 0.00000E+00
 -1       687 1.00374E+02 9.98150E+00 0.00000E+00
 -1       688 1.03374E+02 9.98150E+00 0.00000E+00
 -1       689 1.06374E+02 9.98150E+00 0.00000E+00
 -1       690 1.09374E+02 9.98150E+00 0.00000E+00
 -1       691 1.12374E+02 9.98150E+00 0.00000E+00
 -1       692 1.15374E+02 9.98150E+00 0.00000E+00
 -1       693 1.18374E+02 9.98150E+00 0.00000E+00
 -1       694 1.21374E+02 9.98150E+00 0.00000E+00
 -1       695 1.24374E+02 9.98150E+00 0.00000E+00
 -1       696 1.27374E+02 9.98150E+00 0.00000E+00
 -1       697 1.30374E+02 9.98150E+00 0.00000E+00
 -1       698 1.33374E+02 9.98150E+00 0.00000E+00
 -1       699 1.36374E+02 9.98150E+00 0.00000E+00
 -1       700 1.39290E+02 1.01532E+01 0.00000E+00
 -1       701 1.39608E+02 1.47250E+01 0.00000E+00
 -1       702 1.39608E+02 2.06000E+01 0.00000E+00
 -1       703 1.39449E+02 1.24391E+01 0.00000E+00
 -1       704 1.39608E+02 1.76625E+01 0.00000E+00
 -1       705 1.39608E+02 2.65000E+01 0.00000E+00
 -1       706 1.39608E+02 2.94000E+01 0.00000E+00
 -1       707 1.39608E+02 3.23500E+01 0.00000E+00
 -1       708 1.39608E+02 3.53000E+01 0.00000E+00
 -1       709 1.29305E+02 3.49977E+01 0.00000E+00
 -1       710 1.29431E+02 2.93598E+01 0.00000E+00
 -1       711 1.30052E+02 3.23388E+01 0.00000E+00
 -1       712 1.07088E+02 2.31127E+01 0.00000E+00
 -1       713 1.39608E+02 2.35500E+01 0.00000E+00
 -1       714 1.28215E+02 2.66645E+01 0.00000E+00
 -1       715 1.20609E+02 1.96565E+01 0.00000E+00
 -1       716 1.03920E+01 1.76125E+01 0.00000E+00
 -1       717 1.04864E+02 2.75593E+01 0.00000E+00
 -1       718 1.05859E+02 2.52718E+01 0.00000E+00
 -1       719 1.03920E+01 3.23250E+01 0.00000E+00
 -1       720 1.15019E+02 1.89216E+01 0.00000E+00
 -1       721 1.05822E+02 3.77796E+01 0.00000E+00
 -1       722 1.12174E+02 1.97064E+01 0.00000E+00
 -1       723 1.04467E+02 3.02078E+01 0.00000E+00
 -1       724 1.25723E+02 2.26431E+01 0.00000E+00
 -1       725 1.07199E+02 4.03838E+01 0.00000E+00
 -1       726 1.03761E+02 3.27795E+01 0.00000E+00
 -1       727 1.17699E+02 1.89044E+01 0.00000E+00
 -1       728 1.26104E+02 4.08785E+01 0.00000E+00
 -1       729 2.53740E+01 9.98150E+00 0.00000E+00
 -1       730 1.03920E+01 2.64500E+01 0.00000E+00
 -1       731 1.22525E+02 1.88761E+01 0.00000E+00
 -1       732 1.03920E+01 3.52625E+01 0.00000E+00
 -1       733 1.39849E+02 3.75337E+01 0.00000E+00
 -1       734 1.33741E+01 9.98153E+00 0.00000E+00
 -1       735 1.30146E+02 2.75169E+01 0.00000E+00
 -1       736 9.78035E+00 3.93914E+01 0.00000E+00
 -1       737 1.03279E+02 3.42626E+01 0.00000E+00
 -1       738 1.07585E+02 2.11429E+01 0.00000E+00
 -1       739 1.03920E+01 2.93875E+01 0.00000E+00
 -1       740 1.29900E+01 1.32000E+01 0.00000E+00
 -1       741 1.03159E+02 3.68914E+01 0.00000E+00
 -1       742 1.26072E+02 1.98754E+01 0.00000E+00
 -1       743 1.03481E+02 2.55982E+01 0.00000E+00
 -1       744 1.66500E+01 3.70100E+01 0.00000E+00
 -1       745 1.96500E+01 3.70100E+01 0.00000E+00
 -1       746 2.26500E+01 3.70100E+01 0.00000E+00
 -1       747 2.56500E+01 3.70100E+01 0.00000E+00
 -1       748 2.86500E+01 3.70100E+01 0.00000E+00
 -1       749 3.16500E+01 3.70100E+01 0.00000E+00
 -1       750 3.48000E+01 3.70100E+01 0.00000E+00
 -1       751 3.78000E+01 3.70100E+01 0.00000E+00
 -1       752 4.08000E+01 3.70100E+01 0.00000E+00
 -1       753 4.38000E+01 3.70100E+01 0.00000E+00
 -1       754 4.68000E+01 3.70100E+01 0.00000E+00
 -1       755 4.98000E+01 3.70100E+01 0.00000E+00
 -1       756 5.28000E+01 3.70100E+01 0.00000E+00
 -1       757 5.58000E+01 3.70100E+01 0.00000E+00
 -1       758 5.88000E+01 3.70100E+01 0.00000E+00
 -1       759 6.18000E+01 3.70100E+01 0.00000E+00
 -1       760 6.48000E+01 3.70100E+01 0.00000E+00
 -1       761 6.78000E+01 3.70100E+01 0.00000E+00
 -1       762 7.08000E+01 3.70100E+01 0.00000E+00
 -1       763 7.39500E+01 3.70100E+01 0.00000E+00
 -1       764 7.69500E+01 3.70100E+01 0.00000E+00
 -1       765 7.99500E+01 3.70100E+01 0.00000E+00
 -1       766 8.29500E+01 3.70100E+01 0.00000E+00
 -1       767 8.59500E+01 3.70100E+01 0.00000E+00
 -1       768 8.89500E+01 3.70100E+01 0.00000E+00
 -1       769 9.19500E+01 3.70100E+01 0.00000E+00
 -1       770 9.49500E+01 3.70100E+01 0.00000E+00
 -1       771 9.79500E+01 3.70100E+01 0.00000E+00
 -1       772 1.00555E+02 3.69507E+01 0.00000E+00
 -1       773 1.29669E+02 2.44419E+01 0.00000E+00
 -1       774 1.12017E+01 3.69125E+01 0.00000E+00
 -1       775 1.33500E+02 3.76028E+01 0.00000E+00
 -1       776 1.36500E+02 3.76028E+01 0.00000E+00
 -1       777 2.08740E+01 1.25795E+01 0.00000E+00
 -1       778 1.78740E+01 1.25795E+01 0.00000E+00
 -1       779 3.28740E+01 1.25795E+01 0.00000E+00
 -1       780 2.98740E+01 1.25795E+01 0.00000E+00
 -1       781 3.88740E+01 1.25795E+01 0.00000E+00
 -1       782 4.18740E+01 1.25795E+01 0.00000E+00
 -1       783 4.48740E+01 1.25795E+01 0.00000E+00
 -1       784 4.78740E+01 1.25795E+01 0.00000E+00
 -1       785 5.08740E+01 1.25795E+01 0.00000E+00
 -1       786 5.38740E+01 1.25795E+01 0.00000E+00
 -1       787 5.68740E+01 1.25795E+01 0.00000E+00
 -1       788 5.98740E+01 1.25795E+01 0.00000E+00
 -1       789 6.28740E+01 1.25795E+01 0.00000E+00
 -1       790 6.58740E+01 1.25795E+01 0.00000E+00
 -1       791 6.88740E+01 1.25795E+01 0.00000E+00
 -1       792 7.18740E+01 1.25795E+01 0.00000E+00
 -1       793 7.48740E+01 1.25795E+01 0.00000E+00
 -1       794 7.78740E+01 1.25795E+01 0.00000E+00
 -1       795 8.08740E+01 1.25795E+01 0.00000E+00
 -1       796 8.38740E+01 1.25795E+01 0.00000E+00
 -1       797 8.68740E+01 1.25795E+01 0.00000E+00
 -1       798 8.98740E+01 1.25795E+01 0.00000E+00
 -1       799 9.28740E+01 1.25795E+01 0.00000E+00
 -1       800 9.58740E+01 1.25795E+01 0.00000E+00
 -1       801 9.88740E+01 1.25795E+01 0.00000E+00
 -1       802 1.01874E+02 1.25795E+01 0.00000E+00
 -1       803 1.04874E+02 1.25795E+01 0.00000E+00
 -1       804 1.07874E+02 1.25795E+01 0.00000E+00
 -1       805 1.10874E+02 1.25795E+01 0.00000E+00
 -1       806 1.13874E+02 1.25795E+01 0.00000E+00
 -1       807 1.16874E+02 1.25795E+01 0.00000E+00
 -1       808 1.19874E+02 1.25795E+01 0.00000E+00
 -1       809 1.22874E+02 1.25795E+01 0.00000E+00
 -1       810 1.25874E+02 1.25795E+01 0.00000E+00
 -1       811 1.28874E+02 1.25795E+01 0.00000E+00
 -1       812 1.31874E+02 1.25795E+01 0.00000E+00
 -1       813 1.34874E+02 1.25795E+01 0.00000E+00
 -1       814 1.37161E+02 1.25093E+01 0.00000E+00
 -1       815 1.37010E+02 3.08750E+01 0.00000E+00
 -1       816 1.31491E+02 3.41774E+01 0.00000E+00
 -1       817 1.37010E+02 3.38250E+01 0.00000E+00
 -1       818 1.37010E+02 2.79750E+01 0.00000E+00
 -1       819 1.30789E+02 3.61181E+01 0.00000E+00
 -1       820 1.30301E+02 3.85696E+01 0.00000E+00
 -1       821 1.31749E+02 3.04312E+01 0.00000E+00
 -1       822 1.37010E+02 2.50250E+01 0.00000E+00
 -1       823 3.58740E+01 1.25795E+01 0.00000E+00
 -1       824 1.16346E+02 1.68628E+01 0.00000E+00
 -1       825 1.39258E+01 3.69612E+01 0.00000E+00
 -1       826 1.02460E+02 3.10396E+01 0.00000E+00
 -1       827 1.04546E+02 2.30953E+01 0.00000E+00
 -1       828 1.19625E+02 1.74577E+01 0.00000E+00
 -1       829 1.02858E+02 2.83911E+01 0.00000E+00
 -1       830 1.09371E+02 1.86737E+01 0.00000E+00
 -1       831 1.29900E+01 2.20250E+01 0.00000E+00
 -1       832 1.37010E+02 2.20750E+01 0.00000E+00
 -1       833 1.12962E+02 1.70145E+01 0.00000E+00
 -1       834 1.28370E+02 2.24276E+01 0.00000E+00
 -1       835 1.21541E+02 1.66773E+01 0.00000E+00
 -1       836 1.25141E+02 1.79063E+01 0.00000E+00
 -1       837 1.01978E+02 3.25227E+01 0.00000E+00
 -1       838 1.32463E+02 2.85884E+01 0.00000E+00
 -1       839 1.29900E+01 1.61375E+01 0.00000E+00
 -1       840 2.38740E+01 1.25795E+01 0.00000E+00
 -1       841 1.29900E+01 2.49750E+01 0.00000E+00
 -1       842 2.68740E+01 1.25795E+01 0.00000E+00
 -1       843 1.33188E+02 3.22699E+01 0.00000E+00
 -1       844 1.37010E+02 1.91375E+01 0.00000E+00
 -1       845 1.29900E+01 3.37938E+01 0.00000E+00
 -1       846 1.48741E+01 1.25795E+01 0.00000E+00
 -1       847 1.37010E+02 1.62000E+01 0.00000E+00
 -1       848 1.05044E+02 2.11254E+01 0.00000E+00
 -1       849 1.29900E+01 1.90812E+01 0.00000E+00
 -1       850 1.29900E+01 3.08563E+01 0.00000E+00
 -1       851 1.01266E+02 3.47367E+01 0.00000E+00
 -1       852 2.11500E+01 3.44120E+01 0.00000E+00
 -1       853 2.41500E+01 3.44120E+01 0.00000E+00
 -1       854 2.71500E+01 3.44120E+01 0.00000E+00
 -1       855 3.01500E+01 3.44120E+01 0.00000E+00
 -1       856 3.33000E+01 3.44120E+01 0.00000E+00
 -1       857 3.63000E+01 3.44120E+01 0.00000E+00
 -1       858 3.93000E+01 3.44120E+01 0.00000E+00
 -1       859 4.23000E+01 3.44120E+01 0.00000E+00
 -1       860 4.53000E+01 3.44120E+01 0.00000E+00
 -1       861 4.83000E+01 3.44120E+01 0.00000E+00
 -1       862 5.13000E+01 3.44120E+01 0.00000E+00
 -1       863 5.43000E+01 3.44120E+01 0.00000E+00
 -1       864 5.73000E+01 3.44120E+01 0.00000E+00
 -1       865 6.03000E+01 3.44120E+01 0.00000E+00
 -1       866 6.33000E+01 3.44120E+01 0.00000E+00
 -1       867 6.63000E+01 3.44120E+01 0.00000E+00
 -1       868 6.93000E+01 3.44120E+01 0.00000E+00
 -1       869 7.24500E+01 3.44120E+01 0.00000E+00
 -1       870 7.54500E+01 3.44120E+01 0.00000E+00
 -1       871 7.84500E+01 3.44120E+01 0.00000E+00
 -1       872 8.14500E+01 3.44120E+01 0.00000E+00
 -1       873 8.44500E+01 3.44120E+01 0.00000E+00
 -1       874 8.74500E+01 3.44120E+01 0.00000E+00
 -1       875 9.04500E+01 3.44120E+01 0.00000E+00
 -1       876 9.34500E+01 3.44120E+01 0.00000E+00
 -1       877 9.64500E+01 3.44120E+01 0.00000E+00
 -1       878 1.93740E+01 1.51775E+01 0.00000E+00
 -1       879 4.33740E+01 1.51775E+01 0.00000E+00
 -1       880 4.03740E+01 1.51775E+01 0.00000E+00
 -1       881 4.93740E+01 1.51775E+01 0.00000E+00
 -1       882 5.23740E+01 1.51775E+01 0.00000E+00
 -1       883 5.53740E+01 1.51775E+01 0.00000E+00
 -1       884 5.83740E+01 1.51775E+01 0.00000E+00
 -1       885 6.13740E+01 1.51775E+01 0.00000E+00
 -1       886 6.43740E+01 1.51775E+01 0.00000E+00
 -1       887 6.73740E+01 1.51775E+01 0.00000E+00
 -1       888 7.03740E+01 1.51775E+01 0.00000E+00
 -1       889 7.33740E+01 1.51775E+01 0.00000E+00
 -1       890 7.63740E+01 1.51775E+01 0.00000E+00
 -1       891 7.93740E+01 1.51775E+01 0.00000E+00
 -1       892 8.23740E+01 1.51775E+01 0.00000E+00
 -1       893 8.53740E+01 1.51775E+01 0.00000E+00
 -1       894 8.83740E+01 1.51775E+01 0.00000E+00
 -1       895 9.13740E+01 1.51775E+01 0.00000E+00
 -1       896 9.43740E+01 1.51775E+01 0.00000E+00
 -1       897 9.73740E+01 1.51775E+01 0.00000E+00
 -1       898 1.00374E+02 1.51775E+01 0.00000E+00
 -1       899 1.03374E+02 1.51775E+01 0.00000E+00
 -1       900 1.06374E+02 1.51775E+01 0.00000E+00
 -1       901 1.09374E+02 1.51775E+01 0.00000E+00
 -1       902 1.27374E+02 1.51775E+01 0.00000E+00
 -1       903 1.30374E+02 1.51775E+01 0.00000E+00
 -1       904 1.33374E+02 1.51775E+01 0.00000E+00
 -1       905 1.63741E+01 1.51775E+01 0.00000E+00
 -1       906 1.33344E+02 3.49363E+01 0.00000E+00
 -1       907 1.46820E+01 1.56575E+01 0.00000E+00
 -1       908 1.34412E+02 2.35500E+01 0.00000E+00
 -1       909 1.00466E+02 2.93865E+01 0.00000E+00
 -1       910 1.32099E+02 2.56394E+01 0.00000E+00
 -1       911 1.06409E+02 1.84125E+01 0.00000E+00
 -1       912 1.29900E+01 2.79188E+01 0.00000E+00
 -1       913 4.63740E+01 1.51775E+01 0.00000E+00
 -1       914 1.81500E+01 3.44120E+01 0.00000E+00
 -1       915 1.34579E+01 3.53775E+01 0.00000E+00
 -1       916 3.13740E+01 1.51775E+01 0.00000E+00
 -1       917 1.29152E+02 1.94132E+01 0.00000E+00
 -1       918 1.01005E+02 2.65112E+01 0.00000E+00
 -1       919 1.01818E+02 2.34133E+01 0.00000E+00
 -1       920 1.31024E+02 2.21421E+01 0.00000E+00
 -1       921 2.23740E+01 1.51775E+01 0.00000E+00
 -1       922 9.88582E+01 3.45743E+01 0.00000E+00
 -1       923 1.35000E+02 3.52174E+01 0.00000E+00
 -1       924 1.55880E+01 2.35000E+01 0.00000E+00
 -1       925 2.83740E+01 1.51775E+01 0.00000E+00
 -1       926 3.43740E+01 1.51775E+01 0.00000E+00
 -1       927 1.24374E+02 1.51775E+01 0.00000E+00
 -1       928 1.55880E+01 3.23250E+01 0.00000E+00
 -1       929 1.34412E+02 2.06125E+01 0.00000E+00
 -1       930 1.55880E+01 2.05562E+01 0.00000E+00
 -1       931 9.99834E+01 3.08696E+01 0.00000E+00
 -1       932 1.33893E+02 1.78950E+01 0.00000E+00
 -1       933 1.02316E+02 2.14434E+01 0.00000E+00
 -1       934 3.73740E+01 1.51775E+01 0.00000E+00
 -1       935 1.58040E+01 3.48947E+01 0.00000E+00
 -1       936 2.26500E+01 3.18140E+01 0.00000E+00
 -1       937 2.56500E+01 3.18140E+01 0.00000E+00
 -1       938 2.86500E+01 3.18140E+01 0.00000E+00
 -1       939 3.18000E+01 3.18140E+01 0.00000E+00
 -1       940 3.48000E+01 3.18140E+01 0.00000E+00
 -1       941 3.78000E+01 3.18140E+01 0.00000E+00
 -1       942 4.08000E+01 3.18140E+01 0.00000E+00
 -1       943 4.38000E+01 3.18140E+01 0.00000E+00
 -1       944 4.68000E+01 3.18140E+01 0.00000E+00
 -1       945 4.98000E+01 3.18140E+01 0.00000E+00
 -1       946 5.28000E+01 3.18140E+01 0.00000E+00
 -1       947 5.58000E+01 3.18140E+01 0.00000E+00
 -1       948 5.88000E+01 3.18140E+01 0.00000E+00
 -1       949 6.18000E+01 3.18140E+01 0.00000E+00
 -1       950 6.48000E+01 3.18140E+01 0.00000E+00
 -1       951 6.78000E+01 3.18140E+01 0.00000E+00
 -1       952 7.09500E+01 3.18140E+01 0.00000E+00
 -1       953 7.39500E+01 3.18140E+01 0.00000E+00
 -1       954 7.69500E+01 3.18140E+01 0.00000E+00
 -1       955 7.99500E+01 3.18140E+01 0.00000E+00
 -1       956 8.29500E+01 3.18140E+01 0.00000E+00
 -1       957 8.59500E+01 3.18140E+01 0.00000E+00
 -1       958 8.89500E+01 3.18140E+01 0.00000E+00
 -1       959 9.19500E+01 3.18140E+01 0.00000E+00
 -1       960 9.49500E+01 3.18140E+01 0.00000E+00
 -1       961 2.53740E+01 1.51775E+01 0.00000E+00
 -1       962 1.03682E+02 1.87305E+01 0.00000E+00
 -1       963 5.38740E+01 1.77755E+01 0.00000E+00
 -1       964 5.08740E+01 1.77755E+01 0.00000E+00
 -1       965 5.98740E+01 1.77755E+01 0.00000E+00
 -1       966 6.28740E+01 1.77755E+01 0.00000E+00
 -1       967 6.58740E+01 1.77755E+01 0.00000E+00
 -1       968 6.88740E+01 1.77755E+01 0.00000E+00
 -1       969 7.18740E+01 1.77755E+01 0.00000E+00
 -1       970 7.48740E+01 1.77755E+01 0.00000E+00
 -1       971 7.78740E+01 1.77755E+01 0.00000E+00
 -1       972 8.08740E+01 1.77755E+01 0.00000E+00
 -1       973 8.38740E+01 1.77755E+01 0.00000E+00
 -1       974 8.68740E+01 1.77755E+01 0.00000E+00
 -1       975 8.98740E+01 1.77755E+01 0.00000E+00
 -1       976 9.28740E+01 1.77755E+01 0.00000E+00
 -1       977 9.58740E+01 1.77755E+01 0.00000E+00
 -1       978 9.88740E+01 1.77755E+01 0.00000E+00
 -1       979 9.83908E+01 2.75091E+01 0.00000E+00
 -1       980 1.78740E+01 1.77755E+01 0.00000E+00
 -1       981 1.96500E+01 3.18140E+01 0.00000E+00
 -1       982 1.55880E+01 2.93875E+01 0.00000E+00
 -1       983 9.88988E+01 2.43025E+01 0.00000E+00
 -1       984 1.51350E+01 1.81069E+01 0.00000E+00
 -1       985 1.55880E+01 2.64438E+01 0.00000E+00
 -1       986 1.31523E+02 1.86541E+01 0.00000E+00
 -1       987 5.68740E+01 1.77755E+01 0.00000E+00
 -1       988 4.18740E+01 1.77755E+01 0.00000E+00
 -1       989 9.93967E+01 2.23326E+01 0.00000E+00
 -1       990 9.73582E+01 3.19763E+01 0.00000E+00
 -1       991 2.98740E+01 1.77755E+01 0.00000E+00
 -1       992 9.79085E+01 2.89922E+01 0.00000E+00
 -1       993 4.48740E+01 1.77755E+01 0.00000E+00
 -1       994 9.94208E+01 3.27220E+01 0.00000E+00
 -1       995 3.88740E+01 1.77755E+01 0.00000E+00
 -1       996 4.78740E+01 1.77755E+01 0.00000E+00
 -1       997 3.28740E+01 1.77755E+01 0.00000E+00
 -1       998 2.08740E+01 1.77755E+01 0.00000E+00
 -1       999 1.81860E+01 2.49719E+01 0.00000E+00
 -1      1000 1.81860E+01 2.20281E+01 0.00000E+00
 -1      1001 2.71500E+01 2.92160E+01 0.00000E+00
 -1      1002 3.03000E+01 2.92160E+01 0.00000E+00
 -1      1003 3.33000E+01 2.92160E+01 0.00000E+00
 -1      1004 3.63000E+01 2.92160E+01 0.00000E+00
 -1      1005 3.93000E+01 2.92160E+01 0.00000E+00
 -1      1006 4.23000E+01 2.92160E+01 0.00000E+00
 -1      1007 4.53000E+01 2.92160E+01 0.00000E+00
 -1      1008 4.83000E+01 2.92160E+01 0.00000E+00
 -1      1009 5.13000E+01 2.92160E+01 0.00000E+00
 -1      1010 5.43000E+01 2.92160E+01 0.00000E+00
 -1      1011 5.73000E+01 2.92160E+01 0.00000E+00
 -1      1012 6.03000E+01 2.92160E+01 0.00000E+00
 -1      1013 6.33000E+01 2.92160E+01 0.00000E+00
 -1      1014 6.63000E+01 2.92160E+01 0.00000E+00
 -1      1015 6.94500E+01 2.92160E+01 0.00000E+00
 -1      1016 7.24500E+01 2.92160E+01 0.00000E+00
 -1      1017 7.54500E+01 2.92160E+01 0.00000E+00
 -1      1018 7.84500E+01 2.92160E+01 0.00000E+00
 -1      1019 8.14500E+01 2.92160E+01 0.00000E+00
 -1      1020 8.44500E+01 2.92160E+01 0.00000E+00
 -1      1021 8.74500E+01 2.92160E+01 0.00000E+00
 -1      1022 9.04500E+01 2.92160E+01 0.00000E+00
 -1      1023 9.34500E+01 2.92160E+01 0.00000E+00
 -1      1024 6.73740E+01 2.03735E+01 0.00000E+00
 -1      1025 5.23740E+01 2.03735E+01 0.00000E+00
 -1      1026 6.43740E+01 2.03735E+01 0.00000E+00
 -1      1027 6.13740E+01 2.03735E+01 0.00000E+00
 -1      1028 7.03740E+01 2.03735E+01 0.00000E+00
 -1      1029 7.33740E+01 2.03735E+01 0.00000E+00
 -1      1030 7.63740E+01 2.03735E+01 0.00000E+00
 -1      1031 7.93740E+01 2.03735E+01 0.00000E+00
 -1      1032 8.23740E+01 2.03735E+01 0.00000E+00
 -1      1033 8.53740E+01 2.03735E+01 0.00000E+00
 -1      1034 8.83740E+01 2.03735E+01 0.00000E+00
 -1      1035 9.13740E+01 2.03735E+01 0.00000E+00
 -1      1036 9.43740E+01 2.03735E+01 0.00000E+00
 -1      1037 9.73740E+01 2.03735E+01 0.00000E+00
 -1      1038 1.89513E+01 2.83704E+01 0.00000E+00
 -1      1039 3.58740E+01 1.77755E+01 0.00000E+00
 -1      1040 2.68740E+01 1.77755E+01 0.00000E+00
 -1      1041 5.53740E+01 2.03735E+01 0.00000E+00
 -1      1042 2.19513E+01 2.83704E+01 0.00000E+00
 -1      1043 9.60788E+01 2.54993E+01 0.00000E+00
 -1      1044 5.83740E+01 2.03735E+01 0.00000E+00
 -1      1045 2.45507E+01 2.87932E+01 0.00000E+00
 -1      1046 9.65767E+01 2.35294E+01 0.00000E+00
 -1      1047 4.93740E+01 2.03735E+01 0.00000E+00
 -1      1048 4.03740E+01 2.03735E+01 0.00000E+00
 -1      1049 2.83740E+01 2.03735E+01 0.00000E+00
 -1      1050 4.33740E+01 2.03735E+01 0.00000E+00
 -1      1051 2.38740E+01 1.77755E+01 0.00000E+00
 -1      1052 2.11860E+01 2.49719E+01 0.00000E+00
 -1      1053 3.13740E+01 2.03735E+01 0.00000E+00
 -1      1054 9.63145E+01 2.95152E+01 0.00000E+00
 -1      1055 3.18000E+01 2.66180E+01 0.00000E+00
 -1      1056 3.48000E+01 2.66180E+01 0.00000E+00
 -1      1057 3.78000E+01 2.66180E+01 0.00000E+00
 -1      1058 4.08000E+01 2.66180E+01 0.00000E+00
 -1      1059 4.38000E+01 2.66180E+01 0.00000E+00
 -1      1060 4.68000E+01 2.66180E+01 0.00000E+00
 -1      1061 4.98000E+01 2.66180E+01 0.00000E+00
 -1      1062 5.28000E+01 2.66180E+01 0.00000E+00
 -1      1063 5.58000E+01 2.66180E+01 0.00000E+00
 -1      1064 5.88000E+01 2.66180E+01 0.00000E+00
 -1      1065 6.18000E+01 2.66180E+01 0.00000E+00
 -1      1066 6.48000E+01 2.66180E+01 0.00000E+00
 -1      1067 6.79500E+01 2.66180E+01 0.00000E+00
 -1      1068 7.09500E+01 2.66180E+01 0.00000E+00
 -1      1069 7.39500E+01 2.66180E+01 0.00000E+00
 -1      1070 7.69500E+01 2.66180E+01 0.00000E+00
 -1      1071 7.99500E+01 2.66180E+01 0.00000E+00
 -1      1072 8.29500E+01 2.66180E+01 0.00000E+00
 -1      1073 8.59500E+01 2.66180E+01 0.00000E+00
 -1      1074 8.89500E+01 2.66180E+01 0.00000E+00
 -1      1075 9.19500E+01 2.66180E+01 0.00000E+00
 -1      1076 7.18740E+01 2.29715E+01 0.00000E+00
 -1      1077 5.38740E+01 2.29715E+01 0.00000E+00
 -1      1078 6.88740E+01 2.29715E+01 0.00000E+00
 -1      1079 2.25300E+01 2.13737E+01 0.00000E+00
 -1      1080 4.63740E+01 2.03735E+01 0.00000E+00
 -1      1081 6.28740E+01 2.29715E+01 0.00000E+00
 -1      1082 7.48740E+01 2.29715E+01 0.00000E+00
 -1      1083 7.78740E+01 2.29715E+01 0.00000E+00
 -1      1084 8.08740E+01 2.29715E+01 0.00000E+00
 -1      1085 8.38740E+01 2.29715E+01 0.00000E+00
 -1      1086 8.68740E+01 2.29715E+01 0.00000E+00
 -1      1087 8.98740E+01 2.29715E+01 0.00000E+00
 -1      1088 9.28740E+01 2.29715E+01 0.00000E+00
 -1      1089 2.37853E+01 2.53947E+01 0.00000E+00
 -1      1090 5.68740E+01 2.29715E+01 0.00000E+00
 -1      1091 3.73740E+01 2.03735E+01 0.00000E+00
 -1      1092 2.86500E+01 2.66180E+01 0.00000E+00
 -1      1093 5.98740E+01 2.29715E+01 0.00000E+00
 -1      1094 3.43740E+01 2.03735E+01 0.00000E+00
 -1      1095 6.58740E+01 2.29715E+01 0.00000E+00
 -1      1096 5.08740E+01 2.29715E+01 0.00000E+00
 -1      1097 2.62177E+01 2.60063E+01 0.00000E+00
 -1      1098 2.54520E+01 2.08736E+01 0.00000E+00
 -1      1099 3.88740E+01 2.29715E+01 0.00000E+00
 -1      1100 4.18740E+01 2.29715E+01 0.00000E+00
 -1      1101 2.98740E+01 2.29715E+01 0.00000E+00
 -1      1102 3.63000E+01 2.40200E+01 0.00000E+00
 -1      1103 4.83000E+01 2.40200E+01 0.00000E+00
 -1      1104 2.58348E+01 2.34400E+01 0.00000E+00
 -1      1105 2.73513E+01 2.31843E+01 0.00000E+00
 -1      1106 4.50870E+01 2.34958E+01 0.00000E+00
 -1      1107 3.28740E+01 2.29715E+01 0.00000E+00
 -1      1108 0.00000E+00 4.85250E+01 0.00000E+00
 -1      1109 0.00000E+00 4.55750E+01 0.00000E+00
 -1      1110 0.00000E+00 4.26250E+01 0.00000E+00
 -1      1111 0.00000E+00 3.96750E+01 0.00000E+00
 -1      1112 0.00000E+00 3.67250E+01 0.00000E+00
 -1      1113 0.00000E+00 3.38000E+01 0.00000E+00
 -1      1114 0.00000E+00 3.08750E+01 0.00000E+00
 -1      1115 0.00000E+00 2.79250E+01 0.00000E+00
 -1      1116 0.00000E+00 2.49750E+01 0.00000E+00
 -1      1117 0.00000E+00 2.20250E+01 0.00000E+00
 -1      1118 0.00000E+00 1.90750E+01 0.00000E+00
 -1      1119 0.00000E+00 1.61500E+01 0.00000E+00
 -1      1120 0.00000E+00 1.32250E+01 0.00000E+00
 -1      1121 0.00000E+00 1.02750E+01 0.00000E+00
 -1      1122 0.00000E+00 7.32500E+00 0.00000E+00
 -1      1123 0.00000E+00 4.37500E+00 0.00000E+00
 -1      1124 0.00000E+00 1.45000E+00 0.00000E+00
 -1      1125 1.57500E+00 5.00000E+01 0.00000E+00
 -1      1126 4.65000E+00 5.00000E+01 0.00000E+00
 -1      1127 7.65000E+00 5.00000E+01 0.00000E+00
 -1      1128 1.06500E+01 5.00000E+01 0.00000E+00
 -1      1129 1.36500E+01 5.00000E+01 0.00000E+00
 -1      1130 1.66500E+01 5.00000E+01 0.00000E+00
 -1      1131 1.96500E+01 5.00000E+01 0.00000E+00
 -1      1132 2.26500E+01 5.00000E+01 0.00000E+00
 -1      1133 2.56500E+01 5.00000E+01 0.00000E+00
 -1      1134 2.86500E+01 5.00000E+01 0.00000E+00
 -1      1135 3.16500E+01 5.00000E+01 0.00000E+00
 -1      1136 3.46500E+01 5.00000E+01 0.00000E+00
 -1      1137 3.76500E+01 5.00000E+01 0.00000E+00
 -1      1138 4.07250E+01 5.00000E+01 0.00000E+00
 -1      1139 4.38000E+01 5.00000E+01 0.00000E+00
 -1      1140 4.68000E+01 5.00000E+01 0.00000E+00
 -1      1141 4.98000E+01 5.00000E+01 0.00000E+00
 -1      1142 5.28000E+01 5.00000E+01 0.00000E+00
 -1      1143 5.58000E+01 5.00000E+01 0.00000E+00
 -1      1144 5.88000E+01 5.00000E+01 0.00000E+00
 -1      1145 6.18000E+01 5.00000E+01 0.00000E+00
 -1      1146 6.48000E+01 5.00000E+01 0.00000E+00
 -1      1147 6.78000E+01 5.00000E+01 0.00000E+00
 -1      1148 7.08000E+01 5.00000E+01 0.00000E+00
 -1      1149 7.38000E+01 5.00000E+01 0.00000E+00
 -1      1150 7.68000E+01 5.00000E+01 0.00000E+00
 -1      1151 7.98750E+01 5.00000E+01 0.00000E+00
 -1      1152 8.29500E+01 5.00000E+01 0.00000E+00
 -1      1153 8.59500E+01 5.00000E+01 0.00000E+00
 -1      1154 8.89500E+01 5.00000E+01 0.00000E+00
 -1      1155 9.19500E+01 5.00000E+01 0.00000E+00
 -1      1156 9.49500E+01 5.00000E+01 0.00000E+00
 -1      1157 9.79500E+01 5.00000E+01 0.00000E+00
 -1      1158 1.00950E+02 5.00000E+01 0.00000E+00
 -1      1159 1.03950E+02 5.00000E+01 0.00000E+00
 -1      1160 1.06950E+02 5.00000E+01 0.00000E+00
 -1      1161 1.09950E+02 5.00000E+01 0.00000E+00
 -1      1162 1.12950E+02 5.00000E+01 0.00000E+00
 -1      1163 1.15800E+02 5.00000E+01 0.00000E+00
 -1      1164 1.18575E+02 5.00000E+01 0.00000E+00
 -1      1165 1.21500E+02 5.00000E+01 0.00000E+00
 -1      1166 1.24500E+02 5.00000E+01 0.00000E+00
 -1      1167 1.27500E+02 5.00000E+01 0.00000E+00
 -1      1168 1.30500E+02 5.00000E+01 0.00000E+00
 -1      1169 1.33500E+02 5.00000E+01 0.00000E+00
 -1      1170 1.36500E+02 5.00000E+01 0.00000E+00
 -1      1171 1.39500E+02 5.00000E+01 0.00000E+00
 -1      1172 1.42500E+02 5.00000E+01 0.00000E+00
 -1      1173 1.45500E+02 5.00000E+01 0.00000E+00
 -1      1174 1.48500E+02 5.00000E+01 0.00000E+00
 -1      1175 1.57500E+00 0.00000E+00 0.00000E+00
 -1      1176 4.65000E+00 0.00000E+00 0.00000E+00
 -1      1177 7.65000E+00 0.00000E+00 0.00000E+00
 -1      1178 1.06500E+01 0.00000E+00 0.00000E+00
 -1      1179 1.36500E+01 0.00000E+00 0.00000E+00
 -1      1180 1.66500E+01 0.00000E+00 0.00000E+00
 -1      1181 1.96500E+01 0.00000E+00 0.00000E+00
 -1      1182 2.26500E+01 0.00000E+00 0.00000E+00
 -1      1183 2.56500E+01 0.00000E+00 0.00000E+00
 -1      1184 2.86500E+01 0.00000E+00 0.00000E+00
 -1      1185 3.16500E+01 0.00000E+00 0.00000E+00
 -1      1186 3.46500E+01 0.00000E+00 0.00000E+00
 -1      1187 3.76500E+01 0.00000E+00 0.00000E+00
 -1      1188 4.06500E+01 0.00000E+00 0.00000E+00
 -1      1189 4.36500E+01 0.00000E+00 0.00000E+00
 -1      1190 4.66500E+01 0.00000E+00 0.00000E+00
 -1      1191 4.96500E+01 0.00000E+00 0.00000E+00
 -1      1192 5.26500E+01 0.00000E+00 0.00000E+00
 -1      1193 5.56500E+01 0.00000E+00 0.00000E+00
 -1      1194 5.86500E+01 0.00000E+00 0.00000E+00
 -1      1195 6.16500E+01 0.00000E+00 0.00000E+00
 -1      1196 6.46500E+01 0.00000E+00 0.00000E+00
 -1      1197 6.76500E+01 0.00000E+00 0.00000E+00
 -1      1198 7.06500E+01 0.00000E+00 0.00000E+00
 -1      1199 7.36500E+01 0.00000E+00 0.00000E+00
 -1      1200 7.66500E+01 0.00000E+00 0.00000E+00
 -1      1201 7.96500E+01 0.00000E+00 0.00000E+00
 -1      1202 8.26500E+01 0.00000E+00 0.00000E+00
 -1      1203 8.56500E+01 0.00000E+00 0.00000E+00
 -1      1204 8.86500E+01 0.00000E+00 0.00000E+00
 -1      1205 9.16500E+01 0.00000E+00 0.00000E+00
 -1      1206 9.46500E+01 0.00000E+00 0.00000E+00
 -1      1207 9.76500E+01 0.00000E+00 0.00000E+00
 -1      1208 1.00650E+02 0.00000E+00 0.00000E+00
 -1      1209 1.03650E+02 0.00000E+00 0.00000E+00
 -1      1210 1.06650E+02 0.00000E+00 0.00000E+00
 -1      1211 1.09650E+02 0.00000E+00 0.00000E+00
 -1      1212 1.12650E+02 0.00000E+00 0.00000E+00
 -1      1213 1.15650E+02 0.00000E+00 0.00000E+00
 -1      1214 1.18650E+02 0.00000E+00 0.00000E+00
 -1      1215 1.21650E+02 0.00000E+00 0.00000E+00
 -1      1216 1.24650E+02 0.00000E+00 0.00000E+00
 -1      1217 1.27650E+02 0.00000E+00 0.00000E+00
 -1      1218 1.30650E+02 0.00000E+00 0.00000E+00
 -1      1219 1.33650E+02 0.00000E+00 0.00000E+00
 -1      1220 1.36650E+02 0.00000E+00 0.00000E+00
 -1      1221 1.39650E+02 0.00000E+00 0.00000E+00
 -1      1222 1.42650E+02 0.00000E+00 0.00000E+00
 -1      1223 1.45650E+02 0.00000E+00 0.00000E+00
 -1      1224 1.48575E+02 0.00000E+00 0.00000E+00
 -1      1225 1.50000E+02 1.47500E+00 0.00000E+00
 -1      1226 1.50000E+02 4.42500E+00 0.00000E+00
 -1      1227 1.50000E+02 7.37500E+00 0.00000E+00
 -1      1228 1.50000E+02 1.03250E+01 0.00000E+00
 -1      1229 1.50000E+02 1.32750E+01 0.00000E+00
 -1      1230 1.50000E+02 1.62000E+01 0.00000E+00
 -1      1231 1.50000E+02 1.91250E+01 0.00000E+00
 -1      1232 1.50000E+02 2.20750E+01 0.00000E+00
 -1      1233 1.50000E+02 2.50250E+01 0.00000E+00
 -1      1234 1.50000E+02 2.79750E+01 0.00000E+00
 -1      1235 1.50000E+02 3.09250E+01 0.00000E+00
 -1      1236 1.50000E+02 3.38500E+01 0.00000E+00
 -1      1237 1.50000E+02 3.67750E+01 0.00000E+00
 -1      1238 1.50000E+02 3.97250E+01 0.00000E+00
 -1      1239 1.50000E+02 4.26750E+01 0.00000E+00
 -1      1240 1.50000E+02 4.56250E+01 0.00000E+00
 -1      1241 1.50000E+02 4.85500E+01 0.00000E+00
 -1      1242 1.23976E+02 3.14499E+01 0.00000E+00
 -1      1243 1.23636E+02 2.99439E+01 0.00000E+00
 -1      1244 1.22988E+02 2.85728E+01 0.00000E+00
 -1      1245 1.22090E+02 2.74030E+01 0.00000E+00
 -1      1246 1.20979E+02 2.64570E+01 0.00000E+00
 -1      1247 1.19677E+02 2.57535E+01 0.00000E+00
 -1      1248 1.18207E+02 2.53311E+01 0.00000E+00
 -1      1249 1.16678E+02 2.52378E+01 0.00000E+00
 -1      1250 1.15208E+02 2.54680E+01 0.00000E+00
 -1      1251 1.13778E+02 2.60251E+01 0.00000E+00
 -1      1252 1.12517E+02 2.68701E+01 0.00000E+00
 -1      1253 1.11523E+02 2.78950E+01 0.00000E+00
 -1      1254 1.10758E+02 2.91010E+01 0.00000E+00
 -1      1255 1.10251E+02 3.04451E+01 0.00000E+00
 -1      1256 1.10027E+02 3.19060E+01 0.00000E+00
 -1      1257 1.10116E+02 3.33856E+01 0.00000E+00
 -1      1258 1.10502E+02 3.47841E+01 0.00000E+00
 -1      1259 1.11157E+02 3.60542E+01 0.00000E+00
 -1      1260 1.12063E+02 3.71728E+01 0.00000E+00
 -1      1261 1.13189E+02 3.80885E+01 0.00000E+00
 -1      1262 1.14438E+02 3.87362E+01 0.00000E+00
 -1      1263 1.15769E+02 3.91169E+01 0.00000E+00
 -1      1264 1.17149E+02 3.92283E+01 0.00000E+00
 -1      1265 1.18592E+02 3.90506E+01 0.00000E+00
 -1      1266 1.19991E+02 3.85675E+01 0.00000E+00
 -1      1267 1.21253E+02 3.78044E+01 0.00000E+00
 -1      1268 1.22333E+02 3.67869E+01 0.00000E+00
 -1      1269 1.23155E+02 3.55989E+01 0.00000E+00
 -1      1270 1.23701E+02 3.43160E+01 0.00000E+00
 -1      1271 1.23983E+02 3.29431E+01 0.00000E+00
 -1      1272 1.57500E+00 4.85250E+01 0.00000E+00
 -1      1273 1.29900E+00 4.48375E+01 0.00000E+00
 -1      1274 1.29900E+00 4.63125E+01 0.00000E+00
 -1      1275 1.29900E+00 4.18875E+01 0.00000E+00
 -1      1276 1.29900E+00 4.33625E+01 0.00000E+00
 -1      1277 2.59800E+00 4.41000E+01 0.00000E+00
 -1      1278 1.29900E+00 3.89375E+01 0.00000E+00
 -1      1279 1.29900E+00 4.04125E+01 0.00000E+00
 -1      1280 2.59800E+00 4.11500E+01 0.00000E+00
 -1      1281 1.29900E+00 3.59875E+01 0.00000E+00
 -1      1282 1.29900E+00 3.74625E+01 0.00000E+00
 -1      1283 2.59800E+00 3.82000E+01 0.00000E+00
 -1      1284 1.29900E+00 3.30875E+01 0.00000E+00
 -1      1285 1.29900E+00 3.45375E+01 0.00000E+00
 -1      1286 2.59800E+00 3.52750E+01 0.00000E+00
 -1      1287 1.29900E+00 3.01375E+01 0.00000E+00
 -1      1288 1.29900E+00 3.16125E+01 0.00000E+00
 -1      1289 2.59800E+00 3.23500E+01 0.00000E+00
 -1      1290 1.29900E+00 2.71875E+01 0.00000E+00
 -1      1291 1.29900E+00 2.86625E+01 0.00000E+00
 -1      1292 2.59800E+00 2.94000E+01 0.00000E+00
 -1      1293 1.29900E+00 2.42375E+01 0.00000E+00
 -1      1294 1.29900E+00 2.57125E+01 0.00000E+00
 -1      1295 2.59800E+00 2.64500E+01 0.00000E+00
 -1      1296 1.29900E+00 2.12875E+01 0.00000E+00
 -1      1297 1.29900E+00 2.27625E+01 0.00000E+00
 -1      1298 2.59800E+00 2.35000E+01 0.00000E+00
 -1      1299 1.29900E+00 1.83375E+01 0.00000E+00
 -1      1300 1.29900E+00 1.98125E+01 0.00000E+00
 -1      1301 2.59800E+00 2.05500E+01 0.00000E+00
 -1      1302 1.29900E+00 1.54375E+01 0.00000E+00
 -1      1303 1.29900E+00 1.68875E+01 0.00000E+00
 -1      1304 2.59800E+00 1.76250E+01 0.00000E+00
 -1      1305 1.29900E+00 1.24875E+01 0.00000E+00
 -1      1306 1.29900E+00 1.39625E+01 0.00000E+00
 -1      1307 2.59800E+00 1.47000E+01 0.00000E+00
 -1      1308 1.29900E+00 9.53750E+00 0.00000E+00
 -1      1309 1.29900E+00 1.10125E+01 0.00000E+00
 -1      1310 2.59800E+00 1.17500E+01 0.00000E+00
 -1      1311 1.29900E+00 6.58750E+00 0.00000E+00
 -1      1312 1.29900E+00 8.06250E+00 0.00000E+00
 -1      1313 2.59800E+00 8.80000E+00 0.00000E+00
 -1      1314 1.29900E+00 3.63750E+00 0.00000E+00
 -1      1315 1.29900E+00 5.11250E+00 0.00000E+00
 -1      1316 2.59800E+00 5.85000E+00 0.00000E+00
 -1      1317 1.43700E+00 1.09375E+00 0.00000E+00
 -1      1318 1.43700E+00 2.54375E+00 0.00000E+00
 -1      1319 2.73600E+00 3.28125E+00 0.00000E+00
 -1      1320 3.01200E+00 1.09375E+00 0.00000E+00
 -1      1321 3.90000E+00 4.87010E+01 0.00000E+00
 -1      1322 5.40000E+00 4.87010E+01 0.00000E+00
 -1      1323 6.90000E+00 4.87010E+01 0.00000E+00
 -1      1324 8.40000E+00 4.87010E+01 0.00000E+00
 -1      1325 6.15000E+00 4.74020E+01 0.00000E+00
 -1      1326 9.90000E+00 4.87010E+01 0.00000E+00
 -1      1327 1.14000E+01 4.87010E+01 0.00000E+00
 -1      1328 9.15000E+00 4.74020E+01 0.00000E+00
 -1      1329 1.29000E+01 4.87010E+01 0.00000E+00
 -1      1330 1.44000E+01 4.87010E+01 0.00000E+00
 -1      1331 1.21500E+01 4.74020E+01 0.00000E+00
 -1      1332 1.59000E+01 4.87010E+01 0.00000E+00
 -1      1333 1.74000E+01 4.87010E+01 0.00000E+00
 -1      1334 1.51500E+01 4.74020E+01 0.00000E+00
 -1      1335 1.89000E+01 4.87010E+01 0.00000E+00
 -1      1336 2.04000E+01 4.87010E+01 0.00000E+00
 -1      1337 1.81500E+01 4.74020E+01 0.00000E+00
 -1      1338 2.19000E+01 4.87010E+01 0.00000E+00
 -1      1339 2.34000E+01 4.87010E+01 0.00000E+00
 -1      1340 2.11500E+01 4.74020E+01 0.00000E+00
 -1      1341 2.49000E+01 4.87010E+01 0.00000E+00
 -1      1342 2.64000E+01 4.87010E+01 0.00000E+00
 -1      1343 2.41500E+01 4.74020E+01 0.00000E+00
 -1      1344 2.79000E+01 4.87010E+01 0.00000E+00
 -1      1345 2.94000E+01 4.87010E+01 0.00000E+00
 -1      1346 2.71500E+01 4.74020E+01 0.00000E+00
 -1      1347 3.09000E+01 4.87010E+01 0.00000E+00
 -1      1348 3.24000E+01 4.87010E+01 0.00000E+00
 -1      1349 3.01500E+01 4.74020E+01 0.00000E+00
 -1      1350 3.39000E+01 4.87010E+01 0.00000E+00
 -1      1351 3.54000E+01 4.87010E+01 0.00000E+00
 -1      1352 3.31500E+01 4.74020E+01 0.00000E+00
 -1      1353 3.69000E+01 4.87010E+01 0.00000E+00
 -1      1354 3.84000E+01 4.87010E+01 0.00000E+00
 -1      1355 3.61500E+01 4.74020E+01 0.00000E+00
 -1      1356 3.99750E+01 4.87010E+01 0.00000E+00
 -1      1357 4.15500E+01 4.87010E+01 0.00000E+00
 -1      1358 3.92250E+01 4.74020E+01 0.00000E+00
 -1      1359 4.30500E+01 4.87010E+01 0.00000E+00
 -1      1360 4.45500E+01 4.87010E+01 0.00000E+00
 -1      1361 4.23000E+01 4.74020E+01 0.00000E+00
 -1      1362 4.60500E+01 4.87010E+01 0.00000E+00
 -1      1363 4.75500E+01 4.87010E+01 0.00000E+00
 -1      1364 4.53000E+01 4.74020E+01 0.00000E+00
 -1      1365 4.90500E+01 4.87010E+01 0.00000E+00
 -1      1366 5.05500E+01 4.87010E+01 0.00000E+00
 -1      1367 4.83000E+01 4.74020E+01 0.00000E+00
 -1      1368 5.20500E+01 4.87010E+01 0.00000E+00
 -1      1369 5.35500E+01 4.87010E+01 0.00000E+00
 -1      1370 5.13000E+01 4.74020E+01 0.00000E+00
 -1      1371 5.50500E+01 4.87010E+01 0.00000E+00
 -1      1372 5.65500E+01 4.87010E+01 0.00000E+00
 -1      1373 5.43000E+01 4.74020E+01 0.00000E+00
 -1      1374 5.80500E+01 4.87010E+01 0.00000E+00
 -1      1375 5.95500E+01 4.87010E+01 0.00000E+00
 -1      1376 5.73000E+01 4.74020E+01 0.00000E+00
 -1      1377 6.10500E+01 4.87010E+01 0.00000E+00
 -1      1378 6.25500E+01 4.87010E+01 0.00000E+00
 -1      1379 6.03000E+01 4.74020E+01 0.00000E+00
 -1      1380 6.40500E+01 4.87010E+01 0.00000E+00
 -1      1381 6.55500E+01 4.87010E+01 0.00000E+00
 -1      1382 6.33000E+01 4.74020E+01 0.00000E+00
 -1      1383 6.70500E+01 4.87010E+01 0.00000E+00
 -1      1384 6.85500E+01 4.87010E+01 0.00000E+00
 -1      1385 6.63000E+01 4.74020E+01 0.00000E+00
 -1      1386 7.00500E+01 4.87010E+01 0.00000E+00
 -1      1387 7.15500E+01 4.87010E+01 0.00000E+00
 -1      1388 6.93000E+01 4.74020E+01 0.00000E+00
 -1      1389 7.30500E+01 4.87010E+01 0.00000E+00
 -1      1390 7.45500E+01 4.87010E+01 0.00000E+00
 -1      1391 7.23000E+01 4.74020E+01 0.00000E+00
 -1      1392 7.60500E+01 4.87010E+01 0.00000E+00
 -1      1393 7.75500E+01 4.87010E+01 0.00000E+00
 -1      1394 7.53000E+01 4.74020E+01 0.00000E+00
 -1      1395 7.91250E+01 4.87010E+01 0.00000E+00
 -1      1396 8.07000E+01 4.87010E+01 0.00000E+00
 -1      1397 7.83750E+01 4.74020E+01 0.00000E+00
 -1      1398 8.22000E+01 4.87010E+01 0.00000E+00
 -1      1399 8.37000E+01 4.87010E+01 0.00000E+00
 -1      1400 8.14500E+01 4.74020E+01 0.00000E+00
 -1      1401 8.52000E+01 4.87010E+01 0.00000E+00
 -1      1402 8.67000E+01 4.87010E+01 0.00000E+00
 -1      1403 8.44500E+01 4.74020E+01 0.00000E+00
 -1      1404 8.82000E+01 4.87010E+01 0.00000E+00
 -1      1405 8.97000E+01 4.87010E+01 0.00000E+00
 -1      1406 8.74500E+01 4.74020E+01 0.00000E+00
 -1      1407 9.12000E+01 4.87010E+01 0.00000E+00
 -1      1408 9.27000E+01 4.87010E+01 0.00000E+00
 -1      1409 9.04500E+01 4.74020E+01 0.00000E+00
 -1      1410 9.42000E+01 4.87010E+01 0.00000E+00
 -1      1411 9.57000E+01 4.87010E+01 0.00000E+00
 -1      1412 9.34500E+01 4.74020E+01 0.00000E+00
 -1      1413 9.72000E+01 4.87010E+01 0.00000E+00
 -1      1414 9.87000E+01 4.87010E+01 0.00000E+00
 -1      1415 9.64500E+01 4.74020E+01 0.00000E+00
 -1      1416 1.00200E+02 4.87010E+01 0.00000E+00
 -1      1417 1.01700E+02 4.87010E+01 0.00000E+00
 -1      1418 9.94500E+01 4.74020E+01 0.00000E+00
 -1      1419 1.03200E+02 4.87010E+01 0.00000E+00
 -1      1420 1.04700E+02 4.87010E+01 0.00000E+00
 -1      1421 1.02450E+02 4.74020E+01 0.00000E+00
 -1      1422 1.06200E+02 4.87010E+01 0.00000E+00
 -1      1423 1.07700E+02 4.87010E+01 0.00000E+00
 -1      1424 1.05450E+02 4.74020E+01 0.00000E+00
 -1      1425 1.09200E+02 4.87010E+01 0.00000E+00
 -1      1426 1.10700E+02 4.87010E+01 0.00000E+00
 -1      1427 1.08450E+02 4.74020E+01 0.00000E+00
 -1      1428 1.12200E+02 4.87010E+01 0.00000E+00
 -1      1429 1.13700E+02 4.87010E+01 0.00000E+00
 -1      1430 1.11450E+02 4.74020E+01 0.00000E+00
 -1      1431 1.15050E+02 4.87010E+01 0.00000E+00
 -1      1432 1.16400E+02 4.87010E+01 0.00000E+00
 -1      1433 1.14300E+02 4.74020E+01 0.00000E+00
 -1      1434 1.17825E+02 4.87010E+01 0.00000E+00
 -1      1435 1.19250E+02 4.87010E+01 0.00000E+00
 -1      1436 1.17075E+02 4.74020E+01 0.00000E+00
 -1      1437 1.20750E+02 4.87010E+01 0.00000E+00
 -1      1438 1.22250E+02 4.87010E+01 0.00000E+00
 -1      1439 1.20000E+02 4.74020E+01 0.00000E+00
 -1      1440 1.23750E+02 4.87010E+01 0.00000E+00
 -1      1441 1.25250E+02 4.87010E+01 0.00000E+00
 -1      1442 1.23000E+02 4.74020E+01 0.00000E+00
 -1      1443 1.26750E+02 4.87010E+01 0.00000E+00
 -1      1444 1.28250E+02 4.87010E+01 0.00000E+00
 -1      1445 1.26000E+02 4.74020E+01 0.00000E+00
 -1      1446 1.29750E+02 4.87010E+01 0.00000E+00
 -1      1447 1.31250E+02 4.87010E+01 0.00000E+00
 -1      1448 1.29000E+02 4.74020E+01 0.00000E+00
 -1      1449 1.32750E+02 4.87010E+01 0.00000E+00
 -1      1450 1.34250E+02 4.87010E+01 0.00000E+00
 -1      1451 1.32000E+02 4.74020E+01 0.00000E+00
 -1      1452 1.35750E+02 4.87010E+01 0.00000E+00
 -1      1453 1.37250E+02 4.87010E+01 0.00000E+00
 -1      1454 1.35000E+02 4.74020E+01 0.00000E+00
 -1      1455 1.38750E+02 4.87010E+01 0.00000E+00
 -1      1456 1.40250E+02 4.87010E+01 0.00000E+00
 -1      1457 1.38000E+02 4.74020E+01 0.00000E+00
 -1      1458 1.41750E+02 4.87010E+01 0.00000E+00
 -1      1459 1.43250E+02 4.87010E+01 0.00000E+00
 -1      1460 1.41000E+02 4.74020E+01 0.00000E+00
 -1      1461 1.44750E+02 4.87010E+01 0.00000E+00
 -1      1462 1.46250E+02 4.87010E+01 0.00000E+00
 -1      1463 1.44000E+02 4.74020E+01 0.00000E+00
 -1      1464 1.47375E+02 4.86255E+01 0.00000E+00
 -1      1465 1.48875E+02 4.86255E+01 0.00000E+00
 -1      1466 1.48875E+02 4.71755E+01 0.00000E+00
 -1      1467 1.46625E+02 4.73265E+01 0.00000E+00
 -1      1468 6.01200E+00 1.09375E+00 0.00000E+00
 -1      1469 4.51200E+00 1.09375E+00 0.00000E+00
 -1      1470 4.37400E+00 2.18750E+00 0.00000E+00
 -1      1471 9.01200E+00 1.09375E+00 0.00000E+00
 -1      1472 7.51200E+00 1.09375E+00 0.00000E+00
 -1      1473 7.37400E+00 2.18750E+00 0.00000E+00
 -1      1474 1.20120E+01 1.09375E+00 0.00000E+00
 -1      1475 1.05120E+01 1.09375E+00 0.00000E+00
 -1      1476 1.03740E+01 2.18750E+00 0.00000E+00
 -1      1477 1.50120E+01 1.09375E+00 0.00000E+00
 -1      1478 1.35120E+01 1.09375E+00 0.00000E+00
 -1      1479 1.33740E+01 2.18750E+00 0.00000E+00
 -1      1480 1.80120E+01 1.09375E+00 0.00000E+00
 -1      1481 1.65120E+01 1.09375E+00 0.00000E+00
 -1      1482 1.63740E+01 2.18750E+00 0.00000E+00
 -1      1483 2.10120E+01 1.09375E+00 0.00000E+00
 -1      1484 1.95120E+01 1.09375E+00 0.00000E+00
 -1      1485 1.93740E+01 2.18750E+00 0.00000E+00
 -1      1486 2.40120E+01 1.09375E+00 0.00000E+00
 -1      1487 2.25120E+01 1.09375E+00 0.00000E+00
 -1      1488 2.23740E+01 2.18750E+00 0.00000E+00
 -1      1489 2.70120E+01 1.09375E+00 0.00000E+00
 -1      1490 2.55120E+01 1.09375E+00 0.00000E+00
 -1      1491 2.53740E+01 2.18750E+00 0.00000E+00
 -1      1492 3.00120E+01 1.09375E+00 0.00000E+00
 -1      1493 2.85120E+01 1.09375E+00 0.00000E+00
 -1      1494 2.83740E+01 2.18750E+00 0.00000E+00
 -1      1495 3.30120E+01 1.09375E+00 0.00000E+00
 -1      1496 3.15120E+01 1.09375E+00 0.00000E+00
 -1      1497 3.13740E+01 2.18750E+00 0.00000E+00
 -1      1498 3.60120E+01 1.09375E+00 0.00000E+00
 -1      1499 3.45120E+01 1.09375E+00 0.00000E+00
 -1      1500 3.43740E+01 2.18750E+00 0.00000E+00
 -1      1501 3.90120E+01 1.09375E+00 0.00000E+00
 -1      1502 3.75120E+01 1.09375E+00 0.00000E+00
 -1      1503 3.73740E+01 2.18750E+00 0.00000E+00
 -1      1504 4.20120E+01 1.09375E+00 0.00000E+00
 -1      1505 4.05120E+01 1.09375E+00 0.00000E+00
 -1      1506 4.03740E+01 2.18750E+00 0.00000E+00
 -1      1507 4.50120E+01 1.09375E+00 0.00000E+00
 -1      1508 4.35120E+01 1.09375E+00 0.00000E+00
 -1      1509 4.33740E+01 2.18750E+00 0.00000E+00
 -1      1510 4.80120E+01 1.09375E+00 0.00000E+00
 -1      1511 4.65120E+01 1.09375E+00 0.00000E+00
 -1      1512 4.63740E+01 2.18750E+00 0.00000E+00
 -1      1513 5.10120E+01 1.09375E+00 0.00000E+00
 -1      1514 4.95120E+01 1.09375E+00 0.00000E+00
 -1      1515 4.93740E+01 2.18750E+00 0.00000E+00
 -1      1516 5.40120E+01 1.09375E+00 0.00000E+00
 -1      1517 5.25120E+01 1.09375E+00 0.00000E+00
 -1      1518 5.23740E+01 2.18750E+00 0.00000E+00
 -1      1519 5.70120E+01 1.09375E+00 0.00000E+00
 -1      1520 5.55120E+01 1.09375E+00 0.00000E+00
 -1      1521 5.53740E+01 2.18750E+00 0.00000E+00
 -1      1522 6.00120E+01 1.09375E+00 0.00000E+00
 -1      1523 5.85120E+01 1.09375E+00 0.00000E+00
 -1      1524 5.83740E+01 2.18750E+00 0.00000E+00
 -1      1525 6.30120E+01 1.09375E+00 0.00000E+00
 -1      1526 6.15120E+01 1.09375E+00 0.00000E+00
 -1      1527 6.13740E+01 2.18750E+00 0.00000E+00
 -1      1528 6.60120E+01 1.09375E+00 0.00000E+00
 -1      1529 6.45120E+01 1.09375E+00 0.00000E+00
 -1      1530 6.43740E+01 2.18750E+00 0.00000E+00
 -1      1531 6.90120E+01 1.09375E+00 0.00000E+00
 -1      1532 6.75120E+01 1.09375E+00 0.00000E+00
 -1      1533 6.73740E+01 2.18750E+00 0.00000E+00
 -1      1534 7.20120E+01 1.09375E+00 0.00000E+00
 -1      1535 7.05120E+01 1.09375E+00 0.00000E+00
 -1      1536 7.03740E+01 2.18750E+00 0.00000E+00
 -1      1537 7.50120E+01 1.09375E+00 0.00000E+00
 -1      1538 7.35120E+01 1.09375E+00 0.00000E+00
 -1      1539 7.33740E+01 2.18750E+00 0.00000E+00
 -1      1540 7.80120E+01 1.09375E+00 0.00000E+00
 -1      1541 7.65120E+01 1.09375E+00 0.00000E+00
 -1      1542 7.63740E+01 2.18750E+00 0.00000E+00
 -1      1543 8.10120E+01 1.09375E+00 0.00000E+00
 -1      1544 7.95120E+01 1.09375E+00 0.00000E+00
 -1      1545 7.93740E+01 2.18750E+00 0.00000E+00
 -1      1546 8.40120E+01 1.09375E+00 0.00000E+00
 -1      1547 8.25120E+01 1.09375E+00 0.00000E+00
 -1      1548 8.23740E+01 2.18750E+00 0.00000E+00
 -1      1549 8.70120E+01 1.09375E+00 0.00000E+00
 -1      1550 8.55120E+01 1.09375E+00 0.00000E+00
 -1      1551 8.53740E+01 2.18750E+00 0.00000E+00
 -1      1552 9.00120E+01 1.09375E+00 0.00000E+00
 -1      1553 8.85120E+01 1.09375E+00 0.00000E+00
 -1      1554 8.83740E+01 2.18750E+00 0.00000E+00
 -1      1555 9.30120E+01 1.09375E+00 0.00000E+00
 -1      1556 9.15120E+01 1.09375E+00 0.00000E+00
 -1      1557 9.13740E+01 2.18750E+00 0.00000E+00
 -1      1558 9.60120E+01 1.09375E+00 0.00000E+00
 -1      1559 9.45120E+01 1.09375E+00 0.00000E+00
 -1      1560 9.43740E+01 2.18750E+00 0.00000E+00
 -1      1561 9.90120E+01 1.09375E+00 0.00000E+00
 -1      1562 9.75120E+01 1.09375E+00 0.00000E+00
 -1      1563 9.73740E+01 2.18750E+00 0.00000E+00
 -1      1564 1.02012E+02 1.09375E+00 0.00000E+00
 -1      1565 1.00512E+02 1.09375E+00 0.00000E+00
 -1      1566 1.00374E+02 2.18750E+00 0.00000E+00
 -1      1567 1.05012E+02 1.09375E+00 0.00000E+00
 -1      1568 1.03512E+02 1.09375E+00 0.00000E+00
 -1      1569 1.03374E+02 2.18750E+00 0.00000E+00
 -1      1570 1.08012E+02 1.09375E+00 0.00000E+00
 -1      1571 1.06512E+02 1.09375E+00 0.00000E+00
 -1      1572 1.06374E+02 2.18750E+00 0.00000E+00
 -1      1573 1.11012E+02 1.09375E+00 0.00000E+00
 -1      1574 1.09512E+02 1.09375E+00 0.00000E+00
 -1      1575 1.09374E+02 2.18750E+00 0.00000E+00
 -1      1576 1.14012E+02 1.09375E+00 0.00000E+00
 -1      1577 1.12512E+02 1.09375E+00 0.00000E+00
 -1      1578 1.12374E+02 2.18750E+00 0.00000E+00
 -1      1579 1.17012E+02 1.09375E+00 0.00000E+00
 -1      1580 1.15512E+02 1.09375E+00 0.00000E+00
 -1      1581 1.15374E+02 2.18750E+00 0.00000E+00
 -1      1582 1.20012E+02 1.09375E+00 0.00000E+00
 -1      1583 1.18512E+02 1.09375E+00 0.00000E+00
 -1      1584 1.18374E+02 2.18750E+00 0.00000E+00
 -1      1585 1.23012E+02 1.09375E+00 0.00000E+00
 -1      1586 1.21512E+02 1.09375E+00 0.00000E+00
 -1      1587 1.21374E+02 2.18750E+00 0.00000E+00
 -1      1588 1.26012E+02 1.09375E+00 0.00000E+00
 -1      1589 1.24512E+02 1.09375E+00 0.00000E+00
 -1      1590 1.24374E+02 2.18750E+00 0.00000E+00
 -1      1591 1.29012E+02 1.09375E+00 0.00000E+00
 -1      1592 1.27512E+02 1.09375E+00 0.00000E+00
 -1      1593 1.27374E+02 2.18750E+00 0.00000E+00
 -1      1594 1.32012E+02 1.09375E+00 0.00000E+00
 -1      1595 1.30512E+02 1.09375E+00 0.00000E+00
 -1      1596 1.30374E+02 2.18750E+00 0.00000E+00
 -1      1597 1.35012E+02 1.09375E+00 0.00000E+00
 -1      1598 1.33512E+02 1.09375E+00 0.00000E+00
 -1      1599 1.33374E+02 2.18750E+00 0.00000E+00
 -1      1600 1.38012E+02 1.09375E+00 0.00000E+00
 -1      1601 1.36512E+02 1.09375E+00 0.00000E+00
 -1      1602 1.36374E+02 2.18750E+00 0.00000E+00
 -1      1603 1.41012E+02 1.09375E+00 0.00000E+00
 -1      1604 1.39512E+02 1.09375E+00 0.00000E+00
 -1      1605 1.39374E+02 2.18750E+00 0.00000E+00
 -1      1606 1.44012E+02 1.09375E+00 0.00000E+00
 -1      1607 1.42512E+02 1.09375E+00 0.00000E+00
 -1      1608 1.42374E+02 2.18750E+00 0.00000E+00
 -1      1609 1.47012E+02 1.09375E+00 0.00000E+00
 -1      1610 1.45512E+02 1.09375E+00 0.00000E+00
 -1      1611 1.45374E+02 2.18750E+00 0.00000E+00
 -1      1612 1.48575E+02 1.47500E+00 0.00000E+00
 -1      1613 1.48701E+02 5.16250E+00 0.00000E+00
 -1      1614 1.48701E+02 3.68750E+00 0.00000E+00
 -1      1615 1.48701E+02 8.11250E+00 0.00000E+00
 -1      1616 1.48701E+02 6.63750E+00 0.00000E+00
 -1      1617 1.47402E+02 5.90000E+00 0.00000E+00
 -1      1618 1.48701E+02 1.10625E+01 0.00000E+00
 -1      1619 1.48701E+02 9.58750E+00 0.00000E+00
 -1      1620 1.47402E+02 8.85000E+00 0.00000E+00
 -1      1621 1.48701E+02 1.40125E+01 0.00000E+00
 -1      1622 1.48701E+02 1.25375E+01 0.00000E+00
 -1      1623 1.47402E+02 1.18000E+01 0.00000E+00
 -1      1624 1.48701E+02 1.69125E+01 0.00000E+00
 -1      1625 1.48701E+02 1.54625E+01 0.00000E+00
 -1      1626 1.47402E+02 1.47250E+01 0.00000E+00
 -1      1627 1.48701E+02 1.98625E+01 0.00000E+00
 -1      1628 1.48701E+02 1.83875E+01 0.00000E+00
 -1      1629 1.47402E+02 1.76500E+01 0.00000E+00
 -1      1630 1.48701E+02 2.28125E+01 0.00000E+00
 -1      1631 1.48701E+02 2.13375E+01 0.00000E+00
 -1      1632 1.47402E+02 2.06000E+01 0.00000E+00
 -1      1633 1.48701E+02 2.57625E+01 0.00000E+00
 -1      1634 1.48701E+02 2.42875E+01 0.00000E+00
 -1      1635 1.47402E+02 2.35500E+01 0.00000E+00
 -1      1636 1.48701E+02 2.87125E+01 0.00000E+00
 -1      1637 1.48701E+02 2.72375E+01 0.00000E+00
 -1      1638 1.47402E+02 2.65000E+01 0.00000E+00
 -1      1639 1.48701E+02 3.16625E+01 0.00000E+00
 -1      1640 1.48701E+02 3.01875E+01 0.00000E+00
 -1      1641 1.47402E+02 2.94500E+01 0.00000E+00
 -1      1642 1.48701E+02 3.45625E+01 0.00000E+00
 -1      1643 1.48701E+02 3.31125E+01 0.00000E+00
 -1      1644 1.47402E+02 3.23750E+01 0.00000E+00
 -1      1645 1.48701E+02 3.75125E+01 0.00000E+00
 -1      1646 1.48701E+02 3.60375E+01 0.00000E+00
 -1      1647 1.47402E+02 3.53000E+01 0.00000E+00
 -1      1648 1.48701E+02 4.04625E+01 0.00000E+00
 -1      1649 1.48701E+02 3.89875E+01 0.00000E+00
 -1      1650 1.47402E+02 3.82500E+01 0.00000E+00
 -1      1651 1.48701E+02 4.34125E+01 0.00000E+00
 -1      1652 1.48701E+02 4.19375E+01 0.00000E+00
 -1      1653 1.47402E+02 4.12000E+01 0.00000E+00
 -1      1654 1.48788E+02 4.60315E+01 0.00000E+00
 -1      1655 1.48788E+02 4.45565E+01 0.00000E+00
 -1      1656 1.47489E+02 4.38190E+01 0.00000E+00
 -1      1657 1.47663E+02 4.61070E+01 0.00000E+00
 -1      1658 1.24575E+02 3.09905E+01 0.00000E+00
 -1      1659 1.24662E+02 3.17653E+01 0.00000E+00
 -1      1660 1.24163E+02 2.93574E+01 0.00000E+00
 -1      1661 1.24413E+02 3.00798E+01 0.00000E+00
 -1      1662 1.23310E+02 2.79349E+01 0.00000E+00
 -1      1663 1.23703E+02 2.85760E+01 0.00000E+00
 -1      1664 1.22252E+02 2.67489E+01 0.00000E+00
 -1      1665 1.22751E+02 2.72729E+01 0.00000E+00
 -1      1666 1.21021E+02 2.57465E+01 0.00000E+00
 -1      1667 1.21627E+02 2.61625E+01 0.00000E+00
 -1      1668 1.19547E+02 2.50881E+01 0.00000E+00
 -1      1669 1.20236E+02 2.53708E+01 0.00000E+00
 -1      1670 1.17945E+02 2.45454E+01 0.00000E+00
 -1      1671 1.18718E+02 2.46785E+01 0.00000E+00
 -1      1672 1.16275E+02 2.46487E+01 0.00000E+00
 -1      1673 1.17022E+02 2.46123E+01 0.00000E+00
 -1      1674 1.14704E+02 2.50161E+01 0.00000E+00
 -1      1675 1.15419E+02 2.48245E+01 0.00000E+00
 -1      1676 1.13089E+02 2.55632E+01 0.00000E+00
 -1      1677 1.13793E+02 2.51955E+01 0.00000E+00
 -1      1678 1.11847E+02 2.66357E+01 0.00000E+00
 -1      1679 1.12401E+02 2.61697E+01 0.00000E+00
 -1      1680 1.10857E+02 2.78176E+01 0.00000E+00
 -1      1681 1.11292E+02 2.72655E+01 0.00000E+00
 -1      1682 1.10049E+02 2.91526E+01 0.00000E+00
 -1      1683 1.10374E+02 2.85037E+01 0.00000E+00
 -1      1684 1.09609E+02 3.06437E+01 0.00000E+00
 -1      1685 1.09790E+02 2.99560E+01 0.00000E+00
 -1      1686 1.09362E+02 3.22590E+01 0.00000E+00
 -1      1687 1.09398E+02 3.14931E+01 0.00000E+00
 -1      1688 1.09613E+02 3.38326E+01 0.00000E+00
 -1      1689 1.09495E+02 3.31268E+01 0.00000E+00
 -1      1690 1.09952E+02 3.53947E+01 0.00000E+00
 -1      1691 1.09684E+02 3.47101E+01 0.00000E+00
 -1      1692 1.10867E+02 3.66570E+01 0.00000E+00
 -1      1693 1.10488E+02 3.60762E+01 0.00000E+00
 -1      1694 1.11866E+02 3.78960E+01 0.00000E+00
 -1      1695 1.11339E+02 3.73676E+01 0.00000E+00
 -1      1696 1.13172E+02 3.87589E+01 0.00000E+00
 -1      1697 1.12582E+02 3.83732E+01 0.00000E+00
 -1      1698 1.14554E+02 3.93963E+01 0.00000E+00
 -1      1699 1.13901E+02 3.91373E+01 0.00000E+00
 -1      1700 1.16002E+02 3.97415E+01 0.00000E+00
 -1      1701 1.15331E+02 3.96197E+01 0.00000E+00
 -1      1702 1.17511E+02 3.97925E+01 0.00000E+00
 -1      1703 1.16808E+02 3.98055E+01 0.00000E+00
 -1      1704 1.19104E+02 3.95993E+01 0.00000E+00
 -1      1705 1.18372E+02 3.97679E+01 0.00000E+00
 -1      1706 1.20580E+02 3.89650E+01 0.00000E+00
 -1      1707 1.19920E+02 3.92746E+01 0.00000E+00
 -1      1708 1.21968E+02 3.81303E+01 0.00000E+00
 -1      1709 1.21375E+02 3.85809E+01 0.00000E+00
 -1      1710 1.23035E+02 3.69031E+01 0.00000E+00
 -1      1711 1.22555E+02 3.74637E+01 0.00000E+00
 -1      1712 1.23825E+02 3.55639E+01 0.00000E+00
 -1      1713 1.23485E+02 3.61831E+01 0.00000E+00
 -1      1714 1.24350E+02 3.41583E+01 0.00000E+00
 -1      1715 1.24145E+02 3.48149E+01 0.00000E+00
 -1      1716 1.24586E+02 3.26463E+01 0.00000E+00
 -1      1717 1.24513E+02 3.33561E+01 0.00000E+00
 -1      1718 1.23500E+02 2.72549E+01 0.00000E+00
 -1      1719 1.25228E+02 3.21820E+01 0.00000E+00
 -1      1720 1.48437E+02 2.56875E+00 0.00000E+00
 -1      1721 1.47138E+02 3.30625E+00 0.00000E+00
 -1      1722 1.25142E+02 3.03903E+01 0.00000E+00
 -1      1723 1.24520E+02 2.86982E+01 0.00000E+00
 -1      1724 1.22315E+02 2.60065E+01 0.00000E+00
 -1      1725 1.20906E+02 2.50443E+01 0.00000E+00
 -1      1726 1.19292E+02 2.42590E+01 0.00000E+00
 -1      1727 1.17540E+02 2.39163E+01 0.00000E+00
 -1      1728 1.15761E+02 2.41590E+01 0.00000E+00
 -1      1729 1.13994E+02 2.45142E+01 0.00000E+00
 -1      1730 1.12395E+02 2.53000E+01 0.00000E+00
 -1      1731 1.11153E+02 2.65363E+01 0.00000E+00
 -1      1732 1.10115E+02 2.78523E+01 0.00000E+00
 -1      1733 1.09373E+02 2.93419E+01 0.00000E+00
 -1      1734 1.08902E+02 3.09947E+01 0.00000E+00
 -1      1735 1.08823E+02 3.27120E+01 0.00000E+00
 -1      1736 1.09027E+02 3.44573E+01 0.00000E+00
 -1      1737 1.09634E+02 3.60163E+01 0.00000E+00
 -1      1738 1.10642E+02 3.74085E+01 0.00000E+00
 -1      1739 1.11830E+02 3.85963E+01 0.00000E+00
 -1      1740 1.13275E+02 3.94519E+01 0.00000E+00
 -1      1741 1.14781E+02 4.00537E+01 0.00000E+00
 -1      1742 1.16364E+02 4.03411E+01 0.00000E+00
 -1      1743 1.18032E+02 4.03805E+01 0.00000E+00
 -1      1744 1.19709E+02 4.00313E+01 0.00000E+00
 -1      1745 1.21320E+02 3.93225E+01 0.00000E+00
 -1      1746 1.22700E+02 3.82719E+01 0.00000E+00
 -1      1747 1.23737E+02 3.68853E+01 0.00000E+00
 -1      1748 1.24506E+02 3.54163E+01 0.00000E+00
 -1      1749 1.24990E+02 3.38651E+01 0.00000E+00
 -1      1750 2.87400E+00 4.77875E+01 0.00000E+00
 -1      1751 3.89700E+00 4.04125E+01 0.00000E+00
 -1      1752 3.89700E+00 4.18875E+01 0.00000E+00
 -1      1753 3.89700E+00 4.33625E+01 0.00000E+00
 -1      1754 3.89700E+00 4.48375E+01 0.00000E+00
 -1      1755 5.19600E+00 4.26250E+01 0.00000E+00
 -1      1756 3.89700E+00 3.45500E+01 0.00000E+00
 -1      1757 3.89700E+00 3.60000E+01 0.00000E+00
 -1      1758 3.89700E+00 3.16000E+01 0.00000E+00
 -1      1759 3.89700E+00 3.30750E+01 0.00000E+00
 -1      1760 5.19600E+00 3.38000E+01 0.00000E+00
 -1      1761 3.89700E+00 2.86500E+01 0.00000E+00
 -1      1762 3.89700E+00 3.01250E+01 0.00000E+00
 -1      1763 5.19600E+00 3.08500E+01 0.00000E+00
 -1      1764 3.89700E+00 2.57000E+01 0.00000E+00
 -1      1765 3.89700E+00 2.71750E+01 0.00000E+00
 -1      1766 5.19600E+00 2.79000E+01 0.00000E+00
 -1      1767 3.89700E+00 2.27500E+01 0.00000E+00
 -1      1768 3.89700E+00 2.42250E+01 0.00000E+00
 -1      1769 5.19600E+00 2.49500E+01 0.00000E+00
 -1      1770 3.89700E+00 1.98000E+01 0.00000E+00
 -1      1771 3.89700E+00 2.12750E+01 0.00000E+00
 -1      1772 5.19600E+00 2.20000E+01 0.00000E+00
 -1      1773 3.89700E+00 1.69000E+01 0.00000E+00
 -1      1774 3.89700E+00 1.83500E+01 0.00000E+00
 -1      1775 5.19600E+00 1.90750E+01 0.00000E+00
 -1      1776 3.89700E+00 1.39500E+01 0.00000E+00
 -1      1777 3.89700E+00 1.54250E+01 0.00000E+00
 -1      1778 5.19600E+00 1.61500E+01 0.00000E+00
 -1      1779 3.89700E+00 1.10000E+01 0.00000E+00
 -1      1780 3.89700E+00 1.24750E+01 0.00000E+00
 -1      1781 5.19600E+00 1.32000E+01 0.00000E+00
 -1      1782 3.89700E+00 8.05000E+00 0.00000E+00
 -1      1783 3.89700E+00 9.52500E+00 0.00000E+00
 -1      1784 5.19600E+00 1.02500E+01 0.00000E+00
 -1      1785 3.89700E+00 5.10000E+00 0.00000E+00
 -1      1786 3.89700E+00 6.57500E+00 0.00000E+00
 -1      1787 5.19600E+00 7.30000E+00 0.00000E+00
 -1      1788 4.20450E+00 3.09687E+00 0.00000E+00
 -1      1789 4.06650E+00 4.19063E+00 0.00000E+00
 -1      1790 5.36550E+00 4.91563E+00 0.00000E+00
 -1      1791 5.70450E+00 3.09687E+00 0.00000E+00
 -1      1792 3.62400E+00 4.64885E+01 0.00000E+00
 -1      1793 8.70450E+00 3.09687E+00 0.00000E+00
 -1      1794 7.20450E+00 3.09687E+00 0.00000E+00
 -1      1795 7.03500E+00 4.00625E+00 0.00000E+00
 -1      1796 4.92300E+00 4.57510E+01 0.00000E+00
 -1      1797 8.40000E+00 4.61030E+01 0.00000E+00
 -1      1798 9.90000E+00 4.61030E+01 0.00000E+00
 -1      1799 1.14000E+01 4.61030E+01 0.00000E+00
 -1      1800 1.29000E+01 4.61030E+01 0.00000E+00
 -1      1801 1.06500E+01 4.48040E+01 0.00000E+00
 -1      1802 1.44000E+01 4.61030E+01 0.00000E+00
 -1      1803 1.59000E+01 4.61030E+01 0.00000E+00
 -1      1804 1.36500E+01 4.48040E+01 0.00000E+00
 -1      1805 1.74000E+01 4.61030E+01 0.00000E+00
 -1      1806 1.89000E+01 4.61030E+01 0.00000E+00
 -1      1807 1.66500E+01 4.48040E+01 0.00000E+00
 -1      1808 2.04000E+01 4.61030E+01 0.00000E+00
 -1      1809 2.19000E+01 4.61030E+01 0.00000E+00
 -1      1810 1.96500E+01 4.48040E+01 0.00000E+00
 -1      1811 2.34000E+01 4.61030E+01 0.00000E+00
 -1      1812 2.49000E+01 4.61030E+01 0.00000E+00
 -1      1813 2.26500E+01 4.48040E+01 0.00000E+00
 -1      1814 2.64000E+01 4.61030E+01 0.00000E+00
 -1      1815 2.79000E+01 4.61030E+01 0.00000E+00
 -1      1816 2.56500E+01 4.48040E+01 0.00000E+00
 -1      1817 2.94000E+01 4.61030E+01 0.00000E+00
 -1      1818 3.09000E+01 4.61030E+01 0.00000E+00
 -1      1819 2.86500E+01 4.48040E+01 0.00000E+00
 -1      1820 3.24000E+01 4.61030E+01 0.00000E+00
 -1      1821 3.39000E+01 4.61030E+01 0.00000E+00
 -1      1822 3.16500E+01 4.48040E+01 0.00000E+00
 -1      1823 3.54000E+01 4.61030E+01 0.00000E+00
 -1      1824 3.69000E+01 4.61030E+01 0.00000E+00
 -1      1825 3.46500E+01 4.48040E+01 0.00000E+00
 -1      1826 3.84750E+01 4.61030E+01 0.00000E+00
 -1      1827 4.00500E+01 4.61030E+01 0.00000E+00
 -1      1828 3.77250E+01 4.48040E+01 0.00000E+00
 -1      1829 4.15500E+01 4.61030E+01 0.00000E+00
 -1      1830 4.30500E+01 4.61030E+01 0.00000E+00
 -1      1831 4.08000E+01 4.48040E+01 0.00000E+00
 -1      1832 4.45500E+01 4.61030E+01 0.00000E+00
 -1      1833 4.60500E+01 4.61030E+01 0.00000E+00
 -1      1834 4.38000E+01 4.48040E+01 0.00000E+00
 -1      1835 4.75500E+01 4.61030E+01 0.00000E+00
 -1      1836 4.90500E+01 4.61030E+01 0.00000E+00
 -1      1837 4.68000E+01 4.48040E+01 0.00000E+00
 -1      1838 5.05500E+01 4.61030E+01 0.00000E+00
 -1      1839 5.20500E+01 4.61030E+01 0.00000E+00
 -1      1840 4.98000E+01 4.48040E+01 0.00000E+00
 -1      1841 5.35500E+01 4.61030E+01 0.00000E+00
 -1      1842 5.50500E+01 4.61030E+01 0.00000E+00
 -1      1843 5.28000E+01 4.48040E+01 0.00000E+00
 -1      1844 5.65500E+01 4.61030E+01 0.00000E+00
 -1      1845 5.80500E+01 4.61030E+01 0.00000E+00
 -1      1846 5.58000E+01 4.48040E+01 0.00000E+00
 -1      1847 5.95500E+01 4.61030E+01 0.00000E+00
 -1      1848 6.10500E+01 4.61030E+01 0.00000E+00
 -1      1849 5.88000E+01 4.48040E+01 0.00000E+00
 -1      1850 6.25500E+01 4.61030E+01 0.00000E+00
 -1      1851 6.40500E+01 4.61030E+01 0.00000E+00
 -1      1852 6.18000E+01 4.48040E+01 0.00000E+00
 -1      1853 6.55500E+01 4.61030E+01 0.00000E+00
 -1      1854 6.70500E+01 4.61030E+01 0.00000E+00
 -1      1855 6.48000E+01 4.48040E+01 0.00000E+00
 -1      1856 6.85500E+01 4.61030E+01 0.00000E+00
 -1      1857 7.00500E+01 4.61030E+01 0.00000E+00
 -1      1858 6.78000E+01 4.48040E+01 0.00000E+00
 -1      1859 7.15500E+01 4.61030E+01 0.00000E+00
 -1      1860 7.30500E+01 4.61030E+01 0.00000E+00
 -1      1861 7.08000E+01 4.48040E+01 0.00000E+00
 -1      1862 7.45500E+01 4.61030E+01 0.00000E+00
 -1      1863 7.60500E+01 4.61030E+01 0.00000E+00
 -1      1864 7.38000E+01 4.48040E+01 0.00000E+00
 -1      1865 7.76250E+01 4.61030E+01 0.00000E+00
 -1      1866 7.92000E+01 4.61030E+01 0.00000E+00
 -1      1867 7.68750E+01 4.48040E+01 0.00000E+00
 -1      1868 8.07000E+01 4.61030E+01 0.00000E+00
 -1      1869 8.22000E+01 4.61030E+01 0.00000E+00
 -1      1870 7.99500E+01 4.48040E+01 0.00000E+00
 -1      1871 8.37000E+01 4.61030E+01 0.00000E+00
 -1      1872 8.52000E+01 4.61030E+01 0.00000E+00
 -1      1873 8.29500E+01 4.48040E+01 0.00000E+00
 -1      1874 8.67000E+01 4.61030E+01 0.00000E+00
 -1      1875 8.82000E+01 4.61030E+01 0.00000E+00
 -1      1876 8.59500E+01 4.48040E+01 0.00000E+00
 -1      1877 8.97000E+01 4.61030E+01 0.00000E+00
 -1      1878 9.12000E+01 4.61030E+01 0.00000E+00
 -1      1879 8.89500E+01 4.48040E+01 0.00000E+00
 -1      1880 9.27000E+01 4.61030E+01 0.00000E+00
 -1      1881 9.42000E+01 4.61030E+01 0.00000E+00
 -1      1882 9.19500E+01 4.48040E+01 0.00000E+00
 -1      1883 9.57000E+01 4.61030E+01 0.00000E+00
 -1      1884 9.72000E+01 4.61030E+01 0.00000E+00
 -1      1885 9.49500E+01 4.48040E+01 0.00000E+00
 -1      1886 9.87000E+01 4.61030E+01 0.00000E+00
 -1      1887 1.00200E+02 4.61030E+01 0.00000E+00
 -1      1888 9.79500E+01 4.48040E+01 0.00000E+00
 -1      1889 1.01700E+02 4.61030E+01 0.00000E+00
 -1      1890 1.03200E+02 4.61030E+01 0.00000E+00
 -1      1891 1.00950E+02 4.48040E+01 0.00000E+00
 -1      1892 1.04700E+02 4.61030E+01 0.00000E+00
 -1      1893 1.06200E+02 4.61030E+01 0.00000E+00
 -1      1894 1.03950E+02 4.48040E+01 0.00000E+00
 -1      1895 1.07700E+02 4.61030E+01 0.00000E+00
 -1      1896 1.09200E+02 4.61030E+01 0.00000E+00
 -1      1897 1.06950E+02 4.48040E+01 0.00000E+00
 -1      1898 1.10700E+02 4.61030E+01 0.00000E+00
 -1      1899 1.12200E+02 4.61030E+01 0.00000E+00
 -1      1900 1.09950E+02 4.48040E+01 0.00000E+00
 -1      1901 1.13550E+02 4.61030E+01 0.00000E+00
 -1      1902 1.14900E+02 4.61030E+01 0.00000E+00
 -1      1903 1.12800E+02 4.48040E+01 0.00000E+00
 -1      1904 1.16325E+02 4.61030E+01 0.00000E+00
 -1      1905 1.17750E+02 4.61030E+01 0.00000E+00
 -1      1906 1.15575E+02 4.48040E+01 0.00000E+00
 -1      1907 1.19250E+02 4.61030E+01 0.00000E+00
 -1      1908 1.20750E+02 4.61030E+01 0.00000E+00
 -1      1909 1.18500E+02 4.48040E+01 0.00000E+00
 -1      1910 1.22250E+02 4.61030E+01 0.00000E+00
 -1      1911 1.23750E+02 4.61030E+01 0.00000E+00
 -1      1912 1.21500E+02 4.48040E+01 0.00000E+00
 -1      1913 1.25250E+02 4.61030E+01 0.00000E+00
 -1      1914 1.26750E+02 4.61030E+01 0.00000E+00
 -1      1915 1.24500E+02 4.48040E+01 0.00000E+00
 -1      1916 1.28250E+02 4.61030E+01 0.00000E+00
 -1      1917 1.29750E+02 4.61030E+01 0.00000E+00
 -1      1918 1.27500E+02 4.48040E+01 0.00000E+00
 -1      1919 1.31250E+02 4.61030E+01 0.00000E+00
 -1      1920 1.32750E+02 4.61030E+01 0.00000E+00
 -1      1921 1.30500E+02 4.48040E+01 0.00000E+00
 -1      1922 1.34250E+02 4.61030E+01 0.00000E+00
 -1      1923 1.35750E+02 4.61030E+01 0.00000E+00
 -1      1924 1.33500E+02 4.48040E+01 0.00000E+00
 -1      1925 1.37250E+02 4.61030E+01 0.00000E+00
 -1      1926 1.38750E+02 4.61030E+01 0.00000E+00
 -1      1927 1.36500E+02 4.48040E+01 0.00000E+00
 -1      1928 1.40250E+02 4.61030E+01 0.00000E+00
 -1      1929 1.41750E+02 4.61030E+01 0.00000E+00
 -1      1930 1.39500E+02 4.48040E+01 0.00000E+00
 -1      1931 1.43250E+02 4.61030E+01 0.00000E+00
 -1      1932 1.44750E+02 4.61030E+01 0.00000E+00
 -1      1933 1.42500E+02 4.48040E+01 0.00000E+00
 -1      1934 1.46538E+02 4.61825E+01 0.00000E+00
 -1      1935 1.41240E+01 3.48650E+00 0.00000E+00
 -1      1936 1.26240E+01 3.48650E+00 0.00000E+00
 -1      1937 1.71240E+01 3.48650E+00 0.00000E+00
 -1      1938 1.56240E+01 3.48650E+00 0.00000E+00
 -1      1939 1.48740E+01 4.78550E+00 0.00000E+00
 -1      1940 2.01240E+01 3.48650E+00 0.00000E+00
 -1      1941 1.86240E+01 3.48650E+00 0.00000E+00
 -1      1942 1.78740E+01 4.78550E+00 0.00000E+00
 -1      1943 2.31240E+01 3.48650E+00 0.00000E+00
 -1      1944 2.16240E+01 3.48650E+00 0.00000E+00
 -1      1945 2.08740E+01 4.78550E+00 0.00000E+00
 -1      1946 2.61240E+01 3.48650E+00 0.00000E+00
 -1      1947 2.46240E+01 3.48650E+00 0.00000E+00
 -1      1948 2.38740E+01 4.78550E+00 0.00000E+00
 -1      1949 2.91240E+01 3.48650E+00 0.00000E+00
 -1      1950 2.76240E+01 3.48650E+00 0.00000E+00
 -1      1951 2.68740E+01 4.78550E+00 0.00000E+00
 -1      1952 3.21240E+01 3.48650E+00 0.00000E+00
 -1      1953 3.06240E+01 3.48650E+00 0.00000E+00
 -1      1954 2.98740E+01 4.78550E+00 0.00000E+00
 -1      1955 3.51240E+01 3.48650E+00 0.00000E+00
 -1      1956 3.36240E+01 3.48650E+00 0.00000E+00
 -1      1957 3.28740E+01 4.78550E+00 0.00000E+00
 -1      1958 3.81240E+01 3.48650E+00 0.00000E+00
 -1      1959 3.66240E+01 3.48650E+00 0.00000E+00
 -1      1960 3.58740E+01 4.78550E+00 0.00000E+00
 -1      1961 4.11240E+01 3.48650E+00 0.00000E+00
 -1      1962 3.96240E+01 3.48650E+00 0.00000E+00
 -1      1963 3.88740E+01 4.78550E+00 0.00000E+00
 -1      1964 4.41240E+01 3.48650E+00 0.00000E+00
 -1      1965 4.26240E+01 3.48650E+00 0.00000E+00
 -1      1966 4.18740E+01 4.78550E+00 0.00000E+00
 -1      1967 4.71240E+01 3.48650E+00 0.00000E+00
 -1      1968 4.56240E+01 3.48650E+00 0.00000E+00
 -1      1969 4.48740E+01 4.78550E+00 0.00000E+00
 -1      1970 5.01240E+01 3.48650E+00 0.00000E+00
 -1      1971 4.86240E+01 3.48650E+00 0.00000E+00
 -1      1972 4.78740E+01 4.78550E+00 0.00000E+00
 -1      1973 5.31240E+01 3.48650E+00 0.00000E+00
 -1      1974 5.16240E+01 3.48650E+00 0.00000E+00
 -1      1975 5.08740E+01 4.78550E+00 0.00000E+00
 -1      1976 5.61240E+01 3.48650E+00 0.00000E+00
 -1      1977 5.46240E+01 3.48650E+00 0.00000E+00
 -1      1978 5.38740E+01 4.78550E+00 0.00000E+00
 -1      1979 5.91240E+01 3.48650E+00 0.00000E+00
 -1      1980 5.76240E+01 3.48650E+00 0.00000E+00
 -1      1981 5.68740E+01 4.78550E+00 0.00000E+00
 -1      1982 6.21240E+01 3.48650E+00 0.00000E+00
 -1      1983 6.06240E+01 3.48650E+00 0.00000E+00
 -1      1984 5.98740E+01 4.78550E+00 0.00000E+00
 -1      1985 6.51240E+01 3.48650E+00 0.00000E+00
 -1      1986 6.36240E+01 3.48650E+00 0.00000E+00
 -1      1987 6.28740E+01 4.78550E+00 0.00000E+00
 -1      1988 6.81240E+01 3.48650E+00 0.00000E+00
 -1      1989 6.66240E+01 3.48650E+00 0.00000E+00
 -1      1990 6.58740E+01 4.78550E+00 0.00000E+00
 -1      1991 7.11240E+01 3.48650E+00 0.00000E+00
 -1      1992 6.96240E+01 3.48650E+00 0.00000E+00
 -1      1993 6.88740E+01 4.78550E+00 0.00000E+00
 -1      1994 7.41240E+01 3.48650E+00 0.00000E+00
 -1      1995 7.26240E+01 3.48650E+00 0.00000E+00
 -1      1996 7.18740E+01 4.78550E+00 0.00000E+00
 -1      1997 7.71240E+01 3.48650E+00 0.00000E+00
 -1      1998 7.56240E+01 3.48650E+00 0.00000E+00
 -1      1999 7.48740E+01 4.78550E+00 0.00000E+00
 -1      2000 8.01240E+01 3.48650E+00 0.00000E+00
 -1      2001 7.86240E+01 3.48650E+00 0.00000E+00
 -1      2002 7.78740E+01 4.78550E+00 0.00000E+00
 -1      2003 8.31240E+01 3.48650E+00 0.00000E+00
 -1      2004 8.16240E+01 3.48650E+00 0.00000E+00
 -1      2005 8.08740E+01 4.78550E+00 0.00000E+00
 -1      2006 8.61240E+01 3.48650E+00 0.00000E+00
 -1      2007 8.46240E+01 3.48650E+00 0.00000E+00
 -1      2008 8.38740E+01 4.78550E+00 0.00000E+00
 -1      2009 8.91240E+01 3.48650E+00 0.00000E+00
 -1      2010 8.76240E+01 3.48650E+00 0.00000E+00
 -1      2011 8.68740E+01 4.78550E+00 0.00000E+00
 -1      2012 9.21240E+01 3.48650E+00 0.00000E+00
 -1      2013 9.06240E+01 3.48650E+00 0.00000E+00
 -1      2014 8.98740E+01 4.78550E+00 0.00000E+00
 -1      2015 9.51240E+01 3.48650E+00 0.00000E+00
 -1      2016 9.36240E+01 3.48650E+00 0.00000E+00
 -1      2017 9.28740E+01 4.78550E+00 0.00000E+00
 -1      2018 9.81240E+01 3.48650E+00 0.00000E+00
 -1      2019 9.66240E+01 3.48650E+00 0.00000E+00
 -1      2020 9.58740E+01 4.78550E+00 0.00000E+00
 -1      2021 1.01124E+02 3.48650E+00 0.00000E+00
 -1      2022 9.96240E+01 3.48650E+00 0.00000E+00
 -1      2023 9.88740E+01 4.78550E+00 0.00000E+00
 -1      2024 1.04124E+02 3.48650E+00 0.00000E+00
 -1      2025 1.02624E+02 3.48650E+00 0.00000E+00
 -1      2026 1.01874E+02 4.78550E+00 0.00000E+00
 -1      2027 1.07124E+02 3.48650E+00 0.00000E+00
 -1      2028 1.05624E+02 3.48650E+00 0.00000E+00
 -1      2029 1.04874E+02 4.78550E+00 0.00000E+00
 -1      2030 1.10124E+02 3.48650E+00 0.00000E+00
 -1      2031 1.08624E+02 3.48650E+00 0.00000E+00
 -1      2032 1.07874E+02 4.78550E+00 0.00000E+00
 -1      2033 1.13124E+02 3.48650E+00 0.00000E+00
 -1      2034 1.11624E+02 3.48650E+00 0.00000E+00
 -1      2035 1.10874E+02 4.78550E+00 0.00000E+00
 -1      2036 1.16124E+02 3.48650E+00 0.00000E+00
 -1      2037 1.14624E+02 3.48650E+00 0.00000E+00
 -1      2038 1.13874E+02 4.78550E+00 0.00000E+00
 -1      2039 1.19124E+02 3.48650E+00 0.00000E+00
 -1      2040 1.17624E+02 3.48650E+00 0.00000E+00
 -1      2041 1.16874E+02 4.78550E+00 0.00000E+00
 -1      2042 1.22124E+02 3.48650E+00 0.00000E+00
 -1      2043 1.20624E+02 3.48650E+00 0.00000E+00
 -1      2044 1.19874E+02 4.78550E+00 0.00000E+00
 -1      2045 1.25124E+02 3.48650E+00 0.00000E+00
 -1      2046 1.23624E+02 3.48650E+00 0.00000E+00
 -1      2047 1.22874E+02 4.78550E+00 0.00000E+00
 -1      2048 1.28124E+02 3.48650E+00 0.00000E+00
 -1      2049 1.26624E+02 3.48650E+00 0.00000E+00
 -1      2050 1.25874E+02 4.78550E+00 0.00000E+00
 -1      2051 1.31124E+02 3.48650E+00 0.00000E+00
 -1      2052 1.29624E+02 3.48650E+00 0.00000E+00
 -1      2053 1.28874E+02 4.78550E+00 0.00000E+00
 -1      2054 1.34124E+02 3.48650E+00 0.00000E+00
 -1      2055 1.32624E+02 3.48650E+00 0.00000E+00
 -1      2056 1.31874E+02 4.78550E+00 0.00000E+00
 -1      2057 1.37124E+02 3.48650E+00 0.00000E+00
 -1      2058 1.35624E+02 3.48650E+00 0.00000E+00
 -1      2059 1.34874E+02 4.78550E+00 0.00000E+00
 -1      2060 1.40124E+02 3.48650E+00 0.00000E+00
 -1      2061 1.38624E+02 3.48650E+00 0.00000E+00
 -1      2062 1.37874E+02 4.78550E+00 0.00000E+00
 -1      2063 1.43124E+02 3.48650E+00 0.00000E+00
 -1      2064 1.41624E+02 3.48650E+00 0.00000E+00
 -1      2065 1.40874E+02 4.78550E+00 0.00000E+00
 -1      2066 1.45881E+02 3.39637E+00 0.00000E+00
 -1      2067 1.44381E+02 3.39637E+00 0.00000E+00
 -1      2068 1.43631E+02 4.69537E+00 0.00000E+00
 -1      2069 1.46145E+02 4.51512E+00 0.00000E+00
 -1      2070 1.46103E+02 1.25375E+01 0.00000E+00
 -1      2071 1.46103E+02 1.10625E+01 0.00000E+00
 -1      2072 1.46103E+02 9.58750E+00 0.00000E+00
 -1      2073 1.46103E+02 8.11250E+00 0.00000E+00
 -1      2074 1.44804E+02 1.03250E+01 0.00000E+00
 -1      2075 1.46145E+02 5.99013E+00 0.00000E+00
 -1      2076 1.46103E+02 1.54375E+01 0.00000E+00
 -1      2077 1.46103E+02 1.39875E+01 0.00000E+00
 -1      2078 1.44804E+02 1.32500E+01 0.00000E+00
 -1      2079 1.46103E+02 1.83875E+01 0.00000E+00
 -1      2080 1.46103E+02 1.69125E+01 0.00000E+00
 -1      2081 1.44804E+02 1.61750E+01 0.00000E+00
 -1      2082 1.46103E+02 2.13375E+01 0.00000E+00
 -1      2083 1.46103E+02 1.98625E+01 0.00000E+00
 -1      2084 1.44804E+02 1.91250E+01 0.00000E+00
 -1      2085 1.46103E+02 2.42875E+01 0.00000E+00
 -1      2086 1.46103E+02 2.28125E+01 0.00000E+00
 -1      2087 1.44804E+02 2.20750E+01 0.00000E+00
 -1      2088 1.46103E+02 2.72375E+01 0.00000E+00
 -1      2089 1.46103E+02 2.57625E+01 0.00000E+00
 -1      2090 1.44804E+02 2.50250E+01 0.00000E+00
 -1      2091 1.46103E+02 3.01875E+01 0.00000E+00
 -1      2092 1.46103E+02 2.87125E+01 0.00000E+00
 -1      2093 1.44804E+02 2.79750E+01 0.00000E+00
 -1      2094 1.46103E+02 3.30875E+01 0.00000E+00
 -1      2095 1.46103E+02 3.16375E+01 0.00000E+00
 -1      2096 1.44804E+02 3.09000E+01 0.00000E+00
 -1      2097 1.46103E+02 3.60375E+01 0.00000E+00
 -1      2098 1.46103E+02 3.45625E+01 0.00000E+00
 -1      2099 1.44804E+02 3.38250E+01 0.00000E+00
 -1      2100 1.46103E+02 3.89875E+01 0.00000E+00
 -1      2101 1.46103E+02 3.75125E+01 0.00000E+00
 -1      2102 1.44804E+02 3.67750E+01 0.00000E+00
 -1      2103 1.46103E+02 4.19375E+01 0.00000E+00
 -1      2104 1.46103E+02 4.04625E+01 0.00000E+00
 -1      2105 1.44804E+02 3.97250E+01 0.00000E+00
 -1      2106 1.14143E+01 3.29169E+00 0.00000E+00
 -1      2107 9.91425E+00 3.29169E+00 0.00000E+00
 -1      2108 9.74475E+00 4.20106E+00 0.00000E+00
 -1      2109 1.21643E+01 4.59069E+00 0.00000E+00
 -1      2110 1.24848E+02 2.79786E+01 0.00000E+00
 -1      2111 1.25308E+02 2.87600E+01 0.00000E+00
 -1      2112 1.22532E+02 2.51490E+01 0.00000E+00
 -1      2113 1.23157E+02 2.57354E+01 0.00000E+00
 -1      2114 1.25995E+02 3.18041E+01 0.00000E+00
 -1      2115 1.25920E+02 3.26851E+01 0.00000E+00
 -1      2116 1.23715E+02 2.65056E+01 0.00000E+00
 -1      2117 1.24275E+02 2.71676E+01 0.00000E+00
 -1      2118 3.89700E+00 3.74688E+01 0.00000E+00
 -1      2119 3.89700E+00 3.89437E+01 0.00000E+00
 -1      2120 5.19600E+00 3.96813E+01 0.00000E+00
 -1      2121 5.19600E+00 3.67438E+01 0.00000E+00
 -1      2122 1.20866E+02 2.41209E+01 0.00000E+00
 -1      2123 1.21651E+02 2.44966E+01 0.00000E+00
 -1      2124 1.19207E+02 2.33017E+01 0.00000E+00
 -1      2125 1.20037E+02 2.37113E+01 0.00000E+00
 -1      2126 1.20781E+02 2.31635E+01 0.00000E+00
 -1      2127 1.17023E+02 2.31780E+01 0.00000E+00
 -1      2128 1.17945E+02 2.31111E+01 0.00000E+00
 -1      2129 1.15310E+02 2.35296E+01 0.00000E+00
 -1      2130 1.16166E+02 2.33538E+01 0.00000E+00
 -1      2131 1.16572E+02 2.25486E+01 0.00000E+00
 -1      2132 1.13381E+02 2.38035E+01 0.00000E+00
 -1      2133 1.14291E+02 2.36242E+01 0.00000E+00
 -1      2134 1.11511E+02 2.49914E+01 0.00000E+00
 -1      2135 1.12199E+02 2.43849E+01 0.00000E+00
 -1      2136 1.10326E+02 2.63678E+01 0.00000E+00
 -1      2137 1.10880E+02 2.57380E+01 0.00000E+00
 -1      2138 1.09359E+02 2.77402E+01 0.00000E+00
 -1      2139 1.09843E+02 2.70540E+01 0.00000E+00
 -1      2140 1.09570E+02 2.62557E+01 0.00000E+00
 -1      2141 1.08586E+02 2.95318E+01 0.00000E+00
 -1      2142 1.08845E+02 2.87284E+01 0.00000E+00
 -1      2143 1.08163E+02 3.12307E+01 0.00000E+00
 -1      2144 1.08375E+02 3.03812E+01 0.00000E+00
 -1      2145 1.07848E+02 2.97677E+01 0.00000E+00
 -1      2146 1.08166E+02 3.32566E+01 0.00000E+00
 -1      2147 1.08033E+02 3.23887E+01 0.00000E+00
 -1      2148 1.08308E+02 3.50115E+01 0.00000E+00
 -1      2149 1.08237E+02 3.41340E+01 0.00000E+00
 -1      2150 1.07447E+02 3.38108E+01 0.00000E+00
 -1      2151 1.09393E+02 3.67578E+01 0.00000E+00
 -1      2152 1.08856E+02 3.60763E+01 0.00000E+00
 -1      2153 1.10337E+02 3.81791E+01 0.00000E+00
 -1      2154 1.09865E+02 3.74685E+01 0.00000E+00
 -1      2155 1.09087E+02 3.75285E+01 0.00000E+00
 -1      2156 1.11781E+02 3.94437E+01 0.00000E+00
 -1      2157 1.11066E+02 3.89665E+01 0.00000E+00
 -1      2158 1.13240E+02 4.02006E+01 0.00000E+00
 -1      2159 1.12511E+02 3.98221E+01 0.00000E+00
 -1      2160 1.11747E+02 4.01924E+01 0.00000E+00
 -1      2161 1.14990E+02 4.07882E+01 0.00000E+00
 -1      2162 1.14214E+02 4.05649E+01 0.00000E+00
 -1      2163 1.16716E+02 4.10192E+01 0.00000E+00
 -1      2164 1.15910E+02 4.09551E+01 0.00000E+00
 -1      2165 1.18482E+02 4.10579E+01 0.00000E+00
 -1      2166 1.17621E+02 4.10825E+01 0.00000E+00
 -1      2167 1.20388E+02 4.05489E+01 0.00000E+00
 -1      2168 1.19572E+02 4.08736E+01 0.00000E+00
 -1      2169 1.22017E+02 3.97517E+01 0.00000E+00
 -1      2170 1.21223E+02 4.01357E+01 0.00000E+00
 -1      2171 1.23575E+02 3.84498E+01 0.00000E+00
 -1      2172 1.22988E+02 3.91163E+01 0.00000E+00
 -1      2173 1.24547E+02 3.68909E+01 0.00000E+00
 -1      2174 1.24097E+02 3.76110E+01 0.00000E+00
 -1      2175 1.25262E+02 3.52963E+01 0.00000E+00
 -1      2176 1.24943E+02 3.60453E+01 0.00000E+00
 -1      2177 1.25757E+02 3.34872E+01 0.00000E+00
 -1      2178 1.25593E+02 3.42894E+01 0.00000E+00
 -1      2179 1.26524E+02 3.31093E+01 0.00000E+00
 -1      2180 1.25740E+02 2.98140E+01 0.00000E+00
 -1      2181 1.25902E+02 3.07248E+01 0.00000E+00
 -1      2182 1.45788E+02 4.48835E+01 0.00000E+00
 -1      2183 1.23932E+02 2.56481E+01 0.00000E+00
 -1      2184 6.42300E+00 4.57510E+01 0.00000E+00
 -1      2185 1.25063E+02 2.72293E+01 0.00000E+00
 -1      2186 1.22493E+02 2.42255E+01 0.00000E+00
 -1      2187 7.17300E+00 4.44520E+01 0.00000E+00
 -1      2188 1.44846E+02 6.72762E+00 0.00000E+00
 -1      2189 1.26594E+02 3.12278E+01 0.00000E+00
 -1      2190 1.45701E+02 4.37395E+01 0.00000E+00
 -1      2191 1.26068E+02 2.90944E+01 0.00000E+00
 -1      2192 1.44402E+02 4.30020E+01 0.00000E+00
 -1      2193 1.26029E+02 3.49184E+01 0.00000E+00
 -1      2194 1.25303E+02 3.67709E+01 0.00000E+00
 -1      2195 1.24385E+02 3.84554E+01 0.00000E+00
 -1      2196 1.22891E+02 3.99296E+01 0.00000E+00
 -1      2197 1.21085E+02 4.09781E+01 0.00000E+00
 -1      2198 1.19161E+02 4.15756E+01 0.00000E+00
 -1      2199 1.17166E+02 4.16966E+01 0.00000E+00
 -1      2200 1.13450E+02 4.09351E+01 0.00000E+00
 -1      2201 1.10288E+02 3.90265E+01 0.00000E+00
 -1      2202 1.08067E+02 3.57530E+01 0.00000E+00
 -1      2203 1.07277E+02 3.54298E+01 0.00000E+00
 -1      2204 1.07825E+02 3.64946E+01 0.00000E+00
 -1      2205 1.07506E+02 3.17752E+01 0.00000E+00
 -1      2206 1.08573E+02 2.79300E+01 0.00000E+00
 -1      2207 1.10685E+02 2.48229E+01 0.00000E+00
 -1      2208 1.14697E+02 2.28190E+01 0.00000E+00
 -1      2209 1.18690E+02 2.25634E+01 0.00000E+00
 -1      2210 1.12497E+02 2.34949E+01 0.00000E+00
 -1      2211 1.15342E+02 4.14663E+01 0.00000E+00
 -1      2212 6.49500E+00 3.01125E+01 0.00000E+00
 -1      2213 6.49500E+00 3.15875E+01 0.00000E+00
 -1      2214 6.49500E+00 3.30625E+01 0.00000E+00
 -1      2215 6.49500E+00 3.45375E+01 0.00000E+00
 -1      2216 7.79400E+00 3.23250E+01 0.00000E+00
 -1      2217 6.49500E+00 2.42125E+01 0.00000E+00
 -1      2218 6.49500E+00 2.56875E+01 0.00000E+00
 -1      2219 6.49500E+00 2.12625E+01 0.00000E+00
 -1      2220 6.49500E+00 2.27375E+01 0.00000E+00
 -1      2221 7.79400E+00 2.34750E+01 0.00000E+00
 -1      2222 6.49500E+00 1.83625E+01 0.00000E+00
 -1      2223 6.49500E+00 1.98125E+01 0.00000E+00
 -1      2224 7.79400E+00 2.05500E+01 0.00000E+00
 -1      2225 6.49500E+00 1.54125E+01 0.00000E+00
 -1      2226 6.49500E+00 1.68875E+01 0.00000E+00
 -1      2227 7.79400E+00 1.76250E+01 0.00000E+00
 -1      2228 6.49500E+00 1.24625E+01 0.00000E+00
 -1      2229 6.49500E+00 1.39375E+01 0.00000E+00
 -1      2230 7.79400E+00 1.46750E+01 0.00000E+00
 -1      2231 6.49500E+00 9.51250E+00 0.00000E+00
 -1      2232 6.49500E+00 1.09875E+01 0.00000E+00
 -1      2233 7.79400E+00 1.17250E+01 0.00000E+00
 -1      2234 6.49500E+00 6.56250E+00 0.00000E+00
 -1      2235 6.49500E+00 8.03750E+00 0.00000E+00
 -1      2236 7.79400E+00 8.77500E+00 0.00000E+00
 -1      2237 6.84975E+00 4.82969E+00 0.00000E+00
 -1      2238 6.68025E+00 5.73906E+00 0.00000E+00
 -1      2239 7.97925E+00 6.47656E+00 0.00000E+00
 -1      2240 8.34975E+00 4.82969E+00 0.00000E+00
 -1      2241 9.90000E+00 4.35050E+01 0.00000E+00
 -1      2242 1.14000E+01 4.35050E+01 0.00000E+00
 -1      2243 1.25374E+02 2.64014E+01 0.00000E+00
 -1      2244 1.25947E+02 2.72124E+01 0.00000E+00
 -1      2245 1.24259E+02 2.48610E+01 0.00000E+00
 -1      2246 1.24816E+02 2.56312E+01 0.00000E+00
 -1      2247 1.25701E+02 2.56143E+01 0.00000E+00
 -1      2248 1.29000E+01 4.35050E+01 0.00000E+00
 -1      2249 1.44000E+01 4.35050E+01 0.00000E+00
 -1      2250 1.21500E+01 4.22060E+01 0.00000E+00
 -1      2251 1.59000E+01 4.35050E+01 0.00000E+00
 -1      2252 1.74000E+01 4.35050E+01 0.00000E+00
 -1      2253 1.51500E+01 4.22060E+01 0.00000E+00
 -1      2254 1.89000E+01 4.35050E+01 0.00000E+00
 -1      2255 2.04000E+01 4.35050E+01 0.00000E+00
 -1      2256 1.81500E+01 4.22060E+01 0.00000E+00
 -1      2257 2.19000E+01 4.35050E+01 0.00000E+00
 -1      2258 2.34000E+01 4.35050E+01 0.00000E+00
 -1      2259 2.11500E+01 4.22060E+01 0.00000E+00
 -1      2260 2.49000E+01 4.35050E+01 0.00000E+00
 -1      2261 2.64000E+01 4.35050E+01 0.00000E+00
 -1      2262 2.41500E+01 4.22060E+01 0.00000E+00
 -1      2263 2.79000E+01 4.35050E+01 0.00000E+00
 -1      2264 2.94000E+01 4.35050E+01 0.00000E+00
 -1      2265 2.71500E+01 4.22060E+01 0.00000E+00
 -1      2266 3.09000E+01 4.35050E+01 0.00000E+00
 -1      2267 3.24000E+01 4.35050E+01 0.00000E+00
 -1      2268 3.01500E+01 4.22060E+01 0.00000E+00
 -1      2269 3.39000E+01 4.35050E+01 0.00000E+00
 -1      2270 3.54000E+01 4.35050E+01 0.00000E+00
 -1      2271 3.31500E+01 4.22060E+01 0.00000E+00
 -1      2272 3.69750E+01 4.35050E+01 0.00000E+00
 -1      2273 3.85500E+01 4.35050E+01 0.00000E+00
 -1      2274 3.62250E+01 4.22060E+01 0.00000E+00
 -1      2275 4.00500E+01 4.35050E+01 0.00000E+00
 -1      2276 4.15500E+01 4.35050E+01 0.00000E+00
 -1      2277 3.93000E+01 4.22060E+01 0.00000E+00
 -1      2278 4.30500E+01 4.35050E+01 0.00000E+00
 -1      2279 4.45500E+01 4.35050E+01 0.00000E+00
 -1      2280 4.23000E+01 4.22060E+01 0.00000E+00
 -1      2281 4.60500E+01 4.35050E+01 0.00000E+00
 -1      2282 4.75500E+01 4.35050E+01 0.00000E+00
 -1      2283 4.53000E+01 4.22060E+01 0.00000E+00
 -1      2284 4.90500E+01 4.35050E+01 0.00000E+00
 -1      2285 5.05500E+01 4.35050E+01 0.00000E+00
 -1      2286 4.83000E+01 4.22060E+01 0.00000E+00
 -1      2287 5.20500E+01 4.35050E+01 0.00000E+00
 -1      2288 5.35500E+01 4.35050E+01 0.00000E+00
 -1      2289 5.13000E+01 4.22060E+01 0.00000E+00
 -1      2290 5.50500E+01 4.35050E+01 0.00000E+00
 -1      2291 5.65500E+01 4.35050E+01 0.00000E+00
 -1      2292 5.43000E+01 4.22060E+01 0.00000E+00
 -1      2293 5.80500E+01 4.35050E+01 0.00000E+00
 -1      2294 5.95500E+01 4.35050E+01 0.00000E+00
 -1      2295 5.73000E+01 4.22060E+01 0.00000E+00
 -1      2296 6.10500E+01 4.35050E+01 0.00000E+00
 -1      2297 6.25500E+01 4.35050E+01 0.00000E+00
 -1      2298 6.03000E+01 4.22060E+01 0.00000E+00
 -1      2299 6.40500E+01 4.35050E+01 0.00000E+00
 -1      2300 6.55500E+01 4.35050E+01 0.00000E+00
 -1      2301 6.33000E+01 4.22060E+01 0.00000E+00
 -1      2302 6.70500E+01 4.35050E+01 0.00000E+00
 -1      2303 6.85500E+01 4.35050E+01 0.00000E+00
 -1      2304 6.63000E+01 4.22060E+01 0.00000E+00
 -1      2305 7.00500E+01 4.35050E+01 0.00000E+00
 -1      2306 7.15500E+01 4.35050E+01 0.00000E+00
 -1      2307 6.93000E+01 4.22060E+01 0.00000E+00
 -1      2308 7.30500E+01 4.35050E+01 0.00000E+00
 -1      2309 7.45500E+01 4.35050E+01 0.00000E+00
 -1      2310 7.23000E+01 4.22060E+01 0.00000E+00
 -1      2311 7.61250E+01 4.35050E+01 0.00000E+00
 -1      2312 7.77000E+01 4.35050E+01 0.00000E+00
 -1      2313 7.53750E+01 4.22060E+01 0.00000E+00
 -1      2314 7.92000E+01 4.35050E+01 0.00000E+00
 -1      2315 8.07000E+01 4.35050E+01 0.00000E+00
 -1      2316 7.84500E+01 4.22060E+01 0.00000E+00
 -1      2317 8.22000E+01 4.35050E+01 0.00000E+00
 -1      2318 8.37000E+01 4.35050E+01 0.00000E+00
 -1      2319 8.14500E+01 4.22060E+01 0.00000E+00
 -1      2320 8.52000E+01 4.35050E+01 0.00000E+00
 -1      2321 8.67000E+01 4.35050E+01 0.00000E+00
 -1      2322 8.44500E+01 4.22060E+01 0.00000E+00
 -1      2323 8.82000E+01 4.35050E+01 0.00000E+00
 -1      2324 8.97000E+01 4.35050E+01 0.00000E+00
 -1      2325 8.74500E+01 4.22060E+01 0.00000E+00
 -1      2326 9.12000E+01 4.35050E+01 0.00000E+00
 -1      2327 9.27000E+01 4.35050E+01 0.00000E+00
 -1      2328 9.04500E+01 4.22060E+01 0.00000E+00
 -1      2329 9.42000E+01 4.35050E+01 0.00000E+00
 -1      2330 9.57000E+01 4.35050E+01 0.00000E+00
 -1      2331 9.34500E+01 4.22060E+01 0.00000E+00
 -1      2332 9.72000E+01 4.35050E+01 0.00000E+00
 -1      2333 9.87000E+01 4.35050E+01 0.00000E+00
 -1      2334 9.64500E+01 4.22060E+01 0.00000E+00
 -1      2335 1.00200E+02 4.35050E+01 0.00000E+00
 -1      2336 1.01700E+02 4.35050E+01 0.00000E+00
 -1      2337 9.94500E+01 4.22060E+01 0.00000E+00
 -1      2338 1.03200E+02 4.35050E+01 0.00000E+00
 -1      2339 1.04700E+02 4.35050E+01 0.00000E+00
 -1      2340 1.02450E+02 4.22060E+01 0.00000E+00
 -1      2341 1.06200E+02 4.35050E+01 0.00000E+00
 -1      2342 1.07700E+02 4.35050E+01 0.00000E+00
 -1      2343 1.05450E+02 4.22060E+01 0.00000E+00
 -1      2344 1.12125E+02 4.37789E+01 0.00000E+00
 -1      2345 1.13475E+02 4.37789E+01 0.00000E+00
 -1      2346 1.14863E+02 4.39464E+01 0.00000E+00
 -1      2347 1.16287E+02 4.39464E+01 0.00000E+00
 -1      2348 1.20750E+02 4.36951E+01 0.00000E+00
 -1      2349 1.22250E+02 4.36951E+01 0.00000E+00
 -1      2350 1.23750E+02 4.36951E+01 0.00000E+00
 -1      2351 1.25250E+02 4.36951E+01 0.00000E+00
 -1      2352 1.23000E+02 4.25862E+01 0.00000E+00
 -1      2353 1.26750E+02 4.36951E+01 0.00000E+00
 -1      2354 1.28250E+02 4.36951E+01 0.00000E+00
 -1      2355 1.26000E+02 4.25862E+01 0.00000E+00
 -1      2356 1.29750E+02 4.36951E+01 0.00000E+00
 -1      2357 1.31250E+02 4.36951E+01 0.00000E+00
 -1      2358 1.29000E+02 4.25862E+01 0.00000E+00
 -1      2359 1.32750E+02 4.36951E+01 0.00000E+00
 -1      2360 1.34250E+02 4.36951E+01 0.00000E+00
 -1      2361 1.32000E+02 4.25862E+01 0.00000E+00
 -1      2362 1.35750E+02 4.36951E+01 0.00000E+00
 -1      2363 1.37250E+02 4.36951E+01 0.00000E+00
 -1      2364 1.35000E+02 4.25862E+01 0.00000E+00
 -1      2365 1.38750E+02 4.36951E+01 0.00000E+00
 -1      2366 1.40250E+02 4.36951E+01 0.00000E+00
 -1      2367 1.38000E+02 4.25862E+01 0.00000E+00
 -1      2368 1.41576E+02 4.33485E+01 0.00000E+00
 -1      2369 1.43076E+02 4.33485E+01 0.00000E+00
 -1      2370 1.43478E+02 4.15465E+01 0.00000E+00
 -1      2371 1.40826E+02 4.22396E+01 0.00000E+00
 -1      2372 2.16240E+01 6.08450E+00 0.00000E+00
 -1      2373 2.01240E+01 6.08450E+00 0.00000E+00
 -1      2374 1.86240E+01 6.08450E+00 0.00000E+00
 -1      2375 1.71240E+01 6.08450E+00 0.00000E+00
 -1      2376 1.93740E+01 7.38350E+00 0.00000E+00
 -1      2377 1.56240E+01 6.08450E+00 0.00000E+00
 -1      2378 1.41240E+01 6.08450E+00 0.00000E+00
 -1      2379 1.63740E+01 7.38350E+00 0.00000E+00
 -1      2380 2.46240E+01 6.08450E+00 0.00000E+00
 -1      2381 2.31240E+01 6.08450E+00 0.00000E+00
 -1      2382 2.23740E+01 7.38350E+00 0.00000E+00
 -1      2383 2.76240E+01 6.08450E+00 0.00000E+00
 -1      2384 2.61240E+01 6.08450E+00 0.00000E+00
 -1      2385 2.53740E+01 7.38350E+00 0.00000E+00
 -1      2386 3.06240E+01 6.08450E+00 0.00000E+00
 -1      2387 2.91240E+01 6.08450E+00 0.00000E+00
 -1      2388 2.83740E+01 7.38350E+00 0.00000E+00
 -1      2389 3.36240E+01 6.08450E+00 0.00000E+00
 -1      2390 3.21240E+01 6.08450E+00 0.00000E+00
 -1      2391 3.13740E+01 7.38350E+00 0.00000E+00
 -1      2392 3.66240E+01 6.08450E+00 0.00000E+00
 -1      2393 3.51240E+01 6.08450E+00 0.00000E+00
 -1      2394 3.43740E+01 7.38350E+00 0.00000E+00
 -1      2395 3.96240E+01 6.08450E+00 0.00000E+00
 -1      2396 3.81240E+01 6.08450E+00 0.00000E+00
 -1      2397 3.73740E+01 7.38350E+00 0.00000E+00
 -1      2398 4.26240E+01 6.08450E+00 0.00000E+00
 -1      2399 4.11240E+01 6.08450E+00 0.00000E+00
 -1      2400 4.03740E+01 7.38350E+00 0.00000E+00
 -1      2401 4.56240E+01 6.08450E+00 0.00000E+00
 -1      2402 4.41240E+01 6.08450E+00 0.00000E+00
 -1      2403 4.33740E+01 7.38350E+00 0.00000E+00
 -1      2404 4.86240E+01 6.08450E+00 0.00000E+00
 -1      2405 4.71240E+01 6.08450E+00 0.00000E+00
 -1      2406 4.63740E+01 7.38350E+00 0.00000E+00
 -1      2407 5.16240E+01 6.08450E+00 0.00000E+00
 -1      2408 5.01240E+01 6.08450E+00 0.00000E+00
 -1      2409 4.93740E+01 7.38350E+00 0.00000E+00
 -1      2410 5.46240E+01 6.08450E+00 0.00000E+00
 -1      2411 5.31240E+01 6.08450E+00 0.00000E+00
 -1      2412 5.23740E+01 7.38350E+00 0.00000E+00
 -1      2413 5.76240E+01 6.08450E+00 0.00000E+00
 -1      2414 5.61240E+01 6.08450E+00 0.00000E+00
 -1      2415 5.53740E+01 7.38350E+00 0.00000E+00
 -1      2416 6.06240E+01 6.08450E+00 0.00000E+00
 -1      2417 5.91240E+01 6.08450E+00 0.00000E+00
 -1      2418 5.83740E+01 7.38350E+00 0.00000E+00
 -1      2419 6.36240E+01 6.08450E+00 0.00000E+00
 -1      2420 6.21240E+01 6.08450E+00 0.00000E+00
 -1      2421 6.13740E+01 7.38350E+00 0.00000E+00
 -1      2422 6.66240E+01 6.08450E+00 0.00000E+00
 -1      2423 6.51240E+01 6.08450E+00 0.00000E+00
 -1      2424 6.43740E+01 7.38350E+00 0.00000E+00
 -1      2425 6.96240E+01 6.08450E+00 0.00000E+00
 -1      2426 6.81240E+01 6.08450E+00 0.00000E+00
 -1      2427 6.73740E+01 7.38350E+00 0.00000E+00
 -1      2428 7.26240E+01 6.08450E+00 0.00000E+00
 -1      2429 7.11240E+01 6.08450E+00 0.00000E+00
 -1      2430 7.03740E+01 7.38350E+00 0.00000E+00
 -1      2431 7.56240E+01 6.08450E+00 0.00000E+00
 -1      2432 7.41240E+01 6.08450E+00 0.00000E+00
 -1      2433 7.33740E+01 7.38350E+00 0.00000E+00
 -1      2434 7.86240E+01 6.08450E+00 0.00000E+00
 -1      2435 7.71240E+01 6.08450E+00 0.00000E+00
 -1      2436 7.63740E+01 7.38350E+00 0.00000E+00
 -1      2437 8.16240E+01 6.08450E+00 0.00000E+00
 -1      2438 8.01240E+01 6.08450E+00 0.00000E+00
 -1      2439 7.93740E+01 7.38350E+00 0.00000E+00
 -1      2440 8.46240E+01 6.08450E+00 0.00000E+00
 -1      2441 8.31240E+01 6.08450E+00 0.00000E+00
 -1      2442 8.23740E+01 7.38350E+00 0.00000E+00
 -1      2443 8.76240E+01 6.08450E+00 0.00000E+00
 -1      2444 8.61240E+01 6.08450E+00 0.00000E+00
 -1      2445 8.53740E+01 7.38350E+00 0.00000E+00
 -1      2446 9.06240E+01 6.08450E+00 0.00000E+00
 -1      2447 8.91240E+01 6.08450E+00 0.00000E+00
 -1      2448 8.83740E+01 7.38350E+00 0.00000E+00
 -1      2449 9.36240E+01 6.08450E+00 0.00000E+00
 -1      2450 9.21240E+01 6.08450E+00 0.00000E+00
 -1      2451 9.13740E+01 7.38350E+00 0.00000E+00
 -1      2452 9.66240E+01 6.08450E+00 0.00000E+00
 -1      2453 9.51240E+01 6.08450E+00 0.00000E+00
 -1      2454 9.43740E+01 7.38350E+00 0.00000E+00
 -1      2455 9.96240E+01 6.08450E+00 0.00000E+00
 -1      2456 9.81240E+01 6.08450E+00 0.00000E+00
 -1      2457 9.73740E+01 7.38350E+00 0.00000E+00
 -1      2458 1.02624E+02 6.08450E+00 0.00000E+00
 -1      2459 1.01124E+02 6.08450E+00 0.00000E+00
 -1      2460 1.00374E+02 7.38350E+00 0.00000E+00
 -1      2461 1.05624E+02 6.08450E+00 0.00000E+00
 -1      2462 1.04124E+02 6.08450E+00 0.00000E+00
 -1      2463 1.03374E+02 7.38350E+00 0.00000E+00
 -1      2464 1.08624E+02 6.08450E+00 0.00000E+00
 -1      2465 1.07124E+02 6.08450E+00 0.00000E+00
 -1      2466 1.06374E+02 7.38350E+00 0.00000E+00
 -1      2467 1.11624E+02 6.08450E+00 0.00000E+00
 -1      2468 1.10124E+02 6.08450E+00 0.00000E+00
 -1      2469 1.09374E+02 7.38350E+00 0.00000E+00
 -1      2470 1.14624E+02 6.08450E+00 0.00000E+00
 -1      2471 1.13124E+02 6.08450E+00 0.00000E+00
 -1      2472 1.12374E+02 7.38350E+00 0.00000E+00
 -1      2473 1.17624E+02 6.08450E+00 0.00000E+00
 -1      2474 1.16124E+02 6.08450E+00 0.00000E+00
 -1      2475 1.15374E+02 7.38350E+00 0.00000E+00
 -1      2476 1.20624E+02 6.08450E+00 0.00000E+00
 -1      2477 1.19124E+02 6.08450E+00 0.00000E+00
 -1      2478 1.18374E+02 7.38350E+00 0.00000E+00
 -1      2479 1.23624E+02 6.08450E+00 0.00000E+00
 -1      2480 1.22124E+02 6.08450E+00 0.00000E+00
 -1      2481 1.21374E+02 7.38350E+00 0.00000E+00
 -1      2482 1.26624E+02 6.08450E+00 0.00000E+00
 -1      2483 1.25124E+02 6.08450E+00 0.00000E+00
 -1      2484 1.24374E+02 7.38350E+00 0.00000E+00
 -1      2485 1.29624E+02 6.08450E+00 0.00000E+00
 -1      2486 1.28124E+02 6.08450E+00 0.00000E+00
 -1      2487 1.27374E+02 7.38350E+00 0.00000E+00
 -1      2488 1.32624E+02 6.08450E+00 0.00000E+00
 -1      2489 1.31124E+02 6.08450E+00 0.00000E+00
 -1      2490 1.30374E+02 7.38350E+00 0.00000E+00
 -1      2491 1.35624E+02 6.08450E+00 0.00000E+00
 -1      2492 1.34124E+02 6.08450E+00 0.00000E+00
 -1      2493 1.33374E+02 7.38350E+00 0.00000E+00
 -1      2494 1.38624E+02 6.08450E+00 0.00000E+00
 -1      2495 1.37124E+02 6.08450E+00 0.00000E+00
 -1      2496 1.36374E+02 7.38350E+00 0.00000E+00
 -1      2497 1.41624E+02 6.08450E+00 0.00000E+00
 -1      2498 1.40124E+02 6.08450E+00 0.00000E+00
 -1      2499 1.39374E+02 7.38350E+00 0.00000E+00
 -1      2500 1.43589E+02 6.81775E+00 0.00000E+00
 -1      2501 1.43505E+02 1.69125E+01 0.00000E+00
 -1      2502 1.43505E+02 1.54375E+01 0.00000E+00
 -1      2503 1.43505E+02 1.39875E+01 0.00000E+00
 -1      2504 1.43505E+02 1.25375E+01 0.00000E+00
 -1      2505 1.42206E+02 1.47250E+01 0.00000E+00
 -1      2506 1.43505E+02 1.10625E+01 0.00000E+00
 -1      2507 1.43505E+02 9.58750E+00 0.00000E+00
 -1      2508 1.42206E+02 1.18000E+01 0.00000E+00
 -1      2509 1.27360E+02 3.06180E+01 0.00000E+00
 -1      2510 1.27453E+02 3.16974E+01 0.00000E+00
 -1      2511 1.43505E+02 1.98625E+01 0.00000E+00
 -1      2512 1.43505E+02 1.83875E+01 0.00000E+00
 -1      2513 1.42206E+02 1.76500E+01 0.00000E+00
 -1      2514 1.43505E+02 2.28125E+01 0.00000E+00
 -1      2515 1.43505E+02 2.13375E+01 0.00000E+00
 -1      2516 1.42206E+02 2.06000E+01 0.00000E+00
 -1      2517 1.43505E+02 2.57625E+01 0.00000E+00
 -1      2518 1.43505E+02 2.42875E+01 0.00000E+00
 -1      2519 1.42206E+02 2.35500E+01 0.00000E+00
 -1      2520 1.43505E+02 2.87125E+01 0.00000E+00
 -1      2521 1.43505E+02 2.72375E+01 0.00000E+00
 -1      2522 1.42206E+02 2.65000E+01 0.00000E+00
 -1      2523 1.43505E+02 3.16125E+01 0.00000E+00
 -1      2524 1.43505E+02 3.01625E+01 0.00000E+00
 -1      2525 1.42206E+02 2.94250E+01 0.00000E+00
 -1      2526 1.43505E+02 3.45625E+01 0.00000E+00
 -1      2527 1.43505E+02 3.30875E+01 0.00000E+00
 -1      2528 1.42206E+02 3.23500E+01 0.00000E+00
 -1      2529 1.43505E+02 3.75125E+01 0.00000E+00
 -1      2530 1.43505E+02 3.60375E+01 0.00000E+00
 -1      2531 1.42206E+02 3.53000E+01 0.00000E+00
 -1      2532 1.43492E+02 4.02670E+01 0.00000E+00
 -1      2533 1.43492E+02 3.87920E+01 0.00000E+00
 -1      2534 1.42193E+02 3.80545E+01 0.00000E+00
 -1      2535 1.42165E+02 4.06136E+01 0.00000E+00
 -1      2536 1.26890E+02 3.46434E+01 0.00000E+00
 -1      2537 1.26559E+02 3.56503E+01 0.00000E+00
 -1      2538 6.55950E+00 4.28890E+01 0.00000E+00
 -1      2539 8.53650E+00 4.32410E+01 0.00000E+00
 -1      2540 9.28650E+00 4.19420E+01 0.00000E+00
 -1      2541 6.55950E+00 4.14140E+01 0.00000E+00
 -1      2542 1.22537E+02 2.32437E+01 0.00000E+00
 -1      2543 1.23419E+02 2.38960E+01 0.00000E+00
 -1      2544 1.27404E+02 3.28710E+01 0.00000E+00
 -1      2545 1.27241E+02 3.36731E+01 0.00000E+00
 -1      2546 1.09650E+02 2.45885E+01 0.00000E+00
 -1      2547 1.10281E+02 2.38420E+01 0.00000E+00
 -1      2548 6.49500E+00 2.71625E+01 0.00000E+00
 -1      2549 6.49500E+00 2.86375E+01 0.00000E+00
 -1      2550 7.79400E+00 2.93750E+01 0.00000E+00
 -1      2551 7.79400E+00 2.64250E+01 0.00000E+00
 -1      2552 1.11565E+02 2.30914E+01 0.00000E+00
 -1      2553 1.12746E+02 2.25100E+01 0.00000E+00
 -1      2554 1.20746E+02 2.21898E+01 0.00000E+00
 -1      2555 1.21576E+02 2.25994E+01 0.00000E+00
 -1      2556 1.18174E+02 2.17030E+01 0.00000E+00
 -1      2557 1.19436E+02 2.18935E+01 0.00000E+00
 -1      2558 1.15971E+02 2.17964E+01 0.00000E+00
 -1      2559 1.16827E+02 2.16207E+01 0.00000E+00
 -1      2560 1.15918E+02 4.23610E+01 0.00000E+00
 -1      2561 1.14999E+02 4.21941E+01 0.00000E+00
 -1      2562 1.13934E+02 2.19856E+01 0.00000E+00
 -1      2563 1.14953E+02 2.18910E+01 0.00000E+00
 -1      2564 1.15208E+02 2.09631E+01 0.00000E+00
 -1      2565 1.08683E+02 2.59609E+01 0.00000E+00
 -1      2566 1.09167E+02 2.52747E+01 0.00000E+00
 -1      2567 1.08764E+02 2.42937E+01 0.00000E+00
 -1      2568 1.07555E+02 2.80286E+01 0.00000E+00
 -1      2569 1.08069E+02 2.70404E+01 0.00000E+00
 -1      2570 1.06910E+02 2.99853E+01 0.00000E+00
 -1      2571 1.07121E+02 2.91358E+01 0.00000E+00
 -1      2572 1.06589E+02 3.22586E+01 0.00000E+00
 -1      2573 1.06719E+02 3.11005E+01 0.00000E+00
 -1      2574 1.06669E+02 3.43151E+01 0.00000E+00
 -1      2575 1.06599E+02 3.34376E+01 0.00000E+00
 -1      2576 1.08644E+02 3.83352E+01 0.00000E+00
 -1      2577 1.08172E+02 3.76245E+01 0.00000E+00
 -1      2578 1.10102E+02 3.99100E+01 0.00000E+00
 -1      2579 1.09373E+02 3.91226E+01 0.00000E+00
 -1      2580 1.08458E+02 3.92186E+01 0.00000E+00
 -1      2581 1.11736E+02 4.11056E+01 0.00000E+00
 -1      2582 1.11007E+02 4.07272E+01 0.00000E+00
 -1      2583 1.13611E+02 4.20266E+01 0.00000E+00
 -1      2584 1.12638E+02 4.16623E+01 0.00000E+00
 -1      2585 1.19834E+02 4.22464E+01 0.00000E+00
 -1      2586 1.18745E+02 4.24307E+01 0.00000E+00
 -1      2587 1.21710E+02 4.15756E+01 0.00000E+00
 -1      2588 1.20875E+02 4.19888E+01 0.00000E+00
 -1      2589 1.23800E+02 4.02593E+01 0.00000E+00
 -1      2590 1.22829E+02 4.08947E+01 0.00000E+00
 -1      2591 1.25303E+02 3.84450E+01 0.00000E+00
 -1      2592 1.24780E+02 3.92838E+01 0.00000E+00
 -1      2593 1.26201E+02 3.66761E+01 0.00000E+00
 -1      2594 1.25806E+02 3.75217E+01 0.00000E+00
 -1      2595 1.26568E+02 2.82739E+01 0.00000E+00
 -1      2596 1.27000E+02 2.93279E+01 0.00000E+00
 -1      2597 1.42839E+02 8.11675E+00 0.00000E+00
 -1      2598 7.79400E+00 3.52687E+01 0.00000E+00
 -1      2599 6.49500E+00 3.60062E+01 0.00000E+00
 -1      2600 6.49500E+00 3.74750E+01 0.00000E+00
 -1      2601 1.22502E+02 2.22699E+01 0.00000E+00
 -1      2602 9.55950E+00 5.02450E+00 0.00000E+00
 -1      2603 9.37425E+00 5.84794E+00 0.00000E+00
 -1      2604 1.07692E+01 5.21931E+00 0.00000E+00
 -1      2605 1.14188E+02 4.29213E+01 0.00000E+00
 -1      2606 1.26879E+02 2.74460E+01 0.00000E+00
 -1      2607 1.27062E+02 3.64011E+01 0.00000E+00
 -1      2608 1.26201E+02 3.83501E+01 0.00000E+00
 -1      2609 1.24718E+02 4.02490E+01 0.00000E+00
 -1      2610 1.22619E+02 4.19053E+01 0.00000E+00
 -1      2611 1.09200E+02 4.36113E+01 0.00000E+00
 -1      2612 1.10700E+02 4.36113E+01 0.00000E+00
 -1      2613 1.16853E+02 4.31537E+01 0.00000E+00
 -1      2614 1.17565E+02 4.40113E+01 0.00000E+00
 -1      2615 1.19065E+02 4.40113E+01 0.00000E+00
 -1      2616 1.17196E+02 4.24259E+01 0.00000E+00
 -1      2617 1.28171E+02 3.22611E+01 0.00000E+00
 -1      2618 1.27860E+02 2.97975E+01 0.00000E+00
 -1      2619 1.20459E+02 4.28438E+01 0.00000E+00
 -1      2620 1.27771E+02 3.44050E+01 0.00000E+00
 -1      2621 6.55950E+00 3.99453E+01 0.00000E+00
 -1      2622 1.30515E+01 5.74931E+00 0.00000E+00
 -1      2623 1.18418E+01 5.55450E+00 0.00000E+00
 -1      2624 1.16565E+01 6.37794E+00 0.00000E+00
 -1      2625 1.38015E+01 7.04831E+00 0.00000E+00
 -1      2626 1.10091E+02 4.08233E+01 0.00000E+00
 -1      2627 1.41540E+02 8.85425E+00 0.00000E+00
 -1      2628 1.06428E+02 3.50566E+01 0.00000E+00
 -1      2629 1.05580E+02 3.46834E+01 0.00000E+00
 -1      2630 1.06187E+02 3.57982E+01 0.00000E+00
 -1      2631 1.09496E+02 2.26226E+01 0.00000E+00
 -1      2632 1.10530E+02 2.28570E+01 0.00000E+00
 -1      2633 1.10779E+02 2.18721E+01 0.00000E+00
 -1      2634 1.05812E+02 3.27629E+01 0.00000E+00
 -1      2635 1.05993E+02 3.04687E+01 0.00000E+00
 -1      2636 1.13002E+02 2.15821E+01 0.00000E+00
 -1      2637 1.17574E+02 2.09508E+01 0.00000E+00
 -1      2638 1.07666E+02 2.60594E+01 0.00000E+00
 -1      2639 1.07382E+02 3.73013E+01 0.00000E+00
 -1      2640 1.24303E+02 2.38791E+01 0.00000E+00
 -1      2641 1.20231E+02 2.13294E+01 0.00000E+00
 -1      2642 1.06617E+02 2.82462E+01 0.00000E+00
 -1      2643 1.11898E+02 4.21971E+01 0.00000E+00
 -1      2644 1.18775E+02 4.31600E+01 0.00000E+00
 -1      2645 1.18101E+02 4.24893E+01 0.00000E+00
 -1      2646 1.08450E+02 4.23123E+01 0.00000E+00
 -1      2647 9.09300E+00 1.98250E+01 0.00000E+00
 -1      2648 9.09300E+00 2.12750E+01 0.00000E+00
 -1      2649 9.09300E+00 2.27500E+01 0.00000E+00
 -1      2650 9.09300E+00 2.42250E+01 0.00000E+00
 -1      2651 1.03920E+01 2.20250E+01 0.00000E+00
 -1      2652 9.09300E+00 1.39375E+01 0.00000E+00
 -1      2653 9.09300E+00 1.54125E+01 0.00000E+00
 -1      2654 9.09300E+00 1.09875E+01 0.00000E+00
 -1      2655 9.09300E+00 1.24625E+01 0.00000E+00
 -1      2656 1.03920E+01 1.32000E+01 0.00000E+00
 -1      2657 9.18900E+00 6.67137E+00 0.00000E+00
 -1      2658 9.00375E+00 7.49481E+00 0.00000E+00
 -1      2659 1.03988E+01 6.86619E+00 0.00000E+00
 -1      2660 1.22499E+02 2.12354E+01 0.00000E+00
 -1      2661 1.23460E+02 2.18797E+01 0.00000E+00
 -1      2662 1.28011E+02 3.61569E+01 0.00000E+00
 -1      2663 1.27653E+02 3.71826E+01 0.00000E+00
 -1      2664 1.26082E+02 2.47507E+01 0.00000E+00
 -1      2665 1.26640E+02 2.55209E+01 0.00000E+00
 -1      2666 1.14000E+01 4.09070E+01 0.00000E+00
 -1      2667 1.29000E+01 4.09070E+01 0.00000E+00
 -1      2668 1.44000E+01 4.09070E+01 0.00000E+00
 -1      2669 1.59000E+01 4.09070E+01 0.00000E+00
 -1      2670 1.36500E+01 3.96080E+01 0.00000E+00
 -1      2671 1.74000E+01 4.09070E+01 0.00000E+00
 -1      2672 1.89000E+01 4.09070E+01 0.00000E+00
 -1      2673 1.66500E+01 3.96080E+01 0.00000E+00
 -1      2674 2.04000E+01 4.09070E+01 0.00000E+00
 -1      2675 2.19000E+01 4.09070E+01 0.00000E+00
 -1      2676 1.96500E+01 3.96080E+01 0.00000E+00
 -1      2677 2.34000E+01 4.09070E+01 0.00000E+00
 -1      2678 2.49000E+01 4.09070E+01 0.00000E+00
 -1      2679 2.26500E+01 3.96080E+01 0.00000E+00
 -1      2680 2.64000E+01 4.09070E+01 0.00000E+00
 -1      2681 2.79000E+01 4.09070E+01 0.00000E+00
 -1      2682 2.56500E+01 3.96080E+01 0.00000E+00
 -1      2683 2.94000E+01 4.09070E+01 0.00000E+00
 -1      2684 3.09000E+01 4.09070E+01 0.00000E+00
 -1      2685 2.86500E+01 3.96080E+01 0.00000E+00
 -1      2686 3.24000E+01 4.09070E+01 0.00000E+00
 -1      2687 3.39000E+01 4.09070E+01 0.00000E+00
 -1      2688 3.16500E+01 3.96080E+01 0.00000E+00
 -1      2689 3.54750E+01 4.09070E+01 0.00000E+00
 -1      2690 3.70500E+01 4.09070E+01 0.00000E+00
 -1      2691 3.47250E+01 3.96080E+01 0.00000E+00
 -1      2692 3.85500E+01 4.09070E+01 0.00000E+00
 -1      2693 4.00500E+01 4.09070E+01 0.00000E+00
 -1      2694 3.78000E+01 3.96080E+01 0.00000E+00
 -1      2695 4.15500E+01 4.09070E+01 0.00000E+00
 -1      2696 4.30500E+01 4.09070E+01 0.00000E+00
 -1      2697 4.08000E+01 3.96080E+01 0.00000E+00
 -1      2698 4.45500E+01 4.09070E+01 0.00000E+00
 -1      2699 4.60500E+01 4.09070E+01 0.00000E+00
 -1      2700 4.38000E+01 3.96080E+01 0.00000E+00
 -1      2701 4.75500E+01 4.09070E+01 0.00000E+00
 -1      2702 4.90500E+01 4.09070E+01 0.00000E+00
 -1      2703 4.68000E+01 3.96080E+01 0.00000E+00
 -1      2704 5.05500E+01 4.09070E+01 0.00000E+00
 -1      2705 5.20500E+01 4.09070E+01 0.00000E+00
 -1      2706 4.98000E+01 3.96080E+01 0.00000E+00
 -1      2707 5.35500E+01 4.09070E+01 0.00000E+00
 -1      2708 5.50500E+01 4.09070E+01 0.00000E+00
 -1      2709 5.28000E+01 3.96080E+01 0.00000E+00
 -1      2710 5.65500E+01 4.09070E+01 0.00000E+00
 -1      2711 5.80500E+01 4.09070E+01 0.00000E+00
 -1      2712 5.58000E+01 3.96080E+01 0.00000E+00
 -1      2713 5.95500E+01 4.09070E+01 0.00000E+00
 -1      2714 6.10500E+01 4.09070E+01 0.00000E+00
 -1      2715 5.88000E+01 3.96080E+01 0.00000E+00
 -1      2716 6.25500E+01 4.09070E+01 0.00000E+00
 -1      2717 6.40500E+01 4.09070E+01 0.00000E+00
 -1      2718 6.18000E+01 3.96080E+01 0.00000E+00
 -1      2719 6.55500E+01 4.09070E+01 0.00000E+00
 -1      2720 6.70500E+01 4.09070E+01 0.00000E+00
 -1      2721 6.48000E+01 3.96080E+01 0.00000E+00
 -1      2722 6.85500E+01 4.09070E+01 0.00000E+00
 -1      2723 7.00500E+01 4.09070E+01 0.00000E+00
 -1      2724 6.78000E+01 3.96080E+01 0.00000E+00
 -1      2725 7.15500E+01 4.09070E+01 0.00000E+00
 -1      2726 7.30500E+01 4.09070E+01 0.00000E+00
 -1      2727 7.08000E+01 3.96080E+01 0.00000E+00
 -1      2728 7.46250E+01 4.09070E+01 0.00000E+00
 -1      2729 7.62000E+01 4.09070E+01 0.00000E+00
 -1      2730 7.38750E+01 3.96080E+01 0.00000E+00
 -1      2731 7.77000E+01 4.09070E+01 0.00000E+00
 -1      2732 7.92000E+01 4.09070E+01 0.00000E+00
 -1      2733 7.69500E+01 3.96080E+01 0.00000E+00
 -1      2734 8.07000E+01 4.09070E+01 0.00000E+00
 -1      2735 8.22000E+01 4.09070E+01 0.00000E+00
 -1      2736 7.99500E+01 3.96080E+01 0.00000E+00
 -1      2737 8.37000E+01 4.09070E+01 0.00000E+00
 -1      2738 8.52000E+01 4.09070E+01 0.00000E+00
 -1      2739 8.29500E+01 3.96080E+01 0.00000E+00
 -1      2740 8.67000E+01 4.09070E+01 0.00000E+00
 -1      2741 8.82000E+01 4.09070E+01 0.00000E+00
 -1      2742 8.59500E+01 3.96080E+01 0.00000E+00
 -1      2743 8.97000E+01 4.09070E+01 0.00000E+00
 -1      2744 9.12000E+01 4.09070E+01 0.00000E+00
 -1      2745 8.89500E+01 3.96080E+01 0.00000E+00
 -1      2746 9.27000E+01 4.09070E+01 0.00000E+00
 -1      2747 9.42000E+01 4.09070E+01 0.00000E+00
 -1      2748 9.19500E+01 3.96080E+01 0.00000E+00
 -1      2749 9.57000E+01 4.09070E+01 0.00000E+00
 -1      2750 9.72000E+01 4.09070E+01 0.00000E+00
 -1      2751 9.49500E+01 3.96080E+01 0.00000E+00
 -1      2752 9.87000E+01 4.09070E+01 0.00000E+00
 -1      2753 1.00200E+02 4.09070E+01 0.00000E+00
 -1      2754 9.79500E+01 3.96080E+01 0.00000E+00
 -1      2755 1.01700E+02 4.09070E+01 0.00000E+00
 -1      2756 1.03200E+02 4.09070E+01 0.00000E+00
 -1      2757 1.00950E+02 3.96080E+01 0.00000E+00
 -1      2758 1.11375E+02 4.25862E+01 0.00000E+00
 -1      2759 1.19709E+02 4.39528E+01 0.00000E+00
 -1      2760 1.27206E+02 3.82988E+01 0.00000E+00
 -1      2761 1.26703E+02 3.92221E+01 0.00000E+00
 -1      2762 1.28250E+02 4.13935E+01 0.00000E+00
 -1      2763 1.29750E+02 4.13935E+01 0.00000E+00
 -1      2764 1.31250E+02 4.13935E+01 0.00000E+00
 -1      2765 1.32750E+02 4.13935E+01 0.00000E+00
 -1      2766 1.30500E+02 4.02008E+01 0.00000E+00
 -1      2767 1.34250E+02 4.13935E+01 0.00000E+00
 -1      2768 1.35750E+02 4.13935E+01 0.00000E+00
 -1      2769 1.33500E+02 4.02008E+01 0.00000E+00
 -1      2770 1.37250E+02 4.13935E+01 0.00000E+00
 -1      2771 1.38750E+02 4.13935E+01 0.00000E+00
 -1      2772 1.36500E+02 4.02008E+01 0.00000E+00
 -1      2773 1.39795E+02 4.11768E+01 0.00000E+00
 -1      2774 1.41121E+02 4.08302E+01 0.00000E+00
 -1      2775 1.41134E+02 3.95507E+01 0.00000E+00
 -1      2776 1.39045E+02 3.99841E+01 0.00000E+00
 -1      2777 2.01240E+01 8.68250E+00 0.00000E+00
 -1      2778 1.86240E+01 8.68250E+00 0.00000E+00
 -1      2779 2.31240E+01 8.68250E+00 0.00000E+00
 -1      2780 2.16240E+01 8.68250E+00 0.00000E+00
 -1      2781 2.08740E+01 9.98150E+00 0.00000E+00
 -1      2782 1.71240E+01 8.68250E+00 0.00000E+00
 -1      2783 1.56240E+01 8.68250E+00 0.00000E+00
 -1      2784 1.78740E+01 9.98150E+00 0.00000E+00
 -1      2785 2.91240E+01 8.68250E+00 0.00000E+00
 -1      2786 2.76240E+01 8.68250E+00 0.00000E+00
 -1      2787 3.21240E+01 8.68250E+00 0.00000E+00
 -1      2788 3.06240E+01 8.68250E+00 0.00000E+00
 -1      2789 2.98740E+01 9.98150E+00 0.00000E+00
 -1      2790 3.51240E+01 8.68250E+00 0.00000E+00
 -1      2791 3.36240E+01 8.68250E+00 0.00000E+00
 -1      2792 3.28740E+01 9.98150E+00 0.00000E+00
 -1      2793 3.81240E+01 8.68250E+00 0.00000E+00
 -1      2794 3.66240E+01 8.68250E+00 0.00000E+00
 -1      2795 3.58740E+01 9.98150E+00 0.00000E+00
 -1      2796 4.11240E+01 8.68250E+00 0.00000E+00
 -1      2797 3.96240E+01 8.68250E+00 0.00000E+00
 -1      2798 3.88740E+01 9.98150E+00 0.00000E+00
 -1      2799 4.41240E+01 8.68250E+00 0.00000E+00
 -1      2800 4.26240E+01 8.68250E+00 0.00000E+00
 -1      2801 4.18740E+01 9.98150E+00 0.00000E+00
 -1      2802 4.71240E+01 8.68250E+00 0.00000E+00
 -1      2803 4.56240E+01 8.68250E+00 0.00000E+00
 -1      2804 4.48740E+01 9.98150E+00 0.00000E+00
 -1      2805 5.01240E+01 8.68250E+00 0.00000E+00
 -1      2806 4.86240E+01 8.68250E+00 0.00000E+00
 -1      2807 4.78740E+01 9.98150E+00 0.00000E+00
 -1      2808 5.31240E+01 8.68250E+00 0.00000E+00
 -1      2809 5.16240E+01 8.68250E+00 0.00000E+00
 -1      2810 5.08740E+01 9.98150E+00 0.00000E+00
 -1      2811 5.61240E+01 8.68250E+00 0.00000E+00
 -1      2812 5.46240E+01 8.68250E+00 0.00000E+00
 -1      2813 5.38740E+01 9.98150E+00 0.00000E+00
 -1      2814 5.91240E+01 8.68250E+00 0.00000E+00
 -1      2815 5.76240E+01 8.68250E+00 0.00000E+00
 -1      2816 5.68740E+01 9.98150E+00 0.00000E+00
 -1      2817 6.21240E+01 8.68250E+00 0.00000E+00
 -1      2818 6.06240E+01 8.68250E+00 0.00000E+00
 -1      2819 5.98740E+01 9.98150E+00 0.00000E+00
 -1      2820 6.51240E+01 8.68250E+00 0.00000E+00
 -1      2821 6.36240E+01 8.68250E+00 0.00000E+00
 -1      2822 6.28740E+01 9.98150E+00 0.00000E+00
 -1      2823 6.81240E+01 8.68250E+00 0.00000E+00
 -1      2824 6.66240E+01 8.68250E+00 0.00000E+00
 -1      2825 6.58740E+01 9.98150E+00 0.00000E+00
 -1      2826 7.11240E+01 8.68250E+00 0.00000E+00
 -1      2827 6.96240E+01 8.68250E+00 0.00000E+00
 -1      2828 6.88740E+01 9.98150E+00 0.00000E+00
 -1      2829 7.41240E+01 8.68250E+00 0.00000E+00
 -1      2830 7.26240E+01 8.68250E+00 0.00000E+00
 -1      2831 7.18740E+01 9.98150E+00 0.00000E+00
 -1      2832 7.71240E+01 8.68250E+00 0.00000E+00
 -1      2833 7.56240E+01 8.68250E+00 0.00000E+00
 -1      2834 7.48740E+01 9.98150E+00 0.00000E+00
 -1      2835 8.01240E+01 8.68250E+00 0.00000E+00
 -1      2836 7.86240E+01 8.68250E+00 0.00000E+00
 -1      2837 7.78740E+01 9.98150E+00 0.00000E+00
 -1      2838 8.31240E+01 8.68250E+00 0.00000E+00
 -1      2839 8.16240E+01 8.68250E+00 0.00000E+00
 -1      2840 8.08740E+01 9.98150E+00 0.00000E+00
 -1      2841 8.61240E+01 8.68250E+00 0.00000E+00
 -1      2842 8.46240E+01 8.68250E+00 0.00000E+00
 -1      2843 8.38740E+01 9.98150E+00 0.00000E+00
 -1      2844 8.91240E+01 8.68250E+00 0.00000E+00
 -1      2845 8.76240E+01 8.68250E+00 0.00000E+00
 -1      2846 8.68740E+01 9.98150E+00 0.00000E+00
 -1      2847 9.21240E+01 8.68250E+00 0.00000E+00
 -1      2848 9.06240E+01 8.68250E+00 0.00000E+00
 -1      2849 8.98740E+01 9.98150E+00 0.00000E+00
 -1      2850 9.51240E+01 8.68250E+00 0.00000E+00
 -1      2851 9.36240E+01 8.68250E+00 0.00000E+00
 -1      2852 9.28740E+01 9.98150E+00 0.00000E+00
 -1      2853 9.81240E+01 8.68250E+00 0.00000E+00
 -1      2854 9.66240E+01 8.68250E+00 0.00000E+00
 -1      2855 9.58740E+01 9.98150E+00 0.00000E+00
 -1      2856 1.01124E+02 8.68250E+00 0.00000E+00
 -1      2857 9.96240E+01 8.68250E+00 0.00000E+00
 -1      2858 9.88740E+01 9.98150E+00 0.00000E+00
 -1      2859 1.04124E+02 8.68250E+00 0.00000E+00
 -1      2860 1.02624E+02 8.68250E+00 0.00000E+00
 -1      2861 1.01874E+02 9.98150E+00 0.00000E+00
 -1      2862 1.07124E+02 8.68250E+00 0.00000E+00
 -1      2863 1.05624E+02 8.68250E+00 0.00000E+00
 -1      2864 1.04874E+02 9.98150E+00 0.00000E+00
 -1      2865 1.10124E+02 8.68250E+00 0.00000E+00
 -1      2866 1.08624E+02 8.68250E+00 0.00000E+00
 -1      2867 1.07874E+02 9.98150E+00 0.00000E+00
 -1      2868 1.13124E+02 8.68250E+00 0.00000E+00
 -1      2869 1.11624E+02 8.68250E+00 0.00000E+00
 -1      2870 1.10874E+02 9.98150E+00 0.00000E+00
 -1      2871 1.16124E+02 8.68250E+00 0.00000E+00
 -1      2872 1.14624E+02 8.68250E+00 0.00000E+00
 -1      2873 1.13874E+02 9.98150E+00 0.00000E+00
 -1      2874 1.19124E+02 8.68250E+00 0.00000E+00
 -1      2875 1.17624E+02 8.68250E+00 0.00000E+00
 -1      2876 1.16874E+02 9.98150E+00 0.00000E+00
 -1      2877 1.22124E+02 8.68250E+00 0.00000E+00
 -1      2878 1.20624E+02 8.68250E+00 0.00000E+00
 -1      2879 1.19874E+02 9.98150E+00 0.00000E+00
 -1      2880 1.25124E+02 8.68250E+00 0.00000E+00
 -1      2881 1.23624E+02 8.68250E+00 0.00000E+00
 -1      2882 1.22874E+02 9.98150E+00 0.00000E+00
 -1      2883 1.28124E+02 8.68250E+00 0.00000E+00
 -1      2884 1.26624E+02 8.68250E+00 0.00000E+00
 -1      2885 1.25874E+02 9.98150E+00 0.00000E+00
 -1      2886 1.31124E+02 8.68250E+00 0.00000E+00
 -1      2887 1.29624E+02 8.68250E+00 0.00000E+00
 -1      2888 1.28874E+02 9.98150E+00 0.00000E+00
 -1      2889 1.34124E+02 8.68250E+00 0.00000E+00
 -1      2890 1.32624E+02 8.68250E+00 0.00000E+00
 -1      2891 1.31874E+02 9.98150E+00 0.00000E+00
 -1      2892 1.37124E+02 8.68250E+00 0.00000E+00
 -1      2893 1.35624E+02 8.68250E+00 0.00000E+00
 -1      2894 1.34874E+02 9.98150E+00 0.00000E+00
 -1      2895 1.40082E+02 8.76838E+00 0.00000E+00
 -1      2896 1.38582E+02 8.76838E+00 0.00000E+00
 -1      2897 1.37832E+02 1.00674E+01 0.00000E+00
 -1      2898 1.40748E+02 1.02391E+01 0.00000E+00
 -1      2899 1.40907E+02 1.54500E+01 0.00000E+00
 -1      2900 1.40907E+02 1.40000E+01 0.00000E+00
 -1      2901 1.40907E+02 2.13375E+01 0.00000E+00
 -1      2902 1.40907E+02 1.98625E+01 0.00000E+00
 -1      2903 1.40827E+02 1.28571E+01 0.00000E+00
 -1      2904 1.40827E+02 1.13821E+01 0.00000E+00
 -1      2905 1.39370E+02 1.12962E+01 0.00000E+00
 -1      2906 1.39529E+02 1.35821E+01 0.00000E+00
 -1      2907 1.40907E+02 1.83937E+01 0.00000E+00
 -1      2908 1.40907E+02 1.69188E+01 0.00000E+00
 -1      2909 1.39608E+02 1.61938E+01 0.00000E+00
 -1      2910 1.39608E+02 1.91313E+01 0.00000E+00
 -1      2911 1.40907E+02 2.72375E+01 0.00000E+00
 -1      2912 1.40907E+02 2.57625E+01 0.00000E+00
 -1      2913 1.40907E+02 3.01375E+01 0.00000E+00
 -1      2914 1.40907E+02 2.86875E+01 0.00000E+00
 -1      2915 1.39608E+02 2.79500E+01 0.00000E+00
 -1      2916 1.40907E+02 3.30875E+01 0.00000E+00
 -1      2917 1.40907E+02 3.16125E+01 0.00000E+00
 -1      2918 1.39608E+02 3.08750E+01 0.00000E+00
 -1      2919 1.40907E+02 3.60375E+01 0.00000E+00
 -1      2920 1.40907E+02 3.45625E+01 0.00000E+00
 -1      2921 1.39608E+02 3.38250E+01 0.00000E+00
 -1      2922 1.28713E+02 3.42162E+01 0.00000E+00
 -1      2923 1.28362E+02 3.51865E+01 0.00000E+00
 -1      2924 1.28954E+02 3.59680E+01 0.00000E+00
 -1      2925 1.28466E+02 2.89336E+01 0.00000E+00
 -1      2926 1.28825E+02 3.02237E+01 0.00000E+00
 -1      2927 7.85850E+00 3.92077E+01 0.00000E+00
 -1      2928 1.29135E+02 3.17132E+01 0.00000E+00
 -1      2929 1.29087E+02 3.28868E+01 0.00000E+00
 -1      2930 1.07684E+02 2.40463E+01 0.00000E+00
 -1      2931 1.08167E+02 2.33601E+01 0.00000E+00
 -1      2932 1.40907E+02 2.42875E+01 0.00000E+00
 -1      2933 1.40907E+02 2.28125E+01 0.00000E+00
 -1      2934 1.39608E+02 2.50250E+01 0.00000E+00
 -1      2935 1.24119E+02 4.19053E+01 0.00000E+00
 -1      2936 1.27237E+02 2.65245E+01 0.00000E+00
 -1      2937 1.27858E+02 2.75860E+01 0.00000E+00
 -1      2938 1.19765E+02 2.03449E+01 0.00000E+00
 -1      2939 1.21075E+02 2.06411E+01 0.00000E+00
 -1      2940 9.09300E+00 1.68813E+01 0.00000E+00
 -1      2941 9.09300E+00 1.83563E+01 0.00000E+00
 -1      2942 1.03920E+01 1.90812E+01 0.00000E+00
 -1      2943 1.03920E+01 1.61437E+01 0.00000E+00
 -1      2944 1.05524E+02 2.84563E+01 0.00000E+00
 -1      2945 1.05958E+02 2.73491E+01 0.00000E+00
 -1      2946 1.06455E+02 2.62053E+01 0.00000E+00
 -1      2947 1.07069E+02 2.51258E+01 0.00000E+00
 -1      2948 1.06473E+02 2.41922E+01 0.00000E+00
 -1      2949 9.09300E+00 3.15875E+01 0.00000E+00
 -1      2950 9.09300E+00 3.30625E+01 0.00000E+00
 -1      2951 1.14604E+02 1.99897E+01 0.00000E+00
 -1      2952 1.15623E+02 1.98951E+01 0.00000E+00
 -1      2953 1.06776E+02 3.81054E+01 0.00000E+00
 -1      2954 1.06429E+02 3.69755E+01 0.00000E+00
 -1      2955 1.11994E+02 2.09064E+01 0.00000E+00
 -1      2956 1.13182E+02 2.03820E+01 0.00000E+00
 -1      2957 1.05135E+02 3.08958E+01 0.00000E+00
 -1      2958 1.05325E+02 2.97806E+01 0.00000E+00
 -1      2959 1.24593E+02 2.27786E+01 0.00000E+00
 -1      2960 1.25433E+02 2.37436E+01 0.00000E+00
 -1      2961 1.08193E+02 4.01949E+01 0.00000E+00
 -1      2962 1.07464E+02 3.94075E+01 0.00000E+00
 -1      2963 1.04791E+02 3.33607E+01 0.00000E+00
 -1      2964 1.04782E+02 3.21817E+01 0.00000E+00
 -1      2965 1.16963E+02 1.98865E+01 0.00000E+00
 -1      2966 1.18310E+02 1.99688E+01 0.00000E+00
 -1      2967 1.25901E+02 4.00760E+01 0.00000E+00
 -1      2968 1.24921E+02 4.10515E+01 0.00000E+00
 -1      2969 1.25302E+02 4.17323E+01 0.00000E+00
 -1      2970 1.26906E+02 4.00246E+01 0.00000E+00
 -1      2971 2.61240E+01 8.68250E+00 0.00000E+00
 -1      2972 2.46240E+01 8.68250E+00 0.00000E+00
 -1      2973 2.38740E+01 9.98150E+00 0.00000E+00
 -1      2974 2.68740E+01 9.98150E+00 0.00000E+00
 -1      2975 1.03920E+01 2.49750E+01 0.00000E+00
 -1      2976 9.09300E+00 2.57000E+01 0.00000E+00
 -1      2977 9.09300E+00 2.71750E+01 0.00000E+00
 -1      2978 9.00375E+00 8.96981E+00 0.00000E+00
 -1      2979 1.22033E+02 2.02509E+01 0.00000E+00
 -1      2980 1.22991E+02 1.98607E+01 0.00000E+00
 -1      2981 1.21567E+02 1.92663E+01 0.00000E+00
 -1      2982 1.16359E+02 1.89130E+01 0.00000E+00
 -1      2983 1.28155E+02 3.80545E+01 0.00000E+00
 -1      2984 1.27618E+02 2.56610E+01 0.00000E+00
 -1      2985 1.04136E+02 3.86938E+01 0.00000E+00
 -1      2986 1.04886E+02 3.99928E+01 0.00000E+00
 -1      2987 1.07074E+02 4.12949E+01 0.00000E+00
 -1      2988 1.08574E+02 4.14012E+01 0.00000E+00
 -1      2989 1.05362E+02 2.64155E+01 0.00000E+00
 -1      2990 1.06386E+02 3.99928E+01 0.00000E+00
 -1      2991 1.26802E+02 4.17323E+01 0.00000E+00
 -1      2992 1.39608E+02 2.20750E+01 0.00000E+00
 -1      2993 9.09300E+00 3.45313E+01 0.00000E+00
 -1      2994 9.09300E+00 3.60000E+01 0.00000E+00
 -1      2995 1.03920E+01 3.37938E+01 0.00000E+00
 -1      2996 1.29678E+02 3.36683E+01 0.00000E+00
 -1      2997 1.41014E+02 3.84339E+01 0.00000E+00
 -1      2998 1.41027E+02 3.71544E+01 0.00000E+00
 -1      2999 1.39728E+02 3.64169E+01 0.00000E+00
 -1      3000 1.39969E+02 3.86506E+01 0.00000E+00
 -1      3001 1.48740E+01 9.98151E+00 0.00000E+00
 -1      3002 1.41240E+01 8.68251E+00 0.00000E+00
 -1      3003 1.30515E+01 8.34733E+00 0.00000E+00
 -1      3004 1.28823E+02 2.80122E+01 0.00000E+00
 -1      3005 1.29789E+02 2.84383E+01 0.00000E+00
 -1      3006 1.29181E+02 2.70907E+01 0.00000E+00
 -1      3007 8.85168E+00 4.05347E+01 0.00000E+00
 -1      3008 1.02152E+01 4.07987E+01 0.00000E+00
 -1      3009 1.04550E+02 3.41022E+01 0.00000E+00
 -1      3010 1.03520E+02 3.35211E+01 0.00000E+00
 -1      3011 1.04309E+02 3.48438E+01 0.00000E+00
 -1      3012 1.05581E+02 3.66023E+01 0.00000E+00
 -1      3013 1.08416E+02 2.23752E+01 0.00000E+00
 -1      3014 1.08665E+02 2.13903E+01 0.00000E+00
 -1      3015 1.07336E+02 2.21278E+01 0.00000E+00
 -1      3016 1.29741E+02 3.08493E+01 0.00000E+00
 -1      3017 1.09568E+02 4.12123E+01 0.00000E+00
 -1      3018 1.24590E+02 2.17441E+01 0.00000E+00
 -1      3019 1.04114E+02 3.14936E+01 0.00000E+00
 -1      3020 1.10959E+02 2.06721E+01 0.00000E+00
 -1      3021 1.03027E+01 9.70731E+00 0.00000E+00
 -1      3022 1.13596E+02 1.93140E+01 0.00000E+00
 -1      3023 1.19154E+02 1.92805E+01 0.00000E+00
 -1      3024 9.09300E+00 2.86437E+01 0.00000E+00
 -1      3025 9.09300E+00 3.01187E+01 0.00000E+00
 -1      3026 1.03920E+01 3.08563E+01 0.00000E+00
 -1      3027 1.03920E+01 2.79188E+01 0.00000E+00
 -1      3028 1.09652E+01 3.94997E+01 0.00000E+00
 -1      3029 1.26372E+02 2.36502E+01 0.00000E+00
 -1      3030 1.04666E+02 2.88835E+01 0.00000E+00
 -1      3031 1.27552E+02 4.05396E+01 0.00000E+00
 -1      3032 1.16910E+01 1.24625E+01 0.00000E+00
 -1      3033 1.16910E+01 1.39375E+01 0.00000E+00
 -1      3034 1.14712E+01 7.20138E+00 0.00000E+00
 -1      3035 1.02805E+02 3.82497E+01 0.00000E+00
 -1      3036 1.04491E+02 3.73355E+01 0.00000E+00
 -1      3037 1.24765E+02 2.03603E+01 0.00000E+00
 -1      3038 1.25898E+02 2.12592E+01 0.00000E+00
 -1      3039 1.04173E+02 2.65787E+01 0.00000E+00
 -1      3040 1.04670E+02 2.54350E+01 0.00000E+00
 -1      3041 1.10473E+02 4.20295E+01 0.00000E+00
 -1      3042 1.59000E+01 3.83090E+01 0.00000E+00
 -1      3043 1.74000E+01 3.83090E+01 0.00000E+00
 -1      3044 1.89000E+01 3.83090E+01 0.00000E+00
 -1      3045 2.04000E+01 3.83090E+01 0.00000E+00
 -1      3046 1.81500E+01 3.70100E+01 0.00000E+00
 -1      3047 2.19000E+01 3.83090E+01 0.00000E+00
 -1      3048 2.34000E+01 3.83090E+01 0.00000E+00
 -1      3049 2.11500E+01 3.70100E+01 0.00000E+00
 -1      3050 2.49000E+01 3.83090E+01 0.00000E+00
 -1      3051 2.64000E+01 3.83090E+01 0.00000E+00
 -1      3052 2.41500E+01 3.70100E+01 0.00000E+00
 -1      3053 2.79000E+01 3.83090E+01 0.00000E+00
 -1      3054 2.94000E+01 3.83090E+01 0.00000E+00
 -1      3055 2.71500E+01 3.70100E+01 0.00000E+00
 -1      3056 3.09000E+01 3.83090E+01 0.00000E+00
 -1      3057 3.24000E+01 3.83090E+01 0.00000E+00
 -1      3058 3.01500E+01 3.70100E+01 0.00000E+00
 -1      3059 3.39750E+01 3.83090E+01 0.00000E+00
 -1      3060 3.55500E+01 3.83090E+01 0.00000E+00
 -1      3061 3.32250E+01 3.70100E+01 0.00000E+00
 -1      3062 3.70500E+01 3.83090E+01 0.00000E+00
 -1      3063 3.85500E+01 3.83090E+01 0.00000E+00
 -1      3064 3.63000E+01 3.70100E+01 0.00000E+00
 -1      3065 4.00500E+01 3.83090E+01 0.00000E+00
 -1      3066 4.15500E+01 3.83090E+01 0.00000E+00
 -1      3067 3.93000E+01 3.70100E+01 0.00000E+00
 -1      3068 4.30500E+01 3.83090E+01 0.00000E+00
 -1      3069 4.45500E+01 3.83090E+01 0.00000E+00
 -1      3070 4.23000E+01 3.70100E+01 0.00000E+00
 -1      3071 4.60500E+01 3.83090E+01 0.00000E+00
 -1      3072 4.75500E+01 3.83090E+01 0.00000E+00
 -1      3073 4.53000E+01 3.70100E+01 0.00000E+00
 -1      3074 4.90500E+01 3.83090E+01 0.00000E+00
 -1      3075 5.05500E+01 3.83090E+01 0.00000E+00
 -1      3076 4.83000E+01 3.70100E+01 0.00000E+00
 -1      3077 5.20500E+01 3.83090E+01 0.00000E+00
 -1      3078 5.35500E+01 3.83090E+01 0.00000E+00
 -1      3079 5.13000E+01 3.70100E+01 0.00000E+00
 -1      3080 5.50500E+01 3.83090E+01 0.00000E+00
 -1      3081 5.65500E+01 3.83090E+01 0.00000E+00
 -1      3082 5.43000E+01 3.70100E+01 0.00000E+00
 -1      3083 5.80500E+01 3.83090E+01 0.00000E+00
 -1      3084 5.95500E+01 3.83090E+01 0.00000E+00
 -1      3085 5.73000E+01 3.70100E+01 0.00000E+00
 -1      3086 6.10500E+01 3.83090E+01 0.00000E+00
 -1      3087 6.25500E+01 3.83090E+01 0.00000E+00
 -1      3088 6.03000E+01 3.70100E+01 0.00000E+00
 -1      3089 6.40500E+01 3.83090E+01 0.00000E+00
 -1      3090 6.55500E+01 3.83090E+01 0.00000E+00
 -1      3091 6.33000E+01 3.70100E+01 0.00000E+00
 -1      3092 6.70500E+01 3.83090E+01 0.00000E+00
 -1      3093 6.85500E+01 3.83090E+01 0.00000E+00
 -1      3094 6.63000E+01 3.70100E+01 0.00000E+00
 -1      3095 7.00500E+01 3.83090E+01 0.00000E+00
 -1      3096 7.15500E+01 3.83090E+01 0.00000E+00
 -1      3097 6.93000E+01 3.70100E+01 0.00000E+00
 -1      3098 7.31250E+01 3.83090E+01 0.00000E+00
 -1      3099 7.47000E+01 3.83090E+01 0.00000E+00
 -1      3100 7.23750E+01 3.70100E+01 0.00000E+00
 -1      3101 7.62000E+01 3.83090E+01 0.00000E+00
 -1      3102 7.77000E+01 3.83090E+01 0.00000E+00
 -1      3103 7.54500E+01 3.70100E+01 0.00000E+00
 -1      3104 7.92000E+01 3.83090E+01 0.00000E+00
 -1      3105 8.07000E+01 3.83090E+01 0.00000E+00
 -1      3106 7.84500E+01 3.70100E+01 0.00000E+00
 -1      3107 8.22000E+01 3.83090E+01 0.00000E+00
 -1      3108 8.37000E+01 3.83090E+01 0.00000E+00
 -1      3109 8.14500E+01 3.70100E+01 0.00000E+00
 -1      3110 8.52000E+01 3.83090E+01 0.00000E+00
 -1      3111 8.67000E+01 3.83090E+01 0.00000E+00
 -1      3112 8.44500E+01 3.70100E+01 0.00000E+00
 -1      3113 8.82000E+01 3.83090E+01 0.00000E+00
 -1      3114 8.97000E+01 3.83090E+01 0.00000E+00
 -1      3115 8.74500E+01 3.70100E+01 0.00000E+00
 -1      3116 9.12000E+01 3.83090E+01 0.00000E+00
 -1      3117 9.27000E+01 3.83090E+01 0.00000E+00
 -1      3118 9.04500E+01 3.70100E+01 0.00000E+00
 -1      3119 9.42000E+01 3.83090E+01 0.00000E+00
 -1      3120 9.57000E+01 3.83090E+01 0.00000E+00
 -1      3121 9.34500E+01 3.70100E+01 0.00000E+00
 -1      3122 9.72000E+01 3.83090E+01 0.00000E+00
 -1      3123 9.87000E+01 3.83090E+01 0.00000E+00
 -1      3124 9.64500E+01 3.70100E+01 0.00000E+00
 -1      3125 1.00002E+02 3.82794E+01 0.00000E+00
 -1      3126 1.01502E+02 3.82794E+01 0.00000E+00
 -1      3127 1.01857E+02 3.69210E+01 0.00000E+00
 -1      3128 9.92523E+01 3.69804E+01 0.00000E+00
 -1      3129 1.28345E+02 2.45497E+01 0.00000E+00
 -1      3130 1.28942E+02 2.55532E+01 0.00000E+00
 -1      3131 1.04910E+01 3.81519E+01 0.00000E+00
 -1      3132 1.16758E+01 3.82602E+01 0.00000E+00
 -1      3133 1.32750E+02 3.89018E+01 0.00000E+00
 -1      3134 1.34250E+02 3.89018E+01 0.00000E+00
 -1      3135 1.35750E+02 3.89018E+01 0.00000E+00
 -1      3136 1.37250E+02 3.89018E+01 0.00000E+00
 -1      3137 1.35000E+02 3.76028E+01 0.00000E+00
 -1      3138 2.16240E+01 1.12805E+01 0.00000E+00
 -1      3139 2.01240E+01 1.12805E+01 0.00000E+00
 -1      3140 1.86240E+01 1.12805E+01 0.00000E+00
 -1      3141 1.71240E+01 1.12805E+01 0.00000E+00
 -1      3142 1.93740E+01 1.25795E+01 0.00000E+00
 -1      3143 3.36240E+01 1.12805E+01 0.00000E+00
 -1      3144 3.21240E+01 1.12805E+01 0.00000E+00
 -1      3145 3.06240E+01 1.12805E+01 0.00000E+00
 -1      3146 2.91240E+01 1.12805E+01 0.00000E+00
 -1      3147 3.13740E+01 1.25795E+01 0.00000E+00
 -1      3148 3.96240E+01 1.12805E+01 0.00000E+00
 -1      3149 3.81240E+01 1.12805E+01 0.00000E+00
 -1      3150 4.26240E+01 1.12805E+01 0.00000E+00
 -1      3151 4.11240E+01 1.12805E+01 0.00000E+00
 -1      3152 4.03740E+01 1.25795E+01 0.00000E+00
 -1      3153 4.56240E+01 1.12805E+01 0.00000E+00
 -1      3154 4.41240E+01 1.12805E+01 0.00000E+00
 -1      3155 4.33740E+01 1.25795E+01 0.00000E+00
 -1      3156 4.86240E+01 1.12805E+01 0.00000E+00
 -1      3157 4.71240E+01 1.12805E+01 0.00000E+00
 -1      3158 4.63740E+01 1.25795E+01 0.00000E+00
 -1      3159 5.16240E+01 1.12805E+01 0.00000E+00
 -1      3160 5.01240E+01 1.12805E+01 0.00000E+00
 -1      3161 4.93740E+01 1.25795E+01 0.00000E+00
 -1      3162 5.46240E+01 1.12805E+01 0.00000E+00
 -1      3163 5.31240E+01 1.12805E+01 0.00000E+00
 -1      3164 5.23740E+01 1.25795E+01 0.00000E+00
 -1      3165 5.76240E+01 1.12805E+01 0.00000E+00
 -1      3166 5.61240E+01 1.12805E+01 0.00000E+00
 -1      3167 5.53740E+01 1.25795E+01 0.00000E+00
 -1      3168 6.06240E+01 1.12805E+01 0.00000E+00
 -1      3169 5.91240E+01 1.12805E+01 0.00000E+00
 -1      3170 5.83740E+01 1.25795E+01 0.00000E+00
 -1      3171 6.36240E+01 1.12805E+01 0.00000E+00
 -1      3172 6.21240E+01 1.12805E+01 0.00000E+00
 -1      3173 6.13740E+01 1.25795E+01 0.00000E+00
 -1      3174 6.66240E+01 1.12805E+01 0.00000E+00
 -1      3175 6.51240E+01 1.12805E+01 0.00000E+00
 -1      3176 6.43740E+01 1.25795E+01 0.00000E+00
 -1      3177 6.96240E+01 1.12805E+01 0.00000E+00
 -1      3178 6.81240E+01 1.12805E+01 0.00000E+00
 -1      3179 6.73740E+01 1.25795E+01 0.00000E+00
 -1      3180 7.26240E+01 1.12805E+01 0.00000E+00
 -1      3181 7.11240E+01 1.12805E+01 0.00000E+00
 -1      3182 7.03740E+01 1.25795E+01 0.00000E+00
 -1      3183 7.56240E+01 1.12805E+01 0.00000E+00
 -1      3184 7.41240E+01 1.12805E+01 0.00000E+00
 -1      3185 7.33740E+01 1.25795E+01 0.00000E+00
 -1      3186 7.86240E+01 1.12805E+01 0.00000E+00
 -1      3187 7.71240E+01 1.12805E+01 0.00000E+00
 -1      3188 7.63740E+01 1.25795E+01 0.00000E+00
 -1      3189 8.16240E+01 1.12805E+01 0.00000E+00
 -1      3190 8.01240E+01 1.12805E+01 0.00000E+00
 -1      3191 7.93740E+01 1.25795E+01 0.00000E+00
 -1      3192 8.46240E+01 1.12805E+01 0.00000E+00
 -1      3193 8.31240E+01 1.12805E+01 0.00000E+00
 -1      3194 8.23740E+01 1.25795E+01 0.00000E+00
 -1      3195 8.76240E+01 1.12805E+01 0.00000E+00
 -1      3196 8.61240E+01 1.12805E+01 0.00000E+00
 -1      3197 8.53740E+01 1.25795E+01 0.00000E+00
 -1      3198 9.06240E+01 1.12805E+01 0.00000E+00
 -1      3199 8.91240E+01 1.12805E+01 0.00000E+00
 -1      3200 8.83740E+01 1.25795E+01 0.00000E+00
 -1      3201 9.36240E+01 1.12805E+01 0.00000E+00
 -1      3202 9.21240E+01 1.12805E+01 0.00000E+00
 -1      3203 9.13740E+01 1.25795E+01 0.00000E+00
 -1      3204 9.66240E+01 1.12805E+01 0.00000E+00
 -1      3205 9.51240E+01 1.12805E+01 0.00000E+00
 -1      3206 9.43740E+01 1.25795E+01 0.00000E+00
 -1      3207 9.96240E+01 1.12805E+01 0.00000E+00
 -1      3208 9.81240E+01 1.12805E+01 0.00000E+00
 -1      3209 9.73740E+01 1.25795E+01 0.00000E+00
 -1      3210 1.02624E+02 1.12805E+01 0.00000E+00
 -1      3211 1.01124E+02 1.12805E+01 0.00000E+00
 -1      3212 1.00374E+02 1.25795E+01 0.00000E+00
 -1      3213 1.05624E+02 1.12805E+01 0.00000E+00
 -1      3214 1.04124E+02 1.12805E+01 0.00000E+00
 -1      3215 1.03374E+02 1.25795E+01 0.00000E+00
 -1      3216 1.08624E+02 1.12805E+01 0.00000E+00
 -1      3217 1.07124E+02 1.12805E+01 0.00000E+00
 -1      3218 1.06374E+02 1.25795E+01 0.00000E+00
 -1      3219 1.11624E+02 1.12805E+01 0.00000E+00
 -1      3220 1.10124E+02 1.12805E+01 0.00000E+00
 -1      3221 1.09374E+02 1.25795E+01 0.00000E+00
 -1      3222 1.14624E+02 1.12805E+01 0.00000E+00
 -1      3223 1.13124E+02 1.12805E+01 0.00000E+00
 -1      3224 1.12374E+02 1.25795E+01 0.00000E+00
 -1      3225 1.17624E+02 1.12805E+01 0.00000E+00
 -1      3226 1.16124E+02 1.12805E+01 0.00000E+00
 -1      3227 1.15374E+02 1.25795E+01 0.00000E+00
 -1      3228 1.20624E+02 1.12805E+01 0.00000E+00
 -1      3229 1.19124E+02 1.12805E+01 0.00000E+00
 -1      3230 1.18374E+02 1.25795E+01 0.00000E+00
 -1      3231 1.23624E+02 1.12805E+01 0.00000E+00
 -1      3232 1.22124E+02 1.12805E+01 0.00000E+00
 -1      3233 1.21374E+02 1.25795E+01 0.00000E+00
 -1      3234 1.26624E+02 1.12805E+01 0.00000E+00
 -1      3235 1.25124E+02 1.12805E+01 0.00000E+00
 -1      3236 1.24374E+02 1.25795E+01 0.00000E+00
 -1      3237 1.29624E+02 1.12805E+01 0.00000E+00
 -1      3238 1.28124E+02 1.12805E+01 0.00000E+00
 -1      3239 1.27374E+02 1.25795E+01 0.00000E+00
 -1      3240 1.32624E+02 1.12805E+01 0.00000E+00
 -1      3241 1.31124E+02 1.12805E+01 0.00000E+00
 -1      3242 1.30374E+02 1.25795E+01 0.00000E+00
 -1      3243 1.35624E+02 1.12805E+01 0.00000E+00
 -1      3244 1.34124E+02 1.12805E+01 0.00000E+00
 -1      3245 1.33374E+02 1.25795E+01 0.00000E+00
 -1      3246 1.38226E+02 1.13313E+01 0.00000E+00
 -1      3247 1.36768E+02 1.12454E+01 0.00000E+00
 -1      3248 1.36018E+02 1.25444E+01 0.00000E+00
 -1      3249 1.38305E+02 1.24742E+01 0.00000E+00
 -1      3250 1.38309E+02 3.16125E+01 0.00000E+00
 -1      3251 1.38309E+02 3.01375E+01 0.00000E+00
 -1      3252 1.30771E+02 3.32581E+01 0.00000E+00
 -1      3253 1.30398E+02 3.45876E+01 0.00000E+00
 -1      3254 1.38309E+02 3.45625E+01 0.00000E+00
 -1      3255 1.38309E+02 3.30875E+01 0.00000E+00
 -1      3256 1.37010E+02 3.23500E+01 0.00000E+00
 -1      3257 1.38309E+02 2.86875E+01 0.00000E+00
 -1      3258 1.38309E+02 2.72375E+01 0.00000E+00
 -1      3259 1.37010E+02 2.94250E+01 0.00000E+00
 -1      3260 1.30047E+02 3.55579E+01 0.00000E+00
 -1      3261 1.29696E+02 3.65282E+01 0.00000E+00
 -1      3262 1.31140E+02 3.51478E+01 0.00000E+00
 -1      3263 1.17938E+01 8.83558E+00 0.00000E+00
 -1      3264 8.78718E+00 3.80644E+01 0.00000E+00
 -1      3265 1.28354E+02 3.96858E+01 0.00000E+00
 -1      3266 1.29004E+02 3.88702E+01 0.00000E+00
 -1      3267 1.29651E+02 3.93852E+01 0.00000E+00
 -1      3268 1.31151E+02 3.93852E+01 0.00000E+00
 -1      3269 1.29452E+02 3.77540E+01 0.00000E+00
 -1      3270 1.30590E+02 2.98955E+01 0.00000E+00
 -1      3271 1.30900E+02 3.13850E+01 0.00000E+00
 -1      3272 1.38309E+02 2.57625E+01 0.00000E+00
 -1      3273 1.38309E+02 2.42875E+01 0.00000E+00
 -1      3274 1.37010E+02 2.65000E+01 0.00000E+00
 -1      3275 3.66240E+01 1.12805E+01 0.00000E+00
 -1      3276 3.51240E+01 1.12805E+01 0.00000E+00
 -1      3277 3.43740E+01 1.25795E+01 0.00000E+00
 -1      3278 3.73740E+01 1.25795E+01 0.00000E+00
 -1      3279 1.06511E+02 3.90817E+01 0.00000E+00
 -1      3280 1.15682E+02 1.78922E+01 0.00000E+00
 -1      3281 1.17022E+02 1.78836E+01 0.00000E+00
 -1      3282 1.30379E+01 3.82846E+01 0.00000E+00
 -1      3283 1.45379E+01 3.82846E+01 0.00000E+00
 -1      3284 1.52879E+01 3.69856E+01 0.00000E+00
 -1      3285 1.25638E+01 3.69369E+01 0.00000E+00
 -1      3286 1.03111E+02 3.19095E+01 0.00000E+00
 -1      3287 1.03464E+02 3.06237E+01 0.00000E+00
 -1      3288 1.05202E+02 2.41835E+01 0.00000E+00
 -1      3289 1.05817E+02 2.31040E+01 0.00000E+00
 -1      3290 1.18662E+02 1.81810E+01 0.00000E+00
 -1      3291 1.20117E+02 1.85571E+01 0.00000E+00
 -1      3292 1.03662E+02 2.92994E+01 0.00000E+00
 -1      3293 1.03861E+02 2.79752E+01 0.00000E+00
 -1      3294 1.02659E+02 2.97153E+01 0.00000E+00
 -1      3295 1.18830E+01 1.08533E+01 0.00000E+00
 -1      3296 1.09558E+02 2.01557E+01 0.00000E+00
 -1      3297 1.10772E+02 1.91901E+01 0.00000E+00
 -1      3298 1.16910E+01 2.12875E+01 0.00000E+00
 -1      3299 1.16910E+01 2.27625E+01 0.00000E+00
 -1      3300 1.38309E+02 2.28125E+01 0.00000E+00
 -1      3301 1.38309E+02 2.13375E+01 0.00000E+00
 -1      3302 1.37010E+02 2.35500E+01 0.00000E+00
 -1      3303 1.31820E+01 1.15908E+01 0.00000E+00
 -1      3304 1.12568E+02 1.83605E+01 0.00000E+00
 -1      3305 1.13990E+02 1.79681E+01 0.00000E+00
 -1      3306 1.27046E+02 2.25353E+01 0.00000E+00
 -1      3307 1.27696E+02 2.35425E+01 0.00000E+00
 -1      3308 1.29019E+02 2.34348E+01 0.00000E+00
 -1      3309 1.04249E+02 3.61582E+01 0.00000E+00
 -1      3310 1.21075E+02 1.81669E+01 0.00000E+00
 -1      3311 1.22033E+02 1.77767E+01 0.00000E+00
 -1      3312 1.20583E+02 1.70675E+01 0.00000E+00
 -1      3313 9.49785E+00 3.68250E+01 0.00000E+00
 -1      3314 1.03219E+02 3.55770E+01 0.00000E+00
 -1      3315 1.23833E+02 1.83912E+01 0.00000E+00
 -1      3316 1.24299E+02 1.93757E+01 0.00000E+00
 -1      3317 1.25607E+02 1.88908E+01 0.00000E+00
 -1      3318 1.27221E+02 2.11515E+01 0.00000E+00
 -1      3319 1.04014E+02 2.43467E+01 0.00000E+00
 -1      3320 1.02870E+02 3.26511E+01 0.00000E+00
 -1      3321 1.02219E+02 3.17811E+01 0.00000E+00
 -1      3322 1.02629E+02 3.33927E+01 0.00000E+00
 -1      3323 1.29907E+02 2.59794E+01 0.00000E+00
 -1      3324 1.30947E+02 2.89741E+01 0.00000E+00
 -1      3325 1.32106E+02 2.95098E+01 0.00000E+00
 -1      3326 1.31305E+02 2.80526E+01 0.00000E+00
 -1      3327 1.29900E+01 1.46687E+01 0.00000E+00
 -1      3328 1.16910E+01 1.54063E+01 0.00000E+00
 -1      3329 1.16910E+01 1.68750E+01 0.00000E+00
 -1      3330 1.31901E+02 3.80862E+01 0.00000E+00
 -1      3331 2.31240E+01 1.12805E+01 0.00000E+00
 -1      3332 2.23740E+01 1.25795E+01 0.00000E+00
 -1      3333 2.46240E+01 1.12805E+01 0.00000E+00
 -1      3334 1.38924E+02 3.88672E+01 0.00000E+00
 -1      3335 1.16910E+01 2.42375E+01 0.00000E+00
 -1      3336 1.16910E+01 2.57125E+01 0.00000E+00
 -1      3337 1.29900E+01 2.35000E+01 0.00000E+00
 -1      3338 2.83740E+01 1.25795E+01 0.00000E+00
 -1      3339 2.76240E+01 1.12805E+01 0.00000E+00
 -1      3340 2.61240E+01 1.12805E+01 0.00000E+00
 -1      3341 1.31620E+02 3.23043E+01 0.00000E+00
 -1      3342 1.32339E+02 3.32237E+01 0.00000E+00
 -1      3343 1.32468E+02 3.13506E+01 0.00000E+00
 -1      3344 1.11166E+02 1.78441E+01 0.00000E+00
 -1      3345 1.38309E+02 1.98687E+01 0.00000E+00
 -1      3346 1.38309E+02 1.84000E+01 0.00000E+00
 -1      3347 1.37010E+02 2.06063E+01 0.00000E+00
 -1      3348 1.16910E+01 3.30594E+01 0.00000E+00
 -1      3349 1.16910E+01 3.45281E+01 0.00000E+00
 -1      3350 1.30545E+02 3.73438E+01 0.00000E+00
 -1      3351 1.56240E+01 1.12805E+01 0.00000E+00
 -1      3352 1.41241E+01 1.12805E+01 0.00000E+00
 -1      3353 1.38174E+02 3.75682E+01 0.00000E+00
 -1      3354 1.38054E+02 3.64514E+01 0.00000E+00
 -1      3355 1.39320E+01 1.28898E+01 0.00000E+00
 -1      3356 1.38309E+02 1.69312E+01 0.00000E+00
 -1      3357 1.38309E+02 1.54625E+01 0.00000E+00
 -1      3358 1.37010E+02 1.76688E+01 0.00000E+00
 -1      3359 1.06066E+02 2.21191E+01 0.00000E+00
 -1      3360 1.06314E+02 2.11341E+01 0.00000E+00
 -1      3361 1.04795E+02 2.21103E+01 0.00000E+00
 -1      3362 1.07968E+01 3.60875E+01 0.00000E+00
 -1      3363 1.38385E+02 1.36172E+01 0.00000E+00
 -1      3364 1.17985E+02 1.71602E+01 0.00000E+00
 -1      3365 1.14654E+02 1.69387E+01 0.00000E+00
 -1      3366 1.36755E+02 3.57139E+01 0.00000E+00
 -1      3367 1.16910E+01 1.83469E+01 0.00000E+00
 -1      3368 1.16910E+01 1.98156E+01 0.00000E+00
 -1      3369 1.29900E+01 2.05531E+01 0.00000E+00
 -1      3370 1.29900E+01 1.76094E+01 0.00000E+00
 -1      3371 1.37086E+02 1.43547E+01 0.00000E+00
 -1      3372 1.08478E+02 1.99083E+01 0.00000E+00
 -1      3373 1.03169E+02 2.69946E+01 0.00000E+00
 -1      3374 1.16910E+01 3.01219E+01 0.00000E+00
 -1      3375 1.16910E+01 3.15906E+01 0.00000E+00
 -1      3376 1.29900E+01 3.23250E+01 0.00000E+00
 -1      3377 1.63740E+01 1.25795E+01 0.00000E+00
 -1      3378 1.02213E+02 3.58140E+01 0.00000E+00
 -1      3379 1.02273E+02 3.44997E+01 0.00000E+00
 -1      3380 1.01622E+02 3.36297E+01 0.00000E+00
 -1      3381 1.00910E+02 3.58437E+01 0.00000E+00
 -1      3382 2.04000E+01 3.57110E+01 0.00000E+00
 -1      3383 2.19000E+01 3.57110E+01 0.00000E+00
 -1      3384 2.34000E+01 3.57110E+01 0.00000E+00
 -1      3385 2.49000E+01 3.57110E+01 0.00000E+00
 -1      3386 2.26500E+01 3.44120E+01 0.00000E+00
 -1      3387 2.64000E+01 3.57110E+01 0.00000E+00
 -1      3388 2.79000E+01 3.57110E+01 0.00000E+00
 -1      3389 2.56500E+01 3.44120E+01 0.00000E+00
 -1      3390 2.94000E+01 3.57110E+01 0.00000E+00
 -1      3391 3.09000E+01 3.57110E+01 0.00000E+00
 -1      3392 2.86500E+01 3.44120E+01 0.00000E+00
 -1      3393 3.24750E+01 3.57110E+01 0.00000E+00
 -1      3394 3.40500E+01 3.57110E+01 0.00000E+00
 -1      3395 3.17250E+01 3.44120E+01 0.00000E+00
 -1      3396 3.55500E+01 3.57110E+01 0.00000E+00
 -1      3397 3.70500E+01 3.57110E+01 0.00000E+00
 -1      3398 3.48000E+01 3.44120E+01 0.00000E+00
 -1      3399 3.85500E+01 3.57110E+01 0.00000E+00
 -1      3400 4.00500E+01 3.57110E+01 0.00000E+00
 -1      3401 3.78000E+01 3.44120E+01 0.00000E+00
 -1      3402 4.15500E+01 3.57110E+01 0.00000E+00
 -1      3403 4.30500E+01 3.57110E+01 0.00000E+00
 -1      3404 4.08000E+01 3.44120E+01 0.00000E+00
 -1      3405 4.45500E+01 3.57110E+01 0.00000E+00
 -1      3406 4.60500E+01 3.57110E+01 0.00000E+00
 -1      3407 4.38000E+01 3.44120E+01 0.00000E+00
 -1      3408 4.75500E+01 3.57110E+01 0.00000E+00
 -1      3409 4.90500E+01 3.57110E+01 0.00000E+00
 -1      3410 4.68000E+01 3.44120E+01 0.00000E+00
 -1      3411 5.05500E+01 3.57110E+01 0.00000E+00
 -1      3412 5.20500E+01 3.57110E+01 0.00000E+00
 -1      3413 4.98000E+01 3.44120E+01 0.00000E+00
 -1      3414 5.35500E+01 3.57110E+01 0.00000E+00
 -1      3415 5.50500E+01 3.57110E+01 0.00000E+00
 -1      3416 5.28000E+01 3.44120E+01 0.00000E+00
 -1      3417 5.65500E+01 3.57110E+01 0.00000E+00
 -1      3418 5.80500E+01 3.57110E+01 0.00000E+00
 -1      3419 5.58000E+01 3.44120E+01 0.00000E+00
 -1      3420 5.95500E+01 3.57110E+01 0.00000E+00
 -1      3421 6.10500E+01 3.57110E+01 0.00000E+00
 -1      3422 5.88000E+01 3.44120E+01 0.00000E+00
 -1      3423 6.25500E+01 3.57110E+01 0.00000E+00
 -1      3424 6.40500E+01 3.57110E+01 0.00000E+00
 -1      3425 6.18000E+01 3.44120E+01 0.00000E+00
 -1      3426 6.55500E+01 3.57110E+01 0.00000E+00
 -1      3427 6.70500E+01 3.57110E+01 0.00000E+00
 -1      3428 6.48000E+01 3.44120E+01 0.00000E+00
 -1      3429 6.85500E+01 3.57110E+01 0.00000E+00
 -1      3430 7.00500E+01 3.57110E+01 0.00000E+00
 -1      3431 6.78000E+01 3.44120E+01 0.00000E+00
 -1      3432 7.16250E+01 3.57110E+01 0.00000E+00
 -1      3433 7.32000E+01 3.57110E+01 0.00000E+00
 -1      3434 7.08750E+01 3.44120E+01 0.00000E+00
 -1      3435 7.47000E+01 3.57110E+01 0.00000E+00
 -1      3436 7.62000E+01 3.57110E+01 0.00000E+00
 -1      3437 7.39500E+01 3.44120E+01 0.00000E+00
 -1      3438 7.77000E+01 3.57110E+01 0.00000E+00
 -1      3439 7.92000E+01 3.57110E+01 0.00000E+00
 -1      3440 7.69500E+01 3.44120E+01 0.00000E+00
 -1      3441 8.07000E+01 3.57110E+01 0.00000E+00
 -1      3442 8.22000E+01 3.57110E+01 0.00000E+00
 -1      3443 7.99500E+01 3.44120E+01 0.00000E+00
 -1      3444 8.37000E+01 3.57110E+01 0.00000E+00
 -1      3445 8.52000E+01 3.57110E+01 0.00000E+00
 -1      3446 8.29500E+01 3.44120E+01 0.00000E+00
 -1      3447 8.67000E+01 3.57110E+01 0.00000E+00
 -1      3448 8.82000E+01 3.57110E+01 0.00000E+00
 -1      3449 8.59500E+01 3.44120E+01 0.00000E+00
 -1      3450 8.97000E+01 3.57110E+01 0.00000E+00
 -1      3451 9.12000E+01 3.57110E+01 0.00000E+00
 -1      3452 8.89500E+01 3.44120E+01 0.00000E+00
 -1      3453 9.27000E+01 3.57110E+01 0.00000E+00
 -1      3454 9.42000E+01 3.57110E+01 0.00000E+00
 -1      3455 9.19500E+01 3.44120E+01 0.00000E+00
 -1      3456 9.57000E+01 3.57110E+01 0.00000E+00
 -1      3457 9.72000E+01 3.57110E+01 0.00000E+00
 -1      3458 9.49500E+01 3.44120E+01 0.00000E+00
 -1      3459 2.01240E+01 1.38785E+01 0.00000E+00
 -1      3460 1.86240E+01 1.38785E+01 0.00000E+00
 -1      3461 1.35942E+02 1.43897E+01 0.00000E+00
 -1      3462 4.41240E+01 1.38785E+01 0.00000E+00
 -1      3463 4.26240E+01 1.38785E+01 0.00000E+00
 -1      3464 4.11240E+01 1.38785E+01 0.00000E+00
 -1      3465 3.96240E+01 1.38785E+01 0.00000E+00
 -1      3466 4.18740E+01 1.51775E+01 0.00000E+00
 -1      3467 5.01240E+01 1.38785E+01 0.00000E+00
 -1      3468 4.86240E+01 1.38785E+01 0.00000E+00
 -1      3469 5.31240E+01 1.38785E+01 0.00000E+00
 -1      3470 5.16240E+01 1.38785E+01 0.00000E+00
 -1      3471 5.08740E+01 1.51775E+01 0.00000E+00
 -1      3472 5.61240E+01 1.38785E+01 0.00000E+00
 -1      3473 5.46240E+01 1.38785E+01 0.00000E+00
 -1      3474 5.38740E+01 1.51775E+01 0.00000E+00
 -1      3475 5.91240E+01 1.38785E+01 0.00000E+00
 -1      3476 5.76240E+01 1.38785E+01 0.00000E+00
 -1      3477 5.68740E+01 1.51775E+01 0.00000E+00
 -1      3478 6.21240E+01 1.38785E+01 0.00000E+00
 -1      3479 6.06240E+01 1.38785E+01 0.00000E+00
 -1      3480 5.98740E+01 1.51775E+01 0.00000E+00
 -1      3481 6.51240E+01 1.38785E+01 0.00000E+00
 -1      3482 6.36240E+01 1.38785E+01 0.00000E+00
 -1      3483 6.28740E+01 1.51775E+01 0.00000E+00
 -1      3484 6.81240E+01 1.38785E+01 0.00000E+00
 -1      3485 6.66240E+01 1.38785E+01 0.00000E+00
 -1      3486 6.58740E+01 1.51775E+01 0.00000E+00
 -1      3487 7.11240E+01 1.38785E+01 0.00000E+00
 -1      3488 6.96240E+01 1.38785E+01 0.00000E+00
 -1      3489 6.88740E+01 1.51775E+01 0.00000E+00
 -1      3490 7.41240E+01 1.38785E+01 0.00000E+00
 -1      3491 7.26240E+01 1.38785E+01 0.00000E+00
 -1      3492 7.18740E+01 1.51775E+01 0.00000E+00
 -1      3493 7.71240E+01 1.38785E+01 0.00000E+00
 -1      3494 7.56240E+01 1.38785E+01 0.00000E+00
 -1      3495 7.48740E+01 1.51775E+01 0.00000E+00
 -1      3496 8.01240E+01 1.38785E+01 0.00000E+00
 -1      3497 7.86240E+01 1.38785E+01 0.00000E+00
 -1      3498 7.78740E+01 1.51775E+01 0.00000E+00
 -1      3499 8.31240E+01 1.38785E+01 0.00000E+00
 -1      3500 8.16240E+01 1.38785E+01 0.00000E+00
 -1      3501 8.08740E+01 1.51775E+01 0.00000E+00
 -1      3502 8.61240E+01 1.38785E+01 0.00000E+00
 -1      3503 8.46240E+01 1.38785E+01 0.00000E+00
 -1      3504 8.38740E+01 1.51775E+01 0.00000E+00
 -1      3505 8.91240E+01 1.38785E+01 0.00000E+00
 -1      3506 8.76240E+01 1.38785E+01 0.00000E+00
 -1      3507 8.68740E+01 1.51775E+01 0.00000E+00
 -1      3508 9.21240E+01 1.38785E+01 0.00000E+00
 -1      3509 9.06240E+01 1.38785E+01 0.00000E+00
 -1      3510 8.98740E+01 1.51775E+01 0.00000E+00
 -1      3511 9.51240E+01 1.38785E+01 0.00000E+00
 -1      3512 9.36240E+01 1.38785E+01 0.00000E+00
 -1      3513 9.28740E+01 1.51775E+01 0.00000E+00
 -1      3514 9.81240E+01 1.38785E+01 0.00000E+00
 -1      3515 9.66240E+01 1.38785E+01 0.00000E+00
 -1      3516 9.58740E+01 1.51775E+01 0.00000E+00
 -1      3517 1.01124E+02 1.38785E+01 0.00000E+00
 -1      3518 9.96240E+01 1.38785E+01 0.00000E+00
 -1      3519 9.88740E+01 1.51775E+01 0.00000E+00
 -1      3520 1.04124E+02 1.38785E+01 0.00000E+00
 -1      3521 1.02624E+02 1.38785E+01 0.00000E+00
 -1      3522 1.01874E+02 1.51775E+01 0.00000E+00
 -1      3523 1.07124E+02 1.38785E+01 0.00000E+00
 -1      3524 1.05624E+02 1.38785E+01 0.00000E+00
 -1      3525 1.04874E+02 1.51775E+01 0.00000E+00
 -1      3526 1.10124E+02 1.38785E+01 0.00000E+00
 -1      3527 1.08624E+02 1.38785E+01 0.00000E+00
 -1      3528 1.07874E+02 1.51775E+01 0.00000E+00
 -1      3529 1.13418E+02 1.47970E+01 0.00000E+00
 -1      3530 1.11918E+02 1.47970E+01 0.00000E+00
 -1      3531 1.16610E+02 1.47211E+01 0.00000E+00
 -1      3532 1.15110E+02 1.47211E+01 0.00000E+00
 -1      3533 1.22208E+02 1.46284E+01 0.00000E+00
 -1      3534 1.20708E+02 1.46284E+01 0.00000E+00
 -1      3535 1.28124E+02 1.38785E+01 0.00000E+00
 -1      3536 1.26624E+02 1.38785E+01 0.00000E+00
 -1      3537 1.31124E+02 1.38785E+01 0.00000E+00
 -1      3538 1.29624E+02 1.38785E+01 0.00000E+00
 -1      3539 1.28874E+02 1.51775E+01 0.00000E+00
 -1      3540 1.34124E+02 1.38785E+01 0.00000E+00
 -1      3541 1.32624E+02 1.38785E+01 0.00000E+00
 -1      3542 1.31874E+02 1.51775E+01 0.00000E+00
 -1      3543 1.71240E+01 1.38785E+01 0.00000E+00
 -1      3544 1.56241E+01 1.38785E+01 0.00000E+00
 -1      3545 1.78740E+01 1.51775E+01 0.00000E+00
 -1      3546 1.32144E+02 3.68604E+01 0.00000E+00
 -1      3547 1.35099E+02 3.30474E+01 0.00000E+00
 -1      3548 1.35099E+02 3.15724E+01 0.00000E+00
 -1      3549 1.34737E+02 2.97317E+01 0.00000E+00
 -1      3550 1.34737E+02 2.82817E+01 0.00000E+00
 -1      3551 1.32417E+02 3.45569E+01 0.00000E+00
 -1      3552 1.32066E+02 3.55272E+01 0.00000E+00
 -1      3553 1.33422E+02 3.62696E+01 0.00000E+00
 -1      3554 1.33266E+02 3.36031E+01 0.00000E+00
 -1      3555 1.47780E+01 1.41185E+01 0.00000E+00
 -1      3556 1.38360E+01 1.44288E+01 0.00000E+00
 -1      3557 1.38360E+01 1.58975E+01 0.00000E+00
 -1      3558 1.55280E+01 1.54175E+01 0.00000E+00
 -1      3559 1.35711E+02 2.42875E+01 0.00000E+00
 -1      3560 1.35711E+02 2.28125E+01 0.00000E+00
 -1      3561 1.01463E+02 3.02130E+01 0.00000E+00
 -1      3562 1.01662E+02 2.88888E+01 0.00000E+00
 -1      3563 1.30884E+02 2.50407E+01 0.00000E+00
 -1      3564 1.31123E+02 2.65781E+01 0.00000E+00
 -1      3565 1.34555E+02 2.68072E+01 0.00000E+00
 -1      3566 1.34555E+02 2.53322E+01 0.00000E+00
 -1      3567 1.06997E+02 1.97777E+01 0.00000E+00
 -1      3568 1.07890E+02 1.85431E+01 0.00000E+00
 -1      3569 1.16910E+01 2.71844E+01 0.00000E+00
 -1      3570 1.16910E+01 2.86531E+01 0.00000E+00
 -1      3571 1.29900E+01 2.93875E+01 0.00000E+00
 -1      3572 4.71240E+01 1.38785E+01 0.00000E+00
 -1      3573 4.56240E+01 1.38785E+01 0.00000E+00
 -1      3574 4.48740E+01 1.51775E+01 0.00000E+00
 -1      3575 4.78740E+01 1.51775E+01 0.00000E+00
 -1      3576 1.74000E+01 3.57110E+01 0.00000E+00
 -1      3577 1.89000E+01 3.57110E+01 0.00000E+00
 -1      3578 1.96500E+01 3.44120E+01 0.00000E+00
 -1      3579 1.19250E+01 3.53200E+01 0.00000E+00
 -1      3580 1.23298E+01 3.61450E+01 0.00000E+00
 -1      3581 1.36919E+01 3.61694E+01 0.00000E+00
 -1      3582 1.32240E+01 3.45856E+01 0.00000E+00
 -1      3583 3.21240E+01 1.38785E+01 0.00000E+00
 -1      3584 3.06240E+01 1.38785E+01 0.00000E+00
 -1      3585 1.18250E+02 1.50186E+01 0.00000E+00
 -1      3586 1.27612E+02 1.96443E+01 0.00000E+00
 -1      3587 1.28761E+02 2.09204E+01 0.00000E+00
 -1      3588 1.01931E+02 2.74511E+01 0.00000E+00
 -1      3589 1.02243E+02 2.60547E+01 0.00000E+00
 -1      3590 1.02650E+02 2.45057E+01 0.00000E+00
 -1      3591 1.03182E+02 2.32543E+01 0.00000E+00
 -1      3592 1.29697E+02 2.22848E+01 0.00000E+00
 -1      3593 1.30347E+02 2.32920E+01 0.00000E+00
 -1      3594 1.35192E+02 1.56888E+01 0.00000E+00
 -1      3595 1.23341E+02 1.72918E+01 0.00000E+00
 -1      3596 1.32281E+02 2.71139E+01 0.00000E+00
 -1      3597 2.16240E+01 1.38785E+01 0.00000E+00
 -1      3598 2.08740E+01 1.51775E+01 0.00000E+00
 -1      3599 2.31240E+01 1.38785E+01 0.00000E+00
 -1      3600 9.84041E+01 3.57922E+01 0.00000E+00
 -1      3601 9.97063E+01 3.57625E+01 0.00000E+00
 -1      3602 1.00062E+02 3.46555E+01 0.00000E+00
 -1      3603 9.76541E+01 3.44932E+01 0.00000E+00
 -1      3604 1.34250E+02 3.64101E+01 0.00000E+00
 -1      3605 1.35750E+02 3.64101E+01 0.00000E+00
 -1      3606 2.53740E+01 1.25795E+01 0.00000E+00
 -1      3607 1.42890E+01 2.27625E+01 0.00000E+00
 -1      3608 1.42890E+01 2.42375E+01 0.00000E+00
 -1      3609 2.91240E+01 1.38785E+01 0.00000E+00
 -1      3610 2.76240E+01 1.38785E+01 0.00000E+00
 -1      3611 2.98740E+01 1.51775E+01 0.00000E+00
 -1      3612 3.36240E+01 1.38785E+01 0.00000E+00
 -1      3613 3.28740E+01 1.51775E+01 0.00000E+00
 -1      3614 3.51240E+01 1.38785E+01 0.00000E+00
 -1      3615 1.11168E+02 1.60960E+01 0.00000E+00
 -1      3616 1.00735E+02 2.79488E+01 0.00000E+00
 -1      3617 1.01412E+02 2.49622E+01 0.00000E+00
 -1      3618 1.19750E+02 1.50186E+01 0.00000E+00
 -1      3619 1.25124E+02 1.38785E+01 0.00000E+00
 -1      3620 1.23624E+02 1.38785E+01 0.00000E+00
 -1      3621 1.09372E+02 1.69256E+01 0.00000E+00
 -1      3622 1.30088E+02 2.07777E+01 0.00000E+00
 -1      3623 1.42890E+01 3.15906E+01 0.00000E+00
 -1      3624 1.42890E+01 3.30594E+01 0.00000E+00
 -1      3625 1.35711E+02 2.13438E+01 0.00000E+00
 -1      3626 1.35711E+02 1.98750E+01 0.00000E+00
 -1      3627 1.34412E+02 2.20812E+01 0.00000E+00
 -1      3628 1.29900E+01 2.64469E+01 0.00000E+00
 -1      3629 1.34172E+02 3.50769E+01 0.00000E+00
 -1      3630 1.31562E+02 2.38907E+01 0.00000E+00
 -1      3631 1.42890E+01 1.98188E+01 0.00000E+00
 -1      3632 1.42890E+01 2.12906E+01 0.00000E+00
 -1      3633 1.55880E+01 2.20281E+01 0.00000E+00
 -1      3634 1.01222E+02 3.09546E+01 0.00000E+00
 -1      3635 1.00225E+02 3.01280E+01 0.00000E+00
 -1      3636 1.00981E+02 3.16961E+01 0.00000E+00
 -1      3637 1.35452E+02 1.85163E+01 0.00000E+00
 -1      3638 1.35452E+02 1.70475E+01 0.00000E+00
 -1      3639 1.33633E+02 1.65362E+01 0.00000E+00
 -1      3640 1.34152E+02 1.92537E+01 0.00000E+00
 -1      3641 1.03431E+02 2.22693E+01 0.00000E+00
 -1      3642 1.03680E+02 2.12844E+01 0.00000E+00
 -1      3643 1.02067E+02 2.24283E+01 0.00000E+00
 -1      3644 1.07892E+02 1.67950E+01 0.00000E+00
 -1      3645 3.81240E+01 1.38785E+01 0.00000E+00
 -1      3646 3.66240E+01 1.38785E+01 0.00000E+00
 -1      3647 3.58740E+01 1.51775E+01 0.00000E+00
 -1      3648 3.88740E+01 1.51775E+01 0.00000E+00
 -1      3649 1.05726E+02 1.97690E+01 0.00000E+00
 -1      3650 1.48649E+01 3.59280E+01 0.00000E+00
 -1      3651 1.62270E+01 3.59524E+01 0.00000E+00
 -1      3652 1.69770E+01 3.46534E+01 0.00000E+00
 -1      3653 1.46309E+01 3.51361E+01 0.00000E+00
 -1      3654 1.26723E+02 1.75264E+01 0.00000E+00
 -1      3655 1.28263E+02 1.72954E+01 0.00000E+00
 -1      3656 1.25874E+02 1.51775E+01 0.00000E+00
 -1      3657 1.36005E+02 3.45212E+01 0.00000E+00
 -1      3658 1.29763E+02 1.72954E+01 0.00000E+00
 -1      3659 2.19000E+01 3.31130E+01 0.00000E+00
 -1      3660 2.34000E+01 3.31130E+01 0.00000E+00
 -1      3661 2.49000E+01 3.31130E+01 0.00000E+00
 -1      3662 2.64000E+01 3.31130E+01 0.00000E+00
 -1      3663 2.41500E+01 3.18140E+01 0.00000E+00
 -1      3664 2.79000E+01 3.31130E+01 0.00000E+00
 -1      3665 2.94000E+01 3.31130E+01 0.00000E+00
 -1      3666 2.71500E+01 3.18140E+01 0.00000E+00
 -1      3667 3.09750E+01 3.31130E+01 0.00000E+00
 -1      3668 3.25500E+01 3.31130E+01 0.00000E+00
 -1      3669 3.02250E+01 3.18140E+01 0.00000E+00
 -1      3670 3.40500E+01 3.31130E+01 0.00000E+00
 -1      3671 3.55500E+01 3.31130E+01 0.00000E+00
 -1      3672 3.33000E+01 3.18140E+01 0.00000E+00
 -1      3673 3.70500E+01 3.31130E+01 0.00000E+00
 -1      3674 3.85500E+01 3.31130E+01 0.00000E+00
 -1      3675 3.63000E+01 3.18140E+01 0.00000E+00
 -1      3676 4.00500E+01 3.31130E+01 0.00000E+00
 -1      3677 4.15500E+01 3.31130E+01 0.00000E+00
 -1      3678 3.93000E+01 3.18140E+01 0.00000E+00
 -1      3679 4.30500E+01 3.31130E+01 0.00000E+00
 -1      3680 4.45500E+01 3.31130E+01 0.00000E+00
 -1      3681 4.23000E+01 3.18140E+01 0.00000E+00
 -1      3682 4.60500E+01 3.31130E+01 0.00000E+00
 -1      3683 4.75500E+01 3.31130E+01 0.00000E+00
 -1      3684 4.53000E+01 3.18140E+01 0.00000E+00
 -1      3685 4.90500E+01 3.31130E+01 0.00000E+00
 -1      3686 5.05500E+01 3.31130E+01 0.00000E+00
 -1      3687 4.83000E+01 3.18140E+01 0.00000E+00
 -1      3688 5.20500E+01 3.31130E+01 0.00000E+00
 -1      3689 5.35500E+01 3.31130E+01 0.00000E+00
 -1      3690 5.13000E+01 3.18140E+01 0.00000E+00
 -1      3691 5.50500E+01 3.31130E+01 0.00000E+00
 -1      3692 5.65500E+01 3.31130E+01 0.00000E+00
 -1      3693 5.43000E+01 3.18140E+01 0.00000E+00
 -1      3694 5.80500E+01 3.31130E+01 0.00000E+00
 -1      3695 5.95500E+01 3.31130E+01 0.00000E+00
 -1      3696 5.73000E+01 3.18140E+01 0.00000E+00
 -1      3697 6.10500E+01 3.31130E+01 0.00000E+00
 -1      3698 6.25500E+01 3.31130E+01 0.00000E+00
 -1      3699 6.03000E+01 3.18140E+01 0.00000E+00
 -1      3700 6.40500E+01 3.31130E+01 0.00000E+00
 -1      3701 6.55500E+01 3.31130E+01 0.00000E+00
 -1      3702 6.33000E+01 3.18140E+01 0.00000E+00
 -1      3703 6.70500E+01 3.31130E+01 0.00000E+00
 -1      3704 6.85500E+01 3.31130E+01 0.00000E+00
 -1      3705 6.63000E+01 3.18140E+01 0.00000E+00
 -1      3706 7.01250E+01 3.31130E+01 0.00000E+00
 -1      3707 7.17000E+01 3.31130E+01 0.00000E+00
 -1      3708 6.93750E+01 3.18140E+01 0.00000E+00
 -1      3709 7.32000E+01 3.31130E+01 0.00000E+00
 -1      3710 7.47000E+01 3.31130E+01 0.00000E+00
 -1      3711 7.24500E+01 3.18140E+01 0.00000E+00
 -1      3712 7.62000E+01 3.31130E+01 0.00000E+00
 -1      3713 7.77000E+01 3.31130E+01 0.00000E+00
 -1      3714 7.54500E+01 3.18140E+01 0.00000E+00
 -1      3715 7.92000E+01 3.31130E+01 0.00000E+00
 -1      3716 8.07000E+01 3.31130E+01 0.00000E+00
 -1      3717 7.84500E+01 3.18140E+01 0.00000E+00
 -1      3718 8.22000E+01 3.31130E+01 0.00000E+00
 -1      3719 8.37000E+01 3.31130E+01 0.00000E+00
 -1      3720 8.14500E+01 3.18140E+01 0.00000E+00
 -1      3721 8.52000E+01 3.31130E+01 0.00000E+00
 -1      3722 8.67000E+01 3.31130E+01 0.00000E+00
 -1      3723 8.44500E+01 3.18140E+01 0.00000E+00
 -1      3724 8.82000E+01 3.31130E+01 0.00000E+00
 -1      3725 8.97000E+01 3.31130E+01 0.00000E+00
 -1      3726 8.74500E+01 3.18140E+01 0.00000E+00
 -1      3727 9.12000E+01 3.31130E+01 0.00000E+00
 -1      3728 9.27000E+01 3.31130E+01 0.00000E+00
 -1      3729 9.04500E+01 3.18140E+01 0.00000E+00
 -1      3730 9.42000E+01 3.31130E+01 0.00000E+00
 -1      3731 9.57000E+01 3.31130E+01 0.00000E+00
 -1      3732 9.34500E+01 3.18140E+01 0.00000E+00
 -1      3733 1.33256E+02 2.45947E+01 0.00000E+00
 -1      3734 2.61240E+01 1.38785E+01 0.00000E+00
 -1      3735 2.46240E+01 1.38785E+01 0.00000E+00
 -1      3736 2.38740E+01 1.51775E+01 0.00000E+00
 -1      3737 2.68740E+01 1.51775E+01 0.00000E+00
 -1      3738 1.04363E+02 1.99280E+01 0.00000E+00
 -1      3739 1.05045E+02 1.85715E+01 0.00000E+00
 -1      3740 1.02999E+02 2.00870E+01 0.00000E+00
 -1      3741 5.46240E+01 1.64765E+01 0.00000E+00
 -1      3742 5.31240E+01 1.64765E+01 0.00000E+00
 -1      3743 5.16240E+01 1.64765E+01 0.00000E+00
 -1      3744 5.01240E+01 1.64765E+01 0.00000E+00
 -1      3745 5.23740E+01 1.77755E+01 0.00000E+00
 -1      3746 6.06240E+01 1.64765E+01 0.00000E+00
 -1      3747 5.91240E+01 1.64765E+01 0.00000E+00
 -1      3748 6.36240E+01 1.64765E+01 0.00000E+00
 -1      3749 6.21240E+01 1.64765E+01 0.00000E+00
 -1      3750 6.13740E+01 1.77755E+01 0.00000E+00
 -1      3751 6.66240E+01 1.64765E+01 0.00000E+00
 -1      3752 6.51240E+01 1.64765E+01 0.00000E+00
 -1      3753 6.43740E+01 1.77755E+01 0.00000E+00
 -1      3754 6.96240E+01 1.64765E+01 0.00000E+00
 -1      3755 6.81240E+01 1.64765E+01 0.00000E+00
 -1      3756 6.73740E+01 1.77755E+01 0.00000E+00
 -1      3757 7.26240E+01 1.64765E+01 0.00000E+00
 -1      3758 7.11240E+01 1.64765E+01 0.00000E+00
 -1      3759 7.03740E+01 1.77755E+01 0.00000E+00
 -1      3760 7.56240E+01 1.64765E+01 0.00000E+00
 -1      3761 7.41240E+01 1.64765E+01 0.00000E+00
 -1      3762 7.33740E+01 1.77755E+01 0.00000E+00
 -1      3763 7.86240E+01 1.64765E+01 0.00000E+00
 -1      3764 7.71240E+01 1.64765E+01 0.00000E+00
 -1      3765 7.63740E+01 1.77755E+01 0.00000E+00
 -1      3766 8.16240E+01 1.64765E+01 0.00000E+00
 -1      3767 8.01240E+01 1.64765E+01 0.00000E+00
 -1      3768 7.93740E+01 1.77755E+01 0.00000E+00
 -1      3769 8.46240E+01 1.64765E+01 0.00000E+00
 -1      3770 8.31240E+01 1.64765E+01 0.00000E+00
 -1      3771 8.23740E+01 1.77755E+01 0.00000E+00
 -1      3772 8.76240E+01 1.64765E+01 0.00000E+00
 -1      3773 8.61240E+01 1.64765E+01 0.00000E+00
 -1      3774 8.53740E+01 1.77755E+01 0.00000E+00
 -1      3775 9.06240E+01 1.64765E+01 0.00000E+00
 -1      3776 8.91240E+01 1.64765E+01 0.00000E+00
 -1      3777 8.83740E+01 1.77755E+01 0.00000E+00
 -1      3778 9.36240E+01 1.64765E+01 0.00000E+00
 -1      3779 9.21240E+01 1.64765E+01 0.00000E+00
 -1      3780 9.13740E+01 1.77755E+01 0.00000E+00
 -1      3781 9.66240E+01 1.64765E+01 0.00000E+00
 -1      3782 9.51240E+01 1.64765E+01 0.00000E+00
 -1      3783 9.43740E+01 1.77755E+01 0.00000E+00
 -1      3784 9.96240E+01 1.64765E+01 0.00000E+00
 -1      3785 9.81240E+01 1.64765E+01 0.00000E+00
 -1      3786 9.73740E+01 1.77755E+01 0.00000E+00
 -1      3787 1.03528E+02 1.69540E+01 0.00000E+00
 -1      3788 1.02028E+02 1.69540E+01 0.00000E+00
 -1      3789 1.05028E+02 1.69540E+01 0.00000E+00
 -1      3790 1.06392E+02 1.67950E+01 0.00000E+00
 -1      3791 9.94283E+01 2.84478E+01 0.00000E+00
 -1      3792 9.96979E+01 2.70101E+01 0.00000E+00
 -1      3793 1.34094E+02 3.37436E+01 0.00000E+00
 -1      3794 1.86240E+01 1.64765E+01 0.00000E+00
 -1      3795 1.71241E+01 1.64765E+01 0.00000E+00
 -1      3796 1.89000E+01 3.31130E+01 0.00000E+00
 -1      3797 2.04000E+01 3.31130E+01 0.00000E+00
 -1      3798 2.11500E+01 3.18140E+01 0.00000E+00
 -1      3799 1.42890E+01 3.01219E+01 0.00000E+00
 -1      3800 1.55880E+01 3.08563E+01 0.00000E+00
 -1      3801 1.42890E+01 2.86531E+01 0.00000E+00
 -1      3802 1.32718E+02 2.28460E+01 0.00000E+00
 -1      3803 9.99519E+01 2.54068E+01 0.00000E+00
 -1      3804 1.00359E+02 2.38579E+01 0.00000E+00
 -1      3805 1.40625E+01 1.71222E+01 0.00000E+00
 -1      3806 1.40625E+01 1.85941E+01 0.00000E+00
 -1      3807 1.53615E+01 1.93316E+01 0.00000E+00
 -1      3808 1.49085E+01 1.68822E+01 0.00000E+00
 -1      3809 1.43970E+01 3.43442E+01 0.00000E+00
 -1      3810 1.32718E+02 2.13773E+01 0.00000E+00
 -1      3811 1.42890E+01 2.57094E+01 0.00000E+00
 -1      3812 1.42890E+01 2.71812E+01 0.00000E+00
 -1      3813 1.55880E+01 2.79156E+01 0.00000E+00
 -1      3814 1.55880E+01 2.49719E+01 0.00000E+00
 -1      3815 1.22958E+02 1.59274E+01 0.00000E+00
 -1      3816 1.32448E+02 1.69158E+01 0.00000E+00
 -1      3817 1.30948E+02 1.69158E+01 0.00000E+00
 -1      3818 1.30337E+02 1.90337E+01 0.00000E+00
 -1      3819 1.32708E+02 1.82746E+01 0.00000E+00
 -1      3820 1.56960E+01 3.36099E+01 0.00000E+00
 -1      3821 1.24757E+02 1.65419E+01 0.00000E+00
 -1      3822 5.76240E+01 1.64765E+01 0.00000E+00
 -1      3823 5.61240E+01 1.64765E+01 0.00000E+00
 -1      3824 5.53740E+01 1.77755E+01 0.00000E+00
 -1      3825 4.26240E+01 1.64765E+01 0.00000E+00
 -1      3826 4.11240E+01 1.64765E+01 0.00000E+00
 -1      3827 1.68690E+01 3.33685E+01 0.00000E+00
 -1      3828 1.76190E+01 3.20695E+01 0.00000E+00
 -1      3829 1.76190E+01 3.06007E+01 0.00000E+00
 -1      3830 9.91477E+01 2.33175E+01 0.00000E+00
 -1      3831 1.00608E+02 2.28729E+01 0.00000E+00
 -1      3832 1.00856E+02 2.18880E+01 0.00000E+00
 -1      3833 9.69041E+01 3.31942E+01 0.00000E+00
 -1      3834 9.81082E+01 3.32753E+01 0.00000E+00
 -1      3835 9.61541E+01 3.18952E+01 0.00000E+00
 -1      3836 3.06240E+01 1.64765E+01 0.00000E+00
 -1      3837 2.91240E+01 1.64765E+01 0.00000E+00
 -1      3838 9.89460E+01 2.99309E+01 0.00000E+00
 -1      3839 9.91871E+01 2.91893E+01 0.00000E+00
 -1      3840 9.81497E+01 2.82506E+01 0.00000E+00
 -1      3841 1.26257E+02 1.65419E+01 0.00000E+00
 -1      3842 4.56240E+01 1.64765E+01 0.00000E+00
 -1      3843 4.41240E+01 1.64765E+01 0.00000E+00
 -1      3844 4.33740E+01 1.77755E+01 0.00000E+00
 -1      3845 1.00344E+02 3.37293E+01 0.00000E+00
 -1      3846 1.00699E+02 3.26223E+01 0.00000E+00
 -1      3847 9.97021E+01 3.17958E+01 0.00000E+00
 -1      3848 9.91395E+01 3.36482E+01 0.00000E+00
 -1      3849 1.34379E+02 3.06531E+01 0.00000E+00
 -1      3850 4.03740E+01 1.77755E+01 0.00000E+00
 -1      3851 3.96240E+01 1.64765E+01 0.00000E+00
 -1      3852 3.81240E+01 1.64765E+01 0.00000E+00
 -1      3853 4.93740E+01 1.77755E+01 0.00000E+00
 -1      3854 4.86240E+01 1.64765E+01 0.00000E+00
 -1      3855 4.71240E+01 1.64765E+01 0.00000E+00
 -1      3856 1.01278E+02 1.82530E+01 0.00000E+00
 -1      3857 3.21240E+01 1.64765E+01 0.00000E+00
 -1      3858 3.13740E+01 1.77755E+01 0.00000E+00
 -1      3859 3.36240E+01 1.64765E+01 0.00000E+00
 -1      3860 2.01240E+01 1.64765E+01 0.00000E+00
 -1      3861 1.93740E+01 1.77755E+01 0.00000E+00
 -1      3862 2.16240E+01 1.64765E+01 0.00000E+00
 -1      3863 5.83740E+01 1.77755E+01 0.00000E+00
 -1      3864 9.86448E+01 2.59058E+01 0.00000E+00
 -1      3865 1.68870E+01 2.42359E+01 0.00000E+00
 -1      3866 1.68870E+01 2.57078E+01 0.00000E+00
 -1      3867 1.31273E+02 2.03981E+01 0.00000E+00
 -1      3868 1.68870E+01 2.12922E+01 0.00000E+00
 -1      3869 1.68870E+01 2.27641E+01 0.00000E+00
 -1      3870 1.81860E+01 2.35000E+01 0.00000E+00
 -1      3871 1.32967E+02 1.96333E+01 0.00000E+00
 -1      3872 1.00595E+02 1.96095E+01 0.00000E+00
 -1      3873 2.64000E+01 3.05150E+01 0.00000E+00
 -1      3874 2.79000E+01 3.05150E+01 0.00000E+00
 -1      3875 2.94750E+01 3.05150E+01 0.00000E+00
 -1      3876 3.10500E+01 3.05150E+01 0.00000E+00
 -1      3877 2.87250E+01 2.92160E+01 0.00000E+00
 -1      3878 3.25500E+01 3.05150E+01 0.00000E+00
 -1      3879 3.40500E+01 3.05150E+01 0.00000E+00
 -1      3880 3.18000E+01 2.92160E+01 0.00000E+00
 -1      3881 3.55500E+01 3.05150E+01 0.00000E+00
 -1      3882 3.70500E+01 3.05150E+01 0.00000E+00
 -1      3883 3.48000E+01 2.92160E+01 0.00000E+00
 -1      3884 3.85500E+01 3.05150E+01 0.00000E+00
 -1      3885 4.00500E+01 3.05150E+01 0.00000E+00
 -1      3886 3.78000E+01 2.92160E+01 0.00000E+00
 -1      3887 4.15500E+01 3.05150E+01 0.00000E+00
 -1      3888 4.30500E+01 3.05150E+01 0.00000E+00
 -1      3889 4.08000E+01 2.92160E+01 0.00000E+00
 -1      3890 4.45500E+01 3.05150E+01 0.00000E+00
 -1      3891 4.60500E+01 3.05150E+01 0.00000E+00
 -1      3892 4.38000E+01 2.92160E+01 0.00000E+00
 -1      3893 4.75500E+01 3.05150E+01 0.00000E+00
 -1      3894 4.90500E+01 3.05150E+01 0.00000E+00
 -1      3895 4.68000E+01 2.92160E+01 0.00000E+00
 -1      3896 5.05500E+01 3.05150E+01 0.00000E+00
 -1      3897 5.20500E+01 3.05150E+01 0.00000E+00
 -1      3898 4.98000E+01 2.92160E+01 0.00000E+00
 -1      3899 5.35500E+01 3.05150E+01 0.00000E+00
 -1      3900 5.50500E+01 3.05150E+01 0.00000E+00
 -1      3901 5.28000E+01 2.92160E+01 0.00000E+00
 -1      3902 5.65500E+01 3.05150E+01 0.00000E+00
 -1      3903 5.80500E+01 3.05150E+01 0.00000E+00
 -1      3904 5.58000E+01 2.92160E+01 0.00000E+00
 -1      3905 5.95500E+01 3.05150E+01 0.00000E+00
 -1      3906 6.10500E+01 3.05150E+01 0.00000E+00
 -1      3907 5.88000E+01 2.92160E+01 0.00000E+00
 -1      3908 6.25500E+01 3.05150E+01 0.00000E+00
 -1      3909 6.40500E+01 3.05150E+01 0.00000E+00
 -1      3910 6.18000E+01 2.92160E+01 0.00000E+00
 -1      3911 6.55500E+01 3.05150E+01 0.00000E+00
 -1      3912 6.70500E+01 3.05150E+01 0.00000E+00
 -1      3913 6.48000E+01 2.92160E+01 0.00000E+00
 -1      3914 6.86250E+01 3.05150E+01 0.00000E+00
 -1      3915 7.02000E+01 3.05150E+01 0.00000E+00
 -1      3916 6.78750E+01 2.92160E+01 0.00000E+00
 -1      3917 7.17000E+01 3.05150E+01 0.00000E+00
 -1      3918 7.32000E+01 3.05150E+01 0.00000E+00
 -1      3919 7.09500E+01 2.92160E+01 0.00000E+00
 -1      3920 7.47000E+01 3.05150E+01 0.00000E+00
 -1      3921 7.62000E+01 3.05150E+01 0.00000E+00
 -1      3922 7.39500E+01 2.92160E+01 0.00000E+00
 -1      3923 7.77000E+01 3.05150E+01 0.00000E+00
 -1      3924 7.92000E+01 3.05150E+01 0.00000E+00
 -1      3925 7.69500E+01 2.92160E+01 0.00000E+00
 -1      3926 8.07000E+01 3.05150E+01 0.00000E+00
 -1      3927 8.22000E+01 3.05150E+01 0.00000E+00
 -1      3928 7.99500E+01 2.92160E+01 0.00000E+00
 -1      3929 8.37000E+01 3.05150E+01 0.00000E+00
 -1      3930 8.52000E+01 3.05150E+01 0.00000E+00
 -1      3931 8.29500E+01 2.92160E+01 0.00000E+00
 -1      3932 8.67000E+01 3.05150E+01 0.00000E+00
 -1      3933 8.82000E+01 3.05150E+01 0.00000E+00
 -1      3934 8.59500E+01 2.92160E+01 0.00000E+00
 -1      3935 8.97000E+01 3.05150E+01 0.00000E+00
 -1      3936 9.12000E+01 3.05150E+01 0.00000E+00
 -1      3937 8.89500E+01 2.92160E+01 0.00000E+00
 -1      3938 9.27000E+01 3.05150E+01 0.00000E+00
 -1      3939 9.42000E+01 3.05150E+01 0.00000E+00
 -1      3940 9.19500E+01 2.92160E+01 0.00000E+00
 -1      3941 6.81240E+01 1.90745E+01 0.00000E+00
 -1      3942 6.66240E+01 1.90745E+01 0.00000E+00
 -1      3943 5.31240E+01 1.90745E+01 0.00000E+00
 -1      3944 5.16240E+01 1.90745E+01 0.00000E+00
 -1      3945 6.51240E+01 1.90745E+01 0.00000E+00
 -1      3946 6.36240E+01 1.90745E+01 0.00000E+00
 -1      3947 6.58740E+01 2.03735E+01 0.00000E+00
 -1      3948 6.21240E+01 1.90745E+01 0.00000E+00
 -1      3949 6.06240E+01 1.90745E+01 0.00000E+00
 -1      3950 6.28740E+01 2.03735E+01 0.00000E+00
 -1      3951 7.11240E+01 1.90745E+01 0.00000E+00
 -1      3952 6.96240E+01 1.90745E+01 0.00000E+00
 -1      3953 6.88740E+01 2.03735E+01 0.00000E+00
 -1      3954 7.41240E+01 1.90745E+01 0.00000E+00
 -1      3955 7.26240E+01 1.90745E+01 0.00000E+00
 -1      3956 7.18740E+01 2.03735E+01 0.00000E+00
 -1      3957 7.71240E+01 1.90745E+01 0.00000E+00
 -1      3958 7.56240E+01 1.90745E+01 0.00000E+00
 -1      3959 7.48740E+01 2.03735E+01 0.00000E+00
 -1      3960 8.01240E+01 1.90745E+01 0.00000E+00
 -1      3961 7.86240E+01 1.90745E+01 0.00000E+00
 -1      3962 7.78740E+01 2.03735E+01 0.00000E+00
 -1      3963 8.31240E+01 1.90745E+01 0.00000E+00
 -1      3964 8.16240E+01 1.90745E+01 0.00000E+00
 -1      3965 8.08740E+01 2.03735E+01 0.00000E+00
 -1      3966 8.61240E+01 1.90745E+01 0.00000E+00
 -1      3967 8.46240E+01 1.90745E+01 0.00000E+00
 -1      3968 8.38740E+01 2.03735E+01 0.00000E+00
 -1      3969 8.91240E+01 1.90745E+01 0.00000E+00
 -1      3970 8.76240E+01 1.90745E+01 0.00000E+00
 -1      3971 8.68740E+01 2.03735E+01 0.00000E+00
 -1      3972 9.21240E+01 1.90745E+01 0.00000E+00
 -1      3973 9.06240E+01 1.90745E+01 0.00000E+00
 -1      3974 8.98740E+01 2.03735E+01 0.00000E+00
 -1      3975 9.51240E+01 1.90745E+01 0.00000E+00
 -1      3976 9.36240E+01 1.90745E+01 0.00000E+00
 -1      3977 9.28740E+01 2.03735E+01 0.00000E+00
 -1      3978 9.81240E+01 1.90745E+01 0.00000E+00
 -1      3979 9.66240E+01 1.90745E+01 0.00000E+00
 -1      3980 9.58740E+01 2.03735E+01 0.00000E+00
 -1      3981 1.72697E+01 2.88789E+01 0.00000E+00
 -1      3982 1.93007E+01 3.00922E+01 0.00000E+00
 -1      3983 3.66240E+01 1.64765E+01 0.00000E+00
 -1      3984 3.51240E+01 1.64765E+01 0.00000E+00
 -1      3985 3.73740E+01 1.77755E+01 0.00000E+00
 -1      3986 2.83740E+01 1.77755E+01 0.00000E+00
 -1      3987 2.76240E+01 1.64765E+01 0.00000E+00
 -1      3988 2.61240E+01 1.64765E+01 0.00000E+00
 -1      3989 5.61240E+01 1.90745E+01 0.00000E+00
 -1      3990 5.46240E+01 1.90745E+01 0.00000E+00
 -1      3991 5.38740E+01 2.03735E+01 0.00000E+00
 -1      3992 2.08007E+01 3.00922E+01 0.00000E+00
 -1      3993 2.23007E+01 3.00922E+01 0.00000E+00
 -1      3994 2.04513E+01 2.83704E+01 0.00000E+00
 -1      3995 1.72697E+01 2.74071E+01 0.00000E+00
 -1      3996 1.65045E+01 1.79412E+01 0.00000E+00
 -1      3997 1.57545E+01 1.66422E+01 0.00000E+00
 -1      3998 1.67310E+01 1.91659E+01 0.00000E+00
 -1      3999 9.72348E+01 2.65042E+01 0.00000E+00
 -1      4000 9.74888E+01 2.49009E+01 0.00000E+00
 -1      4001 5.91240E+01 1.90745E+01 0.00000E+00
 -1      4002 5.76240E+01 1.90745E+01 0.00000E+00
 -1      4003 5.98740E+01 2.03735E+01 0.00000E+00
 -1      4004 2.36003E+01 3.03036E+01 0.00000E+00
 -1      4005 2.51003E+01 3.03036E+01 0.00000E+00
 -1      4006 2.58503E+01 2.90046E+01 0.00000E+00
 -1      4007 2.32510E+01 2.85818E+01 0.00000E+00
 -1      4008 1.85687E+01 2.66711E+01 0.00000E+00
 -1      4009 1.80300E+01 1.99018E+01 0.00000E+00
 -1      4010 9.77377E+01 2.39159E+01 0.00000E+00
 -1      4011 9.79867E+01 2.29310E+01 0.00000E+00
 -1      4012 9.63277E+01 2.45143E+01 0.00000E+00
 -1      4013 5.08740E+01 2.03735E+01 0.00000E+00
 -1      4014 5.01240E+01 1.90745E+01 0.00000E+00
 -1      4015 4.86240E+01 1.90745E+01 0.00000E+00
 -1      4016 4.63740E+01 1.77755E+01 0.00000E+00
 -1      4017 9.83895E+01 3.23492E+01 0.00000E+00
 -1      4018 4.11240E+01 1.90745E+01 0.00000E+00
 -1      4019 3.96240E+01 1.90745E+01 0.00000E+00
 -1      4020 1.95300E+01 1.99018E+01 0.00000E+00
 -1      4021 3.43740E+01 1.77755E+01 0.00000E+00
 -1      4022 2.91240E+01 1.90745E+01 0.00000E+00
 -1      4023 2.76240E+01 1.90745E+01 0.00000E+00
 -1      4024 5.68740E+01 2.03735E+01 0.00000E+00
 -1      4025 4.41240E+01 1.90745E+01 0.00000E+00
 -1      4026 4.26240E+01 1.90745E+01 0.00000E+00
 -1      4027 4.18740E+01 2.03735E+01 0.00000E+00
 -1      4028 9.59204E+01 2.83625E+01 0.00000E+00
 -1      4029 9.47644E+01 2.73576E+01 0.00000E+00
 -1      4030 2.46240E+01 1.64765E+01 0.00000E+00
 -1      4031 2.31240E+01 1.64765E+01 0.00000E+00
 -1      4032 2.23740E+01 1.77755E+01 0.00000E+00
 -1      4033 2.53740E+01 1.77755E+01 0.00000E+00
 -1      4034 9.91353E+01 2.00541E+01 0.00000E+00
 -1      4035 1.96860E+01 2.49719E+01 0.00000E+00
 -1      4036 2.00687E+01 2.66711E+01 0.00000E+00
 -1      4037 2.15687E+01 2.66711E+01 0.00000E+00
 -1      4038 1.96860E+01 2.35000E+01 0.00000E+00
 -1      4039 3.21240E+01 1.90745E+01 0.00000E+00
 -1      4040 3.06240E+01 1.90745E+01 0.00000E+00
 -1      4041 2.98740E+01 2.03735E+01 0.00000E+00
 -1      4042 9.86708E+01 3.14230E+01 0.00000E+00
 -1      4043 9.76333E+01 3.04843E+01 0.00000E+00
 -1      4044 9.56323E+01 3.06646E+01 0.00000E+00
 -1      4045 9.68363E+01 3.07458E+01 0.00000E+00
 -1      4046 3.10500E+01 2.79170E+01 0.00000E+00
 -1      4047 3.25500E+01 2.79170E+01 0.00000E+00
 -1      4048 3.40500E+01 2.79170E+01 0.00000E+00
 -1      4049 3.55500E+01 2.79170E+01 0.00000E+00
 -1      4050 3.33000E+01 2.66180E+01 0.00000E+00
 -1      4051 3.70500E+01 2.79170E+01 0.00000E+00
 -1      4052 3.85500E+01 2.79170E+01 0.00000E+00
 -1      4053 3.63000E+01 2.66180E+01 0.00000E+00
 -1      4054 4.00500E+01 2.79170E+01 0.00000E+00
 -1      4055 4.15500E+01 2.79170E+01 0.00000E+00
 -1      4056 3.93000E+01 2.66180E+01 0.00000E+00
 -1      4057 4.30500E+01 2.79170E+01 0.00000E+00
 -1      4058 4.45500E+01 2.79170E+01 0.00000E+00
 -1      4059 4.23000E+01 2.66180E+01 0.00000E+00
 -1      4060 4.60500E+01 2.79170E+01 0.00000E+00
 -1      4061 4.75500E+01 2.79170E+01 0.00000E+00
 -1      4062 4.53000E+01 2.66180E+01 0.00000E+00
 -1      4063 4.90500E+01 2.79170E+01 0.00000E+00
 -1      4064 5.05500E+01 2.79170E+01 0.00000E+00
 -1      4065 4.83000E+01 2.66180E+01 0.00000E+00
 -1      4066 5.20500E+01 2.79170E+01 0.00000E+00
 -1      4067 5.35500E+01 2.79170E+01 0.00000E+00
 -1      4068 5.13000E+01 2.66180E+01 0.00000E+00
 -1      4069 5.50500E+01 2.79170E+01 0.00000E+00
 -1      4070 5.65500E+01 2.79170E+01 0.00000E+00
 -1      4071 5.43000E+01 2.66180E+01 0.00000E+00
 -1      4072 5.80500E+01 2.79170E+01 0.00000E+00
 -1      4073 5.95500E+01 2.79170E+01 0.00000E+00
 -1      4074 5.73000E+01 2.66180E+01 0.00000E+00
 -1      4075 6.10500E+01 2.79170E+01 0.00000E+00
 -1      4076 6.25500E+01 2.79170E+01 0.00000E+00
 -1      4077 6.03000E+01 2.66180E+01 0.00000E+00
 -1      4078 6.40500E+01 2.79170E+01 0.00000E+00
 -1      4079 6.55500E+01 2.79170E+01 0.00000E+00
 -1      4080 6.33000E+01 2.66180E+01 0.00000E+00
 -1      4081 6.71250E+01 2.79170E+01 0.00000E+00
 -1      4082 6.87000E+01 2.79170E+01 0.00000E+00
 -1      4083 6.63750E+01 2.66180E+01 0.00000E+00
 -1      4084 7.02000E+01 2.79170E+01 0.00000E+00
 -1      4085 7.17000E+01 2.79170E+01 0.00000E+00
 -1      4086 6.94500E+01 2.66180E+01 0.00000E+00
 -1      4087 7.32000E+01 2.79170E+01 0.00000E+00
 -1      4088 7.47000E+01 2.79170E+01 0.00000E+00
 -1      4089 7.24500E+01 2.66180E+01 0.00000E+00
 -1      4090 7.62000E+01 2.79170E+01 0.00000E+00
 -1      4091 7.77000E+01 2.79170E+01 0.00000E+00
 -1      4092 7.54500E+01 2.66180E+01 0.00000E+00
 -1      4093 7.92000E+01 2.79170E+01 0.00000E+00
 -1      4094 8.07000E+01 2.79170E+01 0.00000E+00
 -1      4095 7.84500E+01 2.66180E+01 0.00000E+00
 -1      4096 8.22000E+01 2.79170E+01 0.00000E+00
 -1      4097 8.37000E+01 2.79170E+01 0.00000E+00
 -1      4098 8.14500E+01 2.66180E+01 0.00000E+00
 -1      4099 8.52000E+01 2.79170E+01 0.00000E+00
 -1      4100 8.67000E+01 2.79170E+01 0.00000E+00
 -1      4101 8.44500E+01 2.66180E+01 0.00000E+00
 -1      4102 8.82000E+01 2.79170E+01 0.00000E+00
 -1      4103 8.97000E+01 2.79170E+01 0.00000E+00
 -1      4104 8.74500E+01 2.66180E+01 0.00000E+00
 -1      4105 9.12000E+01 2.79170E+01 0.00000E+00
 -1      4106 9.27000E+01 2.79170E+01 0.00000E+00
 -1      4107 9.04500E+01 2.66180E+01 0.00000E+00
 -1      4108 7.26240E+01 2.16725E+01 0.00000E+00
 -1      4109 7.11240E+01 2.16725E+01 0.00000E+00
 -1      4110 5.46240E+01 2.16725E+01 0.00000E+00
 -1      4111 5.31240E+01 2.16725E+01 0.00000E+00
 -1      4112 6.96240E+01 2.16725E+01 0.00000E+00
 -1      4113 6.81240E+01 2.16725E+01 0.00000E+00
 -1      4114 7.03740E+01 2.29715E+01 0.00000E+00
 -1      4115 9.40144E+01 2.60586E+01 0.00000E+00
 -1      4116 2.17020E+01 1.95746E+01 0.00000E+00
 -1      4117 2.03580E+01 2.17009E+01 0.00000E+00
 -1      4118 2.18580E+01 2.31728E+01 0.00000E+00
 -1      4119 2.32020E+01 1.95746E+01 0.00000E+00
 -1      4120 4.71240E+01 1.90745E+01 0.00000E+00
 -1      4121 4.56240E+01 1.90745E+01 0.00000E+00
 -1      4122 4.48740E+01 2.03735E+01 0.00000E+00
 -1      4123 6.36240E+01 2.16725E+01 0.00000E+00
 -1      4124 6.21240E+01 2.16725E+01 0.00000E+00
 -1      4125 7.56240E+01 2.16725E+01 0.00000E+00
 -1      4126 7.41240E+01 2.16725E+01 0.00000E+00
 -1      4127 7.33740E+01 2.29715E+01 0.00000E+00
 -1      4128 7.86240E+01 2.16725E+01 0.00000E+00
 -1      4129 7.71240E+01 2.16725E+01 0.00000E+00
 -1      4130 7.63740E+01 2.29715E+01 0.00000E+00
 -1      4131 8.16240E+01 2.16725E+01 0.00000E+00
 -1      4132 8.01240E+01 2.16725E+01 0.00000E+00
 -1      4133 7.93740E+01 2.29715E+01 0.00000E+00
 -1      4134 8.46240E+01 2.16725E+01 0.00000E+00
 -1      4135 8.31240E+01 2.16725E+01 0.00000E+00
 -1      4136 8.23740E+01 2.29715E+01 0.00000E+00
 -1      4137 8.76240E+01 2.16725E+01 0.00000E+00
 -1      4138 8.61240E+01 2.16725E+01 0.00000E+00
 -1      4139 8.53740E+01 2.29715E+01 0.00000E+00
 -1      4140 9.06240E+01 2.16725E+01 0.00000E+00
 -1      4141 8.91240E+01 2.16725E+01 0.00000E+00
 -1      4142 8.83740E+01 2.29715E+01 0.00000E+00
 -1      4143 9.36240E+01 2.16725E+01 0.00000E+00
 -1      4144 9.21240E+01 2.16725E+01 0.00000E+00
 -1      4145 9.13740E+01 2.29715E+01 0.00000E+00
 -1      4146 9.83853E+01 2.13531E+01 0.00000E+00
 -1      4147 2.24857E+01 2.51833E+01 0.00000E+00
 -1      4148 2.28683E+01 2.68825E+01 0.00000E+00
 -1      4149 2.41680E+01 2.70939E+01 0.00000E+00
 -1      4150 5.76240E+01 2.16725E+01 0.00000E+00
 -1      4151 5.61240E+01 2.16725E+01 0.00000E+00
 -1      4152 5.53740E+01 2.29715E+01 0.00000E+00
 -1      4153 3.81240E+01 1.90745E+01 0.00000E+00
 -1      4154 3.66240E+01 1.90745E+01 0.00000E+00
 -1      4155 3.88740E+01 2.03735E+01 0.00000E+00
 -1      4156 9.48823E+01 2.93656E+01 0.00000E+00
 -1      4157 2.79000E+01 2.79170E+01 0.00000E+00
 -1      4158 2.94750E+01 2.79170E+01 0.00000E+00
 -1      4159 3.02250E+01 2.66180E+01 0.00000E+00
 -1      4160 6.06240E+01 2.16725E+01 0.00000E+00
 -1      4161 5.91240E+01 2.16725E+01 0.00000E+00
 -1      4162 6.13740E+01 2.29715E+01 0.00000E+00
 -1      4163 3.51240E+01 1.90745E+01 0.00000E+00
 -1      4164 3.36240E+01 1.90745E+01 0.00000E+00
 -1      4165 3.28740E+01 2.03735E+01 0.00000E+00
 -1      4166 3.58740E+01 2.03735E+01 0.00000E+00
 -1      4167 6.66240E+01 2.16725E+01 0.00000E+00
 -1      4168 6.51240E+01 2.16725E+01 0.00000E+00
 -1      4169 6.43740E+01 2.29715E+01 0.00000E+00
 -1      4170 9.69753E+01 2.19515E+01 0.00000E+00
 -1      4171 5.16240E+01 2.16725E+01 0.00000E+00
 -1      4172 5.01240E+01 2.16725E+01 0.00000E+00
 -1      4173 5.23740E+01 2.29715E+01 0.00000E+00
 -1      4174 2.31577E+01 2.33842E+01 0.00000E+00
 -1      4175 2.53842E+01 2.73998E+01 0.00000E+00
 -1      4176 2.66838E+01 2.76112E+01 0.00000E+00
 -1      4177 2.74338E+01 2.63122E+01 0.00000E+00
 -1      4178 2.50015E+01 2.57005E+01 0.00000E+00
 -1      4179 9.24120E+01 2.47948E+01 0.00000E+00
 -1      4180 9.44764E+01 2.42354E+01 0.00000E+00
 -1      4181 6.73740E+01 2.29715E+01 0.00000E+00
 -1      4182 9.54753E+01 2.19515E+01 0.00000E+00
 -1      4183 2.61630E+01 1.93245E+01 0.00000E+00
 -1      4184 2.46630E+01 1.93245E+01 0.00000E+00
 -1      4185 2.39910E+01 2.11236E+01 0.00000E+00
 -1      4186 2.69130E+01 2.06235E+01 0.00000E+00
 -1      4187 5.83740E+01 2.29715E+01 0.00000E+00
 -1      4188 9.71115E+01 2.92537E+01 0.00000E+00
 -1      4189 3.96240E+01 2.16725E+01 0.00000E+00
 -1      4190 3.81240E+01 2.16725E+01 0.00000E+00
 -1      4191 4.78740E+01 2.03735E+01 0.00000E+00
 -1      4192 4.26240E+01 2.16725E+01 0.00000E+00
 -1      4193 4.11240E+01 2.16725E+01 0.00000E+00
 -1      4194 4.03740E+01 2.29715E+01 0.00000E+00
 -1      4195 3.06240E+01 2.16725E+01 0.00000E+00
 -1      4196 2.91240E+01 2.16725E+01 0.00000E+00
 -1      4197 6.84120E+01 2.47948E+01 0.00000E+00
 -1      4198 6.69120E+01 2.47948E+01 0.00000E+00
 -1      4199 3.55500E+01 2.53190E+01 0.00000E+00
 -1      4200 3.70500E+01 2.53190E+01 0.00000E+00
 -1      4201 3.83370E+01 2.47948E+01 0.00000E+00
 -1      4202 3.98370E+01 2.47948E+01 0.00000E+00
 -1      4203 4.13370E+01 2.47948E+01 0.00000E+00
 -1      4204 4.28370E+01 2.47948E+01 0.00000E+00
 -1      4205 4.75500E+01 2.53190E+01 0.00000E+00
 -1      4206 4.90500E+01 2.53190E+01 0.00000E+00
 -1      4207 5.03370E+01 2.47948E+01 0.00000E+00
 -1      4208 5.18370E+01 2.47948E+01 0.00000E+00
 -1      4209 5.33370E+01 2.47948E+01 0.00000E+00
 -1      4210 5.48370E+01 2.47948E+01 0.00000E+00
 -1      4211 5.63370E+01 2.47948E+01 0.00000E+00
 -1      4212 5.78370E+01 2.47948E+01 0.00000E+00
 -1      4213 5.93370E+01 2.47948E+01 0.00000E+00
 -1      4214 6.08370E+01 2.47948E+01 0.00000E+00
 -1      4215 6.23370E+01 2.47948E+01 0.00000E+00
 -1      4216 6.38370E+01 2.47948E+01 0.00000E+00
 -1      4217 6.53370E+01 2.47948E+01 0.00000E+00
 -1      4218 6.99120E+01 2.47948E+01 0.00000E+00
 -1      4219 7.14120E+01 2.47948E+01 0.00000E+00
 -1      4220 7.29120E+01 2.47948E+01 0.00000E+00
 -1      4221 7.44120E+01 2.47948E+01 0.00000E+00
 -1      4222 7.59120E+01 2.47948E+01 0.00000E+00
 -1      4223 7.74120E+01 2.47948E+01 0.00000E+00
 -1      4224 7.89120E+01 2.47948E+01 0.00000E+00
 -1      4225 8.04120E+01 2.47948E+01 0.00000E+00
 -1      4226 8.19120E+01 2.47948E+01 0.00000E+00
 -1      4227 8.34120E+01 2.47948E+01 0.00000E+00
 -1      4228 8.49120E+01 2.47948E+01 0.00000E+00
 -1      4229 8.64120E+01 2.47948E+01 0.00000E+00
 -1      4230 8.79120E+01 2.47948E+01 0.00000E+00
 -1      4231 8.94120E+01 2.47948E+01 0.00000E+00
 -1      4232 9.09120E+01 2.47948E+01 0.00000E+00
 -1      4233 2.41824E+01 2.24068E+01 0.00000E+00
 -1      4234 2.48101E+01 2.44173E+01 0.00000E+00
 -1      4235 2.60263E+01 2.47232E+01 0.00000E+00
 -1      4236 2.56434E+01 2.21568E+01 0.00000E+00
 -1      4237 9.73527E+01 2.85121E+01 0.00000E+00
 -1      4238 2.78626E+01 2.17789E+01 0.00000E+00
 -1      4239 2.64016E+01 2.20290E+01 0.00000E+00
 -1      4240 2.86126E+01 2.30779E+01 0.00000E+00
 -1      4241 9.47253E+01 2.32505E+01 0.00000E+00
 -1      4242 3.75870E+01 2.34958E+01 0.00000E+00
 -1      4243 2.92620E+01 2.47948E+01 0.00000E+00
 -1      4244 2.80006E+01 2.49012E+01 0.00000E+00
 -1      4245 4.88370E+01 2.21968E+01 0.00000E+00
 -1      4246 4.73370E+01 2.21968E+01 0.00000E+00
 -1      4247 4.57305E+01 2.19346E+01 0.00000E+00
 -1      4248 4.42305E+01 2.19346E+01 0.00000E+00
 -1      4249 4.34805E+01 2.32336E+01 0.00000E+00
 -1      4250 4.66935E+01 2.37579E+01 0.00000E+00
 -1      4251 3.21240E+01 2.16725E+01 0.00000E+00
 -1      4252 3.13740E+01 2.29715E+01 0.00000E+00
 -1      4253 3.36240E+01 2.16725E+01 0.00000E+00
 -1      4254 3.68370E+01 2.21968E+01 0.00000E+00
 -1      4255 3.23370E+01 2.47948E+01 0.00000E+00
 -1      4256 3.38370E+01 2.47948E+01 0.00000E+00
 -1      4257 3.08370E+01 2.47948E+01 0.00000E+00
 -1      4258 4.95870E+01 2.34958E+01 0.00000E+00
 -1      4259 4.59435E+01 2.50569E+01 0.00000E+00
 -1      4260 2.67845E+01 2.45953E+01 0.00000E+00
 -1      4261 4.44435E+01 2.50569E+01 0.00000E+00
 -1      4262 2.65931E+01 2.33121E+01 0.00000E+00
 -1      4263 3.45870E+01 2.34958E+01 0.00000E+00
 -1      4264 3.53370E+01 2.21968E+01 0.00000E+00
 -3
    3C                          2050                                     1
 -1       165    8    0    1
 -2         6         7        23      1108      1272      1125
 -1       166    8    0    1
 -2         7         8       165      1109      1273      1274
 -1       167    8    0    1
 -2         8         9       166      1110      1275      1276
 -1       168    8    0    1
 -2         8       166       165      1276      1277      1273
 -1       169    8    0    1
 -2         9        10       167      1111      1278      1279
 -1       170    8    0    1
 -2         9       167       166      1279      1280      1275
 -1       171    8    0    1
 -2        10        11       168      1112      1281      1282
 -1       172    8    0    1
 -2        10       168       167      1282      1283      1278
 -1       173    8    0    1
 -2        11        12       169      1113      1284      1285
 -1       174    8    0    1
 -2        11       169       168      1285      1286      1281
 -1       175    8    0    1
 -2        12        13       170      1114      1287      1288
 -1       176    8    0    1
 -2        12       170       169      1288      1289      1284
 -1       177    8    0    1
 -2        13        14       171      1115      1290      1291
 -1       178    8    0    1
 -2        13       171       170      1291      1292      1287
 -1       179    8    0    1
 -2        14        15       172      1116      1293      1294
 -1       180    8    0    1
 -2        14       172       171      1294      1295      1290
 -1       181    8    0    1
 -2        15        16       173      1117      1296      1297
 -1       182    8    0    1
 -2        15       173       172      1297      1298      1293
 -1       183    8    0    1
 -2        16        17       174      1118      1299      1300
 -1       184    8    0    1
 -2        16       174       173      1300      1301      1296
 -1       185    8    0    1
 -2        17        18       175      1119      1302      1303
 -1       186    8    0    1
 -2        17       175       174      1303      1304      1299
 -1       187    8    0    1
 -2        18        19       176      1120      1305      1306
 -1       188    8    0    1
 -2        18       176       175      1306      1307      1302
 -1       189    8    0    1
 -2        19        20       177      1121      1308      1309
 -1       190    8    0    1
 -2        19       177       176      1309      1310      1305
 -1       191    8    0    1
 -2        20        21       178      1122      1311      1312
 -1       192    8    0    1
 -2        20       178       177      1312      1313      1308
 -1       193    8    0    1
 -2        21        22       179      1123      1314      1315
 -1       194    8    0    1
 -2        21       179       178      1315      1316      1311
 -1       195    8    0    1
 -2        22         5       180      1124      1317      1318
 -1       196    8    0    1
 -2       179        22       180      1314      1318      1319
 -1       197    8    0    1
 -2         5        72       180      1175      1320      1317
 -1       198    8    0    1
 -2        24        23       181      1126      1321      1322
 -1       199    8    0    1
 -2        25        24       182      1127      1323      1324
 -1       200    8    0    1
 -2        24       181       182      1322      1325      1323
 -1       201    8    0    1
 -2        26        25       183      1128      1326      1327
 -1       202    8    0    1
 -2        25       182       183      1324      1328      1326
 -1       203    8    0    1
 -2        27        26       184      1129      1329      1330
 -1       204    8    0    1
 -2        26       183       184      1327      1331      1329
 -1       205    8    0    1
 -2        28        27       185      1130      1332      1333
 -1       206    8    0    1
 -2        27       184       185      1330      1334      1332
 -1       207    8    0    1
 -2        29        28       186      1131      1335      1336
 -1       208    8    0    1
 -2        28       185       186      1333      1337      1335
 -1       209    8    0    1
 -2        30        29       187      1132      1338      1339
 -1       210    8    0    1
 -2        29       186       187      1336      1340      1338
 -1       211    8    0    1
 -2        31        30       188      1133      1341      1342
 -1       212    8    0    1
 -2        30       187       188      1339      1343      1341
 -1       213    8    0    1
 -2        32        31       189      1134      1344      1345
 -1       214    8    0    1
 -2        31       188       189      1342      1346      1344
 -1       215    8    0    1
 -2        33        32       190      1135      1347      1348
 -1       216    8    0    1
 -2        32       189       190      1345      1349      1347
 -1       217    8    0    1
 -2        34        33       191      1136      1350      1351
 -1       218    8    0    1
 -2        33       190       191      1348      1352      1350
 -1       219    8    0    1
 -2        35        34       192      1137      1353      1354
 -1       220    8    0    1
 -2        34       191       192      1351      1355      1353
 -1       221    8    0    1
 -2        36        35       193      1138      1356      1357
 -1       222    8    0    1
 -2        35       192       193      1354      1358      1356
 -1       223    8    0    1
 -2        37        36       194      1139      1359      1360
 -1       224    8    0    1
 -2        36       193       194      1357      1361      1359
 -1       225    8    0    1
 -2        38        37       195      1140      1362      1363
 -1       226    8    0    1
 -2        37       194       195      1360      1364      1362
 -1       227    8    0    1
 -2        39        38       196      1141      1365      1366
 -1       228    8    0    1
 -2        38       195       196      1363      1367      1365
 -1       229    8    0    1
 -2        40        39       197      1142      1368      1369
 -1       230    8    0    1
 -2        39       196       197      1366      1370      1368
 -1       231    8    0    1
 -2        41        40       198      1143      1371      1372
 -1       232    8    0    1
 -2        40       197       198      1369      1373      1371
 -1       233    8    0    1
 -2        42        41       199      1144      1374      1375
 -1       234    8    0    1
 -2        41       198       199      1372      1376      1374
 -1       235    8    0    1
 -2        43        42       200      1145      1377      1378
 -1       236    8    0    1
 -2        42       199       200      1375      1379      1377
 -1       237    8    0    1
 -2        44        43       201      1146      1380      1381
 -1       238    8    0    1
 -2        43       200       201      1378      1382      1380
 -1       239    8    0    1
 -2        45        44       202      1147      1383      1384
 -1       240    8    0    1
 -2        44       201       202      1381      1385      1383
 -1       241    8    0    1
 -2        46        45       203      1148      1386      1387
 -1       242    8    0    1
 -2        45       202       203      1384      1388      1386
 -1       243    8    0    1
 -2        47        46       204      1149      1389      1390
 -1       244    8    0    1
 -2        46       203       204      1387      1391      1389
 -1       245    8    0    1
 -2        48        47       205      1150      1392      1393
 -1       246    8    0    1
 -2        47       204       205      1390      1394      1392
 -1       247    8    0    1
 -2        49        48       206      1151      1395      1396
 -1       248    8    0    1
 -2        48       205       206      1393      1397      1395
 -1       249    8    0    1
 -2        50        49       207      1152      1398      1399
 -1       250    8    0    1
 -2        49       206       207      1396      1400      1398
 -1       251    8    0    1
 -2        51        50       208      1153      1401      1402
 -1       252    8    0    1
 -2        50       207       208      1399      1403      1401
 -1       253    8    0    1
 -2        52        51       209      1154      1404      1405
 -1       254    8    0    1
 -2        51       208       209      1402      1406      1404
 -1       255    8    0    1
 -2        53        52       210      1155      1407      1408
 -1       256    8    0    1
 -2        52       209       210      1405      1409      1407
 -1       257    8    0    1
 -2        54        53       211      1156      1410      1411
 -1       258    8    0    1
 -2        53       210       211      1408      1412      1410
 -1       259    8    0    1
 -2        55        54       212      1157      1413      1414
 -1       260    8    0    1
 -2        54       211       212      1411      1415      1413
 -1       261    8    0    1
 -2        56        55       213      1158      1416      1417
 -1       262    8    0    1
 -2        55       212       213      1414      1418      1416
 -1       263    8    0    1
 -2        57        56       214      1159      1419      1420
 -1       264    8    0    1
 -2        56       213       214      1417      1421      1419
 -1       265    8    0    1
 -2        58        57       215      1160      1422      1423
 -1       266    8    0    1
 -2        57       214       215      1420      1424      1422
 -1       267    8    0    1
 -2        59        58       216      1161      1425      1426
 -1       268    8    0    1
 -2        58       215       216      1423      1427      1425
 -1       269    8    0    1
 -2        60        59       217      1162      1428      1429
 -1       270    8    0    1
 -2        59       216       217      1426      1430      1428
 -1       271    8    0    1
 -2        61        60       218      1163      1431      1432
 -1       272    8    0    1
 -2        60       217       218      1429      1433      1431
 -1       273    8    0    1
 -2        62        61       219      1164      1434      1435
 -1       274    8    0    1
 -2        61       218       219      1432      1436      1434
 -1       275    8    0    1
 -2        63        62       220      1165      1437      1438
 -1       276    8    0    1
 -2        62       219       220      1435      1439      1437
 -1       277    8    0    1
 -2        64        63       221      1166      1440      1441
 -1       278    8    0    1
 -2        63       220       221      1438      1442      1440
 -1       279    8    0    1
 -2        65        64       222      1167      1443      1444
 -1       280    8    0    1
 -2        64       221       222      1441      1445      1443
 -1       281    8    0    1
 -2        66        65       223      1168      1446      1447
 -1       282    8    0    1
 -2        65       222       223      1444      1448      1446
 -1       283    8    0    1
 -2        67        66       224      1169      1449      1450
 -1       284    8    0    1
 -2        66       223       224      1447      1451      1449
 -1       285    8    0    1
 -2        68        67       225      1170      1452      1453
 -1       286    8    0    1
 -2        67       224       225      1450      1454      1452
 -1       287    8    0    1
 -2        69        68       226      1171      1455      1456
 -1       288    8    0    1
 -2        68       225       226      1453      1457      1455
 -1       289    8    0    1
 -2        70        69       227      1172      1458      1459
 -1       290    8    0    1
 -2        69       226       227      1456      1460      1458
 -1       291    8    0    1
 -2        71        70       228      1173      1461      1462
 -1       292    8    0    1
 -2        70       227       228      1459      1463      1461
 -1       293    8    0    1
 -2         4        71       229      1174      1464      1465
 -1       294    8    0    1
 -2       136         4       229      1241      1465      1466
 -1       295    8    0    1
 -2        71       228       229      1462      1467      1464
 -1       296    8    0    1
 -2        72        73       230      1176      1468      1469
 -1       297    8    0    1
 -2        72       230       180      1469      1470      1320
 -1       298    8    0    1
 -2        73        74       231      1177      1471      1472
 -1       299    8    0    1
 -2        73       231       230      1472      1473      1468
 -1       300    8    0    1
 -2        74        75       232      1178      1474      1475
 -1       301    8    0    1
 -2        74       232       231      1475      1476      1471
 -1       302    8    0    1
 -2        75        76       233      1179      1477      1478
 -1       303    8    0    1
 -2        75       233       232      1478      1479      1474
 -1       304    8    0    1
 -2        76        77       234      1180      1480      1481
 -1       305    8    0    1
 -2        76       234       233      1481      1482      1477
 -1       306    8    0    1
 -2        77        78       235      1181      1483      1484
 -1       307    8    0    1
 -2        77       235       234      1484      1485      1480
 -1       308    8    0    1
 -2        78        79       236      1182      1486      1487
 -1       309    8    0    1
 -2        78       236       235      1487      1488      1483
 -1       310    8    0    1
 -2        79        80       237      1183      1489      1490
 -1       311    8    0    1
 -2        79       237       236      1490      1491      1486
 -1       312    8    0    1
 -2        80        81       238      1184      1492      1493
 -1       313    8    0    1
 -2        80       238       237      1493      1494      1489
 -1       314    8    0    1
 -2        81        82       239      1185      1495      1496
 -1       315    8    0    1
 -2        81       239       238      1496      1497      1492
 -1       316    8    0    1
 -2        82        83       240      1186      1498      1499
 -1       317    8    0    1
 -2        82       240       239      1499      1500      1495
 -1       318    8    0    1
 -2        83        84       241      1187      1501      1502
 -1       319    8    0    1
 -2        83       241       240      1502      1503      1498
 -1       320    8    0    1
 -2        84        85       242      1188      1504      1505
 -1       321    8    0    1
 -2        84       242       241      1505      1506      1501
 -1       322    8    0    1
 -2        85        86       243      1189      1507      1508
 -1       323    8    0    1
 -2        85       243       242      1508      1509      1504
 -1       324    8    0    1
 -2        86        87       244      1190      1510      1511
 -1       325    8    0    1
 -2        86       244       243      1511      1512      1507
 -1       326    8    0    1
 -2        87        88       245      1191      1513      1514
 -1       327    8    0    1
 -2        87       245       244      1514      1515      1510
 -1       328    8    0    1
 -2        88        89       246      1192      1516      1517
 -1       329    8    0    1
 -2        88       246       245      1517      1518      1513
 -1       330    8    0    1
 -2        89        90       247      1193      1519      1520
 -1       331    8    0    1
 -2        89       247       246      1520      1521      1516
 -1       332    8    0    1
 -2        90        91       248      1194      1522      1523
 -1       333    8    0    1
 -2        90       248       247      1523      1524      1519
 -1       334    8    0    1
 -2        91        92       249      1195      1525      1526
 -1       335    8    0    1
 -2        91       249       248      1526      1527      1522
 -1       336    8    0    1
 -2        92        93       250      1196      1528      1529
 -1       337    8    0    1
 -2        92       250       249      1529      1530      1525
 -1       338    8    0    1
 -2        93        94       251      1197      1531      1532
 -1       339    8    0    1
 -2        93       251       250      1532      1533      1528
 -1       340    8    0    1
 -2        94        95       252      1198      1534      1535
 -1       341    8    0    1
 -2        94       252       251      1535      1536      1531
 -1       342    8    0    1
 -2        95        96       253      1199      1537      1538
 -1       343    8    0    1
 -2        95       253       252      1538      1539      1534
 -1       344    8    0    1
 -2        96        97       254      1200      1540      1541
 -1       345    8    0    1
 -2        96       254       253      1541      1542      1537
 -1       346    8    0    1
 -2        97        98       255      1201      1543      1544
 -1       347    8    0    1
 -2        97       255       254      1544      1545      1540
 -1       348    8    0    1
 -2        98        99       256      1202      1546      1547
 -1       349    8    0    1
 -2        98       256       255      1547      1548      1543
 -1       350    8    0    1
 -2        99       100       257      1203      1549      1550
 -1       351    8    0    1
 -2        99       257       256      1550      1551      1546
 -1       352    8    0    1
 -2       100       101       258      1204      1552      1553
 -1       353    8    0    1
 -2       100       258       257      1553      1554      1549
 -1       354    8    0    1
 -2       101       102       259      1205      1555      1556
 -1       355    8    0    1
 -2       101       259       258      1556      1557      1552
 -1       356    8    0    1
 -2       102       103       260      1206      1558      1559
 -1       357    8    0    1
 -2       102       260       259      1559      1560      1555
 -1       358    8    0    1
 -2       103       104       261      1207      1561      1562
 -1       359    8    0    1
 -2       103       261       260      1562      1563      1558
 -1       360    8    0    1
 -2       104       105       262      1208      1564      1565
 -1       361    8    0    1
 -2       104       262       261      1565      1566      1561
 -1       362    8    0    1
 -2       105       106       263      1209      1567      1568
 -1       363    8    0    1
 -2       105       263       262      1568      1569      1564
 -1       364    8    0    1
 -2       106       107       264      1210      1570      1571
 -1       365    8    0    1
 -2       106       264       263      1571      1572      1567
 -1       366    8    0    1
 -2       107       108       265      1211      1573      1574
 -1       367    8    0    1
 -2       107       265       264      1574      1575      1570
 -1       368    8    0    1
 -2       108       109       266      1212      1576      1577
 -1       369    8    0    1
 -2       108       266       265      1577      1578      1573
 -1       370    8    0    1
 -2       109       110       267      1213      1579      1580
 -1       371    8    0    1
 -2       109       267       266      1580      1581      1576
 -1       372    8    0    1
 -2       110       111       268      1214      1582      1583
 -1       373    8    0    1
 -2       110       268       267      1583      1584      1579
 -1       374    8    0    1
 -2       111       112       269      1215      1585      1586
 -1       375    8    0    1
 -2       111       269       268      1586      1587      1582
 -1       376    8    0    1
 -2       112       113       270      1216      1588      1589
 -1       377    8    0    1
 -2       112       270       269      1589      1590      1585
 -1       378    8    0    1
 -2       113       114       271      1217      1591      1592
 -1       379    8    0    1
 -2       113       271       270      1592      1593      1588
 -1       380    8    0    1
 -2       114       115       272      1218      1594      1595
 -1       381    8    0    1
 -2       114       272       271      1595      1596      1591
 -1       382    8    0    1
 -2       115       116       273      1219      1597      1598
 -1       383    8    0    1
 -2       115       273       272      1598      1599      1594
 -1       384    8    0    1
 -2       116       117       274      1220      1600      1601
 -1       385    8    0    1
 -2       116       274       273      1601      1602      1597
 -1       386    8    0    1
 -2       117       118       275      1221      1603      1604
 -1       387    8    0    1
 -2       117       275       274      1604      1605      1600
 -1       388    8    0    1
 -2       118       119       276      1222      1606      1607
 -1       389    8    0    1
 -2       118       276       275      1607      1608      1603
 -1       390    8    0    1
 -2       119       120       277      1223      1609      1610
 -1       391    8    0    1
 -2       119       277       276      1610      1611      1606
 -1       392    8    0    1
 -2       120         3       121      1224      1225      1612
 -1       393    8    0    1
 -2       121       122       278      1226      1613      1614
 -1       394    8    0    1
 -2       122       123       279      1227      1615      1616
 -1       395    8    0    1
 -2       122       279       278      1616      1617      1613
 -1       396    8    0    1
 -2       123       124       280      1228      1618      1619
 -1       397    8    0    1
 -2       123       280       279      1619      1620      1615
 -1       398    8    0    1
 -2       124       125       281      1229      1621      1622
 -1       399    8    0    1
 -2       124       281       280      1622      1623      1618
 -1       400    8    0    1
 -2       125       126       282      1230      1624      1625
 -1       401    8    0    1
 -2       125       282       281      1625      1626      1621
 -1       402    8    0    1
 -2       126       127       283      1231      1627      1628
 -1       403    8    0    1
 -2       126       283       282      1628      1629      1624
 -1       404    8    0    1
 -2       127       128       284      1232      1630      1631
 -1       405    8    0    1
 -2       127       284       283      1631      1632      1627
 -1       406    8    0    1
 -2       128       129       285      1233      1633      1634
 -1       407    8    0    1
 -2       128       285       284      1634      1635      1630
 -1       408    8    0    1
 -2       129       130       286      1234      1636      1637
 -1       409    8    0    1
 -2       129       286       285      1637      1638      1633
 -1       410    8    0    1
 -2       130       131       287      1235      1639      1640
 -1       411    8    0    1
 -2       130       287       286      1640      1641      1636
 -1       412    8    0    1
 -2       131       132       288      1236      1642      1643
 -1       413    8    0    1
 -2       131       288       287      1643      1644      1639
 -1       414    8    0    1
 -2       132       133       289      1237      1645      1646
 -1       415    8    0    1
 -2       132       289       288      1646      1647      1642
 -1       416    8    0    1
 -2       133       134       290      1238      1648      1649
 -1       417    8    0    1
 -2       133       290       289      1649      1650      1645
 -1       418    8    0    1
 -2       134       135       291      1239      1651      1652
 -1       419    8    0    1
 -2       134       291       290      1652      1653      1648
 -1       420    8    0    1
 -2       135       136       292      1240      1654      1655
 -1       421    8    0    1
 -2       291       135       292      1651      1655      1656
 -1       422    8    0    1
 -2       136       229       292      1466      1657      1654
 -1       423    8    0    1
 -2         2       137       293      1242      1658      1659
 -1       424    8    0    1
 -2       137       138       294      1243      1660      1661
 -1       425    8    0    1
 -2       138       139       295      1244      1662      1663
 -1       426    8    0    1
 -2       139       140       296      1245      1664      1665
 -1       427    8    0    1
 -2       140       141       297      1246      1666      1667
 -1       428    8    0    1
 -2       141       142       298      1247      1668      1669
 -1       429    8    0    1
 -2       142       143       299      1248      1670      1671
 -1       430    8    0    1
 -2       143       144       300      1249      1672      1673
 -1       431    8    0    1
 -2       144       145       301      1250      1674      1675
 -1       432    8    0    1
 -2       145       146       302      1251      1676      1677
 -1       433    8    0    1
 -2       146       147       303      1252      1678      1679
 -1       434    8    0    1
 -2       147       148       304      1253      1680      1681
 -1       435    8    0    1
 -2       148       149       305      1254      1682      1683
 -1       436    8    0    1
 -2       149       150       306      1255      1684      1685
 -1       437    8    0    1
 -2       150       151       307      1256      1686      1687
 -1       438    8    0    1
 -2       151       152       308      1257      1688      1689
 -1       439    8    0    1
 -2       152         1       309      1258      1690      1691
 -1       440    8    0    1
 -2         1       153       310      1259      1692      1693
 -1       441    8    0    1
 -2       153       154       311      1260      1694      1695
 -1       442    8    0    1
 -2       154       155       312      1261      1696      1697
 -1       443    8    0    1
 -2       155       156       313      1262      1698      1699
 -1       444    8    0    1
 -2       156       157       314      1263      1700      1701
 -1       445    8    0    1
 -2       157       158       315      1264      1702      1703
 -1       446    8    0    1
 -2       158       159       316      1265      1704      1705
 -1       447    8    0    1
 -2       159       160       317      1266      1706      1707
 -1       448    8    0    1
 -2       160       161       318      1267      1708      1709
 -1       449    8    0    1
 -2       161       162       319      1268      1710      1711
 -1       450    8    0    1
 -2       162       163       320      1269      1712      1713
 -1       451    8    0    1
 -2       163       164       321      1270      1714      1715
 -1       452    8    0    1
 -2       164         2       322      1271      1716      1717
 -1       453    8    0    1
 -2       295       139       296      1662      1665      1718
 -1       454    8    0    1
 -2         2       293       322      1659      1719      1716
 -1       455    8    0    1
 -2       120       121       277      1612      1720      1609
 -1       456    8    0    1
 -2       121       278       277      1614      1721      1720
 -1       457    8    0    1
 -2       293       137       294      1658      1661      1722
 -1       458    8    0    1
 -2       294       138       295      1660      1663      1723
 -1       459    8    0    1
 -2       140       297       296      1667      1724      1664
 -1       460    8    0    1
 -2       141       298       297      1669      1725      1666
 -1       461    8    0    1
 -2       142       299       298      1671      1726      1668
 -1       462    8    0    1
 -2       143       300       299      1673      1727      1670
 -1       463    8    0    1
 -2       144       301       300      1675      1728      1672
 -1       464    8    0    1
 -2       145       302       301      1677      1729      1674
 -1       465    8    0    1
 -2       146       303       302      1679      1730      1676
 -1       466    8    0    1
 -2       147       304       303      1681      1731      1678
 -1       467    8    0    1
 -2       148       305       304      1683      1732      1680
 -1       468    8    0    1
 -2       149       306       305      1685      1733      1682
 -1       469    8    0    1
 -2       150       307       306      1687      1734      1684
 -1       470    8    0    1
 -2       151       308       307      1689      1735      1686
 -1       471    8    0    1
 -2       152       309       308      1691      1736      1688
 -1       472    8    0    1
 -2         1       310       309      1693      1737      1690
 -1       473    8    0    1
 -2       153       311       310      1695      1738      1692
 -1       474    8    0    1
 -2       154       312       311      1697      1739      1694
 -1       475    8    0    1
 -2       155       313       312      1699      1740      1696
 -1       476    8    0    1
 -2       156       314       313      1701      1741      1698
 -1       477    8    0    1
 -2       157       315       314      1703      1742      1700
 -1       478    8    0    1
 -2       158       316       315      1705      1743      1702
 -1       479    8    0    1
 -2       159       317       316      1707      1744      1704
 -1       480    8    0    1
 -2       160       318       317      1709      1745      1706
 -1       481    8    0    1
 -2       161       319       318      1711      1746      1708
 -1       482    8    0    1
 -2       162       320       319      1713      1747      1710
 -1       483    8    0    1
 -2       163       321       320      1715      1748      1712
 -1       484    8    0    1
 -2       164       322       321      1717      1749      1714
 -1       485    8    0    1
 -2        23         7       165      1272      1274      1750
 -1       486    8    0    1
 -2       166       167       323      1280      1751      1752
 -1       487    8    0    1
 -2       165       166       324      1277      1753      1754
 -1       488    8    0    1
 -2       166       323       324      1752      1755      1753
 -1       489    8    0    1
 -2       168       169       325      1286      1756      1757
 -1       490    8    0    1
 -2       169       170       326      1289      1758      1759
 -1       491    8    0    1
 -2       169       326       325      1759      1760      1756
 -1       492    8    0    1
 -2       170       171       327      1292      1761      1762
 -1       493    8    0    1
 -2       170       327       326      1762      1763      1758
 -1       494    8    0    1
 -2       171       172       328      1295      1764      1765
 -1       495    8    0    1
 -2       171       328       327      1765      1766      1761
 -1       496    8    0    1
 -2       172       173       329      1298      1767      1768
 -1       497    8    0    1
 -2       172       329       328      1768      1769      1764
 -1       498    8    0    1
 -2       173       174       330      1301      1770      1771
 -1       499    8    0    1
 -2       173       330       329      1771      1772      1767
 -1       500    8    0    1
 -2       174       175       331      1304      1773      1774
 -1       501    8    0    1
 -2       174       331       330      1774      1775      1770
 -1       502    8    0    1
 -2       175       176       332      1307      1776      1777
 -1       503    8    0    1
 -2       175       332       331      1777      1778      1773
 -1       504    8    0    1
 -2       176       177       333      1310      1779      1780
 -1       505    8    0    1
 -2       176       333       332      1780      1781      1776
 -1       506    8    0    1
 -2       177       178       334      1313      1782      1783
 -1       507    8    0    1
 -2       177       334       333      1783      1784      1779
 -1       508    8    0    1
 -2       178       179       335      1316      1785      1786
 -1       509    8    0    1
 -2       178       335       334      1786      1787      1782
 -1       510    8    0    1
 -2       179       180       336      1319      1788      1789
 -1       511    8    0    1
 -2       335       179       336      1785      1789      1790
 -1       512    8    0    1
 -2       180       230       336      1470      1791      1788
 -1       513    8    0    1
 -2       181        23       165      1321      1750      1792
 -1       514    8    0    1
 -2       230       231       337      1473      1793      1794
 -1       515    8    0    1
 -2       230       337       336      1794      1795      1791
 -1       516    8    0    1
 -2       181       165       324      1792      1754      1796
 -1       517    8    0    1
 -2       183       182       338      1328      1797      1798
 -1       518    8    0    1
 -2       184       183       339      1331      1799      1800
 -1       519    8    0    1
 -2       183       338       339      1798      1801      1799
 -1       520    8    0    1
 -2       185       184       340      1334      1802      1803
 -1       521    8    0    1
 -2       184       339       340      1800      1804      1802
 -1       522    8    0    1
 -2       186       185       341      1337      1805      1806
 -1       523    8    0    1
 -2       185       340       341      1803      1807      1805
 -1       524    8    0    1
 -2       187       186       342      1340      1808      1809
 -1       525    8    0    1
 -2       186       341       342      1806      1810      1808
 -1       526    8    0    1
 -2       188       187       343      1343      1811      1812
 -1       527    8    0    1
 -2       187       342       343      1809      1813      1811
 -1       528    8    0    1
 -2       189       188       344      1346      1814      1815
 -1       529    8    0    1
 -2       188       343       344      1812      1816      1814
 -1       530    8    0    1
 -2       190       189       345      1349      1817      1818
 -1       531    8    0    1
 -2       189       344       345      1815      1819      1817
 -1       532    8    0    1
 -2       191       190       346      1352      1820      1821
 -1       533    8    0    1
 -2       190       345       346      1818      1822      1820
 -1       534    8    0    1
 -2       192       191       347      1355      1823      1824
 -1       535    8    0    1
 -2       191       346       347      1821      1825      1823
 -1       536    8    0    1
 -2       193       192       348      1358      1826      1827
 -1       537    8    0    1
 -2       192       347       348      1824      1828      1826
 -1       538    8    0    1
 -2       194       193       349      1361      1829      1830
 -1       539    8    0    1
 -2       193       348       349      1827      1831      1829
 -1       540    8    0    1
 -2       195       194       350      1364      1832      1833
 -1       541    8    0    1
 -2       194       349       350      1830      1834      1832
 -1       542    8    0    1
 -2       196       195       351      1367      1835      1836
 -1       543    8    0    1
 -2       195       350       351      1833      1837      1835
 -1       544    8    0    1
 -2       197       196       352      1370      1838      1839
 -1       545    8    0    1
 -2       196       351       352      1836      1840      1838
 -1       546    8    0    1
 -2       198       197       353      1373      1841      1842
 -1       547    8    0    1
 -2       197       352       353      1839      1843      1841
 -1       548    8    0    1
 -2       199       198       354      1376      1844      1845
 -1       549    8    0    1
 -2       198       353       354      1842      1846      1844
 -1       550    8    0    1
 -2       200       199       355      1379      1847      1848
 -1       551    8    0    1
 -2       199       354       355      1845      1849      1847
 -1       552    8    0    1
 -2       201       200       356      1382      1850      1851
 -1       553    8    0    1
 -2       200       355       356      1848      1852      1850
 -1       554    8    0    1
 -2       202       201       357      1385      1853      1854
 -1       555    8    0    1
 -2       201       356       357      1851      1855      1853
 -1       556    8    0    1
 -2       203       202       358      1388      1856      1857
 -1       557    8    0    1
 -2       202       357       358      1854      1858      1856
 -1       558    8    0    1
 -2       204       203       359      1391      1859      1860
 -1       559    8    0    1
 -2       203       358       359      1857      1861      1859
 -1       560    8    0    1
 -2       205       204       360      1394      1862      1863
 -1       561    8    0    1
 -2       204       359       360      1860      1864      1862
 -1       562    8    0    1
 -2       206       205       361      1397      1865      1866
 -1       563    8    0    1
 -2       205       360       361      1863      1867      1865
 -1       564    8    0    1
 -2       207       206       362      1400      1868      1869
 -1       565    8    0    1
 -2       206       361       362      1866      1870      1868
 -1       566    8    0    1
 -2       208       207       363      1403      1871      1872
 -1       567    8    0    1
 -2       207       362       363      1869      1873      1871
 -1       568    8    0    1
 -2       209       208       364      1406      1874      1875
 -1       569    8    0    1
 -2       208       363       364      1872      1876      1874
 -1       570    8    0    1
 -2       210       209       365      1409      1877      1878
 -1       571    8    0    1
 -2       209       364       365      1875      1879      1877
 -1       572    8    0    1
 -2       211       210       366      1412      1880      1881
 -1       573    8    0    1
 -2       210       365       366      1878      1882      1880
 -1       574    8    0    1
 -2       212       211       367      1415      1883      1884
 -1       575    8    0    1
 -2       211       366       367      1881      1885      1883
 -1       576    8    0    1
 -2       213       212       368      1418      1886      1887
 -1       577    8    0    1
 -2       212       367       368      1884      1888      1886
 -1       578    8    0    1
 -2       214       213       369      1421      1889      1890
 -1       579    8    0    1
 -2       213       368       369      1887      1891      1889
 -1       580    8    0    1
 -2       215       214       370      1424      1892      1893
 -1       581    8    0    1
 -2       214       369       370      1890      1894      1892
 -1       582    8    0    1
 -2       216       215       371      1427      1895      1896
 -1       583    8    0    1
 -2       215       370       371      1893      1897      1895
 -1       584    8    0    1
 -2       217       216       372      1430      1898      1899
 -1       585    8    0    1
 -2       216       371       372      1896      1900      1898
 -1       586    8    0    1
 -2       218       217       373      1433      1901      1902
 -1       587    8    0    1
 -2       217       372       373      1899      1903      1901
 -1       588    8    0    1
 -2       219       218       374      1436      1904      1905
 -1       589    8    0    1
 -2       218       373       374      1902      1906      1904
 -1       590    8    0    1
 -2       220       219       375      1439      1907      1908
 -1       591    8    0    1
 -2       219       374       375      1905      1909      1907
 -1       592    8    0    1
 -2       221       220       376      1442      1910      1911
 -1       593    8    0    1
 -2       220       375       376      1908      1912      1910
 -1       594    8    0    1
 -2       222       221       377      1445      1913      1914
 -1       595    8    0    1
 -2       221       376       377      1911      1915      1913
 -1       596    8    0    1
 -2       223       222       378      1448      1916      1917
 -1       597    8    0    1
 -2       222       377       378      1914      1918      1916
 -1       598    8    0    1
 -2       224       223       379      1451      1919      1920
 -1       599    8    0    1
 -2       223       378       379      1917      1921      1919
 -1       600    8    0    1
 -2       225       224       380      1454      1922      1923
 -1       601    8    0    1
 -2       224       379       380      1920      1924      1922
 -1       602    8    0    1
 -2       226       225       381      1457      1925      1926
 -1       603    8    0    1
 -2       225       380       381      1923      1927      1925
 -1       604    8    0    1
 -2       227       226       382      1460      1928      1929
 -1       605    8    0    1
 -2       226       381       382      1926      1930      1928
 -1       606    8    0    1
 -2       228       227       383      1463      1931      1932
 -1       607    8    0    1
 -2       227       382       383      1929      1933      1931
 -1       608    8    0    1
 -2       229       228       292      1467      1934      1657
 -1       609    8    0    1
 -2       232       233       384      1479      1935      1936
 -1       610    8    0    1
 -2       233       234       385      1482      1937      1938
 -1       611    8    0    1
 -2       233       385       384      1938      1939      1935
 -1       612    8    0    1
 -2       234       235       386      1485      1940      1941
 -1       613    8    0    1
 -2       234       386       385      1941      1942      1937
 -1       614    8    0    1
 -2       235       236       387      1488      1943      1944
 -1       615    8    0    1
 -2       235       387       386      1944      1945      1940
 -1       616    8    0    1
 -2       236       237       388      1491      1946      1947
 -1       617    8    0    1
 -2       236       388       387      1947      1948      1943
 -1       618    8    0    1
 -2       237       238       389      1494      1949      1950
 -1       619    8    0    1
 -2       237       389       388      1950      1951      1946
 -1       620    8    0    1
 -2       238       239       390      1497      1952      1953
 -1       621    8    0    1
 -2       238       390       389      1953      1954      1949
 -1       622    8    0    1
 -2       239       240       391      1500      1955      1956
 -1       623    8    0    1
 -2       239       391       390      1956      1957      1952
 -1       624    8    0    1
 -2       240       241       392      1503      1958      1959
 -1       625    8    0    1
 -2       240       392       391      1959      1960      1955
 -1       626    8    0    1
 -2       241       242       393      1506      1961      1962
 -1       627    8    0    1
 -2       241       393       392      1962      1963      1958
 -1       628    8    0    1
 -2       242       243       394      1509      1964      1965
 -1       629    8    0    1
 -2       242       394       393      1965      1966      1961
 -1       630    8    0    1
 -2       243       244       395      1512      1967      1968
 -1       631    8    0    1
 -2       243       395       394      1968      1969      1964
 -1       632    8    0    1
 -2       244       245       396      1515      1970      1971
 -1       633    8    0    1
 -2       244       396       395      1971      1972      1967
 -1       634    8    0    1
 -2       245       246       397      1518      1973      1974
 -1       635    8    0    1
 -2       245       397       396      1974      1975      1970
 -1       636    8    0    1
 -2       246       247       398      1521      1976      1977
 -1       637    8    0    1
 -2       246       398       397      1977      1978      1973
 -1       638    8    0    1
 -2       247       248       399      1524      1979      1980
 -1       639    8    0    1
 -2       247       399       398      1980      1981      1976
 -1       640    8    0    1
 -2       248       249       400      1527      1982      1983
 -1       641    8    0    1
 -2       248       400       399      1983      1984      1979
 -1       642    8    0    1
 -2       249       250       401      1530      1985      1986
 -1       643    8    0    1
 -2       249       401       400      1986      1987      1982
 -1       644    8    0    1
 -2       250       251       402      1533      1988      1989
 -1       645    8    0    1
 -2       250       402       401      1989      1990      1985
 -1       646    8    0    1
 -2       251       252       403      1536      1991      1992
 -1       647    8    0    1
 -2       251       403       402      1992      1993      1988
 -1       648    8    0    1
 -2       252       253       404      1539      1994      1995
 -1       649    8    0    1
 -2       252       404       403      1995      1996      1991
 -1       650    8    0    1
 -2       253       254       405      1542      1997      1998
 -1       651    8    0    1
 -2       253       405       404      1998      1999      1994
 -1       652    8    0    1
 -2       254       255       406      1545      2000      2001
 -1       653    8    0    1
 -2       254       406       405      2001      2002      1997
 -1       654    8    0    1
 -2       255       256       407      1548      2003      2004
 -1       655    8    0    1
 -2       255       407       406      2004      2005      2000
 -1       656    8    0    1
 -2       256       257       408      1551      2006      2007
 -1       657    8    0    1
 -2       256       408       407      2007      2008      2003
 -1       658    8    0    1
 -2       257       258       409      1554      2009      2010
 -1       659    8    0    1
 -2       257       409       408      2010      2011      2006
 -1       660    8    0    1
 -2       258       259       410      1557      2012      2013
 -1       661    8    0    1
 -2       258       410       409      2013      2014      2009
 -1       662    8    0    1
 -2       259       260       411      1560      2015      2016
 -1       663    8    0    1
 -2       259       411       410      2016      2017      2012
 -1       664    8    0    1
 -2       260       261       412      1563      2018      2019
 -1       665    8    0    1
 -2       260       412       411      2019      2020      2015
 -1       666    8    0    1
 -2       261       262       413      1566      2021      2022
 -1       667    8    0    1
 -2       261       413       412      2022      2023      2018
 -1       668    8    0    1
 -2       262       263       414      1569      2024      2025
 -1       669    8    0    1
 -2       262       414       413      2025      2026      2021
 -1       670    8    0    1
 -2       263       264       415      1572      2027      2028
 -1       671    8    0    1
 -2       263       415       414      2028      2029      2024
 -1       672    8    0    1
 -2       264       265       416      1575      2030      2031
 -1       673    8    0    1
 -2       264       416       415      2031      2032      2027
 -1       674    8    0    1
 -2       265       266       417      1578      2033      2034
 -1       675    8    0    1
 -2       265       417       416      2034      2035      2030
 -1       676    8    0    1
 -2       266       267       418      1581      2036      2037
 -1       677    8    0    1
 -2       266       418       417      2037      2038      2033
 -1       678    8    0    1
 -2       267       268       419      1584      2039      2040
 -1       679    8    0    1
 -2       267       419       418      2040      2041      2036
 -1       680    8    0    1
 -2       268       269       420      1587      2042      2043
 -1       681    8    0    1
 -2       268       420       419      2043      2044      2039
 -1       682    8    0    1
 -2       269       270       421      1590      2045      2046
 -1       683    8    0    1
 -2       269       421       420      2046      2047      2042
 -1       684    8    0    1
 -2       270       271       422      1593      2048      2049
 -1       685    8    0    1
 -2       270       422       421      2049      2050      2045
 -1       686    8    0    1
 -2       271       272       423      1596      2051      2052
 -1       687    8    0    1
 -2       271       423       422      2052      2053      2048
 -1       688    8    0    1
 -2       272       273       424      1599      2054      2055
 -1       689    8    0    1
 -2       272       424       423      2055      2056      2051
 -1       690    8    0    1
 -2       273       274       425      1602      2057      2058
 -1       691    8    0    1
 -2       273       425       424      2058      2059      2054
 -1       692    8    0    1
 -2       274       275       426      1605      2060      2061
 -1       693    8    0    1
 -2       274       426       425      2061      2062      2057
 -1       694    8    0    1
 -2       275       276       427      1608      2063      2064
 -1       695    8    0    1
 -2       275       427       426      2064      2065      2060
 -1       696    8    0    1
 -2       276       277       428      1611      2066      2067
 -1       697    8    0    1
 -2       427       276       428      2063      2067      2068
 -1       698    8    0    1
 -2       277       278       428      1721      2069      2066
 -1       699    8    0    1
 -2       280       281       429      1623      2070      2071
 -1       700    8    0    1
 -2       279       280       430      1620      2072      2073
 -1       701    8    0    1
 -2       280       429       430      2071      2074      2072
 -1       702    8    0    1
 -2       278       279       428      1617      2075      2069
 -1       703    8    0    1
 -2       281       282       431      1626      2076      2077
 -1       704    8    0    1
 -2       281       431       429      2077      2078      2070
 -1       705    8    0    1
 -2       282       283       432      1629      2079      2080
 -1       706    8    0    1
 -2       282       432       431      2080      2081      2076
 -1       707    8    0    1
 -2       283       284       433      1632      2082      2083
 -1       708    8    0    1
 -2       283       433       432      2083      2084      2079
 -1       709    8    0    1
 -2       284       285       434      1635      2085      2086
 -1       710    8    0    1
 -2       284       434       433      2086      2087      2082
 -1       711    8    0    1
 -2       285       286       435      1638      2088      2089
 -1       712    8    0    1
 -2       285       435       434      2089      2090      2085
 -1       713    8    0    1
 -2       286       287       436      1641      2091      2092
 -1       714    8    0    1
 -2       286       436       435      2092      2093      2088
 -1       715    8    0    1
 -2       287       288       437      1644      2094      2095
 -1       716    8    0    1
 -2       287       437       436      2095      2096      2091
 -1       717    8    0    1
 -2       288       289       438      1647      2097      2098
 -1       718    8    0    1
 -2       288       438       437      2098      2099      2094
 -1       719    8    0    1
 -2       289       290       439      1650      2100      2101
 -1       720    8    0    1
 -2       289       439       438      2101      2102      2097
 -1       721    8    0    1
 -2       290       291       440      1653      2103      2104
 -1       722    8    0    1
 -2       290       440       439      2104      2105      2100
 -1       723    8    0    1
 -2       231       232       441      1476      2106      2107
 -1       724    8    0    1
 -2       337       231       441      1793      2107      2108
 -1       725    8    0    1
 -2       232       384       441      1936      2109      2106
 -1       726    8    0    1
 -2       294       295       442      1723      2110      2111
 -1       727    8    0    1
 -2       296       297       443      1724      2112      2113
 -1       728    8    0    1
 -2       322       293       444      1719      2114      2115
 -1       729    8    0    1
 -2       295       296       445      1718      2116      2117
 -1       730    8    0    1
 -2       167       168       446      1283      2118      2119
 -1       731    8    0    1
 -2       323       167       446      1751      2119      2120
 -1       732    8    0    1
 -2       168       325       446      1757      2121      2118
 -1       733    8    0    1
 -2       297       298       447      1725      2122      2123
 -1       734    8    0    1
 -2       298       299       448      1726      2124      2125
 -1       735    8    0    1
 -2       298       448       447      2125      2126      2122
 -1       736    8    0    1
 -2       299       300       449      1727      2127      2128
 -1       737    8    0    1
 -2       300       301       450      1728      2129      2130
 -1       738    8    0    1
 -2       300       450       449      2130      2131      2127
 -1       739    8    0    1
 -2       301       302       451      1729      2132      2133
 -1       740    8    0    1
 -2       302       303       452      1730      2134      2135
 -1       741    8    0    1
 -2       303       304       453      1731      2136      2137
 -1       742    8    0    1
 -2       304       305       454      1732      2138      2139
 -1       743    8    0    1
 -2       304       454       453      2139      2140      2136
 -1       744    8    0    1
 -2       305       306       455      1733      2141      2142
 -1       745    8    0    1
 -2       306       307       456      1734      2143      2144
 -1       746    8    0    1
 -2       306       456       455      2144      2145      2141
 -1       747    8    0    1
 -2       307       308       457      1735      2146      2147
 -1       748    8    0    1
 -2       308       309       458      1736      2148      2149
 -1       749    8    0    1
 -2       308       458       457      2149      2150      2146
 -1       750    8    0    1
 -2       309       310       459      1737      2151      2152
 -1       751    8    0    1
 -2       310       311       460      1738      2153      2154
 -1       752    8    0    1
 -2       310       460       459      2154      2155      2151
 -1       753    8    0    1
 -2       311       312       461      1739      2156      2157
 -1       754    8    0    1
 -2       312       313       462      1740      2158      2159
 -1       755    8    0    1
 -2       312       462       461      2159      2160      2156
 -1       756    8    0    1
 -2       313       314       463      1741      2161      2162
 -1       757    8    0    1
 -2       314       315       464      1742      2163      2164
 -1       758    8    0    1
 -2       315       316       465      1743      2165      2166
 -1       759    8    0    1
 -2       316       317       466      1744      2167      2168
 -1       760    8    0    1
 -2       317       318       467      1745      2169      2170
 -1       761    8    0    1
 -2       318       319       468      1746      2171      2172
 -1       762    8    0    1
 -2       319       320       469      1747      2173      2174
 -1       763    8    0    1
 -2       320       321       470      1748      2175      2176
 -1       764    8    0    1
 -2       321       322       471      1749      2177      2178
 -1       765    8    0    1
 -2       322       444       471      2115      2179      2177
 -1       766    8    0    1
 -2       293       294       472      1722      2180      2181
 -1       767    8    0    1
 -2       292       228       383      1934      1932      2182
 -1       768    8    0    1
 -2       445       296       443      2116      2113      2183
 -1       769    8    0    1
 -2       181       324       182      1796      2184      1325
 -1       770    8    0    1
 -2       442       295       445      2110      2117      2185
 -1       771    8    0    1
 -2       297       447       443      2123      2186      2112
 -1       772    8    0    1
 -2       338       182       324      1797      2184      2187
 -1       773    8    0    1
 -2       428       279       430      2075      2073      2188
 -1       774    8    0    1
 -2       444       293       472      2114      2181      2189
 -1       775    8    0    1
 -2       291       292       383      1656      2182      2190
 -1       776    8    0    1
 -2       294       442       472      2111      2191      2180
 -1       777    8    0    1
 -2       291       383       440      2190      2192      2103
 -1       778    8    0    1
 -2       470       321       471      2175      2178      2193
 -1       779    8    0    1
 -2       469       320       470      2173      2176      2194
 -1       780    8    0    1
 -2       468       319       469      2171      2174      2195
 -1       781    8    0    1
 -2       467       318       468      2169      2172      2196
 -1       782    8    0    1
 -2       466       317       467      2167      2170      2197
 -1       783    8    0    1
 -2       465       316       466      2165      2168      2198
 -1       784    8    0    1
 -2       464       315       465      2163      2166      2199
 -1       785    8    0    1
 -2       462       313       463      2158      2162      2200
 -1       786    8    0    1
 -2       460       311       461      2153      2157      2201
 -1       787    8    0    1
 -2       458       309       473      2148      2202      2203
 -1       788    8    0    1
 -2       309       459       473      2152      2204      2202
 -1       789    8    0    1
 -2       456       307       457      2143      2147      2205
 -1       790    8    0    1
 -2       454       305       455      2138      2142      2206
 -1       791    8    0    1
 -2       452       303       453      2134      2137      2207
 -1       792    8    0    1
 -2       450       301       451      2129      2133      2208
 -1       793    8    0    1
 -2       299       449       448      2128      2209      2124
 -1       794    8    0    1
 -2       451       302       452      2132      2135      2210
 -1       795    8    0    1
 -2       463       314       464      2161      2164      2211
 -1       796    8    0    1
 -2       326       327       474      1763      2212      2213
 -1       797    8    0    1
 -2       325       326       475      1760      2214      2215
 -1       798    8    0    1
 -2       326       474       475      2213      2216      2214
 -1       799    8    0    1
 -2       328       329       476      1769      2217      2218
 -1       800    8    0    1
 -2       329       330       477      1772      2219      2220
 -1       801    8    0    1
 -2       329       477       476      2220      2221      2217
 -1       802    8    0    1
 -2       330       331       478      1775      2222      2223
 -1       803    8    0    1
 -2       330       478       477      2223      2224      2219
 -1       804    8    0    1
 -2       331       332       479      1778      2225      2226
 -1       805    8    0    1
 -2       331       479       478      2226      2227      2222
 -1       806    8    0    1
 -2       332       333       480      1781      2228      2229
 -1       807    8    0    1
 -2       332       480       479      2229      2230      2225
 -1       808    8    0    1
 -2       333       334       481      1784      2231      2232
 -1       809    8    0    1
 -2       333       481       480      2232      2233      2228
 -1       810    8    0    1
 -2       334       335       482      1787      2234      2235
 -1       811    8    0    1
 -2       334       482       481      2235      2236      2231
 -1       812    8    0    1
 -2       335       336       483      1790      2237      2238
 -1       813    8    0    1
 -2       482       335       483      2234      2238      2239
 -1       814    8    0    1
 -2       336       337       483      1795      2240      2237
 -1       815    8    0    1
 -2       339       338       484      1801      2241      2242
 -1       816    8    0    1
 -2       442       445       485      2185      2243      2244
 -1       817    8    0    1
 -2       445       443       486      2183      2245      2246
 -1       818    8    0    1
 -2       445       486       485      2246      2247      2243
 -1       819    8    0    1
 -2       340       339       487      1804      2248      2249
 -1       820    8    0    1
 -2       339       484       487      2242      2250      2248
 -1       821    8    0    1
 -2       341       340       488      1807      2251      2252
 -1       822    8    0    1
 -2       340       487       488      2249      2253      2251
 -1       823    8    0    1
 -2       342       341       489      1810      2254      2255
 -1       824    8    0    1
 -2       341       488       489      2252      2256      2254
 -1       825    8    0    1
 -2       343       342       490      1813      2257      2258
 -1       826    8    0    1
 -2       342       489       490      2255      2259      2257
 -1       827    8    0    1
 -2       344       343       491      1816      2260      2261
 -1       828    8    0    1
 -2       343       490       491      2258      2262      2260
 -1       829    8    0    1
 -2       345       344       492      1819      2263      2264
 -1       830    8    0    1
 -2       344       491       492      2261      2265      2263
 -1       831    8    0    1
 -2       346       345       493      1822      2266      2267
 -1       832    8    0    1
 -2       345       492       493      2264      2268      2266
 -1       833    8    0    1
 -2       347       346       494      1825      2269      2270
 -1       834    8    0    1
 -2       346       493       494      2267      2271      2269
 -1       835    8    0    1
 -2       348       347       495      1828      2272      2273
 -1       836    8    0    1
 -2       347       494       495      2270      2274      2272
 -1       837    8    0    1
 -2       349       348       496      1831      2275      2276
 -1       838    8    0    1
 -2       348       495       496      2273      2277      2275
 -1       839    8    0    1
 -2       350       349       497      1834      2278      2279
 -1       840    8    0    1
 -2       349       496       497      2276      2280      2278
 -1       841    8    0    1
 -2       351       350       498      1837      2281      2282
 -1       842    8    0    1
 -2       350       497       498      2279      2283      2281
 -1       843    8    0    1
 -2       352       351       499      1840      2284      2285
 -1       844    8    0    1
 -2       351       498       499      2282      2286      2284
 -1       845    8    0    1
 -2       353       352       500      1843      2287      2288
 -1       846    8    0    1
 -2       352       499       500      2285      2289      2287
 -1       847    8    0    1
 -2       354       353       501      1846      2290      2291
 -1       848    8    0    1
 -2       353       500       501      2288      2292      2290
 -1       849    8    0    1
 -2       355       354       502      1849      2293      2294
 -1       850    8    0    1
 -2       354       501       502      2291      2295      2293
 -1       851    8    0    1
 -2       356       355       503      1852      2296      2297
 -1       852    8    0    1
 -2       355       502       503      2294      2298      2296
 -1       853    8    0    1
 -2       357       356       504      1855      2299      2300
 -1       854    8    0    1
 -2       356       503       504      2297      2301      2299
 -1       855    8    0    1
 -2       358       357       505      1858      2302      2303
 -1       856    8    0    1
 -2       357       504       505      2300      2304      2302
 -1       857    8    0    1
 -2       359       358       506      1861      2305      2306
 -1       858    8    0    1
 -2       358       505       506      2303      2307      2305
 -1       859    8    0    1
 -2       360       359       507      1864      2308      2309
 -1       860    8    0    1
 -2       359       506       507      2306      2310      2308
 -1       861    8    0    1
 -2       361       360       508      1867      2311      2312
 -1       862    8    0    1
 -2       360       507       508      2309      2313      2311
 -1       863    8    0    1
 -2       362       361       509      1870      2314      2315
 -1       864    8    0    1
 -2       361       508       509      2312      2316      2314
 -1       865    8    0    1
 -2       363       362       510      1873      2317      2318
 -1       866    8    0    1
 -2       362       509       510      2315      2319      2317
 -1       867    8    0    1
 -2       364       363       511      1876      2320      2321
 -1       868    8    0    1
 -2       363       510       511      2318      2322      2320
 -1       869    8    0    1
 -2       365       364       512      1879      2323      2324
 -1       870    8    0    1
 -2       364       511       512      2321      2325      2323
 -1       871    8    0    1
 -2       366       365       513      1882      2326      2327
 -1       872    8    0    1
 -2       365       512       513      2324      2328      2326
 -1       873    8    0    1
 -2       367       366       514      1885      2329      2330
 -1       874    8    0    1
 -2       366       513       514      2327      2331      2329
 -1       875    8    0    1
 -2       368       367       515      1888      2332      2333
 -1       876    8    0    1
 -2       367       514       515      2330      2334      2332
 -1       877    8    0    1
 -2       369       368       516      1891      2335      2336
 -1       878    8    0    1
 -2       368       515       516      2333      2337      2335
 -1       879    8    0    1
 -2       370       369       517      1894      2338      2339
 -1       880    8    0    1
 -2       369       516       517      2336      2340      2338
 -1       881    8    0    1
 -2       371       370       518      1897      2341      2342
 -1       882    8    0    1
 -2       370       517       518      2339      2343      2341
 -1       883    8    0    1
 -2       373       372       519      1903      2344      2345
 -1       884    8    0    1
 -2       374       373       520      1906      2346      2347
 -1       885    8    0    1
 -2       376       375       521      1912      2348      2349
 -1       886    8    0    1
 -2       377       376       522      1915      2350      2351
 -1       887    8    0    1
 -2       376       521       522      2349      2352      2350
 -1       888    8    0    1
 -2       378       377       523      1918      2353      2354
 -1       889    8    0    1
 -2       377       522       523      2351      2355      2353
 -1       890    8    0    1
 -2       379       378       524      1921      2356      2357
 -1       891    8    0    1
 -2       378       523       524      2354      2358      2356
 -1       892    8    0    1
 -2       380       379       525      1924      2359      2360
 -1       893    8    0    1
 -2       379       524       525      2357      2361      2359
 -1       894    8    0    1
 -2       381       380       526      1927      2362      2363
 -1       895    8    0    1
 -2       380       525       526      2360      2364      2362
 -1       896    8    0    1
 -2       382       381       527      1930      2365      2366
 -1       897    8    0    1
 -2       381       526       527      2363      2367      2365
 -1       898    8    0    1
 -2       383       382       528      1933      2368      2369
 -1       899    8    0    1
 -2       440       383       528      2192      2369      2370
 -1       900    8    0    1
 -2       382       527       528      2366      2371      2368
 -1       901    8    0    1
 -2       386       387       529      1945      2372      2373
 -1       902    8    0    1
 -2       385       386       530      1942      2374      2375
 -1       903    8    0    1
 -2       386       529       530      2373      2376      2374
 -1       904    8    0    1
 -2       384       385       531      1939      2377      2378
 -1       905    8    0    1
 -2       385       530       531      2375      2379      2377
 -1       906    8    0    1
 -2       387       388       532      1948      2380      2381
 -1       907    8    0    1
 -2       387       532       529      2381      2382      2372
 -1       908    8    0    1
 -2       388       389       533      1951      2383      2384
 -1       909    8    0    1
 -2       388       533       532      2384      2385      2380
 -1       910    8    0    1
 -2       389       390       534      1954      2386      2387
 -1       911    8    0    1
 -2       389       534       533      2387      2388      2383
 -1       912    8    0    1
 -2       390       391       535      1957      2389      2390
 -1       913    8    0    1
 -2       390       535       534      2390      2391      2386
 -1       914    8    0    1
 -2       391       392       536      1960      2392      2393
 -1       915    8    0    1
 -2       391       536       535      2393      2394      2389
 -1       916    8    0    1
 -2       392       393       537      1963      2395      2396
 -1       917    8    0    1
 -2       392       537       536      2396      2397      2392
 -1       918    8    0    1
 -2       393       394       538      1966      2398      2399
 -1       919    8    0    1
 -2       393       538       537      2399      2400      2395
 -1       920    8    0    1
 -2       394       395       539      1969      2401      2402
 -1       921    8    0    1
 -2       394       539       538      2402      2403      2398
 -1       922    8    0    1
 -2       395       396       540      1972      2404      2405
 -1       923    8    0    1
 -2       395       540       539      2405      2406      2401
 -1       924    8    0    1
 -2       396       397       541      1975      2407      2408
 -1       925    8    0    1
 -2       396       541       540      2408      2409      2404
 -1       926    8    0    1
 -2       397       398       542      1978      2410      2411
 -1       927    8    0    1
 -2       397       542       541      2411      2412      2407
 -1       928    8    0    1
 -2       398       399       543      1981      2413      2414
 -1       929    8    0    1
 -2       398       543       542      2414      2415      2410
 -1       930    8    0    1
 -2       399       400       544      1984      2416      2417
 -1       931    8    0    1
 -2       399       544       543      2417      2418      2413
 -1       932    8    0    1
 -2       400       401       545      1987      2419      2420
 -1       933    8    0    1
 -2       400       545       544      2420      2421      2416
 -1       934    8    0    1
 -2       401       402       546      1990      2422      2423
 -1       935    8    0    1
 -2       401       546       545      2423      2424      2419
 -1       936    8    0    1
 -2       402       403       547      1993      2425      2426
 -1       937    8    0    1
 -2       402       547       546      2426      2427      2422
 -1       938    8    0    1
 -2       403       404       548      1996      2428      2429
 -1       939    8    0    1
 -2       403       548       547      2429      2430      2425
 -1       940    8    0    1
 -2       404       405       549      1999      2431      2432
 -1       941    8    0    1
 -2       404       549       548      2432      2433      2428
 -1       942    8    0    1
 -2       405       406       550      2002      2434      2435
 -1       943    8    0    1
 -2       405       550       549      2435      2436      2431
 -1       944    8    0    1
 -2       406       407       551      2005      2437      2438
 -1       945    8    0    1
 -2       406       551       550      2438      2439      2434
 -1       946    8    0    1
 -2       407       408       552      2008      2440      2441
 -1       947    8    0    1
 -2       407       552       551      2441      2442      2437
 -1       948    8    0    1
 -2       408       409       553      2011      2443      2444
 -1       949    8    0    1
 -2       408       553       552      2444      2445      2440
 -1       950    8    0    1
 -2       409       410       554      2014      2446      2447
 -1       951    8    0    1
 -2       409       554       553      2447      2448      2443
 -1       952    8    0    1
 -2       410       411       555      2017      2449      2450
 -1       953    8    0    1
 -2       410       555       554      2450      2451      2446
 -1       954    8    0    1
 -2       411       412       556      2020      2452      2453
 -1       955    8    0    1
 -2       411       556       555      2453      2454      2449
 -1       956    8    0    1
 -2       412       413       557      2023      2455      2456
 -1       957    8    0    1
 -2       412       557       556      2456      2457      2452
 -1       958    8    0    1
 -2       413       414       558      2026      2458      2459
 -1       959    8    0    1
 -2       413       558       557      2459      2460      2455
 -1       960    8    0    1
 -2       414       415       559      2029      2461      2462
 -1       961    8    0    1
 -2       414       559       558      2462      2463      2458
 -1       962    8    0    1
 -2       415       416       560      2032      2464      2465
 -1       963    8    0    1
 -2       415       560       559      2465      2466      2461
 -1       964    8    0    1
 -2       416       417       561      2035      2467      2468
 -1       965    8    0    1
 -2       416       561       560      2468      2469      2464
 -1       966    8    0    1
 -2       417       418       562      2038      2470      2471
 -1       967    8    0    1
 -2       417       562       561      2471      2472      2467
 -1       968    8    0    1
 -2       418       419       563      2041      2473      2474
 -1       969    8    0    1
 -2       418       563       562      2474      2475      2470
 -1       970    8    0    1
 -2       419       420       564      2044      2476      2477
 -1       971    8    0    1
 -2       419       564       563      2477      2478      2473
 -1       972    8    0    1
 -2       420       421       565      2047      2479      2480
 -1       973    8    0    1
 -2       420       565       564      2480      2481      2476
 -1       974    8    0    1
 -2       421       422       566      2050      2482      2483
 -1       975    8    0    1
 -2       421       566       565      2483      2484      2479
 -1       976    8    0    1
 -2       422       423       567      2053      2485      2486
 -1       977    8    0    1
 -2       422       567       566      2486      2487      2482
 -1       978    8    0    1
 -2       423       424       568      2056      2488      2489
 -1       979    8    0    1
 -2       423       568       567      2489      2490      2485
 -1       980    8    0    1
 -2       424       425       569      2059      2491      2492
 -1       981    8    0    1
 -2       424       569       568      2492      2493      2488
 -1       982    8    0    1
 -2       425       426       570      2062      2494      2495
 -1       983    8    0    1
 -2       425       570       569      2495      2496      2491
 -1       984    8    0    1
 -2       426       427       571      2065      2497      2498
 -1       985    8    0    1
 -2       426       571       570      2498      2499      2494
 -1       986    8    0    1
 -2       427       428       430      2068      2188      2500
 -1       987    8    0    1
 -2       431       432       572      2081      2501      2502
 -1       988    8    0    1
 -2       429       431       573      2078      2503      2504
 -1       989    8    0    1
 -2       431       572       573      2502      2505      2503
 -1       990    8    0    1
 -2       430       429       574      2074      2506      2507
 -1       991    8    0    1
 -2       429       573       574      2504      2508      2506
 -1       992    8    0    1
 -2       444       472       575      2189      2509      2510
 -1       993    8    0    1
 -2       432       433       576      2084      2511      2512
 -1       994    8    0    1
 -2       432       576       572      2512      2513      2501
 -1       995    8    0    1
 -2       433       434       577      2087      2514      2515
 -1       996    8    0    1
 -2       433       577       576      2515      2516      2511
 -1       997    8    0    1
 -2       434       435       578      2090      2517      2518
 -1       998    8    0    1
 -2       434       578       577      2518      2519      2514
 -1       999    8    0    1
 -2       435       436       579      2093      2520      2521
 -1      1000    8    0    1
 -2       435       579       578      2521      2522      2517
 -1      1001    8    0    1
 -2       436       437       580      2096      2523      2524
 -1      1002    8    0    1
 -2       436       580       579      2524      2525      2520
 -1      1003    8    0    1
 -2       437       438       581      2099      2526      2527
 -1      1004    8    0    1
 -2       437       581       580      2527      2528      2523
 -1      1005    8    0    1
 -2       438       439       582      2102      2529      2530
 -1      1006    8    0    1
 -2       438       582       581      2530      2531      2526
 -1      1007    8    0    1
 -2       439       440       583      2105      2532      2533
 -1      1008    8    0    1
 -2       582       439       583      2529      2533      2534
 -1      1009    8    0    1
 -2       440       528       583      2370      2535      2532
 -1      1010    8    0    1
 -2       470       471       584      2193      2536      2537
 -1      1011    8    0    1
 -2       338       324       585      2187      2538      2539
 -1      1012    8    0    1
 -2       484       338       585      2241      2539      2540
 -1      1013    8    0    1
 -2       324       323       585      1755      2541      2538
 -1      1014    8    0    1
 -2       443       447       586      2186      2542      2543
 -1      1015    8    0    1
 -2       471       444       587      2179      2544      2545
 -1      1016    8    0    1
 -2       452       453       588      2207      2546      2547
 -1      1017    8    0    1
 -2       327       328       589      1766      2548      2549
 -1      1018    8    0    1
 -2       474       327       589      2212      2549      2550
 -1      1019    8    0    1
 -2       328       476       589      2218      2551      2548
 -1      1020    8    0    1
 -2       451       452       590      2210      2552      2553
 -1      1021    8    0    1
 -2       447       448       591      2126      2554      2555
 -1      1022    8    0    1
 -2       448       449       592      2209      2556      2557
 -1      1023    8    0    1
 -2       449       450       593      2131      2558      2559
 -1      1024    8    0    1
 -2       463       464       520      2211      2560      2561
 -1      1025    8    0    1
 -2       450       451       594      2208      2562      2563
 -1      1026    8    0    1
 -2       450       594       593      2563      2564      2558
 -1      1027    8    0    1
 -2       453       454       595      2140      2565      2566
 -1      1028    8    0    1
 -2       453       595       588      2566      2567      2546
 -1      1029    8    0    1
 -2       454       455       596      2206      2568      2569
 -1      1030    8    0    1
 -2       455       456       597      2145      2570      2571
 -1      1031    8    0    1
 -2       456       457       598      2205      2572      2573
 -1      1032    8    0    1
 -2       457       458       599      2150      2574      2575
 -1      1033    8    0    1
 -2       459       460       600      2155      2576      2577
 -1      1034    8    0    1
 -2       460       461       601      2201      2578      2579
 -1      1035    8    0    1
 -2       460       601       600      2579      2580      2576
 -1      1036    8    0    1
 -2       461       462       602      2160      2581      2582
 -1      1037    8    0    1
 -2       462       463       519      2200      2583      2584
 -1      1038    8    0    1
 -2       465       466       603      2198      2585      2586
 -1      1039    8    0    1
 -2       466       467       521      2197      2587      2588
 -1      1040    8    0    1
 -2       467       468       604      2196      2589      2590
 -1      1041    8    0    1
 -2       468       469       605      2195      2591      2592
 -1      1042    8    0    1
 -2       469       470       606      2194      2593      2594
 -1      1043    8    0    1
 -2       472       442       607      2191      2595      2596
 -1      1044    8    0    1
 -2       427       430       571      2500      2597      2497
 -1      1045    8    0    1
 -2       325       475       608      2215      2598      2599
 -1      1046    8    0    1
 -2       325       608       446      2599      2600      2121
 -1      1047    8    0    1
 -2       586       447       591      2542      2555      2601
 -1      1048    8    0    1
 -2       483       337       609      2240      2602      2603
 -1      1049    8    0    1
 -2       337       441       609      2108      2604      2602
 -1      1050    8    0    1
 -2       373       519       520      2345      2605      2346
 -1      1051    8    0    1
 -2       607       442       485      2595      2244      2606
 -1      1052    8    0    1
 -2       606       470       584      2593      2537      2607
 -1      1053    8    0    1
 -2       605       469       606      2591      2594      2608
 -1      1054    8    0    1
 -2       604       468       605      2589      2592      2609
 -1      1055    8    0    1
 -2       521       467       604      2587      2590      2610
 -1      1056    8    0    1
 -2       372       371       610      1900      2611      2612
 -1      1057    8    0    1
 -2       374       520       611      2347      2613      2614
 -1      1058    8    0    1
 -2       375       374       611      1909      2614      2615
 -1      1059    8    0    1
 -2       520       464       611      2560      2616      2613
 -1      1060    8    0    1
 -2       444       575       587      2510      2617      2544
 -1      1061    8    0    1
 -2       575       472       607      2509      2596      2618
 -1      1062    8    0    1
 -2       603       466       521      2585      2588      2619
 -1      1063    8    0    1
 -2       519       463       520      2583      2561      2605
 -1      1064    8    0    1
 -2       584       471       587      2536      2545      2620
 -1      1065    8    0    1
 -2       585       323       446      2541      2120      2621
 -1      1066    8    0    1
 -2       441       384       612      2109      2622      2623
 -1      1067    8    0    1
 -2       609       441       612      2604      2623      2624
 -1      1068    8    0    1
 -2       384       531       612      2378      2625      2622
 -1      1069    8    0    1
 -2       601       461       602      2578      2582      2626
 -1      1070    8    0    1
 -2       430       574       571      2507      2627      2597
 -1      1071    8    0    1
 -2       599       458       613      2574      2628      2629
 -1      1072    8    0    1
 -2       458       473       613      2203      2630      2628
 -1      1073    8    0    1
 -2       452       588       614      2547      2631      2632
 -1      1074    8    0    1
 -2       452       614       590      2632      2633      2552
 -1      1075    8    0    1
 -2       598       457       599      2572      2575      2634
 -1      1076    8    0    1
 -2       597       456       598      2570      2573      2635
 -1      1077    8    0    1
 -2       594       451       590      2562      2553      2636
 -1      1078    8    0    1
 -2       592       449       593      2556      2559      2637
 -1      1079    8    0    1
 -2       454       596       595      2569      2638      2565
 -1      1080    8    0    1
 -2       473       459       600      2204      2577      2639
 -1      1081    8    0    1
 -2       486       443       586      2245      2543      2640
 -1      1082    8    0    1
 -2       591       448       592      2554      2557      2641
 -1      1083    8    0    1
 -2       596       455       597      2568      2571      2642
 -1      1084    8    0    1
 -2       602       462       519      2581      2584      2643
 -1      1085    8    0    1
 -2       465       603       611      2586      2644      2645
 -1      1086    8    0    1
 -2       464       465       611      2199      2645      2616
 -1      1087    8    0    1
 -2       371       518       610      2342      2646      2611
 -1      1088    8    0    1
 -2       477       478       615      2224      2647      2648
 -1      1089    8    0    1
 -2       476       477       616      2221      2649      2650
 -1      1090    8    0    1
 -2       477       615       616      2648      2651      2649
 -1      1091    8    0    1
 -2       479       480       617      2230      2652      2653
 -1      1092    8    0    1
 -2       480       481       618      2233      2654      2655
 -1      1093    8    0    1
 -2       480       618       617      2655      2656      2652
 -1      1094    8    0    1
 -2       482       483       619      2239      2657      2658
 -1      1095    8    0    1
 -2       483       609       619      2603      2659      2657
 -1      1096    8    0    1
 -2       586       591       620      2601      2660      2661
 -1      1097    8    0    1
 -2       606       584       621      2607      2662      2663
 -1      1098    8    0    1
 -2       485       486       622      2247      2664      2665
 -1      1099    8    0    1
 -2       487       484       623      2250      2666      2667
 -1      1100    8    0    1
 -2       488       487       624      2253      2668      2669
 -1      1101    8    0    1
 -2       487       623       624      2667      2670      2668
 -1      1102    8    0    1
 -2       489       488       625      2256      2671      2672
 -1      1103    8    0    1
 -2       488       624       625      2669      2673      2671
 -1      1104    8    0    1
 -2       490       489       626      2259      2674      2675
 -1      1105    8    0    1
 -2       489       625       626      2672      2676      2674
 -1      1106    8    0    1
 -2       491       490       627      2262      2677      2678
 -1      1107    8    0    1
 -2       490       626       627      2675      2679      2677
 -1      1108    8    0    1
 -2       492       491       628      2265      2680      2681
 -1      1109    8    0    1
 -2       491       627       628      2678      2682      2680
 -1      1110    8    0    1
 -2       493       492       629      2268      2683      2684
 -1      1111    8    0    1
 -2       492       628       629      2681      2685      2683
 -1      1112    8    0    1
 -2       494       493       630      2271      2686      2687
 -1      1113    8    0    1
 -2       493       629       630      2684      2688      2686
 -1      1114    8    0    1
 -2       495       494       631      2274      2689      2690
 -1      1115    8    0    1
 -2       494       630       631      2687      2691      2689
 -1      1116    8    0    1
 -2       496       495       632      2277      2692      2693
 -1      1117    8    0    1
 -2       495       631       632      2690      2694      2692
 -1      1118    8    0    1
 -2       497       496       633      2280      2695      2696
 -1      1119    8    0    1
 -2       496       632       633      2693      2697      2695
 -1      1120    8    0    1
 -2       498       497       634      2283      2698      2699
 -1      1121    8    0    1
 -2       497       633       634      2696      2700      2698
 -1      1122    8    0    1
 -2       499       498       635      2286      2701      2702
 -1      1123    8    0    1
 -2       498       634       635      2699      2703      2701
 -1      1124    8    0    1
 -2       500       499       636      2289      2704      2705
 -1      1125    8    0    1
 -2       499       635       636      2702      2706      2704
 -1      1126    8    0    1
 -2       501       500       637      2292      2707      2708
 -1      1127    8    0    1
 -2       500       636       637      2705      2709      2707
 -1      1128    8    0    1
 -2       502       501       638      2295      2710      2711
 -1      1129    8    0    1
 -2       501       637       638      2708      2712      2710
 -1      1130    8    0    1
 -2       503       502       639      2298      2713      2714
 -1      1131    8    0    1
 -2       502       638       639      2711      2715      2713
 -1      1132    8    0    1
 -2       504       503       640      2301      2716      2717
 -1      1133    8    0    1
 -2       503       639       640      2714      2718      2716
 -1      1134    8    0    1
 -2       505       504       641      2304      2719      2720
 -1      1135    8    0    1
 -2       504       640       641      2717      2721      2719
 -1      1136    8    0    1
 -2       506       505       642      2307      2722      2723
 -1      1137    8    0    1
 -2       505       641       642      2720      2724      2722
 -1      1138    8    0    1
 -2       507       506       643      2310      2725      2726
 -1      1139    8    0    1
 -2       506       642       643      2723      2727      2725
 -1      1140    8    0    1
 -2       508       507       644      2313      2728      2729
 -1      1141    8    0    1
 -2       507       643       644      2726      2730      2728
 -1      1142    8    0    1
 -2       509       508       645      2316      2731      2732
 -1      1143    8    0    1
 -2       508       644       645      2729      2733      2731
 -1      1144    8    0    1
 -2       510       509       646      2319      2734      2735
 -1      1145    8    0    1
 -2       509       645       646      2732      2736      2734
 -1      1146    8    0    1
 -2       511       510       647      2322      2737      2738
 -1      1147    8    0    1
 -2       510       646       647      2735      2739      2737
 -1      1148    8    0    1
 -2       512       511       648      2325      2740      2741
 -1      1149    8    0    1
 -2       511       647       648      2738      2742      2740
 -1      1150    8    0    1
 -2       513       512       649      2328      2743      2744
 -1      1151    8    0    1
 -2       512       648       649      2741      2745      2743
 -1      1152    8    0    1
 -2       514       513       650      2331      2746      2747
 -1      1153    8    0    1
 -2       513       649       650      2744      2748      2746
 -1      1154    8    0    1
 -2       515       514       651      2334      2749      2750
 -1      1155    8    0    1
 -2       514       650       651      2747      2751      2749
 -1      1156    8    0    1
 -2       516       515       652      2337      2752      2753
 -1      1157    8    0    1
 -2       515       651       652      2750      2754      2752
 -1      1158    8    0    1
 -2       517       516       653      2340      2755      2756
 -1      1159    8    0    1
 -2       516       652       653      2753      2757      2755
 -1      1160    8    0    1
 -2       519       372       610      2344      2612      2758
 -1      1161    8    0    1
 -2       375       611       603      2615      2644      2759
 -1      1162    8    0    1
 -2       605       606       654      2608      2760      2761
 -1      1163    8    0    1
 -2       524       523       655      2358      2762      2763
 -1      1164    8    0    1
 -2       525       524       656      2361      2764      2765
 -1      1165    8    0    1
 -2       524       655       656      2763      2766      2764
 -1      1166    8    0    1
 -2       526       525       657      2364      2767      2768
 -1      1167    8    0    1
 -2       525       656       657      2765      2769      2767
 -1      1168    8    0    1
 -2       527       526       658      2367      2770      2771
 -1      1169    8    0    1
 -2       526       657       658      2768      2772      2770
 -1      1170    8    0    1
 -2       528       527       659      2371      2773      2774
 -1      1171    8    0    1
 -2       583       528       659      2535      2774      2775
 -1      1172    8    0    1
 -2       527       658       659      2771      2776      2773
 -1      1173    8    0    1
 -2       530       529       660      2376      2777      2778
 -1      1174    8    0    1
 -2       529       532       661      2382      2779      2780
 -1      1175    8    0    1
 -2       529       661       660      2780      2781      2777
 -1      1176    8    0    1
 -2       531       530       662      2379      2782      2783
 -1      1177    8    0    1
 -2       530       660       662      2778      2784      2782
 -1      1178    8    0    1
 -2       533       534       663      2388      2785      2786
 -1      1179    8    0    1
 -2       534       535       664      2391      2787      2788
 -1      1180    8    0    1
 -2       534       664       663      2788      2789      2785
 -1      1181    8    0    1
 -2       535       536       665      2394      2790      2791
 -1      1182    8    0    1
 -2       535       665       664      2791      2792      2787
 -1      1183    8    0    1
 -2       536       537       666      2397      2793      2794
 -1      1184    8    0    1
 -2       536       666       665      2794      2795      2790
 -1      1185    8    0    1
 -2       537       538       667      2400      2796      2797
 -1      1186    8    0    1
 -2       537       667       666      2797      2798      2793
 -1      1187    8    0    1
 -2       538       539       668      2403      2799      2800
 -1      1188    8    0    1
 -2       538       668       667      2800      2801      2796
 -1      1189    8    0    1
 -2       539       540       669      2406      2802      2803
 -1      1190    8    0    1
 -2       539       669       668      2803      2804      2799
 -1      1191    8    0    1
 -2       540       541       670      2409      2805      2806
 -1      1192    8    0    1
 -2       540       670       669      2806      2807      2802
 -1      1193    8    0    1
 -2       541       542       671      2412      2808      2809
 -1      1194    8    0    1
 -2       541       671       670      2809      2810      2805
 -1      1195    8    0    1
 -2       542       543       672      2415      2811      2812
 -1      1196    8    0    1
 -2       542       672       671      2812      2813      2808
 -1      1197    8    0    1
 -2       543       544       673      2418      2814      2815
 -1      1198    8    0    1
 -2       543       673       672      2815      2816      2811
 -1      1199    8    0    1
 -2       544       545       674      2421      2817      2818
 -1      1200    8    0    1
 -2       544       674       673      2818      2819      2814
 -1      1201    8    0    1
 -2       545       546       675      2424      2820      2821
 -1      1202    8    0    1
 -2       545       675       674      2821      2822      2817
 -1      1203    8    0    1
 -2       546       547       676      2427      2823      2824
 -1      1204    8    0    1
 -2       546       676       675      2824      2825      2820
 -1      1205    8    0    1
 -2       547       548       677      2430      2826      2827
 -1      1206    8    0    1
 -2       547       677       676      2827      2828      2823
 -1      1207    8    0    1
 -2       548       549       678      2433      2829      2830
 -1      1208    8    0    1
 -2       548       678       677      2830      2831      2826
 -1      1209    8    0    1
 -2       549       550       679      2436      2832      2833
 -1      1210    8    0    1
 -2       549       679       678      2833      2834      2829
 -1      1211    8    0    1
 -2       550       551       680      2439      2835      2836
 -1      1212    8    0    1
 -2       550       680       679      2836      2837      2832
 -1      1213    8    0    1
 -2       551       552       681      2442      2838      2839
 -1      1214    8    0    1
 -2       551       681       680      2839      2840      2835
 -1      1215    8    0    1
 -2       552       553       682      2445      2841      2842
 -1      1216    8    0    1
 -2       552       682       681      2842      2843      2838
 -1      1217    8    0    1
 -2       553       554       683      2448      2844      2845
 -1      1218    8    0    1
 -2       553       683       682      2845      2846      2841
 -1      1219    8    0    1
 -2       554       555       684      2451      2847      2848
 -1      1220    8    0    1
 -2       554       684       683      2848      2849      2844
 -1      1221    8    0    1
 -2       555       556       685      2454      2850      2851
 -1      1222    8    0    1
 -2       555       685       684      2851      2852      2847
 -1      1223    8    0    1
 -2       556       557       686      2457      2853      2854
 -1      1224    8    0    1
 -2       556       686       685      2854      2855      2850
 -1      1225    8    0    1
 -2       557       558       687      2460      2856      2857
 -1      1226    8    0    1
 -2       557       687       686      2857      2858      2853
 -1      1227    8    0    1
 -2       558       559       688      2463      2859      2860
 -1      1228    8    0    1
 -2       558       688       687      2860      2861      2856
 -1      1229    8    0    1
 -2       559       560       689      2466      2862      2863
 -1      1230    8    0    1
 -2       559       689       688      2863      2864      2859
 -1      1231    8    0    1
 -2       560       561       690      2469      2865      2866
 -1      1232    8    0    1
 -2       560       690       689      2866      2867      2862
 -1      1233    8    0    1
 -2       561       562       691      2472      2868      2869
 -1      1234    8    0    1
 -2       561       691       690      2869      2870      2865
 -1      1235    8    0    1
 -2       562       563       692      2475      2871      2872
 -1      1236    8    0    1
 -2       562       692       691      2872      2873      2868
 -1      1237    8    0    1
 -2       563       564       693      2478      2874      2875
 -1      1238    8    0    1
 -2       563       693       692      2875      2876      2871
 -1      1239    8    0    1
 -2       564       565       694      2481      2877      2878
 -1      1240    8    0    1
 -2       564       694       693      2878      2879      2874
 -1      1241    8    0    1
 -2       565       566       695      2484      2880      2881
 -1      1242    8    0    1
 -2       565       695       694      2881      2882      2877
 -1      1243    8    0    1
 -2       566       567       696      2487      2883      2884
 -1      1244    8    0    1
 -2       566       696       695      2884      2885      2880
 -1      1245    8    0    1
 -2       567       568       697      2490      2886      2887
 -1      1246    8    0    1
 -2       567       697       696      2887      2888      2883
 -1      1247    8    0    1
 -2       568       569       698      2493      2889      2890
 -1      1248    8    0    1
 -2       568       698       697      2890      2891      2886
 -1      1249    8    0    1
 -2       569       570       699      2496      2892      2893
 -1      1250    8    0    1
 -2       569       699       698      2893      2894      2889
 -1      1251    8    0    1
 -2       570       571       700      2499      2895      2896
 -1      1252    8    0    1
 -2       699       570       700      2892      2896      2897
 -1      1253    8    0    1
 -2       571       574       700      2627      2898      2895
 -1      1254    8    0    1
 -2       573       572       701      2505      2899      2900
 -1      1255    8    0    1
 -2       576       577       702      2516      2901      2902
 -1      1256    8    0    1
 -2       574       573       703      2508      2903      2904
 -1      1257    8    0    1
 -2       700       574       703      2898      2904      2905
 -1      1258    8    0    1
 -2       573       701       703      2900      2906      2903
 -1      1259    8    0    1
 -2       572       576       704      2513      2907      2908
 -1      1260    8    0    1
 -2       701       572       704      2899      2908      2909
 -1      1261    8    0    1
 -2       576       702       704      2902      2910      2907
 -1      1262    8    0    1
 -2       578       579       705      2522      2911      2912
 -1      1263    8    0    1
 -2       579       580       706      2525      2913      2914
 -1      1264    8    0    1
 -2       579       706       705      2914      2915      2911
 -1      1265    8    0    1
 -2       580       581       707      2528      2916      2917
 -1      1266    8    0    1
 -2       580       707       706      2917      2918      2913
 -1      1267    8    0    1
 -2       581       582       708      2531      2919      2920
 -1      1268    8    0    1
 -2       581       708       707      2920      2921      2916
 -1      1269    8    0    1
 -2       584       587       709      2620      2922      2923
 -1      1270    8    0    1
 -2       584       709       621      2923      2924      2662
 -1      1271    8    0    1
 -2       575       607       710      2618      2925      2926
 -1      1272    8    0    1
 -2       585       446       608      2621      2600      2927
 -1      1273    8    0    1
 -2       587       575       711      2617      2928      2929
 -1      1274    8    0    1
 -2       588       595       712      2567      2930      2931
 -1      1275    8    0    1
 -2       577       578       713      2519      2932      2933
 -1      1276    8    0    1
 -2       578       705       713      2912      2934      2932
 -1      1277    8    0    1
 -2       522       521       604      2352      2610      2935
 -1      1278    8    0    1
 -2       521       375       603      2348      2759      2619
 -1      1279    8    0    1
 -2       607       485       714      2606      2936      2937
 -1      1280    8    0    1
 -2       591       592       715      2641      2938      2939
 -1      1281    8    0    1
 -2       478       479       716      2227      2940      2941
 -1      1282    8    0    1
 -2       615       478       716      2647      2941      2942
 -1      1283    8    0    1
 -2       479       617       716      2653      2943      2940
 -1      1284    8    0    1
 -2       596       597       717      2642      2944      2945
 -1      1285    8    0    1
 -2       595       596       718      2638      2946      2947
 -1      1286    8    0    1
 -2       595       718       712      2947      2948      2930
 -1      1287    8    0    1
 -2       475       474       719      2216      2949      2950
 -1      1288    8    0    1
 -2       593       594       720      2564      2951      2952
 -1      1289    8    0    1
 -2       473       600       721      2639      2953      2954
 -1      1290    8    0    1
 -2       594       590       722      2636      2955      2956
 -1      1291    8    0    1
 -2       597       598       723      2635      2957      2958
 -1      1292    8    0    1
 -2       486       586       724      2640      2959      2960
 -1      1293    8    0    1
 -2       600       601       725      2580      2961      2962
 -1      1294    8    0    1
 -2       598       599       726      2634      2963      2964
 -1      1295    8    0    1
 -2       592       593       727      2637      2965      2966
 -1      1296    8    0    1
 -2       604       605       728      2609      2967      2968
 -1      1297    8    0    1
 -2       522       604       728      2935      2968      2969
 -1      1298    8    0    1
 -2       605       654       728      2761      2970      2967
 -1      1299    8    0    1
 -2       532       533       729      2385      2971      2972
 -1      1300    8    0    1
 -2       661       532       729      2779      2972      2973
 -1      1301    8    0    1
 -2       533       663       729      2786      2974      2971
 -1      1302    8    0    1
 -2       476       616       730      2650      2975      2976
 -1      1303    8    0    1
 -2       476       730       589      2976      2977      2551
 -1      1304    8    0    1
 -2       482       619       481      2658      2978      2236
 -1      1305    8    0    1
 -2       620       591       731      2660      2979      2980
 -1      1306    8    0    1
 -2       591       715       731      2939      2981      2979
 -1      1307    8    0    1
 -2       727       593       720      2965      2952      2982
 -1      1308    8    0    1
 -2       606       621       654      2663      2983      2760
 -1      1309    8    0    1
 -2       485       622       714      2665      2984      2936
 -1      1310    8    0    1
 -2       517       653       721      2756      2985      2986
 -1      1311    8    0    1
 -2       610       518       725      2646      2987      2988
 -1      1312    8    0    1
 -2       596       717       718      2945      2989      2946
 -1      1313    8    0    1
 -2       518       517       721      2343      2986      2990
 -1      1314    8    0    1
 -2       523       522       728      2355      2969      2991
 -1      1315    8    0    1
 -2       702       577       713      2901      2933      2992
 -1      1316    8    0    1
 -2       608       475       732      2598      2993      2994
 -1      1317    8    0    1
 -2       475       719       732      2950      2995      2993
 -1      1318    8    0    1
 -2       587       711       709      2929      2996      2922
 -1      1319    8    0    1
 -2       582       583       733      2534      2997      2998
 -1      1320    8    0    1
 -2       708       582       733      2919      2998      2999
 -1      1321    8    0    1
 -2       583       659       733      2775      3000      2997
 -1      1322    8    0    1
 -2       531       662       734      2783      3001      3002
 -1      1323    8    0    1
 -2       612       531       734      2625      3002      3003
 -1      1324    8    0    1
 -2       710       607       735      2925      3004      3005
 -1      1325    8    0    1
 -2       607       714       735      2937      3006      3004
 -1      1326    8    0    1
 -2       484       585       736      2540      3007      3008
 -1      1327    8    0    1
 -2       726       599       737      2963      3009      3010
 -1      1328    8    0    1
 -2       599       613       737      2629      3011      3009
 -1      1329    8    0    1
 -2       613       473       721      2630      2954      3012
 -1      1330    8    0    1
 -2       614       588       738      2631      3013      3014
 -1      1331    8    0    1
 -2       588       712       738      2931      3015      3013
 -1      1332    8    0    1
 -2       711       575       710      2928      2926      3016
 -1      1333    8    0    1
 -2       725       601       610      2961      3017      2988
 -1      1334    8    0    1
 -2       724       586       620      2959      2661      3018
 -1      1335    8    0    1
 -2       723       598       726      2957      2964      3019
 -1      1336    8    0    1
 -2       722       590       614      2955      2633      3020
 -1      1337    8    0    1
 -2       481       619       618      2978      3021      2654
 -1      1338    8    0    1
 -2       720       594       722      2951      2956      3022
 -1      1339    8    0    1
 -2       715       592       727      2938      2966      3023
 -1      1340    8    0    1
 -2       474       589       739      2550      3024      3025
 -1      1341    8    0    1
 -2       719       474       739      2949      3025      3026
 -1      1342    8    0    1
 -2       589       730       739      2977      3027      3024
 -1      1343    8    0    1
 -2       623       484       736      2666      3008      3028
 -1      1344    8    0    1
 -2       622       486       724      2664      2960      3029
 -1      1345    8    0    1
 -2       597       723       717      2958      3030      2944
 -1      1346    8    0    1
 -2       523       728       655      2991      3031      2762
 -1      1347    8    0    1
 -2       617       618       740      2656      3032      3033
 -1      1348    8    0    1
 -2       619       609       612      2659      2624      3034
 -1      1349    8    0    1
 -2       721       653       741      2985      3035      3036
 -1      1350    8    0    1
 -2       724       620       742      3018      3037      3038
 -1      1351    8    0    1
 -2       718       717       743      2989      3039      3040
 -1      1352    8    0    1
 -2       519       610       602      2758      3041      2643
 -1      1353    8    0    1
 -2       625       624       744      2673      3042      3043
 -1      1354    8    0    1
 -2       626       625       745      2676      3044      3045
 -1      1355    8    0    1
 -2       625       744       745      3043      3046      3044
 -1      1356    8    0    1
 -2       627       626       746      2679      3047      3048
 -1      1357    8    0    1
 -2       626       745       746      3045      3049      3047
 -1      1358    8    0    1
 -2       628       627       747      2682      3050      3051
 -1      1359    8    0    1
 -2       627       746       747      3048      3052      3050
 -1      1360    8    0    1
 -2       629       628       748      2685      3053      3054
 -1      1361    8    0    1
 -2       628       747       748      3051      3055      3053
 -1      1362    8    0    1
 -2       630       629       749      2688      3056      3057
 -1      1363    8    0    1
 -2       629       748       749      3054      3058      3056
 -1      1364    8    0    1
 -2       631       630       750      2691      3059      3060
 -1      1365    8    0    1
 -2       630       749       750      3057      3061      3059
 -1      1366    8    0    1
 -2       632       631       751      2694      3062      3063
 -1      1367    8    0    1
 -2       631       750       751      3060      3064      3062
 -1      1368    8    0    1
 -2       633       632       752      2697      3065      3066
 -1      1369    8    0    1
 -2       632       751       752      3063      3067      3065
 -1      1370    8    0    1
 -2       634       633       753      2700      3068      3069
 -1      1371    8    0    1
 -2       633       752       753      3066      3070      3068
 -1      1372    8    0    1
 -2       635       634       754      2703      3071      3072
 -1      1373    8    0    1
 -2       634       753       754      3069      3073      3071
 -1      1374    8    0    1
 -2       636       635       755      2706      3074      3075
 -1      1375    8    0    1
 -2       635       754       755      3072      3076      3074
 -1      1376    8    0    1
 -2       637       636       756      2709      3077      3078
 -1      1377    8    0    1
 -2       636       755       756      3075      3079      3077
 -1      1378    8    0    1
 -2       638       637       757      2712      3080      3081
 -1      1379    8    0    1
 -2       637       756       757      3078      3082      3080
 -1      1380    8    0    1
 -2       639       638       758      2715      3083      3084
 -1      1381    8    0    1
 -2       638       757       758      3081      3085      3083
 -1      1382    8    0    1
 -2       640       639       759      2718      3086      3087
 -1      1383    8    0    1
 -2       639       758       759      3084      3088      3086
 -1      1384    8    0    1
 -2       641       640       760      2721      3089      3090
 -1      1385    8    0    1
 -2       640       759       760      3087      3091      3089
 -1      1386    8    0    1
 -2       642       641       761      2724      3092      3093
 -1      1387    8    0    1
 -2       641       760       761      3090      3094      3092
 -1      1388    8    0    1
 -2       643       642       762      2727      3095      3096
 -1      1389    8    0    1
 -2       642       761       762      3093      3097      3095
 -1      1390    8    0    1
 -2       644       643       763      2730      3098      3099
 -1      1391    8    0    1
 -2       643       762       763      3096      3100      3098
 -1      1392    8    0    1
 -2       645       644       764      2733      3101      3102
 -1      1393    8    0    1
 -2       644       763       764      3099      3103      3101
 -1      1394    8    0    1
 -2       646       645       765      2736      3104      3105
 -1      1395    8    0    1
 -2       645       764       765      3102      3106      3104
 -1      1396    8    0    1
 -2       647       646       766      2739      3107      3108
 -1      1397    8    0    1
 -2       646       765       766      3105      3109      3107
 -1      1398    8    0    1
 -2       648       647       767      2742      3110      3111
 -1      1399    8    0    1
 -2       647       766       767      3108      3112      3110
 -1      1400    8    0    1
 -2       649       648       768      2745      3113      3114
 -1      1401    8    0    1
 -2       648       767       768      3111      3115      3113
 -1      1402    8    0    1
 -2       650       649       769      2748      3116      3117
 -1      1403    8    0    1
 -2       649       768       769      3114      3118      3116
 -1      1404    8    0    1
 -2       651       650       770      2751      3119      3120
 -1      1405    8    0    1
 -2       650       769       770      3117      3121      3119
 -1      1406    8    0    1
 -2       652       651       771      2754      3122      3123
 -1      1407    8    0    1
 -2       651       770       771      3120      3124      3122
 -1      1408    8    0    1
 -2       653       652       772      2757      3125      3126
 -1      1409    8    0    1
 -2       741       653       772      3035      3126      3127
 -1      1410    8    0    1
 -2       652       771       772      3123      3128      3125
 -1      1411    8    0    1
 -2       714       622       773      2984      3129      3130
 -1      1412    8    0    1
 -2       601       602       610      2626      3041      3017
 -1      1413    8    0    1
 -2       623       736       774      3028      3131      3132
 -1      1414    8    0    1
 -2       657       656       775      2769      3133      3134
 -1      1415    8    0    1
 -2       658       657       776      2772      3135      3136
 -1      1416    8    0    1
 -2       657       775       776      3134      3137      3135
 -1      1417    8    0    1
 -2       660       661       777      2781      3138      3139
 -1      1418    8    0    1
 -2       662       660       778      2784      3140      3141
 -1      1419    8    0    1
 -2       660       777       778      3139      3142      3140
 -1      1420    8    0    1
 -2       664       665       779      2792      3143      3144
 -1      1421    8    0    1
 -2       663       664       780      2789      3145      3146
 -1      1422    8    0    1
 -2       664       779       780      3144      3147      3145
 -1      1423    8    0    1
 -2       666       667       781      2798      3148      3149
 -1      1424    8    0    1
 -2       667       668       782      2801      3150      3151
 -1      1425    8    0    1
 -2       667       782       781      3151      3152      3148
 -1      1426    8    0    1
 -2       668       669       783      2804      3153      3154
 -1      1427    8    0    1
 -2       668       783       782      3154      3155      3150
 -1      1428    8    0    1
 -2       669       670       784      2807      3156      3157
 -1      1429    8    0    1
 -2       669       784       783      3157      3158      3153
 -1      1430    8    0    1
 -2       670       671       785      2810      3159      3160
 -1      1431    8    0    1
 -2       670       785       784      3160      3161      3156
 -1      1432    8    0    1
 -2       671       672       786      2813      3162      3163
 -1      1433    8    0    1
 -2       671       786       785      3163      3164      3159
 -1      1434    8    0    1
 -2       672       673       787      2816      3165      3166
 -1      1435    8    0    1
 -2       672       787       786      3166      3167      3162
 -1      1436    8    0    1
 -2       673       674       788      2819      3168      3169
 -1      1437    8    0    1
 -2       673       788       787      3169      3170      3165
 -1      1438    8    0    1
 -2       674       675       789      2822      3171      3172
 -1      1439    8    0    1
 -2       674       789       788      3172      3173      3168
 -1      1440    8    0    1
 -2       675       676       790      2825      3174      3175
 -1      1441    8    0    1
 -2       675       790       789      3175      3176      3171
 -1      1442    8    0    1
 -2       676       677       791      2828      3177      3178
 -1      1443    8    0    1
 -2       676       791       790      3178      3179      3174
 -1      1444    8    0    1
 -2       677       678       792      2831      3180      3181
 -1      1445    8    0    1
 -2       677       792       791      3181      3182      3177
 -1      1446    8    0    1
 -2       678       679       793      2834      3183      3184
 -1      1447    8    0    1
 -2       678       793       792      3184      3185      3180
 -1      1448    8    0    1
 -2       679       680       794      2837      3186      3187
 -1      1449    8    0    1
 -2       679       794       793      3187      3188      3183
 -1      1450    8    0    1
 -2       680       681       795      2840      3189      3190
 -1      1451    8    0    1
 -2       680       795       794      3190      3191      3186
 -1      1452    8    0    1
 -2       681       682       796      2843      3192      3193
 -1      1453    8    0    1
 -2       681       796       795      3193      3194      3189
 -1      1454    8    0    1
 -2       682       683       797      2846      3195      3196
 -1      1455    8    0    1
 -2       682       797       796      3196      3197      3192
 -1      1456    8    0    1
 -2       683       684       798      2849      3198      3199
 -1      1457    8    0    1
 -2       683       798       797      3199      3200      3195
 -1      1458    8    0    1
 -2       684       685       799      2852      3201      3202
 -1      1459    8    0    1
 -2       684       799       798      3202      3203      3198
 -1      1460    8    0    1
 -2       685       686       800      2855      3204      3205
 -1      1461    8    0    1
 -2       685       800       799      3205      3206      3201
 -1      1462    8    0    1
 -2       686       687       801      2858      3207      3208
 -1      1463    8    0    1
 -2       686       801       800      3208      3209      3204
 -1      1464    8    0    1
 -2       687       688       802      2861      3210      3211
 -1      1465    8    0    1
 -2       687       802       801      3211      3212      3207
 -1      1466    8    0    1
 -2       688       689       803      2864      3213      3214
 -1      1467    8    0    1
 -2       688       803       802      3214      3215      3210
 -1      1468    8    0    1
 -2       689       690       804      2867      3216      3217
 -1      1469    8    0    1
 -2       689       804       803      3217      3218      3213
 -1      1470    8    0    1
 -2       690       691       805      2870      3219      3220
 -1      1471    8    0    1
 -2       690       805       804      3220      3221      3216
 -1      1472    8    0    1
 -2       691       692       806      2873      3222      3223
 -1      1473    8    0    1
 -2       691       806       805      3223      3224      3219
 -1      1474    8    0    1
 -2       692       693       807      2876      3225      3226
 -1      1475    8    0    1
 -2       692       807       806      3226      3227      3222
 -1      1476    8    0    1
 -2       693       694       808      2879      3228      3229
 -1      1477    8    0    1
 -2       693       808       807      3229      3230      3225
 -1      1478    8    0    1
 -2       694       695       809      2882      3231      3232
 -1      1479    8    0    1
 -2       694       809       808      3232      3233      3228
 -1      1480    8    0    1
 -2       695       696       810      2885      3234      3235
 -1      1481    8    0    1
 -2       695       810       809      3235      3236      3231
 -1      1482    8    0    1
 -2       696       697       811      2888      3237      3238
 -1      1483    8    0    1
 -2       696       811       810      3238      3239      3234
 -1      1484    8    0    1
 -2       697       698       812      2891      3240      3241
 -1      1485    8    0    1
 -2       697       812       811      3241      3242      3237
 -1      1486    8    0    1
 -2       698       699       813      2894      3243      3244
 -1      1487    8    0    1
 -2       698       813       812      3244      3245      3240
 -1      1488    8    0    1
 -2       699       700       814      2897      3246      3247
 -1      1489    8    0    1
 -2       813       699       814      3243      3247      3248
 -1      1490    8    0    1
 -2       700       703       814      2905      3249      3246
 -1      1491    8    0    1
 -2       706       707       815      2918      3250      3251
 -1      1492    8    0    1
 -2       709       711       816      2996      3252      3253
 -1      1493    8    0    1
 -2       707       708       817      2921      3254      3255
 -1      1494    8    0    1
 -2       707       817       815      3255      3256      3250
 -1      1495    8    0    1
 -2       705       706       818      2915      3257      3258
 -1      1496    8    0    1
 -2       706       815       818      3251      3259      3257
 -1      1497    8    0    1
 -2       621       709       819      2924      3260      3261
 -1      1498    8    0    1
 -2       709       816       819      3253      3262      3260
 -1      1499    8    0    1
 -2       612       734       619      3003      3263      3034
 -1      1500    8    0    1
 -2       736       585       608      3007      2927      3264
 -1      1501    8    0    1
 -2       728       654       655      2970      3265      3031
 -1      1502    8    0    1
 -2       655       654       820      3265      3266      3267
 -1      1503    8    0    1
 -2       656       655       820      2766      3267      3268
 -1      1504    8    0    1
 -2       654       621       820      2983      3269      3266
 -1      1505    8    0    1
 -2       711       710       821      3016      3270      3271
 -1      1506    8    0    1
 -2       713       705       822      2934      3272      3273
 -1      1507    8    0    1
 -2       705       818       822      3258      3274      3272
 -1      1508    8    0    1
 -2       665       666       823      2795      3275      3276
 -1      1509    8    0    1
 -2       779       665       823      3143      3276      3277
 -1      1510    8    0    1
 -2       666       781       823      3149      3278      3275
 -1      1511    8    0    1
 -2       721       600       725      2953      2962      3279
 -1      1512    8    0    1
 -2       727       720       824      2982      3280      3281
 -1      1513    8    0    1
 -2       624       623       825      2670      3282      3283
 -1      1514    8    0    1
 -2       744       624       825      3042      3283      3284
 -1      1515    8    0    1
 -2       623       774       825      3132      3285      3282
 -1      1516    8    0    1
 -2       723       726       826      3019      3286      3287
 -1      1517    8    0    1
 -2       712       718       827      2948      3288      3289
 -1      1518    8    0    1
 -2       715       727       828      3023      3290      3291
 -1      1519    8    0    1
 -2       717       723       829      3030      3292      3293
 -1      1520    8    0    1
 -2       723       826       829      3287      3294      3292
 -1      1521    8    0    1
 -2       618       619       734      3021      3263      3295
 -1      1522    8    0    1
 -2       722       614       830      3020      3296      3297
 -1      1523    8    0    1
 -2       616       615       831      2651      3298      3299
 -1      1524    8    0    1
 -2       702       713       832      2992      3300      3301
 -1      1525    8    0    1
 -2       713       822       832      3273      3302      3300
 -1      1526    8    0    1
 -2       618       734       740      3295      3303      3032
 -1      1527    8    0    1
 -2       720       722       833      3022      3304      3305
 -1      1528    8    0    1
 -2       622       724       834      3029      3306      3307
 -1      1529    8    0    1
 -2       622       834       773      3307      3308      3129
 -1      1530    8    0    1
 -2       613       721       741      3012      3036      3309
 -1      1531    8    0    1
 -2       731       715       835      2981      3310      3311
 -1      1532    8    0    1
 -2       715       828       835      3291      3312      3310
 -1      1533    8    0    1
 -2       736       608       774      3264      3313      3131
 -1      1534    8    0    1
 -2       613       741       737      3309      3314      3011
 -1      1535    8    0    1
 -2       620       731       836      2980      3315      3316
 -1      1536    8    0    1
 -2       620       836       742      3316      3317      3037
 -1      1537    8    0    1
 -2       724       742       834      3038      3318      3306
 -1      1538    8    0    1
 -2       718       743       827      3040      3319      3288
 -1      1539    8    0    1
 -2       826       726       837      3286      3320      3321
 -1      1540    8    0    1
 -2       726       737       837      3010      3322      3320
 -1      1541    8    0    1
 -2       714       773       735      3130      3323      3006
 -1      1542    8    0    1
 -2       821       710       838      3270      3324      3325
 -1      1543    8    0    1
 -2       710       735       838      3005      3326      3324
 -1      1544    8    0    1
 -2       617       740       839      3033      3327      3328
 -1      1545    8    0    1
 -2       617       839       716      3328      3329      2943
 -1      1546    8    0    1
 -2       775       656       820      3133      3268      3330
 -1      1547    8    0    1
 -2       777       661       840      3138      3331      3332
 -1      1548    8    0    1
 -2       661       729       840      2973      3333      3331
 -1      1549    8    0    1
 -2       659       658       733      2776      3334      3000
 -1      1550    8    0    1
 -2       730       616       841      2975      3335      3336
 -1      1551    8    0    1
 -2       616       831       841      3299      3337      3335
 -1      1552    8    0    1
 -2       663       780       842      3146      3338      3339
 -1      1553    8    0    1
 -2       663       842       729      3339      3340      2974
 -1      1554    8    0    1
 -2       816       711       843      3252      3341      3342
 -1      1555    8    0    1
 -2       711       821       843      3271      3343      3341
 -1      1556    8    0    1
 -2       722       830       833      3297      3344      3304
 -1      1557    8    0    1
 -2       704       702       844      2910      3345      3346
 -1      1558    8    0    1
 -2       702       832       844      3301      3347      3345
 -1      1559    8    0    1
 -2       732       719       845      2995      3348      3349
 -1      1560    8    0    1
 -2       621       819       820      3261      3350      3269
 -1      1561    8    0    1
 -2       734       662       846      3001      3351      3352
 -1      1562    8    0    1
 -2       708       733       776      2999      3353      3354
 -1      1563    8    0    1
 -2       734       846       740      3352      3355      3303
 -1      1564    8    0    1
 -2       701       704       847      2909      3356      3357
 -1      1565    8    0    1
 -2       704       844       847      3346      3358      3356
 -1      1566    8    0    1
 -2       738       712       848      3015      3359      3360
 -1      1567    8    0    1
 -2       712       827       848      3289      3361      3359
 -1      1568    8    0    1
 -2       608       732       774      2994      3362      3313
 -1      1569    8    0    1
 -2       703       701       814      2906      3363      3249
 -1      1570    8    0    1
 -2       828       727       824      3290      3281      3364
 -1      1571    8    0    1
 -2       824       720       833      3280      3305      3365
 -1      1572    8    0    1
 -2       817       708       776      3254      3354      3366
 -1      1573    8    0    1
 -2       615       716       849      2942      3367      3368
 -1      1574    8    0    1
 -2       831       615       849      3298      3368      3369
 -1      1575    8    0    1
 -2       716       839       849      3329      3370      3367
 -1      1576    8    0    1
 -2       814       701       847      3363      3357      3371
 -1      1577    8    0    1
 -2       614       738       830      3014      3372      3296
 -1      1578    8    0    1
 -2       717       829       743      3293      3373      3039
 -1      1579    8    0    1
 -2       733       658       776      3334      3136      3353
 -1      1580    8    0    1
 -2       719       739       850      3026      3374      3375
 -1      1581    8    0    1
 -2       719       850       845      3375      3376      3348
 -1      1582    8    0    1
 -2       846       662       778      3351      3141      3377
 -1      1583    8    0    1
 -2       737       741       851      3314      3378      3379
 -1      1584    8    0    1
 -2       837       737       851      3322      3379      3380
 -1      1585    8    0    1
 -2       741       772       851      3127      3381      3378
 -1      1586    8    0    1
 -2       746       745       852      3049      3382      3383
 -1      1587    8    0    1
 -2       747       746       853      3052      3384      3385
 -1      1588    8    0    1
 -2       746       852       853      3383      3386      3384
 -1      1589    8    0    1
 -2       748       747       854      3055      3387      3388
 -1      1590    8    0    1
 -2       747       853       854      3385      3389      3387
 -1      1591    8    0    1
 -2       749       748       855      3058      3390      3391
 -1      1592    8    0    1
 -2       748       854       855      3388      3392      3390
 -1      1593    8    0    1
 -2       750       749       856      3061      3393      3394
 -1      1594    8    0    1
 -2       749       855       856      3391      3395      3393
 -1      1595    8    0    1
 -2       751       750       857      3064      3396      3397
 -1      1596    8    0    1
 -2       750       856       857      3394      3398      3396
 -1      1597    8    0    1
 -2       752       751       858      3067      3399      3400
 -1      1598    8    0    1
 -2       751       857       858      3397      3401      3399
 -1      1599    8    0    1
 -2       753       752       859      3070      3402      3403
 -1      1600    8    0    1
 -2       752       858       859      3400      3404      3402
 -1      1601    8    0    1
 -2       754       753       860      3073      3405      3406
 -1      1602    8    0    1
 -2       753       859       860      3403      3407      3405
 -1      1603    8    0    1
 -2       755       754       861      3076      3408      3409
 -1      1604    8    0    1
 -2       754       860       861      3406      3410      3408
 -1      1605    8    0    1
 -2       756       755       862      3079      3411      3412
 -1      1606    8    0    1
 -2       755       861       862      3409      3413      3411
 -1      1607    8    0    1
 -2       757       756       863      3082      3414      3415
 -1      1608    8    0    1
 -2       756       862       863      3412      3416      3414
 -1      1609    8    0    1
 -2       758       757       864      3085      3417      3418
 -1      1610    8    0    1
 -2       757       863       864      3415      3419      3417
 -1      1611    8    0    1
 -2       759       758       865      3088      3420      3421
 -1      1612    8    0    1
 -2       758       864       865      3418      3422      3420
 -1      1613    8    0    1
 -2       760       759       866      3091      3423      3424
 -1      1614    8    0    1
 -2       759       865       866      3421      3425      3423
 -1      1615    8    0    1
 -2       761       760       867      3094      3426      3427
 -1      1616    8    0    1
 -2       760       866       867      3424      3428      3426
 -1      1617    8    0    1
 -2       762       761       868      3097      3429      3430
 -1      1618    8    0    1
 -2       761       867       868      3427      3431      3429
 -1      1619    8    0    1
 -2       763       762       869      3100      3432      3433
 -1      1620    8    0    1
 -2       762       868       869      3430      3434      3432
 -1      1621    8    0    1
 -2       764       763       870      3103      3435      3436
 -1      1622    8    0    1
 -2       763       869       870      3433      3437      3435
 -1      1623    8    0    1
 -2       765       764       871      3106      3438      3439
 -1      1624    8    0    1
 -2       764       870       871      3436      3440      3438
 -1      1625    8    0    1
 -2       766       765       872      3109      3441      3442
 -1      1626    8    0    1
 -2       765       871       872      3439      3443      3441
 -1      1627    8    0    1
 -2       767       766       873      3112      3444      3445
 -1      1628    8    0    1
 -2       766       872       873      3442      3446      3444
 -1      1629    8    0    1
 -2       768       767       874      3115      3447      3448
 -1      1630    8    0    1
 -2       767       873       874      3445      3449      3447
 -1      1631    8    0    1
 -2       769       768       875      3118      3450      3451
 -1      1632    8    0    1
 -2       768       874       875      3448      3452      3450
 -1      1633    8    0    1
 -2       770       769       876      3121      3453      3454
 -1      1634    8    0    1
 -2       769       875       876      3451      3455      3453
 -1      1635    8    0    1
 -2       771       770       877      3124      3456      3457
 -1      1636    8    0    1
 -2       770       876       877      3454      3458      3456
 -1      1637    8    0    1
 -2       778       777       878      3142      3459      3460
 -1      1638    8    0    1
 -2       814       847       813      3371      3461      3248
 -1      1639    8    0    1
 -2       782       783       879      3155      3462      3463
 -1      1640    8    0    1
 -2       781       782       880      3152      3464      3465
 -1      1641    8    0    1
 -2       782       879       880      3463      3466      3464
 -1      1642    8    0    1
 -2       784       785       881      3161      3467      3468
 -1      1643    8    0    1
 -2       785       786       882      3164      3469      3470
 -1      1644    8    0    1
 -2       785       882       881      3470      3471      3467
 -1      1645    8    0    1
 -2       786       787       883      3167      3472      3473
 -1      1646    8    0    1
 -2       786       883       882      3473      3474      3469
 -1      1647    8    0    1
 -2       787       788       884      3170      3475      3476
 -1      1648    8    0    1
 -2       787       884       883      3476      3477      3472
 -1      1649    8    0    1
 -2       788       789       885      3173      3478      3479
 -1      1650    8    0    1
 -2       788       885       884      3479      3480      3475
 -1      1651    8    0    1
 -2       789       790       886      3176      3481      3482
 -1      1652    8    0    1
 -2       789       886       885      3482      3483      3478
 -1      1653    8    0    1
 -2       790       791       887      3179      3484      3485
 -1      1654    8    0    1
 -2       790       887       886      3485      3486      3481
 -1      1655    8    0    1
 -2       791       792       888      3182      3487      3488
 -1      1656    8    0    1
 -2       791       888       887      3488      3489      3484
 -1      1657    8    0    1
 -2       792       793       889      3185      3490      3491
 -1      1658    8    0    1
 -2       792       889       888      3491      3492      3487
 -1      1659    8    0    1
 -2       793       794       890      3188      3493      3494
 -1      1660    8    0    1
 -2       793       890       889      3494      3495      3490
 -1      1661    8    0    1
 -2       794       795       891      3191      3496      3497
 -1      1662    8    0    1
 -2       794       891       890      3497      3498      3493
 -1      1663    8    0    1
 -2       795       796       892      3194      3499      3500
 -1      1664    8    0    1
 -2       795       892       891      3500      3501      3496
 -1      1665    8    0    1
 -2       796       797       893      3197      3502      3503
 -1      1666    8    0    1
 -2       796       893       892      3503      3504      3499
 -1      1667    8    0    1
 -2       797       798       894      3200      3505      3506
 -1      1668    8    0    1
 -2       797       894       893      3506      3507      3502
 -1      1669    8    0    1
 -2       798       799       895      3203      3508      3509
 -1      1670    8    0    1
 -2       798       895       894      3509      3510      3505
 -1      1671    8    0    1
 -2       799       800       896      3206      3511      3512
 -1      1672    8    0    1
 -2       799       896       895      3512      3513      3508
 -1      1673    8    0    1
 -2       800       801       897      3209      3514      3515
 -1      1674    8    0    1
 -2       800       897       896      3515      3516      3511
 -1      1675    8    0    1
 -2       801       802       898      3212      3517      3518
 -1      1676    8    0    1
 -2       801       898       897      3518      3519      3514
 -1      1677    8    0    1
 -2       802       803       899      3215      3520      3521
 -1      1678    8    0    1
 -2       802       899       898      3521      3522      3517
 -1      1679    8    0    1
 -2       803       804       900      3218      3523      3524
 -1      1680    8    0    1
 -2       803       900       899      3524      3525      3520
 -1      1681    8    0    1
 -2       804       805       901      3221      3526      3527
 -1      1682    8    0    1
 -2       804       901       900      3527      3528      3523
 -1      1683    8    0    1
 -2       805       806       833      3224      3529      3530
 -1      1684    8    0    1
 -2       806       807       824      3227      3531      3532
 -1      1685    8    0    1
 -2       808       809       835      3233      3533      3534
 -1      1686    8    0    1
 -2       810       811       902      3239      3535      3536
 -1      1687    8    0    1
 -2       811       812       903      3242      3537      3538
 -1      1688    8    0    1
 -2       811       903       902      3538      3539      3535
 -1      1689    8    0    1
 -2       812       813       904      3245      3540      3541
 -1      1690    8    0    1
 -2       812       904       903      3541      3542      3537
 -1      1691    8    0    1
 -2       846       778       905      3377      3543      3544
 -1      1692    8    0    1
 -2       778       878       905      3460      3545      3543
 -1      1693    8    0    1
 -2       820       819       775      3350      3546      3330
 -1      1694    8    0    1
 -2       815       817       843      3256      3547      3548
 -1      1695    8    0    1
 -2       818       815       838      3259      3549      3550
 -1      1696    8    0    1
 -2       819       816       906      3262      3551      3552
 -1      1697    8    0    1
 -2       775       819       906      3546      3552      3553
 -1      1698    8    0    1
 -2       816       843       906      3342      3554      3551
 -1      1699    8    0    1
 -2       740       846       907      3355      3555      3556
 -1      1700    8    0    1
 -2       839       740       907      3327      3556      3557
 -1      1701    8    0    1
 -2       846       905       907      3544      3558      3555
 -1      1702    8    0    1
 -2       832       822       908      3302      3559      3560
 -1      1703    8    0    1
 -2       829       826       909      3294      3561      3562
 -1      1704    8    0    1
 -2       735       773       910      3323      3563      3564
 -1      1705    8    0    1
 -2       822       818       910      3274      3565      3566
 -1      1706    8    0    1
 -2       830       738       911      3372      3567      3568
 -1      1707    8    0    1
 -2       739       730       912      3027      3569      3570
 -1      1708    8    0    1
 -2       739       912       850      3570      3571      3374
 -1      1709    8    0    1
 -2       783       784       913      3158      3572      3573
 -1      1710    8    0    1
 -2       879       783       913      3462      3573      3574
 -1      1711    8    0    1
 -2       784       881       913      3468      3575      3572
 -1      1712    8    0    1
 -2       745       744       914      3046      3576      3577
 -1      1713    8    0    1
 -2       745       914       852      3577      3578      3382
 -1      1714    8    0    1
 -2       774       732       915      3362      3579      3580
 -1      1715    8    0    1
 -2       825       774       915      3285      3580      3581
 -1      1716    8    0    1
 -2       732       845       915      3349      3582      3579
 -1      1717    8    0    1
 -2       780       779       916      3147      3583      3584
 -1      1718    8    0    1
 -2       824       807       828      3531      3585      3364
 -1      1719    8    0    1
 -2       834       742       917      3318      3586      3587
 -1      1720    8    0    1
 -2       824       833       806      3365      3529      3532
 -1      1721    8    0    1
 -2       743       829       918      3373      3588      3589
 -1      1722    8    0    1
 -2       827       743       919      3319      3590      3591
 -1      1723    8    0    1
 -2       773       834       920      3308      3592      3593
 -1      1724    8    0    1
 -2       813       847       904      3461      3594      3540
 -1      1725    8    0    1
 -2       836       731       835      3315      3311      3595
 -1      1726    8    0    1
 -2       838       735       910      3326      3564      3596
 -1      1727    8    0    1
 -2       878       777       921      3459      3597      3598
 -1      1728    8    0    1
 -2       777       840       921      3332      3599      3597
 -1      1729    8    0    1
 -2       772       771       922      3128      3600      3601
 -1      1730    8    0    1
 -2       851       772       922      3381      3601      3602
 -1      1731    8    0    1
 -2       771       877       922      3457      3603      3600
 -1      1732    8    0    1
 -2       776       775       923      3137      3604      3605
 -1      1733    8    0    1
 -2       840       729       842      3333      3340      3606
 -1      1734    8    0    1
 -2       841       831       924      3337      3607      3608
 -1      1735    8    0    1
 -2       842       780       925      3338      3609      3610
 -1      1736    8    0    1
 -2       780       916       925      3584      3611      3609
 -1      1737    8    0    1
 -2       916       779       926      3583      3612      3613
 -1      1738    8    0    1
 -2       779       823       926      3277      3614      3612
 -1      1739    8    0    1
 -2       805       833       901      3530      3615      3526
 -1      1740    8    0    1
 -2       918       829       909      3588      3562      3616
 -1      1741    8    0    1
 -2       743       918       919      3589      3617      3590
 -1      1742    8    0    1
 -2       807       808       828      3230      3618      3585
 -1      1743    8    0    1
 -2       809       810       927      3236      3619      3620
 -1      1744    8    0    1
 -2       901       833       830      3615      3344      3621
 -1      1745    8    0    1
 -2       834       917       920      3587      3622      3592
 -1      1746    8    0    1
 -2       845       850       928      3376      3623      3624
 -1      1747    8    0    1
 -2       844       832       929      3347      3625      3626
 -1      1748    8    0    1
 -2       832       908       929      3560      3627      3625
 -1      1749    8    0    1
 -2       730       841       912      3336      3628      3569
 -1      1750    8    0    1
 -2       923       775       906      3604      3553      3629
 -1      1751    8    0    1
 -2       910       773       920      3563      3593      3630
 -1      1752    8    0    1
 -2       831       849       930      3369      3631      3632
 -1      1753    8    0    1
 -2       831       930       924      3632      3633      3607
 -1      1754    8    0    1
 -2       909       826       931      3561      3634      3635
 -1      1755    8    0    1
 -2       826       837       931      3321      3636      3634
 -1      1756    8    0    1
 -2       847       844       932      3358      3637      3638
 -1      1757    8    0    1
 -2       904       847       932      3594      3638      3639
 -1      1758    8    0    1
 -2       844       929       932      3626      3640      3637
 -1      1759    8    0    1
 -2       848       827       933      3361      3641      3642
 -1      1760    8    0    1
 -2       827       919       933      3591      3643      3641
 -1      1761    8    0    1
 -2       830       911       901      3568      3644      3621
 -1      1762    8    0    1
 -2       823       781       934      3278      3645      3646
 -1      1763    8    0    1
 -2       926       823       934      3614      3646      3647
 -1      1764    8    0    1
 -2       781       880       934      3465      3648      3645
 -1      1765    8    0    1
 -2       911       738       848      3567      3360      3649
 -1      1766    8    0    1
 -2       744       825       935      3284      3650      3651
 -1      1767    8    0    1
 -2       914       744       935      3576      3651      3652
 -1      1768    8    0    1
 -2       825       915       935      3581      3653      3650
 -1      1769    8    0    1
 -2       917       742       902      3586      3654      3655
 -1      1770    8    0    1
 -2       927       810       902      3619      3536      3656
 -1      1771    8    0    1
 -2       817       776       923      3366      3605      3657
 -1      1772    8    0    1
 -2       725       518       721      2987      2990      3279
 -1      1773    8    0    1
 -2       917       902       903      3655      3539      3658
 -1      1774    8    0    1
 -2       853       852       936      3386      3659      3660
 -1      1775    8    0    1
 -2       854       853       937      3389      3661      3662
 -1      1776    8    0    1
 -2       853       936       937      3660      3663      3661
 -1      1777    8    0    1
 -2       855       854       938      3392      3664      3665
 -1      1778    8    0    1
 -2       854       937       938      3662      3666      3664
 -1      1779    8    0    1
 -2       856       855       939      3395      3667      3668
 -1      1780    8    0    1
 -2       855       938       939      3665      3669      3667
 -1      1781    8    0    1
 -2       857       856       940      3398      3670      3671
 -1      1782    8    0    1
 -2       856       939       940      3668      3672      3670
 -1      1783    8    0    1
 -2       858       857       941      3401      3673      3674
 -1      1784    8    0    1
 -2       857       940       941      3671      3675      3673
 -1      1785    8    0    1
 -2       859       858       942      3404      3676      3677
 -1      1786    8    0    1
 -2       858       941       942      3674      3678      3676
 -1      1787    8    0    1
 -2       860       859       943      3407      3679      3680
 -1      1788    8    0    1
 -2       859       942       943      3677      3681      3679
 -1      1789    8    0    1
 -2       861       860       944      3410      3682      3683
 -1      1790    8    0    1
 -2       860       943       944      3680      3684      3682
 -1      1791    8    0    1
 -2       862       861       945      3413      3685      3686
 -1      1792    8    0    1
 -2       861       944       945      3683      3687      3685
 -1      1793    8    0    1
 -2       863       862       946      3416      3688      3689
 -1      1794    8    0    1
 -2       862       945       946      3686      3690      3688
 -1      1795    8    0    1
 -2       864       863       947      3419      3691      3692
 -1      1796    8    0    1
 -2       863       946       947      3689      3693      3691
 -1      1797    8    0    1
 -2       865       864       948      3422      3694      3695
 -1      1798    8    0    1
 -2       864       947       948      3692      3696      3694
 -1      1799    8    0    1
 -2       866       865       949      3425      3697      3698
 -1      1800    8    0    1
 -2       865       948       949      3695      3699      3697
 -1      1801    8    0    1
 -2       867       866       950      3428      3700      3701
 -1      1802    8    0    1
 -2       866       949       950      3698      3702      3700
 -1      1803    8    0    1
 -2       868       867       951      3431      3703      3704
 -1      1804    8    0    1
 -2       867       950       951      3701      3705      3703
 -1      1805    8    0    1
 -2       869       868       952      3434      3706      3707
 -1      1806    8    0    1
 -2       868       951       952      3704      3708      3706
 -1      1807    8    0    1
 -2       870       869       953      3437      3709      3710
 -1      1808    8    0    1
 -2       869       952       953      3707      3711      3709
 -1      1809    8    0    1
 -2       871       870       954      3440      3712      3713
 -1      1810    8    0    1
 -2       870       953       954      3710      3714      3712
 -1      1811    8    0    1
 -2       872       871       955      3443      3715      3716
 -1      1812    8    0    1
 -2       871       954       955      3713      3717      3715
 -1      1813    8    0    1
 -2       873       872       956      3446      3718      3719
 -1      1814    8    0    1
 -2       872       955       956      3716      3720      3718
 -1      1815    8    0    1
 -2       874       873       957      3449      3721      3722
 -1      1816    8    0    1
 -2       873       956       957      3719      3723      3721
 -1      1817    8    0    1
 -2       875       874       958      3452      3724      3725
 -1      1818    8    0    1
 -2       874       957       958      3722      3726      3724
 -1      1819    8    0    1
 -2       876       875       959      3455      3727      3728
 -1      1820    8    0    1
 -2       875       958       959      3725      3729      3727
 -1      1821    8    0    1
 -2       877       876       960      3458      3730      3731
 -1      1822    8    0    1
 -2       876       959       960      3728      3732      3730
 -1      1823    8    0    1
 -2       908       822       910      3559      3566      3733
 -1      1824    8    0    1
 -2       840       842       961      3606      3734      3735
 -1      1825    8    0    1
 -2       921       840       961      3599      3735      3736
 -1      1826    8    0    1
 -2       842       925       961      3610      3737      3734
 -1      1827    8    0    1
 -2       911       848       962      3649      3738      3739
 -1      1828    8    0    1
 -2       848       933       962      3642      3740      3738
 -1      1829    8    0    1
 -2       882       883       963      3474      3741      3742
 -1      1830    8    0    1
 -2       881       882       964      3471      3743      3744
 -1      1831    8    0    1
 -2       882       963       964      3742      3745      3743
 -1      1832    8    0    1
 -2       884       885       965      3480      3746      3747
 -1      1833    8    0    1
 -2       885       886       966      3483      3748      3749
 -1      1834    8    0    1
 -2       885       966       965      3749      3750      3746
 -1      1835    8    0    1
 -2       886       887       967      3486      3751      3752
 -1      1836    8    0    1
 -2       886       967       966      3752      3753      3748
 -1      1837    8    0    1
 -2       887       888       968      3489      3754      3755
 -1      1838    8    0    1
 -2       887       968       967      3755      3756      3751
 -1      1839    8    0    1
 -2       888       889       969      3492      3757      3758
 -1      1840    8    0    1
 -2       888       969       968      3758      3759      3754
 -1      1841    8    0    1
 -2       889       890       970      3495      3760      3761
 -1      1842    8    0    1
 -2       889       970       969      3761      3762      3757
 -1      1843    8    0    1
 -2       890       891       971      3498      3763      3764
 -1      1844    8    0    1
 -2       890       971       970      3764      3765      3760
 -1      1845    8    0    1
 -2       891       892       972      3501      3766      3767
 -1      1846    8    0    1
 -2       891       972       971      3767      3768      3763
 -1      1847    8    0    1
 -2       892       893       973      3504      3769      3770
 -1      1848    8    0    1
 -2       892       973       972      3770      3771      3766
 -1      1849    8    0    1
 -2       893       894       974      3507      3772      3773
 -1      1850    8    0    1
 -2       893       974       973      3773      3774      3769
 -1      1851    8    0    1
 -2       894       895       975      3510      3775      3776
 -1      1852    8    0    1
 -2       894       975       974      3776      3777      3772
 -1      1853    8    0    1
 -2       895       896       976      3513      3778      3779
 -1      1854    8    0    1
 -2       895       976       975      3779      3780      3775
 -1      1855    8    0    1
 -2       896       897       977      3516      3781      3782
 -1      1856    8    0    1
 -2       896       977       976      3782      3783      3778
 -1      1857    8    0    1
 -2       897       898       978      3519      3784      3785
 -1      1858    8    0    1
 -2       897       978       977      3785      3786      3781
 -1      1859    8    0    1
 -2       898       899       962      3522      3787      3788
 -1      1860    8    0    1
 -2       899       900       962      3525      3789      3787
 -1      1861    8    0    1
 -2       900       901       911      3528      3644      3790
 -1      1862    8    0    1
 -2       918       909       979      3616      3791      3792
 -1      1863    8    0    1
 -2       817       923       843      3657      3793      3547
 -1      1864    8    0    1
 -2       905       878       980      3545      3794      3795
 -1      1865    8    0    1
 -2       852       914       981      3578      3796      3797
 -1      1866    8    0    1
 -2       852       981       936      3797      3798      3659
 -1      1867    8    0    1
 -2       928       850       982      3623      3799      3800
 -1      1868    8    0    1
 -2       850       912       982      3571      3801      3799
 -1      1869    8    0    1
 -2       818       838       910      3550      3596      3565
 -1      1870    8    0    1
 -2       910       920       908      3630      3802      3733
 -1      1871    8    0    1
 -2       919       918       983      3617      3803      3804
 -1      1872    8    0    1
 -2       849       839       984      3370      3805      3806
 -1      1873    8    0    1
 -2       930       849       984      3631      3806      3807
 -1      1874    8    0    1
 -2       839       907       984      3557      3808      3805
 -1      1875    8    0    1
 -2       915       845       935      3582      3809      3653
 -1      1876    8    0    1
 -2       908       920       929      3802      3810      3627
 -1      1877    8    0    1
 -2       912       841       985      3628      3811      3812
 -1      1878    8    0    1
 -2       982       912       985      3801      3812      3813
 -1      1879    8    0    1
 -2       841       924       985      3608      3814      3811
 -1      1880    8    0    1
 -2       809       927       835      3620      3815      3533
 -1      1881    8    0    1
 -2       903       904       986      3542      3816      3817
 -1      1882    8    0    1
 -2       917       903       986      3658      3817      3818
 -1      1883    8    0    1
 -2       904       932       986      3639      3819      3816
 -1      1884    8    0    1
 -2       845       928       935      3624      3820      3809
 -1      1885    8    0    1
 -2       828       808       835      3618      3534      3312
 -1      1886    8    0    1
 -2       835       927       836      3815      3821      3595
 -1      1887    8    0    1
 -2       883       884       987      3477      3822      3823
 -1      1888    8    0    1
 -2       883       987       963      3823      3824      3741
 -1      1889    8    0    1
 -2       880       879       988      3466      3825      3826
 -1      1890    8    0    1
 -2       914       935       928      3652      3820      3827
 -1      1891    8    0    1
 -2       900       911       962      3790      3739      3789
 -1      1892    8    0    1
 -2       914       928       981      3827      3828      3796
 -1      1893    8    0    1
 -2       928       982       981      3800      3829      3828
 -1      1894    8    0    1
 -2       919       983       989      3804      3830      3831
 -1      1895    8    0    1
 -2       919       989       933      3831      3832      3643
 -1      1896    8    0    1
 -2       922       877       990      3603      3833      3834
 -1      1897    8    0    1
 -2       877       960       990      3731      3835      3833
 -1      1898    8    0    1
 -2       925       916       991      3611      3836      3837
 -1      1899    8    0    1
 -2       909       931       992      3635      3838      3839
 -1      1900    8    0    1
 -2       909       992       979      3839      3840      3791
 -1      1901    8    0    1
 -2       902       742       836      3654      3317      3841
 -1      1902    8    0    1
 -2       879       913       993      3574      3842      3843
 -1      1903    8    0    1
 -2       879       993       988      3843      3844      3825
 -1      1904    8    0    1
 -2       837       851       994      3380      3845      3846
 -1      1905    8    0    1
 -2       931       837       994      3636      3846      3847
 -1      1906    8    0    1
 -2       851       922       994      3602      3848      3845
 -1      1907    8    0    1
 -2       843       821       815      3343      3849      3548
 -1      1908    8    0    1
 -2       880       988       995      3826      3850      3851
 -1      1909    8    0    1
 -2       880       995       934      3851      3852      3648
 -1      1910    8    0    1
 -2       881       964       996      3744      3853      3854
 -1      1911    8    0    1
 -2       881       996       913      3854      3855      3575
 -1      1912    8    0    1
 -2       898       962       978      3788      3856      3784
 -1      1913    8    0    1
 -2       902       836       927      3841      3821      3656
 -1      1914    8    0    1
 -2       991       916       997      3836      3857      3858
 -1      1915    8    0    1
 -2       916       926       997      3613      3859      3857
 -1      1916    8    0    1
 -2       843       923       906      3793      3629      3554
 -1      1917    8    0    1
 -2       980       878       998      3794      3860      3861
 -1      1918    8    0    1
 -2       878       921       998      3598      3862      3860
 -1      1919    8    0    1
 -2       884       965       987      3747      3863      3822
 -1      1920    8    0    1
 -2       838       815       821      3549      3849      3325
 -1      1921    8    0    1
 -2       983       918       979      3803      3792      3864
 -1      1922    8    0    1
 -2       985       924       999      3814      3865      3866
 -1      1923    8    0    1
 -2       920       917       986      3622      3818      3867
 -1      1924    8    0    1
 -2       924       930      1000      3633      3868      3869
 -1      1925    8    0    1
 -2       924      1000       999      3869      3870      3865
 -1      1926    8    0    1
 -2       920       986       929      3867      3871      3810
 -1      1927    8    0    1
 -2       962       933       978      3740      3872      3856
 -1      1928    8    0    1
 -2       938       937      1001      3666      3873      3874
 -1      1929    8    0    1
 -2       939       938      1002      3669      3875      3876
 -1      1930    8    0    1
 -2       938      1001      1002      3874      3877      3875
 -1      1931    8    0    1
 -2       940       939      1003      3672      3878      3879
 -1      1932    8    0    1
 -2       939      1002      1003      3876      3880      3878
 -1      1933    8    0    1
 -2       941       940      1004      3675      3881      3882
 -1      1934    8    0    1
 -2       940      1003      1004      3879      3883      3881
 -1      1935    8    0    1
 -2       942       941      1005      3678      3884      3885
 -1      1936    8    0    1
 -2       941      1004      1005      3882      3886      3884
 -1      1937    8    0    1
 -2       943       942      1006      3681      3887      3888
 -1      1938    8    0    1
 -2       942      1005      1006      3885      3889      3887
 -1      1939    8    0    1
 -2       944       943      1007      3684      3890      3891
 -1      1940    8    0    1
 -2       943      1006      1007      3888      3892      3890
 -1      1941    8    0    1
 -2       945       944      1008      3687      3893      3894
 -1      1942    8    0    1
 -2       944      1007      1008      3891      3895      3893
 -1      1943    8    0    1
 -2       946       945      1009      3690      3896      3897
 -1      1944    8    0    1
 -2       945      1008      1009      3894      3898      3896
 -1      1945    8    0    1
 -2       947       946      1010      3693      3899      3900
 -1      1946    8    0    1
 -2       946      1009      1010      3897      3901      3899
 -1      1947    8    0    1
 -2       948       947      1011      3696      3902      3903
 -1      1948    8    0    1
 -2       947      1010      1011      3900      3904      3902
 -1      1949    8    0    1
 -2       949       948      1012      3699      3905      3906
 -1      1950    8    0    1
 -2       948      1011      1012      3903      3907      3905
 -1      1951    8    0    1
 -2       950       949      1013      3702      3908      3909
 -1      1952    8    0    1
 -2       949      1012      1013      3906      3910      3908
 -1      1953    8    0    1
 -2       951       950      1014      3705      3911      3912
 -1      1954    8    0    1
 -2       950      1013      1014      3909      3913      3911
 -1      1955    8    0    1
 -2       952       951      1015      3708      3914      3915
 -1      1956    8    0    1
 -2       951      1014      1015      3912      3916      3914
 -1      1957    8    0    1
 -2       953       952      1016      3711      3917      3918
 -1      1958    8    0    1
 -2       952      1015      1016      3915      3919      3917
 -1      1959    8    0    1
 -2       954       953      1017      3714      3920      3921
 -1      1960    8    0    1
 -2       953      1016      1017      3918      3922      3920
 -1      1961    8    0    1
 -2       955       954      1018      3717      3923      3924
 -1      1962    8    0    1
 -2       954      1017      1018      3921      3925      3923
 -1      1963    8    0    1
 -2       956       955      1019      3720      3926      3927
 -1      1964    8    0    1
 -2       955      1018      1019      3924      3928      3926
 -1      1965    8    0    1
 -2       957       956      1020      3723      3929      3930
 -1      1966    8    0    1
 -2       956      1019      1020      3927      3931      3929
 -1      1967    8    0    1
 -2       958       957      1021      3726      3932      3933
 -1      1968    8    0    1
 -2       957      1020      1021      3930      3934      3932
 -1      1969    8    0    1
 -2       959       958      1022      3729      3935      3936
 -1      1970    8    0    1
 -2       958      1021      1022      3933      3937      3935
 -1      1971    8    0    1
 -2       960       959      1023      3732      3938      3939
 -1      1972    8    0    1
 -2       959      1022      1023      3936      3940      3938
 -1      1973    8    0    1
 -2       967       968      1024      3756      3941      3942
 -1      1974    8    0    1
 -2       964       963      1025      3745      3943      3944
 -1      1975    8    0    1
 -2       966       967      1026      3753      3945      3946
 -1      1976    8    0    1
 -2       967      1024      1026      3942      3947      3945
 -1      1977    8    0    1
 -2       965       966      1027      3750      3948      3949
 -1      1978    8    0    1
 -2       966      1026      1027      3946      3950      3948
 -1      1979    8    0    1
 -2       968       969      1028      3759      3951      3952
 -1      1980    8    0    1
 -2       968      1028      1024      3952      3953      3941
 -1      1981    8    0    1
 -2       969       970      1029      3762      3954      3955
 -1      1982    8    0    1
 -2       969      1029      1028      3955      3956      3951
 -1      1983    8    0    1
 -2       970       971      1030      3765      3957      3958
 -1      1984    8    0    1
 -2       970      1030      1029      3958      3959      3954
 -1      1985    8    0    1
 -2       971       972      1031      3768      3960      3961
 -1      1986    8    0    1
 -2       971      1031      1030      3961      3962      3957
 -1      1987    8    0    1
 -2       972       973      1032      3771      3963      3964
 -1      1988    8    0    1
 -2       972      1032      1031      3964      3965      3960
 -1      1989    8    0    1
 -2       973       974      1033      3774      3966      3967
 -1      1990    8    0    1
 -2       973      1033      1032      3967      3968      3963
 -1      1991    8    0    1
 -2       974       975      1034      3777      3969      3970
 -1      1992    8    0    1
 -2       974      1034      1033      3970      3971      3966
 -1      1993    8    0    1
 -2       975       976      1035      3780      3972      3973
 -1      1994    8    0    1
 -2       975      1035      1034      3973      3974      3969
 -1      1995    8    0    1
 -2       976       977      1036      3783      3975      3976
 -1      1996    8    0    1
 -2       976      1036      1035      3976      3977      3972
 -1      1997    8    0    1
 -2       977       978      1037      3786      3978      3979
 -1      1998    8    0    1
 -2       977      1037      1036      3979      3980      3975
 -1      1999    8    0    1
 -2       981       982      1038      3829      3981      3982
 -1      2000    8    0    1
 -2       926       934      1039      3647      3983      3984
 -1      2001    8    0    1
 -2       934       995      1039      3852      3985      3983
 -1      2002    8    0    1
 -2       925       991      1040      3837      3986      3987
 -1      2003    8    0    1
 -2       925      1040       961      3987      3988      3737
 -1      2004    8    0    1
 -2       963       987      1041      3824      3989      3990
 -1      2005    8    0    1
 -2       963      1041      1025      3990      3991      3943
 -1      2006    8    0    1
 -2       936       981      1042      3798      3992      3993
 -1      2007    8    0    1
 -2       981      1038      1042      3982      3994      3992
 -1      2008    8    0    1
 -2       982       985      1038      3813      3995      3981
 -1      2009    8    0    1
 -2       905       980       984      3795      3996      3997
 -1      2010    8    0    1
 -2       929       986       932      3871      3819      3640
 -1      2011    8    0    1
 -2       930       984       980      3807      3996      3998
 -1      2012    8    0    1
 -2       983       979      1043      3864      3999      4000
 -1      2013    8    0    1
 -2       987       965      1044      3863      4001      4002
 -1      2014    8    0    1
 -2       965      1027      1044      3949      4003      4001
 -1      2015    8    0    1
 -2       937       936      1045      3663      4004      4005
 -1      2016    8    0    1
 -2      1001       937      1045      3873      4005      4006
 -1      2017    8    0    1
 -2       936      1042      1045      3993      4007      4004
 -1      2018    8    0    1
 -2       907       905       984      3558      3997      3808
 -1      2019    8    0    1
 -2       985       999      1038      3866      4008      3995
 -1      2020    8    0    1
 -2       930       980      1000      3998      4009      3868
 -1      2021    8    0    1
 -2       989       983      1046      3830      4010      4011
 -1      2022    8    0    1
 -2       983      1043      1046      4000      4012      4010
 -1      2023    8    0    1
 -2       964      1025      1047      3944      4013      4014
 -1      2024    8    0    1
 -2       964      1047       996      4014      4015      3853
 -1      2025    8    0    1
 -2       993       913       996      3842      3855      4016
 -1      2026    8    0    1
 -2       994       922       990      3848      3834      4017
 -1      2027    8    0    1
 -2       995       988      1048      3850      4018      4019
 -1      2028    8    0    1
 -2      1000       980       998      4009      3861      4020
 -1      2029    8    0    1
 -2       926      1039       997      3984      4021      3859
 -1      2030    8    0    1
 -2      1040       991      1049      3986      4022      4023
 -1      2031    8    0    1
 -2      1041       987      1044      3989      4002      4024
 -1      2032    8    0    1
 -2       988       993      1050      3844      4025      4026
 -1      2033    8    0    1
 -2       988      1050      1048      4026      4027      4018
 -1      2034    8    0    1
 -2      1043       979      1023      3999      4028      4029
 -1      2035    8    0    1
 -2       921       961      1051      3736      4030      4031
 -1      2036    8    0    1
 -2       998       921      1051      3862      4031      4032
 -1      2037    8    0    1
 -2       961      1040      1051      3988      4033      4030
 -1      2038    8    0    1
 -2       978       933       989      3872      3832      4034
 -1      2039    8    0    1
 -2      1038       999      1052      4008      4035      4036
 -1      2040    8    0    1
 -2      1038      1052      1042      4036      4037      3994
 -1      2041    8    0    1
 -2       999      1000      1052      3870      4038      4035
 -1      2042    8    0    1
 -2       991       997      1053      3858      4039      4040
 -1      2043    8    0    1
 -2       991      1053      1049      4040      4041      4022
 -1      2044    8    0    1
 -2       931       994       990      3847      4017      4042
 -1      2045    8    0    1
 -2       992       931       990      3838      4042      4043
 -1      2046    8    0    1
 -2       990       960      1054      3835      4044      4045
 -1      2047    8    0    1
 -2      1003      1002      1055      3880      4046      4047
 -1      2048    8    0    1
 -2      1004      1003      1056      3883      4048      4049
 -1      2049    8    0    1
 -2      1003      1055      1056      4047      4050      4048
 -1      2050    8    0    1
 -2      1005      1004      1057      3886      4051      4052
 -1      2051    8    0    1
 -2      1004      1056      1057      4049      4053      4051
 -1      2052    8    0    1
 -2      1006      1005      1058      3889      4054      4055
 -1      2053    8    0    1
 -2      1005      1057      1058      4052      4056      4054
 -1      2054    8    0    1
 -2      1007      1006      1059      3892      4057      4058
 -1      2055    8    0    1
 -2      1006      1058      1059      4055      4059      4057
 -1      2056    8    0    1
 -2      1008      1007      1060      3895      4060      4061
 -1      2057    8    0    1
 -2      1007      1059      1060      4058      4062      4060
 -1      2058    8    0    1
 -2      1009      1008      1061      3898      4063      4064
 -1      2059    8    0    1
 -2      1008      1060      1061      4061      4065      4063
 -1      2060    8    0    1
 -2      1010      1009      1062      3901      4066      4067
 -1      2061    8    0    1
 -2      1009      1061      1062      4064      4068      4066
 -1      2062    8    0    1
 -2      1011      1010      1063      3904      4069      4070
 -1      2063    8    0    1
 -2      1010      1062      1063      4067      4071      4069
 -1      2064    8    0    1
 -2      1012      1011      1064      3907      4072      4073
 -1      2065    8    0    1
 -2      1011      1063      1064      4070      4074      4072
 -1      2066    8    0    1
 -2      1013      1012      1065      3910      4075      4076
 -1      2067    8    0    1
 -2      1012      1064      1065      4073      4077      4075
 -1      2068    8    0    1
 -2      1014      1013      1066      3913      4078      4079
 -1      2069    8    0    1
 -2      1013      1065      1066      4076      4080      4078
 -1      2070    8    0    1
 -2      1015      1014      1067      3916      4081      4082
 -1      2071    8    0    1
 -2      1014      1066      1067      4079      4083      4081
 -1      2072    8    0    1
 -2      1016      1015      1068      3919      4084      4085
 -1      2073    8    0    1
 -2      1015      1067      1068      4082      4086      4084
 -1      2074    8    0    1
 -2      1017      1016      1069      3922      4087      4088
 -1      2075    8    0    1
 -2      1016      1068      1069      4085      4089      4087
 -1      2076    8    0    1
 -2      1018      1017      1070      3925      4090      4091
 -1      2077    8    0    1
 -2      1017      1069      1070      4088      4092      4090
 -1      2078    8    0    1
 -2      1019      1018      1071      3928      4093      4094
 -1      2079    8    0    1
 -2      1018      1070      1071      4091      4095      4093
 -1      2080    8    0    1
 -2      1020      1019      1072      3931      4096      4097
 -1      2081    8    0    1
 -2      1019      1071      1072      4094      4098      4096
 -1      2082    8    0    1
 -2      1021      1020      1073      3934      4099      4100
 -1      2083    8    0    1
 -2      1020      1072      1073      4097      4101      4099
 -1      2084    8    0    1
 -2      1022      1021      1074      3937      4102      4103
 -1      2085    8    0    1
 -2      1021      1073      1074      4100      4104      4102
 -1      2086    8    0    1
 -2      1023      1022      1075      3940      4105      4106
 -1      2087    8    0    1
 -2      1022      1074      1075      4103      4107      4105
 -1      2088    8    0    1
 -2      1028      1029      1076      3956      4108      4109
 -1      2089    8    0    1
 -2      1025      1041      1077      3991      4110      4111
 -1      2090    8    0    1
 -2      1024      1028      1078      3953      4112      4113
 -1      2091    8    0    1
 -2      1028      1076      1078      4109      4114      4112
 -1      2092    8    0    1
 -2      1043      1023      1075      4029      4106      4115
 -1      2093    8    0    1
 -2      1000       998      1079      4020      4116      4117
 -1      2094    8    0    1
 -2      1052      1000      1079      4038      4117      4118
 -1      2095    8    0    1
 -2       998      1051      1079      4032      4119      4116
 -1      2096    8    0    1
 -2       993       996      1080      4016      4120      4121
 -1      2097    8    0    1
 -2       993      1080      1050      4121      4122      4025
 -1      2098    8    0    1
 -2      1027      1026      1081      3950      4123      4124
 -1      2099    8    0    1
 -2      1029      1030      1082      3959      4125      4126
 -1      2100    8    0    1
 -2      1029      1082      1076      4126      4127      4108
 -1      2101    8    0    1
 -2      1030      1031      1083      3962      4128      4129
 -1      2102    8    0    1
 -2      1030      1083      1082      4129      4130      4125
 -1      2103    8    0    1
 -2      1031      1032      1084      3965      4131      4132
 -1      2104    8    0    1
 -2      1031      1084      1083      4132      4133      4128
 -1      2105    8    0    1
 -2      1032      1033      1085      3968      4134      4135
 -1      2106    8    0    1
 -2      1032      1085      1084      4135      4136      4131
 -1      2107    8    0    1
 -2      1033      1034      1086      3971      4137      4138
 -1      2108    8    0    1
 -2      1033      1086      1085      4138      4139      4134
 -1      2109    8    0    1
 -2      1034      1035      1087      3974      4140      4141
 -1      2110    8    0    1
 -2      1034      1087      1086      4141      4142      4137
 -1      2111    8    0    1
 -2      1035      1036      1088      3977      4143      4144
 -1      2112    8    0    1
 -2      1035      1088      1087      4144      4145      4140
 -1      2113    8    0    1
 -2      1037       978       989      3978      4034      4146
 -1      2114    8    0    1
 -2      1042      1052      1089      4037      4147      4148
 -1      2115    8    0    1
 -2      1042      1089      1045      4148      4149      4007
 -1      2116    8    0    1
 -2      1041      1044      1090      4024      4150      4151
 -1      2117    8    0    1
 -2      1041      1090      1077      4151      4152      4110
 -1      2118    8    0    1
 -2      1039       995      1091      3985      4153      4154
 -1      2119    8    0    1
 -2       995      1048      1091      4019      4155      4153
 -1      2120    8    0    1
 -2       960      1023      1054      3939      4156      4044
 -1      2121    8    0    1
 -2      1002      1001      1092      3877      4157      4158
 -1      2122    8    0    1
 -2      1002      1092      1055      4158      4159      4046
 -1      2123    8    0    1
 -2      1044      1027      1093      4003      4160      4161
 -1      2124    8    0    1
 -2      1027      1081      1093      4124      4162      4160
 -1      2125    8    0    1
 -2       997      1039      1094      4021      4163      4164
 -1      2126    8    0    1
 -2      1053       997      1094      4039      4164      4165
 -1      2127    8    0    1
 -2      1039      1091      1094      4154      4166      4163
 -1      2128    8    0    1
 -2      1026      1024      1095      3947      4167      4168
 -1      2129    8    0    1
 -2      1026      1095      1081      4168      4169      4123
 -1      2130    8    0    1
 -2      1037       989      1046      4146      4011      4170
 -1      2131    8    0    1
 -2      1047      1025      1096      4013      4171      4172
 -1      2132    8    0    1
 -2      1025      1077      1096      4111      4173      4171
 -1      2133    8    0    1
 -2      1052      1079      1089      4118      4174      4147
 -1      2134    8    0    1
 -2      1001      1045      1097      4006      4175      4176
 -1      2135    8    0    1
 -2      1092      1001      1097      4157      4176      4177
 -1      2136    8    0    1
 -2      1045      1089      1097      4149      4178      4175
 -1      2137    8    0    1
 -2      1043      1075      1088      4115      4179      4180
 -1      2138    8    0    1
 -2      1024      1078      1095      4113      4181      4167
 -1      2139    8    0    1
 -2      1037      1046      1036      4170      4182      3980
 -1      2140    8    0    1
 -2      1051      1040      1098      4033      4183      4184
 -1      2141    8    0    1
 -2      1079      1051      1098      4119      4184      4185
 -1      2142    8    0    1
 -2      1040      1049      1098      4023      4186      4183
 -1      2143    8    0    1
 -2      1090      1044      1093      4150      4161      4187
 -1      2144    8    0    1
 -2       990      1054       992      4045      4188      4043
 -1      2145    8    0    1
 -2      1091      1048      1099      4155      4189      4190
 -1      2146    8    0    1
 -2      1080       996      1047      4120      4015      4191
 -1      2147    8    0    1
 -2      1048      1050      1100      4027      4192      4193
 -1      2148    8    0    1
 -2      1048      1100      1099      4193      4194      4189
 -1      2149    8    0    1
 -2      1049      1053      1101      4041      4195      4196
 -1      2150    8    0    1
 -2      1095      1078      1067      4181      4197      4198
 -1      2151    8    0    1
 -2      1057      1056      1102      4053      4199      4200
 -1      2152    8    0    1
 -2      1058      1057      1099      4056      4201      4202
 -1      2153    8    0    1
 -2      1059      1058      1100      4059      4203      4204
 -1      2154    8    0    1
 -2      1061      1060      1103      4065      4205      4206
 -1      2155    8    0    1
 -2      1062      1061      1096      4068      4207      4208
 -1      2156    8    0    1
 -2      1063      1062      1077      4071      4209      4210
 -1      2157    8    0    1
 -2      1064      1063      1090      4074      4211      4212
 -1      2158    8    0    1
 -2      1065      1064      1093      4077      4213      4214
 -1      2159    8    0    1
 -2      1066      1065      1081      4080      4215      4216
 -1      2160    8    0    1
 -2      1067      1066      1095      4083      4217      4198
 -1      2161    8    0    1
 -2      1068      1067      1078      4086      4197      4218
 -1      2162    8    0    1
 -2      1069      1068      1076      4089      4219      4220
 -1      2163    8    0    1
 -2      1070      1069      1082      4092      4221      4222
 -1      2164    8    0    1
 -2      1071      1070      1083      4095      4223      4224
 -1      2165    8    0    1
 -2      1072      1071      1084      4098      4225      4226
 -1      2166    8    0    1
 -2      1073      1072      1085      4101      4227      4228
 -1      2167    8    0    1
 -2      1074      1073      1086      4104      4229      4230
 -1      2168    8    0    1
 -2      1075      1074      1087      4107      4231      4232
 -1      2169    8    0    1
 -2      1082      1083      1070      4130      4223      4222
 -1      2170    8    0    1
 -2      1089      1079      1104      4174      4233      4234
 -1      2171    8    0    1
 -2      1097      1089      1104      4178      4234      4235
 -1      2172    8    0    1
 -2      1079      1098      1104      4185      4236      4233
 -1      2173    8    0    1
 -2      1086      1073      1085      4229      4228      4139
 -1      2174    8    0    1
 -2       979       992      1054      3840      4188      4237
 -1      2175    8    0    1
 -2      1085      1072      1084      4227      4226      4136
 -1      2176    8    0    1
 -2      1083      1084      1071      4133      4225      4224
 -1      2177    8    0    1
 -2      1098      1049      1105      4186      4238      4239
 -1      2178    8    0    1
 -2      1076      1082      1069      4127      4221      4220
 -1      2179    8    0    1
 -2      1105      1049      1101      4238      4196      4240
 -1      2180    8    0    1
 -2      1058      1099      1100      4202      4194      4203
 -1      2181    8    0    1
 -2      1063      1077      1090      4210      4152      4211
 -1      2182    8    0    1
 -2      1064      1090      1093      4212      4187      4213
 -1      2183    8    0    1
 -2      1065      1093      1081      4214      4162      4215
 -1      2184    8    0    1
 -2      1066      1081      1095      4216      4169      4217
 -1      2185    8    0    1
 -2      1076      1068      1078      4219      4218      4114
 -1      2186    8    0    1
 -2      1074      1086      1087      4230      4142      4231
 -1      2187    8    0    1
 -2      1075      1087      1088      4232      4145      4179
 -1      2188    8    0    1
 -2       979      1054      1023      4237      4156      4028
 -1      2189    8    0    1
 -2      1088      1036      1046      4143      4182      4241
 -1      2190    8    0    1
 -2      1099      1057      1102      4201      4200      4242
 -1      2191    8    0    1
 -2      1105      1101      1092      4240      4243      4244
 -1      2192    8    0    1
 -2      1080      1047      1103      4191      4245      4246
 -1      2193    8    0    1
 -2      1046      1043      1088      4012      4180      4241
 -1      2194    8    0    1
 -2      1050      1080      1106      4122      4247      4248
 -1      2195    8    0    1
 -2      1100      1050      1106      4192      4248      4249
 -1      2196    8    0    1
 -2      1080      1103      1106      4246      4250      4247
 -1      2197    8    0    1
 -2      1101      1053      1107      4195      4251      4252
 -1      2198    8    0    1
 -2      1053      1094      1107      4165      4253      4251
 -1      2199    8    0    1
 -2      1091      1099      1102      4190      4242      4254
 -1      2200    8    0    1
 -2      1056      1055      1107      4050      4255      4256
 -1      2201    8    0    1
 -2      1055      1092      1101      4159      4243      4257
 -1      2202    8    0    1
 -2      1077      1062      1096      4209      4208      4173
 -1      2203    8    0    1
 -2      1055      1101      1107      4257      4252      4255
 -1      2204    8    0    1
 -2      1096      1061      1103      4207      4206      4258
 -1      2205    8    0    1
 -2      1103      1060      1106      4205      4259      4250
 -1      2206    8    0    1
 -2      1105      1092      1097      4244      4177      4260
 -1      2207    8    0    1
 -2      1059      1100      1106      4204      4249      4261
 -1      2208    8    0    1
 -2      1106      1060      1059      4259      4062      4261
 -1      2209    8    0    1
 -2      1098      1105      1104      4239      4262      4236
 -1      2210    8    0    1
 -2      1102      1056      1107      4199      4256      4263
 -1      2211    8    0    1
 -2      1103      1047      1096      4245      4172      4258
 -1      2212    8    0    1
 -2      1091      1102      1094      4254      4264      4166
 -1      2213    8    0    1
 -2      1102      1107      1094      4263      4253      4264
 -1      2214    8    0    1
 -2      1104      1105      1097      4262      4260      4235
 -3
    1PSTEP                         1           1           1          
  100CL  101 1.000000000        4264                     0    1           1
 -4  DISP        4    1
 -5  D1          1    2    1    0
 -5  D2          1    2    2    0
 -5  D3          1    2    3    0
 -5  ALL         1    2    0    0    1ALL
 -1         1 9.69992E-03-8.71468E-04-4.06492E-14
 -1         2 1.40584E-02-7.34316E-04-4.83784E-14
 -1         3 1.41115E-02-6.88372E-04-5.99989E-14
 -1         4 1.57696E-02-1.57342E-03-6.69891E-14
 -1         5 0.00000E+00 0.00000E+00 0.00000E+00
 -1         6 0.00000E+00 0.00000E+00 0.00000E+00
 -1         7 0.00000E+00 0.00000E+00 0.00000E+00
 -1         8 0.00000E+00 0.00000E+00 0.00000E+00
 -1         9 0.00000E+00 0.00000E+00 0.00000E+00
 -1        10 0.00000E+00 0.00000E+00 0.00000E+00
 -1        11 0.00000E+00 0.00000E+00 0.00000E+00
 -1        12 0.00000E+00 0.00000E+00 0.00000E+00
 -1        13 0.00000E+00 0.00000E+00 0.00000E+00
 -1        14 0.00000E+00 0.00000E+00 0.00000E+00
 -1        15 0.00000E+00 0.00000E+00 0.00000E+00
 -1        16 0.00000E+00 0.00000E+00 0.00000E+00
 -1        17 0.00000E+00 0.00000E+00 0.00000E+00
 -1        18 0.00000E+00 0.00000E+00 0.00000E+00
 -1        19 0.00000E+00 0.00000E+00 0.00000E+00
 -1        20 0.00000E+00 0.00000E+00 0.00000E+00
 -1        21 0.00000E+00 0.00000E+00 0.00000E+00
 -1        22 0.00000E+00 0.00000E+00 0.00000E+00
 -1        23 4.11405E-04-2.60747E-04 3.55754E-19
 -1        24 7.03412E-04-4.01004E-04-8.49506E-17
 -1        25 9.73503E-04-4.98397E-04-2.51128E-16
 -1        26 1.23802E-03-5.67159E-04-4.95470E-16
 -1        27 1.50157E-03-6.16434E-04-8.14314E-16
 -1        28 1.76626E-03-6.51610E-04-1.20690E-15
 -1        29 2.03303E-03-6.76396E-04-1.67328E-15
 -1        30 2.30226E-03-6.93489E-04-2.21085E-15
 -1        31 2.57398E-03-7.04905E-04-2.82238E-15
 -1        32 2.84807E-03-7.12170E-04-3.50320E-15
 -1        33 3.12428E-03-7.16433E-04-4.25181E-15
 -1        34 3.40234E-03-7.18549E-04-5.06344E-15
 -1        35 3.68197E-03-7.19143E-04-5.93771E-15
 -1        36 3.97698E-03-7.18611E-04-6.92695E-15
 -1        37 4.25902E-03-7.17311E-04-7.93462E-15
 -1        38 4.54194E-03-7.15422E-04-9.00931E-15
 -1        39 4.82558E-03-7.13039E-04-1.01453E-14
 -1        40 5.10988E-03-7.10188E-04-1.13489E-14
 -1        41 5.39480E-03-7.06848E-04-1.26161E-14
 -1        42 5.68042E-03-7.02963E-04-1.39379E-14
 -1        43 5.96687E-03-6.98457E-04-1.53154E-14
 -1        44 6.25442E-03-6.93254E-04-1.67402E-14
 -1        45 6.54346E-03-6.87299E-04-1.82158E-14
 -1        46 6.83457E-03-6.80589E-04-1.97438E-14
 -1        47 7.12857E-03-6.73228E-04-2.13189E-14
 -1        48 7.42659E-03-6.65501E-04-2.29315E-14
 -1        49 7.74556E-03-6.57634E-04-2.46610E-14
 -1        50 8.05732E-03-6.51549E-04-2.63577E-14
 -1        51 8.37971E-03-6.48837E-04-2.80974E-14
 -1        52 8.71636E-03-6.52842E-04-2.98789E-14
 -1        53 9.07156E-03-6.69010E-04-3.16916E-14
 -1        54 9.44970E-03-7.05816E-04-3.35235E-14
 -1        55 9.85365E-03-7.75509E-04-3.53732E-14
 -1        56 1.02814E-02-8.93478E-04-3.72514E-14
 -1        57 1.07207E-02-1.07360E-03-3.91562E-14
 -1        58 1.11452E-02-1.31636E-03-4.10632E-14
 -1        59 1.15194E-02-1.59094E-03-4.29765E-14
 -1        60 1.18213E-02-1.82720E-03-4.49034E-14
 -1        61 1.20461E-02-1.94014E-03-4.66470E-14
 -1        62 1.22833E-02-1.92687E-03-4.84939E-14
 -1        63 1.25836E-02-1.80222E-03-5.04326E-14
 -1        64 1.29508E-02-1.64295E-03-5.23584E-14
 -1        65 1.33607E-02-1.51467E-03-5.42726E-14
 -1        66 1.37779E-02-1.44371E-03-5.61691E-14
 -1        67 1.41768E-02-1.42634E-03-5.80335E-14
 -1        68 1.45458E-02-1.44598E-03-5.98800E-14
 -1        69 1.48832E-02-1.48406E-03-6.17041E-14
 -1        70 1.51933E-02-1.52441E-03-6.34899E-14
 -1        71 1.54846E-02-1.55494E-03-6.52541E-14
 -1        72 4.13854E-04 2.61451E-04 5.98039E-17
 -1        73 7.03239E-04 4.03716E-04 8.04512E-17
 -1        74 9.74033E-04 5.00173E-04 5.66021E-17
 -1        75 1.23884E-03 5.68865E-04-1.67374E-17
 -1        76 1.50253E-03 6.18195E-04-1.42268E-16
 -1        77 1.76728E-03 6.53463E-04-3.23495E-16
 -1        78 2.03410E-03 6.78358E-04-5.63060E-16
 -1        79 2.30335E-03 6.95571E-04-8.62588E-16
 -1        80 2.57509E-03 7.07113E-04-1.22170E-15
 -1        81 2.84919E-03 7.14507E-04-1.64538E-15
 -1        82 3.12541E-03 7.18901E-04-2.13226E-15
 -1        83 3.40349E-03 7.21150E-04-2.68103E-15
 -1        84 3.68313E-03 7.21880E-04-3.29510E-15
 -1        85 3.96409E-03 7.21536E-04-3.97386E-15
 -1        86 4.24612E-03 7.20420E-04-4.71769E-15
 -1        87 4.52905E-03 7.18726E-04-5.52657E-15
 -1        88 4.81273E-03 7.16566E-04-6.40101E-15
 -1        89 5.09709E-03 7.13992E-04-7.34061E-15
 -1        90 5.38211E-03 7.11019E-04-8.34125E-15
 -1        91 5.66783E-03 7.07644E-04-9.40340E-15
 -1        92 5.95438E-03 7.03870E-04-1.05334E-14
 -1        93 6.24194E-03 6.99733E-04-1.17425E-14
 -1        94 6.53080E-03 6.95325E-04-1.30333E-14
 -1        95 6.82128E-03 6.90840E-04-1.43940E-14
 -1        96 7.11380E-03 6.86606E-04-1.58155E-14
 -1        97 7.40878E-03 6.83132E-04-1.73035E-14
 -1        98 7.70662E-03 6.81145E-04-1.88560E-14
 -1        99 8.00757E-03 6.81609E-04-2.04547E-14
 -1       100 8.31163E-03 6.85703E-04-2.20966E-14
 -1       101 8.61833E-03 6.94718E-04-2.37929E-14
 -1       102 8.92656E-03 7.09845E-04-2.55179E-14
 -1       103 9.23434E-03 7.31790E-04-2.72656E-14
 -1       104 9.53880E-03 7.60230E-04-2.90352E-14
 -1       105 9.83634E-03 7.93164E-04-3.08177E-14
 -1       106 1.01232E-02 8.26358E-04-3.26110E-14
 -1       107 1.03965E-02 8.53218E-04-3.44200E-14
 -1       108 1.06553E-02 8.65453E-04-3.62416E-14
 -1       109 1.09015E-02 8.54675E-04-3.80737E-14
 -1       110 1.11401E-02 8.14569E-04-3.99110E-14
 -1       111 1.13778E-02 7.42781E-04-4.17503E-14
 -1       112 1.16211E-02 6.41596E-04-4.35849E-14
 -1       113 1.18745E-02 5.17029E-04-4.54100E-14
 -1       114 1.21393E-02 3.76782E-04-4.72343E-14
 -1       115 1.24144E-02 2.28043E-04-4.90734E-14
 -1       116 1.26966E-02 7.59680E-05-5.09033E-14
 -1       117 1.29824E-02-7.68151E-05-5.27356E-14
 -1       118 1.32690E-02-2.29828E-04-5.45576E-14
 -1       119 1.35549E-02-3.83813E-04-5.63904E-14
 -1       120 1.38403E-02-5.39474E-04-5.82376E-14
 -1       121 1.42658E-02-7.72892E-04-6.04214E-14
 -1       122 1.44213E-02-8.57621E-04-6.08475E-14
 -1       123 1.45798E-02-9.41354E-04-6.12459E-14
 -1       124 1.47421E-02-1.02186E-03-6.16494E-14
 -1       125 1.49077E-02-1.09603E-03-6.20735E-14
 -1       126 1.50716E-02-1.15916E-03-6.25154E-14
 -1       127 1.52348E-02-1.20996E-03-6.29700E-14
 -1       128 1.53876E-02-1.24506E-03-6.34043E-14
 -1       129 1.55216E-02-1.26485E-03-6.38402E-14
 -1       130 1.56288E-02-1.27310E-03-6.42447E-14
 -1       131 1.57040E-02-1.27685E-03-6.46389E-14
 -1       132 1.57462E-02-1.28496E-03-6.50279E-14
 -1       133 1.57618E-02-1.30651E-03-6.54271E-14
 -1       134 1.57600E-02-1.34776E-03-6.58133E-14
 -1       135 1.57541E-02-1.41032E-03-6.61829E-14
 -1       136 1.57563E-02-1.48970E-03-6.65737E-14
 -1       137 1.39647E-02-5.34525E-04-4.80560E-14
 -1       138 1.37673E-02-3.44311E-04-4.75470E-14
 -1       139 1.34811E-02-1.68162E-04-4.68908E-14
 -1       140 1.31323E-02-1.76457E-05-4.61275E-14
 -1       141 1.27207E-02 1.10442E-04-4.52588E-14
 -1       142 1.22607E-02 2.07720E-04-4.43339E-14
 -1       143 1.17593E-02 2.71009E-04-4.33493E-14
 -1       144 1.12776E-02 2.90339E-04-4.24375E-14
 -1       145 1.08213E-02 2.69983E-04-4.16103E-14
 -1       146 1.03807E-02 2.05642E-04-4.08404E-14
 -1       147 1.00340E-02 1.13707E-04-4.02827E-14
 -1       148 9.76462E-03-3.01210E-06-3.98946E-14
 -1       149 9.56585E-03-1.46175E-04-3.96696E-14
 -1       150 9.45696E-03-3.06066E-04-3.96275E-14
 -1       151 9.44024E-03-4.92056E-04-3.97898E-14
 -1       152 9.52087E-03-6.78487E-04-4.01332E-14
 -1       153 9.95232E-03-1.05591E-03-4.12726E-14
 -1       154 1.03075E-02-1.24393E-03-4.20669E-14
 -1       155 1.07107E-02-1.40216E-03-4.29055E-14
 -1       156 1.11621E-02-1.52740E-03-4.37905E-14
 -1       157 1.16283E-02-1.60574E-03-4.46537E-14
 -1       158 1.21167E-02-1.63379E-03-4.55241E-14
 -1       159 1.26161E-02-1.60339E-03-4.63928E-14
 -1       160 1.30584E-02-1.52221E-03-4.71360E-14
 -1       161 1.34419E-02-1.39871E-03-4.77566E-14
 -1       162 1.37405E-02-1.24817E-03-4.81973E-14
 -1       163 1.39387E-02-1.08579E-03-4.84267E-14
 -1       164 1.40439E-02-9.16736E-04-4.84895E-14
 -1       165 2.40415E-04-1.25520E-04-2.54686E-17
 -1       166 2.25280E-04-9.46191E-05-3.25871E-17
 -1       167 2.19522E-04-7.27770E-05-3.54907E-17
 -1       168 2.16709E-04-5.51072E-05-3.62869E-17
 -1       169 2.15217E-04-3.99668E-05-3.56127E-17
 -1       170 2.14379E-04-2.59145E-05-3.43557E-17
 -1       171 2.13959E-04-1.26436E-05-3.26311E-17
 -1       172 2.13837E-04 2.73087E-07-3.04966E-17
 -1       173 2.13978E-04 1.32023E-05-2.78267E-17
 -1       174 2.14420E-04 2.65134E-05-2.47537E-17
 -1       175 2.15264E-04 4.03937E-05-2.09895E-17
 -1       176 2.16814E-04 5.59131E-05-1.57616E-17
 -1       177 2.19679E-04 7.38150E-05-8.48049E-18
 -1       178 2.25446E-04 9.60217E-05 1.66696E-18
 -1       179 2.39345E-04 1.27594E-04 1.63003E-17
 -1       180 2.97727E-04 1.85507E-04 3.33358E-17
 -1       181 4.68650E-04-2.63562E-04-6.67293E-17
 -1       182 7.66810E-04-3.82166E-04-2.02126E-16
 -1       183 1.05067E-03-4.65063E-04-4.11390E-16
 -1       184 1.32808E-03-5.23853E-04-6.93750E-16
 -1       185 1.60270E-03-5.65560E-04-1.04838E-15
 -1       186 1.87660E-03-5.94874E-04-1.47481E-15
 -1       187 2.15091E-03-6.15095E-04-1.97157E-15
 -1       188 2.42624E-03-6.28648E-04-2.53899E-15
 -1       189 2.70283E-03-6.37342E-04-3.17614E-15
 -1       190 2.98076E-03-6.42533E-04-3.87977E-15
 -1       191 3.25998E-03-6.45231E-04-4.64915E-15
 -1       192 3.54036E-03-6.46174E-04-5.48153E-15
 -1       193 3.83588E-03-6.45851E-04-6.42359E-15
 -1       194 4.11824E-03-6.44665E-04-7.38671E-15
 -1       195 4.40137E-03-6.42851E-04-8.41480E-15
 -1       196 4.68517E-03-6.40533E-04-9.50735E-15
 -1       197 4.96958E-03-6.37758E-04-1.06623E-14
 -1       198 5.25459E-03-6.34510E-04-1.18840E-14
 -1       199 5.54023E-03-6.30733E-04-1.31650E-14
 -1       200 5.82661E-03-6.26338E-04-1.45012E-14
 -1       201 6.11391E-03-6.21222E-04-1.58896E-14
 -1       202 6.40240E-03-6.15284E-04-1.73276E-14
 -1       203 6.69249E-03-6.08450E-04-1.88168E-14
 -1       204 6.98472E-03-6.00710E-04-2.03533E-14
 -1       205 7.27985E-03-5.92178E-04-2.19368E-14
 -1       206 7.59392E-03-5.82724E-04-2.36376E-14
 -1       207 7.89840E-03-5.74003E-04-2.53008E-14
 -1       208 8.20978E-03-5.66927E-04-2.70054E-14
 -1       209 8.53012E-03-5.63928E-04-2.87516E-14
 -1       210 8.86183E-03-5.69145E-04-3.05371E-14
 -1       211 9.20748E-03-5.89354E-04-3.23460E-14
 -1       212 9.56934E-03-6.35048E-04-3.41749E-14
 -1       213 9.94843E-03-7.21036E-04-3.60254E-14
 -1       214 1.03428E-02-8.64718E-04-3.78974E-14
 -1       215 1.07454E-02-1.07839E-03-3.97872E-14
 -1       216 1.11425E-02-1.35247E-03-4.16836E-14
 -1       217 1.15175E-02-1.63469E-03-4.35894E-14
 -1       218 1.18304E-02-1.81980E-03-4.53123E-14
 -1       219 1.21480E-02-1.87866E-03-4.71396E-14
 -1       220 1.24932E-02-1.78968E-03-4.90749E-14
 -1       221 1.28632E-02-1.62291E-03-5.10021E-14
 -1       222 1.32507E-02-1.46616E-03-5.29206E-14
 -1       223 1.36389E-02-1.36633E-03-5.48218E-14
 -1       224 1.40148E-02-1.32924E-03-5.67012E-14
 -1       225 1.43714E-02-1.33984E-03-5.85597E-14
 -1       226 1.47071E-02-1.37793E-03-6.04017E-14
 -1       227 1.50237E-02-1.42499E-03-6.22127E-14
 -1       228 1.53245E-02-1.46610E-03-6.39965E-14
 -1       229 1.55422E-02-1.48270E-03-6.52948E-14
 -1       230 6.04607E-04 3.31063E-04 3.75676E-17
 -1       231 8.93725E-04 4.32711E-04 3.25261E-19
 -1       232 1.17261E-03 5.04457E-04-8.53403E-17
 -1       233 1.44699E-03 5.55560E-04-2.23681E-16
 -1       234 1.71981E-03 5.91817E-04-4.16838E-16
 -1       235 1.99272E-03 6.17221E-04-6.67916E-16
 -1       236 2.26655E-03 6.34642E-04-9.78032E-16
 -1       237 2.54171E-03 6.46211E-04-1.34897E-15
 -1       238 2.81834E-03 6.53525E-04-1.78179E-15
 -1       239 3.09641E-03 6.57784E-04-2.27762E-15
 -1       240 3.37582E-03 6.59875E-04-2.83632E-15
 -1       241 3.65643E-03 6.60445E-04-3.45783E-15
 -1       242 3.93807E-03 6.59951E-04-4.14245E-15
 -1       243 4.22061E-03 6.58701E-04-4.89248E-15
 -1       244 4.50392E-03 6.56889E-04-5.70631E-15
 -1       245 4.78790E-03 6.54624E-04-6.58453E-15
 -1       246 5.07250E-03 6.51951E-04-7.52792E-15
 -1       247 5.35773E-03 6.48876E-04-8.53363E-15
 -1       248 5.64361E-03 6.45383E-04-9.60345E-15
 -1       249 5.93025E-03 6.41460E-04-1.07414E-14
 -1       250 6.21781E-03 6.37123E-04-1.19513E-14
 -1       251 6.50649E-03 6.32444E-04-1.32375E-14
 -1       252 6.79656E-03 6.27591E-04-1.45932E-14
 -1       253 7.08833E-03 6.22871E-04-1.60106E-14
 -1       254 7.38211E-03 6.18772E-04-1.74928E-14
 -1       255 7.67818E-03 6.16013E-04-1.90357E-14
 -1       256 7.97673E-03 6.15572E-04-2.06274E-14
 -1       257 8.27772E-03 6.18673E-04-2.22638E-14
 -1       258 8.58084E-03 6.26706E-04-2.39476E-14
 -1       259 8.88529E-03 6.41024E-04-2.56686E-14
 -1       260 9.18972E-03 6.62568E-04-2.74129E-14
 -1       261 9.49217E-03 6.91310E-04-2.91822E-14
 -1       262 9.79022E-03 7.25543E-04-3.09658E-14
 -1       263 1.00813E-02 7.61231E-04-3.27615E-14
 -1       264 1.03635E-02 7.91743E-04-3.45670E-14
 -1       265 1.06359E-02 8.08418E-04-3.63811E-14
 -1       266 1.08996E-02 8.02178E-04-3.82038E-14
 -1       267 1.11578E-02 7.65897E-04-4.00354E-14
 -1       268 1.14148E-02 6.96591E-04-4.18754E-14
 -1       269 1.16748E-02 5.96347E-04-4.37111E-14
 -1       270 1.19410E-02 4.71451E-04-4.55452E-14
 -1       271 1.22146E-02 3.30171E-04-4.73805E-14
 -1       272 1.24947E-02 1.80291E-04-4.92168E-14
 -1       273 1.27796E-02 2.73978E-05-5.10512E-14
 -1       274 1.30669E-02-1.25695E-04-5.28778E-14
 -1       275 1.33547E-02-2.78556E-04-5.47061E-14
 -1       276 1.36418E-02-4.32157E-04-5.65406E-14
 -1       277 1.39281E-02-5.87536E-04-5.83859E-14
 -1       278 1.40958E-02-6.78788E-04-5.90326E-14
 -1       279 1.42529E-02-7.61998E-04-5.94520E-14
 -1       280 1.44140E-02-8.43203E-04-5.98662E-14
 -1       281 1.45795E-02-9.20662E-04-6.02936E-14
 -1       282 1.47455E-02-9.90947E-04-6.07159E-14
 -1       283 1.49143E-02-1.05414E-03-6.11566E-14
 -1       284 1.50769E-02-1.10708E-03-6.16016E-14
 -1       285 1.52250E-02-1.14919E-03-6.20392E-14
 -1       286 1.53493E-02-1.18189E-03-6.24591E-14
 -1       287 1.54421E-02-1.20883E-03-6.28660E-14
 -1       288 1.54991E-02-1.23499E-03-6.32646E-14
 -1       289 1.55244E-02-1.26721E-03-6.36619E-14
 -1       290 1.55252E-02-1.31019E-03-6.40576E-14
 -1       291 1.55146E-02-1.36682E-03-6.44594E-14
 -1       292 1.55245E-02-1.42137E-03-6.48758E-14
 -1       293 1.40470E-02-7.10837E-04-4.90897E-14
 -1       294 1.38444E-02-5.95637E-04-4.86337E-14
 -1       295 1.35300E-02-4.23751E-04-4.78406E-14
 -1       296 1.31542E-02-2.26837E-04-4.69617E-14
 -1       297 1.27374E-02-2.89770E-05-4.60247E-14
 -1       298 1.23306E-02 1.62118E-04-4.49495E-14
 -1       299 1.18976E-02 3.11311E-04-4.38185E-14
 -1       300 1.15147E-02 3.64774E-04-4.26970E-14
 -1       301 1.11314E-02 3.33362E-04-4.16915E-14
 -1       302 1.07542E-02 2.29796E-04-4.06277E-14
 -1       303 1.03504E-02 8.24110E-05-3.99419E-14
 -1       304 1.00004E-02-6.00675E-05-3.94285E-14
 -1       305 9.71062E-03-1.97788E-04-3.90191E-14
 -1       306 9.50102E-03-3.05220E-04-3.89107E-14
 -1       307 9.40564E-03-4.04939E-04-3.88767E-14
 -1       308 9.45439E-03-5.09000E-04-3.92642E-14
 -1       309 9.64044E-03-6.09999E-04-3.95821E-14
 -1       310 9.92040E-03-8.00742E-04-4.04202E-14
 -1       311 1.03029E-02-9.96703E-04-4.11912E-14
 -1       312 1.07013E-02-1.24605E-03-4.22088E-14
 -1       313 1.11119E-02-1.46630E-03-4.32232E-14
 -1       314 1.15063E-02-1.63132E-03-4.42565E-14
 -1       315 1.18887E-02-1.70970E-03-4.52799E-14
 -1       316 1.22801E-02-1.68993E-03-4.63554E-14
 -1       317 1.26874E-02-1.56293E-03-4.72933E-14
 -1       318 1.30790E-02-1.37869E-03-4.81900E-14
 -1       319 1.34726E-02-1.19580E-03-4.87334E-14
 -1       320 1.37884E-02-1.03990E-03-4.90847E-14
 -1       321 1.39974E-02-9.13466E-04-4.92657E-14
 -1       322 1.40905E-02-8.09269E-04-4.92402E-14
 -1       323 4.55399E-04-1.64794E-04-1.20204E-16
 -1       324 4.74273E-04-2.12984E-04-1.10301E-16
 -1       325 4.40445E-04-9.40156E-05-1.23436E-16
 -1       326 4.37474E-04-6.49119E-05-1.20716E-16
 -1       327 4.35849E-04-3.79062E-05-1.16430E-16
 -1       328 4.35138E-04-1.20173E-05-1.10772E-16
 -1       329 4.35169E-04 1.35367E-05-1.03579E-16
 -1       330 4.35947E-04 3.94832E-05-9.51218E-17
 -1       331 4.37616E-04 6.61409E-05-8.50523E-17
 -1       332 4.40674E-04 9.54191E-05-7.25331E-17
 -1       333 4.46062E-04 1.28333E-04-5.62159E-17
 -1       334 4.55996E-04 1.67320E-04-3.51112E-17
 -1       335 4.75895E-04 2.16986E-04-7.31159E-18
 -1       336 5.32011E-04 2.69970E-04 1.16924E-17
 -1       337 8.24516E-04 3.73496E-04-3.52976E-17
 -1       338 8.63306E-04-3.57429E-04-3.27124E-16
 -1       339 1.14967E-03-4.26193E-04-5.75637E-16
 -1       340 1.43247E-03-4.75378E-04-8.94169E-16
 -1       341 1.71320E-03-5.10129E-04-1.28250E-15
 -1       342 1.99298E-03-5.34244E-04-1.74002E-15
 -1       343 2.27258E-03-5.50544E-04-2.26605E-15
 -1       344 2.55248E-03-5.61142E-04-2.86015E-15
 -1       345 2.83291E-03-5.67626E-04-3.52055E-15
 -1       346 3.11401E-03-5.71180E-04-4.24687E-15
 -1       347 3.39580E-03-5.72675E-04-5.03670E-15
 -1       348 3.69240E-03-5.72715E-04-5.93321E-15
 -1       349 3.97550E-03-5.71746E-04-6.85329E-15
 -1       350 4.25916E-03-5.70080E-04-7.83577E-15
 -1       351 4.54333E-03-5.67884E-04-8.88331E-15
 -1       352 4.82797E-03-5.65230E-04-9.99240E-15
 -1       353 5.11308E-03-5.62126E-04-1.11674E-14
 -1       354 5.39866E-03-5.58523E-04-1.24063E-14
 -1       355 5.68479E-03-5.54336E-04-1.37012E-14
 -1       356 5.97156E-03-5.49454E-04-1.50511E-14
 -1       357 6.25913E-03-5.43758E-04-1.64522E-14
 -1       358 6.54773E-03-5.37139E-04-1.79052E-14
 -1       359 6.83766E-03-5.29528E-04-1.94054E-14
 -1       360 7.12929E-03-5.20941E-04-2.09553E-14
 -1       361 7.43789E-03-5.11060E-04-2.26254E-14
 -1       362 7.73469E-03-5.01302E-04-2.42559E-14
 -1       363 8.03508E-03-4.92137E-04-2.59271E-14
 -1       364 8.33997E-03-4.85268E-04-2.76402E-14
 -1       365 8.65045E-03-4.83653E-04-2.93936E-14
 -1       366 8.96798E-03-4.92205E-04-3.11771E-14
 -1       367 9.29457E-03-5.18750E-04-3.29857E-14
 -1       368 9.63327E-03-5.75050E-04-3.48128E-14
 -1       369 9.98869E-03-6.77314E-04-3.66598E-14
 -1       370 1.03663E-02-8.44264E-04-3.85238E-14
 -1       371 1.07681E-02-1.08790E-03-4.04035E-14
 -1       372 1.11845E-02-1.39105E-03-4.22921E-14
 -1       373 1.15548E-02-1.65002E-03-4.39989E-14
 -1       374 1.19323E-02-1.80464E-03-4.58066E-14
 -1       375 1.23280E-02-1.77158E-03-4.77245E-14
 -1       376 1.27365E-02-1.60268E-03-4.96476E-14
 -1       377 1.31467E-02-1.41922E-03-5.15678E-14
 -1       378 1.35390E-02-1.29322E-03-5.34776E-14
 -1       379 1.39052E-02-1.23762E-03-5.53655E-14
 -1       380 1.42477E-02-1.23785E-03-5.72360E-14
 -1       381 1.45718E-02-1.27309E-03-5.90911E-14
 -1       382 1.48817E-02-1.32410E-03-6.09264E-14
 -1       383 1.51803E-02-1.37481E-03-6.27329E-14
 -1       384 1.27172E-03 4.61225E-04-2.39080E-16
 -1       385 1.55265E-03 5.04126E-04-4.24377E-16
 -1       386 1.83203E-03 5.34306E-04-6.66042E-16
 -1       387 2.11091E-03 5.55109E-04-9.65492E-16
 -1       388 2.38993E-03 5.69037E-04-1.32513E-15
 -1       389 2.66948E-03 5.77967E-04-1.74570E-15
 -1       390 2.94973E-03 5.83305E-04-2.22823E-15
 -1       391 3.23076E-03 5.86098E-04-2.77256E-15
 -1       392 3.51254E-03 5.87110E-04-3.37928E-15
 -1       393 3.79503E-03 5.86888E-04-4.04928E-15
 -1       394 4.07817E-03 5.85806E-04-4.78115E-15
 -1       395 4.36190E-03 5.84106E-04-5.57708E-15
 -1       396 4.64614E-03 5.81929E-04-6.43601E-15
 -1       397 4.93088E-03 5.79341E-04-7.35786E-15
 -1       398 5.21610E-03 5.76354E-04-8.34453E-15
 -1       399 5.50182E-03 5.72950E-04-9.39603E-15
 -1       400 5.78811E-03 5.69099E-04-1.05135E-14
 -1       401 6.07507E-03 5.64786E-04-1.16987E-14
 -1       402 6.36283E-03 5.60036E-04-1.29555E-14
 -1       403 6.65157E-03 5.54946E-04-1.42814E-14
 -1       404 6.94151E-03 5.49732E-04-1.56700E-14
 -1       405 7.23290E-03 5.44769E-04-1.71222E-14
 -1       406 7.52599E-03 5.40645E-04-1.86340E-14
 -1       407 7.82101E-03 5.38207E-04-2.02001E-14
 -1       408 8.11816E-03 5.38578E-04-2.18132E-14
 -1       409 8.41746E-03 5.43133E-04-2.34701E-14
 -1       410 8.71877E-03 5.53378E-04-2.51703E-14
 -1       411 9.02160E-03 5.70688E-04-2.69007E-14
 -1       412 9.32504E-03 5.95841E-04-2.86597E-14
 -1       413 9.62769E-03 6.28350E-04-3.04368E-14
 -1       414 9.92768E-03 6.65657E-04-3.22254E-14
 -1       415 1.02229E-02 7.02458E-04-3.40259E-14
 -1       416 1.05118E-02 7.30622E-04-3.58343E-14
 -1       417 1.07937E-02 7.40213E-04-3.76497E-14
 -1       418 1.10699E-02 7.21801E-04-3.94732E-14
 -1       419 1.13434E-02 6.69379E-04-4.13062E-14
 -1       420 1.16178E-02 5.82466E-04-4.31444E-14
 -1       421 1.18961E-02 4.66174E-04-4.49861E-14
 -1       422 1.21797E-02 3.29141E-04-4.68277E-14
 -1       423 1.24680E-02 1.80512E-04-4.86685E-14
 -1       424 1.27593E-02 2.75008E-05-5.05063E-14
 -1       425 1.30517E-02-1.25737E-04-5.23383E-14
 -1       426 1.33435E-02-2.77984E-04-5.41657E-14
 -1       427 1.36334E-02-4.30053E-04-5.59973E-14
 -1       428 1.38653E-02-5.53491E-04-5.75123E-14
 -1       429 1.42481E-02-7.52015E-04-5.84952E-14
 -1       430 1.40845E-02-6.69720E-04-5.80670E-14
 -1       431 1.44138E-02-8.30138E-04-5.89204E-14
 -1       432 1.45855E-02-9.04860E-04-5.93542E-14
 -1       433 1.47557E-02-9.72625E-04-5.97904E-14
 -1       434 1.49166E-02-1.03168E-03-6.02262E-14
 -1       435 1.50584E-02-1.08152E-03-6.06593E-14
 -1       436 1.51709E-02-1.12367E-03-6.10814E-14
 -1       437 1.52461E-02-1.16124E-03-6.14864E-14
 -1       438 1.52851E-02-1.20063E-03-6.18892E-14
 -1       439 1.52921E-02-1.24636E-03-6.22938E-14
 -1       440 1.52792E-02-1.30228E-03-6.27051E-14
 -1       441 1.04898E-03 4.24758E-04-1.18283E-16
 -1       442 1.36518E-02-5.85478E-04-4.88670E-14
 -1       443 1.28637E-02-2.05262E-04-4.70235E-14
 -1       444 1.41102E-02-7.88285E-04-5.01283E-14
 -1       445 1.32716E-02-4.04737E-04-4.79258E-14
 -1       446 4.45605E-04-1.26488E-04-1.23491E-16
 -1       447 1.24109E-02 4.90292E-05-4.57487E-14
 -1       448 1.20627E-02 2.34163E-04-4.46110E-14
 -1       449 1.16356E-02 3.85840E-04-4.30017E-14
 -1       450 1.13590E-02 3.94338E-04-4.19934E-14
 -1       451 1.10224E-02 3.22022E-04-4.07773E-14
 -1       452 1.05636E-02 1.25849E-04-3.94869E-14
 -1       453 1.02081E-02-3.74701E-05-3.89099E-14
 -1       454 9.91143E-03-1.66078E-04-3.84986E-14
 -1       455 9.58831E-03-2.95460E-04-3.81283E-14
 -1       456 9.43286E-03-3.60749E-04-3.80899E-14
 -1       457 9.39955E-03-4.23524E-04-3.82276E-14
 -1       458 9.51410E-03-4.78669E-04-3.85370E-14
 -1       459 9.84122E-03-6.35696E-04-3.94805E-14
 -1       460 1.01645E-02-8.01941E-04-4.02465E-14
 -1       461 1.06232E-02-1.07087E-03-4.13553E-14
 -1       462 1.09662E-02-1.30477E-03-4.23680E-14
 -1       463 1.13885E-02-1.56806E-03-4.36891E-14
 -1       464 1.17407E-02-1.71817E-03-4.48888E-14
 -1       465 1.20645E-02-1.75395E-03-4.60453E-14
 -1       466 1.24581E-02-1.64968E-03-4.73731E-14
 -1       467 1.28091E-02-1.47557E-03-4.83142E-14
 -1       468 1.32577E-02-1.22833E-03-4.93602E-14
 -1       469 1.36182E-02-1.05276E-03-4.97683E-14
 -1       470 1.38982E-02-9.27655E-04-5.00192E-14
 -1       471 1.40852E-02-8.34735E-04-5.01472E-14
 -1       472 1.39735E-02-7.18669E-04-4.97074E-14
 -1       473 9.65266E-03-5.07202E-04-3.84321E-14
 -1       474 6.65827E-04-7.51419E-05-2.52057E-16
 -1       475 6.69794E-04-1.15904E-04-2.58725E-16
 -1       476 6.63156E-04 1.10533E-06-2.29820E-16
 -1       477 6.63876E-04 3.87712E-05-2.14662E-16
 -1       478 6.66016E-04 7.68282E-05-1.97247E-16
 -1       479 6.70109E-04 1.17742E-04-1.75990E-16
 -1       480 6.77116E-04 1.62364E-04-1.49979E-16
 -1       481 6.88965E-04 2.12740E-04-1.17429E-16
 -1       482 7.09796E-04 2.71785E-04-7.70258E-17
 -1       483 7.63533E-04 3.20526E-04-5.91669E-17
 -1       484 9.76332E-04-3.28656E-04-4.60823E-16
 -1       485 1.34427E-02-5.44417E-04-4.90468E-14
 -1       486 1.30880E-02-3.73188E-04-4.81391E-14
 -1       487 1.26224E-03-3.83546E-04-7.45616E-16
 -1       488 1.54727E-03-4.23308E-04-1.09734E-15
 -1       489 1.83140E-03-4.51381E-04-1.51644E-15
 -1       490 2.11495E-03-4.70663E-04-2.00324E-15
 -1       491 2.39822E-03-4.83443E-04-2.55564E-15
 -1       492 2.68147E-03-4.91485E-04-3.17350E-15
 -1       493 2.96487E-03-4.96131E-04-3.85638E-15
 -1       494 3.24849E-03-4.98379E-04-4.60412E-15
 -1       495 3.54660E-03-4.98955E-04-5.45655E-15
 -1       496 3.83081E-03-4.98338E-04-6.33283E-15
 -1       497 4.11531E-03-4.96932E-04-7.27134E-15
 -1       498 4.40009E-03-4.94951E-04-8.27292E-15
 -1       499 4.68514E-03-4.92505E-04-9.33831E-15
 -1       500 4.97045E-03-4.89629E-04-1.04677E-14
 -1       501 5.25603E-03-4.86296E-04-1.16607E-14
 -1       502 5.54192E-03-4.82437E-04-1.29136E-14
 -1       503 5.82814E-03-4.77951E-04-1.42236E-14
 -1       504 6.11477E-03-4.72723E-04-1.55889E-14
 -1       505 6.40187E-03-4.66638E-04-1.70050E-14
 -1       506 6.68954E-03-4.59610E-04-1.84697E-14
 -1       507 6.97789E-03-4.51614E-04-1.99824E-14
 -1       508 7.28149E-03-4.42278E-04-2.16214E-14
 -1       509 7.57153E-03-4.32804E-04-2.32225E-14
 -1       510 7.86250E-03-4.23408E-04-2.48628E-14
 -1       511 8.15444E-03-4.15271E-04-2.65422E-14
 -1       512 8.44739E-03-4.10405E-04-2.82622E-14
 -1       513 8.74162E-03-4.12080E-04-3.00190E-14
 -1       514 9.03799E-03-4.25408E-04-3.18038E-14
 -1       515 9.33899E-03-4.58133E-04-3.36111E-14
 -1       516 9.65014E-03-5.21744E-04-3.54347E-14
 -1       517 9.98143E-03-6.33049E-04-3.72789E-14
 -1       518 1.03523E-02-8.15944E-04-3.91379E-14
 -1       519 1.12460E-02-1.44650E-03-4.28674E-14
 -1       520 1.16874E-02-1.71045E-03-4.46618E-14
 -1       521 1.25943E-02-1.60721E-03-4.83522E-14
 -1       522 1.30428E-02-1.38678E-03-5.02729E-14
 -1       523 1.34538E-02-1.23056E-03-5.21879E-14
 -1       524 1.38201E-02-1.15886E-03-5.40868E-14
 -1       525 1.41515E-02-1.15087E-03-5.59711E-14
 -1       526 1.44616E-02-1.18281E-03-5.78363E-14
 -1       527 1.47597E-02-1.23534E-03-5.96882E-14
 -1       528 1.50241E-02-1.26980E-03-6.12056E-14
 -1       529 1.95100E-03 4.73523E-04-9.35636E-16
 -1       530 1.66768E-03 4.49081E-04-6.46273E-16
 -1       531 1.38352E-03 4.14144E-04-4.13857E-16
 -1       532 2.23387E-03 4.90135E-04-1.28360E-15
 -1       533 2.51662E-03 5.00995E-04-1.69180E-15
 -1       534 2.79948E-03 5.07691E-04-2.16192E-15
 -1       535 3.08259E-03 5.11421E-04-2.69303E-15
 -1       536 3.36601E-03 5.13070E-04-3.28615E-15
 -1       537 3.64978E-03 5.13278E-04-3.94025E-15
 -1       538 3.93388E-03 5.12493E-04-4.65714E-15
 -1       539 4.21832E-03 5.11012E-04-5.43526E-15
 -1       540 4.50306E-03 5.09015E-04-6.27678E-15
 -1       541 4.78809E-03 5.06598E-04-7.17914E-15
 -1       542 5.07342E-03 5.03789E-04-8.14472E-15
 -1       543 5.35906E-03 5.00577E-04-9.17683E-15
 -1       544 5.64504E-03 4.96926E-04-1.02748E-14
 -1       545 5.93141E-03 4.92800E-04-1.14387E-14
 -1       546 6.21825E-03 4.88183E-04-1.26701E-14
 -1       547 6.50569E-03 4.83112E-04-1.39685E-14
 -1       548 6.79388E-03 4.77713E-04-1.53297E-14
 -1       549 7.08301E-03 4.72238E-04-1.67560E-14
 -1       550 7.37332E-03 4.67121E-04-1.82382E-14
 -1       551 7.66509E-03 4.63024E-04-1.97765E-14
 -1       552 7.95868E-03 4.60885E-04-2.13661E-14
 -1       553 8.25445E-03 4.61934E-04-2.30012E-14
 -1       554 8.55276E-03 4.67659E-04-2.46753E-14
 -1       555 8.85387E-03 4.79672E-04-2.63891E-14
 -1       556 9.15781E-03 4.99410E-04-2.81350E-14
 -1       557 9.46412E-03 5.27604E-04-2.99044E-14
 -1       558 9.77164E-03 5.63473E-04-3.16877E-14
 -1       559 1.00783E-02 6.03721E-04-3.34806E-14
 -1       560 1.03816E-02 6.41660E-04-3.52867E-14
 -1       561 1.06792E-02 6.67190E-04-3.70967E-14
 -1       562 1.09705E-02 6.68478E-04-3.89124E-14
 -1       563 1.12573E-02 6.35505E-04-4.07388E-14
 -1       564 1.15435E-02 5.63998E-04-4.25773E-14
 -1       565 1.18329E-02 4.57180E-04-4.44213E-14
 -1       566 1.21277E-02 3.24276E-04-4.62643E-14
 -1       567 1.24272E-02 1.76445E-04-4.81158E-14
 -1       568 1.27291E-02 2.30632E-05-4.99610E-14
 -1       569 1.30306E-02-1.30145E-04-5.17978E-14
 -1       570 1.33295E-02-2.81169E-04-5.36290E-14
 -1       571 1.36246E-02-4.30759E-04-5.54557E-14
 -1       572 1.42483E-02-7.54923E-04-5.75503E-14
 -1       573 1.40795E-02-6.70784E-04-5.71258E-14
 -1       574 1.39137E-02-5.83765E-04-5.66929E-14
 -1       575 1.40952E-02-7.91437E-04-5.09448E-14
 -1       576 1.44235E-02-8.36644E-04-5.79849E-14
 -1       577 1.45961E-02-9.11481E-04-5.84167E-14
 -1       578 1.47562E-02-9.76773E-04-5.88505E-14
 -1       579 1.48916E-02-1.03167E-03-5.92747E-14
 -1       580 1.49895E-02-1.07755E-03-5.96875E-14
 -1       581 1.50467E-02-1.12102E-03-6.00969E-14
 -1       582 1.50632E-02-1.16763E-03-6.05077E-14
 -1       583 1.50500E-02-1.21437E-03-6.08536E-14
 -1       584 1.40339E-02-8.74728E-04-5.10467E-14
 -1       585 7.12639E-04-2.51850E-04-2.63407E-16
 -1       586 1.26077E-02-1.08112E-04-4.68338E-14
 -1       587 1.41424E-02-8.31163E-04-5.12156E-14
 -1       588 1.03206E-02 2.70099E-05-3.81883E-14
 -1       589 6.63764E-04-3.65252E-05-2.42478E-16
 -1       590 1.07863E-02 2.45553E-04-3.95499E-14
 -1       591 1.22097E-02 1.29228E-04-4.54654E-14
 -1       592 1.18058E-02 3.37362E-04-4.37604E-14
 -1       593 1.14339E-02 4.18614E-04-4.20841E-14
 -1       594 1.11558E-02 3.85736E-04-4.08655E-14
 -1       595 1.00681E-02-9.52402E-05-3.77780E-14
 -1       596 9.71476E-03-2.41006E-04-3.73103E-14
 -1       597 9.46465E-03-3.25131E-04-3.70655E-14
 -1       598 9.35849E-03-3.67462E-04-3.71142E-14
 -1       599 9.40894E-03-4.05436E-04-3.74171E-14
 -1       600 1.00070E-02-6.52671E-04-3.91409E-14
 -1       601 1.03988E-02-8.73254E-04-4.02443E-14
 -1       602 1.08657E-02-1.17835E-03-4.15843E-14
 -1       603 1.22628E-02-1.74793E-03-4.70984E-14
 -1       604 1.30274E-02-1.35888E-03-4.95781E-14
 -1       605 1.34922E-02-1.10721E-03-5.05299E-14
 -1       606 1.38000E-02-9.66560E-04-5.08918E-14
 -1       607 1.38323E-02-7.02980E-04-5.01254E-14
 -1       608 6.76635E-04-1.60088E-04-2.61842E-16
 -1       609 9.90475E-04 3.72939E-04-1.46096E-16
 -1       610 1.07877E-02-1.10546E-03-4.10329E-14
 -1       611 1.20704E-02-1.78235E-03-4.62957E-14
 -1       612 1.18684E-03 3.98402E-04-2.63210E-16
 -1       613 9.49071E-03-4.23375E-04-3.73081E-14
 -1       614 1.05190E-02 1.59261E-04-3.82458E-14
 -1       615 8.99773E-04 7.41267E-05-3.59630E-16
 -1       616 8.97685E-04 2.51847E-05-3.85637E-16
 -1       617 9.11837E-04 1.78253E-04-2.93382E-16
 -1       618 9.24210E-04 2.36763E-04-2.49678E-16
 -1       619 9.36677E-04 3.23567E-04-1.67296E-16
 -1       620 1.24200E-02-4.91046E-06-4.65713E-14
 -1       621 1.39910E-02-9.25411E-04-5.20368E-14
 -1       622 1.32882E-02-4.92767E-04-4.93074E-14
 -1       623 1.09775E-03-2.94670E-04-6.03369E-16
 -1       624 1.38331E-03-3.37101E-04-9.20952E-16
 -1       625 1.66951E-03-3.68032E-04-1.30279E-15
 -1       626 1.95573E-03-3.89825E-04-1.75044E-15
 -1       627 2.24177E-03-4.04631E-04-2.26293E-15
 -1       628 2.52763E-03-4.14236E-04-2.83893E-15
 -1       629 2.81334E-03-4.20056E-04-3.47884E-15
 -1       630 3.09897E-03-4.23172E-04-4.18343E-15
 -1       631 3.39883E-03-4.24415E-04-4.99267E-15
 -1       632 3.68439E-03-4.24272E-04-5.82665E-15
 -1       633 3.96997E-03-4.23241E-04-6.72119E-15
 -1       634 4.25557E-03-4.21580E-04-7.67869E-15
 -1       635 4.54120E-03-4.19441E-04-8.69950E-15
 -1       636 4.82688E-03-4.16891E-04-9.78468E-15
 -1       637 5.11260E-03-4.13932E-04-1.09319E-14
 -1       638 5.39837E-03-4.10518E-04-1.21406E-14
 -1       639 5.68419E-03-4.06572E-04-1.34091E-14
 -1       640 5.97005E-03-4.01997E-04-1.47352E-14
 -1       641 6.25591E-03-3.96694E-04-1.61161E-14
 -1       642 6.54173E-03-3.90587E-04-1.75436E-14
 -1       643 6.82742E-03-3.83649E-04-1.90220E-14
 -1       644 7.12707E-03-3.75545E-04-2.06255E-14
 -1       645 7.41188E-03-3.67285E-04-2.21992E-14
 -1       646 7.69573E-03-3.58985E-04-2.38085E-14
 -1       647 7.97806E-03-3.51506E-04-2.54583E-14
 -1       648 8.25813E-03-3.46247E-04-2.71452E-14
 -1       649 8.53510E-03-3.45350E-04-2.88719E-14
 -1       650 8.80830E-03-3.51934E-04-3.06328E-14
 -1       651 9.07786E-03-3.70384E-04-3.24199E-14
 -1       652 9.34600E-03-4.06843E-04-3.42270E-14
 -1       653 9.62018E-03-4.71069E-04-3.60503E-14
 -1       654 1.37279E-02-1.03399E-03-5.17999E-14
 -1       655 1.37875E-02-1.06527E-03-5.27803E-14
 -1       656 1.40953E-02-1.05700E-03-5.46770E-14
 -1       657 1.43810E-02-1.09012E-03-5.65557E-14
 -1       658 1.46584E-02-1.14489E-03-5.84167E-14
 -1       659 1.48561E-02-1.17883E-03-5.96413E-14
 -1       660 1.78979E-03 3.90990E-04-8.89415E-16
 -1       661 2.07560E-03 4.10054E-04-1.22600E-15
 -1       662 1.50377E-03 3.63567E-04-6.10626E-16
 -1       663 2.64662E-03 4.30959E-04-2.07904E-15
 -1       664 2.93195E-03 4.35750E-04-2.59761E-15
 -1       665 3.21725E-03 4.38172E-04-3.17728E-15
 -1       666 3.50256E-03 4.38946E-04-3.81773E-15
 -1       667 3.78790E-03 4.38584E-04-4.51832E-15
 -1       668 4.07329E-03 4.37436E-04-5.27997E-15
 -1       669 4.35875E-03 4.35728E-04-6.10337E-15
 -1       670 4.64428E-03 4.33584E-04-6.98945E-15
 -1       671 4.92988E-03 4.31059E-04-7.93581E-15
 -1       672 5.21557E-03 4.28153E-04-8.94802E-15
 -1       673 5.50135E-03 4.24834E-04-1.00265E-14
 -1       674 5.78726E-03 4.21056E-04-1.11696E-14
 -1       675 6.07333E-03 4.16775E-04-1.23789E-14
 -1       676 6.35963E-03 4.11977E-04-1.36535E-14
 -1       677 6.64624E-03 4.06705E-04-1.49902E-14
 -1       678 6.93330E-03 4.01094E-04-1.63872E-14
 -1       679 7.22102E-03 3.95409E-04-1.78449E-14
 -1       680 7.50969E-03 3.90103E-04-1.93580E-14
 -1       681 7.79973E-03 3.85861E-04-2.09233E-14
 -1       682 8.09170E-03 3.83657E-04-2.25353E-14
 -1       683 8.38634E-03 3.84781E-04-2.41889E-14
 -1       684 8.68449E-03 3.90832E-04-2.58827E-14
 -1       685 8.98704E-03 4.03614E-04-2.76100E-14
 -1       686 9.29460E-03 4.24853E-04-2.93667E-14
 -1       687 9.60709E-03 4.55605E-04-3.11446E-14
 -1       688 9.92320E-03 4.95197E-04-3.29325E-14
 -1       689 1.02400E-02 5.39722E-04-3.47330E-14
 -1       690 1.05536E-02 5.80516E-04-3.65406E-14
 -1       691 1.08605E-02 6.04083E-04-3.83515E-14
 -1       692 1.11604E-02 5.95252E-04-4.01720E-14
 -1       693 1.14571E-02 5.43344E-04-4.20030E-14
 -1       694 1.17562E-02 4.47604E-04-4.38516E-14
 -1       695 1.20620E-02 3.17787E-04-4.56980E-14
 -1       696 1.23742E-02 1.68538E-04-4.75505E-14
 -1       697 1.26894E-02 1.28841E-05-4.94062E-14
 -1       698 1.30032E-02-1.41124E-04-5.12557E-14
 -1       699 1.33123E-02-2.90680E-04-5.30927E-14
 -1       700 1.36160E-02-4.37996E-04-5.48953E-14
 -1       701 1.39046E-02-5.99561E-04-5.57589E-14
 -1       702 1.42607E-02-7.84549E-04-5.66151E-14
 -1       703 1.37577E-02-5.18508E-04-5.53277E-14
 -1       704 1.40801E-02-6.93966E-04-5.61865E-14
 -1       705 1.46010E-02-9.36324E-04-5.74647E-14
 -1       706 1.47281E-02-9.91307E-04-5.78754E-14
 -1       707 1.48111E-02-1.03794E-03-5.82891E-14
 -1       708 1.48425E-02-1.08362E-03-5.87056E-14
 -1       709 1.41448E-02-8.74852E-04-5.22004E-14
 -1       710 1.40237E-02-7.81910E-04-5.14806E-14
 -1       711 1.42035E-02-8.43638E-04-5.22948E-14
 -1       712 1.00812E-02-2.41977E-05-3.68342E-14
 -1       713 1.44390E-02-8.66877E-04-5.70411E-14
 -1       714 1.36594E-02-6.55186E-04-5.03350E-14
 -1       715 1.19695E-02 2.56892E-04-4.46379E-14
 -1       716 9.04222E-04 1.24639E-04-3.29472E-16
 -1       717 9.51394E-03-2.62846E-04-3.60595E-14
 -1       718 9.77741E-03-1.64587E-04-3.63683E-14
 -1       719 9.03850E-04-1.22228E-04-4.38800E-16
 -1       720 1.12626E-02 4.34620E-04-4.11080E-14
 -1       721 9.75137E-03-5.15755E-04-3.78902E-14
 -1       722 1.09045E-02 3.46558E-04-3.94755E-14
 -1       723 9.34598E-03-3.25247E-04-3.61462E-14
 -1       724 1.28916E-02-2.85329E-04-4.82251E-14
 -1       725 1.01921E-02-7.26752E-04-3.90626E-14
 -1       726 9.29790E-03-3.47836E-04-3.60334E-14
 -1       727 1.15839E-02 4.09691E-04-4.27437E-14
 -1       728 1.33890E-02-1.18854E-03-5.10370E-14
 -1       729 2.36119E-03 4.22824E-04-1.62197E-15
 -1       730 8.97622E-04-2.31609E-05-4.07562E-16
 -1       731 1.21781E-02 1.44758E-04-4.57370E-14
 -1       732 9.11263E-04-1.75661E-04-4.47155E-16
 -1       733 1.48570E-02-1.12799E-03-5.91715E-14
 -1       734 1.21787E-03 3.25411E-04-3.87819E-16
 -1       735 1.39047E-02-7.46864E-04-5.16833E-14
 -1       736 8.72383E-04-2.47095E-04-3.99688E-16
 -1       737 9.32264E-03-3.57876E-04-3.59227E-14
 -1       738 1.02553E-02 1.00930E-04-3.68888E-14
 -1       739 8.99565E-04-7.18386E-05-4.25522E-16
 -1       740 1.16158E-03 2.43681E-04-4.34199E-16
 -1       741 9.47207E-03-4.06753E-04-3.61633E-14
 -1       742 1.26991E-02-1.56391E-04-4.80829E-14
 -1       743 9.52962E-03-1.82107E-04-3.49905E-14
 -1       744 1.51022E-03-2.86572E-04-1.09969E-15
 -1       745 1.79732E-03-3.09550E-04-1.50893E-15
 -1       746 2.08499E-03-3.25637E-04-1.98192E-15
 -1       747 2.37278E-03-3.36412E-04-2.51776E-15
 -1       748 2.66049E-03-3.43223E-04-3.11622E-15
 -1       749 2.94799E-03-3.47151E-04-3.77794E-15
 -1       750 3.24962E-03-3.49082E-04-4.54139E-15
 -1       751 3.53663E-03-3.49474E-04-5.33367E-15
 -1       752 3.82341E-03-3.48896E-04-6.18520E-15
 -1       753 4.10998E-03-3.47644E-04-7.09950E-15
 -1       754 4.39636E-03-3.45902E-04-8.07675E-15
 -1       755 4.68256E-03-3.43768E-04-9.11722E-15
 -1       756 4.96858E-03-3.41274E-04-1.02196E-14
 -1       757 5.25442E-03-3.38402E-04-1.13841E-14
 -1       758 5.54005E-03-3.35104E-04-1.26099E-14
 -1       759 5.82541E-03-3.31310E-04-1.38963E-14
 -1       760 6.11042E-03-3.26949E-04-1.52375E-14
 -1       761 6.39494E-03-3.21969E-04-1.66318E-14
 -1       762 6.67877E-03-3.16360E-04-1.80712E-14
 -1       763 6.97569E-03-3.09878E-04-1.96403E-14
 -1       764 7.25698E-03-3.03355E-04-2.11812E-14
 -1       765 7.53615E-03-2.96910E-04-2.27652E-14
 -1       766 7.81234E-03-2.91238E-04-2.43856E-14
 -1       767 8.08437E-03-2.87412E-04-2.60455E-14
 -1       768 8.35072E-03-2.86970E-04-2.77413E-14
 -1       769 8.60956E-03-2.91964E-04-2.94737E-14
 -1       770 8.85886E-03-3.04935E-04-3.12378E-14
 -1       771 9.09671E-03-3.28862E-04-3.30286E-14
 -1       772 9.28990E-03-3.60140E-04-3.45907E-14
 -1       773 1.35529E-02-6.05435E-04-5.09585E-14
 -1       774 9.93015E-04-2.19929E-04-5.17774E-16
 -1       775 1.43312E-02-9.97019E-04-5.52372E-14
 -1       776 1.45743E-02-1.05498E-03-5.71117E-14
 -1       777 1.91737E-03 3.29994E-04-1.15369E-15
 -1       778 1.63010E-03 3.09447E-04-8.29028E-16
 -1       779 3.06691E-03 3.62440E-04-3.05216E-15
 -1       780 2.77977E-03 3.59243E-04-2.48588E-15
 -1       781 3.64055E-03 3.63972E-04-4.36533E-15
 -1       782 3.92707E-03 3.63251E-04-5.11095E-15
 -1       783 4.21341E-03 3.61926E-04-5.91708E-15
 -1       784 4.49959E-03 3.60154E-04-6.78649E-15
 -1       785 4.78563E-03 3.58013E-04-7.71669E-15
 -1       786 5.07154E-03 3.55522E-04-8.71001E-15
 -1       787 5.35731E-03 3.52660E-04-9.76896E-15
 -1       788 5.64295E-03 3.49378E-04-1.08920E-14
 -1       789 5.92846E-03 3.45620E-04-1.20799E-14
 -1       790 6.21385E-03 3.41334E-04-1.33332E-14
 -1       791 6.49916E-03 3.36498E-04-1.46474E-14
 -1       792 6.78446E-03 3.31140E-04-1.60192E-14
 -1       793 7.06988E-03 3.25374E-04-1.74509E-14
 -1       794 7.35565E-03 3.19436E-04-1.89406E-14
 -1       795 7.64217E-03 3.13736E-04-2.04834E-14
 -1       796 7.93005E-03 3.08914E-04-2.20715E-14
 -1       797 8.22016E-03 3.05912E-04-2.37065E-14
 -1       798 8.51372E-03 3.06049E-04-2.53811E-14
 -1       799 8.81223E-03 3.11090E-04-2.70922E-14
 -1       800 9.11734E-03 3.23241E-04-2.88322E-14
 -1       801 9.43044E-03 3.44970E-04-3.05981E-14
 -1       802 9.75182E-03 3.78350E-04-3.23807E-14
 -1       803 1.00798E-02 4.23390E-04-3.41752E-14
 -1       804 1.04097E-02 4.75592E-04-3.59778E-14
 -1       805 1.07353E-02 5.22647E-04-3.77863E-14
 -1       806 1.10518E-02 5.44512E-04-3.96016E-14
 -1       807 1.13610E-02 5.20256E-04-4.14279E-14
 -1       808 1.16692E-02 4.41002E-04-4.32720E-14
 -1       809 1.19856E-02 3.13786E-04-4.51255E-14
 -1       810 1.23115E-02 1.59263E-04-4.69773E-14
 -1       811 1.26422E-02-2.82561E-06-4.88378E-14
 -1       812 1.29711E-02-1.60133E-04-5.07002E-14
 -1       813 1.32929E-02-3.08756E-04-5.25522E-14
 -1       814 1.35283E-02-4.14745E-04-5.39447E-14
 -1       815 1.45760E-02-9.56716E-04-5.64701E-14
 -1       816 1.42763E-02-8.93475E-04-5.34743E-14
 -1       817 1.46333E-02-1.00102E-03-5.68848E-14
 -1       818 1.44576E-02-9.05222E-04-5.60615E-14
 -1       819 1.41854E-02-9.19039E-04-5.33097E-14
 -1       820 1.40216E-02-9.89043E-04-5.33617E-14
 -1       821 1.42156E-02-8.46607E-04-5.31075E-14
 -1       822 1.42909E-02-8.35535E-04-5.56465E-14
 -1       823 3.35384E-03 3.63832E-04-3.67985E-15
 -1       824 1.13868E-02 4.58894E-04-4.16565E-14
 -1       825 1.25047E-03-2.57196E-04-7.82509E-16
 -1       826 9.23590E-03-3.05481E-04-3.50439E-14
 -1       827 9.78557E-03-6.59776E-05-3.53130E-14
 -1       828 1.17707E-02 3.55339E-04-4.37496E-14
 -1       829 9.33200E-03-2.64403E-04-3.49617E-14
 -1       830 1.05602E-02 2.81860E-04-3.76544E-14
 -1       831 1.13828E-03 5.90690E-05-5.74139E-16
 -1       832 1.41006E-02-7.46225E-04-5.52297E-14
 -1       833 1.10054E-02 4.39406E-04-3.96186E-14
 -1       834 1.32065E-02-4.39747E-04-4.98657E-14
 -1       835 1.19681E-02 2.72440E-04-4.48391E-14
 -1       836 1.24589E-02 2.08121E-07-4.72421E-14
 -1       837 9.21428E-03-3.15214E-04-3.49294E-14
 -1       838 1.41532E-02-8.25234E-04-5.33019E-14
 -1       839 1.14983E-03 1.79154E-04-4.88331E-16
 -1       840 2.20490E-03 3.44157E-04-1.53726E-15
 -1       841 1.13691E-03 1.19888E-06-6.08610E-16
 -1       842 2.49241E-03 3.53482E-04-1.98091E-15
 -1       843 1.43587E-02-8.99829E-04-5.42748E-14
 -1       844 1.39086E-02-6.45118E-04-5.48089E-14
 -1       845 1.14923E-03-1.76149E-04-6.76156E-16
 -1       846 1.34367E-03 2.80784E-04-5.61413E-16
 -1       847 1.37253E-02-5.39078E-04-5.43875E-14
 -1       848 9.94132E-03 4.16230E-05-3.53624E-14
 -1       849 1.14240E-03 1.17967E-04-5.34451E-16
 -1       850 1.14204E-03-1.15218E-04-6.59480E-16
 -1       851 9.23420E-03-3.32196E-04-3.47638E-14
 -1       852 1.92957E-03-2.47819E-04-1.71492E-15
 -1       853 2.21837E-03-2.58909E-04-2.21050E-15
 -1       854 2.50745E-03-2.66195E-04-2.76857E-15
 -1       855 2.79647E-03-2.70643E-04-3.38890E-15
 -1       856 3.09966E-03-2.73112E-04-4.10661E-15
 -1       857 3.38805E-03-2.73990E-04-4.85558E-15
 -1       858 3.67605E-03-2.73875E-04-5.66513E-15
 -1       859 3.96365E-03-2.73074E-04-6.53571E-15
 -1       860 4.25086E-03-2.71787E-04-7.47003E-15
 -1       861 4.53769E-03-2.70134E-04-8.46658E-15
 -1       862 4.82416E-03-2.68172E-04-9.52535E-15
 -1       863 5.11025E-03-2.65910E-04-1.06450E-14
 -1       864 5.39591E-03-2.63327E-04-1.18268E-14
 -1       865 5.68108E-03-2.60384E-04-1.30720E-14
 -1       866 5.96565E-03-2.57040E-04-1.43730E-14
 -1       867 6.24944E-03-2.53272E-04-1.57298E-14
 -1       868 6.53218E-03-2.49096E-04-1.71357E-14
 -1       869 6.82755E-03-2.44373E-04-1.86641E-14
 -1       870 7.10687E-03-2.39768E-04-2.01739E-14
 -1       871 7.38356E-03-2.35447E-04-2.17283E-14
 -1       872 7.65666E-03-2.32023E-04-2.33232E-14
 -1       873 7.92491E-03-2.30409E-04-2.49555E-14
 -1       874 8.18663E-03-2.31868E-04-2.66235E-14
 -1       875 8.43961E-03-2.38009E-04-2.83297E-14
 -1       876 8.68098E-03-2.50707E-04-3.00698E-14
 -1       877 8.90680E-03-2.71913E-04-3.18384E-14
 -1       878 1.76109E-03 2.51635E-04-1.06903E-15
 -1       879 4.06731E-03 2.87518E-04-5.71859E-15
 -1       880 3.78000E-03 2.88400E-04-4.92812E-15
 -1       881 4.64087E-03 2.84514E-04-7.48520E-15
 -1       882 4.92715E-03 2.82528E-04-8.46136E-15
 -1       883 5.21308E-03 2.80223E-04-9.50104E-15
 -1       884 5.49866E-03 2.77560E-04-1.06061E-14
 -1       885 5.78387E-03 2.74479E-04-1.17731E-14
 -1       886 6.06867E-03 2.70909E-04-1.30046E-14
 -1       887 6.35303E-03 2.66784E-04-1.42989E-14
 -1       888 6.63696E-03 2.62055E-04-1.56493E-14
 -1       889 6.92050E-03 2.56709E-04-1.70581E-14
 -1       890 7.20376E-03 2.50795E-04-1.85240E-14
 -1       891 7.48704E-03 2.44461E-04-2.00449E-14
 -1       892 7.77081E-03 2.37999E-04-2.16126E-14
 -1       893 8.05589E-03 2.31921E-04-2.32246E-14
 -1       894 8.34351E-03 2.27067E-04-2.48817E-14
 -1       895 8.63543E-03 2.24762E-04-2.65756E-14
 -1       896 8.93397E-03 2.27032E-04-2.83026E-14
 -1       897 9.24181E-03 2.36831E-04-3.00528E-14
 -1       898 9.56147E-03 2.58026E-04-3.18274E-14
 -1       899 9.89392E-03 2.95022E-04-3.36123E-14
 -1       900 1.02373E-02 3.49581E-04-3.54102E-14
 -1       901 1.05837E-02 4.15618E-04-3.72160E-14
 -1       902 1.25914E-02-2.22560E-05-4.82622E-14
 -1       903 1.29382E-02-1.87665E-04-5.01303E-14
 -1       904 1.32747E-02-3.37480E-04-5.19973E-14
 -1       905 1.47402E-03 2.31292E-04-7.56614E-16
 -1       906 1.43789E-02-9.40712E-04-5.47540E-14
 -1       907 1.31123E-03 2.05627E-04-6.15156E-16
 -1       908 1.39498E-02-7.18959E-04-5.38265E-14
 -1       909 9.14924E-03-2.48629E-04-3.36523E-14
 -1       910 1.38983E-02-7.31945E-04-5.26609E-14
 -1       911 1.01966E-02 2.07131E-04-3.58403E-14
 -1       912 1.13812E-03-5.65256E-05-6.37114E-16
 -1       913 4.35426E-03 2.86190E-04-6.57082E-15
 -1       914 1.64165E-03-2.31793E-04-1.28041E-15
 -1       915 1.19894E-03-2.15526E-04-7.29231E-16
 -1       916 2.91582E-03 2.86104E-04-2.91238E-15
 -1       917 1.30540E-02-3.20081E-04-4.99514E-14
 -1       918 9.27702E-03-1.90213E-04-3.36274E-14
 -1       919 9.48489E-03-8.65523E-05-3.37270E-14
 -1       920 1.34877E-02-5.46481E-04-5.15026E-14
 -1       921 2.04939E-03 2.66124E-04-1.43936E-15
 -1       922 9.07756E-03-2.98451E-04-3.32958E-14
 -1       923 1.44886E-02-9.78678E-04-5.58328E-14
 -1       924 1.38106E-03 3.41147E-05-8.41988E-16
 -1       925 2.62709E-03 2.82332E-04-2.35939E-15
 -1       926 3.20424E-03 2.88030E-04-3.52544E-15
 -1       927 1.22422E-02 1.53475E-04-4.64005E-14
 -1       928 1.39024E-03-1.64283E-04-9.44818E-16
 -1       929 1.37370E-02-6.06609E-04-5.34132E-14
 -1       930 1.38420E-03 1.00003E-04-7.93179E-16
 -1       931 9.10105E-03-2.64460E-04-3.35397E-14
 -1       932 1.34972E-02-4.73596E-04-5.27036E-14
 -1       933 9.61903E-03-4.69772E-07-3.37766E-14
 -1       934 3.49231E-03 2.88662E-04-4.19812E-15
 -1       935 1.41952E-03-2.26706E-04-9.86885E-16
 -1       936 2.06562E-03-1.82879E-04-1.91820E-15
 -1       937 2.35533E-03-1.89773E-04-2.43562E-15
 -1       938 2.64533E-03-1.94178E-04-3.01477E-15
 -1       939 2.94973E-03-1.96828E-04-3.68971E-15
 -1       940 3.23928E-03-1.98004E-04-4.39408E-15
 -1       941 3.52837E-03-1.98260E-04-5.16013E-15
 -1       942 3.81695E-03-1.97880E-04-5.98768E-15
 -1       943 4.10500E-03-1.97056E-04-6.87831E-15
 -1       944 4.39253E-03-1.95910E-04-7.83250E-15
 -1       945 4.67953E-03-1.94513E-04-8.84773E-15
 -1       946 4.96600E-03-1.92893E-04-9.92265E-15
 -1       947 5.25189E-03-1.91052E-04-1.10594E-14
 -1       948 5.53714E-03-1.88977E-04-1.22609E-14
 -1       949 5.82163E-03-1.86657E-04-1.35220E-14
 -1       950 6.10517E-03-1.84093E-04-1.48400E-14
 -1       951 6.38752E-03-1.81326E-04-1.62096E-14
 -1       952 6.68230E-03-1.78319E-04-1.77017E-14
 -1       953 6.96093E-03-1.75571E-04-1.91743E-14
 -1       954 7.23686E-03-1.73300E-04-2.06982E-14
 -1       955 7.50921E-03-1.72059E-04-2.22660E-14
 -1       956 7.77689E-03-1.72655E-04-2.38719E-14
 -1       957 8.03844E-03-1.76190E-04-2.55134E-14
 -1       958 8.29197E-03-1.84076E-04-2.71945E-14
 -1       959 8.53493E-03-1.97962E-04-2.89124E-14
 -1       960 8.76377E-03-2.19624E-04-3.06597E-14
 -1       961 2.33820E-03 2.75982E-04-1.86970E-15
 -1       962 9.86336E-03 1.39995E-04-3.42493E-14
 -1       963 5.06882E-03 2.07355E-04-9.22178E-15
 -1       964 4.78257E-03 2.09035E-04-8.19978E-15
 -1       965 5.63969E-03 2.03099E-04-1.14580E-14
 -1       966 5.92421E-03 2.00397E-04-1.26696E-14
 -1       967 6.20803E-03 1.97201E-04-1.39426E-14
 -1       968 6.49106E-03 1.93414E-04-1.52737E-14
 -1       969 6.77326E-03 1.88941E-04-1.66607E-14
 -1       970 7.05461E-03 1.83693E-04-1.81057E-14
 -1       971 7.33522E-03 1.77607E-04-1.96056E-14
 -1       972 7.61534E-03 1.70670E-04-2.11540E-14
 -1       973 7.89554E-03 1.62978E-04-2.27455E-14
 -1       974 8.17677E-03 1.54818E-04-2.43838E-14
 -1       975 8.46056E-03 1.46841E-04-2.60600E-14
 -1       976 8.74922E-03 1.40335E-04-2.77708E-14
 -1       977 9.04601E-03 1.37672E-04-2.95107E-14
 -1       978 9.35496E-03 1.43067E-04-3.12738E-14
 -1       979 9.04507E-03-1.82280E-04-3.21916E-14
 -1       980 1.60811E-03 1.76870E-04-9.73583E-16
 -1       981 1.77682E-03-1.72750E-04-1.46170E-15
 -1       982 1.38392E-03-9.70885E-05-9.18462E-16
 -1       983 9.17739E-03-1.00753E-04-3.21036E-14
 -1       984 1.34648E-03 1.53055E-04-7.04189E-16
 -1       985 1.38096E-03-3.12463E-05-8.83811E-16
 -1       986 1.32814E-02-4.01679E-04-5.13319E-14
 -1       987 5.35454E-03 2.05395E-04-1.03077E-14
 -1       988 3.92079E-03 2.12482E-04-5.50608E-15
 -1       989 9.28746E-03-3.57163E-05-3.21537E-14
 -1       990 8.93481E-03-2.45968E-04-3.21012E-14
 -1       991 2.76484E-03 2.09592E-04-2.75835E-15
 -1       992 8.98326E-03-2.05690E-04-3.20818E-14
 -1       993 4.20856E-03 2.11625E-04-6.34213E-15
 -1       994 9.07471E-03-2.80909E-04-3.34187E-14
 -1       995 3.63252E-03 2.12925E-04-4.73103E-15
 -1       996 4.49581E-03 2.10460E-04-7.23975E-15
 -1       997 3.05448E-03 2.11794E-04-3.35745E-15
 -1       998 1.89600E-03 1.90119E-04-1.33069E-15
 -1       999 1.62760E-03 1.55044E-06-1.16265E-15
 -1      1000 1.62932E-03 7.32720E-05-1.10547E-15
 -1      1001 2.49543E-03-1.18438E-04-2.65614E-15
 -1      1002 2.80056E-03-1.20692E-04-3.28764E-15
 -1      1003 3.09096E-03-1.21819E-04-3.95055E-15
 -1      1004 3.38093E-03-1.22238E-04-4.67294E-15
 -1      1005 3.67034E-03-1.22161E-04-5.45679E-15
 -1      1006 3.95915E-03-1.21742E-04-6.30438E-15
 -1      1007 4.24734E-03-1.21081E-04-7.21425E-15
 -1      1008 4.53490E-03-1.20241E-04-8.18561E-15
 -1      1009 4.82182E-03-1.19258E-04-9.21724E-15
 -1      1010 5.10807E-03-1.18147E-04-1.03077E-14
 -1      1011 5.39359E-03-1.16914E-04-1.14634E-14
 -1      1012 5.67827E-03-1.15570E-04-1.26821E-14
 -1      1013 5.96196E-03-1.14138E-04-1.39595E-14
 -1      1014 6.24442E-03-1.12675E-04-1.52920E-14
 -1      1015 6.53935E-03-1.11228E-04-1.67472E-14
 -1      1016 6.81822E-03-1.10138E-04-1.81847E-14
 -1      1017 7.09458E-03-1.09655E-04-1.96749E-14
 -1      1018 7.36777E-03-1.10260E-04-2.12135E-14
 -1      1019 7.63695E-03-1.12647E-04-2.27938E-14
 -1      1020 7.90106E-03-1.17753E-04-2.44114E-14
 -1      1021 8.15883E-03-1.26783E-04-2.60678E-14
 -1      1022 8.40867E-03-1.41183E-04-2.77610E-14
 -1      1023 8.64860E-03-1.62420E-04-2.94883E-14
 -1      1024 6.34679E-03 1.24743E-04-1.48906E-14
 -1      1025 4.92464E-03 1.33929E-04-8.93019E-15
 -1      1026 6.06416E-03 1.27368E-04-1.35786E-14
 -1      1027 5.78050E-03 1.29500E-04-1.23246E-14
 -1      1028 6.62826E-03 1.21490E-04-1.62601E-14
 -1      1029 6.90844E-03 1.17441E-04-1.76850E-14
 -1      1030 7.18723E-03 1.12395E-04-1.91634E-14
 -1      1031 7.46464E-03 1.06127E-04-2.06935E-14
 -1      1032 7.74085E-03 9.84008E-05-2.22665E-14
 -1      1033 8.01633E-03 8.90251E-05-2.38856E-14
 -1      1034 8.29205E-03 7.79624E-05-2.55457E-14
 -1      1035 8.56965E-03 6.55537E-05-2.72392E-14
 -1      1036 8.85180E-03 5.29575E-05-2.89665E-14
 -1      1037 9.14306E-03 4.28037E-05-3.07183E-14
 -1      1038 1.70293E-03-8.30016E-05-1.31776E-15
 -1      1039 3.34374E-03 2.12782E-04-4.01568E-15
 -1      1040 2.47497E-03 2.05688E-04-2.22161E-15
 -1      1041 5.21065E-03 1.32707E-04-9.99770E-15
 -1      1042 1.99140E-03-8.86018E-05-1.74673E-15
 -1      1043 8.90345E-03-1.08028E-04-3.05885E-14
 -1      1044 5.49597E-03 1.31252E-04-1.11297E-14
 -1      1045 2.24315E-03-1.03749E-04-2.17699E-15
 -1      1046 8.99038E-03-5.79073E-05-3.06411E-14
 -1      1047 4.63798E-03 1.34958E-04-7.92431E-15
 -1      1048 3.77427E-03 1.36882E-04-5.27990E-15
 -1      1049 2.61480E-03 1.33491E-04-2.59372E-15
 -1      1050 4.06278E-03 1.36464E-04-6.10087E-15
 -1      1051 2.18519E-03 1.99452E-04-1.74625E-15
 -1      1052 1.91551E-03 1.71125E-06-1.56257E-15
 -1      1053 2.90528E-03 1.35517E-04-3.17579E-15
 -1      1054 8.86315E-03-1.96044E-04-3.11993E-14
 -1      1055 2.94372E-03-4.58355E-05-3.52288E-15
 -1      1056 3.23426E-03-4.60844E-05-4.20368E-15
 -1      1057 3.52427E-03-4.61013E-05-4.94385E-15
 -1      1058 3.81367E-03-4.59569E-05-5.74697E-15
 -1      1059 4.10241E-03-4.57005E-05-6.61228E-15
 -1      1060 4.39046E-03-4.53655E-05-7.53787E-15
 -1      1061 4.67783E-03-4.49758E-05-8.52500E-15
 -1      1062 4.96449E-03-4.45476E-05-9.57224E-15
 -1      1063 5.25039E-03-4.40963E-05-1.06815E-14
 -1      1064 5.53545E-03-4.36445E-05-1.18550E-14
 -1      1065 5.81953E-03-4.32301E-05-1.30906E-14
 -1      1066 6.10247E-03-4.29186E-05-1.43831E-14
 -1      1067 6.39803E-03-4.28225E-05-1.57994E-14
 -1      1068 6.67773E-03-4.31323E-05-1.72020E-14
 -1      1069 6.95529E-03-4.41081E-05-1.86567E-14
 -1      1070 7.23022E-03-4.61437E-05-2.01658E-14
 -1      1071 7.50198E-03-4.97912E-05-2.17176E-14
 -1      1072 7.76994E-03-5.57900E-05-2.33105E-14
 -1      1073 8.03344E-03-6.50789E-05-2.49443E-14
 -1      1074 8.29180E-03-7.87675E-05-2.66156E-14
 -1      1075 8.54430E-03-9.80341E-05-2.83220E-14
 -1      1076 6.76512E-03 5.12533E-05-1.72569E-14
 -1      1077 5.06704E-03 5.93794E-05-9.67688E-15
 -1      1078 6.48533E-03 5.37506E-05-1.58506E-14
 -1      1079 2.04776E-03 9.83602E-05-1.66515E-15
 -1      1080 4.35069E-03 1.35807E-04-6.98213E-15
 -1      1081 5.92128E-03 5.69456E-05-1.32050E-14
 -1      1082 7.04309E-03 4.78356E-05-1.87165E-14
 -1      1083 7.31901E-03 4.31589E-05-2.02292E-14
 -1      1084 7.59270E-03 3.67936E-05-2.17851E-14
 -1      1085 7.86411E-03 2.82265E-05-2.33851E-14
 -1      1086 8.13345E-03 1.69036E-05-2.50284E-14
 -1      1087 8.40136E-03 2.35153E-06-2.67076E-14
 -1      1088 8.66935E-03-1.54567E-05-2.84193E-14
 -1      1089 2.16649E-03-9.75456E-06-1.96818E-15
 -1      1090 5.35267E-03 5.87600E-05-1.07888E-14
 -1      1091 3.48515E-03 1.36970E-04-4.52053E-15
 -1      1092 2.63831E-03-4.52172E-05-2.87171E-15
 -1      1093 5.63746E-03 5.79714E-05-1.19673E-14
 -1      1094 3.19545E-03 1.36583E-04-3.81912E-15
 -1      1095 6.20397E-03 5.55841E-05-1.44997E-14
 -1      1096 4.78065E-03 5.98737E-05-8.62554E-15
 -1      1097 2.40221E-03-2.72030E-05-2.39793E-15
 -1      1098 2.33106E-03 1.16259E-04-2.10364E-15
 -1      1099 3.62816E-03 6.08630E-05-5.04007E-15
 -1      1100 3.91730E-03 6.07841E-05-5.84537E-15
 -1      1101 2.75732E-03 5.96945E-05-2.98440E-15
 -1      1102 3.37921E-03 3.00564E-05-4.44891E-15
 -1      1103 4.53420E-03 2.99159E-05-7.84820E-15
 -1      1104 2.36543E-03 4.47584E-05-2.25321E-15
 -1      1105 2.51258E-03 5.26596E-05-2.51289E-15
 -1      1106 4.22610E-03 4.53033E-05-6.80981E-15
 -1      1107 3.04806E-03 6.04118E-05-3.61038E-15
 -1      1108 0.00000E+00 0.00000E+00 0.00000E+00
 -1      1109 0.00000E+00 0.00000E+00 0.00000E+00
 -1      1110 0.00000E+00 0.00000E+00 0.00000E+00
 -1      1111 0.00000E+00 0.00000E+00 0.00000E+00
 -1      1112 0.00000E+00 0.00000E+00 0.00000E+00
 -1      1113 0.00000E+00 0.00000E+00 0.00000E+00
 -1      1114 0.00000E+00 0.00000E+00 0.00000E+00
 -1      1115 0.00000E+00 0.00000E+00 0.00000E+00
 -1      1116 0.00000E+00 0.00000E+00 0.00000E+00
 -1      1117 0.00000E+00 0.00000E+00 0.00000E+00
 -1      1118 0.00000E+00 0.00000E+00 0.00000E+00
 -1      1119 0.00000E+00 0.00000E+00 0.00000E+00
 -1      1120 0.00000E+00 0.00000E+00 0.00000E+00
 -1      1121 0.00000E+00 0.00000E+00 0.00000E+00
 -1      1122 0.00000E+00 0.00000E+00 0.00000E+00
 -1      1123 0.00000E+00 0.00000E+00 0.00000E+00
 -1      1124 0.00000E+00 0.00000E+00 0.00000E+00
 -1      1125 2.11675E-04-1.48334E-04-1.20617E-18
 -1      1126 5.51661E-04-3.37520E-04-5.39391E-17
 -1      1127 8.33499E-04-4.59019E-04-1.77281E-16
 -1      1128 1.10309E-03-5.40709E-04-3.82642E-16
 -1      1129 1.36853E-03-5.97968E-04-6.65199E-16
 -1      1130 1.63336E-03-6.38691E-04-1.02095E-15
 -1      1131 1.89945E-03-6.67528E-04-1.45049E-15
 -1      1132 2.16763E-03-6.87599E-04-1.95223E-15
 -1      1133 2.43819E-03-7.01187E-04-2.52669E-15
 -1      1134 2.71114E-03-7.10016E-04-3.17242E-15
 -1      1135 2.98631E-03-7.15389E-04-3.88642E-15
 -1      1136 3.26345E-03-7.18285E-04-4.66692E-15
 -1      1137 3.54229E-03-7.19423E-04-5.51017E-15
 -1      1138 3.82958E-03-7.19308E-04-6.44053E-15
 -1      1139 4.11811E-03-7.18273E-04-7.44099E-15
 -1      1140 4.40059E-03-7.16613E-04-8.48151E-15
 -1      1141 4.68386E-03-7.14440E-04-9.58672E-15
 -1      1142 4.96783E-03-7.11808E-04-1.07552E-14
 -1      1143 5.25245E-03-7.08712E-04-1.19911E-14
 -1      1144 5.53775E-03-7.05106E-04-1.32849E-14
 -1      1145 5.82381E-03-7.00916E-04-1.46348E-14
 -1      1146 6.11086E-03-6.96057E-04-1.60347E-14
 -1      1147 6.39922E-03-6.90449E-04-1.74850E-14
 -1      1148 6.68938E-03-6.84044E-04-1.89877E-14
 -1      1149 6.98205E-03-6.76862E-04-2.05397E-14
 -1      1150 7.27822E-03-6.69050E-04-2.21339E-14
 -1      1151 7.58682E-03-6.60769E-04-2.38025E-14
 -1      1152 7.90248E-03-6.53028E-04-2.55147E-14
 -1      1153 8.21978E-03-6.47407E-04-2.72319E-14
 -1      1154 8.54948E-03-6.46170E-04-2.89919E-14
 -1      1155 8.89544E-03-6.53487E-04-3.07895E-14
 -1      1156 9.26188E-03-6.76192E-04-3.26113E-14
 -1      1157 9.65237E-03-7.24936E-04-3.44493E-14
 -1      1158 1.00675E-02-8.14807E-04-3.63142E-14
 -1      1159 1.05009E-02-9.63328E-04-3.82059E-14
 -1      1160 1.09343E-02-1.18188E-03-4.01131E-14
 -1      1161 1.13364E-02-1.45781E-03-4.20215E-14
 -1      1162 1.16755E-02-1.73637E-03-4.39435E-14
 -1      1163 1.19351E-02-1.92369E-03-4.57802E-14
 -1      1164 1.21622E-02-1.97461E-03-4.75713E-14
 -1      1165 1.24278E-02-1.89083E-03-4.94617E-14
 -1      1166 1.27629E-02-1.72664E-03-5.13941E-14
 -1      1167 1.31541E-02-1.56699E-03-5.33095E-14
 -1      1168 1.35689E-02-1.46166E-03-5.52155E-14
 -1      1169 1.39769E-02-1.41922E-03-5.70978E-14
 -1      1170 1.43603E-02-1.42546E-03-5.89502E-14
 -1      1171 1.47133E-02-1.46003E-03-6.07882E-14
 -1      1172 1.50370E-02-1.50407E-03-6.25922E-14
 -1      1173 1.53375E-02-1.54267E-03-6.43652E-14
 -1      1174 1.56248E-02-1.56730E-03-6.61193E-14
 -1      1175 2.28435E-04 1.60710E-04 2.97071E-17
 -1      1176 5.53839E-04 3.42159E-04 6.59195E-17
 -1      1177 8.34433E-04 4.61212E-04 6.31819E-17
 -1      1178 1.10399E-03 5.42408E-04 1.28342E-17
 -1      1179 1.36943E-03 5.99648E-04-8.77391E-17
 -1      1180 1.63432E-03 6.40461E-04-2.41181E-16
 -1      1181 1.90045E-03 6.69405E-04-4.51733E-16
 -1      1182 2.16867E-03 6.89594E-04-7.21225E-16
 -1      1183 2.43927E-03 7.03308E-04-1.05101E-15
 -1      1184 2.71224E-03 7.12267E-04-1.44187E-15
 -1      1185 2.98743E-03 7.17774E-04-1.89773E-15
 -1      1186 3.26458E-03 7.20803E-04-2.41520E-15
 -1      1187 3.54344E-03 7.22078E-04-2.99729E-15
 -1      1188 3.82373E-03 7.22117E-04-3.64475E-15
 -1      1189 4.10521E-03 7.21280E-04-4.35554E-15
 -1      1190 4.38769E-03 7.19806E-04-5.13161E-15
 -1      1191 4.67099E-03 7.17836E-04-5.97390E-15
 -1      1192 4.95501E-03 7.15444E-04-6.88021E-15
 -1      1193 5.23971E-03 7.12655E-04-7.85071E-15
 -1      1194 5.52509E-03 7.09467E-04-8.88241E-15
 -1      1195 5.81124E-03 7.05870E-04-9.97799E-15
 -1      1196 6.09832E-03 7.01873E-04-1.11473E-14
 -1      1197 6.38655E-03 6.97528E-04-1.23971E-14
 -1      1198 6.67625E-03 6.92965E-04-1.37223E-14
 -1      1199 6.96778E-03 6.88432E-04-1.51136E-14
 -1      1200 7.26155E-03 6.84336E-04-1.65687E-14
 -1      1201 7.55796E-03 6.81292E-04-1.80875E-14
 -1      1202 7.85733E-03 6.80153E-04-1.96612E-14
 -1      1203 8.15978E-03 6.82026E-04-2.12816E-14
 -1      1204 8.46506E-03 6.88212E-04-2.29512E-14
 -1      1205 8.77239E-03 7.00068E-04-2.46607E-14
 -1      1206 9.08023E-03 7.18702E-04-2.63953E-14
 -1      1207 9.38620E-03 7.44498E-04-2.81517E-14
 -1      1208 9.68708E-03 7.76466E-04-2.99272E-14
 -1      1209 9.97923E-03 8.11556E-04-3.17148E-14
 -1      1210 1.02593E-02 8.44217E-04-3.35144E-14
 -1      1211 1.05255E-02 8.66610E-04-3.53294E-14
 -1      1212 1.07781E-02 8.69787E-04-3.71578E-14
 -1      1213 1.10206E-02 8.45766E-04-3.89935E-14
 -1      1214 1.12589E-02 7.89827E-04-4.08318E-14
 -1      1215 1.14995E-02 7.01978E-04-4.26674E-14
 -1      1216 1.17479E-02 5.86828E-04-4.44989E-14
 -1      1217 1.20071E-02 4.51903E-04-4.63211E-14
 -1      1218 1.22771E-02 3.05248E-04-4.81486E-14
 -1      1219 1.25558E-02 1.53379E-04-4.99841E-14
 -1      1220 1.28397E-02 2.34351E-07-5.18203E-14
 -1      1221 1.31258E-02-1.52824E-04-5.36481E-14
 -1      1222 1.34120E-02-3.06249E-04-5.54749E-14
 -1      1223 1.36975E-02-4.61087E-04-5.73113E-14
 -1      1224 1.39757E-02-6.13581E-04-5.91188E-14
 -1      1225 1.41883E-02-7.30279E-04-6.02099E-14
 -1      1226 1.43429E-02-8.14848E-04-6.06395E-14
 -1      1227 1.44997E-02-8.98960E-04-6.10524E-14
 -1      1228 1.46602E-02-9.80907E-04-6.14441E-14
 -1      1229 1.48248E-02-1.05809E-03-6.18592E-14
 -1      1230 1.49908E-02-1.12659E-03-6.22909E-14
 -1      1231 1.51564E-02-1.18362E-03-6.27441E-14
 -1      1232 1.53170E-02-1.22672E-03-6.31849E-14
 -1      1233 1.54631E-02-1.25442E-03-6.36247E-14
 -1      1234 1.55858E-02-1.26876E-03-6.40445E-14
 -1      1235 1.56779E-02-1.27508E-03-6.44376E-14
 -1      1236 1.57355E-02-1.28134E-03-6.48286E-14
 -1      1237 1.57619E-02-1.29632E-03-6.52297E-14
 -1      1238 1.57651E-02-1.32779E-03-6.56271E-14
 -1      1239 1.57571E-02-1.37977E-03-6.60055E-14
 -1      1240 1.57522E-02-1.45115E-03-6.63777E-14
 -1      1241 1.57596E-02-1.53365E-03-6.67760E-14
 -1      1242 1.40669E-02-6.49831E-04-4.82460E-14
 -1      1243 1.39011E-02-4.76051E-04-4.78307E-14
 -1      1244 1.36309E-02-2.98415E-04-4.72469E-14
 -1      1245 1.32861E-02-1.23738E-04-4.65298E-14
 -1      1246 1.28901E-02 3.93462E-05-4.57040E-14
 -1      1247 1.24549E-02 1.80034E-04-4.48059E-14
 -1      1248 1.19902E-02 2.80424E-04-4.38525E-14
 -1      1249 1.15228E-02 3.27876E-04-4.29017E-14
 -1      1250 1.10764E-02 3.15265E-04-4.20230E-14
 -1      1251 1.06373E-02 2.47196E-04-4.12161E-14
 -1      1252 1.02379E-02 1.42131E-04-4.05479E-14
 -1      1253 9.91030E-03 1.94328E-05-4.00739E-14
 -1      1254 9.64892E-03-1.14858E-04-3.97628E-14
 -1      1255 9.47065E-03-2.55533E-04-3.96240E-14
 -1      1256 9.39289E-03-4.04991E-04-3.96777E-14
 -1      1257 9.42812E-03-5.64057E-04-3.99430E-14
 -1      1258 9.57570E-03-7.34162E-04-4.03806E-14
 -1      1259 9.81886E-03-9.18110E-04-4.09550E-14
 -1      1260 1.01488E-02-1.11645E-03-4.16640E-14
 -1      1261 1.05456E-02-1.31591E-03-4.24848E-14
 -1      1262 1.09733E-02-1.48840E-03-4.33490E-14
 -1      1263 1.14175E-02-1.61427E-03-4.42250E-14
 -1      1264 1.18708E-02-1.67647E-03-4.50967E-14
 -1      1265 1.23414E-02-1.66404E-03-4.59757E-14
 -1      1266 1.27996E-02-1.58090E-03-4.67828E-14
 -1      1267 1.32178E-02-1.44660E-03-4.74647E-14
 -1      1268 1.35802E-02-1.28615E-03-4.80042E-14
 -1      1269 1.38563E-02-1.12257E-03-4.83398E-14
 -1      1270 1.40326E-02-9.66865E-04-4.84810E-14
 -1      1271 1.41074E-02-8.13469E-04-4.84589E-14
 -1      1272 1.66706E-04-1.10342E-04-1.15468E-17
 -1      1273 1.12544E-04-5.69741E-05-2.09115E-17
 -1      1274 1.17626E-04-6.75822E-05-1.81739E-17
 -1      1275 1.08426E-04-4.34922E-05-2.49231E-17
 -1      1276 1.10288E-04-4.96064E-05-2.38524E-17
 -1      1277 2.26336E-04-1.07625E-04-5.68664E-17
 -1      1278 1.06842E-04-3.36095E-05-2.66036E-17
 -1      1279 1.07690E-04-3.83329E-05-2.62241E-17
 -1      1280 2.19112E-04-8.24590E-05-6.33445E-17
 -1      1281 1.06060E-04-2.53545E-05-2.69966E-17
 -1      1282 1.06491E-04-2.93860E-05-2.70102E-17
 -1      1283 2.15863E-04-6.32774E-05-6.59601E-17
 -1      1284 1.05659E-04-1.80919E-05-2.65901E-17
 -1      1285 1.05890E-04-2.16604E-05-2.67933E-17
 -1      1286 2.14208E-04-4.71923E-05-6.61092E-17
 -1      1287 1.05437E-04-1.12395E-05-2.58176E-17
 -1      1288 1.05560E-04-1.46250E-05-2.60751E-17
 -1      1289 2.13292E-04-3.27540E-05-6.47675E-17
 -1      1290 1.05337E-04-4.68923E-06-2.46927E-17
 -1      1291 1.05389E-04-7.94268E-06-2.50993E-17
 -1      1292 2.12792E-04-1.91907E-05-6.26669E-17
 -1      1293 1.05325E-04 1.74320E-06-2.32155E-17
 -1      1294 1.05323E-04-1.47040E-06-2.36492E-17
 -1      1295 2.12577E-04-6.16043E-06-5.97666E-17
 -1      1296 1.05398E-04 8.22540E-06-2.13046E-17
 -1      1297 1.05341E-04 4.96535E-06-2.18331E-17
 -1      1298 2.12585E-04 6.70915E-06-5.58093E-17
 -1      1299 1.05576E-04 1.49332E-05-1.91768E-17
 -1      1300 1.05448E-04 1.15329E-05-1.98002E-17
 -1      1301 2.12818E-04 1.97658E-05-5.12014E-17
 -1      1302 1.05910E-04 2.19522E-05-1.65070E-17
 -1      1303 1.05675E-04 1.83610E-05-1.74150E-17
 -1      1304 2.13330E-04 3.32690E-05-4.57940E-17
 -1      1305 1.06534E-04 2.98180E-05-1.29020E-17
 -1      1306 1.06094E-04 2.57416E-05-1.42166E-17
 -1      1307 2.14271E-04 4.77971E-05-3.90855E-17
 -1      1308 1.07734E-04 3.89152E-05-8.10441E-18
 -1      1309 1.06880E-04 3.41203E-05-9.92045E-18
 -1      1310 2.15982E-04 6.42059E-05-3.01815E-17
 -1      1311 1.10270E-04 5.03511E-05-1.57209E-18
 -1      1312 1.08435E-04 4.41688E-05-4.33681E-18
 -1      1313 2.19226E-04 8.37127E-05-1.85805E-17
 -1      1314 1.16934E-04 6.76154E-05 7.48099E-18
 -1      1315 1.12182E-04 5.77708E-05 3.30682E-18
 -1      1316 2.26314E-04 1.09448E-04-3.38813E-18
 -1      1317 1.57585E-04 1.09857E-04 2.00984E-17
 -1      1318 1.35666E-04 8.60869E-05 1.30104E-17
 -1      1319 2.56041E-04 1.52088E-04 1.39998E-17
 -1      1320 3.35099E-04 2.20734E-04 3.62124E-17
 -1      1321 4.21558E-04-2.61740E-04-5.40339E-17
 -1      1322 5.74663E-04-3.36802E-04-9.74020E-17
 -1      1323 7.21858E-04-3.97407E-04-1.62549E-16
 -1      1324 8.65034E-04-4.46706E-04-2.47117E-16
 -1      1325 6.12099E-04-3.30896E-04-1.46015E-16
 -1      1326 1.00507E-03-4.87782E-04-3.50577E-16
 -1      1327 1.14292E-03-5.21775E-04-4.73186E-16
 -1      1328 9.05346E-04-4.31601E-04-3.17929E-16
 -1      1329 1.27942E-03-5.50553E-04-6.14160E-16
 -1      1330 1.41507E-03-5.74595E-04-7.73876E-16
 -1      1331 1.18779E-03-5.01030E-04-5.63839E-16
 -1      1332 1.55033E-03-5.94966E-04-9.51496E-16
 -1      1333 1.68543E-03-6.11999E-04-1.14726E-15
 -1      1334 1.46473E-03-5.49812E-04-8.82513E-16
 -1      1335 1.82062E-03-6.26324E-04-1.36078E-15
 -1      1336 1.95602E-03-6.38233E-04-1.59250E-15
 -1      1337 1.73944E-03-5.84130E-04-1.27261E-15
 -1      1338 2.09174E-03-6.48127E-04-1.84218E-15
 -1      1339 2.22783E-03-6.56257E-04-2.11002E-15
 -1      1340 2.01376E-03-6.07963E-04-1.73403E-15
 -1      1341 2.36434E-03-6.62896E-04-2.39530E-15
 -1      1342 2.50129E-03-6.68251E-04-2.69828E-15
 -1      1343 2.28869E-03-6.24123E-04-2.26589E-15
 -1      1344 2.63868E-03-6.72514E-04-3.01892E-15
 -1      1345 2.77651E-03-6.75851E-04-3.35616E-15
 -1      1346 2.56469E-03-6.34682E-04-2.86800E-15
 -1      1347 2.91477E-03-6.78400E-04-3.71051E-15
 -1      1348 3.05344E-03-6.80288E-04-4.08175E-15
 -1      1349 2.84197E-03-6.41189E-04-3.53778E-15
 -1      1350 3.19251E-03-6.81615E-04-4.46865E-15
 -1      1351 3.33194E-03-6.82478E-04-4.87198E-15
 -1      1352 3.12054E-03-6.44802E-04-4.27380E-15
 -1      1353 3.47172E-03-6.82944E-04-5.29127E-15
 -1      1354 3.61182E-03-6.83087E-04-5.72567E-15
 -1      1355 3.40033E-03-6.46374E-04-5.07464E-15
 -1      1356 3.75925E-03-6.82938E-04-6.19914E-15
 -1      1357 3.90697E-03-6.82541E-04-6.69102E-15
 -1      1358 3.68826E-03-6.46512E-04-5.96092E-15
 -1      1359 4.04791E-03-6.81961E-04-7.17642E-15
 -1      1360 4.18909E-03-6.81222E-04-7.67759E-15
 -1      1361 3.97719E-03-6.45616E-04-6.91523E-15
 -1      1362 4.33047E-03-6.80334E-04-8.19436E-15
 -1      1363 4.47204E-03-6.79321E-04-8.72733E-15
 -1      1364 4.25992E-03-6.44032E-04-7.91079E-15
 -1      1365 4.61380E-03-6.78186E-04-9.27695E-15
 -1      1366 4.75573E-03-6.76942E-04-9.84197E-15
 -1      1367 4.54338E-03-6.41916E-04-8.97101E-15
 -1      1368 4.89782E-03-6.75582E-04-1.04236E-14
 -1      1369 5.04008E-03-6.74113E-04-1.10217E-14
 -1      1370 4.82748E-03-6.39343E-04-1.00950E-14
 -1      1371 5.18249E-03-6.72522E-04-1.16347E-14
 -1      1372 5.32507E-03-6.70812E-04-1.22631E-14
 -1      1373 5.11219E-03-6.36322E-04-1.12828E-14
 -1      1374 5.46782E-03-6.68961E-04-1.29064E-14
 -1      1375 5.61076E-03-6.66973E-04-1.35643E-14
 -1      1376 5.39753E-03-6.32811E-04-1.25326E-14
 -1      1377 5.75390E-03-6.64821E-04-1.42358E-14
 -1      1378 5.89727E-03-6.62507E-04-1.49201E-14
 -1      1379 5.68357E-03-6.28730E-04-1.38403E-14
 -1      1380 6.04091E-03-6.60003E-04-1.56174E-14
 -1      1381 6.18484E-03-6.57315E-04-1.63267E-14
 -1      1382 5.97045E-03-6.23972E-04-1.52026E-14
 -1      1383 6.32913E-03-6.54409E-04-1.70487E-14
 -1      1384 6.47381E-03-6.51302E-04-1.77839E-14
 -1      1385 6.25840E-03-6.18426E-04-1.66161E-14
 -1      1386 6.61898E-03-6.47959E-04-1.85318E-14
 -1      1387 6.76469E-03-6.44412E-04-1.92918E-14
 -1      1388 6.54777E-03-6.11987E-04-1.80797E-14
 -1      1389 6.91105E-03-6.40625E-04-2.00637E-14
 -1      1390 7.05817E-03-6.36659E-04-2.08479E-14
 -1      1391 6.83904E-03-6.04590E-04-1.95931E-14
 -1      1392 7.20617E-03-6.32481E-04-2.16415E-14
 -1      1393 7.35520E-03-6.28194E-04-2.24442E-14
 -1      1394 7.13287E-03-5.96250E-04-2.11527E-14
 -1      1395 7.51299E-03-6.23558E-04-2.32968E-14
 -1      1396 7.67233E-03-6.18977E-04-2.41598E-14
 -1      1397 7.43761E-03-5.86895E-04-2.27939E-14
 -1      1398 7.82577E-03-6.14682E-04-2.49933E-14
 -1      1399 7.98112E-03-6.10727E-04-2.58380E-14
 -1      1400 7.74718E-03-5.77201E-04-2.44745E-14
 -1      1401 8.13866E-03-6.07216E-04-2.66953E-14
 -1      1402 8.29873E-03-6.04556E-04-2.75607E-14
 -1      1403 8.05539E-03-5.68345E-04-2.61594E-14
 -1      1404 8.46168E-03-6.03007E-04-2.84367E-14
 -1      1405 8.62788E-03-6.03186E-04-2.93232E-14
 -1      1406 8.37153E-03-5.61821E-04-2.78853E-14
 -1      1407 8.79773E-03-6.05638E-04-3.02164E-14
 -1      1408 8.97163E-03-6.11276E-04-3.11182E-14
 -1      1409 8.69779E-03-5.60697E-04-2.96485E-14
 -1      1410 9.14996E-03-6.21123E-04-3.20256E-14
 -1      1411 9.33302E-03-6.36487E-04-3.29376E-14
 -1      1412 9.03651E-03-5.70222E-04-3.14431E-14
 -1      1413 9.52106E-03-6.59096E-04-3.38550E-14
 -1      1414 9.71405E-03-6.90711E-04-3.47762E-14
 -1      1415 9.38995E-03-5.98996E-04-3.32622E-14
 -1      1416 9.91188E-03-7.33841E-04-3.57058E-14
 -1      1417 1.01139E-02-7.90539E-04-3.66418E-14
 -1      1418 9.75962E-03-6.60193E-04-3.51015E-14
 -1      1419 1.03192E-02-8.63544E-04-3.75818E-14
 -1      1420 1.05261E-02-9.54361E-04-3.85282E-14
 -1      1421 1.01453E-02-7.71691E-04-3.69635E-14
 -1      1422 1.07329E-02-1.06416E-03-3.94768E-14
 -1      1423 1.09366E-02-1.19168E-03-4.04256E-14
 -1      1424 1.05434E-02-9.52026E-04-3.88440E-14
 -1      1425 1.11347E-02-1.33341E-03-4.13762E-14
 -1      1426 1.13239E-02-1.48230E-03-4.23308E-14
 -1      1427 1.09445E-02-1.20739E-03-4.07354E-14
 -1      1428 1.15026E-02-1.62823E-03-4.32885E-14
 -1      1429 1.16698E-02-1.75852E-03-4.42470E-14
 -1      1430 1.13329E-02-1.50823E-03-4.26369E-14
 -1      1431 1.18112E-02-1.85223E-03-4.51149E-14
 -1      1432 1.19473E-02-1.91474E-03-4.59830E-14
 -1      1433 1.16764E-02-1.76305E-03-4.44541E-14
 -1      1434 1.20875E-02-1.94316E-03-4.69004E-14
 -1      1435 1.22303E-02-1.93253E-03-4.78172E-14
 -1      1436 1.19889E-02-1.89656E-03-4.62301E-14
 -1      1437 1.23865E-02-1.88514E-03-4.87847E-14
 -1      1438 1.25524E-02-1.81108E-03-4.97520E-14
 -1      1439 1.23169E-02-1.87262E-03-4.81111E-14
 -1      1440 1.27286E-02-1.72278E-03-5.07153E-14
 -1      1441 1.29141E-02-1.63241E-03-5.16773E-14
 -1      1442 1.26749E-02-1.72018E-03-5.00390E-14
 -1      1443 1.31070E-02-1.54942E-03-5.26339E-14
 -1      1444 1.33040E-02-1.48013E-03-5.35872E-14
 -1      1445 1.30560E-02-1.53707E-03-5.19566E-14
 -1      1446 1.35026E-02-1.42746E-03-5.45405E-14
 -1      1447 1.36999E-02-1.39211E-03-5.54900E-14
 -1      1448 1.34450E-02-1.39880E-03-5.38673E-14
 -1      1449 1.38943E-02-1.37255E-03-5.64307E-14
 -1      1450 1.40840E-02-1.36695E-03-5.73617E-14
 -1      1451 1.38266E-02-1.32992E-03-5.57589E-14
 -1      1452 1.42684E-02-1.37226E-03-5.82900E-14
 -1      1453 1.44467E-02-1.38609E-03-5.92155E-14
 -1      1454 1.41918E-02-1.32108E-03-5.76281E-14
 -1      1455 1.46190E-02-1.40553E-03-6.01327E-14
 -1      1456 1.47853E-02-1.42836E-03-6.10451E-14
 -1      1457 1.45374E-02-1.35121E-03-5.94766E-14
 -1      1458 1.49460E-02-1.45225E-03-6.19497E-14
 -1      1459 1.51016E-02-1.47534E-03-6.28449E-14
 -1      1460 1.48636E-02-1.39919E-03-6.13034E-14
 -1      1461 1.52529E-02-1.49601E-03-6.37354E-14
 -1      1462 1.54006E-02-1.51292E-03-6.46181E-14
 -1      1463 1.51726E-02-1.44744E-03-6.31003E-14
 -1      1464 1.55091E-02-1.52076E-03-6.52645E-14
 -1      1465 1.56527E-02-1.53037E-03-6.61377E-14
 -1      1466 1.56471E-02-1.48975E-03-6.59328E-14
 -1      1467 1.54314E-02-1.47752E-03-6.46411E-14
 -1      1468 6.43108E-04 3.72033E-04 4.71628E-17
 -1      1469 4.92973E-04 3.03696E-04 4.66614E-17
 -1      1470 4.44897E-04 2.65895E-04 3.00460E-17
 -1      1471 9.28712E-04 4.72027E-04 1.43250E-17
 -1      1472 7.87851E-04 4.26524E-04 3.66189E-17
 -1      1473 7.44783E-04 3.90742E-04 1.29562E-17
 -1      1474 1.20361E-03 5.41425E-04-6.70444E-17
 -1      1475 1.06694E-03 5.09744E-04-1.99087E-17
 -1      1476 1.03083E-03 4.76176E-04-4.99411E-17
 -1      1477 1.47418E-03 5.90627E-04-1.99886E-16
 -1      1478 1.33912E-03 5.68154E-04-1.26906E-16
 -1      1479 1.30875E-03 5.35984E-04-1.62807E-16
 -1      1480 1.74373E-03 6.25535E-04-3.87535E-16
 -1      1481 1.60891E-03 6.09622E-04-2.86378E-16
 -1      1482 1.58301E-03 5.78294E-04-3.28784E-16
 -1      1483 2.01394E-03 6.50009E-04-6.33039E-16
 -1      1484 1.87867E-03 6.38902E-04-5.03110E-16
 -1      1485 1.85619E-03 6.08041E-04-5.51073E-16
 -1      1486 2.28564E-03 6.66796E-04-9.37998E-16
 -1      1487 2.14957E-03 6.59233E-04-7.77874E-16
 -1      1488 2.12971E-03 6.28608E-04-8.31570E-16
 -1      1489 2.55913E-03 6.77938E-04-1.30367E-15
 -1      1490 2.42214E-03 6.72974E-04-1.11326E-15
 -1      1491 2.40428E-03 6.42445E-04-1.17210E-15
 -1      1492 2.83446E-03 6.84970E-04-1.73181E-15
 -1      1493 2.69656E-03 6.81893E-04-1.50978E-15
 -1      1494 2.68020E-03 6.51375E-04-1.57395E-15
 -1      1495 3.11155E-03 6.89049E-04-2.22341E-15
 -1      1496 2.97279E-03 6.87323E-04-1.96974E-15
 -1      1497 2.95756E-03 6.56769E-04-2.03865E-15
 -1      1498 3.39021E-03 6.91032E-04-2.77729E-15
 -1      1499 3.25069E-03 6.90262E-04-2.49230E-15
 -1      1500 3.23629E-03 6.59646E-04-2.56585E-15
 -1      1501 3.67026E-03 6.91544E-04-3.39598E-15
 -1      1502 3.53008E-03 6.91443E-04-3.07856E-15
 -1      1503 3.51628E-03 6.60755E-04-3.15638E-15
 -1      1504 3.95149E-03 6.91024E-04-4.07755E-15
 -1      1505 3.81074E-03 6.91393E-04-3.72837E-15
 -1      1506 3.79739E-03 6.60632E-04-3.80952E-15
 -1      1507 4.23372E-03 6.89771E-04-4.82418E-15
 -1      1508 4.09249E-03 6.90477E-04-4.44311E-15
 -1      1509 4.07947E-03 6.59647E-04-4.52690E-15
 -1      1510 4.51679E-03 6.87972E-04-5.63549E-15
 -1      1511 4.37516E-03 6.88932E-04-5.22172E-15
 -1      1512 4.36238E-03 6.58040E-04-5.30895E-15
 -1      1513 4.80060E-03 6.85728E-04-6.51295E-15
 -1      1514 4.65861E-03 6.86901E-04-6.06617E-15
 -1      1515 4.64601E-03 6.55954E-04-6.15529E-15
 -1      1516 5.08508E-03 6.83084E-04-7.45240E-15
 -1      1517 4.94276E-03 6.84454E-04-6.97515E-15
 -1      1518 4.93031E-03 6.53456E-04-7.06649E-15
 -1      1519 5.37022E-03 6.80042E-04-8.45798E-15
 -1      1520 5.22757E-03 6.81611E-04-7.94728E-15
 -1      1521 5.21522E-03 6.50563E-04-8.04151E-15
 -1      1522 5.65607E-03 6.76588E-04-9.52293E-15
 -1      1523 5.51305E-03 6.78364E-04-8.98172E-15
 -1      1524 5.50079E-03 6.47262E-04-9.07888E-15
 -1      1525 5.94273E-03 6.72710E-04-1.06577E-14
 -1      1526 5.79929E-03 6.74698E-04-1.00815E-14
 -1      1527 5.78707E-03 6.43532E-04-1.01815E-14
 -1      1528 6.23038E-03 6.68425E-04-1.18696E-14
 -1      1529 6.08642E-03 6.70609E-04-1.12539E-14
 -1      1530 6.07419E-03 6.39361E-04-1.13561E-14
 -1      1531 6.51926E-03 6.63808E-04-1.31549E-14
 -1      1532 6.37465E-03 6.66143E-04-1.25030E-14
 -1      1533 6.36235E-03 6.34784E-04-1.26050E-14
 -1      1534 6.80967E-03 6.59031E-04-1.45113E-14
 -1      1535 6.66426E-03 6.61416E-04-1.38251E-14
 -1      1536 6.65176E-03 6.29909E-04-1.39252E-14
 -1      1537 7.10194E-03 6.54404E-04-1.59328E-14
 -1      1538 6.95555E-03 6.56664E-04-1.52142E-14
 -1      1539 6.94272E-03 6.24959E-04-1.53120E-14
 -1      1540 7.39642E-03 6.50423E-04-1.74171E-14
 -1      1541 7.24888E-03 6.52286E-04-1.66662E-14
 -1      1542 7.23552E-03 6.20321E-04-1.67619E-14
 -1      1543 7.69341E-03 6.47815E-04-1.89590E-14
 -1      1544 7.54458E-03 6.48887E-04-1.81816E-14
 -1      1545 7.53046E-03 6.16595E-04-1.82726E-14
 -1      1546 7.99310E-03 6.47567E-04-2.05532E-14
 -1      1547 7.84291E-03 6.47325E-04-1.97509E-14
 -1      1548 7.82775E-03 6.14636E-04-1.98391E-14
 -1      1549 8.29543E-03 6.50919E-04-2.21958E-14
 -1      1550 8.14394E-03 6.48719E-04-2.13679E-14
 -1      1551 8.12746E-03 6.15573E-04-2.14534E-14
 -1      1552 8.59993E-03 6.59276E-04-2.38802E-14
 -1      1553 8.44744E-03 6.54409E-04-2.30335E-14
 -1      1554 8.42941E-03 6.20773E-04-2.31131E-14
 -1      1555 8.90564E-03 6.74004E-04-2.56009E-14
 -1      1556 8.75271E-03 6.65814E-04-2.47371E-14
 -1      1557 8.73302E-03 6.31714E-04-2.48143E-14
 -1      1558 9.21089E-03 6.96042E-04-2.73456E-14
 -1      1559 9.05844E-03 6.84145E-04-2.64703E-14
 -1      1560 9.03724E-03 6.49692E-04-2.65444E-14
 -1      1561 9.51337E-03 7.25331E-04-2.91119E-14
 -1      1562 9.36265E-03 7.09920E-04-2.82270E-14
 -1      1563 9.34044E-03 6.75353E-04-2.83005E-14
 -1      1564 9.81023E-03 7.60086E-04-3.08948E-14
 -1      1565 9.66269E-03 7.42303E-04-3.00006E-14
 -1      1566 9.64048E-03 7.08005E-04-3.00748E-14
 -1      1567 1.00986E-02 7.96137E-04-3.26861E-14
 -1      1568 9.95565E-03 7.78375E-04-3.17891E-14
 -1      1569 9.93492E-03 7.44870E-04-3.18615E-14
 -1      1570 1.03762E-02 8.26687E-04-3.44937E-14
 -1      1571 1.02389E-02 8.12636E-04-3.35881E-14
 -1      1572 1.02215E-02 7.80518E-04-3.36607E-14
 -1      1573 1.06425E-02 8.42930E-04-3.63114E-14
 -1      1574 1.05108E-02 8.37149E-04-3.54018E-14
 -1      1575 1.04989E-02 8.06944E-04-3.54727E-14
 -1      1576 1.08988E-02 8.35736E-04-3.81403E-14
 -1      1577 1.07717E-02 8.42692E-04-3.72245E-14
 -1      1578 1.07672E-02 8.14690E-04-3.72920E-14
 -1      1579 1.11490E-02 7.98061E-04-3.99752E-14
 -1      1580 1.10244E-02 8.20883E-04-3.90572E-14
 -1      1581 1.10284E-02 7.95008E-04-3.91203E-14
 -1      1582 1.13980E-02 7.27122E-04-4.18120E-14
 -1      1583 1.12733E-02 7.66610E-04-4.08953E-14
 -1      1584 1.12863E-02 7.42410E-04-4.09573E-14
 -1      1585 1.16508E-02 6.25252E-04-4.36491E-14
 -1      1586 1.15236E-02 6.79651E-04-4.27301E-14
 -1      1587 1.15450E-02 6.56436E-04-4.27952E-14
 -1      1588 1.19109E-02 4.98947E-04-4.54779E-14
 -1      1589 1.17798E-02 5.64623E-04-4.45635E-14
 -1      1590 1.18083E-02 5.41694E-04-4.46291E-14
 -1      1591 1.21798E-02 3.56596E-04-4.73061E-14
 -1      1592 1.20443E-02 4.29274E-04-4.63921E-14
 -1      1593 1.20783E-02 4.06115E-04-4.64614E-14
 -1      1594 1.24567E-02 2.06003E-04-4.91408E-14
 -1      1595 1.23174E-02 2.81966E-04-4.82246E-14
 -1      1596 1.23552E-02 2.58337E-04-4.82967E-14
 -1      1597 1.27393E-02 5.26907E-05-5.09780E-14
 -1      1598 1.25974E-02 1.29500E-04-5.00596E-14
 -1      1599 1.26377E-02 1.05416E-04-5.01345E-14
 -1      1600 1.30251E-02-1.00646E-04-5.28074E-14
 -1      1601 1.28820E-02-2.40088E-05-5.18926E-14
 -1      1602 1.29236E-02-4.83695E-05-5.19669E-14
 -1      1603 1.33118E-02-2.53705E-04-5.46347E-14
 -1      1604 1.31684E-02-1.77154E-04-5.37205E-14
 -1      1605 1.32110E-02-2.01559E-04-5.37939E-14
 -1      1606 1.35982E-02-4.07545E-04-5.64668E-14
 -1      1607 1.34551E-02-3.30457E-04-5.55492E-14
 -1      1608 1.34983E-02-3.54718E-04-5.56229E-14
 -1      1609 1.38839E-02-5.63162E-04-5.83105E-14
 -1      1610 1.37411E-02-4.85125E-04-5.73879E-14
 -1      1611 1.37849E-02-5.09188E-04-5.74617E-14
 -1      1612 1.40526E-02-6.55714E-04-5.93304E-14
 -1      1613 1.42581E-02-7.67351E-04-5.99423E-14
 -1      1614 1.41804E-02-7.25447E-04-5.97280E-14
 -1      1615 1.44159E-02-8.50128E-04-6.03498E-14
 -1      1616 1.43365E-02-8.08979E-04-6.01476E-14
 -1      1617 1.41735E-02-7.19958E-04-5.92418E-14
 -1      1618 1.45779E-02-9.30114E-04-6.07569E-14
 -1      1619 1.44964E-02-8.90592E-04-6.05522E-14
 -1      1620 1.43326E-02-8.01969E-04-5.96543E-14
 -1      1621 1.47443E-02-1.00504E-03-6.11804E-14
 -1      1622 1.46606E-02-9.68373E-04-6.09690E-14
 -1      1623 1.44962E-02-8.81069E-04-6.00729E-14
 -1      1624 1.49105E-02-1.07114E-03-6.16134E-14
 -1      1625 1.48273E-02-1.03920E-03-6.13952E-14
 -1      1626 1.46629E-02-9.54707E-04-6.05002E-14
 -1      1627 1.50784E-02-1.12806E-03-6.20613E-14
 -1      1628 1.49950E-02-1.10104E-03-6.18378E-14
 -1      1629 1.48319E-02-1.02136E-03-6.09351E-14
 -1      1630 1.52381E-02-1.17284E-03-6.24973E-14
 -1      1631 1.51597E-02-1.15202E-03-6.22791E-14
 -1      1632 1.50000E-02-1.07947E-03-6.13739E-14
 -1      1633 1.53810E-02-1.20545E-03-6.29339E-14
 -1      1634 1.53122E-02-1.19058E-03-6.27162E-14
 -1      1635 1.51581E-02-1.12720E-03-6.18110E-14
 -1      1636 1.54979E-02-1.22834E-03-6.33489E-14
 -1      1637 1.54432E-02-1.21787E-03-6.31445E-14
 -1      1638 1.52969E-02-1.16497E-03-6.22426E-14
 -1      1639 1.55818E-02-1.24639E-03-6.37488E-14
 -1      1640 1.55442E-02-1.23759E-03-6.35503E-14
 -1      1641 1.54070E-02-1.19525E-03-6.26573E-14
 -1      1642 1.56301E-02-1.26582E-03-6.41402E-14
 -1      1643 1.56101E-02-1.25548E-03-6.39452E-14
 -1      1644 1.54818E-02-1.22228E-03-6.30579E-14
 -1      1645 1.56481E-02-1.29403E-03-6.45450E-14
 -1      1646 1.56426E-02-1.27848E-03-6.43431E-14
 -1      1647 1.55213E-02-1.25186E-03-6.34581E-14
 -1      1648 1.56446E-02-1.33604E-03-6.49405E-14
 -1      1649 1.56483E-02-1.31308E-03-6.47433E-14
 -1      1650 1.55311E-02-1.28970E-03-6.38589E-14
 -1      1651 1.56335E-02-1.39415E-03-6.53268E-14
 -1      1652 1.56390E-02-1.36307E-03-6.51333E-14
 -1      1653 1.55220E-02-1.33953E-03-6.42567E-14
 -1      1654 1.56373E-02-1.45851E-03-6.57262E-14
 -1      1655 1.56385E-02-1.42121E-03-6.55296E-14
 -1      1656 1.55183E-02-1.39582E-03-6.46636E-14
 -1      1657 1.55302E-02-1.45374E-03-6.50791E-14
 -1      1658 1.40479E-02-6.67354E-04-4.85753E-14
 -1      1659 1.41054E-02-7.20080E-04-4.87350E-14
 -1      1660 1.38171E-02-5.37265E-04-4.80980E-14
 -1      1661 1.39390E-02-6.01638E-04-4.83522E-14
 -1      1662 1.34840E-02-3.56988E-04-4.73744E-14
 -1      1663 1.36497E-02-4.39508E-04-4.77038E-14
 -1      1664 1.30983E-02-1.58439E-04-4.65486E-14
 -1      1665 1.32821E-02-2.49459E-04-4.69347E-14
 -1      1666 1.26765E-02 3.87807E-05-4.56474E-14
 -1      1667 1.28701E-02-5.38770E-05-4.60801E-14
 -1      1668 1.22618E-02 2.18137E-04-4.46483E-14
 -1      1669 1.24553E-02 1.41137E-04-4.51101E-14
 -1      1670 1.18293E-02 3.45575E-04-4.35969E-14
 -1      1671 1.20171E-02 2.96565E-04-4.40864E-14
 -1      1672 1.14341E-02 3.77273E-04-4.25794E-14
 -1      1673 1.16145E-02 3.72117E-04-4.30369E-14
 -1      1674 1.10402E-02 3.26495E-04-4.16589E-14
 -1      1675 1.12207E-02 3.58785E-04-4.20734E-14
 -1      1676 1.06466E-02 2.03606E-04-4.07424E-14
 -1      1677 1.08355E-02 2.69644E-04-4.11269E-14
 -1      1678 1.02467E-02 5.65168E-05-4.01174E-14
 -1      1679 1.04174E-02 1.26585E-04-4.03970E-14
 -1      1680 9.90449E-03-8.61939E-05-3.96683E-14
 -1      1681 1.00538E-02-2.02378E-05-3.98619E-14
 -1      1682 9.62565E-03-2.22455E-04-3.93482E-14
 -1      1683 9.74760E-03-1.63699E-04-3.94632E-14
 -1      1684 9.43819E-03-3.30904E-04-3.92690E-14
 -1      1685 9.51017E-03-2.81805E-04-3.92921E-14
 -1      1686 9.37195E-03-4.36125E-04-3.93307E-14
 -1      1687 9.38557E-03-3.89737E-04-3.92510E-14
 -1      1688 9.44704E-03-5.48571E-04-3.97032E-14
 -1      1689 9.39626E-03-4.96284E-04-3.95287E-14
 -1      1690 9.65978E-03-6.69705E-04-4.01221E-14
 -1      1691 9.54670E-03-6.03304E-04-3.98667E-14
 -1      1692 9.95641E-03-8.65569E-04-4.08541E-14
 -1      1693 9.80722E-03-7.80372E-04-4.05426E-14
 -1      1694 1.03554E-02-1.07854E-03-4.16371E-14
 -1      1695 1.01655E-02-9.69220E-04-4.12411E-14
 -1      1696 1.07606E-02-1.32192E-03-4.25633E-14
 -1      1697 1.05688E-02-1.21498E-03-4.21449E-14
 -1      1698 1.11764E-02-1.53145E-03-4.35098E-14
 -1      1699 1.09852E-02-1.43923E-03-4.30675E-14
 -1      1700 1.15745E-02-1.67651E-03-4.44547E-14
 -1      1701 1.13939E-02-1.61937E-03-4.40230E-14
 -1      1702 1.19690E-02-1.73079E-03-4.54088E-14
 -1      1703 1.17863E-02-1.71837E-03-4.49684E-14
 -1      1704 1.23777E-02-1.68111E-03-4.63824E-14
 -1      1705 1.21867E-02-1.72001E-03-4.59474E-14
 -1      1706 1.27957E-02-1.53873E-03-4.72187E-14
 -1      1707 1.26069E-02-1.61228E-03-4.68481E-14
 -1      1708 1.31951E-02-1.34555E-03-4.79699E-14
 -1      1709 1.30089E-02-1.43650E-03-4.76622E-14
 -1      1710 1.35815E-02-1.16318E-03-4.84700E-14
 -1      1711 1.34156E-02-1.24807E-03-4.82443E-14
 -1      1712 1.38770E-02-1.00982E-03-4.87601E-14
 -1      1713 1.37543E-02-1.07811E-03-4.86449E-14
 -1      1714 1.40619E-02-8.85181E-04-4.88818E-14
 -1      1715 1.39901E-02-9.38967E-04-4.88484E-14
 -1      1716 1.41277E-02-7.77230E-04-4.88109E-14
 -1      1717 1.41135E-02-8.25924E-04-4.88675E-14
 -1      1718 1.33311E-02-3.68759E-04-4.74073E-14
 -1      1719 1.41269E-02-7.58961E-04-4.91640E-14
 -1      1720 1.40966E-02-6.79722E-04-5.94039E-14
 -1      1721 1.40115E-02-6.32786E-04-5.87101E-14
 -1      1722 1.39926E-02-6.82122E-04-4.88633E-14
 -1      1723 1.37068E-02-5.57250E-04-4.82430E-14
 -1      1724 1.29103E-02-1.52497E-04-4.64989E-14
 -1      1725 1.24924E-02 7.14778E-05-4.54929E-14
 -1      1726 1.20741E-02 2.67349E-04-4.43929E-14
 -1      1727 1.17037E-02 3.84957E-04-4.32688E-14
 -1      1728 1.13445E-02 3.91957E-04-4.22031E-14
 -1      1729 1.09759E-02 3.04191E-04-4.11665E-14
 -1      1730 1.05970E-02 1.46628E-04-4.02907E-14
 -1      1731 1.02029E-02-2.22734E-05-3.96912E-14
 -1      1732 9.85706E-03-1.74877E-04-3.92305E-14
 -1      1733 9.57870E-03-2.92435E-04-3.89691E-14
 -1      1734 9.40431E-03-3.79367E-04-3.88943E-14
 -1      1735 9.37423E-03-4.47760E-04-3.90714E-14
 -1      1736 9.50243E-03-5.29128E-04-3.94286E-14
 -1      1737 9.76159E-03-6.52778E-04-4.00081E-14
 -1      1738 1.01224E-02-8.51993E-04-4.08136E-14
 -1      1739 1.05354E-02-1.09480E-03-4.17063E-14
 -1      1740 1.09505E-02-1.36067E-03-4.27203E-14
 -1      1741 1.13443E-02-1.58360E-03-4.37392E-14
 -1      1742 1.17095E-02-1.72468E-03-4.47689E-14
 -1      1743 1.20717E-02-1.75382E-03-4.58236E-14
 -1      1744 1.24433E-02-1.65744E-03-4.68307E-14
 -1      1745 1.28416E-02-1.46864E-03-4.77427E-14
 -1      1746 1.32454E-02-1.25324E-03-4.84610E-14
 -1      1747 1.36292E-02-1.06896E-03-4.89104E-14
 -1      1748 1.39202E-02-9.30723E-04-4.91769E-14
 -1      1749 1.40932E-02-8.34351E-04-4.92536E-14
 -1      1750 2.85253E-04-1.76229E-04-4.38695E-17
 -1      1751 3.32192E-04-1.16767E-04-9.88521E-17
 -1      1752 3.36333E-04-1.33012E-04-9.59519E-17
 -1      1753 3.42217E-04-1.52001E-04-9.15609E-17
 -1      1754 3.51773E-04-1.74004E-04-8.49066E-17
 -1      1755 4.58342E-04-1.88067E-04-1.39957E-16
 -1      1756 3.24565E-04-6.53721E-05-1.00573E-16
 -1      1757 3.25706E-04-7.66706E-05-1.01210E-16
 -1      1758 3.23067E-04-4.38829E-05-9.82016E-17
 -1      1759 3.23722E-04-5.43712E-05-9.95975E-17
 -1      1760 4.36507E-04-7.92760E-05-1.47560E-16
 -1      1761 3.22284E-04-2.37679E-05-9.47593E-17
 -1      1762 3.22615E-04-3.36800E-05-9.66431E-17
 -1      1763 4.34505E-04-5.13103E-05-1.43603E-16
 -1      1764 3.21991E-04-4.33618E-06-8.98668E-17
 -1      1765 3.22087E-04-1.39872E-05-9.26180E-17
 -1      1766 4.33486E-04-2.49203E-05-1.38127E-16
 -1      1767 3.22113E-04 1.49793E-05-8.36191E-17
 -1      1768 3.21999E-04 5.31806E-06-8.69259E-17
 -1      1769 4.33190E-04 7.57704E-07-1.30606E-16
 -1      1770 3.22678E-04 3.47260E-05-7.65176E-17
 -1      1771 3.22327E-04 2.47812E-05-8.03665E-17
 -1      1772 4.33545E-04 2.64646E-05-1.21498E-16
 -1      1773 3.23806E-04 5.51615E-05-6.80066E-17
 -1      1774 3.23144E-04 4.47998E-05-7.25602E-17
 -1      1775 4.34621E-04 5.27173E-05-1.10927E-16
 -1      1776 3.25860E-04 7.78111E-05-5.72188E-17
 -1      1777 3.24664E-04 6.62314E-05-6.30870E-17
 -1      1778 4.36674E-04 8.05953E-05-9.80390E-17
 -1      1779 3.29552E-04 1.03643E-04-4.30970E-17
 -1      1780 3.27397E-04 9.02991E-05-5.08762E-17
 -1      1781 4.40315E-04 1.11567E-04-8.20199E-17
 -1      1782 3.36636E-04 1.35126E-04-2.50451E-17
 -1      1783 3.32464E-04 1.18599E-04-3.49520E-17
 -1      1784 4.46822E-04 1.47340E-04-6.15285E-17
 -1      1785 3.52268E-04 1.77569E-04-1.32815E-18
 -1      1786 3.42795E-04 1.54730E-04-1.43386E-17
 -1      1787 4.59295E-04 1.91433E-04-3.54128E-17
 -1      1788 4.07690E-04 2.33675E-04 1.84721E-17
 -1      1789 3.78078E-04 2.02660E-04 6.87113E-18
 -1      1790 4.95856E-04 2.44010E-04-1.04490E-17
 -1      1791 5.58547E-04 3.02508E-04 1.26581E-17
 -1      1792 3.40035E-04-1.90904E-04-6.75187E-17
 -1      1793 8.53634E-04 4.07122E-04-3.15503E-17
 -1      1794 7.07194E-04 3.59359E-04-3.79471E-18
 -1      1795 6.73445E-04 3.28798E-04-1.85534E-17
 -1      1796 4.58971E-04-2.36711E-04-1.12052E-16
 -1      1797 8.07263E-04-3.74110E-04-2.84386E-16
 -1      1798 9.52535E-04-4.15295E-04-3.90042E-16
 -1      1799 1.09538E-03-4.49983E-04-5.13587E-16
 -1      1800 1.23706E-03-4.78878E-04-6.55021E-16
 -1      1801 1.00396E-03-3.97910E-04-4.63795E-16
 -1      1802 1.37747E-03-5.03363E-04-8.14019E-16
 -1      1803 1.51716E-03-5.23736E-04-9.91191E-16
 -1      1804 1.28966E-03-4.55873E-04-7.47056E-16
 -1      1805 1.65634E-03-5.40916E-04-1.18574E-15
 -1      1806 1.79518E-03-5.55142E-04-1.39756E-15
 -1      1807 1.57208E-03-4.96821E-04-1.10002E-15
 -1      1808 1.93391E-03-5.67021E-04-1.62701E-15
 -1      1809 2.07257E-03-5.76756E-04-1.87418E-15
 -1      1810 1.85271E-03-5.25367E-04-1.52234E-15
 -1      1811 2.21133E-03-5.84767E-04-2.13920E-15
 -1      1812 2.35017E-03-5.91221E-04-2.42078E-15
 -1      1813 2.13262E-03-5.44848E-04-2.01403E-15
 -1      1814 2.48922E-03-5.96417E-04-2.71899E-15
 -1      1815 2.62844E-03-6.00493E-04-3.03501E-15
 -1      1816 2.41249E-03-5.57715E-04-2.57354E-15
 -1      1817 2.76791E-03-6.03660E-04-3.36786E-15
 -1      1818 2.90758E-03-6.06031E-04-3.71677E-15
 -1      1819 2.69273E-03-5.65796E-04-3.20029E-15
 -1      1820 3.04752E-03-6.07756E-04-4.08245E-15
 -1      1821 3.18767E-03-6.08923E-04-4.46354E-15
 -1      1822 2.97353E-03-5.70457E-04-3.89360E-15
 -1      1823 3.32807E-03-6.09636E-04-4.86133E-15
 -1      1824 3.46868E-03-6.09963E-04-5.27521E-15
 -1      1825 3.25500E-03-5.72707E-04-4.65143E-15
 -1      1826 3.61656E-03-6.09967E-04-5.72552E-15
 -1      1827 3.76465E-03-6.09680E-04-6.19406E-15
 -1      1828 3.54419E-03-5.73280E-04-5.49361E-15
 -1      1829 3.90590E-03-6.09185E-04-6.65704E-15
 -1      1830 4.04731E-03-6.08506E-04-7.13626E-15
 -1      1831 3.83405E-03-5.72649E-04-6.40277E-15
 -1      1832 4.18891E-03-6.07669E-04-7.63125E-15
 -1      1833 4.33065E-03-6.06697E-04-8.14167E-15
 -1      1834 4.11743E-03-5.71229E-04-7.35440E-15
 -1      1835 4.47256E-03-6.05600E-04-8.66826E-15
 -1      1836 4.61460E-03-6.04392E-04-9.21089E-15
 -1      1837 4.40135E-03-5.69230E-04-8.36928E-15
 -1      1838 4.75678E-03-6.03071E-04-9.76977E-15
 -1      1839 4.89911E-03-6.01645E-04-1.03447E-14
 -1      1840 4.68575E-03-5.66763E-04-9.44847E-15
 -1      1841 5.04157E-03-6.00102E-04-1.09348E-14
 -1      1842 5.18416E-03-5.98445E-04-1.15406E-14
 -1      1843 4.97063E-03-5.63862E-04-1.05902E-14
 -1      1844 5.32691E-03-5.96655E-04-1.21617E-14
 -1      1845 5.46980E-03-5.94732E-04-1.27979E-14
 -1      1846 5.25599E-03-5.60498E-04-1.17952E-14
 -1      1847 5.61287E-03-5.92651E-04-1.34499E-14
 -1      1848 5.75611E-03-5.90412E-04-1.41141E-14
 -1      1849 5.54186E-03-5.56597E-04-1.30613E-14
 -1      1850 5.89956E-03-5.87984E-04-1.47919E-14
 -1      1851 6.04323E-03-5.85369E-04-1.54826E-14
 -1      1852 5.82834E-03-5.52054E-04-1.43843E-14
 -1      1853 6.18716E-03-5.82531E-04-1.61864E-14
 -1      1854 6.33139E-03-5.79478E-04-1.69025E-14
 -1      1855 6.11556E-03-5.46742E-04-1.57592E-14
 -1      1856 6.47594E-03-5.76173E-04-1.76306E-14
 -1      1857 6.62089E-03-5.72631E-04-1.83719E-14
 -1      1858 6.40371E-03-5.40535E-04-1.71855E-14
 -1      1859 6.76626E-03-5.68818E-04-1.91256E-14
 -1      1860 6.91217E-03-5.64762E-04-1.98913E-14
 -1      1861 6.69305E-03-5.33322E-04-1.86616E-14
 -1      1862 7.05863E-03-5.60439E-04-2.06677E-14
 -1      1863 7.20580E-03-5.55898E-04-2.14552E-14
 -1      1864 6.98393E-03-5.25048E-04-2.01857E-14
 -1      1865 7.36110E-03-5.50891E-04-2.22932E-14
 -1      1866 7.51744E-03-5.45738E-04-2.31413E-14
 -1      1867 7.28415E-03-5.15519E-04-2.17953E-14
 -1      1868 7.66728E-03-5.40731E-04-2.39595E-14
 -1      1869 7.81839E-03-5.35774E-04-2.47875E-14
 -1      1870 7.58703E-03-5.05197E-04-2.34461E-14
 -1      1871 7.97067E-03-5.30984E-04-2.56272E-14
 -1      1872 8.12456E-03-5.26584E-04-2.64767E-14
 -1      1873 7.88579E-03-4.94970E-04-2.50984E-14
 -1      1874 8.27994E-03-5.22841E-04-2.73365E-14
 -1      1875 8.43736E-03-5.20104E-04-2.82056E-14
 -1      1876 8.18856E-03-4.85781E-04-2.67902E-14
 -1      1877 8.59663E-03-5.18891E-04-2.90834E-14
 -1      1878 8.75842E-03-5.19754E-04-2.99697E-14
 -1      1879 8.49631E-03-4.79790E-04-2.85214E-14
 -1      1880 8.92251E-03-5.23604E-04-3.08645E-14
 -1      1881 9.08957E-03-5.31328E-04-3.17651E-14
 -1      1882 8.81020E-03-4.80741E-04-3.02884E-14
 -1      1883 9.25954E-03-5.44382E-04-3.26721E-14
 -1      1884 9.43286E-03-5.64185E-04-3.35834E-14
 -1      1885 9.13182E-03-4.94852E-04-3.20837E-14
 -1      1886 9.60992E-03-5.92791E-04-3.44991E-14
 -1      1887 9.79055E-03-6.32405E-04-3.54211E-14
 -1      1888 9.46366E-03-5.31974E-04-3.39013E-14
 -1      1889 9.97608E-03-6.85368E-04-3.63487E-14
 -1      1890 1.01649E-02-7.54697E-04-3.72804E-14
 -1      1891 9.80978E-03-6.06680E-04-3.57371E-14
 -1      1892 1.03599E-02-8.41847E-04-3.82165E-14
 -1      1893 1.05569E-02-9.49618E-04-3.91562E-14
 -1      1894 1.01764E-02-7.38396E-04-3.75931E-14
 -1      1895 1.07600E-02-1.07647E-03-4.01004E-14
 -1      1896 1.09619E-02-1.22126E-03-4.10452E-14
 -1      1897 1.05691E-02-9.46762E-04-3.94663E-14
 -1      1898 1.11653E-02-1.37695E-03-4.19904E-14
 -1      1899 1.13635E-02-1.53227E-03-4.29413E-14
 -1      1900 1.09850E-02-1.23597E-03-4.13506E-14
 -1      1901 1.15362E-02-1.66211E-03-4.37972E-14
 -1      1902 1.17055E-02-1.76722E-03-4.46571E-14
 -1      1903 1.13823E-02-1.54355E-03-4.31459E-14
 -1      1904 1.18746E-02-1.84360E-03-4.55664E-14
 -1      1905 1.20466E-02-1.87441E-03-4.64765E-14
 -1      1906 1.17501E-02-1.77603E-03-4.49042E-14
 -1      1907 1.22237E-02-1.85764E-03-4.74374E-14
 -1      1908 1.24103E-02-1.80110E-03-4.83992E-14
 -1      1909 1.21236E-02-1.83982E-03-4.67662E-14
 -1      1910 1.26011E-02-1.71509E-03-4.93609E-14
 -1      1911 1.27971E-02-1.61822E-03-5.03219E-14
 -1      1912 1.25193E-02-1.71180E-03-4.86841E-14
 -1      1913 1.29973E-02-1.52227E-03-5.12825E-14
 -1      1914 1.31947E-02-1.43715E-03-5.22377E-14
 -1      1915 1.29333E-02-1.50741E-03-5.06059E-14
 -1      1916 1.33920E-02-1.36932E-03-5.31919E-14
 -1      1917 1.35829E-02-1.31924E-03-5.41438E-14
 -1      1918 1.33409E-02-1.33869E-03-5.25196E-14
 -1      1919 1.37708E-02-1.28801E-03-5.50901E-14
 -1      1920 1.39520E-02-1.27258E-03-5.60293E-14
 -1      1921 1.37229E-02-1.24593E-03-5.44196E-14
 -1      1922 1.41292E-02-1.27112E-03-5.69640E-14
 -1      1923 1.43009E-02-1.28042E-03-5.78953E-14
 -1      1924 1.40773E-02-1.22201E-03-5.63012E-14
 -1      1925 1.44685E-02-1.29772E-03-5.88214E-14
 -1      1926 1.46316E-02-1.32054E-03-5.97414E-14
 -1      1927 1.44099E-02-1.24524E-03-5.81644E-14
 -1      1928 1.47908E-02-1.34625E-03-6.06552E-14
 -1      1929 1.49465E-02-1.37292E-03-6.15634E-14
 -1      1930 1.47265E-02-1.29379E-03-6.00084E-14
 -1      1931 1.50986E-02-1.39852E-03-6.24618E-14
 -1      1932 1.52480E-02-1.42139E-03-6.33581E-14
 -1      1933 1.50307E-02-1.34933E-03-6.18248E-14
 -1      1934 1.54221E-02-1.44561E-03-6.44299E-14
 -1      1935 1.35845E-03 5.12155E-04-2.48919E-16
 -1      1936 1.21841E-03 4.87087E-04-1.74340E-16
 -1      1937 1.63633E-03 5.51051E-04-4.38899E-16
 -1      1938 1.49764E-03 5.33381E-04-3.37255E-16
 -1      1939 1.41117E-03 4.87403E-04-3.40358E-16
 -1      1940 1.91296E-03 5.78211E-04-6.85175E-16
 -1      1941 1.77472E-03 5.65919E-04-5.54569E-16
 -1      1942 1.69182E-03 5.22945E-04-5.53851E-16
 -1      1943 2.18952E-03 5.96788E-04-9.90175E-16
 -1      1944 2.05122E-03 5.88436E-04-8.30350E-16
 -1      1945 1.97123E-03 5.47601E-04-8.24265E-16
 -1      1946 2.46668E-03 6.09099E-04-1.35590E-15
 -1      1947 2.32802E-03 6.03622E-04-1.16556E-15
 -1      1948 2.25035E-03 5.64291E-04-1.15413E-15
 -1      1949 2.74474E-03 6.16871E-04-1.78288E-15
 -1      1950 2.60560E-03 6.13472E-04-1.56194E-15
 -1      1951 2.52973E-03 5.75183E-04-1.54473E-15
 -1      1952 3.02383E-03 6.21393E-04-2.27184E-15
 -1      1953 2.88417E-03 6.19477E-04-2.01948E-15
 -1      1954 2.80968E-03 5.81896E-04-1.99611E-15
 -1      1955 3.30396E-03 6.23621E-04-2.82348E-15
 -1      1956 3.16378E-03 6.22748E-04-2.53985E-15
 -1      1957 3.09034E-03 5.85636E-04-2.50954E-15
 -1      1958 3.58507E-03 6.24250E-04-3.43780E-15
 -1      1959 3.44441E-03 6.24102E-04-3.12252E-15
 -1      1960 3.37176E-03 5.87292E-04-3.08510E-15
 -1      1961 3.86706E-03 6.23771E-04-4.11468E-15
 -1      1962 3.72596E-03 6.24125E-04-3.76873E-15
 -1      1963 3.65390E-03 5.87504E-04-3.72356E-15
 -1      1964 4.14982E-03 6.22517E-04-4.85637E-15
 -1      1965 4.00835E-03 6.23224E-04-4.47761E-15
 -1      1966 3.93671E-03 5.86719E-04-4.42487E-15
 -1      1967 4.43328E-03 6.20698E-04-5.65987E-15
 -1      1968 4.29148E-03 6.21667E-04-5.24999E-15
 -1      1969 4.22014E-03 5.85236E-04-5.18850E-15
 -1      1970 4.71736E-03 6.18431E-04-6.52963E-15
 -1      1971 4.57525E-03 6.19614E-04-6.08695E-15
 -1      1972 4.50412E-03 5.83236E-04-6.01605E-15
 -1      1973 5.00201E-03 6.15766E-04-7.46138E-15
 -1      1974 4.85962E-03 6.17145E-04-6.98806E-15
 -1      1975 4.78861E-03 5.80814E-04-6.90686E-15
 -1      1976 5.28723E-03 6.12705E-04-8.46030E-15
 -1      1977 5.14455E-03 6.14284E-04-7.95311E-15
 -1      1978 5.07359E-03 5.78000E-04-7.86205E-15
 -1      1979 5.57306E-03 6.09223E-04-9.51966E-15
 -1      1980 5.43007E-03 6.11016E-04-8.98195E-15
 -1      1981 5.35907E-03 5.74784E-04-8.88189E-15
 -1      1982 5.85956E-03 6.05293E-04-1.06475E-14
 -1      1983 5.71622E-03 6.07313E-04-1.00750E-14
 -1      1984 5.64509E-03 5.71133E-04-9.96561E-15
 -1      1985 6.14687E-03 6.00906E-04-1.18475E-14
 -1      1986 6.00311E-03 6.03153E-04-1.12381E-14
 -1      1987 5.93173E-03 5.67017E-04-1.11177E-14
 -1      1988 6.43516E-03 5.96104E-04-1.31157E-14
 -1      1989 6.29088E-03 5.98550E-04-1.24726E-14
 -1      1990 6.21911E-03 5.62429E-04-1.23390E-14
 -1      1991 6.72464E-03 5.91011E-04-1.44544E-14
 -1      1992 6.57973E-03 5.93580E-04-1.37771E-14
 -1      1993 6.50739E-03 5.57420E-04-1.36287E-14
 -1      1994 7.01555E-03 5.85881E-04-1.58597E-14
 -1      1995 6.86989E-03 5.88428E-04-1.51487E-14
 -1      1996 6.79675E-03 5.52134E-04-1.49860E-14
 -1      1997 7.30817E-03 5.81145E-04-1.73237E-14
 -1      1998 7.16162E-03 5.83431E-04-1.65836E-14
 -1      1999 7.08743E-03 5.46856E-04-1.64062E-14
 -1      2000 7.60274E-03 5.77463E-04-1.88483E-14
 -1      2001 7.45519E-03 5.79127E-04-1.80794E-14
 -1      2002 7.37967E-03 5.42062E-04-1.78862E-14
 -1      2003 7.89945E-03 5.75766E-04-2.04266E-14
 -1      2004 7.75082E-03 5.76307E-04-1.96314E-14
 -1      2005 7.67370E-03 5.38468E-04-1.94252E-14
 -1      2006 8.19836E-03 5.77268E-04-2.20513E-14
 -1      2007 8.04864E-03 5.76044E-04-2.12323E-14
 -1      2008 7.96974E-03 5.37075E-04-2.10143E-14
 -1      2009 8.49930E-03 5.83417E-04-2.37200E-14
 -1      2010 8.34862E-03 5.79682E-04-2.28813E-14
 -1      2011 8.26788E-03 5.39175E-04-2.26490E-14
 -1      2012 8.80181E-03 5.95738E-04-2.54276E-14
 -1      2013 8.65044E-03 5.88733E-04-2.45692E-14
 -1      2014 8.56807E-03 5.46282E-04-2.43266E-14
 -1      2015 9.10500E-03 6.15505E-04-2.71635E-14
 -1      2016 8.95344E-03 6.04649E-04-2.62918E-14
 -1      2017 8.87001E-03 5.59958E-04-2.60404E-14
 -1      2018 9.40749E-03 6.43209E-04-2.89244E-14
 -1      2019 9.25650E-03 6.28391E-04-2.80407E-14
 -1      2020 9.17304E-03 5.81440E-04-2.77824E-14
 -1      2021 9.70750E-03 6.77821E-04-3.07038E-14
 -1      2022 9.55801E-03 6.59791E-04-2.98125E-14
 -1      2023 9.47604E-03 6.11061E-04-2.95484E-14
 -1      2024 1.00029E-02 7.16005E-04-3.24932E-14
 -1      2025 9.85598E-03 6.96762E-04-3.15974E-14
 -1      2026 9.77741E-03 6.47455E-04-3.13320E-14
 -1      2027 1.02918E-02 7.51601E-04-3.42953E-14
 -1      2028 1.01483E-02 7.34588E-04-3.33922E-14
 -1      2029 1.00752E-02 6.86726E-04-3.31235E-14
 -1      2030 1.05731E-02 7.75864E-04-3.61080E-14
 -1      2031 1.04334E-02 7.65723E-04-3.52007E-14
 -1      2032 1.03674E-02 7.21961E-04-3.49282E-14
 -1      2033 1.08469E-02 7.78889E-04-3.79268E-14
 -1      2034 1.07107E-02 7.80595E-04-3.70165E-14
 -1      2035 1.06529E-02 7.43644E-04-3.67411E-14
 -1      2036 1.11152E-02 7.52092E-04-3.97561E-14
 -1      2037 1.09814E-02 7.69604E-04-3.88405E-14
 -1      2038 1.09319E-02 7.41413E-04-3.85616E-14
 -1      2039 1.13816E-02 6.90894E-04-4.15919E-14
 -1      2040 1.12483E-02 7.25871E-04-4.06737E-14
 -1      2041 1.12066E-02 7.06924E-04-4.03909E-14
 -1      2042 1.16496E-02 5.96261E-04-4.34280E-14
 -1      2043 1.15150E-02 6.47507E-04-4.25093E-14
 -1      2044 1.14803E-02 6.36676E-04-4.22255E-14
 -1      2045 1.19221E-02 4.74204E-04-4.52669E-14
 -1      2046 1.17851E-02 5.38181E-04-4.43488E-14
 -1      2047 1.17566E-02 5.33225E-04-4.40655E-14
 -1      2048 1.22004E-02 3.33528E-04-4.71033E-14
 -1      2049 1.20605E-02 4.05653E-04-4.61856E-14
 -1      2050 1.20376E-02 4.04075E-04-4.59062E-14
 -1      2051 1.24839E-02 1.82978E-04-4.89409E-14
 -1      2052 1.23416E-02 2.59037E-04-4.80214E-14
 -1      2053 1.23237E-02 2.58822E-04-4.77468E-14
 -1      2054 1.27712E-02 2.91073E-05-5.07805E-14
 -1      2055 1.26273E-02 1.06177E-04-4.98608E-14
 -1      2056 1.26138E-02 1.06148E-04-4.95867E-14
 -1      2057 1.30602E-02-1.24593E-04-5.26087E-14
 -1      2058 1.29157E-02-4.78713E-05-5.16956E-14
 -1      2059 1.29058E-02-4.80740E-05-5.14232E-14
 -1      2060 1.33494E-02-2.77408E-04-5.44390E-14
 -1      2061 1.32049E-02-2.01086E-04-5.35246E-14
 -1      2062 1.31979E-02-2.01231E-04-5.32540E-14
 -1      2063 1.36375E-02-4.30404E-04-5.62697E-14
 -1      2064 1.34936E-02-3.53791E-04-5.53541E-14
 -1      2065 1.34886E-02-3.53375E-04-5.50845E-14
 -1      2066 1.38964E-02-5.69932E-04-5.79504E-14
 -1      2067 1.37531E-02-4.92382E-04-5.70278E-14
 -1      2068 1.37493E-02-4.91069E-04-5.67557E-14
 -1      2069 1.39803E-02-6.15420E-04-5.82740E-14
 -1      2070 1.44144E-02-8.34567E-04-5.93950E-14
 -1      2071 1.43312E-02-7.95357E-04-5.91800E-14
 -1      2072 1.42492E-02-7.55158E-04-5.89672E-14
 -1      2073 1.41686E-02-7.14435E-04-5.87591E-14
 -1      2074 1.41656E-02-7.10188E-04-5.82825E-14
 -1      2075 1.40584E-02-6.57075E-04-5.84825E-14
 -1      2076 1.45813E-02-9.08417E-04-5.98187E-14
 -1      2077 1.44974E-02-8.72217E-04-5.96035E-14
 -1      2078 1.43309E-02-7.90357E-04-5.87079E-14
 -1      2079 1.47530E-02-9.77236E-04-6.02552E-14
 -1      2080 1.46672E-02-9.43822E-04-6.00363E-14
 -1      2081 1.45008E-02-8.66908E-04-5.91358E-14
 -1      2082 1.49211E-02-1.03783E-03-6.06914E-14
 -1      2083 1.48379E-02-1.00869E-03-6.04748E-14
 -1      2084 1.46736E-02-9.38388E-04-5.95723E-14
 -1      2085 1.50773E-02-1.08910E-03-6.11285E-14
 -1      2086 1.50013E-02-1.06462E-03-6.09094E-14
 -1      2087 1.48417E-02-1.00211E-03-6.00078E-14
 -1      2088 1.52115E-02-1.13151E-03-6.15566E-14
 -1      2089 1.51477E-02-1.11121E-03-6.13443E-14
 -1      2090 1.49958E-02-1.05682E-03-6.04412E-14
 -1      2091 1.53144E-02-1.16751E-03-6.19695E-14
 -1      2092 1.52673E-02-1.14990E-03-6.17640E-14
 -1      2093 1.51251E-02-1.10292E-03-6.08663E-14
 -1      2094 1.53797E-02-1.20082E-03-6.23691E-14
 -1      2095 1.53516E-02-1.18391E-03-6.21692E-14
 -1      2096 1.52197E-02-1.14266E-03-6.12774E-14
 -1      2097 1.54102E-02-1.23779E-03-6.27750E-14
 -1      2098 1.53992E-02-1.21840E-03-6.25719E-14
 -1      2099 1.52762E-02-1.18089E-03-6.16821E-14
 -1      2100 1.54117E-02-1.28266E-03-6.31757E-14
 -1      2101 1.54139E-02-1.25886E-03-6.29730E-14
 -1      2102 1.52967E-02-1.22318E-03-6.20866E-14
 -1      2103 1.53973E-02-1.33865E-03-6.35811E-14
 -1      2104 1.54055E-02-1.30915E-03-6.33790E-14
 -1      2105 1.52899E-02-1.27380E-03-6.24937E-14
 -1      2106 1.10805E-03 4.68665E-04-1.18151E-16
 -1      2107 9.65674E-04 4.34284E-04-6.76678E-17
 -1      2108 9.33432E-04 4.04833E-04-8.60721E-17
 -1      2109 1.15825E-03 4.47958E-04-1.88489E-16
 -1      2110 1.35878E-02-5.60753E-04-4.83630E-14
 -1      2111 1.37598E-02-6.33135E-04-4.87599E-14
 -1      2112 1.27560E-02-1.41455E-04-4.65290E-14
 -1      2113 1.29576E-02-2.54387E-04-4.69973E-14
 -1      2114 1.41208E-02-7.66233E-04-4.96090E-14
 -1      2115 1.41419E-02-7.83917E-04-4.96859E-14
 -1      2116 1.31831E-02-3.62993E-04-4.74487E-14
 -1      2117 1.33806E-02-4.63144E-04-4.78902E-14
 -1      2118 3.27135E-04-8.89791E-05-1.01007E-16
 -1      2119 3.29245E-04-1.02124E-04-1.00275E-16
 -1      2120 4.46316E-04-1.45095E-04-1.47194E-16
 -1      2121 4.40002E-04-1.09937E-04-1.49024E-16
 -1      2122 1.23266E-02 1.13933E-04-4.53561E-14
 -1      2123 1.25094E-02 7.17930E-08-4.58941E-14
 -1      2124 1.19600E-02 3.04036E-04-4.42240E-14
 -1      2125 1.21360E-02 2.16672E-04-4.47886E-14
 -1      2126 1.21980E-02 1.57734E-04-4.51865E-14
 -1      2127 1.15880E-02 4.18599E-04-4.28620E-14
 -1      2128 1.17374E-02 3.87048E-04-4.34221E-14
 -1      2129 1.12903E-02 3.99048E-04-4.18484E-14
 -1      2130 1.14408E-02 4.21039E-04-4.23534E-14
 -1      2131 1.15063E-02 4.30792E-04-4.25053E-14
 -1      2132 1.09481E-02 2.85052E-04-4.07083E-14
 -1      2133 1.11105E-02 3.53237E-04-4.12398E-14
 -1      2134 1.05185E-02 8.00130E-05-3.97212E-14
 -1      2135 1.07013E-02 1.71115E-04-4.00645E-14
 -1      2136 1.01443E-02-9.32351E-05-3.91754E-14
 -1      2137 1.03184E-02-1.20434E-05-3.94303E-14
 -1      2138 9.82117E-03-2.30395E-04-3.87642E-14
 -1      2139 9.97854E-03-1.64864E-04-3.89698E-14
 -1      2140 1.00779E-02-1.39898E-04-3.87090E-14
 -1      2141 9.52554E-03-3.38157E-04-3.85232E-14
 -1      2142 9.64153E-03-2.99876E-04-3.85798E-14
 -1      2143 9.38068E-03-3.94116E-04-3.84839E-14
 -1      2144 9.43738E-03-3.71299E-04-3.85034E-14
 -1      2145 9.47797E-03-3.59809E-04-3.81134E-14
 -1      2146 9.38805E-03-4.43500E-04-3.87472E-14
 -1      2147 9.36078E-03-4.22227E-04-3.85532E-14
 -1      2148 9.55101E-03-4.99063E-04-3.90633E-14
 -1      2149 9.45137E-03-4.71152E-04-3.89047E-14
 -1      2150 9.41345E-03-4.33217E-04-3.83841E-14
 -1      2151 9.88686E-03-6.59154E-04-3.99561E-14
 -1      2152 9.72929E-03-5.78420E-04-3.95379E-14
 -1      2153 1.02619E-02-8.49852E-04-4.07247E-14
 -1      2154 1.00639E-02-7.49103E-04-4.03389E-14
 -1      2155 1.00037E-02-6.71759E-04-3.98667E-14
 -1      2156 1.07112E-02-1.13384E-03-4.17886E-14
 -1      2157 1.05123E-02-9.96762E-04-4.12812E-14
 -1      2158 1.10824E-02-1.39323E-03-4.27995E-14
 -1      2159 1.08962E-02-1.26391E-03-4.22938E-14
 -1      2160 1.08326E-02-1.17494E-03-4.18671E-14
 -1      2161 1.14728E-02-1.63629E-03-4.39702E-14
 -1      2162 1.13075E-02-1.53799E-03-4.34547E-14
 -1      2163 1.18085E-02-1.76399E-03-4.50883E-14
 -1      2164 1.16578E-02-1.71877E-03-4.45717E-14
 -1      2165 1.21337E-02-1.76449E-03-4.62103E-14
 -1      2166 1.19787E-02-1.78227E-03-4.56690E-14
 -1      2167 1.25099E-02-1.62135E-03-4.73400E-14
 -1      2168 1.23401E-02-1.70248E-03-4.68716E-14
 -1      2169 1.28842E-02-1.41052E-03-4.82510E-14
 -1      2170 1.27008E-02-1.52098E-03-4.78071E-14
 -1      2171 1.33207E-02-1.16642E-03-4.90466E-14
 -1      2172 1.31277E-02-1.26963E-03-4.87730E-14
 -1      2173 1.36922E-02-9.93484E-04-4.94299E-14
 -1      2174 1.35249E-02-1.06947E-03-4.92524E-14
 -1      2175 1.39674E-02-8.79376E-04-4.96468E-14
 -1      2176 1.38501E-02-9.26231E-04-4.95547E-14
 -1      2177 1.41261E-02-8.06566E-04-4.96940E-14
 -1      2178 1.40750E-02-8.31557E-04-4.97070E-14
 -1      2179 1.41437E-02-7.98728E-04-5.01362E-14
 -1      2180 1.39354E-02-7.00958E-04-4.91730E-14
 -1      2181 1.40450E-02-7.33804E-04-4.93983E-14
 -1      2182 1.53523E-02-1.40307E-03-6.38022E-14
 -1      2183 1.30409E-02-3.38115E-04-4.74778E-14
 -1      2184 6.07902E-04-2.98123E-04-1.76373E-16
 -1      2185 1.34636E-02-5.40469E-04-4.84021E-14
 -1      2186 1.25978E-02-8.72889E-05-4.63892E-14
 -1      2187 6.63622E-04-2.92408E-04-2.26287E-16
 -1      2188 1.39736E-02-6.11125E-04-5.77923E-14
 -1      2189 1.40942E-02-7.67966E-04-4.99160E-14
 -1      2190 1.53491E-02-1.37383E-03-6.35904E-14
 -1      2191 1.38477E-02-6.91939E-04-4.92905E-14
 -1      2192 1.52296E-02-1.33667E-03-6.27106E-14
 -1      2193 1.40335E-02-8.44610E-04-5.00837E-14
 -1      2194 1.37692E-02-9.43368E-04-4.98966E-14
 -1      2195 1.34207E-02-1.09973E-03-4.95654E-14
 -1      2196 1.30001E-02-1.33294E-03-4.88374E-14
 -1      2197 1.25927E-02-1.57582E-03-4.78480E-14
 -1      2198 1.22361E-02-1.74744E-03-4.67160E-14
 -1      2199 1.19032E-02-1.78832E-03-4.54712E-14
 -1      2200 1.12162E-02-1.45568E-03-4.30288E-14
 -1      2201 1.04169E-02-8.99663E-04-4.08050E-14
 -1      2202 9.63903E-03-5.10252E-04-3.90133E-14
 -1      2203 9.56160E-03-4.63028E-04-3.84890E-14
 -1      2204 9.73412E-03-5.25656E-04-3.89598E-14
 -1      2205 9.35979E-03-4.01791E-04-3.81609E-14
 -1      2206 9.73614E-03-2.75382E-04-3.83180E-14
 -1      2207 1.04224E-02 2.32633E-05-3.92040E-14
 -1      2208 1.12141E-02 3.91069E-04-4.13896E-14
 -1      2209 1.18294E-02 3.53065E-04-4.38141E-14
 -1      2210 1.08320E-02 2.33927E-04-4.01359E-14
 -1      2211 1.15880E-02-1.68693E-03-4.42882E-14
 -1      2212 5.47775E-04-5.53005E-05-2.02109E-16
 -1      2213 5.48812E-04-7.20165E-05-2.05429E-16
 -1      2214 5.50233E-04-8.93389E-05-2.07936E-16
 -1      2215 5.52108E-04-1.07313E-04-2.10010E-16
 -1      2216 6.65277E-04-9.54966E-05-2.79778E-16
 -1      2217 5.46392E-04 8.85709E-06-1.82837E-16
 -1      2218 5.46372E-04-6.98089E-06-1.88678E-16
 -1      2219 5.47149E-04 4.08689E-05-1.70098E-16
 -1      2220 5.46648E-04 2.47940E-05-1.76766E-16
 -1      2221 6.61328E-04 1.99319E-05-2.44488E-16
 -1      2222 5.48977E-04 7.34912E-05-1.55027E-16
 -1      2223 5.47913E-04 5.69985E-05-1.62996E-16
 -1      2224 6.62656E-04 5.77887E-05-2.27262E-16
 -1      2225 5.52373E-04 1.08965E-04-1.36528E-16
 -1      2226 5.50447E-04 9.08891E-05-1.46259E-16
 -1      2227 6.65520E-04 9.72576E-05-2.06635E-16
 -1      2228 5.58249E-04 1.48306E-04-1.13773E-16
 -1      2229 5.54935E-04 1.28076E-04-1.25849E-16
 -1      2230 6.70617E-04 1.40027E-04-1.81672E-16
 -1      2231 5.68612E-04 1.93888E-04-8.51370E-17
 -1      2232 5.62716E-04 1.70191E-04-1.00316E-16
 -1      2233 6.79252E-04 1.87577E-04-1.50962E-16
 -1      2234 5.88047E-04 2.49503E-04-4.93990E-17
 -1      2235 5.76908E-04 2.20244E-04-6.84674E-17
 -1      2236 6.94249E-04 2.42503E-04-1.13245E-16
 -1      2237 6.42180E-04 3.01303E-04-2.97207E-17
 -1      2238 6.14452E-04 2.73804E-04-4.11590E-17
 -1      2239 7.31552E-04 2.97809E-04-8.26975E-17
 -1      2240 7.88628E-04 3.49700E-04-6.15014E-17
 -1      2241 9.15204E-04-3.46377E-04-4.14409E-16
 -1      2242 1.05930E-03-3.79691E-04-5.39309E-16
 -1      2243 1.33447E-02-5.18874E-04-4.84915E-14
 -1      2244 1.35411E-02-6.04352E-04-4.89655E-14
 -1      2245 1.29494E-02-3.20270E-04-4.75845E-14
 -1      2246 1.31496E-02-4.24973E-04-4.80375E-14
 -1      2247 1.32546E-02-4.92561E-04-4.85972E-14
 -1      2248 1.20256E-03-4.08076E-04-6.80865E-16
 -1      2249 1.34537E-03-4.31949E-04-8.39931E-16
 -1      2250 1.11699E-03-3.60506E-04-6.16139E-16
 -1      2251 1.48755E-03-4.52166E-04-1.01609E-15
 -1      2252 1.62933E-03-4.69002E-04-1.20931E-15
 -1      2253 1.40332E-03-4.07272E-04-9.33864E-16
 -1      2254 1.77075E-03-4.83130E-04-1.41988E-15
 -1      2255 1.91193E-03-4.94766E-04-1.64709E-15
 -1      2256 1.68845E-03-4.40502E-04-1.31905E-15
 -1      2257 2.05296E-03-5.04402E-04-1.89096E-15
 -1      2258 2.19388E-03-5.12214E-04-2.15270E-15
 -1      2259 1.97264E-03-4.63540E-04-1.77121E-15
 -1      2260 2.33478E-03-5.18563E-04-2.43069E-15
 -1      2261 2.47566E-03-5.23591E-04-2.72475E-15
 -1      2262 2.25627E-03-4.79021E-04-2.28971E-15
 -1      2263 2.61661E-03-5.27560E-04-3.03604E-15
 -1      2264 2.75760E-03-5.30584E-04-3.36394E-15
 -1      2265 2.53968E-03-4.88979E-04-2.87502E-15
 -1      2266 2.89870E-03-5.32855E-04-3.70796E-15
 -1      2267 3.03988E-03-5.34460E-04-4.06839E-15
 -1      2268 2.82310E-03-4.94960E-04-3.52531E-15
 -1      2269 3.18118E-03-5.35536E-04-4.44455E-15
 -1      2270 3.32258E-03-5.36150E-04-4.83672E-15
 -1      2271 3.10667E-03-4.98120E-04-4.24068E-15
 -1      2272 3.47119E-03-5.36403E-04-5.26497E-15
 -1      2273 3.61991E-03-5.36309E-04-5.71068E-15
 -1      2274 3.39758E-03-4.99326E-04-5.03943E-15
 -1      2275 3.76167E-03-5.35965E-04-6.15133E-15
 -1      2276 3.90353E-03-5.35406E-04-6.60843E-15
 -1      2277 3.68876E-03-4.99120E-04-5.90385E-15
 -1      2278 4.04551E-03-5.34673E-04-7.08120E-15
 -1      2279 4.18758E-03-5.33788E-04-7.56983E-15
 -1      2280 3.97314E-03-4.97990E-04-6.81136E-15
 -1      2281 4.32975E-03-5.32771E-04-8.07422E-15
 -1      2282 4.47202E-03-5.31637E-04-8.59387E-15
 -1      2283 4.25778E-03-4.96214E-04-7.78219E-15
 -1      2284 4.61439E-03-5.30391E-04-9.13028E-15
 -1      2285 4.75685E-03-5.29041E-04-9.68270E-15
 -1      2286 4.54270E-03-4.93945E-04-8.81615E-15
 -1      2287 4.89940E-03-5.27581E-04-1.02504E-14
 -1      2288 5.04205E-03-5.26013E-04-1.08334E-14
 -1      2289 4.82789E-03-4.91249E-04-9.91381E-15
 -1      2290 5.18479E-03-5.24323E-04-1.14330E-14
 -1      2291 5.32764E-03-5.22511E-04-1.20468E-14
 -1      2292 5.11336E-03-4.88124E-04-1.10739E-14
 -1      2293 5.47059E-03-5.20554E-04-1.26764E-14
 -1      2294 5.61367E-03-5.18449E-04-1.33212E-14
 -1      2295 5.39911E-03-4.84513E-04-1.22965E-14
 -1      2296 5.75686E-03-5.16171E-04-1.39795E-14
 -1      2297 5.90020E-03-5.13715E-04-1.46511E-14
 -1      2298 5.68519E-03-4.80324E-04-1.35773E-14
 -1      2299 6.04369E-03-5.11051E-04-1.53349E-14
 -1      2300 6.18736E-03-5.08178E-04-1.60329E-14
 -1      2301 5.97165E-03-4.75441E-04-1.49145E-14
 -1      2302 6.33120E-03-5.05064E-04-1.67437E-14
 -1      2303 6.47527E-03-5.01713E-04-1.74661E-14
 -1      2304 6.25856E-03-4.69735E-04-1.63037E-14
 -1      2305 6.61956E-03-4.98095E-04-1.82017E-14
 -1      2306 6.76415E-03-4.94221E-04-1.89488E-14
 -1      2307 6.54601E-03-4.63092E-04-1.77445E-14
 -1      2308 6.90899E-03-4.90072E-04-1.97076E-14
 -1      2309 7.05421E-03-4.85669E-04-2.04782E-14
 -1      2310 6.83409E-03-4.55432E-04-1.92322E-14
 -1      2311 7.20704E-03-4.80774E-04-2.12998E-14
 -1      2312 7.36037E-03-4.75649E-04-2.21326E-14
 -1      2313 7.13014E-03-4.46526E-04-2.08070E-14
 -1      2314 7.50680E-03-4.70594E-04-2.29361E-14
 -1      2315 7.65380E-03-4.65445E-04-2.37488E-14
 -1      2316 7.42706E-03-4.36715E-04-2.24282E-14
 -1      2317 7.80124E-03-4.60310E-04-2.45722E-14
 -1      2318 7.94939E-03-4.55308E-04-2.54057E-14
 -1      2319 7.71764E-03-4.26684E-04-2.40491E-14
 -1      2320 8.09805E-03-4.50665E-04-2.62475E-14
 -1      2321 8.24755E-03-4.46574E-04-2.71008E-14
 -1      2322 8.00913E-03-4.17025E-04-2.57085E-14
 -1      2323 8.39764E-03-4.43445E-04-2.79642E-14
 -1      2324 8.54877E-03-4.41599E-04-2.88350E-14
 -1      2325 8.30150E-03-4.09214E-04-2.74076E-14
 -1      2326 8.70064E-03-4.41713E-04-2.97147E-14
 -1      2327 8.85382E-03-4.44342E-04-3.06031E-14
 -1      2328 8.59483E-03-4.05747E-04-2.91454E-14
 -1      2329 9.00810E-03-4.50507E-04-3.14986E-14
 -1      2330 9.16420E-03-4.61198E-04-3.23994E-14
 -1      2331 8.88955E-03-4.10640E-04-3.09153E-14
 -1      2332 9.32227E-03-4.77785E-04-3.33051E-14
 -1      2333 9.48310E-03-5.02067E-04-3.42154E-14
 -1      2334 9.18723E-03-4.30134E-04-3.27111E-14
 -1      2335 9.64772E-03-5.35547E-04-3.51299E-14
 -1      2336 9.81681E-03-5.81464E-04-3.60505E-14
 -1      2337 9.49205E-03-4.73682E-04-3.45266E-14
 -1      2338 9.99311E-03-6.40931E-04-3.69758E-14
 -1      2339 1.01762E-02-7.19536E-04-3.79043E-14
 -1      2340 9.81288E-03-5.55393E-04-3.63605E-14
 -1      2341 1.03713E-02-8.16493E-04-3.88360E-14
 -1      2342 1.05733E-02-9.38167E-04-3.97732E-14
 -1      2343 1.01665E-02-6.96292E-04-3.82123E-14
 -1      2344 1.12353E-02-1.42654E-03-4.25815E-14
 -1      2345 1.14300E-02-1.57406E-03-4.34328E-14
 -1      2346 1.16293E-02-1.70959E-03-4.43315E-14
 -1      2347 1.18236E-02-1.79703E-03-4.52354E-14
 -1      2348 1.24280E-02-1.71627E-03-4.80398E-14
 -1      2349 1.26441E-02-1.61174E-03-4.89985E-14
 -1      2350 1.28641E-02-1.49824E-03-4.99566E-14
 -1      2351 1.30785E-02-1.39575E-03-5.09171E-14
 -1      2352 1.27990E-02-1.49489E-03-4.93108E-14
 -1      2353 1.32889E-02-1.31293E-03-5.18745E-14
 -1      2354 1.34870E-02-1.25000E-03-5.28272E-14
 -1      2355 1.32408E-02-1.28601E-03-5.12269E-14
 -1      2356 1.36774E-02-1.20962E-03-5.37773E-14
 -1      2357 1.38568E-02-1.18633E-03-5.47232E-14
 -1      2358 1.36378E-02-1.17081E-03-5.31359E-14
 -1      2359 1.40294E-02-1.17963E-03-5.56639E-14
 -1      2360 1.41951E-02-1.18466E-03-5.66015E-14
 -1      2361 1.39888E-02-1.13625E-03-5.50269E-14
 -1      2362 1.43560E-02-1.19967E-03-5.75359E-14
 -1      2363 1.45128E-02-1.22138E-03-5.84636E-14
 -1      2364 1.43090E-02-1.15435E-03-5.69041E-14
 -1      2365 1.46665E-02-1.24770E-03-5.93838E-14
 -1      2366 1.48177E-02-1.27642E-03-6.03016E-14
 -1      2367 1.46122E-02-1.20214E-03-5.87608E-14
 -1      2368 1.49531E-02-1.29316E-03-6.10577E-14
 -1      2369 1.50995E-02-1.32172E-03-6.19625E-14
 -1      2370 1.51538E-02-1.28665E-03-6.19510E-14
 -1      2371 1.48940E-02-1.24970E-03-6.04414E-14
 -1      2372 2.03097E-03 5.16180E-04-9.69073E-16
 -1      2373 1.89027E-03 5.06155E-04-8.14548E-16
 -1      2374 1.74938E-03 4.93932E-04-6.74509E-16
 -1      2375 1.60824E-03 4.79307E-04-5.49108E-16
 -1      2376 1.80867E-03 4.64244E-04-8.00534E-16
 -1      2377 1.46675E-03 4.61685E-04-4.37408E-16
 -1      2378 1.32473E-03 4.40819E-04-3.39342E-16
 -1      2379 1.52448E-03 4.35248E-04-5.39485E-16
 -1      2380 2.31219E-03 5.31096E-04-1.32357E-15
 -1      2381 2.17161E-03 5.24439E-04-1.13863E-15
 -1      2382 2.09204E-03 4.84148E-04-1.11906E-15
 -1      2383 2.59348E-03 5.40682E-04-1.73842E-15
 -1      2384 2.45282E-03 5.36467E-04-1.52305E-15
 -1      2385 2.37503E-03 4.97361E-04-1.49742E-15
 -1      2386 2.87508E-03 5.46439E-04-2.21385E-15
 -1      2387 2.73424E-03 5.43971E-04-1.96841E-15
 -1      2388 2.65795E-03 5.05716E-04-1.93659E-15
 -1      2389 3.15715E-03 5.49488E-04-2.75189E-15
 -1      2390 3.01607E-03 5.48251E-04-2.47496E-15
 -1      2391 2.94101E-03 5.10592E-04-2.43661E-15
 -1      2392 3.43973E-03 5.50649E-04-3.35124E-15
 -1      2393 3.29838E-03 5.50267E-04-3.04379E-15
 -1      2394 3.22432E-03 5.13019E-04-2.99852E-15
 -1      2395 3.72282E-03 5.50510E-04-4.01380E-15
 -1      2396 3.58122E-03 5.50716E-04-3.67470E-15
 -1      2397 3.50794E-03 5.13748E-04-3.62239E-15
 -1      2398 4.00640E-03 5.49475E-04-4.73814E-15
 -1      2399 3.86456E-03 5.50086E-04-4.36769E-15
 -1      2400 3.79190E-03 5.13312E-04-4.30768E-15
 -1      2401 4.29044E-03 5.47808E-04-5.52477E-15
 -1      2402 4.14837E-03 5.48709E-04-5.12399E-15
 -1      2403 4.07618E-03 5.12071E-04-5.05498E-15
 -1      2404 4.57490E-03 5.45662E-04-6.37543E-15
 -1      2405 4.43262E-03 5.46788E-04-5.94201E-15
 -1      2406 4.36077E-03 5.10257E-04-5.86522E-15
 -1      2407 4.85977E-03 5.43113E-04-7.28741E-15
 -1      2408 4.71729E-03 5.44435E-04-6.82374E-15
 -1      2409 4.64567E-03 5.07999E-04-6.73750E-15
 -1      2410 5.14503E-03 5.40175E-04-8.26574E-15
 -1      2411 5.00235E-03 5.41692E-04-7.76824E-15
 -1      2412 4.93086E-03 5.05351E-04-7.67194E-15
 -1      2413 5.43072E-03 5.36827E-04-9.30741E-15
 -1      2414 5.28782E-03 5.38553E-04-8.77887E-15
 -1      2415 5.21635E-03 5.02315E-04-8.67222E-15
 -1      2416 5.71686E-03 5.33030E-04-1.04146E-14
 -1      2417 5.57373E-03 5.34986E-04-9.85236E-15
 -1      2418 5.50216E-03 4.98859E-04-9.73719E-15
 -1      2419 6.00355E-03 5.28750E-04-1.15903E-14
 -1      2420 5.86013E-03 5.30950E-04-1.09932E-14
 -1      2421 5.78835E-03 4.94939E-04-1.08675E-14
 -1      2422 6.29088E-03 5.23985E-04-1.28328E-14
 -1      2423 6.14712E-03 5.26425E-04-1.22034E-14
 -1      2424 6.07497E-03 4.90521E-04-1.20652E-14
 -1      2425 6.57899E-03 5.18796E-04-1.41427E-14
 -1      2426 6.43482E-03 5.21436E-04-1.34797E-14
 -1      2427 6.36213E-03 4.85607E-04-1.33299E-14
 -1      2428 6.86808E-03 5.13346E-04-1.55194E-14
 -1      2429 6.72340E-03 5.16089E-04-1.48233E-14
 -1      2430 6.64995E-03 4.80266E-04-1.46601E-14
 -1      2431 7.15835E-03 5.07947E-04-1.69556E-14
 -1      2432 7.01305E-03 5.10615E-04-1.62298E-14
 -1      2433 6.93860E-03 4.74678E-04-1.60534E-14
 -1      2434 7.45004E-03 5.03113E-04-1.84510E-14
 -1      2435 7.30400E-03 5.05422E-04-1.76959E-14
 -1      2436 7.22830E-03 4.69178E-04-1.75066E-14
 -1      2437 7.74342E-03 4.99611E-04-2.00023E-14
 -1      2438 7.59650E-03 5.01142E-04-1.92205E-14
 -1      2439 7.51931E-03 4.64309E-04-1.90169E-14
 -1      2440 8.03873E-03 4.98499E-04-2.16024E-14
 -1      2441 7.89082E-03 4.98685E-04-2.07967E-14
 -1      2442 7.81193E-03 4.60878E-04-2.05800E-14
 -1      2443 8.33619E-03 5.01132E-04-2.32480E-14
 -1      2444 8.18720E-03 4.99260E-04-2.24197E-14
 -1      2445 8.10652E-03 4.59989E-04-2.21918E-14
 -1      2446 8.63592E-03 5.09084E-04-2.49331E-14
 -1      2447 8.48580E-03 5.04346E-04-2.40862E-14
 -1      2448 8.40346E-03 4.63047E-04-2.38466E-14
 -1      2449 8.93785E-03 5.23951E-04-2.66530E-14
 -1      2450 8.78667E-03 5.15563E-04-2.57890E-14
 -1      2451 8.70309E-03 4.71686E-04-2.55393E-14
 -1      2452 9.24155E-03 5.46960E-04-2.84014E-14
 -1      2453 9.08959E-03 5.34388E-04-2.75242E-14
 -1      2454 9.00559E-03 4.87556E-04-2.72657E-14
 -1      2455 9.54614E-03 5.78330E-04-3.01727E-14
 -1      2456 9.39390E-03 5.61638E-04-2.92842E-14
 -1      2457 9.31082E-03 5.11914E-04-2.90203E-14
 -1      2458 9.85010E-03 6.16418E-04-3.19581E-14
 -1      2459 9.69840E-03 5.96725E-04-3.10651E-14
 -1      2460 9.61801E-03 5.44940E-04-3.07957E-14
 -1      2461 1.01513E-02 6.56801E-04-3.37533E-14
 -1      2462 1.00013E-02 6.36721E-04-3.28538E-14
 -1      2463 9.92558E-03 5.84770E-04-3.25835E-14
 -1      2464 1.04477E-02 6.91758E-04-3.55594E-14
 -1      2465 1.03002E-02 6.75567E-04-3.46544E-14
 -1      2466 1.02311E-02 6.26432E-04-3.43817E-14
 -1      2467 1.07376E-02 7.10841E-04-3.73719E-14
 -1      2468 1.05934E-02 7.04004E-04-3.64647E-14
 -1      2469 1.05318E-02 6.61243E-04-3.61887E-14
 -1      2470 1.10215E-02 7.03052E-04-3.91956E-14
 -1      2471 1.08800E-02 7.10937E-04-3.82835E-14
 -1      2472 1.08261E-02 6.77567E-04-3.80031E-14
 -1      2473 1.13017E-02 6.60253E-04-4.10246E-14
 -1      2474 1.11616E-02 6.86334E-04-4.01085E-14
 -1      2475 1.11144E-02 6.63600E-04-3.98267E-14
 -1      2476 1.15822E-02 5.80220E-04-4.28605E-14
 -1      2477 1.14415E-02 6.24751E-04-4.19426E-14
 -1      2478 1.13998E-02 6.11551E-04-4.16572E-14
 -1      2479 1.18662E-02 4.67434E-04-4.47038E-14
 -1      2480 1.17235E-02 5.27400E-04-4.37812E-14
 -1      2481 1.16869E-02 5.20862E-04-4.34989E-14
 -1      2482 1.21554E-02 3.31133E-04-4.65472E-14
 -1      2483 1.20101E-02 4.01544E-04-4.56252E-14
 -1      2484 1.19788E-02 3.98385E-04-4.53412E-14
 -1      2485 1.24491E-02 1.81705E-04-4.83888E-14
 -1      2486 1.23019E-02 2.57459E-04-4.74683E-14
 -1      2487 1.22763E-02 2.55226E-04-4.71882E-14
 -1      2488 1.27454E-02 2.75782E-05-5.02323E-14
 -1      2489 1.25972E-02 1.04838E-04-4.93116E-14
 -1      2490 1.25775E-02 1.02365E-04-4.90356E-14
 -1      2491 1.30420E-02-1.26280E-04-5.20686E-14
 -1      2492 1.28939E-02-4.95479E-05-5.11517E-14
 -1      2493 1.28797E-02-5.23403E-05-5.08786E-14
 -1      2494 1.33368E-02-2.78287E-04-5.38987E-14
 -1      2495 1.31898E-02-2.02495E-04-5.29821E-14
 -1      2496 1.31803E-02-2.05060E-04-5.27133E-14
 -1      2497 1.36290E-02-4.29336E-04-5.57283E-14
 -1      2498 1.34833E-02-3.53812E-04-5.48146E-14
 -1      2499 1.34775E-02-3.55366E-04-5.45431E-14
 -1      2500 1.38577E-02-5.49768E-04-5.70340E-14
 -1      2501 1.44194E-02-8.29416E-04-5.84514E-14
 -1      2502 1.43325E-02-7.89853E-04-5.82343E-14
 -1      2503 1.42479E-02-7.49809E-04-5.80235E-14
 -1      2504 1.41645E-02-7.09194E-04-5.78123E-14
 -1      2505 1.41640E-02-7.12574E-04-5.73401E-14
 -1      2506 1.40813E-02-6.67231E-04-5.75976E-14
 -1      2507 1.39994E-02-6.25133E-04-5.73830E-14
 -1      2508 1.39960E-02-6.26651E-04-5.69147E-14
 -1      2509 1.40657E-02-7.78257E-04-5.03243E-14
 -1      2510 1.41357E-02-7.92300E-04-5.05357E-14
 -1      2511 1.45937E-02-9.04391E-04-5.88879E-14
 -1      2512 1.45068E-02-8.67788E-04-5.86699E-14
 -1      2513 1.43375E-02-7.96068E-04-5.77684E-14
 -1      2514 1.47621E-02-9.71606E-04-5.93193E-14
 -1      2515 1.46792E-02-9.39117E-04-5.91045E-14
 -1      2516 1.45136E-02-8.75014E-04-5.82021E-14
 -1      2517 1.49144E-02-1.02944E-03-5.97513E-14
 -1      2518 1.48410E-02-1.00168E-03-5.95350E-14
 -1      2519 1.46829E-02-9.45604E-04-5.86331E-14
 -1      2520 1.50388E-02-1.07821E-03-6.01734E-14
 -1      2521 1.49808E-02-1.05470E-03-5.99620E-14
 -1      2522 1.48335E-02-1.00574E-03-5.90592E-14
 -1      2523 1.51249E-02-1.12018E-03-6.05796E-14
 -1      2524 1.50868E-02-1.09947E-03-6.03772E-14
 -1      2525 1.49520E-02-1.05552E-03-5.94734E-14
 -1      2526 1.51716E-02-1.16187E-03-6.09905E-14
 -1      2527 1.51533E-02-1.14058E-03-6.07854E-14
 -1      2528 1.50301E-02-1.09911E-03-5.98849E-14
 -1      2529 1.51813E-02-1.20825E-03-6.13988E-14
 -1      2530 1.51805E-02-1.18397E-03-6.11955E-14
 -1      2531 1.50653E-02-1.14294E-03-6.02979E-14
 -1      2532 1.51658E-02-1.25957E-03-6.17774E-14
 -1      2533 1.51755E-02-1.23068E-03-6.15674E-14
 -1      2534 1.50630E-02-1.18906E-03-6.06756E-14
 -1      2535 1.50399E-02-1.23974E-03-6.10219E-14
 -1      2536 1.40862E-02-8.30796E-04-5.05960E-14
 -1      2537 1.39859E-02-8.59146E-04-5.05351E-14
 -1      2538 5.88516E-04-2.37968E-04-2.02678E-16
 -1      2539 7.81323E-04-3.04822E-04-3.18268E-16
 -1      2540 8.40755E-04-2.93598E-04-3.77777E-16
 -1      2541 5.78975E-04-2.10169E-04-2.08804E-16
 -1      2542 1.24754E-02-3.72821E-05-4.62946E-14
 -1      2543 1.26894E-02-1.73561E-04-4.69302E-14
 -1      2544 1.41599E-02-8.06612E-04-5.06706E-14
 -1      2545 1.41437E-02-8.12726E-04-5.06790E-14
 -1      2546 1.03064E-02-3.23978E-05-3.85521E-14
 -1      2547 1.04720E-02 5.61538E-05-3.88411E-14
 -1      2548 5.46586E-04-2.29012E-05-1.93760E-16
 -1      2549 5.47044E-04-3.89423E-05-1.98246E-16
 -1      2550 6.62505E-04-5.58179E-05-2.71173E-16
 -1      2551 6.61275E-04-1.77058E-05-2.59328E-16
 -1      2552 1.07227E-02 1.84254E-04-3.95239E-14
 -1      2553 1.09332E-02 2.91918E-04-4.01664E-14
 -1      2554 1.21089E-02 1.95813E-04-4.50432E-14
 -1      2555 1.22643E-02 9.54280E-05-4.56128E-14
 -1      2556 1.17174E-02 3.93821E-04-4.33914E-14
 -1      2557 1.19002E-02 3.12892E-04-4.41935E-14
 -1      2558 1.14152E-02 4.38245E-04-4.20436E-14
 -1      2559 1.15286E-02 4.36039E-04-4.25509E-14
 -1      2560 1.17238E-02-1.75157E-03-4.47768E-14
 -1      2561 1.15765E-02-1.67565E-03-4.41728E-14
 -1      2562 1.11263E-02 3.73928E-04-4.08224E-14
 -1      2563 1.12706E-02 4.18100E-04-4.14306E-14
 -1      2564 1.13088E-02 4.34244E-04-4.14744E-14
 -1      2565 1.00168E-02-1.68029E-04-3.81418E-14
 -1      2566 1.01636E-02-1.01937E-04-3.83466E-14
 -1      2567 1.02164E-02-5.71848E-05-3.79829E-14
 -1      2568 9.65021E-03-3.04838E-04-3.77222E-14
 -1      2569 9.81636E-03-2.49115E-04-3.79065E-14
 -1      2570 9.42768E-03-3.65891E-04-3.75788E-14
 -1      2571 9.50889E-03-3.47310E-04-3.76003E-14
 -1      2572 9.34412E-03-3.91638E-04-3.76709E-14
 -1      2573 9.36403E-03-3.83806E-04-3.76049E-14
 -1      2574 9.43275E-03-4.17009E-04-3.79784E-14
 -1      2575 9.37504E-03-4.05606E-04-3.78247E-14
 -1      2576 1.00973E-02-6.80849E-04-3.96973E-14
 -1      2577 9.93253E-03-6.02479E-04-3.93164E-14
 -1      2578 1.05377E-02-9.39471E-04-4.08042E-14
 -1      2579 1.03114E-02-8.01077E-04-4.02479E-14
 -1      2580 1.02095E-02-7.24467E-04-3.96948E-14
 -1      2581 1.09538E-02-1.23276E-03-4.19830E-14
 -1      2582 1.07893E-02-1.10876E-03-4.14779E-14
 -1      2583 1.13456E-02-1.52559E-03-4.32778E-14
 -1      2584 1.11590E-02-1.38296E-03-4.26204E-14
 -1      2585 1.23214E-02-1.72748E-03-4.72425E-14
 -1      2586 1.21532E-02-1.78832E-03-4.65777E-14
 -1      2587 1.26511E-02-1.54665E-03-4.83346E-14
 -1      2588 1.24946E-02-1.64286E-03-4.78668E-14
 -1      2589 1.31011E-02-1.27124E-03-4.94678E-14
 -1      2590 1.28840E-02-1.40370E-03-4.89455E-14
 -1      2591 1.35327E-02-1.03974E-03-5.01516E-14
 -1      2592 1.33554E-02-1.12950E-03-4.99442E-14
 -1      2593 1.38512E-02-9.06692E-04-5.04597E-14
 -1      2594 1.37075E-02-9.61704E-04-5.03333E-14
 -1      2595 1.37549E-02-6.86977E-04-4.95012E-14
 -1      2596 1.39235E-02-7.38298E-04-4.99161E-14
 -1      2597 1.38548E-02-5.49552E-04-5.67621E-14
 -1      2598 6.70239E-04-1.37972E-04-2.84820E-16
 -1      2599 5.54622E-04-1.26216E-04-2.11026E-16
 -1      2600 5.57791E-04-1.46214E-04-2.11040E-16
 -1      2601 1.23743E-02 1.54965E-05-4.61503E-14
 -1      2602 9.02650E-04 3.77953E-04-1.00180E-16
 -1      2603 8.73510E-04 3.51565E-04-1.12432E-16
 -1      2604 1.01628E-03 4.01801E-04-1.47736E-16
 -1      2605 1.14882E-02-1.61866E-03-4.37648E-14
 -1      2606 1.36553E-02-6.62695E-04-4.95874E-14
 -1      2607 1.39404E-02-8.83814E-04-5.09695E-14
 -1      2608 1.36458E-02-9.98112E-04-5.07121E-14
 -1      2609 1.32395E-02-1.20432E-03-5.00538E-14
 -1      2610 1.27772E-02-1.48534E-03-4.89653E-14
 -1      2611 1.07964E-02-1.08850E-03-4.07256E-14
 -1      2612 1.10141E-02-1.25265E-03-4.16651E-14
 -1      2613 1.18822E-02-1.80272E-03-4.54811E-14
 -1      2614 1.19917E-02-1.83029E-03-4.60587E-14
 -1      2615 1.21942E-02-1.81141E-03-4.70120E-14
 -1      2616 1.19215E-02-1.80059E-03-4.55938E-14
 -1      2617 1.41667E-02-8.10956E-04-5.10757E-14
 -1      2618 1.40080E-02-7.72535E-04-5.05319E-14
 -1      2619 1.24033E-02-1.70599E-03-4.77283E-14
 -1      2620 1.41274E-02-8.30397E-04-5.11274E-14
 -1      2621 5.71822E-04-1.85195E-04-2.12165E-16
 -1      2622 1.22695E-03 4.32536E-04-2.67500E-16
 -1      2623 1.11418E-03 4.15459E-04-2.01892E-16
 -1      2624 1.08609E-03 3.89730E-04-2.15688E-16
 -1      2625 1.28329E-03 4.09773E-04-3.50143E-16
 -1      2626 1.06579E-02-1.00448E-03-4.09173E-14
 -1      2627 1.37682E-02-5.06961E-04-5.60796E-14
 -1      2628 9.48727E-03-4.24266E-04-3.79251E-14
 -1      2629 9.42430E-03-3.97146E-04-3.73648E-14
 -1      2630 9.55087E-03-4.34221E-04-3.78721E-14
 -1      2631 1.04525E-02 8.41236E-05-3.82186E-14
 -1      2632 1.05873E-02 1.29124E-04-3.88728E-14
 -1      2633 1.06775E-02 1.98220E-04-3.89003E-14
 -1      2634 9.33825E-03-3.82160E-04-3.72663E-14
 -1      2635 9.37255E-03-3.64035E-04-3.70903E-14
 -1      2636 1.10024E-02 3.36370E-04-4.02069E-14
 -1      2637 1.16143E-02 4.20460E-04-4.29254E-14
 -1      2638 9.89372E-03-2.03395E-04-3.75435E-14
 -1      2639 9.81558E-03-5.40026E-04-3.87905E-14
 -1      2640 1.28178E-02-2.59152E-04-4.74874E-14
 -1      2641 1.19830E-02 2.62218E-04-4.46160E-14
 -1      2642 9.56666E-03-3.16576E-04-3.71876E-14
 -1      2643 1.10878E-02-1.31767E-03-4.22291E-14
 -1      2644 1.21528E-02-1.80100E-03-4.67028E-14
 -1      2645 1.20547E-02-1.80510E-03-4.61793E-14
 -1      2646 1.05783E-02-9.34623E-04-4.00890E-14
 -1      2647 7.80192E-04 7.73403E-05-2.92464E-16
 -1      2648 7.78931E-04 5.54774E-05-3.04186E-16
 -1      2649 7.78084E-04 3.35638E-05-3.15164E-16
 -1      2650 7.77661E-04 1.18978E-05-3.25261E-16
 -1      2651 8.96496E-04 4.96866E-05-3.94107E-16
 -1      2652 7.91538E-04 1.73134E-04-2.32710E-16
 -1      2653 7.87529E-04 1.47724E-04-2.49868E-16
 -1      2654 8.03381E-04 2.28342E-04-1.93300E-16
 -1      2655 7.96790E-04 1.99941E-04-2.14198E-16
 -1      2656 9.14843E-04 2.07823E-04-2.89848E-16
 -1      2657 8.45793E-04 3.26133E-04-1.23111E-16
 -1      2658 8.19616E-04 3.01550E-04-1.32503E-16
 -1      2659 9.59971E-04 3.50419E-04-1.72619E-16
 -1      2660 1.22917E-02 6.46074E-05-4.60196E-14
 -1      2661 1.24787E-02-5.88849E-05-4.67023E-14
 -1      2662 1.40239E-02-8.73485E-04-5.15392E-14
 -1      2663 1.39067E-02-9.10345E-04-5.14643E-14
 -1      2664 1.31745E-02-4.63039E-04-4.87270E-14
 -1      2665 1.33505E-02-5.47552E-04-4.91823E-14
 -1      2666 1.03370E-03-3.14258E-04-5.53038E-16
 -1      2667 1.17694E-03-3.40376E-04-6.94919E-16
 -1      2668 1.32014E-03-3.62785E-04-8.53511E-16
 -1      2669 1.46336E-03-3.81765E-04-1.02888E-15
 -1      2670 1.23840E-03-3.19108E-04-7.75354E-16
 -1      2671 1.60641E-03-3.97842E-04-1.22065E-15
 -1      2672 1.74934E-03-4.11250E-04-1.42895E-15
 -1      2673 1.52497E-03-3.55434E-04-1.12462E-15
 -1      2674 1.89211E-03-4.22453E-04-1.65373E-15
 -1      2675 2.03476E-03-4.31640E-04-1.89472E-15
 -1      2676 1.81165E-03-3.81331E-04-1.53847E-15
 -1      2677 2.17731E-03-4.39184E-04-2.15260E-15
 -1      2678 2.31978E-03-4.45238E-04-2.42658E-15
 -1      2679 2.09811E-03-3.99172E-04-2.01820E-15
 -1      2680 2.46219E-03-4.50091E-04-2.71659E-15
 -1      2681 2.60456E-03-4.53864E-04-3.02308E-15
 -1      2682 2.38429E-03-4.10970E-04-2.56175E-15
 -1      2683 2.74691E-03-4.56773E-04-3.34624E-15
 -1      2684 2.88924E-03-4.58913E-04-3.68501E-15
 -1      2685 2.67024E-03-4.18338E-04-3.16994E-15
 -1      2686 3.03159E-03-4.60443E-04-4.03985E-15
 -1      2687 3.17394E-03-4.61434E-04-4.41086E-15
 -1      2688 2.95602E-03-4.22525E-04-3.84260E-15
 -1      2689 3.32344E-03-4.62021E-04-4.81693E-15
 -1      2690 3.47296E-03-4.62203E-04-5.24056E-15
 -1      2691 3.24884E-03-4.24498E-04-4.59797E-15
 -1      2692 3.61540E-03-4.62083E-04-5.65983E-15
 -1      2693 3.75786E-03-4.61714E-04-6.09457E-15
 -1      2694 3.54160E-03-4.24854E-04-5.41914E-15
 -1      2695 3.90036E-03-4.61148E-04-6.54574E-15
 -1      2696 4.04289E-03-4.60408E-04-7.01212E-15
 -1      2697 3.82721E-03-4.24140E-04-6.28349E-15
 -1      2698 4.18547E-03-4.59527E-04-7.49445E-15
 -1      2699 4.32807E-03-4.58518E-04-7.99236E-15
 -1      2700 4.11282E-03-4.22702E-04-7.21015E-15
 -1      2701 4.47072E-03-4.57397E-04-8.50624E-15
 -1      2702 4.61340E-03-4.56171E-04-9.03620E-15
 -1      2703 4.39846E-03-4.20737E-04-8.20046E-15
 -1      2704 4.75613E-03-4.54843E-04-9.58179E-15
 -1      2705 4.89889E-03-4.53413E-04-1.01432E-14
 -1      2706 4.68413E-03-4.18348E-04-9.25316E-15
 -1      2707 5.04170E-03-4.51875E-04-1.07194E-14
 -1      2708 5.18455E-03-4.50226E-04-1.13116E-14
 -1      2709 4.96985E-03-4.15563E-04-1.03690E-14
 -1      2710 5.32744E-03-4.48452E-04-1.19195E-14
 -1      2711 5.47038E-03-4.46548E-04-1.25415E-14
 -1      2712 5.25562E-03-4.12354E-04-1.15464E-14
 -1      2713 5.61337E-03-4.44493E-04-1.31790E-14
 -1      2714 5.75641E-03-4.42281E-04-1.38312E-14
 -1      2715 5.54144E-03-4.08653E-04-1.27847E-14
 -1      2716 5.89950E-03-4.39890E-04-1.44962E-14
 -1      2717 6.04266E-03-4.37311E-04-1.51748E-14
 -1      2718 5.82730E-03-4.04364E-04-1.40809E-14
 -1      2719 6.18586E-03-4.34524E-04-1.58665E-14
 -1      2720 6.32915E-03-4.31521E-04-1.65715E-14
 -1      2721 6.11320E-03-3.99379E-04-1.54323E-14
 -1      2722 6.47247E-03-4.28285E-04-1.72896E-14
 -1      2723 6.61589E-03-4.24812E-04-1.80187E-14
 -1      2724 6.39909E-03-3.93599E-04-1.68369E-14
 -1      2725 6.75934E-03-4.21096E-04-1.87602E-14
 -1      2726 6.90287E-03-4.17138E-04-1.95132E-14
 -1      2727 6.68489E-03-3.86954E-04-1.82897E-14
 -1      2728 7.05360E-03-4.12737E-04-2.03170E-14
 -1      2729 7.20442E-03-4.08099E-04-2.11338E-14
 -1      2730 6.97762E-03-3.79241E-04-1.98295E-14
 -1      2731 7.34802E-03-4.03512E-04-2.19223E-14
 -1      2732 7.49168E-03-3.98788E-04-2.27204E-14
 -1      2733 7.26990E-03-3.70741E-04-2.14177E-14
 -1      2734 7.63522E-03-3.94036E-04-2.35280E-14
 -1      2735 7.77878E-03-3.89303E-04-2.43455E-14
 -1      2736 7.55426E-03-3.62010E-04-2.30094E-14
 -1      2737 7.92212E-03-3.84793E-04-2.51728E-14
 -1      2738 8.06540E-03-3.80585E-04-2.60095E-14
 -1      2739 7.83732E-03-3.53462E-04-2.46388E-14
 -1      2740 8.20832E-03-3.77018E-04-2.68564E-14
 -1      2741 8.35109E-03-3.74229E-04-2.77124E-14
 -1      2742 8.11839E-03-3.46154E-04-2.63081E-14
 -1      2743 8.49336E-03-3.72741E-04-2.85795E-14
 -1      2744 8.63546E-03-3.72789E-04-2.94530E-14
 -1      2745 8.39660E-03-3.41764E-04-2.80154E-14
 -1      2746 8.77699E-03-3.75118E-04-3.03344E-14
 -1      2747 8.91855E-03-3.80164E-04-3.12247E-14
 -1      2748 8.67104E-03-3.42799E-04-2.97587E-14
 -1      2749 9.05979E-03-3.88872E-04-3.21189E-14
 -1      2750 9.20181E-03-4.02132E-04-3.30195E-14
 -1      2751 8.94129E-03-3.52816E-04-3.15305E-14
 -1      2752 9.34451E-03-4.20952E-04-3.39257E-14
 -1      2753 9.48999E-03-4.47316E-04-3.48350E-14
 -1      2754 9.20839E-03-3.76756E-04-3.33276E-14
 -1      2755 9.63844E-03-4.81950E-04-3.57493E-14
 -1      2756 9.79384E-03-5.29090E-04-3.66682E-14
 -1      2757 9.47715E-03-4.21855E-04-3.51423E-14
 -1      2758 1.10387E-02-1.27620E-03-4.19515E-14
 -1      2759 1.22803E-02-1.78498E-03-4.74140E-14
 -1      2760 1.37572E-02-9.69042E-04-5.13455E-14
 -1      2761 1.36057E-02-1.03539E-03-5.11642E-14
 -1      2762 1.36174E-02-1.12425E-03-5.24773E-14
 -1      2763 1.37955E-02-1.09632E-03-5.34290E-14
 -1      2764 1.39625E-02-1.08839E-03-5.43775E-14
 -1      2765 1.41205E-02-1.09212E-03-5.53199E-14
 -1      2766 1.39470E-02-1.03761E-03-5.37255E-14
 -1      2767 1.42722E-02-1.10679E-03-5.62580E-14
 -1      2768 1.44201E-02-1.12826E-03-5.71939E-14
 -1      2769 1.42434E-02-1.05881E-03-5.56126E-14
 -1      2770 1.45650E-02-1.15515E-03-5.81256E-14
 -1      2771 1.47086E-02-1.18523E-03-5.90483E-14
 -1      2772 1.45234E-02-1.10898E-03-5.74844E-14
 -1      2773 1.48112E-02-1.20199E-03-5.96561E-14
 -1      2774 1.49404E-02-1.22233E-03-6.04172E-14
 -1      2775 1.49565E-02-1.19466E-03-6.02420E-14
 -1      2776 1.47608E-02-1.15757E-03-5.90259E-14
 -1      2777 1.86961E-03 4.33826E-04-9.31126E-16
 -1      2778 1.72701E-03 4.22129E-04-7.82062E-16
 -1      2779 2.15440E-03 4.51465E-04-1.27403E-15
 -1      2780 2.01206E-03 4.43547E-04-1.09527E-15
 -1      2781 1.93192E-03 4.02790E-04-1.06756E-15
 -1      2782 1.58425E-03 4.08012E-04-6.47120E-16
 -1      2783 1.44128E-03 3.91261E-04-5.26082E-16
 -1      2784 1.64560E-03 3.80043E-04-7.59931E-16
 -1      2785 2.72317E-03 4.70272E-04-2.13992E-15
 -1      2786 2.58103E-03 4.67142E-04-1.90074E-15
 -1      2787 3.00748E-03 4.74349E-04-2.66414E-15
 -1      2788 2.86532E-03 4.72646E-04-2.39393E-15
 -1      2789 2.78911E-03 4.34443E-04-2.34783E-15
 -1      2790 3.29189E-03 4.76229E-04-3.25005E-15
 -1      2791 3.14968E-03 4.75522E-04-2.94948E-15
 -1      2792 3.07451E-03 4.37788E-04-2.89608E-15
 -1      2793 3.57644E-03 4.76591E-04-3.89748E-15
 -1      2794 3.43415E-03 4.76569E-04-3.56608E-15
 -1      2795 3.35987E-03 4.39181E-04-3.50634E-15
 -1      2796 3.86116E-03 4.75913E-04-4.60607E-15
 -1      2797 3.71878E-03 4.76361E-04-4.24435E-15
 -1      2798 3.64524E-03 4.39230E-04-4.17686E-15
 -1      2799 4.14606E-03 4.74516E-04-5.37512E-15
 -1      2800 4.00359E-03 4.75291E-04-4.98232E-15
 -1      2801 3.93064E-03 4.38359E-04-4.90759E-15
 -1      2802 4.43115E-03 4.72597E-04-6.20889E-15
 -1      2803 4.28859E-03 4.73614E-04-5.78481E-15
 -1      2804 4.21608E-03 4.36846E-04-5.69981E-15
 -1      2805 4.71642E-03 4.70263E-04-7.10247E-15
 -1      2806 4.57376E-03 4.71478E-04-6.64750E-15
 -1      2807 4.50159E-03 4.34860E-04-6.55571E-15
 -1      2808 5.00187E-03 4.67550E-04-8.06066E-15
 -1      2809 4.85912E-03 4.68953E-04-7.57392E-15
 -1      2810 4.78717E-03 4.32484E-04-7.47240E-15
 -1      2811 5.28753E-03 4.64447E-04-9.08311E-15
 -1      2812 5.14467E-03 4.66049E-04-8.56363E-15
 -1      2813 5.07282E-03 4.29738E-04-8.45277E-15
 -1      2814 5.57340E-03 4.60915E-04-1.01707E-14
 -1      2815 5.43043E-03 4.62737E-04-9.61888E-15
 -1      2816 5.35857E-03 4.26600E-04-9.49823E-15
 -1      2817 5.85954E-03 4.56905E-04-1.13241E-14
 -1      2818 5.71644E-03 4.58972E-04-1.07391E-14
 -1      2819 5.64443E-03 4.23024E-04-1.06085E-14
 -1      2820 6.14600E-03 4.52382E-04-1.25439E-14
 -1      2821 6.00272E-03 4.54708E-04-1.19253E-14
 -1      2822 5.93043E-03 4.18957E-04-1.17841E-14
 -1      2823 6.43287E-03 4.47351E-04-1.38287E-14
 -1      2824 6.28937E-03 4.49928E-04-1.31786E-14
 -1      2825 6.21662E-03 4.14364E-04-1.30260E-14
 -1      2826 6.72025E-03 4.41889E-04-1.51787E-14
 -1      2827 6.57648E-03 4.44666E-04-1.44955E-14
 -1      2828 6.50307E-03 4.09249E-04-1.43311E-14
 -1      2829 7.00833E-03 4.36185E-04-1.65894E-14
 -1      2830 6.86419E-03 4.39051E-04-1.58774E-14
 -1      2831 6.78989E-03 4.03693E-04-1.56989E-14
 -1      2832 7.29732E-03 4.30587E-04-1.80572E-14
 -1      2833 7.15269E-03 4.33345E-04-1.73161E-14
 -1      2834 7.07725E-03 3.97885E-04-1.71260E-14
 -1      2835 7.58751E-03 4.25658E-04-1.95816E-14
 -1      2836 7.44224E-03 4.27997E-04-1.88121E-14
 -1      2837 7.36539E-03 3.92180E-04-1.86093E-14
 -1      2838 7.87930E-03 4.22226E-04-2.11576E-14
 -1      2839 7.73318E-03 4.23694E-04-2.03642E-14
 -1      2840 7.65467E-03 3.87141E-04-2.01482E-14
 -1      2841 8.17318E-03 4.21427E-04-2.27803E-14
 -1      2842 8.02595E-03 4.21414E-04-2.19632E-14
 -1      2843 7.94557E-03 3.83605E-04-2.17362E-14
 -1      2844 8.46972E-03 4.24708E-04-2.44451E-14
 -1      2845 8.32110E-03 4.22452E-04-2.36084E-14
 -1      2846 8.23875E-03 3.82723E-04-2.33702E-14
 -1      2847 8.76954E-03 4.33765E-04-2.61450E-14
 -1      2848 8.61922E-03 4.28393E-04-2.52906E-14
 -1      2849 8.53505E-03 3.85981E-04-2.50427E-14
 -1      2850 9.07313E-03 4.50341E-04-2.78785E-14
 -1      2851 8.92090E-03 4.40995E-04-2.70080E-14
 -1      2852 8.83538E-03 3.95161E-04-2.67515E-14
 -1      2853 9.38061E-03 4.75809E-04-2.96388E-14
 -1      2854 9.22648E-03 4.61890E-04-2.87563E-14
 -1      2855 9.14057E-03 4.12162E-04-2.84918E-14
 -1      2856 9.69131E-03 5.10418E-04-3.14181E-14
 -1      2857 9.53573E-03 4.92008E-04-3.05260E-14
 -1      2858 9.45100E-03 4.38583E-04-3.02570E-14
 -1      2859 1.00034E-02 5.52201E-04-3.32076E-14
 -1      2860 9.84744E-03 5.30664E-04-3.23112E-14
 -1      2861 9.76604E-03 4.74902E-04-3.20379E-14
 -1      2862 1.03140E-02 5.95624E-04-3.50078E-14
 -1      2863 1.01592E-02 5.74256E-04-3.41073E-14
 -1      2864 1.00835E-02 5.19107E-04-3.38305E-14
 -1      2865 1.06196E-02 6.30829E-04-3.68183E-14
 -1      2866 1.04676E-02 6.15116E-04-3.59131E-14
 -1      2867 1.03996E-02 5.65001E-04-3.56347E-14
 -1      2868 1.09180E-02 6.44499E-04-3.86330E-14
 -1      2869 1.07696E-02 6.41299E-04-3.77234E-14
 -1      2870 1.07100E-02 6.01009E-04-3.74453E-14
 -1      2871 1.12104E-02 6.23736E-04-4.04567E-14
 -1      2872 1.10646E-02 6.39130E-04-3.95448E-14
 -1      2873 1.10125E-02 6.11663E-04-3.92607E-14
 -1      2874 1.15009E-02 5.61224E-04-4.22930E-14
 -1      2875 1.13553E-02 5.97824E-04-4.13738E-14
 -1      2876 1.13088E-02 5.82745E-04-4.10879E-14
 -1      2877 1.17946E-02 4.58588E-04-4.41354E-14
 -1      2878 1.16469E-02 5.14369E-04-4.32128E-14
 -1      2879 1.16047E-02 5.07952E-04-4.29271E-14
 -1      2880 1.20948E-02 3.25795E-04-4.59819E-14
 -1      2881 1.19438E-02 3.95052E-04-4.50592E-14
 -1      2882 1.19061E-02 3.92139E-04-4.47734E-14
 -1      2883 1.24007E-02 1.76023E-04-4.78310E-14
 -1      2884 1.22472E-02 2.52171E-04-4.69066E-14
 -1      2885 1.22153E-02 2.48995E-04-4.66227E-14
 -1      2886 1.27094E-02 2.05866E-05-4.96808E-14
 -1      2887 1.25550E-02 9.84477E-05-4.87560E-14
 -1      2888 1.25299E-02 9.35586E-05-4.84754E-14
 -1      2889 1.30171E-02-1.33661E-04-5.15247E-14
 -1      2890 1.28636E-02-5.69247E-05-5.06018E-14
 -1      2891 1.28455E-02-6.31250E-05-5.03259E-14
 -1      2892 1.33210E-02-2.84337E-04-5.33568E-14
 -1      2893 1.31697E-02-2.09428E-04-5.24432E-14
 -1      2894 1.31578E-02-2.15673E-04-5.21700E-14
 -1      2895 1.36203E-02-4.32872E-04-5.51752E-14
 -1      2896 1.34715E-02-3.59117E-04-5.42605E-14
 -1      2897 1.34646E-02-3.64160E-04-5.39914E-14
 -1      2898 1.37655E-02-5.10225E-04-5.57971E-14
 -1      2899 1.40782E-02-6.78002E-04-5.66520E-14
 -1      2900 1.39932E-02-6.33513E-04-5.64430E-14
 -1      2901 1.44336E-02-8.49842E-04-5.75132E-14
 -1      2902 1.43445E-02-8.09180E-04-5.72976E-14
 -1      2903 1.39195E-02-5.94571E-04-5.62259E-14
 -1      2904 1.38365E-02-5.49155E-04-5.60105E-14
 -1      2905 1.36862E-02-4.77725E-04-5.51074E-14
 -1      2906 1.38307E-02-5.58860E-04-5.55390E-14
 -1      2907 1.42551E-02-7.66679E-04-5.70844E-14
 -1      2908 1.41659E-02-7.22775E-04-5.68660E-14
 -1      2909 1.39923E-02-6.47224E-04-5.59684E-14
 -1      2910 1.41721E-02-7.40884E-04-5.63945E-14
 -1      2911 1.47543E-02-9.85358E-04-5.83641E-14
 -1      2912 1.46831E-02-9.56006E-04-5.81550E-14
 -1      2913 1.48667E-02-1.03491E-03-5.87735E-14
 -1      2914 1.48156E-02-1.01113E-03-5.85708E-14
 -1      2915 1.46761E-02-9.66532E-04-5.76639E-14
 -1      2916 1.49355E-02-1.07899E-03-5.91900E-14
 -1      2917 1.49072E-02-1.05707E-03-5.89810E-14
 -1      2918 1.47834E-02-1.01547E-03-5.80765E-14
 -1      2919 1.49574E-02-1.12438E-03-5.96055E-14
 -1      2920 1.49519E-02-1.10080E-03-5.93958E-14
 -1      2921 1.48400E-02-1.05903E-03-5.84918E-14
 -1      2922 1.41694E-02-8.39649E-04-5.17031E-14
 -1      2923 1.41097E-02-8.50078E-04-5.16206E-14
 -1      2924 1.40930E-02-8.76027E-04-5.21129E-14
 -1      2925 1.39493E-02-7.68134E-04-5.08004E-14
 -1      2926 1.40837E-02-7.99603E-04-5.12083E-14
 -1      2927 6.88543E-04-2.03996E-04-2.88452E-16
 -1      2928 1.41777E-02-8.23431E-04-5.16160E-14
 -1      2929 1.42004E-02-8.29976E-04-5.17518E-14
 -1      2930 1.00985E-02-8.17173E-05-3.73072E-14
 -1      2931 1.02180E-02-2.05275E-05-3.75113E-14
 -1      2932 1.46046E-02-9.23672E-04-5.79408E-14
 -1      2933 1.45209E-02-8.88166E-04-5.77283E-14
 -1      2934 1.45282E-02-9.04957E-04-5.72461E-14
 -1      2935 1.30076E-02-1.36151E-03-4.99227E-14
 -1      2936 1.35531E-02-6.34565E-04-4.96939E-14
 -1      2937 1.37520E-02-7.06419E-04-5.02300E-14
 -1      2938 1.18748E-02 3.16910E-04-4.42047E-14
 -1      2939 1.20590E-02 2.10647E-04-4.50550E-14
 -1      2940 7.84383E-04 1.23469E-04-2.65182E-16
 -1      2941 7.81996E-04 1.00032E-04-2.79345E-16
 -1      2942 8.99609E-04 9.94595E-05-3.64848E-16
 -1      2943 9.05345E-04 1.51602E-04-3.30478E-16
 -1      2944 9.47992E-03-3.16738E-04-3.65610E-14
 -1      2945 9.60557E-03-2.83054E-04-3.66828E-14
 -1      2946 9.75583E-03-2.30465E-04-3.68393E-14
 -1      2947 9.92713E-03-1.62343E-04-3.70731E-14
 -1      2948 9.93751E-03-1.17245E-04-3.66011E-14
 -1      2949 7.81728E-04-9.79779E-05-3.62571E-16
 -1      2950 7.84038E-04-1.21335E-04-3.66935E-16
 -1      2951 1.12308E-02 4.32788E-04-4.09854E-14
 -1      2952 1.13532E-02 4.50218E-04-4.15979E-14
 -1      2953 9.87284E-03-5.46838E-04-3.85189E-14
 -1      2954 9.69826E-03-4.80780E-04-3.81673E-14
 -1      2955 1.08809E-02 3.05417E-04-3.95150E-14
 -1      2956 1.10473E-02 3.79882E-04-4.01689E-14
 -1      2957 9.32868E-03-3.55005E-04-3.66286E-14
 -1      2958 9.38291E-03-3.45025E-04-3.66059E-14
 -1      2959 1.27282E-02-2.13887E-04-4.75293E-14
 -1      2960 1.29581E-02-3.49445E-04-4.81840E-14
 -1      2961 1.03079E-02-7.67856E-04-3.96555E-14
 -1      2962 1.01134E-02-6.59607E-04-3.91057E-14
 -1      2963 9.32759E-03-3.66066E-04-3.67258E-14
 -1      2964 9.30358E-03-3.60241E-04-3.65751E-14
 -1      2965 1.15163E-02 4.41989E-04-4.24203E-14
 -1      2966 1.16789E-02 4.00318E-04-4.32609E-14
 -1      2967 1.34203E-02-1.12159E-03-5.07829E-14
 -1      2968 1.31929E-02-1.24749E-03-5.03058E-14
 -1      2969 1.31973E-02-1.26946E-03-5.06516E-14
 -1      2970 1.35549E-02-1.08051E-03-5.14147E-14
 -1      2971 2.43885E-03 4.63063E-04-1.67654E-15
 -1      2972 2.29666E-03 4.57924E-04-1.46785E-15
 -1      2973 2.21790E-03 4.18249E-04-1.43428E-15
 -1      2974 2.50360E-03 4.28307E-04-1.86080E-15
 -1      2975 8.95472E-04 1.01135E-06-4.18841E-16
 -1      2976 7.77632E-04-9.72125E-06-3.34395E-16
 -1      2977 7.77995E-04-3.13709E-05-3.42947E-16
 -1      2978 8.07532E-04 2.68336E-04-1.58185E-16
 -1      2979 1.21659E-02 1.43408E-04-4.56031E-14
 -1      2980 1.22732E-02 7.80442E-05-4.61519E-14
 -1      2981 1.20586E-02 2.11774E-04-4.51872E-14
 -1      2982 1.14268E-02 4.54584E-04-4.19276E-14
 -1      2983 1.38710E-02-9.48230E-04-5.19137E-14
 -1      2984 1.34760E-02-6.03430E-04-4.98214E-14
 -1      2985 9.69215E-03-4.68787E-04-3.69765E-14
 -1      2986 9.89108E-03-5.52878E-04-3.75931E-14
 -1      2987 1.02839E-02-7.51057E-04-3.91037E-14
 -1      2988 1.05006E-02-8.87061E-04-4.00490E-14
 -1      2989 9.63652E-03-2.40590E-04-3.62123E-14
 -1      2990 1.00561E-02-6.30692E-04-3.85156E-14
 -1      2991 1.34062E-02-1.19130E-03-5.16091E-14
 -1      2992 1.43544E-02-8.28484E-04-5.68207E-14
 -1      2993 7.87096E-04-1.45488E-04-3.70133E-16
 -1      2994 7.91000E-04-1.70658E-04-3.72207E-16
 -1      2995 9.04878E-04-1.49093E-04-4.66600E-16
 -1      2996 1.42159E-02-8.47726E-04-5.22413E-14
 -1      2997 1.49563E-02-1.16957E-03-6.00091E-14
 -1      2998 1.49654E-02-1.14609E-03-5.98372E-14
 -1      2999 1.48582E-02-1.10281E-03-5.89331E-14
 -1      3000 1.48620E-02-1.14989E-03-5.93994E-14
 -1      3001 1.35906E-03 3.47685E-04-5.09101E-16
 -1      3002 1.29817E-03 3.71333E-04-4.18976E-16
 -1      3003 1.19880E-03 3.63671E-04-3.41808E-16
 -1      3004 1.38722E-02-7.49711E-04-5.09046E-14
 -1      3005 1.39787E-02-7.81303E-04-5.15778E-14
 -1      3006 1.37942E-02-7.25292E-04-5.10071E-14
 -1      3007 7.88852E-04-2.52454E-04-3.51702E-16
 -1      3008 9.20045E-04-2.88260E-04-4.53197E-16
 -1      3009 9.35010E-03-3.68770E-04-3.66706E-14
 -1      3010 9.28719E-03-3.46466E-04-3.59781E-14
 -1      3011 9.38309E-03-3.72722E-04-3.66151E-14
 -1      3012 9.59876E-03-4.40715E-04-3.76017E-14
 -1      3013 1.03188E-02 4.95462E-05-3.75396E-14
 -1      3014 1.04039E-02 1.19983E-04-3.75695E-14
 -1      3015 1.01878E-02 2.76086E-05-3.68623E-14
 -1      3016 1.41581E-02-8.23867E-04-5.18809E-14
 -1      3017 1.06255E-02-9.71153E-04-4.06415E-14
 -1      3018 1.26302E-02-1.51106E-04-4.73949E-14
 -1      3019 9.28492E-03-3.42869E-04-3.60890E-14
 -1      3020 1.07432E-02 2.63234E-04-3.88603E-14
 -1      3021 9.25339E-04 2.80334E-04-2.26422E-16
 -1      3022 1.11025E-02 4.16794E-04-4.02906E-14
 -1      3023 1.17618E-02 3.66380E-04-4.36938E-14
 -1      3024 7.78774E-04-5.31577E-05-3.50319E-16
 -1      3025 7.79991E-04-7.53488E-05-3.56892E-16
 -1      3026 8.99326E-04-9.71081E-05-4.55406E-16
 -1      3027 8.96366E-04-4.75321E-05-4.39183E-16
 -1      3028 9.82166E-04-2.73286E-04-5.18764E-16
 -1      3029 1.30737E-02-4.09735E-04-4.87658E-14
 -1      3030 9.40306E-03-3.15221E-04-3.61006E-14
 -1      3031 1.35906E-02-1.09273E-03-5.19041E-14
 -1      3032 1.04029E-03 2.43321E-04-3.52366E-16
 -1      3033 1.03365E-03 2.11568E-04-3.78576E-16
 -1      3034 1.05910E-03 3.64511E-04-2.27723E-16
 -1      3035 9.53909E-03-4.20239E-04-3.61104E-14
 -1      3036 9.59546E-03-4.31824E-04-3.70272E-14
 -1      3037 1.25445E-02-8.80518E-05-4.73258E-14
 -1      3038 1.27690E-02-2.26951E-04-4.81535E-14
 -1      3039 9.52189E-03-2.40401E-04-3.55218E-14
 -1      3040 9.64966E-03-1.95592E-04-3.56775E-14
 -1      3041 1.08521E-02-1.13202E-03-4.13165E-14
 -1      3042 1.44458E-03-3.13771E-04-1.03057E-15
 -1      3043 1.58808E-03-3.28245E-04-1.22041E-15
 -1      3044 1.73167E-03-3.40491E-04-1.42635E-15
 -1      3045 1.87534E-03-3.50696E-04-1.64819E-15
 -1      3046 1.65237E-03-3.00165E-04-1.31660E-15
 -1      3047 2.01900E-03-3.59181E-04-1.88587E-15
 -1      3048 2.16264E-03-3.66099E-04-2.13985E-15
 -1      3049 1.94016E-03-3.19378E-04-1.75721E-15
 -1      3050 2.30624E-03-3.71727E-04-2.41022E-15
 -1      3051 2.44979E-03-3.76192E-04-2.69560E-15
 -1      3052 2.22820E-03-3.32480E-04-2.26113E-15
 -1      3053 2.59328E-03-3.79713E-04-2.99728E-15
 -1      3054 2.73672E-03-3.82389E-04-3.31523E-15
 -1      3055 2.51618E-03-3.40975E-04-2.82863E-15
 -1      3056 2.88010E-03-3.84391E-04-3.64895E-15
 -1      3057 3.02343E-03-3.85793E-04-3.99850E-15
 -1      3058 2.80394E-03-3.46090E-04-3.45896E-15
 -1      3059 3.17388E-03-3.86758E-04-4.38260E-15
 -1      3060 3.32427E-03-3.87266E-04-4.78403E-15
 -1      3061 3.09863E-03-3.48827E-04-4.17064E-15
 -1      3062 3.46746E-03-3.87421E-04-5.18152E-15
 -1      3063 3.61061E-03-3.87294E-04-5.59504E-15
 -1      3064 3.39303E-03-3.49797E-04-4.94805E-15
 -1      3065 3.75374E-03-3.86948E-04-6.02434E-15
 -1      3066 3.89683E-03-3.86408E-04-6.46900E-15
 -1      3067 3.67999E-03-3.49577E-04-5.76901E-15
 -1      3068 4.03989E-03-3.85716E-04-6.92957E-15
 -1      3069 4.18293E-03-3.84885E-04-7.40591E-15
 -1      3070 3.96671E-03-3.48567E-04-6.65245E-15
 -1      3071 4.32595E-03-3.83941E-04-7.89775E-15
 -1      3072 4.46894E-03-3.82889E-04-8.40532E-15
 -1      3073 4.25322E-03-3.47001E-04-7.59896E-15
 -1      3074 4.61192E-03-3.81742E-04-8.92831E-15
 -1      3075 4.75489E-03-3.80500E-04-9.46763E-15
 -1      3076 4.53953E-03-3.45013E-04-8.60749E-15
 -1      3077 4.89783E-03-3.79165E-04-1.00219E-14
 -1      3078 5.04076E-03-3.77731E-04-1.05913E-14
 -1      3079 4.82567E-03-3.42663E-04-9.67913E-15
 -1      3080 5.18367E-03-3.76195E-04-1.11779E-14
 -1      3081 5.32656E-03-3.74548E-04-1.17783E-14
 -1      3082 5.11162E-03-3.39953E-04-1.08126E-14
 -1      3083 5.46943E-03-3.72780E-04-1.23943E-14
 -1      3084 5.61228E-03-3.70880E-04-1.30253E-14
 -1      3085 5.39738E-03-3.36844E-04-1.20078E-14
 -1      3086 5.75509E-03-3.68837E-04-1.36703E-14
 -1      3087 5.89787E-03-3.66639E-04-1.43289E-14
 -1      3088 5.68290E-03-3.33270E-04-1.32634E-14
 -1      3089 6.04060E-03-3.64274E-04-1.50026E-14
 -1      3090 6.18329E-03-3.61731E-04-1.56889E-14
 -1      3091 5.96812E-03-3.29152E-04-1.45753E-14
 -1      3092 6.32588E-03-3.59003E-04-1.63876E-14
 -1      3093 6.46841E-03-3.56080E-04-1.70990E-14
 -1      3094 6.25292E-03-3.24418E-04-1.59424E-14
 -1      3095 6.61080E-03-3.52967E-04-1.78226E-14
 -1      3096 6.75308E-03-3.49656E-04-1.85584E-14
 -1      3097 6.53713E-03-3.19025E-04-1.73583E-14
 -1      3098 6.90225E-03-3.45992E-04-1.93458E-14
 -1      3099 7.05121E-03-3.42135E-04-2.01447E-14
 -1      3100 6.82756E-03-3.12830E-04-1.88631E-14
 -1      3101 7.19276E-03-3.38342E-04-2.09159E-14
 -1      3102 7.33402E-03-3.34435E-04-2.16994E-14
 -1      3103 7.11667E-03-3.06087E-04-2.04181E-14
 -1      3104 7.47481E-03-3.30528E-04-2.24930E-14
 -1      3105 7.61514E-03-3.26629E-04-2.32963E-14
 -1      3106 7.39690E-03-2.99270E-04-2.19788E-14
 -1      3107 7.75480E-03-3.22929E-04-2.41090E-14
 -1      3108 7.89379E-03-3.19444E-04-2.49311E-14
 -1      3109 7.67453E-03-2.92740E-04-2.35808E-14
 -1      3110 8.03182E-03-3.16475E-04-2.57633E-14
 -1      3111 8.16890E-03-3.14044E-04-2.66043E-14
 -1      3112 7.94849E-03-2.87342E-04-2.52209E-14
 -1      3113 8.30466E-03-3.12595E-04-2.74553E-14
 -1      3114 8.43916E-03-3.12154E-04-2.83156E-14
 -1      3115 8.21737E-03-2.84334E-04-2.68991E-14
 -1      3116 8.57191E-03-3.13340E-04-2.91847E-14
 -1      3117 8.70311E-03-3.16170E-04-3.00606E-14
 -1      3118 8.47938E-03-2.85457E-04-2.86136E-14
 -1      3119 8.83216E-03-3.21438E-04-3.09456E-14
 -1      3120 8.95959E-03-3.29193E-04-3.18354E-14
 -1      3121 8.73241E-03-2.92905E-04-3.03622E-14
 -1      3122 9.08462E-03-3.40366E-04-3.27313E-14
 -1      3123 9.20860E-03-3.55187E-04-3.36329E-14
 -1      3124 8.97424E-03-3.09202E-04-3.21388E-14
 -1      3125 9.31288E-03-3.71053E-04-3.44137E-14
 -1      3126 9.43531E-03-3.95202E-04-3.53228E-14
 -1      3127 9.37248E-03-3.67792E-04-3.53776E-14
 -1      3128 9.18717E-03-3.34292E-04-3.38127E-14
 -1      3129 1.34186E-02-5.74000E-04-5.01350E-14
 -1      3130 1.35992E-02-6.50789E-04-5.06465E-14
 -1      3131 9.29649E-04-2.35564E-04-4.80410E-16
 -1      3132 1.04211E-03-2.57536E-04-5.82908E-16
 -1      3133 1.42278E-02-1.00904E-03-5.49531E-14
 -1      3134 1.43592E-02-1.03330E-03-5.58927E-14
 -1      3135 1.44891E-02-1.06197E-03-5.68276E-14
 -1      3136 1.46200E-02-1.09369E-03-5.77597E-14
 -1      3137 1.44591E-02-1.01681E-03-5.61724E-14
 -1      3138 1.99556E-03 3.71089E-04-1.20937E-15
 -1      3139 1.85201E-03 3.62131E-04-1.03635E-15
 -1      3140 1.70847E-03 3.51292E-04-8.78082E-16
 -1      3141 1.56493E-03 3.38399E-04-7.34344E-16
 -1      3142 1.77255E-03 3.21773E-04-1.00188E-15
 -1      3143 3.14210E-03 4.00906E-04-3.13333E-15
 -1      3144 2.99896E-03 3.99826E-04-2.83935E-15
 -1      3145 2.85577E-03 3.98220E-04-2.56057E-15
 -1      3146 2.71254E-03 3.96020E-04-2.29761E-15
 -1      3147 2.92311E-03 3.61674E-04-2.77882E-15
 -1      3148 3.71436E-03 4.01673E-04-4.45962E-15
 -1      3149 3.57134E-03 4.01901E-04-4.10522E-15
 -1      3150 4.00034E-03 4.00660E-04-5.21242E-15
 -1      3151 3.85736E-03 4.01253E-04-4.82942E-15
 -1      3152 3.78380E-03 3.63973E-04-4.74627E-15
 -1      3153 4.28625E-03 3.99078E-04-6.02930E-15
 -1      3154 4.14330E-03 3.99931E-04-5.61289E-15
 -1      3155 4.07027E-03 3.62862E-04-5.52302E-15
 -1      3156 4.57210E-03 3.97065E-04-6.90603E-15
 -1      3157 4.42918E-03 3.98121E-04-6.46011E-15
 -1      3158 4.35656E-03 3.61250E-04-6.36084E-15
 -1      3159 4.85792E-03 3.94685E-04-7.84568E-15
 -1      3160 4.71502E-03 3.95920E-04-7.36710E-15
 -1      3161 4.64269E-03 3.59248E-04-7.26039E-15
 -1      3162 5.14371E-03 3.91943E-04-8.85023E-15
 -1      3163 5.00082E-03 3.93361E-04-8.34079E-15
 -1      3164 4.92868E-03 3.56899E-04-8.22396E-15
 -1      3165 5.42948E-03 3.88808E-04-9.91767E-15
 -1      3166 5.28659E-03 3.90428E-04-9.37483E-15
 -1      3167 5.21453E-03 3.54197E-04-9.25029E-15
 -1      3168 5.71524E-03 3.85226E-04-1.10503E-14
 -1      3169 5.57236E-03 3.87077E-04-1.04760E-14
 -1      3170 5.50025E-03 3.51101E-04-1.03411E-14
 -1      3171 6.00101E-03 3.81142E-04-1.22492E-14
 -1      3172 5.85812E-03 3.83251E-04-1.16421E-14
 -1      3173 5.78583E-03 3.47553E-04-1.14966E-14
 -1      3174 6.28683E-03 3.76518E-04-1.35119E-14
 -1      3175 6.14391E-03 3.78900E-04-1.28724E-14
 -1      3176 6.07129E-03 3.43491E-04-1.27173E-14
 -1      3177 6.57276E-03 3.71355E-04-1.48356E-14
 -1      3178 6.42977E-03 3.74002E-04-1.41656E-14
 -1      3179 6.35663E-03 3.38874E-04-1.39997E-14
 -1      3180 6.85889E-03 3.65728E-04-1.62214E-14
 -1      3181 6.71578E-03 3.68592E-04-1.55208E-14
 -1      3182 6.64192E-03 3.33694E-04-1.53424E-14
 -1      3183 7.14540E-03 3.59823E-04-1.76642E-14
 -1      3184 7.00207E-03 3.62795E-04-1.69365E-14
 -1      3185 6.92724E-03 3.28017E-04-1.67453E-14
 -1      3186 7.43256E-03 3.53980E-04-1.91638E-14
 -1      3187 7.28887E-03 3.56866E-04-1.84070E-14
 -1      3188 7.21277E-03 3.22006E-04-1.82050E-14
 -1      3189 7.72079E-03 3.48751E-04-2.07156E-14
 -1      3190 7.57651E-03 3.51244E-04-1.99333E-14
 -1      3191 7.49882E-03 3.15978E-04-1.97199E-14
 -1      3192 8.01071E-03 3.44959E-04-2.23159E-14
 -1      3193 7.86550E-03 3.46608E-04-2.15103E-14
 -1      3194 7.78589E-03 3.10450E-04-2.12848E-14
 -1      3195 8.30317E-03 3.43754E-04-2.39601E-14
 -1      3196 8.15657E-03 3.43936E-04-2.31323E-14
 -1      3197 8.07473E-03 3.06213E-04-2.28967E-14
 -1      3198 8.59927E-03 3.46661E-04-2.56421E-14
 -1      3199 8.45071E-03 3.44564E-04-2.47970E-14
 -1      3200 8.36642E-03 3.04403E-04-2.45500E-14
 -1      3201 8.90029E-03 3.55571E-04-2.73576E-14
 -1      3202 8.74912E-03 3.50204E-04-2.64961E-14
 -1      3203 8.66236E-03 3.06587E-04-2.62419E-14
 -1      3204 9.20745E-03 3.72619E-04-2.91045E-14
 -1      3205 9.05310E-03 3.62900E-04-2.82276E-14
 -1      3206 8.96424E-03 3.14818E-04-2.79650E-14
 -1      3207 9.52142E-03 3.99789E-04-3.08745E-14
 -1      3208 9.36367E-03 3.84806E-04-2.99875E-14
 -1      3209 9.27371E-03 3.31592E-04-2.97175E-14
 -1      3210 9.84157E-03 4.37957E-04-3.26580E-14
 -1      3211 9.68094E-03 4.17504E-04-3.17648E-14
 -1      3212 9.59177E-03 3.59466E-04-3.14913E-14
 -1      3213 1.01653E-02 4.85206E-04-3.44530E-14
 -1      3214 1.00034E-02 4.60752E-04-3.35531E-14
 -1      3215 9.91781E-03 3.99933E-04-3.32763E-14
 -1      3216 1.04877E-02 5.34637E-04-3.62580E-14
 -1      3217 1.03271E-02 5.10490E-04-3.53541E-14
 -1      3218 1.02485E-02 4.51420E-04-3.50738E-14
 -1      3219 1.08034E-02 5.72350E-04-3.80689E-14
 -1      3220 1.06467E-02 5.56264E-04-3.71630E-14
 -1      3221 1.05776E-02 5.05679E-04-3.68785E-14
 -1      3222 1.11097E-02 5.79748E-04-3.98884E-14
 -1      3223 1.09574E-02 5.81081E-04-3.89770E-14
 -1      3224 1.08984E-02 5.45449E-04-3.86923E-14
 -1      3225 1.14099E-02 5.41096E-04-4.17194E-14
 -1      3226 1.12598E-02 5.66946E-04-4.08021E-14
 -1      3227 1.12085E-02 5.48488E-04-4.05156E-14
 -1      3228 1.17116E-02 4.51697E-04-4.35602E-14
 -1      3229 1.15597E-02 5.02483E-04-4.26382E-14
 -1      3230 1.15131E-02 4.97436E-04-4.23486E-14
 -1      3231 1.20218E-02 3.21065E-04-4.54118E-14
 -1      3232 1.18653E-02 3.90221E-04-4.44858E-14
 -1      3233 1.18227E-02 3.90134E-04-4.41973E-14
 -1      3234 1.23409E-02 1.67529E-04-4.72644E-14
 -1      3235 1.21805E-02 2.45840E-04-4.63380E-14
 -1      3236 1.21435E-02 2.43910E-04-4.60503E-14
 -1      3237 1.26642E-02 7.60694E-06-4.91191E-14
 -1      3238 1.25025E-02 8.74907E-05-4.81913E-14
 -1      3239 1.24731E-02 8.11902E-05-4.79054E-14
 -1      3240 1.29862E-02-1.48750E-04-5.09729E-14
 -1      3241 1.28259E-02-7.13896E-05-5.00467E-14
 -1      3242 1.28048E-02-8.12017E-05-4.97650E-14
 -1      3243 1.33021E-02-2.98174E-04-5.28177E-14
 -1      3244 1.31452E-02-2.24258E-04-5.18960E-14
 -1      3245 1.31317E-02-2.35174E-04-5.16195E-14
 -1      3246 1.35724E-02-4.24828E-04-5.44148E-14
 -1      3247 1.34187E-02-3.52274E-04-5.35108E-14
 -1      3248 1.34108E-02-3.62123E-04-5.32399E-14
 -1      3249 1.36436E-02-4.66597E-04-5.46296E-14
 -1      3250 1.47022E-02-9.96935E-04-5.73749E-14
 -1      3251 1.46589E-02-9.74305E-04-5.71679E-14
 -1      3252 1.42639E-02-8.64003E-04-5.28792E-14
 -1      3253 1.42301E-02-8.70694E-04-5.28333E-14
 -1      3254 1.47440E-02-1.03932E-03-5.77942E-14
 -1      3255 1.47307E-02-1.01759E-03-5.75840E-14
 -1      3256 1.46223E-02-9.77990E-04-5.66739E-14
 -1      3257 1.46025E-02-9.50327E-04-5.69641E-14
 -1      3258 1.45342E-02-9.22096E-04-5.67591E-14
 -1      3259 1.45329E-02-9.34592E-04-5.62608E-14
 -1      3260 1.41789E-02-8.81256E-04-5.27504E-14
 -1      3261 1.41055E-02-8.98314E-04-5.26702E-14
 -1      3262 1.42541E-02-8.93292E-04-5.33866E-14
 -1      3263 1.07418E-03 3.29539E-04-2.82828E-16
 -1      3264 7.69907E-04-2.02513E-04-3.51119E-16
 -1      3265 1.37535E-02-1.02639E-03-5.22856E-14
 -1      3266 1.38841E-02-9.81016E-04-5.25771E-14
 -1      3267 1.39124E-02-1.00317E-03-5.30636E-14
 -1      3268 1.40590E-02-1.00717E-03-5.40146E-14
 -1      3269 1.40084E-02-9.35283E-04-5.26952E-14
 -1      3270 1.41395E-02-8.25855E-04-5.22888E-14
 -1      3271 1.42322E-02-8.47461E-04-5.26945E-14
 -1      3272 1.44547E-02-8.89422E-04-5.65481E-14
 -1      3273 1.43681E-02-8.52144E-04-5.63389E-14
 -1      3274 1.43855E-02-8.76114E-04-5.58486E-14
 -1      3275 3.42829E-03 4.01879E-04-3.76671E-15
 -1      3276 3.28522E-03 4.01574E-04-3.44231E-15
 -1      3277 3.21025E-03 3.63771E-04-3.37489E-15
 -1      3278 3.49714E-03 3.64382E-04-4.03082E-15
 -1      3279 9.96710E-03-5.86220E-04-3.84777E-14
 -1      3280 1.13340E-02 4.67474E-04-4.13829E-14
 -1      3281 1.14822E-02 4.54348E-04-4.22056E-14
 -1      3282 1.17144E-03-2.78320E-04-7.13161E-16
 -1      3283 1.31437E-03-2.97820E-04-8.72241E-16
 -1      3284 1.37848E-03-2.73994E-04-9.55440E-16
 -1      3285 1.11929E-03-2.40690E-04-6.65565E-16
 -1      3286 9.24421E-03-3.26940E-04-3.55374E-14
 -1      3287 9.27253E-03-3.23097E-04-3.55936E-14
 -1      3288 9.79374E-03-1.32424E-04-3.58411E-14
 -1      3289 9.93826E-03-6.49615E-05-3.60735E-14
 -1      3290 1.16745E-02 4.02601E-04-4.32532E-14
 -1      3291 1.18532E-02 3.24546E-04-4.41986E-14
 -1      3292 9.32638E-03-3.07345E-04-3.55503E-14
 -1      3293 9.40889E-03-2.81863E-04-3.55070E-14
 -1      3294 9.25881E-03-2.95799E-04-3.50008E-14
 -1      3295 1.06770E-03 2.82714E-04-3.32132E-16
 -1      3296 1.05690E-02 2.21931E-04-3.79529E-14
 -1      3297 1.07466E-02 3.17175E-04-3.85642E-14
 -1      3298 1.01657E-03 6.82149E-05-4.80667E-16
 -1      3299 1.01540E-03 4.12301E-05-4.96944E-16
 -1      3300 1.42764E-02-8.10753E-04-5.61304E-14
 -1      3301 1.41827E-02-7.65915E-04-5.59178E-14
 -1      3302 1.42011E-02-7.96000E-04-5.54329E-14
 -1      3303 1.18655E-03 2.84962E-04-4.30130E-16
 -1      3304 1.09761E-02 4.07589E-04-3.95473E-14
 -1      3305 1.11413E-02 4.52234E-04-4.03612E-14
 -1      3306 1.30399E-02-3.81950E-04-4.90449E-14
 -1      3307 1.32295E-02-4.83631E-04-4.95906E-14
 -1      3308 1.33768E-02-5.40317E-04-5.04124E-14
 -1      3309 9.47396E-03-3.95264E-04-3.67374E-14
 -1      3310 1.19543E-02 2.74606E-04-4.47410E-14
 -1      3311 1.20559E-02 2.21088E-04-4.52854E-14
 -1      3312 1.18621E-02 3.27445E-04-4.42959E-14
 -1      3313 8.31247E-04-1.92219E-04-4.02524E-16
 -1      3314 9.37388E-03-3.65939E-04-3.60431E-14
 -1      3315 1.23061E-02 7.49194E-05-4.64877E-14
 -1      3316 1.24183E-02-3.56640E-06-4.69074E-14
 -1      3317 1.25624E-02-7.65997E-05-4.76603E-14
 -1      3318 1.29375E-02-3.09007E-04-4.89724E-14
 -1      3319 9.65670E-03-1.42765E-04-3.51501E-14
 -1      3320 9.23995E-03-3.28871E-04-3.54819E-14
 -1      3321 9.20512E-03-3.11346E-04-3.49870E-14
 -1      3322 9.24551E-03-3.30320E-04-3.54256E-14
 -1      3323 1.37379E-02-6.98292E-04-5.13170E-14
 -1      3324 1.40954E-02-8.15028E-04-5.23876E-14
 -1      3325 1.42006E-02-8.43259E-04-5.31964E-14
 -1      3326 1.40449E-02-8.00038E-04-5.24877E-14
 -1      3327 1.15306E-03 2.11832E-04-4.80274E-16
 -1      3328 1.02832E-03 1.81190E-04-4.02280E-16
 -1      3329 1.02415E-03 1.51855E-04-4.24167E-16
 -1      3330 1.41908E-02-9.72240E-04-5.42967E-14
 -1      3331 2.13906E-03 3.78486E-04-1.39698E-15
 -1      3332 2.06031E-03 3.38778E-04-1.35624E-15
 -1      3333 2.28251E-03 3.84466E-04-1.59943E-15
 -1      3334 1.47671E-02-1.13034E-03-5.87908E-14
 -1      3335 1.01480E-03 1.44513E-05-5.11676E-16
 -1      3336 1.01476E-03-1.22285E-05-5.25215E-16
 -1      3337 1.13549E-03 3.01706E-05-6.12683E-16
 -1      3338 2.63572E-03 3.57439E-04-2.24336E-15
 -1      3339 2.56924E-03 3.93074E-04-2.05000E-15
 -1      3340 2.42591E-03 3.89290E-04-1.81701E-15
 -1      3341 1.42928E-02-8.70156E-04-5.32824E-14
 -1      3342 1.43393E-02-8.92305E-04-5.38685E-14
 -1      3343 1.43083E-02-8.75920E-04-5.36842E-14
 -1      3344 1.08036E-02 3.78163E-04-3.86346E-14
 -1      3345 1.40887E-02-7.18479E-04-5.57037E-14
 -1      3346 1.39957E-02-6.69395E-04-5.54924E-14
 -1      3347 1.40060E-02-6.99292E-04-5.50129E-14
 -1      3348 1.02367E-03-1.49121E-04-5.73489E-16
 -1      3349 1.02772E-03-1.78350E-04-5.78801E-16
 -1      3350 1.41206E-02-9.33275E-04-5.33281E-14
 -1      3351 1.42152E-03 3.23097E-04-6.04741E-16
 -1      3352 1.27827E-03 3.05168E-04-4.88745E-16
 -1      3353 1.47201E-02-1.08694E-03-5.81383E-14
 -1      3354 1.47208E-02-1.06350E-03-5.79040E-14
 -1      3355 1.25053E-03 2.63636E-04-5.13153E-16
 -1      3356 1.39047E-02-6.19018E-04-5.52806E-14
 -1      3357 1.38160E-02-5.68564E-04-5.50682E-14
 -1      3358 1.38160E-02-5.93752E-04-5.45886E-14
 -1      3359 1.00268E-02-4.35141E-06-3.61007E-14
 -1      3360 1.01063E-02 5.87486E-05-3.61273E-14
 -1      3361 9.87244E-03-2.35348E-05-3.53394E-14
 -1      3362 9.49465E-04-1.98158E-04-5.04750E-16
 -1      3363 1.37162E-02-5.08692E-04-5.48463E-14
 -1      3364 1.15742E-02 4.36150E-04-4.27039E-14
 -1      3365 1.12038E-02 4.75177E-04-4.06366E-14
 -1      3366 1.46237E-02-1.02125E-03-5.69939E-14
 -1      3367 1.02085E-03 1.23313E-04-4.44835E-16
 -1      3368 1.01837E-03 9.55373E-05-4.63727E-16
 -1      3369 1.13815E-03 8.86357E-05-5.75169E-16
 -1      3370 1.14375E-03 1.48791E-04-5.31354E-16
 -1      3371 1.36242E-02-4.76423E-04-5.41571E-14
 -1      3372 1.04314E-02 1.92195E-04-3.72725E-14
 -1      3373 9.41655E-03-2.42085E-04-3.49733E-14
 -1      3374 1.01810E-03-9.30008E-05-5.58269E-16
 -1      3375 1.02048E-03-1.20715E-04-5.66726E-16
 -1      3376 1.14329E-03-1.45912E-04-6.90501E-16
 -1      3377 1.48521E-03 2.97474E-04-7.05612E-16
 -1      3378 9.32928E-03-3.52612E-04-3.54636E-14
 -1      3379 9.26605E-03-3.35764E-04-3.53443E-14
 -1      3380 9.20346E-03-3.18038E-04-3.48494E-14
 -1      3381 9.24833E-03-3.35521E-04-3.46811E-14
 -1      3382 1.86187E-03-2.80024E-04-1.63216E-15
 -1      3383 2.00610E-03-2.87351E-04-1.86588E-15
 -1      3384 2.15041E-03-2.93401E-04-2.11550E-15
 -1      3385 2.29477E-03-2.98296E-04-2.38152E-15
 -1      3386 2.07300E-03-2.54635E-04-1.97428E-15
 -1      3387 2.43912E-03-3.02233E-04-2.66299E-15
 -1      3388 2.58344E-03-3.05308E-04-2.96014E-15
 -1      3389 2.36222E-03-2.63593E-04-2.50086E-15
 -1      3390 2.72771E-03-3.07684E-04-3.27246E-15
 -1      3391 2.87190E-03-3.09435E-04-3.60088E-15
 -1      3392 2.65149E-03-2.69248E-04-3.09000E-15
 -1      3393 3.02323E-03-3.10740E-04-3.96251E-15
 -1      3394 3.17447E-03-3.11562E-04-4.34127E-15
 -1      3395 2.94776E-03-2.72543E-04-3.75821E-15
 -1      3396 3.31841E-03-3.11995E-04-4.71852E-15
 -1      3397 3.46227E-03-3.12126E-04-5.10989E-15
 -1      3398 3.24367E-03-2.74043E-04-4.49190E-15
 -1      3399 3.60604E-03-3.12025E-04-5.51798E-15
 -1      3400 3.74973E-03-3.11715E-04-5.94132E-15
 -1      3401 3.53195E-03-2.74307E-04-5.27097E-15
 -1      3402 3.89334E-03-3.11246E-04-6.37947E-15
 -1      3403 4.03686E-03-3.10631E-04-6.83411E-15
 -1      3404 3.81981E-03-2.73759E-04-6.11100E-15
 -1      3405 4.18031E-03-3.09903E-04-7.30428E-15
 -1      3406 4.32369E-03-3.09068E-04-7.79003E-15
 -1      3407 4.10727E-03-2.72647E-04-7.01334E-15
 -1      3408 4.46699E-03-3.08144E-04-8.29083E-15
 -1      3409 4.61022E-03-3.07132E-04-8.80803E-15
 -1      3410 4.39433E-03-2.71127E-04-7.97855E-15
 -1      3411 4.75339E-03-3.06040E-04-9.34037E-15
 -1      3412 4.89648E-03-3.04865E-04-9.88802E-15
 -1      3413 4.68101E-03-2.69282E-04-9.00584E-15
 -1      3414 5.03950E-03-3.03609E-04-1.04519E-14
 -1      3415 5.18244E-03-3.02263E-04-1.10312E-14
 -1      3416 4.96731E-03-2.67142E-04-1.00953E-14
 -1      3417 5.32530E-03-3.00825E-04-1.16251E-14
 -1      3418 5.46808E-03-2.99285E-04-1.22347E-14
 -1      3419 5.25321E-03-2.64695E-04-1.12462E-14
 -1      3420 5.61075E-03-2.97638E-04-1.28588E-14
 -1      3421 5.75333E-03-2.95873E-04-1.34977E-14
 -1      3422 5.53866E-03-2.61905E-04-1.24582E-14
 -1      3423 5.89577E-03-2.93986E-04-1.41516E-14
 -1      3424 6.03808E-03-2.91966E-04-1.48186E-14
 -1      3425 5.82356E-03-2.58727E-04-1.37309E-14
 -1      3426 6.18021E-03-2.89814E-04-1.54991E-14
 -1      3427 6.32216E-03-2.87518E-04-1.61921E-14
 -1      3428 6.10776E-03-2.55121E-04-1.50589E-14
 -1      3429 6.46388E-03-2.85092E-04-1.68976E-14
 -1      3430 6.60534E-03-2.82525E-04-1.76158E-14
 -1      3431 6.39105E-03-2.51073E-04-1.64398E-14
 -1      3432 6.75353E-03-2.79713E-04-1.83824E-14
 -1      3433 6.90132E-03-2.76774E-04-1.91650E-14
 -1      3434 6.68015E-03-2.46509E-04-1.79062E-14
 -1      3435 7.04159E-03-2.73924E-04-1.99218E-14
 -1      3436 7.18137E-03-2.71017E-04-2.06881E-14
 -1      3437 6.96748E-03-2.41670E-04-1.94257E-14
 -1      3438 7.32049E-03-2.68167E-04-2.14669E-14
 -1      3439 7.45891E-03-2.65369E-04-2.22560E-14
 -1      3440 7.24547E-03-2.36969E-04-2.09578E-14
 -1      3441 7.59643E-03-2.62803E-04-2.30552E-14
 -1      3442 7.73298E-03-2.60463E-04-2.38639E-14
 -1      3443 7.52030E-03-2.32770E-04-2.25315E-14
 -1      3444 7.86828E-03-2.58620E-04-2.46811E-14
 -1      3445 8.00224E-03-2.57256E-04-2.55087E-14
 -1      3446 7.79083E-03-2.29818E-04-2.41433E-14
 -1      3447 8.13451E-03-2.56766E-04-2.63457E-14
 -1      3448 8.26497E-03-2.57095E-04-2.71918E-14
 -1      3449 8.05554E-03-2.29186E-04-2.57944E-14
 -1      3450 8.39315E-03-2.58791E-04-2.80469E-14
 -1      3451 8.51892E-03-2.61718E-04-2.89107E-14
 -1      3452 8.31239E-03-2.32301E-04-2.74823E-14
 -1      3453 8.64165E-03-2.66620E-04-2.97816E-14
 -1      3454 8.76125E-03-2.73150E-04-3.06612E-14
 -1      3455 8.55871E-03-2.40908E-04-2.92044E-14
 -1      3456 8.87682E-03-2.82289E-04-3.15495E-14
 -1      3457 8.98846E-03-2.93350E-04-3.24415E-14
 -1      3458 8.79087E-03-2.56843E-04-3.09605E-14
 -1      3459 1.83781E-03 2.91459E-04-1.13104E-15
 -1      3460 1.69382E-03 2.82043E-04-9.64181E-16
 -1      3461 1.35060E-02-4.26199E-04-5.34600E-14
 -1      3462 4.14043E-03 3.24980E-04-5.83682E-15
 -1      3463 3.99704E-03 3.25626E-04-5.42887E-15
 -1      3464 3.85357E-03 3.26140E-04-5.03708E-15
 -1      3465 3.71003E-03 3.26512E-04-4.66058E-15
 -1      3466 3.92364E-03 2.88224E-04-5.33205E-15
 -1      3467 4.71336E-03 3.21429E-04-7.61893E-15
 -1      3468 4.57022E-03 3.22448E-04-7.15035E-15
 -1      3469 4.99945E-03 3.19151E-04-8.60638E-15
 -1      3470 4.85643E-03 3.20333E-04-8.10437E-15
 -1      3471 4.78410E-03 2.83646E-04-7.98283E-15
 -1      3472 5.28529E-03 3.16529E-04-9.65517E-15
 -1      3473 5.14240E-03 3.17887E-04-9.12329E-15
 -1      3474 5.07022E-03 2.81476E-04-8.99145E-15
 -1      3475 5.57088E-03 3.13514E-04-1.07676E-14
 -1      3476 5.42812E-03 3.15075E-04-1.02028E-14
 -1      3477 5.35599E-03 2.78972E-04-1.00634E-14
 -1      3478 5.85622E-03 3.10043E-04-1.19460E-14
 -1      3479 5.71358E-03 3.11841E-04-1.13486E-14
 -1      3480 5.64139E-03 2.76080E-04-1.11985E-14
 -1      3481 6.14127E-03 3.06049E-04-1.31878E-14
 -1      3482 5.99878E-03 3.08116E-04-1.25592E-14
 -1      3483 5.92640E-03 2.72729E-04-1.23984E-14
 -1      3484 6.42606E-03 3.01480E-04-1.44891E-14
 -1      3485 6.28369E-03 3.03840E-04-1.38308E-14
 -1      3486 6.21098E-03 2.68846E-04-1.36606E-14
 -1      3487 6.71060E-03 2.96318E-04-1.58516E-14
 -1      3488 6.56835E-03 2.98974E-04-1.51633E-14
 -1      3489 6.49511E-03 2.64366E-04-1.49825E-14
 -1      3490 6.99498E-03 2.90606E-04-1.72726E-14
 -1      3491 6.85279E-03 2.93527E-04-1.65546E-14
 -1      3492 6.77880E-03 2.59252E-04-1.63632E-14
 -1      3493 7.27940E-03 2.84476E-04-1.87484E-14
 -1      3494 7.13716E-03 2.87581E-04-1.80042E-14
 -1      3495 7.06213E-03 2.53514E-04-1.78019E-14
 -1      3496 7.56420E-03 2.78201E-04-2.02771E-14
 -1      3497 7.42171E-03 2.81333E-04-1.95060E-14
 -1      3498 7.34530E-03 2.47241E-04-1.92932E-14
 -1      3499 7.84995E-03 2.72245E-04-2.18540E-14
 -1      3500 7.70690E-03 2.75140E-04-2.10595E-14
 -1      3501 7.62868E-03 2.40638E-04-2.08360E-14
 -1      3502 8.13754E-03 2.67341E-04-2.34791E-14
 -1      3503 7.99344E-03 2.69591E-04-2.26624E-14
 -1      3504 7.91293E-03 2.34094E-04-2.24262E-14
 -1      3505 8.42829E-03 2.64598E-04-2.51413E-14
 -1      3506 8.28242E-03 2.65590E-04-2.43040E-14
 -1      3507 8.19908E-03 2.28264E-04-2.40605E-14
 -1      3508 8.72392E-03 2.65628E-04-2.68422E-14
 -1      3509 8.57538E-03 2.64478E-04-2.59886E-14
 -1      3510 8.48866E-03 2.24211E-04-2.57334E-14
 -1      3511 9.02659E-03 2.72682E-04-2.85730E-14
 -1      3512 8.87426E-03 2.68174E-04-2.77039E-14
 -1      3513 8.78380E-03 2.23600E-04-2.74432E-14
 -1      3514 9.33846E-03 2.88726E-04-3.03301E-14
 -1      3515 9.18131E-03 2.79292E-04-2.94481E-14
 -1      3516 9.08713E-03 2.28954E-04-2.91803E-14
 -1      3517 9.66101E-03 3.17213E-04-3.21062E-14
 -1      3518 9.49848E-03 3.01170E-04-3.12165E-14
 -1      3519 9.40148E-03 2.43961E-04-3.09419E-14
 -1      3520 9.99381E-03 3.60190E-04-3.38929E-14
 -1      3521 9.82651E-03 3.36720E-04-3.29982E-14
 -1      3522 9.72905E-03 2.72963E-04-3.27206E-14
 -1      3523 1.03327E-02 4.17217E-04-3.56940E-14
 -1      3524 1.01632E-02 3.87575E-04-3.47936E-14
 -1      3525 1.00692E-02 3.19603E-04-3.45103E-14
 -1      3526 1.06697E-02 4.78059E-04-3.74999E-14
 -1      3527 1.05023E-02 4.48541E-04-3.65950E-14
 -1      3528 1.04171E-02 3.84042E-04-3.63118E-14
 -1      3529 1.10404E-02 5.04111E-04-3.96118E-14
 -1      3530 1.08762E-02 4.85059E-04-3.87022E-14
 -1      3531 1.13760E-02 4.99469E-04-4.15471E-14
 -1      3532 1.12180E-02 5.12229E-04-4.06315E-14
 -1      3533 1.19707E-02 2.98580E-04-4.49835E-14
 -1      3534 1.18063E-02 3.72067E-04-4.40535E-14
 -1      3535 1.26126E-02-1.03388E-05-4.85491E-14
 -1      3536 1.24421E-02 7.43947E-05-4.76193E-14
 -1      3537 1.29518E-02-1.72705E-04-5.04130E-14
 -1      3538 1.27832E-02-9.32140E-05-4.94813E-14
 -1      3539 1.27613E-02-1.06371E-04-4.91957E-14
 -1      3540 1.32822E-02-3.22083E-04-5.22677E-14
 -1      3541 1.31185E-02-2.48913E-04-5.13411E-14
 -1      3542 1.31056E-02-2.65210E-04-5.10605E-14
 -1      3543 1.55010E-03 2.70847E-04-8.11986E-16
 -1      3544 1.40673E-03 2.57713E-04-6.73981E-16
 -1      3545 1.61598E-03 2.43154E-04-9.23862E-16
 -1      3546 1.42626E-02-9.44673E-04-5.42725E-14
 -1      3547 1.45028E-02-9.46799E-04-5.55800E-14
 -1      3548 1.44739E-02-9.27762E-04-5.53695E-14
 -1      3549 1.43819E-02-8.95655E-04-5.48839E-14
 -1      3550 1.43077E-02-8.68853E-04-5.46814E-14
 -1      3551 1.43398E-02-9.09863E-04-5.41084E-14
 -1      3552 1.42995E-02-9.16729E-04-5.40275E-14
 -1      3553 1.43716E-02-9.58060E-04-5.49898E-14
 -1      3554 1.43926E-02-9.15637E-04-5.45063E-14
 -1      3555 1.32498E-03 2.43644E-04-6.07722E-16
 -1      3556 1.23409E-03 2.26564E-04-5.39065E-16
 -1      3557 1.22849E-03 1.93250E-04-5.68176E-16
 -1      3558 1.39083E-03 2.19437E-04-7.02116E-16
 -1      3559 1.41290E-02-7.84572E-04-5.47274E-14
 -1      3560 1.40266E-02-7.36099E-04-5.45216E-14
 -1      3561 9.18142E-03-2.81511E-04-3.43456E-14
 -1      3562 9.22713E-03-2.65391E-04-3.43035E-14
 -1      3563 1.37350E-02-6.86487E-04-5.18061E-14
 -1      3564 1.39032E-02-7.52683E-04-5.21688E-14
 -1      3565 1.42001E-02-8.31167E-04-5.43642E-14
 -1      3566 1.40974E-02-7.89017E-04-5.41574E-14
 -1      3567 1.02443E-02 1.50256E-04-3.63663E-14
 -1      3568 1.03881E-02 2.40873E-04-3.67480E-14
 -1      3569 1.01529E-03-3.89373E-05-5.37588E-16
 -1      3570 1.01638E-03-6.57803E-05-5.48606E-16
 -1      3571 1.13789E-03-8.59889E-05-6.70891E-16
 -1      3572 4.42702E-03 3.23381E-04-6.69702E-15
 -1      3573 4.28376E-03 3.24230E-04-6.25937E-15
 -1      3574 4.21082E-03 2.87057E-04-6.15377E-15
 -1      3575 4.49763E-03 2.85509E-04-7.03716E-15
 -1      3576 1.57402E-03-2.60714E-04-1.21028E-15
 -1      3577 1.71783E-03-2.71191E-04-1.41358E-15
 -1      3578 1.78427E-03-2.41309E-04-1.51005E-15
 -1      3579 1.05233E-03-1.97423E-04-6.02112E-16
 -1      3580 1.09361E-03-2.20122E-04-6.41766E-16
 -1      3581 1.22256E-03-2.37123E-04-7.77319E-16
 -1      3582 1.17195E-03-1.96371E-04-7.24355E-16
 -1      3583 2.99113E-03 3.24803E-04-3.00122E-15
 -1      3584 2.84712E-03 3.23377E-04-2.71373E-15
 -1      3585 1.15527E-02 4.58120E-04-4.25927E-14
 -1      3586 1.28700E-02-2.48233E-04-4.90146E-14
 -1      3587 1.31141E-02-3.86480E-04-4.99095E-14
 -1      3588 9.30064E-03-2.37954E-04-3.42914E-14
 -1      3589 9.39380E-03-2.00794E-04-3.43066E-14
 -1      3590 9.51182E-03-1.45911E-04-3.43586E-14
 -1      3591 9.63302E-03-9.14961E-05-3.45211E-14
 -1      3592 1.33453E-02-5.07322E-04-5.06848E-14
 -1      3593 1.35134E-02-5.87209E-04-5.12297E-14
 -1      3594 1.35013E-02-4.42109E-04-5.31866E-14
 -1      3595 1.21967E-02 1.49764E-04-4.60377E-14
 -1      3596 1.40414E-02-7.92124E-04-5.29747E-14
 -1      3597 1.98194E-03 2.99344E-04-1.31210E-15
 -1      3598 1.90409E-03 2.60355E-04-1.26511E-15
 -1      3599 2.12616E-03 3.05829E-04-1.50804E-15
 -1      3600 9.07710E-03-3.05890E-04-3.31678E-14
 -1      3601 9.16585E-03-3.19022E-04-3.39457E-14
 -1      3602 9.14670E-03-3.07886E-04-3.40324E-14
 -1      3603 8.98594E-03-2.79886E-04-3.25732E-14
 -1      3604 1.44280E-02-9.77316E-04-5.55304E-14
 -1      3605 1.45407E-02-1.01036E-03-5.64666E-14
 -1      3606 2.34810E-03 3.50189E-04-1.76969E-15
 -1      3607 1.25748E-03 4.78577E-05-7.21659E-16
 -1      3608 1.25674E-03 1.67886E-05-7.41730E-16
 -1      3609 2.70302E-03 3.21394E-04-2.44261E-15
 -1      3610 2.55887E-03 3.18785E-04-2.18644E-15
 -1      3611 2.77107E-03 2.84998E-04-2.64633E-15
 -1      3612 3.13508E-03 3.25790E-04-3.30299E-15
 -1      3613 3.05978E-03 2.87671E-04-3.22783E-15
 -1      3614 3.27893E-03 3.26385E-04-3.62026E-15
 -1      3615 1.08008E-02 4.33617E-04-3.84149E-14
 -1      3616 9.19726E-03-2.30387E-04-3.36390E-14
 -1      3617 9.37414E-03-1.52961E-04-3.36789E-14
 -1      3618 1.17135E-02 4.06241E-04-4.35151E-14
 -1      3619 1.22718E-02 1.59872E-04-4.66897E-14
 -1      3620 1.21040E-02 2.43165E-04-4.57610E-14
 -1      3621 1.05899E-02 3.55238E-04-3.74360E-14
 -1      3622 1.32646E-02-4.44409E-04-5.07231E-14
 -1      3623 1.26377E-03-1.39734E-04-8.17244E-16
 -1      3624 1.26759E-03-1.72255E-04-8.26975E-16
 -1      3625 1.39240E-02-6.83024E-04-5.43152E-14
 -1      3626 1.38234E-02-6.27839E-04-5.41034E-14
 -1      3627 1.38443E-02-6.69757E-04-5.36076E-14
 -1      3628 1.13541E-03-2.76986E-05-6.44640E-16
 -1      3629 1.44437E-02-9.53772E-04-5.52874E-14
 -1      3630 1.36975E-02-6.55869E-04-5.20765E-14
 -1      3631 1.26115E-03 1.10625E-04-6.76759E-16
 -1      3632 1.25894E-03 7.90759E-05-7.00069E-16
 -1      3633 1.38065E-03 6.71691E-05-8.38142E-16
 -1      3634 9.15855E-03-2.86687E-04-3.42911E-14
 -1      3635 9.11172E-03-2.60242E-04-3.35954E-14
 -1      3636 9.14333E-03-2.89899E-04-3.42348E-14
 -1      3637 1.37055E-02-5.64822E-04-5.37492E-14
 -1      3638 1.36117E-02-5.07011E-04-5.35393E-14
 -1      3639 1.33819E-02-4.07145E-04-5.23423E-14
 -1      3640 1.36149E-02-5.44245E-04-5.30482E-14
 -1      3641 9.70884E-03-4.33919E-05-3.45468E-14
 -1      3642 9.78140E-03 8.61508E-06-3.45731E-14
 -1      3643 9.55391E-03-5.30949E-05-3.37563E-14
 -1      3644 1.04107E-02 3.18389E-04-3.65282E-14
 -1      3645 3.56641E-03 3.26698E-04-4.29888E-15
 -1      3646 3.42271E-03 3.26677E-04-3.95253E-15
 -1      3647 3.34813E-03 2.88808E-04-3.87014E-15
 -1      3648 3.63608E-03 2.88881E-04-4.57119E-15
 -1      3649 1.00839E-02 1.19305E-04-3.56036E-14
 -1      3650 1.33292E-03-2.43926E-04-9.03764E-16
 -1      3651 1.46296E-03-2.57269E-04-1.06341E-15
 -1      3652 1.52894E-03-2.30771E-04-1.14972E-15
 -1      3653 1.30725E-03-2.22832E-04-8.74531E-16
 -1      3654 1.26249E-02-8.58556E-05-4.81762E-14
 -1      3655 1.28025E-02-1.68292E-04-4.91053E-14
 -1      3656 1.24099E-02 6.84274E-05-4.73303E-14
 -1      3657 1.45726E-02-9.85388E-04-5.63560E-14
 -1      3658 1.29828E-02-2.52543E-04-5.00409E-14
 -1      3659 1.99615E-03-2.16382E-04-1.83616E-15
 -1      3660 2.14085E-03-2.21231E-04-2.08136E-15
 -1      3661 2.28567E-03-2.25196E-04-2.34274E-15
 -1      3662 2.43055E-03-2.28366E-04-2.61954E-15
 -1      3663 2.20955E-03-1.87161E-04-2.18841E-15
 -1      3664 2.57545E-03-2.30877E-04-2.91149E-15
 -1      3665 2.72031E-03-2.32795E-04-3.21909E-15
 -1      3666 2.49967E-03-1.92660E-04-2.73658E-15
 -1      3667 2.87235E-03-2.34297E-04-3.55830E-15
 -1      3668 3.02430E-03-2.35331E-04-3.91477E-15
 -1      3669 2.79708E-03-1.96065E-04-3.36263E-15
 -1      3670 3.16891E-03-2.35975E-04-4.27040E-15
 -1      3671 3.31341E-03-2.36322E-04-4.64110E-15
 -1      3672 3.09421E-03-1.97836E-04-4.05260E-15
 -1      3673 3.45780E-03-2.36441E-04-5.02827E-15
 -1      3674 3.60206E-03-2.36354E-04-5.42970E-15
 -1      3675 3.38365E-03-1.98455E-04-4.78891E-15
 -1      3676 3.74621E-03-2.36110E-04-5.84621E-15
 -1      3677 3.89023E-03-2.35723E-04-6.27841E-15
 -1      3678 3.67257E-03-1.98316E-04-5.58580E-15
 -1      3679 4.03413E-03-2.35228E-04-6.72655E-15
 -1      3680 4.17792E-03-2.34631E-04-7.19094E-15
 -1      3681 3.96095E-03-1.97655E-04-6.44452E-15
 -1      3682 4.32159E-03-2.33954E-04-7.67020E-15
 -1      3683 4.46514E-03-2.33198E-04-8.16542E-15
 -1      3684 4.24879E-03-1.96625E-04-7.36607E-15
 -1      3685 4.60857E-03-2.32378E-04-8.67606E-15
 -1      3686 4.75189E-03-2.31489E-04-9.20162E-15
 -1      3687 4.53610E-03-1.95321E-04-8.34993E-15
 -1      3688 4.89510E-03-2.30539E-04-9.74242E-15
 -1      3689 5.03818E-03-2.29520E-04-1.02991E-14
 -1      3690 4.82286E-03-1.93786E-04-9.39449E-15
 -1      3691 5.18113E-03-2.28438E-04-1.08724E-14
 -1      3692 5.32395E-03-2.27281E-04-1.14593E-14
 -1      3693 5.10907E-03-1.92033E-04-1.05008E-14
 -1      3694 5.46663E-03-2.26053E-04-1.20624E-14
 -1      3695 5.60915E-03-2.24743E-04-1.26805E-14
 -1      3696 5.39467E-03-1.90053E-04-1.16695E-14
 -1      3697 5.75149E-03-2.23354E-04-1.33131E-14
 -1      3698 5.89364E-03-2.21876E-04-1.39607E-14
 -1      3699 5.67956E-03-1.87827E-04-1.28993E-14
 -1      3700 6.03556E-03-2.20316E-04-1.46223E-14
 -1      3701 6.17724E-03-2.18665E-04-1.52966E-14
 -1      3702 5.96360E-03-1.85346E-04-1.41876E-14
 -1      3703 6.31862E-03-2.16941E-04-1.59845E-14
 -1      3704 6.45969E-03-2.15135E-04-1.66847E-14
 -1      3705 6.24656E-03-1.82625E-04-1.55315E-14
 -1      3706 6.60738E-03-2.13189E-04-1.74331E-14
 -1      3707 6.75460E-03-2.11185E-04-1.81954E-14
 -1      3708 6.53516E-03-1.79654E-04-1.69623E-14
 -1      3709 6.89427E-03-2.09291E-04-1.89345E-14
 -1      3710 7.03335E-03-2.07405E-04-1.96861E-14
 -1      3711 6.82184E-03-1.76656E-04-1.84455E-14
 -1      3712 7.17173E-03-2.05632E-04-2.04484E-14
 -1      3713 7.30932E-03-2.03971E-04-2.12231E-14
 -1      3714 7.09909E-03-1.73984E-04-1.99426E-14
 -1      3715 7.44597E-03-2.02583E-04-2.20090E-14
 -1      3716 7.58157E-03-2.01464E-04-2.28035E-14
 -1      3717 7.37316E-03-1.72011E-04-2.14870E-14
 -1      3718 7.71590E-03-2.00853E-04-2.36067E-14
 -1      3719 7.84882E-03-2.00738E-04-2.44203E-14
 -1      3720 7.64305E-03-1.71412E-04-2.30726E-14
 -1      3721 7.98007E-03-2.01459E-04-2.52453E-14
 -1      3722 8.10942E-03-2.02971E-04-2.60776E-14
 -1      3723 7.90742E-03-1.73145E-04-2.46970E-14
 -1      3724 8.23655E-03-2.05748E-04-2.69203E-14
 -1      3725 8.36114E-03-2.09664E-04-2.77721E-14
 -1      3726 8.16455E-03-1.78487E-04-2.63601E-14
 -1      3727 8.48275E-03-2.15364E-04-2.86300E-14
 -1      3728 8.60096E-03-2.22565E-04-2.94974E-14
 -1      3729 8.41212E-03-1.89008E-04-2.80586E-14
 -1      3730 8.71517E-03-2.32199E-04-3.03726E-14
 -1      3731 8.82467E-03-2.43462E-04-3.12569E-14
 -1      3732 8.64696E-03-2.06524E-04-2.97897E-14
 -1      3733 1.39233E-02-7.32877E-04-5.32371E-14
 -1      3734 2.41465E-03 3.15397E-04-1.94506E-15
 -1      3735 2.27041E-03 3.11143E-04-1.71912E-15
 -1      3736 2.19297E-03 2.72280E-04-1.66533E-15
 -1      3737 2.48207E-03 2.80146E-04-2.12552E-15
 -1      3738 9.91301E-03 8.56048E-05-3.48083E-14
 -1      3739 1.00354E-02 1.67170E-04-3.50453E-14
 -1      3740 9.74770E-03 6.19810E-05-3.40165E-14
 -1      3741 5.14100E-03 2.43897E-04-9.38130E-15
 -1      3742 4.99801E-03 2.44947E-04-8.85740E-15
 -1      3743 4.85491E-03 2.45919E-04-8.35009E-15
 -1      3744 4.71170E-03 2.46824E-04-7.85742E-15
 -1      3745 4.92579E-03 2.08284E-04-8.72048E-15
 -1      3746 5.71179E-03 2.38829E-04-1.16344E-14
 -1      3747 5.56928E-03 2.40246E-04-1.10466E-14
 -1      3748 5.99641E-03 2.35646E-04-1.28550E-14
 -1      3749 5.85417E-03 2.37302E-04-1.22362E-14
 -1      3750 5.78209E-03 2.01794E-04-1.20727E-14
 -1      3751 6.28044E-03 2.31922E-04-1.41372E-14
 -1      3752 6.13850E-03 2.33859E-04-1.34894E-14
 -1      3753 6.06626E-03 1.98826E-04-1.33144E-14
 -1      3754 6.56383E-03 2.27575E-04-1.54783E-14
 -1      3755 6.42221E-03 2.29834E-04-1.48000E-14
 -1      3756 6.34967E-03 1.95307E-04-1.46174E-14
 -1      3757 6.84658E-03 2.22542E-04-1.68774E-14
 -1      3758 6.70528E-03 2.25151E-04-1.61706E-14
 -1      3759 6.63225E-03 1.91137E-04-1.59767E-14
 -1      3760 7.12875E-03 2.16791E-04-1.83320E-14
 -1      3761 6.98772E-03 2.19759E-04-1.75972E-14
 -1      3762 6.91396E-03 1.86216E-04-1.73931E-14
 -1      3763 7.41053E-03 2.10349E-04-1.98387E-14
 -1      3764 7.26966E-03 2.13653E-04-1.90789E-14
 -1      3765 7.19485E-03 1.80459E-04-1.88630E-14
 -1      3766 7.69231E-03 2.03339E-04-2.13952E-14
 -1      3767 7.55137E-03 2.06900E-04-2.06121E-14
 -1      3768 7.47508E-03 1.73814E-04-2.03871E-14
 -1      3769 7.97481E-03 1.96050E-04-2.30002E-14
 -1      3770 7.83340E-03 1.99695E-04-2.21913E-14
 -1      3771 7.75505E-03 1.66302E-04-2.19575E-14
 -1      3772 8.25919E-03 1.89034E-04-2.46427E-14
 -1      3773 8.11666E-03 1.92440E-04-2.38170E-14
 -1      3774 8.03553E-03 1.58084E-04-2.35721E-14
 -1      3775 8.54721E-03 1.83286E-04-2.63277E-14
 -1      3776 8.40260E-03 1.85879E-04-2.54813E-14
 -1      3777 8.31776E-03 1.49580E-04-2.52290E-14
 -1      3778 8.84137E-03 1.80517E-04-2.80429E-14
 -1      3779 8.69333E-03 1.81318E-04-2.71810E-14
 -1      3780 8.60373E-03 1.41686E-04-2.69203E-14
 -1      3781 9.14489E-03 1.83553E-04-2.97878E-14
 -1      3782 8.99175E-03 1.80971E-04-2.89121E-14
 -1      3783 8.89633E-03 1.36166E-04-2.86436E-14
 -1      3784 9.46148E-03 1.96878E-04-3.15537E-14
 -1      3785 9.30142E-03 1.88460E-04-3.06679E-14
 -1      3786 9.19946E-03 1.36253E-04-3.03935E-14
 -1      3787 9.88982E-03 2.17357E-04-3.39333E-14
 -1      3788 9.71856E-03 1.97563E-04-3.30415E-14
 -1      3789 1.00650E-02 2.43803E-04-3.48305E-14
 -1      3790 1.02306E-02 2.80348E-04-3.56281E-14
 -1      3791 9.09207E-03-2.20243E-04-3.29219E-14
 -1      3792 9.15189E-03-1.93579E-04-3.29103E-14
 -1      3793 1.44435E-02-9.34942E-04-5.50478E-14
 -1      3794 1.68284E-03 2.14420E-04-1.04120E-15
 -1      3795 1.53917E-03 2.05440E-04-8.80819E-16
 -1      3796 1.70750E-03-2.03509E-04-1.39136E-15
 -1      3797 1.85168E-03-2.10509E-04-1.60607E-15
 -1      3798 1.91997E-03-1.78795E-04-1.70157E-15
 -1      3799 1.26082E-03-1.07796E-04-8.05779E-16
 -1      3800 1.38504E-03-1.30938E-04-9.53271E-16
 -1      3801 1.25872E-03-7.63414E-05-7.92389E-16
 -1      3802 1.37277E-02-6.47567E-04-5.26573E-14
 -1      3803 9.22780E-03-1.52723E-04-3.28660E-14
 -1      3804 9.32463E-03-1.04439E-04-3.29185E-14
 -1      3805 1.24601E-03 1.67997E-04-6.09891E-16
 -1      3806 1.24228E-03 1.35766E-04-6.36332E-16
 -1      3807 1.36342E-03 1.27083E-04-7.68049E-16
 -1      3808 1.32680E-03 1.80063E-04-6.78453E-16
 -1      3809 1.28204E-03-2.02279E-04-8.45380E-16
 -1      3810 1.36116E-02-5.82989E-04-5.24550E-14
 -1      3811 1.25670E-03-1.41499E-05-7.60026E-16
 -1      3812 1.25735E-03-4.51395E-05-7.77048E-16
 -1      3813 1.38047E-03-6.42833E-05-9.22385E-16
 -1      3814 1.37906E-03 1.43202E-06-8.83679E-16
 -1      3815 1.20987E-02 2.18861E-04-4.56195E-14
 -1      3816 1.32721E-02-3.69266E-04-5.16611E-14
 -1      3817 1.30999E-02-2.95932E-04-5.07276E-14
 -1      3818 1.31642E-02-3.67056E-04-5.06381E-14
 -1      3819 1.33882E-02-4.41438E-04-5.20128E-14
 -1      3820 1.40284E-03-1.95885E-04-9.87125E-16
 -1      3821 1.23352E-02 8.40778E-05-4.68201E-14
 -1      3822 5.42664E-03 2.41554E-04-1.04753E-14
 -1      3823 5.28388E-03 2.42771E-04-9.92115E-15
 -1      3824 5.21180E-03 2.06448E-04-9.77464E-15
 -1      3825 3.99402E-03 2.50241E-04-5.63082E-15
 -1      3826 3.85015E-03 2.50659E-04-5.23148E-15
 -1      3827 1.51386E-03-1.98167E-04-1.12726E-15
 -1      3828 1.58151E-03-1.70472E-04-1.21021E-15
 -1      3829 1.57790E-03-1.34348E-04-1.19447E-15
 -1      3830 9.23025E-03-7.56349E-05-3.21339E-14
 -1      3831 9.38712E-03-6.84756E-05-3.29436E-14
 -1      3832 9.44989E-03-2.83811E-05-3.29691E-14
 -1      3833 8.90971E-03-2.55801E-04-3.19790E-14
 -1      3834 8.99100E-03-2.68841E-04-3.27026E-14
 -1      3835 8.84441E-03-2.30869E-04-3.13842E-14
 -1      3836 2.83984E-03 2.48253E-04-2.85480E-15
 -1      3837 2.69511E-03 2.46613E-04-2.57548E-15
 -1      3838 9.03386E-03-2.37646E-04-3.28121E-14
 -1      3839 9.06037E-03-2.30027E-04-3.28666E-14
 -1      3840 9.00593E-03-1.97853E-04-3.21406E-14
 -1      3841 1.25165E-02-1.09010E-05-4.77531E-14
 -1      3842 4.28142E-03 2.49111E-04-6.47499E-15
 -1      3843 4.13777E-03 2.49724E-04-6.04521E-15
 -1      3844 4.06467E-03 2.12233E-04-5.93316E-15
 -1      3845 9.13655E-03-3.00643E-04-3.40930E-14
 -1      3846 9.13474E-03-2.94995E-04-3.41764E-14
 -1      3847 9.07270E-03-2.72437E-04-3.34816E-14
 -1      3848 9.06308E-03-2.85471E-04-3.33615E-14
 -1      3849 1.43977E-02-9.02591E-04-5.47888E-14
 -1      3850 3.77659E-03 2.12939E-04-5.12721E-15
 -1      3851 3.70616E-03 2.50945E-04-4.84726E-15
 -1      3852 3.56205E-03 2.51091E-04-4.47797E-15
 -1      3853 4.63926E-03 2.09857E-04-7.72922E-15
 -1      3854 4.56838E-03 2.47656E-04-7.38062E-15
 -1      3855 4.42495E-03 2.48422E-04-6.92023E-15
 -1      3856 9.60692E-03 1.32799E-04-3.27604E-14
 -1      3857 2.98449E-03 2.49461E-04-3.14921E-15
 -1      3858 2.90928E-03 2.11215E-04-3.06776E-15
 -1      3859 3.12904E-03 2.50281E-04-3.45924E-15
 -1      3860 1.82694E-03 2.22058E-04-1.21582E-15
 -1      3861 1.75057E-03 1.84609E-04-1.16373E-15
 -1      3862 1.97135E-03 2.28453E-04-1.40479E-15
 -1      3863 5.49725E-03 2.04307E-04-1.08922E-14
 -1      3864 9.10240E-03-1.50695E-04-3.21536E-14
 -1      3865 1.50242E-03 1.87168E-05-1.01555E-15
 -1      3866 1.50237E-03-1.57374E-05-1.03917E-15
 -1      3867 1.33744E-02-4.79126E-04-5.14151E-14
 -1      3868 1.50490E-03 8.78958E-05-9.62324E-16
 -1      3869 1.50325E-03 5.32211E-05-9.90053E-16
 -1      3870 1.62666E-03 3.74822E-05-1.15508E-15
 -1      3871 1.35105E-02-5.13376E-04-5.23663E-14
 -1      3872 9.49607E-03 6.86991E-05-3.25280E-14
 -1      3873 2.42429E-03-1.54713E-04-2.56568E-15
 -1      3874 2.56955E-03-1.56492E-04-2.85271E-15
 -1      3875 2.72207E-03-1.57930E-04-3.17064E-15
 -1      3876 2.87454E-03-1.58973E-04-3.50518E-15
 -1      3877 2.64739E-03-1.19960E-04-2.98244E-15
 -1      3878 3.01967E-03-1.59679E-04-3.83893E-15
 -1      3879 3.16469E-03-1.60128E-04-4.18839E-15
 -1      3880 2.94535E-03-1.21556E-04-3.62984E-15
 -1      3881 3.30959E-03-1.60383E-04-4.55370E-15
 -1      3882 3.45435E-03-1.60457E-04-4.93412E-15
 -1      3883 3.23568E-03-1.22262E-04-4.32284E-15
 -1      3884 3.59898E-03-1.60398E-04-5.32957E-15
 -1      3885 3.74345E-03-1.60212E-04-5.73990E-15
 -1      3886 3.52548E-03-1.22378E-04-5.07687E-15
 -1      3887 3.88779E-03-1.59937E-04-6.16538E-15
 -1      3888 4.03197E-03-1.59572E-04-6.60760E-15
 -1      3889 3.81467E-03-1.22088E-04-5.89176E-15
 -1      3890 4.17600E-03-1.59143E-04-7.06546E-15
 -1      3891 4.31988E-03-1.58649E-04-7.53854E-15
 -1      3892 4.10323E-03-1.21514E-04-6.76876E-15
 -1      3893 4.46361E-03-1.58108E-04-8.02735E-15
 -1      3894 4.60720E-03-1.57513E-04-8.53118E-15
 -1      3895 4.39115E-03-1.20739E-04-7.70898E-15
 -1      3896 4.75063E-03-1.56878E-04-9.05038E-15
 -1      3897 4.89392E-03-1.56194E-04-9.58401E-15
 -1      3898 4.67843E-03-1.19807E-04-8.70984E-15
 -1      3899 5.03704E-03-1.55472E-04-1.01343E-14
 -1      3900 5.18000E-03-1.54702E-04-1.07005E-14
 -1      3901 4.96505E-03-1.18743E-04-9.77212E-15
 -1      3902 5.32278E-03-1.53893E-04-1.12813E-14
 -1      3903 5.46537E-03-1.53033E-04-1.18775E-14
 -1      3904 5.25096E-03-1.17554E-04-1.08959E-14
 -1      3905 5.60776E-03-1.52133E-04-1.24893E-14
 -1      3906 5.74993E-03-1.51183E-04-1.31153E-14
 -1      3907 5.53609E-03-1.16246E-04-1.20823E-14
 -1      3908 5.89185E-03-1.50197E-04-1.37558E-14
 -1      3909 6.03350E-03-1.49164E-04-1.44117E-14
 -1      3910 5.82029E-03-1.14830E-04-1.33282E-14
 -1      3911 6.17483E-03-1.48109E-04-1.50812E-14
 -1      3912 6.31582E-03-1.47024E-04-1.57628E-14
 -1      3913 6.10338E-03-1.13345E-04-1.46327E-14
 -1      3914 6.46343E-03-1.45890E-04-1.64925E-14
 -1      3915 6.61054E-03-1.44760E-04-1.72365E-14
 -1      3916 6.39211E-03-1.11831E-04-1.60253E-14
 -1      3917 6.75012E-03-1.43749E-04-1.79584E-14
 -1      3918 6.88911E-03-1.42799E-04-1.86927E-14
 -1      3919 6.67897E-03-1.10486E-04-1.74727E-14
 -1      3920 7.02743E-03-1.42006E-04-1.94388E-14
 -1      3921 7.16500E-03-1.41371E-04-2.01965E-14
 -1      3922 6.95656E-03-1.09596E-04-1.89359E-14
 -1      3923 7.30169E-03-1.41034E-04-2.09668E-14
 -1      3924 7.43741E-03-1.40999E-04-2.17486E-14
 -1      3925 7.23127E-03-1.09523E-04-2.04495E-14
 -1      3926 7.57200E-03-1.41467E-04-2.25398E-14
 -1      3927 7.70532E-03-1.42441E-04-2.33405E-14
 -1      3928 7.50233E-03-1.10856E-04-2.20070E-14
 -1      3929 7.83720E-03-1.44202E-04-2.41506E-14
 -1      3930 7.96743E-03-1.46739E-04-2.49710E-14
 -1      3931 7.76876E-03-1.14423E-04-2.36061E-14
 -1      3932 8.09582E-03-1.50437E-04-2.58008E-14
 -1      3933 8.22205E-03-1.55240E-04-2.66404E-14
 -1      3934 8.02936E-03-1.21327E-04-2.52428E-14
 -1      3935 8.34592E-03-1.61666E-04-2.74891E-14
 -1      3936 8.46695E-03-1.69555E-04-2.83441E-14
 -1      3937 8.28262E-03-1.32950E-04-2.69189E-14
 -1      3938 8.58492E-03-1.79551E-04-2.92088E-14
 -1      3939 8.69912E-03-1.91444E-04-3.00808E-14
 -1      3940 8.52666E-03-1.50870E-04-2.86297E-14
 -1      3941 6.41873E-03 1.59037E-04-1.50989E-14
 -1      3942 6.27747E-03 1.60748E-04-1.44317E-14
 -1      3943 4.99674E-03 1.70759E-04-9.09560E-15
 -1      3944 4.85358E-03 1.71475E-04-8.58066E-15
 -1      3945 6.13598E-03 1.62297E-04-1.37781E-14
 -1      3946 5.99425E-03 1.63714E-04-1.31384E-14
 -1      3947 6.20561E-03 1.26090E-04-1.42436E-14
 -1      3948 5.85231E-03 1.65000E-04-1.25138E-14
 -1      3949 5.71016E-03 1.66179E-04-1.19059E-14
 -1      3950 5.92248E-03 1.28475E-04-1.29600E-14
 -1      3951 6.70043E-03 1.55091E-04-1.64775E-14
 -1      3952 6.55971E-03 1.57162E-04-1.57804E-14
 -1      3953 6.48764E-03 1.23140E-04-1.55837E-14
 -1      3954 6.98103E-03 1.50320E-04-1.79113E-14
 -1      3955 6.84087E-03 1.52823E-04-1.71881E-14
 -1      3956 6.76842E-03 1.19468E-04-1.69806E-14
 -1      3957 7.26052E-03 1.44573E-04-1.93984E-14
 -1      3958 7.12090E-03 1.47582E-04-1.86484E-14
 -1      3959 7.04783E-03 1.14885E-04-1.84322E-14
 -1      3960 7.53904E-03 1.37709E-04-2.09353E-14
 -1      3961 7.39988E-03 1.41291E-04-2.01606E-14
 -1      3962 7.32581E-03 1.09166E-04-1.99351E-14
 -1      3963 7.81697E-03 1.29625E-04-2.25207E-14
 -1      3964 7.67803E-03 1.33822E-04-2.17233E-14
 -1      3965 7.60244E-03 1.02062E-04-2.14869E-14
 -1      3966 8.09505E-03 1.20332E-04-2.41468E-14
 -1      3967 7.95590E-03 1.25113E-04-2.33278E-14
 -1      3968 7.87804E-03 9.33266E-05-2.30832E-14
 -1      3969 8.37462E-03 1.10089E-04-2.58133E-14
 -1      3970 8.23451E-03 1.15274E-04-2.49747E-14
 -1      3971 8.15333E-03 8.27899E-05-2.47220E-14
 -1      3972 8.65779E-03 9.96597E-05-2.75124E-14
 -1      3973 8.51554E-03 1.04768E-04-2.66597E-14
 -1      3974 8.42962E-03 7.05114E-05-2.63971E-14
 -1      3975 8.94781E-03 9.08272E-05-2.92439E-14
 -1      3976 8.80164E-03 9.47788E-05-2.83744E-14
 -1      3977 8.70909E-03 5.70763E-05-2.81057E-14
 -1      3978 9.24927E-03 8.72675E-05-3.09992E-14
 -1      3979 9.09671E-03 8.78908E-05-3.01193E-14
 -1      3980 8.99541E-03 4.42155E-05-2.98446E-14
 -1      3981 1.54145E-03-9.14349E-05-1.13013E-15
 -1      3982 1.73792E-03-1.27733E-04-1.40996E-15
 -1      3983 3.41783E-03 2.51049E-04-4.12330E-15
 -1      3984 3.27350E-03 2.50801E-04-3.78396E-15
 -1      3985 3.48799E-03 2.13163E-04-4.38121E-15
 -1      3986 2.61934E-03 2.08302E-04-2.50109E-15
 -1      3987 2.55033E-03 2.44431E-04-2.31088E-15
 -1      3988 2.40551E-03 2.41646E-04-2.06185E-15
 -1      3989 5.28261E-03 1.69149E-04-1.01719E-14
 -1      3990 5.13975E-03 1.69989E-04-9.62599E-15
 -1      3991 5.06775E-03 1.33375E-04-9.47400E-15
 -1      3992 1.88222E-03-1.32116E-04-1.62361E-15
 -1      3993 2.02691E-03-1.35769E-04-1.85239E-15
 -1      3994 1.84573E-03-8.62944E-05-1.54432E-15
 -1      3995 1.53975E-03-5.62980E-05-1.10972E-15
 -1      3996 1.47542E-03 1.65880E-04-8.52562E-16
 -1      3997 1.40796E-03 1.91999E-04-7.50661E-16
 -1      3998 1.49394E-03 1.37790E-04-9.02165E-16
 -1      3999 8.97264E-03-1.48947E-04-3.13910E-14
 -1      4000 9.03359E-03-1.10532E-04-3.13491E-14
 -1      4001 5.56782E-03 1.67253E-04-1.13127E-14
 -1      4002 5.42530E-03 1.68243E-04-1.07345E-14
 -1      4003 5.63838E-03 1.30422E-04-1.17363E-14
 -1      4004 2.15292E-03-1.44239E-04-2.06732E-15
 -1      4005 2.29805E-03-1.46866E-04-2.32530E-15
 -1      4006 2.36847E-03-1.11413E-04-2.43002E-15
 -1      4007 2.11621E-03-9.64771E-05-1.97538E-15
 -1      4008 1.66330E-03-4.03411E-05-1.26022E-15
 -1      4009 1.61640E-03 1.25382E-04-1.06065E-15
 -1      4010 9.08242E-03-8.37294E-05-3.13749E-14
 -1      4011 9.13376E-03-5.38431E-05-3.14001E-14
 -1      4012 8.94274E-03-8.77903E-05-3.06188E-14
 -1      4013 4.78139E-03 1.34511E-04-8.43757E-15
 -1      4014 4.71027E-03 1.72131E-04-8.08198E-15
 -1      4015 4.56682E-03 1.72738E-04-7.59812E-15
 -1      4016 4.35222E-03 2.11182E-04-6.80009E-15
 -1      4017 8.99639E-03-2.61186E-04-3.27637E-14
 -1      4018 3.84738E-03 1.74879E-04-5.41147E-15
 -1      4019 3.70306E-03 1.75081E-04-5.02015E-15
 -1      4020 1.76023E-03 1.30482E-04-1.23927E-15
 -1      4021 3.19887E-03 2.12692E-04-3.69454E-15
 -1      4022 2.68910E-03 1.71770E-04-2.69610E-15
 -1      4023 2.54389E-03 1.70166E-04-2.42425E-15
 -1      4024 5.35344E-03 1.32030E-04-1.05735E-14
 -1      4025 4.13559E-03 1.74220E-04-6.23958E-15
 -1      4026 3.99156E-03 1.74592E-04-5.81763E-15
 -1      4027 3.91848E-03 1.36810E-04-5.69937E-15
 -1      4028 8.83942E-03-1.72489E-04-3.08390E-14
 -1      4029 8.76257E-03-1.39832E-04-3.00455E-14
 -1      4030 2.26071E-03 2.38122E-04-1.82786E-15
 -1      4031 2.11596E-03 2.33777E-04-1.60871E-15
 -1      4032 2.03950E-03 1.95774E-04-1.54968E-15
 -1      4033 2.32929E-03 2.03389E-04-1.99531E-15
 -1      4034 9.32919E-03 4.83367E-05-3.17195E-14
 -1      4035 1.76997E-03 1.64687E-06-1.37481E-15
 -1      4036 1.80726E-03-4.19059E-05-1.45965E-15
 -1      4037 1.95177E-03-4.32087E-05-1.67439E-15
 -1      4038 1.77045E-03 3.90273E-05-1.34406E-15
 -1      4039 2.97936E-03 1.73896E-04-3.28521E-15
 -1      4040 2.83427E-03 1.73002E-04-2.98359E-15
 -1      4041 2.75953E-03 1.34887E-04-2.89570E-15
 -1      4042 9.00913E-03-2.54118E-04-3.28228E-14
 -1      4043 8.94367E-03-2.27916E-04-3.20975E-14
 -1      4044 8.80424E-03-2.07976E-04-3.09374E-14
 -1      4045 8.88866E-03-2.21993E-04-3.16572E-14
 -1      4046 2.87137E-03-8.35368E-05-3.42466E-15
 -1      4047 3.01674E-03-8.38999E-05-3.75283E-15
 -1      4048 3.16201E-03-8.41407E-05-4.09626E-15
 -1      4049 3.30715E-03-8.42590E-05-4.45516E-15
 -1      4050 3.08863E-03-4.60577E-05-3.87433E-15
 -1      4051 3.45215E-03-8.42934E-05-4.82844E-15
 -1      4052 3.59699E-03-8.42406E-05-5.21741E-15
 -1      4053 3.37904E-03-4.61722E-05-4.58470E-15
 -1      4054 3.74168E-03-8.41319E-05-5.62209E-15
 -1      4055 3.88620E-03-8.39613E-05-6.04143E-15
 -1      4056 3.66885E-03-4.60866E-05-5.35580E-15
 -1      4057 4.03056E-03-8.37536E-05-6.47708E-15
 -1      4058 4.17474E-03-8.35011E-05-6.92815E-15
 -1      4059 3.95799E-03-4.58715E-05-6.18978E-15
 -1      4060 4.31876E-03-8.32226E-05-7.39504E-15
 -1      4061 4.46260E-03-8.29105E-05-7.87685E-15
 -1      4062 4.24645E-03-4.55651E-05-7.08475E-15
 -1      4063 4.60628E-03-8.25791E-05-8.37328E-15
 -1      4064 4.74979E-03-8.22200E-05-8.88508E-15
 -1      4065 4.53420E-03-4.51939E-05-8.04070E-15
 -1      4066 4.89312E-03-8.18454E-05-9.41275E-15
 -1      4067 5.03626E-03-8.14465E-05-9.95626E-15
 -1      4068 4.82125E-03-4.47747E-05-9.05782E-15
 -1      4069 5.17922E-03-8.10349E-05-1.05155E-14
 -1      4070 5.32198E-03-8.06019E-05-1.10890E-14
 -1      4071 5.10756E-03-4.43254E-05-1.01377E-14
 -1      4072 5.46452E-03-8.01603E-05-1.16783E-14
 -1      4073 5.60684E-03-7.97016E-05-1.22831E-14
 -1      4074 5.39306E-03-4.38620E-05-1.12785E-14
 -1      4075 5.74890E-03-7.92431E-05-1.29030E-14
 -1      4076 5.89070E-03-7.87765E-05-1.35374E-14
 -1      4077 5.67765E-03-4.34128E-05-1.24814E-14
 -1      4078 6.03218E-03-7.83271E-05-1.41877E-14
 -1      4079 6.17333E-03-7.78874E-05-1.48508E-14
 -1      4080 5.96117E-03-4.30272E-05-1.37449E-14
 -1      4081 6.32114E-03-7.74763E-05-1.55608E-14
 -1      4082 6.46848E-03-7.71127E-05-1.62852E-14
 -1      4083 6.25044E-03-4.27860E-05-1.50985E-14
 -1      4084 6.60832E-03-7.68692E-05-1.69894E-14
 -1      4085 6.74763E-03-7.67226E-05-1.77066E-14
 -1      4086 6.53804E-03-4.28509E-05-1.65079E-14
 -1      4087 6.88635E-03-7.67568E-05-1.84357E-14
 -1      4088 7.02441E-03-7.69720E-05-1.91776E-14
 -1      4089 6.81664E-03-4.34352E-05-1.79365E-14
 -1      4090 7.16173E-03-7.74875E-05-1.99326E-14
 -1      4091 7.29822E-03-7.83071E-05-2.06994E-14
 -1      4092 7.09281E-03-4.48681E-05-1.94170E-14
 -1      4093 7.43380E-03-7.95971E-05-2.14759E-14
 -1      4094 7.56834E-03-8.13634E-05-2.22630E-14
 -1      4095 7.36604E-03-4.76276E-05-2.09463E-14
 -1      4096 7.70177E-03-8.38327E-05-2.30620E-14
 -1      4097 7.83392E-03-8.70065E-05-2.38703E-14
 -1      4098 7.63571E-03-5.23733E-05-2.25179E-14
 -1      4099 7.96473E-03-9.11862E-05-2.46857E-14
 -1      4100 8.09395E-03-9.63552E-05-2.55135E-14
 -1      4101 7.90116E-03-5.99752E-05-2.41309E-14
 -1      4102 8.22160E-03-1.02904E-04-2.63517E-14
 -1      4103 8.34727E-03-1.10758E-04-2.71971E-14
 -1      4104 8.16167E-03-7.15197E-05-2.57835E-14
 -1      4105 8.47114E-03-1.20380E-04-2.80513E-14
 -1      4106 8.59256E-03-1.31635E-04-2.89132E-14
 -1      4107 8.41655E-03-8.82181E-05-2.74738E-14
 -1      4108 6.83632E-03 8.43019E-05-1.74871E-14
 -1      4109 6.69660E-03 8.60850E-05-1.67724E-14
 -1      4110 5.13884E-03 9.61485E-05-9.85644E-15
 -1      4111 4.99582E-03 9.66020E-05-9.31896E-15
 -1      4112 6.55650E-03 8.76421E-05-1.60718E-14
 -1      4113 6.41602E-03 8.90187E-05-1.53853E-14
 -1      4114 6.62535E-03 5.25708E-05-1.65627E-14
 -1      4115 8.71917E-03-1.04315E-04-2.94562E-14
 -1      4116 1.97008E-03 1.45289E-04-1.51360E-15
 -1      4117 1.83682E-03 8.61720E-05-1.39052E-15
 -1      4118 1.97989E-03 4.95480E-05-1.63556E-15
 -1      4119 2.11493E-03 1.48812E-04-1.72739E-15
 -1      4120 4.42322E-03 1.73288E-04-7.12931E-15
 -1      4121 4.27948E-03 1.73787E-04-6.67713E-15
 -1      4122 4.20674E-03 1.36240E-04-6.55041E-15
 -1      4123 5.99263E-03 9.22386E-05-1.34090E-14
 -1      4124 5.85091E-03 9.30822E-05-1.27781E-14
 -1      4125 7.11447E-03 7.99591E-05-1.89557E-14
 -1      4126 6.97561E-03 8.22782E-05-1.82146E-14
 -1      4127 6.90417E-03 4.96225E-05-1.79953E-14
 -1      4128 7.39084E-03 7.43070E-05-2.04716E-14
 -1      4129 7.25287E-03 7.73228E-05-1.97078E-14
 -1      4130 7.18103E-03 4.55759E-05-1.94795E-14
 -1      4131 7.66541E-03 6.69785E-05-2.20392E-14
 -1      4132 7.52832E-03 7.08801E-05-2.12500E-14
 -1      4133 7.45568E-03 4.00335E-05-2.10129E-14
 -1      4134 7.93840E-03 5.75694E-05-2.36479E-14
 -1      4135 7.80205E-03 6.25582E-05-2.28384E-14
 -1      4136 7.72802E-03 3.24984E-05-2.25919E-14
 -1      4137 8.21042E-03 4.57101E-05-2.52969E-14
 -1      4138 8.07444E-03 5.19539E-05-2.44679E-14
 -1      4139 7.99810E-03 2.23904E-05-2.42132E-14
 -1      4140 8.48268E-03 3.12383E-05-2.69813E-14
 -1      4141 8.34636E-03 3.87685E-05-2.61342E-14
 -1      4142 8.26632E-03 9.11265E-06-2.58715E-14
 -1      4143 8.75728E-03 1.44993E-05-2.86992E-14
 -1      4144 8.61942E-03 2.30665E-05-2.78372E-14
 -1      4145 8.53369E-03-7.78213E-06-2.75664E-14
 -1      4146 9.21713E-03-3.25433E-07-3.14399E-14
 -1      4147 2.03981E-03-3.92479E-06-1.77866E-15
 -1      4148 2.07745E-03-4.98951E-05-1.87719E-15
 -1      4149 2.20337E-03-5.66359E-05-2.09236E-15
 -1      4150 5.42430E-03 9.51064E-05-1.09788E-14
 -1      4151 5.28167E-03 9.56549E-05-1.04094E-14
 -1      4152 5.20998E-03 5.91015E-05-1.02426E-14
 -1      4153 3.55859E-03 1.75165E-04-4.64320E-15
 -1      4154 3.41398E-03 1.75125E-04-4.28137E-15
 -1      4155 3.62959E-03 1.37104E-04-4.90897E-15
 -1      4156 8.75277E-03-1.79102E-04-3.03490E-14
 -1      4157 2.56588E-03-8.22090E-05-2.78407E-15
 -1      4158 2.71864E-03-8.29708E-05-3.09601E-15
 -1      4159 2.79048E-03-4.56565E-05-3.20771E-15
 -1      4160 5.70894E-03 9.38297E-05-1.21626E-14
 -1      4161 5.56673E-03 9.45041E-05-1.15632E-14
 -1      4162 5.77953E-03 5.74985E-05-1.25941E-14
 -1      4163 3.26923E-03 1.74917E-04-3.93430E-15
 -1      4164 3.12436E-03 1.74527E-04-3.60215E-15
 -1      4165 3.05002E-03 1.36352E-04-3.50704E-15
 -1      4166 3.34008E-03 1.37006E-04-4.17868E-15
 -1      4167 6.27521E-03 9.02241E-05-1.47122E-14
 -1      4168 6.13406E-03 9.12955E-05-1.40536E-14
 -1      4169 6.06279E-03 5.63131E-05-1.38607E-14
 -1      4170 9.06444E-03-1.41536E-05-3.06841E-14
 -1      4171 4.85262E-03 9.70116E-05-8.79727E-15
 -1      4172 4.70925E-03 9.73901E-05-8.29148E-15
 -1      4173 4.92395E-03 5.96589E-05-9.16113E-15
 -1      4174 2.10534E-03 4.48930E-05-1.83497E-15
 -1      4175 2.32145E-03-6.59942E-05-2.30749E-15
 -1      4176 2.44765E-03-7.27884E-05-2.54633E-15
 -1      4177 2.51952E-03-3.62362E-05-2.64852E-15
 -1      4178 2.28341E-03-1.84263E-05-2.19654E-15
 -1      4179 8.60092E-03-6.08299E-05-2.83817E-14
 -1      4180 8.78749E-03-6.36440E-05-2.95064E-14
 -1      4181 6.34480E-03 5.47253E-05-1.51842E-14
 -1      4182 8.92343E-03-5.32374E-06-2.98071E-14
 -1      4183 2.40193E-03 1.61093E-04-2.18350E-15
 -1      4184 2.25676E-03 1.58625E-04-1.94084E-15
 -1      4185 2.18841E-03 1.07644E-04-1.89668E-15
 -1      4186 2.47221E-03 1.25234E-04-2.36073E-15
 -1      4187 5.49521E-03 5.84002E-05-1.13868E-14
 -1      4188 8.91663E-03-2.02469E-04-3.16453E-14
 -1      4189 3.70095E-03 9.89986E-05-5.17900E-15
 -1      4190 3.55625E-03 9.90372E-05-4.79503E-15
 -1      4191 4.49438E-03 1.35464E-04-7.46347E-15
 -1      4192 3.98987E-03 9.87489E-05-5.99144E-15
 -1      4193 3.84549E-03 9.89039E-05-5.57758E-15
 -1      4194 3.77264E-03 6.08912E-05-5.45218E-15
 -1      4195 2.83059E-03 9.76787E-05-3.09987E-15
 -1      4196 2.68516E-03 9.69523E-05-2.80566E-15
 -1      4197 6.44125E-03 5.54990E-06-1.58434E-14
 -1      4198 6.30082E-03 6.05672E-06-1.51617E-14
 -1      4199 3.30623E-03-8.05848E-06-4.34468E-15
 -1      4200 3.45132E-03-8.02609E-06-4.71213E-15
 -1      4201 3.57569E-03 7.39369E-06-5.01383E-15
 -1      4202 3.72047E-03 7.43008E-06-5.40796E-15
 -1      4203 3.86509E-03 7.45082E-06-5.81787E-15
 -1      4204 4.00953E-03 7.47909E-06-6.24286E-15
 -1      4205 4.46222E-03-7.66505E-06-7.71211E-15
 -1      4206 4.60594E-03-7.60095E-06-8.20088E-15
 -1      4207 4.72910E-03 7.52856E-06-8.59645E-15
 -1      4208 4.87248E-03 7.52533E-06-9.11409E-15
 -1      4209 5.01566E-03 7.50564E-06-9.64566E-15
 -1      4210 5.15865E-03 7.48046E-06-1.01943E-14
 -1      4211 5.30143E-03 7.43213E-06-1.07576E-14
 -1      4212 5.44400E-03 7.37032E-06-1.13363E-14
 -1      4213 5.58634E-03 7.27385E-06-1.19314E-14
 -1      4214 5.72842E-03 7.15159E-06-1.25410E-14
 -1      4215 5.87024E-03 6.97618E-06-1.31666E-14
 -1      4216 6.01175E-03 6.75587E-06-1.38070E-14
 -1      4217 6.15295E-03 6.45426E-06-1.44611E-14
 -1      4218 6.58125E-03 4.92429E-06-1.65393E-14
 -1      4219 6.72078E-03 4.11079E-06-1.72478E-14
 -1      4220 6.85979E-03 3.11358E-06-1.79692E-14
 -1      4221 6.99824E-03 1.84053E-06-1.87042E-14
 -1      4222 7.13607E-03 2.92312E-07-1.94521E-14
 -1      4223 7.27326E-03-1.65174E-06-2.02112E-14
 -1      4224 7.40971E-03-3.99616E-06-2.09818E-14
 -1      4225 7.54544E-03-6.89390E-06-2.17651E-14
 -1      4226 7.68032E-03-1.03562E-05-2.25581E-14
 -1      4227 7.81442E-03-1.45684E-05-2.33623E-14
 -1      4228 7.94758E-03-1.95492E-05-2.41750E-14
 -1      4229 8.07995E-03-2.55075E-05-2.49973E-14
 -1      4230 8.21131E-03-3.24703E-05-2.58315E-14
 -1      4231 8.34198E-03-4.06430E-05-2.66718E-14
 -1      4232 8.47169E-03-5.00202E-05-2.75227E-14
 -1      4233 2.20532E-03 7.24993E-05-1.96705E-15
 -1      4234 2.26487E-03 1.72248E-05-2.12853E-15
 -1      4235 2.38272E-03 8.86676E-06-2.34540E-15
 -1      4236 2.34712E-03 8.07522E-05-2.19781E-15
 -1      4237 8.94391E-03-1.92390E-04-3.17006E-14
 -1      4238 2.56272E-03 9.31213E-05-2.57410E-15
 -1      4239 2.42077E-03 8.49633E-05-2.32300E-15
 -1      4240 2.63431E-03 5.63043E-05-2.76236E-15
 -1      4241 8.82827E-03-3.88187E-05-2.95310E-14
 -1      4242 3.50348E-03 4.55189E-05-4.75753E-15
 -1      4243 2.69669E-03 7.06858E-06-2.95033E-15
 -1      4244 2.57427E-03 3.95617E-06-2.71059E-15
 -1      4245 4.58594E-03 8.25474E-05-7.90813E-15
 -1      4246 4.44225E-03 8.28119E-05-7.42874E-15
 -1      4247 4.28824E-03 9.06749E-05-6.91592E-15
 -1      4248 4.14420E-03 9.08979E-05-6.46975E-15
 -1      4249 4.07168E-03 5.30731E-05-6.33581E-15
 -1      4250 4.38018E-03 3.76133E-05-7.33643E-15
 -1      4251 2.97596E-03 9.82253E-05-3.40942E-15
 -1      4252 2.90224E-03 6.01983E-05-3.30833E-15
 -1      4253 3.12123E-03 9.86044E-05-3.73296E-15
 -1      4254 3.43162E-03 8.36191E-05-4.50514E-15
 -1      4255 2.99499E-03 7.21350E-06-3.58786E-15
 -1      4256 3.14037E-03 7.27744E-06-3.92237E-15
 -1      4257 2.84951E-03 7.15669E-06-3.26884E-15
 -1      4258 4.65746E-03 4.49699E-05-8.25001E-15
 -1      4259 4.30811E-03-1.06396E-07-7.18876E-15
 -1      4260 2.45629E-03 1.25559E-05-2.47622E-15
 -1      4261 4.16403E-03-1.48653E-07-6.73143E-15
 -1      4262 2.43823E-03 4.88097E-05-2.40034E-15
 -1      4263 3.21331E-03 4.53686E-05-4.03640E-15
 -1      4264 3.28660E-03 8.35170E-05-4.14766E-15
 -3
    1PSTEP                         2           1           1          
  100CL  101 1.000000000        4264                     0    1           1
 -4  STRESS      6    1
 -5  SXX         1    4    1    1
 -5  SYY         1    4    2    2
 -5  SZZ         1    4    3    3
 -5  SXY         1    4    1    2
 -5  SYZ         1    4    2    3
 -5  SZX         1    4    3    1
 -1         1-1.78559E+00-8.77023E+00-2.46337E+00-3.28866E+00-6.94056E-13-2.35784E-13
 -1         2-7.72355E-01-2.69682E+01-3.59145E+00-1.16354E-01 1.13874E-13 8.29857E-14
 -1         3 1.99971E+01-2.58330E-03 1.83099E-02-2.89374E-03-3.12868E-13-4.27835E-13
 -1         4 1.99254E+01-9.84708E-02 6.35543E-02 1.12327E-01 1.48038E-13-2.05301E-13
 -1         5 3.27685E+01 6.14273E+00 2.74228E+00 6.22419E+00-3.03438E-14 1.88029E-12
 -1         6 3.57523E+01 1.22634E+01 5.12543E+00-8.64659E+00-1.11133E-13 1.07440E-12
 -1         7 2.08191E+01 6.09980E+00-1.28616E-01-4.72538E+00-1.88322E-14-4.44887E-14
 -1         8 1.96720E+01 5.93505E+00 5.09678E-02-3.27464E+00-1.21153E-14-3.18538E-13
 -1         9 1.91376E+01 5.77200E+00 4.91650E-02-2.52646E+00-7.82534E-15-4.37974E-13
 -1        10 1.88950E+01 5.69211E+00 5.09766E-02-1.95116E+00-2.48933E-15-4.77304E-13
 -1        11 1.87737E+01 5.65124E+00 5.03008E-02-1.45614E+00 2.88831E-15-4.76270E-13
 -1        12 1.87101E+01 5.62961E+00 4.88333E-02-1.01515E+00 4.19369E-15-4.56821E-13
 -1        13 1.86765E+01 5.61814E+00 4.74319E-02-5.95335E-01 6.84554E-15-4.25570E-13
 -1        14 1.86624E+01 5.61330E+00 4.67048E-02-1.91193E-01 9.51520E-15-3.87109E-13
 -1        15 1.86629E+01 5.61346E+00 4.67470E-02 2.08212E-01 1.04004E-14-3.46756E-13
 -1        16 1.86780E+01 5.61863E+00 4.75700E-02 6.13195E-01 1.49631E-14-2.95098E-13
 -1        17 1.87128E+01 5.63034E+00 4.90879E-02 1.03497E+00 1.72568E-14-2.39134E-13
 -1        18 1.87776E+01 5.65237E+00 5.08164E-02 1.47902E+00 1.85806E-14-1.46281E-13
 -1        19 1.89011E+01 5.69387E+00 5.16623E-02 1.98003E+00 2.54779E-14-1.42148E-14
 -1        20 1.91433E+01 5.77466E+00 4.91347E-02 2.56387E+00 2.41959E-14 1.78078E-13
 -1        21 1.96670E+01 5.94955E+00 4.58046E-02 3.30876E+00 2.51049E-14 4.89176E-13
 -1        22 2.12017E+01 6.38153E+00 1.39480E-01 4.52282E+00 5.27356E-16 9.88607E-13
 -1        23 2.30301E+01-1.37924E+00-9.38311E-01-7.11156E-01-7.55958E-14 7.02868E-13
 -1        24 1.93674E+01-9.94831E-02-3.09834E-01 6.32070E-02-1.88270E-14 4.15289E-13
 -1        25 1.86790E+01-5.63199E-02-6.88135E-02 6.07227E-02-1.47174E-14 1.17982E-13
 -1        26 1.84766E+01-2.20882E-02-6.49123E-03 3.29867E-02-8.91984E-15-1.22114E-13
 -1        27 1.84880E+01-1.17952E-02 1.59415E-03 2.26062E-02-8.05671E-16-2.10427E-13
 -1        28 1.86021E+01-6.23095E-03 1.80021E-03 1.63000E-02-3.59765E-15-2.68845E-13
 -1        29 1.87616E+01-3.07579E-03 1.74115E-03 1.21488E-02-7.79406E-16-3.79930E-13
 -1        30 1.89355E+01-1.22127E-03 1.92512E-03 9.18886E-03-8.84232E-15-4.71413E-13
 -1        31 1.91059E+01-1.27833E-04 2.08803E-03 6.96021E-03 9.66428E-15-5.48225E-13
 -1        32 1.92631E+01 4.93519E-04 2.11956E-03 5.22996E-03-3.54312E-14-6.12930E-13
 -1        33 1.94021E+01 8.10502E-04 2.02515E-03 3.86740E-03 2.00556E-14-6.73948E-13
 -1        34 1.95215E+01 9.25758E-04 1.84100E-03 2.78833E-03-5.83006E-15-6.41349E-13
 -1        35 1.96217E+01 9.52548E-04 1.63396E-03 1.98434E-03-2.00499E-14-7.09496E-13
 -1        36 1.97078E+01 7.55517E-04 1.29779E-03 1.23034E-03 1.60943E-14-8.33251E-13
 -1        37 1.97748E+01 6.20826E-04 1.02622E-03 7.19295E-04-2.68108E-14-8.59226E-13
 -1        38 1.98304E+01 3.93079E-04 7.17313E-04 3.21278E-04 1.94015E-14-7.44234E-13
 -1        39 1.98782E+01 1.19464E-04 3.86142E-04 1.89679E-05-3.00909E-14-8.05208E-13
 -1        40 1.99225E+01-2.06420E-04 1.99475E-05-1.98447E-04-1.43295E-15-8.71741E-13
 -1        41 1.99682E+01-5.97444E-04-4.02391E-04-3.35357E-04-2.58978E-15-9.59330E-13
 -1        42 2.00210E+01-1.07464E-03-9.12042E-04-3.86011E-04 4.07880E-14-8.02549E-13
 -1        43 2.00877E+01-1.66801E-03-1.55318E-03-3.31042E-04 2.52050E-14-7.11782E-13
 -1        44 2.01771E+01-2.41777E-03-2.38793E-03-1.31411E-04 1.89376E-14-8.12687E-13
 -1        45 2.03002E+01-3.37521E-03-3.50387E-03 2.82112E-04 2.17703E-14-9.21813E-13
 -1        46 2.04717E+01-4.60305E-03-5.02493E-03 1.02500E-03-4.28836E-14-9.99869E-13
 -1        47 2.07109E+01-6.08925E-03-7.10475E-03 2.31993E-03 1.68290E-14-6.92653E-13
 -1        48 2.10434E+01-8.55937E-03-1.01177E-02 3.78755E-03 1.19085E-14-1.57362E-13
 -1        49 2.15294E+01-1.03888E-02-1.41102E-02 8.23365E-03-1.96891E-14-2.10651E-13
 -1        50 2.21688E+01-1.31124E-02-1.93130E-02 1.37166E-02-1.27052E-14-2.95121E-13
 -1        51 2.30320E+01-1.52523E-02-2.53126E-02 2.25814E-02 2.86120E-14-4.23717E-13
 -1        52 2.41727E+01-1.56901E-02-3.03505E-02 3.58064E-02 7.25301E-14-4.43132E-13
 -1        53 2.56245E+01-1.18831E-02-2.93682E-02 5.37394E-02 4.51301E-14-5.33885E-13
 -1        54 2.73514E+01 1.20604E-04-1.15026E-02 7.32974E-02 4.41594E-14-5.27960E-13
 -1        55 2.91522E+01 2.42147E-02 3.96586E-02 8.20448E-02-5.15712E-15-7.66234E-13
 -1        56 3.05206E+01 5.88696E-02 1.32961E-01 5.06873E-02-1.02976E-13-1.28069E-12
 -1        57 3.05736E+01 8.72134E-02 2.34986E-01-6.25673E-02 1.41275E-13-1.32982E-12
 -1        58 2.83335E+01 7.46606E-02 2.29738E-01-2.66759E-01-7.42973E-14-8.97032E-13
 -1        59 2.37242E+01-1.07810E-03-1.40252E-02-4.40416E-01-4.97653E-14-1.15659E-12
 -1        60 1.88159E+01-7.80467E-02-3.87372E-01-3.24061E-01 3.87459E-14-8.96797E-13
 -1        61 1.68434E+01-1.42672E-01-5.65954E-01 1.07762E-02 9.49241E-15-6.71008E-13
 -1        62 1.87831E+01-9.18748E-02-3.69413E-01 3.52632E-01-7.57380E-14-7.23491E-13
 -1        63 2.34687E+01 8.47252E-03 1.74631E-02 4.21763E-01-1.45942E-14-6.05224E-13
 -1        64 2.75788E+01 7.77517E-02 2.37553E-01 2.40743E-01 1.11158E-13-3.36481E-13
 -1        65 2.92761E+01 8.61266E-02 2.29797E-01 4.26839E-02-5.79467E-14-7.76032E-13
 -1        66 2.87331E+01 5.66848E-02 1.28503E-01-6.53222E-02 4.56037E-14-6.40070E-13
 -1        67 2.69212E+01 2.14841E-02 3.85578E-02-9.67740E-02 2.77588E-14-5.41914E-13
 -1        68 2.47009E+01-5.11423E-03-1.43420E-02-9.19657E-02-1.36367E-13-9.19709E-13
 -1        69 2.26033E+01-2.29858E-02-4.50295E-02-7.49809E-02-2.27151E-14-6.71040E-13
 -1        70 2.09484E+01-3.79686E-02-6.97958E-02-4.96466E-02-7.75168E-14-3.15019E-13
 -1        71 2.00458E+01-1.31910E-02-4.30781E-02 2.93030E-02-8.65501E-14-6.41591E-13
 -1        72 2.10429E+01-4.05124E-01-9.80566E-01-3.11661E-01 1.29063E-15 1.87550E-12
 -1        73 1.93319E+01-6.65851E-02-2.90794E-01-5.38688E-02 1.62166E-14 1.61749E-12
 -1        74 1.86882E+01-2.12326E-02-6.37048E-02-2.10301E-02 8.58645E-15 1.41792E-12
 -1        75 1.84862E+01-1.04753E-02-9.07227E-03-1.60707E-02-1.29703E-14 1.38330E-12
 -1        76 1.84971E+01-5.37517E-03 6.01085E-04-1.27208E-02-3.44722E-15 1.37774E-12
 -1        77 1.86102E+01-2.61148E-03 1.70897E-03-1.02027E-02-4.83045E-15 1.33178E-12
 -1        78 1.87689E+01-1.05767E-03 1.92497E-03-8.33815E-03 1.04754E-14 1.30047E-12
 -1        79 1.89418E+01-1.62136E-04 2.13329E-03-6.84414E-03-5.74048E-15 1.24695E-12
 -1        80 1.91113E+01 3.43130E-04 2.26508E-03-5.58125E-03 1.91379E-14 1.15896E-12
 -1        81 1.92677E+01 6.03584E-04 2.26153E-03-4.49200E-03 1.49167E-14 9.79309E-13
 -1        82 1.94062E+01 7.06060E-04 2.13566E-03-3.54960E-03 8.71231E-15 9.44045E-13
 -1        83 1.95251E+01 7.05229E-04 1.92317E-03-2.73724E-03-3.91859E-15 8.56240E-13
 -1        84 1.96250E+01 6.36366E-04 1.65643E-03-2.04079E-03 1.76106E-14 7.14091E-13
 -1        85 1.97077E+01 5.22133E-04 1.35782E-03-1.44670E-03-3.27670E-14 7.97350E-13
 -1        86 1.97759E+01 3.76610E-04 1.03993E-03-9.42008E-04-1.24711E-14 8.34895E-13
 -1        87 1.98328E+01 2.08021E-04 7.07313E-04-5.15288E-04 1.29134E-14 6.73506E-13
 -1        88 1.98822E+01 2.09093E-05 3.58582E-04-1.58177E-04-3.69349E-14 6.55900E-13
 -1        89 1.99282E+01-1.81862E-04-1.13721E-05 1.32829E-04 1.44089E-14 7.09206E-13
 -1        90 1.99751E+01-3.96986E-04-4.08715E-04 3.54277E-04-2.06588E-14 7.41832E-13
 -1        91 2.00279E+01-6.18236E-04-8.37219E-04 4.93426E-04-1.21107E-14 6.94441E-13
 -1        92 2.00916E+01-8.33446E-04-1.29347E-03 5.25804E-04 2.87756E-14 4.39246E-13
 -1        93 2.01717E+01-1.02082E-03-1.76004E-03 4.13085E-04-8.91982E-15 2.57539E-13
 -1        94 2.02736E+01-1.14467E-03-2.19599E-03 1.02231E-04 1.79713E-14 1.27243E-13
 -1        95 2.04019E+01-1.15116E-03-2.52427E-03-4.72266E-04-1.72257E-14 1.10336E-13
 -1        96 2.05597E+01-9.65328E-04-2.61644E-03-1.37984E-03 3.71090E-14 2.41917E-13
 -1        97 2.07470E+01-4.92299E-04-2.27794E-03-2.67396E-03-2.31769E-14 2.51125E-13
 -1        98 2.09583E+01 3.72435E-04-1.24144E-03-4.35384E-03-7.02506E-14 1.17548E-13
 -1        99 2.11801E+01 1.71629E-03 8.14764E-04-6.30068E-03 5.07736E-15 1.14239E-13
 -1       100 2.13871E+01 3.55767E-03 4.19496E-03-8.18632E-03 1.18256E-14 1.73513E-13
 -1       101 2.15402E+01 5.76451E-03 9.02340E-03-9.37060E-03-5.90467E-14 1.40484E-14
 -1       102 2.15856E+01 7.95420E-03 1.49633E-02-8.84476E-03 3.07896E-14 1.35008E-13
 -1       103 2.14596E+01 9.42519E-03 2.08650E-02-5.33715E-03-1.73743E-14 2.12826E-13
 -1       104 2.11017E+01 9.21804E-03 2.45345E-02 2.25241E-03 3.64036E-14 2.84487E-13
 -1       105 2.04772E+01 6.42883E-03 2.30052E-02 1.40002E-02 8.64304E-15 1.56413E-13
 -1       106 1.96073E+01 8.04508E-04 1.37380E-02 2.79207E-02-9.37518E-14 1.63338E-13
 -1       107 1.85931E+01-6.63588E-03-3.31405E-03 3.95553E-02 2.29278E-14-2.18334E-13
 -1       108 1.76148E+01-1.35469E-02-2.40385E-02 4.32491E-02 5.85986E-14-2.38696E-13
 -1       109 1.68889E+01-1.71999E-02-4.08134E-02 3.52468E-02 8.65425E-14 5.51885E-14
 -1       110 1.65907E+01-1.59842E-02-4.62057E-02 1.67097E-02-7.10933E-14 1.68924E-14
 -1       111 1.67786E+01-1.04099E-02-3.75071E-02-6.07435E-03 5.26865E-14 1.63360E-13
 -1       112 1.73662E+01-2.82801E-03-1.86202E-02-2.48841E-02-6.95462E-14 2.52000E-13
 -1       113 1.81609E+01 3.97517E-03 2.32164E-03-3.40383E-02 3.65670E-14 8.66895E-13
 -1       114 1.89458E+01 8.09295E-03 1.78042E-02-3.27571E-02-3.15877E-14 4.44341E-13
 -1       115 1.95573E+01 8.98732E-03 2.42197E-02-2.41694E-02 1.12944E-13-2.16173E-13
 -1       116 1.99232E+01 7.22045E-03 2.19793E-02-1.27834E-02-6.51958E-15-3.44047E-13
 -1       117 2.00601E+01 3.92039E-03 1.37656E-02-2.57479E-03-4.50481E-15-2.22344E-13
 -1       118 2.00463E+01 6.51901E-04 3.20799E-03 3.59995E-03 1.84600E-14 6.52781E-14
 -1       119 1.99886E+01-7.67948E-04-3.77761E-03 2.98222E-03-4.73701E-14-4.28193E-13
 -1       120 1.99775E+01 3.57637E-03 2.70951E-03-5.20848E-03 1.52525E-13-3.18279E-13
 -1       121 1.99991E+01-2.13514E-02 1.24836E-03-1.00976E-02-4.53422E-13-1.15211E-14
 -1       122 1.99926E+01-1.06165E-02-1.06192E-02-6.73444E-03 5.88643E-13 1.02197E-13
 -1       123 1.99883E+01 1.32201E-01-1.73189E-02-1.59368E-03 1.52901E-12-9.13881E-14
 -1       124 1.99855E+01 4.64379E-01-2.30026E-02 6.90805E-03 4.84264E-13-2.88561E-13
 -1       125 1.99856E+01 1.04414E+00-2.53786E-02 1.92228E-02 3.39919E-15-1.06796E-13
 -1       126 1.99890E+01 1.87349E+00-2.15445E-02 3.19777E-02-5.83599E-13 3.77990E-13
 -1       127 1.99974E+01 2.92889E+00-9.04116E-03 4.31320E-02 2.81199E-15-8.43206E-15
 -1       128 2.00096E+01 4.06002E+00 1.14458E-02 4.66837E-02-3.80711E-13-1.05702E-13
 -1       129 2.00229E+01 5.04848E+00 3.53308E-02 3.84041E-02 1.03667E-13 1.34595E-13
 -1       130 2.00332E+01 5.64600E+00 5.49868E-02 1.73808E-02 6.62101E-13-7.86806E-14
 -1       131 2.00357E+01 5.65275E+00 6.22727E-02-1.34130E-02 2.74074E-13-1.95210E-13
 -1       132 2.00307E+01 5.01402E+00 5.38494E-02-4.28882E-02-1.55201E-13 2.89274E-13
 -1       133 2.00159E+01 3.80437E+00 2.79807E-02-6.64836E-02 1.53072E-13-3.75472E-14
 -1       134 1.99935E+01 2.29079E+00-1.27085E-02-7.49625E-02 9.79800E-13 7.79906E-14
 -1       135 1.99883E+01 8.71032E-01-5.22894E-02-4.53963E-02 1.32614E-12 5.39200E-14
 -1       136 1.99883E+01 1.01586E-02-4.30775E-02 4.05852E-02 9.11093E-13-1.26225E-14
 -1       137-1.58806E+00-2.06809E+01-3.16718E+00-4.04101E+00 6.48315E-13 1.48381E-13
 -1       138-1.29921E+00-7.79325E+00-2.18857E+00-2.52891E+00 9.59510E-13 4.25715E-13
 -1       139 4.26095E+00 5.01687E+00-8.18882E-01 4.84423E+00 5.45175E-13 4.39315E-13
 -1       140 1.76019E+01 1.13662E+01 6.46009E-01 1.39783E+01-9.76996E-15 6.48925E-14
 -1       141 3.69490E+01 1.04053E+01 1.99252E+00 1.90731E+01 4.36762E-13 6.08791E-13
 -1       142 5.64584E+01 5.05265E+00 3.06181E+00 1.52878E+01 3.66887E-13 9.19709E-13
 -1       143 6.70883E+01 1.24325E+00 3.54046E+00 3.99751E+00-1.48492E-15 5.39291E-13
 -1       144 6.41676E+01 2.20841E+00 3.38017E+00-9.59941E+00 2.05395E-13-2.61041E-13
 -1       145 4.88448E+01 7.50304E+00 2.61568E+00-1.81335E+01 3.22659E-14-3.25406E-13
 -1       146 2.78939E+01 1.14574E+01 1.36457E+00-1.74209E+01 3.65041E-13-5.66602E-13
 -1       147 1.07589E+01 9.64935E+00-3.93497E-02-1.01767E+01 1.60594E-13-1.21736E-13
 -1       148 1.24969E+00 9.63156E-01-1.35441E+00-1.57988E+00 8.26561E-14 5.50671E-14
 -1       149-1.65310E+00-1.17151E+01-2.45319E+00 3.67572E+00 1.36668E-13-1.17961E-14
 -1       150-1.07756E+00-2.24571E+01-3.19142E+00 2.95864E+00-4.96686E-13 7.82395E-14
 -1       151-8.25051E-01-2.60338E+01-3.47008E+00-1.44795E+00-1.76886E-12-3.73746E-13
 -1       152-2.04353E+00-2.01981E+01-3.19265E+00-5.12118E+00-1.62020E-12-1.61413E-13
 -1       153 3.23651E+00 2.89276E+00-1.33488E+00 3.43850E+00-2.27096E-13-2.35922E-13
 -1       154 1.73986E+01 9.78369E+00 2.26775E-01 1.30031E+01 5.34572E-14 4.62963E-14
 -1       155 3.79306E+01 9.58909E+00 1.93623E+00 1.85495E+01 3.23630E-14 9.02611E-14
 -1       156 5.88766E+01 5.10379E+00 3.43358E+00 1.59235E+01 1.04639E-14 4.74287E-13
 -1       157 7.15567E+01 1.33873E+00 4.27648E+00 5.56132E+00 1.49949E-13 8.78964E-13
 -1       158 7.04948E+01 1.99152E+00 4.23092E+00-8.24861E+00-5.88540E-14 4.21441E-13
 -1       159 5.49089E+01 6.71276E+00 3.20916E+00-1.78535E+01-1.82993E-13 5.10703E-13
 -1       160 3.25618E+01 1.08283E+01 1.58738E+00-1.83048E+01-9.33698E-14 3.60267E-13
 -1       161 1.27429E+01 9.10155E+00-1.29358E-01-1.07631E+01 1.09635E-13 1.94289E-15
 -1       162 1.02127E+00 1.44861E-01-1.65358E+00-1.11425E+00-7.96363E-13 1.01530E-13
 -1       163-2.22057E+00-1.25576E+01-2.75527E+00 4.55424E+00-1.29613E-12 9.09606E-13
 -1       164-1.47748E+00-2.31769E+01-3.40456E+00 4.37127E+00-3.23935E-13 6.09478E-14
 -1       165 2.10136E+01 3.69395E+00-5.73491E-02-3.61020E+00-1.93113E-13-1.59348E-13
 -1       166 1.99910E+01 4.20780E+00-4.57291E-02-2.80930E+00-1.49393E-13-3.17777E-13
 -1       167 1.95088E+01 4.47715E+00-3.15840E-02-2.19437E+00-8.03602E-14-3.79493E-13
 -1       168 1.92675E+01 4.61506E+00-2.37287E-02-1.67552E+00-2.40548E-14-3.95098E-13
 -1       169 1.91372E+01 4.69682E+00-1.94915E-02-1.21909E+00 2.24725E-14-3.83297E-13
 -1       170 1.90633E+01 4.74788E+00-1.74187E-02-7.92075E-01 6.20496E-14-3.67898E-13
 -1       171 1.90261E+01 4.77574E+00-1.64213E-02-3.86896E-01 1.00889E-13-3.41478E-13
 -1       172 1.90152E+01 4.78426E+00-1.61327E-02 8.27309E-03 1.29707E-13-2.98498E-13
 -1       173 1.90278E+01 4.77444E+00-1.64658E-02 4.03785E-01 1.64728E-13-2.55888E-13
 -1       174 1.90670E+01 4.74488E+00-1.75188E-02 8.10067E-01 1.94030E-13-2.10340E-13
 -1       175 1.91415E+01 4.69247E+00-1.96842E-02 1.23162E+00 2.15633E-13-1.42789E-13
 -1       176 1.92769E+01 4.60551E+00-2.39855E-02 1.69830E+00 2.37804E-13-4.11771E-14
 -1       177 1.95242E+01 4.45968E+00-3.26193E-02 2.22576E+00 2.52324E-13 1.00869E-13
 -1       178 2.00128E+01 4.18407E+00-4.71751E-02 2.84791E+00 2.42964E-13 3.25209E-13
 -1       179 2.11351E+01 3.46357E+00-6.00650E-02 3.53626E+00 1.90974E-13 6.51236E-13
 -1       180 2.24198E+01 1.14354E+00-3.36573E-01 3.01475E+00 1.01441E-13 1.04236E-12
 -1       181 2.19720E+01 8.58221E-01 6.57004E-04-1.95903E+00-1.71058E-13 8.17818E-14
 -1       182 2.04475E+01 1.90197E-01-1.00008E-02-7.64260E-01-1.68695E-13 8.49060E-15
 -1       183 1.96719E+01 1.01703E-01 1.35460E-02-2.85682E-01-1.20859E-13-5.67766E-14
 -1       184 1.93322E+01 4.71528E-02 9.99990E-03-6.79842E-02-6.70468E-14-1.20516E-13
 -1       185 1.92024E+01 2.25376E-02 5.16154E-03 3.92331E-02-4.89001E-14-1.58787E-13
 -1       186 1.91889E+01 9.50568E-03 2.43281E-03 9.18076E-02-5.64861E-14-1.68753E-13
 -1       187 1.92374E+01 2.11365E-03 1.12842E-03 1.14162E-01-3.25675E-14-1.81033E-13
 -1       188 1.93164E+01-2.11543E-03 4.94710E-04 1.19077E-01-3.65364E-14-1.64117E-13
 -1       189 1.94072E+01-4.40690E-03 1.60862E-04 1.13977E-01-4.16694E-14-1.93445E-13
 -1       190 1.94988E+01-5.45615E-03-2.36689E-05 1.03493E-01-4.97092E-14-1.89272E-13
 -1       191 1.95848E+01-5.69637E-03-1.22356E-04 9.06159E-02-2.41876E-14-3.03948E-13
 -1       192 1.96623E+01-5.41619E-03-1.59245E-04 7.73139E-02-5.79696E-14-3.96966E-13
 -1       193 1.97332E+01-4.74569E-03-1.69915E-04 6.42964E-02-3.52120E-14-3.79833E-13
 -1       194 1.97913E+01-3.86617E-03-1.40681E-04 5.36449E-02 3.47807E-15-3.58204E-13
 -1       195 1.98418E+01-2.83099E-03-9.65903E-05 4.53678E-02 3.31404E-14-3.50845E-13
 -1       196 1.98869E+01-1.64630E-03-3.57542E-05 3.99192E-02-4.23377E-14-3.78560E-13
 -1       197 1.99294E+01-2.93938E-04 4.15363E-05 3.77589E-02-2.06946E-14-3.38295E-13
 -1       198 1.99727E+01 1.27840E-03 1.37093E-04 3.94296E-02-3.22481E-14-3.36460E-13
 -1       199 2.00211E+01 3.15872E-03 2.55009E-04 4.56455E-02 3.07611E-14-4.29965E-13
 -1       200 2.00794E+01 5.47589E-03 4.01636E-04 5.73905E-02 7.63512E-14-5.14063E-13
 -1       201 2.01538E+01 8.40912E-03 5.85586E-04 7.60318E-02-8.88845E-15-5.48536E-13
 -1       202 2.02521E+01 1.22017E-02 8.17341E-04 1.03458E-01 1.04251E-14-4.89391E-13
 -1       203 2.03839E+01 1.71765E-02 1.10758E-03 1.42246E-01 1.36634E-14-3.83468E-13
 -1       204 2.05614E+01 2.37398E-02 1.45644E-03 1.95869E-01 1.26284E-13-2.87039E-13
 -1       205 2.07999E+01 3.23301E-02 1.89842E-03 2.68567E-01 2.06671E-13-2.08659E-13
 -1       206 2.11369E+01 4.42783E-02 2.33804E-03 3.71811E-01 4.40026E-14-1.82156E-13
 -1       207 2.15646E+01 5.82625E-02 2.69774E-03 5.02676E-01 7.78761E-15 3.72945E-14
 -1       208 2.21222E+01 7.41626E-02 2.76912E-03 6.69167E-01-1.10957E-13-3.72811E-14
 -1       209 2.28347E+01 8.83746E-02 2.14507E-03 8.71005E-01-5.38855E-14-9.00560E-15
 -1       210 2.37177E+01 9.17720E-02 3.82224E-04 1.09196E+00-1.30978E-14-1.52854E-13
 -1       211 2.47617E+01 6.47850E-02-2.66935E-03 1.28234E+00-1.45072E-13-2.75254E-13
 -1       212 2.59062E+01-2.69566E-02-6.08103E-03 1.33171E+00-1.24713E-13-5.80643E-13
 -1       213 2.70065E+01-2.24788E-01-7.31832E-03 1.04549E+00-1.47021E-13-4.77086E-13
 -1       214 2.77975E+01-5.22400E-01-4.52173E-03 1.89384E-01-5.49482E-14-2.32188E-13
 -1       215 2.79155E+01-7.64251E-01-2.69703E-03-1.29576E+00 1.20279E-13-4.76005E-13
 -1       216 2.70323E+01-5.56157E-01-1.94648E-02-2.85631E+00-5.22616E-14-4.37667E-13
 -1       217 2.53340E+01 3.47187E-01-6.41393E-02-3.15230E+00 7.65013E-14-5.11993E-13
 -1       218 2.39921E+01 1.20911E+00-9.98329E-02-1.51138E+00 6.92502E-14-6.17614E-13
 -1       219 2.38347E+01 1.22227E+00-1.02308E-01 1.22608E+00 1.34372E-13-3.50742E-13
 -1       220 2.50989E+01 2.54591E-01-5.70589E-02 2.93939E+00 3.01252E-14-1.93751E-13
 -1       221 2.65180E+01-5.92228E-01-1.53004E-02 2.48986E+00 7.52306E-15-2.49878E-13
 -1       222 2.70717E+01-7.51689E-01-2.77878E-03 9.03212E-01-2.24112E-13-3.69661E-13
 -1       223 2.66479E+01-5.05057E-01-5.25082E-03-5.47568E-01 8.50101E-15-4.84638E-13
 -1       224 2.55725E+01-2.15679E-01-7.21125E-03-1.37195E+00-1.37054E-13-4.63423E-13
 -1       225 2.42107E+01-2.04239E-02-4.56506E-03-1.63649E+00-1.10963E-13-4.56004E-13
 -1       226 2.28380E+01 9.02994E-02-4.46116E-04-1.54324E+00-6.59132E-14-3.88351E-13
 -1       227 2.16372E+01 1.65827E-01 1.80377E-03-1.23044E+00-2.53968E-14-4.60318E-13
 -1       228 2.07127E+01 2.45573E-01 1.95285E-03-7.51117E-01-6.61320E-15-4.38381E-13
 -1       229 2.02171E+01 2.81603E-01-8.64641E-03-3.34400E-01 3.07684E-13-2.01615E-13
 -1       230 2.09646E+01 2.78004E-01-5.08145E-02 1.16526E+00 1.38826E-13 9.33485E-13
 -1       231 1.98748E+01 1.30589E-01 1.00158E-02 4.47035E-01 8.94250E-14 8.34011E-13
 -1       232 1.93698E+01 5.63408E-02 1.34191E-02 1.48948E-01 1.06352E-14 7.63732E-13
 -1       233 1.91573E+01 2.26357E-02 7.33909E-03 6.96122E-03 3.53847E-14 7.17987E-13
 -1       234 1.91048E+01 9.90023E-03 3.58790E-03-6.15810E-02 2.97687E-14 6.88772E-13
 -1       235 1.91389E+01 3.22358E-03 1.73662E-03-9.31835E-02 4.25106E-14 6.24843E-13
 -1       236 1.92171E+01-5.33919E-04 8.77124E-04-1.04310E-01 3.01112E-14 5.48103E-13
 -1       237 1.93143E+01-2.62433E-03 4.44928E-04-1.03662E-01 7.16819E-14 4.79978E-13
 -1       238 1.94157E+01-3.67106E-03 2.04211E-04-9.64369E-02 7.58009E-14 4.69729E-13
 -1       239 1.95129E+01-4.04235E-03 6.31462E-05-8.59185E-02 4.92552E-14 3.85733E-13
 -1       240 1.96014E+01-3.97296E-03-1.74510E-05-7.42387E-02 5.56539E-14 3.52778E-13
 -1       241 1.96794E+01-3.61724E-03-5.80237E-05-6.27956E-02 7.34834E-14 3.88811E-13
 -1       242 1.97468E+01-3.07563E-03-7.11935E-05-5.25087E-02-2.68332E-14 3.96533E-13
 -1       243 1.98047E+01-2.41014E-03-6.54160E-05-4.39896E-02-9.19730E-15 3.02272E-13
 -1       244 1.98551E+01-1.65472E-03-4.65667E-05-3.76628E-02 3.02797E-14 3.72058E-13
 -1       245 1.99005E+01-8.23509E-04-1.88950E-05-3.38502E-02-2.37240E-14 3.72653E-13
 -1       246 1.99438E+01 8.17425E-05 1.42573E-05-3.28287E-02 1.78882E-14 3.28475E-13
 -1       247 1.99885E+01 1.06374E-03 4.98335E-05-3.48590E-02-4.15916E-15 3.40570E-13
 -1       248 2.00381E+01 2.12031E-03 8.44703E-05-4.01867E-02 6.20100E-14 2.32124E-13
 -1       249 2.00967E+01 3.23236E-03 1.13931E-04-4.90067E-02 1.54971E-13 1.84657E-13
 -1       250 2.01682E+01 4.34782E-03 1.32618E-04-6.13827E-02 3.03003E-14 1.21542E-13
 -1       251 2.02564E+01 5.36046E-03 1.33309E-04-7.71083E-02 4.22877E-14 1.32665E-13
 -1       252 2.03646E+01 6.08343E-03 1.07412E-04-9.54940E-02 7.29748E-14 1.12795E-13
 -1       253 2.04944E+01 6.21951E-03 4.62150E-05-1.15071E-01-7.93491E-14 2.59418E-14
 -1       254 2.06452E+01 5.33528E-03-5.62400E-05-1.33217E-01-4.57158E-14 2.19907E-13
 -1       255 2.08122E+01 2.85560E-03-1.98142E-04-1.45744E-01-4.21587E-15 2.97077E-13
 -1       256 2.09849E+01-1.88941E-03-3.63011E-04-1.46571E-01-3.13987E-14 2.96521E-13
 -1       257 2.11452E+01-9.51252E-03-5.13216E-04-1.27723E-01-8.83932E-14 2.78842E-13
 -1       258 2.12660E+01-2.02451E-02-5.89676E-04-8.00668E-02-3.74609E-14 3.33996E-13
 -1       259 2.13116E+01-3.33906E-02-5.26361E-04 4.62906E-03 8.90390E-15 3.30275E-13
 -1       260 2.12410E+01-4.66266E-02-2.92254E-04 1.29800E-01 3.97551E-14 2.32503E-13
 -1       261 2.10166E+01-5.54787E-02 6.24810E-05 2.88429E-01 3.52270E-14 1.01593E-13
 -1       262 2.06174E+01-5.37047E-02 3.67743E-04 4.57267E-01 6.52256E-16 1.50232E-13
 -1       263 2.00572E+01-3.54849E-02 3.86215E-04 5.94940E-01 8.21961E-14 1.71674E-13
 -1       264 1.93986E+01 3.82103E-04-2.71716E-05 6.49534E-01 2.02081E-13 1.53464E-13
 -1       265 1.87527E+01 4.63805E-02-6.82876E-04 5.78663E-01-5.16889E-14 1.44724E-13
 -1       266 1.82553E+01 8.64476E-02-1.09577E-03 3.75617E-01-6.76481E-14 1.31626E-14
 -1       267 1.80202E+01 1.03245E-01-8.28116E-04 8.46431E-02-8.57149E-14 1.15295E-13
 -1       268 1.80918E+01 8.86970E-02 1.40253E-04-2.10866E-01-6.98382E-14 1.31836E-13
 -1       269 1.84247E+01 4.94174E-02 1.28836E-03-4.24739E-01-9.11335E-14 4.31681E-13
 -1       270 1.89040E+01 2.76100E-03 1.93411E-03-5.07147E-01-1.35058E-13 2.21058E-13
 -1       271 1.93942E+01-3.39194E-02 1.78981E-03-4.61402E-01 2.74724E-13 1.33609E-13
 -1       272 1.97882E+01-5.14291E-02 1.05059E-03-3.31605E-01 3.19906E-13 8.25674E-14
 -1       273 2.00327E+01-4.97266E-02 1.10708E-04-1.76305E-01-5.04479E-15-3.48238E-14
 -1       274 2.01298E+01-3.42678E-02-7.50894E-04-4.60046E-02-1.55027E-13 1.10822E-13
 -1       275 2.01216E+01-1.24574E-02-1.35518E-03 2.85419E-02-1.37296E-13 2.37625E-13
 -1       276 2.00655E+01 8.79937E-03-1.28587E-03 3.82960E-02 2.88104E-13 2.09250E-13
 -1       277 2.00171E+01 1.49686E-02 1.00446E-03 5.86842E-03 1.24916E-15-1.56604E-13
 -1       278 2.00276E+01 5.15397E-02 1.32260E-03 3.52801E-02 6.74452E-14 5.90630E-13
 -1       279 2.00478E+01 1.55115E-01 1.31706E-03 1.29469E-01 1.58177E-13 4.33345E-13
 -1       280 2.00683E+01 3.63439E-01 2.32645E-03 2.72609E-01 1.03629E-13-5.92498E-13
 -1       281 2.00815E+01 7.12048E-01 2.11878E-03 4.58742E-01 1.31783E-13-1.81942E-13
 -1       282 2.00781E+01 1.21335E+00 1.29288E-03 6.52529E-01 1.49777E-13-3.29535E-13
 -1       283 2.00496E+01 1.87024E+00-9.85167E-05 8.08888E-01-3.98691E-14 1.88264E-13
 -1       284 1.99932E+01 2.61175E+00-1.86418E-03 8.59932E-01-1.23791E-13-6.26217E-14
 -1       285 1.99176E+01 3.32273E+00-3.56111E-03 7.47814E-01 6.38821E-14 5.47982E-14
 -1       286 1.98438E+01 3.85450E+00-4.78131E-03 4.51471E-01 1.49214E-14 3.66014E-13
 -1       287 1.97983E+01 4.06568E+00-5.14137E-03 8.06213E-03 1.76962E-13-2.57343E-13
 -1       288 1.98012E+01 3.88064E+00-4.50087E-03-4.78192E-01 8.01026E-14-1.76962E-13
 -1       289 1.98576E+01 3.30558E+00-3.10433E-03-8.97918E-01 3.63582E-13 1.58343E-13
 -1       290 1.99596E+01 2.45412E+00-1.05721E-03-1.12384E+00 2.23881E-13 4.03042E-13
 -1       291 2.00849E+01 1.51490E+00 8.34429E-04-1.07003E+00-2.53760E-14 6.28193E-14
 -1       292 2.01721E+01 8.45810E-01-1.11447E-03-7.69679E-01 1.33515E-13-1.44675E-13
 -1       293-6.99739E-01-1.08579E+01-8.53323E-01 1.85601E+00 1.88322E-14 3.52635E-13
 -1       294 3.98747E+00-8.44701E+00-6.00250E-01 4.69201E+00 2.27013E-13 4.14606E-13
 -1       295 1.08720E+01-5.06533E+00-4.26567E-01 6.19199E+00 4.08895E-13-6.36990E-15
 -1       296 2.00397E+01-5.13518E-01-2.78484E-02 7.69948E+00 2.89685E-13-3.49165E-14
 -1       297 3.06158E+01 2.62972E+00 3.67405E-01 7.63521E+00-1.74860E-14 6.28275E-13
 -1       298 3.99644E+01 5.41065E+00 7.47200E-01 6.60113E+00 2.15291E-13 5.18585E-13
 -1       299 4.35374E+01 7.15090E+00 6.58739E-01 2.24100E+00 2.43278E-13 4.47309E-13
 -1       300 4.71285E+01 7.05522E+00 9.29199E-01-8.66156E-01 4.13669E-13 4.00097E-13
 -1       301 4.42484E+01 6.31024E+00 9.00431E-01-4.83255E+00 1.75096E-13 1.65729E-13
 -1       302 3.54068E+01 3.75259E+00 3.90970E-01-5.65653E+00 2.70391E-13-1.99007E-13
 -1       303 2.58797E+01 1.40722E+00 1.74395E-01-7.90484E+00 1.36419E-13-3.60906E-13
 -1       304 1.56257E+01-1.82779E+00-2.13045E-01-7.21759E+00 1.21847E-13-3.84026E-13
 -1       305 7.64057E+00-5.98582E+00-5.36826E-01-5.59461E+00-3.98848E-14-4.33438E-14
 -1       306 1.53261E+00-9.66828E+00-8.52608E-01-3.22355E+00-3.99958E-13-1.45911E-13
 -1       307-1.19144E+00-1.07110E+01-8.51349E-01-1.37888E+00-6.93293E-13-4.55219E-13
 -1       308-7.74634E-01-1.15212E+01-9.89082E-01 8.50017E-01-7.62085E-13 1.23929E-14
 -1       309 4.50214E+00-8.36451E+00-5.56866E-01 4.18461E+00-8.52096E-13 8.69443E-15
 -1       310 1.03091E+01-5.81228E+00-5.94583E-01 5.05096E+00-6.29052E-13-1.61010E-13
 -1       311 2.12172E+01-2.73083E+00-1.68205E-01 6.34356E+00-2.05252E-13 4.54359E-14
 -1       312 3.16979E+01 1.44281E+00 3.02869E-01 6.67552E+00-9.54792E-14 2.15383E-14
 -1       313 4.18099E+01 4.34158E+00 8.35715E-01 5.26789E+00-9.82070E-14 7.37188E-14
 -1       314 4.86069E+01 6.23698E+00 1.20827E+00 2.57578E+00-1.28092E-13-2.28650E-13
 -1       315 5.07800E+01 6.97626E+00 1.32598E+00-5.89964E-01 2.37421E-13-3.63774E-13
 -1       316 4.62640E+01 6.30887E+00 9.56843E-01-3.03519E+00-8.28504E-14-1.16490E-13
 -1       317 3.94731E+01 3.80303E+00 6.45788E-01-5.79065E+00-4.12691E-14-1.38223E-14
 -1       318 2.94624E+01-2.28896E-01 1.44764E-01-6.34308E+00 4.32709E-14 2.12164E-13
 -1       319 1.78177E+01-3.19331E+00-2.61787E-01-6.75777E+00-1.90847E-13-9.96980E-14
 -1       320 7.91682E+00-6.94386E+00-6.92236E-01-4.83774E+00-1.70697E-13-4.06994E-13
 -1       321 1.76387E+00-1.04236E+01-9.65175E-01-2.68553E+00-2.63400E-14 4.62408E-13
 -1       322-1.15566E+00-1.23287E+01-1.06327E+00-6.09535E-01-3.57631E-14 2.71366E-13
 -1       323 2.01452E+01 3.01510E+00-1.79506E-02-2.10972E+00-1.45642E-13-2.51841E-13
 -1       324 2.07562E+01 2.20812E+00-1.78701E-02-2.36334E+00-1.90399E-13-1.82049E-13
 -1       325 1.95841E+01 3.69190E+00-1.51256E-02-1.31663E+00-4.60629E-15-2.87215E-13
 -1       326 1.94603E+01 3.84867E+00-1.36126E-02-9.23579E-01 4.21195E-14-3.01792E-13
 -1       327 1.93913E+01 3.93942E+00-1.26928E-02-5.43894E-01 1.03592E-13-2.57513E-13
 -1       328 1.93608E+01 3.98073E+00-1.22894E-02-1.73258E-01 1.41373E-13-2.32608E-13
 -1       329 1.93621E+01 3.97912E+00-1.23117E-02 1.94403E-01 1.81720E-13-2.09070E-13
 -1       330 1.93955E+01 3.93421E+00-1.27602E-02 5.65379E-01 2.17025E-13-1.68415E-13
 -1       331 1.94664E+01 3.84087E+00-1.37721E-02 9.39339E-01 2.43370E-13-1.27639E-13
 -1       332 1.95933E+01 3.67840E+00-1.56859E-02 1.33360E+00 2.75385E-13-2.75561E-14
 -1       333 1.98081E+01 3.40987E+00-1.90567E-02 1.73973E+00 2.77680E-13 6.54572E-14
 -1       334 2.01755E+01 2.95099E+00-2.32779E-02 2.12389E+00 2.74307E-13 2.12015E-13
 -1       335 2.07597E+01 2.10608E+00-2.94948E-02 2.30719E+00 2.30783E-13 4.42714E-13
 -1       336 2.10933E+01 1.18624E+00-2.41306E-02 1.91465E+00 1.89937E-13 6.40332E-13
 -1       337 2.03821E+01 4.93713E-01 7.80980E-03 9.25374E-01 1.35889E-13 5.66470E-13
 -1       338 2.04582E+01 6.75693E-01 1.23924E-02-1.02540E+00-1.69538E-13-1.20580E-13
 -1       339 2.00370E+01 3.36780E-01 7.15151E-03-4.57859E-01-1.17493E-13-1.14086E-13
 -1       340 1.97826E+01 1.76419E-01 4.13246E-03-1.48965E-01-3.64477E-14-1.04078E-13
 -1       341 1.96471E+01 9.04143E-02 1.89763E-03 2.21646E-02-4.31848E-14-7.27439E-14
 -1       342 1.95917E+01 4.13158E-02 7.88595E-04 1.13286E-01-3.17242E-14-8.61150E-14
 -1       343 1.95863E+01 1.23774E-02 2.70736E-04 1.56457E-01-8.12778E-15-7.27055E-14
 -1       344 1.96103E+01-4.55628E-03 1.48438E-05 1.70590E-01-5.18541E-14-7.58957E-14
 -1       345 1.96498E+01-1.39139E-02-1.18223E-04 1.67483E-01-6.01505E-14-1.05871E-13
 -1       346 1.96958E+01-1.83387E-02-1.84784E-04 1.54791E-01-8.09599E-14-1.46906E-13
 -1       347 1.97431E+01-1.95210E-02-2.04624E-04 1.37575E-01-1.02236E-13-1.21357E-13
 -1       348 1.97905E+01-1.84185E-02-1.99303E-04 1.18361E-01-3.33642E-14-1.22207E-13
 -1       349 1.98322E+01-1.59202E-02-1.73648E-04 1.01311E-01 2.95165E-14-1.36023E-13
 -1       350 1.98704E+01-1.24025E-02-1.34379E-04 8.71189E-02-2.55391E-15-1.22787E-13
 -1       351 1.99059E+01-8.08550E-03-8.53315E-05 7.69510E-02-4.53505E-14-1.62854E-13
 -1       352 1.99401E+01-3.00493E-03-2.58470E-05 7.17976E-02 2.47876E-14-1.52461E-13
 -1       353 1.99748E+01 2.94948E-03 4.52869E-05 7.26520E-02 2.57843E-14-6.73858E-14
 -1       354 2.00126E+01 1.00291E-02 1.31167E-04 8.06699E-02-6.98553E-14-7.68887E-14
 -1       355 2.00566E+01 1.86335E-02 2.36862E-04 9.73237E-02-9.71865E-15-1.46818E-13
 -1       356 2.01104E+01 2.93304E-02 3.69647E-04 1.24563E-01-1.14909E-14-1.77940E-13
 -1       357 2.01784E+01 4.28885E-02 5.39283E-04 1.64990E-01 5.31278E-14-3.31055E-14
 -1       358 2.02658E+01 6.03142E-02 7.57874E-04 2.22061E-01 1.43693E-13-2.30859E-14
 -1       359 2.03788E+01 8.28709E-02 1.03553E-03 3.00298E-01 2.58676E-14-9.10616E-14
 -1       360 2.05244E+01 1.11997E-01 1.40065E-03 4.05265E-01 1.92123E-13-2.22009E-13
 -1       361 2.07212E+01 1.51293E-01 1.86551E-03 5.52149E-01 1.45603E-13-1.87991E-13
 -1       362 2.09595E+01 1.97923E-01 2.34605E-03 7.35312E-01 3.98475E-14-1.86305E-13
 -1       363 2.12567E+01 2.51591E-01 2.83339E-03 9.67241E-01-5.67879E-14-1.93316E-13
 -1       364 2.16222E+01 3.04582E-01 3.07450E-03 1.25059E+00-3.84933E-14-8.56917E-14
 -1       365 2.20661E+01 3.36083E-01 2.68648E-03 1.57543E+00-1.36234E-13-1.56050E-13
 -1       366 2.26038E+01 3.00787E-01 1.13774E-03 1.90483E+00-1.55496E-13-2.65908E-13
 -1       367 2.32656E+01 1.15525E-01-1.86860E-03 2.15098E+00-2.74361E-13-2.39883E-13
 -1       368 2.41134E+01-3.40678E-01-5.83888E-03 2.14566E+00 2.62485E-14-2.89675E-13
 -1       369 2.52592E+01-1.16643E+00-7.97284E-03 1.60996E+00 2.37969E-14-2.05184E-13
 -1       370 2.67044E+01-2.14733E+00-1.38260E-02 2.38796E-01-6.10102E-15-2.61248E-13
 -1       371 2.82403E+01-2.52018E+00-3.72851E-02-1.96010E+00-1.14368E-13-2.58712E-13
 -1       372 2.90333E+01-7.77009E-01-9.44605E-02-3.87789E+00-9.03097E-15-2.89581E-13
 -1       373 2.88518E+01 2.40960E+00-1.48438E-01-3.51210E+00 2.57475E-13-1.40065E-13
 -1       374 2.85248E+01 4.38011E+00-1.61363E-01-3.60248E-01 1.55598E-13-8.52404E-14
 -1       375 2.86034E+01 2.43779E+00-1.75012E-01 3.07008E+00-1.35794E-14-3.34968E-13
 -1       376 2.86859E+01-1.01145E+00-8.37916E-02 3.35050E+00-7.87096E-14-4.22218E-13
 -1       377 2.76321E+01-2.50892E+00-3.36282E-02 1.33332E+00 9.23901E-14-5.22369E-13
 -1       378 2.59753E+01-2.09222E+00-1.44603E-02-8.11227E-01-1.19646E-13-1.65960E-13
 -1       379 2.44096E+01-1.10958E+00-1.01354E-02-2.12169E+00-2.07906E-13-3.13394E-13
 -1       380 2.31657E+01-3.11771E-01-5.73896E-03-2.62106E+00-7.64558E-15-2.58968E-13
 -1       381 2.21992E+01 1.77195E-01-2.55686E-04-2.58473E+00-4.54231E-14-3.04144E-13
 -1       382 2.14289E+01 4.70789E-01 5.01970E-03-2.23715E+00 9.30740E-14-7.92345E-14
 -1       383 2.07760E+01 7.00863E-01 6.70963E-03-1.68752E+00-2.76782E-14-1.54916E-14
 -1       384 1.98410E+01 2.25180E-01 6.86742E-03 2.75584E-01 6.99913E-14 3.70778E-13
 -1       385 1.96467E+01 1.12584E-01 3.30075E-03 4.81251E-02 6.77325E-14 3.37404E-13
 -1       386 1.95561E+01 5.51503E-02 1.48586E-03-7.38163E-02 9.23107E-14 2.80186E-13
 -1       387 1.95334E+01 2.19076E-02 5.98126E-04-1.35428E-01 9.05815E-14 2.15033E-13
 -1       388 1.95510E+01 2.42553E-03 1.66012E-04-1.60959E-01 7.29083E-14 1.50904E-13
 -1       389 1.95906E+01-8.69369E-03-5.59075E-05-1.64903E-01 8.76053E-14 1.59507E-13
 -1       390 1.96406E+01-1.44740E-02-1.69952E-04-1.56400E-01 1.03880E-13 2.07979E-13
 -1       391 1.96935E+01-1.67604E-02-2.20594E-04-1.41418E-01 8.66275E-14 2.11164E-13
 -1       392 1.97450E+01-1.67391E-02-2.30732E-04-1.23922E-01 5.47564E-14 2.15752E-13
 -1       393 1.97929E+01-1.51881E-02-2.14111E-04-1.06569E-01-5.83570E-15 1.91995E-13
 -1       394 1.98365E+01-1.26108E-02-1.79497E-04-9.11515E-02-5.42749E-14 2.47297E-13
 -1       395 1.98761E+01-9.31788E-03-1.32436E-04-7.89050E-02-2.66035E-14 2.48339E-13
 -1       396 1.99127E+01-5.48375E-03-7.63029E-05-7.07210E-02-1.38702E-14 1.90341E-13
 -1       397 1.99479E+01-1.19288E-03-1.31204E-05-6.72946E-02 4.41494E-14 1.86163E-13
 -1       398 1.99839E+01 3.51725E-03 5.56944E-05-6.92132E-02 1.17553E-13 4.49042E-14
 -1       399 2.00228E+01 8.60990E-03 1.28543E-04-7.69907E-02 9.82890E-14-3.17079E-14
 -1       400 2.00672E+01 1.39940E-02 2.02729E-04-9.10389E-02 1.06662E-13-3.91299E-14
 -1       401 2.01200E+01 1.94544E-02 2.73368E-04-1.11565E-01 4.17342E-14 1.83717E-13
 -1       402 2.01838E+01 2.45632E-02 3.32094E-04-1.38378E-01 5.45331E-14 2.44848E-13
 -1       403 2.02611E+01 2.85702E-02 3.65669E-04-1.70580E-01 6.71133E-14 1.86561E-13
 -1       404 2.03538E+01 3.02792E-02 3.54771E-04-2.06134E-01-5.16403E-15 3.71610E-13
 -1       405 2.04629E+01 2.79347E-02 2.73641E-04-2.41294E-01-1.92699E-13 3.15449E-13
 -1       406 2.05874E+01 1.91745E-02 9.17194E-05-2.69963E-01-3.59454E-14 3.95737E-13
 -1       407 2.07237E+01 1.15717E-03-2.20970E-04-2.83095E-01-3.76421E-14 3.12775E-13
 -1       408 2.08647E+01-2.89505E-02-6.82546E-04-2.68434E-01-6.76087E-14 2.56390E-13
 -1       409 2.09984E+01-7.28750E-02-1.28055E-03-2.11121E-01-6.21874E-14 3.06091E-13
 -1       410 2.11072E+01-1.29285E-01-1.94683E-03-9.59401E-02-4.78475E-15 2.76066E-13
 -1       411 2.11676E+01-1.91018E-01-2.53258E-03 8.78479E-02 6.59457E-14 2.20713E-13
 -1       412 2.11517E+01-2.42355E-01-2.82777E-03 3.38490E-01 8.11366E-14 2.01941E-13
 -1       413 2.10318E+01-2.58570E-01-2.57117E-03 6.31550E-01 2.06275E-14 1.61102E-13
 -1       414 2.07901E+01-2.11479E-01-1.59331E-03 9.11724E-01 3.45908E-14 3.17276E-15
 -1       415 2.04340E+01-8.38751E-02 2.95008E-05 1.09518E+00 5.56653E-14 3.93213E-14
 -1       416 2.00107E+01 1.10346E-01 1.83815E-03 1.09229E+00 4.68168E-14 2.90146E-13
 -1       417 1.96103E+01 3.15322E-01 3.40986E-03 8.51852E-01 8.43828E-14 1.23905E-13
 -1       418 1.93403E+01 4.49852E-01 4.29897E-03 4.05491E-01-1.78856E-13 3.81922E-14
 -1       419 1.92760E+01 4.52245E-01 4.31548E-03-1.25059E-01-1.59563E-13 1.01900E-13
 -1       420 1.94204E+01 3.19981E-01 3.49166E-03-5.77129E-01-1.18982E-13-2.59179E-15
 -1       421 1.97000E+01 1.13526E-01 1.89507E-03-8.24167E-01 6.00368E-14-1.83333E-13
 -1       422 2.00065E+01-8.22896E-02 2.16163E-05-8.31867E-01 1.26516E-13-4.08013E-13
 -1       423 2.02485E+01-2.06143E-01-1.48159E-03-6.54269E-01 1.67454E-13-1.57829E-13
 -1       424 2.03794E+01-2.39331E-01-2.23644E-03-3.89761E-01 3.23435E-13 1.06551E-13
 -1       425 2.03971E+01-1.97207E-01-2.19250E-03-1.34600E-01-4.82424E-14 3.41565E-13
 -1       426 2.03275E+01-1.09858E-01-1.57688E-03 4.35255E-02-1.73509E-13 4.10769E-13
 -1       427 2.02146E+01-1.44482E-02 1.91999E-04 1.13929E-01 1.59078E-13 7.25532E-14
 -1       428 2.01058E+01 4.35819E-02 6.27876E-04 9.40649E-02 1.77033E-13 4.46924E-13
 -1       429 2.02920E+01 3.20067E-01 2.85520E-03 6.10926E-01 3.50963E-14-3.17513E-13
 -1       430 2.02300E+01 1.49869E-01 2.42400E-03 3.41222E-01-3.79183E-14 1.41465E-13
 -1       431 2.03130E+01 5.85005E-01 2.56693E-03 9.24970E-01-1.94278E-13-2.69887E-13
 -1       432 2.02525E+01 9.80845E-01 1.49599E-03 1.22843E+00-4.35011E-14 1.34873E-13
 -1       433 2.00883E+01 1.49285E+00-2.03230E-04 1.41813E+00-1.20377E-13-5.97579E-14
 -1       434 1.98296E+01 2.06767E+00-2.46553E-03 1.38628E+00-3.96892E-13 7.43028E-14
 -1       435 1.95337E+01 2.60292E+00-4.65779E-03 1.05690E+00-2.66700E-13 1.42825E-13
 -1       436 1.92961E+01 2.96765E+00-6.08204E-03 4.36851E-01-2.14068E-13 1.74205E-14
 -1       437 1.92120E+01 3.05120E+00-6.31076E-03-3.46216E-01 9.51770E-14-2.93138E-13
 -1       438 1.93295E+01 2.81293E+00-5.50032E-03-1.12524E+00 3.03095E-13 5.59851E-13
 -1       439 1.96369E+01 2.29881E+00-3.19304E-03-1.68083E+00 1.86650E-13-2.34461E-13
 -1       440 2.00686E+01 1.61858E+00 8.70360E-04-1.86301E+00-1.71429E-13 1.29432E-13
 -1       441 2.00402E+01 3.28840E-01 1.04956E-02 5.37254E-01 8.06217E-14 4.83949E-13
 -1       442 1.18816E+01-6.17508E+00-4.16539E-02 7.57130E+00-7.87981E-14 1.24421E-13
 -1       443 2.78289E+01-3.29626E+00-4.43178E-03 4.55637E+00 1.33789E-13 6.85313E-13
 -1       444 1.18406E+00-4.79455E+00-4.91170E-02 3.54777E-01-1.08373E-13 5.54279E-14
 -1       445 2.02647E+01-5.38600E+00-2.05140E-02 7.05137E+00 4.09450E-13-5.93969E-14
 -1       446 1.97869E+01 3.44008E+00-2.07006E-02-1.72679E+00-7.73199E-14-2.82640E-13
 -1       447 3.30027E+01 1.15541E+00-5.62300E-04 1.37831E+00 1.81487E-13 5.02404E-13
 -1       448 3.45711E+01 5.26341E+00-4.36016E-02-2.30733E-01 1.37154E-13 3.05977E-13
 -1       449 3.55306E+01 8.50062E+00-3.59312E-03-9.60764E-02 3.77115E-13 5.36723E-15
 -1       450 3.65524E+01 7.83920E+00 4.98667E-02 1.35431E-01 5.06192E-13 2.03185E-13
 -1       451 3.43591E+01 4.44154E+00-2.36904E-03 4.56873E-02 4.43034E-13 1.88169E-13
 -1       452 3.03883E+01-1.47317E+00-3.30610E-02-2.57466E+00 3.61596E-13-2.86243E-13
 -1       453 2.44356E+01-4.15552E+00-9.57087E-03-5.87727E+00 2.93904E-13-4.80824E-13
 -1       454 1.73016E+01-5.36038E+00-1.01157E-02-7.49863E+00 2.82219E-13-7.18852E-13
 -1       455 8.12078E+00-5.59002E+00-6.48965E-02-6.99724E+00-9.33281E-14-4.32834E-13
 -1       456 2.76210E+00-5.17057E+00-7.21968E-02-4.42219E+00-3.24532E-13-5.13659E-13
 -1       457 1.21797E+00-4.58524E+00-3.44379E-02 5.94660E-01-1.52354E-13-1.99007E-13
 -1       458 4.66632E+00-4.77074E+00 2.86631E-02 4.25608E+00-2.99011E-13 1.73611E-14
 -1       459 1.27494E+01-6.40822E+00-6.03665E-02 6.43522E+00-6.72934E-13 5.46785E-14
 -1       460 2.06203E+01-6.35215E+00-6.90220E-02 5.82116E+00-4.27686E-13 5.80883E-13
 -1       461 2.96290E+01-4.10012E+00 3.50199E-03 2.71011E+00 9.03860E-14 2.92849E-13
 -1       462 3.44224E+01-4.85646E-01 2.81297E-02 4.89795E-01 1.22911E-13-2.78388E-13
 -1       463 3.82536E+01 4.60644E+00 1.67060E-01-1.01726E+00-1.51726E-13-4.07424E-13
 -1       464 3.94164E+01 7.54967E+00 2.27640E-01-8.15318E-01 1.10273E-13-6.65724E-13
 -1       465 3.84789E+01 7.21146E+00 1.09906E-01 3.31442E-01 3.27516E-15-5.25330E-13
 -1       466 3.67052E+01 3.45530E+00 3.78921E-02 8.68900E-01-3.02813E-14-3.25601E-13
 -1       467 3.39080E+01-9.51247E-01 3.67411E-02-1.04736E+00 6.02389E-14-2.31398E-13
 -1       468 2.67741E+01-5.40581E+00-4.33962E-02-4.44522E+00 8.49737E-14 7.43017E-14
 -1       469 1.77885E+01-6.52015E+00-6.04017E-02-6.85169E+00-3.03729E-13-3.89452E-13
 -1       470 9.02337E+00-6.53462E+00-1.09655E-01-6.46889E+00 5.39929E-13 8.39814E-14
 -1       471 2.52098E+00-5.74149E+00-1.11665E-01-3.35587E+00 2.02782E-13-1.36002E-14
 -1       472 4.19200E+00-5.25537E+00-3.60597E-02 5.11429E+00 6.32827E-15 3.98861E-13
 -1       473 1.06861E+01-4.51638E+00 1.01132E-01 6.07867E+00-1.83784E-13 1.20584E-13
 -1       474 1.97329E+01 3.10384E+00-5.37254E-03-6.34032E-01 6.68651E-14-2.40689E-13
 -1       475 1.98287E+01 2.93077E+00-5.87935E-03-9.50505E-01 2.34172E-14-2.58163E-13
 -1       476 1.96653E+01 3.22656E+00-5.02272E-03 8.82390E-03 1.40355E-13-1.92700E-13
 -1       477 1.96837E+01 3.19358E+00-5.10645E-03 3.30466E-01 1.85613E-13-1.66417E-13
 -1       478 1.97375E+01 3.09681E+00-5.41989E-03 6.45871E-01 2.15422E-13-1.36832E-13
 -1       479 1.98361E+01 2.91907E+00-5.94124E-03 9.61342E-01 2.52503E-13-6.12173E-14
 -1       480 1.99922E+01 2.63301E+00-6.56253E-03 1.25628E+00 2.54964E-13 8.64109E-15
 -1       481 2.02225E+01 2.19373E+00-5.81636E-03 1.49010E+00 2.41198E-13 1.16516E-13
 -1       482 2.04783E+01 1.54594E+00-3.25803E-03 1.54246E+00 2.11804E-13 2.75230E-13
 -1       483 2.05337E+01 9.90576E-01 3.19753E-03 1.29798E+00 1.82611E-13 4.07256E-13
 -1       484 2.03447E+01 9.72033E-01 2.71283E-03-9.42734E-01-1.20405E-13-1.34924E-13
 -1       485 1.89084E+01-5.91844E+00 7.58139E-02 7.27143E+00 2.60347E-13 1.51908E-13
 -1       486 2.49428E+01-5.68524E+00-2.67979E-03 5.11019E+00 3.63341E-13 3.76997E-13
 -1       487 2.01715E+01 5.43891E-01 2.03349E-03-4.67791E-01-5.79324E-14-1.09518E-13
 -1       488 2.00243E+01 3.03554E-01 1.09695E-03-1.66629E-01-2.66469E-14-1.15759E-13
 -1       489 1.99235E+01 1.61582E-01 4.52313E-04 1.47349E-02-4.64620E-14-8.06609E-14
 -1       490 1.98647E+01 7.53736E-02 1.54738E-04 1.17348E-01-5.31434E-15-8.70479E-14
 -1       491 1.98374E+01 2.27636E-02 2.07638E-05 1.68768E-01-7.19017E-14-1.17201E-13
 -1       492 1.98313E+01-8.52382E-03-4.65762E-05 1.87628E-01-5.41904E-14-1.90947E-13
 -1       493 1.98388E+01-2.58412E-02-8.23938E-05 1.86582E-01-7.17654E-14-1.50083E-13
 -1       494 1.98541E+01-3.38615E-02-9.44059E-05 1.74256E-01-8.69337E-14-9.95694E-14
 -1       495 1.98744E+01-3.55655E-02-9.35184E-05 1.55662E-01-2.09308E-14-4.14659E-14
 -1       496 1.98953E+01-3.29022E-02-8.64663E-05 1.36760E-01 9.64466E-15-2.66375E-14
 -1       497 1.99166E+01-2.73512E-02-7.03178E-05 1.19575E-01-4.49441E-14-1.30667E-13
 -1       498 1.99380E+01-1.96488E-02-5.07317E-05 1.06130E-01-6.70600E-14-1.96775E-13
 -1       499 1.99595E+01-1.01240E-02-2.70998E-05 9.80009E-02-1.94989E-14-1.96289E-13
 -1       500 1.99818E+01 1.23404E-03 9.27189E-07 9.65827E-02 1.33014E-13-1.30504E-13
 -1       501 2.00059E+01 1.47363E-02 3.43220E-05 1.03303E-01 1.41314E-14-1.22079E-13
 -1       502 2.00332E+01 3.09826E-02 7.48917E-05 1.19809E-01-1.11710E-13-8.76648E-14
 -1       503 2.00652E+01 5.08743E-02 1.25376E-04 1.48141E-01-9.26027E-14-8.23125E-14
 -1       504 2.01035E+01 7.56482E-02 1.89607E-04 1.90897E-01 8.54216E-14-6.29867E-14
 -1       505 2.01498E+01 1.06923E-01 2.72424E-04 2.51407E-01 1.22871E-13-1.05282E-13
 -1       506 2.02057E+01 1.46726E-01 3.78164E-04 3.33886E-01-4.42160E-15-1.08603E-13
 -1       507 2.02723E+01 1.97388E-01 5.13356E-04 4.43457E-01 4.06283E-14-2.16788E-13
 -1       508 2.03538E+01 2.65086E-01 7.17248E-04 5.94667E-01 1.21462E-13-3.67026E-13
 -1       509 2.04410E+01 3.45456E-01 9.18132E-04 7.80684E-01 1.28047E-13-4.39381E-13
 -1       510 2.05350E+01 4.40196E-01 1.16930E-03 1.01456E+00-8.65394E-15-1.70876E-13
 -1       511 2.06318E+01 5.42066E-01 1.39016E-03 1.30198E+00 7.37217E-14-9.17130E-14
 -1       512 2.07300E+01 6.29316E-01 1.47294E-03 1.64377E+00-1.72676E-13-1.51194E-13
 -1       513 2.08395E+01 6.52358E-01 1.23958E-03 2.03065E+00-2.10633E-13-1.09145E-13
 -1       514 2.10031E+01 5.13824E-01 7.38307E-04 2.43394E+00-3.02112E-13-2.07813E-13
 -1       515 2.13372E+01 5.03703E-02 1.45803E-03 2.78755E+00-1.34072E-13 2.77580E-14
 -1       516 2.20665E+01-9.36859E-01 6.13003E-03 2.95632E+00 1.98619E-14 4.23975E-14
 -1       517 2.36689E+01-2.62761E+00-6.06260E-03 2.65948E+00-2.36725E-14 1.48805E-14
 -1       518 2.64721E+01-4.35327E+00 3.13968E-02 1.44804E+00-3.07983E-14-1.92607E-13
 -1       519 3.23845E+01 6.93343E-01-1.25992E-01-3.50549E+00 2.11373E-13 1.95066E-13
 -1       520 3.28400E+01 5.61285E+00-1.56125E-01-2.21848E+00 2.41238E-13-1.42081E-13
 -1       521 3.24520E+01 4.33581E-01-1.18773E-01 2.73403E+00-2.66939E-14-1.37529E-13
 -1       522 2.93960E+01-3.84842E+00-5.08399E-02 8.09445E-01-1.12976E-13-2.63796E-13
 -1       523 2.61330E+01-4.00413E+00 4.35274E-03-1.63367E+00 5.44773E-14-6.83869E-13
 -1       524 2.35891E+01-2.40596E+00 4.59205E-03-2.95445E+00-5.42622E-14-4.89504E-13
 -1       525 2.20448E+01-8.92803E-01 1.00454E-04-3.35060E+00-1.18337E-13-1.43771E-13
 -1       526 2.12231E+01 8.20987E-02-6.12224E-05-3.23620E+00 8.94651E-14 3.05101E-14
 -1       527 2.07730E+01 6.52570E-01 2.36145E-03-2.85275E+00 1.10529E-13 4.37198E-13
 -1       528 2.03013E+01 1.13049E+00 2.53434E-03-2.42932E+00-6.46351E-14 1.78274E-13
 -1       529 1.98527E+01 1.07209E-01 3.93426E-04-7.26121E-02 1.34953E-13 1.14498E-13
 -1       530 1.99339E+01 2.11788E-01 9.80297E-04 6.57959E-02 1.11408E-13 1.37632E-13
 -1       531 2.00669E+01 3.87403E-01 1.13527E-03 3.05414E-01 1.03332E-13 1.73768E-13
 -1       532 1.98120E+01 4.37866E-02 1.30156E-04-1.46858E-01 9.42801E-14 1.06113E-13
 -1       533 1.97994E+01 5.53545E-03 2.55348E-06-1.80098E-01 8.63656E-14 1.24657E-13
 -1       534 1.98048E+01-1.65768E-02-6.30553E-05-1.87768E-01 6.26046E-14 1.14343E-13
 -1       535 1.98208E+01-2.80505E-02-9.50971E-05-1.80308E-01 4.89059E-14 1.33978E-13
 -1       536 1.98424E+01-3.24179E-02-1.06087E-04-1.64836E-01 1.36959E-14 2.23682E-13
 -1       537 1.98663E+01-3.20134E-02-1.03107E-04-1.46225E-01 3.32854E-14 2.64806E-13
 -1       538 1.98905E+01-2.83841E-02-9.07474E-05-1.27817E-01-7.73334E-15 2.66338E-13
 -1       539 1.99144E+01-2.25319E-02-7.19806E-05-1.11929E-01 2.83136E-14 8.65711E-14
 -1       540 1.99377E+01-1.50724E-02-4.86352E-05-1.00203E-01 2.90381E-14-6.83700E-15
 -1       541 1.99608E+01-6.35420E-03-2.17768E-05-9.38629E-02 6.00187E-14-2.10684E-14
 -1       542 1.99847E+01 3.43858E-03 7.97431E-06-9.38811E-02 1.63282E-13-6.05820E-14
 -1       543 2.00104E+01 1.41854E-02 4.01229E-05-1.01075E-01 1.48983E-13 1.84701E-14
 -1       544 2.00394E+01 2.57184E-02 7.39136E-05-1.16126E-01 5.63422E-14 1.20762E-13
 -1       545 2.00733E+01 3.76883E-02 1.07891E-04-1.39510E-01-3.64750E-15 1.45595E-13
 -1       546 2.01140E+01 4.93979E-02 1.39341E-04-1.71341E-01 6.59861E-15 1.52477E-13
 -1       547 2.01635E+01 5.95953E-02 1.63638E-04-2.11075E-01-1.89197E-14 2.42910E-13
 -1       548 2.02239E+01 6.62341E-02 1.73549E-04-2.57094E-01-4.84389E-14 3.41542E-13
 -1       549 2.02973E+01 6.62267E-02 1.58669E-04-3.06119E-01-8.22002E-14 3.18851E-13
 -1       550 2.03858E+01 5.52683E-02 1.05357E-04-3.52496E-01-9.90338E-14 2.90566E-13
 -1       551 2.04913E+01 2.78850E-02-2.20979E-06-3.87407E-01 1.07648E-14 1.74971E-13
 -1       552 2.06151E+01-2.20161E-02-1.79043E-04-3.98214E-01 1.56432E-14 1.82199E-13
 -1       553 2.07568E+01-9.96633E-02-4.32848E-04-3.68284E-01-1.14583E-13 1.35711E-13
 -1       554 2.09133E+01-2.06466E-01-7.52023E-04-2.78007E-01-5.08437E-14 1.89780E-13
 -1       555 2.10762E+01-3.35207E-01-1.08611E-03-1.08029E-01 3.01139E-14 1.18240E-13
 -1       556 2.12279E+01-4.63818E-01-1.31940E-03 1.53888E-01 8.66237E-14 2.24143E-13
 -1       557 2.13390E+01-5.50462E-01-1.36936E-03 5.01231E-01 1.43685E-13 1.16898E-13
 -1       558 2.13692E+01-5.35915E-01-1.03960E-03 8.93570E-01 2.16114E-13 4.73329E-15
 -1       559 2.12782E+01-3.62182E-01-2.84078E-04 1.24431E+00-4.72241E-15-1.18910E-14
 -1       560 2.10519E+01-1.18784E-02 6.35491E-04 1.42616E+00-2.12202E-14-6.38572E-14
 -1       561 2.07352E+01 4.45731E-01 1.08296E-03 1.31450E+00 3.99699E-14-1.05263E-13
 -1       562 2.04391E+01 8.48835E-01 1.11270E-03 8.66926E-01-2.13045E-14 1.14127E-13
 -1       563 2.02925E+01 1.01459E+00 1.15191E-03 1.87130E-01-1.64628E-13 9.29539E-14
 -1       564 2.03554E+01 8.61090E-01 1.65319E-03-4.99843E-01-1.37354E-13-9.45183E-15
 -1       565 2.05765E+01 4.58805E-01 1.59527E-03-9.60025E-01 7.06191E-15-1.49839E-13
 -1       566 2.08240E+01-3.65349E-03 8.22458E-04-1.08074E+00 7.62293E-14-1.79170E-13
 -1       567 2.09821E+01-3.53795E-01-1.09171E-04-9.04045E-01 1.47728E-14-2.54931E-13
 -1       568 2.10009E+01-5.10816E-01-7.84029E-04-5.61666E-01 6.63594E-14-3.36202E-13
 -1       569 2.08920E+01-4.84193E-01-1.17428E-03-1.96038E-01-8.99705E-14 5.54428E-14
 -1       570 2.07000E+01-3.33763E-01-8.89081E-04 9.03505E-02-1.10264E-13 3.75185E-13
 -1       571 2.04731E+01-1.30197E-01 1.52904E-04 2.45945E-01 8.13212E-14 3.68549E-13
 -1       572 2.06165E+01 1.90720E-01 8.84839E-04 1.36182E+00-7.41843E-14 1.75229E-13
 -1       573 2.06402E+01 2.59495E-02 1.94037E-03 9.35467E-01-2.14901E-13-6.38292E-13
 -1       574 2.05328E+01-3.79819E-02 1.04609E-03 5.49815E-01-1.94979E-14-4.65471E-13
 -1       575 5.38468E+00-1.81854E+00 1.77261E-01 2.98656E+00-2.00600E-13 4.41425E-13
 -1       576 2.04004E+01 5.02645E-01 3.00002E-04 1.74030E+00-1.43878E-13-1.44443E-13
 -1       577 1.99624E+01 9.67555E-01-4.67878E-04 1.91906E+00-2.92204E-13-1.48381E-13
 -1       578 1.93606E+01 1.53187E+00-1.85647E-03 1.74506E+00-3.75996E-13 1.95907E-13
 -1       579 1.87668E+01 2.06313E+00-2.41643E-03 1.13744E+00-2.17060E-13 4.14679E-13
 -1       580 1.84006E+01 2.39313E+00-2.50840E-03 1.83482E-01-2.91429E-14-1.63971E-14
 -1       581 1.84263E+01 2.40900E+00-2.57133E-03-9.22997E-01 1.49068E-13 1.87308E-13
 -1       582 1.88885E+01 2.09300E+00-3.60349E-03-1.85662E+00-1.22695E-13 6.95047E-15
 -1       583 1.95423E+01 1.64398E+00-1.11131E-03-2.33711E+00-1.33509E-13-1.52478E-13
 -1       584 8.63180E+00-3.71262E+00 1.39323E-01-5.75856E+00 2.54172E-13-3.13499E-14
 -1       585 2.03947E+01 1.77296E+00-4.88849E-03-1.54829E+00-1.45598E-13-1.92787E-13
 -1       586 2.97335E+01-2.57802E+00-5.51527E-02 1.04171E+00 8.04664E-14 4.21663E-13
 -1       587 5.18324E+00-1.83695E+00 1.83533E-01-2.16598E+00 1.23197E-13-1.84547E-13
 -1       588 2.70873E+01-4.37010E+00-2.83076E-02-2.82035E+00 2.40901E-14-1.75051E-13
 -1       589 1.96809E+01 3.19795E+00-5.10205E-03-3.12918E-01 1.18469E-13-2.02534E-13
 -1       590 3.02731E+01 6.27385E-01-1.35559E-01 7.94785E-01 4.21364E-13 2.64865E-13
 -1       591 3.05862E+01 1.83159E+00-1.43414E-01-1.43186E+00 2.26298E-13 4.44991E-14
 -1       592 3.05884E+01 6.64364E+00-1.69961E-01-1.25490E+00 2.53242E-13 4.93564E-14
 -1       593 3.02135E+01 7.54624E+00-1.92542E-01 6.59486E-01 3.30930E-13 5.58546E-14
 -1       594 3.02456E+01 5.30604E+00-1.63705E-01 1.76770E+00 4.20372E-13 2.34070E-13
 -1       595 2.34451E+01-5.48703E+00 4.09607E-02-5.49348E+00 2.72005E-14-2.89685E-13
 -1       596 1.56251E+01-4.93377E+00 1.02168E-01-7.54230E+00 3.26267E-14-6.16094E-13
 -1       597 8.51241E+00-2.88223E+00 1.54605E-01-6.20125E+00 1.31076E-14-7.01689E-13
 -1       598 4.69307E+00-1.42171E+00 1.85810E-01-2.33150E+00 2.49870E-14-4.14627E-13
 -1       599 5.81829E+00-1.57659E+00 2.00121E-01 2.47445E+00 9.58296E-14-5.46230E-14
 -1       600 1.94130E+01-5.92887E+00 4.47994E-02 5.92139E+00-4.06897E-13 9.01718E-13
 -1       601 2.64740E+01-6.08540E+00-4.64964E-03 3.13956E+00-1.51781E-13 1.79308E-13
 -1       602 3.15285E+01-3.42726E+00-8.75391E-02-9.49981E-01 1.15671E-13-1.57235E-13
 -1       603 3.25317E+01 4.37597E+00-1.44446E-01 2.32980E+00-1.89126E-13-9.58678E-14
 -1       604 3.04657E+01-4.37558E+00-5.96844E-02-5.73157E-01-2.12708E-13 3.71508E-14
 -1       605 2.36457E+01-6.37320E+00 1.93587E-02-5.15654E+00-2.65211E-13-1.27986E-13
 -1       606 1.61048E+01-5.53876E+00 9.43268E-02-6.95867E+00 1.95191E-13 8.28573E-14
 -1       607 1.10677E+01-4.10075E+00 1.46631E-01 7.08414E+00 2.36991E-13 3.34760E-13
 -1       608 1.99819E+01 2.66068E+00-5.91555E-03-1.25505E+00-3.58094E-14-2.28174E-13
 -1       609 2.02667E+01 6.54307E-01 6.22639E-03 7.96380E-01 1.19993E-13 3.22386E-13
 -1       610 3.00063E+01-3.94044E+00-6.27232E-02-1.28611E+00-2.23779E-14-4.25701E-14
 -1       611 3.23464E+01 6.06157E+00-1.46298E-01 9.28177E-01 1.61399E-14-1.00347E-13
 -1       612 2.01394E+01 5.00959E-01 3.55298E-03 5.18098E-01 1.17818E-13 2.37822E-13
 -1       613 9.71559E+00-1.83993E+00 1.58086E-01 4.46639E+00 2.21909E-13 7.04437E-14
 -1       614 2.81830E+01-2.56561E+00-7.84665E-02 9.96767E-02 9.24473E-14 3.83641E-13
 -1       615 1.99603E+01 2.44920E+00-1.60951E-03 3.94222E-01 1.78091E-13-1.12463E-13
 -1       616 1.99286E+01 2.52399E+00-1.52334E-03 1.35828E-01 1.39526E-13-1.64084E-13
 -1       617 2.01194E+01 2.04650E+00-1.79718E-03 8.51001E-01 2.19547E-13-3.63148E-14
 -1       618 2.02405E+01 1.68297E+00-2.00171E-03 1.00205E+00 1.99376E-13 3.91053E-14
 -1       619 2.03637E+01 1.02587E+00 3.46338E-03 1.01041E+00 1.63836E-13 2.13410E-13
 -1       620 2.85914E+01-1.21244E+00-7.31313E-02-9.76542E-01 1.33832E-13-2.54408E-13
 -1       621 1.42683E+01-3.17951E+00 1.21607E-01-6.12488E+00-7.14706E-15 3.59393E-13
 -1       622 2.28309E+01-5.60296E+00 4.31986E-02 5.49532E+00 2.01422E-13 1.92160E-13
 -1       623 2.02898E+01 1.12214E+00 8.96501E-04-7.60986E-01-6.97300E-14-1.62162E-13
 -1       624 2.02395E+01 6.74209E-01 6.08019E-04-3.93630E-01-4.90306E-14-1.47876E-13
 -1       625 2.01673E+01 3.91536E-01 1.67884E-04-1.40183E-01-3.82097E-14-1.50208E-13
 -1       626 2.01019E+01 2.12322E-01 4.30884E-05 2.16663E-02-1.25137E-14-1.35499E-13
 -1       627 2.00517E+01 9.82072E-02 7.79938E-07 1.16713E-01-5.45734E-14-1.68395E-13
 -1       628 2.00168E+01 2.68376E-02-1.60096E-05 1.65641E-01-8.17716E-14-1.39001E-13
 -1       629 1.99945E+01-1.59291E-02-2.71138E-05 1.84161E-01-2.92696E-14-6.60638E-14
 -1       630 1.99819E+01-3.93286E-02-3.13718E-05 1.83718E-01-5.06562E-14-2.13274E-14
 -1       631 1.99761E+01-4.97228E-02-2.90430E-05 1.71790E-01-1.40071E-14-1.64716E-14
 -1       632 1.99754E+01-5.04436E-02-3.08952E-05 1.55520E-01-2.34438E-14-3.84274E-14
 -1       633 1.99780E+01-4.50295E-02-2.52779E-05 1.38622E-01-1.33547E-13-1.24465E-13
 -1       634 1.99829E+01-3.51899E-02-1.97506E-05 1.24001E-01-5.84708E-14-1.46556E-13
 -1       635 1.99895E+01-2.18859E-02-1.29727E-05 1.13825E-01-4.10452E-14-9.77730E-14
 -1       636 1.99976E+01-5.46955E-03-5.01035E-06 1.09852E-01 3.79418E-14-7.30866E-14
 -1       637 2.00070E+01 1.42175E-02 4.34725E-06 1.13681E-01 5.35473E-14-1.49078E-13
 -1       638 2.00175E+01 3.77881E-02 1.55273E-05 1.26958E-01-1.97989E-14-1.79626E-13
 -1       639 2.00292E+01 6.62900E-02 2.92398E-05 1.51542E-01-2.66462E-14-1.98647E-14
 -1       640 2.00416E+01 1.01217E-01 4.65504E-05 1.89647E-01-1.94094E-14 1.54650E-13
 -1       641 2.00540E+01 1.44538E-01 6.87205E-05 2.43951E-01 1.49110E-14 9.51123E-14
 -1       642 2.00647E+01 1.98722E-01 9.70875E-05 3.17679E-01-3.20123E-14-1.04025E-13
 -1       643 2.00710E+01 2.66630E-01 1.25111E-04 4.14602E-01-2.97224E-14-7.91971E-14
 -1       644 2.00676E+01 3.56289E-01 1.98158E-04 5.46160E-01-7.67345E-14-1.85838E-13
 -1       645 2.00466E+01 4.62284E-01 2.46566E-04 7.04966E-01 7.13327E-15-2.40511E-13
 -1       646 1.99979E+01 5.88964E-01 3.28484E-04 9.01341E-01 1.41533E-13-3.30643E-13
 -1       647 1.99071E+01 7.32369E-01 4.13053E-04 1.14034E+00 1.28249E-13-3.29042E-13
 -1       648 1.97583E+01 8.77382E-01 4.68461E-04 1.42697E+00-9.30718E-14-4.15835E-13
 -1       649 1.95392E+01 9.87298E-01 4.63537E-04 1.76751E+00-1.78865E-13-3.77586E-13
 -1       650 1.92553E+01 9.86556E-01 4.04053E-04 2.17318E+00-1.47623E-13-1.76694E-13
 -1       651 1.89596E+01 7.36150E-01 1.35583E-03 2.66579E+00-5.72342E-14 6.65317E-14
 -1       652 1.88105E+01-3.12642E-03 5.82765E-03 3.28486E+00 2.36647E-14 1.00302E-13
 -1       653 1.92923E+01-1.50312E+00 4.30969E-02 4.03116E+00 1.90081E-13 2.78058E-13
 -1       654 2.08527E+01-4.94365E+00 7.65922E-02-5.54325E+00-8.94354E-14 5.14554E-14
 -1       655 2.18029E+01-3.86057E+00 5.01337E-02-4.55952E+00 1.58831E-14-1.40912E-14
 -1       656 2.00952E+01-1.54622E+00 2.75284E-02-4.30918E+00 1.27749E-13-3.27208E-14
 -1       657 1.95461E+01-6.68979E-02 5.44310E-03-3.77818E+00 1.84362E-13 2.42373E-13
 -1       658 1.95332E+01 7.85851E-01 1.27872E-03-3.21161E+00 1.60001E-13 2.71244E-13
 -1       659 1.94726E+01 1.23431E+00-1.40471E-03-2.78149E+00-9.69614E-14 5.12836E-14
 -1       660 2.01111E+01 2.85255E-01 1.81695E-04 5.42348E-02 1.32870E-13 4.29297E-14
 -1       661 2.00499E+01 1.45998E-01 5.43216E-05-7.45483E-02 1.06483E-13 1.29525E-14
 -1       662 2.01893E+01 5.05057E-01 5.25413E-04 2.65479E-01 1.28463E-13 3.49739E-14
 -1       663 1.99805E+01 4.21986E-03-1.96137E-05-1.79127E-01 6.75626E-14 1.93900E-14
 -1       664 1.99657E+01-2.70061E-02-3.15629E-05-1.87411E-01 2.46732E-14 1.03496E-13
 -1       665 1.99595E+01-4.28058E-02-3.66752E-05-1.80856E-01 3.81421E-14 5.50888E-14
 -1       666 1.99590E+01-4.80998E-02-3.68645E-05-1.66489E-01-3.10590E-14 2.18166E-15
 -1       667 1.99624E+01-4.62225E-02-3.36296E-05-1.49255E-01 1.78024E-14 1.58757E-14
 -1       668 1.99683E+01-3.94051E-02-2.80982E-05-1.32632E-01 5.79168E-14 1.29470E-15
 -1       669 1.99758E+01-2.90899E-02-2.09117E-05-1.19085E-01 1.36600E-13-5.43852E-14
 -1       670 1.99847E+01-1.61568E-02-1.25055E-05-1.10420E-01 6.15889E-14-1.30236E-13
 -1       671 1.99948E+01-1.10809E-03-3.12393E-06-1.08025E-01 5.12230E-14-1.02914E-13
 -1       672 2.00062E+01 1.57627E-02 7.10859E-06-1.13038E-01 1.24704E-13-4.36712E-15
 -1       673 2.00195E+01 3.41991E-02 1.80542E-05-1.26428E-01-5.11825E-14 1.38795E-13
 -1       674 2.00352E+01 5.37867E-02 2.94577E-05-1.48997E-01 6.70965E-14 1.42041E-13
 -1       675 2.00544E+01 7.37163E-02 4.07616E-05-1.81294E-01-4.52694E-14 7.16971E-14
 -1       676 2.00783E+01 9.24943E-02 5.08940E-05-2.23413E-01-9.81966E-14 1.00303E-13
 -1       677 2.01089E+01 1.07594E-01 5.80412E-05-2.74668E-01-9.16196E-14 7.46635E-14
 -1       678 2.01489E+01 1.15069E-01 5.93739E-05-3.33120E-01-2.48219E-14 4.95295E-14
 -1       679 2.02018E+01 1.09195E-01 5.07986E-05-3.94930E-01-1.06104E-14 3.70939E-14
 -1       680 2.02731E+01 8.22856E-02 2.68259E-05-4.53553E-01-2.83587E-14-2.86337E-14
 -1       681 2.03694E+01 2.49718E-02-1.93256E-05-4.98811E-01 4.90557E-14-3.23460E-14
 -1       682 2.04992E+01-7.25570E-02-9.57614E-05-5.15985E-01 1.02707E-14-9.03051E-14
 -1       683 2.06717E+01-2.17605E-01-2.09245E-04-4.85254E-01-9.43940E-14-4.98906E-14
 -1       684 2.08937E+01-4.09387E-01-3.54093E-04-3.82198E-01-6.92902E-14 5.08529E-14
 -1       685 2.11646E+01-6.30198E-01-4.82032E-04-1.80820E-01-7.94326E-15 8.54947E-14
 -1       686 2.14669E+01-8.34150E-01-4.46628E-04 1.38407E-01 1.68497E-13 1.75072E-14
 -1       687 2.17565E+01-9.39316E-01-4.64064E-04 5.71629E-01 2.16219E-13 1.21039E-13
 -1       688 2.19612E+01-8.36120E-01-2.37133E-04 1.06587E+00 7.28327E-14 2.93391E-13
 -1       689 2.19969E+01-4.27904E-01 1.72400E-04 1.49519E+00 3.83606E-14 2.70167E-13
 -1       690 2.18264E+01 2.77927E-01 6.68179E-04 1.66321E+00 1.69190E-13 2.20197E-13
 -1       691 2.15220E+01 1.08668E+00-1.18958E-03 1.39159E+00-1.27539E-13 2.89301E-13
 -1       692 2.12648E+01 1.65545E+00-2.17689E-03 6.71354E-01-1.13470E-13 1.83995E-13
 -1       693 2.12438E+01 1.67064E+00-8.99116E-04-2.42985E-01-4.19566E-14 2.70277E-13
 -1       694 2.14624E+01 1.11663E+00 9.70619E-05-9.87025E-01 6.07733E-14 4.69762E-14
 -1       695 2.17450E+01 2.97734E-01 5.46101E-04-1.27526E+00 7.82850E-14 5.88384E-14
 -1       696 2.18961E+01-4.18135E-01 5.01759E-04-1.11393E+00 1.24219E-13-3.04703E-15
 -1       697 2.18334E+01-8.19165E-01 1.84036E-04-6.82487E-01 1.15357E-13-5.92986E-15
 -1       698 2.15847E+01-8.78946E-01-4.21453E-04-1.91721E-01-1.35641E-13-8.05633E-15
 -1       699 2.12290E+01-6.86285E-01-7.30788E-04 2.06305E-01-2.52491E-13-3.38820E-13
 -1       700 2.08747E+01-3.83769E-01-5.16903E-04 4.64257E-01-7.83907E-14-5.01465E-13
 -1       701 2.10903E+01-4.79470E-01 7.77644E-04 1.22393E+00 2.28057E-13 1.14203E-13
 -1       702 2.04399E+01-1.12046E-01 2.00483E-04 2.25174E+00-1.03238E-13-7.73251E-14
 -1       703 2.10258E+01-4.54949E-01-5.73840E-04 8.09312E-01-1.06412E-13-5.93434E-13
 -1       704 2.09432E+01-4.00588E-01 3.87836E-04 1.78228E+00-6.69681E-15-9.99369E-14
 -1       705 1.84755E+01 1.10969E+00-6.06022E-04 2.03058E+00-7.41160E-14 3.39688E-13
 -1       706 1.75628E+01 1.73428E+00 7.29350E-05 1.07171E+00 5.93065E-14 3.71264E-13
 -1       707 1.72158E+01 2.04249E+00 1.64445E-04-3.21447E-01-1.53860E-14 9.72333E-14
 -1       708 1.76490E+01 1.91219E+00 4.78697E-04-1.69398E+00-7.76591E-14-4.77491E-14
 -1       709 9.83960E+00-1.25560E+00 1.62288E-01-4.25762E+00-4.96200E-14-2.39114E-13
 -1       710 1.04288E+01-1.50074E+00 1.54702E-01 4.99386E+00 1.95885E-14 8.10338E-13
 -1       711 8.15297E+00 8.98307E-02 1.63438E-01 2.03799E-01-1.13965E-13-2.97408E-13
 -1       712 2.46769E+01-4.84337E+00 9.33157E-03-3.40673E+00-8.79193E-14-3.52895E-14
 -1       713 1.95586E+01 4.21336E-01 7.65320E-04 2.41401E+00-2.43813E-14-1.42690E-14
 -1       714 1.68859E+01-4.39533E+00 8.28204E-02 6.84785E+00 1.95580E-13 2.76223E-13
 -1       715 2.78706E+01 3.68962E+00-1.47551E-01-1.99149E+00 1.56340E-13-3.93231E-13
 -1       716 2.00240E+01 2.29473E+00-1.71339E-03 6.38057E-01 2.12011E-13-8.57319E-14
 -1       717 1.41304E+01-2.82086E+00 1.13872E-01-6.45118E+00-1.88686E-13-6.10706E-13
 -1       718 2.00098E+01-4.66061E+00 6.48867E-02-5.94444E+00-1.63574E-13-2.62906E-13
 -1       719 2.00192E+01 2.30446E+00-1.64370E-03-6.29378E-01 4.14738E-14-2.15597E-13
 -1       720 2.67742E+01 5.42633E+00-1.33545E-01 1.56550E+00-1.07740E-13 3.15400E-13
 -1       721 1.65211E+01-4.03079E+00 6.62479E-02 5.83675E+00 6.49480E-14 5.70741E-13
 -1       722 2.78193E+01 1.94324E+00-1.05458E-01 2.29763E+00 4.00648E-13 8.50570E-13
 -1       723 8.68860E+00-7.64137E-01 1.46435E-01-4.14470E+00 1.34786E-13-6.16389E-13
 -1       724 2.69245E+01-4.70777E+00-2.25436E-02 2.31961E+00 3.53164E-14-3.89619E-15
 -1       725 2.46083E+01-5.33668E+00 1.69974E-01 3.41312E+00-3.80650E-13 4.62352E-13
 -1       726 8.17482E+00 3.90153E-01 1.64714E-01 4.10241E-02 1.31553E-13-2.59029E-13
 -1       727 2.66908E+01 6.26757E+00-1.38938E-01-4.62631E-01 3.73174E-14-9.40220E-14
 -1       728 2.62198E+01-5.52200E+00 6.87736E-03-2.86601E+00-2.23717E-13 5.72632E-15
 -1       729 2.00073E+01 5.81792E-02 3.44590E-06-1.46098E-01 1.01164E-13-2.39719E-14
 -1       730 1.99277E+01 2.52565E+00-1.51534E-03-1.26585E-01 1.14465E-13-1.91739E-13
 -1       731 2.69704E+01 1.01523E+00-6.03412E-02-1.96739E+00 2.94244E-14-3.23097E-13
 -1       732 2.01123E+01 2.05800E+00-2.03444E-03-8.41355E-01-1.88096E-14-1.94739E-13
 -1       733 1.84979E+01 1.60802E+00-6.47331E-04-2.43276E+00-1.66907E-13-3.07911E-13
 -1       734 2.02744E+01 8.55276E-01 1.71922E-03 5.85690E-01 1.44711E-13 6.80313E-14
 -1       735 1.49315E+01-2.32165E+00 8.36424E-02 5.79981E+00-4.87822E-14 2.07983E-13
 -1       736 2.02615E+01 1.67894E+00-3.89257E-03-1.12150E+00-8.31755E-14-1.96719E-13
 -1       737 1.00331E+01 2.77491E-01 1.23954E-01 2.05998E+00 1.65949E-13-2.70339E-14
 -1       738 2.61284E+01-3.74850E+00-2.95379E-02-9.58865E-01-8.37592E-14 3.59444E-13
 -1       739 1.99574E+01 2.45476E+00-1.56522E-03-3.84396E-01 7.81773E-14-1.70788E-13
 -1       740 2.02648E+01 1.30881E+00-7.26471E-04 6.31548E-01 1.79942E-13-2.60573E-14
 -1       741 1.42761E+01-8.76460E-01 8.37223E-02 4.21318E+00 3.27794E-13 3.32841E-13
 -1       742 2.65695E+01-3.00376E+00-7.30694E-03 8.87380E-02 1.07889E-13-1.80411E-13
 -1       743 1.79588E+01-2.93473E+00 5.03209E-02-5.37515E+00-3.63459E-13-1.42988E-13
 -1       744 2.02883E+01 7.30803E-01-2.06215E-05-2.91059E-01-4.15882E-14-1.25613E-13
 -1       745 2.02623E+01 4.32797E-01-3.37922E-05-9.42935E-02-1.76418E-14-1.04898E-13
 -1       746 2.02222E+01 2.34188E-01-2.95957E-05 3.54006E-02-3.74464E-14-9.50364E-14
 -1       747 2.01809E+01 1.04121E-01-1.41759E-05 1.12684E-01-7.23850E-14-8.09560E-14
 -1       748 2.01435E+01 2.17356E-02-9.80682E-06 1.52618E-01 2.56501E-14-3.09822E-14
 -1       749 2.01119E+01-2.74733E-02-9.41367E-06 1.67364E-01 2.07606E-15-3.75410E-14
 -1       750 2.00850E+01-5.43397E-02-4.62693E-06 1.65950E-01-4.41509E-14 9.71293E-14
 -1       751 2.00650E+01-6.36043E-02-8.97310E-06 1.55762E-01-1.01105E-13 6.50955E-14
 -1       752 2.00496E+01-6.19142E-02-6.53438E-06 1.42099E-01-1.08622E-13-3.63375E-14
 -1       753 2.00380E+01-5.24299E-02-5.36146E-06 1.28579E-01-1.00701E-13-3.82812E-14
 -1       754 2.00295E+01-3.71335E-02-3.98326E-06 1.17861E-01-8.14161E-14-6.96435E-14
 -1       755 2.00231E+01-1.70531E-02-2.37409E-06 1.11990E-01 1.03305E-14-1.66246E-14
 -1       756 2.00180E+01 7.55253E-03-5.34200E-07 1.12658E-01 5.77795E-14 3.86384E-15
 -1       757 2.00133E+01 3.70708E-02 1.59821E-06 1.21416E-01-5.05454E-14-3.83395E-14
 -1       758 2.00076E+01 7.24601E-02 4.12488E-06 1.39829E-01 7.42577E-14 1.63692E-15
 -1       759 1.99993E+01 1.15212E-01 7.29993E-06 1.69581E-01 7.83676E-14 8.55474E-14
 -1       760 1.99860E+01 1.67340E-01 1.12869E-05 2.12527E-01 9.65618E-15 9.56690E-14
 -1       761 1.99644E+01 2.31370E-01 1.67820E-05 2.70689E-01-1.06834E-13 1.64592E-14
 -1       762 1.99295E+01 3.10230E-01 1.16468E-05 3.46211E-01-4.52019E-14-2.05213E-14
 -1       763 1.98705E+01 4.12707E-01 4.19330E-05 4.46452E-01-8.84892E-14-3.94200E-14
 -1       764 1.97820E+01 5.32519E-01 4.06099E-05 5.63894E-01-2.97956E-14-9.62274E-14
 -1       765 1.96475E+01 6.75770E-01 5.40604E-05 7.04189E-01-2.73203E-14-1.17049E-13
 -1       766 1.94472E+01 8.41526E-01 6.23272E-05 8.68471E-01 5.42908E-14-2.82698E-13
 -1       767 1.91556E+01 1.02200E+00 3.61557E-05 1.05844E+00 2.90888E-14-3.36850E-13
 -1       768 1.87417E+01 1.19646E+00-7.02050E-05 1.27926E+00-1.89814E-14-2.74074E-13
 -1       769 1.81714E+01 1.32141E+00-1.40698E-04 1.54665E+00-8.90157E-16-1.39254E-13
 -1       770 1.74132E+01 1.31519E+00 2.99250E-04 1.90188E+00-4.84214E-14-1.30000E-13
 -1       771 1.64521E+01 1.02580E+00 6.45317E-03 2.43334E+00 9.17892E-14 6.26181E-14
 -1       772 1.53849E+01 3.93971E-01 2.75457E-02 3.15322E+00 2.65563E-13 2.51786E-13
 -1       773 2.08151E+01-4.06371E+00 5.40684E-02 5.26029E+00 1.25585E-13 9.37956E-14
 -1       774 2.02196E+01 1.67495E+00-1.43185E-04-8.41687E-01-5.43882E-14-1.67634E-13
 -1       775 1.66809E+01 1.25022E-02 2.47871E-02-3.97914E+00 2.80670E-13 3.40042E-13
 -1       776 1.75468E+01 1.00175E+00 7.76864E-03-3.12831E+00-2.13013E-15 5.45751E-14
 -1       777 2.02280E+01 3.22692E-01 5.57634E-06 2.77196E-02 1.37914E-13-2.50291E-14
 -1       778 2.02680E+01 5.64259E-01-1.51585E-06 1.96901E-01 1.35983E-13-3.03310E-14
 -1       779 2.00829E+01-3.98342E-02-1.01361E-05-1.71885E-01 2.50096E-14 2.26243E-14
 -1       780 2.01101E+01-3.45079E-03-9.25977E-06-1.65448E-01 3.31826E-15 4.20932E-14
 -1       781 2.00456E+01-6.16125E-02-9.19501E-06-1.53200E-01 6.19864E-14-5.76989E-14
 -1       782 2.00337E+01-5.68566E-02-7.97763E-06-1.38687E-01 6.80918E-14-1.01753E-13
 -1       783 2.00251E+01-4.57116E-02-6.41258E-06-1.25399E-01 4.41325E-14-1.13421E-13
 -1       784 2.00191E+01-2.99099E-02-4.45932E-06-1.15660E-01 8.39654E-14 4.96316E-14
 -1       785 2.00150E+01-1.04932E-02-2.26089E-06-1.11231E-01 4.53549E-14 1.91402E-14
 -1       786 2.00123E+01 1.19374E-02 1.23805E-07-1.13531E-01 7.61835E-14-1.68654E-14
 -1       787 2.00105E+01 3.69884E-02 2.68354E-06-1.23778E-01-2.35191E-14 5.39522E-14
 -1       788 2.00096E+01 6.42289E-02 5.46831E-06-1.43063E-01-4.47106E-14 3.75205E-14
 -1       789 2.00094E+01 9.29002E-02 8.47370E-06-1.72354E-01-1.30748E-14 2.32464E-13
 -1       790 2.00105E+01 1.21567E-01 1.15819E-05-2.12412E-01-1.13106E-14 1.43651E-13
 -1       791 2.00141E+01 1.47697E-01 1.45566E-05-2.63608E-01-7.67764E-14 7.33643E-14
 -1       792 2.00224E+01 1.67160E-01 1.69670E-05-3.25624E-01 1.46474E-14-3.43153E-14
 -1       793 2.00393E+01 1.73700E-01 1.80717E-05-3.96999E-01-1.04425E-13-5.98677E-14
 -1       794 2.00710E+01 1.58469E-01 1.65813E-05-4.74491E-01 1.11833E-14 6.59766E-14
 -1       795 2.01271E+01 1.09852E-01 1.02864E-05-5.52176E-01-9.27826E-14 3.13723E-14
 -1       796 2.02207E+01 1.40040E-02-5.17868E-06-6.20241E-01 7.38296E-14 1.08959E-13
 -1       797 2.03696E+01-1.43175E-01-4.11057E-05-6.63395E-01 8.25760E-15 7.97385E-14
 -1       798 2.05942E+01-3.71460E-01-1.13210E-04-6.58987E-01-9.43676E-14 4.61521E-14
 -1       799 2.09139E+01-6.67491E-01-2.12866E-04-5.75473E-01-2.37902E-13 3.84920E-14
 -1       800 2.13375E+01-1.00043E+00-2.63201E-04-3.73248E-01-5.07004E-14 1.38353E-13
 -1       801 2.18463E+01-1.29203E+00 2.35242E-04-1.29621E-02 1.34929E-13 1.45871E-13
 -1       802 2.23690E+01-1.39868E+00-1.18998E-04 5.18999E-01 3.60026E-14 3.74548E-13
 -1       803 2.27848E+01-1.14377E+00-2.22224E-03 1.16256E+00 1.53529E-13 2.35160E-13
 -1       804 2.29374E+01-3.60116E-01-1.39874E-03 1.71628E+00 1.00182E-13-6.76734E-14
 -1       805 2.27538E+01 8.59228E-01 5.92538E-03 1.85212E+00-2.62169E-14 2.23947E-13
 -1       806 2.23503E+01 2.11197E+00-3.43347E-03 1.33194E+00-4.50551E-14 1.36395E-13
 -1       807 2.21411E+01 2.66864E+00-1.30530E-02 2.49497E-01-1.09318E-13 6.24709E-14
 -1       808 2.23695E+01 2.13984E+00-6.93269E-03-8.88392E-01 6.47505E-14-1.70090E-13
 -1       809 2.27674E+01 9.12315E-01 4.12748E-04-1.45737E+00-9.50644E-14-1.64953E-14
 -1       810 2.29745E+01-3.32127E-01-1.41257E-03-1.33726E+00-1.76586E-14 3.83844E-13
 -1       811 2.28585E+01-1.14432E+00 2.95315E-04-7.73438E-01 1.11742E-13 3.64169E-13
 -1       812 2.24373E+01-1.37232E+00-1.37122E-03-1.09196E-01 1.59196E-13 4.50624E-14
 -1       813 2.18937E+01-1.17875E+00-3.94572E-05 4.22498E-01 5.94303E-14 2.44630E-14
 -1       814 2.14381E+01-8.45520E-01-1.79975E-03 6.81822E-01 1.85103E-14-2.21247E-13
 -1       815 1.59097E+01 1.63092E+00 1.33133E-02 7.05880E-01 2.17717E-13 1.23606E-13
 -1       816 1.13231E+01 4.36279E-01 9.52898E-02-2.30416E+00-7.88692E-14-4.73715E-13
 -1       817 1.59208E+01 1.70807E+00 3.37566E-03-1.18848E+00 2.65439E-14-1.66448E-13
 -1       818 1.69865E+01 9.01540E-01 1.54725E-02 2.26314E+00 1.84509E-13 4.42942E-13
 -1       819 1.33757E+01-7.89488E-01 9.21630E-02-4.46018E+00 2.62273E-14 2.03813E-13
 -1       820 1.79919E+01-2.35859E+00 6.71356E-02-5.22687E+00 1.36974E-14 1.24978E-13
 -1       821 1.16498E+01 3.03798E-01 7.08157E-02 2.50688E+00 9.84603E-14 5.07514E-13
 -1       822 1.87470E+01-1.18955E-01-3.96503E-03 2.99644E+00-4.37441E-14 2.04356E-13
 -1       823 2.00617E+01-5.72791E-02-1.01197E-05-1.65747E-01 8.71265E-15 6.85542E-14
 -1       824 2.45967E+01 4.75486E+00-8.01232E-02 6.08648E-01-9.11077E-14 1.26375E-13
 -1       825 2.02814E+01 1.12603E+00-3.58679E-06-5.35363E-01-5.00055E-14-1.38598E-13
 -1       826 1.03911E+01 5.66982E-01 9.22432E-02-2.22849E+00 1.84376E-13-4.76168E-13
 -1       827 2.21251E+01-4.06283E+00 2.31773E-02-3.95405E+00-4.18683E-13 8.76786E-14
 -1       828 2.52423E+01 4.17037E+00-8.25965E-02-1.42610E+00 6.58154E-15 2.20070E-13
 -1       829 1.31356E+01-9.46374E-01 7.43293E-02-4.81933E+00-2.09225E-14-3.86705E-13
 -1       830 2.63142E+01-1.11031E+00-4.05816E-02 1.60641E+00 1.49736E-13 6.33826E-13
 -1       831 2.01392E+01 1.88855E+00-3.22369E-04 1.99367E-01 1.28095E-13-1.04257E-13
 -1       832 2.03054E+01-8.08455E-01 1.88384E-03 2.85137E+00 4.34559E-15-2.89783E-13
 -1       833 2.50847E+01 2.72448E+00-6.29907E-02 2.20276E+00 1.04628E-13 1.83333E-13
 -1       834 2.42538E+01-4.67958E+00 2.76911E-03 3.40343E+00 3.75221E-15 1.64723E-13
 -1       835 2.50226E+01 2.13685E+00-3.79633E-02-1.91368E+00-2.22149E-14 2.76555E-13
 -1       836 2.59225E+01-1.41297E+00-3.92905E-02-1.19773E+00 4.30667E-14-1.73756E-13
 -1       837 1.06242E+01 9.74730E-01 8.75213E-02-3.01955E-01 1.43161E-13-3.34576E-13
 -1       838 1.42617E+01-2.98078E-01 4.64226E-02 3.77821E+00-8.53944E-14 3.75172E-13
 -1       839 2.02168E+01 1.58445E+00-6.02863E-04 5.33341E-01 1.94834E-13-7.28868E-14
 -1       840 2.01841E+01 1.63164E-01-9.40020E-06-7.83497E-02 1.24366E-13-1.02786E-14
 -1       841 2.01278E+01 1.92666E+00-3.12630E-04 3.27824E-03 1.07198E-13-1.61694E-13
 -1       842 2.01440E+01 6.02263E-02-8.88445E-06-1.38004E-01 9.34688E-14 5.16787E-14
 -1       843 1.25401E+01 1.17521E+00 5.84578E-02 1.38548E-02 2.00691E-13-2.14030E-14
 -1       844 2.12657E+01-1.13788E+00 2.28653E-03 2.24301E+00 2.30304E-13-2.95399E-13
 -1       845 2.02181E+01 1.59020E+00 1.96796E-04-5.29689E-01-1.42419E-14-1.62986E-13
 -1       846 2.02881E+01 9.29677E-01 5.30105E-04 4.46380E-01 1.55838E-13-2.01162E-14
 -1       847 2.16456E+01-1.15297E+00 1.85836E-03 1.48771E+00 2.89473E-13 1.04276E-13
 -1       848 2.39562E+01-3.88497E+00 7.65501E-04-2.16069E+00-3.49516E-13 4.53193E-13
 -1       849 2.01704E+01 1.77584E+00-5.28765E-04 3.80659E-01 1.71794E-13-6.10788E-14
 -1       850 2.01690E+01 1.78178E+00-3.04057E-04-3.75835E-01 4.61588E-14-1.63588E-13
 -1       851 1.25212E+01 9.09016E-01 6.96272E-02 1.95077E+00 3.03319E-13 1.80531E-13
 -1       852 2.03313E+01 4.30321E-01 1.82649E-06-4.65276E-02-1.36490E-14-7.80056E-14
 -1       853 2.03051E+01 2.27676E-01-3.02228E-05 4.71541E-02-1.70574E-14-7.13754E-14
 -1       854 2.02690E+01 9.30990E-02-2.93939E-06 1.03169E-01-3.71149E-14-6.94109E-14
 -1       855 2.02299E+01 7.73493E-03-1.68890E-06 1.31464E-01 3.89935E-14-9.81433E-14
 -1       856 2.01901E+01-4.39725E-02 2.31534E-06 1.41070E-01 5.05326E-14-3.95723E-14
 -1       857 2.01555E+01-6.77522E-02-2.19666E-06 1.38485E-01-3.59931E-14 1.29098E-15
 -1       858 2.01251E+01-7.42467E-02-6.73367E-07 1.29961E-01-1.50928E-13 5.68311E-14
 -1       859 2.00988E+01-6.84602E-02-3.95539E-07 1.19433E-01-9.34330E-14 4.68603E-14
 -1       860 2.00763E+01-5.37556E-02-4.68107E-07 1.09809E-01-1.16787E-13 7.89712E-14
 -1       861 2.00566E+01-3.21428E-02-4.03975E-07 1.03257E-01 8.46954E-14 8.45057E-14
 -1       862 2.00386E+01-4.56377E-03-2.71880E-07 1.01463E-01 6.09289E-14 1.04843E-13
 -1       863 2.00208E+01 2.89035E-02-1.19892E-07 1.05823E-01 1.32458E-14 1.71979E-13
 -1       864 2.00013E+01 6.88969E-02-9.45069E-08 1.17574E-01 7.88900E-14 2.47503E-13
 -1       865 1.99777E+01 1.16666E-01 6.19015E-09 1.37870E-01 1.32536E-13 2.57506E-13
 -1       866 1.99468E+01 1.73997E-01 1.48505E-07 1.67784E-01-2.51181E-15 1.94717E-13
 -1       867 1.99045E+01 2.43147E-01 1.10702E-06 2.08240E-01-7.71549E-14 7.23796E-14
 -1       868 1.98452E+01 3.26698E-01-1.03848E-05 2.59904E-01-1.06956E-13 5.31170E-14
 -1       869 1.97557E+01 4.33146E-01 8.38752E-06 3.26194E-01-5.38001E-14 5.32231E-14
 -1       870 1.96332E+01 5.55358E-01-1.76213E-06 3.99958E-01-1.25273E-13 4.73726E-14
 -1       871 1.94598E+01 6.99672E-01-6.70532E-06 4.81966E-01-3.27074E-14 1.43999E-13
 -1       872 1.92152E+01 8.66247E-01-2.06751E-05 5.68542E-01-4.69537E-14 1.56167E-13
 -1       873 1.88726E+01 1.05126E+00-7.28788E-05 6.54830E-01 1.36753E-14 1.08192E-13
 -1       874 1.83956E+01 1.24401E+00-2.29560E-04 7.36355E-01-4.04968E-14-2.25808E-14
 -1       875 1.77342E+01 1.42252E+00-4.99606E-04 8.13467E-01 2.07242E-14 2.27228E-14
 -1       876 1.68181E+01 1.54777E+00 1.66303E-05 8.99755E-01 1.77326E-14-1.79957E-13
 -1       877 1.55307E+01 1.55400E+00 4.55673E-03 1.03623E+00 1.61357E-13-3.33780E-15
 -1       878 2.03280E+01 5.70074E-01-1.06438E-04 1.23730E-01 1.18706E-13-4.25931E-14
 -1       879 2.00815E+01-6.23664E-02-8.55830E-07-1.18518E-01 5.04782E-14 3.84703E-14
 -1       880 2.01048E+01-7.13908E-02-1.32055E-06-1.29638E-01 5.70871E-14 3.23611E-14
 -1       881 2.00442E+01-2.38741E-02-6.25908E-07-1.03702E-01 7.15868E-14-5.43837E-14
 -1       882 2.00285E+01 2.69561E-03-3.11774E-07-1.03585E-01 7.05859E-14-3.93581E-14
 -1       883 2.00134E+01 3.31610E-02-1.34137E-07-1.10214E-01-2.36061E-14 1.52365E-13
 -1       884 1.99980E+01 6.70723E-02 1.10756E-07-1.24853E-01-6.15168E-14 1.07523E-13
 -1       885 1.99814E+01 1.03823E-01 5.06368E-07-1.48755E-01-1.27114E-13 9.75788E-14
 -1       886 1.99633E+01 1.42272E-01 1.02235E-06-1.83186E-01 2.38738E-14 1.22692E-13
 -1       887 1.99436E+01 1.80296E-01 1.70087E-06-2.29388E-01 3.38629E-14 8.11279E-14
 -1       888 1.99236E+01 2.14234E-01 2.63628E-06-2.88481E-01-3.10079E-14-4.70840E-14
 -1       889 1.99060E+01 2.38250E-01 3.98929E-06-3.61254E-01-3.86566E-15 6.48285E-14
 -1       890 1.98961E+01 2.43648E-01 5.75256E-06-4.47818E-01-1.20114E-13-8.22776E-15
 -1       891 1.99028E+01 2.18272E-01 7.76104E-06-5.47013E-01-1.18464E-13 2.26475E-13
 -1       892 1.99403E+01 1.46245E-01 8.53409E-06-6.55422E-01-5.20670E-14 7.62373E-14
 -1       893 2.00290E+01 8.56549E-03 1.04940E-06-7.65688E-01-6.39714E-14 1.58880E-13
 -1       894 2.01971E+01-2.14523E-01-4.48362E-05-8.63763E-01-6.68491E-14 3.77616E-13
 -1       895 2.04800E+01-5.37713E-01-1.66539E-04-9.24467E-01-6.12921E-14 2.90600E-13
 -1       896 2.09156E+01-9.58165E-01-2.86615E-04-9.05911E-01-2.12690E-13 1.34264E-13
 -1       897 2.15323E+01-1.43390E+00-4.27545E-05-7.41931E-01-4.59635E-14 1.48938E-13
 -1       898 2.23141E+01-1.85240E+00-4.41438E-04-3.48571E-01-4.71454E-15 2.59315E-13
 -1       899 2.31380E+01-1.93030E+00-5.63683E-03 3.11691E-01 1.25088E-13 9.14431E-14
 -1       900 2.39226E+01-1.43709E+00 2.95273E-03 1.21537E+00 1.60072E-13 3.67500E-13
 -1       901 2.41674E+01-3.93541E-02-8.72257E-03 1.99194E+00-1.34406E-14 5.31689E-13
 -1       902 2.41088E+01-1.46288E+00-1.05687E-02-9.03566E-01-1.61597E-13-1.34278E-13
 -1       903 2.34699E+01-1.97055E+00-2.59147E-03 4.49975E-02 1.17714E-13 8.29827E-15
 -1       904 2.26163E+01-1.79307E+00 5.29322E-04 7.72626E-01 2.71983E-15 3.26404E-13
 -1       905 2.03155E+01 9.27752E-01-1.57959E-04 3.04543E-01 1.42423E-13-6.41081E-14
 -1       906 1.38515E+01 8.85426E-01 7.25363E-02-2.56080E+00 1.59935E-13-3.58257E-13
 -1       907 2.02828E+01 1.23356E+00 9.54688E-04 4.19574E-01 1.51678E-13-5.24174E-14
 -1       908 1.98572E+01-1.53979E+00 1.11589E-02 3.64007E+00-1.10099E-13-7.97179E-14
 -1       909 1.34615E+01 4.49514E-01 3.74832E-02-2.91711E+00 1.58956E-13-5.39308E-14
 -1       910 1.80523E+01-2.02561E+00 3.10779E-02 4.83479E+00 5.86900E-14 6.18244E-13
 -1       911 2.50240E+01-2.65543E+00-3.54685E-03 2.40403E-01-1.01130E-13 5.37579E-13
 -1       912 2.01382E+01 1.89131E+00-3.41742E-04-1.92763E-01 7.92855E-14-1.34758E-13
 -1       913 2.00616E+01-4.59162E-02-4.88510E-07-1.09210E-01-1.82436E-14 2.15279E-14
 -1       914 2.03344E+01 7.23289E-01-4.62037E-04-1.91002E-01-1.26096E-14-1.25904E-13
 -1       915 2.02564E+01 1.36443E+00 2.81191E-04-5.46940E-01-2.60409E-14-1.41086E-13
 -1       916 2.01995E+01-1.72053E-02-2.09862E-06-1.42333E-01 4.35102E-14 6.45820E-14
 -1       917 2.46816E+01-3.41465E+00 5.78442E-03 1.34321E+00-1.88582E-13-5.58696E-13
 -1       918 1.63175E+01-1.14577E+00 2.58231E-02-4.28350E+00-3.43354E-13 4.07608E-14
 -1       919 2.00298E+01-2.67984E+00 1.56537E-02-3.89479E+00-2.83394E-13-1.02742E-13
 -1       920 2.24151E+01-3.51902E+00 1.89392E-02 3.63866E+00 6.59178E-14 1.49371E-14
 -1       921 2.03094E+01 3.24052E-01-1.78015E-05-6.67021E-04 1.04544E-13-5.59185E-15
 -1       922 1.42072E+01 1.36504E+00 1.63171E-02 1.34878E+00 2.57794E-13 1.14026E-13
 -1       923 1.51816E+01 1.20429E+00 2.07800E-02-2.36697E+00 1.83599E-14-4.56503E-13
 -1       924 2.02757E+01 1.40600E+00-2.84848E-06 6.95154E-02 9.07027E-14-1.24077E-13
 -1       925 2.02378E+01 4.93948E-02-3.99137E-07-1.22969E-01 6.06368E-14 8.22169E-14
 -1       926 2.01638E+01-5.41093E-02-2.03290E-06-1.45804E-01 1.34685E-14-1.95262E-14
 -1       927 2.42413E+01 4.12298E-02-1.10955E-02-1.62216E+00-2.55003E-13-1.72150E-13
 -1       928 2.03003E+01 1.20769E+00 7.31849E-04-2.99945E-01-7.90867E-15-1.03116E-13
 -1       929 2.16050E+01-2.05774E+00 2.42748E-04 2.82622E+00-1.09828E-13-5.33154E-13
 -1       930 2.02867E+01 1.33771E+00 2.16498E-04 1.97586E-01 1.21135E-13-4.34678E-14
 -1       931 1.29311E+01 1.06601E+00 3.44372E-02-1.63692E+00 2.37489E-13-3.49503E-13
 -1       932 2.24324E+01-2.10470E+00-4.15022E-03 1.79223E+00 2.57318E-14-2.11716E-13
 -1       933 2.18652E+01-3.11227E+00-1.22949E-03-2.81922E+00-1.08993E-13 1.51477E-13
 -1       934 2.01322E+01-7.00903E-02-1.32729E-06-1.39931E-01 6.70343E-14-2.43692E-14
 -1       935 2.03043E+01 1.00640E+00-5.80449E-04-3.44574E-01-4.95841E-14-1.26077E-13
 -1       936 2.03809E+01 3.94364E-01 3.67588E-05-9.66035E-03-1.10716E-14-6.87043E-14
 -1       937 2.03604E+01 1.98438E-01 3.84716E-05 5.05387E-02-2.50360E-14-6.59400E-14
 -1       938 2.03251E+01 6.83741E-02-1.79261E-06 8.58530E-02-3.92486E-15-3.11724E-14
 -1       939 2.02813E+01-1.55385E-02 8.27096E-06 1.03168E-01 6.64074E-14-7.82925E-14
 -1       940 2.02384E+01-5.95551E-02 9.90607E-07 1.07224E-01 4.63774E-14-9.96066E-14
 -1       941 2.01973E+01-7.88190E-02 1.59306E-06 1.04166E-01-5.77788E-14-6.06290E-14
 -1       942 2.01596E+01-8.03763E-02 3.15577E-06 9.76422E-02-1.13259E-14 1.28917E-13
 -1       943 2.01256E+01-6.92286E-02 1.93955E-06 9.04262E-02-4.96589E-14 2.63828E-13
 -1       944 2.00948E+01-4.86067E-02 5.46787E-07 8.45554E-02 2.56989E-14 3.38476E-13
 -1       945 2.00661E+01-2.03538E-02 3.74335E-07 8.15545E-02 1.00341E-13 3.74963E-13
 -1       946 2.00380E+01 1.47810E-02 5.89615E-07 8.25789E-02 4.48292E-14 2.95242E-13
 -1       947 2.00084E+01 5.69250E-02-1.55959E-07 8.85333E-02 9.23884E-14 2.89032E-13
 -1       948 1.99745E+01 1.06902E-01-8.74735E-07 1.00102E-01 1.09152E-13 2.61577E-13
 -1       949 1.99331E+01 1.66077E-01-1.67603E-06 1.17724E-01 3.15932E-15 2.03120E-13
 -1       950 1.98798E+01 2.36222E-01-1.37801E-06 1.41473E-01-1.28849E-13 1.76798E-13
 -1       951 1.98091E+01 3.19315E-01-1.23001E-05 1.70923E-01-1.51209E-13 1.78128E-13
 -1       952 1.97081E+01 4.22814E-01 1.96975E-06 2.06339E-01-9.23632E-14 1.29620E-13
 -1       953 1.95765E+01 5.38807E-01-6.20794E-06 2.41486E-01-1.07450E-13 1.53912E-13
 -1       954 1.93977E+01 6.72594E-01-1.25598E-05 2.73340E-01-5.85673E-14 1.54035E-13
 -1       955 1.91551E+01 8.23575E-01-2.40380E-05 2.94595E-01-1.36811E-13 1.56434E-14
 -1       956 1.88267E+01 9.88248E-01-6.07930E-05 2.94966E-01 6.18952E-15-8.11590E-14
 -1       957 1.83823E+01 1.15863E+00-1.67382E-04 2.60939E-01-7.03212E-14-1.50390E-13
 -1       958 1.77798E+01 1.32034E+00-4.17514E-04 1.76202E-01 3.41596E-14 6.36416E-15
 -1       959 1.69542E+01 1.45066E+00-6.23429E-04 2.51026E-02-2.89948E-14-3.43665E-14
 -1       960 1.58094E+01 1.51528E+00 5.05452E-03-2.15548E-01 3.23086E-14-1.77244E-14
 -1       961 2.02762E+01 1.57703E-01-1.17830E-05-7.92006E-02 6.66328E-14 4.41836E-14
 -1       962 2.35969E+01-2.98446E+00 1.41093E-03-1.00120E+00-3.62763E-14 3.67472E-13
 -1       963 2.00266E+01 2.31032E-02-4.97345E-07-8.79714E-02-8.33329E-14 1.38731E-13
 -1       964 2.00526E+01-1.08822E-02-3.38227E-07-8.46083E-02 5.99495E-14 1.00563E-13
 -1       965 1.99706E+01 1.04961E-01-1.79533E-06-1.14910E-01-1.03674E-13 1.91745E-13
 -1       966 1.99376E+01 1.51674E-01-2.53000E-06-1.41321E-01-4.59141E-14 9.17238E-14
 -1       967 1.98999E+01 2.00543E-01-3.49438E-06-1.78604E-01 6.86300E-14 7.65506E-14
 -1       968 1.98570E+01 2.48852E-01-4.09671E-06-2.28826E-01 4.82429E-14 8.11376E-14
 -1       969 1.98097E+01 2.91938E-01-4.36604E-06-2.94409E-01-3.43064E-14 8.15687E-14
 -1       970 1.97612E+01 3.22442E-01-3.90439E-06-3.78088E-01-5.92952E-14 1.11758E-13
 -1       971 1.97174E+01 3.29442E-01-2.04159E-06-4.82764E-01-2.22883E-13 1.94382E-13
 -1       972 1.96894E+01 2.97627E-01 1.85568E-06-6.11056E-01 1.58479E-14 1.14965E-13
 -1       973 1.96950E+01 2.06718E-01 5.73117E-06-7.64276E-01-9.24057E-14 1.97949E-13
 -1       974 1.97615E+01 3.16769E-02-8.58031E-06-9.40285E-01-2.18530E-13 1.32657E-13
 -1       975 1.99285E+01-2.55409E-01-1.44134E-04-1.12950E+00-5.52433E-14 3.70391E-13
 -1       976 2.02514E+01-6.79844E-01-3.63138E-04-1.30619E+00-3.88530E-14 4.72648E-13
 -1       977 2.07940E+01-1.24591E+00-5.06221E-04-1.41974E+00-1.28660E-13 2.90092E-13
 -1       978 2.16505E+01-1.91870E+00 1.12714E-03-1.36037E+00 3.00761E-14 1.84652E-13
 -1       979 1.58165E+01 1.73236E-01 5.72368E-04-2.87514E+00-1.96158E-13 3.99944E-13
 -1       980 2.03516E+01 8.73395E-01-2.80471E-05 1.83441E-01 1.36293E-13-4.50678E-14
 -1       981 2.03799E+01 6.68541E-01-2.48685E-05-1.02494E-01 2.84483E-14-4.05629E-14
 -1       982 2.02882E+01 1.33687E+00 1.76883E-04-1.95176E-01 4.67769E-14-1.04706E-13
 -1       983 1.83942E+01-1.17960E+00 9.32916E-03-3.32453E+00-3.66973E-14-3.56095E-13
 -1       984 2.02822E+01 1.31048E+00 4.76929E-04 3.13314E-01 1.37203E-13-6.70763E-14
 -1       985 2.02763E+01 1.40646E+00 1.39854E-04-6.69871E-02 5.11423E-14-1.51061E-13
 -1       986 2.33792E+01-2.82514E+00-5.30725E-03 1.69985E+00-2.55697E-13-6.17716E-13
 -1       987 1.99997E+01 6.18616E-02-1.09105E-06-9.76257E-02-4.07707E-14 1.48174E-13
 -1       988 2.01397E+01-7.62711E-02 7.99303E-07-9.91914E-02 5.52886E-14 4.10800E-14
 -1       989 1.99797E+01-1.88446E+00 4.21030E-03-2.97906E+00 3.12237E-14-2.97564E-13
 -1       990 1.45126E+01 1.50588E+00 1.07218E-02-3.73621E-01 1.76328E-13-2.89974E-13
 -1       991 2.02979E+01 2.82277E-02-9.30274E-07-1.00253E-01 3.70095E-14 1.50877E-14
 -1       992 1.51292E+01 7.62998E-01 1.51847E-02-2.18367E+00-9.51834E-14 3.82144E-13
 -1       993 2.01080E+01-6.19460E-02 8.14694E-07-9.16661E-02 1.17169E-14 1.01033E-13
 -1       994 1.31480E+01 1.40764E+00 3.06466E-02 9.05279E-03 3.43460E-13-2.74541E-13
 -1       995 2.01750E+01-7.97774E-02 3.90441E-07-1.06881E-01 2.21271E-14 2.64012E-14
 -1       996 2.00793E+01-3.95675E-02-3.00191E-06-8.62931E-02 6.08857E-14 1.06712E-13
 -1       997 2.02557E+01-3.50099E-02 2.09683E-06-1.11475E-01 7.61693E-14 2.77218E-14
 -1       998 2.03781E+01 5.31891E-01-1.88410E-04 6.30047E-02 9.13588E-14-1.59185E-14
 -1       999 2.03683E+01 1.00005E+00 1.84788E-04 1.51749E-03 4.03193E-14-1.11199E-13
 -1      1000 2.03717E+01 9.66542E-01-9.88001E-05 8.09757E-02 7.66337E-14-3.33090E-14
 -1      1001 2.03915E+01 1.52696E-01 1.37523E-05 4.16372E-02 2.82834E-14 5.93269E-15
 -1      1002 2.03516E+01 3.06045E-02-2.76656E-05 6.00966E-02 9.89467E-15 3.21828E-14
 -1      1003 2.03064E+01-3.78541E-02-6.29907E-06 6.73639E-02 6.96626E-14 3.25528E-14
 -1      1004 2.02597E+01-7.36818E-02 3.46266E-07 6.82657E-02 3.51735E-14 8.88046E-14
 -1      1005 2.02144E+01-8.59288E-02 1.09400E-06 6.55747E-02 6.92245E-14 2.61996E-13
 -1      1006 2.01721E+01-8.12056E-02 2.25810E-06 6.14226E-02 8.91152E-14 2.63790E-13
 -1      1007 2.01330E+01-6.40917E-02-4.37577E-07 5.73741E-02 6.53782E-14 3.23712E-13
 -1      1008 2.00965E+01-3.74921E-02-4.80982E-07 5.45660E-02 4.34182E-14 2.37271E-13
 -1      1009 2.00611E+01-2.99327E-03-8.18676E-07 5.38075E-02-1.11086E-14 9.76935E-14
 -1      1010 2.00249E+01 3.89333E-02-2.45276E-06 5.56362E-02 8.35855E-14 1.13988E-13
 -1      1011 1.99853E+01 8.85696E-02-4.94857E-06 6.03310E-02 2.16978E-14 1.46661E-13
 -1      1012 1.99390E+01 1.46746E-01-7.54907E-06 6.78540E-02 3.07255E-14 1.05457E-13
 -1      1013 1.98821E+01 2.14659E-01-1.03059E-05 7.77121E-02-5.12450E-14 4.01473E-14
 -1      1014 1.98097E+01 2.93574E-01-2.36590E-05 8.88229E-02-1.42155E-13 5.14826E-14
 -1      1015 1.97103E+01 3.89601E-01-1.53025E-05 9.93144E-02-2.23732E-13 9.36115E-14
 -1      1016 1.95855E+01 4.94248E-01-2.52470E-05 1.04326E-01-6.41240E-14 5.01114E-14
 -1      1017 1.94221E+01 6.11157E-01-3.59874E-05 9.86457E-02-1.34055E-13 1.40241E-13
 -1      1018 1.92084E+01 7.38046E-01-4.90937E-05 7.33848E-02-1.36892E-13 5.64714E-14
 -1      1019 1.89298E+01 8.69750E-01-7.38101E-05 1.58806E-02-1.89865E-13 1.03400E-13
 -1      1020 1.85677E+01 9.96924E-01-1.25904E-04-9.14136E-02-3.37915E-14 2.31301E-14
 -1      1021 1.80978E+01 1.10414E+00-2.39291E-04-2.72088E-01 1.39277E-13-3.53598E-14
 -1      1022 1.74896E+01 1.16616E+00-7.04048E-05-5.59833E-01 7.04449E-14 7.79444E-14
 -1      1023 1.66467E+01 1.18542E+00 1.43582E-03-9.82461E-01 5.49752E-14 1.73153E-13
 -1      1024 1.98239E+01 2.65859E-01-1.42505E-05-1.55606E-01 1.72238E-14 1.14810E-13
 -1      1025 2.00471E+01 8.22370E-03 2.42786E-06-5.94098E-02-9.92336E-15 1.13379E-13
 -1      1026 1.98825E+01 2.05757E-01-1.02261E-05-1.18599E-01 3.30762E-14 4.63256E-14
 -1      1027 1.99321E+01 1.48744E-01-8.08289E-06-9.25957E-02-5.95277E-14 6.26952E-14
 -1      1028 1.97552E+01 3.26020E-01-1.67449E-05-2.06846E-01-8.16024E-14 1.53145E-13
 -1      1029 1.96763E+01 3.80956E-01-1.81536E-05-2.76502E-01-2.07991E-14 1.78695E-13
 -1      1030 1.95895E+01 4.22286E-01-1.77914E-05-3.70025E-01-1.95049E-13 1.78344E-13
 -1      1031 1.95003E+01 4.37466E-01-1.41353E-05-4.94229E-01-6.97711E-14-6.09331E-14
 -1      1032 1.94196E+01 4.08614E-01-6.62826E-06-6.57191E-01-1.08371E-13 1.77588E-13
 -1      1033 1.93665E+01 3.11273E-01-4.11651E-06-8.67495E-01-1.21840E-13 2.47291E-13
 -1      1034 1.93725E+01 1.13557E-01-4.08100E-05-1.13177E+00-1.44620E-13 1.42573E-13
 -1      1035 1.94844E+01-2.22216E-01-7.85761E-04-1.45074E+00-4.21731E-14 7.35162E-14
 -1      1036 1.97911E+01-7.48834E-01-3.07155E-03-1.80685E+00-5.21258E-14 1.27325E-13
 -1      1037 2.04182E+01-1.47827E+00 6.33363E-03-2.13672E+00-1.15227E-13 2.25646E-14
 -1      1038 2.03855E+01 8.57277E-01-2.86569E-04-7.16951E-02 2.25707E-14-1.24023E-13
 -1      1039 2.02140E+01-6.81417E-02-5.34987E-06-1.12147E-01 7.47949E-15 2.44838E-14
 -1      1040 2.03371E+01 1.33344E-01 2.30273E-05-7.24835E-02 5.52829E-14-1.99856E-14
 -1      1041 2.00123E+01 4.94603E-02-4.21540E-06-6.46134E-02-2.49779E-14 1.28074E-13
 -1      1042 2.04221E+01 5.26166E-01 1.85777E-04-2.04300E-02-2.73747E-15-1.20965E-13
 -1      1043 1.75343E+01-1.33781E-02 1.12277E-03-2.43421E+00 1.80202E-13-2.66127E-13
 -1      1044 1.99747E+01 9.64101E-02-6.03352E-06-7.52107E-02-7.26057E-14 3.64528E-14
 -1      1045 2.04172E+01 3.08634E-01-2.70877E-05 1.30364E-02 3.37024E-14-9.29015E-14
 -1      1046 1.87001E+01-7.00706E-01 5.49735E-03-2.58447E+00-7.89780E-15-2.75200E-13
 -1      1047 2.00811E+01-2.68699E-02-9.13376E-06-5.84488E-02 3.57244E-14 1.70493E-14
 -1      1048 2.01938E+01-8.50290E-02 4.40784E-06-6.94278E-02 8.02806E-15-1.16088E-13
 -1      1049 2.03711E+01 9.57480E-02 3.11561E-05-5.54847E-02 3.82750E-14 9.66362E-15
 -1      1050 2.01535E+01-7.56577E-02 1.18433E-06-6.44888E-02-6.89203E-14-1.01464E-13
 -1      1051 2.03668E+01 2.95893E-01 8.05887E-05-2.11485E-02 7.60696E-14-3.17755E-14
 -1      1052 2.04268E+01 6.25345E-01-2.83490E-04-7.82139E-04 4.82750E-14-7.67030E-14
 -1      1053 2.03294E+01 8.29922E-04-2.22082E-05-6.96114E-02 3.56739E-14-2.63704E-14
 -1      1054 1.55906E+01 1.10745E+00 2.46751E-02-1.44549E+00-3.71430E-14 2.95469E-13
 -1      1055 2.03552E+01-3.57285E-03 8.72499E-07 2.49250E-02 2.54944E-14 1.30551E-14
 -1      1056 2.03068E+01-5.87678E-02-5.04293E-05 2.68153E-02 8.90410E-14 3.06388E-14
 -1      1057 2.02578E+01-8.36122E-02 3.08079E-05 2.63802E-02 1.42237E-13 1.01177E-13
 -1      1058 2.02110E+01-8.78744E-02-1.03509E-05 2.52361E-02 8.22263E-14 1.37901E-13
 -1      1059 2.01666E+01-7.65007E-02-2.32870E-05 2.37935E-02 8.87491E-14 6.71749E-14
 -1      1060 2.01249E+01-5.36389E-02-1.42069E-05 2.23725E-02-4.65812E-14 7.68706E-14
 -1      1061 2.00854E+01-2.16924E-02 2.00440E-05 2.14039E-02-1.01886E-13-3.74616E-14
 -1      1062 2.00460E+01 1.78832E-02-1.60340E-06 2.11038E-02-4.73459E-15-9.30827E-14
 -1      1063 2.00043E+01 6.50650E-02-1.58530E-06 2.12980E-02 5.72242E-14-1.47389E-13
 -1      1064 1.99575E+01 1.20036E-01-2.80238E-06 2.15562E-02 5.99021E-15-1.00421E-13
 -1      1065 1.99022E+01 1.83425E-01-6.07663E-06 2.10724E-02-2.94744E-14-1.91374E-13
 -1      1066 1.98344E+01 2.55817E-01-3.05365E-05 1.84075E-02-1.47216E-13-1.70070E-13
 -1      1067 1.97446E+01 3.41966E-01-1.81560E-05 1.04892E-02-1.21439E-13-1.13140E-13
 -1      1068 1.96356E+01 4.33174E-01-3.38137E-05-5.84149E-03-1.35958E-13 7.05528E-14
 -1      1069 1.94977E+01 5.31374E-01-5.73619E-05-3.66111E-02-6.34778E-14 1.06775E-13
 -1      1070 1.93242E+01 6.32599E-01-9.03510E-05-9.04438E-02-9.48927E-14 1.90932E-13
 -1      1071 1.91078E+01 7.29700E-01-1.38448E-04-1.79539E-01-1.88329E-13 2.23918E-13
 -1      1072 1.88411E+01 8.11041E-01-1.99769E-04-3.20841E-01-1.95437E-13 1.85318E-13
 -1      1073 1.85168E+01 8.58767E-01-2.14190E-04-5.37412E-01-6.06008E-14 5.55794E-14
 -1      1074 1.81276E+01 8.47274E-01 1.91244E-04-8.59925E-01 9.93708E-14-2.26015E-13
 -1      1075 1.76523E+01 7.38538E-01-1.27228E-03-1.33390E+00 2.01859E-13-9.28038E-14
 -1      1076 1.96441E+01 4.10430E-01 6.97671E-05-1.59780E-01-4.08796E-14 1.14808E-13
 -1      1077 2.00314E+01 3.19552E-02 8.68758E-06-2.89322E-02 1.25985E-14 2.63413E-14
 -1      1078 1.97412E+01 3.36125E-01 5.23852E-05-1.11796E-01-5.76088E-15 9.73064E-14
 -1      1079 2.04237E+01 4.66521E-01 8.01198E-05 1.31946E-02 4.57180E-14 2.40993E-14
 -1      1080 2.01163E+01-5.54614E-02 1.93649E-06-6.04525E-02 2.38967E-14-6.46345E-14
 -1      1081 1.98876E+01 1.96061E-01 2.28554E-05-5.70482E-02-3.84859E-15-1.78611E-13
 -1      1082 1.95284E+01 4.81308E-01 1.01261E-04-2.29306E-01-5.75163E-14 1.40363E-13
 -1      1083 1.93938E+01 5.40145E-01 1.47066E-04-3.28953E-01-7.40809E-14 5.05310E-14
 -1      1084 1.92430E+01 5.73779E-01 2.12608E-04-4.70184E-01-1.95909E-13 1.21554E-13
 -1      1085 1.90832E+01 5.62936E-01 3.01458E-04-6.67816E-01-1.83061E-13 1.89547E-13
 -1      1086 1.89294E+01 4.80048E-01 3.83962E-04-9.40264E-01-1.02723E-13 3.10553E-13
 -1      1087 1.88124E+01 2.84707E-01 2.63334E-04-1.30907E+00 2.77402E-14 3.22798E-13
 -1      1088 1.87833E+01-6.29593E-02-1.51112E-03-1.77523E+00-3.16739E-14 7.76887E-14
 -1      1089 2.04371E+01 3.88815E-01-1.17302E-04 6.83563E-04 8.18104E-14-8.10407E-14
 -1      1090 1.99896E+01 7.99230E-02 1.07538E-05-3.38939E-02 3.76082E-14-8.48517E-15
 -1      1091 2.02377E+01-7.95050E-02 8.66302E-06-7.35049E-02 5.72198E-14-1.09102E-13
 -1      1092 2.03993E+01 9.87264E-02-2.30503E-05 1.94069E-02 3.32361E-14-3.77245E-14
 -1      1093 1.99426E+01 1.34638E-01 1.43806E-05-4.27578E-02-8.81297E-14-1.02434E-13
 -1      1094 2.02838E+01-5.39501E-02-2.01450E-05-7.43511E-02 5.26635E-14-2.00924E-14
 -1      1095 1.98215E+01 2.63721E-01 4.39847E-05-7.90223E-02-5.11552E-14-3.89217E-15
 -1      1096 2.00707E+01-9.25681E-03-1.57700E-06-2.67364E-02-4.70071E-14-1.36649E-14
 -1      1097 2.04260E+01 2.21561E-01 1.93347E-04 7.43455E-03 9.85332E-14-5.63939E-14
 -1      1098 2.04080E+01 2.46774E-01 4.17861E-04-2.55112E-02 8.92098E-14 6.64682E-14
 -1      1099 2.02390E+01-8.71183E-02-1.82587E-05-3.17567E-02 1.04207E-13-7.48059E-14
 -1      1100 2.01929E+01-8.49533E-02 2.02160E-05-2.99809E-02-4.94264E-15-1.51934E-13
 -1      1101 2.03808E+01 5.18250E-02-5.65450E-05-2.78184E-02 4.30616E-14-3.27380E-14
 -1      1102 2.02853E+01-7.43981E-02 2.91125E-05-1.61137E-02 1.62267E-13-3.72154E-14
 -1      1103 2.01061E+01-3.91428E-02 3.36522E-06-1.29253E-02-1.17201E-13-1.38868E-13
 -1      1104 2.04253E+01 2.41594E-01-7.11891E-05-1.06887E-02 1.01876E-13-9.91868E-14
 -1      1105 2.04119E+01 1.57106E-01-2.71010E-04-1.80363E-02 8.07747E-14-8.71607E-14
 -1      1106 2.01486E+01-6.79424E-02 2.24472E-05-2.07965E-02-1.00264E-14-1.92757E-13
 -1      1107 2.03359E+01-2.73841E-02 6.04218E-05-3.24528E-02 6.72903E-14-3.69069E-14
 -1      1108 2.79635E+01 9.08671E+00 2.32535E+00-6.69828E+00-3.55271E-14 5.00378E-13
 -1      1109 2.05478E+01 6.22727E+00 2.09746E-01-3.90401E+00-1.44607E-14-1.46251E-13
 -1      1110 1.94348E+01 5.85306E+00 7.53726E-02-2.88802E+00-7.91034E-15-3.68171E-13
 -1      1111 1.90260E+01 5.72591E+00 6.03248E-02-2.23509E+00-3.15026E-15-4.50721E-13
 -1      1112 1.88395E+01 5.66912E+00 5.75282E-02-1.70162E+00-1.12930E-15-4.66096E-13
 -1      1113 1.87460E+01 5.64048E+00 5.55795E-02-1.23427E+00 1.25074E-15-4.62272E-13
 -1      1114 1.86970E+01 5.62524E+00 5.37973E-02-8.04401E-01 2.20830E-15-4.34279E-13
 -1      1115 1.86729E+01 5.61763E+00 5.25347E-02-3.92868E-01 2.88680E-15-3.97494E-13
 -1      1116 1.86660E+01 5.61546E+00 5.21362E-02 8.48930E-03 3.38770E-15-3.59939E-13
 -1      1117 1.86739E+01 5.61798E+00 5.26509E-02 4.10262E-01 5.01834E-15-3.14780E-13
 -1      1118 1.86991E+01 5.62594E+00 5.40399E-02 8.23147E-01 7.17612E-15-2.59679E-13
 -1      1119 1.87498E+01 5.64180E+00 5.62364E-02 1.25559E+00 8.40300E-15-1.85677E-13
 -1      1120 1.88450E+01 5.67106E+00 5.84799E-02 1.72734E+00 9.40741E-15-7.00846E-14
 -1      1121 1.90320E+01 5.72781E+00 6.06718E-02 2.26840E+00 1.11473E-14 8.72340E-14
 -1      1122 1.94315E+01 5.85030E+00 6.94364E-02 2.92880E+00 1.27121E-14 3.40271E-13
 -1      1123 2.04533E+01 6.18189E+00 1.52952E-01 3.87857E+00 8.49321E-15 7.44675E-13
 -1      1124 2.52179E+01 7.99449E+00 1.43029E+00 5.84633E+00 3.99680E-15 1.41889E-12
 -1      1125 2.88132E+01 3.61636E+00 1.27127E+00-4.21710E+00-1.22680E-13 8.90621E-13
 -1      1126 2.02283E+01-1.77727E-01-6.16314E-01-1.09906E-01-4.53804E-14 6.14897E-13
 -1      1127 1.88340E+01-9.63690E-02-2.36372E-01 6.25156E-02-1.86812E-14 2.61022E-13
 -1      1128 1.85001E+01-4.80785E-02-5.96245E-02 4.05192E-02-1.59534E-14-2.26139E-14
 -1      1129 1.84450E+01-2.46066E-02-1.51992E-02 2.68024E-02-7.96455E-16-1.85713E-13
 -1      1130 1.85268E+01-1.30477E-02-4.96295E-03 1.90670E-02-6.22007E-15-2.31072E-13
 -1      1131 1.86736E+01-6.60331E-03-1.45978E-03 1.41188E-02-6.70915E-15-3.33542E-13
 -1      1132 1.88459E+01-2.83374E-03 5.77668E-04 1.06871E-02-8.68018E-15-4.02895E-13
 -1      1133 1.90212E+01-6.01222E-04 1.89686E-03 8.14609E-03-6.60809E-15-5.31021E-13
 -1      1134 1.91868E+01 6.89335E-04 2.64106E-03 6.18608E-03-1.13175E-14-5.81544E-13
 -1      1135 1.93358E+01 1.37758E-03 2.94236E-03 4.64253E-03-1.62793E-15-6.77128E-13
 -1      1136 1.94653E+01 1.67140E-03 2.93260E-03 3.41689E-03 1.60538E-15-6.67074E-13
 -1      1137 1.95749E+01 1.71283E-03 2.72227E-03 2.45071E-03-2.80800E-15-6.54933E-13
 -1      1138 1.96678E+01 1.47978E-03 2.30817E-03 1.74770E-03-6.11453E-15-8.08945E-13
 -1      1139 1.97438E+01 1.28467E-03 1.90946E-03 1.03577E-03-2.97595E-15-8.41130E-13
 -1      1140 1.98044E+01 9.24702E-04 1.40445E-03 5.75898E-04-2.68759E-15-8.53171E-13
 -1      1141 1.98553E+01 4.91737E-04 8.43611E-04 2.21774E-04-1.13407E-14-7.52046E-13
 -1      1142 1.99005E+01-1.92975E-05 2.13387E-04-3.77033E-05-1.08856E-14-8.65609E-13
 -1      1143 1.99445E+01-6.24744E-04-5.12653E-04-2.09568E-04-1.72472E-15-9.29211E-13
 -1      1144 1.99924E+01-1.35406E-03-1.37757E-03-2.91757E-04 2.17932E-14-9.05946E-13
 -1      1145 2.00506E+01-2.25114E-03-2.44406E-03-2.69833E-04 3.62245E-14-7.80404E-13
 -1      1146 2.01267E+01-3.37654E-03-3.79992E-03-1.12025E-04 1.89277E-14-7.61518E-13
 -1      1147 2.02304E+01-4.81028E-03-5.56613E-03 2.39177E-04 5.40795E-15-8.45314E-13
 -1      1148 2.03745E+01-6.65434E-03-7.90788E-03 8.80878E-04-1.58442E-14-9.89539E-13
 -1      1149 2.05756E+01-9.03558E-03-1.10518E-02 1.96518E-03 1.65205E-14-9.73012E-13
 -1      1150 2.08558E+01-1.23653E-02-1.53608E-02 3.69960E-03 7.09133E-15-4.19846E-13
 -1      1151 2.12566E+01-1.56881E-02-2.09865E-02 6.34597E-03-1.41330E-14-1.14261E-13
 -1      1152 2.18117E+01-2.05510E-02-2.82725E-02 1.16253E-02-1.79154E-15-2.43435E-13
 -1      1153 2.25534E+01-2.52927E-02-3.66642E-02 1.90396E-02 2.82721E-14-3.57110E-13
 -1      1154 2.35477E+01-2.89572E-02-4.44403E-02 3.01410E-02 6.43006E-14-4.58113E-13
 -1      1155 2.48443E+01-2.86006E-02-4.64948E-02 4.55471E-02-1.92988E-16-4.82780E-13
 -1      1156 2.64545E+01-1.85878E-02-3.15099E-02 6.37390E-02 6.49563E-14-5.22353E-13
 -1      1157 2.82795E+01 9.83864E-03 1.96933E-02 7.70071E-02 1.61004E-15-5.76053E-13
 -1      1158 2.99842E+01 6.58085E-02 1.25814E-01 6.48967E-02-6.94948E-14-1.03066E-12
 -1      1159 3.08596E+01 1.44189E-01 2.72606E-01-7.24162E-03-1.33383E-14-1.47857E-12
 -1      1160 2.98706E+01 2.02803E-01 3.58689E-01-1.65958E-01 6.00700E-14-9.44994E-13
 -1      1161 2.62925E+01 1.43013E-01 1.96895E-01-3.59027E-01-6.59976E-14-1.14431E-12
 -1      1162 2.10317E+01-8.85679E-02-2.63858E-01-3.99179E-01-6.89032E-15-1.02673E-12
 -1      1163 1.71993E+01-3.18231E-01-6.84497E-01-1.49182E-01 5.02515E-14-7.68122E-13
 -1      1164 1.71947E+01-3.25469E-01-6.66701E-01 1.93943E-01 9.46118E-15-6.96970E-13
 -1      1165 2.09472E+01-6.72216E-02-2.21722E-01 4.01216E-01-3.30794E-14-5.96856E-13
 -1      1166 2.58100E+01 1.53348E-01 2.22671E-01 3.36317E-01 6.22610E-14-5.06428E-13
 -1      1167 2.88422E+01 2.00036E-01 3.58223E-01 1.42731E-01 1.20286E-14-5.28716E-13
 -1      1168 2.93078E+01 1.39701E-01 2.64864E-01-1.02095E-02 3.39312E-15-8.26537E-13
 -1      1169 2.79683E+01 6.22874E-02 1.21081E-01-7.97964E-02 7.02563E-14-4.15647E-13
 -1      1170 2.58314E+01 5.63801E-03 1.56692E-02-9.37707E-02-3.82445E-14-7.68191E-13
 -1      1171 2.35988E+01-2.94015E-02-4.63638E-02-8.35287E-02-8.14080E-14-8.37039E-13
 -1      1172 2.16724E+01-5.27161E-02-8.74140E-02-6.21181E-02 2.02321E-14-4.09679E-13
 -1      1173 2.03425E+01-6.41838E-02-1.03864E-01-1.77775E-02-1.03530E-13-4.10158E-13
 -1      1174 1.99281E+01-6.68930E-02-1.02899E-02 6.71048E-02 5.37285E-14-5.49110E-13
 -1      1175 2.77931E+01 5.25686E-01 3.76862E-01 1.96661E+00-2.90670E-14 1.92674E-12
 -1      1176 2.00858E+01-6.66361E-02-5.73634E-01 1.29506E-01 2.81719E-15 1.77525E-12
 -1      1177 1.89075E+01-4.19553E-02-1.93196E-01 1.93136E-02 5.93883E-15 1.52118E-12
 -1      1178 1.85286E+01-2.26474E-02-5.04363E-02 1.16706E-03 2.06866E-16 1.40179E-12
 -1      1179 1.84577E+01-1.37023E-02-1.37166E-02-4.39349E-03-1.07488E-14 1.40965E-12
 -1      1180 1.85331E+01-7.88554E-03-4.89622E-03-5.64523E-03-2.86826E-15 1.36562E-12
 -1      1181 1.86768E+01-4.41539E-03-1.97682E-03-5.76724E-03 2.20212E-15 1.33676E-12
 -1      1182 1.88476E+01-2.24314E-03-2.78554E-04-5.44293E-03 6.26615E-16 1.28172E-12
 -1      1183 1.90221E+01-8.76220E-04 8.75028E-04-4.92293E-03-1.02686E-14 1.23269E-12
 -1      1184 1.91872E+01-3.62326E-05 1.58899E-03-4.31039E-03 3.14064E-14 1.07407E-12
 -1      1185 1.93361E+01 4.47686E-04 1.94478E-03-3.66641E-03 1.17498E-14 9.55318E-13
 -1      1186 1.94656E+01 6.86486E-04 2.03437E-03-3.02967E-03-9.47777E-15 9.34149E-13
 -1      1187 1.95756E+01 7.54222E-04 1.93690E-03-2.42338E-03 2.20073E-14 7.88463E-13
 -1      1188 1.96671E+01 7.00257E-04 1.71028E-03-1.85959E-03-1.78518E-14 7.58150E-13
 -1      1189 1.97425E+01 5.56507E-04 1.39227E-03-1.34255E-03-2.53028E-14 8.28065E-13
 -1      1190 1.98049E+01 3.42268E-04 1.00415E-03-8.71594E-04 1.21848E-14 7.54548E-13
 -1      1191 1.98578E+01 6.79128E-05 5.54503E-04-4.43862E-04-1.27147E-14 6.41877E-13
 -1      1192 1.99050E+01-2.61768E-04 4.30595E-05-5.69678E-05-1.60280E-16 7.26886E-13
 -1      1193 1.99508E+01-6.44058E-04-5.35146E-04 2.88163E-04-1.32244E-14 6.89096E-13
 -1      1194 2.00000E+01-1.07411E-03-1.18458E-03 5.84134E-04 8.43103E-16 7.89764E-13
 -1      1195 2.00573E+01-1.53952E-03-1.90224E-03 8.13509E-04-8.85799E-15 5.96385E-13
 -1      1196 2.01283E+01-2.01319E-03-2.66785E-03 9.44855E-04 2.45227E-14 3.73641E-13
 -1      1197 2.02182E+01-2.44403E-03-3.43026E-03 9.28807E-04-2.05982E-15 1.70757E-13
 -1      1198 2.03323E+01-2.74577E-03-4.08917E-03 6.95214E-04 2.58317E-15 1.09047E-13
 -1      1199 2.04746E+01-2.78510E-03-4.47262E-03 1.53590E-04 1.58374E-14 1.53286E-13
 -1      1200 2.06469E+01-2.37262E-03-4.31331E-03-7.99041E-04-1.68562E-14 2.61594E-13
 -1      1201 2.08471E+01-1.26459E-03-3.23262E-03-2.25623E-03 6.89886E-15 1.75100E-13
 -1      1202 2.10660E+01 8.11034E-04-7.52010E-04-4.25685E-03-4.97348E-14 9.08839E-14
 -1      1203 2.12852E+01 4.08316E-03 3.63368E-03-6.70690E-03-1.88133E-14 1.68097E-13
 -1      1204 2.14729E+01 8.59765E-03 1.02716E-02-9.26617E-03 6.29661E-15 4.51011E-14
 -1      1205 2.15828E+01 1.40012E-02 1.90093E-02-1.12223E-02-1.22450E-15 2.26954E-14
 -1      1206 2.15553E+01 1.92898E-02 2.87111E-02-1.14279E-02 8.81240E-15 1.68679E-13
 -1      1207 2.13257E+01 2.26802E-02 3.68199E-02-8.44143E-03 8.70983E-15 2.65080E-13
 -1      1208 2.08419E+01 2.18595E-02 3.93824E-02-1.05598E-03-2.43260E-14 1.76720E-13
 -1      1209 2.00920E+01 1.49035E-02 3.21505E-02 1.07470E-02-5.75243E-14 2.97616E-13
 -1      1210 1.91332E+01 1.75389E-03 1.30115E-02 2.47771E-02 3.63054E-14-3.64084E-14
 -1      1211 1.81076E+01-1.45521E-02-1.51880E-02 3.64737E-02 4.67858E-14-2.70582E-13
 -1      1212 1.72212E+01-2.83810E-02-4.38475E-02 4.04636E-02 4.59177E-14-1.15782E-13
 -1      1213 1.66822E+01-3.41666E-02-6.18068E-02 3.35588E-02-8.63502E-15 2.56878E-14
 -1      1214 1.66174E+01-2.96960E-02-6.14370E-02 1.71632E-02-8.36744E-15 1.82892E-13
 -1      1215 1.70152E+01-1.74740E-02-4.33313E-02-2.97496E-03 4.59331E-14 8.34610E-14
 -1      1216 1.77298E+01-3.05158E-03-1.59296E-02-1.97747E-02-5.17073E-14 6.72011E-13
 -1      1217 1.85457E+01 8.32680E-03 9.72132E-03-2.84601E-02-1.54997E-14 7.25288E-13
 -1      1218 1.92638E+01 1.39321E-02 2.57164E-02-2.82394E-02 1.34966E-14 5.63577E-14
 -1      1219 1.97618E+01 1.36853E-02 2.96087E-02-2.14827E-02 2.56394E-14-2.56118E-13
 -1      1220 2.00118E+01 9.13410E-03 2.32768E-02-1.18556E-02 2.95842E-14-3.84974E-13
 -1      1221 2.00641E+01 2.48856E-03 1.08150E-02-2.89649E-03-1.69849E-14-6.72821E-14
 -1      1222 2.00152E+01-3.12983E-03-1.74168E-03 1.99773E-03-1.02587E-14-1.08749E-13
 -1      1223 1.99722E+01-2.78479E-03-4.16075E-03-7.63142E-05 5.53039E-14-4.11302E-13
 -1      1224 1.99886E+01 4.60549E-03 1.15388E-02-3.83765E-03-1.96128E-14-3.89281E-13
 -1      1225 2.00030E+01-1.25770E-02 9.94023E-03-4.65968E-03-4.14765E-13-8.81127E-14
 -1      1226 1.99921E+01-3.53379E-02-1.01849E-02-8.24939E-03-2.37502E-13 3.51884E-14
 -1      1227 1.99833E+01 3.04452E-02-2.33835E-02-3.56877E-03 1.24113E-12-8.64660E-14
 -1      1228 1.99761E+01 2.55642E-01-3.34962E-02 3.03482E-03 1.19385E-12-1.74717E-13
 -1      1229 1.99724E+01 7.04421E-01-3.98269E-02 1.32770E-02 3.24216E-13-1.03813E-13
 -1      1230 1.99739E+01 1.41303E+00-3.81539E-02 2.58627E-02-3.89536E-13-1.86379E-14
 -1      1231 1.99844E+01 2.37312E+00-2.42534E-02 3.76157E-02-3.47437E-13 1.97737E-13
 -1      1232 2.00038E+01 3.50145E+00 3.20714E-03 4.47021E-02 1.28508E-14-1.04985E-13
 -1      1233 2.00290E+01 4.60667E+00 3.97812E-02 4.22142E-02-3.53891E-13-5.07211E-14
 -1      1234 2.00533E+01 5.44321E+00 7.53988E-02 2.75202E-02 5.04517E-13 1.17718E-14
 -1      1235 2.00674E+01 5.77179E+00 9.72150E-02 2.04080E-03 5.39177E-13-7.26554E-14
 -1      1236 2.00669E+01 5.45164E+00 9.60565E-02-2.85808E-02 9.32657E-14-2.49080E-14
 -1      1237 2.00469E+01 4.49436E+00 6.78954E-02-5.46023E-02-6.83897E-14 1.50112E-13
 -1      1238 2.00135E+01 3.07020E+00 1.58349E-02-6.97542E-02 4.73538E-13 1.00494E-13
 -1      1239 1.99744E+01 1.52735E+00-4.78349E-02-6.06400E-02 1.51380E-12-7.31138E-14
 -1      1240 1.99662E+01 3.18836E-01-8.19954E-02 4.99258E-03 1.07256E-12-4.17548E-15
 -1      1241 1.99548E+01-7.50023E-02 8.82773E-04 6.84844E-02 4.53814E-13-3.71145E-14
 -1      1242-1.25555E+00-2.57819E+01-3.91881E+00-2.45267E+00 4.82170E-13 1.87537E-13
 -1      1243-1.90164E+00-1.54097E+01-3.12108E+00-4.01556E+00 7.62057E-13 2.41474E-13
 -1      1244 8.18414E-01-1.57628E+00-1.73874E+00 5.62153E-01 9.29923E-13 5.77427E-13
 -1      1245 1.05542E+01 8.83696E+00-5.59830E-03 9.47155E+00 1.53655E-13 2.09610E-13
 -1      1246 2.75595E+01 1.17370E+01 1.63906E+00 1.71099E+01 1.79634E-13 2.89546E-13
 -1      1247 4.83321E+01 8.28025E+00 3.14280E+00 1.82480E+01 3.91132E-13 7.80709E-13
 -1      1248 6.39654E+01 3.62911E+00 4.03700E+00 1.01210E+01 2.36991E-13 9.30589E-13
 -1      1249 6.83668E+01 1.80215E+00 4.24404E+00-2.95726E+00 5.38458E-15 8.90954E-14
 -1      1250 5.86047E+01 5.09199E+00 3.64441E+00-1.47319E+01 6.83897E-14-3.84692E-13
 -1      1251 3.91834E+01 1.03655E+01 2.45777E+00-1.85432E+01 2.91656E-13-4.26992E-13
 -1      1252 1.93794E+01 1.14852E+01 9.60397E-01-1.42528E+01 2.52243E-13-3.67928E-13
 -1      1253 5.49441E+00 5.67584E+00-7.29517E-01-5.66015E+00 1.79634E-13-1.24345E-14
 -1      1254-7.03065E-01-5.77144E+00-2.14299E+00 1.62454E+00 6.59472E-14 4.49640E-14
 -1      1255-1.57566E+00-1.84483E+01-3.25524E+00 3.95419E+00-7.46070E-14-5.11813E-14
 -1      1256-1.04135E+00-2.59772E+01-3.81432E+00 9.16935E-01-1.08413E-12-4.06515E-14
 -1      1257-1.45999E+00-2.51101E+01-3.88579E+00-3.78853E+00-2.03615E-12-3.68094E-13
 -1      1258-2.45871E+00-1.54567E+01-3.23278E+00-4.82133E+00-1.05649E-12-2.34479E-13
 -1      1259-2.39583E-02-3.35358E+00-2.22244E+00-6.56546E-01-4.47420E-13-2.90101E-13
 -1      1260 9.74753E+00 6.84155E+00-5.62975E-01 8.13862E+00-7.57172E-14-5.17364E-14
 -1      1261 2.77854E+01 1.04265E+01 1.31816E+00 1.63739E+01 5.81757E-14 1.28342E-13
 -1      1262 4.97181E+01 7.94998E+00 3.22006E+00 1.81078E+01 2.03171E-14 1.87850E-13
 -1      1263 6.75303E+01 3.56290E+00 4.59935E+00 1.13402E+01 1.41914E-13 8.00693E-13
 -1      1264 7.40144E+01 1.76530E+00 5.11411E+00-1.39545E+00 1.49811E-14 5.94802E-13
 -1      1265 6.50304E+01 4.82330E+00 4.48835E+00-1.38111E+01-1.18572E-13 5.53779E-13
 -1      1266 4.49606E+01 9.55893E+00 2.96164E+00-1.91274E+01-1.51656E-13 4.06120E-13
 -1      1267 2.25942E+01 1.08503E+01 9.64853E-01-1.49646E+01-2.53131E-14 1.98508E-13
 -1      1268 6.29859E+00 5.08453E+00-9.02871E-01-5.71945E+00-4.81837E-14-6.83897E-14
 -1      1269-1.15328E+00-6.67610E+00-2.47358E+00 2.40268E+00-1.47726E-12 7.46958E-13
 -1      1270-2.15728E+00-1.91091E+01-3.50381E+00 5.07994E+00-7.05325E-13 3.11307E-13
 -1      1271-1.14759E+00-2.69795E+01-4.02492E+00 2.41742E+00-3.49720E-14 1.71738E-14
 -1      1272 2.22672E+01 1.83821E+00-7.25859E-01-2.79063E+00-4.96270E-14 3.20466E-13
 -1      1273 2.03595E+01 4.69022E+00-4.86487E-02-3.30701E+00-9.29812E-14-2.59154E-13
 -1      1274 2.08671E+01 4.81070E+00-1.13353E-01-4.16124E+00-1.34448E-13-1.39437E-13
 -1      1275 1.95319E+01 4.99340E+00-1.96130E-02-2.65468E+00-7.46000E-14-4.06133E-13
 -1      1276 1.98299E+01 5.09030E+00 2.72353E-04-3.04569E+00-9.48616E-14-3.51046E-13
 -1      1277 2.05261E+01 3.95283E+00-2.58964E-02-3.07500E+00-1.62093E-13-2.25014E-13
 -1      1278 1.91841E+01 5.08423E+00-3.63221E-03-2.07053E+00-3.79453E-14-4.61013E-13
 -1      1279 1.93334E+01 5.13950E+00 1.06062E-02-2.36363E+00-5.23123E-14-4.39485E-13
 -1      1280 1.97542E+01 4.36613E+00-2.42662E-02-2.48969E+00-1.09558E-13-3.43732E-13
 -1      1281 1.90090E+01 5.13084E+00 3.28687E-03-1.56494E+00-8.31626E-15-4.70277E-13
 -1      1282 1.90865E+01 5.16073E+00 1.25712E-02-1.81492E+00-1.86032E-14-4.70467E-13
 -1      1283 1.93926E+01 4.55566E+00-1.95412E-02-1.93145E+00-4.75123E-14-3.83329E-13
 -1      1284 1.89156E+01 5.16061E+00 6.59761E-03-1.11713E+00 1.81704E-14-4.50882E-13
 -1      1285 1.89580E+01 5.17691E+00 1.27377E-02-1.33863E+00 9.27817E-15-4.58963E-13
 -1      1286 1.92059E+01 4.66134E+00-1.60428E-02-1.44503E+00-5.67948E-15-3.83166E-13
 -1      1287 1.88641E+01 5.18042E+00 8.19937E-03-6.93857E-01 4.05732E-14-4.24438E-13
 -1      1288 1.88871E+01 5.18928E+00 1.20265E-02-9.04076E-01 3.30794E-14-4.43201E-13
 -1      1289 1.91029E+01 4.72675E+00-1.39572E-02-1.00431E+00 4.08415E-14-3.76924E-13
 -1      1290 1.88401E+01 5.19234E+00 9.28994E-03-2.89178E-01 6.24360E-14-3.93298E-13
 -1      1291 1.88500E+01 5.19616E+00 1.10676E-02-4.91293E-01 5.41802E-14-4.09874E-13
 -1      1292 1.90471E+01 4.76572E+00-1.29158E-02-5.88817E-01 7.64402E-14-3.46903E-13
 -1      1293 1.88364E+01 5.19728E+00 1.02212E-02 1.08224E-01 7.92795E-14-3.49526E-13
 -1      1294 1.88361E+01 5.19714E+00 1.01483E-02-9.14448E-02 7.29354E-14-3.73266E-13
 -1      1295 1.90229E+01 4.78371E+00-1.24757E-02-1.89109E-01 1.09123E-13-3.20011E-13
 -1      1296 1.88517E+01 5.19579E+00 1.11611E-02 5.08666E-01 9.99895E-14-2.99091E-13
 -1      1297 1.88411E+01 5.19169E+00 9.22460E-03 3.06127E-01 8.97438E-14-3.28161E-13
 -1      1298 1.90238E+01 4.78307E+00-1.24939E-02 2.05790E-01 1.36418E-13-2.73951E-13
 -1      1299 1.88903E+01 5.18811E+00 1.20980E-02 9.22958E-01 1.18084E-13-2.47812E-13
 -1      1300 1.88666E+01 5.17908E+00 8.13481E-03 7.11772E-01 1.10217E-13-2.77969E-13
 -1      1301 1.90497E+01 4.76362E+00-1.29789E-02 6.06204E-01 1.71021E-13-2.28456E-13
 -1      1302 1.89621E+01 5.17512E+00 1.28931E-02 1.35621E+00 1.28236E-13-1.66863E-13
 -1      1303 1.89189E+01 5.15839E+00 6.45556E-03 1.13331E+00 1.22883E-13-2.16167E-13
 -1      1304 1.91071E+01 4.72318E+00-1.40017E-02 1.01957E+00 1.97086E-13-1.74836E-13
 -1      1305 1.90948E+01 5.15680E+00 1.28926E-02 1.84080E+00 1.46234E-13-4.93251E-14
 -1      1306 1.90153E+01 5.12641E+00 3.15295E-03 1.58804E+00 1.35797E-13-1.17566E-13
 -1      1307 1.92125E+01 4.65489E+00-1.61524E-02 1.46274E+00 2.16087E-13-8.53345E-14
 -1      1308 1.93444E+01 5.13330E+00 1.04337E-02 2.39776E+00 1.55657E-13 1.22364E-13
 -1      1309 1.91938E+01 5.07642E+00-4.18208E-03 2.10044E+00 1.47826E-13 2.16563E-14
 -1      1310 1.94052E+01 4.54253E+00-1.99172E-02 1.95811E+00 2.29694E-13 3.16830E-14
 -1      1311 1.98546E+01 5.09949E+00 6.01542E-03 3.08435E+00 1.51101E-13 3.93047E-13
 -1      1312 1.95437E+01 4.98460E+00-2.02550E-02 2.69715E+00 1.40624E-13 2.37012E-13
 -1      1313 1.97740E+01 4.34577E+00-2.47811E-02 2.52840E+00 2.34514E-13 2.20567E-13
 -1      1314 2.11029E+01 4.90666E+00 7.97369E-03 4.05386E+00 1.07941E-13 8.05855E-13
 -1      1315 2.03337E+01 4.73399E+00-4.81054E-02 3.41617E+00 1.11314E-13 5.62717E-13
 -1      1316 2.05629E+01 3.91596E+00-2.28692E-02 3.17894E+00 2.04954E-13 4.94382E-13
 -1      1317 2.72030E+01 3.20538E+00 9.28900E-01 4.58233E+00 2.18853E-14 1.44201E-12
 -1      1318 2.20200E+01 3.52221E+00-1.82153E-01 3.88503E+00 3.63320E-14 1.01893E-12
 -1      1319 2.21132E+01 2.56170E+00-3.25208E-02 3.45692E+00 1.58968E-13 8.55233E-13
 -1      1320 2.14269E+01 3.59598E-01-7.63681E-01 1.18379E+00 5.94802E-14 1.44640E-12
 -1      1321 2.20013E+01 1.31352E-01-4.00870E-01-1.28579E+00-1.11647E-13 3.76837E-13
 -1      1322 2.06785E+01 3.06708E-01-1.64820E-01-8.05840E-01-9.79702E-14 2.45630E-13
 -1      1323 2.00807E+01 1.53482E-01-7.35470E-02-4.02205E-01-8.89774E-14 1.97124E-13
 -1      1324 1.96108E+01 9.12006E-02-1.49446E-02-3.30047E-01-8.99177E-14 6.73489E-14
 -1      1325 2.09724E+01 3.69202E-01-1.04236E-01-1.27408E+00-1.82798E-13 4.93043E-14
 -1      1326 1.92534E+01 6.45255E-02 3.01434E-03-1.35390E-01-7.26858E-14 3.02744E-14
 -1      1327 1.90990E+01 4.12760E-02 1.31981E-02-1.17577E-01-6.52343E-14-7.97799E-14
 -1      1328 1.99214E+01 1.33879E-01-3.51836E-02-5.04104E-01-1.50852E-13-2.32592E-14
 -1      1329 1.89386E+01 3.15193E-02 1.32296E-02-2.80571E-02-3.71591E-14-1.11484E-13
 -1      1330 1.89191E+01 1.93679E-02 1.10539E-02-1.86889E-02-3.24918E-14-1.72588E-13
 -1      1331 1.94441E+01 5.54831E-02-8.51947E-03-1.70077E-01-9.37618E-14-8.34038E-14
 -1      1332 1.88630E+01 1.59966E-02 8.77467E-03 2.49200E-02-2.01664E-14-1.77506E-13
 -1      1333 1.89052E+01 9.06336E-03 6.43642E-03 2.95421E-02-2.35536E-14-2.10882E-13
 -1      1334 1.92351E+01 2.43673E-02-3.50765E-03-1.13123E-02-5.71695E-14-1.54219E-13
 -1      1335 1.89051E+01 7.84462E-03 4.67431E-03 5.06795E-02-3.20190E-14-2.28163E-13
 -1      1336 1.89753E+01 3.49462E-03 3.64343E-03 5.25647E-02-2.73039E-14-2.87841E-13
 -1      1337 1.91781E+01 1.01751E-02-2.21404E-03 6.73002E-02-6.60377E-14-1.64897E-13
 -1      1338 1.90046E+01 3.17851E-03 2.44606E-03 6.13412E-02-7.01538E-15-2.82959E-13
 -1      1339 1.90849E+01 3.24148E-04 2.21346E-03 6.16043E-02-2.62464E-14-3.24984E-13
 -1      1340 1.92039E+01 2.76005E-03-1.32007E-03 1.04079E-01-3.15201E-14-1.74426E-13
 -1      1341 1.91283E+01 4.35594E-04 1.33735E-03 6.32741E-02-2.26974E-14-3.27280E-13
 -1      1342 1.92089E+01-1.46701E-03 1.44376E-03 6.25874E-02-1.36732E-14-3.57795E-13
 -1      1343 1.92727E+01-1.31895E-03-5.57051E-04 1.17309E-01-4.67866E-14-1.70168E-13
 -1      1344 1.92573E+01-1.14418E-03 7.54819E-04 6.01984E-02-1.44389E-14-3.58944E-13
 -1      1345 1.93326E+01-2.40188E-03 9.77808E-04 5.89960E-02-3.95399E-14-3.87046E-13
 -1      1346 1.93606E+01-3.51723E-03-3.63420E-08 1.16956E-01-4.10756E-14-1.91953E-13
 -1      1347 1.93806E+01-1.98154E-03 4.21280E-04 5.44441E-02-4.86957E-14-3.96613E-13
 -1      1348 1.94479E+01-2.78581E-03 6.69847E-04 5.30133E-02-2.06221E-14-4.38463E-13
 -1      1349 1.94535E+01-4.56332E-03 3.48486E-04 1.08989E-01-4.77089E-14-1.93469E-13
 -1      1350 1.94926E+01-2.33329E-03 2.20844E-04 4.75213E-02 2.65670E-15-4.80483E-13
 -1      1351 1.95508E+01-2.81270E-03 4.58802E-04 4.60519E-02-1.43306E-14-4.87371E-13
 -1      1352 1.95433E+01-4.87659E-03 5.31843E-04 9.71858E-02-3.54852E-14-2.53969E-13
 -1      1353 1.95907E+01-2.36692E-03 1.01947E-04 4.04142E-02-2.14592E-14-4.95555E-13
 -1      1354 1.96400E+01-2.59880E-03 3.40546E-04 3.90402E-02-4.22893E-14-5.41803E-13
 -1      1355 1.96254E+01-4.72008E-03 6.00134E-04 8.40112E-02-2.94563E-14-3.67789E-13
 -1      1356 1.96764E+01-2.11232E-03 6.33821E-05 3.35491E-02-4.34357E-14-5.41754E-13
 -1      1357 1.97189E+01-2.23043E-03 2.28112E-04 3.22720E-02-1.91715E-14-6.04337E-13
 -1      1358 1.96996E+01-4.29936E-03 5.36081E-04 7.08253E-02-6.52655E-14-4.12309E-13
 -1      1359 1.97485E+01-1.83835E-03 3.91292E-06 2.77950E-02 7.46446E-15-5.91269E-13
 -1      1360 1.97818E+01-1.76494E-03 1.71707E-04 2.68173E-02-1.75769E-14-6.04593E-13
 -1      1361 1.97639E+01-3.55991E-03 5.13999E-04 5.89073E-02-8.21636E-15-3.76988E-13
 -1      1362 1.98074E+01-1.39541E-03 7.58057E-06 2.33365E-02 5.91160E-15-5.85838E-13
 -1      1363 1.98353E+01-1.22856E-03 1.53195E-04 2.26153E-02 3.10589E-14-5.56632E-13
 -1      1364 1.98179E+01-2.77479E-03 3.98169E-04 4.94172E-02 1.81921E-14-3.54393E-13
 -1      1365 1.98580E+01-8.72230E-04 2.56833E-05 2.03172E-02-4.76590E-15-5.47163E-13
 -1      1366 1.98822E+01-6.19979E-04 1.60678E-04 1.98917E-02-3.95686E-14-5.85529E-13
 -1      1367 1.98652E+01-1.87761E-03 2.55831E-04 4.25280E-02 3.32430E-15-3.95869E-13
 -1      1368 1.99035E+01-2.59878E-04 5.73675E-05 1.89642E-02-9.24216E-15-5.76464E-13
 -1      1369 1.99262E+01 7.22746E-05 1.92668E-04 1.88746E-02-1.01513E-14-6.05875E-13
 -1      1370 1.99083E+01-8.68274E-04 8.57661E-05 3.86977E-02-2.86134E-14-3.64888E-13
 -1      1371 1.99478E+01 4.61216E-04 9.96829E-05 1.95407E-02-3.70766E-14-6.01146E-13
 -1      1372 1.99713E+01 8.76572E-04 2.48660E-04 1.98399E-02-1.90161E-14-6.73378E-13
 -1      1373 1.99505E+01 2.84633E-04-1.14803E-04 3.84240E-02-5.17076E-14-3.41441E-13
 -1      1374 1.99954E+01 1.32821E-03 1.50074E-04 2.23953E-02 1.53608E-14-6.83016E-13
 -1      1375 2.00225E+01 1.83819E-03 3.29496E-04 2.31578E-02 3.98030E-14-6.11545E-13
 -1      1376 1.99954E+01 1.64052E-03-3.53035E-04 4.23315E-02 1.91040E-14-3.96549E-13
 -1      1377 2.00516E+01 2.39779E-03 2.05757E-04 2.80119E-02 5.98505E-14-6.24806E-13
 -1      1378 2.00859E+01 3.02174E-03 4.36922E-04 2.93440E-02 4.51477E-14-5.99278E-13
 -1      1379 2.00475E+01 3.28986E-03-6.40651E-04 5.12651E-02 5.79534E-14-4.84719E-13
 -1      1380 2.01231E+01 3.75023E-03 2.62462E-04 3.70676E-02 2.35310E-15-6.27006E-13
 -1      1381 2.01689E+01 4.51534E-03 5.72553E-04 3.91198E-02 1.45494E-14-6.53768E-13
 -1      1382 2.01125E+01 5.36102E-03-9.94361E-04 6.63957E-02 1.25435E-14-5.73735E-13
 -1      1383 2.02181E+01 5.49542E-03 3.12191E-04 5.05039E-02 8.34359E-15-6.52890E-13
 -1      1384 2.02809E+01 6.43607E-03 7.35528E-04 5.34871E-02 1.06128E-14-6.83120E-13
 -1      1385 2.01971E+01 8.03107E-03-1.43674E-03 8.93454E-02 1.93366E-14-4.95982E-13
 -1      1386 2.03471E+01 7.78065E-03 3.39093E-04 6.96141E-02 1.30594E-14-6.69407E-13
 -1      1387 2.04343E+01 8.93497E-03 9.17690E-04 7.38196E-02-2.43311E-14-6.74947E-13
 -1      1388 2.03099E+01 1.15394E-02-1.99781E-03 1.22341E-01 1.06855E-14-4.43202E-13
 -1      1389 2.05237E+01 1.07965E-02 3.12604E-04 9.61473E-02 9.95645E-15-6.13713E-13
 -1      1390 2.06447E+01 1.21620E-02 1.07277E-03 1.01983E-01 7.61509E-14-5.27310E-13
 -1      1391 2.04617E+01 1.61981E-02-2.71964E-03 1.68391E-01 4.00463E-14-3.37735E-13
 -1      1392 2.07654E+01 1.50058E-02 2.48845E-04 1.32406E-01 1.47744E-13-3.95105E-13
 -1      1393 2.09330E+01 1.61803E-02 1.19571E-03 1.40361E-01 1.30835E-13-2.11345E-13
 -1      1394 2.06662E+01 2.22945E-02-3.68087E-03 2.31436E-01 2.08326E-13-2.88783E-13
 -1      1395 2.11039E+01 2.02034E-02-1.40147E-04 1.83091E-01 1.59516E-14-1.63238E-13
 -1      1396 2.13478E+01 2.18429E-02 1.07608E-03 1.94962E-01-1.58836E-14-1.99551E-13
 -1      1397 2.09487E+01 3.09100E-02-4.92366E-03 3.18894E-01 9.47645E-14-1.98137E-13
 -1      1398 2.15659E+01 2.69555E-02-9.03522E-04 2.49693E-01 9.30376E-15-1.03658E-13
 -1      1399 2.18846E+01 2.84308E-02 7.03241E-04 2.64180E-01-8.32841E-15-1.17820E-13
 -1      1400 2.13267E+01 4.13773E-02-6.49457E-03 4.36091E-01 4.11190E-14-6.87308E-14
 -1      1401 2.21700E+01 3.44731E-02-2.35062E-03 3.34035E-01-5.91298E-14-1.83490E-13
 -1      1402 2.25976E+01 3.51007E-02-3.97456E-04 3.52831E-01-4.07313E-15-2.45862E-13
 -1      1403 2.18139E+01 5.42056E-02-8.28813E-03 5.84568E-01-8.99589E-14-7.06824E-15
 -1      1404 2.29640E+01 4.19821E-02-4.60623E-03 4.37594E-01-5.84845E-14-2.34977E-13
 -1      1405 2.35237E+01 3.97956E-02-2.35112E-03 4.60545E-01 8.88612E-16-2.58488E-13
 -1      1406 2.24447E+01 6.69555E-02-1.03926E-02 7.69113E-01-5.32699E-14-4.14887E-14
 -1      1407 2.39802E+01 4.58458E-02-7.56228E-03 5.53308E-01 9.54705E-15-2.87173E-13
 -1      1408 2.46831E+01 3.73254E-02-4.77733E-03 5.78242E-01-3.06699E-15-3.26159E-13
 -1      1409 2.32416E+01 7.43831E-02-1.22585E-02 9.81900E-01-2.38091E-14-1.13433E-13
 -1      1410 2.52256E+01 3.82755E-02-9.79878E-03 6.57717E-01-2.69246E-14-3.97779E-13
 -1      1411 2.60463E+01 1.75531E-02-5.68244E-03 6.77603E-01-4.31744E-14-4.39170E-13
 -1      1412 2.42124E+01 6.38571E-02-1.24977E-02 1.19111E+00-6.55782E-14-1.76185E-13
 -1      1413 2.66428E+01 4.86664E-03-7.20371E-03 6.96343E-01-4.67564E-14-5.70217E-13
 -1      1414 2.74747E+01-3.53049E-02-5.03514E-04 6.94804E-01-5.15282E-14-6.62796E-13
 -1      1415 2.53286E+01 1.14627E-02-8.08658E-03 1.31829E+00-1.63084E-13-4.76855E-13
 -1      1416 2.80462E+01-7.42048E-02 7.31556E-03 5.69258E-01-6.55517E-14-6.66543E-13
 -1      1417 2.86455E+01-1.34491E-01 1.62510E-02 5.16832E-01-1.32137E-13-8.55385E-13
 -1      1418 2.64940E+01-1.16953E-01 5.65027E-03 1.21204E+00-8.40716E-14-5.74402E-13
 -1      1419 2.90451E+01-2.05012E-01 3.78047E-02 1.47898E-01-9.29465E-14-7.73180E-13
 -1      1420 2.90178E+01-2.62001E-01 4.18254E-02 1.22940E-02 1.85962E-14-8.18942E-13
 -1      1421 2.75036E+01-3.34350E-01 3.24759E-02 6.52441E-01-1.32727E-13-2.99901E-13
 -1      1422 2.90409E+01-3.36711E-01 6.95789E-02-6.21253E-01 1.71467E-13-8.47059E-13
 -1      1423 2.79948E+01-3.21929E-01 4.94877E-02-8.33146E-01 7.20604E-15-6.56475E-13
 -1      1424 2.80200E+01-5.67069E-01 6.27703E-02-5.23563E-01 8.78152E-14-4.05256E-13
 -1      1425 2.74619E+01-3.08937E-01 5.33281E-02-1.48650E+00-8.75619E-14-7.26252E-13
 -1      1426 2.54297E+01-1.47770E-01-1.00727E-02-1.65017E+00-4.10722E-14-8.22814E-13
 -1      1427 2.76422E+01-5.62046E-01 6.31509E-02-2.10322E+00-2.43833E-14-4.51684E-13
 -1      1428 2.44493E+01 3.03288E-02-5.24487E-02-1.76621E+00 1.94948E-14-7.88536E-13
 -1      1429 2.23371E+01 2.84761E-01-1.32400E-01-1.66435E+00 7.69662E-14-7.49012E-13
 -1      1430 2.62283E+01-7.16945E-02-1.84901E-02-3.12727E+00 1.19245E-14-4.17666E-13
 -1      1431 2.16078E+01 4.65530E-01-1.79250E-01-9.55127E-01 5.91957E-14-7.76171E-13
 -1      1432 2.07653E+01 5.80985E-01-2.12331E-01-6.47557E-01-5.68989E-15-6.48395E-13
 -1      1433 2.45045E+01 7.09591E-01-1.51907E-01-2.43430E+00 1.31187E-13-6.59889E-13
 -1      1434 2.06731E+01 5.78359E-01-2.18425E-01 5.12260E-01 8.89566E-15-5.80962E-13
 -1      1435 2.14762E+01 4.58049E-01-1.77430E-01 8.38607E-01-1.16573E-15-6.40141E-13
 -1      1436 2.36555E+01 1.06138E+00-2.18799E-01-1.53537E-01 4.39926E-14-4.57630E-13
 -1      1437 2.21975E+01 2.39652E-01-1.24222E-01 1.57255E+00 3.19189E-15-4.78395E-13
 -1      1438 2.41923E+01-7.18791E-03-4.01386E-02 1.63895E+00 2.22738E-14-3.89661E-13
 -1      1439 2.43169E+01 6.61997E-01-1.45432E-01 2.21142E+00 1.29549E-13-2.80734E-13
 -1      1440 2.50248E+01-1.70116E-01 7.10855E-04 1.46485E+00 2.08600E-14-3.73701E-13
 -1      1441 2.68253E+01-3.18865E-01 5.76570E-02 1.29115E+00 6.44398E-14-3.22908E-13
 -1      1442 2.58699E+01-1.21492E-01-6.85013E-03 2.82726E+00 3.84796E-14-1.62190E-13
 -1      1443 2.71870E+01-3.22376E-01 5.13507E-02 6.24929E-01-8.86166E-14-3.83082E-13
 -1      1444 2.79769E+01-3.28804E-01 6.70229E-02 4.17562E-01-1.54113E-13-6.42944E-13
 -1      1445 2.69663E+01-5.75551E-01 6.56304E-02 1.71704E+00-1.30333E-13-3.59112E-13
 -1      1446 2.77938E+01-2.55430E-01 4.09299E-02-2.01757E-01-4.91829E-14-6.48981E-13
 -1      1447 2.75835E+01-1.96717E-01 3.52997E-02-3.32312E-01-1.35066E-14-5.96731E-13
 -1      1448 2.70210E+01-5.52601E-01 6.15520E-02 1.48318E-01-1.18690E-13-4.74727E-13
 -1      1449 2.70356E+01-1.30430E-01 1.66093E-02-6.87812E-01-9.44210E-15-4.89324E-13
 -1      1450 2.62202E+01-6.92669E-02 7.16734E-03-7.38325E-01-8.07930E-14-4.99115E-13
 -1      1451 2.62075E+01-3.22374E-01 3.06393E-02-9.93904E-01 8.50361E-15-4.03537E-13
 -1      1452 2.55115E+01-3.30750E-02 1.74455E-03-8.54518E-01-3.87184E-14-5.83117E-13
 -1      1453 2.44798E+01 1.11323E-02-5.60324E-03-8.55477E-01-1.06613E-13-7.09335E-13
 -1      1454 2.49235E+01-1.09871E-01 4.82770E-03-1.52752E+00-1.88509E-13-4.84175E-13
 -1      1455 2.37623E+01 2.60659E-02-3.53957E-03-8.18180E-01-8.79579E-14-6.94562E-13
 -1      1456 2.27733E+01 5.64742E-02-9.60529E-03-7.93164E-01-5.16518E-14-5.87017E-13
 -1      1457 2.35075E+01 2.41584E-02-1.00066E-02-1.60366E+00-6.84152E-14-3.97318E-13
 -1      1458 2.21465E+01 6.47931E-02-7.12707E-03-6.61788E-01 1.05081E-14-5.90451E-13
 -1      1459 2.13629E+01 8.90207E-02-1.19080E-02-6.18589E-01-2.96959E-14-4.81008E-13
 -1      1460 2.21881E+01 1.04726E-01-1.88362E-02-1.39649E+00-5.48710E-14-3.74761E-13
 -1      1461 2.08844E+01 9.80628E-02-1.47056E-02-4.16183E-01-9.00035E-14-4.60458E-13
 -1      1462 2.04392E+01 1.30265E-01-1.33790E-04-3.43759E-01-1.00775E-13-5.16382E-13
 -1      1463 2.11084E+01 1.73663E-01-2.48578E-02-1.00045E+00-2.55091E-14-5.52358E-13
 -1      1464 2.01886E+01 1.25142E-01-1.27641E-02-1.56797E-01 1.00075E-13-4.23210E-13
 -1      1465 2.00949E+01 1.07856E-01 3.83659E-02-1.00868E-01 2.62386E-13-1.99903E-13
 -1      1466 2.00791E+01 1.84502E-01-2.28867E-02-1.53574E-01 5.99778E-13-1.05594E-13
 -1      1467 2.04232E+01 2.37463E-01-2.23377E-02-5.41380E-01 1.12462E-13-2.50955E-13
 -1      1468 2.02594E+01 7.58227E-02-1.51761E-01 4.83718E-01 8.53657E-14 1.26794E-12
 -1      1469 2.15303E+01 2.16081E-01-2.29253E-01 7.21213E-01 6.69464E-14 1.37340E-12
 -1      1470 2.17290E+01 8.82261E-01-8.52765E-02 2.06542E+00 1.22617E-13 1.00389E-12
 -1      1471 1.93293E+01 3.41453E-02-2.07803E-02 1.85448E-01 5.45276E-14 1.11349E-12
 -1      1472 1.97524E+01 1.14131E-01-6.19680E-02 2.39146E-01 5.53481E-14 1.19844E-12
 -1      1473 2.03032E+01 1.86272E-01-5.54999E-02 7.88430E-01 1.12008E-13 8.98264E-13
 -1      1474 1.89484E+01 1.66232E-02 6.07258E-03 5.27469E-02 3.95343E-15 1.05724E-12
 -1      1475 1.90888E+01 5.13665E-02 1.67874E-03 8.01473E-02 1.36028E-14 1.07985E-12
 -1      1476 1.95541E+01 6.67989E-02-1.53449E-02 2.97595E-01 5.06817E-14 8.10872E-13
 -1      1477 1.88381E+01 8.53488E-03 7.17834E-03-8.74833E-03 1.87385E-14 1.04400E-12
 -1      1478 1.88549E+01 2.53549E-02 1.15180E-02 6.25630E-03 9.74611E-15 1.03621E-12
 -1      1479 1.92188E+01 2.10902E-02-6.92888E-03 7.69011E-02 2.04003E-14 7.36095E-13
 -1      1480 1.88640E+01 3.77100E-03 4.81824E-03-3.90631E-02 1.75662E-14 9.94486E-13
 -1      1481 1.88212E+01 1.34636E-02 8.53004E-03-3.08340E-02 1.26448E-14 1.01837E-12
 -1      1482 1.91022E+01 6.95559E-03-4.66998E-03-2.75803E-02 2.79195E-14 7.28917E-13
 -1      1483 1.89579E+01 1.13558E-03 3.28057E-03-5.24420E-02 3.45857E-14 9.50345E-13
 -1      1484 1.88878E+01 7.10269E-03 5.29997E-03-4.80661E-02 2.08217E-14 9.67712E-13
 -1      1485 1.91047E+01 9.10579E-04-3.21380E-03-7.73516E-02 4.34455E-14 6.73367E-13
 -1      1486 1.90819E+01-3.54817E-04 2.45816E-03-5.63627E-02 2.27236E-14 8.80204E-13
 -1      1487 1.90019E+01 3.40029E-03 3.37960E-03-5.43446E-02 2.10761E-14 9.14948E-13
 -1      1488 1.91680E+01-2.01860E-03-2.07934E-03-9.86528E-02 3.26678E-14 6.04069E-13
 -1      1489 1.92142E+01-1.17433E-03 1.96708E-03-5.48592E-02 4.74233E-14 8.02379E-13
 -1      1490 1.91341E+01 1.14159E-03 2.28137E-03-5.43002E-02 3.02033E-14 8.45259E-13
 -1      1491 1.92601E+01-3.47728E-03-1.19954E-03-1.03876E-01 4.65810E-14 5.17815E-13
 -1      1492 1.93424E+01-1.57213E-03 1.61111E-03-5.03740E-02 4.62123E-14 7.14534E-13
 -1      1493 1.92675E+01-2.20189E-04 1.60584E-03-5.06959E-02 5.73422E-14 7.91337E-13
 -1      1494 1.93622E+01-4.09623E-03-5.74044E-04-9.99428E-02 7.46084E-14 4.86035E-13
 -1      1495 1.94598E+01-1.69766E-03 1.31920E-03-4.44616E-02 3.02626E-14 6.49323E-13
 -1      1496 1.93929E+01-9.93799E-04 1.15068E-03-4.52785E-02 2.66512E-14 6.79915E-13
 -1      1497 1.94633E+01-4.19954E-03-1.61850E-04-9.10802E-02 6.15231E-14 4.39202E-13
 -1      1498 1.95632E+01-1.64681E-03 1.06883E-03-3.81333E-02 2.40773E-14 6.02946E-13
 -1      1499 1.95054E+01-1.37065E-03 8.26235E-04-3.91834E-02 2.56543E-14 6.50198E-13
 -1      1500 1.95572E+01-3.98120E-03 8.94633E-05-7.99898E-02 4.34836E-14 3.85581E-13
 -1      1501 1.96521E+01-1.48257E-03 8.52095E-04-3.20505E-02 4.44155E-14 5.74849E-13
 -1      1502 1.96031E+01-1.47607E-03 5.89904E-04-3.31546E-02 4.10286E-14 6.04322E-13
 -1      1503 1.96411E+01-3.56476E-03 2.24596E-04-6.84344E-02 7.21329E-14 3.62697E-13
 -1      1504 1.97271E+01-1.24585E-03 6.64520E-04-2.66459E-02-2.08944E-14 5.91911E-13
 -1      1505 1.96863E+01-1.39332E-03 4.17773E-04-2.76799E-02-5.86797E-15 5.63218E-13
 -1      1506 1.97140E+01-3.02943E-03 2.76483E-04-5.75712E-02 1.29526E-14 4.58441E-13
 -1      1507 1.97901E+01-9.61882E-04 5.01998E-04-2.22058E-02-7.52186E-15 5.56039E-13
 -1      1508 1.97563E+01-1.17651E-03 2.94176E-04-2.30816E-02-1.79802E-14 5.45795E-13
 -1      1509 1.97766E+01-2.42375E-03 2.67816E-04-4.81645E-02-2.03300E-14 3.36801E-13
 -1      1510 1.98439E+01-6.44677E-04 3.60032E-04-1.89291E-02 4.29876E-14 5.20731E-13
 -1      1511 1.98155E+01-8.58715E-04 2.07796E-04-1.95801E-02 3.82114E-14 5.68047E-13
 -1      1512 1.98306E+01-1.77403E-03 2.13382E-04-4.07310E-02 2.17381E-14 3.14500E-13
 -1      1513 1.98914E+01-3.00508E-04 2.33645E-04-1.69685E-02-3.59035E-14 4.82380E-13
 -1      1514 1.98666E+01-4.57628E-04 1.49949E-04-1.73391E-02-1.08034E-14 5.22142E-13
 -1      1515 1.98781E+01-1.09067E-03 1.22023E-04-3.56429E-02 3.97916E-15 4.11282E-13
 -1      1516 1.99363E+01 6.88954E-05 1.17554E-04-1.64590E-02 3.98088E-15 5.18648E-13
 -1      1517 1.99130E+01 1.95788E-05 1.13641E-04-1.64971E-02-1.51903E-14 5.04831E-13
 -1      1518 1.99221E+01-3.73780E-04-1.76845E-06-3.31984E-02 7.36265E-15 3.45699E-13
 -1      1519 1.99823E+01 4.63030E-04 6.49633E-06-1.75316E-02-2.76474E-14 5.01356E-13
 -1      1520 1.99585E+01 5.71472E-04 9.29520E-05-1.71842E-02 4.94795E-15 4.94201E-13
 -1      1521 1.99655E+01 3.81260E-04-1.56379E-04-3.36659E-02 1.43741E-14 3.26276E-13
 -1      1522 2.00339E+01 8.78769E-04-1.04228E-04-2.03136E-02 5.26574E-14 4.38417E-13
 -1      1523 2.00071E+01 1.19686E-03 8.25615E-05-1.95258E-02 2.21005E-14 4.78033E-13
 -1      1524 2.00120E+01 1.17718E-03-3.41510E-04-3.72989E-02 6.62757E-15 3.05067E-13
 -1      1525 2.00954E+01 1.30551E-03-2.17880E-04-2.49091E-02 8.81256E-14 2.78412E-13
 -1      1526 2.00632E+01 1.88775E-03 7.73986E-05-2.36283E-02 5.44153E-14 3.97010E-13
 -1      1527 2.00654E+01 2.00655E-03-5.56257E-04-4.43199E-02 1.06645E-13 2.27886E-13
 -1      1528 2.01716E+01 1.71891E-03-3.34819E-04-3.13573E-02 2.25696E-14 1.66852E-13
 -1      1529 2.01313E+01 2.61997E-03 7.24474E-05-2.95430E-02 4.29667E-14 2.32212E-13
 -1      1530 2.01297E+01 2.84072E-03-7.96533E-04-5.48634E-02 1.06673E-13 1.62150E-13
 -1      1531 2.02670E+01 2.07287E-03-4.50150E-04-3.95588E-02 2.33759E-14 1.29392E-13
 -1      1532 2.02162E+01 3.34044E-03 6.28607E-05-3.72020E-02 1.44267E-14 2.00821E-13
 -1      1533 2.02089E+01 3.61523E-03-1.05151E-03-6.88676E-02 2.91761E-14 1.26311E-13
 -1      1534 2.03856E+01 2.28994E-03-5.50100E-04-4.91637E-02 9.33390E-15 1.38923E-13
 -1      1535 2.03219E+01 3.95084E-03 4.46383E-05-4.63176E-02 2.26264E-14 1.41858E-13
 -1      1536 2.03064E+01 4.21106E-03-1.29871E-03-8.59009E-02 4.99562E-14 1.23710E-13
 -1      1537 2.05295E+01 2.25128E-03-6.06815E-04-5.94137E-02-2.10542E-14 1.38965E-13
 -1      1538 2.04518E+01 4.28806E-03 1.62631E-05-5.62397E-02-5.33354E-14 6.01179E-14
 -1      1539 2.04250E+01 4.43294E-03-1.49760E-03-1.04909E-01 4.50074E-15 2.64275E-14
 -1      1540 2.06983E+01 1.78921E-03-5.71829E-04-6.89410E-02-6.81806E-14 2.33974E-13
 -1      1541 2.06068E+01 4.10476E-03-1.82603E-05-6.57709E-02-2.18834E-14 2.13411E-13
 -1      1542 2.05655E+01 3.98881E-03-1.58180E-03-1.23881E-01-6.06961E-14 1.37588E-13
 -1      1543 2.08867E+01 6.89240E-04-3.69877E-04-7.55445E-02-2.85408E-14 2.42957E-13
 -1      1544 2.07843E+01 3.05805E-03-4.47800E-05-7.29565E-02 1.25042E-14 2.72827E-13
 -1      1545 2.07252E+01 2.48072E-03-1.45139E-03-1.39456E-01-1.21940E-14 2.41434E-13
 -1      1546 2.10823E+01-1.28602E-03 1.02068E-04-7.60063E-02 6.27119E-15 2.17877E-13
 -1      1547 2.09761E+01 7.23109E-04-3.36301E-05-7.48990E-02-5.68555E-14 1.95026E-13
 -1      1548 2.08971E+01-5.71934E-04-9.69058E-04-1.46548E-01-3.31977E-14 3.00239E-13
 -1      1549 2.12632E+01-4.33183E-03 9.60326E-04-6.60762E-02-3.63340E-14 2.34309E-13
 -1      1550 2.11657E+01-3.33936E-03 6.32064E-05-6.77081E-02-5.63174E-14 1.83507E-13
 -1      1551 2.10671E+01-5.64167E-03 3.19271E-05-1.38162E-01-7.02348E-14 2.93257E-13
 -1      1552 2.13963E+01-8.47179E-03 2.28833E-03-4.08540E-02-5.82756E-14 2.17888E-13
 -1      1553 2.13267E+01-9.42155E-03 3.05066E-04-4.67783E-02 3.41875E-14 2.77880E-13
 -1      1554 2.12130E+01-1.29869E-02 1.71382E-03-1.05731E-01-7.83748E-15 3.13992E-13
 -1      1555 2.14371E+01-1.33508E-02 4.04068E-03 4.11376E-03 7.92010E-15 2.65147E-13
 -1      1556 2.14209E+01-1.73754E-02 7.34410E-04-7.67657E-03-4.75449E-14 2.14066E-13
 -1      1557 2.13032E+01-2.22903E-02 4.15594E-03-4.04645E-02-6.20389E-14 2.64377E-13
 -1      1558 2.13342E+01-1.79864E-02 5.90015E-03 7.07207E-02 2.55633E-14 1.73877E-13
 -1      1559 2.14010E+01-2.62026E-02 1.31485E-03 5.20711E-02 4.64021E-14 2.18761E-13
 -1      1560 2.12988E+01-3.21649E-02 7.21743E-03 6.37288E-02 5.48442E-14 3.32931E-13
 -1      1561 2.10398E+01-2.06116E-02 7.15106E-03 1.55202E-01 3.08802E-14 2.25370E-13
 -1      1562 2.12168E+01-3.36685E-02 1.85229E-03 1.30247E-01-2.86654E-14 2.24955E-13
 -1      1563 2.11588E+01-3.97310E-02 1.03614E-02 2.05479E-01 1.86630E-14 1.28681E-13
 -1      1564 2.05282E+01-1.88934E-02 6.70657E-03 2.44945E-01 1.40005E-14 1.25795E-13
 -1      1565 2.08294E+01-3.63084E-02 1.94114E-03 2.16890E-01 3.50180E-14 2.08047E-13
 -1      1566 2.08512E+01-4.06897E-02 1.25430E-02 3.70131E-01 1.88391E-14 1.11352E-13
 -1      1567 1.98182E+01-1.08369E-02 3.50116E-03 3.17460E-01-5.96751E-14 1.74156E-13
 -1      1568 2.02312E+01-3.03394E-02 1.04597E-03 2.92710E-01 2.75977E-14 1.68913E-13
 -1      1569 2.03694E+01-3.05636E-02 1.23308E-02 5.25621E-01 4.10301E-14 1.88426E-13
 -1      1570 1.89916E+01 3.60448E-03-2.69351E-03 3.44647E-01 8.71582E-14-4.83537E-14
 -1      1571 1.94677E+01-1.37615E-02-1.18921E-03 3.31731E-01 7.23897E-14 5.61530E-14
 -1      1572 1.97492E+01-7.32994E-03 8.49346E-03 6.24905E-01 1.60810E-13 1.06118E-13
 -1      1573 1.81917E+01 2.11028E-02-1.04406E-02 3.03951E-01 1.48687E-14-9.08509E-14
 -1      1574 1.86474E+01 1.11365E-02-4.44978E-03 3.10188E-01-8.99931E-15-8.31869E-14
 -1      1575 1.90779E+01 2.55222E-02 9.99182E-04 6.19597E-01 8.00909E-14 1.71703E-13
 -1      1576 1.75906E+01 3.52916E-02-1.67052E-02 1.92667E-01 2.32058E-14 4.32206E-14
 -1      1577 1.79274E+01 3.69038E-02-7.53529E-03 2.19698E-01-2.67286E-14-1.13659E-14
 -1      1578 1.84835E+01 5.81904E-02-8.16427E-03 4.83580E-01-8.55366E-14 1.24229E-13
 -1      1579 1.73290E+01 3.98000E-02-1.83224E-02 3.58078E-02-2.82465E-14 9.51068E-14
 -1      1580 1.74682E+01 5.36661E-02-8.81067E-03 7.70764E-02 4.47151E-14 1.84974E-13
 -1      1581 1.80986E+01 7.79343E-02-1.55053E-02 2.34851E-01-7.61691E-14-9.46639E-15
 -1      1582 1.74570E+01 3.22264E-02-1.40445E-02-1.21050E-01-2.44067E-14 1.71177E-13
 -1      1583 1.73725E+01 5.45174E-02-7.23167E-03-7.82063E-02-9.89504E-14 6.76941E-14
 -1      1584 1.80093E+01 7.58125E-02-1.78957E-02-6.19755E-02-1.00947E-13 6.58167E-14
 -1      1585 1.79102E+01 1.58672E-02-5.55810E-03-2.31970E-01-5.11986E-14 2.80571E-13
 -1      1586 1.76409E+01 3.97024E-02-3.17729E-03-2.00423E-01 3.19527E-14 2.46221E-13
 -1      1587 1.82175E+01 5.22743E-02-1.45334E-02-3.20230E-01 3.79818E-15 3.44579E-13
 -1      1588 1.85382E+01-2.24640E-03 3.48047E-03-2.71579E-01-2.85324E-14 5.40457E-13
 -1      1589 1.81710E+01 1.63781E-02 1.67022E-03-2.58454E-01-1.89988E-13 3.16320E-13
 -1      1590 1.86394E+01 1.70559E-02-7.47405E-03-4.70197E-01-2.13320E-13 3.73115E-13
 -1      1591 1.91682E+01-1.56236E-02 9.74767E-03-2.43273E-01 1.47387E-13 2.46969E-13
 -1      1592 1.88021E+01-5.96764E-03 5.37160E-03-2.47882E-01 1.62430E-13 4.67723E-13
 -1      1593 1.91430E+01-1.62756E-02-3.47507E-05-4.88235E-01 9.57359E-14 1.94523E-13
 -1      1594 1.96666E+01-2.12166E-02 1.18225E-02-1.71757E-01 2.74239E-13-7.20674E-14
 -1      1595 1.93775E+01-2.04504E-02 6.83782E-03-1.87822E-01 1.73681E-13 2.41845E-13
 -1      1596 1.96003E+01-3.73242E-02 5.22459E-03-3.98809E-01 2.89248E-13 1.21641E-13
 -1      1597 1.99711E+01-1.94837E-02 1.01601E-02-8.85836E-02-7.80877E-14-2.01893E-13
 -1      1598 1.97939E+01-2.47653E-02 6.12352E-03-1.08069E-01 2.99947E-14-1.75793E-13
 -1      1599 1.99275E+01-4.26082E-02 7.29848E-03-2.54249E-01 1.76820E-13-4.86026E-14
 -1      1600 2.00906E+01-1.28354E-02 6.13679E-03-2.03598E-02-5.15733E-14-1.04496E-14
 -1      1601 2.00191E+01-2.02771E-02 3.97393E-03-3.63793E-02-5.02437E-14-7.23848E-14
 -1      1602 2.00987E+01-3.45295E-02 6.46344E-03-1.09723E-01-1.01541E-13 5.01742E-14
 -1      1603 2.00836E+01-4.12369E-03 1.41302E-03 1.70477E-02-4.42422E-14 5.84159E-14
 -1      1604 2.00830E+01-1.02361E-02 1.29616E-03 8.84216E-03-7.53980E-14-2.41760E-14
 -1      1605 2.01376E+01-1.86468E-02 3.61934E-03-6.23277E-03-1.29413E-13 1.13760E-13
 -1      1606 2.00306E+01 3.23930E-03-1.60731E-03 1.94517E-02 1.20426E-13-1.79149E-13
 -1      1607 2.00532E+01 1.35118E-03-8.66525E-04 2.06524E-02 1.54126E-13 1.32451E-13
 -1      1608 2.00978E+01-1.27629E-03 1.59552E-04 3.65419E-02 8.45818E-14 2.74869E-13
 -1      1609 2.00001E+01 5.49294E-03 1.66913E-03-2.52968E-05 2.85377E-14-1.61359E-13
 -1      1610 2.00059E+01 7.83021E-03-5.73473E-04 6.77842E-03-2.83432E-14-2.54359E-13
 -1      1611 2.00397E+01 1.15374E-02-6.01346E-04 2.37286E-02 1.56340E-13-3.69963E-14
 -1      1612 1.99942E+01-2.38896E-03 4.08259E-03-6.16834E-03-1.13566E-13-9.40532E-14
 -1      1613 2.00144E+01 3.28250E-02-3.29434E-04 1.71515E-02 2.15587E-13 4.39901E-13
 -1      1614 2.00103E+01 1.70020E-02 2.11486E-03 1.15788E-02-2.16284E-13 2.04479E-13
 -1      1615 2.00243E+01 1.63009E-01-4.67887E-04 6.95518E-02 7.56231E-13 8.96726E-14
 -1      1616 2.00204E+01 8.41390E-02-8.73342E-04 5.84337E-02 4.52994E-13 2.46680E-13
 -1      1617 2.00387E+01 8.97450E-02-1.88705E-03 8.10513E-02 9.28229E-14 6.40366E-13
 -1      1618 2.00338E+01 4.35573E-01-9.36697E-04 1.47017E-01 2.69555E-13-5.58236E-13
 -1      1619 2.00303E+01 2.66131E-01-1.86326E-03 1.29622E-01 8.37375E-13-2.94842E-13
 -1      1620 2.00458E+01 2.33909E-01-8.22966E-03 1.98193E-01 2.72945E-13-7.69059E-14
 -1      1621 2.00378E+01 8.98704E-01-1.97851E-03 2.46013E-01 1.36911E-13-5.35496E-14
 -1      1622 2.00379E+01 6.13223E-01-3.16395E-03 2.24863E-01 2.64701E-13-1.76365E-13
 -1      1623 2.00604E+01 5.04815E-01-1.05190E-02 3.64286E-01 4.99091E-15-4.52859E-13
 -1      1624 2.00328E+01 1.55625E+00-2.80169E-03 3.47339E-01-1.78203E-13-6.98270E-15
 -1      1625 2.00389E+01 1.15675E+00-4.29951E-03 3.27121E-01 9.69710E-14-3.00205E-13
 -1      1626 2.00639E+01 9.29655E-01-1.15932E-02 5.56356E-01 1.82790E-13-2.48920E-13
 -1      1627 2.00153E+01 2.39734E+00-2.76289E-03 4.26357E-01-1.22867E-13 5.38669E-14
 -1      1628 2.00288E+01 1.89664E+00-4.57324E-03 4.12472E-01-2.75193E-13 2.86125E-13
 -1      1629 2.00511E+01 1.51646E+00-9.78698E-03 7.34502E-01 7.10898E-14-4.34934E-14
 -1      1630 1.99859E+01 3.31296E+00-1.36216E-03 4.46751E-01-1.77049E-13-1.12920E-13
 -1      1631 2.00055E+01 2.78353E+00-3.31383E-03 4.47308E-01-7.38472E-14-6.00728E-14
 -1      1632 2.00165E+01 2.23485E+00-4.14076E-03 8.41665E-01-1.93707E-13 7.28094E-14
 -1      1633 1.99502E+01 4.14171E+00 1.23394E-03 3.79237E-01 8.13793E-14 1.35883E-13
 -1      1634 1.99714E+01 3.68467E+00-5.16549E-04 3.99593E-01-2.06245E-13 3.69414E-14
 -1      1635 1.99636E+01 2.98950E+00 5.28578E-03 8.13433E-01-5.20018E-14-1.93422E-15
 -1      1636 1.99187E+01 4.69234E+00 4.13716E-03 2.15321E-01 2.44537E-13 1.96934E-14
 -1      1637 1.99351E+01 4.42057E+00 3.09544E-03 2.55342E-01 5.50809E-14 2.72875E-13
 -1      1638 1.99040E+01 3.64214E+00 1.64025E-02 6.08878E-01 1.00204E-13 3.06268E-13
 -1      1639 1.99034E+01 4.80069E+00 6.02420E-03-2.20534E-02 2.23711E-13-3.06864E-13
 -1      1640 1.99091E+01 4.80359E+00 6.35152E-03 3.03741E-02 4.58435E-13-1.19803E-13
 -1      1641 1.98564E+01 4.03803E+00 2.54842E-02 2.35414E-01 1.70279E-13 6.04204E-14
 -1      1642 1.99124E+01 4.40331E+00 6.10734E-03-2.75941E-01 1.71668E-14 6.24657E-14
 -1      1643 1.99030E+01 4.70281E+00 7.57324E-03-2.25283E-01 1.68541E-13-2.76054E-13
 -1      1644 1.98402E+01 4.05759E+00 2.90504E-02-2.35797E-01 1.00612E-14-4.18525E-13
 -1      1645 1.99460E+01 3.53909E+00 3.45201E-03-4.88726E-01 2.23873E-13 6.04282E-14
 -1      1646 1.99228E+01 4.10065E+00 6.70629E-03-4.51142E-01 4.41105E-14 3.39436E-13
 -1      1647 1.98627E+01 3.66493E+00 2.45196E-02-6.95246E-01 2.08576E-13 2.39963E-13
 -1      1648 1.99976E+01 2.39284E+00-2.33374E-03-5.93856E-01 4.76424E-13 2.89575E-13
 -1      1649 1.99650E+01 3.09063E+00 2.64298E-03-5.82999E-01 1.52128E-13 2.13407E-13
 -1      1650 1.99265E+01 2.91852E+00 1.31768E-02-1.02379E+00 2.92443E-13 1.68647E-13
 -1      1651 2.00653E+01 1.24461E+00-8.77682E-03-5.40425E-01 6.98830E-13 1.57040E-14
 -1      1652 2.00248E+01 1.89480E+00-5.91373E-03-5.72239E-01 4.93196E-13 1.27384E-13
 -1      1653 2.00231E+01 1.97522E+00-3.30893E-03-1.11671E+00 1.05150E-13 3.36780E-13
 -1      1654 2.00998E+01 4.69865E-01-6.71165E-03-3.40553E-01 5.17142E-13-7.21289E-14
 -1      1655 2.00624E+01 8.99727E-01-1.83546E-02-4.09789E-01 5.60298E-13-5.93527E-14
 -1      1656 2.00927E+01 1.15534E+00-1.79627E-02-9.24231E-01 9.88949E-14-2.55053E-13
 -1      1657 2.01902E+01 5.42274E-01-1.17186E-02-5.48489E-01 2.40038E-13-9.87827E-14
 -1      1658-5.67049E-01-1.51792E+01-1.63242E+00-7.19835E-01 3.91687E-13 2.88769E-13
 -1      1659-6.15523E-01-1.79567E+01-1.90372E+00 5.90459E-01 5.34572E-14 2.72615E-13
 -1      1660 2.12646E+00-7.95307E+00-1.06246E+00 1.26610E+00 5.49227E-13 3.45612E-13
 -1      1661 1.14071E+00-1.34721E+01-1.61370E+00 4.64298E-01 3.78697E-13 2.87104E-13
 -1      1662 8.04687E+00 1.25935E-02-4.16436E-01 5.28459E+00 5.16032E-13 1.53322E-13
 -1      1663 4.64865E+00-5.78650E+00-1.20481E+00 2.19049E+00 6.88560E-13 1.97675E-13
 -1      1664 1.86531E+01 5.55450E+00 3.48699E-01 1.04210E+01 1.39666E-13 2.34257E-14
 -1      1665 1.19509E+01 2.22892E+00-5.38716E-01 6.67356E+00 3.45723E-13 1.35003E-13
 -1      1666 3.30955E+01 6.66573E+00 1.06982E+00 1.29795E+01 1.61759E-13 5.40679E-13
 -1      1667 2.40555E+01 6.32386E+00 2.33278E-01 1.10341E+01-6.65024E-14 3.17524E-13
 -1      1668 4.69373E+01 5.28952E+00 1.56698E+00 1.09901E+01 2.53159E-13 6.70686E-13
 -1      1669 3.81029E+01 7.10781E+00 9.83058E-01 1.27606E+01 3.22742E-13 5.75318E-13
 -1      1670 5.38704E+01 4.03449E+00 1.63454E+00 3.41404E+00 1.77969E-13 4.89275E-13
 -1      1671 4.93175E+01 5.28198E+00 1.37635E+00 8.15344E+00 3.13582E-13 6.51257E-13
 -1      1672 5.48012E+01 4.15082E+00 1.73938E+00-4.76289E+00 3.43586E-13 8.39329E-14
 -1      1673 5.59272E+01 3.69958E+00 1.74059E+00 1.09338E+00 1.93845E-13 4.34403E-13
 -1      1674 4.60063E+01 6.07502E+00 1.31614E+00-1.12465E+01 1.04847E-14-7.90479E-14
 -1      1675 5.30849E+01 4.27237E+00 1.82376E+00-7.45782E+00 1.77303E-13-9.43690E-15
 -1      1676 3.17197E+01 6.59653E+00 5.30412E-01-1.14659E+01 3.39229E-13-3.14637E-13
 -1      1677 4.10700E+01 5.71239E+00 1.26547E+00-1.14838E+01 1.83048E-13-2.17160E-13
 -1      1678 1.81237E+01 5.11548E+00-1.63068E-01-9.35139E+00 1.29230E-13-2.23599E-13
 -1      1679 2.62303E+01 6.47866E+00 6.41334E-01-1.22159E+01 2.23599E-13-4.67626E-13
 -1      1680 8.20212E+00-2.42290E-01-8.39160E-01-4.74831E+00 9.52571E-14-1.31339E-13
 -1      1681 1.32876E+01 3.98294E+00-2.47980E-02-8.32545E+00 1.02141E-13-2.17160E-13
 -1      1682 2.84550E+00-8.22307E+00-1.39222E+00-1.23254E+00 2.55351E-14 3.41949E-14
 -1      1683 5.05739E+00-2.52230E+00-7.15044E-01-3.48897E+00 6.66134E-15 5.70100E-14
 -1      1684 1.55722E-01-1.51706E+01-1.79643E+00-2.97775E-02-4.14113E-13-1.23165E-13
 -1      1685 5.31972E-01-1.03875E+01-1.35227E+00 6.23837E-02-1.28120E-13-7.82152E-14
 -1      1686-7.62044E-01-1.74958E+01-1.82709E+00-1.08744E+00-1.14783E-12-3.20410E-13
 -1      1687-6.77057E-01-1.59421E+01-1.67308E+00 4.23090E-01-6.21059E-13-1.33615E-13
 -1      1688-8.79569E-01-1.53055E+01-1.74582E+00-1.87043E+00-1.23268E-12-1.86240E-14
 -1      1689-7.16357E-01-1.79347E+01-1.95147E+00-5.68667E-01-1.27898E-12-2.55684E-13
 -1      1690 2.14857E+00-8.43097E+00-1.17014E+00 6.32596E-01-7.88147E-13-1.26843E-13
 -1      1691 1.15243E+00-1.32347E+01-1.60924E+00-2.44060E-01-1.11988E-12-1.07334E-13
 -1      1692 7.19886E+00-1.26784E+00-7.31136E-01 4.04898E+00-4.12337E-13-2.60902E-13
 -1      1693 4.07322E+00-6.59589E+00-1.41174E+00 1.18873E+00-6.41265E-13-1.55931E-13
 -1      1694 1.94063E+01 3.47444E+00 1.14690E-01 9.17406E+00-6.49480E-14 2.30926E-14
 -1      1695 1.23186E+01 7.70692E-03-8.06338E-01 5.41274E+00-2.12275E-13-5.45120E-14
 -1      1696 3.41839E+01 5.76252E+00 1.04803E+00 1.22772E+01-3.37508E-14 1.03473E-13
 -1      1697 2.44621E+01 5.14564E+00 4.01580E-02 1.01269E+01-4.35207E-14 8.45990E-14
 -1      1698 4.91703E+01 4.80254E+00 1.84150E+00 1.05201E+01-4.39371E-14 2.76890E-13
 -1      1699 3.96975E+01 6.08669E+00 1.02046E+00 1.17916E+01-1.34337E-14 4.88498E-14
 -1      1700 5.87348E+01 3.65054E+00 2.31417E+00 4.36131E+00 2.56184E-14 3.01259E-13
 -1      1701 5.31138E+01 4.88286E+00 1.86558E+00 8.79959E+00-7.84095E-14 1.36557E-13
 -1      1702 5.95176E+01 3.91277E+00 2.25995E+00-3.87514E+00 1.58817E-13 2.63123E-14
 -1      1703 6.00822E+01 3.71973E+00 2.33333E+00 2.00287E+00 2.00617E-13 2.33508E-13
 -1      1704 5.00286E+01 5.56073E+00 1.58674E+00-9.92188E+00-1.19071E-13 1.69642E-13
 -1      1705 5.68831E+01 4.08158E+00 2.14454E+00-5.83800E+00-8.16014E-14 2.06835E-13
 -1      1706 3.57770E+01 6.50704E+00 7.48207E-01-1.20525E+01-7.91034E-14 1.77192E-13
 -1      1707 4.59107E+01 5.41161E+00 1.63139E+00-1.16591E+01-1.23179E-13 2.66231E-13
 -1      1708 2.12791E+01 3.82875E+00-1.95904E-01-8.90989E+00 2.08722E-14 1.52545E-13
 -1      1709 3.04957E+01 5.22984E+00 7.60294E-01-1.17109E+01-2.90878E-14 2.99316E-13
 -1      1710 9.22153E+00-1.38829E+00-1.02572E+00-4.38990E+00-3.80140E-13 1.02141E-14
 -1      1711 1.52988E+01 2.96209E+00-1.23477E-01-8.33504E+00 2.93099E-14-2.62013E-14
 -1      1712 2.64183E+00-9.10955E+00-1.62789E+00-3.94304E-01-7.49178E-13 3.21076E-13
 -1      1713 5.02701E+00-3.31031E+00-9.29999E-01-2.84644E+00-6.01963E-13-2.45470E-13
 -1      1714 8.80142E-02-1.58878E+01-1.95415E+00 8.67449E-01-2.51466E-13 2.89518E-13
 -1      1715 4.57768E-01-1.11971E+01-1.53858E+00 7.53642E-01-5.90639E-13 6.06626E-13
 -1      1716-7.67604E-01-1.87826E+01-2.00863E+00-4.73014E-02 3.90799E-14 9.05387E-14
 -1      1717-8.76539E-01-1.71800E+01-1.91351E+00 1.55721E+00-1.72584E-13 2.23266E-13
 -1      1718 1.53310E+01-2.93020E+00-2.85751E-01 6.88306E+00 3.29403E-13-9.48130E-14
 -1      1719-1.51497E+00-1.25662E+01-1.37498E+00 6.06237E-01-1.76109E-14 2.26541E-13
 -1      1720 2.00072E+01 1.16455E-03 1.60682E-03-3.30508E-03-1.63871E-13-7.58576E-14
 -1      1721 2.00198E+01 3.05439E-02-4.04085E-04 1.91181E-02 5.91797E-14 9.67679E-14
 -1      1722 1.14522E+00-1.04314E+01-1.07267E+00 3.24490E+00 1.71918E-13 4.43756E-13
 -1      1723 7.07503E+00-7.42916E+00-7.78012E-01 5.30238E+00 3.51053E-13 2.99226E-13
 -1      1724 2.57577E+01 1.38577E+00 3.79158E-01 7.84721E+00 1.18128E-13 3.41505E-13
 -1      1725 3.60524E+01 4.59254E+00 9.41423E-01 7.29003E+00 1.22680E-13 5.34017E-13
 -1      1726 4.32659E+01 6.93141E+00 1.28509E+00 4.56674E+00 1.96954E-13 4.41647E-13
 -1      1727 4.66382E+01 7.88409E+00 1.37607E+00 7.86968E-01 3.23075E-13 5.05151E-13
 -1      1728 4.72386E+01 7.31459E+00 1.50990E+00-2.93878E+00 3.42282E-13 2.38809E-13
 -1      1729 4.04596E+01 5.69752E+00 1.02925E+00-5.33081E+00 1.95760E-13-9.12603E-14
 -1      1730 3.15529E+01 3.02201E+00 6.42758E-01-7.06679E+00 2.21712E-13-2.77445E-13
 -1      1731 2.09584E+01 4.19529E-02 1.15897E-01-7.71840E+00 1.43219E-13-3.23630E-13
 -1      1732 1.14137E+01-4.19413E+00-4.98999E-01-6.27421E+00 3.97460E-14-2.18325E-13
 -1      1733 4.20829E+00-8.33371E+00-9.37299E-01-4.35824E+00-2.23155E-13-6.06459E-14
 -1      1734-2.85893E-01-1.11350E+01-1.22092E+00-2.22525E+00-5.30520E-13-3.97848E-13
 -1      1735-1.50318E+00-1.21120E+01-1.32395E+00-3.08943E-01-7.55417E-13-3.67484E-13
 -1      1736 1.32077E+00-1.04819E+01-1.06720E+00 2.47437E+00-8.10019E-13 1.28286E-13
 -1      1737 6.88308E+00-7.94544E+00-9.12731E-01 4.31629E+00-7.77711E-13-1.98730E-14
 -1      1738 1.56650E+01-4.33454E+00-4.38051E-01 5.82303E+00-4.19886E-13-9.91984E-14
 -1      1739 2.65377E+01-5.42606E-01 1.38572E-01 6.44456E+00-1.85407E-13 2.66454E-14
 -1      1740 3.75166E+01 3.35540E+00 9.07905E-01 6.19270E+00-2.84495E-14 8.32667E-15
 -1      1741 4.64283E+01 5.93399E+00 1.54077E+00 4.06567E+00-1.86795E-13 3.99680E-14
 -1      1742 5.12086E+01 7.36207E+00 1.89982E+00 1.03342E+00 5.51781E-14-3.54217E-13
 -1      1743 4.99302E+01 7.46826E+00 1.76298E+00-1.92470E+00 6.26721E-14-1.96898E-13
 -1      1744 4.41880E+01 5.71971E+00 1.34240E+00-4.57164E+00-6.03267E-14-4.85167E-14
 -1      1745 3.49728E+01 2.19779E+00 6.71557E-01-6.10771E+00-1.68754E-14 6.12843E-14
 -1      1746 2.40241E+01-1.50259E+00 9.68032E-02-6.76880E+00-6.77236E-15 8.58202E-14
 -1      1747 1.26750E+01-5.21312E+00-5.60720E-01-5.81269E+00-2.96541E-13-3.70426E-13
 -1      1748 4.44779E+00-9.28672E+00-1.09609E+00-3.62404E+00-6.59472E-14 1.72098E-13
 -1      1749-1.86487E-01-1.22755E+01-1.39079E+00-1.59986E+00-4.45755E-14 4.29767E-13
 -1      1750 2.28600E+01 1.98491E+00-2.35590E-02-2.72242E+00-1.39579E-13 2.40336E-13
 -1      1751 1.98251E+01 3.71366E+00-3.54956E-02-2.15275E+00-1.12410E-13-2.89477E-13
 -1      1752 2.00581E+01 3.56267E+00-4.02560E-02-2.44494E+00-1.46282E-13-2.62255E-13
 -1      1753 2.03638E+01 3.18149E+00-4.57946E-02-2.58484E+00-1.66641E-13-2.12261E-13
 -1      1754 2.05840E+01 2.80969E+00-1.42541E-01-2.85317E+00-1.91982E-13-1.39291E-13
 -1      1755 2.04244E+01 2.69270E+00-4.25603E-03-2.22418E+00-1.62906E-13-2.17583E-13
 -1      1756 1.93549E+01 4.18891E+00-2.00610E-02-1.27038E+00 8.53874E-15-3.09912E-13
 -1      1757 1.94292E+01 4.14934E+00-1.68552E-02-1.49473E+00-1.53827E-14-3.11102E-13
 -1      1758 1.92581E+01 4.29471E+00-1.67610E-02-8.59586E-01 5.24613E-14-3.04892E-13
 -1      1759 1.93009E+01 4.27077E+00-1.42672E-02-1.07033E+00 3.45438E-14-3.14785E-13
 -1      1760 1.95268E+01 3.78318E+00-9.01859E-03-1.11947E+00 1.62938E-14-2.97902E-13
 -1      1761 1.92065E+01 4.35511E+00-1.47944E-02-4.66773E-01 1.02819E-13-2.69078E-13
 -1      1762 1.92285E+01 4.34227E+00-1.33071E-02-6.67064E-01 8.39015E-14-2.84248E-13
 -1      1763 1.94294E+01 3.90331E+00-9.17238E-03-7.33168E-01 7.06402E-14-2.81700E-13
 -1      1764 1.91871E+01 4.38070E+00-1.36679E-02-8.36220E-02 1.34739E-13-2.37964E-13
 -1      1765 1.91936E+01 4.37679E+00-1.32146E-02-2.79065E-01 1.21052E-13-2.61660E-13
 -1      1766 1.93791E+01 3.96774E+00-9.15259E-03-3.58288E-01 1.20022E-13-2.42053E-13
 -1      1767 1.91952E+01 4.37540E+00-1.31715E-02 2.98127E-01 1.75266E-13-2.05648E-13
 -1      1768 1.91876E+01 4.37987E+00-1.37527E-02 1.02521E-01 1.57482E-13-2.27488E-13
 -1      1769 1.93644E+01 3.98715E+00-9.14533E-03 1.05607E-02 1.55292E-13-2.25951E-13
 -1      1770 1.92326E+01 4.33820E+00-1.33299E-02 6.86859E-01 2.05814E-13-1.60327E-13
 -1      1771 1.92093E+01 4.35190E+00-1.49186E-02 4.86053E-01 1.94370E-13-1.86460E-13
 -1      1772 1.93819E+01 3.96444E+00-9.18837E-03 3.79596E-01 1.95179E-13-1.89295E-13
 -1      1773 1.93062E+01 4.26480E+00-1.44018E-02 1.08454E+00 2.34052E-13-1.12153E-13
 -1      1774 1.92628E+01 4.28925E+00-1.69776E-02 8.76555E-01 2.21111E-13-1.49830E-13
 -1      1775 1.94347E+01 3.89693E+00-9.19508E-03 7.51750E-01 2.24615E-13-1.45982E-13
 -1      1776 1.94378E+01 4.13763E+00-1.74182E-02 1.51467E+00 2.58794E-13-1.39680E-14
 -1      1777 1.93614E+01 4.18012E+00-2.05062E-02 1.28511E+00 2.46206E-13-6.37823E-14
 -1      1778 1.95345E+01 3.77292E+00-9.24534E-03 1.13557E+00 2.56555E-13-7.17412E-14
 -1      1779 1.96662E+01 3.92149E+00-2.53276E-02 1.97975E+00 2.66173E-13 9.89486E-14
 -1      1780 1.95340E+01 3.99814E+00-2.69102E-02 1.72245E+00 2.53216E-13 3.11869E-14
 -1      1781 1.97077E+01 3.56574E+00-8.84030E-03 1.53560E+00 2.66930E-13 1.76699E-14
 -1      1782 2.00790E+01 3.52248E+00-4.43120E-02 2.47603E+00 2.59204E-13 2.78024E-13
 -1      1783 1.98411E+01 3.68386E+00-3.79554E-02 2.18114E+00 2.61715E-13 1.68872E-13
 -1      1784 2.00028E+01 3.22164E+00-6.25589E-03 1.93189E+00 2.74379E-13 1.39156E-13
 -1      1785 2.09191E+01 2.66961E+00-6.21225E-02 2.85533E+00 2.10763E-13 5.45133E-13
 -1      1786 2.04128E+01 3.10033E+00-4.96679E-02 2.61334E+00 2.36372E-13 3.91374E-13
 -1      1787 2.04985E+01 2.60874E+00-6.84115E-04 2.23863E+00 2.48633E-13 3.33785E-13
 -1      1788 2.17299E+01 1.21148E+00-1.23388E-01 2.32868E+00 1.60615E-13 8.41757E-13
 -1      1789 2.12775E+01 2.27253E+00 3.30076E-03 2.74161E+00 1.88599E-13 6.53644E-13
 -1      1790 2.09590E+01 1.68904E+00-1.37205E-02 2.14545E+00 2.07005E-13 5.46882E-13
 -1      1791 2.09599E+01 7.78692E-01-6.06207E-02 1.52347E+00 1.73327E-13 7.94160E-13
 -1      1792 2.17980E+01 2.45821E+00 9.09091E-02-3.04812E+00-1.74312E-13 1.83187E-15
 -1      1793 2.01199E+01 2.99535E-01-4.94687E-03 6.62814E-01 1.13191E-13 7.07245E-13
 -1      1794 2.06506E+01 4.38318E-01-1.43066E-02 1.03318E+00 1.35669E-13 7.53968E-13
 -1      1795 2.07484E+01 8.47060E-01 5.41528E-03 1.40878E+00 1.59539E-13 6.09634E-13
 -1      1796 2.15083E+01 1.74225E+00 7.94227E-02-2.33708E+00-1.82385E-13-5.03972E-14
 -1      1797 2.05219E+01 5.00724E-01 3.24039E-02-9.21619E-01-1.62533E-13-5.72467E-14
 -1      1798 2.00902E+01 3.52107E-01 7.54925E-03-6.29645E-01-1.35648E-13-9.86138E-14
 -1      1799 1.98958E+01 2.57314E-01 2.74076E-02-3.91233E-01-1.20388E-13-9.41131E-14
 -1      1800 1.97048E+01 1.77954E-01 1.03886E-02-2.53453E-01-8.86843E-14-1.14123E-13
 -1      1801 2.02001E+01 4.83743E-01-5.84097E-03-7.22543E-01-1.49462E-13-1.21695E-13
 -1      1802 1.95828E+01 1.32627E-01 1.66503E-02-1.19999E-01-5.56603E-14-1.16372E-13
 -1      1803 1.95046E+01 9.29650E-02 6.96066E-03-4.92688E-02-4.44874E-14-1.34869E-13
 -1      1804 1.98740E+01 2.43772E-01-5.78236E-03-2.95759E-01-8.02253E-14-1.09363E-13
 -1      1805 1.94396E+01 6.82802E-02 8.68567E-03 2.41751E-02-5.04380E-14-1.11609E-13
 -1      1806 1.94250E+01 4.65777E-02 4.10589E-03 6.02680E-02-4.52806E-14-1.08426E-13
 -1      1807 1.96912E+01 1.25081E-01-4.62399E-03-5.90924E-02-4.59546E-14-9.08028E-14
 -1      1808 1.93988E+01 3.22328E-02 4.23293E-03 9.88683E-02-4.93624E-14-1.09865E-13
 -1      1809 1.94184E+01 1.97827E-02 2.42425E-03 1.15546E-01-2.84685E-14-1.25989E-13
 -1      1810 1.96045E+01 6.07138E-02-3.45365E-03 7.02744E-02-4.56694E-14-8.59351E-14
 -1      1811 1.94166E+01 1.11384E-02 1.85100E-03 1.33345E-01-2.47685E-14-1.15858E-13
 -1      1812 1.94534E+01 3.95077E-03 1.44047E-03 1.38665E-01-1.63365E-14-1.02113E-13
 -1      1813 1.95800E+01 2.38047E-02-2.33446E-03 1.36423E-01-1.98053E-14-7.86212E-14
 -1      1814 1.94657E+01-1.24290E-03 5.51636E-04 1.43926E-01-4.88995E-14-1.09819E-13
 -1      1815 1.95096E+01-5.22143E-03 8.29911E-04 1.42605E-01-4.84307E-14-1.31747E-13
 -1      1816 1.95933E+01 2.26043E-03-1.43644E-03 1.64467E-01-2.75371E-14-7.86607E-14
 -1      1817 1.95294E+01-8.19733E-03-1.67118E-04 1.40472E-01-4.79021E-14-1.49554E-13
 -1      1818 1.95744E+01-1.01367E-02 4.39320E-04 1.35463E-01-4.78555E-14-1.43262E-13
 -1      1819 1.96275E+01-9.98189E-03-7.94297E-04 1.69588E-01-5.48220E-14-8.75852E-14
 -1      1820 1.95973E+01-1.16431E-02-5.49411E-04 1.29267E-01-5.01538E-14-1.63991E-13
 -1      1821 1.96400E+01-1.22659E-02 1.92790E-04 1.22490E-01-4.92493E-14-1.90428E-13
 -1      1822 1.96719E+01-1.63074E-02-3.67771E-04 1.61427E-01-7.78318E-14-1.43076E-13
 -1      1823 1.96634E+01-1.27744E-02-7.21452E-04 1.14422E-01-6.79254E-14-2.06369E-13
 -1      1824 1.97022E+01-1.25524E-02 7.25306E-05 1.07158E-01-7.32679E-14-2.38876E-13
 -1      1825 1.97195E+01-1.87860E-02-1.03140E-04 1.46302E-01-9.12095E-14-1.46366E-13
 -1      1826 1.97258E+01-1.22928E-02-7.40641E-04 9.82457E-02-6.64605E-14-2.44100E-13
 -1      1827 1.97614E+01-1.15414E-02 5.87764E-06 9.10105E-02-2.86193E-14-2.58712E-13
 -1      1828 1.97673E+01-1.86864E-02 1.18141E-05 1.27989E-01-6.82889E-14-1.06442E-13
 -1      1829 1.97819E+01-1.09065E-02-7.24024E-04 8.32129E-02 1.63110E-14-2.32659E-13
 -1      1830 1.98113E+01-9.70207E-03 6.05997E-06 7.72265E-02 1.53117E-14-2.22867E-13
 -1      1831 1.98121E+01-1.68078E-02 1.15634E-04 1.09738E-01 1.45906E-14-1.57699E-13
 -1      1832 1.98302E+01-8.75774E-03-6.23393E-04 7.07494E-02-4.05708E-16-2.21844E-13
 -1      1833 1.98559E+01-7.28926E-03 6.74902E-05 6.60854E-02 4.05546E-15-2.31350E-13
 -1      1834 1.98520E+01-1.38415E-02 1.13989E-04 9.40675E-02 5.66399E-15-1.37080E-13
 -1      1835 1.98733E+01-6.09109E-03-4.94839E-04 6.14325E-02 2.31275E-15-2.64962E-13
 -1      1836 1.98964E+01-4.38308E-03 1.78338E-04 5.84053E-02-2.72702E-14-2.69822E-13
 -1      1837 1.98886E+01-1.00284E-02 6.91280E-05 8.18425E-02-1.94531E-14-1.48918E-13
 -1      1838 1.99132E+01-2.94740E-03-3.45733E-04 5.60048E-02-1.65943E-14-2.40439E-13
 -1      1839 1.99351E+01-9.77385E-04 3.42409E-04 5.49118E-02 8.30773E-15-2.16964E-13
 -1      1840 1.99231E+01-5.48377E-03-1.14986E-05 7.41402E-02-2.73671E-14-1.75255E-13
 -1      1841 1.99521E+01 7.21226E-04-1.82168E-04 5.51965E-02-1.04249E-14-1.57863E-13
 -1      1842 1.99745E+01 3.02521E-03 5.67634E-04 5.63765E-02-2.74785E-15-1.40514E-13
 -1      1843 1.99570E+01-1.66228E-04-1.22676E-04 7.19458E-02 4.27352E-14-1.14936E-13
 -1      1844 1.99930E+01 5.05301E-03-6.42522E-06 5.98553E-02-2.95158E-14-1.50467E-13
 -1      1845 2.00181E+01 7.81389E-03 8.67986E-04 6.37427E-02-2.26156E-15-2.21757E-13
 -1      1846 1.99927E+01 6.10435E-03-2.62579E-04 7.63270E-02-2.84587E-14-7.50506E-14
 -1      1847 2.00396E+01 1.02794E-02 1.81850E-04 7.10697E-02 4.75637E-15-2.79259E-13
 -1      1848 2.00699E+01 1.36768E-02 1.26415E-03 7.82509E-02 5.56406E-14-2.96418E-13
 -1      1849 2.00328E+01 1.36480E-02-4.31523E-04 8.85914E-02-4.73562E-14-1.43958E-13
 -1      1850 2.00962E+01 1.67359E-02 3.84466E-04 9.02983E-02 4.40162E-14-3.46977E-13
 -1      1851 2.01348E+01 2.10169E-02 1.78455E-03 1.01576E-01 9.86548E-15-3.16677E-13
 -1      1852 2.00808E+01 2.29393E-02-6.30956E-04 1.10443E-01-1.82438E-14-2.06155E-13
 -1      1853 2.01680E+01 2.48821E-02 6.03330E-04 1.19515E-01 1.68236E-14-3.01843E-13
 -1      1854 2.02189E+01 3.03760E-02 2.46613E-03 1.35985E-01 4.33296E-14-2.63654E-13
 -1      1855 2.01406E+01 3.46345E-02-8.62269E-04 1.44149E-01 2.93720E-14-7.38210E-14
 -1      1856 2.02616E+01 3.53261E-02 8.38441E-04 1.61380E-01 7.62659E-14-3.11946E-13
 -1      1857 2.03297E+01 4.24591E-02 3.35388E-03 1.84517E-01 1.00908E-13-1.91837E-13
 -1      1858 2.02171E+01 4.96075E-02-1.12542E-03 1.92730E-01 9.67976E-14-4.16624E-14
 -1      1859 2.03848E+01 4.88457E-02 1.08475E-03 2.19424E-01 1.72677E-14-2.37370E-13
 -1      1860 2.04764E+01 5.81294E-02 4.48817E-03 2.51186E-01 8.51719E-14-1.96673E-13
 -1      1861 2.03157E+01 6.89813E-02-1.41844E-03 2.60160E-01 6.82377E-14-4.17730E-14
 -1      1862 2.05474E+01 6.64969E-02 1.36429E-03 2.98251E-01 2.20274E-13-2.46493E-13
 -1      1863 2.06706E+01 7.84564E-02 6.02794E-03 3.41078E-01 2.15856E-13-1.87685E-13
 -1      1864 2.04432E+01 9.40834E-02-1.74846E-03 3.51546E-01 1.32545E-13-1.77943E-13
 -1      1865 2.07666E+01 8.96260E-02 1.55178E-03 4.06756E-01 1.29613E-13-1.89312E-13
 -1      1866 2.09394E+01 1.05815E-01 7.84813E-03 4.67419E-01 1.01300E-13-1.29259E-13
 -1      1867 2.06119E+01 1.27183E-01-2.22821E-03 4.76837E-01 1.51292E-13-2.41307E-13
 -1      1868 2.10554E+01 1.18947E-01 1.73254E-03 5.49845E-01 8.10589E-14-1.45682E-13
 -1      1869 2.12744E+01 1.37458E-01 9.67234E-03 6.25294E-01 5.35700E-14-6.47083E-14
 -1      1870 2.08279E+01 1.69429E-01-2.40425E-03 6.41853E-01 9.44887E-14-9.81628E-14
 -1      1871 2.14191E+01 1.52492E-01 1.58150E-03 7.30316E-01-5.69852E-14-1.41866E-13
 -1      1872 2.17036E+01 1.73273E-01 1.15081E-02 8.25547E-01-1.05082E-13-1.17417E-13
 -1      1873 2.10939E+01 2.18770E-01-2.63441E-03 8.49010E-01-3.56650E-14-2.30959E-13
 -1      1874 2.18817E+01 1.87811E-01 1.20947E-03 9.54496E-01-6.78420E-14-5.24042E-15
 -1      1875 2.22432E+01 2.06020E-01 1.24355E-02 1.06870E+00 3.58394E-15 1.36878E-14
 -1      1876 2.14240E+01 2.71389E-01-2.94477E-03 1.10669E+00-1.90325E-14-9.25598E-14
 -1      1877 2.24606E+01 2.13889E-01 5.23051E-04 1.21723E+00-7.96186E-14-1.73939E-14
 -1      1878 2.29050E+01 2.18441E-01 1.11560E-02 1.34098E+00-6.41618E-14-1.18316E-13
 -1      1879 2.18281E+01 3.13279E-01-3.54076E-03 1.41162E+00-9.59241E-14-1.41688E-13
 -1      1880 2.31712E+01 2.05947E-01-9.31978E-05 1.49204E+00-1.03487E-13-1.68903E-13
 -1      1881 2.36900E+01 1.74315E-01 5.72931E-03 1.59813E+00-1.74579E-13-2.31221E-13
 -1      1882 2.23188E+01 3.11547E-01-4.95524E-03 1.74125E+00-1.43631E-13-1.81866E-13
 -1      1883 2.40242E+01 1.15987E-01 7.54377E-04 1.71004E+00-2.34682E-13-2.58623E-13
 -1      1884 2.45822E+01 1.04978E-02-5.77691E-03 1.74017E+00-1.93799E-13-3.61169E-13
 -1      1885 2.29172E+01 2.01698E-01-8.04556E-03 2.03464E+00-2.34251E-13-3.23200E-13
 -1      1886 2.50214E+01-1.31324E-01 5.77087E-03 1.73120E+00-2.80678E-14-3.54387E-13
 -1      1887 2.55394E+01-3.55893E-01-2.43932E-02 1.58641E+00-3.67172E-14-3.63144E-13
 -1      1888 2.36656E+01-1.19087E-01-1.35727E-02 2.16519E+00-9.28355E-14-2.10360E-13
 -1      1889 2.61407E+01-6.10115E-01 1.66292E-02 1.32001E+00-3.92152E-14-2.50083E-13
 -1      1890 2.64855E+01-9.46900E-01-4.47995E-02 8.80202E-01 1.55917E-14-1.41930E-13
 -1      1891 2.46426E+01-7.64890E-01-2.15979E-02 1.91424E+00 4.59043E-14-2.93865E-13
 -1      1892 2.72570E+01-1.25495E+00 2.33198E-02 2.11297E-01-7.06397E-14-2.32959E-13
 -1      1893 2.72621E+01-1.53837E+00-5.85233E-02-5.56579E-01 2.11844E-14-3.34724E-13
 -1      1894 2.59302E+01-1.68277E+00-2.69150E-02 9.69482E-01-1.55397E-14-2.42359E-13
 -1      1895 2.80465E+01-1.64169E+00-3.67978E-03-1.60854E+00-6.68562E-15-3.87280E-13
 -1      1896 2.76085E+01-1.43834E+00-4.83932E-02-2.44755E+00-2.84217E-14-3.98582E-13
 -1      1897 2.74371E+01-2.36078E+00-2.86320E-02-8.09731E-01-6.28161E-14-2.59274E-13
 -1      1898 2.79605E+01-8.69460E-01-8.26486E-02-3.32488E+00 1.03251E-14-3.88216E-13
 -1      1899 2.72061E+01 6.84388E-02-4.65612E-02-3.51703E+00 3.88578E-14-4.26978E-13
 -1      1900 2.86767E+01-1.64544E+00-3.39971E-02-3.00308E+00-2.95666E-14-2.86157E-13
 -1      1901 2.70286E+01 1.11781E+00-1.47291E-01-3.29858E+00 1.03972E-13-2.85352E-13
 -1      1902 2.64414E+01 2.04990E+00-7.90312E-02-2.46825E+00 1.38278E-13-3.20466E-13
 -1      1903 2.90258E+01 8.54996E-01-8.35911E-02-3.86375E+00 1.22277E-13-2.36963E-13
 -1      1904 2.61851E+01 2.72606E+00-1.38594E-01-9.78623E-01 1.08968E-13-2.59785E-13
 -1      1905 2.61394E+01 2.75186E+00-1.31142E-01 4.77932E-01 1.70530E-13-7.59462E-14
 -1      1906 2.87320E+01 3.47040E+00-1.51312E-01-2.06361E+00 1.86906E-13-1.46549E-13
 -1      1907 2.62586E+01 2.09974E+00-7.90901E-02 2.08693E+00 1.22347E-13-2.73616E-13
 -1      1908 2.68159E+01 1.04699E+00-1.47752E-01 2.96643E+00 2.32314E-14-2.43847E-13
 -1      1909 2.86395E+01 3.54102E+00-1.48517E-01 1.44600E+00 7.49123E-14-1.84658E-13
 -1      1910 2.69197E+01-7.69987E-02-3.41031E-02 3.15395E+00-8.60562E-14-2.85648E-13
 -1      1911 2.75322E+01-9.89740E-01-7.78888E-02 2.86865E+00-2.54519E-14-3.39831E-13
 -1      1912 2.87764E+01 7.06351E-01-9.34795E-02 3.39947E+00-2.01367E-14-3.76532E-13
 -1      1913 2.70652E+01-1.47631E+00-4.48588E-02 1.95241E+00-3.03039E-14-3.84347E-13
 -1      1914 2.73243E+01-1.63414E+00-7.10316E-03 1.10241E+00-4.65183E-14-3.24202E-13
 -1      1915 2.82095E+01-1.76688E+00-2.90588E-02 2.39496E+00-3.05797E-14-5.93949E-13
 -1      1916 2.64885E+01-1.50293E+00-5.39128E-02 8.11217E-02-1.83610E-13-1.39505E-13
 -1      1917 2.63152E+01-1.22228E+00 1.66274E-02-6.74062E-01-7.38958E-14-2.95219E-13
 -1      1918 2.67880E+01-2.30938E+00-1.67945E-02 2.22346E-01 3.11192E-14-3.30879E-13
 -1      1919 2.54972E+01-9.11341E-01-4.19909E-02-1.31352E+00-4.04121E-14-3.33710E-13
 -1      1920 2.50049E+01-5.86020E-01 1.22681E-02-1.73864E+00-1.45049E-13-4.10873E-13
 -1      1921 2.51543E+01-1.60925E+00-2.00373E-02-1.51386E+00-1.81627E-13-1.78380E-13
 -1      1922 2.43523E+01-3.35885E-01-2.15553E-02-1.98845E+00-9.82981E-14-3.55486E-13
 -1      1923 2.37053E+01-1.12309E-01 6.26870E-03-2.12136E+00-7.34308E-14-3.20825E-13
 -1      1924 2.37554E+01-7.16143E-01-1.79539E-02-2.40321E+00-1.05323E-13-3.22916E-13
 -1      1925 2.32029E+01 3.97835E-02-3.70029E-03-2.11275E+00-8.55731E-14-3.19680E-13
 -1      1926 2.25389E+01 1.70097E-01 5.86839E-03-2.05529E+00-4.54619E-14-3.21249E-13
 -1      1927 2.26566E+01-7.38631E-02-1.26235E-02-2.62101E+00-4.37827E-14-2.44920E-13
 -1      1928 2.21396E+01 2.62941E-01 7.03168E-03-1.89545E+00-4.50803E-14-1.78510E-13
 -1      1929 2.15519E+01 3.49133E-01 8.47750E-03-1.71866E+00-2.87947E-14-1.69599E-13
 -1      1930 2.17852E+01 3.11721E-01-9.44664E-03-2.42049E+00 4.40592E-14-2.41262E-13
 -1      1931 2.12246E+01 4.20560E-01 9.45563E-03-1.46000E+00-3.90920E-14-1.10685E-13
 -1      1932 2.07592E+01 5.00342E-01 8.91669E-03-1.20264E+00 1.42560E-14-2.02273E-13
 -1      1933 2.10757E+01 5.67093E-01-9.81436E-03-1.96556E+00 5.70611E-14 5.14692E-15
 -1      1934 2.04453E+01 5.41840E-01 4.38937E-03-7.79444E-01 1.53608E-13-1.11768E-13
 -1      1935 1.95138E+01 1.12424E-01 9.62965E-03 1.27606E-01 5.10538E-14 5.37756E-13
 -1      1936 1.96297E+01 1.58933E-01 1.71408E-02 2.21331E-01 3.25122E-14 5.71685E-13
 -1      1937 1.93836E+01 5.74910E-02 6.10212E-03-1.33999E-02 4.18060E-14 5.14926E-13
 -1      1938 1.94197E+01 8.24375E-02 1.19747E-02 3.32331E-02 4.81832E-14 5.26744E-13
 -1      1939 1.97158E+01 1.54109E-01-4.67699E-03 1.54611E-01 6.88356E-14 3.53233E-13
 -1      1940 1.93514E+01 2.73375E-02 3.66047E-03-8.75188E-02 7.33409E-14 4.45671E-13
 -1      1941 1.93403E+01 4.13417E-02 6.24008E-03-6.44678E-02 6.58715E-14 4.76978E-13
 -1      1942 1.95815E+01 7.70715E-02-4.07012E-03-1.61031E-02 7.87391E-14 3.19741E-13
 -1      1943 1.93768E+01 9.73323E-03 2.22277E-03-1.22226E-01 6.63246E-14 3.77177E-13
 -1      1944 1.93411E+01 1.77947E-02 2.96485E-03-1.12522E-01 6.52019E-14 4.12004E-13
 -1      1945 1.95327E+01 3.43725E-02-2.89444E-03-1.06548E-01 9.33613E-14 2.59866E-13
 -1      1946 1.94328E+01-5.93167E-04 1.35179E-03-1.33593E-01 7.25217E-14 3.14596E-13
 -1      1947 1.93860E+01 3.98858E-03 1.19093E-03-1.31723E-01 4.85448E-14 3.52281E-13
 -1      1948 1.95352E+01 9.81703E-03-1.87205E-03-1.49364E-01 8.34026E-14 1.90635E-13
 -1      1949 1.95026E+01-6.41362E-03 7.95942E-04-1.31262E-01 7.99687E-14 3.14431E-13
 -1      1950 1.94527E+01-3.98801E-03 2.13467E-04-1.33911E-01 8.37881E-14 3.27566E-13
 -1      1951 1.95671E+01-4.30507E-03-1.09966E-03-1.63633E-01 8.40763E-14 1.50748E-13
 -1      1952 1.95758E+01-9.32324E-03 4.36409E-04-1.21321E-01 7.01732E-14 2.99744E-13
 -1      1953 1.95275E+01-8.27755E-03-3.22380E-04-1.26375E-01 8.66212E-14 3.38229E-13
 -1      1954 1.96140E+01-1.20036E-02-5.65511E-04-1.61048E-01 9.73536E-14 1.74822E-13
 -1      1955 1.96464E+01-1.03156E-02 2.11883E-04-1.07741E-01 7.42799E-14 2.53241E-13
 -1      1956 1.96020E+01-1.01643E-02-5.95000E-04-1.13812E-01 7.64850E-14 2.87414E-13
 -1      1957 1.96668E+01-1.55813E-02-2.19656E-04-1.49101E-01 8.89222E-14 2.20821E-13
 -1      1958 1.97112E+01-1.00369E-02 8.56620E-05-9.31489E-02 7.20269E-14 2.45987E-13
 -1      1959 1.96718E+01-1.04662E-02-7.02905E-04-9.93174E-02 8.03966E-14 2.69380E-13
 -1      1960 1.97197E+01-1.64644E-02-1.23064E-05-1.32724E-01 7.48658E-14 2.35301E-13
 -1      1961 1.97690E+01-8.91143E-03 3.36348E-05-7.92980E-02-2.90147E-14 3.01865E-13
 -1      1962 1.97348E+01-9.71863E-03-7.05958E-04-8.49487E-02 2.35244E-14 2.88112E-13
 -1      1963 1.97697E+01-1.55730E-02 9.56446E-05-1.15205E-01 2.90759E-14 1.90321E-13
 -1      1964 1.98199E+01-7.21179E-03 3.96502E-05-6.73665E-02-3.39881E-14 2.82158E-13
 -1      1965 1.97904E+01-8.27040E-03-6.42702E-04-7.20829E-02-3.59133E-14 3.06105E-13
 -1      1966 1.98155E+01-1.35050E-02 1.32546E-04-9.87554E-02-2.69809E-14 2.07074E-13
 -1      1967 1.98652E+01-5.10273E-03 9.30965E-05-5.81686E-02-1.68621E-14 3.09924E-13
 -1      1968 1.98394E+01-6.34015E-03-5.38457E-04-6.16575E-02-6.67869E-17 2.84432E-13
 -1      1969 1.98570E+01-1.06381E-02 1.18272E-04-8.48778E-02-3.20383E-14 2.67055E-13
 -1      1970 1.99065E+01-2.67339E-03 1.87110E-04-5.23018E-02-1.42489E-14 3.07364E-13
 -1      1971 1.98832E+01-4.05430E-03-4.09833E-04-5.43398E-02-1.60761E-14 2.93733E-13
 -1      1972 1.98948E+01-7.19528E-03 6.64340E-05-7.46283E-02-2.59448E-14 1.89737E-13
 -1      1973 1.99462E+01 3.55087E-05 3.16902E-04-5.02461E-02 3.87809E-14 2.59783E-13
 -1      1974 1.99239E+01-1.47648E-03-2.67668E-04-5.06443E-02 7.35160E-15 2.86366E-13
 -1      1975 1.99304E+01-3.29350E-03-1.38245E-05-6.87952E-02 1.16013E-14 2.06648E-13
 -1      1976 1.99868E+01 3.00509E-03 4.77958E-04-5.24218E-02 5.09299E-14 2.20793E-13
 -1      1977 1.99639E+01 1.36579E-03-1.19223E-04-5.10073E-02 7.27763E-14 1.53912E-13
 -1      1978 1.99655E+01 1.01466E-03-1.16307E-04-6.80172E-02 8.05987E-14 8.84069E-14
 -1      1979 2.00315E+01 6.20872E-03 6.63865E-04-5.92038E-02 6.88529E-14 1.12755E-13
 -1      1980 2.00061E+01 4.45349E-03 3.00055E-05-5.58193E-02 4.31561E-14 1.79452E-13
 -1      1981 2.00024E+01 5.69834E-03-2.36422E-04-7.28446E-02 9.38324E-14 2.61970E-14
 -1      1982 2.00834E+01 9.57591E-03 8.63568E-04-7.08872E-02 1.36435E-13 6.27077E-14
 -1      1983 2.00535E+01 7.74380E-03 1.74670E-04-6.54121E-02 7.28483E-14 9.81252E-14
 -1      1984 2.00435E+01 1.07002E-02-3.69914E-04-8.37429E-02 1.04920E-13-2.84111E-14
 -1      1985 2.01458E+01 1.29461E-02 1.05793E-03-8.75923E-02 4.78740E-14 1.57821E-13
 -1      1986 2.01096E+01 1.11298E-02 3.08056E-04-7.99910E-02 1.19080E-13 1.89960E-13
 -1      1987 2.00916E+01 1.58767E-02-5.11527E-04-1.01028E-01 5.84324E-14 5.44886E-14
 -1      1988 2.02220E+01 1.60099E-02 1.21564E-03-1.09093E-01 3.42236E-14 1.38068E-13
 -1      1989 2.01775E+01 1.43885E-02 4.20664E-04-9.94984E-02 3.86121E-14 2.21516E-13
 -1      1990 2.01493E+01 2.09218E-02-6.53568E-04-1.24718E-01 6.99500E-14 2.44839E-13
 -1      1991 2.03148E+01 1.82374E-02 1.28884E-03-1.34553E-01 7.34999E-14 1.39168E-13
 -1      1992 2.02605E+01 1.71163E-02 4.99022E-04-1.23392E-01 3.51306E-14 1.62949E-13
 -1      1993 2.02194E+01 2.52712E-02-7.84342E-04-1.54286E-01 3.56293E-14 1.84246E-13
 -1      1994 2.04258E+01 1.88001E-02 1.20966E-03-1.62152E-01-2.87858E-14 1.87214E-13
 -1      1995 2.03611E+01 1.86535E-02 5.25014E-04-1.50321E-01 7.84654E-14 2.01070E-13
 -1      1996 2.03042E+01 2.79892E-02-8.86426E-04-1.88285E-01 3.60912E-14 2.36346E-13
 -1      1997 2.05550E+01 1.65054E-02 8.89773E-04-1.88614E-01-1.07211E-13 2.69056E-13
 -1      1998 2.04803E+01 1.80086E-02 4.76235E-04-1.77696E-01-1.34636E-13 2.09487E-13
 -1      1999 2.04052E+01 2.76539E-02-9.34822E-04-2.23851E-01-9.35839E-14 3.57740E-13
 -1      2000 2.06993E+01 9.78601E-03 2.27260E-04-2.08680E-01-2.80265E-14 3.09657E-13
 -1      2001 2.06174E+01 1.38129E-02 3.28035E-04-2.01179E-01-1.16863E-14 3.40447E-13
 -1      2002 2.05225E+01 2.22778E-02-8.95004E-04-2.56094E-01-1.13532E-13 3.66418E-13
 -1      2003 2.08518E+01-3.17618E-03-8.73566E-04-2.14654E-01-4.36197E-14 2.77033E-13
 -1      2004 2.07680E+01 4.36073E-03 5.78296E-05-2.14178E-01-1.17279E-14 2.91152E-13
 -1      2005 2.06542E+01 9.34713E-03-7.21058E-04-2.77466E-01-9.68222E-15 3.82888E-13
 -1      2006 2.09996E+01-2.40628E-02-2.46200E-03-1.96308E-01-9.30804E-14 2.96722E-13
 -1      2007 2.09231E+01-1.21605E-02-3.48289E-04-2.07551E-01-5.92158E-14 3.06819E-13
 -1      2008 2.07950E+01-1.38793E-02-3.54525E-04-2.77317E-01-7.47874E-14 2.46152E-13
 -1      2009 2.11234E+01-5.36034E-02-4.47585E-03-1.41605E-01-6.92218E-14 3.56011E-13
 -1      2010 2.10677E+01-3.71022E-02-8.87821E-04-1.69905E-01-5.38322E-14 2.97450E-13
 -1      2011 2.09355E+01-4.95955E-02 2.74039E-04-2.42040E-01-5.84369E-14 2.43627E-13
 -1      2012 2.11972E+01-9.02060E-02-6.65664E-03-3.89531E-02-1.93899E-14 2.48789E-13
 -1      2013 2.11795E+01-7.02853E-02-1.53539E-03-8.90771E-02-6.70334E-14 2.64860E-13
 -1      2014 2.10610E+01-9.79580E-02 1.23529E-03-1.56451E-01-4.00986E-14 3.24310E-13
 -1      2015 2.11896E+01-1.28155E-01-8.48157E-03 1.18313E-01 4.75110E-14 2.41644E-13
 -1      2016 2.12292E+01-1.08380E-01-2.23799E-03 4.44240E-02 8.27545E-14 2.29827E-13
 -1      2017 2.11505E+01-1.54785E-01 2.57138E-03-7.28444E-03 2.12545E-14 2.07043E-13
 -1      2018 2.10693E+01-1.56121E-01-9.17957E-03 3.25007E-01 7.24325E-14 1.13404E-13
 -1      2019 2.11833E+01-1.43108E-01-2.91959E-03 2.31494E-01 5.67194E-14 1.75899E-13
 -1      2020 2.11776E+01-2.08887E-01 4.21806E-03 2.10395E-01 9.28910E-14 2.26555E-13
 -1      2021 2.08135E+01-1.57671E-01-7.92711E-03 5.56142E-01-2.62785E-14 8.52365E-14
 -1      2022 2.10101E+01-1.60414E-01-3.43715E-03 4.56563E-01 8.23859E-14 8.53495E-14
 -1      2023 2.11132E+01-2.40632E-01 5.87080E-03 4.84006E-01 6.88226E-14 2.40574E-13
 -1      2024 2.04210E+01-1.16132E-01-4.31445E-03 7.62242E-01 9.41669E-14 1.33553E-13
 -1      2025 2.06916E+01-1.42785E-01-3.54000E-03 6.80685E-01-3.43735E-15 9.30111E-14
 -1      2026 2.09325E+01-2.24532E-01 6.87642E-03 7.73969E-01-1.40474E-14 5.06140E-14
 -1      2027 1.99256E+01-2.48791E-02 1.06343E-03 8.75012E-01 1.38878E-13 9.82721E-14
 -1      2028 2.02395E+01-7.67891E-02-2.80809E-03 8.41792E-01 1.10631E-13 1.42206E-13
 -1      2029 2.06279E+01-1.39195E-01 6.20383E-03 1.01028E+00 5.89383E-14 5.20656E-14
 -1      2030 1.94032E+01 1.00779E-01 6.42275E-03 8.29676E-01 3.23387E-14 2.44875E-13
 -1      2031 1.97087E+01 3.47853E-02-7.65417E-04 8.69647E-01 1.65107E-13 3.08029E-13
 -1      2032 2.02257E+01 1.60044E-02 2.88102E-03 1.10456E+00 4.16984E-14 1.46590E-13
 -1      2033 1.89617E+01 2.20716E-01 9.59565E-03 6.00239E-01-2.07091E-14 7.02767E-14
 -1      2034 1.91978E+01 1.63851E-01 2.84560E-03 7.17396E-01-1.36354E-14 2.18495E-13
 -1      2035 1.97965E+01 2.06764E-01-2.83107E-03 9.83843E-01 9.52515E-14 2.69403E-13
 -1      2036 1.87080E+01 2.85447E-01 9.35291E-03 2.28068E-01-1.83743E-13 5.14171E-14
 -1      2037 1.88244E+01 2.62386E-01 7.30614E-03 3.96342E-01-1.06056E-13 1.38357E-14
 -1      2038 1.94454E+01 3.67809E-01-8.63329E-03 6.36556E-01-6.54303E-14 4.17789E-14
 -1      2039 1.87024E+01 2.64878E-01 6.30441E-03-1.82821E-01-1.14050E-13 9.36412E-14
 -1      2040 1.86785E+01 2.86754E-01 1.08083E-02-1.23767E-02-1.48721E-13 9.16275E-14
 -1      2041 1.92714E+01 4.32392E-01-1.12649E-02 1.40431E-01-1.63515E-13 1.01304E-13
 -1      2042 1.89275E+01 1.68077E-01 2.37180E-03-5.09367E-01-7.22985E-14 2.55273E-13
 -1      2043 1.87813E+01 2.24910E-01 1.13951E-02-3.86890E-01-4.74499E-14 1.31798E-13
 -1      2044 1.93173E+01 3.70640E-01-9.09891E-03-3.58754E-01-1.60725E-13 9.11647E-14
 -1      2045 1.92947E+01 3.84599E-02-6.97885E-04-6.66806E-01-2.04463E-14 5.54010E-14
 -1      2046 1.90754E+01 1.05176E-01 8.26282E-03-6.20536E-01-1.01867E-13 1.91697E-13
 -1      2047 1.95447E+01 2.09829E-01-3.45403E-03-7.12450E-01-3.78400E-14-8.13646E-14
 -1      2048 1.96856E+01-7.34259E-02-2.17953E-03-6.42418E-01 1.74932E-13-1.18151E-13
 -1      2049 1.94539E+01-2.15167E-02 2.65486E-03-6.69455E-01 4.47849E-14-1.31246E-13
 -1      2050 1.98548E+01 1.75320E-02 2.18868E-03-8.38894E-01 7.97432E-14-3.40891E-13
 -1      2051 2.00020E+01-1.35988E-01-2.22385E-03-4.86343E-01 2.39170E-13-9.90805E-14
 -1      2052 1.98088E+01-1.11787E-01-3.02087E-03-5.60768E-01 2.53669E-13-1.81574E-14
 -1      2053 2.01414E+01-1.36505E-01 5.55554E-03-7.49696E-01 1.63875E-13-2.32984E-13
 -1      2054 2.01928E+01-1.43626E-01-1.34112E-03-2.76774E-01 2.60156E-13 6.45496E-14
 -1      2055 2.00659E+01-1.46994E-01-6.85006E-03-3.65027E-01 3.12327E-13 4.80007E-14
 -1      2056 2.03329E+01-2.13136E-01 6.24428E-03-5.23618E-01 1.94175E-13-8.22528E-14
 -1      2057 2.02557E+01-1.08890E-01 1.04914E-05-8.61489E-02-1.71797E-13 1.46059E-13
 -1      2058 2.01976E+01-1.31855E-01-8.17203E-03-1.59776E-01 2.16168E-14 1.94156E-13
 -1      2059 2.04058E+01-2.09949E-01 4.99987E-03-2.59852E-01 1.81442E-13 2.44287E-13
 -1      2060 2.02229E+01-5.18236E-02 1.41724E-03 3.72542E-02-1.21590E-13 3.68729E-13
 -1      2061 2.02161E+01-8.35037E-02-7.43005E-03-4.46489E-03-1.50066E-13 2.07638E-13
 -1      2062 2.03748E+01-1.48030E-01 3.01635E-03-4.07182E-02-1.59402E-13 2.97884E-13
 -1      2063 2.01410E+01 6.67064E-03 2.65923E-03 7.40625E-02 1.88220E-13 1.51682E-13
 -1      2064 2.01602E+01-2.18654E-02-4.98325E-03 7.00587E-02-3.89409E-14 2.11985E-13
 -1      2065 2.02751E+01-5.82574E-02 1.05095E-03 8.49476E-02 2.33826E-14 2.06606E-13
 -1      2066 2.00574E+01 3.35118E-02 1.42022E-03 4.80727E-02 1.28433E-13 7.54024E-14
 -1      2067 2.00828E+01 2.12958E-02-2.62309E-03 6.60412E-02 2.47005E-13 2.47525E-13
 -1      2068 2.01605E+01 6.07337E-03-2.02379E-03 1.05004E-01 1.58847E-13 1.58212E-13
 -1      2069 2.00634E+01 4.85590E-02-2.43829E-04 6.40848E-02 1.33256E-13 5.34673E-13
 -1      2070 2.01964E+01 5.30430E-01 1.00653E-02 5.43130E-01 1.04218E-13-3.12530E-13
 -1      2071 2.01789E+01 3.51527E-01 3.26801E-03 4.35939E-01 4.72728E-15-3.46734E-13
 -1      2072 2.01596E+01 2.73170E-01 9.67518E-03 3.13398E-01 7.20782E-14-3.94362E-13
 -1      2073 2.01297E+01 1.58875E-01 2.02591E-04 2.28846E-01 5.71158E-14 2.02483E-13
 -1      2074 2.02497E+01 2.16912E-01-5.62224E-03 4.73683E-01-1.55553E-14-2.13055E-13
 -1      2075 2.00880E+01 1.04198E-01 5.09984E-03 1.14819E-01 9.30384E-14 5.32432E-13
 -1      2076 2.01975E+01 9.10982E-01 7.81618E-03 7.96036E-01-5.12439E-14-2.39766E-13
 -1      2077 2.02015E+01 6.60519E-01 4.21578E-03 6.84746E-01-3.50689E-14-2.02134E-13
 -1      2078 2.02917E+01 4.29963E-01-6.58389E-03 7.66489E-01-6.35767E-14-4.16253E-13
 -1      2079 2.01413E+01 1.42977E+00 2.56267E-03 1.02255E+00 4.10384E-14 1.69717E-13
 -1      2080 2.01777E+01 1.10967E+00 4.80599E-03 9.32681E-01 5.63395E-15 1.87237E-14
 -1      2081 2.02723E+01 7.61230E-01-7.15620E-03 1.07935E+00-1.04884E-13 4.12669E-15
 -1      2082 2.00174E+01 2.04451E+00-5.25895E-03 1.13668E+00-1.42278E-13-6.42717E-14
 -1      2083 2.00897E+01 1.69106E+00 4.29283E-03 1.10740E+00-1.08186E-13 6.96679E-14
 -1      2084 2.01624E+01 1.22268E+00-6.00357E-03 1.33117E+00-6.51072E-14-9.37878E-15
 -1      2085 1.98399E+01 2.67372E+00-1.36474E-02 1.05666E+00-2.03889E-13-5.62649E-14
 -1      2086 1.99368E+01 2.34189E+00 1.85286E-03 1.12144E+00-2.14016E-13 1.09830E-13
 -1      2087 1.99577E+01 1.78145E+00-1.92637E-03 1.41521E+00-2.15996E-13 9.00853E-14
 -1      2088 1.96533E+01 3.19622E+00-1.96884E-02 7.36574E-01-2.42215E-14 3.24536E-13
 -1      2089 1.97480E+01 2.95375E+00-2.82119E-03 9.07824E-01-1.04629E-13 6.42368E-14
 -1      2090 1.96910E+01 2.35813E+00 4.89884E-03 1.23687E+00-4.20459E-13-2.61054E-14
 -1      2091 1.95214E+01 3.48051E+00-2.08711E-02 2.01521E-01 5.08478E-14-3.83461E-14
 -1      2092 1.95800E+01 3.38946E+00-8.93792E-03 4.57721E-01-7.64003E-14 3.16426E-13
 -1      2093 1.94353E+01 2.82982E+00 1.24256E-02 7.59490E-01-2.45770E-13 2.03797E-13
 -1      2094 1.95001E+01 3.43512E+00-1.64739E-02-4.30738E-01 6.91235E-14-2.98230E-13
 -1      2095 1.94959E+01 3.52655E+00-1.47902E-02-1.50425E-01-2.20898E-14-2.26309E-13
 -1      2096 1.92822E+01 3.06614E+00 1.75422E-02 4.96931E-02-9.11048E-14-1.88217E-13
 -1      2097 1.96089E+01 3.04175E+00-8.51089E-03-1.02279E+00 3.75022E-13 3.77047E-13
 -1      2098 1.95374E+01 3.31265E+00-1.74827E-02-7.81201E-01 2.34401E-13 3.16323E-13
 -1      2099 1.92975E+01 2.98779E+00 1.72517E-02-7.41767E-01 2.88329E-13 1.13522E-13
 -1      2100 1.98323E+01 2.37485E+00 1.33906E-03-1.40414E+00 2.51955E-13 8.95378E-14
 -1      2101 1.97051E+01 2.77431E+00-1.57229E-02-1.27359E+00 3.92380E-13-9.10075E-14
 -1      2102 1.94977E+01 2.59577E+00 1.14871E-02-1.41752E+00 2.66136E-13 2.04375E-13
 -1      2103 2.01169E+01 1.58006E+00 1.17167E-02-1.46186E+00-5.86588E-14 5.77086E-14
 -1      2104 1.99639E+01 2.02524E+00-1.03137E-02-1.48137E+00 7.60165E-14 3.06195E-13
 -1      2105 1.98622E+01 1.97973E+00 7.09123E-03-1.78745E+00-5.02671E-14 2.16008E-14
 -1      2106 1.97256E+01 1.78586E-01 1.26152E-02 3.27123E-01 4.97328E-14 6.27274E-13
 -1      2107 1.99804E+01 2.56102E-01 1.69765E-02 5.05227E-01 8.25572E-14 6.59814E-13
 -1      2108 2.01778E+01 4.15263E-01-3.90691E-04 7.32311E-01 1.06647E-13 5.26768E-13
 -1      2109 1.99077E+01 2.63748E-01-3.77486E-03 4.03304E-01 7.79021E-14 4.36996E-13
 -1      2110 1.16051E+01-5.61013E+00-1.41210E-01 7.01075E+00 1.72751E-13 9.74845E-14
 -1      2111 7.90676E+00-7.09786E+00-3.19708E-01 6.01442E+00 8.21010E-14 2.66495E-13
 -1      2112 2.89148E+01-3.97932E-01 1.41006E-01 6.00775E+00 9.50351E-14 6.42930E-13
 -1      2113 2.40369E+01-2.24362E+00-1.43758E-01 6.06860E+00 2.23044E-13 3.94462E-13
 -1      2114 3.43401E-01-7.52302E+00-3.36839E-01 1.29601E+00-1.21403E-13 1.29396E-13
 -1      2115 1.59559E-01-8.26787E+00-4.54649E-01-3.81073E-01-4.38538E-14 1.65645E-13
 -1      2116 2.01915E+01-2.98898E+00 2.14485E-02 7.35305E+00 3.73035E-13-1.04472E-13
 -1      2117 1.54864E+01-5.17758E+00-2.92362E-01 6.60308E+00 3.84470E-13-6.27276E-14
 -1      2118 1.95189E+01 4.01550E+00-2.69555E-02-1.70302E+00-4.61311E-14-3.06777E-13
 -1      2119 1.96466E+01 3.94618E+00-2.45414E-02-1.95458E+00-8.51793E-14-2.96641E-13
 -1      2120 1.99711E+01 3.24698E+00-1.39066E-02-1.91854E+00-1.14637E-13-2.63296E-13
 -1      2121 1.96977E+01 3.58499E+00-7.16231E-03-1.52073E+00-3.42137E-14-2.86490E-13
 -1      2122 3.59236E+01 3.18465E+00 2.51490E-01 3.91594E+00 2.09718E-13 5.33462E-13
 -1      2123 3.16842E+01 1.51513E+00-1.64208E-02 4.25352E+00 1.06609E-13 6.63691E-13
 -1      2124 3.83897E+01 6.08365E+00 1.19226E-01 1.17144E+00 1.61537E-13 4.17499E-13
 -1      2125 3.71550E+01 4.93149E+00 1.97087E-01 2.71612E+00 1.95233E-13 4.82392E-13
 -1      2126 3.43307E+01 3.54930E+00 2.32751E-01 5.59797E-01 1.55209E-13 3.79363E-13
 -1      2127 4.08981E+01 7.66971E+00 3.48688E-01-1.29062E-01 3.96072E-13 2.09239E-13
 -1      2128 3.90673E+01 7.61702E+00 1.30581E-01 7.84165E-01 3.15969E-13 3.12750E-13
 -1      2129 4.01204E+01 6.76042E+00 2.70108E-01-1.95279E+00 3.53773E-13 2.32814E-13
 -1      2130 4.12621E+01 7.26524E+00 2.95352E-01-5.85650E-01 3.89633E-13 2.23488E-13
 -1      2131 3.66642E+01 8.57172E+00 3.17197E-01 3.71326E-02 4.87610E-13-2.31620E-14
 -1      2132 3.46366E+01 3.87403E+00 1.50973E-02-2.59329E+00 3.22409E-13-5.07927E-14
 -1      2133 3.88969E+01 5.42911E+00 4.10238E-01-2.46037E+00 3.64264E-13 1.65701E-13
 -1      2134 2.82358E+01-3.83203E-01-4.80348E-02-5.06772E+00 2.76307E-13-3.75810E-13
 -1      2135 3.23573E+01 1.12388E+00 7.44978E-02-4.21276E+00 3.15359E-13-2.55518E-13
 -1      2136 2.00020E+01-3.20877E+00-2.38914E-01-6.53574E+00 2.47136E-13-4.40759E-13
 -1      2137 2.49425E+01-1.44293E+00 6.57573E-02-6.80977E+00 2.46581E-13-4.60187E-13
 -1      2138 1.23871E+01-5.54644E+00-3.17316E-01-6.55385E+00 1.47882E-13-4.11171E-13
 -1      2139 1.66575E+01-3.57018E+00-1.80718E-02-7.39102E+00 2.35478E-13-6.06404E-13
 -1      2140 2.10382E+01-4.73427E+00 3.89534E-02-6.68816E+00 2.58349E-13-5.46452E-13
 -1      2141 4.82659E+00-7.39014E+00-4.43968E-01-5.04888E+00-2.83384E-13-1.95455E-13
 -1      2142 8.04589E+00-5.68120E+00-1.87118E-01-6.42857E+00-7.47180E-14-3.01315E-13
 -1      2143 8.03125E-01-7.65233E+00-3.94760E-01-2.72785E+00-4.59077E-13-4.87888E-13
 -1      2144 2.40028E+00-7.27538E+00-3.52146E-01-4.06293E+00-3.79141E-13-2.87881E-13
 -1      2145 5.31000E+00-5.65785E+00-1.81051E-01-5.72944E+00-2.68174E-13-3.98181E-13
 -1      2146 4.47611E-01-7.84722E+00-4.09713E-01 9.90493E-01-4.78256E-13-1.51268E-13
 -1      2147 6.78068E-02-7.33277E+00-3.42600E-01-5.79357E-01-4.21385E-13-3.71925E-13
 -1      2148 4.58965E+00-6.50002E+00-2.21005E-01 4.25920E+00-5.84754E-13 5.28466E-14
 -1      2149 1.90867E+00-7.96061E+00-4.70783E-01 2.43578E+00-5.01543E-13 1.06470E-13
 -1      2150 2.74746E+00-5.00402E+00-1.31051E-01 2.45520E+00-2.17326E-13 7.32747E-15
 -1      2151 1.18342E+01-6.21927E+00-2.38289E-01 5.88071E+00-6.92002E-13-3.26822E-14
 -1      2152 8.58678E+00-7.08027E+00-2.74511E-01 5.35174E+00-7.70273E-13 1.27953E-14
 -1      2153 2.08868E+01-4.43836E+00-5.25794E-02 6.12380E+00-2.68785E-13 2.56295E-13
 -1      2154 1.55086E+01-6.09253E+00-3.90298E-01 5.47763E+00-5.77205E-13 1.08580E-13
 -1      2155 1.66573E+01-6.53477E+00-9.91181E-02 6.14433E+00-6.04183E-13 2.64413E-13
 -1      2156 3.06115E+01-1.39514E+00 1.87106E-01 4.62423E+00-4.75175E-14 1.52323E-13
 -1      2157 2.53876E+01-3.53551E+00-1.97104E-01 4.48881E+00-6.36158E-14 2.40752E-13
 -1      2158 3.76319E+01 1.93783E+00 3.61786E-01 2.97139E+00 1.85268E-15-1.32672E-13
 -1      2159 3.28958E+01 9.79609E-02-2.31356E-02 3.41209E+00 7.27196E-15-1.17906E-13
 -1      2160 3.23251E+01-2.14791E+00 1.62046E-01 1.55950E+00 1.03570E-13 3.98570E-14
 -1      2161 4.28568E+01 5.31306E+00 5.38891E-01 1.01357E+00-1.21625E-13-3.05755E-13
 -1      2162 3.98048E+01 4.11034E+00 3.06572E-01 1.78552E+00-2.14218E-13-1.68643E-13
 -1      2163 4.44673E+01 6.97760E+00 5.42900E-01-3.42143E-01 1.64091E-13-5.77594E-13
 -1      2164 4.36071E+01 6.61468E+00 5.21986E-01 5.26390E-01 1.62093E-14-5.47562E-13
 -1      2165 4.19449E+01 6.53520E+00 3.27217E-01-1.02646E+00-7.94920E-14-3.95461E-13
 -1      2166 4.42066E+01 7.07347E+00 6.19940E-01-4.99221E-01 1.73195E-14-4.67418E-13
 -1      2167 3.79960E+01 3.25919E+00 1.78764E-01-2.10967E+00 5.27356E-15-2.03726E-13
 -1      2168 4.09235E+01 4.81139E+00 3.70883E-01-1.28232E+00-4.93494E-14-2.54297E-13
 -1      2169 3.14991E+01-7.21259E-01-4.98915E-02-3.57078E+00 4.11615E-14-6.97220E-14
 -1      2170 3.63491E+01 1.37079E+00 2.95895E-01-3.47610E+00 2.05669E-14-1.70752E-13
 -1      2171 2.24659E+01-4.54516E+00-2.39321E-01-5.54016E+00-2.48135E-14 1.28231E-14
 -1      2172 2.78448E+01-2.85849E+00 3.31449E-02-5.42123E+00 9.71445E-14 1.79190E-13
 -1      2173 1.28103E+01-6.71321E+00-4.40885E-01-5.84586E+00-2.11497E-13-3.62543E-13
 -1      2174 1.78185E+01-4.90239E+00-1.16835E-01-6.79405E+00-3.39617E-13-2.43139E-13
 -1      2175 5.33524E+00-8.23209E+00-5.25091E-01-4.50568E+00 3.18023E-13 2.38587E-13
 -1      2176 8.72384E+00-6.65574E+00-2.81617E-01-5.77722E+00 1.77192E-13-1.40631E-13
 -1      2177 7.86491E-01-8.65681E+00-4.90364E-01-1.82266E+00 1.04444E-13 1.72751E-13
 -1      2178 2.28872E+00-7.92035E+00-4.20182E-01-3.24831E+00 1.20237E-13 1.84852E-13
 -1      2179 1.67749E+00-5.62378E+00-2.33782E-01-1.48283E+00 1.21417E-13 6.52811E-14
 -1      2180 4.21172E+00-6.71800E+00-2.33741E-01 5.06400E+00 1.43996E-13 3.02425E-13
 -1      2181 1.81420E+00-7.80728E+00-4.02800E-01 3.30575E+00-4.21052E-14 3.47555E-13
 -1      2182 2.04728E+01 7.71967E-01 2.26823E-03-1.23004E+00 6.24769E-14-1.29863E-13
 -1      2183 2.43178E+01-4.27353E+00 6.95326E-02 5.94312E+00 2.71561E-13 3.27072E-13
 -1      2184 2.07364E+01 1.10844E+00-2.07624E-02-1.61592E+00-1.75252E-13-8.98726E-14
 -1      2185 1.60486E+01-5.97617E+00-7.40634E-02 7.31514E+00 1.88072E-13 1.74027E-14
 -1      2186 3.09284E+01-9.24675E-01 1.65088E-01 3.02270E+00 1.28730E-13 5.91416E-13
 -1      2187 2.06269E+01 1.33010E+00-1.86485E-02-1.67779E+00-1.79972E-13-1.43914E-13
 -1      2188 2.01699E+01 9.10416E-02 1.95706E-03 2.07855E-01 2.76583E-14 4.82532E-13
 -1      2189 2.44681E+00-5.33495E+00-1.50218E-01 2.77167E+00-8.63198E-14 3.06033E-13
 -1      2190 2.03730E+01 1.09574E+00-1.46215E-03-1.39039E+00-5.11266E-14-8.20823E-14
 -1      2191 7.88961E+00-6.01482E+00-1.13772E-01 6.40584E+00-1.26010E-14 2.62013E-13
 -1      2192 2.04160E+01 1.14611E+00 3.54834E-03-1.80551E+00-7.06666E-14-3.18825E-14
 -1      2193 5.47127E+00-6.48381E+00-2.29375E-01-4.95697E+00 3.74922E-13 8.63754E-14
 -1      2194 1.33777E+01-6.66645E+00-1.21734E-01-6.72040E+00 9.19265E-14-2.32488E-13
 -1      2195 2.25600E+01-5.93622E+00 2.57033E-02-5.79913E+00-1.46494E-13-1.61565E-13
 -1      2196 3.06916E+01-3.21347E+00 9.59180E-02-2.73945E+00 7.07490E-14-1.15241E-13
 -1      2197 3.58326E+01 1.52368E+00 2.50675E-01-3.18612E-02 4.65739E-14-2.22322E-13
 -1      2198 3.82663E+01 5.73672E+00 3.27175E-01 6.53794E-01-6.41709E-14-4.73899E-13
 -1      2199 3.96160E+01 7.93966E+00 5.02574E-01-3.57103E-01 7.93254E-14-5.62179E-13
 -1      2200 3.69977E+01 2.27274E+00 3.21268E-01-2.58180E-01-1.01558E-13-2.88936E-13
 -1      2201 2.53514E+01-5.30172E+00 5.88357E-03 4.39226E+00-7.50511E-14 5.01321E-13
 -1      2202 7.93417E+00-6.21197E+00-1.31493E-01 5.23498E+00-5.16365E-13 3.91631E-14
 -1      2203 7.81221E+00-4.53576E+00 1.15863E-01 5.26694E+00-3.06977E-13 1.98730E-14
 -1      2204 1.14058E+01-5.72434E+00-1.23505E-01 6.26512E+00-3.82361E-13 1.04139E-13
 -1      2205 1.60904E+00-5.27047E+00-1.90725E-01-1.92122E+00-2.15425E-13-4.12226E-13
 -1      2206 1.26128E+01-5.74198E+00-9.52550E-02-7.32559E+00 1.27343E-13-5.92679E-13
 -1      2207 2.78709E+01-2.56680E+00 1.68980E-01-4.40136E+00 3.45696E-13-3.90743E-13
 -1      2208 3.59114E+01 6.52290E+00 2.44343E-01 9.10477E-02 4.47975E-13 3.26295E-13
 -1      2209 3.57617E+01 7.18468E+00 1.87482E-01-1.54671E-01 2.43749E-13 1.60288E-13
 -1      2210 3.28658E+01 1.55165E+00 8.67249E-02-1.31237E+00 3.75810E-13-3.71370E-14
 -1      2211 3.95760E+01 6.47362E+00 4.92937E-01-9.87452E-01 7.16094E-15-5.37848E-13
 -1      2212 1.95599E+01 3.51606E+00-1.10967E-02-5.91596E-01 8.71089E-14-2.51412E-13
 -1      2213 1.95953E+01 3.47021E+00-1.04706E-02-7.75980E-01 5.53162E-14-2.73974E-13
 -1      2214 1.96420E+01 3.38222E+00-1.26904E-02-9.40354E-01 3.52754E-14-2.81412E-13
 -1      2215 1.97029E+01 3.30135E+00-1.27261E-02-1.12985E+00 5.28700E-15-2.66456E-13
 -1      2216 1.97866E+01 3.03318E+00 1.91737E-04-7.92394E-01 4.69142E-14-2.54947E-13
 -1      2217 1.95126E+01 3.59856E+00-9.61997E-03 9.94692E-02 1.64882E-13-2.04129E-13
 -1      2218 1.95119E+01 3.59938E+00-9.62394E-03-8.00606E-02 1.41102E-13-2.19586E-13
 -1      2219 1.95387E+01 3.55916E+00-9.72486E-03 4.45610E-01 2.06346E-13-1.70423E-13
 -1      2220 1.95212E+01 3.58173E+00-1.01396E-02 2.64736E-01 1.83383E-13-1.87463E-13
 -1      2221 1.96787E+01 3.22127E+00-9.02890E-04 1.69638E-01 1.60224E-13-1.77698E-13
 -1      2222 1.96006E+01 3.46261E+00-1.06230E-02 7.89666E-01 2.30290E-13-1.34838E-13
 -1      2223 1.95643E+01 3.50965E+00-1.12143E-02 6.08178E-01 2.15611E-13-1.55410E-13
 -1      2224 1.97156E+01 3.15779E+00-5.04645E-04 4.88160E-01 1.99064E-13-1.49130E-13
 -1      2225 1.97115E+01 3.28877E+00-1.29535E-02 1.14306E+00 2.68972E-13-4.60751E-14
 -1      2226 1.96487E+01 3.37219E+00-1.28927E-02 9.53720E-01 2.45407E-13-9.93910E-14
 -1      2227 1.97927E+01 3.02420E+00 2.69432E-04 8.03870E-01 2.30891E-13-1.00870E-13
 -1      2228 1.98910E+01 3.00300E+00-1.81511E-02 1.49009E+00 2.71857E-13 4.02196E-14
 -1      2229 1.97912E+01 3.14410E+00-1.52671E-02 1.29982E+00 2.63834E-13-1.14882E-14
 -1      2230 1.99223E+01 2.79902E+00 2.02591E-03 1.10995E+00 2.49912E-13-2.75652E-14
 -1      2231 2.01675E+01 2.53714E+00-2.87172E-02 1.78659E+00 2.65384E-13 1.63187E-13
 -1      2232 2.00147E+01 2.78340E+00-1.80985E-02 1.62214E+00 2.58567E-13 8.93157E-14
 -1      2233 2.01174E+01 2.44783E+00 5.83504E-03 1.37796E+00 2.39672E-13 6.57530E-14
 -1      2234 2.05850E+01 1.79489E+00-2.65802E-02 1.89092E+00 2.19226E-13 3.58494E-13
 -1      2235 2.03639E+01 2.22505E+00-1.08117E-02 1.85324E+00 2.41893E-13 2.43101E-13
 -1      2236 2.03882E+01 1.91170E+00 1.40472E-02 1.53247E+00 2.29893E-13 1.97944E-13
 -1      2237 2.07920E+01 1.06701E+00-1.78384E-02 1.59082E+00 1.80356E-13 5.19505E-13
 -1      2238 2.06785E+01 1.53573E+00 8.82069E-04 1.79206E+00 2.02751E-13 4.29988E-13
 -1      2239 2.05041E+01 1.27985E+00 4.42235E-04 1.42074E+00 1.94948E-13 3.43277E-13
 -1      2240 2.04494E+01 7.43410E-01-1.85707E-03 1.11167E+00 1.60087E-13 4.88212E-13
 -1      2241 2.04021E+01 8.54661E-01 1.31445E-02-1.00037E+00-1.44727E-13-1.25488E-13
 -1      2242 2.01898E+01 6.26607E-01-4.67311E-03-6.91598E-01-1.20635E-13-1.25648E-13
 -1      2243 1.94252E+01-5.76760E+00-2.01232E-02 7.22017E+00 3.21465E-13 1.35204E-13
 -1      2244 1.55266E+01-5.90495E+00 4.51071E-02 7.35267E+00 1.61537E-14 1.63279E-13
 -1      2245 2.60168E+01-4.63184E+00-1.06476E-01 4.92079E+00 3.01759E-13 5.80397E-13
 -1      2246 2.27678E+01-5.47023E+00 1.95359E-02 5.96234E+00 3.46223E-13 2.13107E-13
 -1      2247 2.20588E+01-5.81379E+00 7.85761E-02 6.22126E+00 3.32123E-13 2.17319E-13
 -1      2248 2.01247E+01 4.69490E-01 1.62613E-02-4.75344E-01-8.56559E-14-9.84978E-14
 -1      2249 1.99833E+01 3.44442E-01 2.76028E-05-3.03769E-01-3.56555E-14-1.06834E-13
 -1      2250 2.02437E+01 7.46312E-01-1.76326E-03-6.94175E-01-1.06131E-13-1.23672E-13
 -1      2251 1.99200E+01 2.59380E-01 1.08797E-02-1.66287E-01-3.20973E-14-8.63217E-14
 -1      2252 1.98412E+01 1.87862E-01 7.06644E-04-6.91492E-02-3.97436E-14-8.33025E-14
 -1      2253 2.00801E+01 4.16261E-01-3.66866E-03-3.10610E-01-3.40266E-14-1.13541E-13
 -1      2254 1.97968E+01 1.38374E-01 6.39113E-03 1.28185E-02-4.83450E-14-6.94544E-14
 -1      2255 1.97616E+01 9.60440E-02 7.12412E-04 6.60491E-02-3.67156E-14-8.39663E-14
 -1      2256 1.99594E+01 2.27005E-01-3.63062E-03-7.18264E-02-3.79005E-14-1.05137E-13
 -1      2257 1.97357E+01 6.61457E-02 3.57737E-03 1.11684E-01-1.16726E-14-9.36225E-14
 -1      2258 1.97282E+01 4.06161E-02 6.13620E-04 1.38171E-01-4.75341E-16-8.82473E-14
 -1      2259 1.98836E+01 1.14617E-01-2.93493E-03 6.87060E-02-3.51189E-14-8.81340E-14
 -1      2260 1.97165E+01 2.23731E-02 1.85689E-03 1.60347E-01-3.81359E-14-9.77002E-14
 -1      2261 1.97256E+01 7.14993E-03 4.97446E-04 1.70415E-01-5.57737E-14-1.04657E-13
 -1      2262 1.98438E+01 4.65030E-02-2.12623E-03 1.44767E-01-2.94384E-14-8.91171E-14
 -1      2263 1.97236E+01-3.72170E-03 7.96543E-04 1.77768E-01-4.92298E-14-1.39356E-13
 -1      2264 1.97416E+01-1.23389E-02 3.87666E-04 1.77938E-01-5.18524E-14-1.51287E-13
 -1      2265 1.98297E+01 5.49180E-03-1.44128E-03 1.79266E-01-7.02045E-14-1.60678E-13
 -1      2266 1.97457E+01-1.83764E-02 1.47935E-04 1.76306E-01-6.77874E-14-1.16739E-13
 -1      2267 1.97679E+01-2.26607E-02 2.95860E-04 1.70846E-01-8.66994E-14-1.33619E-13
 -1      2268 1.98322E+01-1.81522E-02-9.26977E-04 1.87735E-01-5.17284E-14-1.78289E-13
 -1      2269 1.97756E+01-2.54419E-02-2.26933E-04 1.64190E-01-8.08190E-14-1.25867E-13
 -1      2270 1.97989E+01-2.68858E-02 2.47499E-04 1.55970E-01-8.66421E-14-1.08216E-13
 -1      2271 1.98448E+01-3.03875E-02-5.66553E-04 1.80754E-01-8.47886E-14-1.27911E-13
 -1      2272 1.98090E+01-2.74391E-02-4.19133E-04 1.46512E-01-6.66383E-14-8.42222E-14
 -1      2273 1.98326E+01-2.69221E-02 2.12709E-04 1.36991E-01-2.56281E-14-7.84484E-14
 -1      2274 1.98633E+01-3.49560E-02-3.37809E-04 1.65103E-01-5.72739E-14-6.53220E-14
 -1      2275 1.98427E+01-2.59628E-02-5.28632E-04 1.27615E-01-1.35273E-14-9.92351E-14
 -1      2276 1.98639E+01-2.40946E-02 2.15635E-04 1.19004E-01 2.05766E-14-1.12725E-13
 -1      2277 1.98844E+01-3.43154E-02-1.69454E-04 1.46183E-01-1.52213E-14-4.52033E-14
 -1      2278 1.98741E+01-2.21701E-02-5.42897E-04 1.10567E-01-1.33115E-14-1.16659E-13
 -1      2279 1.98937E+01-1.93769E-02 2.53864E-04 1.03354E-01-1.60370E-14-1.16469E-13
 -1      2280 1.99058E+01-3.01308E-02-9.22116E-05 1.28046E-01-4.04546E-15-6.48268E-14
 -1      2281 1.99039E+01-1.66986E-02-5.10924E-04 9.67560E-02-2.35618E-14-1.35754E-13
 -1      2282 1.99222E+01-1.31896E-02 3.24935E-04 9.16154E-02-6.98828E-14-1.52314E-13
 -1      2283 1.99272E+01-2.34993E-02-6.72631E-05 1.12659E-01-5.54538E-14-1.79637E-13
 -1      2284 1.99324E+01-9.87151E-03-4.54994E-04 8.75746E-02-6.69243E-14-1.72402E-13
 -1      2285 1.99502E+01-5.69216E-03 4.35401E-04 8.50717E-02-3.65604E-15-1.74746E-13
 -1      2286 1.99485E+01-1.49301E-02-8.15328E-05 1.01811E-01-6.45443E-14-2.14901E-13
 -1      2287 1.99608E+01-1.73080E-03-3.88675E-04 8.42265E-02 7.83916E-14-1.49630E-13
 -1      2288 1.99790E+01 3.19681E-03 5.92775E-04 8.49161E-02 8.29408E-14-1.41568E-13
 -1      2289 1.99702E+01-4.57292E-03-1.25770E-04 9.69793E-02 7.62212E-14-1.47663E-13
 -1      2290 1.99904E+01 7.90974E-03-3.22529E-04 8.79280E-02 1.74554E-14-1.23683E-13
 -1      2291 2.00103E+01 1.37792E-02 8.07437E-04 9.24421E-02-3.43260E-14-1.24190E-13
 -1      2292 1.99932E+01 7.73984E-03-1.93181E-04 9.95670E-02 7.69199E-14-1.13053E-13
 -1      2293 2.00231E+01 1.94537E-02-2.65196E-04 1.00084E-01-9.49823E-14-1.00560E-13
 -1      2294 2.00464E+01 2.65764E-02 1.09337E-03 1.09213E-01-5.65422E-14-1.53812E-13
 -1      2295 2.00186E+01 2.24679E-02-2.77949E-04 1.11104E-01-6.33453E-14-9.90401E-14
 -1      2296 2.00613E+01 3.35298E-02-2.25058E-04 1.22453E-01-5.58512E-14-1.58289E-13
 -1      2297 2.00897E+01 4.23467E-02 1.46865E-03 1.37226E-01-6.10169E-14-1.93815E-13
 -1      2298 2.00478E+01 4.03652E-02-3.73677E-04 1.33426E-01-1.04162E-13-1.22493E-13
 -1      2299 2.01076E+01 5.10168E-02-2.11900E-04 1.57311E-01 3.63619E-14-1.38340E-13
 -1      2300 2.01435E+01 6.21185E-02 1.95575E-03 1.79088E-01 8.79164E-14-5.24469E-14
 -1      2301 2.00824E+01 6.25060E-02-4.71519E-04 1.68847E-01 1.03935E-14-5.38926E-14
 -1      2302 2.01649E+01 7.30816E-02-2.38779E-04 2.07628E-01 7.78007E-14-6.88222E-14
 -1      2303 2.02110E+01 8.72295E-02 2.58086E-03 2.38189E-01 1.13843E-13-3.04365E-14
 -1      2304 2.01243E+01 9.03262E-02-5.57910E-04 2.20322E-01 1.07205E-13-1.11678E-13
 -1      2305 2.02367E+01 1.01214E-01-3.24413E-04 2.77246E-01 7.03847E-14-4.69041E-14
 -1      2306 2.02962E+01 1.19346E-01 3.37000E-03 3.18887E-01 2.46322E-14-8.58592E-14
 -1      2307 2.01749E+01 1.25666E-01-6.12143E-04 2.91616E-01 2.62374E-14-7.25952E-14
 -1      2308 2.03266E+01 1.37255E-01-4.85339E-04 3.71063E-01 5.73428E-14-1.15628E-13
 -1      2309 2.04034E+01 1.60495E-01 4.46637E-03 4.26598E-01 8.15863E-14-2.36254E-13
 -1      2310 2.02358E+01 1.70771E-01-6.07291E-04 3.87439E-01 4.90725E-14-1.31874E-13
 -1      2311 2.04405E+01 1.84526E-01-7.85427E-04 4.98589E-01 8.77287E-14-3.06867E-13
 -1      2312 2.05433E+01 2.15401E-01 5.72950E-03 5.76118E-01 1.31030E-13-3.16410E-13
 -1      2313 2.03094E+01 2.29403E-01-6.83288E-04 5.17320E-01 6.46325E-14-3.13549E-13
 -1      2314 2.05819E+01 2.43820E-01-1.16763E-03 6.65470E-01 1.51935E-13-3.01004E-13
 -1      2315 2.07065E+01 2.79850E-01 6.92999E-03 7.60755E-01 7.14858E-14-3.16808E-13
 -1      2316 2.03943E+01 3.03918E-01-2.05678E-04 6.85865E-01 1.52550E-13-3.91774E-13
 -1      2317 2.07477E+01 3.13495E-01-1.76635E-03 8.73931E-01 4.35481E-15-2.68157E-13
 -1      2318 2.09026E+01 3.54942E-01 8.34645E-03 9.93668E-01-1.90768E-14-1.51532E-13
 -1      2319 2.04859E+01 3.91738E-01 3.00677E-04 8.95423E-01 3.91121E-14-3.39019E-13
 -1      2320 2.09442E+01 3.90908E-01-2.39660E-03 1.13374E+00 2.28708E-14-1.57250E-13
 -1      2321 2.11338E+01 4.32261E-01 9.54060E-03 1.27873E+00-7.10629E-15-1.61632E-13
 -1      2322 2.05828E+01 4.90642E-01 9.47653E-04 1.15589E+00 4.26070E-14-6.73651E-14
 -1      2323 2.11759E+01 4.62119E-01-2.84152E-03 1.44641E+00-1.31539E-13-1.96383E-13
 -1      2324 2.14047E+01 4.89428E-01 1.00791E-02 1.61135E+00-1.56450E-13-1.69481E-13
 -1      2325 2.06821E+01 5.86090E-01 1.48033E-03 1.47062E+00-5.62529E-14-1.18108E-13
 -1      2326 2.14544E+01 4.93717E-01-2.41589E-03 1.80182E+00-1.56661E-13-1.53401E-13
 -1      2327 2.17290E+01 4.77188E-01 9.33837E-03 1.96871E+00-1.55348E-13-2.01082E-13
 -1      2328 2.07862E+01 6.42102E-01 1.15017E-03 1.83566E+00-1.77766E-13-1.06495E-13
 -1      2329 2.18119E+01 4.17483E-01 5.26090E-04 2.16580E+00-2.01145E-13-3.20284E-13
 -1      2330 2.21453E+01 3.02457E-01 6.69637E-03 2.29377E+00-2.60651E-13-2.75735E-13
 -1      2331 2.09173E+01 5.84079E-01-1.59888E-03 2.23250E+00-3.07798E-13-2.25002E-13
 -1      2332 2.23264E+01 1.14704E-01 9.35155E-03 2.45834E+00-2.05554E-13-1.29200E-13
 -1      2333 2.27458E+01-1.79725E-01 2.32885E-03 2.47130E+00-8.81396E-14-2.01070E-13
 -1      2334 2.11460E+01 2.78588E-01-8.97749E-03 2.61496E+00-1.74685E-13-9.19063E-14
 -1      2335 2.31508E+01-5.73123E-01 2.88816E-02 2.52335E+00 7.70954E-15-2.19702E-13
 -1      2336 2.37093E+01-1.12459E+00-1.58488E-03 2.30321E+00 5.76969E-15-2.05198E-13
 -1      2337 2.16348E+01-4.62404E-01-2.20466E-02 2.88164E+00-8.43414E-14 7.26155E-14
 -1      2338 2.45389E+01-1.76684E+00 5.77383E-02 2.09373E+00-3.49269E-14-2.04108E-13
 -1      2339 2.52458E+01-2.49596E+00-1.22539E-02 1.50915E+00 3.51455E-14-2.26204E-13
 -1      2340 2.26466E+01-1.81400E+00-5.21332E-02 2.83966E+00 2.19495E-14-1.86726E-14
 -1      2341 2.67088E+01-3.10772E+00 8.26274E-02 6.74529E-01 5.29993E-14-2.86921E-13
 -1      2342 2.73041E+01-3.51277E+00-6.53375E-02-3.03363E-01-5.91437E-14-2.11511E-13
 -1      2343 2.48894E+01-3.67581E+00-7.93683E-02 2.13486E+00-6.22419E-14-1.04527E-13
 -1      2344 3.05718E+01-3.90902E-01-1.93503E-01-3.58369E+00 5.99798E-14 9.71445E-16
 -1      2345 3.06303E+01 1.89187E+00-9.12811E-02-3.51232E+00 2.85577E-13-1.65562E-14
 -1      2346 3.06601E+01 3.73890E+00-2.36576E-01-2.76604E+00 2.92488E-13-1.16518E-13
 -1      2347 3.06354E+01 5.18887E+00-1.21536E-01-1.33230E+00 1.54876E-13-1.57867E-13
 -1      2348 3.06122E+01 1.82060E+00-8.46162E-02 2.93649E+00-5.91194E-14-3.01759E-13
 -1      2349 3.04234E+01-5.97030E-01-1.62813E-01 3.02562E+00-2.77556E-15-2.80234E-13
 -1      2350 2.91072E+01-2.27995E+00-6.04289E-02 2.08697E+00-1.41640E-13-3.82215E-13
 -1      2351 2.85623E+01-3.23782E+00-3.26955E-02 1.09148E+00 2.95647E-14-4.72865E-13
 -1      2352 3.08496E+01-1.89078E+00-9.94888E-02 1.85151E+00-7.67095E-14-1.86073E-13
 -1      2353 2.69141E+01-3.31499E+00-4.45054E-02-1.79407E-01 1.12056E-13-6.15327E-13
 -1      2354 2.61569E+01-2.93705E+00 4.97998E-02-1.16131E+00 5.57644E-14-5.49321E-13
 -1      2355 2.76208E+01-4.05016E+00-5.36799E-02-4.70784E-01-3.62921E-14-4.89588E-13
 -1      2356 2.47944E+01-2.35046E+00-3.04735E-02-1.91987E+00-1.50734E-13-3.76413E-13
 -1      2357 2.40815E+01-1.64155E+00 4.75823E-02-2.49523E+00-2.09005E-13-3.79953E-13
 -1      2358 2.46875E+01-3.27493E+00-5.13292E-02-2.35059E+00 5.16254E-15-6.62361E-13
 -1      2359 2.32384E+01-1.07520E+00-1.63141E-02-2.75314E+00-1.41550E-13-2.25847E-13
 -1      2360 2.26555E+01-5.27022E-01 2.59134E-02-2.96034E+00-2.20219E-14-2.28684E-13
 -1      2361 2.26917E+01-1.69022E+00-4.10511E-02-3.18379E+00-7.54110E-14-2.65352E-13
 -1      2362 2.22021E+01-1.58195E-01-4.94938E-03-2.93169E+00-4.98646E-15-2.14280E-13
 -1      2363 2.17366E+01 1.75723E-01 1.29712E-02-2.89489E+00 3.53884E-16-1.51901E-13
 -1      2364 2.15735E+01-4.22558E-01-2.23583E-02-3.30733E+00-2.90991E-14-1.14325E-13
 -1      2365 2.14928E+01 3.90114E-01 3.26281E-03-2.71280E+00 2.85026E-14 3.75329E-15
 -1      2366 2.11219E+01 5.87305E-01 1.13316E-02-2.52744E+00 1.39318E-13 8.74138E-14
 -1      2367 2.09687E+01 3.60109E-01-1.03394E-02-3.05252E+00 1.49389E-13 3.11215E-13
 -1      2368 2.08721E+01 7.87383E-01 9.10802E-03-2.34235E+00 9.60686E-14 7.72318E-14
 -1      2369 2.05779E+01 9.42154E-01 1.22866E-02-2.05135E+00 4.39692E-14 8.22287E-14
 -1      2370 2.01418E+01 1.35207E+00-1.53743E-02-2.14741E+00-1.51695E-13 1.06378E-13
 -1      2371 2.04857E+01 8.73515E-01-1.29864E-02-2.64213E+00-1.50416E-14 3.33234E-13
 -1      2372 1.96967E+01 6.05862E-02 9.75806E-04-1.05741E-01 1.01620E-13 1.69549E-13
 -1      2373 1.97141E+01 9.11044E-02 5.02463E-03-6.85602E-02 1.08208E-13 1.89167E-13
 -1      2374 1.97503E+01 1.26740E-01 1.27577E-03-6.78578E-03 9.19724E-14 2.06863E-13
 -1      2375 1.98048E+01 1.77844E-01 8.85566E-03 6.42368E-02 8.74424E-14 2.32654E-13
 -1      2376 1.98800E+01 1.54512E-01-3.44563E-03-6.82405E-03 1.28855E-13 1.19708E-13
 -1      2377 1.98632E+01 2.39782E-01 1.71274E-03 1.71492E-01 8.90993E-14 2.49331E-13
 -1      2378 1.99671E+01 3.24846E-01 1.09552E-02 3.01093E-01 8.95204E-14 2.60210E-13
 -1      2379 1.99818E+01 2.92260E-01-4.23859E-03 1.78416E-01 1.10279E-13 1.59836E-13
 -1      2380 1.96838E+01 2.07434E-02 7.28465E-04-1.54921E-01 8.42829E-14 1.22120E-13
 -1      2381 1.96788E+01 3.90151E-02 2.68042E-03-1.38232E-01 8.74665E-14 1.45433E-13
 -1      2382 1.98232E+01 7.21877E-02-2.59588E-03-1.11880E-01 1.11935E-13 1.08245E-13
 -1      2383 1.96964E+01-2.95624E-03 5.28432E-04-1.73038E-01 8.68593E-14 1.23249E-13
 -1      2384 1.96788E+01 7.69506E-03 1.26099E-03-1.68792E-01 8.86263E-14 1.22456E-13
 -1      2385 1.97997E+01 2.25468E-02-1.79617E-03-1.64833E-01 8.98478E-14 1.33617E-13
 -1      2386 1.97235E+01-1.62677E-02 3.75818E-04-1.72316E-01 8.09313E-14 1.52746E-13
 -1      2387 1.96997E+01-1.05393E-02 3.97929E-04-1.75378E-01 6.05658E-14 1.37552E-13
 -1      2388 1.97984E+01-6.79120E-03-1.16679E-03-1.84761E-01 7.84780E-14 1.18013E-13
 -1      2389 1.97575E+01-2.27210E-02 2.69609E-04-1.60912E-01 6.38024E-14 1.67652E-13
 -1      2390 1.97316E+01-2.02365E-02-1.15991E-04-1.67903E-01 8.94873E-14 1.74403E-13
 -1      2391 1.98107E+01-2.30098E-02-7.12801E-04-1.84506E-01 5.49050E-14 1.35334E-13
 -1      2392 1.97938E+01-2.45954E-02 2.06491E-04-1.44333E-01 2.14214E-14 2.48566E-13
 -1      2393 1.97682E+01-2.42648E-02-4.03314E-04-1.52995E-01 6.33284E-14 2.48175E-13
 -1      2394 1.98305E+01-3.05568E-02-4.03896E-04-1.72794E-01 3.58218E-14 1.76904E-13
 -1      2395 1.98296E+01-2.33981E-02 1.82094E-04-1.26319E-01 3.50347E-14 2.58606E-13
 -1      2396 1.98055E+01-2.45029E-02-5.41954E-04-1.35128E-01 4.10826E-14 2.50454E-13
 -1      2397 1.98539E+01-3.23126E-02-2.06315E-04-1.55583E-01 1.58710E-14 2.27999E-13
 -1      2398 1.98636E+01-2.01219E-02 1.92544E-04-1.09421E-01-5.48444E-14 2.42724E-13
 -1      2399 1.98414E+01-2.21941E-02-5.83997E-04-1.17342E-01-1.22916E-14 2.33395E-13
 -1      2400 1.98783E+01-3.01778E-02-9.18071E-05-1.36957E-01 2.00157E-14 2.77915E-13
 -1      2401 1.98953E+01-1.54003E-02 2.35156E-04-9.54013E-02-1.17667E-14 1.65951E-13
 -1      2402 1.98750E+01-1.81478E-02-5.64996E-04-1.01718E-01-2.39775E-14 1.76342E-13
 -1      2403 1.99025E+01-2.53978E-02-3.86488E-05-1.19728E-01 1.61564E-15 1.73272E-13
 -1      2404 1.99254E+01-9.61256E-03 3.08308E-04-8.55201E-02 4.95361E-15 8.66469E-14
 -1      2405 1.99065E+01-1.28671E-02-5.09241E-04-8.97147E-02-1.38787E-15 9.97413E-14
 -1      2406 1.99261E+01-1.87602E-02-3.07642E-05-1.05861E-01 4.70980E-14 1.78507E-14
 -1      2407 1.99548E+01-2.96534E-03 4.10757E-04-8.07305E-02 6.05643E-14 7.27728E-14
 -1      2408 1.99365E+01-6.64078E-03-4.33038E-04-8.24029E-02 1.29979E-14 9.37913E-14
 -1      2409 1.99492E+01-1.07323E-02-5.65578E-05-9.67820E-02 3.12983E-14-1.35453E-14
 -1      2410 1.99849E+01 4.43400E-03 5.40591E-04-8.18081E-02 1.53545E-13-2.35952E-14
 -1      2411 1.99662E+01 3.80040E-04-3.46899E-04-8.06255E-02 1.17307E-13 3.72645E-14
 -1      2412 1.99724E+01-1.56994E-03-1.07757E-04-9.35829E-02 1.10903E-13-4.23063E-14
 -1      2413 2.00174E+01 1.25026E-02 6.93761E-04-8.94135E-02 1.22962E-13-1.29774E-14
 -1      2414 1.99971E+01 8.10906E-03-2.57046E-04-8.50908E-02 1.42766E-13 1.76246E-14
 -1      2415 1.99970E+01 8.58212E-03-1.78386E-04-9.71567E-02 1.54721E-13-3.97251E-14
 -1      2416 2.00544E+01 2.10969E-02 8.62059E-04-1.04086E-01 8.17694E-14 6.16347E-14
 -1      2417 2.00313E+01 1.64461E-02-1.66403E-04-9.64001E-02 7.41947E-14 3.74404E-14
 -1      2418 2.00240E+01 1.95858E-02-2.64036E-04-1.08253E-01 9.25452E-14 7.04184E-14
 -1      2419 2.00980E+01 2.99077E-02 1.03048E-03-1.26158E-01-1.10102E-14 1.53709E-13
 -1      2420 2.00707E+01 2.51835E-02-7.51381E-05-1.15001E-01 4.64684E-14 9.08358E-14
 -1      2421 2.00551E+01 3.11884E-02-3.61255E-04-1.27456E-01 3.58836E-14 1.66897E-13
 -1      2422 2.01504E+01 3.83283E-02 1.17395E-03-1.55574E-01 4.16681E-14 1.96778E-13
 -1      2423 2.01176E+01 3.38897E-02 1.91285E-05-1.41058E-01 3.72059E-14 1.88169E-13
 -1      2424 2.00921E+01 4.28735E-02-4.67112E-04-1.55070E-01 8.37695E-15 1.40624E-13
 -1      2425 2.02139E+01 4.52934E-02 1.25370E-03-1.91595E-01 2.79795E-14 2.22248E-13
 -1      2426 2.01745E+01 4.17634E-02 1.21416E-04-1.74206E-01 1.95383E-14 2.67108E-13
 -1      2427 2.01368E+01 5.36751E-02-5.79014E-04-1.90894E-01 1.24574E-14 1.75171E-13
 -1      2428 2.02904E+01 4.90949E-02 1.21376E-03-2.32363E-01-5.17603E-14 3.57987E-13
 -1      2429 2.02435E+01 4.74598E-02 2.39619E-04-2.13194E-01 4.78692E-14 2.85854E-13
 -1      2430 2.01915E+01 6.19555E-02-6.94688E-04-2.33870E-01-4.39226E-14 3.11814E-13
 -1      2431 2.03814E+01 4.72040E-02 9.79186E-04-2.74331E-01-1.61814E-13 3.63663E-13
 -1      2432 2.03268E+01 4.89046E-02 3.84525E-04-2.55372E-01-7.39427E-14 3.64238E-13
 -1      2433 2.02581E+01 6.51620E-02-8.12127E-04-2.81579E-01-6.27436E-14 2.40759E-13
 -1      2434 2.04873E+01 3.61717E-02 4.58379E-04-3.11584E-01-1.10172E-13 3.51700E-13
 -1      2435 2.04258E+01 4.31411E-02 5.68795E-04-2.96050E-01-1.59426E-13 3.38890E-13
 -1      2436 2.03390E+01 5.96161E-02-9.28922E-04-3.29588E-01-1.02270E-13 3.69806E-13
 -1      2437 2.06072E+01 1.17452E-02-4.46064E-04-3.35153E-01-3.86103E-15 2.55390E-13
 -1      2438 2.05409E+01 2.63112E-02 8.03317E-04-3.27788E-01 3.23137E-15 2.54597E-13
 -1      2439 2.04361E+01 4.04494E-02-1.03962E-03-3.70697E-01-3.00800E-14 1.94447E-13
 -1      2440 2.07381E+01-3.05549E-02-1.81166E-03-3.32564E-01-2.48024E-14 1.76986E-13
 -1      2441 2.06710E+01-6.04671E-03 1.08810E-03-3.39766E-01-2.44980E-14 2.33371E-13
 -1      2442 2.05510E+01 1.90474E-03-1.12887E-03-3.94202E-01 1.75730E-14 1.96604E-13
 -1      2443 2.08738E+01-9.40458E-02-3.64714E-03-2.88074E-01-1.44117E-13 1.89245E-13
 -1      2444 2.08123E+01-5.80850E-02 1.39427E-03-3.17584E-01-1.03883E-13 1.50229E-13
 -1      2445 2.06843E+01-6.16412E-02-1.15713E-03-3.85461E-01-3.74112E-14 6.47384E-14
 -1      2446 2.10042E+01-1.78287E-01-5.81306E-03-1.84319E-01-1.73860E-14 2.33089E-13
 -1      2447 2.09571E+01-1.31729E-01 1.63519E-03-2.44082E-01-6.14331E-14 2.16678E-13
 -1      2448 2.08345E+01-1.53446E-01-1.03649E-03-3.26278E-01-1.12801E-13 2.28051E-13
 -1      2449 2.11136E+01-2.75133E-01-7.91162E-03-6.38076E-03 4.87451E-14 1.87005E-13
 -1      2450 2.10920E+01-2.23426E-01 1.63293E-03-1.02101E-01 8.71686E-14 2.32331E-13
 -1      2451 2.09960E+01-2.70500E-01-6.02435E-04-1.96969E-01 2.27806E-14 1.57392E-13
 -1      2452 2.11798E+01-3.64188E-01-9.20838E-03 2.50735E-01 9.41170E-14 2.30451E-13
 -1      2453 2.11964E+01-3.19717E-01 1.10963E-03 1.19670E-01 8.86977E-14 2.42326E-13
 -1      2454 2.11561E+01-3.98006E-01 3.93339E-04 1.86608E-02 1.06198E-14 1.02210E-13
 -1      2455 2.11756E+01-4.10416E-01-8.67820E-03 5.71143E-01 5.01192E-14 1.61240E-13
 -1      2456 2.12412E+01-3.93237E-01-2.95282E-04 4.16936E-01 8.49056E-14 1.38172E-13
 -1      2457 2.12915E+01-5.03806E-01 2.16243E-03 3.24121E-01 1.25163E-13 2.16596E-13
 -1      2458 2.10730E+01-3.69065E-01-5.31511E-03 9.06393E-01 1.12594E-13-2.46857E-14
 -1      2459 2.11926E+01-4.02974E-01-2.69313E-03 7.57347E-01 1.35916E-13 5.81257E-14
 -1      2460 2.13668E+01-5.37560E-01 4.56540E-03 6.96714E-01 2.14213E-13 5.72738E-14
 -1      2461 2.08561E+01-2.03934E-01 1.00063E-03 1.17064E+00 4.21724E-14 2.01076E-14
 -1      2462 2.10226E+01-3.04990E-01-5.61940E-03 1.07060E+00 2.57290E-14-3.58611E-15
 -1      2463 2.13399E+01-4.41203E-01 6.89614E-03 1.07338E+00 6.29006E-14 3.10060E-14
 -1      2464 2.05404E+01 8.11121E-02 8.35680E-03 1.25543E+00-3.43695E-14 7.49570E-14
 -1      2465 2.07301E+01-7.78415E-02-7.65971E-03 1.25268E+00 3.08889E-16-4.16151E-14
 -1      2466 2.11800E+01-1.79097E-01 7.23633E-03 1.34641E+00 7.98699E-15-4.16603E-14
 -1      2467 2.01894E+01 4.15274E-01 1.31395E-02 1.07446E+00 1.04495E-13-1.70599E-15
 -1      2468 2.03637E+01 2.44113E-01-6.86852E-03 1.19822E+00 1.93983E-14 5.41221E-14
 -1      2469 2.08997E+01 2.20966E-01 3.73680E-03 1.38668E+00 2.24590E-15-8.39485E-14
 -1      2470 1.99073E+01 6.71793E-01 1.21950E-02 6.25254E-01-1.02330E-13 3.23905E-15
 -1      2471 2.00245E+01 5.58108E-01-1.77806E-03 8.60367E-01 6.55448E-14 1.16912E-14
 -1      2472 2.05788E+01 6.43152E-01-3.37297E-03 1.10622E+00 1.51196E-14-1.83732E-14
 -1      2473 1.97951E+01 7.32769E-01 5.89351E-03 2.30651E-02-1.54601E-13 6.71045E-14
 -1      2474 1.98272E+01 7.30565E-01 6.22888E-03 3.03963E-01-1.65062E-13 2.39917E-14
 -1      2475 2.03452E+01 9.19881E-01-9.63888E-03 5.33490E-01-9.28732E-14 1.16123E-13
 -1      2476 1.98877E+01 5.66963E-01-1.99344E-03-5.39758E-01-1.46351E-13-5.58837E-14
 -1      2477 1.98337E+01 6.78706E-01 1.30264E-02-3.01272E-01-1.39106E-13-2.05615E-14
 -1      2478 2.03026E+01 9.25795E-01-9.60776E-03-1.62250E-01-1.59020E-13 2.50317E-14
 -1      2479 2.01288E+01 2.52220E-01-7.26525E-03-8.86985E-01 6.23433E-14-1.83616E-13
 -1      2480 2.00157E+01 4.24894E-01 1.44062E-02-7.59561E-01-1.18654E-13-1.49673E-13
 -1      2481 2.04566E+01 6.55535E-01-3.20761E-03-7.45504E-01-9.86123E-14-7.54662E-14
 -1      2482 2.04023E+01-7.27582E-02-8.17786E-03-9.48369E-01 1.09645E-13-3.39673E-13
 -1      2483 2.02718E+01 8.79061E-02 9.53596E-03-9.48476E-01 1.52228E-13-3.21163E-13
 -1      2484 2.07058E+01 2.31258E-01 3.81737E-03-1.03699E+00 1.04149E-13-1.91937E-13
 -1      2485 2.06041E+01-2.96912E-01-5.69169E-03-7.71944E-01 1.20039E-14-1.34204E-13
 -1      2486 2.04948E+01-1.98456E-01 1.84947E-03-8.68833E-01 8.28736E-14-2.93432E-13
 -1      2487 2.09178E+01-1.70826E-01 7.42821E-03-1.00371E+00 5.20458E-14-1.97719E-13
 -1      2488 2.06836E+01-3.77749E-01-1.87911E-03-4.71168E-01 1.09603E-13-2.68383E-14
 -1      2489 2.06180E+01-3.54748E-01-4.89328E-03-6.11899E-01 4.69113E-14-1.92891E-13
 -1      2490 2.10075E+01-4.24348E-01 7.27200E-03-7.36913E-01 1.78070E-14-3.48187E-13
 -1      2491 2.06430E+01-3.32747E-01 1.51065E-03-1.63664E-01 8.49277E-15 3.41206E-13
 -1      2492 2.06257E+01-3.70393E-01-8.75898E-03-2.97812E-01 1.09735E-13 1.37316E-13
 -1      2493 2.09586E+01-4.92085E-01 4.78257E-03-3.76851E-01-4.07940E-14-1.85914E-13
 -1      2494 2.05156E+01-2.07793E-01 3.97508E-03 6.70313E-02-1.97467E-13 4.26657E-13
 -1      2495 2.05382E+01-2.80872E-01-9.61020E-03-2.65368E-02-8.35449E-14 4.25731E-13
 -1      2496 2.08027E+01-4.06226E-01 2.16191E-03-4.75873E-02-7.86632E-14 3.14310E-13
 -1      2497 2.03473E+01-5.86509E-02 5.36559E-03 1.81602E-01 2.26497E-13 2.35276E-13
 -1      2498 2.03899E+01-1.38022E-01-8.97431E-03 1.41898E-01-5.00316E-15 4.44124E-13
 -1      2499 2.05904E+01-2.28717E-01 1.73909E-03 1.73451E-01-2.25346E-14 3.31989E-13
 -1      2500 2.02285E+01 4.69776E-02-1.65956E-03 2.24032E-01 5.41970E-14 3.88967E-13
 -1      2501 2.04283E+01 5.91501E-01 3.97430E-03 1.29872E+00-8.04323E-14 2.92977E-14
 -1      2502 2.04723E+01 3.97344E-01 4.28879E-03 1.13786E+00-1.16530E-13-8.18013E-14
 -1      2503 2.04830E+01 3.15009E-01 8.55956E-03 9.34838E-01-2.39641E-13-4.32318E-13
 -1      2504 2.04633E+01 1.78155E-01 1.56206E-03 7.69155E-01-1.32845E-13-4.94194E-13
 -1      2505 2.06217E+01 9.07682E-02-6.18084E-03 1.14814E+00-1.23759E-13-1.23674E-13
 -1      2506 2.04252E+01 1.53457E-01 1.00167E-02 5.83662E-01-3.54841E-14-3.11583E-13
 -1      2507 2.03777E+01 6.79802E-02 3.19583E-03 4.47480E-01 1.26102E-14-1.77359E-13
 -1      2508 2.05795E+01-2.27470E-02-5.71329E-03 7.36836E-01-1.68952E-13-6.21213E-13
 -1      2509 4.69791E+00-3.47753E+00 5.37501E-02 4.12977E+00-7.06935E-14 5.57832E-13
 -1      2510 3.37795E+00-3.20006E+00 9.15191E-02 1.60924E+00-1.22374E-13 2.03615E-13
 -1      2511 2.02206E+01 9.94924E-01-3.65559E-03 1.57908E+00-1.30150E-13-5.49517E-14
 -1      2512 2.03478E+01 7.54814E-01 7.73697E-03 1.47641E+00-9.08085E-14-1.92690E-14
 -1      2513 2.04995E+01 3.28216E-01-8.22124E-03 1.55618E+00-1.23490E-13-2.62260E-14
 -1      2514 1.98550E+01 1.50277E+00-1.32156E-02 1.64683E+00-3.24083E-13-8.38283E-15
 -1      2515 2.00607E+01 1.24476E+00 1.05751E-02 1.65998E+00-1.87377E-13-1.21019E-13
 -1      2516 2.01732E+01 7.20297E-01-7.62916E-03 1.84254E+00-2.31336E-13-1.31034E-13
 -1      2517 1.93982E+01 2.04165E+00-2.10295E-02 1.38835E+00-3.45613E-13 8.60982E-14
 -1      2518 1.96374E+01 1.81065E+00 9.91768E-03 1.55986E+00-4.75428E-13 1.44491E-13
 -1      2519 1.96584E+01 1.24715E+00-3.26429E-03 1.85191E+00-3.89575E-13 5.70933E-14
 -1      2520 1.89904E+01 2.48515E+00-2.27205E-02 7.70731E-01-3.05673E-13 1.31193E-13
 -1      2521 1.91847E+01 2.33400E+00 4.50222E-03 1.09815E+00-2.67051E-13 3.11445E-13
 -1      2522 1.90708E+01 1.81521E+00 5.23320E-03 1.46199E+00-1.63360E-13 3.36940E-13
 -1      2523 1.87902E+01 2.69715E+00-1.66718E-02-9.63706E-02 2.07953E-14-1.34863E-13
 -1      2524 1.88600E+01 2.66713E+00-5.04465E-03 3.18874E-01-1.44595E-13-9.99444E-14
 -1      2525 1.86024E+01 2.26420E+00 1.43351E-02 6.74097E-01-1.45742E-13 1.01943E-13
 -1      2526 1.88937E+01 2.59856E+00-6.20767E-03-1.03159E+00 2.06475E-13 3.49122E-13
 -1      2527 1.88006E+01 2.70483E+00-1.50313E-02-6.18597E-01 2.08609E-13-1.86435E-14
 -1      2528 1.84366E+01 2.44470E+00 1.82632E-02-3.70185E-01 1.10728E-13 1.48517E-13
 -1      2529 1.92960E+01 2.19482E+00 1.21723E-03-1.76481E+00 1.48560E-14-1.76591E-13
 -1      2530 1.90631E+01 2.42643E+00-2.00594E-02-1.47638E+00 8.09834E-14 3.13272E-13
 -1      2531 1.86654E+01 2.28823E+00 1.24010E-02-1.40737E+00-3.88990E-15 1.38216E-13
 -1      2532 1.98514E+01 1.64330E+00 7.90064E-03-2.09081E+00-2.02340E-13-5.99794E-15
 -1      2533 1.95386E+01 1.94911E+00-1.80245E-02-1.99881E+00-6.42871E-14-2.83155E-13
 -1      2534 1.92286E+01 1.89055E+00 1.03158E-02-2.11278E+00-1.45252E-13-1.05045E-13
 -1      2535 1.99510E+01 1.39640E+00 1.20360E-02-2.39650E+00-1.30399E-13-3.93300E-14
 -1      2536 5.58628E+00-4.57739E+00 3.39469E-02-4.50721E+00 1.70641E-13-1.09801E-13
 -1      2537 8.73581E+00-5.14451E+00 3.34747E-03-6.20308E+00 4.36928E-13 8.71803E-14
 -1      2538 2.05479E+01 1.95492E+00-1.37240E-02-1.89833E+00-1.55768E-13-2.00060E-13
 -1      2539 2.04108E+01 1.21469E+00-7.16700E-03-1.28738E+00-1.54791E-13-1.63903E-13
 -1      2540 2.03838E+01 1.38093E+00 8.06579E-03-1.23634E+00-1.29773E-13-1.57650E-13
 -1      2541 2.02895E+01 2.38446E+00-4.98843E-03-1.84236E+00-1.44120E-13-2.19207E-13
 -1      2542 3.10019E+01-8.81912E-01-1.31643E-01 1.31289E+00 1.80512E-13 4.54248E-13
 -1      2543 2.89711E+01-2.84477E+00 1.13937E-02 2.63639E+00 1.00725E-13 5.32463E-13
 -1      2544 3.22300E+00-3.18361E+00 8.38565E-02-8.65574E-01 5.94906E-14-1.17351E-13
 -1      2545 3.97766E+00-3.68142E+00 6.61746E-02-2.84511E+00 1.86240E-13-6.53366E-14
 -1      2546 2.58752E+01-4.31106E+00-3.95914E-02-4.22227E+00 1.37085E-13-3.57159E-13
 -1      2547 2.82977E+01-3.08660E+00-1.36345E-01-2.68274E+00 1.90931E-13-2.79637E-13
 -1      2548 1.95192E+01 3.58475E+00-1.00907E-02-2.45339E-01 1.31983E-13-2.20922E-13
 -1      2549 1.95352E+01 3.56408E+00-9.65546E-03-4.26100E-01 1.10604E-13-2.35177E-13
 -1      2550 1.97116E+01 3.16344E+00-5.74367E-04-4.73466E-01 9.31505E-14-2.18322E-13
 -1      2551 1.96773E+01 3.22337E+00-9.16617E-04-1.52042E-01 1.21607E-13-2.03345E-13
 -1      2552 3.05257E+01-3.11600E-01-3.77204E-02-8.66857E-01 3.31332E-13-5.02931E-14
 -1      2553 3.21467E+01 2.40748E+00-1.11539E-01 2.73079E-01 4.82336E-13 2.00590E-13
 -1      2554 3.22432E+01 3.37023E+00-1.94323E-01-6.83270E-01 1.65118E-13 1.29785E-13
 -1      2555 3.18045E+01 1.52829E+00-6.95361E-02-1.84371E-01 2.05350E-13 2.48135E-13
 -1      2556 3.28823E+01 7.47164E+00-1.51216E-01-5.33606E-01 2.85438E-13 2.71727E-14
 -1      2557 3.25825E+01 6.01481E+00-1.04029E-01-8.41633E-01 1.93290E-13 1.73750E-13
 -1      2558 3.32031E+01 7.56102E+00-1.25541E-01 5.43688E-01 4.95604E-13 7.01383E-14
 -1      2559 3.25807E+01 7.95331E+00-1.79893E-01 1.64523E-01 3.37452E-13 6.80636E-14
 -1      2560 3.58250E+01 6.33298E+00-9.12496E-02-1.34629E+00 2.04392E-13-4.00513E-13
 -1      2561 3.54143E+01 5.25567E+00-2.25155E-02-1.82139E+00 1.14575E-13-3.09142E-13
 -1      2562 3.21405E+01 4.90396E+00-1.20171E-01 1.07421E+00 3.93824E-13 2.28151E-13
 -1      2563 3.30946E+01 6.46591E+00-1.24516E-01 8.05967E-01 4.21496E-13 2.74725E-13
 -1      2564 3.04749E+01 6.58050E+00-7.06137E-02 1.22507E+00 3.36731E-13 1.17600E-13
 -1      2565 2.05817E+01-5.38099E+00 2.19751E-02-6.39742E+00 1.40582E-13-5.20750E-13
 -1      2566 2.37462E+01-4.90077E+00-3.88852E-02-5.69850E+00 1.51851E-13-3.89494E-13
 -1      2567 2.54817E+01-4.87652E+00 7.21000E-02-4.16547E+00 2.10942E-15-1.76803E-13
 -1      2568 1.20181E+01-5.10098E+00 5.78543E-02-7.22668E+00 2.56462E-14-6.18269E-13
 -1      2569 1.62910E+01-5.29807E+00-4.74510E-03-7.59192E+00 1.33560E-13-6.99669E-13
 -1      2570 5.76864E+00-3.83699E+00 7.76076E-02-5.25114E+00-1.77192E-13-5.83922E-13
 -1      2571 8.24810E+00-4.19339E+00 3.74503E-02-6.69568E+00-1.36002E-14-5.72403E-13
 -1      2572 2.90873E+00-2.90096E+00 8.01048E-02-8.30327E-01-5.53030E-14-2.70173E-13
 -1      2573 3.70479E+00-3.20632E+00 7.48175E-02-3.46195E+00-1.69198E-13-4.74953E-13
 -1      2574 5.20381E+00-3.17006E+00 1.08810E-01 3.41649E+00-6.89171E-14 3.77476E-15
 -1      2575 3.60071E+00-2.98939E+00 1.03462E-01 1.46842E+00 1.49533E-14-3.56937E-14
 -1      2576 1.98666E+01-6.24240E+00-5.47998E-02 5.90508E+00-4.49196E-13 8.42666E-13
 -1      2577 1.63148E+01-6.09902E+00 3.99046E-02 6.08947E+00-4.66793E-13 4.22676E-13
 -1      2578 2.76742E+01-5.23152E+00-9.81468E-02 3.01748E+00-2.88658E-15 1.97675E-13
 -1      2579 2.36715E+01-6.16238E+00-2.19350E-02 4.38707E+00-2.63456E-13 5.76816E-13
 -1      2580 2.30813E+01-6.10826E+00 5.52791E-02 4.47538E+00-3.53190E-13 7.26405E-13
 -1      2581 3.26980E+01-2.06632E+00-9.02132E-02-1.51762E-01 1.55598E-13-2.27318E-13
 -1      2582 3.06065E+01-3.69070E+00-4.78144E-02 6.43990E-01 7.76323E-14-4.16334E-14
 -1      2583 3.48811E+01 2.34881E+00-1.28201E-01-2.16528E+00 1.62648E-14-5.22360E-14
 -1      2584 3.34088E+01 1.09147E-01-9.96069E-02-1.71506E+00 1.60261E-13-5.35683E-14
 -1      2585 3.44948E+01 4.04626E+00-8.43525E-02 1.74478E+00-1.12466E-13-2.59071E-13
 -1      2586 3.51937E+01 5.67588E+00-9.97340E-02 1.24902E+00-4.78506E-14-2.66176E-13
 -1      2587 3.32504E+01-1.40602E-01-4.30717E-02 1.05805E+00-2.77556E-17-1.06137E-13
 -1      2588 3.42228E+01 1.69222E+00-1.66383E-01 1.61453E+00-2.22322E-14-1.62981E-13
 -1      2589 2.88129E+01-4.65605E+00 1.69018E-02-2.32080E+00-8.14071E-14 3.94684E-14
 -1      2590 3.18856E+01-2.88191E+00-1.15020E-01-9.12637E-01-1.00260E-13-8.40994E-14
 -1      2591 2.09801E+01-6.33596E+00 3.84861E-02-5.85774E+00-2.46303E-13-3.04576E-13
 -1      2592 2.48563E+01-6.06101E+00-1.27541E-01-4.90760E+00-6.95555E-14-4.22995E-14
 -1      2593 1.27294E+01-5.91936E+00 2.05780E-02-6.65047E+00 3.92686E-13 1.43205E-13
 -1      2594 1.67246E+01-6.11283E+00-3.88918E-02-6.95821E+00-2.62013E-14-2.40447E-13
 -1      2595 1.13150E+01-5.20696E+00 1.41504E-02 7.43577E+00 6.51146E-14 3.10585E-13
 -1      2596 7.71468E+00-4.50499E+00 9.77312E-02 6.05142E+00 4.71845E-14 3.38257E-13
 -1      2597 2.03619E+01 7.05106E-03 2.96190E-03 3.06649E-01 2.65014E-14 3.18470E-13
 -1      2598 1.99111E+01 2.81328E+00 1.10616E-03-1.09760E+00-2.48185E-15-2.41718E-13
 -1      2599 1.97823E+01 3.16008E+00-1.46961E-02-1.28464E+00-1.27057E-14-2.58553E-13
 -1      2600 1.98780E+01 3.03925E+00-1.64279E-02-1.48385E+00-5.82243E-14-2.62205E-13
 -1      2601 3.04276E+01-2.89516E-01-2.30607E-02-2.06224E-01 2.16403E-13 2.75419E-13
 -1      2602 2.03319E+01 5.89911E-01 9.12494E-03 8.71610E-01 1.19686E-13 4.34559E-13
 -1      2603 2.03932E+01 8.35799E-01 6.83058E-03 1.04779E+00 1.50189E-13 3.59444E-13
 -1      2604 2.01617E+01 4.88533E-01 7.89286E-03 6.62918E-01 9.13245E-14 4.09916E-13
 -1      2605 3.28978E+01 3.31933E+00-5.32010E-02-3.00647E+00 2.12885E-13 2.59515E-14
 -1      2606 1.49303E+01-5.18688E+00 9.01221E-02 7.29690E+00 2.40280E-13 3.68580E-13
 -1      2607 1.23530E+01-4.70448E+00 1.17356E-01-6.47396E+00 2.98844E-13 2.14412E-13
 -1      2608 2.00248E+01-5.96030E+00 1.04171E-01-6.12142E+00-1.16934E-13-1.47601E-13
 -1      2609 2.72886E+01-5.45124E+00 1.49568E-02-2.90568E+00-2.01644E-13 2.40641E-14
 -1      2610 3.17289E+01-1.94963E+00-4.70024E-02 1.12294E+00-1.41050E-13-1.98175E-14
 -1      2611 2.91644E+01-3.24938E+00-1.71135E-02-1.68599E+00-1.08229E-13-2.67356E-14
 -1      2612 2.95846E+01-2.13194E+00-6.21898E-02-2.65954E+00-3.89133E-14-1.01502E-13
 -1      2613 3.29138E+01 6.13748E+00-4.67025E-02-6.55232E-01 9.69225E-14-9.88064E-14
 -1      2614 3.03626E+01 5.19428E+00-1.91744E-01 4.28242E-01 6.93889E-14-1.18031E-13
 -1      2615 3.03570E+01 4.13353E+00-1.68790E-01 1.99904E+00-2.60902E-14-2.00118E-13
 -1      2616 3.56812E+01 6.90808E+00-1.46351E-02-6.25269E-02 5.17919E-14-3.71682E-13
 -1      2617 5.23588E+00-1.89855E+00 1.82310E-01 4.07045E-01-2.20431E-14-1.27676E-14
 -1      2618 8.05680E+00-2.99206E+00 1.70826E-01 5.11434E+00-5.49283E-14 4.22523E-13
 -1      2619 3.27248E+01 2.64285E+00-3.77610E-02 2.65102E+00-1.07997E-13-1.58679E-13
 -1      2620 6.81669E+00-2.86396E+00 1.41157E-01-3.93015E+00 1.43871E-13-9.00391E-14
 -1      2621 2.01126E+01 2.61963E+00-1.22590E-02-1.67831E+00-1.14361E-13-2.35556E-13
 -1      2622 2.00026E+01 3.64779E-01 8.24235E-03 3.93788E-01 9.72790E-14 2.97168E-13
 -1      2623 2.00971E+01 4.32756E-01 1.16978E-02 5.36155E-01 9.71940E-14 3.60896E-13
 -1      2624 2.01851E+01 5.65185E-01-3.11906E-03 6.53655E-01 1.22491E-13 2.90649E-13
 -1      2625 2.00846E+01 4.36805E-01-5.38214E-03 4.08739E-01 1.10594E-13 2.05352E-13
 -1      2626 2.93376E+01-4.67727E+00 5.19184E-02 1.00622E+00-2.29261E-14-1.31645E-13
 -1      2627 2.04940E+01-1.06432E-01-8.19425E-03 3.95262E-01 2.05511E-15 5.26087E-15
 -1      2628 7.50224E+00-3.21721E+00 1.52699E-01 4.34557E+00-4.53526E-14-2.75890E-14
 -1      2629 7.77908E+00-1.72986E+00 1.67203E-01 3.54797E+00 1.22111E-13-3.60822E-14
 -1      2630 9.89099E+00-3.24836E+00 3.03225E-02 5.20674E+00 7.68829E-15 1.22929E-13
 -1      2631 2.78506E+01-3.32799E+00 3.28806E-02-1.45740E+00 1.13250E-13 5.22776E-14
 -1      2632 2.93020E+01-2.13486E+00-3.61130E-02-1.13202E+00 2.14363E-13 3.20854E-14
 -1      2633 2.90110E+01-1.19963E+00-2.00561E-01 4.64341E-01 1.98515E-13 3.82902E-13
 -1      2634 5.09474E+00-1.60215E+00 1.70178E-01 1.29342E-01 6.58813E-14-1.88127E-13
 -1      2635 6.52660E+00-2.22875E+00 1.62286E-01-4.32020E+00-1.87905E-14-5.46674E-13
 -1      2636 3.06404E+01 2.97516E+00-8.17587E-02 1.33335E+00 4.93855E-13 2.30121E-13
 -1      2637 3.06644E+01 7.31664E+00-1.01692E-01-2.87938E-01 3.37452E-13 7.07732E-14
 -1      2638 1.96680E+01-5.34271E+00 8.25062E-02-6.64115E+00 1.68476E-14-4.31302E-13
 -1      2639 1.50883E+01-5.29648E+00 8.44681E-02 6.19555E+00-2.26985E-13 4.20969E-13
 -1      2640 2.76589E+01-4.17857E+00 2.34771E-02 3.14809E+00 2.58141E-13 3.86746E-13
 -1      2641 3.08334E+01 4.33974E+00-1.00672E-01-1.42899E+00 2.09499E-13 7.11653E-14
 -1      2642 1.20626E+01-3.99485E+00 1.32787E-01-6.94965E+00 7.69662E-14-7.11653E-13
 -1      2643 3.21738E+01-1.13162E+00 5.93045E-03-2.22803E+00 2.13107E-13 6.46982E-14
 -1      2644 3.26797E+01 5.28844E+00-1.19455E-02 1.49151E+00-9.72000E-14-9.06913E-14
 -1      2645 3.50350E+01 6.35003E+00-1.63077E-01 7.65369E-01 1.21347E-13-2.94792E-13
 -1      2646 2.77816E+01-4.37540E+00-1.35969E-01 2.53091E-01 4.71359E-14-1.37428E-13
 -1      2647 1.98452E+01 2.76490E+00-6.30371E-03 5.16344E-01 1.98755E-13-1.24702E-13
 -1      2648 1.98203E+01 2.81464E+00-5.70791E-03 3.65474E-01 1.80215E-13-1.42309E-13
 -1      2649 1.98035E+01 2.85212E+00-5.62351E-03 2.29938E-01 1.65368E-13-1.70862E-13
 -1      2650 1.97949E+01 2.86900E+00-5.43658E-03 7.52774E-02 1.44359E-13-1.72812E-13
 -1      2651 1.99499E+01 2.50081E+00 3.62644E-03 2.65348E-01 1.51315E-13-1.44821E-13
 -1      2652 2.00436E+01 2.32361E+00-1.09578E-02 1.04599E+00 2.37214E-13-2.11098E-14
 -1      2653 1.99792E+01 2.47325E+00-6.36294E-03 9.10613E-01 2.35463E-13-4.48066E-14
 -1      2654 2.02062E+01 1.91401E+00-1.65150E-02 1.23446E+00 2.20014E-13 7.38853E-14
 -1      2655 2.01247E+01 2.14657E+00-4.77593E-03 1.13225E+00 2.28541E-13 1.96236E-14
 -1      2656 2.01899E+01 1.89109E+00 7.77079E-03 9.27977E-01 2.10420E-13-3.72890E-15
 -1      2657 2.04437E+01 1.01294E+00 2.22046E-03 1.15446E+00 1.71597E-13 3.07155E-13
 -1      2658 2.04006E+01 1.27472E+00-7.16837E-03 1.26696E+00 1.90945E-13 2.44351E-13
 -1      2659 2.03138E+01 8.46279E-01 6.13974E-03 8.99225E-01 1.49979E-13 2.73737E-13
 -1      2660 2.93507E+01 2.01162E-01-1.77551E-01-1.13605E+00 2.18117E-13-2.60694E-13
 -1      2661 2.93157E+01-1.71732E+00 5.94722E-03-1.07677E-01 1.11376E-13 5.16809E-14
 -1      2662 1.16136E+01-3.34967E+00 1.67443E-01-5.89745E+00 1.24345E-13 2.48912E-13
 -1      2663 1.49366E+01-4.46172E+00 2.38738E-02-6.58594E+00 1.19682E-13 3.17413E-13
 -1      2664 2.35798E+01-5.77053E+00-7.82656E-02 5.37713E+00 2.01547E-13 2.91035E-13
 -1      2665 2.10561E+01-5.61771E+00 1.17996E-01 6.26055E+00 2.90851E-13 1.23783E-13
 -1      2666 2.03189E+01 1.06090E+00 5.61387E-03-8.56858E-01-9.26329E-14-1.41683E-13
 -1      2667 2.02274E+01 8.15659E-01-5.40205E-03-6.13673E-01-7.23653E-14-1.36845E-13
 -1      2668 2.02160E+01 6.27541E-01 8.41245E-03-4.36987E-01-4.53095E-14-1.27581E-13
 -1      2669 2.01324E+01 4.75375E-01-3.25662E-03-2.78441E-01-2.52838E-14-1.47408E-13
 -1      2670 2.02619E+01 8.93350E-01 7.21981E-04-5.71511E-01-6.36301E-14-1.48914E-13
 -1      2671 2.01061E+01 3.62332E-01 6.59625E-03-1.58956E-01-2.64068E-14-1.47535E-13
 -1      2672 2.00470E+01 2.67721E-01-1.76399E-03-6.12990E-02-3.34862E-14-1.28270E-13
 -1      2673 2.01955E+01 5.28292E-01-1.66792E-03-2.62195E-01-4.84174E-14-1.49266E-13
 -1      2674 2.00209E+01 1.97549E-01 4.51859E-03 1.40302E-02-2.82521E-14-1.14775E-13
 -1      2675 1.99851E+01 1.38078E-01-8.38316E-04 7.06412E-02-1.08575E-14-1.02945E-13
 -1      2676 2.01264E+01 2.98617E-01-2.10816E-03-5.58415E-02-2.87392E-14-1.45658E-13
 -1      2677 1.99641E+01 9.40091E-02 2.89641E-03 1.14072E-01-1.39110E-14-1.14150E-13
 -1      2678 1.99461E+01 5.68360E-02-2.90014E-04 1.43584E-01-5.27694E-14-1.38212E-13
 -1      2679 2.00699E+01 1.52674E-01-1.90795E-03 7.15608E-02-2.42889E-14-1.46035E-13
 -1      2680 1.99311E+01 2.95168E-02 1.73281E-03 1.65181E-01-8.66714E-14-1.27703E-13
 -1      2681 1.99253E+01 6.95125E-03 1.77319E-05 1.77238E-01-7.59099E-14-1.57109E-13
 -1      2682 2.00290E+01 6.05727E-02-1.53014E-03 1.42759E-01-7.52443E-14-1.52057E-13
 -1      2683 1.99156E+01-9.29829E-03 9.27288E-04 1.84562E-01-4.79973E-14-1.32401E-13
 -1      2684 1.99176E+01-2.21122E-02 1.80802E-04 1.85793E-01-4.52124E-14-1.37101E-13
 -1      2685 2.00018E+01 4.04882E-03-1.15118E-03 1.75911E-01-5.99027E-14-1.08249E-13
 -1      2686 1.99120E+01-3.08765E-02 3.94634E-04 1.84301E-01-5.88904E-14-9.67730E-14
 -1      2687 1.99188E+01-3.71725E-02 2.69907E-04 1.79309E-01-7.80631E-14-7.19795E-14
 -1      2688 1.99855E+01-2.86176E-02-8.35254E-04 1.84539E-01-2.17789E-14-3.72313E-14
 -1      2689 1.99161E+01-4.09740E-02 4.76213E-05 1.72503E-01-5.63817E-14-4.64313E-14
 -1      2690 1.99258E+01-4.27492E-02 3.17929E-04 1.63961E-01-1.02258E-14-2.22699E-14
 -1      2691 1.99770E+01-4.51731E-02-5.80230E-04 1.78080E-01-4.60183E-14-2.14690E-14
 -1      2692 1.99253E+01-4.28008E-02-1.82422E-04 1.55326E-01-2.79402E-15-1.02736E-14
 -1      2693 1.99358E+01-4.14017E-02 3.58260E-04 1.46314E-01 3.83134E-15-2.41356E-14
 -1      2694 1.99744E+01-5.05380E-02-4.08761E-04 1.63747E-01-1.98268E-14-2.08679E-14
 -1      2695 1.99368E+01-3.91909E-02-3.11378E-04 1.37579E-01-4.82350E-14-5.03105E-14
 -1      2696 1.99478E+01-3.56666E-02 3.94285E-04 1.29265E-01-8.44184E-14-1.53185E-13
 -1      2697 1.99758E+01-4.80430E-02-2.87289E-04 1.47027E-01-7.67554E-14-7.48045E-14
 -1      2698 1.99497E+01-3.17730E-02-3.77666E-04 1.21762E-01-6.54406E-14-1.53792E-13
 -1      2699 1.99609E+01-2.66902E-02 4.36927E-04 1.15249E-01-6.37255E-14-1.91800E-13
 -1      2700 1.99798E+01-4.03312E-02-2.10245E-04 1.31166E-01-8.96673E-14-1.59568E-13
 -1      2701 1.99636E+01-2.14730E-02-4.12319E-04 1.09994E-01-5.00345E-14-1.51513E-13
 -1      2702 1.99751E+01-1.50829E-02 4.98610E-04 1.06136E-01-3.47195E-14-1.69128E-13
 -1      2703 1.99857E+01-2.87169E-02-1.66233E-04 1.18687E-01-4.81003E-14-1.12843E-13
 -1      2704 1.99784E+01-8.67012E-03-4.34269E-04 1.03956E-01 2.45175E-14-1.30129E-13
 -1      2705 1.99904E+01-9.90765E-04 5.87273E-04 1.03499E-01 1.00532E-13-1.24385E-13
 -1      2706 1.99931E+01-1.38459E-02-1.45740E-04 1.11544E-01-1.08881E-14-6.97392E-14
 -1      2707 1.99942E+01 6.68873E-03-4.59064E-04 1.05155E-01 9.80145E-14-1.34304E-13
 -1      2708 2.00073E+01 1.58417E-02 7.10725E-04 1.08851E-01 4.13580E-14-1.44660E-13
 -1      2709 2.00018E+01 4.19452E-03-1.40302E-04 1.11405E-01 4.95291E-14-1.03506E-13
 -1      2710 2.00116E+01 2.50381E-02-5.00729E-04 1.15137E-01-1.89475E-14-1.41565E-13
 -1      2711 2.00264E+01 3.60387E-02 8.76863E-04 1.23837E-01-7.03502E-14-9.26084E-14
 -1      2712 2.00117E+01 2.57992E-02-1.41037E-04 1.19886E-01 1.79172E-15-1.82980E-13
 -1      2713 2.00310E+01 4.71766E-02-5.73349E-04 1.35664E-01-7.11573E-14-3.01031E-14
 -1      2714 2.00485E+01 6.05902E-02 1.09380E-03 1.50401E-01-7.79234E-14 6.65046E-15
 -1      2715 2.00228E+01 5.18091E-02-1.37224E-04 1.38731E-01-7.20075E-15-1.29255E-13
 -1      2716 2.00532E+01 7.42761E-02-6.92790E-04 1.68872E-01-7.65162E-14 1.01977E-13
 -1      2717 2.00741E+01 9.08738E-02 1.36959E-03 1.90944E-01 6.15249E-15 8.27527E-14
 -1      2718 2.00348E+01 8.35089E-02-1.14374E-04 1.69974E-01-2.82491E-14 1.00161E-13
 -1      2719 2.00784E+01 1.07913E-01-8.78563E-04 2.17413E-01 2.38055E-14 2.03658E-14
 -1      2720 2.01037E+01 1.28690E-01 1.71113E-03 2.48458E-01 9.66538E-14-3.66600E-14
 -1      2721 2.00473E+01 1.22650E-01-5.18555E-05 2.16055E-01-4.83400E-15 1.16633E-13
 -1      2722 2.01067E+01 1.50102E-01-1.15644E-03 2.84583E-01 3.65916E-14-7.79761E-14
 -1      2723 2.01372E+01 1.76294E-01 2.12496E-03 3.26637E-01-7.34883E-14-9.52521E-14
 -1      2724 2.00591E+01 1.71484E-01 8.02934E-05 2.79925E-01-5.19990E-16-7.36865E-15
 -1      2725 2.01373E+01 2.03277E-01-1.56861E-03 3.74435E-01 6.79264E-15-6.65694E-14
 -1      2726 2.01740E+01 2.36402E-01 2.71031E-03 4.29929E-01 1.68629E-14-1.23932E-13
 -1      2727 2.00681E+01 2.32785E-01 3.27561E-04 3.65101E-01-1.29435E-14-6.12784E-14
 -1      2728 2.01686E+01 2.72313E-01-2.13715E-03 4.94975E-01-3.78493E-14-2.30470E-13
 -1      2729 2.02128E+01 3.15900E-01 3.31660E-03 5.71300E-01 1.12219E-14-2.65021E-13
 -1      2730 2.00704E+01 3.11435E-01 5.59963E-04 4.79016E-01-7.26031E-14-1.67844E-13
 -1      2731 2.01974E+01 3.58351E-01-2.89730E-03 6.50684E-01 7.70495E-14-3.57508E-13
 -1      2732 2.02454E+01 4.09468E-01 3.77066E-03 7.43297E-01 8.29160E-14-3.81161E-13
 -1      2733 2.00601E+01 4.10399E-01 1.42312E-03 6.24140E-01-2.88300E-14-2.14626E-13
 -1      2734 2.02153E+01 4.60552E-01-3.88669E-03 8.42419E-01 1.13635E-13-3.93996E-13
 -1      2735 2.02673E+01 5.20658E-01 4.41005E-03 9.57835E-01 3.81600E-14-2.81193E-13
 -1      2736 2.00280E+01 5.27651E-01 2.40232E-03 8.01468E-01 5.74669E-14-2.18779E-13
 -1      2737 2.02150E+01 5.78336E-01-5.07334E-03 1.07972E+00 4.46797E-14-1.94786E-13
 -1      2738 2.02692E+01 6.43474E-01 5.08816E-03 1.22013E+00 1.07028E-13-1.65065E-13
 -1      2739 1.99621E+01 6.64160E-01 3.73207E-03 1.01896E+00 1.38809E-13-3.53048E-13
 -1      2740 2.01871E+01 7.00654E-01-6.36186E-03 1.36783E+00-3.02767E-14-1.34155E-13
 -1      2741 2.02428E+01 7.59444E-01 5.93126E-03 1.53317E+00-1.56281E-13-2.27533E-13
 -1      2742 1.98471E+01 8.10355E-01 5.31297E-03 1.28158E+00 3.06611E-14-3.27897E-13
 -1      2743 2.01257E+01 7.98710E-01-7.41978E-03 1.70998E+00-1.64823E-13-2.16579E-13
 -1      2744 2.01886E+01 8.25583E-01 7.34161E-03 1.89592E+00-1.84599E-13-1.82125E-13
 -1      2745 1.96681E+01 9.40168E-01 6.75782E-03 1.59487E+00-1.57063E-13-4.41458E-13
 -1      2746 2.00411E+01 8.10819E-01-7.38309E-03 2.10623E+00-1.94363E-13-1.50495E-13
 -1      2747 2.01340E+01 7.55737E-01 1.03778E-02 2.30100E+00-2.63994E-13-9.97979E-14
 -1      2748 1.94191E+01 9.96894E-01 7.11868E-03 1.96730E+00-1.55030E-13-3.27477E-13
 -1      2749 1.99869E+01 6.20968E-01-3.70051E-03 2.55104E+00-1.69669E-13 4.29127E-15
 -1      2750 2.01698E+01 3.98357E-01 1.78473E-02 2.72940E+00-3.59907E-14 5.17625E-14
 -1      2751 1.91230E+01 8.71435E-01 4.70365E-03 2.41515E+00-1.08902E-13 3.20316E-14
 -1      2752 2.01134E+01 3.25863E-02 8.73723E-03 3.02303E+00-3.84436E-14 1.27556E-13
 -1      2753 2.04976E+01-4.75006E-01 3.00253E-02 3.12816E+00 1.29306E-14 2.16526E-13
 -1      2754 1.88732E+01 3.77821E-01-1.41107E-03 2.96849E+00-3.43042E-15 3.95606E-14
 -1      2755 2.07452E+01-1.18614E+00 4.47680E-02 3.42367E+00 9.08145E-14 1.93385E-13
 -1      2756 2.16453E+01-2.06503E+00 5.75475E-02 3.30587E+00 8.89618E-14 2.39954E-13
 -1      2757 1.89649E+01-7.46349E-01 8.07972E-03 3.64570E+00 7.28289E-14 1.55936E-13
 -1      2758 3.12011E+01-1.70489E+00-7.73435E-02-2.47485E+00 1.40631E-13 9.93927E-14
 -1      2759 3.03850E+01 3.11084E+00-2.78353E-01 2.68291E+00-1.43247E-13-1.77469E-13
 -1      2760 1.87655E+01-5.11306E+00 1.58207E-01-6.12920E+00 1.45994E-14-7.05200E-14
 -1      2761 2.19219E+01-5.79279E+00-6.40389E-02-5.43336E+00-2.52687E-13-7.34968E-14
 -1      2762 2.40570E+01-4.06141E+00 8.27552E-03-3.18198E+00-1.73542E-14-3.28250E-13
 -1      2763 2.28787E+01-3.00176E+00 8.79518E-02-3.66338E+00 8.09127E-14-2.99051E-13
 -1      2764 2.19065E+01-2.03403E+00 2.30692E-02-3.67645E+00 1.48465E-13-2.47419E-13
 -1      2765 2.11677E+01-1.15142E+00 4.63538E-02-3.78071E+00-9.08171E-15-4.12500E-14
 -1      2766 2.07502E+01-2.73460E+00-2.75654E-02-4.45599E+00 1.26489E-13-9.93927E-14
 -1      2767 2.08384E+01-5.03256E-01 1.76816E-02-3.58050E+00-1.82892E-14-1.42478E-14
 -1      2768 2.04244E+01 3.63363E-02 1.36186E-02-3.48940E+00 1.92379E-13 1.17522E-13
 -1      2769 1.97352E+01-8.55585E-01-2.43014E-02-4.05084E+00 9.98836E-14 1.56227E-13
 -1      2770 2.04022E+01 4.21580E-01 1.14744E-02-3.22386E+00 1.60542E-13 2.40793E-13
 -1      2771 2.01851E+01 7.34955E-01 7.12440E-03-3.02777E+00 1.76940E-13 3.97102E-13
 -1      2772 1.95135E+01 3.55818E-01-8.21781E-03-3.49288E+00 2.15555E-13 2.78264E-13
 -1      2773 2.01457E+01 9.41893E-01 1.04935E-02-2.83112E+00 1.98506E-14 2.52028E-13
 -1      2774 1.99293E+01 1.19523E+00 7.93384E-03-2.59751E+00-9.09057E-14 1.16682E-13
 -1      2775 1.94706E+01 1.42496E+00-1.66770E-02-2.55172E+00-9.44881E-14-2.40077E-14
 -1      2776 1.94822E+01 1.01174E+00-2.26712E-03-2.99369E+00 1.70789E-14 1.33690E-13
 -1      2777 1.99840E+01 1.89034E-01-1.01867E-03-1.06178E-02 1.33881E-13 8.19423E-14
 -1      2778 2.00325E+01 2.61579E-01 5.93155E-03 6.50372E-02 1.24395E-13 9.47515E-14
 -1      2779 1.99328E+01 9.02829E-02-3.87897E-04-1.11775E-01 9.28562E-14 7.75626E-14
 -1      2780 1.99587E+01 1.35603E-01 3.82800E-03-6.98981E-02 1.16877E-13 8.59598E-14
 -1      2781 2.00722E+01 2.12461E-01-2.21059E-03-1.30784E-02 1.22219E-13 2.22301E-14
 -1      2782 2.00637E+01 3.47614E-01-1.87793E-03 1.63621E-01 1.22814E-13 9.24267E-14
 -1      2783 2.01411E+01 4.61623E-01 7.99393E-03 2.90140E-01 1.14253E-13 1.09133E-13
 -1      2784 2.01407E+01 3.91093E-01-2.22278E-03 1.55311E-01 1.32697E-13 3.22880E-14
 -1      2785 1.98938E+01-7.85333E-03 1.52904E-04-1.83960E-01 7.57501E-14 7.54757E-14
 -1      2786 1.98933E+01 8.66639E-03 1.31075E-03-1.77930E-01 7.99603E-14 7.44863E-14
 -1      2787 1.98941E+01-2.83963E-02 2.49610E-04-1.84201E-01 3.65640E-14 1.42513E-13
 -1      2788 1.98874E+01-1.95362E-02 6.17938E-04-1.86522E-01 4.38165E-14 1.17940E-13
 -1      2789 1.99697E+01-1.25934E-02-1.01219E-03-1.84078E-01 2.49700E-14 7.25852E-14
 -1      2790 1.99016E+01-3.79243E-02 2.99534E-04-1.73075E-01 4.06444E-15 1.25404E-13
 -1      2791 1.98914E+01-3.42376E-02 1.65508E-04-1.79944E-01 4.07796E-14 9.47349E-14
 -1      2792 1.99603E+01-3.57148E-02-7.07982E-04-1.84592E-01 5.50400E-14 8.84635E-14
 -1      2793 1.99131E+01-3.99809E-02 3.28642E-04-1.56520E-01-7.36251E-15 1.21259E-13
 -1      2794 1.99013E+01-3.97976E-02-1.17491E-04-1.65316E-01-1.57550E-14 9.39432E-14
 -1      2795 1.99577E+01-4.59833E-02-4.83566E-04-1.73884E-01-2.81761E-15 1.44247E-14
 -1      2796 1.99269E+01-3.69490E-02 3.52484E-04-1.38670E-01 1.11860E-14 1.57651E-13
 -1      2797 1.99146E+01-3.91493E-02-2.83917E-04-1.47584E-01 1.37033E-14 1.33483E-13
 -1      2798 1.99597E+01-4.75037E-02-3.26447E-04-1.57910E-01-2.49845E-15-1.14434E-15
 -1      2799 1.99418E+01-3.04038E-02 3.81051E-04-1.22414E-01 4.12493E-14 7.28897E-14
 -1      2800 1.99294E+01-3.42552E-02-3.72744E-04-1.30184E-01 3.48577E-14 1.58708E-13
 -1      2801 1.99647E+01-4.30378E-02-2.22899E-04-1.40859E-01 3.65819E-14 3.11111E-14
 -1      2802 1.99572E+01-2.13451E-02 4.21188E-04-1.09799E-01 8.05767E-14-2.01280E-14
 -1      2803 1.99450E+01-2.63913E-02-4.12330E-04-1.15530E-01 1.03271E-13 4.65678E-15
 -1      2804 1.99716E+01-3.44059E-02-1.60824E-04-1.25686E-01 1.03070E-13-4.36382E-14
 -1      2805 1.99733E+01-1.03668E-02 4.77448E-04-1.02335E-01 6.31817E-14-5.40411E-14
 -1      2806 1.99610E+01-1.63444E-02-4.22909E-04-1.05359E-01 3.45777E-14-3.82682E-14
 -1      2807 1.99799E+01-2.27560E-02-1.30498E-04-1.14515E-01 8.38477E-14-9.01158E-14
 -1      2808 1.99903E+01 2.19962E-03 5.52247E-04-1.01200E-01 1.18503E-13-5.07958E-14
 -1      2809 1.99776E+01-4.56613E-03-4.18274E-04-1.00990E-01 6.47584E-14-3.32832E-14
 -1      2810 1.99893E+01-8.76979E-03-1.24664E-04-1.08932E-01 5.23359E-14-1.26302E-13
 -1      2811 2.00091E+01 1.61502E-02 6.45634E-04-1.07367E-01 1.22534E-13 9.48276E-15
 -1      2812 1.99953E+01 8.68958E-03-4.06881E-04-1.03484E-01 1.38391E-13-1.94092E-14
 -1      2813 2.00000E+01 7.16241E-03-1.38032E-04-1.10197E-01 1.03518E-13-5.60953E-14
 -1      2814 2.00303E+01 3.12665E-02 7.54490E-04-1.21656E-01 1.69497E-14 1.48864E-13
 -1      2815 2.00148E+01 2.32300E-02-3.92423E-04-1.13739E-01 5.03494E-14 1.00268E-13
 -1      2816 2.00123E+01 2.47706E-02-1.67351E-04-1.19360E-01 1.23706E-14 3.13703E-14
 -1      2817 2.00553E+01 4.71490E-02 8.71268E-04-1.44702E-01 2.56104E-14 1.53243E-13
 -1      2818 2.00373E+01 3.87714E-02-3.73686E-04-1.32500E-01 7.54496E-14 1.60900E-13
 -1      2819 2.00266E+01 4.37224E-02-2.11607E-04-1.37310E-01 2.97438E-14 1.72702E-13
 -1      2820 2.00854E+01 6.30125E-02 9.82318E-04-1.76827E-01-3.65097E-14 1.11161E-13
 -1      2821 2.00639E+01 5.47561E-02-3.43900E-04-1.60278E-01 8.06348E-16 9.74608E-14
 -1      2822 2.00439E+01 6.34071E-02-2.72328E-04-1.64727E-01 2.06185E-14 1.16465E-13
 -1      2823 2.01222E+01 7.74355E-02 1.06583E-03-2.17799E-01-4.81624E-14 1.69346E-13
 -1      2824 2.00964E+01 7.01260E-02-2.89568E-04-1.97173E-01-4.37172E-14 1.36981E-13
 -1      2825 2.00653E+01 8.26716E-02-3.54494E-04-2.01944E-01-7.87177E-14 8.24811E-14
 -1      2826 2.01678E+01 8.80630E-02 1.08957E-03-2.66455E-01-7.90440E-14 2.28517E-13
 -1      2827 2.01366E+01 8.30488E-02-1.88891E-04-2.42564E-01-6.83001E-14 1.96950E-13
 -1      2828 2.00923E+01 9.94999E-02-4.67771E-04-2.48683E-01-1.08443E-13 7.54246E-14
 -1      2829 2.02244E+01 9.12897E-02 1.00874E-03-3.20175E-01-3.08693E-14 1.89385E-13
 -1      2830 2.01871E+01 9.06062E-02-1.02679E-05-2.94658E-01-2.56032E-14 2.05499E-13
 -1      2831 2.01272E+01 1.10644E-01-6.27830E-04-3.03654E-01-4.44789E-14 1.91049E-14
 -1      2832 2.02950E+01 8.19958E-02 7.64619E-04-3.74202E-01-6.33363E-14 1.80858E-13
 -1      2833 2.02507E+01 8.84907E-02 2.88117E-04-3.49879E-01-2.42940E-14 2.23368E-13
 -1      2834 2.01732E+01 1.11252E-01-8.57162E-04-3.63999E-01-4.51055E-15 5.39135E-14
 -1      2835 2.03831E+01 5.34903E-02 2.85262E-04-4.20848E-01-2.40640E-14 1.05967E-13
 -1      2836 2.03312E+01 7.08160E-02 7.55614E-04-4.02103E-01-5.14115E-15 1.24136E-13
 -1      2837 2.02346E+01 9.45889E-02-1.18361E-03-4.24566E-01-1.79875E-14 1.11807E-15
 -1      2838 2.04925E+01-2.04644E-03-5.09649E-04-4.48700E-01 2.31077E-14 1.56948E-13
 -1      2839 2.04330E+01 3.02585E-02 1.43955E-03-4.41810E-01-1.46214E-14 1.53733E-13
 -1      2840 2.03175E+01 5.20966E-02-1.63337E-03-4.77035E-01-3.77769E-14-7.39277E-14
 -1      2841 2.06275E+01-9.21467E-02-1.69463E-03-4.42080E-01-4.07149E-14 3.86855E-14
 -1      2842 2.05609E+01-4.10996E-02 2.36237E-03-4.55310E-01 1.77136E-14 8.51545E-14
 -1      2843 2.04293E+01-2.58405E-02-2.21320E-03-5.08996E-01 7.39988E-14-8.53995E-14
 -1      2844 2.07909E+01-2.21000E-01-3.30211E-03-3.81258E-01-8.71118E-14 9.85153E-14
 -1      2845 2.07192E+01-1.49652E-01 3.47822E-03-4.24411E-01-8.67086E-14 1.10290E-13
 -1      2846 2.05790E+01-1.47770E-01-2.87375E-03-5.03195E-01-5.85671E-14-7.30201E-14
 -1      2847 2.09818E+01-3.84076E-01-5.24252E-03-2.44313E-01-3.11314E-14 1.36314E-13
 -1      2848 2.09096E+01-2.96167E-01 4.60477E-03-3.27238E-01-1.80037E-14 1.57249E-13
 -1      2849 2.07749E+01-3.16844E-01-3.44381E-03-4.37465E-01-9.53045E-14-2.51164E-14
 -1      2850 2.11912E+01-5.60332E-01-7.14029E-03-1.20628E-02 2.80968E-14 1.19919E-13
 -1      2851 2.11267E+01-4.69206E-01 5.34074E-03-1.41438E-01 1.34910E-15 1.54428E-13
 -1      2852 2.10209E+01-5.23524E-01-3.54397E-03-2.86414E-01-2.61157E-14 1.66082E-13
 -1      2853 2.13961E+01-7.03856E-01-8.19599E-03 3.21999E-01 1.86927E-13 5.19986E-14
 -1      2854 2.13521E+01-6.36612E-01 5.02822E-03 1.48305E-01 1.30567E-13 1.23918E-13
 -1      2855 2.13093E+01-7.35480E-01-2.52073E-03-2.67927E-02 5.81151E-14-5.99343E-14
 -1      2856 2.15555E+01-7.41476E-01-7.19742E-03 7.35437E-01 2.03839E-13 6.11169E-14
 -1      2857 2.15480E+01-7.38964E-01 2.63396E-03 5.36079E-01 2.08826E-13 2.84498E-14
 -1      2858 2.16108E+01-8.87684E-01 2.78616E-04 3.50247E-01 1.95305E-13 3.00405E-14
 -1      2859 2.16152E+01-5.87524E-01-2.62457E-03 1.15795E+00 5.90738E-15 1.08897E-13
 -1      2860 2.16577E+01-6.93712E-01-2.23967E-03 9.75054E-01 1.32129E-13 1.56478E-13
 -1      2861 2.18672E+01-8.84734E-01 4.57380E-03 8.17620E-01 1.54127E-13 2.56326E-13
 -1      2862 2.15272E+01-1.87981E-01 5.38920E-03 1.46116E+00 3.91160E-14 1.80442E-13
 -1      2863 2.16212E+01-4.22740E-01-8.85976E-03 1.35971E+00 7.99848E-15 1.41129E-13
 -1      2864 2.19983E+01-6.23072E-01 9.54665E-03 1.28729E+00 3.20271E-14 2.24648E-13
 -1      2865 2.12930E+01 4.08674E-01 1.32606E-02 1.48436E+00 7.00965E-14 9.16280E-14
 -1      2866 2.14174E+01 8.74350E-02-1.40829E-02 1.53181E+00 4.70516E-14 8.13263E-14
 -1      2867 2.19350E+01-6.23136E-02 1.12979E-02 1.59637E+00 1.16133E-13 2.96145E-13
 -1      2868 2.09984E+01 1.00923E+00 1.43719E-02 1.12034E+00-1.06528E-13 2.40326E-13
 -1      2869 2.11105E+01 7.17769E-01-1.44160E-02 1.34374E+00-4.46362E-14 1.68984E-13
 -1      2870 2.16891E+01 6.91747E-01 5.47095E-03 1.55189E+00 2.16310E-14 2.50271E-13
 -1      2871 2.07914E+01 1.34342E+00 5.92818E-03 4.20838E-01-1.48898E-13 2.50483E-13
 -1      2872 2.08496E+01 1.22255E+00-6.25942E-03 7.70443E-01-9.18267E-14 2.46930E-13
 -1      2873 2.13949E+01 1.36670E+00-5.80865E-03 1.05275E+00-1.28703E-13 1.63476E-13
 -1      2874 2.07947E+01 1.23865E+00-6.03886E-03-3.73578E-01-7.81124E-14 1.40175E-13
 -1      2875 2.07805E+01 1.35084E+00 7.02969E-03-1.94193E-02-8.93786E-14 2.08241E-13
 -1      2876 2.12490E+01 1.65389E+00-9.36338E-03 2.12873E-01-8.32734E-14 2.99664E-13
 -1      2877 2.10017E+01 7.38206E-01-1.43216E-02-9.64707E-01 1.99123E-14 4.31779E-14
 -1      2878 2.09276E+01 1.03043E+00 1.61763E-02-7.34425E-01-7.72234E-14 9.23291E-14
 -1      2879 2.13510E+01 1.39497E+00-3.88378E-03-6.35651E-01 1.22797E-14 8.05484E-14
 -1      2880 2.12624E+01 1.00250E-01-1.49706E-02-1.16528E+00 1.36085E-14 1.22526E-15
 -1      2881 2.11741E+01 4.26123E-01 1.46843E-02-1.11310E+00 6.57421E-14-2.44992E-14
 -1      2882 2.16187E+01 7.15678E-01 5.63393E-03-1.15605E+00 1.03104E-13 7.78403E-14
 -1      2883 2.14223E+01-4.14235E-01-9.51909E-03-9.98764E-01 1.18393E-13-1.55645E-13
 -1      2884 2.13636E+01-1.78063E-01 6.53549E-03-1.09755E+00 6.23304E-14-2.39654E-14
 -1      2885 2.18439E+01-4.83633E-02 1.11957E-02-1.21246E+00 6.31178E-14 1.34332E-14
 -1      2886 2.14099E+01-6.71364E-01-2.13455E-03-6.17488E-01 1.22189E-13-2.39511E-13
 -1      2887 2.14031E+01-5.75288E-01-2.09061E-03-7.96385E-01 8.31047E-14-2.18655E-13
 -1      2888 2.18849E+01-6.08337E-01 1.08273E-02-9.05266E-01 1.19623E-13-5.86461E-14
 -1      2889 2.12392E+01-6.71385E-01 3.46616E-03-1.94305E-01-1.56222E-13-9.36810E-14
 -1      2890 2.12842E+01-7.01153E-01-7.65180E-03-3.80371E-01-3.83182E-14-1.97208E-13
 -1      2891 2.17182E+01-8.45552E-01 5.43367E-03-4.35372E-01-7.72570E-15 2.59612E-14
 -1      2892 2.09707E+01-4.94364E-01 5.89184E-03 1.46323E-01-1.54552E-13-8.96754E-15
 -1      2893 2.10534E+01-6.03074E-01-9.54550E-03 3.04301E-03-1.80561E-13-9.65739E-14
 -1      2894 2.14082E+01-7.85699E-01 5.75924E-04 1.44640E-02-1.96601E-13-1.32169E-13
 -1      2895 2.06795E+01-2.36918E-01 7.13391E-03 3.48215E-01-4.22920E-14 4.82231E-15
 -1      2896 2.07828E+01-3.80800E-01-8.88898E-03 2.73101E-01-7.58334E-14-2.32824E-14
 -1      2897 2.10554E+01-5.35284E-01 1.45790E-03 3.41829E-01-2.05035E-13-3.83993E-13
 -1      2898 2.07064E+01-2.01527E-01 4.11700E-03 5.15017E-01-2.61550E-15-5.26130E-13
 -1      2899 2.08525E+01-1.33500E-01 6.29631E-03 1.29598E+00 1.23589E-13 2.72827E-13
 -1      2900 2.08616E+01-2.20385E-01 1.13322E-03 1.07940E+00 3.18414E-14-3.00033E-13
 -1      2901 2.01622E+01 4.21668E-01-8.64538E-03 2.08458E+00-1.91742E-13-9.57695E-14
 -1      2902 2.04536E+01 2.15544E-01 1.29352E-02 1.98474E+00-1.79709E-13-1.79398E-13
 -1      2903 2.08436E+01-2.00943E-01 8.87915E-03 8.73945E-01-1.26266E-13-6.37030E-13
 -1      2904 2.07770E+01-2.35382E-01 1.66120E-03 6.78495E-01-7.62475E-14-6.10377E-13
 -1      2905 2.09392E+01-4.30219E-01-7.67091E-03 6.36999E-01-7.52826E-14-7.05995E-13
 -1      2906 2.10661E+01-4.75390E-01-5.44041E-04 1.01091E+00 3.54035E-14-2.04388E-13
 -1      2907 2.06569E+01 5.50830E-02 9.23106E-04 1.76412E+00-1.07822E-13-1.53470E-13
 -1      2908 2.07910E+01-9.38031E-02 5.12499E-03 1.56546E+00-5.53160E-14 1.52928E-13
 -1      2909 2.10058E+01-4.53765E-01-8.21206E-03 1.50107E+00 1.38791E-13 1.26666E-13
 -1      2910 2.06803E+01-2.79454E-01-1.15509E-02 2.02548E+00-1.04808E-13-2.43795E-13
 -1      2911 1.85576E+01 1.55559E+00-2.61198E-02 1.57011E+00-6.51347E-14 3.67038E-13
 -1      2912 1.89790E+01 1.34463E+00 1.96482E-02 1.87824E+00-1.90012E-13 3.37766E-13
 -1      2913 1.79457E+01 2.03256E+00-2.05979E-02 6.09734E-01 4.52505E-14 5.72103E-14
 -1      2914 1.82134E+01 1.90486E+00 1.15727E-02 1.10382E+00-8.82747E-14 4.37993E-13
 -1      2915 1.80261E+01 1.43407E+00 7.31515E-03 1.58318E+00 6.32220E-15 3.90662E-13
 -1      2916 1.78300E+01 2.21305E+00-5.56813E-03-6.34124E-01 7.78325E-14 9.02416E-14
 -1      2917 1.78146E+01 2.20236E+00-4.84346E-03-5.82334E-02 2.28090E-14 1.22694E-13
 -1      2918 1.74109E+01 1.91859E+00 1.90700E-02 3.86962E-01 7.47136E-14 1.66781E-13
 -1      2919 1.83112E+01 2.00695E+00 4.77406E-03-1.76949E+00-1.27859E-13 3.79430E-14
 -1      2920 1.80077E+01 2.12747E+00-1.80363E-02-1.29575E+00 1.98125E-14 6.23948E-14
 -1      2921 1.74635E+01 2.00344E+00 2.01728E-02-1.03251E+00-4.70218E-14-1.58792E-15
 -1      2922 7.45571E+00-1.54935E+00 1.41343E-01-3.21066E+00 5.21805E-14-2.01728E-13
 -1      2923 9.25453E+00-2.51530E+00 1.30345E-01-5.03630E+00 5.82034E-14-1.22513E-13
 -1      2924 1.20842E+01-2.24419E+00 1.59319E-01-5.23803E+00-7.80209E-14 6.37823E-14
 -1      2925 1.05799E+01-2.83696E+00 1.03822E-01 6.01073E+00 1.41359E-13 4.79006E-13
 -1      2926 7.90982E+00-1.65627E+00 1.62361E-01 4.00531E+00-1.48659E-13 6.67133E-13
 -1      2927 2.01768E+01 2.27196E+00-1.75529E-03-1.42729E+00-9.71444E-14-2.02113E-13
 -1      2928 6.68285E+00-8.49867E-01 1.37053E-01 1.58525E+00-1.66700E-13 5.22637E-14
 -1      2929 6.68021E+00-8.42086E-01 1.74654E-01-9.98276E-01-6.03718E-14-2.93987E-13
 -1      2930 2.42039E+01-5.07289E+00 7.54977E-02-4.30831E+00-5.89251E-14-1.17642E-13
 -1      2931 2.56162E+01-4.67962E+00-7.83665E-02-3.13745E+00-5.32907E-14-6.96249E-14
 -1      2932 1.93983E+01 9.55623E-01-2.01023E-02 2.07269E+00-1.89043E-13 7.80328E-14
 -1      2933 1.98162E+01 7.19261E-01 1.96532E-02 2.15170E+00-1.21855E-13-5.13960E-14
 -1      2934 1.90055E+01 7.56910E-01-4.97140E-03 2.25233E+00-7.57073E-14 1.79490E-13
 -1      2935 3.00306E+01-4.05582E+00-3.55929E-03 2.22645E-01-1.28068E-13-5.97578E-14
 -1      2936 1.76709E+01-5.24824E+00 1.92548E-02 7.13547E+00 2.39891E-13 1.84047E-13
 -1      2937 1.41158E+01-4.14913E+00 1.44408E-01 6.98878E+00 2.78499E-13 3.23935E-13
 -1      2938 2.91253E+01 5.04991E+00-1.96195E-01-1.56850E+00 1.88710E-13-1.32755E-13
 -1      2939 2.92657E+01 2.92387E+00-1.11943E-01-1.74636E+00 1.50033E-13-7.88397E-14
 -1      2940 1.99237E+01 2.59597E+00-7.87744E-03 7.94610E-01 2.34163E-13-7.18123E-14
 -1      2941 1.98799E+01 2.68801E+00-6.13590E-03 6.45674E-01 2.16929E-13-1.14190E-13
 -1      2942 1.99985E+01 2.38822E+00 4.25154E-03 5.16927E-01 1.95532E-13-1.05142E-13
 -1      2943 2.00796E+01 2.19055E+00 5.44389E-03 7.46196E-01 2.13224E-13-5.12965E-14
 -1      2944 1.15034E+01-2.77101E+00 1.74325E-01-6.28337E+00-9.77551E-14-6.28345E-13
 -1      2945 1.45910E+01-3.95069E+00 1.89607E-02-7.02602E+00-4.72955E-14-5.17919E-13
 -1      2946 1.80595E+01-4.67422E+00 1.47652E-01-6.63511E+00-8.43492E-14-4.57322E-13
 -1      2947 2.13937E+01-5.21961E+00-3.65508E-02-5.77791E+00-7.64805E-14-3.18363E-13
 -1      2948 2.24791E+01-4.84051E+00 5.03489E-02-4.73807E+00-1.43607E-13-1.04492E-13
 -1      2949 1.98751E+01 2.69641E+00-6.07562E-03-6.35350E-01 5.88225E-14-2.32397E-13
 -1      2950 1.99177E+01 2.60699E+00-7.72760E-03-7.84855E-01 3.19753E-14-2.43604E-13
 -1      2951 2.84566E+01 5.43988E+00-1.34199E-01 1.74507E+00 2.52992E-13 3.48215E-13
 -1      2952 2.83532E+01 6.38625E+00-1.92366E-01 1.03001E+00 1.10384E-13 1.75582E-13
 -1      2953 1.75058E+01-5.12169E+00-6.88123E-02 5.96173E+00-1.60122E-13 6.04239E-13
 -1      2954 1.37979E+01-3.94988E+00 2.34735E-01 5.76584E+00 2.91434E-15 1.90459E-13
 -1      2955 2.92173E+01 1.39609E+00-5.25753E-02 1.69001E+00 3.57103E-13 5.68420E-13
 -1      2956 2.88392E+01 3.44631E+00-2.08385E-01 1.97392E+00 4.84557E-13 5.62689E-13
 -1      2957 6.72204E+00-1.08902E+00 1.53326E-01-3.19299E+00 8.38982E-14-5.77455E-13
 -1      2958 8.44059E+00-1.88977E+00 8.69921E-02-5.19178E+00 4.31460E-14-6.75127E-13
 -1      2959 2.79846E+01-3.87951E+00-1.61965E-01 1.77701E+00 2.91017E-14 1.49020E-13
 -1      2960 2.61889E+01-5.01689E+00 7.34476E-02 3.60445E+00 2.57211E-13 9.90874E-14
 -1      2961 2.52625E+01-5.99315E+00-5.06021E-02 3.36705E+00-2.89935E-13 2.85653E-13
 -1      2962 2.20459E+01-5.39982E+00 1.55271E-01 4.47970E+00-5.01363E-13 7.66791E-13
 -1      2963 6.93730E+00-5.73534E-01 1.58534E-01 1.23729E+00 9.60204E-14-1.60510E-13
 -1      2964 6.46826E+00-4.48929E-01 1.83651E-01-1.11716E+00 1.07747E-13-3.53217E-13
 -1      2965 2.83510E+01 6.91607E+00-1.77332E-01 1.44355E-01 2.19241E-13-4.25493E-14
 -1      2966 2.85426E+01 6.50483E+00-1.52165E-01-9.17371E-01 2.08000E-13-8.35304E-14
 -1      2967 2.51667E+01-5.76028E+00 1.04692E-01-3.88169E+00-2.52631E-13-1.31006E-14
 -1      2968 2.80732E+01-5.08245E+00-9.62676E-02-1.77885E+00-1.97495E-13 2.82829E-14
 -1      2969 2.78776E+01-4.77611E+00-4.75964E-02-1.14048E+00-1.26441E-13-9.66519E-14
 -1      2970 2.35666E+01-5.38277E+00 1.57765E-02-4.28461E+00-1.94622E-13 2.13163E-14
 -1      2971 1.99048E+01 2.89991E-02-3.50317E-05-1.63853E-01 7.83717E-14 6.61783E-14
 -1      2972 1.99148E+01 5.69492E-02 2.33909E-03-1.43940E-01 8.67753E-14 6.78307E-14
 -1      2973 2.00221E+01 9.96916E-02-1.83961E-03-1.12313E-01 1.02558E-13-1.26296E-14
 -1      2974 1.99891E+01 2.94728E-02-1.39958E-03-1.63915E-01 9.15935E-14-1.42208E-14
 -1      2975 1.99334E+01 2.53833E+00 3.42950E-03 4.62670E-03 1.30004E-13-1.65480E-13
 -1      2976 1.97943E+01 2.86982E+00-5.48945E-03-6.19017E-02 1.26267E-13-1.87114E-13
 -1      2977 1.98017E+01 2.85517E+00-5.55197E-03-2.16654E-01 1.10407E-13-1.97196E-13
 -1      2978 2.03235E+01 1.60342E+00 1.62811E-03 1.27077E+00 2.05321E-13 1.67632E-13
 -1      2979 2.87221E+01 1.34850E+00-9.17445E-02-1.72070E+00 8.78464E-14-1.39028E-13
 -1      2980 2.77943E+01-1.73115E-02-5.49272E-02-1.42157E+00 7.06796E-14-2.45554E-13
 -1      2981 2.73831E+01 2.31128E+00-1.04624E-01-2.03940E+00 5.35960E-14-4.04336E-13
 -1      2982 2.68417E+01 5.90509E+00-1.09935E-01 5.77740E-01-9.04971E-14 8.17549E-14
 -1      2983 1.76604E+01-4.12877E+00 1.14287E-01-5.94808E+00 1.66533E-16 9.79494E-14
 -1      2984 2.00037E+01-5.08017E+00 1.01075E-01 6.25878E+00 2.34979E-13 2.01356E-13
 -1      2985 1.79836E+01-2.71541E+00 3.32334E-02 4.79900E+00 1.82174E-13 4.54824E-13
 -1      2986 2.07345E+01-3.29947E+00 1.01291E-01 4.16142E+00-3.26024E-14 5.17890E-13
 -1      2987 2.59001E+01-4.67090E+00 2.45527E-01 2.46188E+00-1.73507E-13 1.60622E-13
 -1      2988 2.75576E+01-4.84368E+00 8.16738E-02 1.19805E+00-1.19293E-13 3.62904E-14
 -1      2989 1.71855E+01-3.79419E+00 1.18837E-01-6.26850E+00-1.54168E-13-4.31835E-13
 -1      2990 2.21362E+01-4.41739E+00 1.11726E-01 3.87808E+00-1.47507E-13 4.92941E-13
 -1      2991 2.63554E+01-4.64162E+00 8.72647E-02-2.18238E+00-9.03860E-14-2.35059E-13
 -1      2992 1.99871E+01 1.29207E-01-1.16960E-02 2.35255E+00-5.30914E-14-1.74488E-14
 -1      2993 1.99737E+01 2.48735E+00-5.67033E-03-9.02726E-01 9.72365E-15-2.29956E-13
 -1      2994 2.00377E+01 2.33930E+00-9.67565E-03-1.03456E+00-2.50233E-14-2.04589E-13
 -1      2995 2.00725E+01 2.20122E+00 4.57727E-03-7.38018E-01 1.07866E-14-2.11656E-13
 -1      2996 8.81273E+00-5.55746E-01 1.69203E-01-2.06270E+00-9.02195E-14-2.93793E-13
 -1      2997 1.90568E+01 1.62854E+00 1.93952E-03-2.37572E+00-1.53227E-13-1.75541E-13
 -1      2998 1.86583E+01 1.82727E+00-1.98267E-02-2.13780E+00-1.52022E-13-2.25335E-13
 -1      2999 1.80471E+01 1.77357E+00-2.53611E-03-2.08370E+00-9.12046E-14-1.68119E-13
 -1      3000 1.89811E+01 1.42344E+00 1.06560E-03-2.61178E+00-1.84511E-13-8.46953E-14
 -1      3001 2.02193E+01 6.74656E-01-1.90087E-03 4.19258E-01 1.38857E-13 5.22835E-14
 -1      3002 2.01786E+01 6.16701E-01 1.49423E-03 4.46970E-01 1.25792E-13 1.24342E-13
 -1      3003 2.02102E+01 6.97423E-01 6.56698E-03 5.59049E-01 1.36817E-13 1.54161E-13
 -1      3004 1.32830E+01-3.12330E+00 1.54657E-01 6.35533E+00 1.59886E-13 1.89182E-13
 -1      3005 1.27541E+01-1.88404E+00 1.24989E-01 5.47674E+00 7.07837E-14 4.42604E-13
 -1      3006 1.57022E+01-3.44500E+00 7.53435E-03 6.31462E+00 7.75491E-14 2.22239E-13
 -1      3007 2.03059E+01 1.73065E+00-8.01643E-03-1.31972E+00-1.17342E-13-1.91709E-13
 -1      3008 2.02911E+01 1.32636E+00-5.94336E-03-1.04051E+00-9.85267E-14-1.64471E-13
 -1      3009 8.20967E+00-5.94805E-01 2.04304E-01 2.18841E+00 1.16789E-13-8.38496E-14
 -1      3010 9.07064E+00 2.51817E-01 1.03715E-01 1.10194E+00 9.71410E-14-1.26843E-13
 -1      3011 9.67103E+00-7.78083E-01 8.48875E-02 3.22027E+00 1.98348E-13 4.17999E-14
 -1      3012 1.29984E+01-2.80499E+00 1.74117E-01 5.23283E+00 2.19547E-13 1.61149E-13
 -1      3013 2.67252E+01-4.00226E+00 1.76143E-02-1.84791E+00 1.11994E-14 1.16809E-13
 -1      3014 2.68827E+01-3.24862E+00-1.39111E-01-4.62514E-01 3.01391E-14 3.92582E-13
 -1      3015 2.54761E+01-4.24570E+00 1.03282E-02-2.21132E+00-2.80193E-14 1.93311E-13
 -1      3016 9.06627E+00-6.64311E-01 1.80615E-01 2.66699E+00-9.57567E-15 4.00374E-13
 -1      3017 2.85622E+01-4.77440E+00 5.33455E-02 8.52107E-01-9.95801E-14-1.18988E-13
 -1      3018 2.80143E+01-3.03058E+00-1.69605E-02 6.21861E-01 2.28259E-14-5.06262E-14
 -1      3019 8.32145E+00-1.61526E-01 1.75917E-01-2.00796E+00 1.67888E-13-4.45755E-13
 -1      3020 2.82426E+01-3.12439E-01-6.97538E-02 1.20830E+00 1.84422E-13 5.63743E-13
 -1      3021 2.03168E+01 1.39017E+00 8.87780E-03 1.02409E+00 1.79298E-13 1.29940E-13
 -1      3022 2.74016E+01 3.72381E+00-1.07150E-01 1.98333E+00 2.19144E-13 6.38933E-13
 -1      3023 2.74194E+01 5.06572E+00-1.31135E-01-1.28332E+00 1.58901E-13-2.65815E-13
 -1      3024 1.98173E+01 2.81968E+00-5.70434E-03-3.51810E-01 1.02831E-13-1.77715E-13
 -1      3025 1.98415E+01 2.77134E+00-6.20794E-03-5.05479E-01 7.04956E-14-2.03008E-13
 -1      3026 1.99945E+01 2.39580E+00 4.26023E-03-5.07590E-01 6.06411E-14-1.98469E-13
 -1      3027 1.99480E+01 2.50431E+00 3.62999E-03-2.55786E-01 8.93545E-14-1.82227E-13
 -1      3028 2.02795E+01 1.41347E+00 4.76487E-03-9.41833E-01-8.07707E-14-1.76530E-13
 -1      3029 2.50610E+01-5.20333E+00 3.77558E-02 3.97742E+00 1.04500E-13 1.23818E-13
 -1      3030 1.14233E+01-1.77490E+00 1.62413E-01-5.41810E+00-7.00134E-14-5.97244E-13
 -1      3031 2.37889E+01-4.79917E+00-1.69667E-02-3.80044E+00-1.80161E-13-7.09354E-14
 -1      3032 2.02359E+01 1.47575E+00-9.94557E-03 8.07827E-01 1.86865E-13 2.68186E-15
 -1      3033 2.02006E+01 1.66616E+00-1.43585E-03 7.44952E-01 1.97872E-13-3.05734E-14
 -1      3034 2.02587E+01 7.55067E-01 6.69794E-03 7.55748E-01 1.35580E-13 2.32714E-13
 -1      3035 1.67221E+01-1.26463E+00 1.33000E-02 4.21106E+00 3.11626E-13 3.12438E-13
 -1      3036 1.50466E+01-2.28171E+00 6.19735E-02 4.92245E+00 2.86653E-13 3.57325E-13
 -1      3037 2.73302E+01-2.29291E+00-1.27502E-01-4.00670E-01 9.41816E-14-1.13867E-13
 -1      3038 2.69306E+01-3.68183E+00 6.22527E-02 1.10555E+00 2.46921E-14-8.47239E-15
 -1      3039 1.62671E+01-2.78537E+00 1.45227E-01-5.83812E+00-2.47732E-13-5.14172E-13
 -1      3040 1.87108E+01-3.89211E+00-3.62842E-02-5.68203E+00-2.18978E-13-1.94580E-13
 -1      3041 3.06262E+01-3.85835E+00-1.61533E-01-1.08412E+00 3.47292E-14-4.62130E-14
 -1      3042 2.02685E+01 7.12976E-01 3.73781E-03-3.46185E-01-4.96514E-14-1.42400E-13
 -1      3043 2.02269E+01 5.51022E-01-3.44294E-03-2.15539E-01-4.58136E-14-1.47522E-13
 -1      3044 2.02211E+01 4.22742E-01 4.04341E-03-1.20775E-01-3.34229E-14-1.15949E-13
 -1      3045 2.01818E+01 3.15140E-01-2.31791E-03-3.58699E-02-1.80936E-14-1.25814E-13
 -1      3046 2.02726E+01 5.78485E-01-5.90265E-04-1.89213E-01-3.21810E-14-1.10957E-13
 -1      3047 2.01677E+01 2.31545E-01 3.16889E-03 2.56579E-02-3.35190E-14-1.07947E-13
 -1      3048 2.01374E+01 1.61020E-01-1.31259E-03 7.65922E-02-6.23347E-14-1.35970E-13
 -1      3049 2.02379E+01 3.31843E-01-8.65688E-04-2.67714E-02-2.48728E-14-9.84096E-14
 -1      3050 2.01207E+01 1.07111E-01 2.22980E-03 1.12462E-01-7.55614E-14-1.16457E-13
 -1      3051 2.00996E+01 6.21106E-02-6.19573E-04 1.39697E-01-7.05390E-14-1.13584E-13
 -1      3052 2.01973E+01 1.67508E-01-1.02972E-03 7.59344E-02-5.98745E-14-8.93498E-14
 -1      3053 2.00834E+01 2.83438E-02 1.46296E-03 1.57473E-01-3.05070E-14-8.11056E-14
 -1      3054 2.00699E+01 8.58453E-04-1.80259E-04 1.68872E-01-4.43039E-15-2.88212E-14
 -1      3055 2.01585E+01 6.15234E-02-9.76565E-04 1.33956E-01-2.59480E-14-7.21290E-14
 -1      3056 2.00555E+01-1.90497E-02 8.82405E-04 1.74561E-01-7.73178E-15-2.58670E-14
 -1      3057 2.00477E+01-3.45378E-02 8.14792E-05 1.75991E-01-2.21393E-14-2.76245E-14
 -1      3058 2.01246E+01-4.00513E-03-8.45391E-04 1.60823E-01 1.84946E-14-2.91636E-14
 -1      3059 2.00351E+01-4.53060E-02 4.51780E-04 1.74009E-01-7.01942E-14 2.53031E-14
 -1      3060 2.00313E+01-5.24784E-02 2.51253E-04 1.69271E-01-4.34269E-14 1.13121E-14
 -1      3061 2.00959E+01-4.17902E-02-6.69046E-04 1.67166E-01-2.04713E-14 2.47870E-14
 -1      3062 2.00215E+01-5.58938E-02 1.48668E-04 1.63226E-01-5.33866E-14 1.73884E-14
 -1      3063 2.00209E+01-5.69517E-02 3.65643E-04 1.55968E-01-6.84228E-14-1.41625E-14
 -1      3064 2.00731E+01-5.96803E-02-5.64504E-04 1.61083E-01-7.07311E-14 8.90444E-14
 -1      3065 2.00131E+01-5.59955E-02-6.00758E-05 1.48469E-01-9.35922E-14-4.54412E-14
 -1      3066 2.00145E+01-5.30634E-02 4.30055E-04 1.40658E-01-1.43161E-13-9.63421E-14
 -1      3067 2.00558E+01-6.33098E-02-4.46447E-04 1.48989E-01-1.08037E-13 2.47688E-14
 -1      3068 2.00083E+01-4.89399E-02-1.97227E-04 1.33401E-01-1.23612E-13-7.54341E-14
 -1      3069 2.00111E+01-4.31564E-02 4.72101E-04 1.26570E-01-7.13951E-14-8.63618E-14
 -1      3070 2.00427E+01-5.75965E-02-3.48050E-04 1.35271E-01-9.98858E-14-6.15920E-14
 -1      3071 2.00063E+01-3.66655E-02-2.96125E-04 1.20831E-01-7.58960E-14-9.69542E-14
 -1      3072 2.00102E+01-2.86583E-02 5.10562E-04 1.16118E-01-6.63667E-14-7.91478E-14
 -1      3073 2.00329E+01-4.51072E-02-2.66203E-04 1.23055E-01-8.90661E-14-7.02890E-14
 -1      3074 2.00063E+01-2.02098E-02-3.76922E-04 1.12879E-01-1.29099E-14-8.25697E-14
 -1      3075 2.00110E+01-1.02307E-02 5.55782E-04 1.11200E-01 2.08030E-14-7.24896E-14
 -1      3076 2.00256E+01-2.73396E-02-1.95511E-04 1.14685E-01-3.39897E-14-3.19728E-14
 -1      3077 2.00076E+01 8.75023E-05-4.56743E-04 1.11282E-01 3.03174E-14-3.04312E-14
 -1      3078 2.00132E+01 1.20977E-02 6.15210E-04 1.13461E-01 4.24941E-14-7.83800E-14
 -1      3079 2.00201E+01-4.92882E-03-1.29314E-04 1.12016E-01 2.89720E-14 3.84425E-14
 -1      3080 2.00098E+01 2.44705E-02-5.51008E-04 1.17625E-01-1.67686E-14-9.15884E-14
 -1      3081 2.00161E+01 3.88420E-02 6.93731E-04 1.24494E-01-4.82301E-14-1.21902E-13
 -1      3082 2.00153E+01 2.21996E-02-5.89772E-05 1.16665E-01 2.17823E-16-3.24331E-14
 -1      3083 2.00121E+01 5.37002E-02-6.74801E-04 1.33526E-01 2.66754E-14-8.85199E-14
 -1      3084 2.00191E+01 7.10138E-02 7.93558E-04 1.46003E-01 3.39714E-14-5.90600E-14
 -1      3085 2.00103E+01 5.47312E-02 2.70751E-05 1.30183E-01 2.18969E-14-1.31033E-14
 -1      3086 2.00135E+01 8.90242E-02-8.44218E-04 1.60768E-01 4.58395E-14 1.59643E-14
 -1      3087 2.00212E+01 1.10107E-01 9.13739E-04 1.79927E-01 5.07770E-14 8.49628E-14
 -1      3088 2.00036E+01 9.39082E-02 1.44927E-04 1.54191E-01 7.79078E-14 2.76729E-14
 -1      3089 2.00128E+01 1.32175E-01-1.07795E-03 2.01402E-01-1.33125E-14 6.23782E-14
 -1      3090 2.00207E+01 1.58105E-01 1.04870E-03 2.28512E-01 6.67512E-15 8.98344E-14
 -1      3091 1.99933E+01 1.41507E-01 3.17174E-04 1.90458E-01 4.22730E-14 7.79500E-14
 -1      3092 2.00077E+01 1.85379E-01-1.39985E-03 2.57804E-01-4.27509E-14 4.04339E-14
 -1      3093 2.00151E+01 2.17496E-01 1.19091E-03 2.94353E-01-4.33396E-14-5.43542E-14
 -1      3094 1.99765E+01 1.99833E-01 5.76126E-04 2.40927E-01-4.95088E-14 3.84326E-14
 -1      3095 1.99950E+01 2.51299E-01-1.85931E-03 3.32692E-01-2.81613E-14-5.41414E-14
 -1      3096 2.00006E+01 2.91248E-01 1.39238E-03 3.80360E-01-7.86163E-14-8.07932E-14
 -1      3097 1.99492E+01 2.71737E-01 9.74071E-04 3.07685E-01-4.77366E-14 5.06657E-14
 -1      3098 1.99681E+01 3.35621E-01-2.44462E-03 4.31577E-01-6.94788E-14-1.32845E-13
 -1      3099 1.99686E+01 3.87545E-01 1.51329E-03 4.95928E-01-3.87403E-14-1.56011E-13
 -1      3100 1.99039E+01 3.62547E-01 1.41073E-03 3.95431E-01-9.70899E-14-9.65063E-14
 -1      3101 1.99202E+01 4.39634E-01-3.25413E-03 5.56822E-01-4.43432E-14-1.69599E-13
 -1      3102 1.99125E+01 5.00243E-01 1.40323E-03 6.33370E-01-2.19728E-14-1.93368E-13
 -1      3103 1.98326E+01 4.75075E-01 2.44710E-03 5.04270E-01-4.43601E-14-2.91546E-14
 -1      3104 1.98407E+01 5.63127E-01-4.27569E-03 7.07201E-01-3.91923E-14-1.39686E-13
 -1      3105 1.98192E+01 6.35013E-01 1.32455E-03 8.00733E-01 6.31638E-14-1.97156E-13
 -1      3106 1.97247E+01 6.07811E-01 3.66166E-03 6.33072E-01-4.80218E-14-1.15182E-13
 -1      3107 1.97136E+01 7.07964E-01-5.61986E-03 8.88769E-01 1.04147E-13-3.09921E-13
 -1      3108 1.96713E+01 7.89259E-01 1.19005E-03 1.00098E+00 8.95157E-14-3.37834E-13
 -1      3109 1.95622E+01 7.64177E-01 5.35515E-03 7.85332E-01 3.45250E-14-1.92694E-13
 -1      3110 1.95189E+01 8.68029E-01-7.37857E-03 1.10495E+00 7.39442E-14-3.47360E-13
 -1      3111 1.94481E+01 9.51846E-01 1.16546E-03 1.23747E+00 1.27838E-15-4.28529E-13
 -1      3112 1.93230E+01 9.39866E-01 7.59319E-03 9.62386E-01 5.33900E-14-3.01753E-13
 -1      3113 1.92334E+01 1.02494E+00-9.70716E-03 1.36090E+00-4.38095E-14-4.42627E-13
 -1      3114 1.91288E+01 1.09495E+00 1.75783E-03 1.51608E+00-1.05666E-13-3.73667E-13
 -1      3115 1.89792E+01 1.12076E+00 1.03864E-02 1.16749E+00-1.36591E-14-2.98937E-13
 -1      3116 1.88345E+01 1.13767E+00-1.27227E-02 1.66754E+00-1.02864E-13-3.35182E-13
 -1      3117 1.87008E+01 1.16097E+00 4.19623E-03 1.85087E+00-8.35247E-14-2.45831E-13
 -1      3118 1.84983E+01 1.27474E+00 1.36830E-02 1.41062E+00 5.52114E-15-2.13024E-13
 -1      3119 1.83106E+01 1.12637E+00-1.62012E-02 2.05072E+00-9.48560E-14-1.66931E-13
 -1      3120 1.81779E+01 1.04235E+00 1.13253E-02 2.27546E+00-9.43388E-14-6.99500E-14
 -1      3121 1.78467E+01 1.33931E+00 1.74782E-02 1.71924E+00 1.28194E-14-8.00816E-14
 -1      3122 1.76861E+01 8.48018E-01-1.71310E-02 2.56433E+00-1.76200E-14 4.19066E-15
 -1      3123 1.76267E+01 5.50959E-01 2.81768E-02 2.86186E+00 4.95281E-14 6.51579E-14
 -1      3124 1.69988E+01 1.19739E+00 2.19955E-02 2.15764E+00 1.38440E-14-7.63378E-14
 -1      3125 1.70618E+01 1.32956E-01-1.76481E-02 3.24485E+00 1.16941E-13 1.27435E-13
 -1      3126 1.72402E+01-5.26210E-01 4.87544E-02 3.65625E+00 2.17278E-13 2.37005E-13
 -1      3127 1.49537E+01-1.73268E-01 1.00417E-01 3.64009E+00 3.17177E-13 2.98657E-13
 -1      3128 1.60150E+01 7.44439E-01 4.37660E-02 2.76507E+00 1.53409E-13 2.05476E-13
 -1      3129 2.15278E+01-4.91795E+00-3.75088E-02 5.40479E+00 2.11262E-13 1.26735E-13
 -1      3130 1.91484E+01-4.10855E+00 1.53626E-01 5.99474E+00 1.22423E-13 1.98910E-13
 -1      3131 2.02440E+01 1.67855E+00-8.23394E-04-9.81368E-01-6.70247E-14-1.84856E-13
 -1      3132 2.02501E+01 1.39816E+00-3.21757E-03-8.04007E-01-6.24899E-14-1.83045E-13
 -1      3133 1.83640E+01-7.83943E-01 3.59385E-02-4.20812E+00 1.74739E-13 2.13031E-13
 -1      3134 1.81590E+01-1.40023E-02 1.97841E-02-3.87450E+00 2.00858E-13 3.44778E-13
 -1      3135 1.85771E+01 4.73730E-01 2.61303E-02-3.45100E+00 1.48440E-13 2.01886E-13
 -1      3136 1.85596E+01 8.69849E-01-7.06375E-03-3.17681E+00 1.41739E-13 1.34207E-13
 -1      3137 1.71601E+01 5.03707E-01 1.65311E-02-3.53383E+00 9.60534E-14 2.68036E-13
 -1      3138 2.01392E+01 2.27909E-01-1.71962E-03-2.40169E-02 1.26738E-13-2.11516E-14
 -1      3139 2.01761E+01 3.13957E-01 3.94615E-03 4.43935E-02 1.38926E-13 7.72806E-15
 -1      3140 2.01889E+01 4.15678E-01-2.92103E-03 1.25068E-01 1.37810E-13 7.86236E-15
 -1      3141 2.02355E+01 5.46873E-01 4.81052E-03 2.34846E-01 1.31422E-13-9.26315E-16
 -1      3142 2.02434E+01 4.41632E-01-7.85649E-04 1.09063E-01 1.39547E-13-2.89230E-14
 -1      3143 2.00220E+01-4.20813E-02 1.92458E-04-1.76759E-01 3.39670E-14 4.14864E-14
 -1      3144 2.00263E+01-3.13325E-02 6.53329E-04-1.78645E-01 3.00825E-14 4.99814E-14
 -1      3145 2.00388E+01-1.68021E-02-1.40108E-05-1.76888E-01 3.73897E-15 4.82637E-14
 -1      3146 2.00482E+01 3.76886E-03 1.18300E-03-1.70841E-01 3.24222E-14 4.29482E-14
 -1      3147 2.00937E+01-2.26928E-02-8.02041E-04-1.69354E-01 1.63601E-14 1.49913E-14
 -1      3148 2.00047E+01-5.37116E-02 3.89095E-04-1.51517E-01 4.52634E-14-3.27912E-14
 -1      3149 2.00031E+01-5.43811E-02 2.66716E-05-1.59416E-01 1.30688E-14 9.07098E-15
 -1      3150 2.00016E+01-4.76422E-02 4.34665E-04-1.35921E-01 5.65841E-14-5.52303E-14
 -1      3151 1.99985E+01-5.15393E-02-1.42726E-04-1.43716E-01 4.19451E-14-3.24753E-14
 -1      3152 2.00384E+01-5.97031E-02-3.86636E-04-1.45951E-01 6.73232E-14-1.10075E-13
 -1      3153 2.00011E+01-3.67028E-02 4.68732E-04-1.22489E-01 9.49783E-14-8.11629E-14
 -1      3154 1.99969E+01-4.28950E-02-2.55171E-04-1.28881E-01 6.50277E-14-9.79617E-14
 -1      3155 2.00284E+01-5.16372E-02-2.95061E-04-1.31937E-01 5.79650E-14-1.36965E-13
 -1      3156 2.00025E+01-2.21688E-02 5.02665E-04-1.13285E-01 9.54326E-14-5.01899E-14
 -1      3157 1.99975E+01-3.00811E-02-3.31975E-04-1.17321E-01 1.20580E-13-6.06932E-15
 -1      3158 2.00214E+01-3.80776E-02-2.23403E-04-1.20339E-01 4.71232E-14-3.19629E-14
 -1      3159 2.00055E+01-4.79119E-03 5.44047E-04-1.09880E-01 4.24382E-14-7.90658E-14
 -1      3160 1.99997E+01-1.40925E-02-3.88916E-04-1.10830E-01 7.30239E-14-5.90540E-14
 -1      3161 2.00165E+01-2.04048E-02-1.67983E-04-1.13190E-01 7.52633E-14 6.91628E-14
 -1      3162 2.00099E+01 1.49946E-02 5.97525E-04-1.13553E-01 8.35218E-14 1.48202E-15
 -1      3163 2.00033E+01 4.49729E-03-4.36553E-04-1.10820E-01 3.00661E-14-7.36322E-14
 -1      3164 2.00132E+01 5.64480E-04-1.26399E-04-1.12071E-01 6.81507E-14-3.88262E-14
 -1      3165 2.00157E+01 3.68674E-02 6.65198E-04-1.25394E-01-5.17066E-14 6.64659E-14
 -1      3166 2.00081E+01 2.53326E-02-4.80767E-04-1.18472E-01 7.17161E-14 2.77284E-14
 -1      3167 2.00111E+01 2.43375E-02-9.68042E-05-1.18297E-01 2.37507E-14 2.85960E-14
 -1      3168 2.00232E+01 6.03992E-02 7.46343E-04-1.46347E-01 3.04629E-14 5.66132E-14
 -1      3169 2.00142E+01 4.80689E-02-5.22290E-04-1.34821E-01-3.52633E-14 7.97151E-14
 -1      3170 2.00098E+01 5.05027E-02-8.03439E-05-1.33019E-01-5.19342E-14 2.70428E-14
 -1      3171 2.00328E+01 8.47903E-02 8.37036E-04-1.77170E-01-3.44613E-14 1.41740E-13
 -1      3172 2.00220E+01 7.21312E-02-5.55717E-04-1.60749E-01 3.40926E-14 1.47330E-13
 -1      3173 2.00092E+01 7.84639E-02-8.11444E-05-1.57270E-01-2.04207E-14 1.19165E-13
 -1      3174 2.00454E+01 1.08549E-01 9.29527E-04-2.18289E-01-7.70565E-14 8.11086E-14
 -1      3175 2.00322E+01 9.64247E-02-5.68146E-04-1.96905E-01-4.80827E-14 1.09901E-13
 -1      3176 2.00096E+01 1.07118E-01-1.08320E-04-1.91919E-01-5.10522E-15 2.29818E-13
 -1      3177 2.00626E+01 1.29102E-01 1.01121E-03-2.69548E-01-8.74588E-14 6.13290E-14
 -1      3178 2.00460E+01 1.18981E-01-5.36915E-04-2.43509E-01-9.09025E-14 9.37864E-14
 -1      3179 2.00118E+01 1.34467E-01-1.78256E-04-2.37543E-01-5.84649E-14 7.57621E-14
 -1      3180 2.00869E+01 1.42355E-01 1.06312E-03-3.29825E-01-1.77739E-14-2.33857E-14
 -1      3181 2.00657E+01 1.36542E-01-4.26865E-04-3.00037E-01-2.54264E-14 3.02491E-14
 -1      3182 2.00175E+01 1.57156E-01-3.17159E-04-2.94182E-01-2.48211E-14 3.12136E-14
 -1      3183 2.01220E+01 1.42238E-01 1.05744E-03-3.96481E-01-3.56004E-14 9.54903E-15
 -1      3184 2.00946E+01 1.44102E-01-1.87675E-04-3.64758E-01-4.60808E-14-1.93295E-14
 -1      3185 2.00296E+01 1.69955E-01-5.63695E-04-3.60970E-01-3.34104E-14-1.04383E-13
 -1      3186 2.01737E+01 1.20384E-01 9.53194E-04-4.64639E-01-3.16023E-14 3.28607E-14
 -1      3187 2.01377E+01 1.34501E-01 2.47773E-04-4.34082E-01 1.19186E-14 2.81441E-14
 -1      3188 2.00530E+01 1.65258E-01-9.70722E-04-4.35589E-01-4.38569E-14 3.43939E-14
 -1      3189 2.02501E+01 6.61757E-02 6.88948E-04-5.26272E-01-2.32368E-14-2.70037E-14
 -1      3190 2.02025E+01 9.82444E-02 9.61420E-04-5.01716E-01-5.06160E-14-1.22894E-14
 -1      3191 2.00954E+01 1.32757E-01-1.60299E-03-5.13497E-01-2.54764E-14 7.61773E-15
 -1      3192 2.03621E+01-3.23608E-02 1.71201E-04-5.69130E-01 6.00095E-14-7.65683E-14
 -1      3193 2.02991E+01 2.38967E-02 2.03927E-03-5.57595E-01 9.41925E-14 3.41575E-15
 -1      3194 2.01680E+01 5.96353E-02-2.52630E-03-5.86886E-01-3.29515E-14 1.01389E-13
 -1      3195 2.05229E+01-1.86068E-01-7.37545E-04-5.75650E-01-5.41631E-14-4.20621E-14
 -1      3196 2.04408E+01-1.00354E-01 3.54093E-03-5.86665E-01 1.34052E-14-6.40360E-14
 -1      3197 2.02861E+01-6.81593E-02-3.78025E-03-6.43282E-01 5.65839E-14 7.31240E-14
 -1      3198 2.07460E+01-3.99471E-01-2.20120E-03-5.22216E-01-1.32261E-13-1.81108E-14
 -1      3199 2.06420E+01-2.83046E-01 5.43755E-03-5.67709E-01-8.07623E-14 6.04258E-15
 -1      3200 2.04688E+01-2.62592E-01-5.31752E-03-6.63810E-01-4.71388E-14 6.86285E-14
 -1      3201 2.10401E+01-6.61699E-01-4.31060E-03-3.79866E-01-1.18585E-13 1.25224E-13
 -1      3202 2.09156E+01-5.22499E-01 7.50461E-03-4.72953E-01-1.38098E-13 3.44294E-14
 -1      3203 2.07366E+01-5.26716E-01-6.86924E-03-6.21438E-01-1.84790E-13 2.35011E-14
 -1      3204 2.14007E+01-9.33115E-01-6.78114E-03-1.18650E-01 6.87187E-14 1.39395E-13
 -1      3205 2.12643E+01-7.95715E-01 9.15737E-03-2.70179E-01-1.44706E-14 8.68085E-14
 -1      3206 2.11051E+01-8.42948E-01-7.76220E-03-4.80542E-01-1.39719E-13 1.02657E-13
 -1      3207 2.17964E+01-1.13032E+00-8.59282E-03 2.79759E-01 1.67609E-13 1.91306E-13
 -1      3208 2.16680E+01-1.04349E+00 9.31966E-03 6.90491E-02 1.27188E-13 1.43520E-13
 -1      3209 2.15722E+01-1.15581E+00-6.66655E-03-2.01145E-01 2.87743E-14 1.14796E-13
 -1      3210 2.21571E+01-1.12259E+00-8.42809E-03 7.93950E-01 6.42596E-14 3.81061E-13
 -1      3211 2.20667E+01-1.15785E+00 5.53560E-03 5.47474E-01 1.26058E-13 3.11934E-13
 -1      3212 2.20970E+01-1.35045E+00-1.62251E-03 2.45730E-01 9.84418E-14 2.37423E-13
 -1      3213 2.23836E+01-7.65414E-01-3.15140E-03 1.33261E+00 5.87835E-14 1.83077E-13
 -1      3214 2.23644E+01-9.97724E-01-3.00971E-03 1.10698E+00 6.46409E-14 2.62104E-13
 -1      3215 2.25824E+01-1.27441E+00 2.57633E-03 8.35518E-01 6.91526E-14 3.01047E-13
 -1      3216 2.23833E+01 1.33222E-02 9.22694E-03 1.69237E+00 1.59543E-13 1.27467E-13
 -1      3217 2.24401E+01-4.31828E-01-1.46300E-02 1.58858E+00 3.62627E-14 6.59219E-14
 -1      3218 2.28833E+01-7.41630E-01 9.69109E-03 1.44640E+00 1.41127E-13 9.40152E-14
 -1      3219 2.21576E+01 1.05490E+00 1.92522E-02 1.62092E+00-5.34919E-14 2.34280E-13
 -1      3220 2.22545E+01 5.11115E-01-2.46193E-02 1.73855E+00 1.45611E-13 1.56705E-13
 -1      3221 2.28768E+01 2.79963E-01 1.23477E-02 1.81597E+00 5.26890E-14 8.19436E-14
 -1      3222 2.18418E+01 1.92503E+00 7.10969E-03 9.97163E-01-7.29963E-14 4.72773E-14
 -1      3223 2.19301E+01 1.52605E+00-2.85266E-02 1.34449E+00-6.87050E-14 1.74178E-13
 -1      3224 2.25987E+01 1.48634E+00 9.03112E-03 1.63339E+00-2.61384E-14 2.55773E-13
 -1      3225 2.16943E+01 2.12678E+00-2.48549E-02 1.39110E-02-1.27801E-13 1.64390E-13
 -1      3226 2.17464E+01 2.12421E+00-9.95955E-03 4.48632E-01-8.95876E-14 7.87356E-14
 -1      3227 2.23460E+01 2.39010E+00 1.37320E-02 7.71056E-01-8.08143E-14 1.59361E-13
 -1      3228 2.18989E+01 1.56584E+00-2.77467E-02-9.32176E-01 5.06346E-14-2.62791E-14
 -1      3229 2.18463E+01 1.97092E+00 1.74817E-02-5.78829E-01-2.88753E-14 6.53449E-14
 -1      3230 2.23038E+01 2.49383E+00 1.62893E-02-3.69871E-01-2.06874E-14-5.97712E-14
 -1      3231 2.22223E+01 5.39532E-01-2.60297E-02-1.34928E+00 1.35527E-14 1.35808E-13
 -1      3232 2.21318E+01 1.09127E+00 1.87856E-02-1.22408E+00 7.49270E-15 2.49234E-14
 -1      3233 2.26142E+01 1.56750E+00 1.25494E-02-1.21990E+00-3.68395E-14-1.72268E-13
 -1      3234 2.24075E+01-4.19150E-01-1.67346E-02-1.20823E+00 7.43446E-14 2.39820E-13
 -1      3235 2.23646E+01 3.53614E-02 1.00213E-02-1.30694E+00 5.57939E-14 2.33427E-13
 -1      3236 2.29096E+01 3.08272E-01 1.17357E-02-1.42667E+00-5.09731E-14 2.25726E-13
 -1      3237 2.23348E+01-9.89892E-01-3.19603E-03-7.21102E-01 1.25352E-13 2.20521E-13
 -1      3238 2.23705E+01-7.58349E-01-8.01269E-04-9.48929E-01 1.39190E-13 1.85583E-13
 -1      3239 2.29446E+01-7.19265E-01 1.55287E-02-1.06851E+00 6.09640E-14 3.61736E-13
 -1      3240 2.20167E+01-1.11174E+00 5.51493E-03-1.52634E-01 8.79532E-15 2.77480E-14
 -1      3241 2.21265E+01-1.10231E+00-9.03480E-03-3.98461E-01 9.80221E-14 7.69367E-14
 -1      3242 2.26547E+01-1.25926E+00 4.57637E-03-4.35661E-01 1.28008E-13 1.75588E-13
 -1      3243 2.15702E+01-9.06693E-01 9.62607E-03 3.03268E-01-4.76541E-14-2.44907E-13
 -1      3244 2.17260E+01-1.04098E+00-9.51253E-03 1.15075E-01 2.22991E-14-6.09242E-14
 -1      3245 2.21471E+01-1.27701E+00-3.13959E-03 1.69523E-01 8.02792E-14 3.62910E-14
 -1      3246 2.11545E+01-5.99197E-01 2.82512E-03 5.69102E-01-8.38692E-14-5.77419E-13
 -1      3247 2.13249E+01-7.79396E-01-8.52834E-03 4.46372E-01-1.22059E-13-3.99484E-13
 -1      3248 2.16554E+01-1.03206E+00-8.93844E-03 5.60658E-01 5.71990E-14 3.49747E-15
 -1      3249 2.12223E+01-6.51034E-01-2.30265E-03 7.50408E-01-3.00077E-14-4.19783E-13
 -1      3250 1.65348E+01 1.77150E+00-9.13953E-03 1.95470E-01 1.36901E-13 1.27926E-13
 -1      3251 1.67815E+01 1.68066E+00 2.92153E-02 8.90163E-01 1.14460E-13 2.63404E-13
 -1      3252 9.68921E+00 2.43976E-01 9.92610E-02-1.15384E+00-1.45150E-13-4.47448E-13
 -1      3253 1.05521E+01-3.85987E-01 1.21881E-01-3.25910E+00-5.34572E-14-3.01884E-13
 -1      3254 1.68238E+01 1.82309E+00 1.47250E-02-1.44886E+00-8.60718E-14-5.36353E-14
 -1      3255 1.65275E+01 1.84849E+00-1.74175E-02-7.37384E-01-1.66794E-14 6.73012E-14
 -1      3256 1.59409E+01 1.65722E+00 2.49250E-02-2.06749E-01 2.14009E-13 3.82138E-14
 -1      3257 1.72105E+01 1.23409E+00-3.41152E-02 1.67148E+00 7.51096E-14 3.84630E-13
 -1      3258 1.78612E+01 1.04284E+00 4.90859E-02 2.12874E+00 3.95157E-14 3.35625E-13
 -1      3259 1.63607E+01 1.19015E+00-1.91795E-02 1.57035E+00 1.40119E-13 2.81569E-13
 -1      3260 1.17186E+01-9.81208E-01 1.48952E-01-4.30546E+00-4.70110E-14-5.86198E-14
 -1      3261 1.35945E+01-2.03581E+00 3.82952E-02-5.30315E+00-4.09811E-14 3.09669E-13
 -1      3262 1.23698E+01-1.97541E-01 1.09675E-01-3.39983E+00-5.62050E-15-1.13340E-13
 -1      3263 2.02899E+01 9.29382E-01-7.27211E-03 7.82092E-01 1.51650E-13 1.36873E-13
 -1      3264 2.01415E+01 2.17781E+00-9.67768E-05-1.20815E+00-6.10044E-14-2.07062E-13
 -1      3265 2.14527E+01-4.23107E+00 1.49574E-01-4.97040E+00-6.29913E-14 1.36356E-13
 -1      3266 1.91647E+01-3.68417E+00 1.18958E-02-5.40609E+00-1.69240E-14 1.41616E-13
 -1      3267 1.98682E+01-3.19677E+00 3.60990E-02-4.94020E+00-3.98293E-15 1.86746E-13
 -1      3268 1.91448E+01-1.83913E+00 9.50927E-02-4.68354E+00 3.32581E-14-2.68119E-14
 -1      3269 1.64005E+01-2.64342E+00 1.75827E-01-5.61480E+00 9.99895E-15 1.45717E-13
 -1      3270 1.09238E+01-5.76291E-01 1.01176E-01 3.71357E+00 5.22082E-14 6.93764E-13
 -1      3271 9.83293E+00 1.66213E-01 8.93911E-02 1.47421E+00 1.06221E-13 1.37584E-13
 -1      3272 1.85025E+01 4.70375E-01-3.49808E-02 2.51582E+00-7.79717E-14 2.06432E-13
 -1      3273 1.92333E+01 1.97009E-01 3.04897E-02 2.69073E+00 5.92842E-15 8.63748E-14
 -1      3274 1.77708E+01 3.68997E-01-1.94311E-02 2.69099E+00 6.31552E-14 3.27827E-13
 -1      3275 2.00111E+01-5.28817E-02 3.15867E-04-1.66450E-01-2.39847E-14 4.96455E-14
 -1      3276 2.00118E+01-4.88958E-02 2.80703E-04-1.72631E-01 2.48571E-14 6.66789E-14
 -1      3277 2.00701E+01-4.93686E-02-6.40892E-04-1.69200E-01 2.87698E-14 4.55886E-14
 -1      3278 2.00519E+01-6.00647E-02-5.01122E-04-1.59638E-01 2.33564E-14 3.97345E-14
 -1      3279 2.01771E+01-5.00118E+00-6.68351E-02 4.93337E+00-2.59362E-13 6.50202E-13
 -1      3280 2.57039E+01 5.18335E+00-8.10249E-02 1.11326E+00-1.49103E-13 1.99068E-13
 -1      3281 2.56743E+01 5.48602E+00-1.02864E-01 9.18969E-04-8.96783E-14 1.26510E-13
 -1      3282 2.02855E+01 1.12988E+00 1.64595E-03-6.49503E-01-5.14414E-14-1.62765E-13
 -1      3283 2.02577E+01 8.92331E-01-3.90843E-03-4.66337E-01-5.18126E-14-1.59518E-13
 -1      3284 2.02852E+01 9.27632E-01 8.50139E-04-4.11011E-01-4.28885E-14-1.29660E-13
 -1      3285 2.02533E+01 1.40160E+00 2.12822E-03-6.86643E-01-5.30672E-14-1.50447E-13
 -1      3286 9.19230E+00 4.39701E-01 1.00673E-01-1.12408E+00 2.03434E-13-3.65347E-13
 -1      3287 9.49877E+00-7.94895E-02 1.08957E-01-3.15152E+00 1.78815E-13-4.84168E-13
 -1      3288 2.12715E+01-4.24028E+00 1.06967E-01-4.85631E+00-2.73594E-13-1.56888E-14
 -1      3289 2.32128E+01-4.53288E+00-3.80965E-02-3.71373E+00-2.61510E-13-4.87076E-14
 -1      3290 2.59439E+01 5.19311E+00-1.31460E-01-9.40851E-01 6.02296E-15 6.71026E-14
 -1      3291 2.66217E+01 3.92830E+00-1.12260E-01-1.73580E+00 1.37765E-13-1.10127E-13
 -1      3292 1.10368E+01-8.12468E-01 1.30118E-01-4.49042E+00 2.78735E-14-4.41674E-13
 -1      3293 1.33928E+01-1.98327E+00 2.43640E-03-5.64086E+00-1.11848E-13-6.12371E-13
 -1      3294 1.17590E+01-1.30905E-01 1.25024E-01-3.55545E+00 2.09451E-14-3.21708E-13
 -1      3295 2.02759E+01 1.25947E+00 3.50869E-03 8.00050E-01 1.63497E-13 6.24067E-14
 -1      3296 2.73560E+01-1.62901E+00 1.71122E-02 9.26782E-01 1.17694E-13 4.92335E-13
 -1      3297 2.69001E+01 2.31591E-01-1.39887E-01 1.89631E+00 3.38833E-13 7.52690E-13
 -1      3298 2.00452E+01 2.16046E+00-4.31036E-03 2.92844E-01 1.55271E-13-1.02994E-13
 -1      3299 2.00321E+01 2.19915E+00-3.32453E-03 1.71017E-01 1.23513E-13-1.40435E-13
 -1      3300 1.98755E+01-2.00585E-01-1.08626E-02 2.63190E+00-5.14266E-14-1.35981E-13
 -1      3301 2.04230E+01-4.28836E-01 2.16988E-02 2.53446E+00-2.75169E-14-7.18089E-14
 -1      3302 1.95185E+01-5.08797E-01-1.71068E-02 2.95433E+00 3.11157E-14-4.18745E-14
 -1      3303 2.02803E+01 1.09427E+00 5.01709E-03 6.16156E-01 1.55830E-13 2.25885E-14
 -1      3304 2.65235E+01 2.52757E+00-2.00841E-02 2.31422E+00 2.67703E-13 5.66033E-13
 -1      3305 2.58431E+01 3.97969E+00-1.39711E-01 1.82157E+00-3.92950E-14 2.36682E-13
 -1      3306 2.52763E+01-4.87067E+00-1.16919E-01 2.95560E+00 6.04967E-14 1.26694E-13
 -1      3307 2.37033E+01-4.97805E+00 9.32191E-02 4.33450E+00 7.09224E-14 5.51208E-14
 -1      3308 2.26156E+01-4.40435E+00 4.99295E-02 4.34585E+00 6.72934E-14 2.98797E-14
 -1      3309 1.22493E+01-1.25306E+00 1.94599E-01 4.30767E+00 2.66953E-13 1.69920E-13
 -1      3310 2.63894E+01 2.74900E+00-1.12503E-01-1.90648E+00 8.73052E-14-1.06332E-13
 -1      3311 2.60831E+01 1.69151E+00-1.07465E-02-1.95137E+00 3.40283E-14-4.10054E-14
 -1      3312 2.51808E+01 3.16456E+00-3.37612E-02-1.71958E+00-2.18020E-14 3.22721E-13
 -1      3313 2.01052E+01 2.15440E+00-2.96563E-03-1.04937E+00-4.86247E-14-1.91327E-13
 -1      3314 1.20878E+01-3.79142E-01 8.24284E-02 3.28158E+00 2.48135E-13 1.58901E-13
 -1      3315 2.63593E+01-3.39615E-01-1.04943E-01-1.59221E+00 7.30423E-14-2.93755E-13
 -1      3316 2.72761E+01-1.30113E+00-9.79521E-03-1.11114E+00 1.11791E-13-1.92610E-13
 -1      3317 2.62963E+01-2.12811E+00 1.30527E-02-5.35480E-01 8.38205E-14-1.48825E-13
 -1      3318 2.56187E+01-3.97741E+00 5.11103E-03 1.78369E+00 1.01846E-13 6.84140E-14
 -1      3319 2.01641E+01-3.57949E+00 4.86577E-02-4.70985E+00-3.63185E-13 6.82752E-14
 -1      3320 9.61455E+00 7.04614E-01 1.79521E-01-1.66551E-01 1.43239E-13-3.14360E-13
 -1      3321 1.04488E+01 7.45261E-01 7.01422E-02-1.20549E+00 2.11279E-13-4.88068E-13
 -1      3322 1.01673E+01 5.98674E-01 6.72468E-02 8.21947E-01 1.14065E-13-1.47618E-13
 -1      3323 1.79345E+01-3.26807E+00 7.14919E-02 5.68091E+00-2.69645E-14 2.31523E-13
 -1      3324 1.26392E+01-8.36496E-01 1.50737E-01 4.33054E+00-3.11209E-14 6.35755E-13
 -1      3325 1.29381E+01 6.29295E-03 5.21030E-02 3.20638E+00-1.41206E-14 4.88554E-13
 -1      3326 1.43299E+01-1.38333E+00-1.74913E-02 4.77766E+00-7.22720E-14 3.02279E-13
 -1      3327 2.02467E+01 1.45942E+00 3.74330E-03 5.84774E-01 1.91236E-13-4.52677E-14
 -1      3328 2.01591E+01 1.80186E+00-6.68387E-03 6.87039E-01 2.10210E-13-5.41860E-14
 -1      3329 2.01242E+01 1.93011E+00-2.55666E-03 5.89874E-01 2.01560E-13-8.09166E-14
 -1      3330 1.71218E+01-1.16913E+00-7.89238E-03-4.59606E+00 1.81809E-13 1.95829E-13
 -1      3331 2.01223E+01 1.61926E-01 2.83575E-03-7.37528E-02 1.20833E-13-4.03690E-15
 -1      3332 2.02012E+01 2.41060E-01-1.11189E-03-2.76556E-02 1.29069E-13-2.67365E-14
 -1      3333 2.00964E+01 1.06361E-01-8.92713E-04-1.12822E-01 1.20358E-13-1.44155E-14
 -1      3334 1.89906E+01 1.20774E+00 8.27213E-03-2.82037E+00-2.99986E-14-4.93326E-14
 -1      3335 2.00251E+01 2.21793E+00-3.68548E-03 6.60507E-02 1.21390E-13-1.57829E-13
 -1      3336 2.00247E+01 2.21881E+00-3.63997E-03-5.80845E-02 1.13940E-13-1.71969E-13
 -1      3337 2.01392E+01 1.92222E+00 4.98209E-03 1.01613E-01 1.11693E-13-1.38264E-13
 -1      3338 2.01235E+01 2.70575E-02-9.70815E-04-1.52829E-01 4.85492E-14 8.26790E-14
 -1      3339 2.00631E+01 2.95015E-02-3.52500E-04-1.59101E-01 7.80411E-14 4.50825E-14
 -1      3340 2.00796E+01 6.43234E-02 1.90495E-03-1.40038E-01 9.71880E-14 1.69652E-14
 -1      3341 1.06647E+01 6.32167E-01 1.39543E-01 1.50695E-01 6.34527E-14-9.04624E-14
 -1      3342 1.18016E+01 8.27610E-01 5.24454E-02-1.05003E+00 9.54718E-14-2.75141E-13
 -1      3343 1.21706E+01 7.42215E-01 8.51136E-02 1.17969E+00 1.15272E-13 3.39888E-13
 -1      3344 2.58265E+01 8.06453E-01-5.75359E-02 1.99623E+00 2.28772E-13 4.80026E-13
 -1      3345 2.08295E+01-6.22823E-01-4.08728E-04 2.24953E+00 2.66345E-14-1.61572E-13
 -1      3346 2.11237E+01-7.54216E-01 9.01105E-03 2.00301E+00 1.00438E-13-2.51481E-13
 -1      3347 2.07663E+01-1.01030E+00-1.78853E-02 2.55971E+00 9.58731E-14-2.31767E-13
 -1      3348 2.01201E+01 1.94187E+00-2.07088E-03-5.84732E-01 1.16091E-14-1.85147E-13
 -1      3349 2.01568E+01 1.81402E+00-5.48940E-03-6.79024E-01-1.89653E-14-1.86894E-13
 -1      3350 1.57359E+01-1.62727E+00 8.52199E-02-4.97310E+00 3.22659E-14 1.58214E-13
 -1      3351 2.02372E+01 7.05981E-01-3.35646E-03 3.54753E-01 1.38815E-13 1.75162E-14
 -1      3352 2.02797E+01 8.97197E-01 1.20243E-03 5.17939E-01 1.51051E-13 2.58881E-14
 -1      3353 1.80668E+01 1.31473E+00 1.23002E-02-2.74809E+00-4.81899E-14-1.67333E-13
 -1      3354 1.74968E+01 1.45758E+00-1.24821E-02-2.38231E+00-6.37056E-14-7.73795E-14
 -1      3355 2.02772E+01 1.12836E+00 2.76234E-03 5.42918E-01 1.70008E-13-2.29160E-14
 -1      3356 2.12884E+01-7.61131E-01 7.41245E-03 1.63683E+00 1.86085E-13 1.46484E-15
 -1      3357 2.13503E+01-8.12873E-01-4.29275E-03 1.35439E+00 2.47027E-13 1.20135E-13
 -1      3358 2.14411E+01-1.15957E+00-9.36909E-03 1.86466E+00 2.96046E-13-1.43510E-13
 -1      3359 2.43964E+01-4.28290E+00 5.02424E-02-2.72857E+00-2.14665E-13 1.78590E-13
 -1      3360 2.48840E+01-3.86433E+00-5.30882E-02-1.58812E+00-1.96631E-13 3.86909E-13
 -1      3361 2.30148E+01-3.98578E+00-2.95925E-03-3.08907E+00-4.46438E-13 2.12158E-13
 -1      3362 2.01676E+01 1.87576E+00 2.05921E-03-8.44672E-01-3.83142E-14-1.73154E-13
 -1      3363 2.12891E+01-6.62906E-01 7.89614E-03 9.50079E-01 1.38087E-13-3.90324E-14
 -1      3364 2.50113E+01 4.61015E+00-5.67199E-02-4.87720E-01-3.49581E-14 1.74177E-13
 -1      3365 2.48782E+01 3.83756E+00-6.55276E-02 1.45122E+00-4.62408E-14 1.48399E-13
 -1      3366 1.66498E+01 1.38932E+00 1.47642E-02-2.21115E+00-1.18786E-13-9.28823E-14
 -1      3367 2.00911E+01 2.02505E+00-5.20362E-03 5.05460E-01 1.91606E-13-7.94403E-14
 -1      3368 2.00659E+01 2.10464E+00-3.05713E-03 3.91510E-01 1.76023E-13-9.15668E-14
 -1      3369 2.01612E+01 1.84659E+00 4.96266E-03 2.90837E-01 1.53162E-13-7.86697E-14
 -1      3370 2.01993E+01 1.69409E+00 4.26451E-03 4.58204E-01 1.79020E-13-6.85434E-14
 -1      3371 2.15765E+01-9.88854E-01 6.45125E-03 1.06380E+00 1.46889E-13 3.36108E-14
 -1      3372 2.63469E+01-2.45426E+00-3.11163E-02 2.84737E-01-3.73226E-14 4.68070E-13
 -1      3373 1.55983E+01-1.95053E+00 8.76512E-02-5.19673E+00-1.77261E-13-4.32335E-13
 -1      3374 2.00627E+01 2.11099E+00-3.08365E-03-3.83674E-01 6.79034E-14-1.67946E-13
 -1      3375 2.00874E+01 2.03313E+00-5.23084E-03-4.97720E-01 4.04502E-14-1.84271E-13
 -1      3376 2.01994E+01 1.70356E+00 5.60498E-03-4.54940E-01 4.21840E-15-1.61857E-13
 -1      3377 2.02761E+01 7.42115E-01 5.41633E-05 3.16579E-01 1.38632E-13-1.27763E-14
 -1      3378 1.32231E+01 1.03212E-02 5.22588E-02 3.05804E+00 3.14655E-13 2.48239E-13
 -1      3379 1.14520E+01 7.13684E-01 1.76394E-01 2.00666E+00 2.47267E-13 4.97102E-14
 -1      3380 1.14701E+01 8.85275E-01 4.21456E-02 9.09139E-01 1.68841E-13-8.64586E-15
 -1      3381 1.38134E+01 5.65969E-01-1.53845E-02 2.59996E+00 3.18271E-13 1.91666E-13
 -1      3382 2.03009E+01 4.39467E-01 2.75830E-03-7.23809E-02-1.08732E-14-9.53974E-14
 -1      3383 2.02757E+01 3.26500E-01-2.13928E-03-5.68537E-03-1.52761E-14-8.59760E-14
 -1      3384 2.02674E+01 2.36950E-01 2.11263E-03 3.93286E-02-2.60541E-14-9.15297E-14
 -1      3385 2.02429E+01 1.61770E-01-1.27548E-03 8.01378E-02-5.08176E-14-7.71071E-14
 -1      3386 2.03159E+01 3.28037E-01-1.66776E-04 2.00173E-03-2.44208E-14-6.61027E-14
 -1      3387 2.02281E+01 1.03128E-01 1.61128E-03 1.06293E-01-4.81961E-14-7.39538E-14
 -1      3388 2.02067E+01 5.46943E-02-6.40149E-04 1.28245E-01 1.80425E-16-4.95012E-14
 -1      3389 2.02844E+01 1.59356E-01-4.60431E-04 7.65496E-02-2.84881E-14-6.75955E-14
 -1      3390 2.01892E+01 1.79494E-02 1.12308E-03 1.40718E-01 3.41555E-14-7.34401E-14
 -1      3391 2.01715E+01-1.15367E-02-2.25081E-04 1.49849E-01 1.83973E-14-7.40259E-14
 -1      3392 2.02468E+01 4.94402E-02-5.79184E-04 1.18268E-01 1.50947E-15-8.05911E-14
 -1      3393 2.01529E+01-3.36896E-02 7.07997E-04 1.53244E-01 1.17972E-14-4.34715E-14
 -1      3394 2.01383E+01-4.99775E-02 6.92659E-05 1.53977E-01 1.16806E-14 1.48257E-14
 -1      3395 2.02075E+01-1.90531E-02-5.69794E-04 1.36896E-01 3.93662E-14-5.18766E-14
 -1      3396 2.01216E+01-5.97903E-02 4.00050E-04 1.51464E-01-2.94336E-14 5.65678E-14
 -1      3397 2.01110E+01-6.58716E-02 2.69931E-04 1.47539E-01-6.74942E-14 7.23741E-14
 -1      3398 2.01706E+01-5.66722E-02-5.93015E-04 1.40114E-01 1.79702E-14-4.44426E-14
 -1      3399 2.00960E+01-6.83360E-02 1.61463E-04 1.42333E-01-1.24984E-13 6.38269E-14
 -1      3400 2.00881E+01-6.78643E-02 3.79760E-04 1.36419E-01-1.07785E-13 5.97314E-14
 -1      3401 2.01384E+01-7.17074E-02-5.30372E-04 1.34379E-01-9.23016E-14 2.46952E-14
 -1      3402 2.00748E+01-6.50601E-02-1.17145E-05 1.30403E-01-7.99466E-14 6.13878E-15
 -1      3403 2.00692E+01-5.99462E-02 4.39965E-04 1.24363E-01-8.61073E-14 4.35257E-15
 -1      3404 2.01104E+01-7.19364E-02-4.48951E-04 1.24713E-01-1.24517E-13 7.27969E-14
 -1      3405 2.00575E+01-5.33165E-02-1.46569E-04 1.18963E-01-1.06659E-13 1.19350E-14
 -1      3406 2.00536E+01-4.47412E-02 4.74181E-04 1.14159E-01-8.53160E-14 4.92485E-15
 -1      3407 2.00864E+01-6.15698E-02-3.59233E-04 1.14532E-01-1.03644E-13 3.01359E-14
 -1      3408 2.00432E+01-3.51411E-02-2.60533E-04 1.10439E-01-1.36592E-15-1.00694E-14
 -1      3409 2.00405E+01-2.37372E-02 4.95966E-04 1.07913E-01 5.18511E-14 4.40398E-14
 -1      3410 2.00656E+01-4.32935E-02-2.63241E-04 1.06365E-01-3.06064E-14 8.54014E-14
 -1      3411 2.00308E+01-1.15517E-02-3.68965E-04 1.06704E-01 1.77167E-14 5.09276E-14
 -1      3412 2.00289E+01 2.48728E-03 5.13881E-04 1.07315E-01 5.04104E-14 5.85781E-14
 -1      3413 2.00470E+01-1.85792E-02-1.58974E-04 1.02129E-01 8.92925E-14 9.99022E-14
 -1      3414 2.00191E+01 1.72566E-02-4.85862E-04 1.09312E-01 3.62560E-14 7.18978E-14
 -1      3415 2.00176E+01 3.41002E-02 5.32051E-04 1.13832E-01-1.93841E-14 8.84615E-14
 -1      3416 2.00295E+01 1.20702E-02-4.11161E-05 1.03358E-01 3.41374E-14 1.32289E-13
 -1      3417 2.00067E+01 5.17752E-02-6.24410E-04 1.19670E-01 1.78803E-14 1.05043E-13
 -1      3418 2.00048E+01 7.19039E-02 5.50036E-04 1.28857E-01 8.36427E-14 1.27812E-13
 -1      3419 2.00112E+01 4.89454E-02 9.93904E-05 1.11363E-01 2.96069E-14 2.28225E-13
 -1      3420 1.99918E+01 9.30915E-02-7.97720E-04 1.39147E-01 8.85622E-14 1.28292E-13
 -1      3421 1.99887E+01 1.17263E-01 5.62444E-04 1.53796E-01 9.61145E-14 1.69294E-13
 -1      3422 1.99901E+01 9.30066E-02 2.76727E-04 1.27339E-01 1.15158E-13 2.56878E-13
 -1      3423 1.99718E+01 1.42831E-01-1.01987E-03 1.69140E-01 1.99590E-14 1.63417E-13
 -1      3424 1.99664E+01 1.72059E-01 5.57223E-04 1.90093E-01 1.78634E-14 1.62673E-13
 -1      3425 1.99635E+01 1.45794E-01 5.11182E-04 1.52400E-01 6.57204E-14 2.09544E-13
 -1      3426 1.99435E+01 2.03120E-01-1.30792E-03 2.11060E-01-1.96067E-14 9.50314E-14
 -1      3427 1.99340E+01 2.38659E-01 5.18607E-04 2.39191E-01-9.44894E-14 8.67270E-14
 -1      3428 1.99278E+01 2.09360E-01 8.31719E-04 1.87553E-01-3.25116E-14 9.38745E-14
 -1      3429 1.99023E+01 2.76476E-01-1.70538E-03 2.66265E-01-1.03523E-13 5.26088E-14
 -1      3430 1.98863E+01 3.19841E-01 4.57781E-04 3.02426E-01-4.29293E-14 6.43482E-14
 -1      3431 1.98781E+01 2.86242E-01 1.28752E-03 2.33589E-01-8.24078E-14 6.04743E-14
 -1      3432 1.98394E+01 3.68606E-01-2.17307E-03 3.37630E-01-6.00450E-14-2.13142E-14
 -1      3433 1.98110E+01 4.24036E-01 2.60409E-04 3.85191E-01-1.05642E-13-8.25919E-15
 -1      3434 1.98055E+01 3.81540E-01 1.81114E-03 2.92591E-01-8.66124E-14 8.37948E-14
 -1      3435 1.97469E+01 4.80505E-01-2.83075E-03 4.25276E-01-1.28653E-13 2.98635E-14
 -1      3436 1.97039E+01 5.44332E-01-2.10704E-04 4.80007E-01-4.03722E-14-2.54179E-14
 -1      3437 1.97019E+01 4.97213E-01 2.82910E-03 3.62679E-01-1.11193E-13 6.55473E-14
 -1      3438 1.96142E+01 6.11938E-01-3.62228E-03 5.25869E-01-3.52079E-14-5.19929E-16
 -1      3439 1.95477E+01 6.87197E-01-8.13228E-04 5.90021E-01-3.46846E-14-4.88731E-15
 -1      3440 1.95576E+01 6.31688E-01 4.03530E-03 4.40691E-01-6.42741E-14 6.63151E-14
 -1      3441 1.94220E+01 7.66029E-01-4.70438E-03 6.40556E-01-2.67869E-14-2.20462E-14
 -1      3442 1.93221E+01 8.52118E-01-1.66590E-03 7.13845E-01 1.36129E-14-5.87967E-14
 -1      3443 1.93536E+01 7.88972E-01 5.72144E-03 5.25181E-01-4.45781E-14 1.42903E-13
 -1      3444 1.91468E+01 9.40137E-01-6.22163E-03 7.67624E-01 5.54487E-14-1.08512E-13
 -1      3445 1.90006E+01 1.03347E+00-2.76505E-03 8.49772E-01 5.64713E-14-1.43257E-13
 -1      3446 1.90669E+01 9.67322E-01 8.02436E-03 6.11864E-01-7.86681E-15 1.56519E-13
 -1      3447 1.87572E+01 1.12443E+00-8.50876E-03 9.05925E-01-1.76064E-15-1.63316E-13
 -1      3448 1.85495E+01 1.21618E+00-3.97578E-03 9.98039E-01-1.71356E-14-1.28771E-13
 -1      3449 1.86669E+01 1.15975E+00 1.11521E-02 6.95964E-01-1.92184E-14 5.17261E-14
 -1      3450 1.82118E+01 1.29632E+00-1.21698E-02 1.05860E+00 1.52734E-14-7.22098E-14
 -1      3451 1.79264E+01 1.36878E+00-4.75134E-03 1.16653E+00 1.79620E-14-3.76418E-14
 -1      3452 1.81119E+01 1.35037E+00 1.54853E-02 7.75132E-01 5.75158E-15-1.27318E-14
 -1      3453 1.74569E+01 1.41247E+00-1.77694E-02 1.24107E+00 1.90824E-14-9.24345E-14
 -1      3454 1.70799E+01 1.43370E+00-3.48052E-03 1.38267E+00 1.87454E-14-1.65797E-13
 -1      3455 1.73441E+01 1.50886E+00 2.20153E-02 8.55831E-01 1.42149E-14-7.54722E-14
 -1      3456 1.64198E+01 1.40093E+00-2.41130E-02 1.49952E+00 2.48421E-14-6.19760E-14
 -1      3457 1.59407E+01 1.30742E+00 5.89859E-03 1.72059E+00 1.31546E-13 6.81130E-14
 -1      3458 1.62747E+01 1.58349E+00 3.20857E-02 9.64763E-01 7.15336E-14-1.59915E-13
 -1      3459 2.02764E+01 4.39475E-01-2.74630E-03 7.59605E-02 1.26722E-13-2.07424E-14
 -1      3460 2.03022E+01 5.75786E-01 2.93159E-03 1.62456E-01 1.25771E-13-3.67767E-14
 -1      3461 2.18001E+01-1.20433E+00-3.66345E-03 9.54069E-01 1.43775E-13 6.03749E-14
 -1      3462 2.00540E+01-5.34661E-02 4.51873E-04-1.22285E-01 4.13774E-14-2.47733E-14
 -1      3463 2.00581E+01-5.96386E-02-8.03251E-05-1.28310E-01 6.41941E-14-2.41510E-14
 -1      3464 2.00700E+01-6.37986E-02 4.04521E-04-1.34522E-01 7.27209E-14-1.74905E-14
 -1      3465 2.00760E+01-6.61131E-02 7.44670E-05-1.40974E-01 7.15494E-14-1.56417E-14
 -1      3466 2.00918E+01-6.73958E-02-4.04807E-04-1.24051E-01 4.97379E-14 2.48152E-14
 -1      3467 2.00302E+01-1.62835E-02 5.05271E-04-1.07735E-01 4.36597E-14 2.36353E-14
 -1      3468 2.00317E+01-2.74789E-02-2.96845E-04-1.09608E-01 6.85671E-14 1.69777E-14
 -1      3469 2.00210E+01 8.34349E-03 5.32886E-04-1.08803E-01 8.75982E-14-1.08940E-14
 -1      3470 2.00216E+01-4.69223E-03-3.84487E-04-1.07417E-01 3.97910E-14-8.57813E-15
 -1      3471 2.00358E+01-1.07835E-02-1.45930E-04-1.03388E-01 6.56542E-14-7.45403E-14
 -1      3472 2.00125E+01 3.62238E-02 5.70835E-04-1.17222E-01-4.41547E-14 9.85381E-14
 -1      3473 2.00125E+01 2.15716E-02-4.69804E-04-1.11953E-01 4.31778E-14 4.72996E-14
 -1      3474 2.00206E+01 1.78295E-02-6.51111E-05-1.06591E-01 3.12061E-14 6.59055E-14
 -1      3475 2.00043E+01 6.69237E-02 6.23931E-04-1.34170E-01-8.02143E-14 1.02836E-13
 -1      3476 2.00038E+01 5.08802E-02-5.56758E-04-1.24460E-01-4.51717E-14 9.99214E-14
 -1      3477 2.00056E+01 5.01053E-02 9.08376E-06-1.17172E-01-4.24653E-14 1.51292E-13
 -1      3478 1.99960E+01 9.97595E-02 6.95600E-04-1.60759E-01-5.23559E-14 1.52663E-13
 -1      3479 1.99949E+01 8.27156E-02-6.43552E-04-1.46109E-01-7.07192E-14 1.17718E-13
 -1      3480 1.99898E+01 8.55155E-02 7.22949E-05-1.36390E-01-1.14586E-13 8.72974E-14
 -1      3481 1.99875E+01 1.33437E-01 7.88586E-04-1.98006E-01 2.54923E-14 1.56277E-13
 -1      3482 1.99857E+01 1.16140E-01-7.22492E-04-1.78012E-01 7.11404E-15 1.95035E-13
 -1      3483 1.99726E+01 1.23180E-01 1.14859E-04-1.65504E-01-4.55921E-14 1.01782E-13
 -1      3484 1.99796E+01 1.65613E-01 9.05167E-04-2.46726E-01-3.52158E-14 1.07992E-13
 -1      3485 1.99764E+01 1.49401E-01-7.77526E-04-2.21159E-01 1.24126E-14 1.53415E-13
 -1      3486 1.99538E+01 1.61452E-01 1.19633E-04-2.05771E-01 2.70067E-14 1.15939E-13
 -1      3487 1.99739E+01 1.92368E-01 1.04679E-03-3.07335E-01-2.30454E-14-1.66418E-14
 -1      3488 1.99682E+01 1.79446E-01-7.81053E-04-2.76274E-01-3.70194E-14 6.06488E-15
 -1      3489 1.99339E+01 1.97414E-01 5.80633E-05-2.58377E-01 1.77848E-14 4.89992E-17
 -1      3490 1.99739E+01 2.07616E-01 1.21283E-03-3.79521E-01-6.71187E-14 7.24971E-15
 -1      3491 1.99638E+01 2.01364E-01-6.90122E-04-3.43558E-01 1.35699E-14 2.02396E-14
 -1      3492 1.99147E+01 2.26276E-01-1.12787E-04-3.24287E-01-2.02385E-14-3.68427E-15
 -1      3493 1.99853E+01 2.02526E-01 1.39612E-03-4.61753E-01-7.72787E-14 4.25010E-14
 -1      3494 1.99679E+01 2.07788E-01-4.41597E-04-4.22282E-01-1.40819E-13-5.28712E-14
 -1      3495 1.99002E+01 2.40708E-01-4.55945E-04-4.03970E-01-5.27926E-14 2.49384E-14
 -1      3496 2.00175E+01 1.65110E-01 1.57323E-03-5.50537E-01-1.03510E-13 1.17960E-13
 -1      3497 1.99882E+01 1.88372E-01 5.35414E-05-5.10169E-01-1.29740E-14 1.11315E-13
 -1      3498 1.98972E+01 2.30194E-01-1.05760E-03-4.96931E-01-1.09975E-13 8.37420E-14
 -1      3499 2.00841E+01 8.03332E-02 1.68447E-03-6.39309E-01-2.13537E-14 8.73935E-14
 -1      3500 2.00366E+01 1.29597E-01 9.14341E-04-6.02443E-01-7.87666E-14 6.76933E-14
 -1      3501 1.99170E+01 1.80592E-01-2.02784E-03-6.00933E-01-7.45566E-14 1.92581E-13
 -1      3502 2.02042E+01-6.86369E-02 1.59511E-03-7.16788E-01 3.66218E-14 1.84724E-13
 -1      3503 2.01303E+01 1.53490E-02 2.28714E-03-6.90390E-01 3.74627E-14 1.63434E-13
 -1      3504 1.99763E+01 7.43059E-02-3.49308E-03-7.10676E-01-1.07281E-13 5.78254E-15
 -1      3505 2.04019E+01-2.97008E-01 1.03495E-03-7.64619E-01-9.61136E-14 2.05360E-13
 -1      3506 2.02925E+01-1.70901E-01 4.31825E-03-7.59206E-01-2.72548E-14 2.70409E-13
 -1      3507 2.00993E+01-1.08205E-01-5.57362E-03-8.15604E-01-3.99538E-14 2.80091E-13
 -1      3508 2.07042E+01-6.10921E-01-3.97748E-04-7.54285E-01-1.88130E-13 1.47290E-13
 -1      3509 2.05509E+01-4.41007E-01 7.09216E-03-7.84919E-01-5.52519E-14 1.87038E-13
 -1      3510 2.03175E+01-3.84337E-01-8.31724E-03-8.96362E-01-4.68700E-14 3.21789E-13
 -1      3511 2.11330E+01-9.93905E-01-3.19897E-03-6.44720E-01-1.80702E-13 1.39578E-13
 -1      3512 2.09337E+01-7.91857E-01 1.05073E-02-7.30956E-01-2.55162E-13 1.19287E-13
 -1      3513 2.06681E+01-7.59882E-01-1.14096E-02-9.19653E-01-1.50276E-13 1.91258E-13
 -1      3514 2.16911E+01-1.38338E+00-7.00338E-03-3.83105E-01 8.28360E-14 1.09453E-13
 -1      3515 2.14569E+01-1.18783E+00 1.39828E-02-5.46096E-01-2.03764E-14 1.11902E-13
 -1      3516 2.11857E+01-1.21224E+00-1.39565E-02-8.32506E-01-1.20610E-13 1.35506E-13
 -1      3517 2.23407E+01-1.64454E+00-1.03848E-02 8.11095E-02 8.13152E-16 2.91107E-13
 -1      3518 2.21015E+01-1.53855E+00 1.47928E-02-1.73360E-01 6.67569E-14 1.96005E-13
 -1      3519 2.18789E+01-1.66436E+00-1.65844E-02-5.60045E-01-5.73578E-14 2.05489E-13
 -1      3520 2.29529E+01-1.56929E+00-2.00124E-02 7.23204E-01 1.91945E-13 1.85433E-13
 -1      3521 2.27748E+01-1.64680E+00 1.07903E-02 4.15670E-01 9.38498E-14 2.88134E-13
 -1      3522 2.27231E+01-1.87662E+00 4.78038E-03-8.76149E-03 6.47243E-14 1.85867E-13
 -1      3523 2.33785E+01-8.67621E-01-8.34008E-03 1.44450E+00 1.80280E-13 1.91274E-13
 -1      3524 2.33357E+01-1.28207E+00 7.19321E-03 1.18185E+00 2.45284E-13 3.31053E-13
 -1      3525 2.35145E+01-1.76048E+00-2.08264E-02 7.46819E-01 1.55371E-13 1.23913E-13
 -1      3526 2.34104E+01 4.68127E-01 6.55925E-03 1.87153E+00-8.35425E-14 3.30696E-13
 -1      3527 2.35265E+01-2.52882E-01-1.54263E-02 1.82127E+00 2.56915E-14 2.51857E-13
 -1      3528 2.40143E+01-8.03218E-01-2.85432E-02 1.58867E+00 3.77042E-14 5.49559E-13
 -1      3529 2.36200E+01 2.52511E+00-1.31494E-02 1.73304E+00-2.58474E-14 1.60720E-13
 -1      3530 2.38277E+01 1.65469E+00-3.05669E-02 1.98390E+00-5.53420E-15 1.79584E-13
 -1      3531 2.32474E+01 3.62789E+00-6.34297E-02 4.51600E-01-6.44571E-14 9.29985E-15
 -1      3532 2.33359E+01 3.35235E+00-5.60877E-02 1.00324E+00-7.27231E-14 8.26340E-14
 -1      3533 2.37917E+01 1.46113E+00-3.37762E-02-1.64736E+00-6.97229E-14 3.32926E-14
 -1      3534 2.35800E+01 2.25955E+00-1.71118E-02-1.31831E+00 5.72944E-14 4.24227E-14
 -1      3535 2.34745E+01-1.31461E+00-1.56051E-03-8.08306E-01 7.38038E-15 1.99075E-13
 -1      3536 2.35439E+01-8.54559E-01 4.14209E-03-1.09974E+00-7.56097E-14 1.45495E-13
 -1      3537 2.29481E+01-1.64589E+00 1.01415E-02-2.16994E-02 2.17938E-13 3.78616E-14
 -1      3538 2.31282E+01-1.57390E+00-1.59549E-02-3.40604E-01 1.26575E-13 1.94079E-13
 -1      3539 2.37542E+01-1.76094E+00-2.43995E-02-4.11908E-01-1.49273E-15-7.99825E-14
 -1      3540 2.22722E+01-1.45675E+00 1.45270E-02 6.02609E-01-5.20100E-14 1.65317E-13
 -1      3541 2.25124E+01-1.61557E+00-1.61715E-02 3.46068E-01 1.04692E-13 1.34599E-13
 -1      3542 2.29942E+01-1.91212E+00-1.57342E-02 4.22564E-01 8.43952E-14 1.89427E-13
 -1      3543 2.02888E+01 7.37986E-01-3.43875E-03 2.50991E-01 1.35743E-13-3.86824E-14
 -1      3544 2.03017E+01 9.34300E-01 1.39488E-03 3.75499E-01 1.46922E-13-4.77022E-14
 -1      3545 2.03219E+01 7.47341E-01 7.63181E-04 2.10664E-01 1.32737E-13-4.86449E-14
 -1      3546 1.52473E+01-2.91277E-01 1.14177E-01-4.15018E+00 2.02100E-13 1.83981E-13
 -1      3547 1.43441E+01 1.43486E+00 3.11805E-02-5.96693E-01 1.78449E-13-1.65493E-13
 -1      3548 1.42540E+01 1.36038E+00-1.98974E-03 4.30944E-01 1.69647E-13 9.01449E-14
 -1      3549 1.49509E+01 7.53169E-01 1.61951E-02 2.06909E+00 7.07455E-14 2.23741E-13
 -1      3550 1.58050E+01 4.31360E-01 9.81248E-02 2.93238E+00 7.19563E-14 4.14249E-13
 -1      3551 1.26976E+01 6.84577E-01 1.12693E-01-2.38659E+00 2.75717E-14-4.40543E-13
 -1      3552 1.34687E+01 6.57603E-02 4.17427E-02-3.46512E+00 1.05360E-13-4.85584E-14
 -1      3553 1.52332E+01 4.07543E-01 3.02096E-02-3.33627E+00 2.58706E-13-1.52031E-14
 -1      3554 1.30333E+01 9.90222E-01 3.90921E-02-1.27622E+00 1.85900E-13-3.38403E-13
 -1      3555 2.02826E+01 1.08500E+00-4.83479E-04 4.34474E-01 1.61195E-13-4.76040E-14
 -1      3556 2.02667E+01 1.26849E+00-2.98859E-03 5.22136E-01 1.73216E-13-3.83798E-14
 -1      3557 2.02512E+01 1.40836E+00 8.05802E-04 4.77993E-01 1.70908E-13-5.55446E-14
 -1      3558 2.02994E+01 1.08427E+00 1.66339E-03 3.62798E-01 1.46326E-13-6.17050E-14
 -1      3559 1.93092E+01-8.17273E-01 9.57423E-03 3.27421E+00-8.85594E-14 1.13797E-13
 -1      3560 2.01693E+01-1.12393E+00 3.92720E-02 3.22397E+00-5.27989E-14-2.15887E-13
 -1      3561 1.19874E+01 5.13350E-01 6.96717E-02-2.58409E+00 1.25608E-13-3.06172E-13
 -1      3562 1.31371E+01-2.59217E-01 1.09108E-02-3.83940E+00 7.04211E-14-1.98778E-13
 -1      3563 1.91994E+01-3.21616E+00-5.49098E-02 5.09624E+00 1.04361E-13 3.21552E-13
 -1      3564 1.68023E+01-2.02101E+00 1.73663E-01 5.24916E+00-9.21763E-14 3.80945E-13
 -1      3565 1.72330E+01-4.73965E-01-3.19628E-03 3.49196E+00 1.59660E-13 5.39905E-13
 -1      3566 1.84196E+01-9.21471E-01 4.90692E-02 3.82043E+00-3.04316E-14 4.98579E-13
 -1      3567 2.56699E+01-3.08377E+00 4.41094E-02-3.36850E-01-1.72145E-13 4.46514E-13
 -1      3568 2.55546E+01-1.97258E+00-5.84904E-02 8.68344E-01-4.94049E-14 5.77973E-13
 -1      3569 2.00309E+01 2.20145E+00-3.36425E-03-1.63010E-01 1.00086E-13-1.66401E-13
 -1      3570 2.00431E+01 2.16474E+00-4.28039E-03-2.84615E-01 7.50691E-14-1.58224E-13
 -1      3571 2.01597E+01 1.85203E+00 5.29858E-03-2.85262E-01 6.37343E-14-1.52129E-13
 -1      3572 2.00410E+01-3.71588E-02 4.81226E-04-1.12730E-01 1.87741E-15 4.15789E-14
 -1      3573 2.00436E+01-4.61550E-02-1.99211E-04-1.17133E-01-6.27521E-15 4.45012E-15
 -1      3574 2.00705E+01-5.45397E-02-3.15024E-04-1.13742E-01 1.74810E-14 5.58771E-14
 -1      3575 2.00521E+01-3.51873E-02-2.28634E-04-1.06262E-01 3.42298E-14-4.01127E-14
 -1      3576 2.03146E+01 7.35589E-01 2.42088E-03-2.43067E-01-2.97564E-14-1.30730E-13
 -1      3577 2.02958E+01 5.73088E-01-2.84925E-03-1.43187E-01-1.61444E-14-1.28274E-13
 -1      3578 2.03306E+01 5.78872E-01 5.36782E-04-1.15389E-01-4.64267E-15-1.03779E-13
 -1      3579 2.01903E+01 1.70700E+00 9.05970E-04-6.94191E-01-2.58429E-14-1.63966E-13
 -1      3580 2.02320E+01 1.51091E+00-3.48395E-03-6.89737E-01-4.35873E-14-1.48084E-13
 -1      3581 2.02637E+01 1.24835E+00-9.21099E-04-5.40234E-01-4.91228E-14-1.34528E-13
 -1      3582 2.02439E+01 1.48525E+00 4.29804E-03-5.41052E-01-7.16361E-15-1.56914E-13
 -1      3583 2.01419E+01-2.97672E-02-5.07914E-05-1.57535E-01 2.19570E-14 3.34697E-14
 -1      3584 2.01571E+01-7.61043E-03 9.50330E-04-1.52711E-01 1.55703E-14 4.25773E-14
 -1      3585 2.35664E+01 3.50440E+00-4.26488E-02-5.20782E-01-2.92544E-14 4.67473E-14
 -1      3586 2.54376E+01-3.36437E+00-7.49249E-02 7.85622E-01-9.35363E-15-4.15464E-13
 -1      3587 2.46495E+01-3.90354E+00 8.12682E-02 2.30555E+00-1.51326E-13-6.93924E-14
 -1      3588 1.48944E+01-9.82663E-01 9.62210E-02-4.51380E+00-1.19448E-13-2.41987E-13
 -1      3589 1.68944E+01-2.12311E+00-4.50514E-02-4.84198E+00-3.99103E-13-5.71349E-14
 -1      3590 1.91973E+01-2.72337E+00 9.52199E-02-4.57276E+00-3.50353E-13 4.46986E-14
 -1      3591 2.09090E+01-3.42448E+00-3.12213E-02-3.93783E+00-3.24631E-13 8.03003E-14
 -1      3592 2.30536E+01-4.17076E+00-7.91794E-02 3.57731E+00 1.02210E-14 1.44548E-13
 -1      3593 2.18205E+01-3.64931E+00 1.23288E-01 4.35189E+00 1.39623E-13-6.50300E-14
 -1      3594 2.21095E+01-1.49378E+00-1.64714E-03 1.15194E+00 1.28614E-13 2.20567E-13
 -1      3595 2.56080E+01 3.86015E-01-3.35369E-02-1.66193E+00-1.05124E-15 4.65600E-15
 -1      3596 1.60575E+01-1.24420E+00 6.28090E-03 4.47400E+00-4.73510E-14 3.65145E-13
 -1      3597 2.02728E+01 3.30671E-01 2.60202E-03 1.57206E-02 1.27595E-13-1.24633E-14
 -1      3598 2.03167E+01 4.46517E-01 5.21200E-05 5.92276E-02 1.13663E-13-2.37085E-14
 -1      3599 2.02462E+01 2.38469E-01-1.72004E-03-3.96406E-02 1.14823E-13-6.10623E-15
 -1      3600 1.52301E+01 1.13695E+00-3.22833E-02 1.93668E+00 1.76976E-13 1.05034E-13
 -1      3601 1.47308E+01 9.12077E-01 2.42677E-02 2.23222E+00 2.79963E-13 2.03105E-13
 -1      3602 1.35505E+01 1.19480E+00 9.85595E-02 1.60629E+00 2.74206E-13 1.97016E-13
 -1      3603 1.49880E+01 1.51254E+00 5.35966E-02 1.17825E+00 2.26065E-13 4.27987E-14
 -1      3604 1.58713E+01 5.86757E-01 1.61508E-02-3.13621E+00 1.50030E-13-4.27471E-14
 -1      3605 1.63760E+01 1.07812E+00 4.23009E-03-2.75376E+00-5.52579E-14-5.53689E-14
 -1      3606 2.01597E+01 1.10074E-01-1.10590E-03-1.09829E-01 1.08410E-13 7.96229E-15
 -1      3607 2.02035E+01 1.63955E+00-3.21789E-03 1.30466E-01 1.12533E-13-1.23766E-13
 -1      3608 2.01995E+01 1.65909E+00-2.66969E-03 4.00250E-02 9.91356E-14-1.46388E-13
 -1      3609 2.01745E+01 2.07374E-02-4.10070E-04-1.44608E-01 3.25246E-14 5.84628E-14
 -1      3610 2.01939E+01 5.88221E-02 1.43595E-03-1.28955E-01 8.37429E-14 6.89301E-14
 -1      3611 2.02159E+01 1.50721E-02-6.50130E-04-1.33487E-01 5.59529E-14 7.35340E-14
 -1      3612 2.01250E+01-4.52620E-02 5.69585E-04-1.57962E-01 2.31277E-14 6.47092E-15
 -1      3613 2.01792E+01-3.65647E-02-6.31959E-04-1.44586E-01 2.50912E-14 2.42846E-14
 -1      3614 2.01136E+01-5.62282E-02 1.80092E-04-1.56192E-01 2.21087E-14 3.37214E-15
 -1      3615 2.45773E+01 1.22299E+00-5.25557E-02 2.10821E+00 1.32207E-13 3.28983E-13
 -1      3616 1.48772E+01-3.13966E-01 5.66534E-02-3.66430E+00-3.54786E-14-4.09915E-14
 -1      3617 1.82460E+01-1.97206E+00 2.87014E-02-4.16255E+00-3.66818E-13-1.14388E-14
 -1      3618 2.36891E+01 2.99446E+00-6.93024E-02-1.09126E+00 5.89147E-14 8.65887E-15
 -1      3619 2.35732E+01-2.23776E-01-3.20878E-02-1.45874E+00-1.53050E-13 8.60358E-14
 -1      3620 2.34824E+01 5.07690E-01-4.83631E-03-1.50195E+00-1.85728E-13-8.30915E-14
 -1      3621 2.53020E+01-4.43996E-01 2.37314E-02 1.85570E+00 8.13585E-14 5.66734E-13
 -1      3622 2.36761E+01-3.51083E+00 3.57707E-02 2.50184E+00-1.68330E-13-1.28171E-13
 -1      3623 2.02358E+01 1.48859E+00-1.32568E-03-3.43022E-01 2.16500E-14-1.26019E-13
 -1      3624 2.02509E+01 1.39171E+00-3.89877E-03-4.10361E-01-1.23781E-14-1.28495E-13
 -1      3625 2.09065E+01-1.41178E+00-1.48366E-03 2.84160E+00-5.60380E-14-4.32952E-13
 -1      3626 2.14591E+01-1.56303E+00 1.54396E-02 2.51756E+00 7.65289E-14-4.07482E-13
 -1      3627 2.06737E+01-1.85418E+00-2.95950E-02 3.28018E+00-9.19560E-14-3.88177E-13
 -1      3628 2.01387E+01 1.92375E+00 5.04712E-03-9.49395E-02 9.50951E-14-1.44537E-13
 -1      3629 1.45953E+01 1.09715E+00 8.45209E-02-2.46448E+00 1.13028E-13-4.35280E-13
 -1      3630 2.02894E+01-2.95099E+00-4.96948E-03 4.35708E+00 1.72300E-13 2.18176E-13
 -1      3631 2.02223E+01 1.55003E+00-3.32303E-03 2.84060E-01 1.44309E-13-5.78696E-14
 -1      3632 2.02113E+01 1.60664E+00-2.10399E-03 2.02210E-01 1.30324E-13-7.91849E-14
 -1      3633 2.02871E+01 1.38575E+00 5.25470E-03 1.34386E-01 1.11462E-13-8.07524E-14
 -1      3634 1.17817E+01 8.29306E-01 7.74961E-02-1.94970E+00 1.91600E-13-4.44256E-13
 -1      3635 1.32172E+01 7.57760E-01 4.51224E-02-2.21625E+00 1.41751E-13-2.04822E-13
 -1      3636 1.17405E+01 1.00575E+00 3.54128E-02-1.03243E+00 2.14011E-13-3.64486E-13
 -1      3637 2.18514E+01-1.60432E+00 1.24833E-02 2.01902E+00 1.42954E-13-3.14325E-13
 -1      3638 2.20463E+01-1.60965E+00 8.48081E-03 1.64428E+00 1.94525E-13-7.60902E-14
 -1      3639 2.25500E+01-1.96070E+00-4.40049E-03 1.27634E+00 7.13344E-14 1.41641E-13
 -1      3640 2.20316E+01-2.11057E+00-9.97066E-03 2.29650E+00-1.08007E-13-4.01048E-13
 -1      3641 2.20514E+01-3.49755E+00 5.12095E-02-3.33575E+00-2.80291E-13 1.19211E-13
 -1      3642 2.27854E+01-3.53179E+00-3.18343E-02-2.51963E+00-2.81957E-13 2.87870E-13
 -1      3643 2.08789E+01-2.93247E+00-2.36384E-02-3.38518E+00-1.84571E-13 7.43242E-15
 -1      3644 2.47043E+01-1.35499E+00-1.25099E-02 1.21042E+00-3.84744E-14 5.01749E-13
 -1      3645 2.00897E+01-6.58791E-02 3.22113E-04-1.46957E-01 6.58825E-14-2.56755E-14
 -1      3646 2.00981E+01-6.27344E-02 2.84236E-04-1.52201E-01 4.06072E-14 1.35430E-14
 -1      3647 2.01460E+01-6.28727E-02-5.69592E-04-1.43145E-01 4.41466E-14-4.58040E-14
 -1      3648 2.01168E+01-7.13865E-02-4.92735E-04-1.34886E-01 6.12666E-14 1.54662E-14
 -1      3649 2.45357E+01-3.33149E+00-1.82658E-02-1.00069E+00-2.08594E-13 5.64837E-13
 -1      3650 2.02924E+01 1.06860E+00 2.19491E-04-4.38761E-01-4.81422E-14-1.21658E-13
 -1      3651 2.02925E+01 8.67501E-01-2.36320E-03-3.16736E-01-4.33356E-14-1.27791E-13
 -1      3652 2.03169E+01 8.61295E-01-2.06719E-03-2.63984E-01-3.29257E-14-1.34192E-13
 -1      3653 2.02769E+01 1.18041E+00-2.29654E-03-4.44413E-01-3.79065E-14-1.28290E-13
 -1      3654 2.53750E+01-2.08073E+00 3.16050E-02-5.02368E-01-7.62584E-14-2.67081E-13
 -1      3655 2.45054E+01-2.45142E+00-8.16033E-03 1.63744E-01-1.23626E-13-4.09498E-13
 -1      3656 2.42421E+01-7.17414E-01 1.80702E-02-1.28713E+00-1.86885E-13-2.03562E-13
 -1      3657 1.54856E+01 1.40666E+00-2.42515E-02-1.78778E+00-1.02201E-14-4.03452E-13
 -1      3658 2.41394E+01-2.59763E+00 2.66922E-02 6.19621E-01-4.64273E-14-3.56219E-13
 -1      3659 2.03579E+01 4.16512E-01 1.37307E-03-2.98573E-02-1.88116E-14-6.66406E-14
 -1      3660 2.03423E+01 3.06602E-01-1.50117E-03 1.86371E-02-8.45083E-15-6.07421E-14
 -1      3661 2.03349E+01 2.16861E-01 1.25664E-03 4.74972E-02-7.91518E-15-7.41516E-14
 -1      3662 2.03145E+01 1.42693E-01-9.54485E-04 7.70397E-02-3.84644E-14-7.72751E-14
 -1      3663 2.03699E+01 2.95182E-01 2.38519E-04 2.15480E-02-1.56570E-14-5.84253E-14
 -1      3664 2.02992E+01 8.38936E-02 1.04623E-03 9.32996E-02-2.10048E-14-4.65268E-14
 -1      3665 2.02778E+01 3.61031E-02-5.18646E-04 1.08975E-01 1.27138E-14-5.76743E-14
 -1      3666 2.03410E+01 1.32383E-01-1.69716E-04 6.91499E-02-1.32133E-14-3.90355E-14
 -1      3667 2.02575E+01-1.74596E-03 7.64852E-04 1.16377E-01 6.16784E-14-8.47074E-14
 -1      3668 2.02363E+01-3.08287E-02-1.39062E-04 1.22567E-01 7.12906E-14-6.60841E-14
 -1      3669 2.03012E+01 2.55938E-02-3.04622E-04 9.51541E-02 2.30774E-14-4.94787E-14
 -1      3670 2.02157E+01-5.02437E-02 5.24733E-04 1.23305E-01 6.22018E-14-7.53737E-14
 -1      3671 2.01977E+01-6.40724E-02 1.29401E-04 1.23303E-01-1.04607E-15-6.60269E-14
 -1      3672 2.02577E+01-3.82999E-02-4.84964E-04 1.05576E-01 6.65675E-14-8.77595E-14
 -1      3673 2.01776E+01-7.24024E-02 3.14874E-04 1.20679E-01-4.76797E-14-5.66150E-14
 -1      3674 2.01620E+01-7.65091E-02 2.83097E-04 1.17505E-01-9.50584E-14-9.85932E-15
 -1      3675 2.02158E+01-6.99583E-02-5.24582E-04 1.05910E-01-2.74105E-14-9.57340E-14
 -1      3676 2.01432E+01-7.68912E-02 1.46499E-04 1.13311E-01-1.02869E-13 7.82883E-14
 -1      3677 2.01301E+01-7.40958E-02 3.67719E-04 1.08951E-01-5.90954E-14 1.11771E-13
 -1      3678 2.01767E+01-8.02785E-02-4.91851E-04 1.00984E-01-3.16559E-14 3.47735E-14
 -1      3679 2.01128E+01-6.87823E-02 5.86270E-06 1.04578E-01-8.21323E-14 1.59463E-13
 -1      3680 2.01017E+01-6.09673E-02 4.06797E-04 1.00485E-01-8.49495E-14 1.56486E-13
 -1      3681 2.01411E+01-7.53722E-02-4.23593E-04 9.40157E-02-2.44466E-14 2.08549E-13
 -1      3682 2.00859E+01-5.14056E-02-1.17844E-04 9.69573E-02-4.35653E-14 2.22724E-13
 -1      3683 2.00764E+01-3.97144E-02 4.17214E-04 9.42170E-02 5.00609E-14 2.36565E-13
 -1      3684 2.01090E+01-5.93607E-02-3.30237E-04 8.73988E-02-8.41680E-15 2.84000E-13
 -1      3685 2.00615E+01-2.67142E-02-2.34528E-04 9.23003E-02 1.03998E-13 2.48283E-13
 -1      3686 2.00529E+01-1.17099E-02 4.09359E-04 9.17523E-02 9.85423E-14 2.68442E-13
 -1      3687 2.00797E+01-3.47828E-02-2.13883E-04 8.29071E-02 5.61213E-14 3.66292E-13
 -1      3688 2.00382E+01 4.42547E-03-3.54972E-04 9.20360E-02 6.89409E-14 2.31460E-13
 -1      3689 2.00298E+01 2.26460E-02 3.87760E-04 9.43646E-02 4.38222E-14 2.20478E-13
 -1      3690 2.00517E+01-2.92891E-03-7.23638E-05 8.18760E-02 7.15593E-14 3.55567E-13
 -1      3691 2.00142E+01 4.20226E-02-4.89083E-04 9.73212E-02 5.41162E-14 2.30182E-13
 -1      3692 2.00050E+01 6.37377E-02 3.50945E-04 1.03117E-01 8.98769E-14 2.71823E-13
 -1      3693 2.00233E+01 3.58908E-02 9.47293E-05 8.53321E-02 5.11058E-14 2.76211E-13
 -1      3694 1.99872E+01 8.67972E-02-6.45424E-04 1.09128E-01 9.93385E-14 2.55089E-13
 -1      3695 1.99760E+01 1.12592E-01 2.92568E-04 1.18916E-01 1.30017E-13 3.01061E-13
 -1      3696 1.99921E+01 8.21671E-02 2.98391E-04 9.40687E-02 1.07213E-13 2.56858E-13
 -1      3697 1.99543E+01 1.40052E-01-8.32237E-04 1.28264E-01 5.97250E-14 2.71862E-13
 -1      3698 1.99395E+01 1.70760E-01 1.98621E-04 1.42501E-01 7.25273E-15 2.25432E-13
 -1      3699 1.99552E+01 1.37012E-01 5.54138E-04 1.08651E-01 5.38090E-14 2.53415E-13
 -1      3700 1.99117E+01 2.03568E-01-1.05843E-03 1.55323E-01-4.79062E-14 2.09561E-13
 -1      3701 1.98912E+01 2.40226E-01 5.03206E-05 1.74345E-01-1.00622E-13 1.56002E-13
 -1      3702 1.99087E+01 2.02017E-01 8.83842E-04 1.29345E-01-5.33798E-14 1.28566E-13
 -1      3703 1.98545E+01 2.79433E-01-1.35545E-03 1.90546E-01-1.12369E-13 1.20117E-13
 -1      3704 1.98254E+01 3.23244E-01-1.70405E-04 2.14491E-01-1.06967E-13 1.06146E-13
 -1      3705 1.98478E+01 2.79154E-01 1.32790E-03 1.55964E-01-1.49191E-13 2.10480E-13
 -1      3706 1.97737E+01 3.72767E-01-1.66515E-03 2.34582E-01-9.70124E-14 8.36177E-14
 -1      3707 1.97291E+01 4.27618E-01-5.44457E-04 2.64793E-01-4.17831E-14 1.16202E-13
 -1      3708 1.97638E+01 3.72816E-01 1.84505E-03 1.88531E-01-1.24400E-13 1.34910E-13
 -1      3709 1.96616E+01 4.83854E-01-2.09887E-03 2.85779E-01-5.38184E-14 1.03336E-13
 -1      3710 1.96003E+01 5.45683E-01-1.19009E-03 3.18486E-01-1.13443E-13 1.12574E-13
 -1      3711 1.96495E+01 4.83701E-01 2.71496E-03 2.23921E-01-9.02087E-14 1.78460E-13
 -1      3712 1.95096E+01 6.11777E-01-2.56145E-03 3.39334E-01-1.10688E-13 1.02982E-13
 -1      3713 1.94219E+01 6.83305E-01-2.06795E-03 3.74311E-01-4.32130E-14 1.71158E-13
 -1      3714 1.94974E+01 6.09632E-01 3.73726E-03 2.57685E-01-9.43260E-14 1.34399E-13
 -1      3715 1.92995E+01 7.59365E-01-3.18035E-03 3.91992E-01-7.53732E-14 1.28184E-13
 -1      3716 1.91752E+01 8.40101E-01-3.31639E-03 4.26682E-01-8.82708E-14 1.01467E-13
 -1      3717 1.92909E+01 7.53552E-01 5.13829E-03 2.84611E-01-9.45530E-14 6.75997E-14
 -1      3718 1.90100E+01 9.24847E-01-4.03723E-03 4.36915E-01-7.23022E-15 8.52634E-14
 -1      3719 1.88351E+01 1.01235E+00-5.06268E-03 4.67871E-01 2.04605E-15 3.24909E-14
 -1      3720 1.90111E+01 9.13477E-01 7.03494E-03 2.95944E-01-6.44503E-14-2.74155E-14
 -1      3721 1.86120E+01 1.10202E+00-5.36684E-03 4.65150E-01-8.53496E-14 1.18997E-15
 -1      3722 1.83680E+01 1.19079E+00-7.47997E-03 4.88649E-01-8.29729E-14-6.49923E-14
 -1      3723 1.86327E+01 1.08389E+00 9.62657E-03 2.79784E-01-4.17668E-14-1.28194E-13
 -1      3724 1.80652E+01 1.27764E+00-7.66300E-03 4.66757E-01 1.92370E-15-3.77668E-15
 -1      3725 1.77267E+01 1.35767E+00-1.07042E-02 4.80568E-01 3.02672E-14 2.14777E-14
 -1      3726 1.81211E+01 1.25396E+00 1.32746E-02 2.21206E-01 9.29172E-15-7.30236E-14
 -1      3727 1.73107E+01 1.42771E+00-1.16588E-02 4.34548E-01 6.09842E-15-5.55615E-14
 -1      3728 1.68428E+01 1.48157E+00-1.42693E-02 4.41387E-01-4.90753E-15-8.37375E-14
 -1      3729 1.74257E+01 1.40608E+00 1.89596E-02 1.03615E-01 2.04723E-14-4.55799E-14
 -1      3730 1.62608E+01 1.51629E+00-1.55948E-02 3.69254E-01 1.73659E-14-1.03580E-13
 -1      3731 1.56087E+01 1.51681E+00-1.33670E-02 3.82258E-01 1.11173E-13-7.23722E-14
 -1      3732 1.64677E+01 1.51108E+00 2.89284E-02-8.95824E-02-3.61213E-14 6.37793E-15
 -1      3733 1.90619E+01-1.76958E+00 3.15807E-02 4.21827E+00-6.60062E-16 3.81865E-13
 -1      3734 2.02103E+01 1.05424E-01-9.49624E-04-1.08915E-01 7.26685E-14 3.64030E-14
 -1      3735 2.02338E+01 1.66015E-01 2.00817E-03-7.68824E-02 8.51302E-14 7.70819E-15
 -1      3736 2.02900E+01 2.39901E-01-3.94598E-04-4.16414E-02 8.63213E-14 4.53793E-16
 -1      3737 2.02541E+01 1.02458E-01-5.95797E-04-1.02320E-01 5.79136E-14 8.90778E-14
 -1      3738 2.38988E+01-3.32373E+00 6.17019E-02-1.55304E+00-1.90366E-13 4.17067E-13
 -1      3739 2.41967E+01-2.91541E+00-5.08828E-02-4.36239E-01-6.68790E-14 4.52610E-13
 -1      3740 2.27792E+01-3.10799E+00-4.63020E-03-1.96122E+00-1.25655E-13 2.28707E-13
 -1      3741 2.00204E+01 2.90820E-02 4.60229E-04-9.92764E-02-6.21647E-14 1.36108E-13
 -1      3742 2.00273E+01 1.21044E-02-3.88527E-04-9.58272E-02-5.87528E-15 3.45466E-14
 -1      3743 2.00411E+01-3.24333E-03 4.47719E-04-9.43323E-02 5.88869E-14-1.45442E-14
 -1      3744 2.00484E+01-1.79552E-02-2.79940E-04-9.40932E-02 5.40847E-14-1.90545E-14
 -1      3745 2.00392E+01 5.99706E-03-7.08319E-05-8.60527E-02-1.59910E-14 1.14576E-13
 -1      3746 1.99763E+01 1.05588E-01 5.30957E-04-1.31919E-01-1.45377E-13 1.63346E-13
 -1      3747 1.99836E+01 8.47786E-02-6.31887E-04-1.20138E-01-7.33939E-14 1.15775E-13
 -1      3748 1.99508E+01 1.48330E-01 6.06364E-04-1.62303E-01-2.50048E-14 1.10702E-13
 -1      3749 1.99587E+01 1.26273E-01-7.65469E-04-1.45396E-01-1.29520E-13 1.12953E-13
 -1      3750 1.99548E+01 1.28620E-01 2.81076E-04-1.27701E-01-8.49508E-14 1.50890E-13
 -1      3751 1.99221E+01 1.91975E-01 7.23772E-04-2.04030E-01 3.62557E-14 5.66633E-14
 -1      3752 1.99305E+01 1.69690E-01-9.00038E-04-1.81344E-01 3.97188E-14 9.62289E-14
 -1      3753 1.99198E+01 1.76537E-01 3.71667E-04-1.59470E-01 1.81135E-14 1.01839E-13
 -1      3754 1.98908E+01 2.33341E-01 8.98585E-04-2.58710E-01 3.02376E-15 3.18971E-14
 -1      3755 1.98991E+01 2.12625E-01-1.02081E-03-2.29622E-01 5.95257E-14 4.57336E-14
 -1      3756 1.98797E+01 2.25220E-01 4.18251E-04-2.03129E-01 6.44849E-14 6.41729E-14
 -1      3757 1.98587E+01 2.67181E-01 1.15056E-03-3.27976E-01-2.72257E-14 3.12872E-14
 -1      3758 1.98655E+01 2.50952E-01-1.10101E-03-2.91974E-01-2.64099E-14 2.79121E-14
 -1      3759 1.98346E+01 2.70946E-01 3.83197E-04-2.60923E-01 1.18756E-14 1.00451E-13
 -1      3760 1.98300E+01 2.85458E-01 1.50219E-03-4.13294E-01-5.55555E-14 8.18095E-14
 -1      3761 1.98326E+01 2.78137E-01-1.09725E-03-3.70116E-01-1.34462E-14 6.66885E-14
 -1      3762 1.97864E+01 3.07647E-01 2.09832E-04-3.35432E-01-4.15078E-14 5.99662E-14
 -1      3763 1.98124E+01 2.76597E-01 1.97325E-03-5.15594E-01-2.01428E-13 2.08794E-13
 -1      3764 1.98064E+01 2.84481E-01-9.39967E-04-4.65483E-01-1.50028E-13 1.24588E-13
 -1      3765 1.97394E+01 3.26101E-01-1.85315E-04-4.29484E-01-1.38049E-13 1.64755E-13
 -1      3766 1.98185E+01 2.24899E-01 2.56544E-03-6.34554E-01 1.35865E-14 1.80944E-13
 -1      3767 1.97969E+01 2.56436E-01-5.20691E-04-5.78697E-01-6.85645E-14 2.33514E-13
 -1      3768 1.97018E+01 3.13067E-01-9.21461E-04-5.45861E-01-1.21619E-13 1.14912E-13
 -1      3769 1.98677E+01 1.10493E-01 3.22852E-03-7.67247E-01-1.44873E-13 1.22414E-13
 -1      3770 1.98205E+01 1.76241E-01 3.25307E-04-7.08547E-01-6.68167E-14 1.53191E-13
 -1      3771 1.96875E+01 2.50574E-01-2.16453E-03-6.86588E-01-2.93387E-14 1.57407E-13
 -1      3772 1.99877E+01-8.94820E-02 3.79085E-03-9.05665E-01-1.49418E-13 3.09213E-13
 -1      3773 1.99015E+01 2.23902E-02 1.83523E-03-8.50064E-01-1.67155E-13 1.82979E-13
 -1      3774 1.97185E+01 1.15707E-01-4.13863E-03-8.51366E-01-1.60846E-13 8.35292E-14
 -1      3775 2.02159E+01-3.97309E-01 3.78336E-03-1.03253E+00-6.31295E-14 3.72652E-13
 -1      3776 2.00744E+01-2.28116E-01 4.30900E-03-9.91113E-01-4.79620E-14 3.46369E-13
 -1      3777 1.98274E+01-1.18250E-01-7.13970E-03-1.03452E+00-1.41742E-13 1.99718E-13
 -1      3778 2.05982E+01-8.24998E-01 2.70525E-03-1.11377E+00-1.15072E-13 2.64099E-13
 -1      3779 2.03846E+01-5.94028E-01 8.15879E-03-1.10604E+00-3.44152E-14 3.42800E-13
 -1      3780 2.00606E+01-4.78638E-01-1.15741E-02-1.21917E+00-3.18458E-14 4.61982E-13
 -1      3781 2.11829E+01-1.35739E+00 1.69501E-04-1.09042E+00-9.19599E-14 2.35261E-13
 -1      3782 2.08848E+01-1.07623E+00 1.38835E-02-1.14770E+00-1.23890E-13 1.33862E-13
 -1      3783 2.04789E+01-9.80636E-01-1.70371E-02-1.36632E+00-9.22181E-14 3.64717E-13
 -1      3784 2.19818E+01-1.91506E+00-3.87062E-03-8.83537E-01-1.71772E-14 1.85250E-13
 -1      3785 2.16239E+01-1.62373E+00 2.48407E-02-1.03636E+00-8.73839E-14 1.73531E-13
 -1      3786 2.11465E+01-1.60237E+00-2.22666E-02-1.40330E+00-6.15235E-14 3.00340E-13
 -1      3787 2.34291E+01-2.42024E+00 8.99191E-03-2.90423E-01 3.97529E-14 2.58198E-13
 -1      3788 2.29153E+01-2.36404E+00 1.02902E-02-6.58233E-01 8.91179E-14 3.22810E-13
 -1      3789 2.38749E+01-2.28073E+00-7.05589E-03 1.67003E-01 1.45036E-14 3.62823E-13
 -1      3790 2.45692E+01-1.93716E+00 4.59053E-02 7.81480E-01 2.41144E-14 3.97821E-13
 -1      3791 1.47365E+01 3.26119E-01 4.14550E-02-2.90948E+00-1.08316E-14 1.98622E-13
 -1      3792 1.59458E+01-5.34215E-01-3.04700E-02-3.57600E+00-2.50196E-13 2.07622E-13
 -1      3793 1.38344E+01 1.21646E+00 5.14605E-02-1.28318E+00 1.30833E-13-4.36075E-13
 -1      3794 2.03350E+01 7.15110E-01-3.47059E-03 1.51956E-01 1.31213E-13-4.92621E-14
 -1      3795 2.03354E+01 9.05058E-01 1.67818E-03 2.43300E-01 1.35245E-13-5.97877E-14
 -1      3796 2.03622E+01 7.06965E-01 4.16506E-03-1.47017E-01 1.18720E-14-6.14523E-14
 -1      3797 2.03518E+01 5.47201E-01-2.27761E-03-7.47141E-02 1.28815E-15-6.87463E-14
 -1      3798 2.03773E+01 5.33916E-01 3.12610E-04-5.42849E-02-6.20279E-16-7.05271E-14
 -1      3799 2.02202E+01 1.55107E+00-4.78816E-03-2.79355E-01 5.27103E-14-1.44341E-13
 -1      3800 2.03036E+01 1.28754E+00 6.81754E-03-2.49368E-01 2.37965E-14-9.92629E-14
 -1      3801 2.02104E+01 1.60961E+00-2.24312E-03-1.96702E-01 6.62679E-14-1.22398E-13
 -1      3802 2.09806E+01-2.57708E+00-1.28798E-02 3.71224E+00 4.43985E-14-1.39432E-13
 -1      3803 1.75136E+01-1.09849E+00 6.45105E-02-3.77674E+00-2.28646E-13-7.47037E-14
 -1      3804 1.90791E+01-1.96665E+00-2.71346E-02-3.62114E+00-1.71493E-13-2.83704E-13
 -1      3805 2.02426E+01 1.44310E+00-3.01677E-03 4.18076E-01 1.66582E-13-7.51749E-14
 -1      3806 2.02270E+01 1.53721E+00-1.19306E-03 3.48418E-01 1.56098E-13-5.68004E-14
 -1      3807 2.02896E+01 1.33299E+00 4.28998E-03 2.55581E-01 1.21346E-13-5.29496E-14
 -1      3808 2.02819E+01 1.27752E+00 1.82674E-03 3.67174E-01 1.42102E-13-6.72923E-14
 -1      3809 2.02651E+01 1.29339E+00 2.63184E-04-4.39797E-01-2.91637E-14-1.40494E-13
 -1      3810 2.19935E+01-2.76473E+00 1.30662E-02 3.21148E+00-3.00662E-14-2.18658E-13
 -1      3811 2.01988E+01 1.66022E+00-2.68488E-03-3.44982E-02 8.29368E-14-1.61638E-13
 -1      3812 2.02023E+01 1.64086E+00-3.63547E-03-1.24431E-01 6.83340E-14-1.45411E-13
 -1      3813 2.02898E+01 1.39036E+00 7.02486E-03-1.32581E-01 4.37292E-14-1.18438E-13
 -1      3814 2.02815E+01 1.42182E+00 5.50368E-03 1.28336E-03 7.18200E-14-1.33127E-13
 -1      3815 2.46248E+01 9.93579E-01-4.48324E-02-1.79268E+00-1.65132E-13 5.70169E-14
 -1      3816 2.30434E+01-2.25545E+00 1.67141E-02 1.19700E+00-1.09536E-13-5.85617E-14
 -1      3817 2.35229E+01-2.42195E+00 3.03721E-03 8.55933E-01-8.49451E-14-2.31874E-13
 -1      3818 2.38701E+01-3.19932E+00-5.89810E-02 1.55635E+00-2.24892E-13-6.73236E-13
 -1      3819 2.28485E+01-2.45704E+00-1.10589E-02 1.75818E+00-1.45977E-13-3.56305E-13
 -1      3820 2.03083E+01 1.12155E+00 5.11825E-03-3.24830E-01-2.31182E-14-1.29324E-13
 -1      3821 2.50898E+01-5.52892E-01-5.21645E-03-1.44148E+00-1.44074E-13-1.33106E-13
 -1      3822 1.99992E+01 6.55306E-02 4.85327E-04-1.11372E-01-4.23654E-14 1.59079E-13
 -1      3823 2.00061E+01 4.64987E-02-5.05908E-04-1.04073E-01-2.70305E-14 1.66766E-13
 -1      3824 2.00132E+01 4.25028E-02 4.91216E-05-9.25092E-02-5.89008E-14 1.44291E-13
 -1      3825 2.01114E+01-6.89065E-02 3.91032E-04-1.09243E-01 5.83854E-14 3.63781E-14
 -1      3826 2.01230E+01-7.35585E-02 8.09606E-05-1.13990E-01 5.83905E-14 3.98494E-14
 -1      3827 2.03160E+01 9.54599E-01-3.04084E-03-2.45646E-01-1.05192E-14-1.18053E-13
 -1      3828 2.03367E+01 9.23180E-01-2.86675E-03-1.95605E-01 2.21248E-15-6.39516E-14
 -1      3829 2.03365E+01 9.87613E-01-2.13843E-03-1.54118E-01 3.89289E-14-6.45117E-14
 -1      3830 1.91163E+01-1.57066E+00-2.03451E-02-3.17479E+00-1.57296E-14-3.36244E-13
 -1      3831 2.00745E+01-2.19043E+00 5.80291E-02-3.38824E+00-1.36245E-13-2.95197E-13
 -1      3832 2.08621E+01-2.47655E+00-2.03127E-03-2.91164E+00 4.15076E-15-1.01253E-13
 -1      3833 1.49423E+01 1.49294E+00-2.13446E-02 3.62576E-01 1.73659E-13-1.72023E-13
 -1      3834 1.42970E+01 1.42089E+00-1.17942E-03 4.58875E-01 2.30049E-13-1.83725E-13
 -1      3835 1.52832E+01 1.54817E+00 4.84740E-02-2.97687E-01 1.15737E-13-1.24282E-13
 -1      3836 2.02492E+01 3.92402E-03-3.22506E-04-1.21653E-01 5.79685E-14 5.55927E-14
 -1      3837 2.02700E+01 4.16733E-02 9.90816E-04-1.10468E-01 4.10266E-14 5.45468E-14
 -1      3838 1.40134E+01 8.89621E-01 7.88780E-03-1.92087E+00 1.14583E-13-2.15123E-14
 -1      3839 1.43503E+01 5.77267E-01 1.70321E-02-2.55492E+00 5.97638E-14 2.01200E-13
 -1      3840 1.54510E+01 4.44474E-01-4.40645E-03-2.51801E+00-2.15637E-13 4.45259E-13
 -1      3841 2.48182E+01-1.47592E+00-8.02247E-02-9.74258E-01-1.38335E-13-1.47083E-13
 -1      3842 2.00855E+01-5.33210E-02 4.26855E-04-1.00779E-01-6.07594E-15 2.78225E-14
 -1      3843 2.00952E+01-6.22161E-02-5.28566E-05-1.04806E-01 3.26128E-14 5.36821E-14
 -1      3844 2.01225E+01-6.96180E-02-3.91910E-04-9.53791E-02 3.91972E-14 6.80880E-14
 -1      3845 1.27444E+01 1.15271E+00 2.49388E-02 9.23641E-01 3.13015E-13-1.72813E-14
 -1      3846 1.20224E+01 1.24568E+00 9.49486E-02-1.62053E-01 2.35700E-13-3.03448E-13
 -1      3847 1.30449E+01 1.21817E+00 3.59403E-02-7.86039E-01 2.97311E-13-3.43049E-13
 -1      3848 1.35550E+01 1.33476E+00-2.17511E-02 6.92972E-01 2.78236E-13-3.52617E-14
 -1      3849 1.40285E+01 1.06841E+00 8.78161E-02 1.51735E+00 1.28543E-13 2.52746E-13
 -1      3850 2.01557E+01-7.86449E-02-4.68607E-04-1.03076E-01 3.80678E-14 1.53103E-14
 -1      3851 2.01407E+01-7.54356E-02 3.23231E-04-1.18679E-01 3.73877E-14 1.76319E-14
 -1      3852 2.01546E+01-7.42258E-02 2.40814E-04-1.22819E-01 4.73057E-14 2.13551E-14
 -1      3853 2.00652E+01-2.55071E-02-1.98177E-04-8.52624E-02 6.76537E-14 7.97103E-14
 -1      3854 2.00624E+01-3.09816E-02 4.40275E-04-9.52845E-02 6.94310E-14 3.65334E-15
 -1      3855 2.00706E+01-4.30800E-02-1.71215E-04-9.75832E-02 3.28394E-14 3.34032E-14
 -1      3856 2.24474E+01-2.45385E+00-2.28169E-02-1.22392E+00 3.29380E-14 1.63427E-13
 -1      3857 2.02293E+01-2.41143E-02 6.93143E-04-1.25967E-01 6.95345E-14 4.07455E-14
 -1      3858 2.02746E+01-4.21443E-03-4.59392E-04-1.06438E-01 6.91422E-14 1.86096E-14
 -1      3859 2.02104E+01-4.53596E-02-4.54097E-06-1.29069E-01 3.50298E-14 7.03041E-15
 -1      3860 2.03562E+01 5.57789E-01 2.45287E-03 9.45130E-02 9.96616E-14-3.43225E-14
 -1      3861 2.03645E+01 7.00655E-01 2.34157E-05 1.18687E-01 1.18274E-13-2.85000E-14
 -1      3862 2.03404E+01 4.23694E-01-2.30735E-03 3.08757E-02 8.57550E-14-8.18158E-15
 -1      3863 1.99855E+01 8.35742E-02 1.68843E-04-1.05920E-01-6.09342E-14 1.72109E-13
 -1      3864 1.71847E+01-5.28368E-01 2.75475E-02-3.16891E+00-1.13427E-13-1.23248E-14
 -1      3865 2.03204E+01 1.19408E+00-2.57877E-03 3.24698E-02 7.12890E-14-1.18194E-13
 -1      3866 2.03198E+01 1.19231E+00-3.34262E-03-3.09449E-02 4.46577E-14-1.36792E-13
 -1      3867 2.29991E+01-3.13833E+00 2.21273E-02 2.60311E+00-1.63138E-13-3.16058E-13
 -1      3868 2.03239E+01 1.14822E+00-2.49446E-03 1.34457E-01 1.05842E-13-3.95198E-14
 -1      3869 2.03199E+01 1.18081E+00-2.21333E-03 7.75579E-02 8.40002E-14-7.49097E-14
 -1      3870 2.03716E+01 9.94417E-01 3.30461E-03 3.90770E-02 6.19159E-14-7.38521E-14
 -1      3871 2.25420E+01-2.44281E+00 2.40135E-02 2.27479E+00-2.01184E-13-5.28802E-13
 -1      3872 2.18449E+01-2.43771E+00 3.38056E-02-2.01664E+00 3.71699E-14 1.62747E-13
 -1      3873 2.03769E+01 1.77066E-01 3.52360E-04 4.51587E-02 4.06022E-15-3.74404E-14
 -1      3874 2.03582E+01 1.08622E-01-6.04402E-04 6.40862E-02 1.01602E-14-2.53509E-14
 -1      3875 2.03398E+01 5.13397E-02 5.91769E-04 7.22493E-02 2.90948E-15-1.88637E-14
 -1      3876 2.03168E+01 6.56245E-03-2.96827E-04 8.20092E-02 2.34729E-14-2.04757E-14
 -1      3877 2.03702E+01 9.03592E-02-8.29507E-05 5.16545E-02 1.19105E-14 2.28092E-14
 -1      3878 2.02952E+01-2.51978E-02 5.00636E-04 8.44617E-02 6.06505E-14-2.50944E-14
 -1      3879 2.02731E+01-4.91724E-02 5.29847E-06 8.77175E-02 6.24681E-14-2.81538E-14
 -1      3880 2.03271E+01-4.14016E-03-3.23433E-04 6.40773E-02 3.60594E-14 1.95340E-14
 -1      3881 2.02502E+01-6.56311E-02 3.67203E-04 8.70631E-02 3.67476E-14-2.68499E-14
 -1      3882 2.02293E+01-7.63189E-02 1.83670E-04 8.66838E-02-2.21023E-14 2.74781E-15
 -1      3883 2.02811E+01-5.64986E-02-4.55456E-04 6.80142E-02 5.24685E-14 5.07875E-14
 -1      3884 2.02069E+01-8.17729E-02 2.47904E-04 8.43104E-02 3.42277E-15 9.41377E-14
 -1      3885 2.01879E+01-8.29511E-02 2.86407E-04 8.20581E-02 4.31903E-14 1.87718E-13
 -1      3886 2.02351E+01-8.05419E-02-4.98011E-04 6.70168E-02 5.22685E-14 1.79172E-13
 -1      3887 2.01666E+01-8.04898E-02 1.35600E-04 7.90901E-02 4.56723E-14 1.85396E-13
 -1      3888 2.01496E+01-7.48364E-02 3.30511E-04 7.63239E-02 2.64131E-14 2.41017E-13
 -1      3889 2.01916E+01-8.42315E-02-4.72278E-04 6.35294E-02 7.17185E-14 2.68667E-13
 -1      3890 2.01298E+01-6.66160E-02 2.42141E-05 7.35754E-02 1.82201E-14 3.01739E-13
 -1      3891 2.01146E+01-5.58706E-02 3.33390E-04 7.12970E-02 5.46062E-14 3.36045E-13
 -1      3892 2.01512E+01-7.31890E-02-3.97771E-04 5.93660E-02 8.09851E-14 2.79245E-13
 -1      3893 2.00959E+01-4.32244E-02-8.43228E-05 6.93605E-02 3.75768E-14 2.87653E-13
 -1      3894 2.00818E+01-2.84031E-02 3.08844E-04 6.83131E-02 7.72715E-14 3.02108E-13
 -1      3895 2.01137E+01-5.11754E-02-2.81128E-04 5.58944E-02 4.97934E-14 2.85962E-13
 -1      3896 2.00636E+01-1.20359E-02-1.93484E-04 6.76116E-02 5.41634E-14 2.23568E-13
 -1      3897 2.00499E+01 6.41503E-03 2.62805E-04 6.83429E-02 4.71795E-14 1.85518E-13
 -1      3898 2.00782E+01-2.04656E-02-1.38683E-04 5.40862E-02 7.88388E-15 1.57223E-13
 -1      3899 2.00312E+01 2.63277E-02-3.12077E-04 6.91727E-02 5.22694E-14 1.87791E-13
 -1      3900 2.00167E+01 4.84095E-02 1.91491E-04 7.21096E-02 7.67730E-14 2.08302E-13
 -1      3901 2.00429E+01 1.79344E-02 3.05903E-05 5.46063E-02 5.78495E-14 1.13958E-13
 -1      3902 1.99963E+01 7.20589E-02-4.43684E-04 7.46479E-02 7.94287E-14 2.17791E-13
 -1      3903 1.99797E+01 9.81151E-02 9.01152E-05 8.00865E-02 9.05674E-14 1.92814E-13
 -1      3904 2.00056E+01 6.39431E-02 2.35945E-04 5.78592E-02 5.10534E-14 1.41970E-13
 -1      3905 1.99559E+01 1.25994E-01-5.90050E-04 8.43688E-02 6.29935E-14 1.35551E-13
 -1      3906 1.99354E+01 1.56611E-01-5.40340E-05 9.24581E-02 2.11186E-14 1.47454E-13
 -1      3907 1.99633E+01 1.18119E-01 4.85342E-04 6.39784E-02 1.90410E-14 9.42712E-14
 -1      3908 1.99062E+01 1.89421E-01-7.53192E-04 9.83203E-02-2.12814E-14 6.34231E-14
 -1      3909 1.98797E+01 2.25347E-01-2.59209E-04 1.08997E-01-7.99169E-14 4.48203E-14
 -1      3910 1.99126E+01 1.81492E-01 7.90893E-04 7.27044E-02-1.76242E-14 1.28770E-13
 -1      3911 1.98428E+01 2.63848E-01-9.50982E-04 1.15979E-01-1.43584E-13 1.18654E-13
 -1      3912 1.98074E+01 3.05892E-01-5.59500E-04 1.28873E-01-1.52737E-13 1.26992E-13
 -1      3913 1.98489E+01 2.55358E-01 1.17673E-03 8.32409E-02-8.48848E-14 2.30855E-14
 -1      3914 1.97573E+01 3.53466E-01-1.11693E-03 1.36412E-01-2.02890E-13 1.08099E-13
 -1      3915 1.97062E+01 4.04896E-01-1.00110E-03 1.51308E-01-1.49840E-13 1.00737E-13
 -1      3916 1.97646E+01 3.43205E-01 1.62981E-03 9.42341E-02-1.99128E-13 5.75889E-14
 -1      3917 1.96433E+01 4.57657E-01-1.33932E-03 1.56933E-01-6.69997E-14 7.75506E-14
 -1      3918 1.95765E+01 5.14075E-01-1.67554E-03 1.70732E-01-7.78618E-14 1.07287E-13
 -1      3919 1.96541E+01 4.44404E-01 2.28978E-03 1.02119E-01-1.27164E-13 7.89919E-14
 -1      3920 1.94948E+01 5.74462E-01-1.49940E-03 1.72227E-01-1.31685E-13 1.34421E-13
 -1      3921 1.94034E+01 6.37806E-01-2.60865E-03 1.82878E-01-7.40414E-14 1.64060E-13
 -1      3922 1.95123E+01 5.55969E-01 3.04066E-03 1.02119E-01-8.31969E-14 1.03801E-13
 -1      3923 1.92972E+01 7.05366E-01-1.66932E-03 1.76235E-01-7.94722E-14 9.85458E-14
 -1      3924 1.91725E+01 7.74485E-01-3.91942E-03 1.79593E-01-1.45630E-13 4.73188E-14
 -1      3925 1.93267E+01 6.78969E-01 4.01966E-03 8.71074E-02-1.28824E-13 7.55159E-14
 -1      3926 1.90348E+01 8.47546E-01-1.84088E-03 1.59074E-01-1.53694E-13 6.33339E-14
 -1      3927 1.88652E+01 9.19599E-01-5.76022E-03 1.49282E-01-8.84740E-14 8.45542E-15
 -1      3928 1.90844E+01 8.09695E-01 5.27876E-03 4.63820E-02-1.60405E-13 1.12714E-13
 -1      3929 1.86869E+01 9.94570E-01-2.06933E-03 1.06964E-01-4.42598E-14-8.97489E-14
 -1      3930 1.84568E+01 1.06427E+00-8.35394E-03 7.62337E-02-4.93967E-14-8.57745E-14
 -1      3931 1.87693E+01 9.41006E-01 6.91508E-03-3.51107E-02-1.23101E-13 4.56759E-14
 -1      3932 1.82257E+01 1.13471E+00-2.48124E-03 1.57182E-03 7.70498E-14-5.39037E-14
 -1      3933 1.79128E+01 1.19311E+00-1.21819E-02-5.97487E-02 7.64431E-14 3.77555E-14
 -1      3934 1.83604E+01 1.06074E+00 9.08645E-03-1.77896E-01 5.80423E-14-6.69191E-15
 -1      3935 1.76126E+01 1.24860E+00-3.28412E-03-1.81224E-01 3.49841E-14 5.60653E-14
 -1      3936 1.71825E+01 1.28316E+00-1.76692E-02-2.84581E-01 2.04867E-14 8.46538E-14
 -1      3937 1.78304E+01 1.14903E+00 1.21161E-02-4.09651E-01 8.91303E-14 1.47671E-14
 -1      3938 1.67874E+01 1.30230E+00-5.54135E-03-4.70904E-01-2.73704E-14 9.03766E-14
 -1      3939 1.61937E+01 1.29472E+00-2.25098E-02-6.38678E-01 1.60679E-14 9.01718E-14
 -1      3940 1.71448E+01 1.17777E+00 1.89178E-02-7.69006E-01 2.84807E-14 7.61791E-14
 -1      3941 1.98404E+01 2.58963E-01 6.26553E-04-1.92032E-01 2.93397E-14 1.26437E-13
 -1      3942 1.98604E+01 2.31153E-01-1.11482E-03-1.67813E-01 8.23648E-14 8.76016E-14
 -1      3943 2.00372E+01 1.63805E-02 3.41059E-04-7.38474E-02-4.67237E-14 1.30188E-13
 -1      3944 2.00497E+01-1.84554E-03-2.54697E-04-7.19904E-02 2.79314E-14 1.35091E-13
 -1      3945 1.98912E+01 2.04429E-01 4.73024E-04-1.48454E-01 3.88798E-14 3.91257E-14
 -1      3946 1.99088E+01 1.77066E-01-9.01045E-04-1.30509E-01-1.99931E-14 6.98663E-14
 -1      3947 1.98551E+01 2.36611E-01 6.95081E-04-1.36575E-01 6.89821E-14 4.77270E-14
 -1      3948 1.99349E+01 1.51266E-01 3.87966E-04-1.16874E-01-4.32442E-14 7.23994E-14
 -1      3949 1.99504E+01 1.25545E-01-7.09136E-04-1.04149E-01-8.81287E-14 1.33786E-13
 -1      3950 1.99088E+01 1.77849E-01 5.39754E-04-1.05185E-01-4.68847E-14 6.34713E-14
 -1      3951 1.97826E+01 3.11043E-01 8.78625E-04-2.50457E-01-7.80744E-14 1.64661E-13
 -1      3952 1.98042E+01 2.84933E-01-1.34180E-03-2.18685E-01-2.23464E-14 1.20034E-13
 -1      3953 1.97919E+01 2.96925E-01 8.09017E-04-1.80541E-01-4.52614E-14 1.17656E-13
 -1      3954 1.97193E+01 3.54391E-01 1.26980E-03-3.27230E-01-6.80465E-14 1.82452E-13
 -1      3955 1.97410E+01 3.33439E-01-1.56527E-03-2.86405E-01-4.55528E-14 1.64957E-13
 -1      3956 1.97184E+01 3.54598E-01 8.48509E-04-2.40781E-01-4.41536E-14 1.61096E-13
 -1      3957 1.96547E+01 3.79388E-01 1.85155E-03-4.26582E-01-2.06844E-13 2.12262E-13
 -1      3958 1.96733E+01 3.68844E-01-1.75008E-03-3.75018E-01-1.39885E-13 1.81407E-13
 -1      3959 1.96355E+01 4.02742E-01 7.49395E-04-3.22104E-01-1.14506E-13 1.86169E-13
 -1      3960 1.95974E+01 3.72113E-01 2.68188E-03-5.53311E-01-3.64551E-14 2.12443E-14
 -1      3961 1.96072E+01 3.79508E-01-1.83157E-03-4.89303E-01-1.35612E-13 6.05723E-14
 -1      3962 1.95468E+01 4.30802E-01 4.16658E-04-4.30635E-01-1.16243E-13 3.23939E-14
 -1      3963 1.95619E+01 3.13412E-01 3.80866E-03-7.12226E-01-9.88535E-14 2.39809E-13
 -1      3964 1.95539E+01 3.49029E-01-1.69221E-03-6.34472E-01-5.55636E-14 1.32072E-13
 -1      3965 1.94602E+01 4.23424E-01-2.94909E-04-5.73826E-01-9.37759E-14 5.68483E-14
 -1      3966 1.95716E+01 1.78262E-01 5.21231E-03-9.06708E-01-1.85133E-13 1.77059E-13
 -1      3967 1.95322E+01 2.55444E-01-1.12594E-03-8.15254E-01-1.07586E-13 2.31685E-13
 -1      3968 1.93900E+01 3.59222E-01-1.61452E-03-7.60050E-01-1.17514E-13 1.94738E-13
 -1      3969 1.96625E+01-6.36880E-02 6.74887E-03-1.13543E+00-1.45108E-13 2.42931E-13
 -1      3970 1.95724E+01 7.10471E-02 2.01585E-04-1.03357E+00-1.85627E-13 1.57448E-13
 -1      3971 1.93606E+01 2.09596E-01-3.92135E-03-9.97094E-01-1.10973E-13 2.18855E-13
 -1      3972 1.98864E+01-4.46373E-01 7.58154E-03-1.38680E+00-5.42678E-14 2.86595E-13
 -1      3973 1.97196E+01-2.35976E-01 2.73626E-03-1.28447E+00-3.22126E-14 2.40210E-13
 -1      3974 1.94103E+01-6.09482E-02-7.91625E-03-1.28835E+00-1.02640E-13 7.47425E-14
 -1      3975 2.03143E+01-9.96831E-01 6.89216E-03-1.62707E+00-1.22644E-13 2.11130E-13
 -1      3976 2.00427E+01-6.97616E-01 7.92030E-03-1.54597E+00-3.51529E-14 3.16454E-13
 -1      3977 1.95970E+01-4.98092E-01-1.61594E-02-1.62842E+00-4.83675E-14 1.23537E-13
 -1      3978 2.10540E+01-1.72494E+00-5.69717E-04-1.75698E+00-3.36270E-14 1.77517E-13
 -1      3979 2.06325E+01-1.33713E+00 1.53943E-02-1.75147E+00-1.39877E-13 1.89433E-13
 -1      3980 2.00403E+01-1.14551E+00-2.43306E-02-1.97998E+00-7.11306E-14 3.77951E-14
 -1      3981 2.03326E+01 1.08124E+00-4.60396E-03-1.30639E-01 2.85075E-14-1.08006E-13
 -1      3982 2.03884E+01 7.75343E-01 3.98226E-03-9.04450E-02 3.91834E-14-7.54510E-14
 -1      3983 2.01739E+01-6.93608E-02 2.01683E-04-1.26474E-01 4.29583E-14-9.95202E-15
 -1      3984 2.01903E+01-5.98535E-02 4.42011E-04-1.28230E-01 2.40913E-14-3.18372E-15
 -1      3985 2.01925E+01-7.47311E-02-5.36649E-04-1.09678E-01 1.07890E-14 4.19511E-14
 -1      3986 2.03153E+01 7.99008E-02-3.19568E-04-8.72485E-02 2.95048E-14-1.22740E-14
 -1      3987 2.02874E+01 8.87948E-02-7.50786E-04-9.79661E-02 4.83107E-14 2.68252E-14
 -1      3988 2.03090E+01 1.49352E-01 1.32480E-03-7.44480E-02 7.20370E-14 2.49097E-14
 -1      3989 2.00062E+01 5.64570E-02 3.35641E-04-8.11974E-02-3.49681E-14 9.92192E-14
 -1      3990 2.00191E+01 3.55190E-02-3.94191E-04-7.64048E-02-2.68635E-14 1.28570E-13
 -1      3991 2.00296E+01 2.88308E-02 3.44332E-05-6.18038E-02-1.67333E-14 1.18182E-13
 -1      3992 2.03991E+01 5.98809E-01-1.23632E-03-5.88086E-02 1.25816E-14-9.23974E-14
 -1      3993 2.04014E+01 4.61540E-01-3.80164E-04-1.48006E-02-1.51345E-14-1.04038E-13
 -1      3994 2.04038E+01 6.95065E-01 1.48622E-03-4.72600E-02 1.21369E-14-1.29908E-13
 -1      3995 2.03312E+01 1.12028E+00-2.42309E-03-7.35239E-02 3.29234E-14-1.37463E-13
 -1      3996 2.03180E+01 1.08844E+00 5.01617E-04 2.47294E-01 1.33003E-13-5.46307E-14
 -1      3997 2.02970E+01 1.11725E+00-1.89631E-03 3.12207E-01 1.40250E-13-7.04692E-14
 -1      3998 2.03202E+01 1.09955E+00-1.78938E-03 1.96139E-01 1.26420E-13-3.76187E-14
 -1      3999 1.67442E+01 9.85478E-02 1.92208E-02-2.65980E+00 5.59774E-14 1.03259E-13
 -1      4000 1.78805E+01-6.44622E-01-2.73095E-02-2.88318E+00 7.83544E-14-3.56944E-13
 -1      4001 1.99727E+01 1.01589E-01 3.47253E-04-9.50548E-02-9.22367E-14 1.03921E-13
 -1      4002 1.99866E+01 7.81207E-02-5.40401E-04-8.66677E-02-5.30023E-14 7.74691E-14
 -1      4003 1.99543E+01 1.22965E-01 3.68511E-04-8.35796E-02-6.34905E-14 1.68333E-14
 -1      4004 2.03996E+01 3.51757E-01-3.21982E-04 1.80481E-03 2.85993E-15-9.53630E-14
 -1      4005 2.03887E+01 2.52627E-01-6.34886E-04 3.20675E-02-2.86146E-15-7.77185E-14
 -1      4006 2.04035E+01 2.30583E-01 2.92598E-04 2.71819E-02 4.29964E-14-4.70288E-14
 -1      4007 2.04198E+01 4.17704E-01 8.84001E-04-4.71381E-03 1.29886E-14-9.96688E-14
 -1      4008 2.03799E+01 9.38396E-01 2.68804E-03-3.54825E-02 2.60741E-14-1.13718E-13
 -1      4009 2.03649E+01 9.35356E-01 3.22223E-03 1.37571E-01 1.07219E-13-4.04619E-14
 -1      4010 1.85987E+01-8.79973E-01 4.03588E-02-2.91426E+00 2.04871E-15-3.66542E-13
 -1      4011 1.92401E+01-1.29611E+00-1.45136E-02-2.79031E+00 2.85752E-15-3.07133E-13
 -1      4012 1.81363E+01-3.76379E-01 4.01080E-03-2.52641E+00 4.49725E-14-3.19228E-13
 -1      4013 2.00634E+01-9.53003E-03-1.44538E-04-5.87936E-02 4.18851E-15 5.53360E-14
 -1      4014 2.00673E+01-1.82331E-02 3.52104E-04-7.16888E-02 6.77662E-14 1.07827E-13
 -1      4015 2.00803E+01-3.35973E-02-1.66030E-04-7.20771E-02 6.47021E-14 5.31123E-14
 -1      4016 2.00926E+01-5.11500E-02-3.01986E-04-8.88442E-02 2.63427E-14 1.05287E-13
 -1      4017 1.39109E+01 1.47329E+00 4.33699E-02-1.80785E-01 2.67339E-13-2.85050E-13
 -1      4018 2.01675E+01-8.03601E-02 3.18725E-04-8.47336E-02 2.38350E-14-2.44953E-14
 -1      4019 2.01853E+01-8.18927E-02 2.10830E-04-8.76358E-02 1.98206E-14-5.52071E-14
 -1      4020 2.03786E+01 7.44203E-01-1.53497E-03 7.96181E-02 9.21512E-14-8.24875E-15
 -1      4021 2.02327E+01-5.23801E-02-5.29827E-04-1.12143E-01 4.34451E-14 1.74355E-14
 -1      4022 2.03346E+01 6.03814E-02-4.64741E-04-7.82565E-02 2.00269E-14 1.26884E-14
 -1      4023 2.03554E+01 1.16276E-01 5.07038E-04-6.30014E-02 3.88584E-14 1.37837E-14
 -1      4024 1.99939E+01 7.31219E-02 1.97565E-04-6.96560E-02-4.16025E-14 1.07415E-13
 -1      4025 2.01315E+01-6.82900E-02 3.90493E-04-7.85321E-02-2.57248E-14 5.73263E-14
 -1      4026 2.01471E+01-7.57387E-02 7.44846E-05-8.14879E-02-1.75439E-14-9.23534E-15
 -1      4027 2.01719E+01-8.09361E-02-4.72086E-04-6.69359E-02-3.00295E-14-1.08526E-13
 -1      4028 1.61770E+01 7.45325E-01-2.99719E-03-1.86583E+00 5.99217E-15 3.43355E-13
 -1      4029 1.70424E+01 6.37649E-01 1.71316E-02-1.73128E+00 1.74508E-13 6.88111E-14
 -1      4030 2.03205E+01 2.22822E-01-1.35151E-03-5.03678E-02 7.90398E-14-5.76207E-15
 -1      4031 2.03406E+01 3.14939E-01 1.79587E-03-9.52587E-03 8.40845E-14-1.82206E-14
 -1      4032 2.03700E+01 4.16163E-01 7.33755E-04 1.88061E-02 8.63122E-14-2.45302E-14
 -1      4033 2.03500E+01 2.13710E-01-3.43822E-05-4.79902E-02 6.77744E-14-2.77798E-14
 -1      4034 2.09354E+01-1.96640E+00-3.47214E-03-2.16742E+00 6.97447E-14-1.48341E-15
 -1      4035 2.03985E+01 8.11288E-01 5.34830E-04 9.94981E-04 3.85567E-14-7.80483E-14
 -1      4036 2.04053E+01 7.41449E-01-1.26744E-03-3.21529E-02 3.28379E-14-9.79091E-14
 -1      4037 2.04239E+01 5.80030E-01 3.72286E-04-9.50673E-03 3.14325E-14-9.98037E-14
 -1      4038 2.03994E+01 7.90315E-01-1.12864E-03 3.37805E-02 5.41509E-14-5.84775E-14
 -1      4039 2.02931E+01-1.79220E-02-1.47576E-04-9.09328E-02 6.01736E-14 2.28552E-14
 -1      4040 2.03151E+01 1.63717E-02 5.88810E-04-8.40942E-02 4.58122E-14 6.18766E-15
 -1      4041 2.03485E+01 4.72907E-02-2.66466E-04-6.31809E-02 3.94605E-14-3.67591E-14
 -1      4042 1.37378E+01 1.30436E+00 2.68207E-02-9.76476E-01 2.25892E-13-2.83005E-13
 -1      4043 1.47538E+01 1.14801E+00 1.25100E-02-1.27850E+00 4.26326E-14 2.69437E-14
 -1      4044 1.56356E+01 1.30514E+00-2.91591E-03-8.21194E-01 5.57627E-15 1.24033E-13
 -1      4045 1.49840E+01 1.26758E+00-8.82011E-03-9.55573E-01 4.48071E-14-6.80185E-15
 -1      4046 2.03543E+01 1.47479E-02 4.52496E-04 4.17370E-02 2.25288E-14 3.07967E-14
 -1      4047 2.03309E+01-2.10412E-02-6.16154E-05 4.67966E-02 5.24292E-14 4.33581E-14
 -1      4048 2.03077E+01-4.73480E-02 3.87850E-04 4.62026E-02 8.10684E-14 3.53725E-14
 -1      4049 2.02838E+01-6.60327E-02 1.38693E-04 4.79109E-02 6.82609E-14 6.42699E-14
 -1      4050 2.03287E+01-3.20961E-02-5.96400E-04 2.63284E-02 4.62260E-14 2.82507E-14
 -1      4051 2.02595E+01-7.80818E-02 2.67990E-04 4.68618E-02 9.15072E-14 1.33531E-13
 -1      4052 2.02368E+01-8.46799E-02 2.43621E-04 4.66832E-02 9.99285E-14 1.96504E-13
 -1      4053 2.02796E+01-7.18532E-02-5.67780E-04 2.66561E-02 1.29222E-13 6.48342E-14
 -1      4054 2.02134E+01-8.64024E-02 2.56337E-04 4.48147E-02 6.54503E-14 2.12120E-13
 -1      4055 2.01921E+01-8.41721E-02 2.80293E-04 4.38424E-02 8.88279E-14 2.28587E-13
 -1      4056 2.02322E+01-8.68427E-02-6.74065E-04 2.59269E-02 1.00655E-13 1.05723E-13
 -1      4057 2.01700E+01-7.85038E-02 1.90314E-04 4.20384E-02 9.48904E-14 1.98665E-13
 -1      4058 2.01502E+01-6.98533E-02 2.61147E-04 4.09052E-02 7.19782E-14 1.83383E-13
 -1      4059 2.01867E+01-8.30834E-02-6.72960E-04 2.46725E-02 8.89280E-14 1.01647E-13
 -1      4060 2.01294E+01-5.87392E-02 7.70850E-05 3.95036E-02-1.15310E-14 1.78591E-13
 -1      4061 2.01111E+01-4.51749E-02 2.22913E-04 3.86982E-02-2.02077E-14 1.32220E-13
 -1      4062 2.01442E+01-6.56421E-02-4.79140E-04 2.31573E-02 3.08805E-14 7.05659E-14
 -1      4063 2.00911E+01-2.96679E-02-2.87922E-05 3.78487E-02-3.52439E-14 1.00718E-13
 -1      4064 2.00735E+01-1.20967E-02 1.66054E-04 3.78333E-02-6.70325E-14 1.51901E-14
 -1      4065 2.01042E+01-3.79746E-02-2.49199E-04 2.18505E-02-8.33203E-14 3.54349E-14
 -1      4066 2.00535E+01 7.26240E-03-1.09188E-04 3.73905E-02-2.45362E-14 2.30595E-14
 -1      4067 2.00354E+01 2.85921E-02 6.80590E-05 3.84300E-02 5.38750E-14-2.12243E-14
 -1      4068 2.00653E+01-2.19549E-03-1.03174E-04 2.12653E-02-3.96548E-14-3.46815E-14
 -1      4069 2.00144E+01 5.16827E-02-2.10359E-04 3.85648E-02 9.89579E-14-1.01448E-14
 -1      4070 1.99945E+01 7.68077E-02-6.50831E-05 4.07193E-02 4.50594E-14 2.26350E-14
 -1      4071 2.00253E+01 4.15035E-02 1.23843E-04 2.12484E-02 3.35828E-14-1.35178E-13
 -1      4072 1.99709E+01 1.03869E-01-3.18485E-04 4.12417E-02-2.02073E-14 4.32562E-14
 -1      4073 1.99476E+01 1.33102E-01-2.43925E-04 4.44345E-02 2.84426E-14 1.43545E-14
 -1      4074 1.99819E+01 9.28959E-02 4.26452E-04 2.14925E-02 4.18938E-15-1.12496E-13
 -1      4075 1.99199E+01 1.64579E-01-4.23967E-04 4.49962E-02 5.79093E-15 3.08190E-14
 -1      4076 1.98910E+01 1.98353E-01-4.87164E-04 4.89118E-02-7.14868E-14-9.10646E-15
 -1      4077 1.99319E+01 1.52445E-01 7.75768E-04 2.14273E-02 2.60514E-14-1.03075E-13
 -1      4078 1.98572E+01 2.34756E-01-5.23680E-04 4.88532E-02-1.10675E-13-4.19560E-14
 -1      4079 1.98203E+01 2.73468E-01-8.30841E-04 5.28734E-02-1.41921E-13-5.26102E-14
 -1      4080 1.98715E+01 2.20783E-01 1.17157E-03 1.99229E-02-1.09351E-13-1.99292E-13
 -1      4081 1.97759E+01 3.17485E-01-5.67111E-04 5.09651E-02-1.37100E-13-4.17447E-14
 -1      4082 1.97248E+01 3.63741E-01-1.29210E-03 5.38382E-02-1.85331E-13-3.59888E-15
 -1      4083 1.97941E+01 3.00365E-01 1.57216E-03 1.48293E-02-1.25634E-13-1.63497E-13
 -1      4084 1.96712E+01 4.11398E-01-6.05869E-04 4.83420E-02-2.00449E-13 1.00282E-13
 -1      4085 1.96068E+01 4.60558E-01-1.94138E-03 4.78166E-02-1.18195E-13 8.69186E-14
 -1      4086 1.96961E+01 3.89659E-01 2.07298E-03 2.87145E-03-1.43015E-13-4.05444E-15
 -1      4087 1.95395E+01 5.13488E-01-5.15055E-04 3.60238E-02-7.10830E-14 1.11976E-13
 -1      4088 1.94545E+01 5.66567E-01-2.83279E-03 2.90962E-02-1.03035E-13 1.29125E-13
 -1      4089 1.95744E+01 4.84870E-01 2.57802E-03-2.03239E-02-7.25028E-14 1.17466E-13
 -1      4090 1.93706E+01 6.23607E-01-3.11006E-04 6.93563E-03-1.40655E-13 1.28519E-13
 -1      4091 1.92588E+01 6.78530E-01-4.04983E-03-1.10601E-02-1.10942E-13 1.47438E-13
 -1      4092 1.94207E+01 5.85162E-01 3.10954E-03-6.21322E-02-9.63090E-14 8.34186E-14
 -1      4093 1.91549E+01 7.37218E-01 8.48501E-05-4.93898E-02-1.62842E-13 1.64456E-13
 -1      4094 1.90084E+01 7.90123E-01-5.71325E-03-8.50938E-02-1.74694E-13 1.70067E-13
 -1      4095 1.92278E+01 6.84894E-01 3.61804E-03-1.32888E-01-1.43674E-13 2.79087E-13
 -1      4096 1.88815E+01 8.46114E-01 7.53633E-04-1.47682E-01-2.41406E-13 1.10077E-13
 -1      4097 1.86901E+01 8.90662E-01-7.97740E-03-2.10260E-01-1.16955E-13 1.37596E-13
 -1      4098 1.89884E+01 7.74606E-01 4.03673E-03-2.47091E-01-2.09757E-13 1.75393E-13
 -1      4099 1.85372E+01 9.36948E-01 1.83077E-03-3.08116E-01-2.94782E-14 9.46272E-14
 -1      4100 1.82876E+01 9.63285E-01-1.09920E-02-4.09910E-01 4.29346E-14-6.04559E-14
 -1      4101 1.86949E+01 8.39414E-01 4.27376E-03-4.24648E-01-1.01784E-13 1.53209E-13
 -1      4102 1.81063E+01 9.89562E-01 3.75100E-03-5.57404E-01 9.81071E-14-1.82909E-13
 -1      4103 1.77834E+01 9.82532E-01-1.40632E-02-7.14840E-01 9.59848E-14-1.04750E-13
 -1      4104 1.83396E+01 8.56932E-01 4.20460E-03-6.92382E-01 1.00935E-14-1.54640E-13
 -1      4105 1.75723E+01 9.71529E-01 7.61332E-03-9.28276E-01 1.06620E-13-4.89272E-14
 -1      4106 1.71265E+01 9.35055E-01-1.21009E-02-1.16933E+00 9.27361E-14 5.48680E-14
 -1      4107 1.79088E+01 7.94101E-01 2.06859E-03-1.08495E+00 1.53178E-13-1.68917E-13
 -1      4108 1.96607E+01 3.97954E-01 9.62820E-04-2.17102E-01-3.32540E-14 1.34375E-13
 -1      4109 1.96971E+01 3.64683E-01-1.87743E-03-1.84016E-01-6.36756E-14 1.21556E-13
 -1      4110 2.00220E+01 4.12020E-02 2.25581E-04-4.67856E-02-3.65822E-14 1.17555E-13
 -1      4111 2.00390E+01 1.95877E-02-2.41678E-04-4.41133E-02 3.90109E-17 1.19167E-13
 -1      4112 1.97483E+01 3.32600E-01 5.93700E-04-1.58444E-01-4.86637E-14 1.04356E-13
 -1      4113 1.97805E+01 2.98264E-01-1.46268E-03-1.34298E-01-1.46654E-14 1.02116E-13
 -1      4114 1.96977E+01 3.75148E-01 1.81954E-03-1.34909E-01-4.11849E-14 1.11792E-13
 -1      4115 1.75611E+01 3.81293E-01-3.33271E-03-1.86634E+00 2.02088E-13-1.64324E-13
 -1      4116 2.04020E+01 5.03278E-01 5.70728E-04 3.96466E-02 7.37087E-14 2.66985E-15
 -1      4117 2.04011E+01 7.08035E-01 6.15110E-04 4.74470E-02 5.98682E-14-1.09878E-15
 -1      4118 2.04245E+01 5.48601E-01-8.68499E-05 7.08990E-03 4.79661E-14-4.09864E-14
 -1      4119 2.03954E+01 3.79860E-01-1.10104E-03-3.86580E-03 6.51712E-14 8.95784E-15
 -1      4120 2.00984E+01-4.68492E-02 4.21983E-04-7.37429E-02 1.54672E-14 5.10637E-14
 -1      4121 2.01123E+01-5.87403E-02-4.55076E-05-7.57531E-02-5.61648E-15 5.59400E-14
 -1      4122 2.01333E+01-6.61347E-02-4.61059E-04-6.23194E-02-3.26755E-14-7.95517E-14
 -1      4123 1.98850E+01 2.01661E-01 2.54524E-04-8.73315E-02 9.85601E-15-3.11689E-14
 -1      4124 1.99087E+01 1.70827E-01-8.38243E-04-7.51839E-02-3.88511E-14-1.63320E-15
 -1      4125 1.95600E+01 4.55146E-01 1.55323E-03-2.98515E-01-1.56899E-13 1.54459E-13
 -1      4126 1.95992E+01 4.26621E-01-2.35697E-03-2.53653E-01-3.46754E-14 1.77441E-13
 -1      4127 1.95922E+01 4.48016E-01 2.06955E-03-1.93312E-01-4.47018E-14 1.42406E-13
 -1      4128 1.94492E+01 4.93710E-01 2.45687E-03-4.10429E-01-6.34666E-14 1.27543E-14
 -1      4129 1.94880E+01 4.75576E-01-2.89580E-03-3.50158E-01-1.10593E-13 1.00186E-13
 -1      4130 1.94676E+01 5.13000E-01 2.18055E-03-2.77402E-01-6.82312E-14 1.01405E-13
 -1      4131 1.93351E+01 4.98238E-01 3.79419E-03-5.62687E-01-1.47983E-13 1.47975E-13
 -1      4132 1.93676E+01 4.98752E-01-3.45651E-03-4.82561E-01-1.27881E-13 2.70488E-14
 -1      4133 1.93249E+01 5.59086E-01 2.03094E-03-3.97166E-01-1.31630E-13 9.24534E-14
 -1      4134 1.92313E+01 4.46950E-01 5.71778E-03-7.67117E-01-1.41363E-13 1.84035E-13
 -1      4135 1.92472E+01 4.77745E-01-3.94529E-03-6.62130E-01-1.39034E-13 1.60741E-13
 -1      4136 1.91683E+01 5.69848E-01 1.41966E-03-5.65700E-01-2.00296E-13 1.82048E-13
 -1      4137 1.91616E+01 3.09960E-01 8.36043E-03-1.03654E+00-7.70473E-14 2.44900E-13
 -1      4138 1.91445E+01 3.87001E-01-4.14864E-03-9.02056E-01-7.70648E-14 2.53895E-13
 -1      4139 1.90081E+01 5.21545E-01-2.49501E-05-7.99556E-01-1.39857E-13 1.72225E-13
 -1      4140 1.91635E+01 4.64589E-02 1.04140E-02-1.38187E+00-3.17223E-14 1.75634E-13
 -1      4141 1.90912E+01 1.91873E-01-3.63748E-03-1.21538E+00-3.49122E-14 2.40471E-13
 -1      4142 1.88644E+01 3.79751E-01-3.19227E-03-1.11843E+00-2.88198E-14 3.91101E-13
 -1      4143 1.93077E+01-3.87322E-01 1.24377E-02-1.80049E+00-5.80425E-14 1.03022E-13
 -1      4144 1.91400E+01-1.43512E-01 2.65012E-04-1.60583E+00-2.46587E-14 1.19306E-13
 -1      4145 1.87818E+01 9.27089E-02-9.44020E-03-1.53944E+00-1.19938E-14 1.87159E-13
 -1      4146 2.02399E+01-1.66656E+00 1.38619E-02-2.54133E+00-5.64845E-14-1.21905E-13
 -1      4147 2.04309E+01 5.11778E-01 1.19743E-03-1.34491E-03 6.90044E-14-8.52409E-14
 -1      4148 2.04282E+01 4.55414E-01-1.19408E-03-9.18278E-03 5.02559E-14-8.82654E-14
 -1      4149 2.04280E+01 3.51049E-01 2.74799E-04 7.13755E-03 6.16840E-14-6.71753E-14
 -1      4150 1.99822E+01 8.86864E-02 2.02664E-04-5.44112E-02-8.63876E-15 4.82717E-14
 -1      4151 2.00004E+01 6.39001E-02-4.10181E-04-4.93276E-02 9.75263E-15 1.12991E-13
 -1      4152 2.00109E+01 5.61116E-02 2.32966E-04-3.12215E-02 1.52029E-14 2.26426E-14
 -1      4153 2.02070E+01-7.96398E-02 2.32753E-04-9.05318E-02 2.87525E-14-4.81852E-14
 -1      4154 2.02268E+01-7.30857E-02 3.20340E-04-9.19338E-02 1.07733E-14-3.56488E-14
 -1      4155 2.02136E+01-8.30662E-02-5.60793E-04-7.15919E-02 3.98569E-14-1.34867E-13
 -1      4156 1.61748E+01 1.16464E+00 2.46095E-02-1.18454E+00 3.05637E-14 2.33636E-13
 -1      4157 2.03960E+01 1.26301E-01 1.65584E-04 3.02512E-02 3.04523E-14 9.77858E-15
 -1      4158 2.03753E+01 6.33801E-02-3.31341E-04 4.03358E-02 2.31651E-14 2.75298E-14
 -1      4159 2.03752E+01 4.60977E-02-3.60525E-04 2.27429E-02 2.60703E-14-1.89767E-14
 -1      4160 1.99374E+01 1.42283E-01 2.05332E-04-6.73673E-02-8.78454E-14-1.70348E-15
 -1      4161 1.99579E+01 1.14382E-01-6.03667E-04-5.91973E-02-7.85630E-14-1.43561E-14
 -1      4162 1.99173E+01 1.66207E-01 8.54096E-04-4.95772E-02-5.11730E-14-1.34110E-13
 -1      4163 2.02496E+01-6.13048E-02 1.50880E-04-9.38918E-02 1.96133E-14 8.82057E-15
 -1      4164 2.02708E+01-4.30503E-02 4.61095E-04-9.22514E-02 6.47036E-14 1.38466E-14
 -1      4165 2.03042E+01-2.72019E-02-4.61355E-04-7.22579E-02 4.17491E-14-2.07517E-14
 -1      4166 2.02588E+01-6.77778E-02-6.14298E-04-7.39612E-02 5.56673E-14-6.19296E-14
 -1      4167 1.98227E+01 2.65786E-01 3.62549E-04-1.16633E-01-3.40326E-14 5.88942E-14
 -1      4168 1.98504E+01 2.32613E-01-1.12854E-03-9.93177E-02 3.04079E-14 2.92948E-14
 -1      4169 1.98576E+01 2.31165E-01 1.21190E-03-6.75672E-02-2.17514E-14-1.27483E-13
 -1      4170 1.95622E+01-1.10868E+00 4.69266E-03-2.39947E+00-7.25218E-14-1.38692E-13
 -1      4171 2.00593E+01-8.41233E-05 2.66740E-04-4.32275E-02-2.44939E-14 8.62729E-14
 -1      4172 2.00763E+01-1.82220E-02 6.92208E-06-4.25977E-02-9.46620E-15 3.50609E-14
 -1      4173 2.00507E+01 1.12195E-02-3.49847E-05-2.76664E-02-2.09491E-14 1.54260E-14
 -1      4174 2.04313E+01 4.33501E-01 6.92942E-04 6.92649E-03 6.00323E-14-4.91021E-14
 -1      4175 2.04215E+01 2.64103E-01-5.12662E-04 1.04428E-02 7.49117E-14-6.57181E-14
 -1      4176 2.04091E+01 1.87988E-01-6.82034E-05 2.49754E-02 7.43452E-14-1.32417E-14
 -1      4177 2.04109E+01 1.59937E-01-6.24693E-05 1.29507E-02 6.90285E-14-5.12235E-14
 -1      4178 2.04309E+01 3.03404E-01 9.26779E-05 2.83154E-03 9.02373E-14-6.11926E-14
 -1      4179 1.82384E+01 3.46089E-01 1.19468E-02-1.58098E+00 9.22517E-14-1.03591E-14
 -1      4180 1.82055E+01-2.81365E-02 4.52084E-03-2.07668E+00 4.36500E-14-1.28259E-13
 -1      4181 1.97854E+01 3.01468E-01 1.51738E-03-9.47841E-02-2.76693E-14 7.46090E-14
 -1      4182 1.92848E+01-7.19703E-01 4.60212E-03-2.17544E+00-2.81311E-14-2.82092E-14
 -1      4183 2.03729E+01 1.88078E-01-6.09429E-04-4.88609E-02 7.68357E-14 2.35679E-14
 -1      4184 2.03882E+01 2.72568E-01 9.48311E-05-2.15549E-02 7.75736E-14 1.62165E-14
 -1      4185 2.04141E+01 3.52628E-01-5.05943E-04-6.11072E-03 5.99357E-14 5.32954E-14
 -1      4186 2.03882E+01 1.69324E-01-7.38833E-05-4.07669E-02 7.24781E-14 5.08581E-14
 -1      4187 1.99674E+01 1.07783E-01 5.28955E-04-3.80805E-02-1.04207E-14-5.67681E-14
 -1      4188 1.53901E+01 9.59880E-01 4.17969E-02-1.80006E+00-9.12704E-14 3.65470E-13
 -1      4189 2.02171E+01-8.58122E-02 3.32609E-04-5.12524E-02 3.85030E-14-9.29645E-14
 -1      4190 2.02396E+01-8.27157E-02 4.01159E-04-5.23758E-02 7.63618E-14-9.78721E-14
 -1      4191 2.00977E+01-4.17437E-02-3.49650E-04-5.92887E-02 4.44455E-14-5.95874E-14
 -1      4192 2.01740E+01-7.98547E-02 4.14402E-04-4.76504E-02-4.20197E-14-1.46618E-13
 -1      4193 2.01939E+01-8.46715E-02 1.84648E-04-4.91492E-02-1.10170E-14-1.31682E-13
 -1      4194 2.02135E+01-8.70434E-02-6.98239E-04-3.07946E-02 5.12901E-14-1.02733E-13
 -1      4195 2.03553E+01 2.57317E-02-7.80952E-05-4.92239E-02 3.31935E-14-2.88287E-14
 -1      4196 2.03766E+01 7.47508E-02 2.70400E-04-4.10940E-02 5.27005E-14-2.66910E-14
 -1      4197 1.97393E+01 3.40362E-01-3.13090E-04-5.05342E-02-5.94919E-14-2.48733E-14
 -1      4198 1.97794E+01 3.00646E-01-1.48628E-03-3.62439E-02-8.96090E-14-5.31574E-14
 -1      4199 2.02974E+01-6.64122E-02 3.68245E-04 4.91774E-03 1.31614E-13 1.20769E-14
 -1      4200 2.02729E+01-7.86233E-02 4.81476E-04 5.54919E-03 1.52202E-13 3.43719E-14
 -1      4201 2.02501E+01-8.46639E-02 2.99877E-04-3.34345E-03 1.31094E-13-4.32815E-15
 -1      4202 2.02270E+01-8.72287E-02 3.53538E-04-2.83247E-03 1.00601E-13 1.88315E-14
 -1      4203 2.02039E+01-8.57529E-02 4.29638E-04-2.96924E-03 4.86621E-14-1.79444E-15
 -1      4204 2.01813E+01-8.06143E-02 2.55060E-04-2.67527E-03 4.96129E-14-4.44820E-14
 -1      4205 2.01161E+01-4.61586E-02 2.22952E-04 4.52398E-03-8.63352E-14-2.53824E-14
 -1      4206 2.00962E+01-3.02288E-02 1.83019E-04 4.40643E-03-1.24731E-13-8.87620E-14
 -1      4207 2.00784E+01-1.51653E-02 7.61934E-05-2.91911E-03-8.45839E-14-7.83863E-14
 -1      4208 2.00586E+01 4.20749E-03-2.64073E-05-2.86191E-03-3.03367E-14-8.51059E-14
 -1      4209 2.00388E+01 2.52565E-02 4.76789E-05-4.03902E-03 6.90132E-15-9.07033E-14
 -1      4210 2.00176E+01 4.81723E-02-2.10562E-04-4.08687E-03 3.01944E-14-1.32356E-13
 -1      4211 1.99965E+01 7.28566E-02-6.79843E-05-6.31203E-03 8.93139E-15-1.21538E-13
 -1      4212 1.99726E+01 9.93713E-02-4.47940E-04-6.71076E-03 1.38161E-14-1.17254E-13
 -1      4213 1.99489E+01 1.27777E-01-1.88596E-04-1.05174E-02-2.24913E-14-1.34586E-13
 -1      4214 1.99206E+01 1.58060E-01-7.36503E-04-1.17232E-02-3.36367E-14-1.99457E-13
 -1      4215 1.98929E+01 1.90333E-01-2.95659E-04-1.78259E-02-9.18201E-15-2.71647E-13
 -1      4216 1.98582E+01 2.24471E-01-1.09532E-03-2.06349E-02-7.47024E-14-1.97708E-13
 -1      4217 1.98252E+01 2.60702E-01-3.31031E-04-3.00514E-02-1.00045E-13-1.05840E-13
 -1      4218 1.96837E+01 3.81608E-01-1.96087E-03-6.14800E-02-6.55247E-14 4.88193E-14
 -1      4219 1.96355E+01 4.23750E-01-1.90432E-04-8.27699E-02-7.05869E-14 7.02815E-14
 -1      4220 1.95651E+01 4.66705E-01-2.53489E-03-1.01755E-01-3.19776E-14 1.04470E-13
 -1      4221 1.95080E+01 5.09169E-01 8.62852E-05-1.33183E-01-6.64536E-14 8.85110E-14
 -1      4222 1.94194E+01 5.51256E-01-3.19243E-03-1.64571E-01-6.64683E-14 1.32379E-13
 -1      4223 1.93535E+01 5.90449E-01 6.22277E-04-2.10432E-01-1.06252E-13 1.02538E-13
 -1      4224 1.92433E+01 6.27306E-01-3.92759E-03-2.60380E-01-1.50237E-13 1.37323E-13
 -1      4225 1.91701E+01 6.57556E-01 1.55153E-03-3.26484E-01-2.12426E-13 1.41919E-13
 -1      4226 1.90345E+01 6.82398E-01-4.69859E-03-4.03453E-01-1.85320E-13 1.73470E-13
 -1      4227 1.89579E+01 6.95188E-01 3.08322E-03-4.97418E-01-1.62743E-13 2.23623E-13
 -1      4228 1.87938E+01 6.97935E-01-5.37764E-03-6.12812E-01-1.25577E-13 1.59273E-13
 -1      4229 1.87219E+01 6.80897E-01 5.60921E-03-7.44281E-01-1.00894E-13 1.52975E-13
 -1      4230 1.85270E+01 6.47350E-01-5.49369E-03-9.13491E-01-6.28217E-15 8.44148E-14
 -1      4231 1.84767E+01 5.82772E-01 1.04492E-02-1.09404E+00 8.55755E-14 9.94885E-14
 -1      4232 1.82478E+01 4.94403E-01-3.79279E-03-1.34089E+00 1.51117E-13 1.25073E-13
 -1      4233 2.04247E+01 3.51087E-01-1.69462E-04-2.61101E-03 7.48573E-14-2.73215E-14
 -1      4234 2.04309E+01 3.10771E-01-1.23689E-03-4.55555E-03 8.99302E-14-1.00264E-13
 -1      4235 2.04265E+01 2.34715E-01 9.44996E-04-5.57245E-04 9.33987E-14-8.25299E-14
 -1      4236 2.04176E+01 2.47845E-01 1.28488E-03-1.92742E-02 9.93468E-14-7.31405E-15
 -1      4237 1.56722E+01 6.39042E-01 7.75824E-03-2.14863E+00-9.84421E-14 4.09573E-13
 -1      4238 2.03921E+01 1.26850E-01 4.46342E-05-3.72026E-02 6.90934E-14-1.45061E-14
 -1      4239 2.04107E+01 2.01835E-01 2.93192E-04-2.28495E-02 9.49525E-14-4.63320E-16
 -1      4240 2.03942E+01 1.04596E-01-3.20497E-04-2.26880E-02 6.02319E-14-3.87964E-14
 -1      4241 1.87004E+01-3.96970E-01-2.08688E-02-2.16625E+00-1.65510E-14-8.31954E-14
 -1      4242 2.02596E+01-8.14909E-02-7.40257E-04-2.36067E-02 1.35446E-13-6.27914E-14
 -1      4243 2.03925E+01 7.66143E-02 3.22761E-04-4.57132E-03 3.56723E-14-6.31881E-14
 -1      4244 2.04075E+01 1.29204E-01 1.71202E-04 6.76239E-04 5.68228E-14-8.08314E-14
 -1      4245 2.00944E+01-3.23926E-02 2.74153E-04-3.61729E-02-4.16227E-14-5.06488E-14
 -1      4246 2.01121E+01-4.74519E-02 4.39173E-05-3.65620E-02-8.82440E-15-1.20862E-13
 -1      4247 2.01335E+01-6.11157E-02 4.21805E-04-4.10651E-02 1.65073E-15-1.23271E-13
 -1      4248 2.01518E+01-7.18012E-02 7.67194E-05-4.22260E-02-5.91227E-14-1.61493E-13
 -1      4249 2.01688E+01-7.73580E-02-5.68888E-04-2.53213E-02-4.02378E-15-1.86931E-13
 -1      4250 2.01259E+01-5.42373E-02-4.25183E-04-1.67428E-02-7.23428E-14-1.80061E-13
 -1      4251 2.03333E+01-1.24068E-02 3.18415E-04-5.00694E-02 4.33235E-14-2.32767E-14
 -1      4252 2.03559E+01 1.10624E-02-4.79701E-04-3.00797E-02 6.03637E-14-2.54694E-14
 -1      4253 2.03108E+01-4.09538E-02 2.45226E-04-5.37499E-02 5.38769E-14-1.66145E-14
 -1      4254 2.02630E+01-7.63150E-02 2.12338E-04-4.55540E-02 1.21274E-13-6.48087E-14
 -1      4255 2.03479E+01-1.41670E-02 4.30747E-04-4.59002E-03 4.74745E-14-3.95637E-14
 -1      4256 2.03232E+01-4.29833E-02 9.71473E-05-2.39640E-03 7.30667E-14-1.22007E-14
 -1      4257 2.03705E+01 2.40520E-02 1.03946E-04-1.51672E-03 3.93546E-14-4.03301E-14
 -1      4258 2.00873E+01-2.44461E-02-2.99328E-04-1.96729E-02-7.58936E-14-7.35431E-14
 -1      4259 2.01375E+01-6.06942E-02 1.44941E-04 1.21168E-03 9.49964E-16-5.39381E-14
 -1      4260 2.04201E+01 1.89940E-01 1.56444E-04-5.24066E-03 8.21583E-14-1.00394E-13
 -1      4261 2.01589E+01-7.17507E-02 3.72941E-04 1.14829E-03 6.51930E-14-6.92290E-14
 -1      4262 2.04157E+01 1.99165E-01-9.96703E-04-1.30113E-02 9.19953E-14-1.11130E-13
 -1      4263 2.03082E+01-5.23789E-02-5.45934E-04-2.46043E-02 1.07109E-13-4.29324E-14
 -1      4264 2.02863E+01-6.34420E-02 2.63229E-04-4.46332E-02 1.03589E-13-4.63271E-14
 -3
    1PSTEP                         3           1           1          
  100CL  101 1.000000000        4264                     0    1           1
 -4  TOSTRAIN    6    1
 -5  EXX         1    4    1    1
 -5  EYY         1    4    2    2
 -5  EZZ         1    4    3    3
 -5  EXY         1    4    1    2
 -5  EYZ         1    4    2    3
 -5  EZX         1    4    3    1
 -1         1 7.54518E-06-3.56931E-05 3.34941E-06-2.03584E-05-4.29615E-18-1.45944E-18
 -1         2 3.99788E-05-1.22186E-04 2.25273E-05-7.20290E-07 7.04970E-19 5.13937E-19
 -1         3 9.52019E-05-2.86058E-05-2.84764E-05-1.79136E-08-1.93681E-18-2.64850E-18
 -1         4 9.49327E-05-2.90246E-05-2.80215E-05 6.95355E-07 9.16435E-19-1.27091E-18
 -1         5 1.43348E-04-2.14786E-05-4.25290E-05 3.85307E-05-1.88041E-19 1.16395E-17
 -1         6 1.45408E-04 2.57572E-10-4.41871E-05-5.35265E-05-6.88214E-19 6.65133E-18
 -1         7 9.06082E-05-5.11112E-07-3.90680E-05-2.92524E-05-1.16467E-19-2.75339E-19
 -1         8 8.51248E-05 8.64594E-08-3.63388E-05-2.02716E-05-7.50154E-20-1.97192E-18
 -1         9 8.28154E-05 7.60665E-08-3.53510E-05-1.56400E-05-4.84397E-20-2.71126E-18
 -1        10 8.17718E-05 3.96152E-08-3.48817E-05-1.20786E-05-1.54054E-20-2.95474E-18
 -1        11 8.12534E-05 1.92582E-08-3.46532E-05-9.01421E-06 1.78770E-20-2.94836E-18
 -1        12 8.09838E-05 9.14460E-09-3.45385E-05-6.28423E-06 2.59735E-20-2.82795E-18
 -1        13 8.08420E-05 4.59642E-09-3.44808E-05-3.68541E-06 4.23748E-20-2.63446E-18
 -1        14 8.07827E-05 2.74534E-09-3.44571E-05-1.18357E-06 5.89039E-20-2.39638E-18
 -1        15 8.07848E-05 2.72663E-09-3.44579E-05 1.28893E-06 6.43828E-20-2.14658E-18
 -1        16 8.08484E-05 4.51083E-09-3.44830E-05 3.79597E-06 9.26318E-20-1.82680E-18
 -1        17 8.09952E-05 8.41639E-09-3.45422E-05 6.40696E-06 1.06827E-19-1.48037E-18
 -1        18 8.12700E-05 1.82428E-08-3.46580E-05 9.15584E-06 1.15008E-19-9.05558E-19
 -1        19 8.17972E-05 3.83200E-08-3.48896E-05 1.22573E-05 1.57740E-19-8.79971E-20
 -1        20 8.28391E-05 8.05525E-08-3.53632E-05 1.58716E-05 1.49779E-19 1.10241E-18
 -1        21 8.50878E-05 1.69988E-07-3.63770E-05 2.04828E-05 1.55351E-19 3.02822E-18
 -1        22 9.16447E-05-9.91639E-08-3.87404E-05 2.79984E-05 3.28225E-21 6.12010E-18
 -1        23 1.12978E-04-3.81274E-05-3.53979E-05-4.40239E-06-4.67933E-19 4.35078E-18
 -1        24 9.28104E-05-2.76988E-05-2.90010E-05 3.91281E-07-1.16503E-19 2.57093E-18
 -1        25 8.91265E-05-2.68542E-05-2.69315E-05 3.75902E-07-9.11024E-20 7.30341E-19
 -1        26 8.80247E-05-2.64911E-05-2.63945E-05 2.04203E-07-5.52176E-20-7.55884E-19
 -1        27 8.80527E-05-2.64699E-05-2.63870E-05 1.39943E-07-4.98666E-21-1.30265E-18
 -1        28 8.85875E-05-2.66066E-05-2.65569E-05 1.00905E-07-2.22702E-20-1.66429E-18
 -1        29 8.93431E-05-2.68195E-05-2.67897E-05 7.52066E-08-4.82463E-21-2.35194E-18
 -1        30 9.01681E-05-2.70593E-05-2.70398E-05 5.68834E-08-5.47383E-20-2.91828E-18
 -1        31 9.09778E-05-2.72978E-05-2.72840E-05 4.30870E-08 5.98264E-20-3.39376E-18
 -1        32 9.17252E-05-2.75194E-05-2.75093E-05 3.23759E-08-2.19336E-19-3.79433E-18
 -1        33 9.23871E-05-2.77164E-05-2.77089E-05 2.39411E-08 1.24154E-19-4.17206E-18
 -1        34 9.29555E-05-2.78861E-05-2.78804E-05 1.72611E-08-3.60908E-20-3.97026E-18
 -1        35 9.34332E-05-2.80289E-05-2.80247E-05 1.22840E-08-1.24119E-19-4.39212E-18
 -1        36 9.38438E-05-2.81523E-05-2.81489E-05 7.61639E-09 9.96315E-20-5.15823E-18
 -1        37 9.41635E-05-2.82483E-05-2.82458E-05 4.45278E-09-1.65971E-19-5.31902E-18
 -1        38 9.44288E-05-2.83283E-05-2.83263E-05 1.98886E-09 1.20104E-19-4.60716E-18
 -1        39 9.46574E-05-2.83974E-05-2.83958E-05 1.17420E-10-1.86277E-19-4.98462E-18
 -1        40 9.48695E-05-2.84618E-05-2.84604E-05-1.22848E-09-8.87066E-21-5.39649E-18
 -1        41 9.50883E-05-2.85283E-05-2.85271E-05-2.07602E-09-1.60319E-20-5.93871E-18
 -1        42 9.53408E-05-2.86052E-05-2.86042E-05-2.38959E-09 2.52497E-19-4.96816E-18
 -1        43 9.56603E-05-2.87024E-05-2.87017E-05-2.04931E-09 1.56031E-19-4.40627E-18
 -1        44 9.60881E-05-2.88325E-05-2.88323E-05-8.13494E-10 1.17233E-19-5.03092E-18
 -1        45 9.66775E-05-2.90114E-05-2.90122E-05 1.74641E-09 1.34768E-19-5.70646E-18
 -1        46 9.74983E-05-2.92601E-05-2.92627E-05 6.34525E-09-2.65469E-19-6.18967E-18
 -1        47 9.86423E-05-2.96059E-05-2.96122E-05 1.43615E-08 1.04179E-19-4.28785E-18
 -1        48 1.00233E-04-3.00883E-05-3.00979E-05 2.34467E-08 7.37175E-20-9.74149E-19
 -1        49 1.02556E-04-3.07856E-05-3.08086E-05 5.09702E-08-1.21888E-19-1.30403E-18
 -1        50 1.05612E-04-3.17046E-05-3.17430E-05 8.49120E-08-7.86545E-20-1.82694E-18
 -1        51 1.09734E-04-3.29393E-05-3.30016E-05 1.39790E-07 1.77121E-19-2.62301E-18
 -1        52 1.15174E-04-3.45638E-05-3.46545E-05 2.21659E-07 4.48994E-19-2.74314E-18
 -1        53 1.22080E-04-3.66210E-05-3.67292E-05 3.32672E-07 2.79380E-19-3.30500E-18
 -1        54 1.30261E-04-3.90565E-05-3.91284E-05 4.53746E-07 2.73369E-19-3.26836E-18
 -1        55 1.38729E-04-4.15873E-05-4.14917E-05 5.07896E-07-3.19259E-20-4.74338E-18
 -1        56 1.45062E-04-4.35105E-05-4.30519E-05 3.13778E-07-6.37458E-19-7.92810E-18
 -1        57 1.45128E-04-4.35970E-05-4.26822E-05-3.87322E-07 8.74532E-19-8.23231E-18
 -1        58 1.34487E-04-4.04491E-05-3.94891E-05-1.65136E-06-4.59965E-19-5.55315E-18
 -1        59 1.12994E-04-3.38768E-05-3.39569E-05-2.72638E-06-3.08072E-19-7.15997E-18
 -1        60 9.02644E-05-2.66981E-05-2.86130E-05-2.00609E-06 2.39836E-19-5.55204E-18
 -1        61 8.12191E-05-2.39329E-05-2.65532E-05 6.67096E-08 5.87894E-20-4.15384E-18
 -1        62 9.01022E-05-2.67427E-05-2.84608E-05 2.18296E-06-4.68833E-19-4.47890E-18
 -1        63 1.11719E-04-3.35114E-05-3.34557E-05 2.61092E-06-9.03463E-20-3.74653E-18
 -1        64 1.30877E-04-3.93673E-05-3.83781E-05 1.49031E-06 6.88089E-19-2.08338E-18
 -1        65 1.38959E-04-4.17412E-05-4.08518E-05 2.64234E-07-3.58695E-19-4.80405E-18
 -1        66 1.36560E-04-4.09610E-05-4.05164E-05-4.04376E-07 2.82320E-19-3.96230E-18
 -1        67 1.28110E-04-3.84116E-05-3.83059E-05-5.99077E-07 1.71841E-19-3.35473E-18
 -1        68 1.17651E-04-3.52908E-05-3.53479E-05-5.69311E-07-8.44175E-19-5.69352E-18
 -1        69 1.07732E-04-3.23355E-05-3.24720E-05-4.64168E-07-1.40621E-19-4.15403E-18
 -1        70 9.99080E-05-3.00073E-05-3.02043E-05-3.07336E-07-4.79872E-19-1.95013E-18
 -1        71 9.55364E-05-2.86381E-05-2.88231E-05 1.81399E-07-5.35789E-19-3.97176E-18
 -1        72 1.02184E-04-3.05896E-05-3.41518E-05-1.92933E-06 8.04681E-21 1.16104E-17
 -1        73 9.25674E-05-2.75187E-05-2.89067E-05-3.33474E-07 1.00363E-19 1.00130E-17
 -1        74 8.91126E-05-2.67075E-05-2.69704E-05-1.30186E-07 5.31538E-20 8.77758E-18
 -1        75 8.80572E-05-2.64457E-05-2.64370E-05-9.94854E-08-8.02911E-20 8.56330E-18
 -1        76 8.80884E-05-2.64509E-05-2.64139E-05-7.87476E-08-2.13392E-20 8.52886E-18
 -1        77 8.86214E-05-2.66009E-05-2.65742E-05-6.31594E-08-2.99028E-20 8.24433E-18
 -1        78 8.93743E-05-2.68205E-05-2.68020E-05-5.16171E-08 6.48485E-20 8.05055E-18
 -1        79 9.01961E-05-2.70635E-05-2.70493E-05-4.23685E-08-3.55364E-20 7.71919E-18
 -1        80 9.10024E-05-2.73034E-05-2.72915E-05-3.45506E-08 1.18473E-19 7.17449E-18
 -1        81 9.17468E-05-2.75256E-05-2.75154E-05-2.78076E-08 9.23415E-20 6.06239E-18
 -1        82 9.24062E-05-2.77228E-05-2.77139E-05-2.19737E-08 5.39334E-20 5.84409E-18
 -1        83 9.29730E-05-2.78924E-05-2.78849E-05-1.69448E-08-2.42578E-20 5.30054E-18
 -1        84 9.34492E-05-2.80351E-05-2.80288E-05-1.26335E-08 1.09018E-19 4.42057E-18
 -1        85 9.38436E-05-2.81534E-05-2.81482E-05-8.95579E-09-2.02843E-19 4.93598E-18
 -1        86 9.41689E-05-2.82510E-05-2.82469E-05-5.83148E-09-7.72020E-20 5.16840E-18
 -1        87 9.44407E-05-2.83326E-05-2.83295E-05-3.18988E-09 7.99403E-20 4.16932E-18
 -1        88 9.46767E-05-2.84036E-05-2.84015E-05-9.79191E-10-2.28644E-19 4.06034E-18
 -1        89 9.48963E-05-2.84697E-05-2.84686E-05 8.22272E-10 8.91983E-20 4.39033E-18
 -1        90 9.51207E-05-2.85372E-05-2.85372E-05 2.19314E-09-1.27888E-19 4.59229E-18
 -1        91 9.53729E-05-2.86130E-05-2.86143E-05 3.05454E-09-7.49707E-20 4.29892E-18
 -1        92 9.56773E-05-2.87044E-05-2.87073E-05 3.25498E-09 1.78135E-19 2.71914E-18
 -1        93 9.60598E-05-2.88191E-05-2.88237E-05 2.55719E-09-5.52179E-20 1.59429E-18
 -1        94 9.65456E-05-2.89646E-05-2.89711E-05 6.32856E-10 1.11251E-19 7.87697E-19
 -1        95 9.71570E-05-2.91474E-05-2.91559E-05-2.92355E-09-1.06634E-19 6.83038E-19
 -1        96 9.79085E-05-2.93719E-05-2.93821E-05-8.54189E-09 2.29722E-19 1.49758E-18
 -1        97 9.87992E-05-2.96377E-05-2.96487E-05-1.65531E-08-1.43476E-19 1.55458E-18
 -1        98 9.98029E-05-2.99370E-05-2.99469E-05-2.69523E-08-4.34884E-19 7.27674E-19
 -1        99 1.00854E-04-3.02502E-05-3.02558E-05-3.90042E-08 3.14312E-20 7.07196E-19
 -1       100 1.01832E-04-3.05420E-05-3.05381E-05-5.06772E-08 7.32064E-20 1.07413E-18
 -1       101 1.02551E-04-3.07571E-05-3.07370E-05-5.80085E-08-3.65526E-19 8.69698E-20
 -1       102 1.02756E-04-3.08200E-05-3.07766E-05-5.47533E-08 1.90601E-19 8.35762E-19
 -1       103 1.02146E-04-3.06416E-05-3.05707E-05-3.30395E-08-1.07556E-19 1.31749E-18
 -1       104 1.00436E-04-3.01365E-05-3.00417E-05 1.39435E-08 2.25354E-19 1.76110E-18
 -1       105 9.74686E-05-2.92555E-05-2.91528E-05 8.66680E-08 5.35054E-20 9.68265E-19
 -1       106 9.33472E-05-2.80262E-05-2.79461E-05 1.72843E-07-5.80367E-19 1.01115E-18
 -1       107 8.85526E-05-2.65884E-05-2.65678E-05 2.44866E-07 1.41934E-19-1.35157E-18
 -1       108 8.39335E-05-2.51941E-05-2.52591E-05 2.67733E-07 3.62757E-19-1.47762E-18
 -1       109 8.05060E-05-2.41505E-05-2.42967E-05 2.18194E-07 5.35739E-19 3.41659E-19
 -1       110 7.90920E-05-2.37111E-05-2.38981E-05 1.03441E-07-4.40100E-19 1.04574E-19
 -1       111 7.99666E-05-2.39654E-05-2.41332E-05-3.76031E-08 3.26153E-19 1.01128E-18
 -1       112 8.27270E-05-2.47958E-05-2.48935E-05-1.54045E-07-4.30524E-19 1.56001E-18
 -1       113 8.64714E-05-2.59285E-05-2.59387E-05-2.10713E-07 2.26366E-19 5.36651E-18
 -1       114 9.01812E-05-2.70523E-05-2.69922E-05-2.02782E-07-1.95545E-19 2.75070E-18
 -1       115 9.30828E-05-2.79309E-05-2.78366E-05-1.49620E-07 6.99181E-19-1.33821E-18
 -1       116 9.48309E-05-2.84588E-05-2.83674E-05-7.91353E-08-4.03598E-20-2.12981E-18
 -1       117 9.54991E-05-2.86583E-05-2.85974E-05-1.59392E-08-2.78869E-20-1.37641E-18
 -1       118 9.54529E-05-2.86390E-05-2.86232E-05 2.22854E-08 1.14276E-19 4.04102E-19
 -1       119 9.51903E-05-2.85534E-05-2.85720E-05 1.84614E-08-2.93244E-19-2.65072E-18
 -1       120 9.51221E-05-2.85262E-05-2.85315E-05-3.22430E-08 9.44200E-19-1.97030E-18
 -1       121 9.52623E-05-2.86735E-05-2.85336E-05-6.25091E-08-2.80690E-18-7.13210E-20
 -1       122 9.52332E-05-2.85963E-05-2.85963E-05-4.16894E-08 3.64398E-18 6.32646E-19
 -1       123 9.50183E-05-2.79005E-05-2.88261E-05-9.86566E-09 9.46530E-18-5.65736E-19
 -1       124 9.45387E-05-2.63066E-05-2.93237E-05 4.27641E-08 2.99781E-18-1.78633E-18
 -1       125 9.37139E-05-2.35424E-05-3.01633E-05 1.18998E-07 2.10501E-20-6.61119E-19
 -1       126 9.25400E-05-1.96036E-05-3.13347E-05 1.97957E-07-3.61273E-18 2.33993E-18
 -1       127 9.10546E-05-1.46077E-05-3.27949E-05 2.67008E-07 1.74039E-20-5.21990E-20
 -1       128 8.94675E-05-9.26807E-06-3.43307E-05 2.88995E-07-2.35678E-18-6.54345E-19
 -1       129 8.80845E-05-4.61424E-06-3.56480E-05 2.37740E-07 6.41707E-19 8.33215E-19
 -1       130 8.72520E-05-1.81171E-06-3.64228E-05 1.07596E-07 4.09873E-18-4.87067E-19
 -1       131 8.72440E-05-1.79359E-06-3.64013E-05-8.30330E-08 1.69667E-18-1.20844E-18
 -1       132 8.81446E-05-4.81598E-06-3.55218E-05-2.65498E-07-9.60760E-19 1.79075E-18
 -1       133 8.98391E-05-1.05181E-05-3.38957E-05-4.11565E-07 9.47592E-19-2.32438E-19
 -1       134 9.19527E-05-1.76355E-05-3.18952E-05-4.64054E-07 6.06534E-18 4.82801E-19
 -1       135 9.40127E-05-2.43322E-05-3.00480E-05-2.81025E-07 8.20950E-18 3.33784E-19
 -1       136 9.52295E-05-2.84448E-05-2.87744E-05 2.51242E-07 5.64011E-18-7.81396E-20
 -1       137 2.65064E-05-9.16871E-05 1.67309E-05-2.50158E-05 4.01388E-18 9.18343E-19
 -1       138 8.07302E-06-3.21282E-05 2.56749E-06-1.56551E-05 5.94024E-18 2.63597E-18
 -1       139 1.42931E-05 1.89726E-05-1.71535E-05 2.99881E-05 3.37331E-18 2.72067E-18
 -1       140 6.66582E-05 2.80564E-05-3.83068E-05 8.65323E-05-6.26804E-20 4.03188E-19
 -1       141 1.58237E-04-6.08182E-06-5.81608E-05 1.18072E-04 2.70373E-18 3.76972E-18
 -1       142 2.57258E-04-6.09687E-05-7.32929E-05 9.46387E-05 2.27100E-18 5.69164E-18
 -1       143 3.12634E-04-9.49780E-05-8.07572E-05 2.47465E-05-9.23795E-21 3.33837E-18
 -1       144 2.97576E-04-8.59805E-05-7.87268E-05-5.94249E-05 1.27146E-18-1.61635E-18
 -1       145 2.18139E-04-3.77863E-05-6.80413E-05-1.12255E-04 2.00006E-19-2.01551E-18
 -1       146 1.14511E-04 1.27612E-05-4.97182E-05-1.07844E-04 2.25946E-18-3.50799E-18
 -1       147 3.75045E-05 3.06356E-05-2.93421E-05-6.29985E-05 9.93570E-19-7.52165E-19
 -1       148 6.50985E-06 4.73606E-06-9.61079E-06-9.78020E-06 5.12031E-19 3.42837E-19
 -1       149 1.23685E-05-4.99200E-05 7.41558E-06 2.27544E-05 8.46186E-19-7.32683E-20
 -1       150 3.15095E-05-1.00840E-04 1.84237E-05 1.83154E-05-3.07431E-18 4.84357E-19
 -1       151 3.82195E-05-1.17834E-04 2.18456E-05-8.96348E-06-1.09501E-17-2.31367E-18
 -1       152 2.36843E-05-8.87014E-05 1.65707E-05-3.17025E-05-1.00304E-17-9.99181E-19
 -1       153 1.31864E-05 1.10584E-05-1.51127E-05 2.12860E-05-1.40396E-18-1.45944E-18
 -1       154 6.85499E-05 2.14099E-05-3.77520E-05 8.04955E-05 3.29072E-19 2.87991E-19
 -1       155 1.64157E-04-1.12902E-05-5.86651E-05 1.14830E-04 2.00112E-19 5.58195E-19
 -1       156 2.68168E-04-6.47108E-05-7.50502E-05 9.85741E-05 6.51157E-20 2.93624E-18
 -1       157 3.32724E-04-1.01958E-04-8.37721E-05 3.44272E-05 9.28255E-19 5.44155E-18
 -1       158 3.26801E-04-9.72676E-05-8.34047E-05-5.10628E-05-3.64476E-19 2.60907E-18
 -1       159 2.47297E-04-5.10602E-05-7.27492E-05-1.10522E-04-1.13322E-18 3.16409E-18
 -1       160 1.37319E-04 2.77868E-06-5.44268E-05-1.13315E-04-5.77253E-19 2.23278E-18
 -1       161 4.78629E-05 2.53214E-05-3.18223E-05-6.66288E-05 6.81014E-19 1.31290E-20
 -1       162 7.01850E-06 1.59312E-06-9.54010E-06-6.89776E-06-4.92931E-18 6.28498E-19
 -1       163 1.13013E-05-5.26896E-05 7.99131E-06 2.81929E-05-8.02352E-18 5.63129E-18
 -1       164 3.09379E-05-1.03392E-04 1.90084E-05 2.70602E-05-2.00556E-18 3.77168E-19
 -1       165 9.48698E-05-1.23473E-05-3.55697E-05-2.23488E-05-1.19552E-18-9.86396E-19
 -1       166 8.92495E-05-8.45613E-06-3.47875E-05-1.73909E-05-9.24795E-19-1.96714E-18
 -1       167 8.65483E-05-6.50486E-06-3.44161E-05-1.35842E-05-4.97466E-19-2.34923E-18
 -1       168 8.51910E-05-5.51462E-06-3.42310E-05-1.03723E-05-1.48909E-19-2.44581E-18
 -1       169 8.44478E-05-4.94528E-06-3.41415E-05-7.54674E-06 1.39113E-19-2.37282E-18
 -1       170 8.40198E-05-4.59942E-06-3.40989E-05-4.90332E-06 3.84117E-19-2.27745E-18
 -1       171 8.38013E-05-4.41502E-06-3.40808E-05-2.39507E-06 6.24551E-19-2.11390E-18
 -1       172 8.37369E-05-4.35931E-06-3.40760E-05 5.12144E-08 8.02948E-19-1.84785E-18
 -1       173 8.38113E-05-4.42357E-06-3.40816E-05 2.49962E-06 1.01975E-18-1.58410E-18
 -1       174 8.40417E-05-4.61882E-06-3.41003E-05 5.01470E-06 1.20113E-18-1.30210E-18
 -1       175 8.44745E-05-4.97177E-06-3.41422E-05 7.62434E-06 1.33487E-18-8.83899E-19
 -1       176 8.52497E-05-5.57315E-06-3.42319E-05 1.05133E-05 1.47211E-18-2.54917E-19
 -1       177 8.66482E-05-6.60861E-06-3.44181E-05 1.37785E-05 1.56200E-18 6.24369E-19
 -1       178 8.93891E-05-8.59813E-06-3.47916E-05 1.76299E-05 1.50405E-18 2.01316E-18
 -1       179 9.57814E-05-1.36141E-05-3.54270E-05 2.18911E-05 1.18226E-18 4.03153E-18
 -1       180 1.05608E-04-2.61021E-05-3.52647E-05 1.86627E-05 6.27929E-19 6.45280E-18
 -1       181 1.03402E-04-2.73028E-05-3.26115E-05-1.21273E-05-1.05890E-18 5.06393E-19
 -1       182 9.71118E-05-2.82908E-05-2.95301E-05-4.73114E-06-1.04429E-18 5.25591E-20
 -1       183 9.35112E-05-2.76378E-05-2.81835E-05-1.76851E-06-7.48175E-19-3.51499E-19
 -1       184 9.19765E-05-2.74072E-05-2.76372E-05-4.20855E-07-4.15056E-19-7.46057E-19
 -1       185 9.14006E-05-2.73321E-05-2.74397E-05 2.42872E-07-3.02717E-19-9.82970E-19
 -1       186 9.13587E-05-2.73709E-05-2.74147E-05 5.68333E-07-3.49677E-19-1.04466E-18
 -1       187 9.16020E-05-2.74735E-05-2.74796E-05 7.06719E-07-2.01607E-19-1.12068E-18
 -1       188 9.19852E-05-2.76057E-05-2.75895E-05 7.37141E-07-2.26178E-19-1.01596E-18
 -1       189 9.24215E-05-2.77458E-05-2.77176E-05 7.05573E-07-2.57953E-19-1.19751E-18
 -1       190 9.28592E-05-2.78814E-05-2.78477E-05 6.40672E-07-3.07724E-19-1.17169E-18
 -1       191 9.32693E-05-2.80052E-05-2.79707E-05 5.60956E-07-1.49732E-19-1.88158E-18
 -1       192 9.36379E-05-2.81145E-05-2.80820E-05 4.78610E-07-3.58859E-19-2.45741E-18
 -1       193 9.39746E-05-2.82126E-05-2.81843E-05 3.98025E-07-2.17979E-19-2.35135E-18
 -1       194 9.42499E-05-2.82915E-05-2.82684E-05 3.32088E-07 2.15313E-20-2.21745E-18
 -1       195 9.44890E-05-2.83588E-05-2.83419E-05 2.80848E-07 2.05155E-19-2.17190E-18
 -1       196 9.47019E-05-2.84176E-05-2.84077E-05 2.47119E-07-2.62090E-19-2.34347E-18
 -1       197 9.49022E-05-2.84720E-05-2.84699E-05 2.33746E-07-1.28109E-19-2.09421E-18
 -1       198 9.51062E-05-2.85266E-05-2.85336E-05 2.44088E-07-1.99631E-19-2.08285E-18
 -1       199 9.53335E-05-2.85868E-05-2.86048E-05 2.82568E-07 1.90426E-19-2.66169E-18
 -1       200 9.56076E-05-2.86593E-05-2.86907E-05 3.55275E-07 4.72650E-19-3.18230E-18
 -1       201 9.59578E-05-2.87520E-05-2.88004E-05 4.70673E-07-5.50243E-20-3.39570E-18
 -1       202 9.64202E-05-2.88747E-05-2.89452E-05 6.40454E-07 6.45377E-20-3.02956E-18
 -1       203 9.70402E-05-2.90397E-05-2.91392E-05 8.80572E-07 8.45821E-20-2.37385E-18
 -1       204 9.78754E-05-2.92625E-05-2.94004E-05 1.21252E-06 7.81758E-19-1.77691E-18
 -1       205 9.89984E-05-2.95629E-05-2.97513E-05 1.66256E-06 1.27939E-18-1.29170E-18
 -1       206 1.00585E-04-2.99880E-05-3.02477E-05 2.30169E-06 2.72392E-19-1.12763E-18
 -1       207 1.02601E-04-3.05330E-05-3.08769E-05 3.11180E-06 4.82106E-20 2.30870E-19
 -1       208 1.05234E-04-3.12539E-05-3.16959E-05 4.14246E-06-6.86876E-19-2.30791E-19
 -1       209 1.08607E-04-3.22032E-05-3.27370E-05 5.39193E-06-3.33577E-19-5.57470E-20
 -1       210 1.12810E-04-3.34459E-05-3.40117E-05 6.75973E-06-8.10836E-20-9.46238E-19
 -1       211 1.17824E-04-3.50615E-05-3.54791E-05 7.93831E-06-8.98064E-19-1.70396E-18
 -1       212 1.23410E-04-3.71286E-05-3.69993E-05 8.24394E-06-7.72034E-19-3.59445E-18
 -1       213 1.28934E-04-3.96407E-05-3.82945E-05 6.47207E-06-9.10130E-19-2.95338E-18
 -1       214 1.33122E-04-4.21919E-05-3.89860E-05 1.17238E-06-3.40143E-19-1.43735E-18
 -1       215 1.34026E-04-4.35147E-05-3.88003E-05-8.02134E-06 7.44588E-19-2.94670E-18
 -1       216 1.29548E-04-4.12381E-05-3.79158E-05-1.76819E-05-3.23530E-19-2.70945E-18
 -1       217 1.20234E-04-3.44465E-05-3.69928E-05-1.95143E-05 4.73597E-19-3.16949E-18
 -1       218 1.12664E-04-2.83742E-05-3.64772E-05-9.35616E-06 4.28916E-19-3.82333E-18
 -1       219 1.11899E-04-2.80831E-05-3.62829E-05 7.59001E-06 8.31760E-19-2.17126E-18
 -1       220 1.19236E-04-3.45617E-05-3.64910E-05 1.81962E-05 1.86453E-19-1.19935E-18
 -1       221 1.27144E-04-4.06812E-05-3.71097E-05 1.54134E-05 4.65736E-20-1.54679E-18
 -1       222 1.29991E-04-4.22494E-05-3.76133E-05 5.59131E-06-1.38734E-18-2.28840E-18
 -1       223 1.27624E-04-4.04660E-05-3.73720E-05-3.38971E-06 5.26153E-20-3.00015E-18
 -1       224 1.22092E-04-3.75488E-05-3.62583E-05-8.49302E-06-8.48436E-19-2.86881E-18
 -1       225 1.15325E-04-3.46775E-05-3.45793E-05-1.01306E-05-6.86914E-19-2.82288E-18
 -1       226 1.08624E-04-3.21951E-05-3.27569E-05-9.55337E-06-4.08032E-19-2.40409E-18
 -1       227 1.02795E-04-3.01232E-05-3.11386E-05-7.61703E-06-1.57224E-19-2.84958E-18
 -1       228 9.82781E-05-2.84229E-05-2.99310E-05-4.64977E-06-4.09355E-20-2.71379E-18
 -1       229 9.58822E-05-2.75283E-05-2.93251E-05-2.07010E-06 1.90471E-18-1.24810E-18
 -1       230 9.95069E-05-2.85530E-05-3.05886E-05 7.21349E-06 8.59394E-19 5.77873E-18
 -1       231 9.44411E-05-2.77851E-05-2.85315E-05 2.76736E-06 5.53582E-19 5.16294E-18
 -1       232 9.21373E-05-2.74220E-05-2.76877E-05 9.22060E-07 6.58370E-20 4.72787E-18
 -1       233 9.11825E-05-2.72703E-05-2.73650E-05 4.30933E-08 2.19047E-19 4.44467E-18
 -1       234 9.09559E-05-2.72505E-05-2.72896E-05-3.81216E-07 1.84285E-19 4.26383E-18
 -1       235 9.11305E-05-2.73284E-05-2.73376E-05-5.76850E-07 2.63161E-19 3.86808E-18
 -1       236 9.15095E-05-2.74568E-05-2.74481E-05-6.45729E-07 1.86403E-19 3.39302E-18
 -1       237 9.19760E-05-2.76050E-05-2.75860E-05-6.41715E-07 4.43745E-19 2.97129E-18
 -1       238 9.24609E-05-2.77545E-05-2.77306E-05-5.96991E-07 4.69243E-19 2.90784E-18
 -1       239 9.29245E-05-2.78950E-05-2.78696E-05-5.31877E-07 3.04913E-19 2.38787E-18
 -1       240 9.33459E-05-2.80210E-05-2.79965E-05-4.59573E-07 3.44524E-19 2.18386E-18
 -1       241 9.37168E-05-2.81306E-05-2.81086E-05-3.88735E-07 4.54897E-19 2.40693E-18
 -1       242 9.40369E-05-2.82243E-05-2.82057E-05-3.25054E-07-1.66110E-19 2.45473E-18
 -1       243 9.43117E-05-2.83038E-05-2.82893E-05-2.72317E-07-5.69358E-20 1.87121E-18
 -1       244 9.45505E-05-2.83722E-05-2.83623E-05-2.33150E-07 1.87446E-19 2.30322E-18
 -1       245 9.47653E-05-2.84331E-05-2.84281E-05-2.09549E-07-1.46863E-19 2.30690E-18
 -1       246 9.49703E-05-2.84908E-05-2.84912E-05-2.03225E-07 1.10736E-19 2.03342E-18
 -1       247 9.51815E-05-2.85499E-05-2.85562E-05-2.15794E-07-2.57471E-20 2.10829E-18
 -1       248 9.54164E-05-2.86159E-05-2.86285E-05-2.48775E-07 3.83871E-19 1.43696E-18
 -1       249 9.56937E-05-2.86943E-05-2.87136E-05-3.03375E-07 9.59346E-19 1.14312E-18
 -1       250 9.60325E-05-2.87912E-05-2.88173E-05-3.79988E-07 1.87573E-19 7.52400E-19
 -1       251 9.64513E-05-2.89124E-05-2.89448E-05-4.77337E-07 2.61781E-19 8.21257E-19
 -1       252 9.69654E-05-2.90634E-05-2.91004E-05-5.91153E-07 4.51749E-19 6.98253E-19
 -1       253 9.75836E-05-2.92482E-05-2.92864E-05-7.12345E-07-4.91209E-19 1.60592E-19
 -1       254 9.83030E-05-2.94677E-05-2.95011E-05-8.24676E-07-2.83003E-19 1.36133E-18
 -1       255 9.91020E-05-2.97179E-05-2.97368E-05-9.02223E-07-2.60982E-20 1.83905E-18
 -1       256 9.99315E-05-2.99870E-05-2.99775E-05-9.07344E-07-1.94373E-19 1.83561E-18
 -1       257 1.00706E-04-3.02521E-05-3.01963E-05-7.90664E-07-5.47197E-19 1.72616E-18
 -1       258 1.01297E-04-3.04756E-05-3.03539E-05-4.95652E-07-2.31898E-19 2.06760E-18
 -1       259 1.01532E-04-3.06034E-05-3.04000E-05 2.86561E-08 5.51175E-20 2.04456E-18
 -1       260 1.01215E-04-3.05660E-05-3.02791E-05 8.03524E-07 2.46099E-19 1.43930E-18
 -1       261 1.00158E-04-3.02880E-05-2.99441E-05 1.78551E-06 2.18073E-19 6.28908E-19
 -1       262 9.82543E-05-2.97097E-05-2.93750E-05 2.83070E-06 4.03499E-21 9.30016E-19
 -1       263 9.55608E-05-2.88227E-05-2.86007E-05 3.68296E-06 5.08834E-19 1.06273E-18
 -1       264 9.23738E-05-2.77104E-05-2.77130E-05 4.02093E-06 1.25098E-18 9.50014E-19
 -1       265 8.92334E-05-2.65678E-05-2.68591E-05 3.58220E-06-3.19978E-19 8.95913E-19
 -1       266 8.68082E-05-2.56658E-05-2.62078E-05 2.32525E-06-4.18778E-19 8.14872E-20
 -1       267 8.56643E-05-2.52503E-05-2.58946E-05 5.23981E-07-5.30617E-19 7.13727E-19
 -1       268 8.60246E-05-2.54233E-05-2.59715E-05-1.30536E-06-4.32331E-19 8.16133E-19
 -1       269 8.76643E-05-2.60875E-05-2.63855E-05-2.62934E-06-5.64159E-19 2.67230E-18
 -1       270 9.00122E-05-2.69953E-05-2.70004E-05-3.13948E-06-8.36073E-19 1.36846E-18
 -1       271 9.23994E-05-2.78701E-05-2.76491E-05-2.85630E-06 1.70068E-18 8.27100E-19
 -1       272 9.43015E-05-2.85153E-05-2.81904E-05-2.05279E-06 1.98037E-18 5.11132E-19
 -1       273 9.54648E-05-2.88551E-05-2.85466E-05-1.09141E-06-3.12343E-20-2.15577E-19
 -1       274 9.59064E-05-2.89190E-05-2.87115E-05-2.84791E-07-9.59690E-19 6.86041E-19
 -1       275 9.58370E-05-2.88026E-05-2.87338E-05 1.76688E-07-8.49928E-19 1.47101E-18
 -1       276 9.55393E-05-2.86213E-05-2.86837E-05 2.37070E-07 1.78350E-18 1.29536E-18
 -1       277 9.52969E-05-2.85261E-05-2.86125E-05 3.63283E-08 7.73290E-21-9.69451E-19
 -1       278 9.52938E-05-2.83673E-05-2.86781E-05 2.18401E-07 4.17520E-19 3.65628E-18
 -1       279 9.52421E-05-2.79029E-05-2.88550E-05 8.01474E-07 9.79190E-19 2.68261E-18
 -1       280 9.50407E-05-2.69416E-05-2.91771E-05 1.68758E-06 6.41515E-19-3.66785E-18
 -1       281 9.46062E-05-2.53002E-05-2.96950E-05 2.83983E-06 8.15799E-19-1.12630E-18
 -1       282 9.38749E-05-2.29070E-05-3.04102E-05 4.03947E-06 9.27190E-19-2.03998E-18
 -1       283 9.28026E-05-1.97362E-05-3.13145E-05 5.00740E-06-2.46796E-19 1.16544E-18
 -1       284 9.14773E-05-1.61221E-05-3.23017E-05 5.32339E-06-7.66322E-19-3.87657E-19
 -1       285 9.01042E-05-1.26261E-05-3.32175E-05 4.62932E-06 3.95467E-19 3.39227E-19
 -1       286 8.89946E-05-9.98666E-06-3.38774E-05 2.79482E-06 9.23762E-20 2.26579E-18
 -1       287 8.84769E-05-8.91555E-06-3.41159E-05 4.99084E-08 1.09548E-18-1.59308E-18
 -1       288 8.87542E-05-9.80180E-06-3.38527E-05-2.96023E-06 4.95875E-19-1.09546E-18
 -1       289 8.98422E-05-1.26227E-05-3.31050E-05-5.55854E-06 2.25075E-18 9.80226E-19
 -1       290 9.15415E-05-1.68260E-05-3.20247E-05-6.95708E-06 1.38593E-18 2.49502E-18
 -1       291 9.34768E-05-2.14800E-05-3.08528E-05-6.62402E-06-1.57098E-19 3.88881E-19
 -1       292 9.48510E-05-2.47881E-05-3.00309E-05-4.76468E-06 8.26521E-19-8.95610E-19
 -1       293 1.33983E-05-4.94858E-05 1.24475E-05 1.14896E-05 1.16573E-19 2.18291E-18
 -1       294 3.19126E-05-4.50627E-05 3.51243E-06 2.90458E-05 1.40502E-18 2.56651E-18
 -1       295 5.96168E-05-3.90426E-05-1.03265E-05 3.83314E-05 2.53093E-18-3.91753E-20
 -1       296 9.62004E-05-3.10336E-05-2.80271E-05 4.76634E-05 1.79317E-18-2.15782E-19
 -1       297 1.41508E-04-3.17392E-05-4.57440E-05 4.72656E-05-1.08314E-19 3.89000E-18
 -1       298 1.81510E-04-3.23945E-05-6.12634E-05 4.08641E-05 1.33279E-18 3.21153E-18
 -1       299 1.96164E-04-2.90854E-05-6.92749E-05 1.38729E-05 1.50592E-18 2.76895E-18
 -1       300 2.13015E-04-3.50576E-05-7.29806E-05-5.36192E-06 2.56090E-18 2.47680E-18
 -1       301 2.00406E-04-3.44495E-05-6.79388E-05-2.99158E-05 1.08388E-18 1.02533E-18
 -1       302 1.62684E-04-3.32701E-05-5.40802E-05-3.50166E-05 1.67385E-18-1.23243E-18
 -1       303 1.20977E-04-3.05191E-05-3.81508E-05-4.89347E-05 8.44704E-19-2.23384E-18
 -1       304 7.73237E-05-3.07219E-05-2.07258E-05-4.46803E-05 7.55342E-19-2.37677E-18
 -1       305 4.57017E-05-3.86521E-05-4.92025E-06-3.46333E-05-2.47334E-19-2.68457E-19
 -1       306 2.23280E-05-4.70108E-05 7.56235E-06-1.99553E-05-2.47588E-18-9.02990E-19
 -1       307 1.08440E-05-4.80863E-05 1.29494E-05-8.53592E-06-4.29192E-18-2.81787E-18
 -1       308 1.41831E-05-5.23433E-05 1.28556E-05 5.26201E-06-4.71766E-18 7.65506E-20
 -1       309 3.41836E-05-4.54671E-05 2.86593E-06 2.59047E-05-5.27490E-18 5.36807E-20
 -1       310 5.82436E-05-4.15554E-05-9.25536E-06 3.12678E-05-3.89423E-18-9.96640E-19
 -1       311 1.05176E-04-4.30740E-05-2.72101E-05 3.92697E-05-1.27161E-18 2.81215E-19
 -1       312 1.48448E-04-3.88448E-05-4.59016E-05 4.13246E-05-5.91335E-19 1.32772E-19
 -1       313 1.91699E-04-4.02482E-05-6.19511E-05 3.26107E-05-6.07951E-19 4.56551E-19
 -1       314 2.20825E-04-4.14646E-05-7.25947E-05 1.59453E-05-7.92505E-19-1.41539E-18
 -1       315 2.29949E-04-4.12168E-05-7.61948E-05-3.65216E-06 1.46981E-18-2.25191E-18
 -1       316 2.09925E-04-3.74162E-05-7.05478E-05-1.87893E-05-5.13196E-19-7.21460E-19
 -1       317 1.81612E-04-3.92030E-05-5.87478E-05-3.58469E-05-2.55672E-19-8.53386E-20
 -1       318 1.40417E-04-4.33860E-05-4.10728E-05-3.92667E-05 2.67662E-19 1.31290E-18
 -1       319 8.97819E-05-4.02861E-05-2.21386E-05-4.18338E-05-1.18098E-18-6.17064E-19
 -1       320 4.86079E-05-4.33868E-05-4.68631E-06-2.99479E-05-1.05625E-18-2.51934E-18
 -1       321 2.46690E-05-5.07770E-05 7.77492E-06-1.66247E-05-1.63054E-19 2.86239E-18
 -1       322 1.36282E-05-5.55381E-05 1.42001E-05-3.77331E-06-2.21499E-19 1.67998E-18
 -1       323 9.16480E-05-1.43956E-05-3.31717E-05-1.30602E-05-9.01589E-19-1.55902E-18
 -1       324 9.57101E-05-1.91113E-05-3.28913E-05-1.46302E-05-1.17866E-18-1.12700E-18
 -1       325 8.80051E-05-1.03752E-05-3.33234E-05-8.15058E-06-2.85154E-20-1.77800E-18
 -1       326 8.71893E-05-9.45396E-06-3.33633E-05-5.71740E-06 2.60740E-19-1.86824E-18
 -1       327 8.67298E-05-8.92453E-06-3.33900E-05-3.36696E-06 6.41286E-19-1.59413E-18
 -1       328 8.65249E-05-8.68481E-06-3.34035E-05-1.07255E-06 8.75167E-19-1.43996E-18
 -1       329 8.65335E-05-8.69435E-06-3.34032E-05 1.20345E-06 1.12493E-18-1.29424E-18
 -1       330 8.67574E-05-8.95528E-06-3.33889E-05 3.49997E-06 1.34349E-18-1.04258E-18
 -1       331 8.72296E-05-9.49954E-06-3.33616E-05 5.81495E-06 1.50657E-18-7.90149E-19
 -1       332 8.80690E-05-1.04518E-05-3.33200E-05 8.25563E-06 1.70476E-18-1.70594E-19
 -1       333 8.94803E-05-1.20326E-05-3.32593E-05 1.07697E-05 1.71897E-18 4.05216E-19
 -1       334 9.18913E-05-1.47365E-05-3.31487E-05 1.31479E-05 1.69809E-18 1.31247E-18
 -1       335 9.58892E-05-1.95856E-05-3.28059E-05 1.42826E-05 1.42866E-18 2.74059E-18
 -1       336 9.87842E-05-2.44501E-05-3.19428E-05 1.18526E-05 1.17581E-18 3.96396E-18
 -1       337 9.63411E-05-2.67774E-05-2.97854E-05 5.72850E-06 8.41236E-19 3.50673E-18
 -1       338 9.64372E-05-2.60262E-05-3.01323E-05-6.34772E-06-1.04952E-18-7.46444E-19
 -1       339 9.49230E-05-2.70308E-05-2.90714E-05-2.83436E-06-7.27342E-19-7.06251E-19
 -1       340 9.39451E-05-2.74267E-05-2.84932E-05-9.22167E-07-2.25628E-19-6.44295E-19
 -1       341 9.34258E-05-2.76395E-05-2.81874E-05 1.37209E-07-2.67335E-19-4.50319E-19
 -1       342 9.32334E-05-2.77925E-05-2.80433E-05 7.01294E-07-1.96387E-19-5.33093E-19
 -1       343 9.32500E-05-2.79219E-05-2.79968E-05 9.68543E-07-5.03145E-20-4.50082E-19
 -1       344 9.33888E-05-2.80364E-05-2.80081E-05 1.05603E-06-3.21002E-19-4.69831E-19
 -1       345 9.35904E-05-2.81372E-05-2.80518E-05 1.03680E-06-3.72360E-19-6.55390E-19
 -1       346 9.38162E-05-2.82240E-05-2.81116E-05 9.58233E-07-5.01180E-19-9.09417E-19
 -1       347 9.40430E-05-2.82971E-05-2.81775E-05 8.51652E-07-6.32887E-19-7.51258E-19
 -1       348 9.42672E-05-2.83596E-05-2.82468E-05 7.32709E-07-2.06541E-19-7.56519E-19
 -1       349 9.44620E-05-2.84073E-05-2.83098E-05 6.27162E-07 1.82721E-19-8.42044E-19
 -1       350 9.46391E-05-2.84452E-05-2.83693E-05 5.39308E-07-1.58099E-20-7.60107E-19
 -1       351 9.48018E-05-2.84754E-05-2.84259E-05 4.76363E-07-2.80741E-19-1.00814E-18
 -1       352 9.49570E-05-2.85001E-05-2.84816E-05 4.44462E-07 1.53447E-19-9.43809E-19
 -1       353 9.51138E-05-2.85214E-05-2.85394E-05 4.49751E-07 1.59617E-19-4.17150E-19
 -1       354 9.52837E-05-2.85419E-05-2.86032E-05 4.99385E-07-4.32438E-19-4.75977E-19
 -1       355 9.54807E-05-2.85639E-05-2.86778E-05 6.02480E-07-6.01630E-20-9.08871E-19
 -1       356 9.57215E-05-2.85900E-05-2.87693E-05 7.71103E-07-7.11342E-20-1.10153E-18
 -1       357 9.60257E-05-2.86228E-05-2.88850E-05 1.02137E-06 3.28886E-19-2.04939E-19
 -1       358 9.64167E-05-2.86650E-05-2.90337E-05 1.37466E-06 8.89526E-19-1.42913E-19
 -1       359 9.69219E-05-2.87194E-05-2.92260E-05 1.85899E-06 1.60133E-19-5.63714E-19
 -1       360 9.75733E-05-2.87893E-05-2.94739E-05 2.50878E-06 1.18934E-18-1.37434E-18
 -1       361 9.84535E-05-2.88839E-05-2.98089E-05 3.41806E-06 9.01354E-19-1.16375E-18
 -1       362 9.95208E-05-2.90029E-05-3.02137E-05 4.55193E-06 2.46675E-19-1.15332E-18
 -1       363 1.00859E-04-2.91728E-05-3.07127E-05 5.98768E-06-3.51543E-19-1.19672E-18
 -1       364 1.02523E-04-2.94429E-05-3.13093E-05 7.74173E-06-2.38291E-19-5.30472E-19
 -1       365 1.04593E-04-2.99264E-05-3.19903E-05 9.75265E-06-8.43352E-19-9.66022E-19
 -1       366 1.07206E-04-3.08604E-05-3.27154E-05 1.17918E-05-9.62598E-19-1.64610E-18
 -1       367 1.10626E-04-3.26838E-05-3.34106E-05 1.33156E-05-1.69843E-18-1.48499E-18
 -1       368 1.15321E-04-3.60616E-05-3.39888E-05 1.32827E-05 1.62486E-19-1.79322E-18
 -1       369 1.21960E-04-4.16277E-05-3.44563E-05 9.96642E-06 1.47318E-19-1.27018E-18
 -1       370 1.30251E-04-4.83548E-05-3.51474E-05 1.47826E-06-3.77658E-20-1.61724E-18
 -1       371 1.38131E-04-5.22908E-05-3.69205E-05-1.21339E-05-7.07989E-19-1.60152E-18
 -1       372 1.39499E-04-4.50412E-05-4.08159E-05-2.40060E-05-5.59571E-20-1.79264E-18
 -1       373 1.34159E-04-2.95305E-05-4.53659E-05-2.17416E-05 1.59401E-18-8.67044E-19
 -1       374 1.29806E-04-1.96616E-05-4.77755E-05-2.23011E-06 9.63235E-19-5.27673E-19
 -1       375 1.32974E-04-2.90035E-05-4.51779E-05 1.90053E-05-8.40151E-20-2.07360E-18
 -1       376 1.38164E-04-4.56766E-05-3.99340E-05 2.07412E-05-4.87256E-19-2.61369E-18
 -1       377 1.35214E-04-5.13736E-05-3.60504E-05 8.25388E-06 5.71934E-19-3.23371E-18
 -1       378 1.26701E-04-4.70498E-05-3.41875E-05-5.02188E-06-7.40674E-19-1.02738E-18
 -1       379 1.17836E-04-4.01401E-05-3.33340E-05-1.31343E-05-1.28705E-18-1.94005E-18
 -1       380 1.10767E-04-3.45703E-05-3.26758E-05-1.62256E-05-4.73280E-20-1.60314E-18
 -1       381 1.05458E-04-3.08690E-05-3.19675E-05-1.60007E-05-2.81191E-19-1.88279E-18
 -1       382 1.01363E-04-2.83780E-05-3.12614E-05-1.38490E-05 5.76174E-19-4.90497E-19
 -1       383 9.79225E-05-2.63521E-05-3.06493E-05-1.04466E-05-1.71339E-19-9.59004E-20
 -1       384 9.41494E-05-2.72818E-05-2.86332E-05 1.70600E-06 4.33283E-19 2.29529E-18
 -1       385 9.33901E-05-2.75353E-05-2.82118E-05 2.97917E-07 4.19298E-19 2.08869E-18
 -1       386 9.30436E-05-2.76768E-05-2.80091E-05-4.56958E-07 5.71446E-19 1.73449E-18
 -1       387 9.29840E-05-2.78014E-05-2.79333E-05-8.38362E-07 5.60743E-19 1.33116E-18
 -1       388 9.30962E-05-2.79186E-05-2.79326E-05-9.96415E-07 4.51337E-19 9.34166E-19
 -1       389 9.33013E-05-2.80280E-05-2.79745E-05-1.02083E-06 5.42319E-19 9.87425E-19
 -1       390 9.35477E-05-2.81267E-05-2.80382E-05-9.68191E-07 6.43066E-19 1.28749E-18
 -1       391 9.38029E-05-2.82131E-05-2.81107E-05-8.75445E-07 5.36265E-19 1.30721E-18
 -1       392 9.40481E-05-2.82865E-05-2.81843E-05-7.67138E-07 3.38968E-19 1.33561E-18
 -1       393 9.42740E-05-2.83476E-05-2.82549E-05-6.59713E-07-3.61260E-20 1.18854E-18
 -1       394 9.44778E-05-2.83976E-05-2.83207E-05-5.64271E-07-3.35987E-19 1.53088E-18
 -1       395 9.46614E-05-2.84386E-05-2.83817E-05-4.88459E-07-1.64688E-19 1.53734E-18
 -1       396 9.48302E-05-2.84727E-05-2.84392E-05-4.37797E-07-8.58633E-20 1.17830E-18
 -1       397 9.49919E-05-2.85027E-05-2.84954E-05-4.16585E-07 2.73306E-19 1.15244E-18
 -1       398 9.51561E-05-2.85317E-05-2.85531E-05-4.28463E-07 7.27708E-19 2.77978E-19
 -1       399 9.53340E-05-2.85631E-05-2.86156E-05-4.76609E-07 6.08456E-19-1.96287E-19
 -1       400 9.55380E-05-2.86011E-05-2.86865E-05-5.63574E-07 6.60289E-19-2.42233E-19
 -1       401 9.57813E-05-2.86506E-05-2.87693E-05-6.90641E-07 2.58354E-19 1.13730E-18
 -1       402 9.60777E-05-2.87175E-05-2.88675E-05-8.56625E-07 3.37585E-19 1.51572E-18
 -1       403 9.64400E-05-2.88089E-05-2.89835E-05-1.05597E-06 4.15464E-19 1.15490E-18
 -1       404 9.68793E-05-2.89332E-05-2.91185E-05-1.27607E-06-3.19678E-20 2.30044E-18
 -1       405 9.74021E-05-2.91001E-05-2.92713E-05-1.49373E-06-1.19290E-18 1.95278E-18
 -1       406 9.80075E-05-2.93193E-05-2.94375E-05-1.67120E-06-2.22519E-19 2.44980E-18
 -1       407 9.86829E-05-2.95994E-05-2.96080E-05-1.75249E-06-2.33022E-19 1.93622E-18
 -1       408 9.93980E-05-2.99436E-05-2.97686E-05-1.66173E-06-4.18530E-19 1.58718E-18
 -1       409 1.00098E-04-3.03429E-05-2.98997E-05-1.30694E-06-3.84970E-19 1.89485E-18
 -1       410 1.00698E-04-3.07660E-05-2.99777E-05-5.93915E-07-2.96184E-20 1.70898E-18
 -1       411 1.01075E-04-3.11454E-05-2.99786E-05 5.43820E-07 4.08234E-19 1.36632E-18
 -1       412 1.01073E-04-3.13667E-05-2.98839E-05 2.09542E-06 5.02276E-19 1.25011E-18
 -1       413 1.00524E-04-3.12730E-05-2.96882E-05 3.90959E-06 1.27690E-19 9.97298E-19
 -1       414 9.93049E-05-3.07049E-05-2.94056E-05 5.64401E-06 2.14133E-19 1.96418E-20
 -1       415 9.74243E-05-2.95908E-05-2.90714E-05 6.77966E-06 3.44594E-19 2.43417E-19
 -1       416 9.51287E-05-2.80639E-05-2.87356E-05 6.76180E-06 2.89818E-19 1.79615E-18
 -1       417 9.29273E-05-2.65181E-05-2.84490E-05 5.27337E-06 5.22366E-19 7.67031E-19
 -1       418 9.14476E-05-2.54929E-05-2.82511E-05 2.51018E-06-1.10720E-18 2.36427E-19
 -1       419 9.11385E-05-2.53898E-05-2.81627E-05-7.74176E-07-9.87776E-19 6.30808E-19
 -1       420 9.20161E-05-2.62247E-05-2.81840E-05-3.57270E-06-7.36551E-19-1.60440E-20
 -1       421 9.36448E-05-2.76050E-05-2.82961E-05-5.10199E-06 3.71656E-19-1.13492E-18
 -1       422 9.53865E-05-2.89726E-05-2.84630E-05-5.14965E-06 7.83194E-19-2.52579E-18
 -1       423 9.67179E-05-2.99059E-05-2.86390E-05-4.05023E-06 1.03662E-18-9.77034E-19
 -1       424 9.73899E-05-3.02499E-05-2.87822E-05-2.41281E-06 2.00222E-18 6.59602E-19
 -1       425 9.74138E-05-3.00746E-05-2.88674E-05-8.33238E-07-2.98644E-19 2.11445E-18
 -1       426 9.69568E-05-2.95602E-05-2.88899E-05 2.69443E-07-1.07410E-18 2.54286E-18
 -1       427 9.62804E-05-2.89471E-05-2.88564E-05 7.05275E-07 9.84771E-19 4.49137E-19
 -1       428 9.56787E-05-2.85159E-05-2.87818E-05 5.82306E-07 1.09592E-18 2.76667E-18
 -1       429 9.61674E-05-2.74686E-05-2.94322E-05 3.78192E-06 2.17264E-19-1.96556E-18
 -1       430 9.61156E-05-2.81898E-05-2.91025E-05 2.11233E-06-2.34732E-19 8.75734E-19
 -1       431 9.58893E-05-2.62365E-05-2.98421E-05 5.72601E-06-1.20267E-18-1.67073E-18
 -1       432 9.50372E-05-2.42636E-05-3.03262E-05 7.60456E-06-2.69292E-19 8.34926E-19
 -1       433 9.35261E-05-2.15885E-05-3.08312E-05 8.77890E-06-7.45191E-19-3.69929E-19
 -1       434 9.14762E-05-1.84784E-05-3.12935E-05 8.58173E-06-2.45695E-18 4.59969E-19
 -1       435 8.93059E-05-1.55038E-05-3.16459E-05 6.54270E-06-1.65100E-18 8.84155E-19
 -1       436 8.76554E-05-1.34255E-05-3.18343E-05 2.70431E-06-1.32518E-18 1.07840E-19
 -1       437 8.71360E-05-1.29072E-05-3.18347E-05-2.14324E-06 5.89192E-19-1.81467E-18
 -1       438 8.80346E-05-1.42108E-05-3.16582E-05-6.96575E-06 1.87630E-18 3.46574E-18
 -1       439 9.02295E-05-1.71014E-05-3.13519E-05-1.04051E-05 1.15545E-18-1.45143E-18
 -1       440 9.32513E-05-2.09632E-05-3.09776E-05-1.15329E-05-1.06123E-18 8.01246E-19
 -1       441 9.49446E-05-2.70779E-05-2.90486E-05 3.32586E-06 4.99091E-19 2.99588E-18
 -1       442 6.54601E-05-4.63194E-05-8.35052E-06 4.68700E-05-4.87891E-19 7.70297E-19
 -1       443 1.37234E-04-5.54457E-05-3.50677E-05 2.82061E-05 8.28504E-19 4.24247E-18
 -1       444 1.25579E-05-2.44525E-05 4.92396E-06 2.19624E-06-6.70843E-19 3.42942E-19
 -1       445 1.04222E-04-5.45679E-05-2.13530E-05 4.36513E-05 2.53485E-18-3.67718E-19
 -1       446 8.93386E-05-1.18561E-05-3.32800E-05-1.06896E-05-4.78649E-19-1.74969E-18
 -1       447 1.55506E-04-4.16440E-05-4.88000E-05 8.53240E-06 1.12343E-18 3.11020E-18
 -1       448 1.57168E-04-2.42611E-05-5.71141E-05-1.42835E-06 8.49045E-19 1.89428E-18
 -1       449 1.57055E-04-1.02737E-05-6.29189E-05-5.94759E-07 2.33485E-18 3.32196E-20
 -1       450 1.62789E-04-1.49594E-05-6.31790E-05 8.38383E-07 3.13381E-18 1.25774E-18
 -1       451 1.57273E-04-2.79309E-05-5.54408E-05 2.82826E-07 2.74243E-18 1.16467E-18
 -1       452 1.46858E-04-5.03798E-05-4.14648E-05-1.59384E-05 2.23847E-18-1.77231E-18
 -1       453 1.22310E-04-5.46824E-05-2.90171E-05-3.63831E-05 1.81922E-18-2.97658E-18
 -1       454 9.00606E-05-5.02277E-05-1.71070E-05-4.64201E-05 1.74732E-18-4.45007E-18
 -1       455 4.67488E-05-3.81276E-05-3.92439E-06-4.33163E-05-5.77253E-19-2.67943E-18
 -1       456 2.06425E-05-2.84645E-05 3.09688E-06-2.73755E-05-2.00900E-18-3.17944E-18
 -1       457 1.23994E-05-2.35253E-05 4.64640E-06 3.68123E-06-9.43145E-19-1.23233E-18
 -1       458 2.89950E-05-2.94249E-05 2.85672E-07 2.63472E-05-1.85124E-18 1.07997E-19
 -1       459 6.99521E-05-4.86424E-05-9.34624E-06 3.98371E-05-4.16592E-18 3.38548E-19
 -1       460 1.07365E-04-5.96072E-05-2.07117E-05 3.60357E-05-2.64782E-18 3.59597E-18
 -1       461 1.46943E-04-6.18565E-05-3.64532E-05 1.67769E-05 5.59412E-19 1.81318E-18
 -1       462 1.64570E-04-5.15277E-05-4.83472E-05 3.03206E-06 7.60930E-19-1.72371E-18
 -1       463 1.75341E-04-3.29512E-05-6.04331E-05-6.29731E-06-9.39360E-19-2.52225E-18
 -1       464 1.76587E-04-2.06835E-05-6.60104E-05-5.04720E-06 6.82285E-19-4.12108E-18
 -1       465 1.72774E-04-2.07865E-05-6.47485E-05 2.05178E-06 2.01170E-20-3.25213E-18
 -1       466 1.69796E-04-3.60363E-05-5.71917E-05 5.37890E-06-1.87406E-19-2.01551E-18
 -1       467 1.62773E-04-5.30222E-05-4.69061E-05-6.48368E-06 3.72923E-19-1.43212E-18
 -1       468 1.35280E-04-6.39286E-05-3.07327E-05-2.75180E-05 5.25902E-19 4.60045E-19
 -1       469 9.41078E-05-5.63742E-05-1.63852E-05-4.24152E-05-1.87978E-18-2.41089E-18
 -1       470 5.24602E-05-4.38511E-05-4.07752E-06-4.00455E-05 3.34207E-18 5.20025E-19
 -1       471 2.03663E-05-3.07823E-05 4.06900E-06-2.07745E-05 1.25514E-18-8.41739E-20
 -1       472 2.75211E-05-3.09626E-05 1.34740E-06 3.16599E-05 3.92812E-20 2.46910E-18
 -1       473 5.71936E-05-3.69169E-05-8.33227E-06 3.76299E-05-1.13783E-18 7.46660E-19
 -1       474 8.95397E-05-1.34020E-05-3.26495E-05-3.92496E-06 4.13927E-19-1.48998E-18
 -1       475 9.02441E-05-1.43623E-05-3.25416E-05-5.88408E-06 1.44964E-19-1.59815E-18
 -1       476 8.90419E-05-1.27215E-05-3.27265E-05 5.46242E-08 8.68861E-19-1.19291E-18
 -1       477 8.91771E-05-1.29048E-05-3.27062E-05 2.04574E-06 1.14903E-18-1.03020E-18
 -1       478 8.95718E-05-1.34420E-05-3.26463E-05 3.99825E-06 1.33356E-18-8.47055E-19
 -1       479 9.02960E-05-1.44284E-05-3.25357E-05 5.95117E-06 1.56311E-18-3.78964E-19
 -1       480 9.14490E-05-1.60128E-05-3.23530E-05 7.77694E-06 1.57835E-18 5.34971E-20
 -1       481 9.31720E-05-1.84346E-05-3.20509E-05 9.22441E-06 1.49313E-18 7.21287E-19
 -1       482 9.53121E-05-2.18885E-05-3.14788E-05 9.54857E-06 1.31117E-18 1.70380E-18
 -1       483 9.63597E-05-2.46213E-05-3.07337E-05 8.03513E-06 1.13045E-18 2.52111E-18
 -1       484 9.54872E-05-2.44391E-05-3.04396E-05-5.83597E-06-7.45360E-19-8.35242E-19
 -1       485 9.83867E-05-5.53034E-05-1.81961E-05 4.50136E-05 1.61164E-18 9.40398E-19
 -1       486 1.26901E-04-6.27013E-05-2.75235E-05 3.16345E-05 2.24924E-18 2.33376E-18
 -1       487 9.52748E-05-2.62294E-05-2.95837E-05-2.89585E-06-3.58630E-19-6.77971E-19
 -1       488 9.49185E-05-2.71622E-05-2.90345E-05-1.03151E-06-1.64957E-19-7.16605E-19
 -1       489 9.46423E-05-2.76933E-05-2.86908E-05 9.12161E-08-2.87622E-19-4.99330E-19
 -1       490 9.44860E-05-2.80195E-05-2.84851E-05 7.26439E-07-3.28982E-20-5.38868E-19
 -1       491 9.44310E-05-2.82307E-05-2.83715E-05 1.04475E-06-4.45106E-19-7.25531E-19
 -1       492 9.44472E-05-2.83710E-05-2.83185E-05 1.16151E-06-3.35464E-19-1.18206E-18
 -1       493 9.45074E-05-2.84640E-05-2.83046E-05 1.15503E-06-4.44262E-19-9.29084E-19
 -1       494 9.45917E-05-2.85241E-05-2.83150E-05 1.07872E-06-5.38161E-19-6.16382E-19
 -1       495 9.46908E-05-2.85612E-05-2.83416E-05 9.63622E-07-1.29572E-19-2.56694E-19
 -1       496 9.47866E-05-2.85784E-05-2.83752E-05 8.46608E-07 5.97051E-20-1.64899E-19
 -1       497 9.48803E-05-2.85825E-05-2.84136E-05 7.40226E-07-2.78225E-19-8.08888E-19
 -1       498 9.49708E-05-2.85763E-05-2.84550E-05 6.56996E-07-4.15133E-19-1.21813E-18
 -1       499 9.50596E-05-2.85617E-05-2.84992E-05 6.06672E-07-1.20708E-19-1.21512E-18
 -1       500 9.51496E-05-2.85395E-05-2.85472E-05 5.97893E-07 8.23419E-19-8.07885E-19
 -1       501 9.52453E-05-2.85098E-05-2.86008E-05 6.39495E-07 8.74800E-20-7.55727E-19
 -1       502 9.53520E-05-2.84715E-05-2.86628E-05 7.41676E-07-6.91538E-19-5.42687E-19
 -1       503 9.54757E-05-2.84225E-05-2.87367E-05 9.17061E-07-5.73255E-19-5.09553E-19
 -1       504 9.56227E-05-2.83593E-05-2.88265E-05 1.18175E-06 5.28800E-19-3.89918E-19
 -1       505 9.57985E-05-2.82767E-05-2.89369E-05 1.55633E-06 7.60627E-19-6.51747E-19
 -1       506 9.60076E-05-2.81672E-05-2.90731E-05 2.06692E-06-2.73718E-20-6.72305E-19
 -1       507 9.62522E-05-2.80213E-05-2.92400E-05 2.74521E-06 2.51508E-19-1.34202E-18
 -1       508 9.65431E-05-2.78156E-05-2.94521E-05 3.68127E-06 7.51905E-19-2.27207E-18
 -1       509 9.68431E-05-2.75576E-05-2.96905E-05 4.83280E-06 7.92670E-19-2.71997E-18
 -1       510 9.71551E-05-2.72412E-05-2.99590E-05 6.28058E-06-5.35715E-20-1.05780E-18
 -1       511 9.74704E-05-2.68947E-05-3.02418E-05 8.05986E-06 4.56372E-19-5.67748E-19
 -1       512 9.78129E-05-2.66196E-05-3.05062E-05 1.01757E-05-1.06895E-18-9.35963E-19
 -1       513 9.83018E-05-2.66660E-05-3.06967E-05 1.25707E-05-1.30392E-18-6.75660E-19
 -1       514 9.92799E-05-2.75588E-05-3.07350E-05 1.50673E-05-1.87022E-18-1.28646E-18
 -1       515 1.01532E-04-3.02439E-05-3.05467E-05 1.72563E-05-8.29972E-19 1.71837E-19
 -1       516 1.06408E-04-3.59936E-05-3.01561E-05 1.83010E-05 1.22954E-19 2.62454E-19
 -1       517 1.16471E-04-4.63164E-05-3.00878E-05 1.64634E-05-1.46518E-19 9.21347E-20
 -1       518 1.32232E-04-5.85920E-05-3.14488E-05 8.96409E-06-1.90662E-19-1.19232E-18
 -1       519 1.53402E-04-4.27820E-05-4.78541E-05-2.17007E-05 1.30840E-18 1.20745E-18
 -1       520 1.48585E-04-1.99633E-05-5.56760E-05-1.37334E-05 1.49321E-18-8.79432E-19
 -1       521 1.54084E-04-4.41257E-05-4.75450E-05 1.69249E-05-1.65224E-19-8.51162E-19
 -1       522 1.45551E-04-6.02475E-05-3.67387E-05 5.01085E-06-6.99365E-19-1.63303E-18
 -1       523 1.30157E-04-5.64063E-05-3.15919E-05-1.01132E-05 3.37245E-19-4.23346E-18
 -1       524 1.15760E-04-4.51623E-05-3.02398E-05-1.82894E-05-3.35905E-19-3.03026E-18
 -1       525 1.06250E-04-3.57441E-05-3.02166E-05-2.07418E-05-7.32564E-19-8.90016E-19
 -1       526 1.00945E-04-2.99277E-05-3.04363E-05-2.00336E-05 5.53834E-19 1.88871E-19
 -1       527 9.79835E-05-2.65716E-05-3.05967E-05-1.76599E-05 6.84227E-19 2.70646E-18
 -1       528 9.50544E-05-2.36223E-05-3.06048E-05-1.50386E-05-4.00121E-19 1.10360E-18
 -1       529 9.43831E-05-2.78511E-05-2.85123E-05-4.49503E-07 8.35421E-19 7.08799E-19
 -1       530 9.46194E-05-2.74699E-05-2.87749E-05 4.07308E-07 6.89671E-19 8.52006E-19
 -1       531 9.50016E-05-2.68238E-05-2.92150E-05 1.89066E-06 6.39674E-19 1.07570E-18
 -1       532 9.42802E-05-2.80945E-05-2.83648E-05-9.09118E-07 5.83639E-19 6.56888E-19
 -1       533 9.42750E-05-2.82585E-05-2.82928E-05-1.11489E-06 5.34644E-19 7.71684E-19
 -1       534 9.43324E-05-2.83714E-05-2.82692E-05-1.16237E-06 3.87552E-19 7.07840E-19
 -1       535 9.44252E-05-2.84489E-05-2.82759E-05-1.11619E-06 3.02751E-19 8.29388E-19
 -1       536 9.45341E-05-2.85005E-05-2.83005E-05-1.02041E-06 8.47844E-20 1.38470E-18
 -1       537 9.46471E-05-2.85327E-05-2.83351E-05-9.05199E-07 2.06052E-19 1.63927E-18
 -1       538 9.47576E-05-2.85501E-05-2.83749E-05-7.91250E-07-4.78731E-20 1.64876E-18
 -1       539 9.48628E-05-2.85563E-05-2.84173E-05-6.92896E-07 1.75275E-19 5.35916E-19
 -1       540 9.49630E-05-2.85541E-05-2.84611E-05-6.20307E-07 1.79760E-19-4.23243E-20
 -1       541 9.50608E-05-2.85457E-05-2.85065E-05-5.81056E-07 3.71544E-19-1.30423E-19
 -1       542 9.51603E-05-2.85332E-05-2.85544E-05-5.81169E-07 1.01079E-18-3.75031E-19
 -1       543 9.52674E-05-2.85188E-05-2.86064E-05-6.25704E-07 9.22278E-19 1.14339E-19
 -1       544 9.53889E-05-2.85054E-05-2.86641E-05-7.18874E-07 3.48785E-19 7.47573E-19
 -1       545 9.55333E-05-2.84969E-05-2.87295E-05-8.63636E-07-2.25798E-20 9.01305E-19
 -1       546 9.57104E-05-2.84993E-05-2.88043E-05-1.06068E-06 4.08485E-20 9.43907E-19
 -1       547 9.59314E-05-2.85215E-05-2.88894E-05-1.30665E-06-1.17122E-19 1.50373E-18
 -1       548 9.62093E-05-2.85761E-05-2.89850E-05-1.59153E-06-2.99860E-19 2.11431E-18
 -1       549 9.65588E-05-2.86810E-05-2.90899E-05-1.89502E-06-5.08858E-19 1.97384E-18
 -1       550 9.69962E-05-2.88596E-05-2.92010E-05-2.18211E-06-6.13066E-19 1.79874E-18
 -1       551 9.75380E-05-2.91406E-05-2.93132E-05-2.39824E-06 6.66390E-20 1.08316E-18
 -1       552 9.81988E-05-2.95547E-05-2.94195E-05-2.46513E-06 9.68391E-20 1.12790E-18
 -1       553 9.89849E-05-3.01265E-05-2.95122E-05-2.27985E-06-7.09325E-19 8.40115E-19
 -1       554 9.98833E-05-3.08583E-05-2.95848E-05-1.72100E-06-3.14746E-19 1.17483E-18
 -1       555 1.00843E-04-3.17035E-05-2.96351E-05-6.68752E-07 1.86419E-19 7.31962E-19
 -1       556 1.01750E-04-3.25323E-05-2.96692E-05 9.52641E-07 5.36242E-19 1.38755E-18
 -1       557 1.02403E-04-3.31036E-05-2.97045E-05 3.10286E-06 8.89477E-19 7.23652E-19
 -1       558 1.02525E-04-3.30779E-05-2.97668E-05 5.53163E-06 1.33785E-18 2.93011E-20
 -1       559 1.01842E-04-3.21217E-05-2.98814E-05 7.70286E-06-2.92321E-20-7.36113E-20
 -1       560 1.00263E-04-3.01316E-05-3.00541E-05 8.82859E-06-1.31362E-19-3.95306E-19
 -1       561 9.81006E-05-2.75007E-05-3.02533E-05 8.13735E-06 2.47434E-19-6.51631E-19
 -1       562 9.61149E-05-2.51583E-05-3.04061E-05 5.36668E-06-1.31889E-19 7.06504E-19
 -1       563 9.51800E-05-2.41596E-05-3.04333E-05 1.15843E-06-1.01912E-18 5.75429E-19
 -1       564 9.56980E-05-2.49811E-05-3.03014E-05-3.09426E-06-8.50287E-19-5.85114E-20
 -1       565 9.73254E-05-2.72124E-05-3.00428E-05-5.94301E-06 4.37171E-20-9.27576E-19
 -1       566 9.91660E-05-2.97672E-05-2.97395E-05-6.69029E-06 4.71895E-19-1.10915E-18
 -1       567 1.00421E-04-3.16591E-05-2.94696E-05-5.59647E-06 9.14510E-20-1.57815E-18
 -1       568 1.00735E-04-3.24327E-05-2.92753E-05-3.47698E-06 4.10796E-19-2.08125E-18
 -1       569 1.00179E-04-3.21496E-05-2.91595E-05-1.21357E-06-5.56962E-19 3.43218E-19
 -1       570 9.90493E-05-3.11595E-05-2.90988E-05 5.59312E-07-6.82586E-19 2.32257E-18
 -1       571 9.76767E-05-2.98675E-05-2.90606E-05 1.52252E-06 5.03416E-19 2.28149E-18
 -1       572 9.79003E-05-2.85453E-05-2.97205E-05 8.43034E-06-4.59236E-19 1.08475E-18
 -1       573 9.82466E-05-2.93651E-05-2.95138E-05 5.79099E-06-1.33034E-18-3.95133E-18
 -1       574 9.78278E-05-2.95149E-05-2.92733E-05 3.40362E-06-1.20701E-19-2.88148E-18
 -1       575 2.79860E-05-1.66054E-05-4.25038E-06 1.84883E-05-1.24186E-18 2.73274E-18
 -1       576 9.64263E-05-2.67503E-05-2.98601E-05 1.07733E-05-8.90674E-19-8.94173E-19
 -1       577 9.36773E-05-2.39096E-05-2.99021E-05 1.18799E-05-1.80888E-18-9.18548E-19
 -1       578 9.00074E-05-2.03607E-05-2.98552E-05 1.08027E-05-2.32760E-18 1.21276E-18
 -1       579 8.64216E-05-1.69818E-05-2.97685E-05 7.04130E-06-1.34371E-18 2.56706E-18
 -1       580 8.42065E-05-1.48871E-05-2.97172E-05 1.13584E-06-1.80408E-19-1.01503E-19
 -1       581 8.43066E-05-1.48482E-05-2.97770E-05-5.71379E-06 9.22799E-19 1.15953E-18
 -1       582 8.69604E-05-1.70117E-05-2.99907E-05-1.14934E-05-7.59539E-19 4.30271E-20
 -1       583 9.07115E-05-2.00875E-05-3.02714E-05-1.44678E-05-8.26487E-19-9.43909E-19
 -1       584 4.62085E-05-3.02093E-05-6.36395E-06-3.56482E-05 1.57336E-18-1.93865E-19
 -1       585 9.45919E-05-2.06857E-05-3.16914E-05-9.58466E-06-9.01327E-19-1.19344E-18
 -1       586 1.45350E-04-5.46740E-05-3.90562E-05 6.44871E-06 4.98102E-19 2.61013E-18
 -1       587 2.70441E-05-1.64142E-05-3.90646E-06-1.34085E-05 7.62568E-19-1.14212E-18
 -1       588 1.35271E-04-5.94657E-05-3.25879E-05-1.74593E-05 1.49104E-19-1.08367E-18
 -1       589 8.91572E-05-1.28799E-05-3.27083E-05-1.93711E-06 7.33377E-19-1.25378E-18
 -1       590 1.43455E-04-4.00660E-05-4.47890E-05 4.92010E-06 2.60823E-18 1.63938E-18
 -1       591 1.43237E-04-3.47678E-05-4.69940E-05-8.86389E-06 1.40081E-18 2.75392E-19
 -1       592 1.36411E-04-1.18186E-05-5.39980E-05-7.76845E-06 1.56775E-18 3.05541E-19
 -1       593 1.33369E-04-6.95264E-06-5.48594E-05 4.08253E-06 2.04876E-18 3.45801E-19
 -1       594 1.36681E-04-1.77073E-05-5.15676E-05 1.09429E-05 2.60256E-18 1.44898E-18
 -1       595 1.19423E-04-5.96802E-05-2.54593E-05-3.40073E-05 1.68401E-19-1.79327E-18
 -1       596 8.13074E-05-4.59616E-05-1.47868E-05-4.66905E-05 2.01964E-19-3.81392E-18
 -1       597 4.44319E-05-2.61064E-05-7.30691E-06-3.83887E-05 8.09975E-20-4.34358E-18
 -1       598 2.41135E-05-1.37399E-05-3.78856E-06-1.44331E-05 1.54676E-19-2.56640E-18
 -1       599 2.96725E-05-1.61053E-05-5.10661E-06 1.53180E-05 5.93294E-19-3.37860E-19
 -1       600 1.00848E-04-5.60295E-05-1.90497E-05 3.66562E-05-2.51865E-18 5.58208E-18
 -1       601 1.34767E-04-6.67915E-05-2.91487E-05 1.94354E-05-9.39783E-19 1.10998E-18
 -1       602 1.55157E-04-6.12359E-05-4.05615E-05-5.88083E-06 7.16074E-19-9.73611E-19
 -1       603 1.48868E-04-2.54295E-05-5.34130E-05 1.44226E-05-1.17081E-18-5.93664E-19
 -1       604 1.51411E-04-6.42732E-05-3.75557E-05-3.54811E-06-1.31682E-18 2.30075E-19
 -1       605 1.21675E-04-6.41558E-05-2.45828E-05-3.19214E-05-1.64166E-18-7.92333E-19
 -1       606 8.44674E-05-4.95167E-05-1.46452E-05-4.30775E-05 1.20835E-18 5.12905E-19
 -1       607 5.83523E-05-3.55479E-05-9.25460E-06 4.38542E-05 1.46733E-18 2.07216E-18
 -1       608 9.13593E-05-1.58672E-05-3.23747E-05-7.76934E-06-2.21676E-19-1.41251E-18
 -1       609 9.55645E-05-2.58456E-05-2.98575E-05 4.92997E-06 7.42815E-19 1.99572E-18
 -1       610 1.48606E-04-6.15406E-05-3.75356E-05-7.96166E-06-1.38526E-19-2.63586E-19
 -1       611 1.45580E-04-1.71355E-05-5.55652E-05 5.74586E-06 9.98440E-20-6.21087E-19
 -1       612 9.51813E-05-2.63902E-05-2.94694E-05 3.20728E-06 7.29349E-19 1.47223E-18
 -1       613 4.86673E-05-2.28668E-05-1.04981E-05 2.76491E-05 1.37368E-18 4.36328E-19
 -1       614 1.37982E-04-5.23665E-05-3.69699E-05 6.17046E-07 5.72313E-19 2.37490E-18
 -1       615 9.15526E-05-1.68496E-05-3.20213E-05 2.44042E-06 1.10247E-18-6.96198E-19
 -1       616 9.12947E-05-1.64483E-05-3.20824E-05 8.40841E-07 8.63729E-19-1.01576E-18
 -1       617 9.28857E-05-1.89942E-05-3.16742E-05 5.26810E-06 1.35910E-18-2.24807E-19
 -1       618 9.39820E-05-2.08980E-05-3.13288E-05 6.20319E-06 1.23423E-18 2.42079E-19
 -1       619 9.54995E-05-2.42109E-05-3.05400E-05 6.25490E-06 1.01422E-18 1.32111E-18
 -1       620 1.37986E-04-4.65140E-05-3.94611E-05-6.04526E-06 8.28491E-19-1.57487E-18
 -1       621 7.23126E-05-3.56975E-05-1.52620E-05-3.79159E-05-4.42310E-20 2.22476E-18
 -1       622 1.16661E-04-5.93580E-05-2.44056E-05 3.40186E-05 1.24707E-18 1.18957E-18
 -1       623 9.50136E-05-2.36431E-05-3.05842E-05-4.71086E-06-4.31662E-19-1.00386E-18
 -1       624 9.54144E-05-2.57039E-05-2.98738E-05-2.43676E-06-3.03523E-19-9.15425E-19
 -1       625 9.54752E-05-2.69462E-05-2.93690E-05-8.67802E-07-2.36536E-19-9.29862E-19
 -1       626 9.54199E-05-2.77060E-05-2.90201E-05 1.34124E-07-7.74657E-20-8.38801E-19
 -1       627 9.53440E-05-2.81776E-05-2.87856E-05 7.22510E-07-3.37835E-19-1.04244E-18
 -1       628 9.52797E-05-2.84676E-05-2.86338E-05 1.02540E-06-5.06205E-19-8.60484E-19
 -1       629 9.52349E-05-2.86394E-05-2.85410E-05 1.14005E-06-1.81192E-19-4.08967E-19
 -1       630 9.52082E-05-2.87328E-05-2.84896E-05 1.13730E-06-3.13586E-19-1.32027E-19
 -1       631 9.51953E-05-2.87740E-05-2.84664E-05 1.06346E-06-8.67104E-20-1.01967E-19
 -1       632 9.51929E-05-2.87764E-05-2.84643E-05 9.62744E-07-1.45129E-19-2.37884E-19
 -1       633 9.51975E-05-2.87543E-05-2.84757E-05 8.58136E-07-8.26717E-19-7.70500E-19
 -1       634 9.52069E-05-2.87145E-05-2.84968E-05 7.67627E-07-3.61962E-19-9.07251E-19
 -1       635 9.52196E-05-2.86607E-05-2.85253E-05 7.04634E-07-2.54090E-19-6.05261E-19
 -1       636 9.52345E-05-2.85940E-05-2.85602E-05 6.80039E-07 2.34878E-19-4.52441E-19
 -1       637 9.52509E-05-2.85137E-05-2.86017E-05 7.03743E-07 3.31483E-19-9.22862E-19
 -1       638 9.52675E-05-2.84165E-05-2.86504E-05 7.85930E-07-1.22565E-19-1.11197E-18
 -1       639 9.52823E-05-2.82975E-05-2.87077E-05 9.38116E-07-1.64953E-19-1.22972E-19
 -1       640 9.52915E-05-2.81489E-05-2.87752E-05 1.17400E-06-1.20153E-19 9.57358E-19
 -1       641 9.52885E-05-2.79603E-05-2.88547E-05 1.51018E-06 9.23063E-20 5.88791E-19
 -1       642 9.52621E-05-2.77177E-05-2.89473E-05 1.96659E-06-1.98172E-19-6.43962E-19
 -1       643 9.51953E-05-2.74034E-05-2.90532E-05 2.56659E-06-1.83996E-19-4.90268E-19
 -1       644 9.50505E-05-2.69716E-05-2.91760E-05 3.38099E-06-4.75023E-19-1.15043E-18
 -1       645 9.47991E-05-2.64370E-05-2.92972E-05 4.36407E-06 4.41586E-20-1.48888E-18
 -1       646 9.43863E-05-2.57643E-05-2.94083E-05 5.57973E-06 8.76157E-19-2.04684E-18
 -1       647 9.37491E-05-2.49519E-05-2.94831E-05 7.05922E-06 7.93923E-19-2.03693E-18
 -1       648 9.28330E-05-2.40488E-05-2.94773E-05 8.83362E-06-5.76159E-19-2.57422E-18
 -1       649 9.16327E-05-2.32124E-05-2.93214E-05 1.09418E-05-1.10726E-18-2.33744E-18
 -1       650 9.02820E-05-2.28103E-05-2.89150E-05 1.34530E-05-9.13854E-19-1.09382E-18
 -1       651 8.92303E-05-2.35816E-05-2.81304E-05 1.65025E-05-3.54308E-19 4.11864E-19
 -1       652 8.95699E-05-2.68953E-05-2.68399E-05 2.03349E-05 1.46492E-19 6.20912E-19
 -1       653 9.39538E-05-3.47797E-05-2.52079E-05 2.49548E-05 1.17665E-18 1.72131E-18
 -1       654 1.06252E-04-5.34402E-05-2.23625E-05-3.43154E-05-5.53801E-19 3.18564E-19
 -1       655 1.09267E-04-4.96022E-05-2.53932E-05-2.82256E-05 9.83352E-20-8.72312E-20
 -1       656 9.78612E-05-3.61098E-05-2.63675E-05-2.66759E-05 7.90838E-19-2.02563E-19
 -1       657 9.31645E-05-2.82493E-05-2.78015E-05-2.33887E-05 1.14129E-18 1.50040E-18
 -1       658 9.18908E-05-2.41643E-05-2.90211E-05-1.98814E-05 9.90481E-19 1.67913E-18
 -1       659 9.09655E-05-2.19383E-05-2.95880E-05-1.72188E-05-6.00238E-19 3.17470E-19
 -1       660 9.53594E-05-2.73720E-05-2.91368E-05 3.35739E-07 8.22531E-19 2.65755E-19
 -1       661 9.52669E-05-2.79475E-05-2.88510E-05-4.61490E-07 6.59182E-19 8.01821E-20
 -1       662 9.54171E-05-2.64375E-05-2.95608E-05 1.64344E-06 7.95248E-19 2.16505E-19
 -1       663 9.51392E-05-2.85234E-05-2.85497E-05-1.10888E-06 4.18245E-19 1.20033E-19
 -1       664 9.51134E-05-2.86510E-05-2.84840E-05-1.16017E-06 1.52739E-19 6.40690E-19
 -1       665 9.51063E-05-2.87173E-05-2.84525E-05-1.11959E-06 2.36118E-19 3.41026E-19
 -1       666 9.51117E-05-2.87419E-05-2.84444E-05-1.03064E-06-1.92270E-19 1.35055E-20
 -1       667 9.51252E-05-2.87378E-05-2.84519E-05-9.23961E-07 1.10205E-19 9.82783E-20
 -1       668 9.51434E-05-2.87137E-05-2.84700E-05-8.21053E-07 3.58533E-19 8.01484E-21
 -1       669 9.51647E-05-2.86754E-05-2.84955E-05-7.37195E-07 8.45622E-19-3.36671E-19
 -1       670 9.51883E-05-2.86265E-05-2.85265E-05-6.83553E-07 3.81264E-19-8.06224E-19
 -1       671 9.52147E-05-2.85692E-05-2.85624E-05-6.68728E-07 3.17095E-19-6.37087E-19
 -1       672 9.52451E-05-2.85052E-05-2.86028E-05-6.99760E-07 7.71978E-19-2.70345E-20
 -1       673 9.52819E-05-2.84364E-05-2.86480E-05-7.82649E-07-3.16844E-19 8.59207E-19
 -1       674 9.53288E-05-2.83656E-05-2.86984E-05-9.22365E-07 4.15359E-19 8.79299E-19
 -1       675 9.53916E-05-2.82981E-05-2.87542E-05-1.12230E-06-2.80239E-19 4.43839E-19
 -1       676 9.54789E-05-2.82429E-05-2.88152E-05-1.38303E-06-6.07884E-19 6.20925E-19
 -1       677 9.56030E-05-2.82148E-05-2.88805E-05-1.70032E-06-5.67169E-19 4.62203E-19
 -1       678 9.57825E-05-2.82362E-05-2.89482E-05-2.06217E-06-1.53659E-19 3.06611E-19
 -1       679 9.60432E-05-2.83399E-05-2.90155E-05-2.44480E-06-6.56836E-20 2.29629E-19
 -1       680 9.64208E-05-2.85697E-05-2.90789E-05-2.80771E-06-1.75554E-19-1.77256E-19
 -1       681 9.69614E-05-2.89802E-05-2.91349E-05-3.08788E-06 3.03678E-19-2.00237E-19
 -1       682 9.77191E-05-2.96300E-05-2.91814E-05-3.19419E-06 6.35804E-20-5.59031E-19
 -1       683 9.87478E-05-3.05669E-05-2.92211E-05-3.00395E-06-5.84344E-19-3.08846E-19
 -1       684 1.00079E-04-3.17972E-05-2.92650E-05-2.36599E-06-4.28940E-19 3.14804E-19
 -1       685 1.01685E-04-3.32354E-05-2.93371E-05-1.11936E-06-4.91723E-20 5.29253E-19
 -1       686 1.03416E-04-3.46385E-05-2.94775E-05 8.56805E-07 1.04307E-18 1.08378E-19
 -1       687 1.04945E-04-3.55530E-05-2.97410E-05 3.53865E-06 1.33850E-18 7.49290E-19
 -1       688 1.05772E-04-3.53543E-05-3.01798E-05 6.59826E-06 4.50869E-19 1.81623E-18
 -1       689 1.05358E-04-3.34620E-05-3.08120E-05 9.25595E-06 2.37469E-19 1.67246E-18
 -1       690 1.03537E-04-2.98581E-05-3.15745E-05 1.02960E-05 1.04737E-18 1.36312E-18
 -1       691 1.00935E-04-2.55693E-05-3.23037E-05 8.61459E-06-7.89523E-19 1.79091E-18
 -1       692 9.88993E-05-2.24922E-05-3.27536E-05 4.15600E-06-7.02427E-19 1.13902E-18
 -1       693 9.87756E-05-2.23916E-05-3.27392E-05-1.50419E-06-2.59728E-19 1.67315E-18
 -1       694 1.00606E-04-2.53434E-05-3.22553E-05-6.11016E-06 3.76218E-19 2.90803E-19
 -1       695 1.03121E-04-2.96473E-05-3.14870E-05-7.89448E-06 4.84622E-19 3.64237E-19
 -1       696 1.04864E-04-3.32720E-05-3.06805E-05-6.89579E-06 7.68976E-19-1.88613E-20
 -1       697 1.05139E-04-3.50916E-05-3.00195E-05-4.22492E-06 7.14117E-19-3.67091E-20
 -1       698 1.04041E-04-3.50202E-05-2.95817E-05-1.18684E-06-8.39681E-19-4.98721E-20
 -1       699 1.02072E-04-3.35941E-05-2.93502E-05 1.27712E-06-1.56304E-18-2.09746E-18
 -1       700 9.99523E-05-3.16477E-05-2.92752E-05 2.87397E-06-4.85275E-19-3.10431E-18
 -1       701 1.01114E-04-3.24133E-05-2.94403E-05 7.57669E-06 1.41178E-18 7.06969E-19
 -1       702 9.74926E-05-2.97337E-05-2.90388E-05 1.39394E-05-6.39095E-19-4.78679E-19
 -1       703 1.00774E-04-3.22025E-05-2.93897E-05 5.01003E-06-6.58738E-19-3.67364E-18
 -1       704 1.00301E-04-3.18270E-05-2.93447E-05 1.10332E-05-4.14565E-20-6.18657E-19
 -1       705 8.63942E-05-2.11085E-05-2.79817E-05 1.25703E-05-4.58817E-19 2.10283E-18
 -1       706 8.11549E-05-1.68314E-05-2.75670E-05 6.63438E-06 3.67135E-19 2.29830E-18
 -1       707 7.90619E-05-1.48681E-05-2.75111E-05-1.98991E-06-9.52459E-20 6.01923E-19
 -1       708 8.13103E-05-1.61078E-05-2.79422E-05-1.04865E-05-4.80748E-19-2.95591E-19
 -1       709 4.84171E-05-2.02675E-05-1.14901E-05-2.63567E-05-3.07155E-19-1.48030E-18
 -1       710 5.15837E-05-2.22656E-05-1.20176E-05 3.09144E-05 1.21311E-19 5.01623E-18
 -1       711 3.84618E-05-1.14528E-05-1.09971E-05 1.26161E-06-7.05503E-19-1.84124E-18
 -1       712 1.24415E-04-5.83297E-05-2.82891E-05-2.10893E-05-5.44311E-19-2.18468E-19
 -1       713 9.25334E-05-2.59357E-05-2.85392E-05 1.49439E-05-1.50932E-19-8.83315E-20
 -1       714 8.65698E-05-4.51712E-05-1.74493E-05 4.23915E-05 1.21078E-18 1.70995E-18
 -1       715 1.27657E-04-2.20347E-05-4.57886E-05-1.23283E-05 9.67735E-19-2.43428E-18
 -1       716 9.20769E-05-1.76760E-05-3.18921E-05 3.94988E-06 1.31245E-18-5.30721E-19
 -1       717 7.11547E-05-3.37816E-05-1.56142E-05-3.99359E-05-1.16811E-18-3.78063E-18
 -1       718 1.01850E-04-5.08716E-05-2.16185E-05-3.67989E-05-1.01268E-18-1.62747E-18
 -1       719 9.20400E-05-1.76229E-05-3.18988E-05-3.89615E-06 2.56743E-19-1.33464E-18
 -1       720 1.19935E-04-1.22184E-05-4.66367E-05 9.69119E-06-6.66933E-19 1.95245E-18
 -1       721 8.43356E-05-4.28905E-05-1.75279E-05 3.61322E-05 4.01917E-19 3.53321E-18
 -1       722 1.29847E-04-3.03376E-05-4.30201E-05 1.42234E-05 2.48011E-18 5.26537E-18
 -1       723 4.22567E-05-1.62602E-05-1.06234E-05-2.56577E-05 8.34380E-19-3.81599E-18
 -1       724 1.34970E-04-6.08493E-05-3.18456E-05 1.43595E-05 2.18614E-19-2.41404E-20
 -1       725 1.24563E-04-6.08103E-05-2.67215E-05 2.11288E-05-2.35634E-18 2.86212E-18
 -1       726 3.81351E-05-1.00558E-05-1.14513E-05 2.53959E-07 8.14379E-19-1.60359E-18
 -1       727 1.18344E-04-8.08570E-06-4.77451E-05-2.86391E-06 2.30975E-19-5.82024E-19
 -1       728 1.32735E-04-6.37620E-05-2.95356E-05-1.77420E-05-1.38500E-18 3.54563E-20
 -1       729 9.51896E-05-2.83048E-05-2.86649E-05-9.04417E-07 6.26254E-19-1.48397E-19
 -1       730 9.12878E-05-1.64391E-05-3.20834E-05-7.83622E-07 7.08592E-19-1.18696E-18
 -1       731 1.27066E-04-3.36085E-05-4.02669E-05-1.21791E-05 1.82152E-19-2.00012E-18
 -1       732 9.28356E-05-1.89289E-05-3.16815E-05-5.20839E-06-1.16440E-19-1.20553E-18
 -1       733 8.57887E-05-1.87673E-05-2.87258E-05-1.50599E-05-1.03323E-18-1.90612E-18
 -1       734 9.53206E-05-2.48932E-05-3.01771E-05 3.62570E-06 8.95827E-19 4.21146E-19
 -1       735 7.42996E-05-3.25057E-05-1.76158E-05 3.59036E-05-3.02047E-19 1.28749E-18
 -1       736 9.40905E-05-2.09445E-05-3.13620E-05-6.94261E-06-5.14894E-19-1.21778E-18
 -1       737 4.72033E-05-1.31887E-05-1.41392E-05 1.27523E-05 1.02729E-18-1.67342E-19
 -1       738 1.29818E-04-5.51342E-05-3.21120E-05-5.93583E-06-5.18503E-19 2.22511E-18
 -1       739 9.15305E-05-1.68190E-05-3.20248E-05-2.37959E-06 4.83955E-19-1.05726E-18
 -1       740 9.46304E-05-2.27163E-05-3.08229E-05 3.90958E-06 1.11393E-18-1.61306E-19
 -1       741 6.91138E-05-2.46876E-05-1.87436E-05 2.60816E-05 2.02925E-18 2.06041E-18
 -1       742 1.30823E-04-5.22496E-05-3.37001E-05 5.49331E-07 6.67885E-19-1.11683E-18
 -1       743 8.96385E-05-3.97021E-05-2.12233E-05-3.32748E-05-2.24998E-18-8.85136E-19
 -1       744 9.55671E-05-2.55033E-05-3.00274E-05-1.80180E-06-2.57450E-19-7.77602E-19
 -1       745 9.58689E-05-2.68852E-05-2.95646E-05-5.83721E-07-1.09211E-19-6.49367E-19
 -1       746 9.59619E-05-2.77737E-05-2.92236E-05 2.19146E-07-2.31811E-19-5.88320E-19
 -1       747 9.59509E-05-2.83340E-05-2.89787E-05 6.97568E-07-4.48098E-19-5.01156E-19
 -1       748 9.58905E-05-2.86729E-05-2.88076E-05 9.44779E-07 1.58786E-19-1.91795E-19
 -1       749 9.58100E-05-2.88620E-05-2.86920E-05 1.03606E-06 1.28518E-20-2.32396E-19
 -1       750 9.57207E-05-2.89517E-05-2.86153E-05 1.02731E-06-2.73315E-19 6.01277E-19
 -1       751 9.56383E-05-2.89671E-05-2.85734E-05 9.64244E-07-6.25890E-19 4.02972E-19
 -1       752 9.55627E-05-2.89371E-05-2.85539E-05 8.79659E-07-6.72423E-19-2.24947E-19
 -1       753 9.54941E-05-2.88754E-05-2.85509E-05 7.95963E-07-6.23389E-19-2.36979E-19
 -1       754 9.54315E-05-2.87904E-05-2.85605E-05 7.29619E-07-5.04004E-19-4.31126E-19
 -1       755 9.53725E-05-2.86856E-05-2.85801E-05 6.93273E-07 6.39509E-20-1.02914E-19
 -1       756 9.53131E-05-2.85612E-05-2.86080E-05 6.97406E-07 3.57682E-19 2.39191E-20
 -1       757 9.52483E-05-2.84138E-05-2.86433E-05 7.51622E-07-3.12900E-19-2.37340E-19
 -1       758 9.51706E-05-2.82372E-05-2.86857E-05 8.65609E-07 4.59690E-19 1.01333E-20
 -1       759 9.50699E-05-2.80217E-05-2.87349E-05 1.04979E-06 4.85133E-19 5.29579E-19
 -1       760 9.49323E-05-2.77546E-05-2.87904E-05 1.31564E-06 5.97763E-20 5.92237E-19
 -1       761 9.47378E-05-2.74188E-05-2.88510E-05 1.67569E-06-6.61354E-19 1.01890E-19
 -1       762 9.44591E-05-2.69934E-05-2.89138E-05 2.14321E-06-2.79821E-19-1.27036E-19
 -1       763 9.40319E-05-2.64213E-05-2.89759E-05 2.76375E-06-5.47791E-19-2.44028E-19
 -1       764 9.34391E-05-2.57242E-05-2.90205E-05 3.49077E-06-1.84449E-19-5.95694E-19
 -1       765 9.25941E-05-2.48500E-05-2.90330E-05 4.35926E-06-1.69126E-19-7.24590E-19
 -1       766 9.14035E-05-2.37745E-05-2.89836E-05 5.37625E-06 3.36085E-19-1.75003E-18
 -1       767 8.97569E-05-2.24985E-05-2.88249E-05 6.55223E-06 1.80073E-19-2.08526E-18
 -1       768 8.75368E-05-2.10763E-05-2.84833E-05 7.91924E-06-1.17504E-19-1.69665E-18
 -1       769 8.46432E-05-1.96666E-05-2.78476E-05 9.57450E-06-5.50768E-21-8.62048E-19
 -1       770 8.10409E-05-1.86137E-05-2.67535E-05 1.17735E-05-2.99751E-19-8.04760E-19
 -1       771 7.68686E-05-1.86275E-05-2.49377E-05 1.50635E-05 5.68218E-19 3.87635E-19
 -1       772 7.26595E-05-2.01418E-05-2.24101E-05 1.95199E-05 1.64396E-18 1.55867E-18
 -1       773 1.04848E-04-4.91642E-05-2.36731E-05 3.25637E-05 7.77391E-19 5.80658E-19
 -1       774 9.38914E-05-2.09090E-05-3.12787E-05-5.21044E-06-3.36689E-19-1.03773E-18
 -1       775 7.93795E-05-2.38057E-05-2.37297E-05-2.46328E-05 1.73747E-18 2.10503E-18
 -1       776 8.21142E-05-2.03078E-05-2.64610E-05-1.93657E-05-1.31828E-20 3.37848E-19
 -1       777 9.58626E-05-2.73605E-05-2.93580E-05 1.71598E-07 8.53756E-19-1.54942E-19
 -1       778 9.57082E-05-2.62673E-05-2.97604E-05 1.21891E-06 8.41796E-19-1.87764E-19
 -1       779 9.56898E-05-2.88795E-05-2.86330E-05-1.06405E-06 1.54821E-19 1.40055E-19
 -1       780 9.57676E-05-2.87452E-05-2.87239E-05-1.02420E-06 2.05416E-20 2.60577E-19
 -1       781 9.55433E-05-2.89300E-05-2.85486E-05-9.48381E-07 3.83726E-19-3.57184E-19
 -1       782 9.54798E-05-2.88903E-05-2.85384E-05-8.58539E-07 4.21520E-19-6.29899E-19
 -1       783 9.54230E-05-2.88250E-05-2.85420E-05-7.76277E-07 2.73201E-19-7.02131E-19
 -1       784 9.53718E-05-2.87411E-05-2.85560E-05-7.15988E-07 5.19786E-19 3.07243E-19
 -1       785 9.53246E-05-2.86428E-05-2.85779E-05-6.88571E-07 2.80768E-19 1.18487E-19
 -1       786 9.52796E-05-2.85321E-05-2.86060E-05-7.02813E-07 4.71612E-19-1.04405E-19
 -1       787 9.52355E-05-2.84104E-05-2.86393E-05-7.66244E-07-1.45595E-19 3.33990E-19
 -1       788 9.51918E-05-2.82792E-05-2.86768E-05-8.85628E-07-2.76780E-19 2.32270E-19
 -1       789 9.51500E-05-2.81425E-05-2.87175E-05-1.06696E-06-8.09395E-20 1.43906E-18
 -1       790 9.51144E-05-2.80075E-05-2.87600E-05-1.31493E-06-7.00180E-20 8.89267E-19
 -1       791 9.50941E-05-2.78882E-05-2.88025E-05-1.63186E-06-4.75283E-19 4.54160E-19
 -1       792 9.51058E-05-2.78074E-05-2.88421E-05-2.01577E-06 9.06746E-20-2.12428E-19
 -1       793 9.51770E-05-2.78004E-05-2.88756E-05-2.45761E-06-6.46439E-19-3.70609E-19
 -1       794 9.53500E-05-2.79183E-05-2.88992E-05-2.93732E-06 6.92298E-20 4.08427E-19
 -1       795 9.56862E-05-2.82299E-05-2.89098E-05-3.41823E-06-5.74369E-19 1.94209E-19
 -1       796 9.62692E-05-2.88201E-05-2.89068E-05-3.83959E-06 4.57041E-19 6.74511E-19
 -1       797 9.72026E-05-2.97811E-05-2.88951E-05-4.10673E-06 5.11184E-20 4.93619E-19
 -1       798 9.85984E-05-3.11890E-05-2.88902E-05-4.07944E-06-5.84180E-19 2.85703E-19
 -1       799 1.00544E-04-3.30553E-05-2.89245E-05-3.56245E-06-1.47273E-18 2.38283E-19
 -1       800 1.03036E-04-3.52457E-05-2.90541E-05-2.31058E-06-3.13860E-19 8.56472E-19
 -1       801 1.05875E-04-3.73618E-05-2.93621E-05-8.02413E-08 8.35273E-19 9.03015E-19
 -1       802 1.08517E-04-3.86159E-05-2.99581E-05 3.21285E-06 2.22873E-19 2.31863E-18
 -1       803 1.10136E-04-3.79930E-05-3.09263E-05 7.19683E-06 9.50417E-19 1.45576E-18
 -1       804 1.09742E-04-3.44806E-05-3.22599E-05 1.06246E-05 6.20170E-19-4.18934E-19
 -1       805 1.07115E-04-2.84223E-05-3.37047E-05 1.14655E-05-1.62298E-19 1.38634E-18
 -1       806 1.03418E-04-2.18671E-05-3.49625E-05 8.24532E-06-2.78909E-19 8.44358E-19
 -1       807 1.01640E-04-1.89036E-05-3.55046E-05 1.54451E-06-6.76731E-19 3.86720E-19
 -1       808 1.03474E-04-2.17568E-05-3.50463E-05-5.49957E-06 4.00835E-19-1.05295E-18
 -1       809 1.07112E-04-2.81810E-05-3.38261E-05-9.02183E-06-5.88489E-19-1.02117E-19
 -1       810 1.09879E-04-3.44003E-05-3.23530E-05-8.27830E-06-1.09316E-19 2.37618E-18
 -1       811 1.10484E-04-3.81045E-05-3.10188E-05-4.78795E-06 6.91738E-19 2.25438E-18
 -1       812 1.08807E-04-3.85862E-05-3.00994E-05-6.75973E-07 9.85499E-19 2.78958E-19
 -1       813 1.05940E-04-3.68898E-05-2.95930E-05 2.61546E-06 3.67902E-19 1.51437E-19
 -1       814 1.03297E-04-3.46496E-05-2.94265E-05 4.22080E-06 1.14587E-19-1.36962E-18
 -1       815 7.34114E-05-1.49808E-05-2.49946E-05 4.36973E-06 1.34778E-18 7.65179E-19
 -1       816 5.31602E-05-1.42345E-05-1.63454E-05-1.42639E-05-4.88225E-19-2.93243E-18
 -1       817 7.33683E-05-1.46151E-05-2.51680E-05-7.35723E-06 1.64314E-19-1.03039E-18
 -1       818 7.95779E-05-1.99954E-05-2.54806E-05 1.40099E-05 1.14221E-18 2.74202E-18
 -1       819 6.46901E-05-2.29993E-05-1.75415E-05-2.76106E-05 1.62366E-19 1.26176E-18
 -1       820 8.89491E-05-3.70300E-05-2.20136E-05-3.23568E-05 8.47959E-20 7.73672E-19
 -1       821 5.49400E-05-1.52970E-05-1.67393E-05 1.55188E-05 6.09520E-19 3.14172E-18
 -1       822 8.94468E-05-2.73421E-05-2.66303E-05 1.85494E-05-2.70796E-19 1.26507E-18
 -1       823 9.56137E-05-2.89323E-05-2.85778E-05-1.02606E-06 5.39355E-20 4.24383E-19
 -1       824 1.10449E-04-1.23814E-05-4.23123E-05 3.76782E-06-5.63965E-19 7.82314E-19
 -1       825 9.49693E-05-2.36113E-05-3.05820E-05-3.31415E-06-3.09558E-19-8.57988E-19
 -1       826 4.85397E-05-1.22763E-05-1.52152E-05-1.37954E-05 1.14138E-18-2.94762E-18
 -1       827 1.11129E-04-5.09873E-05-2.56929E-05-2.44774E-05-2.59184E-18 5.42766E-19
 -1       828 1.14362E-04-1.60836E-05-4.24114E-05-8.82824E-06 4.07105E-20 1.36233E-18
 -1       829 6.37963E-05-2.33779E-05-1.70593E-05-2.98339E-05-1.29450E-19-2.39385E-18
 -1       830 1.26950E-04-4.28209E-05-3.61988E-05 9.94445E-06 9.26939E-19 3.92367E-18
 -1       831 9.32036E-05-1.97768E-05-3.14698E-05 1.23418E-06 7.92968E-19-6.45401E-19
 -1       832 9.78448E-05-3.28602E-05-2.78439E-05 1.76513E-05 2.69028E-20-1.79389E-18
 -1       833 1.15649E-04-2.27716E-05-4.00274E-05 1.36362E-05 6.47689E-19 1.13492E-18
 -1       834 1.22175E-04-5.69359E-05-2.79499E-05 2.10689E-05 2.32471E-20 1.01971E-18
 -1       835 1.16157E-04-2.55168E-05-3.89799E-05-1.18466E-05-1.37511E-19 1.71203E-18
 -1       836 1.25515E-04-4.37045E-05-3.52008E-05-7.41453E-06 2.66594E-19-1.07565E-18
 -1       837 4.90737E-05-1.06608E-05-1.61531E-05-1.86924E-06 8.86233E-19-2.07121E-18
 -1       838 6.82721E-05-2.18595E-05-1.97269E-05 2.33889E-05-5.28635E-19 2.32248E-18
 -1       839 9.40078E-05-2.13353E-05-3.11475E-05 3.30164E-06 1.20612E-18-4.51204E-19
 -1       840 9.58817E-05-2.80574E-05-2.90676E-05-4.85022E-07 7.69883E-19-6.36291E-20
 -1       841 9.30948E-05-1.95790E-05-3.15079E-05 2.02939E-08 6.63605E-19-1.00097E-18
 -1       842 9.58377E-05-2.84903E-05-2.88632E-05-8.54311E-07 5.78616E-19 3.19916E-19
 -1       843 5.79523E-05-1.24017E-05-1.93149E-05 8.57677E-08 1.24236E-18-1.32534E-19
 -1       844 1.02888E-04-3.58013E-05-2.87432E-05 1.38853E-05 1.42569E-18-1.82866E-18
 -1       845 9.40045E-05-2.13109E-05-3.11537E-05-3.27903E-06-8.81638E-20-1.00896E-18
 -1       846 9.52810E-05-2.45567E-05-3.03086E-05 2.76331E-06 9.64711E-19-1.24529E-19
 -1       847 1.04719E-04-3.64152E-05-2.92663E-05 9.20965E-06 1.79198E-18 6.45516E-19
 -1       848 1.19626E-04-5.27241E-05-2.86696E-05-1.33757E-05-2.16366E-18 2.80548E-18
 -1       849 9.35133E-05-2.03577E-05-3.13543E-05 2.35646E-06 1.06349E-18-3.78106E-19
 -1       850 9.34980E-05-2.03278E-05-3.13597E-05-2.32660E-06 2.85745E-19-1.01269E-18
 -1       851 5.82267E-05-1.36582E-05-1.88545E-05 1.20762E-05 1.87769E-18 1.11755E-18
 -1       852 9.62009E-05-2.69956E-05-2.96594E-05-2.88028E-07-8.44939E-20-4.82891E-19
 -1       853 9.63659E-05-2.79231E-05-2.93327E-05 2.91907E-07-1.05593E-19-4.41848E-19
 -1       854 9.63862E-05-2.85124E-05-2.90888E-05 6.38663E-07-2.29759E-19-4.29687E-19
 -1       855 9.63218E-05-2.88630E-05-2.89109E-05 8.13826E-07 2.41388E-19-6.07554E-19
 -1       856 9.62060E-05-2.90524E-05-2.87801E-05 8.73290E-07 3.12821E-19-2.44971E-19
 -1       857 9.60752E-05-2.91162E-05-2.86968E-05 8.57290E-07-2.22815E-19 7.99180E-21
 -1       858 9.59397E-05-2.91037E-05-2.86440E-05 8.04520E-07-9.34317E-19 3.51812E-19
 -1       859 9.58066E-05-2.90386E-05-2.86148E-05 7.39349E-07-5.78395E-19 2.90088E-19
 -1       860 9.56783E-05-2.89364E-05-2.86037E-05 6.79768E-07-7.22965E-19 4.88870E-19
 -1       861 9.55537E-05-2.88054E-05-2.86064E-05 6.39209E-07 5.24305E-19 5.23130E-19
 -1       862 9.54286E-05-2.86484E-05-2.86201E-05 6.28107E-07 3.77179E-19 6.49030E-19
 -1       863 9.52959E-05-2.84635E-05-2.86425E-05 6.55097E-07 8.19975E-20 1.06463E-18
 -1       864 9.51459E-05-2.82452E-05-2.86717E-05 7.27840E-07 4.88367E-19 1.53216E-18
 -1       865 9.49652E-05-2.79840E-05-2.87062E-05 8.53478E-07 8.20459E-19 1.59408E-18
 -1       866 9.47364E-05-2.76669E-05-2.87440E-05 1.03866E-06-1.55494E-20 1.20539E-18
 -1       867 9.44361E-05-2.72772E-05-2.87824E-05 1.28910E-06-4.77626E-19 4.48064E-19
 -1       868 9.40341E-05-2.67945E-05-2.88170E-05 1.60893E-06-6.62110E-19 3.28820E-19
 -1       869 9.34560E-05-2.61598E-05-2.88412E-05 2.01930E-06-3.33048E-19 3.29476E-19
 -1       870 9.26981E-05-2.54029E-05-2.88408E-05 2.47593E-06-7.75499E-19 2.93259E-19
 -1       871 9.16662E-05-2.44679E-05-2.87993E-05 2.98360E-06-2.02475E-19 8.91423E-19
 -1       872 9.02637E-05-2.33253E-05-2.86879E-05 3.51955E-06-2.90666E-19 9.66746E-19
 -1       873 8.83679E-05-2.19548E-05-2.84630E-05 4.05371E-06 8.46565E-20 6.69759E-19
 -1       874 8.58211E-05-2.03552E-05-2.80576E-05 4.55839E-06-2.50694E-19-1.39787E-19
 -1       875 8.24173E-05-1.85600E-05-2.73692E-05 5.03575E-06 1.28294E-19 1.40666E-19
 -1       876 7.78749E-05-1.66555E-05-2.62368E-05 5.56991E-06 1.09778E-19-1.11402E-18
 -1       877 7.17290E-05-1.47932E-05-2.43850E-05 6.41478E-06 9.98868E-19-2.06618E-20
 -1       878 9.59858E-05-2.63252E-05-2.98549E-05 7.65945E-07 7.34844E-19-2.63672E-19
 -1       879 9.57153E-05-2.89848E-05-2.85988E-05-7.33686E-07 3.12484E-19 2.38150E-19
 -1       880 9.58393E-05-2.90611E-05-2.86192E-05-8.02524E-07 3.53397E-19 2.00330E-19
 -1       881 9.54827E-05-2.87483E-05-2.86005E-05-6.41967E-07 4.43156E-19-3.36661E-19
 -1       882 9.53698E-05-2.85993E-05-2.86159E-05-6.41242E-07 4.36960E-19-2.43646E-19
 -1       883 9.52544E-05-2.84326E-05-2.86379E-05-6.82279E-07-1.46133E-19 9.43212E-19
 -1       884 9.51326E-05-2.82491E-05-2.86643E-05-7.72898E-07-3.80818E-19 6.65620E-19
 -1       885 9.50013E-05-2.80505E-05-2.86932E-05-9.20865E-07-7.86895E-19 6.04059E-19
 -1       886 9.48599E-05-2.78415E-05-2.87222E-05-1.13401E-06 1.47790E-19 7.59525E-19
 -1       887 9.47120E-05-2.76323E-05-2.87484E-05-1.42002E-06 2.09628E-19 5.02221E-19
 -1       888 9.45681E-05-2.74421E-05-2.87683E-05-1.78584E-06-1.91953E-19-2.91472E-19
 -1       889 9.44499E-05-2.73026E-05-2.87774E-05-2.23634E-06-2.39303E-20 4.01319E-19
 -1       890 9.43950E-05-2.72627E-05-2.87710E-05-2.77220E-06-7.43566E-19-5.09338E-20
 -1       891 9.44635E-05-2.73932E-05-2.87444E-05-3.38627E-06-7.33346E-19 1.40199E-18
 -1       892 9.47447E-05-2.77897E-05-2.86950E-05-4.05737E-06-3.22319E-19 4.71945E-19
 -1       893 9.53638E-05-2.85720E-05-2.86250E-05-4.73998E-06-3.96013E-19 9.83541E-19
 -1       894 9.64831E-05-2.98745E-05-2.85467E-05-5.34711E-06-4.13828E-19 2.33762E-18
 -1       895 9.82923E-05-3.18175E-05-2.84898E-05-5.72289E-06-3.79426E-19 1.79895E-18
 -1       896 1.00967E-04-3.44417E-05-2.85120E-05-5.60802E-06-1.31665E-18 8.31157E-19
 -1       897 1.04583E-04-3.75884E-05-2.87122E-05-4.59291E-06-2.84538E-19 9.21999E-19
 -1       898 1.08904E-04-4.06976E-05-2.92331E-05-2.15782E-06-2.91862E-20 1.60528E-18
 -1       899 1.12946E-04-4.22381E-05-3.03235E-05 1.92951E-06 7.74354E-19 5.66075E-19
 -1       900 1.15966E-04-4.10226E-05-3.21080E-05 7.52373E-06 9.90923E-19 2.27500E-18
 -1       901 1.15152E-04-3.46998E-05-3.45102E-05 1.23311E-05-8.32011E-20 3.29140E-18
 -1       902 1.16909E-04-4.13921E-05-3.24016E-05-5.59350E-06-1.00036E-18-8.31256E-19
 -1       903 1.14580E-04-4.29083E-05-3.07258E-05 2.78556E-07 7.28708E-19 5.13663E-20
 -1       904 1.10257E-04-4.08482E-05-2.97449E-05 4.78292E-06 1.68389E-20 2.02060E-18
 -1       905 9.54152E-05-2.46040E-05-3.03482E-05 1.88527E-06 8.81668E-19-3.96860E-19
 -1       906 6.45910E-05-1.56752E-05-2.07073E-05-1.58525E-05 9.90102E-19-2.21772E-18
 -1       907 9.48209E-05-2.31026E-05-3.07330E-05 2.59736E-06 9.38962E-19-3.24489E-19
 -1       908 9.67417E-05-3.57157E-05-2.61145E-05 2.25338E-05-6.81557E-19-4.93498E-19
 -1       909 6.34066E-05-1.71437E-05-1.96944E-05-1.80583E-05 9.84004E-19-3.33883E-19
 -1       910 8.88127E-05-3.54792E-05-2.27473E-05 2.99296E-05 3.63304E-19 3.82721E-18
 -1       911 1.22960E-04-4.83884E-05-3.19720E-05 1.48821E-06-6.26043E-19 3.32787E-18
 -1       912 9.31946E-05-1.97621E-05-3.14723E-05-1.19329E-06 4.90815E-19-8.34218E-19
 -1       913 9.55968E-05-2.88780E-05-2.85938E-05-6.76063E-07-1.12936E-19 1.33268E-19
 -1       914 9.57979E-05-2.56043E-05-3.00846E-05-1.18239E-06-7.80595E-20-7.79407E-19
 -1       915 9.45095E-05-2.24409E-05-3.08856E-05-3.38582E-06-1.61206E-19-8.73389E-19
 -1       916 9.62125E-05-2.89383E-05-2.88318E-05-8.81112E-07 2.69349E-19 3.99794E-19
 -1       917 1.22401E-04-5.15279E-05-3.03538E-05 8.31514E-06-1.16741E-18-3.45859E-18
 -1       918 7.93022E-05-2.88036E-05-2.15509E-05-2.65169E-05-2.12552E-18 2.52330E-19
 -1       919 9.91862E-05-4.13976E-05-2.47112E-05-2.41106E-05-1.75435E-18-6.36032E-19
 -1       920 1.11739E-04-4.88060E-05-2.69043E-05 2.25251E-05 4.08055E-19 9.24672E-20
 -1       921 9.62487E-05-2.74703E-05-2.94765E-05-4.12918E-09 6.47176E-19-3.46162E-20
 -1       922 6.56801E-05-1.38192E-05-2.21684E-05 8.34959E-06 1.59587E-18 7.05883E-19
 -1       923 7.05432E-05-1.59830E-05-2.33094E-05-1.46527E-05 1.13665E-19-2.82595E-18
 -1       924 9.45426E-05-2.22701E-05-3.09739E-05 4.30334E-07 5.61493E-19-7.68098E-19
 -1       925 9.63000E-05-2.86760E-05-2.89817E-05-7.61235E-07 3.75371E-19 5.08962E-19
 -1       926 9.60956E-05-2.90631E-05-2.87282E-05-9.02599E-07 8.33766E-20-1.20876E-19
 -1       927 1.15392E-04-3.44183E-05-3.47422E-05-1.00420E-05-1.57858E-18-1.06570E-18
 -1       928 9.49419E-05-2.32506E-05-3.07222E-05-1.85680E-06-4.89584E-20-6.38336E-19
 -1       929 1.05820E-04-4.06634E-05-2.79235E-05 1.74956E-05-6.79890E-19-3.30047E-18
 -1       930 9.46921E-05-2.26113E-05-3.08910E-05 1.22315E-06 7.49885E-19-2.69086E-19
 -1       931 6.00047E-05-1.34460E-05-1.98319E-05-1.01333E-05 1.47017E-18-2.16355E-18
 -1       932 1.09834E-04-4.20627E-05-2.90593E-05 1.10947E-05 1.59290E-19-1.31062E-18
 -1       933 1.08568E-04-4.60545E-05-2.67957E-05-1.74523E-05-6.74716E-19 9.37718E-19
 -1       934 9.59677E-05-2.90940E-05-2.86602E-05-8.66237E-07 4.14974E-19-1.50857E-19
 -1       935 9.52504E-05-2.42129E-05-3.04467E-05-2.13308E-06-3.06950E-19-7.80478E-19
 -1       936 9.64885E-05-2.72377E-05-2.96788E-05-5.98022E-08-6.85386E-20-4.25312E-19
 -1       937 9.66709E-05-2.81414E-05-2.93696E-05 3.12859E-07-1.54985E-19-4.08200E-19
 -1       938 9.66885E-05-2.87103E-05-2.91336E-05 5.31471E-07-2.42967E-20-1.92972E-19
 -1       939 9.65999E-05-2.90473E-05-2.89511E-05 6.38656E-07 4.11093E-19-4.84668E-19
 -1       940 9.64582E-05-2.91955E-05-2.88269E-05 6.63767E-07 2.87098E-19-6.16612E-19
 -1       941 9.62904E-05-2.92287E-05-2.87407E-05 6.44838E-07-3.57678E-19-3.75323E-19
 -1       942 9.61131E-05-2.91822E-05-2.86846E-05 6.04452E-07-7.01126E-20 7.98055E-19
 -1       943 9.59351E-05-2.90805E-05-2.86520E-05 5.59781E-07-3.07412E-19 1.63322E-18
 -1       944 9.57589E-05-2.89383E-05-2.86374E-05 5.23438E-07 1.59088E-19 2.09533E-18
 -1       945 9.55821E-05-2.87628E-05-2.86368E-05 5.04861E-07 6.21161E-19 2.32120E-18
 -1       946 9.53981E-05-2.85554E-05-2.86469E-05 5.11203E-07 2.77514E-19 1.82769E-18
 -1       947 9.51967E-05-2.83123E-05-2.86647E-05 5.48063E-07 5.71928E-19 1.78924E-18
 -1       948 9.49642E-05-2.80260E-05-2.86878E-05 6.19679E-07 6.75702E-19 1.61929E-18
 -1       949 9.46823E-05-2.76850E-05-2.87131E-05 7.28765E-07 1.95577E-20 1.25741E-18
 -1       950 9.43282E-05-2.72748E-05-2.87372E-05 8.75788E-07-7.97639E-19 1.09446E-18
 -1       951 9.38729E-05-2.67781E-05-2.87549E-05 1.05809E-06-9.36053E-19 1.10270E-18
 -1       952 9.32443E-05-2.61411E-05-2.87585E-05 1.27734E-06-5.71772E-19 8.02406E-19
 -1       953 9.24515E-05-2.54006E-05-2.87361E-05 1.49491E-06-6.65164E-19 9.52791E-19
 -1       954 9.14092E-05-2.45082E-05-2.86719E-05 1.69210E-06-3.62560E-19 9.53550E-19
 -1       955 9.00384E-05-2.34427E-05-2.85411E-05 1.82368E-06-8.46926E-19 9.68397E-20
 -1       956 8.82391E-05-2.21892E-05-2.83073E-05 1.82598E-06 3.83154E-20-5.02413E-19
 -1       957 8.58799E-05-2.07429E-05-2.79164E-05 1.61533E-06-4.35322E-19-9.30988E-19
 -1       958 8.27799E-05-1.91117E-05-2.72878E-05 1.09077E-06 2.11465E-19 3.93968E-20
 -1       959 7.86629E-05-1.73115E-05-2.62956E-05 1.55397E-07-1.79492E-19-2.12746E-19
 -1       960 7.31109E-05-1.53764E-05-2.47255E-05-1.33434E-06 2.00001E-19-1.09725E-19
 -1       961 9.63281E-05-2.82150E-05-2.91913E-05-4.90289E-07 4.12489E-19 2.73518E-19
 -1       962 1.16628E-04-4.79236E-05-2.94397E-05-6.19793E-06-2.24566E-19 2.27483E-18
 -1       963 9.53315E-05-2.84993E-05-2.86424E-05-5.44585E-07-5.15870E-19 8.58810E-19
 -1       964 9.55040E-05-2.86984E-05-2.86310E-05-5.23766E-07 3.71116E-19 6.22533E-19
 -1       965 9.49480E-05-2.80296E-05-2.86793E-05-7.11346E-07-6.41792E-19 1.18699E-18
 -1       966 9.47245E-05-2.77601E-05-2.86990E-05-8.74841E-07-2.84230E-19 5.67814E-19
 -1       967 9.44749E-05-2.74735E-05-2.87149E-05-1.10564E-06 4.24852E-19 4.73885E-19
 -1       968 9.42014E-05-2.71821E-05-2.87226E-05-1.41654E-06 2.98646E-19 5.02280E-19
 -1       969 9.39150E-05-2.69094E-05-2.87167E-05-1.82253E-06-2.12373E-19 5.04949E-19
 -1       970 9.36401E-05-2.66948E-05-2.86909E-05-2.34054E-06-3.67066E-19 6.91837E-19
 -1       971 9.34218E-05-2.65989E-05-2.86384E-05-2.98854E-06-1.37975E-18 1.20332E-18
 -1       972 9.33339E-05-2.67105E-05-2.85529E-05-3.78273E-06 9.81062E-20 7.11690E-19
 -1       973 9.34905E-05-2.71514E-05-2.84310E-05-4.73123E-06-5.72035E-19 1.22540E-18
 -1       974 9.40571E-05-2.80799E-05-2.82760E-05-5.82081E-06-1.35281E-18 8.21209E-19
 -1       975 9.52627E-05-2.96853E-05-2.81051E-05-6.99213E-06-3.41983E-19 2.29290E-18
 -1       976 9.74071E-05-3.21674E-05-2.79611E-05-8.08591E-06-2.40519E-19 2.92592E-18
 -1       977 1.00799E-04-3.56379E-05-2.79282E-05-8.78888E-06-7.96468E-19 1.79580E-18
 -1       978 1.05837E-04-4.00676E-05-2.81829E-05-8.42133E-06 1.86190E-19 1.14308E-18
 -1       979 7.50686E-05-2.17710E-05-2.28398E-05-1.77985E-05-1.21431E-18 2.47586E-18
 -1       980 9.56648E-05-2.49147E-05-3.03216E-05 1.13559E-06 8.43717E-19-2.78991E-19
 -1       981 9.60923E-05-2.59306E-05-3.00694E-05-6.34489E-07 1.76109E-19-2.51104E-19
 -1       982 9.47003E-05-2.26173E-05-3.08921E-05-1.20823E-06 2.89571E-19-6.48182E-19
 -1       983 8.92634E-05-3.19079E-05-2.45479E-05-2.05804E-05-2.27174E-19-2.20440E-18
 -1       984 9.47090E-05-2.27348E-05-3.08444E-05 1.93956E-06 8.49352E-19-4.15234E-19
 -1       985 9.45445E-05-2.22690E-05-3.09747E-05-4.14682E-07 3.16595E-19-9.35141E-19
 -1       986 1.15373E-04-4.68444E-05-2.93882E-05 1.05229E-05-1.58289E-18-3.82396E-18
 -1       987 9.51485E-05-2.82765E-05-2.86594E-05-6.04350E-07-2.52390E-19 9.17268E-19
 -1       988 9.60121E-05-2.91341E-05-2.86620E-05-6.14042E-07 3.42263E-19 2.54305E-19
 -1       989 9.78277E-05-3.75221E-05-2.58304E-05-1.84418E-05 1.93291E-19-1.84206E-18
 -1       990 6.69411E-05-1.35768E-05-2.28325E-05-2.31289E-06 1.09155E-18-1.79508E-18
 -1       991 9.66163E-05-2.88626E-05-2.90373E-05-6.20616E-07 2.29107E-19 9.33999E-20
 -1       992 7.09322E-05-1.80015E-05-2.26308E-05-1.35180E-05-5.89239E-19 2.36566E-18
 -1       993 9.58408E-05-2.90207E-05-2.86372E-05-5.67457E-07 7.25334E-20 6.25442E-19
 -1       994 6.05547E-05-1.21236E-05-2.06478E-05 5.60411E-08 2.12617E-18-1.69954E-18
 -1       995 9.61853E-05-2.92013E-05-2.87074E-05-6.61647E-07 1.36977E-19 1.63436E-19
 -1       996 9.56721E-05-2.88731E-05-2.86282E-05-5.34196E-07 3.76912E-19 6.60597E-19
 -1       997 9.65055E-05-2.91034E-05-2.88866E-05-6.90085E-07 4.71524E-19 1.71611E-19
 -1       998 9.62789E-05-2.65785E-05-2.98723E-05 3.90029E-07 5.65554E-19-9.85428E-20
 -1       999 9.55631E-05-2.43357E-05-3.05254E-05 9.39396E-09 2.49595E-19-6.88374E-19
 -1      1000 9.56274E-05-2.44997E-05-3.04837E-05 5.01278E-07 4.74399E-19-2.06198E-19
 -1      1001 9.68843E-05-2.84036E-05-2.93488E-05 2.57754E-07 1.75087E-19 3.67262E-20
 -1      1002 9.68687E-05-2.89279E-05-2.91176E-05 3.72027E-07 6.12527E-20 1.99227E-19
 -1      1003 9.67514E-05-2.91894E-05-2.89551E-05 4.17015E-07 4.31245E-19 2.01517E-19
 -1      1004 9.65798E-05-2.92932E-05-2.88371E-05 4.22597E-07 2.17741E-19 5.49743E-19
 -1      1005 9.63818E-05-2.92869E-05-2.87550E-05 4.05939E-07 4.28533E-19 1.62188E-18
 -1      1006 9.61737E-05-2.92040E-05-2.87013E-05 3.80235E-07 5.51665E-19 1.63299E-18
 -1      1007 9.59630E-05-2.90666E-05-2.86699E-05 3.55173E-07 4.04722E-19 2.00393E-18
 -1      1008 9.57510E-05-2.88878E-05-2.86557E-05 3.37790E-07 2.68779E-19 1.46882E-18
 -1      1009 9.55333E-05-2.86730E-05-2.86544E-05 3.33094E-07-6.87676E-20 6.04769E-19
 -1      1010 9.53011E-05-2.84216E-05-2.86627E-05 3.44414E-07 5.17434E-19 7.05638E-19
 -1      1011 9.50415E-05-2.81286E-05-2.86770E-05 3.73477E-07 1.34320E-19 9.07901E-19
 -1      1012 9.47380E-05-2.77855E-05-2.86940E-05 4.20049E-07 1.90205E-19 6.52829E-19
 -1      1013 9.43699E-05-2.73808E-05-2.87097E-05 4.81075E-07-3.17231E-19 2.48531E-19
 -1      1014 9.39124E-05-2.69015E-05-2.87190E-05 5.49856E-07-8.80006E-19 3.18702E-19
 -1      1015 9.33020E-05-2.63023E-05-2.87142E-05 6.14804E-07-1.38501E-18 5.79500E-19
 -1      1016 9.25583E-05-2.56257E-05-2.86855E-05 6.45830E-07-3.96958E-19 3.10214E-19
 -1      1017 9.16131E-05-2.48355E-05-2.86191E-05 6.10664E-07-8.29866E-19 8.68158E-19
 -1      1018 9.04142E-05-2.39260E-05-2.84951E-05 4.54287E-07-8.47429E-19 3.49585E-19
 -1      1019 8.88994E-05-2.29008E-05-2.82854E-05 9.83087E-08-1.17535E-18 6.40095E-19
 -1      1020 8.69938E-05-2.17779E-05-2.79501E-05-5.65894E-07-2.09185E-19 1.43186E-19
 -1      1021 8.46032E-05-2.05959E-05-2.74325E-05-1.68435E-06 8.62191E-19-2.18894E-19
 -1      1022 8.16181E-05-1.94319E-05-2.66514E-05-3.46563E-06 4.36088E-19 4.82514E-19
 -1      1023 7.75744E-05-1.81382E-05-2.54676E-05-6.08190E-06 3.40324E-19 1.07190E-18
 -1      1024 9.40199E-05-2.70539E-05-2.86998E-05-9.63275E-07 1.06624E-19 7.10727E-19
 -1      1025 9.54504E-05-2.85995E-05-2.86504E-05-3.67775E-07-6.14303E-20 7.01869E-19
 -1      1026 9.43847E-05-2.74238E-05-2.86976E-05-7.34186E-07 2.04758E-19 2.86778E-19
 -1      1027 9.47025E-05-2.77662E-05-2.86870E-05-5.73212E-07-3.68505E-19 3.88113E-19
 -1      1028 9.36067E-05-2.66692E-05-2.86875E-05-1.28048E-06-5.05158E-19 9.48039E-19
 -1      1029 9.31527E-05-2.62950E-05-2.86534E-05-1.71168E-06-1.28756E-19 1.10621E-18
 -1      1030 9.26802E-05-2.59741E-05-2.85884E-05-2.29063E-06-1.20745E-18 1.10403E-18
 -1      1031 9.22337E-05-2.57744E-05-2.84826E-05-3.05951E-06-4.31916E-19-3.77205E-19
 -1      1032 9.18906E-05-2.57965E-05-2.83261E-05-4.06832E-06-6.70868E-19 1.09936E-18
 -1      1033 9.17767E-05-2.61841E-05-2.81111E-05-5.37021E-06-7.54245E-19 1.53085E-18
 -1      1034 9.20880E-05-2.71342E-05-2.78375E-05-7.00620E-06-8.95266E-19 8.82594E-19
 -1      1035 9.31016E-05-2.88920E-05-2.75212E-05-8.98079E-06-2.61070E-19 4.55100E-19
 -1      1036 9.53174E-05-3.18345E-05-2.72178E-05-1.11853E-05-3.22681E-19 7.88201E-19
 -1      1037 9.93323E-05-3.62173E-05-2.70269E-05-1.32273E-05-7.13315E-19 1.39678E-19
 -1      1038 9.58494E-05-2.50394E-05-3.03482E-05-4.43827E-07 1.39724E-19-7.67761E-19
 -1      1039 9.63543E-05-2.92016E-05-2.87798E-05-6.94246E-07 4.63017E-20 1.51567E-19
 -1      1040 9.66527E-05-2.84180E-05-2.92433E-05-4.48707E-07 3.42228E-19-1.23720E-19
 -1      1041 9.52258E-05-2.83534E-05-2.86596E-05-3.99988E-07-1.54625E-19 7.92839E-19
 -1      1042 9.64964E-05-2.66692E-05-2.99253E-05-1.26471E-07-1.69464E-20-7.48834E-19
 -1      1043 8.35140E-05-2.51143E-05-2.50245E-05-1.50689E-05 1.11553E-18-1.64745E-18
 -1      1044 9.49798E-05-2.80761E-05-2.86730E-05-4.65590E-07-4.49464E-19 2.25660E-19
 -1      1045 9.67841E-05-2.76978E-05-2.96085E-05 8.07017E-08 2.08634E-19-5.75105E-19
 -1      1046 9.00411E-05-3.00589E-05-2.56872E-05-1.59991E-05-4.88928E-20-1.70361E-18
 -1      1047 9.56625E-05-2.88152E-05-2.86489E-05-3.61826E-07 2.21151E-19 1.05543E-19
 -1      1048 9.62824E-05-2.92532E-05-2.87268E-05-4.29791E-07 4.96975E-20-7.18640E-19
 -1      1049 9.68684E-05-2.86457E-05-2.92382E-05-3.43477E-07 2.36940E-19 5.98224E-20
 -1      1050 9.60769E-05-2.91509E-05-2.86826E-05-3.99216E-07-4.26649E-19-6.28109E-19
 -1      1051 9.65617E-05-2.76865E-05-2.95177E-05-1.30919E-07 4.70907E-19-1.96706E-19
 -1      1052 9.63773E-05-2.62028E-05-3.00758E-05-4.84181E-09 2.98845E-19-4.74828E-19
 -1      1053 9.68053E-05-2.90380E-05-2.90432E-05-4.30928E-07 2.20838E-19-1.63246E-19
 -1      1054 7.26236E-05-1.70339E-05-2.37368E-05-8.94825E-06-2.29936E-19 1.82909E-18
 -1      1055 9.69348E-05-2.90959E-05-2.90738E-05 1.54298E-07 1.57822E-19 8.08175E-20
 -1      1056 9.67832E-05-2.92895E-05-2.89260E-05 1.65999E-07 5.51206E-19 1.89669E-19
 -1      1057 9.65849E-05-2.93379E-05-2.88201E-05 1.63306E-07 8.80514E-19 6.26335E-19
 -1      1058 9.63684E-05-2.92913E-05-2.87474E-05 1.56224E-07 5.09020E-19 8.53671E-19
 -1      1059 9.61406E-05-2.91736E-05-2.87002E-05 1.47293E-07 5.49399E-19 4.15844E-19
 -1      1060 9.59097E-05-2.90053E-05-2.86734E-05 1.38497E-07-2.88360E-19 4.75865E-19
 -1      1061 9.56758E-05-2.87968E-05-2.86624E-05 1.32500E-07-6.30722E-19-2.31905E-19
 -1      1062 9.54316E-05-2.85520E-05-2.86627E-05 1.30642E-07-2.93093E-20-5.76226E-19
 -1      1063 9.51655E-05-2.82677E-05-2.86705E-05 1.31845E-07 3.54245E-19-9.12406E-19
 -1      1064 9.48642E-05-2.79391E-05-2.86822E-05 1.33443E-07 3.70823E-20-6.21654E-19
 -1      1065 9.45103E-05-2.75582E-05-2.86938E-05 1.30448E-07-1.82460E-19-1.18470E-18
 -1      1066 9.40840E-05-2.71166E-05-2.87004E-05 1.13951E-07-9.11337E-19-1.05281E-18
 -1      1067 9.35334E-05-2.65781E-05-2.86952E-05 6.49330E-08-7.51763E-19-7.00390E-19
 -1      1068 9.28841E-05-2.59881E-05-2.86698E-05-3.61616E-08-8.41647E-19 4.36755E-19
 -1      1069 9.20873E-05-2.53235E-05-2.86133E-05-2.26640E-07-3.92957E-19 6.60990E-19
 -1      1070 9.11165E-05-2.45935E-05-2.85102E-05-5.59890E-07-5.87431E-19 1.18196E-18
 -1      1071 8.99475E-05-2.38220E-05-2.83400E-05-1.11143E-06-1.16585E-18 1.38616E-18
 -1      1072 8.85614E-05-2.30535E-05-2.80755E-05-1.98616E-06-1.20985E-18 1.14721E-18
 -1      1073 8.69487E-05-2.23629E-05-2.76804E-05-3.32684E-06-3.75148E-19 3.44062E-19
 -1      1074 8.51114E-05-2.18622E-05-2.71061E-05-5.32335E-06 6.15153E-19-1.39914E-18
 -1      1075 8.30054E-05-2.16989E-05-2.62787E-05-8.25749E-06 1.24960E-18-5.74503E-19
 -1      1076 9.29568E-05-2.61087E-05-2.86490E-05-9.89113E-07-2.53064E-19 7.10716E-19
 -1      1077 9.53420E-05-2.84641E-05-2.86619E-05-1.79104E-07 7.79907E-20 1.63065E-19
 -1      1078 9.35254E-05-2.66012E-05-2.86816E-05-6.92071E-07-3.56626E-20 6.02373E-19
 -1      1079 9.65893E-05-2.69553E-05-2.98428E-05 8.16810E-08 2.83016E-19 1.49186E-19
 -1      1080 9.58711E-05-2.90017E-05-2.86583E-05-3.74230E-07 1.47932E-19-4.00118E-19
 -1      1081 9.44227E-05-2.74773E-05-2.86908E-05-3.53156E-07-2.38246E-20-1.10569E-18
 -1      1082 9.23046E-05-2.56059E-05-2.85848E-05-1.41951E-06-3.56054E-19 8.68912E-19
 -1      1083 9.15797E-05-2.51336E-05-2.84764E-05-2.03638E-06-4.58596E-19 3.12811E-19
 -1      1084 9.08134E-05-2.47580E-05-2.83087E-05-2.91067E-06-1.21277E-18 7.52476E-19
 -1      1085 9.00676E-05-2.45815E-05-2.80644E-05-4.13410E-06-1.13323E-18 1.17339E-18
 -1      1086 8.94538E-05-2.47566E-05-2.77260E-05-5.82068E-06-6.35905E-19 1.92247E-18
 -1      1087 8.91758E-05-2.55195E-05-2.72803E-05-8.10374E-06 1.71725E-19 1.99827E-18
 -1      1088 8.95363E-05-2.71309E-05-2.67505E-05-1.09895E-05-1.96073E-19 4.80933E-19
 -1      1089 9.67641E-05-2.73441E-05-2.97518E-05 4.23158E-09 5.06446E-19-5.01680E-19
 -1      1090 9.50744E-05-2.81760E-05-2.86707E-05-2.09820E-07 2.32813E-19-5.25273E-20
 -1      1091 9.64836E-05-2.92896E-05-2.87974E-05-4.55031E-07 3.54218E-19-6.75392E-19
 -1      1092 9.69986E-05-2.86717E-05-2.92830E-05 1.20138E-07 2.05748E-19-2.33533E-19
 -1      1093 9.47726E-05-2.78484E-05-2.86818E-05-2.64691E-07-5.45565E-19-6.34115E-19
 -1      1094 9.66667E-05-2.92338E-05-2.88999E-05-4.60269E-07 3.26012E-19-1.24382E-19
 -1      1095 9.40111E-05-2.70606E-05-2.86929E-05-4.89186E-07-3.16675E-19-2.40942E-20
 -1      1096 9.55878E-05-2.87165E-05-2.86592E-05-1.65511E-07-2.90996E-19-8.45925E-20
 -1      1097 9.69499E-05-2.81252E-05-2.94956E-05 4.60234E-08 6.09967E-19-3.49105E-19
 -1      1098 9.68277E-05-2.79797E-05-2.95048E-05-1.57927E-07 5.52251E-19 4.11470E-19
 -1      1099 9.65005E-05-2.93276E-05-2.87884E-05-1.96589E-07 6.45088E-19-4.63084E-19
 -1      1100 9.62778E-05-2.92515E-05-2.87255E-05-1.85596E-07-3.05973E-20-9.40542E-19
 -1      1101 9.69775E-05-2.88686E-05-2.91897E-05-1.72209E-07 2.66572E-19-2.02664E-19
 -1      1102 9.67029E-05-2.93333E-05-2.88726E-05-9.97518E-08 1.00451E-18-2.30381E-19
 -1      1103 9.57990E-05-2.89093E-05-2.86670E-05-8.00135E-08-7.25532E-19-8.59661E-19
 -1      1104 9.69185E-05-2.80285E-05-2.95245E-05-6.61684E-08 6.30663E-19-6.14013E-19
 -1      1105 9.69752E-05-2.84113E-05-2.93855E-05-1.11653E-07 5.00034E-19-5.39566E-19
 -1      1106 9.60426E-05-2.91072E-05-2.86865E-05-1.28740E-07-6.20683E-20-1.19326E-18
 -1      1107 9.68765E-05-2.91817E-05-2.90118E-05-2.00898E-07 4.16559E-19-2.28471E-19
 -1      1108 1.16857E-04 2.57572E-10-4.18558E-05-4.14655E-05-2.20229E-19 3.09760E-18
 -1      1109 8.86507E-05 7.19198E-11-3.72512E-05-2.41677E-05-8.94679E-20-9.05266E-19
 -1      1110 8.40775E-05 4.14524E-11-3.57666E-05-1.78782E-05-4.90220E-20-2.27917E-18
 -1      1111 8.23340E-05 3.20226E-11-3.50726E-05-1.38363E-05-1.94818E-20-2.79018E-18
 -1      1112 8.15311E-05 2.73328E-11-3.47384E-05-1.05338E-05-7.00126E-21-2.88538E-18
 -1      1113 8.11294E-05 2.46100E-11-3.45732E-05-7.64070E-06 7.74241E-21-2.86169E-18
 -1      1114 8.09203E-05 2.29521E-11-3.44898E-05-4.97962E-06 1.36716E-20-2.68840E-18
 -1      1115 8.08183E-05 2.20573E-11-3.44506E-05-2.43204E-06 1.78671E-20-2.46066E-18
 -1      1116 8.07893E-05 2.17872E-11-3.44396E-05 5.25528E-08 2.09707E-20-2.22819E-18
 -1      1117 8.08226E-05 2.21020E-11-3.44520E-05 2.53972E-06 3.10672E-20-1.94863E-18
 -1      1118 8.09290E-05 2.30523E-11-3.44927E-05 5.09567E-06 4.44295E-20-1.60753E-18
 -1      1119 8.11445E-05 2.47673E-11-3.45773E-05 7.77271E-06 5.20131E-20-1.14943E-18
 -1      1120 8.15532E-05 2.76365E-11-3.47445E-05 1.06930E-05 5.82468E-20-4.33860E-19
 -1      1121 8.23594E-05 3.25083E-11-3.50823E-05 1.40425E-05 6.90332E-20 5.40023E-19
 -1      1122 8.40744E-05 4.19146E-11-3.57863E-05 1.81306E-05 7.85623E-20 2.10644E-18
 -1      1123 8.83469E-05 6.67432E-11-3.73219E-05 2.40102E-05 5.25160E-20 4.60998E-18
 -1      1124 1.06621E-04 1.63929E-10-4.06354E-05 3.61916E-05 2.45640E-20 8.78394E-18
 -1      1125 1.30224E-04-2.57571E-05-4.02743E-05-2.61059E-05-7.59789E-19 5.51334E-18
 -1      1126 9.74594E-05-2.88634E-05-3.15784E-05-6.80370E-07-2.80871E-19 3.80657E-18
 -1      1127 9.01613E-05-2.70270E-05-2.78937E-05 3.87001E-07-1.15607E-19 1.61582E-18
 -1      1128 8.82495E-05-2.65725E-05-2.66439E-05 2.50833E-07-9.87488E-20-1.39946E-19
 -1      1129 8.78904E-05-2.64455E-05-2.63873E-05 1.65920E-07-4.93000E-21-1.14964E-18
 -1      1130 8.82486E-05-2.65219E-05-2.64719E-05 1.18034E-07-3.85036E-20-1.43040E-18
 -1      1131 8.89333E-05-2.67059E-05-2.66740E-05 8.74024E-08-4.15327E-20-2.06480E-18
 -1      1132 8.97456E-05-2.69370E-05-2.69159E-05 6.61580E-08-5.37343E-20-2.49410E-18
 -1      1133 9.05755E-05-2.71788E-05-2.71633E-05 5.04282E-08-4.09073E-20-3.28728E-18
 -1      1134 9.13609E-05-2.74102E-05-2.73981E-05 3.82948E-08-7.00604E-20-3.60003E-18
 -1      1135 9.20689E-05-2.76202E-05-2.76105E-05 2.87395E-08-1.00776E-20-4.19175E-18
 -1      1136 9.26851E-05-2.78037E-05-2.77959E-05 2.11522E-08 9.93868E-21-4.12951E-18
 -1      1137 9.32073E-05-2.79598E-05-2.79536E-05 1.51711E-08-1.73827E-20-4.05435E-18
 -1      1138 9.36506E-05-2.80930E-05-2.80879E-05 1.08191E-08-3.78520E-20-5.00776E-18
 -1      1139 9.40134E-05-2.82020E-05-2.81981E-05 6.41193E-09-1.84222E-20-5.20700E-18
 -1      1140 9.43032E-05-2.82896E-05-2.82866E-05 3.56508E-09-1.66375E-20-5.28154E-18
 -1      1141 9.45471E-05-2.83636E-05-2.83614E-05 1.37289E-09-7.02041E-20-4.65552E-18
 -1      1142 9.47639E-05-2.84297E-05-2.84282E-05-2.33402E-10-6.73869E-20-5.35853E-18
 -1      1143 9.49752E-05-2.84943E-05-2.84936E-05-1.29733E-09-1.06768E-20-5.75226E-18
 -1      1144 9.52059E-05-2.85651E-05-2.85652E-05-1.80612E-09 1.34910E-19-5.60824E-18
 -1      1145 9.54857E-05-2.86509E-05-2.86521E-05-1.67040E-09 2.24247E-19-4.83108E-18
 -1      1146 9.58516E-05-2.87631E-05-2.87657E-05-6.93486E-10 1.17171E-19-4.71416E-18
 -1      1147 9.63502E-05-2.89156E-05-2.89203E-05 1.48062E-09 3.34785E-20-5.23290E-18
 -1      1148 9.70422E-05-2.91268E-05-2.91346E-05 5.45305E-09-9.80825E-20-6.12571E-18
 -1      1149 9.80075E-05-2.94209E-05-2.94334E-05 1.21654E-08 1.02270E-19-6.02341E-18
 -1      1150 9.93527E-05-2.98309E-05-2.98494E-05 2.29023E-08 4.38968E-20-2.59904E-18
 -1      1151 1.01274E-04-3.04113E-05-3.04441E-05 3.92846E-08-8.74925E-20-7.07319E-19
 -1      1152 1.03935E-04-3.12171E-05-3.12649E-05 7.19658E-08-1.10941E-20-1.50699E-18
 -1      1153 1.07485E-04-3.22871E-05-3.23575E-05 1.17864E-07 1.75021E-19-2.21069E-18
 -1      1154 1.12237E-04-3.37140E-05-3.38098E-05 1.86587E-07 3.98053E-19-2.83595E-18
 -1      1155 1.18414E-04-3.55617E-05-3.56725E-05 2.81958E-07-1.19279E-21-2.98860E-18
 -1      1156 1.26046E-04-3.78357E-05-3.79157E-05 3.94575E-07 4.02109E-19-3.23365E-18
 -1      1157 1.34622E-04-4.03805E-05-4.03195E-05 4.76711E-07 9.96835E-21-3.56601E-18
 -1      1158 1.42508E-04-4.27009E-05-4.23295E-05 4.01742E-07-4.30193E-19-6.38028E-18
 -1      1159 1.46355E-04-4.37880E-05-4.29930E-05-4.48291E-08-8.26122E-20-9.15314E-18
 -1      1160 1.41439E-04-4.22190E-05-4.12540E-05-1.02736E-06 3.71861E-19-5.85046E-18
 -1      1161 1.24717E-04-3.71610E-05-3.68274E-05-2.22255E-06-4.08554E-19-7.08416E-18
 -1      1162 1.00655E-04-3.00901E-05-3.11753E-05-2.47111E-06-4.26296E-20-6.35571E-18
 -1      1163 8.33337E-05-2.51079E-05-2.73753E-05-9.23506E-07 3.11126E-19-4.75514E-18
 -1      1164 8.32971E-05-2.51613E-05-2.72737E-05 1.20060E-06 5.86041E-20-4.31468E-18
 -1      1165 1.00162E-04-2.99280E-05-3.08844E-05 2.48372E-06-2.04757E-19-3.69433E-18
 -1      1166 1.22368E-04-3.64593E-05-3.60302E-05 2.08196E-06 3.85420E-19-3.13508E-18
 -1      1167 1.36546E-04-4.07623E-05-3.97830E-05 8.83573E-07 7.44727E-20-3.27304E-18
 -1      1168 1.38983E-04-4.15815E-05-4.08067E-05-6.32014E-08 2.10170E-20-5.11663E-18
 -1      1169 1.32920E-04-3.98311E-05-3.94671E-05-4.93978E-07 4.34925E-19-2.57307E-18
 -1      1170 1.22976E-04-3.68976E-05-3.68355E-05-5.80485E-07-2.36751E-19-4.75567E-18
 -1      1171 1.12483E-04-3.37863E-05-3.38913E-05-5.17083E-07-5.03956E-19-5.18178E-18
 -1      1172 1.03402E-04-3.10867E-05-3.13015E-05-3.84541E-07 1.25242E-19-2.53602E-18
 -1      1173 9.71090E-05-2.92179E-05-2.94636E-05-1.10051E-07-6.40909E-19-2.53907E-18
 -1      1174 9.50060E-05-2.87726E-05-2.84222E-05 4.15411E-07 3.32605E-19-3.39926E-18
 -1      1175 1.31059E-04-3.77395E-05-3.86608E-05 1.21743E-05-1.80021E-19 1.19271E-17
 -1      1176 9.65611E-05-2.81918E-05-3.13303E-05 8.01701E-07 1.74436E-20 1.09896E-17
 -1      1177 9.03718E-05-2.69345E-05-2.78708E-05 1.19560E-07 3.67467E-20 9.41684E-18
 -1      1178 8.83358E-05-2.65052E-05-2.66772E-05 7.22467E-09 1.28378E-21 8.67780E-18
 -1      1179 8.79330E-05-2.64138E-05-2.64139E-05-2.71978E-08-6.65384E-20 8.72640E-18
 -1      1180 8.82709E-05-2.65064E-05-2.64879E-05-3.49467E-08-1.77563E-20 8.45384E-18
 -1      1181 8.89465E-05-2.66994E-05-2.66843E-05-3.57019E-08 1.36332E-20 8.27514E-18
 -1      1182 8.97541E-05-2.69354E-05-2.69233E-05-3.36944E-08 3.87886E-21 7.93448E-18
 -1      1183 9.05814E-05-2.71798E-05-2.71690E-05-3.04753E-08-6.35676E-20 7.63091E-18
 -1      1184 9.13654E-05-2.74127E-05-2.74027E-05-2.66834E-08 1.94421E-19 6.64900E-18
 -1      1185 9.20730E-05-2.76236E-05-2.76143E-05-2.26968E-08 7.27368E-20 5.91387E-18
 -1      1186 9.26897E-05-2.78077E-05-2.77994E-05-1.87551E-08-5.86721E-20 5.78282E-18
 -1      1187 9.32132E-05-2.79643E-05-2.79570E-05-1.50019E-08 1.36236E-19 4.88097E-18
 -1      1188 9.36495E-05-2.80950E-05-2.80887E-05-1.15118E-08-1.10511E-19 4.69330E-18
 -1      1189 9.40094E-05-2.82030E-05-2.81978E-05-8.31102E-09-1.56636E-19 5.12612E-18
 -1      1190 9.43073E-05-2.82926E-05-2.82885E-05-5.39558E-09 7.54298E-20 4.67101E-18
 -1      1191 9.45600E-05-2.83687E-05-2.83657E-05-2.74772E-09-7.87103E-20 3.97353E-18
 -1      1192 9.47860E-05-2.84370E-05-2.84351E-05-3.52658E-10-9.92206E-22 4.49977E-18
 -1      1193 9.50057E-05-2.85035E-05-2.85028E-05 1.78386E-09-8.18654E-20 4.26583E-18
 -1      1194 9.52412E-05-2.85748E-05-2.85755E-05 3.61607E-09 5.21920E-21 4.88902E-18
 -1      1195 9.55161E-05-2.86580E-05-2.86602E-05 5.03601E-09-5.48353E-20 3.69190E-18
 -1      1196 9.58557E-05-2.87605E-05-2.87645E-05 5.84910E-09 1.51807E-19 2.31301E-18
 -1      1197 9.62856E-05-2.88899E-05-2.88960E-05 5.74976E-09-1.27512E-20 1.05706E-18
 -1      1198 9.68301E-05-2.90533E-05-2.90617E-05 4.30371E-09 1.59911E-20 6.75055E-19
 -1      1199 9.75083E-05-2.92563E-05-2.92667E-05 9.50794E-10 9.80416E-20 9.48922E-19
 -1      1200 9.83282E-05-2.95007E-05-2.95128E-05-4.94644E-09-1.04348E-19 1.61939E-18
 -1      1201 9.92781E-05-2.97829E-05-2.97951E-05-1.39671E-08 4.27074E-20 1.08396E-18
 -1      1202 1.00314E-04-3.00894E-05-3.00991E-05-2.63519E-08-3.07882E-19 5.62602E-19
 -1      1203 1.01347E-04-3.03931E-05-3.03959E-05-4.15189E-08-1.16463E-19 1.04061E-18
 -1      1204 1.02225E-04-3.06493E-05-3.06389E-05-5.73620E-08 3.89801E-20 2.79203E-19
 -1      1205 1.02728E-04-3.07931E-05-3.07621E-05-6.94714E-08-7.57946E-21 1.40498E-19
 -1      1206 1.02576E-04-3.07425E-05-3.06842E-05-7.07443E-08 5.45542E-20 1.04420E-18
 -1      1207 1.01466E-04-3.04099E-05-3.03224E-05-5.22564E-08 5.39156E-20 1.64097E-18
 -1      1208 9.91599E-05-2.97264E-05-2.96179E-05-6.53705E-09-1.50593E-19 1.09400E-18
 -1      1209 9.56088E-05-2.86778E-05-2.85710E-05 6.65290E-08-3.56103E-19 1.84235E-18
 -1      1210 9.10895E-05-2.73434E-05-2.72737E-05 1.53382E-07 2.24747E-19-2.25364E-19
 -1      1211 8.62691E-05-2.59156E-05-2.59195E-05 2.25789E-07 2.89626E-19-1.67506E-18
 -1      1212 8.21091E-05-2.46743E-05-2.47700E-05 2.50489E-07 2.84259E-19-7.16643E-19
 -1      1213 7.95760E-05-2.39061E-05-2.40772E-05 2.07745E-07-5.34590E-20 1.59044E-19
 -1      1214 7.92605E-05-2.37927E-05-2.39892E-05 1.06248E-07-5.17947E-20 1.13219E-18
 -1      1215 8.11116E-05-2.43287E-05-2.44888E-05-1.84164E-08 2.84352E-19 5.16690E-19
 -1      1216 8.44545E-05-2.53200E-05-2.53997E-05-1.22415E-07-3.20093E-19 4.16010E-18
 -1      1217 8.82872E-05-2.64681E-05-2.64595E-05-1.76182E-07-9.59501E-20 4.48991E-18
 -1      1218 9.16759E-05-2.74902E-05-2.74172E-05-1.74815E-07 8.35486E-20 3.48898E-19
 -1      1219 9.40420E-05-2.82083E-05-2.81097E-05-1.32988E-07 1.58723E-19-1.58549E-18
 -1      1220 9.52481E-05-2.85781E-05-2.84905E-05-7.33920E-08 1.83143E-19-2.38318E-18
 -1      1221 9.55242E-05-2.86666E-05-2.86150E-05-1.79306E-08-1.05145E-19-4.16509E-19
 -1      1222 9.53175E-05-2.86056E-05-2.85970E-05 1.23669E-08-6.35063E-20-6.73208E-19
 -1      1223 9.51156E-05-2.85390E-05-2.85475E-05-4.72421E-10 3.42357E-19-2.54616E-18
 -1      1224 9.51607E-05-2.85497E-05-2.85068E-05-2.37569E-08-1.21416E-19-2.40984E-18
 -1      1225 9.52563E-05-2.86499E-05-2.85105E-05-2.88456E-08-2.56760E-18-5.45459E-19
 -1      1226 9.52654E-05-2.87138E-05-2.85581E-05-5.10676E-08-1.47024E-18 2.17835E-19
 -1      1227 9.51487E-05-2.83693E-05-2.87025E-05-2.20924E-08 7.68316E-18-5.35265E-19
 -1      1228 9.48069E-05-2.72721E-05-2.90620E-05 1.87870E-08 7.39047E-18-1.08158E-18
 -1      1229 9.41573E-05-2.51207E-05-2.97280E-05 8.21910E-08 2.00707E-18-6.42652E-19
 -1      1230 9.31496E-05-2.17509E-05-3.07344E-05 1.60103E-07-2.41142E-18-1.15383E-19
 -1      1231 9.18084E-05-1.72139E-05-3.20549E-05 2.32859E-07-2.15072E-18 1.22408E-18
 -1      1232 9.02494E-05-1.19078E-05-3.35636E-05 2.76727E-07 7.95152E-20-6.49906E-19
 -1      1233 8.87386E-05-6.73323E-06-3.50045E-05 2.61326E-07-2.19080E-18-3.13986E-19
 -1      1234 8.76081E-05-2.83523E-06-3.60645E-05 1.70363E-07 3.12322E-18 7.28878E-20
 -1      1235 8.71746E-05-1.32183E-06-3.64502E-05 1.26335E-08 3.33777E-18-4.49774E-19
 -1      1236 8.76314E-05-2.84404E-06-3.59977E-05-1.76929E-07 5.77359E-19-1.54193E-19
 -1      1237 8.89441E-05-7.33374E-06-3.47357E-05-3.38014E-07-4.23305E-19 9.29261E-19
 -1      1238 9.08937E-05-1.39933E-05-3.29013E-05-4.31812E-07 2.93137E-18 6.22108E-19
 -1      1239 9.30025E-05-2.11934E-05-3.09445E-05-3.75390E-07 9.37125E-18-4.52612E-19
 -1      1240 9.47388E-05-2.68877E-05-2.93691E-05 3.09065E-08 6.63965E-18-2.58477E-20
 -1      1241 9.51289E-05-2.88653E-05-2.83956E-05 4.23951E-07 2.80934E-18-2.29757E-19
 -1      1242 3.64507E-05-1.15379E-04 1.99639E-05-1.51832E-05 2.98494E-18 1.16112E-18
 -1      1243 1.74172E-05-6.62044E-05 9.86827E-06-2.48582E-05 4.71967E-18 1.49501E-18
 -1      1244 8.63295E-06-6.19133E-06-7.19706E-06 3.48000E-06 5.75474E-18 3.57448E-18
 -1      1245 3.76419E-05 2.70113E-05-2.77283E-05 5.86334E-05 9.48677E-19 1.29935E-18
 -1      1246 1.12127E-04 1.41780E-05-4.83328E-05 1.05918E-04 1.11300E-18 1.79232E-18
 -1      1247 2.13834E-04-3.41058E-05-6.59091E-05 1.12964E-04 2.42082E-18 4.83486E-18
 -1      1248 2.93645E-04-7.98648E-05-7.73397E-05 6.26538E-05 1.46722E-18 5.75898E-18
 -1      1249 3.16919E-04-9.51481E-05-8.00316E-05-1.83069E-05 3.32460E-20 5.51418E-19
 -1      1250 2.66589E-04-6.46798E-05-7.36410E-05-9.11974E-05 4.23728E-19-2.38016E-18
 -1      1251 1.68269E-04-1.01279E-05-5.90806E-05-1.14791E-04 1.80587E-18-2.64444E-18
 -1      1252 7.45033E-05 2.56347E-05-3.95190E-05-8.82318E-05 1.56023E-18-2.27682E-18
 -1      1253 1.90977E-05 2.02208E-05-1.94314E-05-3.50390E-05 1.11131E-18-7.53859E-20
 -1      1254 7.95840E-06-2.34173E-05-9.55420E-07 1.00567E-05 4.09964E-19 2.79521E-19
 -1      1255 2.35020E-05-8.09480E-05 1.31046E-05 2.44783E-05-4.65868E-19-3.16790E-19
 -1      1256 3.76005E-05-1.16764E-04 2.04345E-05 5.67626E-06-6.71104E-18-2.51728E-19
 -1      1257 3.44704E-05-1.11935E-04 1.94536E-05-2.34528E-05-1.26055E-17-2.27865E-18
 -1      1258 1.49911E-05-6.54728E-05 1.01993E-05-2.98463E-05-6.53994E-18-1.45097E-18
 -1      1259 7.85166E-06-1.27603E-05-5.75799E-06-4.06433E-06-2.76810E-18-1.79486E-18
 -1      1260 3.74474E-05 1.94580E-05-2.63795E-05 5.03819E-05-4.70950E-19-3.21873E-19
 -1      1261 1.15533E-04 8.07336E-06-4.83114E-05 1.01362E-04 3.59142E-19 7.96211E-19
 -1      1262 2.20796E-04-3.77689E-05-6.70494E-05 1.12096E-04 1.24937E-19 1.16044E-18
 -1      1263 3.09913E-04-8.60762E-05-7.96601E-05 7.02011E-05 8.78691E-19 4.95853E-18
 -1      1264 3.42622E-04-1.04635E-04-8.39038E-05-8.63852E-06 9.26972E-20 3.68184E-18
 -1      1265 2.96366E-04-7.63444E-05-7.84179E-05-8.54971E-05-7.34378E-19 3.43048E-18
 -1      1266 1.96211E-04-2.29416E-05-6.37820E-05-1.18407E-04-9.38513E-19 2.51230E-18
 -1      1267 9.07125E-05 1.80123E-05-4.31833E-05-9.26380E-05-1.55007E-19 1.22989E-18
 -1      1268 2.40195E-05 1.65039E-05-2.05610E-05-3.54061E-05-2.99850E-19-4.21822E-19
 -1      1269 7.57914E-06-2.66097E-05-5.94114E-07 1.48737E-05-9.14287E-18 4.62395E-18
 -1      1270 2.20314E-05-8.29084E-05 1.36958E-05 3.14473E-05-4.36561E-18 1.92679E-18
 -1      1271 3.88273E-05-1.21085E-04 2.10153E-05 1.49650E-05-2.16629E-19 1.06409E-19
 -1      1272 1.04445E-04-2.20199E-05-3.78927E-05-1.72753E-05-3.07473E-19 1.98396E-18
 -1      1273 9.03194E-05-6.68120E-06-3.60170E-05-2.04720E-05-5.75612E-19-1.60417E-18
 -1      1274 9.26565E-05-6.74006E-06-3.72223E-05-2.57601E-05-8.32422E-19-8.63021E-19
 -1      1275 8.59035E-05-4.09654E-06-3.51295E-05-1.64337E-05-4.61765E-19-2.51415E-18
 -1      1276 8.71558E-05-4.08926E-06-3.55990E-05-1.88543E-05-5.87206E-19-2.17306E-18
 -1      1277 9.21334E-05-1.04630E-05-3.50932E-05-1.90357E-05-1.00344E-18-1.39284E-18
 -1      1278 8.40947E-05-3.18999E-06-3.46863E-05-1.28176E-05-2.34906E-19-2.85389E-18
 -1      1279 8.47063E-05-3.16041E-06-3.49107E-05-1.46320E-05-3.23831E-19-2.72062E-18
 -1      1280 8.78650E-05-7.39453E-06-3.45732E-05-1.54124E-05-6.78195E-19-2.12785E-18
 -1      1281 8.31845E-05-2.72782E-06-3.44698E-05-9.68772E-06-5.14771E-20-2.91125E-18
 -1      1282 8.34976E-05-2.70944E-06-3.45790E-05-1.12352E-05-1.15157E-19-2.91242E-18
 -1      1283 8.58654E-05-5.98213E-06-3.43048E-05-1.19566E-05-2.94119E-19-2.37302E-18
 -1      1284 8.26925E-05-2.45738E-06-3.43632E-05-6.91559E-06 1.12487E-19-2.79119E-18
 -1      1285 8.28622E-05-2.44905E-06-3.44177E-05-8.28673E-06 5.74394E-20-2.84120E-18
 -1      1286 8.48204E-05-5.21718E-06-3.41724E-05-8.94545E-06-3.51585E-20-2.37193E-18
 -1      1287 8.24167E-05-2.29174E-06-3.43102E-05-4.29531E-06 2.51168E-19-2.62747E-18
 -1      1288 8.25080E-05-2.28783E-06-3.43375E-05-5.59666E-06 2.04777E-19-2.74363E-18
 -1      1289 8.42337E-05-4.76160E-06-3.41088E-05-6.21716E-06 2.52829E-19-2.33336E-18
 -1      1290 8.22840E-05-2.20233E-06-3.42879E-05-1.79015E-06 3.86509E-19-2.43469E-18
 -1      1291 8.23231E-05-2.20076E-06-3.42990E-05-3.04134E-06 3.35404E-19-2.53729E-18
 -1      1292 8.39107E-05-4.49780E-06-3.40798E-05-3.64506E-06 4.73203E-19-2.14747E-18
 -1      1293 8.22580E-05-2.17485E-06-3.42852E-05 6.69957E-07 4.90777E-19-2.16376E-18
 -1      1294 8.22566E-05-2.17489E-06-3.42848E-05-5.66087E-07 4.51504E-19-2.31069E-18
 -1      1295 8.37693E-05-4.37819E-06-3.40689E-05-1.17068E-06 6.75521E-19-1.98104E-18
 -1      1296 8.23317E-05-2.20514E-06-3.43005E-05 3.14889E-06 6.18983E-19-1.85152E-18
 -1      1297 8.22898E-05-2.20676E-06-3.42887E-05 1.89507E-06 5.55557E-19-2.03150E-18
 -1      1298 8.37743E-05-4.38245E-06-3.40693E-05 1.27394E-06 8.44490E-19-1.69589E-18
 -1      1299 8.25250E-05-2.29817E-06-3.43401E-05 5.71355E-06 7.30993E-19-1.53410E-18
 -1      1300 8.24304E-05-2.30156E-06-3.43122E-05 4.40621E-06 6.82295E-19-1.72076E-18
 -1      1301 8.39264E-05-4.51144E-06-3.40809E-05 3.75269E-06 1.05870E-18-1.41425E-18
 -1      1302 8.28844E-05-2.46373E-06-3.44204E-05 8.39559E-06 7.93835E-19-1.03296E-18
 -1      1303 8.27118E-05-2.47248E-06-3.43654E-05 7.01573E-06 7.60702E-19-1.33818E-18
 -1      1304 8.42589E-05-4.78454E-06-3.41100E-05 6.31162E-06 1.22006E-18-1.08227E-18
 -1      1305 8.35425E-05-2.74054E-06-3.45838E-05 1.13954E-05 9.05227E-19-3.05369E-19
 -1      1306 8.32210E-05-2.75770E-06-3.44731E-05 9.83070E-06 8.40647E-19-7.27800E-19
 -1      1307 8.48612E-05-5.25716E-06-3.41731E-05 9.05506E-06 1.33769E-18-5.28231E-19
 -1      1308 8.47680E-05-3.20550E-06-3.49185E-05 1.48433E-05 9.63606E-19 7.57459E-19
 -1      1309 8.41529E-05-3.24029E-06-3.46916E-05 1.30027E-05 9.15126E-19 1.34043E-19
 -1      1310 8.59446E-05-6.06208E-06-3.43058E-05 1.21217E-05 1.42192E-18 1.96088E-19
 -1      1311 8.72523E-05-4.08905E-06-3.56201E-05 1.90936E-05 9.35336E-19 2.43313E-18
 -1      1312 8.59731E-05-4.15436E-06-3.51368E-05 1.66967E-05 8.70485E-19 1.46719E-18
 -1      1313 8.79891E-05-7.51904E-06-3.45748E-05 1.56520E-05 1.45175E-18 1.36536E-18
 -1      1314 9.34692E-05-6.79337E-06-3.71186E-05 2.50953E-05 6.68415E-19 4.98860E-18
 -1      1315 9.01330E-05-6.43661E-06-3.60400E-05 2.11477E-05 6.89061E-19 3.48348E-18
 -1      1316 9.23568E-05-1.06954E-05-3.50787E-05 1.96791E-05 1.26880E-18 3.06065E-18
 -1      1317 1.23632E-04-2.49247E-05-3.90172E-05 2.83668E-05 1.35525E-19 8.92688E-18
 -1      1318 1.00086E-04-1.44245E-05-3.73563E-05 2.40502E-05 2.24887E-19 6.30796E-18
 -1      1319 1.01688E-04-1.93452E-05-3.54047E-05 2.14000E-05 9.84133E-19 5.29459E-18
 -1      1320 1.02610E-04-2.78066E-05-3.47602E-05 7.32823E-06 3.68195E-19 8.95462E-18
 -1      1321 1.05153E-04-3.02322E-05-3.35269E-05-7.95965E-06-6.91179E-19 2.33294E-18
 -1      1322 9.82663E-05-2.78447E-05-3.07637E-05-4.98853E-06-6.06476E-19 1.52064E-18
 -1      1323 9.55083E-05-2.78508E-05-2.92562E-05-2.48984E-06-5.50730E-19 1.22028E-18
 -1      1324 9.32760E-05-2.75599E-05-2.82169E-05-2.04315E-06-5.56607E-19 4.16925E-19
 -1      1325 9.94899E-05-2.80535E-05-3.09843E-05-7.88717E-06-1.13153E-18 3.05197E-19
 -1      1326 9.15863E-05-2.72019E-05-2.75827E-05-8.38125E-07-4.49953E-19 1.87433E-19
 -1      1327 9.08699E-05-2.71066E-05-2.72804E-05-7.27856E-07-4.03830E-19-4.93873E-19
 -1      1328 9.47231E-05-2.77714E-05-2.88180E-05-3.12064E-06-9.33801E-19-1.44009E-19
 -1      1329 9.01200E-05-2.69240E-05-2.70372E-05-1.73687E-07-2.30042E-19-6.90120E-19
 -1      1330 9.00476E-05-2.69509E-05-2.70024E-05-1.15693E-07-2.01147E-19-1.06840E-18
 -1      1331 9.25240E-05-2.75010E-05-2.78972E-05-1.05286E-06-5.80429E-19-5.16333E-19
 -1      1332 8.97882E-05-2.68834E-05-2.69282E-05 1.54267E-07-1.24841E-19-1.09884E-18
 -1      1333 9.00027E-05-2.69735E-05-2.69897E-05 1.82880E-07-1.45809E-19-1.30546E-18
 -1      1334 9.15658E-05-2.73576E-05-2.75302E-05-7.00284E-08-3.53914E-19-9.54692E-19
 -1      1335 9.00065E-05-2.69766E-05-2.69962E-05 3.13730E-07-1.98212E-19-1.41244E-18
 -1      1336 9.03483E-05-2.70961E-05-2.70952E-05 3.25401E-07-1.69024E-19-1.78187E-18
 -1      1337 9.13127E-05-2.73456E-05-2.74223E-05 4.16621E-07-4.08803E-19-1.02079E-18
 -1      1338 9.04901E-05-2.71378E-05-2.71423E-05 3.79731E-07-4.34284E-20-1.75165E-18
 -1      1339 9.08771E-05-2.72658E-05-2.72541E-05 3.81360E-07-1.62478E-19-2.01180E-18
 -1      1340 9.14453E-05-2.74192E-05-2.74444E-05 6.44297E-07-1.95125E-19-1.07978E-18
 -1      1341 9.10848E-05-2.73260E-05-2.73205E-05 3.91697E-07-1.40508E-19-2.02603E-18
 -1      1342 9.14710E-05-2.74503E-05-2.74323E-05 3.87446E-07-8.46439E-20-2.21491E-18
 -1      1343 9.17774E-05-2.75379E-05-2.75332E-05 7.26201E-07-2.89631E-19-1.05342E-18
 -1      1344 9.17019E-05-2.75169E-05-2.75052E-05 3.72657E-07-8.93839E-20-2.22203E-18
 -1      1345 9.20621E-05-2.76309E-05-2.76099E-05 3.65213E-07-2.44771E-19-2.39600E-18
 -1      1346 9.21984E-05-2.76748E-05-2.76530E-05 7.24016E-07-2.54277E-19-1.18828E-18
 -1      1347 9.22910E-05-2.76967E-05-2.76818E-05 3.37035E-07-3.01449E-19-2.45523E-18
 -1      1348 9.26123E-05-2.77970E-05-2.77756E-05 3.28178E-07-1.27661E-19-2.71430E-18
 -1      1349 9.26419E-05-2.78130E-05-2.77826E-05 6.74691E-07-2.95341E-19-1.19767E-18
 -1      1350 9.28251E-05-2.78580E-05-2.78422E-05 2.94179E-07 1.64464E-20-2.97442E-18
 -1      1351 9.31025E-05-2.79438E-05-2.79235E-05 2.85083E-07-8.87135E-20-3.01706E-18
 -1      1352 9.30694E-05-2.79429E-05-2.79095E-05 6.01626E-07-2.19670E-19-1.57219E-18
 -1      1353 9.32925E-05-2.79982E-05-2.79829E-05 2.50183E-07-1.32843E-19-3.06772E-18
 -1      1354 9.35268E-05-2.80699E-05-2.80517E-05 2.41677E-07-2.61791E-19-3.35402E-18
 -1      1355 9.34602E-05-2.80596E-05-2.80267E-05 5.20070E-07-1.82348E-19-2.27679E-18
 -1      1356 9.37002E-05-2.81193E-05-2.81059E-05 2.07685E-07-2.68888E-19-3.35371E-18
 -1      1357 9.39024E-05-2.81808E-05-2.81656E-05 1.99779E-07-1.18680E-19-3.74113E-18
 -1      1358 9.38132E-05-2.81636E-05-2.81336E-05 4.38442E-07-4.04025E-19-2.55239E-18
 -1      1359 9.40430E-05-2.82209E-05-2.82095E-05 1.72064E-07 4.62088E-20-3.66024E-18
 -1      1360 9.42014E-05-2.82684E-05-2.82564E-05 1.66012E-07-1.08809E-19-3.74272E-18
 -1      1361 9.41183E-05-2.82519E-05-2.82267E-05 3.64664E-07-5.08627E-20-2.33374E-18
 -1      1362 9.43231E-05-2.83030E-05-2.82943E-05 1.44464E-07 3.65957E-20-3.62662E-18
 -1      1363 9.44554E-05-2.83422E-05-2.83337E-05 1.39999E-07 1.92269E-19-3.44582E-18
 -1      1364 9.43743E-05-2.83251E-05-2.83054E-05 3.05916E-07 1.12618E-19-2.19386E-18
 -1      1365 9.45633E-05-2.83728E-05-2.83673E-05 1.25773E-07-2.95032E-20-3.38720E-18
 -1      1366 9.46780E-05-2.84064E-05-2.84016E-05 1.23139E-07-2.44949E-19-3.62471E-18
 -1      1367 9.45985E-05-2.83881E-05-2.83749E-05 2.63269E-07 2.05791E-20-2.45062E-18
 -1      1368 9.47791E-05-2.84350E-05-2.84330E-05 1.17397E-07-5.72134E-20-3.56859E-18
 -1      1369 9.48862E-05-2.84659E-05-2.84652E-05 1.16843E-07-6.28411E-20-3.75065E-18
 -1      1370 9.48027E-05-2.84447E-05-2.84388E-05 2.39557E-07-1.77131E-19-2.25883E-18
 -1      1371 9.49888E-05-2.84948E-05-2.84971E-05 1.20966E-07-2.29522E-19-3.72138E-18
 -1      1372 9.50998E-05-2.85266E-05-2.85305E-05 1.22818E-07-1.17719E-19-4.16853E-18
 -1      1373 9.50020E-05-2.84992E-05-2.85016E-05 2.37863E-07-3.20095E-19-2.11368E-18
 -1      1374 9.52139E-05-2.85587E-05-2.85660E-05 1.38637E-07 9.50906E-20-4.22819E-18
 -1      1375 9.53422E-05-2.85953E-05-2.86047E-05 1.43358E-07 2.46400E-19-3.78576E-18
 -1      1376 9.52142E-05-2.85565E-05-2.85688E-05 2.62052E-07 1.18263E-19-2.45483E-18
 -1      1377 9.54800E-05-2.86340E-05-2.86476E-05 1.73407E-07 3.70503E-19-3.86785E-18
 -1      1378 9.56421E-05-2.86804E-05-2.86964E-05 1.81653E-07 2.79485E-19-3.70981E-18
 -1      1379 9.54606E-05-2.86227E-05-2.86471E-05 3.17355E-07 3.58759E-19-3.00064E-18
 -1      1380 9.58185E-05-2.87298E-05-2.87514E-05 2.29466E-07 1.45667E-20-3.88146E-18
 -1      1381 9.60349E-05-2.87920E-05-2.88164E-05 2.42170E-07 9.00680E-20-4.04714E-18
 -1      1382 9.57676E-05-2.87052E-05-2.87445E-05 4.11021E-07 7.76487E-20-3.55169E-18
 -1      1383 9.62683E-05-2.88573E-05-2.88893E-05 3.12643E-07 5.16508E-20-4.04170E-18
 -1      1384 9.65655E-05-2.89431E-05-2.89784E-05 3.31111E-07 6.56972E-20-4.22884E-18
 -1      1385 9.61673E-05-2.88127E-05-2.88713E-05 5.53091E-07 1.19705E-19-3.07036E-18
 -1      1386 9.68794E-05-2.90307E-05-2.90768E-05 4.30945E-07 8.08412E-20-4.14395E-18
 -1      1387 9.72920E-05-2.91506E-05-2.92002E-05 4.56978E-07-1.50620E-19-4.17824E-18
 -1      1388 9.67003E-05-2.89564E-05-2.90402E-05 7.57348E-07 6.61480E-20-2.74363E-18
 -1      1389 9.77161E-05-2.92686E-05-2.93335E-05 5.95197E-07 6.16357E-20-3.79918E-18
 -1      1390 9.82893E-05-2.94361E-05-2.95047E-05 6.31322E-07 4.71410E-19-3.26430E-18
 -1      1391 9.74175E-05-2.91500E-05-2.92671E-05 1.04242E-06 2.47906E-19-2.09074E-18
 -1      1392 9.88611E-05-2.95938E-05-2.96851E-05 8.19655E-07 9.14610E-19-2.44589E-18
 -1      1393 9.96563E-05-2.98290E-05-2.99217E-05 8.68900E-07 8.09931E-19-1.30833E-18
 -1      1394 9.83838E-05-2.94117E-05-2.95725E-05 1.43270E-06 1.28963E-18-1.78770E-18
 -1      1395 1.00466E-04-3.00520E-05-3.01779E-05 1.13342E-06 9.87455E-20-1.01052E-18
 -1      1396 1.01624E-04-3.03944E-05-3.05230E-05 1.20691E-06-9.83270E-20-1.23531E-18
 -1      1397 9.97184E-05-2.97724E-05-2.99943E-05 1.97410E-06 5.86633E-19-1.22656E-18
 -1      1398 1.02658E-04-3.06788E-05-3.08512E-05 1.54572E-06 5.75916E-20-6.41690E-19
 -1      1399 1.04171E-04-3.11294E-05-3.13010E-05 1.63540E-06-5.15565E-20-7.29355E-19
 -1      1400 1.01506E-04-3.02604E-05-3.05568E-05 2.69961E-06 2.54543E-19-4.25476E-19
 -1      1401 1.05526E-04-3.15040E-05-3.17319E-05 2.06783E-06-3.66041E-19-1.13590E-18
 -1      1402 1.07558E-04-3.21145E-05-3.23343E-05 2.18419E-06-2.52092E-20-1.52201E-18
 -1      1403 1.03810E-04-3.08928E-05-3.12797E-05 3.61876E-06-5.56888E-19-4.37570E-20
 -1      1404 1.09299E-04-3.25992E-05-3.28876E-05 2.70892E-06-3.62047E-19-1.45461E-18
 -1      1405 1.11964E-04-3.34124E-05-3.36733E-05 2.85099E-06 5.49910E-21-1.60014E-18
 -1      1406 1.06799E-04-3.17301E-05-3.22089E-05 4.76117E-06-3.29764E-19-2.56835E-19
 -1      1407 1.14137E-04-3.40283E-05-3.43589E-05 3.42524E-06 5.90938E-20-1.77768E-18
 -1      1408 1.17492E-04-3.50771E-05-3.53377E-05 3.57959E-06-1.89854E-20-2.01906E-18
 -1      1409 1.10586E-04-3.28306E-05-3.33670E-05 6.07843E-06-1.47394E-19-7.02200E-19
 -1      1410 1.20081E-04-3.58402E-05-3.61378E-05 4.07158E-06-1.66677E-19-2.46243E-18
 -1      1411 1.24013E-04-3.71173E-05-3.72611E-05 4.19468E-06-2.67269E-19-2.71871E-18
 -1      1412 1.15224E-04-3.42673E-05-3.47399E-05 7.37355E-06-4.05957E-19-1.09069E-18
 -1      1413 1.26874E-04-3.80276E-05-3.81023E-05 4.31070E-06-2.89445E-19-3.52996E-18
 -1      1414 1.30883E-04-3.94169E-05-3.92015E-05 4.30117E-06-3.18986E-19-4.10308E-18
 -1      1415 1.20608E-04-3.61176E-05-3.62386E-05 8.16085E-06-1.00957E-18-2.95194E-18
 -1      1416 1.33649E-04-4.04298E-05-3.99252E-05 3.52398E-06-4.05788E-19-4.12627E-18
 -1      1417 1.36576E-04-4.15858E-05-4.06526E-05 3.19944E-06-8.17982E-19-5.29524E-18
 -1      1418 1.26321E-04-3.84135E-05-3.76546E-05 7.50310E-06-5.20449E-19-3.55580E-18
 -1      1419 1.38549E-04-4.25232E-05-4.10201E-05 9.15560E-07-5.75400E-19-4.78637E-18
 -1      1420 1.38494E-04-4.27613E-05-4.08805E-05 7.61055E-08 1.15104E-19-5.06968E-18
 -1      1421 1.31401E-04-4.09294E-05-3.86586E-05 4.03892E-06-8.21622E-19-1.85651E-18
 -1      1422 1.38672E-04-4.31897E-05-4.06746E-05-3.84585E-06 1.06144E-18-5.24377E-18
 -1      1423 1.33698E-04-4.15962E-05-3.92970E-05-5.15757E-06 4.46016E-20-4.06385E-18
 -1      1424 1.34149E-04-4.28185E-05-3.89195E-05-3.24111E-06 5.43610E-19-2.50873E-18
 -1      1425 1.31136E-04-4.07786E-05-3.85360E-05-9.20217E-06-5.42068E-19-4.49584E-18
 -1      1426 1.21319E-04-3.70174E-05-3.61650E-05-1.02153E-05-2.54265E-19-5.09406E-18
 -1      1427 1.32342E-04-4.22555E-05-3.83853E-05-1.30199E-05-1.50957E-19-2.79619E-18
 -1      1428 1.16457E-04-3.47082E-05-3.52206E-05-1.09337E-05 1.20702E-19-4.88103E-18
 -1      1429 1.06150E-04-3.03650E-05-3.29475E-05-1.03031E-05 4.76350E-19-4.63676E-18
 -1      1430 1.25026E-04-3.77840E-05-3.74546E-05-1.93593E-05 7.38507E-20-2.58557E-18
 -1      1431 1.02485E-04-2.83954E-05-3.23869E-05-5.91269E-06 3.66448E-19-4.80490E-18
 -1      1432 9.83559E-05-2.65948E-05-3.15058E-05-4.00868E-06-3.52048E-20-4.01388E-18
 -1      1433 1.15891E-04-3.14104E-05-3.67435E-05-1.50695E-05 8.12093E-19-4.08498E-18
 -1      1434 9.79293E-05-2.64669E-05-3.13994E-05 3.17113E-06 5.51630E-20-3.59648E-18
 -1      1435 1.01867E-04-2.82456E-05-3.21795E-05 5.19138E-06-7.14684E-21-3.96284E-18
 -1      1436 1.11442E-04-2.84268E-05-3.63518E-05-9.50466E-07 2.72321E-19-2.83301E-18
 -1      1437 1.05538E-04-3.03921E-05-3.26447E-05 9.73486E-06 1.97729E-20-2.96144E-18
 -1      1438 1.15269E-04-3.45374E-05-3.47413E-05 1.01459E-05 1.37908E-19-2.41193E-18
 -1      1439 1.15057E-04-3.13782E-05-3.63766E-05 1.36897E-05 8.01928E-19-1.73790E-18
 -1      1440 1.19408E-04-3.65608E-05-3.55033E-05 9.06814E-06 1.29133E-19-2.31346E-18
 -1      1441 1.28113E-04-3.99226E-05-3.75917E-05 7.99282E-06 3.98900E-19-1.99921E-18
 -1      1442 1.23373E-04-3.75257E-05-3.68160E-05 1.75021E-05 2.38175E-19-1.00400E-18
 -1      1443 1.29849E-04-4.04471E-05-3.81336E-05 3.86861E-06-5.48560E-19-2.37148E-18
 -1      1444 1.33597E-04-4.16284E-05-3.91781E-05 2.58491E-06-9.54024E-19-3.98010E-18
 -1      1445 1.29139E-04-4.13578E-05-3.73885E-05 1.06293E-05-8.06825E-19-2.22306E-18
 -1      1446 1.32658E-04-4.09802E-05-3.91456E-05-1.24897E-06-3.04442E-19-4.01753E-18
 -1      1447 1.31580E-04-4.03921E-05-3.89558E-05-2.05717E-06-8.35783E-20-3.69406E-18
 -1      1448 1.29373E-04-4.13208E-05-3.75189E-05 9.18159E-07-7.34722E-19-2.93879E-18
 -1      1449 1.28903E-04-3.92671E-05-3.83568E-05-4.25788E-06-5.84519E-20-3.02915E-18
 -1      1450 1.24947E-04-3.77976E-05-3.73244E-05-4.57058E-06-5.00153E-19-3.08976E-18
 -1      1451 1.25214E-04-3.90181E-05-3.68328E-05-6.15274E-06 5.26352E-20-2.49807E-18
 -1      1452 1.21528E-04-3.66050E-05-3.63895E-05-5.28987E-06-2.39682E-19-3.60979E-18
 -1      1453 1.16563E-04-3.49102E-05-3.50138E-05-5.29581E-06-6.59984E-19-4.39118E-18
 -1      1454 1.18833E-04-3.61351E-05-3.54251E-05-9.45608E-06-1.16696E-18-2.99728E-18
 -1      1455 1.13122E-04-3.38170E-05-3.40003E-05-5.06493E-06-5.44500E-19-4.29970E-18
 -1      1456 1.08377E-04-3.22507E-05-3.26597E-05-4.91006E-06-3.19752E-19-3.63393E-18
 -1      1457 1.11920E-04-3.34528E-05-3.36643E-05-9.92739E-06-4.23522E-19-2.45957E-18
 -1      1458 1.05377E-04-3.13191E-05-3.17643E-05-4.09678E-06 6.50429E-20-3.65511E-18
 -1      1459 1.01618E-04-3.00775E-05-3.07023E-05-3.82936E-06-1.83839E-19-2.97769E-18
 -1      1460 1.05535E-04-3.11717E-05-3.19366E-05-8.64493E-06-3.39673E-19-2.31996E-18
 -1      1461 9.93305E-05-2.93469E-05-3.00450E-05-2.57637E-06-5.57162E-19-2.85046E-18
 -1      1462 9.71436E-05-2.85784E-05-2.93856E-05-2.12803E-06-6.23853E-19-3.19665E-18
 -1      1463 1.00304E-04-2.92924E-05-3.05214E-05-6.19328E-06-1.57905E-19-3.41936E-18
 -1      1464 9.59754E-05-2.82266E-05-2.90803E-05-9.70646E-07 6.19505E-19-2.61987E-18
 -1      1465 9.54810E-05-2.82482E-05-2.86784E-05-6.24419E-07 1.62429E-18-1.23749E-18
 -1      1466 9.53840E-05-2.77732E-05-2.90570E-05-9.50696E-07 3.71292E-18-6.53675E-19
 -1      1467 9.69460E-05-2.80133E-05-2.96216E-05-3.35140E-06 6.96187E-19-1.55353E-18
 -1      1468 9.65820E-05-2.83642E-05-2.97731E-05 2.99445E-06 5.28443E-19 7.84919E-18
 -1      1469 1.02544E-04-2.94011E-05-3.21580E-05 4.46465E-06 4.14464E-19 8.50209E-18
 -1      1470 1.02333E-04-2.67184E-05-3.27079E-05 1.27859E-05 7.59047E-19 6.21457E-18
 -1      1471 9.20250E-05-2.74209E-05-2.77610E-05 1.14801E-06 3.37569E-19 6.89302E-18
 -1      1472 9.39845E-05-2.75857E-05-2.86758E-05 1.48043E-06 3.42598E-19 7.41894E-18
 -1      1473 9.64951E-05-2.80383E-05-2.95350E-05 4.88076E-06 6.93349E-19 5.56071E-18
 -1      1474 9.01980E-05-2.69986E-05-2.70640E-05 3.26528E-07 2.44779E-20 6.54486E-18
 -1      1475 9.08235E-05-2.70276E-05-2.73352E-05 4.96150E-07 8.42136E-20 6.68478E-18
 -1      1476 9.30415E-05-2.75945E-05-2.81030E-05 1.84225E-06 3.13746E-19 5.01968E-18
 -1      1477 8.96826E-05-2.68811E-05-2.68895E-05-5.41563E-08 1.16001E-19 6.46283E-18
 -1      1478 8.97324E-05-2.68312E-05-2.69169E-05 3.87295E-08 6.03362E-20 6.41461E-18
 -1      1479 9.14978E-05-2.73451E-05-2.75185E-05 4.76054E-07 1.26287E-19 4.55679E-18
 -1      1480 8.98164E-05-2.69375E-05-2.69310E-05-2.41819E-07 1.08746E-19 6.15634E-18
 -1      1481 8.95933E-05-2.68355E-05-2.68660E-05-1.90877E-07 7.82786E-20 6.30423E-18
 -1      1482 9.09598E-05-2.72491E-05-2.73211E-05-1.70735E-07 1.72841E-19 4.51234E-18
 -1      1483 9.02695E-05-2.70820E-05-2.70687E-05-3.24641E-07 2.14102E-19 5.88308E-18
 -1      1484 8.99241E-05-2.69563E-05-2.69674E-05-2.97552E-07 1.28896E-19 5.99058E-18
 -1      1485 9.09782E-05-2.72835E-05-2.73091E-05-4.78843E-07 2.68948E-19 4.16847E-18
 -1      1486 9.08630E-05-2.72650E-05-2.72476E-05-3.48912E-07 1.40670E-19 5.44887E-18
 -1      1487 9.04755E-05-2.71342E-05-2.71343E-05-3.36419E-07 1.30472E-19 5.66396E-18
 -1      1488 9.12820E-05-2.73895E-05-2.73899E-05-6.10708E-07 2.02228E-19 3.73948E-18
 -1      1489 9.14949E-05-2.74572E-05-2.74378E-05-3.39604E-07 2.93573E-19 4.96711E-18
 -1      1490 9.11097E-05-2.73322E-05-2.73251E-05-3.36144E-07 1.86973E-19 5.23255E-18
 -1      1491 9.17216E-05-2.75293E-05-2.75152E-05-6.43040E-07 2.88358E-19 3.20552E-18
 -1      1492 9.21066E-05-2.76418E-05-2.76221E-05-3.11839E-07 2.86076E-19 4.42331E-18
 -1      1493 9.17482E-05-2.75284E-05-2.75171E-05-3.13832E-07 3.54976E-19 4.89875E-18
 -1      1494 9.22078E-05-2.76790E-05-2.76572E-05-6.18694E-07 4.61861E-19 3.00879E-18
 -1      1495 9.26662E-05-2.78097E-05-2.77910E-05-2.75238E-07 1.87340E-19 4.01961E-18
 -1      1496 9.23469E-05-2.77105E-05-2.76972E-05-2.80296E-07 1.64984E-19 4.20899E-18
 -1      1497 9.26887E-05-2.78245E-05-2.77995E-05-5.63830E-07 3.80857E-19 2.71887E-18
 -1      1498 9.31591E-05-2.79569E-05-2.79401E-05-2.36063E-07 1.49050E-19 3.73253E-18
 -1      1499 9.28835E-05-2.78725E-05-2.78589E-05-2.42564E-07 1.58812E-19 4.02504E-18
 -1      1500 9.31352E-05-2.79580E-05-2.79328E-05-4.95175E-07 2.69183E-19 2.38693E-18
 -1      1501 9.35821E-05-2.80826E-05-2.80682E-05-1.98408E-07 2.74953E-19 3.55859E-18
 -1      1502 9.33496E-05-2.80124E-05-2.79996E-05-2.05243E-07 2.53987E-19 3.74104E-18
 -1      1503 9.35336E-05-2.80759E-05-2.80525E-05-4.23642E-07 4.46536E-19 2.24527E-18
 -1      1504 9.39392E-05-2.81884E-05-2.81766E-05-1.64951E-07-1.29346E-19 3.66421E-18
 -1      1505 9.37458E-05-2.81306E-05-2.81193E-05-1.71352E-07-3.63256E-20 3.48659E-18
 -1      1506 9.38800E-05-2.81776E-05-2.81572E-05-3.56393E-07 8.01825E-20 2.83797E-18
 -1      1507 9.42394E-05-2.82769E-05-2.82679E-05-1.37465E-07-4.65640E-20 3.44214E-18
 -1      1508 9.40791E-05-2.82294E-05-2.82203E-05-1.42886E-07-1.11307E-19 3.37873E-18
 -1      1509 9.41775E-05-2.82643E-05-2.82476E-05-2.98161E-07-1.25853E-19 2.08496E-18
 -1      1510 9.44951E-05-2.83520E-05-2.83458E-05-1.17180E-07 2.66114E-19 3.22357E-18
 -1      1511 9.43603E-05-2.83122E-05-2.83056E-05-1.21210E-07 2.36547E-19 3.51648E-18
 -1      1512 9.44336E-05-2.83382E-05-2.83259E-05-2.52145E-07 1.34569E-19 1.94690E-18
 -1      1513 9.47211E-05-2.84181E-05-2.84148E-05-1.05043E-07-2.22260E-19 2.98616E-18
 -1      1514 9.46032E-05-2.83832E-05-2.83795E-05-1.07337E-07-6.68784E-20 3.23231E-18
 -1      1515 9.46592E-05-2.84027E-05-2.83952E-05-2.20646E-07 2.46328E-20 2.54603E-18
 -1      1516 9.49343E-05-2.84802E-05-2.84799E-05-1.01889E-07 2.46435E-20 3.21068E-18
 -1      1517 9.48237E-05-2.84472E-05-2.84467E-05-1.02125E-07-9.40353E-20 3.12514E-18
 -1      1518 9.48675E-05-2.84619E-05-2.84596E-05-2.05514E-07 4.55783E-20 2.14004E-18
 -1      1519 9.51533E-05-2.85440E-05-2.85468E-05-1.08529E-07-1.71150E-19 3.10363E-18
 -1      1520 9.50396E-05-2.85096E-05-2.85125E-05-1.06378E-07 3.06302E-20 3.05934E-18
 -1      1521 9.50735E-05-2.85201E-05-2.85234E-05-2.08408E-07 8.89824E-20 2.01980E-18
 -1      1522 9.53983E-05-2.86155E-05-2.86216E-05-1.25751E-07 3.25974E-19 2.71401E-18
 -1      1523 9.52701E-05-2.85760E-05-2.85829E-05-1.20874E-07 1.36813E-19 2.95925E-18
 -1      1524 9.52942E-05-2.85825E-05-2.85919E-05-2.30898E-07 4.10280E-20 1.88851E-18
 -1      1525 9.56908E-05-2.87012E-05-2.87106E-05-1.54199E-07 5.45540E-19 1.72350E-18
 -1      1526 9.55362E-05-2.86528E-05-2.86640E-05-1.46270E-07 3.36856E-19 2.45768E-18
 -1      1527 9.55477E-05-2.86546E-05-2.86704E-05-2.74361E-07 6.60182E-19 1.41072E-18
 -1      1528 9.60533E-05-2.88079E-05-2.88206E-05-1.94117E-07 1.39716E-19 1.03289E-18
 -1      1529 9.58597E-05-2.87467E-05-2.87625E-05-1.82885E-07 2.65984E-19 1.43750E-18
 -1      1530 9.58530E-05-2.87421E-05-2.87646E-05-3.39630E-07 6.60353E-19 1.00379E-18
 -1      1531 9.65074E-05-2.89424E-05-2.89580E-05-2.44888E-07 1.44708E-19 8.01001E-19
 -1      1532 9.62627E-05-2.88644E-05-2.88847E-05-2.30298E-07 8.93082E-20 1.24318E-18
 -1      1533 9.62290E-05-2.88511E-05-2.88800E-05-4.26323E-07 1.80615E-19 7.81924E-19
 -1      1534 9.70717E-05-2.91106E-05-2.91281E-05-3.04347E-07 5.77815E-20 8.60005E-19
 -1      1535 9.67654E-05-2.90126E-05-2.90368E-05-2.86728E-07 1.40068E-19 8.78171E-19
 -1      1536 9.66931E-05-2.89873E-05-2.90214E-05-5.31767E-07 3.09252E-19 7.65824E-19
 -1      1537 9.77573E-05-2.93163E-05-2.93340E-05-3.67799E-07-1.30336E-19 8.60261E-19
 -1      1538 9.73833E-05-2.91964E-05-2.92229E-05-3.48150E-07-3.30171E-19 3.72160E-19
 -1      1539 9.72579E-05-2.91554E-05-2.91921E-05-6.49436E-07 2.78611E-20 1.63599E-19
 -1      1540 9.85617E-05-2.95597E-05-2.95743E-05-4.26777E-07-4.22070E-19 1.44841E-18
 -1      1541 9.81217E-05-2.94187E-05-2.94442E-05-4.07153E-07-1.35469E-19 1.32112E-18
 -1      1542 9.79273E-05-2.93580E-05-2.93925E-05-7.66883E-07-3.75739E-19 8.51733E-19
 -1      1543 9.94599E-05-2.98343E-05-2.98409E-05-4.67657E-07-1.76681E-19 1.50402E-18
 -1      1544 9.89686E-05-2.96773E-05-2.96965E-05-4.51635E-07 7.74067E-20 1.68893E-18
 -1      1545 9.86901E-05-2.95936E-05-2.96179E-05-8.63301E-07-7.54864E-20 1.49459E-18
 -1      1546 1.00393E-04-3.01238E-05-3.01152E-05-4.70515E-07 3.88212E-20 1.34876E-18
 -1      1547 9.98851E-05-2.99623E-05-2.99670E-05-4.63661E-07-3.51962E-19 1.20730E-18
 -1      1548 9.95122E-05-2.98543E-05-2.98568E-05-9.07203E-07-2.05510E-19 1.85862E-18
 -1      1549 1.01258E-04-3.03980E-05-3.03653E-05-4.09043E-07-2.24925E-19 1.45048E-18
 -1      1550 1.00794E-04-3.02528E-05-3.02317E-05-4.19145E-07-3.48632E-19 1.13600E-18
 -1      1551 1.00328E-04-3.01228E-05-3.00877E-05-8.55287E-07-4.34788E-19 1.81540E-18
 -1      1552 1.01896E-04-3.06098E-05-3.05432E-05-2.52906E-07-3.60752E-19 1.34883E-18
 -1      1553 1.01569E-04-3.05120E-05-3.04518E-05-2.89580E-07 2.11641E-19 1.72021E-18
 -1      1554 1.01030E-04-3.03686E-05-3.02775E-05-6.54524E-07-4.85158E-20 1.94376E-18
 -1      1555 1.02095E-04-3.06938E-05-3.05862E-05 2.54661E-08 4.90286E-20 1.64139E-18
 -1      1556 1.02028E-04-3.06851E-05-3.05730E-05-4.75216E-08-2.94329E-19 1.32517E-18
 -1      1557 1.01470E-04-3.05452E-05-3.03815E-05-2.50495E-07-3.84053E-19 1.63662E-18
 -1      1558 1.01609E-04-3.05715E-05-3.04237E-05 4.37795E-07 1.58246E-19 1.07637E-18
 -1      1559 1.01945E-04-3.06995E-05-3.05292E-05 3.22345E-07 2.87250E-19 1.35424E-18
 -1      1560 1.01458E-04-3.05903E-05-3.03465E-05 3.94511E-07 3.39508E-19 2.06100E-18
 -1      1561 1.00209E-04-3.01653E-05-2.99934E-05 9.60772E-07 1.91161E-19 1.39514E-18
 -1      1562 1.01078E-04-3.04727E-05-3.02528E-05 8.06291E-07-1.77457E-19 1.39258E-18
 -1      1563 1.00798E-04-3.04308E-05-3.01207E-05 1.27201E-06 1.15534E-19 7.96596E-19
 -1      1564 9.77707E-05-2.94255E-05-2.92671E-05 1.51633E-06 8.66703E-20 7.78714E-19
 -1      1565 9.92366E-05-2.99319E-05-2.96951E-05 1.34265E-06 2.16774E-19 1.28790E-18
 -1      1566 9.93316E-05-2.99991E-05-2.96696E-05 2.29129E-06 1.16626E-19 6.89326E-19
 -1      1567 9.43828E-05-2.83683E-05-2.82795E-05 1.96523E-06-3.69416E-19 1.07806E-18
 -1      1568 9.63810E-05-2.90477E-05-2.88534E-05 1.81201E-06 1.70844E-19 1.04564E-18
 -1      1569 9.70233E-05-2.92623E-05-2.89968E-05 3.25384E-06 2.53994E-19 1.16644E-18
 -1      1570 9.04348E-05-2.71098E-05-2.71488E-05 2.13353E-06 5.39550E-19-2.99347E-19
 -1      1571 9.27247E-05-2.78748E-05-2.77970E-05 2.05357E-06 4.48127E-19 3.47601E-19
 -1      1572 9.40420E-05-2.82601E-05-2.81622E-05 3.86846E-06 9.95489E-19 6.56920E-19
 -1      1573 8.66119E-05-2.58727E-05-2.60680E-05 1.88160E-06 9.20404E-20-5.62403E-19
 -1      1574 8.87876E-05-2.65797E-05-2.66762E-05 1.92021E-06-5.57057E-20-5.14943E-19
 -1      1575 9.08090E-05-2.71340E-05-2.72858E-05 3.83560E-06 4.95802E-19 1.06291E-18
 -1      1576 8.37381E-05-2.49375E-05-2.52593E-05 1.19270E-06 1.43658E-19 2.67583E-19
 -1      1577 8.53268E-05-2.54241E-05-2.56992E-05 1.36004E-06-1.65459E-19-7.03170E-20
 -1      1578 8.79453E-05-2.61163E-05-2.65270E-05 2.99359E-06-5.29521E-19 7.69040E-19
 -1      1579 8.24882E-05-2.45400E-05-2.48998E-05 2.21667E-07-1.74859E-19 5.88754E-19
 -1      1580 8.31180E-05-2.46865E-05-2.50732E-05 4.77140E-07 2.76808E-19 1.14509E-18
 -1      1581 8.60948E-05-2.54619E-05-2.60404E-05 1.45384E-06-4.71519E-19-5.86024E-20
 -1      1582 8.31024E-05-2.47650E-05-2.50514E-05-7.49358E-07-1.51090E-19 1.05966E-18
 -1      1583 8.26587E-05-2.45479E-05-2.49302E-05-4.84134E-07-6.12550E-19 4.19070E-19
 -1      1584 8.56758E-05-2.53410E-05-2.59211E-05-3.83658E-07-6.24918E-19 4.07439E-19
 -1      1585 8.52717E-05-2.55024E-05-2.56351E-05-1.43600E-06-3.16944E-19 1.73689E-18
 -1      1586 8.39520E-05-2.50077E-05-2.52731E-05-1.24071E-06 1.97809E-19 1.52424E-18
 -1      1587 8.66959E-05-2.57553E-05-2.61688E-05-1.98238E-06 2.35118E-20 2.13309E-18
 -1      1588 8.82752E-05-2.64987E-05-2.64633E-05-1.68120E-06-1.76630E-19 3.34567E-18
 -1      1589 8.65029E-05-2.58830E-05-2.59741E-05-1.59995E-06-1.17612E-18 1.95818E-18
 -1      1590 8.87454E-05-2.65358E-05-2.66877E-05-2.91074E-06-1.32055E-18 2.30977E-18
 -1      1591 9.12853E-05-2.74714E-05-2.73143E-05-1.50597E-06 9.12393E-19 1.52884E-18
 -1      1592 8.95345E-05-2.68962E-05-2.68260E-05-1.53451E-06 1.00552E-18 2.89542E-18
 -1      1593 9.11804E-05-2.74246E-05-2.73240E-05-3.02241E-06 5.92654E-19 1.20419E-18
 -1      1594 9.36637E-05-2.82130E-05-2.80085E-05-1.06326E-06 1.69767E-18-4.46108E-19
 -1      1595 9.22932E-05-2.77893E-05-2.76204E-05-1.16271E-06 1.07517E-18 1.49716E-18
 -1      1596 9.33806E-05-2.81856E-05-2.79222E-05-2.46882E-06 1.79059E-18 7.53019E-19
 -1      1597 9.51140E-05-2.86375E-05-2.84540E-05-5.48375E-07-4.83401E-19-1.24981E-18
 -1      1598 9.42833E-05-2.84037E-05-2.82125E-05-6.68999E-07 1.85679E-19-1.08823E-18
 -1      1599 9.49434E-05-2.86812E-05-2.83723E-05-1.57392E-06 1.09460E-18-3.00875E-19
 -1      1600 9.56789E-05-2.87707E-05-2.86532E-05-1.26037E-07-3.19264E-19-6.46871E-20
 -1      1601 9.53522E-05-2.87009E-05-2.85508E-05-2.25205E-07-3.11033E-19-4.48094E-19
 -1      1602 9.57482E-05-2.88861E-05-2.86323E-05-6.79239E-07-6.28584E-19 3.10600E-19
 -1      1603 9.56402E-05-2.87126E-05-2.86783E-05 1.05534E-07-2.73881E-19 3.61622E-19
 -1      1604 9.56459E-05-2.87405E-05-2.86691E-05 5.47372E-08-4.66750E-19-1.49661E-19
 -1      1605 9.59150E-05-2.88620E-05-2.87242E-05-3.85838E-08-8.01124E-19 7.04228E-19
 -1      1606 9.53814E-05-2.85974E-05-2.86274E-05 1.20415E-07 7.45492E-19-1.10902E-18
 -1      1607 9.54905E-05-2.86397E-05-2.86534E-05 1.27848E-07 9.54114E-19 8.19935E-19
 -1      1608 9.57055E-05-2.87175E-05-2.87086E-05 2.26212E-07 5.23601E-19 1.70157E-18
 -1      1609 9.52283E-05-2.85478E-05-2.85715E-05-1.56599E-10 1.76662E-19-9.98890E-19
 -1      1610 9.52559E-05-2.85418E-05-2.85938E-05 4.19617E-08-1.75458E-19-1.57460E-18
 -1      1611 9.54114E-05-2.85723E-05-2.86475E-05 1.46891E-07 9.67817E-19-2.29026E-19
 -1      1612 9.52079E-05-2.85803E-05-2.85403E-05-3.81849E-08-7.03037E-19-5.82236E-19
 -1      1613 9.52603E-05-2.84352E-05-2.86405E-05 1.06176E-07 1.33459E-18 2.72320E-18
 -1      1614 9.52598E-05-2.85082E-05-2.86004E-05 7.16781E-08-1.33890E-18 1.26582E-18
 -1      1615 9.51217E-05-2.78293E-05-2.88413E-05 4.30559E-07 4.68143E-18 5.55114E-19
 -1      1616 9.52161E-05-2.81986E-05-2.87249E-05 3.61733E-07 2.80425E-18 1.52707E-18
 -1      1617 9.52968E-05-2.81966E-05-2.87639E-05 5.01746E-07 5.74618E-19 3.96416E-18
 -1      1618 9.47781E-05-2.65442E-05-2.92464E-05 9.10104E-07 1.66866E-18-3.45575E-18
 -1      1619 9.50047E-05-2.73447E-05-2.90037E-05 8.02421E-07 5.18375E-18-1.82521E-18
 -1      1620 9.51338E-05-2.75113E-05-2.90102E-05 1.22691E-06 1.68966E-18-4.76085E-19
 -1      1621 9.41370E-05-2.43431E-05-2.99187E-05 1.52294E-06 8.47562E-19-3.31494E-19
 -1      1622 9.45470E-05-2.57009E-05-2.95166E-05 1.39201E-06 1.63862E-18-1.09178E-18
 -1      1623 9.48198E-05-2.62389E-05-2.94290E-05 2.25510E-06 3.08931E-20-2.80342E-18
 -1      1624 9.31749E-05-2.12035E-05-3.08548E-05 2.15019E-06-1.10314E-18-4.32285E-20
 -1      1625 9.37771E-05-2.31125E-05-3.03000E-05 2.02504E-06 6.00282E-19-1.85841E-18
 -1      1626 9.42307E-05-2.42192E-05-3.00460E-05 3.44411E-06 1.13155E-18-1.54093E-18
 -1      1627 9.18900E-05-1.71734E-05-3.20312E-05 2.63935E-06-7.60583E-19 3.33458E-19
 -1      1628 9.26723E-05-1.95744E-05-3.13438E-05 2.55340E-06-1.70360E-18 1.77125E-18
 -1      1629 9.33289E-05-2.14092E-05-3.08574E-05 4.54692E-06 4.40083E-19-2.69241E-19
 -1      1630 9.04402E-05-1.27734E-05-3.32906E-05 2.76560E-06-1.09603E-18-6.99030E-19
 -1      1631 9.12926E-05-1.53197E-05-3.25716E-05 2.76905E-06-4.57186E-19-3.71879E-19
 -1      1632 9.21299E-05-1.79469E-05-3.18073E-05 5.21031E-06-1.19912E-18 4.50723E-19
 -1      1633 8.90823E-05-8.77954E-06-3.44111E-05 2.34766E-06 5.03760E-19 8.41186E-19
 -1      1634 8.98389E-05-1.09838E-05-3.37969E-05 2.47367E-06-1.27677E-18 2.28682E-19
 -1      1635 9.07863E-05-1.42912E-05-3.27649E-05 5.03554E-06-3.21912E-19-1.19710E-20
 -1      1636 8.81418E-05-6.11677E-06-3.51390E-05 1.33294E-06 1.51381E-18 1.21907E-19
 -1      1637 8.86094E-05-7.43276E-06-3.47790E-05 1.58069E-06 3.40984E-19 1.68922E-18
 -1      1638 8.95545E-05-1.11142E-05-3.35593E-05 3.76924E-06 6.20319E-19 1.89593E-18
 -1      1639 8.79115E-05-5.58166E-06-3.52629E-05-1.36521E-07 1.38489E-18-1.89964E-18
 -1      1640 8.79339E-05-5.57642E-06-3.52736E-05 1.88030E-07 2.83793E-18-7.41644E-19
 -1      1641 8.87492E-05-9.17395E-06-3.40135E-05 1.45733E-06 1.05411E-18 3.74025E-19
 -1      1642 8.85220E-05-7.48694E-06-3.47077E-05-1.70821E-06 1.06289E-19 3.86697E-19
 -1      1643 8.80472E-05-6.04938E-06-3.51152E-05-1.39461E-06 1.04337E-18-1.70890E-18
 -1      1644 8.86389E-05-9.06273E-06-3.40013E-05-1.45970E-06 6.22801E-20-2.59086E-18
 -1      1645 8.99201E-05-1.16464E-05-3.35337E-05-3.02545E-06 1.38590E-18 3.74084E-19
 -1      1646 8.90029E-05-8.94383E-06-3.42873E-05-2.79278E-06 2.73089E-19 2.10126E-18
 -1      1647 8.93136E-05-1.09582E-05-3.34941E-05-4.30391E-06 1.29121E-18 1.48550E-18
 -1      1648 9.18116E-05-1.71702E-05-3.19974E-05-3.67625E-06 2.94918E-18 1.79261E-18
 -1      1649 9.06526E-05-1.38079E-05-3.29241E-05-3.60904E-06 9.41742E-19 1.32109E-18
 -1      1650 9.07000E-05-1.45875E-05-3.25730E-05-6.33773E-06 1.81036E-18 1.04401E-18
 -1      1651 9.37836E-05-2.27254E-05-3.04845E-05-3.34549E-06 4.32611E-18 9.72136E-20
 -1      1652 9.26577E-05-1.95755E-05-3.13419E-05-3.54243E-06 3.05310E-18 7.88568E-19
 -1      1653 9.25310E-05-1.91938E-05-3.14419E-05-6.91294E-06 6.50918E-19 2.08483E-18
 -1      1654 9.50518E-05-2.64670E-05-2.94172E-05-2.10819E-06 3.20136E-18-4.46512E-19
 -1      1655 9.42762E-05-2.43499E-05-3.00333E-05-2.53679E-06 3.46849E-18-3.67420E-19
 -1      1656 9.40546E-05-2.31766E-05-3.04398E-05-5.72143E-06 6.12200E-19-1.57890E-18
 -1      1657 9.53857E-05-2.62441E-05-2.96736E-05-3.39541E-06 1.48595E-18-6.11516E-19
 -1      1658 2.13163E-05-6.91396E-05 1.47212E-05-4.45612E-06 2.42463E-18 1.78766E-18
 -1      1659 2.54410E-05-8.19092E-05 1.74664E-05 3.65522E-06 3.31402E-19 1.68771E-18
 -1      1660 2.30053E-05-3.93917E-05 3.26438E-06 7.83775E-06 3.39999E-18 2.13961E-18
 -1      1661 2.69831E-05-6.34770E-05 9.93192E-06 2.87423E-06 2.34459E-18 1.77721E-18
 -1      1662 3.88954E-05-1.08407E-05-1.34966E-05 3.27141E-05 3.19416E-18 9.49524E-19
 -1      1663 3.21240E-05-3.24745E-05-4.11171E-06 1.35602E-05 4.26058E-18 1.22481E-18
 -1      1664 8.03913E-05-6.95471E-07-3.29219E-05 6.45111E-05 8.63974E-19 1.44843E-19
 -1      1665 5.44947E-05-5.68926E-06-2.28223E-05 4.13125E-05 2.13961E-18 8.35174E-19
 -1      1666 1.46547E-04-1.70661E-05-5.17074E-05 8.03492E-05 1.00119E-18 3.34832E-18
 -1      1667 1.05183E-04-4.58464E-06-4.22882E-05 6.83063E-05-4.11658E-19 1.96766E-18
 -1      1668 2.13716E-04-4.41036E-05-6.71479E-05 6.80337E-05 1.56722E-18 4.15131E-18
 -1      1669 1.69884E-04-2.19903E-05-5.99055E-05 7.89939E-05 1.99730E-18 3.56347E-18
 -1      1670 2.48427E-04-6.00810E-05-7.49378E-05 2.11346E-05 1.10157E-18 3.02835E-18
 -1      1671 2.25333E-04-4.72675E-05-7.14452E-05 5.04737E-05 1.94129E-18 4.03145E-18
 -1      1672 2.52544E-04-6.10065E-05-7.59344E-05-2.94845E-05 2.12732E-18 5.19231E-19
 -1      1673 2.58548E-04-6.47654E-05-7.68925E-05 6.76853E-06 1.20067E-18 2.68906E-18
 -1      1674 2.08519E-04-3.86748E-05-6.81346E-05-6.96214E-05 6.51157E-20-4.89585E-19
 -1      1675 2.44076E-04-5.80963E-05-7.32543E-05-4.61675E-05 1.09775E-18-5.92923E-20
 -1      1676 1.40865E-04-1.46595E-05-5.22117E-05-7.09791E-05 2.09979E-18-1.94818E-18
 -1      1677 1.85603E-04-3.32773E-05-6.08059E-05-7.10904E-05 1.13291E-18-1.34594E-18
 -1      1678 7.92283E-05-1.29858E-06-3.39753E-05-5.78895E-05 7.99599E-19-1.38320E-18
 -1      1679 1.14735E-04-7.53730E-06-4.36731E-05-7.56220E-05 1.38405E-18-2.89346E-18
 -1      1680 4.06026E-05-1.16723E-05-1.53672E-05-2.93943E-05 5.89535E-19-8.11458E-19
 -1      1681 5.76199E-05 1.95215E-08-2.47903E-05-5.15385E-05 6.33581E-19-1.34255E-18
 -1      1682 2.72861E-05-4.12336E-05 1.05261E-06-7.63000E-06 1.59242E-19 2.11546E-19
 -1      1683 2.87076E-05-1.82143E-05-7.02654E-06-2.15984E-05 4.06576E-20 3.54060E-19
 -1      1684 2.49802E-05-6.98973E-05 1.28954E-05-1.84337E-07-2.56227E-18-7.62436E-19
 -1      1685 1.93043E-05-4.82926E-05 7.64001E-06 3.86185E-07-7.92823E-19-4.84185E-19
 -1      1686 2.39754E-05-7.96146E-05 1.73822E-05-6.73179E-06-7.10571E-18-1.98354E-18
 -1      1687 2.19405E-05-7.25575E-05 1.57746E-05 2.61913E-06-3.84384E-18-8.27128E-19
 -1      1688 2.01706E-05-6.91328E-05 1.48081E-05-1.15788E-05-7.63134E-18-1.15514E-19
 -1      1689 2.49976E-05-8.15922E-05 1.73517E-05-3.52032E-06-7.91764E-18-1.58268E-18
 -1      1690 2.39472E-05-4.15452E-05 3.40274E-06 3.91607E-06-4.87891E-18-7.85835E-19
 -1      1691 2.66935E-05-6.23700E-05 9.59739E-06-1.51085E-06-6.93296E-18-6.64550E-19
 -1      1692 3.71360E-05-1.52769E-05-1.19545E-05 2.50651E-05-2.55042E-18-1.61614E-18
 -1      1693 3.08357E-05-3.52111E-05-3.11875E-06 7.35879E-06-3.97004E-18-9.65194E-19
 -1      1694 8.72836E-05-1.13422E-05-3.21406E-05 5.67918E-05-4.03188E-19 1.43149E-19
 -1      1695 5.98009E-05-1.64094E-05-2.14487E-05 3.35075E-05-1.31460E-18-3.37966E-19
 -1      1696 1.53051E-04-2.28908E-05-5.20757E-05 7.60020E-05-2.08370E-19 6.40357E-19
 -1      1697 1.09078E-04-1.05002E-05-4.21056E-05 6.26902E-05-2.70204E-19 5.23466E-19
 -1      1698 2.24653E-04-5.00047E-05-6.83349E-05 6.51246E-05-2.71898E-19 1.71270E-18
 -1      1699 1.78883E-04-2.91843E-05-6.05467E-05 7.29954E-05-8.34327E-20 3.03238E-19
 -1      1700 2.71168E-04-6.98292E-05-7.81020E-05 2.69986E-05 1.58819E-19 1.86474E-18
 -1      1701 2.43282E-04-5.52902E-05-7.39686E-05 5.44736E-05-4.84873E-19 8.45339E-19
 -1      1702 2.74599E-04-6.96214E-05-7.98531E-05-2.39890E-05 9.82982E-19 1.63054E-19
 -1      1703 2.77459E-04-7.14521E-05-8.00345E-05 1.23987E-05 1.24175E-18 1.44546E-18
 -1      1704 2.28021E-04-4.72565E-05-7.18574E-05-6.14211E-05-7.37448E-19 1.05117E-18
 -1      1705 2.61977E-04-6.48891E-05-7.68802E-05-3.61400E-05-5.05255E-19 1.28029E-18
 -1      1706 1.60002E-04-2.11929E-05-5.68428E-05-7.46107E-05-4.89162E-19 1.09437E-18
 -1      1707 2.08561E-04-4.21477E-05-6.55490E-05-7.21757E-05-7.62965E-19 1.64833E-18
 -1      1708 9.61392E-05-1.18867E-05-3.68012E-05-5.51565E-05 1.29596E-19 9.43595E-19
 -1      1709 1.36660E-04-1.97475E-05-4.74161E-05-7.24960E-05-1.78724E-19 1.85416E-18
 -1      1710 4.73606E-05-1.83192E-05-1.60747E-05-2.71756E-05-2.35136E-18 6.35275E-20
 -1      1711 6.87963E-05-7.57388E-06-2.66750E-05-5.15979E-05 1.81265E-19-1.61783E-19
 -1      1712 2.79194E-05-4.48273E-05 1.48772E-06-2.44093E-06-4.63751E-18 1.98756E-18
 -1      1713 2.99957E-05-2.16162E-05-6.88099E-06-1.76208E-05-3.72525E-18-1.51958E-18
 -1      1714 2.59076E-05-7.29904E-05 1.32657E-05 5.36992E-06-1.55600E-18 1.79216E-18
 -1      1715 2.03736E-05-5.17754E-05 8.01531E-06 4.66541E-06-3.65579E-18 3.75543E-18
 -1      1716 2.60465E-05-8.54749E-05 1.83640E-05-2.92818E-07 2.41881E-19 5.60948E-19
 -1      1717 2.31024E-05-7.78235E-05 1.66831E-05 9.63990E-06-1.06896E-18 1.38215E-18
 -1      1718 7.75989E-05-3.54465E-05-1.90761E-05 4.26094E-05 2.03796E-18-5.86994E-19
 -1      1719 1.27017E-05-5.57103E-05 1.35684E-05 3.75289E-06-1.09214E-19 1.40226E-18
 -1      1720 9.52687E-05-2.85785E-05-2.85758E-05-2.04600E-08-1.01444E-18-4.69595E-19
 -1      1721 9.52894E-05-2.84537E-05-2.86453E-05 1.18350E-07 3.66355E-19 5.99040E-19
 -1      1722 2.18879E-05-4.97772E-05 8.15808E-06 2.00875E-05 1.06472E-18 2.74693E-18
 -1      1723 4.54151E-05-4.43727E-05-3.19891E-06 3.28242E-05 2.17264E-18 1.85262E-18
 -1      1724 1.20134E-04-3.07394E-05-3.69708E-05 4.85780E-05 7.31836E-19 2.11504E-18
 -1      1725 1.63772E-04-3.09791E-05-5.35812E-05 4.51288E-05 7.59577E-19 3.30597E-18
 -1      1726 1.94290E-04-3.06375E-05-6.55910E-05 2.82703E-05 1.21952E-18 2.73507E-18
 -1      1727 2.08858E-04-3.10485E-05-7.13362E-05 4.87171E-06 1.99984E-18 3.12682E-18
 -1      1728 2.12339E-04-3.48093E-05-7.07431E-05-1.81924E-05 2.11843E-18 1.47765E-18
 -1      1729 1.83055E-04-3.21388E-05-6.10376E-05-3.30002E-05 1.21189E-18-5.66665E-19
 -1      1730 1.45016E-04-3.16032E-05-4.63319E-05-4.37468E-05 1.37241E-18-1.71694E-18
 -1      1731 9.95765E-05-2.99064E-05-2.94486E-05-4.77806E-05 8.87691E-19-2.00323E-18
 -1      1732 6.10555E-05-3.55645E-05-1.26899E-05-3.88404E-05 2.46487E-19-1.35144E-18
 -1      1733 3.32838E-05-4.43572E-05 1.43014E-06-2.69796E-05-1.38066E-18-3.75394E-19
 -1      1734 1.62899E-05-5.08711E-05 1.05016E-05-1.37753E-05-3.28395E-18-2.46275E-18
 -1      1735 1.20361E-05-5.36372E-05 1.31457E-05-1.91250E-06-4.67647E-18-2.27513E-18
 -1      1736 2.27880E-05-5.02760E-05 8.00542E-06 1.53176E-05-5.01444E-18 7.94305E-19
 -1      1737 4.54311E-05-4.63645E-05-2.82868E-06 2.67199E-05-4.81454E-18-1.23084E-19
 -1      1738 8.14132E-05-4.23934E-05-1.82723E-05 3.60473E-05-2.59870E-18-6.13252E-19
 -1      1739 1.26947E-04-4.06928E-05-3.64759E-05 3.98949E-05-1.14858E-18 1.65171E-19
 -1      1740 1.72560E-04-3.89141E-05-5.40652E-05 3.83357E-05-1.76183E-19 5.08220E-20
 -1      1741 2.10409E-04-4.02701E-05-6.74663E-05 2.51685E-05-1.15599E-18 2.47334E-19
 -1      1742 2.30619E-04-4.08116E-05-7.46256E-05 6.39734E-06 3.41354E-19-2.19297E-18
 -1      1743 2.24575E-04-3.82843E-05-7.36027E-05-1.19148E-05 3.87941E-19-1.21867E-18
 -1      1744 2.00330E-04-3.78068E-05-6.49043E-05-2.83006E-05-3.74177E-19-3.00697E-19
 -1      1745 1.62438E-04-4.04548E-05-4.99030E-05-3.78096E-05-1.03762E-19 3.77777E-19
 -1      1746 1.16409E-04-4.16136E-05-3.17126E-05-4.19021E-05-4.19281E-20 5.30243E-19
 -1      1747 6.86057E-05-4.21306E-05-1.33300E-05-3.59833E-05-1.83637E-18-2.29377E-18
 -1      1748 3.60126E-05-4.90106E-05 1.69326E-06-2.24346E-05-4.07423E-19 1.06536E-18
 -1      1749 1.86353E-05-5.62016E-05 1.11801E-05-9.90390E-06-2.76133E-19 2.66053E-18
 -1      1750 1.06055E-04-2.31716E-05-3.56050E-05-1.68531E-05-8.64079E-19 1.48803E-18
 -1      1751 8.91507E-05-1.05867E-05-3.37958E-05-1.33266E-05-6.95867E-19-1.79195E-18
 -1      1752 9.04826E-05-1.16318E-05-3.39356E-05-1.51353E-05-9.05551E-19-1.62344E-18
 -1      1753 9.24908E-05-1.38757E-05-3.38541E-05-1.60014E-05-1.03159E-18-1.31401E-18
 -1      1754 9.42088E-05-1.58226E-05-3.40983E-05-1.76625E-05-1.18845E-18-8.62385E-19
 -1      1755 9.34183E-05-1.63492E-05-3.30447E-05-1.37687E-05-1.00847E-18-1.34699E-18
 -1      1756 8.62109E-05-7.67408E-06-3.37296E-05-7.86426E-06 5.28552E-20-1.91852E-18
 -1      1757 8.66163E-05-7.97312E-06-3.37638E-05-9.25309E-06-9.52217E-20-1.92585E-18
 -1      1758 8.55938E-05-7.03659E-06-3.37267E-05-5.32125E-06 3.24759E-19-1.88743E-18
 -1      1759 8.58284E-05-7.21537E-06-3.37418E-05-6.62586E-06 2.13844E-19-1.94867E-18
 -1      1760 8.75932E-05-9.86740E-06-3.33429E-05-6.93005E-06 1.00865E-19-1.84414E-18
 -1      1761 8.52593E-05-6.67819E-06-3.37300E-05-2.88954E-06 6.36496E-19-1.66573E-18
 -1      1762 8.53800E-05-6.77281E-06-3.37359E-05-4.12944E-06 5.19390E-19-1.75963E-18
 -1      1763 8.69580E-05-9.15601E-06-3.33762E-05-4.53866E-06 4.37296E-19-1.74386E-18
 -1      1764 8.51287E-05-6.53019E-06-3.37334E-05-5.17660E-07 8.34098E-19-1.47312E-18
 -1      1765 8.51642E-05-6.55865E-06-3.37349E-05-1.72755E-06 7.49369E-19-1.61982E-18
 -1      1766 8.66265E-05-8.77738E-06-3.33963E-05-2.21797E-06 7.42995E-19-1.49842E-18
 -1      1767 8.51741E-05-6.56771E-06-3.37351E-05 1.84555E-06 1.08498E-18-1.27305E-18
 -1      1768 8.51324E-05-6.53474E-06-3.37334E-05 6.34654E-07 9.74889E-19-1.40825E-18
 -1      1769 8.65284E-05-8.66391E-06-3.34029E-05 6.53758E-08 9.61330E-19-1.39876E-18
 -1      1770 8.54053E-05-6.79795E-06-3.37360E-05 4.25198E-06 1.27409E-18-9.92498E-19
 -1      1771 8.52773E-05-6.69724E-06-3.37299E-05 3.00890E-06 1.20324E-18-1.15427E-18
 -1      1772 8.66442E-05-8.79696E-06-3.33956E-05 2.34988E-06 1.20825E-18-1.17182E-18
 -1      1773 8.58622E-05-7.25113E-06-3.37414E-05 6.71380E-06 1.44889E-18-6.94263E-19
 -1      1774 8.56242E-05-7.06900E-06-3.37266E-05 5.42629E-06 1.36878E-18-9.27501E-19
 -1      1775 8.69925E-05-9.19398E-06-3.33747E-05 4.65369E-06 1.39047E-18-9.03711E-19
 -1      1776 8.66748E-05-8.04036E-06-3.37621E-05 9.37654E-06 1.60205E-18-8.64503E-20
 -1      1777 8.62547E-05-7.72445E-06-3.37283E-05 7.95547E-06 1.52413E-18-3.94836E-19
 -1      1778 8.76450E-05-9.92699E-06-3.33404E-05 7.02973E-06 1.58820E-18-4.44123E-19
 -1      1779 8.80828E-05-9.38469E-06-3.38173E-05 1.22556E-05 1.64774E-18 6.12511E-19
 -1      1780 8.73459E-05-8.82855E-06-3.37455E-05 1.06628E-05 1.56753E-18 1.93097E-19
 -1      1781 8.87648E-05-1.11615E-05-3.32898E-05 9.50608E-06 1.65242E-18 1.09373E-19
 -1      1782 9.06457E-05-1.18473E-05-3.39275E-05 1.53278E-05 1.60458E-18 1.72109E-18
 -1      1783 8.92731E-05-1.07481E-05-3.37879E-05 1.35023E-05 1.62015E-18 1.04540E-18
 -1      1784 9.06580E-05-1.32253E-05-3.32076E-05 1.19593E-05 1.69854E-18 8.61433E-19
 -1      1785 9.58898E-05-1.70833E-05-3.39940E-05 1.76758E-05 1.30475E-18 3.37469E-18
 -1      1786 9.28458E-05-1.43267E-05-3.38267E-05 1.61778E-05 1.46325E-18 2.42281E-18
 -1      1787 9.38860E-05-1.68600E-05-3.30136E-05 1.38582E-05 1.53916E-18 2.06628E-18
 -1      1788 1.01921E-04-2.50975E-05-3.33610E-05 1.44156E-05 9.94205E-19 5.21095E-18
 -1      1789 9.80702E-05-1.95796E-05-3.36272E-05 1.69719E-05 1.16754E-18 4.04654E-18
 -1      1790 9.74114E-05-2.18788E-05-3.24197E-05 1.32814E-05 1.28148E-18 3.38546E-18
 -1      1791 9.87834E-05-2.61481E-05-3.13438E-05 9.43101E-06 1.07298E-18 4.91627E-18
 -1      1792 1.00158E-04-1.95641E-05-3.42188E-05-1.88693E-05-1.07908E-18 1.14349E-20
 -1      1793 9.53882E-05-2.73093E-05-2.91942E-05 4.10314E-06 7.00734E-19 4.37819E-18
 -1      1794 9.77307E-05-2.73933E-05-3.01952E-05 6.39585E-06 8.39860E-19 4.66742E-18
 -1      1795 9.75840E-05-2.56147E-05-3.08248E-05 8.72101E-06 9.87614E-19 3.77392E-18
 -1      1796 9.98180E-05-2.25431E-05-3.28369E-05-1.44677E-05-1.12904E-18-3.11973E-19
 -1      1797 9.69617E-05-2.69789E-05-2.98780E-05-5.70526E-06-1.00617E-18-3.54378E-19
 -1      1798 9.51538E-05-2.70344E-05-2.91673E-05-3.89781E-06-8.39714E-19-6.10479E-19
 -1      1799 9.43354E-05-2.72365E-05-2.86597E-05-2.42192E-06-7.45270E-19-5.82613E-19
 -1      1800 9.35635E-05-2.73172E-05-2.83545E-05-1.56900E-06-5.49003E-19-7.06482E-19
 -1      1801 9.55083E-05-2.65454E-05-2.95762E-05-4.47289E-06-9.25245E-19-7.53355E-19
 -1      1802 9.30380E-05-2.73676E-05-2.80855E-05-7.42849E-07-3.44567E-19-7.20398E-19
 -1      1803 9.27361E-05-2.74309E-05-2.79633E-05-3.04998E-07-2.75398E-19-8.34905E-19
 -1      1804 9.42980E-05-2.72223E-05-2.87672E-05-1.83089E-06-4.96636E-19-6.77011E-19
 -1      1805 9.24598E-05-2.74582E-05-2.78271E-05 1.49655E-07-3.12233E-19-6.90911E-19
 -1      1806 9.24276E-05-2.75341E-05-2.77970E-05 3.73088E-07-2.80310E-19-6.71209E-19
 -1      1807 9.35955E-05-2.75281E-05-2.83310E-05-3.65810E-07-2.84477E-19-5.62114E-19
 -1      1808 9.23234E-05-2.75652E-05-2.77385E-05 6.12042E-07-3.05578E-19-6.80115E-19
 -1      1809 9.24370E-05-2.76499E-05-2.77573E-05 7.15285E-07-1.76233E-19-7.79933E-19
 -1      1810 9.32730E-05-2.77124E-05-2.81096E-05 4.35032E-07-2.82715E-19-5.31979E-19
 -1      1811 9.24413E-05-2.76876E-05-2.77451E-05 8.25467E-07-1.53328E-19-7.17216E-19
 -1      1812 9.26273E-05-2.77738E-05-2.77893E-05 8.58403E-07-1.01130E-19-6.32126E-19
 -1      1813 9.32076E-05-2.78548E-05-2.80166E-05 8.44523E-07-1.22604E-19-4.86703E-19
 -1      1814 9.26948E-05-2.78148E-05-2.78037E-05 8.90967E-07-3.02711E-19-6.79830E-19
 -1      1815 9.29090E-05-2.78969E-05-2.78594E-05 8.82792E-07-2.99809E-19-8.15575E-19
 -1      1816 9.33000E-05-2.79775E-05-2.80004E-05 1.01813E-06-1.70468E-19-4.86948E-19
 -1      1817 9.30090E-05-2.79379E-05-2.78882E-05 8.69587E-07-2.96537E-19-9.25811E-19
 -1      1818 9.32252E-05-2.80123E-05-2.79468E-05 8.38584E-07-2.96248E-19-8.86861E-19
 -1      1819 9.34798E-05-2.80857E-05-2.80288E-05 1.04983E-06-3.39374E-19-5.42194E-19
 -1      1820 9.33379E-05-2.80508E-05-2.79821E-05 8.00222E-07-3.10476E-19-1.01518E-18
 -1      1821 9.35412E-05-2.81159E-05-2.80387E-05 7.58270E-07-3.04876E-19-1.17884E-18
 -1      1822 9.36995E-05-2.81798E-05-2.80812E-05 9.99311E-07-4.81816E-19-8.85708E-19
 -1      1823 9.36546E-05-2.81504E-05-2.80758E-05 7.08325E-07-4.20491E-19-1.27752E-18
 -1      1824 9.38380E-05-2.82059E-05-2.81278E-05 6.63360E-07-4.53563E-19-1.47876E-18
 -1      1825 9.39293E-05-2.82600E-05-2.81444E-05 9.05679E-07-5.64630E-19-9.06075E-19
 -1      1826 9.39511E-05-2.82372E-05-2.81657E-05 6.08188E-07-4.11422E-19-1.51109E-18
 -1      1827 9.41184E-05-2.82855E-05-2.82141E-05 5.63398E-07-1.77167E-19-1.60155E-18
 -1      1828 9.41566E-05-2.83280E-05-2.82122E-05 7.92312E-07-4.22741E-19-6.58926E-19
 -1      1829 9.42160E-05-2.83107E-05-2.82477E-05 5.15128E-07 1.00973E-19-1.44027E-18
 -1      1830 9.43536E-05-2.83481E-05-2.82880E-05 4.78069E-07 9.47870E-20-1.37965E-18
 -1      1831 9.43670E-05-2.83832E-05-2.82784E-05 6.79333E-07 9.03232E-20-9.76232E-19
 -1      1832 9.44428E-05-2.83696E-05-2.83193E-05 4.37973E-07-2.51111E-21-1.37332E-18
 -1      1833 9.45622E-05-2.84004E-05-2.83548E-05 4.09100E-07 2.51049E-20-1.43217E-18
 -1      1834 9.45529E-05-2.84260E-05-2.83397E-05 5.82323E-07 3.50627E-20-8.48592E-19
 -1      1835 9.46444E-05-2.84188E-05-2.83841E-05 3.80296E-07 1.43172E-20-1.64024E-18
 -1      1836 9.47510E-05-2.84446E-05-2.84164E-05 3.61557E-07-1.68816E-19-1.67033E-18
 -1      1837 9.47219E-05-2.84602E-05-2.83977E-05 5.06644E-07-1.20424E-19-9.21874E-19
 -1      1838 9.48294E-05-2.84610E-05-2.84448E-05 3.46696E-07-1.02727E-19-1.48843E-18
 -1      1839 9.49298E-05-2.84838E-05-2.84757E-05 3.39930E-07 5.14288E-20-1.34311E-18
 -1      1840 9.48795E-05-2.84876E-05-2.84537E-05 4.58963E-07-1.69416E-19-1.08491E-18
 -1      1841 9.50092E-05-2.84993E-05-2.85049E-05 3.41692E-07-6.45352E-20-9.77246E-19
 -1      1842 9.51116E-05-2.85214E-05-2.85366E-05 3.48997E-07-1.70106E-20-8.69847E-19
 -1      1843 9.50337E-05-2.85106E-05-2.85103E-05 4.45379E-07 2.64552E-19-7.11507E-19
 -1      1844 9.51977E-05-2.85374E-05-2.85687E-05 3.70533E-07-1.82717E-19-9.31462E-19
 -1      1845 9.53119E-05-2.85613E-05-2.86043E-05 3.94598E-07-1.40001E-20-1.37278E-18
 -1      1846 9.51948E-05-2.85315E-05-2.85709E-05 4.72501E-07-1.76173E-19-4.64599E-19
 -1      1847 9.54118E-05-2.85793E-05-2.86418E-05 4.39955E-07 2.94447E-20-1.72875E-18
 -1      1848 9.55495E-05-2.86079E-05-2.86848E-05 4.84410E-07 3.44442E-19-1.83497E-18
 -1      1849 9.53756E-05-2.85527E-05-2.86399E-05 5.48423E-07-2.93157E-19-8.91171E-19
 -1      1850 9.56716E-05-2.86297E-05-2.87309E-05 5.58989E-07 2.72481E-19-2.14795E-18
 -1      1851 9.58474E-05-2.86665E-05-2.87855E-05 6.28804E-07 6.10724E-20-1.96038E-18
 -1      1852 9.55911E-05-2.85768E-05-2.87227E-05 6.83692E-07-1.12938E-19-1.27620E-18
 -1      1853 9.60018E-05-2.86938E-05-2.88441E-05 7.39857E-07 1.04146E-19-1.86855E-18
 -1      1854 9.62337E-05-2.87431E-05-2.89158E-05 8.41809E-07 2.68232E-19-1.63215E-18
 -1      1855 9.58596E-05-2.86062E-05-2.88259E-05 8.92349E-07 1.81826E-19-4.56987E-19
 -1      1856 9.64321E-05-2.87781E-05-2.89916E-05 9.99017E-07 4.72123E-19-1.93110E-18
 -1      1857 9.67428E-05-2.88451E-05-2.90872E-05 1.14225E-06 6.24669E-19-1.18756E-18
 -1      1858 9.62024E-05-2.86437E-05-2.89577E-05 1.19309E-06 5.99223E-19-2.57910E-19
 -1      1859 9.69993E-05-2.88902E-05-2.91858E-05 1.35834E-06 1.06895E-19-1.46943E-18
 -1      1860 9.74174E-05-2.89816E-05-2.93137E-05 1.55496E-06 5.27256E-19-1.21750E-18
 -1      1861 9.66450E-05-2.86919E-05-2.91277E-05 1.61052E-06 4.22425E-19-2.58595E-19
 -1      1862 9.77480E-05-2.90388E-05-2.94420E-05 1.84631E-06 1.36360E-18-1.52591E-18
 -1      1863 9.83106E-05-2.91644E-05-2.96128E-05 2.11143E-06 1.33625E-18-1.16186E-18
 -1      1864 9.72168E-05-2.87541E-05-2.93473E-05 2.17623E-06 8.20519E-19-1.10155E-18
 -1      1865 9.87583E-05-2.92420E-05-2.97872E-05 2.51801E-06 8.02365E-19-1.17193E-18
 -1      1866 9.95493E-05-2.94208E-05-3.00273E-05 2.89354E-06 6.27096E-19-8.00176E-19
 -1      1867 9.79732E-05-2.88367E-05-2.96378E-05 2.95185E-06 9.36569E-19-1.49380E-18
 -1      1868 1.00092E-04-2.95153E-05-3.02409E-05 3.40380E-06 5.01793E-19-9.01839E-19
 -1      1869 1.01096E-04-2.97513E-05-3.05423E-05 3.87087E-06 3.31623E-19-4.00575E-19
 -1      1870 9.89420E-05-2.89440E-05-3.00077E-05 3.97337E-06 5.84931E-19-6.07674E-19
 -1      1871 1.01776E-04-2.98748E-05-3.08090E-05 4.52101E-06-3.52769E-19-8.78221E-19
 -1      1872 1.03087E-04-3.01965E-05-3.11979E-05 5.11053E-06-6.50505E-19-7.26868E-19
 -1      1873 1.00139E-04-2.90887E-05-3.04593E-05 5.25578E-06-2.20778E-19-1.42975E-18
 -1      1874 1.03929E-04-3.03670E-05-3.15221E-05 5.90878E-06-4.19976E-19-3.24408E-20
 -1      1875 1.05608E-04-3.08128E-05-3.20112E-05 6.61573E-06 2.21850E-20 8.47347E-20
 -1      1876 1.01635E-04-2.93092E-05-3.10074E-05 6.85095E-06-1.17822E-19-5.72989E-19
 -1      1877 1.06649E-04-3.10688E-05-3.23897E-05 7.53525E-06-4.92874E-19-1.07674E-19
 -1      1878 1.08743E-04-3.16971E-05-3.29803E-05 8.30128E-06-3.97192E-19-7.32432E-19
 -1      1879 1.03501E-04-2.96861E-05-3.16474E-05 8.73858E-06-5.93811E-19-8.77116E-19
 -1      1880 1.10045E-04-3.21208E-05-3.33963E-05 9.23641E-06-6.40635E-19-1.04559E-18
 -1      1881 1.12553E-04-3.30210E-05-3.40647E-05 9.89318E-06-1.08072E-18-1.43138E-18
 -1      1882 1.05842E-04-3.03933E-05-3.23526E-05 1.07792E-05-8.89143E-19-1.12584E-18
 -1      1883 1.14234E-04-3.37690E-05-3.44824E-05 1.05860E-05-1.45280E-18-1.60100E-18
 -1      1884 1.17051E-04-3.50592E-05-3.51599E-05 1.07725E-05-1.19971E-18-2.23581E-18
 -1      1885 1.08853E-04-3.17670E-05-3.30654E-05 1.25954E-05-1.45013E-18-2.00076E-18
 -1      1886 1.19329E-04-3.63784E-05-3.55297E-05 1.07169E-05-1.73754E-19-2.19383E-18
 -1      1887 1.22159E-04-3.81447E-05-3.60926E-05 9.82062E-06-2.27309E-19-2.24804E-18
 -1      1888 1.12883E-04-3.43557E-05-3.37025E-05 1.34036E-05-5.74692E-19-1.30223E-18
 -1      1889 1.25328E-04-4.02730E-05-3.63931E-05 8.17148E-06-2.42754E-19-1.54815E-18
 -1      1890 1.27538E-04-4.22815E-05-3.66971E-05 5.44887E-06 9.65088E-20-8.78608E-19
 -1      1891 1.18469E-04-3.88152E-05-3.42138E-05 1.18500E-05 2.84180E-19-1.81917E-18
 -1      1892 1.31555E-04-4.49479E-05-3.70348E-05 1.30803E-06-4.37281E-19-1.44213E-18
 -1      1893 1.32101E-04-4.61878E-05-3.70268E-05-3.44549E-06 1.31131E-19-2.07210E-18
 -1      1894 1.25920E-04-4.50179E-05-3.47673E-05 6.00156E-06-9.62309E-20-1.50032E-18
 -1      1895 1.35905E-04-4.78787E-05-3.77386E-05-9.95762E-06-4.13987E-20-2.39744E-18
 -1      1896 1.33593E-04-4.62209E-05-3.76164E-05-1.51515E-05-1.75945E-19-2.46745E-18
 -1      1897 1.34066E-04-5.03968E-05-3.59597E-05-5.01262E-06-3.88841E-19-1.60502E-18
 -1      1898 1.34505E-04-4.39658E-05-3.90950E-05-2.05826E-05 6.39245E-20-2.40323E-18
 -1      1899 1.29522E-04-3.84735E-05-3.91854E-05-2.17721E-05 2.40504E-19-2.64324E-18
 -1      1900 1.38955E-04-4.87536E-05-3.87780E-05-1.85905E-05-1.83012E-19-1.77144E-18
 -1      1901 1.27321E-04-3.30789E-05-4.09105E-05-2.04198E-05 6.43745E-19-1.76643E-18
 -1      1902 1.23096E-04-2.78990E-05-4.10781E-05-1.52796E-05 8.55927E-19-1.98382E-18
 -1      1903 1.37116E-04-3.72745E-05-4.30848E-05-2.39184E-05 7.56930E-19-1.46685E-18
 -1      1904 1.20994E-04-2.42280E-05-4.19616E-05-6.05814E-06 6.74450E-19-1.60822E-18
 -1      1905 1.20729E-04-2.40505E-05-4.18976E-05 2.95862E-06 1.05540E-18-4.70130E-19
 -1      1906 1.32077E-04-2.43038E-05-4.67239E-05-1.27748E-05 1.15705E-18-9.07172E-19
 -1      1907 1.22154E-04-2.74005E-05-4.08885E-05 1.29191E-05 7.57671E-19-1.69379E-18
 -1      1908 1.26410E-04-3.31117E-05-4.05077E-05 1.83636E-05 1.43784E-19-1.50951E-18
 -1      1909 1.31532E-04-2.38393E-05-4.66793E-05 8.95141E-06 4.63962E-19-1.14318E-18
 -1      1910 1.28348E-04-3.87746E-05-3.85091E-05 1.95245E-05-5.32731E-19-1.76828E-18
 -1      1911 1.32631E-04-4.39335E-05-3.82887E-05 1.77583E-05-1.57548E-19-2.10373E-18
 -1      1912 1.36155E-04-3.76121E-05-4.25634E-05 2.10443E-05-1.24514E-19-2.33082E-18
 -1      1913 1.31055E-04-4.56306E-05-3.67692E-05 1.20863E-05-1.87591E-19-2.37926E-18
 -1      1914 1.32461E-04-4.68062E-05-3.67341E-05 6.82443E-06-2.87951E-19-2.00696E-18
 -1      1915 1.36896E-04-4.86714E-05-3.79135E-05 1.48260E-05-1.89285E-19-3.67684E-18
 -1      1916 1.28360E-04-4.49205E-05-3.59503E-05 5.02182E-07-1.13659E-18-8.63600E-19
 -1      1917 1.27033E-04-4.34373E-05-3.57679E-05-4.17277E-06-4.57464E-19-1.82755E-18
 -1      1918 1.30885E-04-4.92417E-05-3.50495E-05 1.37643E-06 1.92634E-19-2.04830E-18
 -1      1919 1.22777E-04-4.07043E-05-3.53226E-05-8.13130E-06-2.50192E-19-2.06583E-18
 -1      1920 1.19890E-04-3.85293E-05-3.48257E-05-1.07630E-05-8.97921E-19-2.54348E-18
 -1      1921 1.22110E-04-4.35692E-05-3.37312E-05-9.37151E-06-1.12438E-18-1.10426E-18
 -1      1922 1.16474E-04-3.63576E-05-3.44118E-05-1.23094E-05-6.08520E-19-2.20062E-18
 -1      1923 1.13034E-04-3.44085E-05-3.36744E-05-1.31322E-05-4.54572E-19-1.98607E-18
 -1      1924 1.14169E-04-3.73208E-05-3.29987E-05-1.48770E-05-6.51997E-19-1.99900E-18
 -1      1925 1.10439E-04-3.29523E-05-3.32215E-05-1.30789E-05-5.29739E-19-1.97896E-18
 -1      1926 1.07077E-04-3.13969E-05-3.24135E-05-1.27232E-05-2.81433E-19-1.98868E-18
 -1      1927 1.08012E-04-3.27003E-05-3.23212E-05-1.62253E-05-2.71034E-19-1.51617E-18
 -1      1928 1.05041E-04-3.03859E-05-3.19701E-05-1.17337E-05-2.79064E-19-1.10506E-18
 -1      1929 1.02117E-04-2.91381E-05-3.12469E-05-1.06393E-05-1.78251E-19-1.04989E-18
 -1      1930 1.03307E-04-2.96238E-05-3.16120E-05-1.49840E-05 2.72745E-19-1.49352E-18
 -1      1931 1.00455E-04-2.83316E-05-3.08766E-05-9.03810E-06-2.42000E-19-6.85197E-19
 -1      1932 9.81258E-05-2.72862E-05-3.03283E-05-7.44492E-06 8.82635E-20-1.25217E-18
 -1      1933 9.95643E-05-2.73937E-05-3.09650E-05-1.21678E-05 3.53239E-19 3.18630E-20
 -1      1934 9.65781E-05-2.66336E-05-2.99607E-05-4.82513E-06 9.50900E-19-6.91890E-19
 -1      1935 9.27486E-05-2.73553E-05-2.79916E-05 7.89940E-07 3.16049E-19 3.32897E-18
 -1      1936 9.32230E-05-2.73100E-05-2.81878E-05 1.37015E-06 2.01270E-19 3.53899E-18
 -1      1937 9.22119E-05-2.74258E-05-2.77439E-05-8.29519E-08 2.58802E-19 3.18764E-18
 -1      1938 9.23398E-05-2.73670E-05-2.78031E-05 2.05729E-07 2.98281E-19 3.26080E-18
 -1      1939 9.36713E-05-2.74249E-05-2.84078E-05 9.57117E-07 4.26130E-19 2.18668E-18
 -1      1940 9.21053E-05-2.75199E-05-2.76665E-05-5.41783E-07 4.54016E-19 2.75892E-18
 -1      1941 9.20287E-05-2.74410E-05-2.76583E-05-3.99087E-07 4.07777E-19 2.95273E-18
 -1      1942 9.31408E-05-2.76007E-05-2.81030E-05-9.96857E-08 4.87432E-19 1.97935E-18
 -1      1943 9.22533E-05-2.76379E-05-2.76844E-05-7.56637E-07 4.10581E-19 2.33491E-18
 -1      1944 9.20706E-05-2.75496E-05-2.76414E-05-6.96565E-07 4.03632E-19 2.55050E-18
 -1      1945 9.29677E-05-2.77360E-05-2.79667E-05-6.59581E-07 5.77951E-19 1.60870E-18
 -1      1946 9.25361E-05-2.77659E-05-2.77539E-05-8.27003E-07 4.48944E-19 1.94750E-18
 -1      1947 9.23070E-05-2.76770E-05-2.76943E-05-8.15429E-07 3.00515E-19 2.18079E-18
 -1      1948 9.30133E-05-2.78580E-05-2.79303E-05-9.24634E-07 5.16301E-19 1.18012E-18
 -1      1949 9.28775E-05-2.78925E-05-2.78479E-05-8.12574E-07 4.95044E-19 1.94648E-18
 -1      1950 9.26375E-05-2.78089E-05-2.77829E-05-8.28972E-07 5.18689E-19 2.02779E-18
 -1      1951 9.31844E-05-2.79719E-05-2.79521E-05-1.01297E-06 5.20472E-19 9.33204E-19
 -1      1952 9.32308E-05-2.80104E-05-2.79500E-05-7.51036E-07 4.34405E-19 1.85556E-18
 -1      1953 9.30002E-05-2.79353E-05-2.78861E-05-7.82320E-07 5.36226E-19 2.09380E-18
 -1      1954 9.34181E-05-2.80764E-05-2.80056E-05-9.96965E-07 6.02665E-19 1.08223E-18
 -1      1955 9.35686E-05-2.81157E-05-2.80505E-05-6.66966E-07 4.59828E-19 1.56768E-18
 -1      1956 9.33584E-05-2.80504E-05-2.79912E-05-7.04550E-07 4.73478E-19 1.77923E-18
 -1      1957 9.36738E-05-2.81693E-05-2.80742E-05-9.23006E-07 5.50471E-19 1.36699E-18
 -1      1958 9.38768E-05-2.82067E-05-2.81440E-05-5.76636E-07 4.45881E-19 1.52278E-18
 -1      1959 9.36914E-05-2.81515E-05-2.80910E-05-6.14822E-07 4.97693E-19 1.66759E-18
 -1      1960 9.39268E-05-2.82494E-05-2.81475E-05-8.21623E-07 4.63455E-19 1.45662E-18
 -1      1961 9.41505E-05-2.82838E-05-2.82285E-05-4.90893E-07-1.79615E-19 1.86869E-18
 -1      1962 9.39902E-05-2.82379E-05-2.81821E-05-5.25873E-07 1.45627E-19 1.78355E-18
 -1      1963 9.41637E-05-2.83168E-05-2.82198E-05-7.13176E-07 1.79993E-19 1.17818E-18
 -1      1964 9.43909E-05-2.83486E-05-2.83037E-05-4.17031E-07-2.10403E-19 1.74669E-18
 -1      1965 9.42530E-05-2.83105E-05-2.82633E-05-4.46228E-07-2.22320E-19 1.89493E-18
 -1      1966 9.43788E-05-2.83724E-05-2.82880E-05-6.11343E-07-1.67025E-19 1.28189E-18
 -1      1967 9.46033E-05-2.84033E-05-2.83711E-05-3.60091E-07-1.04385E-19 1.91858E-18
 -1      1968 9.44833E-05-2.83715E-05-2.83356E-05-3.81689E-07-4.13590E-22 1.76077E-18
 -1      1969 9.45721E-05-2.84179E-05-2.83514E-05-5.25434E-07-1.98332E-19 1.65320E-18
 -1      1970 9.47964E-05-2.84509E-05-2.84332E-05-3.23773E-07-8.82075E-20 1.90273E-18
 -1      1971 9.46885E-05-2.84233E-05-2.84008E-05-3.36389E-07-9.95185E-20 1.81835E-18
 -1      1972 9.47473E-05-2.84555E-05-2.84105E-05-4.61985E-07-1.60610E-19 1.17456E-18
 -1      1973 9.49812E-05-2.84948E-05-2.84931E-05-3.11047E-07 2.40073E-19 1.60818E-18
 -1      1974 9.48782E-05-2.84694E-05-2.84619E-05-3.13512E-07 4.55099E-20 1.77274E-18
 -1      1975 9.49112E-05-2.84876E-05-2.84673E-05-4.25875E-07 7.18176E-20 1.27925E-18
 -1      1976 9.51704E-05-2.85390E-05-2.85546E-05-3.24516E-07 3.15280E-19 1.36682E-18
 -1      1977 9.50643E-05-2.85132E-05-2.85224E-05-3.15759E-07 4.50520E-19 9.52788E-19
 -1      1978 9.50725E-05-2.85171E-05-2.85241E-05-4.21059E-07 4.98944E-19 5.47281E-19
 -1      1979 9.53782E-05-2.85878E-05-2.86221E-05-3.66500E-07 4.26232E-19 6.98007E-19
 -1      1980 9.52605E-05-2.85589E-05-2.85863E-05-3.45548E-07 2.67157E-19 1.11089E-18
 -1      1981 9.52417E-05-2.85474E-05-2.85841E-05-4.50943E-07 5.80867E-19 1.62172E-19
 -1      1982 9.56202E-05-2.86462E-05-2.87001E-05-4.38825E-07 8.44598E-19 3.88191E-19
 -1      1983 9.54816E-05-2.86112E-05-2.86581E-05-4.04932E-07 4.50966E-19 6.07442E-19
 -1      1984 9.54306E-05-2.85821E-05-2.86506E-05-5.18408E-07 6.49503E-19-1.75879E-19
 -1      1985 9.59125E-05-2.87196E-05-2.87932E-05-5.42238E-07 2.96363E-19 9.76987E-19
 -1      1986 9.57434E-05-2.86754E-05-2.87424E-05-4.95182E-07 7.37164E-19 1.17595E-18
 -1      1987 9.56522E-05-2.86259E-05-2.87274E-05-6.25411E-07 3.61725E-19 3.37310E-19
 -1      1988 9.62709E-05-2.88141E-05-2.89057E-05-6.75338E-07 2.11861E-19 8.54706E-19
 -1      1989 9.60623E-05-2.87571E-05-2.88436E-05-6.15943E-07 2.39027E-19 1.37129E-18
 -1      1990 9.59201E-05-2.86842E-05-2.88177E-05-7.72065E-07 4.33024E-19 1.51567E-18
 -1      1991 9.67092E-05-2.89361E-05-2.90410E-05-8.32946E-07 4.54999E-19 8.61515E-19
 -1      1992 9.64536E-05-2.88628E-05-2.89657E-05-7.63854E-07 2.17476E-19 1.00873E-18
 -1      1993 9.62479E-05-2.87634E-05-2.89247E-05-9.55102E-07 2.20562E-19 1.14057E-18
 -1      1994 9.72371E-05-2.90919E-05-2.92008E-05-1.00380E-06-1.78199E-19 1.15894E-18
 -1      1995 9.69301E-05-2.89992E-05-2.91114E-05-9.30556E-07 4.85738E-19 1.24472E-18
 -1      1996 9.66479E-05-2.88715E-05-2.90502E-05-1.16557E-06 2.23422E-19 1.46309E-18
 -1      1997 9.78559E-05-2.92869E-05-2.93836E-05-1.16761E-06-6.63688E-19 1.66558E-18
 -1      1998 9.74990E-05-2.91726E-05-2.92811E-05-1.10002E-06-8.33461E-19 1.29682E-18
 -1      1999 9.71294E-05-2.90173E-05-2.91942E-05-1.38575E-06-5.79329E-19 2.21458E-18
 -1      2000 9.85540E-05-2.95242E-05-2.95834E-05-1.29183E-06-1.73497E-19 1.91693E-18
 -1      2001 9.81578E-05-2.93881E-05-2.94716E-05-1.24539E-06-7.23442E-20 2.10753E-18
 -1      2002 9.76958E-05-2.92106E-05-2.93540E-05-1.58535E-06-7.02817E-19 2.26830E-18
 -1      2003 9.93000E-05-2.98021E-05-2.97879E-05-1.32881E-06-2.70027E-19 1.71496E-18
 -1      2004 9.88887E-05-2.96478E-05-2.96745E-05-1.32586E-06-7.26013E-20 1.80237E-18
 -1      2005 9.83410E-05-2.94605E-05-2.95228E-05-1.71765E-06-5.99375E-20 2.37026E-18
 -1      2006 1.00036E-04-3.01105E-05-2.99768E-05-1.21524E-06-5.76213E-19 1.83685E-18
 -1      2007 9.96516E-05-2.99475E-05-2.98744E-05-1.28484E-06-3.66573E-19 1.89935E-18
 -1      2008 9.90442E-05-2.97728E-05-2.96890E-05-1.71672E-06-4.62971E-19 1.52380E-18
 -1      2009 1.00671E-04-3.04252E-05-3.01211E-05-8.76603E-07-4.28516E-19 2.20388E-18
 -1      2010 1.00376E-04-3.02721E-05-3.00479E-05-1.05179E-06-3.33250E-19 1.84136E-18
 -1      2011 9.97635E-05-3.01445E-05-2.98358E-05-1.49834E-06-3.61753E-19 1.50816E-18
 -1      2012 1.01077E-04-3.07017E-05-3.01845E-05-2.41138E-07-1.20035E-19 1.54012E-18
 -1      2013 1.00957E-04-3.05889E-05-3.01633E-05-5.51430E-07-4.14970E-19 1.63961E-18
 -1      2014 1.00429E-04-3.05553E-05-2.99413E-05-9.68503E-07-2.48229E-19 2.00763E-18
 -1      2015 1.01098E-04-3.08690E-05-3.01282E-05 7.32415E-07 2.94119E-19 1.49589E-18
 -1      2016 1.01250E-04-3.08404E-05-3.01833E-05 2.75006E-07 5.12289E-19 1.42274E-18
 -1      2017 1.00934E-04-3.09557E-05-2.99816E-05-4.50941E-08 1.31575E-19 1.28169E-18
 -1      2018 1.00566E-04-3.08293E-05-2.99197E-05 2.01195E-06 4.48395E-19 7.02020E-19
 -1      2019 1.01082E-04-3.09392E-05-3.00713E-05 1.43306E-06 3.51122E-19 1.08890E-18
 -1      2020 1.01138E-04-3.12545E-05-2.99353E-05 1.30245E-06 5.75044E-19 1.40248E-18
 -1      2021 9.93486E-05-3.04731E-05-2.95461E-05 3.44279E-06-1.62677E-19 5.27652E-19
 -1      2022 1.00282E-04-3.07734E-05-2.98016E-05 2.82634E-06 5.10006E-19 5.28352E-19
 -1      2023 1.00875E-04-3.13160E-05-2.97900E-05 2.99623E-06 4.26046E-19 1.48927E-18
 -1      2024 9.74151E-05-2.97198E-05-2.90275E-05 4.71864E-06 5.82937E-19 8.26757E-19
 -1      2025 9.87406E-05-3.02343E-05-2.93723E-05 4.21377E-06-2.12817E-20 5.75784E-19
 -1      2026 9.99895E-05-3.09826E-05-2.95501E-05 4.79123E-06-8.69598E-20 3.13326E-19
 -1      2027 9.49180E-05-2.85852E-05-2.84246E-05 5.41674E-06 8.59724E-19 6.08342E-19
 -1      2028 9.64923E-05-2.92752E-05-2.88173E-05 5.21109E-06 6.84860E-19 8.80309E-19
 -1      2029 9.84181E-05-3.01401E-05-2.92400E-05 6.25411E-06 3.64854E-19 3.22311E-19
 -1      2030 9.22431E-05-2.72481E-05-2.78322E-05 5.13609E-06 2.00193E-19 1.51589E-18
 -1      2031 9.38024E-05-2.79885E-05-2.82086E-05 5.38353E-06 1.02209E-18 1.90685E-18
 -1      2032 9.62856E-05-2.88217E-05-2.89029E-05 6.83773E-06 2.58133E-19 9.07462E-19
 -1      2033 8.99646E-05-2.60508E-05-2.73577E-05 3.71576E-06-1.28200E-19 4.35047E-19
 -1      2034 9.11801E-05-2.66493E-05-2.76460E-05 4.44102E-06-8.44121E-20 1.35260E-18
 -1      2035 9.39779E-05-2.72921E-05-2.85896E-05 6.09046E-06 5.89647E-19 1.66773E-18
 -1      2036 8.86646E-05-2.53798E-05-2.70890E-05 1.41185E-06-1.13746E-18 3.18298E-19
 -1      2037 8.92545E-05-2.56529E-05-2.72320E-05 2.45355E-06-6.56543E-19 8.56463E-20
 -1      2038 9.20841E-05-2.60154E-05-2.83457E-05 3.94059E-06-4.05041E-19 2.58632E-19
 -1      2039 8.86716E-05-2.54654E-05-2.70661E-05-1.13175E-06-7.06022E-19 5.79682E-19
 -1      2040 8.85199E-05-2.53335E-05-2.70417E-05-7.66177E-08-9.20665E-19 5.67216E-19
 -1      2041 9.11671E-05-2.54555E-05-2.82020E-05 8.69338E-07-1.01224E-18 6.27122E-19
 -1      2042 8.98876E-05-2.62423E-05-2.72681E-05-3.15323E-06-4.47558E-19 1.58025E-18
 -1      2043 8.90973E-05-2.57757E-05-2.70975E-05-2.39503E-06-2.93738E-19 8.15891E-19
 -1      2044 9.14705E-05-2.58182E-05-2.81689E-05-2.22086E-06-9.94956E-19 5.64351E-19
 -1      2045 9.18254E-05-2.73797E-05-2.76221E-05-4.12785E-06-1.26574E-19 3.42969E-19
 -1      2046 9.06730E-05-2.67615E-05-2.73614E-05-3.84141E-06-6.30604E-19 1.18669E-18
 -1      2047 9.27750E-05-2.69168E-05-2.82371E-05-4.41040E-06-2.34248E-19-5.03687E-19
 -1      2048 9.38491E-05-2.84689E-05-2.80278E-05-3.97687E-06 1.08292E-18-7.31420E-19
 -1      2049 9.26644E-05-2.78975E-05-2.77479E-05-4.14425E-06 2.77240E-19-8.12470E-19
 -1      2050 9.45186E-05-2.82837E-05-2.83787E-05-5.19316E-06 4.93647E-19-2.11028E-18
 -1      2051 9.54452E-05-2.92187E-05-2.83906E-05-3.01069E-06 1.48057E-18-6.13351E-19
 -1      2052 9.44915E-05-2.88263E-05-2.81529E-05-3.47142E-06 1.57034E-18-1.12411E-19
 -1      2053 9.60984E-05-2.94314E-05-2.85519E-05-4.64098E-06 1.01446E-18-1.44228E-18
 -1      2054 9.63631E-05-2.95288E-05-2.86480E-05-1.71336E-06 1.61049E-18 3.99593E-19
 -1      2055 9.57717E-05-2.93558E-05-2.84882E-05-2.25969E-06 1.93346E-18 2.97146E-19
 -1      2056 9.71187E-05-3.00708E-05-2.87127E-05-3.24145E-06 1.20204E-18-5.09184E-19
 -1      2057 9.66111E-05-2.94552E-05-2.87810E-05-5.33303E-07-1.06351E-18 9.04175E-19
 -1      2058 9.63790E-05-2.94699E-05-2.87042E-05-9.89092E-07 1.33818E-19 1.20192E-18
 -1      2059 9.74632E-05-3.01580E-05-2.88274E-05-1.60861E-06 1.12321E-18 1.51225E-18
 -1      2060 9.63718E-05-2.91387E-05-2.88091E-05 2.30621E-07-7.52703E-19 2.28261E-18
 -1      2061 9.63972E-05-2.92672E-05-2.87963E-05-2.76398E-08-9.28975E-19 1.28538E-18
 -1      2062 9.72302E-05-2.98161E-05-2.88811E-05-2.52065E-07-9.86777E-19 1.84404E-18
 -1      2063 9.58962E-05-2.87449E-05-2.87697E-05 4.58482E-07 1.16517E-18 9.38983E-19
 -1      2064 9.60395E-05-2.88973E-05-2.87928E-05 4.33697E-07-2.41063E-19 1.31229E-18
 -1      2065 9.66298E-05-2.92433E-05-2.88762E-05 5.25866E-07 1.44749E-19 1.27899E-18
 -1      2066 9.54615E-05-2.84959E-05-2.86945E-05 2.97593E-07 7.95062E-19 4.66776E-19
 -1      2067 9.56059E-05-2.85846E-05-2.87327E-05 4.08827E-07 1.52908E-18 1.53229E-18
 -1      2068 9.59967E-05-2.87689E-05-2.88190E-05 6.50022E-07 9.83342E-19 9.79405E-19
 -1      2069 9.54709E-05-2.84304E-05-2.87325E-05 3.96715E-07 8.24917E-19 3.30988E-18
 -1      2070 9.54012E-05-2.63405E-05-2.95618E-05 3.36223E-06 6.45155E-19-1.93470E-18
 -1      2071 9.55830E-05-2.71577E-05-2.93136E-05 2.69867E-06 2.92644E-20-2.14645E-18
 -1      2072 9.55941E-05-2.75125E-05-2.91436E-05 1.94008E-06 4.46199E-19-2.44129E-18
 -1      2073 9.56286E-05-2.80005E-05-2.89828E-05 1.41667E-06 3.53572E-19 1.25347E-18
 -1      2074 9.61255E-05-2.78873E-05-2.92649E-05 2.93233E-06-9.62942E-20-1.31891E-18
 -1      2075 9.55009E-05-2.82082E-05-2.88217E-05 7.10786E-07 5.75952E-19 3.29600E-18
 -1      2076 9.48660E-05-2.45267E-05-3.01177E-05 4.92784E-06-3.17220E-19-1.48427E-18
 -1      2077 9.52480E-05-2.57200E-05-2.97828E-05 4.23890E-06-2.17093E-19-1.25130E-18
 -1      2078 9.60224E-05-2.69313E-05-2.96337E-05 4.74493E-06-3.93569E-19-2.57680E-18
 -1      2079 9.38648E-05-2.19685E-05-3.08036E-05 6.33008E-06 2.54047E-19 1.05063E-18
 -1      2080 9.44923E-05-2.35481E-05-3.03877E-05 5.77374E-06 3.48789E-20 1.15908E-19
 -1      2081 9.54576E-05-2.53253E-05-3.00820E-05 6.68172E-06-6.49279E-19 2.55466E-20
 -1      2082 9.24079E-05-1.88531E-05-3.15421E-05 7.03657E-06-8.80762E-19-3.97872E-19
 -1      2083 9.32433E-05-2.06530E-05-3.10949E-05 6.85532E-06-6.69722E-19 4.31277E-19
 -1      2084 9.42734E-05-2.29726E-05-3.05787E-05 8.24059E-06-4.03044E-19-5.80590E-20
 -1      2085 9.06755E-05-1.55912E-05-3.22273E-05 6.54122E-06-1.26217E-18-3.48306E-19
 -1      2086 9.15889E-05-1.73319E-05-3.18179E-05 6.94226E-06-1.32487E-18 6.79903E-19
 -1      2087 9.24946E-05-2.00252E-05-3.10651E-05 8.76082E-06-1.33712E-18 5.57672E-19
 -1      2088 8.90491E-05-1.28279E-05-3.27359E-05 4.55974E-06-1.49938E-19 2.00904E-18
 -1      2089 8.98225E-05-1.41419E-05-3.24445E-05 5.61986E-06-6.47702E-19 3.97649E-19
 -1      2090 9.03910E-05-1.69078E-05-3.14755E-05 7.65683E-06-2.60284E-18-1.61601E-19
 -1      2091 8.80169E-05-1.12841E-05-3.29593E-05 1.24751E-06 3.14772E-19-2.37374E-19
 -1      2092 8.84086E-05-1.18183E-05-3.28560E-05 2.83351E-06-4.72949E-19 1.95883E-18
 -1      2093 8.84885E-05-1.43071E-05-3.17481E-05 4.70161E-06-1.52143E-18 1.26160E-18
 -1      2094 8.79739E-05-1.14761E-05-3.28431E-05-2.66647E-06 4.27904E-19-1.84619E-18
 -1      2095 8.78206E-05-1.10370E-05-3.29596E-05-9.31203E-07-1.36748E-19-1.40095E-18
 -1      2096 8.74146E-05-1.29704E-05-3.18426E-05 3.07624E-07-5.63980E-19-1.16516E-18
 -1      2097 8.90426E-05-1.35161E-05-3.23986E-05-6.33156E-06 2.32157E-18 2.33411E-18
 -1      2098 8.83278E-05-1.21111E-05-3.27261E-05-4.83600E-06 1.45106E-18 1.95820E-18
 -1      2099 8.75997E-05-1.33648E-05-3.17539E-05-4.59189E-06 1.78489E-18 7.02743E-19
 -1      2100 9.10449E-05-1.70249E-05-3.17181E-05-8.69229E-06 1.55971E-18 5.54280E-19
 -1      2101 8.98931E-05-1.49167E-05-3.21884E-05-7.88411E-06 2.42902E-18-5.63376E-19
 -1      2102 8.91217E-05-1.55095E-05-3.15074E-05-8.77510E-06 1.64751E-18 1.26517E-18
 -1      2103 9.35206E-05-2.12310E-05-3.09398E-05-9.04959E-06-3.63132E-19 3.57241E-19
 -1      2104 9.21877E-05-1.88611E-05-3.14622E-05-9.17040E-06 4.70580E-19 1.89549E-18
 -1      2105 9.17434E-05-1.89574E-05-3.11689E-05-1.10652E-05-3.11179E-19 1.33718E-19
 -1      2106 9.36583E-05-2.73470E-05-2.83745E-05 2.02505E-06 3.07870E-19 3.88312E-18
 -1      2107 9.47548E-05-2.73482E-05-2.88285E-05 3.12760E-06 5.11039E-19 4.08456E-18
 -1      2108 9.54920E-05-2.68474E-05-2.94205E-05 4.53335E-06 6.60209E-19 3.26096E-18
 -1      2109 9.44270E-05-2.71782E-05-2.88343E-05 2.49664E-06 4.82260E-19 2.70521E-18
 -1      2110 6.34788E-05-4.30919E-05-9.23672E-06 4.33999E-05 1.06980E-18 6.03670E-19
 -1      2111 4.82478E-05-4.46380E-05-2.67799E-06 3.72321E-05 5.08220E-19 1.64970E-18
 -1      2112 1.38057E-04-4.34033E-05-4.00670E-05 3.71908E-05 5.88264E-19 3.98063E-18
 -1      2113 1.17872E-04-4.48170E-05-3.18179E-05 3.75675E-05 1.38066E-18 2.44157E-18
 -1      2114 1.28636E-05-3.58333E-05 8.65260E-06 8.02295E-06-7.51848E-19 8.01293E-19
 -1      2115 1.32205E-05-3.89493E-05 9.41831E-06-2.35902E-06-2.71580E-19 1.02576E-18
 -1      2116 1.00389E-04-4.31089E-05-2.44729E-05 4.55189E-05 2.30944E-18-6.46286E-19
 -1      2117 8.15591E-05-4.63609E-05-1.61191E-05 4.08762E-05 2.38016E-18-3.87941E-19
 -1      2118 8.72494E-05-8.72427E-06-3.37490E-05-1.05425E-05-2.85576E-19-1.89906E-18
 -1      2119 8.79528E-05-9.24015E-06-3.38208E-05-1.20998E-05-5.27295E-19-1.83635E-18
 -1      2120 9.04820E-05-1.30485E-05-3.32350E-05-1.18767E-05-7.09658E-19-1.62993E-18
 -1      2121 8.86873E-05-1.10579E-05-3.32951E-05-9.41404E-06-2.11798E-19-1.77350E-18
 -1      2122 1.66156E-04-3.65137E-05-5.46714E-05 2.42415E-05 1.29824E-18 3.30258E-18
 -1      2123 1.48736E-04-3.80248E-05-4.75058E-05 2.63313E-05 6.59733E-19 4.11023E-18
 -1      2124 1.73947E-04-2.60429E-05-6.29656E-05 7.25175E-06 9.99922E-19 2.58472E-18
 -1      2125 1.69602E-04-2.98769E-05-5.91851E-05 1.68141E-05 1.20872E-18 2.98706E-18
 -1      2126 1.58076E-04-3.24749E-05-5.30059E-05 3.46541E-06 9.61065E-19 2.34798E-18
 -1      2127 1.83298E-04-2.24016E-05-6.77222E-05-7.98954E-07 2.45174E-18 1.29533E-18
 -1      2128 1.74967E-04-1.97255E-05-6.60701E-05 4.85435E-06 1.95665E-18 1.93589E-18
 -1      2129 1.81006E-04-2.55082E-05-6.56863E-05-1.20887E-05 2.19000E-18 1.44080E-18
 -1      2130 1.85685E-04-2.47714E-05-6.79183E-05-3.62545E-06 2.41108E-18 1.38331E-18
 -1      2131 1.61893E-04-1.20129E-05-6.31123E-05 2.29868E-07 3.01840E-18-1.43254E-19
 -1      2132 1.59380E-04-3.10547E-05-5.49433E-05-1.60537E-05 1.99582E-18-3.15096E-19
 -1      2133 1.76881E-04-3.03001E-05-6.13693E-05-1.52309E-05 2.25480E-18 1.02533E-18
 -1      2134 1.35072E-04-4.20930E-05-4.00181E-05-3.13716E-05 1.71058E-18-2.32638E-18
 -1      2135 1.52370E-04-4.09794E-05-4.74755E-05-2.60790E-05 1.95225E-18-1.58226E-18
 -1      2136 1.00173E-04-4.35128E-05-2.51280E-05-4.04593E-05 1.53059E-18-2.72787E-18
 -1      2137 1.20741E-04-4.25972E-05-3.32577E-05-4.21557E-05 1.52635E-18-2.84857E-18
 -1      2138 6.73631E-05-4.36542E-05-1.12834E-05-4.05714E-05 9.15643E-19-2.54523E-18
 -1      2139 8.44477E-05-4.07715E-05-1.87823E-05-4.57539E-05 1.45859E-18-3.75405E-18
 -1      2140 1.06890E-04-5.26544E-05-2.31059E-05-4.14029E-05 1.59920E-18-3.38263E-18
 -1      2141 3.41754E-05-4.14520E-05 1.54808E-06-3.12549E-05-1.75336E-18-1.20977E-18
 -1      2142 4.66971E-05-3.82801E-05-4.26918E-06-3.97959E-05-4.63751E-19-1.86527E-18
 -1      2143 1.53202E-05-3.70230E-05 7.90477E-06-1.68867E-05-2.84201E-18-3.02052E-18
 -1      2144 2.23264E-05-3.75706E-05 5.28753E-06-2.51515E-05-2.34670E-18-1.78216E-18
 -1      2145 3.36270E-05-3.42692E-05-3.65212E-07-3.54679E-05-1.65976E-18-2.46444E-18
 -1      2146 1.39271E-05-3.74218E-05 8.61985E-06 6.13162E-06-2.96059E-18-9.36395E-19
 -1      2147 1.12877E-05-3.45254E-05 8.74709E-06-3.58649E-06-2.60870E-18-2.30266E-18
 -1      2148 3.14569E-05-3.71934E-05 1.67668E-06 2.63665E-05-3.61937E-18 3.27590E-19
 -1      2149 2.11338E-05-3.99618E-05 6.40381E-06 1.50786E-05-3.10501E-18 6.58992E-19
 -1      2150 2.04190E-05-2.75664E-05 2.59960E-06 1.51989E-05-1.34551E-18 4.53163E-20
 -1      2151 6.55784E-05-4.61811E-05-9.15603E-06 3.64044E-05-4.28302E-18-2.02176E-19
 -1      2152 5.13962E-05-4.55903E-05-3.45935E-06 3.31298E-05-4.76964E-18 7.91976E-20
 -1      2153 1.05876E-04-5.08982E-05-2.37481E-05 3.79092E-05-1.66442E-18 1.58692E-18
 -1      2154 8.31117E-05-5.06097E-05-1.53101E-05 3.39091E-05-3.57363E-18 6.72332E-19
 -1      2155 8.87974E-05-5.47725E-05-1.49327E-05 3.80363E-05-3.74007E-18 1.63686E-18
 -1      2156 1.47495E-04-5.06415E-05-4.08467E-05 2.86262E-05-2.94344E-19 9.42748E-19
 -1      2157 1.26226E-04-5.28222E-05-3.21559E-05 2.77879E-05-3.94717E-19 1.48993E-18
 -1      2158 1.75914E-04-4.50489E-05-5.48053E-05 1.83943E-05 1.14879E-20-8.21622E-19
 -1      2159 1.56540E-04-4.64945E-05-4.72442E-05 2.11225E-05 4.53163E-20-7.30142E-19
 -1      2160 1.56766E-04-5.66383E-05-4.23386E-05 9.65403E-06 6.41204E-19 2.46487E-19
 -1      2161 1.95720E-04-3.66935E-05-6.62479E-05 6.27446E-06-7.53012E-19-1.89397E-18
 -1      2162 1.83237E-04-3.77290E-05-6.12761E-05 1.10532E-05-1.32603E-18-1.04524E-18
 -1      2163 2.01006E-04-3.10737E-05-7.09075E-05-2.11803E-06 1.01644E-18-3.57559E-18
 -1      2164 1.97458E-04-3.15431E-05-6.92598E-05 3.25861E-06 1.00373E-19-3.38983E-18
 -1      2165 1.89934E-04-2.92687E-05-6.76991E-05-6.35426E-06-4.91703E-19-2.44793E-18
 -1      2166 1.99517E-04-3.03547E-05-7.03052E-05-3.09042E-06 1.07150E-19-2.89368E-18
 -1      2167 1.76022E-04-3.90154E-05-5.80847E-05-1.30599E-05 3.25049E-20-1.26081E-18
 -1      2168 1.87470E-04-3.60806E-05-6.35694E-05-7.93817E-06-3.05779E-19-1.57463E-18
 -1      2169 1.51097E-04-4.83620E-05-4.42059E-05-2.21048E-05 2.54957E-19-4.31987E-19
 -1      2170 1.70710E-04-4.58225E-05-5.24766E-05-2.15187E-05 1.27214E-19-1.05667E-18
 -1      2171 1.13816E-04-5.33959E-05-2.67407E-05-3.42962E-05-1.54160E-19 7.96211E-20
 -1      2172 1.36630E-04-5.34375E-05-3.55369E-05-3.35600E-05 6.01393E-19 1.10919E-18
 -1      2173 7.12217E-05-4.96383E-05-1.08096E-05-3.61887E-05-1.30994E-18-2.24432E-18
 -1      2174 9.20202E-05-4.86328E-05-1.90079E-05-4.20584E-05-2.10234E-18-1.50475E-18
 -1      2175 3.79162E-05-4.60721E-05 1.63793E-06-2.78923E-05 1.96808E-18 1.47723E-18
 -1      2176 5.14526E-05-4.37543E-05-4.29545E-06-3.57638E-05 1.09691E-18-8.70538E-19
 -1      2177 1.68126E-05-4.16459E-05 8.90824E-06-1.12832E-05 6.46498E-19 1.07023E-18
 -1      2178 2.28137E-05-4.03853E-05 6.04433E-06-2.01086E-05 7.43695E-19 1.14519E-18
 -1      2179 1.63560E-05-2.88423E-05 4.52431E-06-9.17943E-06 7.51742E-19 4.04458E-19
 -1      2180 2.99869E-05-3.76733E-05 2.46735E-06 3.13486E-05 8.91502E-19 1.87194E-18
 -1      2181 2.03677E-05-3.91938E-05 6.64344E-06 2.04642E-05-2.60886E-19 2.15189E-18
 -1      2182 9.63832E-05-2.55740E-05-3.03388E-05-7.61456E-06 3.86760E-19-8.03915E-19
 -1      2183 1.21805E-04-5.51892E-05-2.83036E-05 3.67907E-05 1.68094E-18 2.02399E-18
 -1      2184 9.71909E-05-2.43155E-05-3.13057E-05-1.00033E-05-1.08494E-18-5.56382E-19
 -1      2185 8.50653E-05-5.12788E-05-1.47419E-05 4.52842E-05 1.16340E-18 1.07838E-19
 -1      2186 1.48363E-04-4.88225E-05-4.20764E-05 1.87120E-05 7.96846E-19 3.66130E-18
 -1      2187 9.63497E-05-2.31065E-05-3.14559E-05-1.03863E-05-1.11414E-18-8.90893E-19
 -1      2188 9.59142E-05-2.83834E-05-2.89349E-05 1.28672E-06 1.71219E-19 2.98710E-18
 -1      2189 1.94874E-05-2.86853E-05 3.41059E-06 1.71580E-05-5.34478E-19 1.89481E-18
 -1      2190 9.54510E-05-2.38844E-05-3.06766E-05-8.60719E-06-3.16499E-19-5.08129E-19
 -1      2191 4.63247E-05-3.97503E-05-3.22004E-06 3.96552E-05-7.75035E-20 1.62186E-18
 -1      2192 9.55765E-05-2.37131E-05-3.07861E-05-1.11770E-05-4.37459E-19-1.97366E-19
 -1      2193 3.56439E-05-3.83637E-05 3.54224E-07-3.06860E-05 2.32087E-18 5.34690E-19
 -1      2194 7.34006E-05-5.06821E-05-1.01671E-05-4.16025E-05 5.69206E-19-1.43919E-18
 -1      2195 1.15872E-04-6.05329E-05-2.36258E-05-3.58994E-05-9.06749E-19-9.99922E-19
 -1      2196 1.50604E-04-5.92845E-05-3.87977E-05-1.69585E-05 4.38128E-19-7.13202E-19
 -1      2197 1.68097E-04-4.42920E-05-5.21725E-05-1.97236E-07 2.88521E-19-1.37643E-18
 -1      2198 1.73558E-04-2.78158E-05-6.13034E-05 4.04730E-06-3.96835E-19-2.93349E-18
 -1      2199 1.76587E-04-1.95043E-05-6.55434E-05-2.21064E-06 4.90432E-19-3.48025E-18
 -1      2200 1.72474E-04-4.24902E-05-5.45707E-05-1.59826E-06-6.28710E-19-1.78766E-18
 -1      2201 1.28286E-04-6.14709E-05-2.86143E-05 2.71902E-05-4.65021E-19 3.10332E-18
 -1      2202 4.68438E-05-4.07275E-05-3.08644E-06 3.24070E-05-3.19670E-18 2.42463E-19
 -1      2203 4.35151E-05-3.29247E-05-4.12890E-06 3.26049E-05-1.90053E-18 1.23243E-19
 -1      2204 6.26672E-05-4.33763E-05-8.70442E-06 3.87840E-05-2.36746E-18 6.44804E-19
 -1      2205 1.54638E-05-2.71236E-05 4.32239E-06-1.18933E-05-1.33355E-18-2.55211E-18
 -1      2206 6.83999E-05-4.52250E-05-1.02691E-05-4.53489E-05 7.88164E-19-3.66876E-18
 -1      2207 1.36144E-04-5.22798E-05-3.53440E-05-2.72465E-05 2.14003E-18-2.41870E-18
 -1      2208 1.61339E-04-2.05897E-05-5.94570E-05 5.63628E-07 2.77319E-18 2.01975E-18
 -1      2209 1.59762E-04-1.71431E-05-6.04591E-05-9.57486E-07 1.50857E-18 9.92723E-19
 -1      2210 1.54163E-04-3.96862E-05-4.87548E-05-8.12420E-06 2.32659E-18-2.30393E-19
 -1      2211 1.78505E-04-2.64146E-05-6.34379E-05-6.11280E-06 4.44692E-20-3.32969E-18
 -1      2212 8.81351E-05-1.11837E-05-3.30185E-05-3.66226E-06 5.39246E-19-1.55636E-18
 -1      2213 8.83687E-05-1.14536E-05-3.30006E-05-4.80368E-06 3.42434E-19-1.69602E-18
 -1      2214 8.87199E-05-1.19361E-05-3.29522E-05-5.82124E-06 2.18371E-19-1.74208E-18
 -1      2215 8.91255E-05-1.24082E-05-3.29239E-05-6.99432E-06 3.27295E-20-1.64950E-18
 -1      2216 8.98884E-05-1.38231E-05-3.25987E-05-4.90530E-06 2.90421E-19-1.57824E-18
 -1      2217 8.77900E-05-1.07254E-05-3.30617E-05 6.15762E-07 1.02070E-18-1.26366E-18
 -1      2218 8.77855E-05-1.07205E-05-3.30619E-05-4.95613E-07 8.73490E-19-1.35936E-18
 -1      2219 8.79708E-05-1.09501E-05-3.30433E-05 2.75854E-06 1.27738E-18-1.05500E-18
 -1      2220 8.78561E-05-1.08171E-05-3.30525E-05 1.63884E-06 1.13523E-18-1.16049E-18
 -1      2221 8.91078E-05-1.27718E-05-3.27186E-05 1.05014E-06 9.91862E-19-1.10004E-18
 -1      2222 8.84049E-05-1.14971E-05-3.29981E-05 4.88841E-06 1.42560E-18-8.34718E-19
 -1      2223 8.81655E-05-1.12203E-05-3.30162E-05 3.76491E-06 1.33473E-18-9.62077E-19
 -1      2224 8.93733E-05-1.31273E-05-3.26786E-05 3.02194E-06 1.23230E-18-9.23187E-19
 -1      2225 8.91845E-05-1.24799E-05-3.29192E-05 7.07610E-06 1.66506E-18-2.85225E-19
 -1      2226 8.87662E-05-1.19931E-05-3.29484E-05 5.90398E-06 1.51919E-18-6.15297E-19
 -1      2227 8.99301E-05-1.38747E-05-3.25942E-05 4.97634E-06 1.42932E-18-6.24435E-19
 -1      2228 9.04550E-05-1.40898E-05-3.27921E-05 9.22437E-06 1.68292E-18 2.48988E-19
 -1      2229 8.97742E-05-1.32795E-05-3.28375E-05 8.04648E-06 1.63326E-18-7.11309E-20
 -1      2230 9.08665E-05-1.51347E-05-3.24494E-05 6.87110E-06 1.54707E-18-1.70637E-19
 -1      2231 9.24521E-05-1.66880E-05-3.25719E-05 1.10598E-05 1.64285E-18 1.01021E-18
 -1      2232 9.13574E-05-1.53122E-05-3.26548E-05 1.00418E-05 1.60065E-18 5.52914E-19
 -1      2233 9.22920E-05-1.70912E-05-3.22083E-05 8.53022E-06 1.48368E-18 4.07042E-19
 -1      2234 9.54976E-05-2.08221E-05-3.20978E-05 1.17057E-05 1.35712E-18 2.21923E-18
 -1      2235 9.38078E-05-1.84804E-05-3.23214E-05 1.14724E-05 1.49744E-18 1.50490E-18
 -1      2236 9.43357E-05-2.00428E-05-3.17902E-05 9.48675E-06 1.42314E-18 1.22537E-18
 -1      2237 9.75107E-05-2.45964E-05-3.13121E-05 9.84794E-06 1.11644E-18 3.21600E-18
 -1      2238 9.62738E-05-2.22290E-05-3.17304E-05 1.10937E-05 1.25514E-18 2.66181E-18
 -1      2239 9.58096E-05-2.31977E-05-3.11178E-05 8.79508E-06 1.20682E-18 2.12505E-18
 -1      2240 9.63188E-05-2.56707E-05-3.02843E-05 6.88176E-06 9.91042E-19 3.02227E-18
 -1      2241 9.59130E-05-2.50948E-05-3.03042E-05-6.19275E-06-8.95929E-19-7.76832E-19
 -1      2242 9.52533E-05-2.58520E-05-2.97599E-05-4.28132E-06-7.46792E-19-7.77825E-19
 -1      2243 1.00769E-04-5.51863E-05-1.96067E-05 4.46963E-05 1.98989E-18 8.36921E-19
 -1      2244 8.23074E-05-5.03641E-05-1.35304E-05 4.55166E-05 9.99499E-20 1.01083E-18
 -1      2245 1.30659E-04-5.90712E-05-3.10570E-05 3.04620E-05 1.86855E-18 3.59290E-18
 -1      2246 1.16205E-04-5.86020E-05-2.46177E-05 3.69097E-05 2.14342E-18 1.31925E-18
 -1      2247 1.13235E-04-5.93096E-05-2.28331E-05 3.85125E-05 2.05617E-18 1.34541E-18
 -1      2248 9.51382E-05-2.65372E-05-2.93429E-05-2.94261E-06-5.30256E-19-6.09749E-19
 -1      2249 9.46664E-05-2.69074E-05-2.90395E-05-1.88047E-06-2.20723E-19-6.61357E-19
 -1      2250 9.53351E-05-2.53632E-05-2.99942E-05-4.29727E-06-6.57005E-19-7.65590E-19
 -1      2251 9.44711E-05-2.72376E-05-2.87759E-05-1.02940E-06-1.98697E-19-5.34374E-19
 -1      2252 9.42125E-05-2.74510E-05-2.86096E-05-4.28066E-07-2.46032E-19-5.15683E-19
 -1      2253 9.50301E-05-2.66984E-05-2.92980E-05-1.92283E-06-2.10642E-19-7.02869E-19
 -1      2254 9.40635E-05-2.76313E-05-2.84483E-05 7.93528E-08-2.99279E-19-4.29956E-19
 -1      2255 9.39647E-05-2.77745E-05-2.83647E-05 4.08876E-07-2.27286E-19-5.19791E-19
 -1      2256 9.47258E-05-2.74273E-05-2.88551E-05-4.44640E-07-2.34622E-19-6.50848E-19
 -1      2257 9.38799E-05-2.78840E-05-2.82713E-05 6.91375E-07-7.22591E-20-5.79568E-19
 -1      2258 9.38851E-05-2.79907E-05-2.82383E-05 8.55346E-07-2.94228E-21-5.46293E-19
 -1      2259 9.45242E-05-2.78551E-05-2.85828E-05 4.25323E-07-2.17402E-19-5.45592E-19
 -1      2260 9.38536E-05-2.80626E-05-2.81896E-05 9.92627E-07-2.36079E-19-6.04811E-19
 -1      2261 9.39203E-05-2.81460E-05-2.81872E-05 1.05495E-06-3.45266E-19-6.47877E-19
 -1      2262 9.44311E-05-2.81239E-05-2.84249E-05 8.96174E-07-1.82238E-19-5.51678E-19
 -1      2263 9.39259E-05-2.81954E-05-2.81674E-05 1.10047E-06-3.04756E-19-8.62680E-19
 -1      2264 9.40247E-05-2.82616E-05-2.81828E-05 1.10152E-06-3.20991E-19-9.36540E-19
 -1      2265 9.44212E-05-2.82999E-05-2.83428E-05 1.10974E-06-4.34599E-19-9.94672E-19
 -1      2266 9.40534E-05-2.82959E-05-2.81812E-05 1.09142E-06-4.19636E-19-7.22668E-19
 -1      2267 9.41648E-05-2.83482E-05-2.82061E-05 1.05762E-06-5.36711E-19-8.27167E-19
 -1      2268 9.44662E-05-2.84168E-05-2.83102E-05 1.16217E-06-3.20223E-19-1.10369E-18
 -1      2269 9.42061E-05-2.83716E-05-2.82156E-05 1.01642E-06-5.00309E-19-7.79175E-19
 -1      2270 9.43186E-05-2.84125E-05-2.82446E-05 9.65526E-07-5.36356E-19-6.69907E-19
 -1      2271 9.45431E-05-2.84935E-05-2.83089E-05 1.11895E-06-5.24882E-19-7.91829E-19
 -1      2272 9.43683E-05-2.84286E-05-2.82613E-05 9.06981E-07-4.12522E-19-5.21376E-19
 -1      2273 9.44793E-05-2.84608E-05-2.82929E-05 8.48037E-07-1.58650E-19-4.85633E-19
 -1      2274 9.46374E-05-2.85421E-05-2.83278E-05 1.02207E-06-3.54553E-19-4.04374E-19
 -1      2275 9.45268E-05-2.84696E-05-2.83121E-05 7.89999E-07-8.37405E-20-6.14313E-19
 -1      2276 9.46240E-05-2.84920E-05-2.83415E-05 7.36689E-07 1.27379E-19-6.97822E-19
 -1      2277 9.47370E-05-2.85695E-05-2.83581E-05 9.04943E-07-9.42271E-20-2.79830E-19
 -1      2278 9.46711E-05-2.84964E-05-2.83625E-05 6.84461E-07-8.24048E-20-7.22177E-19
 -1      2279 9.47593E-05-2.85122E-05-2.83907E-05 6.39808E-07-9.92768E-20-7.20996E-19
 -1      2280 9.48327E-05-2.85802E-05-2.83943E-05 7.92669E-07-2.50432E-20-4.01309E-19
 -1      2281 9.48050E-05-2.85129E-05-2.84127E-05 5.98965E-07-1.45859E-19-8.40383E-19
 -1      2282 9.48862E-05-2.85236E-05-2.84400E-05 5.67143E-07-4.32608E-19-9.42899E-19
 -1      2283 9.49251E-05-2.85792E-05-2.84342E-05 6.97415E-07-3.43286E-19-1.11204E-18
 -1      2284 9.49311E-05-2.85213E-05-2.84630E-05 5.42129E-07-4.14293E-19-1.06725E-18
 -1      2285 9.50086E-05-2.85281E-05-2.84901E-05 5.26634E-07-2.26327E-20-1.08176E-18
 -1      2286 9.50144E-05-2.85689E-05-2.84769E-05 6.30259E-07-3.99560E-19-1.33034E-18
 -1      2287 9.50543E-05-2.85231E-05-2.85148E-05 5.21402E-07 4.85282E-19-9.26281E-19
 -1      2288 9.51327E-05-2.85271E-05-2.85432E-05 5.25671E-07 5.13443E-19-8.76373E-19
 -1      2289 9.51031E-05-2.85505E-05-2.85230E-05 6.00348E-07 4.71846E-19-9.14107E-19
 -1      2290 9.51814E-05-2.85195E-05-2.85705E-05 5.44316E-07 1.08057E-19-7.65657E-19
 -1      2291 9.52664E-05-2.85217E-05-2.86020E-05 5.72260E-07-2.12494E-19-7.68798E-19
 -1      2292 9.51949E-05-2.85246E-05-2.85737E-05 6.16367E-07 4.76171E-19-6.99851E-19
 -1      2293 9.53207E-05-2.85114E-05-2.86335E-05 6.19568E-07-5.87986E-19-6.22516E-19
 -1      2294 9.54193E-05-2.85127E-05-2.86704E-05 6.76079E-07-3.50023E-19-9.52172E-19
 -1      2295 9.52948E-05-2.84906E-05-2.86314E-05 6.87787E-07-3.92137E-19-6.13105E-19
 -1      2296 9.54824E-05-2.84990E-05-2.87080E-05 7.58041E-07-3.45746E-19-9.79885E-19
 -1      2297 9.56028E-05-2.85001E-05-2.87531E-05 8.49497E-07-3.77723E-19-1.19981E-18
 -1      2298 9.54085E-05-2.84469E-05-2.86991E-05 8.25973E-07-6.44814E-19-7.58290E-19
 -1      2299 9.56777E-05-2.84818E-05-2.87990E-05 9.73831E-07 2.25098E-19-8.56393E-19
 -1      2300 9.58297E-05-2.84834E-05-2.88558E-05 1.10864E-06 5.44244E-19-3.24671E-19
 -1      2301 9.55421E-05-2.83909E-05-2.87807E-05 1.04524E-06 6.43410E-20-3.33621E-19
 -1      2302 9.59194E-05-2.84587E-05-2.89126E-05 1.28532E-06 4.81623E-19-4.26042E-19
 -1      2303 9.61145E-05-2.84612E-05-2.89852E-05 1.47450E-06 7.04742E-19-1.88416E-19
 -1      2304 9.57017E-05-2.83181E-05-2.88807E-05 1.36390E-06 6.63648E-19-6.91338E-19
 -1      2305 9.62213E-05-2.84272E-05-2.90558E-05 1.71629E-06 4.35715E-19-2.90359E-19
 -1      2306 9.64732E-05-2.84310E-05-2.91490E-05 1.97406E-06 1.52485E-19-5.31509E-19
 -1      2307 9.58925E-05-2.82221E-05-2.90038E-05 1.80524E-06 1.62422E-19-4.49399E-19
 -1      2308 9.65978E-05-2.83837E-05-2.92363E-05 2.29706E-06 3.54979E-19-7.15794E-19
 -1      2309 9.69234E-05-2.83898E-05-2.93557E-05 2.64084E-06 5.05059E-19-1.46253E-18
 -1      2310 9.61178E-05-2.80942E-05-2.91551E-05 2.39843E-06 3.03782E-19-8.16365E-19
 -1      2311 9.70732E-05-2.83209E-05-2.94681E-05 3.08650E-06 5.43083E-19-1.89965E-18
 -1      2312 9.75092E-05-2.83300E-05-2.96280E-05 3.56645E-06 8.11138E-19-1.95873E-18
 -1      2313 9.63845E-05-2.79200E-05-2.93443E-05 3.20246E-06 4.00106E-19-1.94102E-18
 -1      2314 9.76626E-05-2.82400E-05-2.97566E-05 4.11957E-06 9.40550E-19-1.86336E-18
 -1      2315 9.81927E-05-2.82580E-05-2.99475E-05 4.70944E-06 4.42530E-19-1.96119E-18
 -1      2316 9.66819E-05-2.76872E-05-2.95699E-05 4.24583E-06 9.44357E-19-2.42527E-18
 -1      2317 9.83530E-05-2.81442E-05-3.00958E-05 5.41005E-06 2.69595E-20-1.66002E-18
 -1      2318 9.90171E-05-2.81826E-05-3.03281E-05 6.15128E-06-1.18095E-19-9.38053E-19
 -1      2319 9.69918E-05-2.74006E-05-2.98238E-05 5.54309E-06 2.42123E-19-2.09869E-18
 -1      2320 9.91793E-05-2.80554E-05-3.04901E-05 7.01839E-06 1.41579E-19-9.73454E-19
 -1      2321 1.00006E-04-2.81464E-05-3.07632E-05 7.91596E-06-4.39895E-20-1.00058E-18
 -1      2322 9.73113E-05-2.70690E-05-3.01005E-05 7.15553E-06 2.63758E-19-4.17022E-19
 -1      2323 1.00182E-04-2.80467E-05-3.09250E-05 8.95396E-06-8.14291E-19-1.21570E-18
 -1      2324 1.01214E-04-2.82620E-05-3.12294E-05 9.97500E-06-9.68496E-19-1.04917E-18
 -1      2325 9.76468E-05-2.67571E-05-3.03761E-05 9.10384E-06-3.48232E-19-7.31142E-19
 -1      2326 1.01462E-04-2.82947E-05-3.13660E-05 1.11541E-05-9.69806E-19-9.49628E-19
 -1      2327 1.02776E-04-2.87825E-05-3.16787E-05 1.21873E-05-9.61680E-19-1.24479E-18
 -1      2328 9.80631E-05-2.66386E-05-3.06064E-05 1.13636E-05-1.10045E-18-6.59253E-19
 -1      2329 1.03269E-04-2.91727E-05-3.17538E-05 1.34073E-05-1.24518E-18-1.98271E-18
 -1      2330 1.05012E-04-3.02055E-05-3.20364E-05 1.41995E-05-1.61355E-18-1.70693E-18
 -1      2331 9.87742E-05-2.70983E-05-3.07239E-05 1.38202E-05-1.90542E-18-1.39287E-18
 -1      2332 1.06139E-04-3.13621E-05-3.20142E-05 1.52183E-05-1.27248E-18-7.99810E-19
 -1      2333 1.08567E-04-3.33532E-05-3.22262E-05 1.52985E-05-5.45625E-19-1.24472E-18
 -1      2334 1.00310E-04-2.88691E-05-3.06493E-05 1.61879E-05-1.08138E-18-5.68945E-19
 -1      2335 1.11020E-04-3.58430E-05-3.21163E-05 1.56208E-05 4.77217E-20-1.36006E-18
 -1      2336 1.14510E-04-3.92234E-05-3.22714E-05 1.42579E-05 3.57210E-20-1.27027E-18
 -1      2337 1.03715E-04-3.30774E-05-3.03513E-05 1.78387E-05-5.22116E-19 4.49523E-19
 -1      2338 1.19293E-04-4.35516E-05-3.22565E-05 1.29612E-05-2.16205E-19-1.26352E-18
 -1      2339 1.23801E-04-4.79334E-05-3.25581E-05 9.34238E-06 2.17608E-19-1.40028E-18
 -1      2340 1.10507E-04-4.09159E-05-3.00091E-05 1.75789E-05 1.35876E-19-1.15567E-19
 -1      2341 1.31506E-04-5.30721E-05-3.33224E-05 4.17566E-06 3.28106E-19-1.77617E-18
 -1      2342 1.35131E-04-5.56400E-05-3.42987E-05-1.87796E-06-3.66130E-19-1.30931E-18
 -1      2343 1.23885E-04-5.29467E-05-3.06831E-05 1.32158E-05-3.85294E-19-6.47027E-19
 -1      2344 1.46415E-04-4.52589E-05-4.40370E-05-2.21847E-05 3.71318E-19 6.14099E-21
 -1      2345 1.43287E-04-3.46183E-05-4.68950E-05-2.17429E-05 1.76839E-18-1.02385E-19
 -1      2346 1.40997E-04-2.56579E-05-5.02681E-05-1.71231E-05 1.81096E-18-7.21301E-19
 -1      2347 1.38644E-04-1.88823E-05-5.17563E-05-8.24755E-06 9.58418E-19-9.77264E-19
 -1      2348 1.43292E-04-3.49413E-05-4.67354E-05 1.81783E-05-3.65495E-19-1.86803E-18
 -1      2349 1.45959E-04-4.60724E-05-4.33844E-05 1.87300E-05-1.73642E-20-1.73472E-18
 -1      2350 1.41949E-04-5.23523E-05-3.86124E-05 1.29193E-05-8.76811E-19-2.36613E-18
 -1      2351 1.40683E-04-5.61748E-05-3.63335E-05 6.75679E-06 1.83017E-19-2.92724E-18
 -1      2352 1.49746E-04-5.29325E-05-4.18435E-05 1.14618E-05-4.74868E-19-1.15175E-18
 -1      2353 1.32962E-04-5.41709E-05-3.39250E-05-1.11061E-06 6.93667E-19-3.80916E-18
 -1      2354 1.28681E-04-5.14241E-05-3.29340E-05-7.18909E-06 3.45206E-19-3.40058E-18
 -1      2355 1.37390E-04-5.86680E-05-3.39279E-05-2.91438E-06-2.24689E-19-3.03076E-18
 -1      2356 1.21470E-04-4.65697E-05-3.22079E-05-1.18849E-05-9.33113E-19-2.33020E-18
 -1      2357 1.16951E-04-4.22870E-05-3.18305E-05-1.54467E-05-1.29383E-18-2.35208E-18
 -1      2358 1.22311E-04-5.07894E-05-3.08338E-05-1.45513E-05 3.19623E-20-4.10034E-18
 -1      2359 1.12218E-04-3.82945E-05-3.17394E-05-1.70433E-05-8.76275E-19-1.39809E-18
 -1      2360 1.08599E-04-3.49116E-05-3.14887E-05-1.83259E-05-1.36329E-19-1.41567E-18
 -1      2361 1.10529E-04-4.04067E-05-3.01976E-05-1.97092E-05-4.66821E-19-1.64265E-18
 -1      2362 1.05957E-04-3.24635E-05-3.15148E-05-1.81486E-05-3.08638E-20-1.32650E-18
 -1      2363 1.03238E-04-3.02340E-05-3.12415E-05-1.79207E-05 2.19203E-21-9.40337E-19
 -1      2364 1.03367E-04-3.27996E-05-3.03221E-05-2.04740E-05-1.80140E-19-7.07727E-19
 -1      2365 1.01785E-04-2.88510E-05-3.12458E-05-1.67935E-05 1.76443E-19 2.32322E-20
 -1      2366 9.97254E-05-2.73937E-05-3.09592E-05-1.56460E-05 8.62443E-19 5.41132E-19
 -1      2367 9.93513E-05-2.82257E-05-3.05190E-05-1.88966E-05 9.24789E-19 1.92657E-18
 -1      2368 9.82529E-05-2.60808E-05-3.08987E-05-1.45003E-05 5.94713E-19 4.78104E-19
 -1      2369 9.66266E-05-2.49281E-05-3.06844E-05-1.26989E-05 2.72202E-19 5.09040E-19
 -1      2370 9.40036E-05-2.23136E-05-3.07787E-05-1.32935E-05-9.39065E-19 6.58529E-19
 -1      2371 9.63218E-05-2.50872E-05-3.05750E-05-1.63561E-05-9.31132E-20 2.06287E-18
 -1      2372 9.37058E-05-2.78510E-05-2.82200E-05-6.54589E-07 6.29079E-19 1.04959E-18
 -1      2373 9.37391E-05-2.77363E-05-2.82692E-05-4.24420E-07 6.69858E-19 1.17103E-18
 -1      2374 9.38663E-05-2.76131E-05-2.83897E-05-4.20072E-08 5.69352E-19 1.28058E-18
 -1      2375 9.40419E-05-2.74584E-05-2.85045E-05 3.97656E-07 5.41311E-19 1.44024E-18
 -1      2376 9.44510E-05-2.76594E-05-2.86372E-05-4.22441E-08 7.97674E-19 7.41051E-19
 -1      2377 9.42418E-05-2.72367E-05-2.87104E-05 1.06162E-06 5.51567E-19 1.54348E-18
 -1      2378 9.46017E-05-2.69932E-05-2.89363E-05 1.86391E-06 5.54175E-19 1.61082E-18
 -1      2379 9.47401E-05-2.71477E-05-2.89832E-05 1.10448E-06 6.82680E-19 9.89462E-19
 -1      2380 9.37017E-05-2.80220E-05-2.81459E-05-9.59036E-07 5.21752E-19 7.55979E-19
 -1      2381 9.36488E-05-2.79306E-05-2.81555E-05-8.55725E-07 5.41459E-19 9.00298E-19
 -1      2382 9.42967E-05-2.79714E-05-2.84343E-05-6.92589E-07 6.92930E-19 6.70087E-19
 -1      2383 9.37959E-05-2.81526E-05-2.81310E-05-1.07119E-06 5.37700E-19 7.62972E-19
 -1      2384 9.36958E-05-2.80777E-05-2.81176E-05-1.04490E-06 5.48639E-19 7.58059E-19
 -1      2385 9.42546E-05-2.81753E-05-2.83260E-05-1.02040E-06 5.56201E-19 8.27155E-19
 -1      2386 9.39440E-05-2.82544E-05-2.81514E-05-1.06672E-06 5.01003E-19 9.45573E-19
 -1      2387 9.38227E-05-2.81932E-05-2.81255E-05-1.08567E-06 3.74931E-19 8.51513E-19
 -1      2388 9.42894E-05-2.83141E-05-2.82793E-05-1.14376E-06 4.85816E-19 7.30555E-19
 -1      2389 9.41156E-05-2.83336E-05-2.81913E-05-9.96122E-07 3.94967E-19 1.03784E-18
 -1      2390 9.39893E-05-2.82843E-05-2.81597E-05-1.03940E-06 5.53969E-19 1.07963E-18
 -1      2391 9.43704E-05-2.84095E-05-2.82715E-05-1.14218E-06 3.39888E-19 8.37783E-19
 -1      2392 9.42913E-05-2.83943E-05-2.82408E-05-8.93492E-07 1.32609E-19 1.53874E-18
 -1      2393 9.41696E-05-2.83553E-05-2.82076E-05-9.47112E-07 3.92033E-19 1.53632E-18
 -1      2394 9.44752E-05-2.84742E-05-2.82876E-05-1.06968E-06 2.21754E-19 1.09512E-18
 -1      2395 9.44600E-05-2.84397E-05-2.82937E-05-7.81976E-07 2.16882E-19 1.60090E-18
 -1      2396 9.43477E-05-2.84095E-05-2.82611E-05-8.36507E-07 2.54321E-19 1.55043E-18
 -1      2397 9.45886E-05-2.85162E-05-2.83175E-05-9.63133E-07 9.82491E-20 1.41142E-18
 -1      2398 9.46169E-05-2.84726E-05-2.83469E-05-6.77366E-07-3.39513E-19 1.50258E-18
 -1      2399 9.45154E-05-2.84497E-05-2.83159E-05-7.26401E-07-7.60911E-20 1.44483E-18
 -1      2400 9.47017E-05-2.85411E-05-2.83549E-05-8.47829E-07 1.23906E-19 1.72042E-18
 -1      2401 9.47614E-05-2.84956E-05-2.83988E-05-5.90579E-07-7.28416E-20 1.02732E-18
 -1      2402 9.46698E-05-2.84785E-05-2.83697E-05-6.29682E-07-1.48432E-19 1.09164E-18
 -1      2403 9.48101E-05-2.85530E-05-2.83960E-05-7.41171E-07 1.00015E-20 1.07264E-18
 -1      2404 9.48963E-05-2.85111E-05-2.84497E-05-5.29410E-07 3.06653E-20 5.36386E-19
 -1      2405 9.48120E-05-2.84984E-05-2.84219E-05-5.55377E-07-8.59156E-21 6.17446E-19
 -1      2406 9.49128E-05-2.85551E-05-2.84391E-05-6.55331E-07 2.91559E-19 1.10504E-19
 -1      2407 9.50265E-05-2.85216E-05-2.85007E-05-4.99760E-07 3.74922E-19 4.50498E-19
 -1      2408 9.49457E-05-2.85117E-05-2.84733E-05-5.10113E-07 8.04633E-20 5.80613E-19
 -1      2409 9.50114E-05-2.85498E-05-2.84837E-05-5.99127E-07 1.93751E-19-8.38520E-20
 -1      2410 9.51591E-05-2.85295E-05-2.85536E-05-5.06431E-07 9.50518E-19-1.46066E-19
 -1      2411 9.50770E-05-2.85208E-05-2.85253E-05-4.99110E-07 7.26183E-19 2.30685E-19
 -1      2412 9.51093E-05-2.85394E-05-2.85303E-05-5.79323E-07 6.86541E-19-2.61896E-19
 -1      2413 9.53023E-05-2.85378E-05-2.86109E-05-5.53512E-07 7.61195E-19-8.03366E-20
 -1      2414 9.52133E-05-2.85284E-05-2.85802E-05-5.26753E-07 8.83790E-19 1.09104E-19
 -1      2415 9.52116E-05-2.85260E-05-2.85802E-05-6.01446E-07 9.57798E-19-2.45917E-19
 -1      2416 9.54659E-05-2.85499E-05-2.86752E-05-6.44341E-07 5.06192E-19 3.81548E-19
 -1      2417 9.53638E-05-2.85376E-05-2.86404E-05-5.96762E-07 4.59301E-19 2.31774E-19
 -1      2418 9.53248E-05-2.85121E-05-2.86349E-05-6.70138E-07 5.72899E-19 4.35924E-19
 -1      2419 9.56605E-05-2.85705E-05-2.87492E-05-7.80977E-07-6.81580E-20 9.51534E-19
 -1      2420 9.55388E-05-2.85524E-05-2.87087E-05-7.11914E-07 2.87661E-19 5.62317E-19
 -1      2421 9.54565E-05-2.85011E-05-2.86964E-05-7.89013E-07 2.22137E-19 1.03317E-18
 -1      2422 9.58980E-05-2.86055E-05-2.88355E-05-9.63079E-07 2.57945E-19 1.21815E-18
 -1      2423 9.57498E-05-2.85781E-05-2.87878E-05-8.73213E-07 2.30322E-19 1.16486E-18
 -1      2424 9.56160E-05-2.84981E-05-2.87664E-05-9.59954E-07 5.18572E-20 8.70530E-19
 -1      2425 9.61902E-05-2.86631E-05-2.89358E-05-1.18606E-06 1.73207E-19 1.37582E-18
 -1      2426 9.60091E-05-2.86220E-05-2.88798E-05-1.07842E-06 1.20951E-19 1.65353E-18
 -1      2427 9.58138E-05-2.85105E-05-2.88463E-05-1.18172E-06 7.71171E-20 1.08439E-18
 -1      2428 9.65491E-05-2.87543E-05-2.90507E-05-1.43844E-06-3.20421E-19 2.21611E-18
 -1      2429 9.63295E-05-2.86936E-05-2.89860E-05-1.31977E-06 2.96333E-19 1.76957E-18
 -1      2430 9.60622E-05-2.85489E-05-2.89367E-05-1.44777E-06-2.71902E-19 1.93028E-18
 -1      2431 9.69852E-05-2.88928E-05-2.91790E-05-1.69824E-06-1.00170E-18 2.25124E-18
 -1      2432 9.67238E-05-2.88059E-05-2.91063E-05-1.58087E-06-4.57741E-19 2.25481E-18
 -1      2433 9.63753E-05-2.86287E-05-2.90371E-05-1.74311E-06-3.88413E-19 1.49041E-18
 -1      2434 9.75060E-05-2.90959E-05-2.93170E-05-1.92885E-06-6.82016E-19 2.17719E-18
 -1      2435 9.72031E-05-2.89750E-05-2.92386E-05-1.83269E-06-9.86920E-19 2.09789E-18
 -1      2436 9.67685E-05-2.87705E-05-2.91453E-05-2.04031E-06-6.33097E-19 2.28928E-18
 -1      2437 9.81133E-05-2.93823E-05-2.94577E-05-2.07476E-06-2.39017E-20 1.58099E-18
 -1      2438 9.77751E-05-2.92200E-05-2.93779E-05-2.02916E-06 2.00037E-20 1.57608E-18
 -1      2439 9.72584E-05-2.90003E-05-2.92571E-05-2.29479E-06-1.86210E-19 1.20372E-18
 -1      2440 9.87990E-05-2.97687E-05-2.95908E-05-2.05873E-06-1.53539E-19 1.09563E-18
 -1      2441 9.84404E-05-2.95604E-05-2.95162E-05-2.10331E-06-1.51654E-19 1.44468E-18
 -1      2442 9.78609E-05-2.93479E-05-2.93667E-05-2.44030E-06 1.08785E-19 1.21707E-18
 -1      2443 9.95388E-05-3.02624E-05-2.97028E-05-1.78331E-06-8.92155E-19 1.17151E-18
 -1      2444 9.91871E-05-3.00104E-05-2.96422E-05-1.96600E-06-6.43082E-19 9.29991E-19
 -1      2445 9.85866E-05-2.98409E-05-2.94665E-05-2.38619E-06-2.31593E-19 4.00761E-19
 -1      2446 1.00283E-04-3.08467E-05-2.97790E-05-1.14103E-06-1.07628E-19 1.44293E-18
 -1      2447 9.99815E-05-3.05683E-05-2.97427E-05-1.51099E-06-3.80300E-19 1.34134E-18
 -1      2448 9.94328E-05-3.04928E-05-2.95494E-05-2.01982E-06-6.98293E-19 1.41174E-18
 -1      2449 1.00945E-04-3.14611E-05-2.98069E-05-3.95000E-08 3.01752E-19 1.15765E-18
 -1      2450 1.00755E-04-3.11978E-05-2.98045E-05-6.32051E-07 5.39617E-19 1.43824E-18
 -1      2451 1.00368E-04-3.12815E-05-2.96107E-05-1.21933E-06 1.41023E-19 9.74329E-19
 -1      2452 1.01390E-04-3.19780E-05-2.97805E-05 1.55217E-06 5.82630E-19 1.42660E-18
 -1      2453 1.01391E-04-3.18047E-05-2.98186E-05 7.40816E-07 5.49082E-19 1.50012E-18
 -1      2454 1.01311E-04-3.21188E-05-2.96525E-05 1.15519E-07 6.57418E-20 6.32731E-19
 -1      2455 1.01435E-04-3.21928E-05-2.97058E-05 3.53565E-06 3.10259E-19 9.98153E-19
 -1      2456 1.01711E-04-3.22168E-05-2.97843E-05 2.58104E-06 5.25607E-19 8.55350E-19
 -1      2457 1.02105E-04-3.28186E-05-2.96864E-05 2.00647E-06 7.74820E-19 1.34083E-18
 -1      2458 1.00882E-04-3.18541E-05-2.96023E-05 5.61101E-06 6.97011E-19-1.52817E-19
 -1      2459 1.01497E-04-3.21902E-05-2.97123E-05 4.68834E-06 8.41388E-19 3.59826E-19
 -1      2460 1.02508E-04-3.30904E-05-2.97344E-05 4.31299E-06 1.32608E-18 3.54552E-19
 -1      2461 9.96049E-05-3.07670E-05-2.94984E-05 7.24682E-06 2.61068E-19 1.24472E-19
 -1      2462 1.00551E-04-3.14766E-05-2.96233E-05 6.62750E-06 1.59272E-19-2.21999E-20
 -1      2463 1.02239E-04-3.25964E-05-2.98225E-05 6.64476E-06 3.89386E-19 1.91941E-19
 -1      2464 9.76836E-05-2.89691E-05-2.94195E-05 7.77170E-06-2.12762E-19 4.64019E-19
 -1      2465 9.88368E-05-2.99741E-05-2.95397E-05 7.75472E-06 1.91244E-21-2.57619E-19
 -1      2466 1.01103E-04-3.11204E-05-2.99669E-05 8.33492E-06 4.94447E-20-2.57898E-19
 -1      2467 9.55279E-05-2.68833E-05-2.93727E-05 6.65143E-06 6.46870E-19-1.05614E-20
 -1      2468 9.66309E-05-2.79187E-05-2.94724E-05 7.41754E-06 1.20085E-19 3.35043E-19
 -1      2469 9.92014E-05-2.88098E-05-3.01546E-05 8.58422E-06 1.39051E-20-5.19681E-19
 -1      2470 9.38198E-05-2.52575E-05-2.93407E-05 3.87062E-06-6.33475E-19 2.00521E-20
 -1      2471 9.45601E-05-2.59463E-05-2.94122E-05 5.32608E-06 4.05750E-19 7.23750E-20
 -1      2472 9.70803E-05-2.63308E-05-3.03331E-05 6.84806E-06 9.35971E-20-1.13739E-19
 -1      2473 9.32073E-05-2.47978E-05-2.92975E-05 1.42784E-07-9.57055E-19 4.15409E-19
 -1      2474 9.33628E-05-2.48546E-05-2.93386E-05 1.88167E-06-1.02182E-18 1.48520E-19
 -1      2475 9.55816E-05-2.46704E-05-3.04246E-05 3.30256E-06-5.74930E-19 7.18857E-19
 -1      2476 9.38962E-05-2.57083E-05-2.92304E-05-3.34136E-06-9.05981E-19-3.45945E-19
 -1      2477 9.34578E-05-2.51205E-05-2.92413E-05-1.86502E-06-8.61128E-19-1.27286E-19
 -1      2478 9.53704E-05-2.45815E-05-3.03721E-05-1.00441E-06-9.84409E-19 1.54958E-19
 -1      2479 9.55016E-05-2.75440E-05-2.91504E-05-5.49086E-06 3.85934E-19-1.13668E-18
 -1      2480 9.46853E-05-2.65911E-05-2.91323E-05-4.70204E-06-7.34525E-19-9.26549E-19
 -1      2481 9.64804E-05-2.60975E-05-3.01754E-05-4.61503E-06-6.10459E-19-4.67172E-19
 -1      2482 9.72693E-05-2.94809E-05-2.90811E-05-5.87086E-06 6.78753E-19-2.10274E-18
 -1      2483 9.63933E-05-2.85548E-05-2.90399E-05-5.87152E-06 9.42364E-19-1.98815E-18
 -1      2484 9.82633E-05-2.84839E-05-2.98919E-05-6.41945E-06 6.44733E-19-1.18818E-18
 -1      2485 9.85472E-05-3.08402E-05-2.90374E-05-4.77870E-06 7.43065E-20-8.30787E-19
 -1      2486 9.78750E-05-3.02259E-05-2.89859E-05-5.37849E-06 5.13028E-19-1.81648E-18
 -1      2487 9.98419E-05-3.07066E-05-2.96031E-05-6.21342E-06 3.22187E-19-1.22398E-18
 -1      2488 9.90358E-05-3.13442E-05-2.90173E-05-2.91676E-06 6.78492E-19-1.66142E-19
 -1      2489 9.86946E-05-3.11365E-05-2.89708E-05-3.78794E-06 2.90400E-19-1.19409E-18
 -1      2490 1.00632E-04-3.20419E-05-2.93699E-05-4.56184E-06 1.10234E-19-2.15544E-18
 -1      2491 9.87731E-05-3.10766E-05-2.90074E-05-1.01316E-06 5.25723E-20 2.11223E-18
 -1      2492 9.87592E-05-3.12165E-05-2.89779E-05-1.84360E-06 6.79310E-19 8.50054E-19
 -1      2493 1.00499E-04-3.22909E-05-2.92151E-05-2.33289E-06-2.52535E-19-1.15090E-18
 -1      2494 9.79846E-05-3.03032E-05-2.89923E-05 4.14956E-07-1.22241E-18 2.64121E-18
 -1      2495 9.82159E-05-3.06640E-05-2.89848E-05-1.64275E-07-5.17183E-19 2.63548E-18
 -1      2496 9.96379E-05-3.16557E-05-2.91276E-05-2.94588E-07-4.86963E-19 1.94573E-18
 -1      2497 9.69682E-05-2.93546E-05-2.89583E-05 1.12420E-06 1.40213E-18 1.45647E-18
 -1      2498 9.73045E-05-2.97728E-05-2.89739E-05 8.78417E-07-3.09725E-20 2.74934E-18
 -1      2499 9.83738E-05-3.05065E-05-2.90798E-05 1.07374E-06-1.39501E-19 2.05517E-18
 -1      2500 9.62615E-05-2.86718E-05-2.89729E-05 1.38687E-06 3.35506E-19 2.40789E-18
 -1      2501 9.64267E-05-2.63722E-05-3.00093E-05 8.03967E-06-4.97915E-19 1.81366E-19
 -1      2502 9.69135E-05-2.73602E-05-2.97934E-05 7.04390E-06-7.21378E-19-5.06390E-19
 -1      2503 9.70758E-05-2.77736E-05-2.96707E-05 5.78709E-06-1.48349E-18-2.67626E-18
 -1      2504 9.71878E-05-2.83872E-05-2.94804E-05 4.76144E-06-8.22371E-19-3.05930E-18
 -1      2505 9.80775E-05-2.90184E-05-2.96186E-05 7.10752E-06-7.66129E-19-7.65601E-19
 -1      2506 9.70293E-05-2.84624E-05-2.93504E-05 3.61315E-06-2.19663E-19-1.92884E-18
 -1      2507 9.69348E-05-2.87918E-05-2.91928E-05 2.77011E-06 7.80635E-20-1.09794E-18
 -1      2508 9.80384E-05-2.94995E-05-2.93940E-05 4.56136E-06-1.04589E-18-3.84560E-18
 -1      2509 2.72621E-05-2.33477E-05-1.48745E-06 2.55653E-05-4.37704E-19 3.45335E-18
 -1      2510 2.05263E-05-2.01948E-05 1.81675E-07 9.96196E-06-7.57486E-19 1.26039E-18
 -1      2511 9.48725E-05-2.41436E-05-3.03253E-05 9.77527E-06-8.05688E-19-3.40179E-19
 -1      2512 9.58047E-05-2.54849E-05-3.01097E-05 9.13968E-06-5.62148E-19-1.19286E-19
 -1      2513 9.71596E-05-2.77103E-05-2.97930E-05 9.63351E-06-7.64462E-19-1.62352E-19
 -1      2514 9.24195E-05-2.11893E-05-3.05740E-05 1.01947E-05-2.00623E-18-5.18940E-20
 -1      2515 9.37338E-05-2.27458E-05-3.03860E-05 1.02761E-05-1.15996E-18-7.49164E-19
 -1      2516 9.50448E-05-2.53780E-05-2.98842E-05 1.14062E-05-1.43208E-18-8.11164E-19
 -1      2517 8.94857E-05-1.79595E-05-3.07285E-05 8.59456E-06-2.13951E-18 5.32991E-19
 -1      2518 9.09104E-05-1.94454E-05-3.05928E-05 9.65630E-06-2.94313E-18 8.94469E-19
 -1      2519 9.18345E-05-2.21400E-05-2.98806E-05 1.14642E-05-2.41165E-18 3.53434E-19
 -1      2520 8.69125E-05-1.52625E-05-3.07875E-05 4.77119E-06-1.89226E-18 8.12149E-19
 -1      2521 8.80150E-05-1.62989E-05-3.07196E-05 6.79805E-06-1.65317E-18 1.92800E-18
 -1      2522 8.82129E-05-1.86077E-05-2.98123E-05 9.05044E-06-1.01128E-18 2.08582E-18
 -1      2523 8.56477E-05-1.39757E-05-3.07755E-05-5.96580E-07 1.28733E-19-8.34857E-19
 -1      2524 8.60066E-05-1.42350E-05-3.07771E-05 1.97398E-06-8.95114E-19-6.18705E-19
 -1      2525 8.53276E-05-1.58134E-05-2.97411E-05 4.17298E-06-9.02210E-19 6.31078E-19
 -1      2526 8.62667E-05-1.46080E-05-3.07328E-05-6.38602E-06 1.27818E-18 2.16123E-18
 -1      2527 8.56842E-05-1.39564E-05-3.07936E-05-3.82941E-06 1.29139E-18-1.15415E-19
 -1      2528 8.42748E-05-1.47227E-05-2.97435E-05-2.29162E-06 6.85459E-19 9.19391E-19
 -1      2529 8.87486E-05-1.71159E-05-3.06954E-05-1.09250E-05 9.19643E-20-1.09318E-18
 -1      2530 8.73388E-05-1.56499E-05-3.07948E-05-9.13948E-06 5.01326E-19 1.93931E-18
 -1      2531 8.55960E-05-1.57862E-05-2.98746E-05-8.71226E-06-2.40792E-20 8.55625E-19
 -1      2532 9.21715E-05-2.05451E-05-3.06691E-05-1.29431E-05-1.25258E-18-3.71301E-20
 -1      2533 9.02822E-05-1.86050E-05-3.07825E-05-1.23736E-05-3.97970E-19-1.75287E-18
 -1      2534 8.88494E-05-1.84816E-05-3.01211E-05-1.30791E-05-8.99178E-19-6.50276E-19
 -1      2535 9.29927E-05-2.18691E-05-3.04390E-05-1.48355E-05-8.07232E-19-2.43472E-19
 -1      2536 3.30920E-05-2.98260E-05-1.27962E-06-2.79018E-05 1.05583E-18-6.80167E-19
 -1      2537 4.89436E-05-3.69822E-05-5.11449E-06-3.84000E-05 2.70479E-18 5.39560E-19
 -1      2538 9.50741E-05-2.00254E-05-3.22123E-05-1.17516E-05-9.64281E-19-1.23847E-18
 -1      2539 9.54694E-05-2.33639E-05-3.09277E-05-7.96947E-06-9.58232E-19-1.01464E-18
 -1      2540 9.50812E-05-2.25553E-05-3.10540E-05-7.65351E-06-8.03358E-19-9.75928E-19
 -1      2541 9.32175E-05-1.76233E-05-3.24152E-05-1.14051E-05-8.92177E-19-1.35699E-18
 -1      2542 1.49076E-04-4.83000E-05-4.36555E-05 8.12739E-06 1.11747E-18 2.81215E-18
 -1      2543 1.42006E-04-5.49502E-05-3.72691E-05 1.63205E-05 6.23575E-19 3.29708E-18
 -1      2544 1.97759E-05-1.98842E-05 3.43047E-07-5.35832E-06 3.68301E-19-7.26331E-19
 -1      2545 2.41059E-05-2.33075E-05-1.08074E-07-1.76126E-05 1.15260E-18-4.04035E-19
 -1      2546 1.29430E-04-5.74368E-05-3.09944E-05-2.61379E-05 8.48515E-19-2.21139E-18
 -1      2547 1.39355E-04-5.49286E-05-3.66651E-05-1.66074E-05 1.18188E-18-1.73112E-18
 -1      2548 8.78419E-05-1.07999E-05-3.30537E-05-1.51877E-06 8.17036E-19-1.36760E-18
 -1      2549 8.79471E-05-1.09218E-05-3.30450E-05-2.63776E-06 6.84693E-19-1.45585E-18
 -1      2550 8.93464E-05-1.30946E-05-3.26814E-05-2.93098E-06 5.76646E-19-1.35151E-18
 -1      2551 8.90980E-05-1.27598E-05-3.27196E-05-9.41215E-07 7.52804E-19-1.25880E-18
 -1      2552 1.45859E-04-4.50381E-05-4.33426E-05-5.36626E-06 2.05104E-18-3.11708E-19
 -1      2553 1.49800E-04-3.43003E-05-4.98943E-05 1.69049E-06 2.98579E-18 1.24133E-18
 -1      2554 1.49002E-04-2.97354E-05-5.18016E-05-4.22976E-06 1.02195E-18 8.03411E-19
 -1      2555 1.49366E-04-3.80581E-05-4.79494E-05-1.14134E-06 1.27129E-18 1.53631E-18
 -1      2556 1.46125E-04-1.11795E-05-5.83686E-05-3.30328E-06 1.76691E-18 1.68189E-19
 -1      2557 1.46711E-04-1.77559E-05-5.56344E-05-5.21011E-06 1.19665E-18 1.07552E-18
 -1      2558 1.47488E-04-1.12488E-05-5.88323E-05 3.36569E-06 3.06838E-18 4.34316E-19
 -1      2559 1.44041E-04-8.41397E-06-5.87624E-05 1.01848E-06 2.08963E-18 4.21366E-19
 -1      2560 1.61678E-04-2.08911E-05-6.06602E-05-8.33416E-06 1.26547E-18-2.47927E-18
 -1      2561 1.61164E-04-2.55327E-05-5.82072E-05-1.12753E-05 7.10237E-19-1.91366E-18
 -1      2562 1.46216E-04-2.23911E-05-5.34929E-05 6.64988E-06 2.43755E-18 1.41243E-18
 -1      2563 1.48534E-04-1.63101E-05-5.71079E-05 4.98932E-06 2.60928E-18 1.70052E-18
 -1      2564 1.35819E-04-1.20990E-05-5.32726E-05 7.58376E-06 2.08455E-18 7.27919E-19
 -1      2565 1.05664E-04-5.50576E-05-2.16107E-05-3.96031E-05 8.70538E-19-3.22360E-18
 -1      2566 1.20134E-04-5.72046E-05-2.71072E-05-3.52764E-05 9.40207E-19-2.41129E-18
 -1      2567 1.28205E-04-5.97269E-05-2.90926E-05-2.57863E-05 1.31290E-20-1.09458E-18
 -1      2568 6.44333E-05-4.15417E-05-9.60603E-06-4.47366E-05 1.58607E-19-3.82721E-18
 -1      2569 8.51519E-05-4.84951E-05-1.57268E-05-4.69976E-05 8.26916E-19-4.33125E-18
 -1      2570 3.28403E-05-2.66232E-05-2.38995E-06-3.25071E-05-1.09733E-18-3.61429E-18
 -1      2571 4.52137E-05-3.18050E-05-5.61411E-06-4.14494E-05-8.42798E-20-3.54335E-18
 -1      2572 1.78809E-05-1.80839E-05 3.70353E-07-5.14012E-06-3.42354E-19-1.67247E-18
 -1      2573 2.21154E-05-2.06676E-05-3.55839E-07-2.14311E-05-1.04736E-18-2.94005E-18
 -1      2574 2.91532E-05-2.26850E-05-2.38721E-06 2.11497E-05-4.26799E-19 2.37169E-20
 -1      2575 2.12690E-05-1.95269E-05-3.80635E-07 9.09021E-06 9.25383E-20-2.20652E-19
 -1      2576 1.03599E-04-5.80284E-05-1.97242E-05 3.65553E-05-2.78081E-18 5.21655E-18
 -1      2577 8.63455E-05-5.24069E-05-1.44040E-05 3.76967E-05-2.89008E-18 2.61659E-18
 -1      2578 1.39396E-04-6.43064E-05-3.25284E-05 1.86796E-05-1.77877E-20 1.22396E-18
 -1      2579 1.21556E-04-6.31298E-05-2.51175E-05 2.71580E-05-1.63117E-18 3.57120E-18
 -1      2580 1.18558E-04-6.21393E-05-2.39840E-05 2.77048E-05-2.18619E-18 4.49679E-18
 -1      2581 1.58785E-04-5.64221E-05-4.41891E-05-9.39480E-07 9.63129E-19-1.40777E-18
 -1      2582 1.51086E-04-6.12301E-05-3.86789E-05 3.98660E-06 4.80585E-19-2.57710E-19
 -1      2583 1.62928E-04-3.84621E-05-5.37960E-05-1.34041E-05 1.00797E-19-3.23143E-19
 -1      2584 1.59076E-04-4.70648E-05-4.83571E-05-1.06171E-05 9.92087E-19-3.31613E-19
 -1      2585 1.58601E-04-2.98898E-05-5.54603E-05 1.08010E-05-6.96685E-19-1.60386E-18
 -1      2586 1.59623E-04-2.31063E-05-5.88600E-05 7.73201E-06-2.97309E-19-1.64769E-18
 -1      2587 1.58598E-04-4.81086E-05-4.75048E-05 6.54983E-06-2.11758E-22-6.56874E-19
 -1      2588 1.60786E-04-4.05939E-05-5.20995E-05 9.99472E-06-1.37219E-19-1.00860E-18
 -1      2589 1.43832E-04-6.33571E-05-3.44293E-05-1.43669E-05-5.03985E-19 2.43945E-19
 -1      2590 1.56118E-04-5.91100E-05-4.19816E-05-5.64966E-06-6.20610E-19-5.20290E-19
 -1      2591 1.08902E-04-6.01978E-05-2.07370E-05-3.62622E-05-1.52487E-18-1.88550E-18
 -1      2592 1.27204E-04-6.41888E-05-2.74578E-05-3.03804E-05-4.30081E-19-2.61839E-19
 -1      2593 6.90429E-05-4.64016E-05-9.63061E-06-4.11696E-05 2.43098E-18 8.86632E-19
 -1      2594 8.84291E-05-5.29454E-05-1.53449E-05-4.30746E-05-1.61360E-19-1.48855E-18
 -1      2595 6.12991E-05-4.09795E-05-8.65836E-06 4.60310E-05 4.03399E-19 1.92245E-18
 -1      2596 4.30326E-05-3.26129E-05-4.11988E-06 3.74612E-05 2.92650E-19 2.09387E-18
 -1      2597 9.69471E-05-2.90591E-05-2.90844E-05 1.89830E-06 1.64056E-19 1.97148E-18
 -1      2598 9.07943E-05-1.50495E-05-3.24581E-05-6.79464E-06-1.53632E-20-1.49634E-18
 -1      2599 8.97081E-05-1.31914E-05-3.28448E-05-7.95256E-06-7.86541E-20-1.60056E-18
 -1      2600 9.03389E-05-1.39011E-05-3.28172E-05-9.18572E-06-3.60432E-19-1.62317E-18
 -1      2601 1.45340E-04-4.48137E-05-4.31643E-05-1.27662E-06 1.33964E-18 1.70487E-18
 -1      2602 9.59628E-05-2.62495E-05-2.98449E-05 5.39568E-06 7.40916E-19 2.69013E-18
 -1      2603 9.59066E-05-2.51629E-05-3.02946E-05 6.48634E-06 9.29751E-19 2.22513E-18
 -1      2604 9.52989E-05-2.64873E-05-2.94627E-05 4.10378E-06 5.65355E-19 2.53758E-18
 -1      2605 1.51990E-04-3.11145E-05-5.19921E-05-1.86115E-05 1.31777E-18 1.60513E-19
 -1      2606 7.83777E-05-4.61572E-05-1.34900E-05 4.51713E-05 1.48760E-18 2.28159E-18
 -1      2607 6.53767E-05-4.02170E-05-1.03676E-05-4.00769E-05 1.84992E-18 1.32730E-18
 -1      2608 1.03722E-04-5.71381E-05-1.95961E-05-3.78945E-05-7.24001E-19-9.13790E-19
 -1      2609 1.37712E-04-6.49634E-05-3.11250E-05-1.79875E-05-1.24842E-18 1.48972E-19
 -1      2610 1.53942E-04-5.45438E-05-4.27656E-05 6.95153E-06-8.73185E-19-1.22820E-19
 -1      2611 1.43545E-04-5.71123E-05-3.71030E-05-1.04371E-05-6.70006E-19-1.65436E-19
 -1      2612 1.44014E-04-5.23270E-05-3.95142E-05-1.64638E-05-2.40849E-19-6.28287E-19
 -1      2613 1.48031E-04-1.77269E-05-5.60099E-05-4.05620E-06 5.99699E-19-6.11664E-19
 -1      2614 1.37437E-04-1.83665E-05-5.17086E-05 2.65102E-06 4.29234E-19-7.30672E-19
 -1      2615 1.38893E-04-2.34425E-05-5.00760E-05 1.23750E-05-1.61360E-19-1.23884E-18
 -1      2616 1.60062E-04-1.80566E-05-6.09115E-05-3.87071E-07 3.20178E-19-2.30089E-18
 -1      2617 2.73845E-05-1.67810E-05-3.89947E-06 2.51980E-06-1.36505E-19-7.89858E-20
 -1      2618 4.23960E-05-2.60017E-05-6.42188E-06 3.16602E-05-3.39978E-19 2.61543E-18
 -1      2619 1.52111E-04-3.41108E-05-5.07051E-05 1.64111E-05-6.68521E-19-9.82770E-19
 -1      2620 3.63501E-05-2.35777E-05-4.97458E-06-2.43295E-05 8.90549E-19-5.57136E-19
 -1      2621 9.20494E-05-1.62403E-05-3.25330E-05-1.03895E-05-7.07951E-19-1.45821E-18
 -1      2622 9.47175E-05-2.68498E-05-2.90570E-05 2.43774E-06 6.02207E-19 1.83961E-18
 -1      2623 9.50654E-05-2.66661E-05-2.92726E-05 3.31906E-06 6.01678E-19 2.23412E-18
 -1      2624 9.53164E-05-2.61400E-05-2.96581E-05 4.04644E-06 7.58283E-19 1.79926E-18
 -1      2625 9.50245E-05-2.66045E-05-2.93419E-05 2.53029E-06 6.84628E-19 1.27123E-18
 -1      2626 1.46311E-04-6.42578E-05-3.49818E-05 6.22899E-06-1.41878E-19-8.14846E-19
 -1      2627 9.77544E-05-2.97723E-05-2.91642E-05 2.44686E-06 1.27212E-20 3.25661E-20
 -1      2628 4.01028E-05-2.62557E-05-5.39432E-06 2.69011E-05-2.80791E-19-1.70677E-19
 -1      2629 3.92756E-05-1.95892E-05-7.84554E-06 2.19637E-05 7.55765E-19-2.23193E-19
 -1      2630 5.16972E-05-2.96417E-05-9.34509E-06 3.22322E-05 4.75397E-20 7.61059E-19
 -1      2631 1.37329E-04-5.56811E-05-3.48757E-05-9.02200E-06 7.01039E-19 3.23567E-19
 -1      2632 1.42635E-04-5.19743E-05-3.89821E-05-7.00772E-06 1.32701E-18 1.98629E-19
 -1      2633 1.40148E-04-4.68703E-05-4.06856E-05 2.87449E-06 1.22873E-18 2.37010E-18
 -1      2634 2.63064E-05-1.51506E-05-4.17905E-06 8.00688E-07 4.07860E-19-1.16467E-18
 -1      2635 3.40311E-05-2.01686E-05-5.36699E-06-2.67441E-05-1.16361E-19-3.38390E-18
 -1      2636 1.41773E-04-2.94877E-05-4.84115E-05 8.25408E-06 3.05726E-18 1.42450E-18
 -1      2637 1.35714E-04-8.81991E-06-5.47429E-05-1.78247E-06 2.08857E-18 4.38234E-19
 -1      2638 1.01172E-04-5.36565E-05-2.00718E-05-4.11119E-05 1.04397E-19-2.66995E-18
 -1      2639 7.92948E-05-4.68967E-05-1.35861E-05 3.83534E-05-1.40502E-18 2.60632E-18
 -1      2640 1.37645E-04-5.94442E-05-3.34315E-05 1.94882E-05 1.59803E-18 2.39372E-18
 -1      2641 1.40770E-04-2.32384E-05-5.07267E-05-8.84611E-06 1.29723E-18 4.40669E-19
 -1      2642 6.29583E-05-3.64451E-05-1.08931E-05-4.30216E-05 4.76668E-19-4.40542E-18
 -1      2643 1.54817E-04-5.13597E-05-4.43177E-05-1.37925E-05 1.31925E-18 4.00435E-19
 -1      2644 1.48080E-04-2.14852E-05-5.42971E-05 9.23313E-06-6.01605E-19-5.61371E-19
 -1      2645 1.57995E-04-1.95787E-05-5.98980E-05 4.73800E-06 7.51318E-19-1.82493E-18
 -1      2646 1.38738E-04-6.03290E-05-3.40849E-05 1.56675E-06 2.91856E-19-8.50739E-19
 -1      2647 9.05601E-05-1.51751E-05-3.23302E-05 3.19642E-06 1.23039E-18-7.71966E-19
 -1      2648 9.03698E-05-1.49036E-05-3.23629E-05 2.26246E-06 1.11562E-18-8.80959E-19
 -1      2649 9.02358E-05-1.47011E-05-3.23919E-05 1.42342E-06 1.02371E-18-1.05772E-18
 -1      2650 9.01708E-05-1.46088E-05-3.24029E-05 4.66003E-07 8.93653E-19-1.06979E-18
 -1      2651 9.14218E-05-1.65964E-05-3.20552E-05 1.64263E-06 9.36709E-19-8.96512E-19
 -1      2652 9.21418E-05-1.75532E-05-3.20053E-05 6.47516E-06 1.46847E-18-1.30673E-19
 -1      2653 9.16151E-05-1.67553E-05-3.21053E-05 5.63713E-06 1.45763E-18-2.77377E-19
 -1      2654 9.35092E-05-1.97280E-05-3.16789E-05 7.64191E-06 1.36199E-18 4.57381E-19
 -1      2655 9.27723E-05-1.85210E-05-3.18389E-05 7.00918E-06 1.41478E-18 1.21480E-19
 -1      2656 9.34298E-05-1.98486E-05-3.15073E-05 5.74462E-06 1.30260E-18-2.30850E-20
 -1      2657 9.59009E-05-2.43850E-05-3.06418E-05 7.14666E-06 1.06227E-18 1.90144E-18
 -1      2658 9.53350E-05-2.30634E-05-3.09989E-05 7.84309E-06 1.18203E-18 1.51265E-18
 -1      2659 9.55147E-05-2.49986E-05-3.01995E-05 5.56663E-06 9.28434E-19 1.69456E-18
 -1      2660 1.39731E-04-4.07180E-05-4.30624E-05-7.03271E-06 1.35028E-18-1.61392E-18
 -1      2661 1.42043E-04-5.00657E-05-3.93979E-05-6.66569E-07 6.89432E-19 3.19967E-19
 -1      2662 5.98487E-05-3.27808E-05-1.10082E-05-3.65080E-05 7.69741E-19 1.54075E-18
 -1      2663 7.74666E-05-4.26184E-05-1.48505E-05-4.07701E-05 7.40730E-19 1.96490E-18
 -1      2664 1.20640E-04-6.10524E-05-2.58145E-05 3.32870E-05 1.24768E-18 1.80164E-18
 -1      2665 1.08124E-04-5.69998E-05-2.14930E-05 3.87558E-05 1.80058E-18 7.66287E-19
 -1      2666 9.52333E-05-2.39832E-05-3.05159E-05-5.30436E-06-5.73442E-19-8.77086E-19
 -1      2667 9.51634E-05-2.50045E-05-3.00872E-05-3.79893E-06-4.47975E-19-8.47135E-19
 -1      2668 9.53581E-05-2.59037E-05-2.97364E-05-2.70516E-06-2.80489E-19-7.89789E-19
 -1      2669 9.51939E-05-2.64922E-05-2.94551E-05-1.72368E-06-1.56520E-19-9.12526E-19
 -1      2670 9.52079E-05-2.46925E-05-3.02183E-05-3.53793E-06-3.93901E-19-9.21847E-19
 -1      2671 9.52165E-05-2.70071E-05-2.92093E-05-9.84011E-07-1.63470E-19-9.13311E-19
 -1      2672 9.50820E-05-2.73612E-05-2.90294E-05-3.79470E-07-2.07296E-19-7.94052E-19
 -1      2673 9.54167E-05-2.63326E-05-2.96133E-05-1.62311E-06-2.99727E-19-9.24030E-19
 -1      2674 9.50488E-05-2.76670E-05-2.88619E-05 8.68538E-08-1.74894E-19-7.10510E-19
 -1      2675 9.49709E-05-2.78914E-05-2.87513E-05 4.37302E-07-6.72128E-20-6.37281E-19
 -1      2676 9.54165E-05-2.73270E-05-2.91887E-05-3.45685E-07-1.77910E-19-9.01692E-19
 -1      2677 9.49289E-05-2.80767E-05-2.86407E-05 7.06163E-07-8.61154E-20-7.06641E-19
 -1      2678 9.49005E-05-2.82233E-05-2.85770E-05 8.88855E-07-3.26667E-19-8.55601E-19
 -1      2679 9.53558E-05-2.79416E-05-2.88985E-05 4.42995E-07-1.50359E-19-9.04027E-19
 -1      2680 9.48655E-05-2.83350E-05-2.85070E-05 1.02255E-06-5.36537E-19-7.90544E-19
 -1      2681 9.48724E-05-2.84316E-05-2.84746E-05 1.09718E-06-4.69918E-19-9.72578E-19
 -1      2682 9.52916E-05-2.83222E-05-2.87066E-05 8.83745E-07-4.65798E-19-9.41304E-19
 -1      2683 9.48481E-05-2.84965E-05-2.84332E-05 1.14252E-06-2.97126E-19-8.19624E-19
 -1      2684 9.48771E-05-2.85593E-05-2.84213E-05 1.15014E-06-2.79886E-19-8.48718E-19
 -1      2685 9.52424E-05-2.85530E-05-2.85852E-05 1.08897E-06-3.70826E-19-6.70113E-19
 -1      2686 9.48625E-05-2.85933E-05-2.83997E-05 1.14091E-06-3.64559E-19-5.99071E-19
 -1      2687 9.49039E-05-2.86328E-05-2.84010E-05 1.11001E-06-4.83248E-19-4.45587E-19
 -1      2688 9.52110E-05-2.86858E-05-2.85138E-05 1.14238E-06-1.34822E-19-2.30480E-19
 -1      2689 9.48970E-05-2.86468E-05-2.83928E-05 1.06788E-06-3.49030E-19-2.87432E-19
 -1      2690 9.49455E-05-2.86695E-05-2.84029E-05 1.01500E-06-6.33027E-20-1.37861E-19
 -1      2691 9.51940E-05-2.87529E-05-2.84768E-05 1.10240E-06-2.84875E-19-1.32903E-19
 -1      2692 9.49436E-05-2.86682E-05-2.84044E-05 9.61541E-07-1.72963E-20-6.35984E-20
 -1      2693 9.49911E-05-2.86774E-05-2.84189E-05 9.05752E-07 2.37178E-20-1.49411E-19
 -1      2694 9.51890E-05-2.87750E-05-2.84646E-05 1.01367E-06-1.22738E-19-1.29182E-19
 -1      2695 9.49934E-05-2.86673E-05-2.84266E-05 8.51681E-07-2.98598E-19-3.11446E-19
 -1      2696 9.50398E-05-2.86672E-05-2.84440E-05 8.00213E-07-5.22590E-19-9.48291E-19
 -1      2697 9.51917E-05-2.87652E-05-2.84695E-05 9.10168E-07-4.75152E-19-4.63075E-19
 -1      2698 9.50446E-05-2.86504E-05-2.84560E-05 7.53766E-07-4.05109E-19-9.52044E-19
 -1      2699 9.50896E-05-2.86433E-05-2.84754E-05 7.13447E-07-3.94491E-19-1.18733E-18
 -1      2700 9.51997E-05-2.87343E-05-2.84859E-05 8.11980E-07-5.55083E-19-9.87800E-19
 -1      2701 9.50961E-05-2.86211E-05-2.84907E-05 6.80917E-07-3.09737E-19-9.37936E-19
 -1      2702 9.51403E-05-2.86084E-05-2.85119E-05 6.57030E-07-2.14930E-19-1.04698E-18
 -1      2703 9.52112E-05-2.86875E-05-2.85107E-05 7.34731E-07-2.97763E-19-6.98549E-19
 -1      2704 9.51481E-05-2.85812E-05-2.85302E-05 6.43538E-07 1.51775E-19-8.05563E-19
 -1      2705 9.51929E-05-2.85633E-05-2.85535E-05 6.40709E-07 6.22343E-19-7.70004E-19
 -1      2706 9.52252E-05-2.86273E-05-2.85425E-05 6.90511E-07-6.74025E-20-4.31719E-19
 -1      2707 9.52015E-05-2.85306E-05-2.85749E-05 6.50962E-07 6.06756E-19-8.31404E-19
 -1      2708 9.52492E-05-2.85074E-05-2.86011E-05 6.73842E-07 2.56025E-19-8.95515E-19
 -1      2709 9.52408E-05-2.85538E-05-2.85806E-05 6.89653E-07 3.06609E-19-6.40748E-19
 -1      2710 9.52581E-05-2.84680E-05-2.86261E-05 7.12755E-07-1.17294E-19-8.76353E-19
 -1      2711 9.53112E-05-2.84388E-05-2.86565E-05 7.66607E-07-4.35501E-19-5.73290E-19
 -1      2712 9.52571E-05-2.84651E-05-2.86257E-05 7.42150E-07 1.10916E-20-1.13273E-18
 -1      2713 9.53193E-05-2.83903E-05-2.86859E-05 8.39824E-07-4.40498E-19-1.86353E-19
 -1      2714 9.53808E-05-2.83537E-05-2.87220E-05 9.31052E-07-4.82383E-19 4.11695E-20
 -1      2715 9.52727E-05-2.83570E-05-2.86786E-05 8.58813E-07-4.45761E-20-8.00151E-19
 -1      2716 9.53862E-05-2.82927E-05-2.87568E-05 1.04540E-06-4.73672E-19 6.31287E-19
 -1      2717 9.54591E-05-2.82465E-05-2.88006E-05 1.18203E-06 3.80869E-20 5.12278E-19
 -1      2718 9.52846E-05-2.82233E-05-2.87410E-05 1.05222E-06-1.74876E-19 6.20041E-19
 -1      2719 9.54585E-05-2.81683E-05-2.88418E-05 1.34589E-06 1.47367E-19 1.26074E-19
 -1      2720 9.55455E-05-2.81092E-05-2.88952E-05 1.53807E-06 5.98333E-19-2.26943E-19
 -1      2721 9.52880E-05-2.80548E-05-2.88144E-05 1.33748E-06-2.99248E-20 7.22015E-19
 -1      2722 9.55334E-05-2.80074E-05-2.89438E-05 1.76171E-06 2.26519E-19-4.82709E-19
 -1      2723 9.56366E-05-2.79310E-05-2.90092E-05 2.02204E-06-4.54928E-19-5.89656E-19
 -1      2724 9.52743E-05-2.78393E-05-2.89004E-05 1.73287E-06-3.21892E-21-4.56154E-20
 -1      2725 9.56039E-05-2.77974E-05-2.90655E-05 2.31793E-06 4.20494E-20-4.12096E-19
 -1      2726 9.57252E-05-2.76982E-05-2.91448E-05 2.66146E-06 1.04390E-19-7.67195E-19
 -1      2727 9.52293E-05-2.75607E-05-2.89997E-05 2.26015E-06-8.01268E-20-3.79343E-19
 -1      2728 9.56551E-05-2.75125E-05-2.92115E-05 3.06413E-06-2.34305E-19-1.42672E-18
 -1      2729 9.57956E-05-2.73759E-05-2.93110E-05 3.53662E-06 6.94687E-20-1.64060E-18
 -1      2730 9.51277E-05-2.71898E-05-2.91143E-05 2.96533E-06-4.49448E-19-1.03903E-18
 -1      2731 9.56703E-05-2.71429E-05-2.93792E-05 4.02805E-06 4.76973E-19-2.21315E-18
 -1      2732 9.58162E-05-2.69775E-05-2.94890E-05 4.60136E-06 5.13290E-19-2.35957E-18
 -1      2733 9.49358E-05-2.67050E-05-2.92367E-05 3.86372E-06-1.78471E-19-1.32864E-18
 -1      2734 9.56108E-05-2.66803E-05-2.95554E-05 5.21497E-06 7.03457E-19-2.43902E-18
 -1      2735 9.57607E-05-2.64802E-05-2.96760E-05 5.92945E-06 2.36229E-19-1.74072E-18
 -1      2736 9.46143E-05-2.61023E-05-2.93538E-05 4.96147E-06 3.55748E-19-1.35434E-18
 -1      2737 9.54431E-05-2.61174E-05-2.97290E-05 6.68398E-06 2.76589E-19-1.20582E-18
 -1      2738 9.55934E-05-2.58991E-05-2.98510E-05 7.55318E-06 6.62557E-19-1.02183E-18
 -1      2739 9.41035E-05-2.53599E-05-2.94483E-05 6.30783E-06 8.59293E-19-2.18554E-18
 -1      2740 9.51372E-05-2.54932E-05-2.98699E-05 8.46749E-06-1.87428E-19-8.30481E-19
 -1      2741 9.53011E-05-2.53104E-05-2.99750E-05 9.49106E-06-9.67453E-19-1.40854E-18
 -1      2742 9.33448E-05-2.45018E-05-2.94853E-05 7.93358E-06 1.89806E-19-2.02984E-18
 -1      2743 9.47061E-05-2.49370E-05-2.99273E-05 1.05856E-05-1.02033E-18-1.34072E-18
 -1      2744 9.49465E-05-2.49201E-05-2.99854E-05 1.17367E-05-1.14276E-18-1.12744E-18
 -1      2745 9.23049E-05-2.36300E-05-2.94082E-05 9.87303E-06-9.72295E-19-2.73284E-18
 -1      2746 9.42859E-05-2.47585E-05-2.98236E-05 1.30386E-05-1.20320E-18-9.31635E-19
 -1      2747 9.47818E-05-2.51790E-05-2.97931E-05 1.42443E-05-1.63425E-18-6.17796E-19
 -1      2748 9.10377E-05-2.30047E-05-2.91318E-05 1.21785E-05-9.59708E-19-2.02724E-18
 -1      2749 9.42938E-05-2.55904E-05-2.94574E-05 1.57922E-05-1.05033E-18 2.65657E-20
 -1      2750 9.54522E-05-2.69426E-05-2.92981E-05 1.68963E-05-2.22801E-19 3.20436E-19
 -1      2751 8.98101E-05-2.31756E-05-2.85410E-05 1.49509E-05-6.74155E-19 1.98291E-19
 -1      2752 9.57190E-05-2.85907E-05-2.87384E-05 1.87140E-05-2.37985E-19 7.89637E-19
 -1      2753 9.82435E-05-3.15872E-05-2.84608E-05 1.93648E-05 8.00314E-20 1.34039E-18
 -1      2754 8.93346E-05-2.51605E-05-2.75082E-05 1.83764E-05-2.12354E-20 2.44902E-19
 -1      2755 1.00417E-04-3.53483E-05-2.77283E-05 2.11941E-05 5.62178E-19 1.19716E-18
 -1      2756 1.05941E-04-4.08375E-05-2.76978E-05 2.04649E-05 5.50704E-19 1.48542E-18
 -1      2757 9.13637E-05-3.06583E-05-2.59880E-05 2.25686E-05 4.50807E-19 9.65307E-19
 -1      2758 1.51123E-04-5.25810E-05-4.25057E-05-1.53205E-05 8.70644E-19 6.15369E-19
 -1      2759 1.40644E-04-2.81960E-05-4.91767E-05 1.66085E-05-8.86208E-19-1.09860E-18
 -1      2760 9.64380E-05-5.13818E-05-1.87501E-05-3.79427E-05 9.02090E-20-4.36593E-19
 -1      2761 1.12757E-04-5.88102E-05-2.33465E-05-3.36351E-05-1.56426E-18-4.54963E-19
 -1      2762 1.20347E-04-5.37190E-05-2.85257E-05-1.96980E-05-1.07467E-19-2.03200E-18
 -1      2763 1.13109E-04-4.71036E-05-2.79768E-05-2.26781E-05 5.00888E-19-1.85126E-18
 -1      2764 1.07189E-04-4.10138E-05-2.82794E-05-2.27590E-05 9.19084E-19-1.53163E-18
 -1      2765 1.02377E-04-3.57888E-05-2.83740E-05-2.34044E-05-5.62086E-20-2.55364E-19
 -1      2766 1.02756E-04-4.26257E-05-2.58678E-05-2.75847E-05 7.83055E-19-6.15316E-19
 -1      2767 9.99242E-05-3.21909E-05-2.89660E-05-2.21650E-05-1.13211E-19-8.82014E-20
 -1      2768 9.71877E-05-2.90242E-05-2.91648E-05-2.16010E-05 1.19092E-18 7.27515E-19
 -1      2769 9.52342E-05-3.22326E-05-2.70866E-05-2.50766E-05 6.18334E-19 9.67120E-19
 -1      2770 9.65348E-05-2.71549E-05-2.96937E-05-1.99572E-05 9.93833E-19 1.49063E-18
 -1      2771 9.50592E-05-2.53462E-05-2.98518E-05-1.87434E-05 1.09534E-18 2.45825E-18
 -1      2772 9.24247E-05-2.61703E-05-2.84238E-05-2.16226E-05 1.33439E-18 1.72259E-18
 -1      2773 9.45714E-05-2.43094E-05-3.00752E-05-1.75260E-05 1.22884E-19 1.56017E-18
 -1      2774 9.31827E-05-2.27902E-05-3.01401E-05-1.60798E-05-5.62750E-19 7.22319E-19
 -1      2775 9.07051E-05-2.10057E-05-2.99302E-05-1.57964E-05-5.84928E-19-1.48619E-19
 -1      2776 9.13303E-05-2.30107E-05-2.92879E-05-1.85324E-05 1.05726E-19 8.27608E-19
 -1      2777 9.48933E-05-2.76470E-05-2.88235E-05-6.57292E-08 8.28787E-19 5.07261E-19
 -1      2778 9.50106E-05-2.73807E-05-2.89633E-05 4.02611E-07 7.70064E-19 5.86557E-19
 -1      2779 9.47898E-05-2.80450E-05-2.86063E-05-6.91939E-07 5.74824E-19 4.80150E-19
 -1      2780 9.48420E-05-2.78721E-05-2.86879E-05-4.32702E-07 7.23524E-19 5.32132E-19
 -1      2781 9.52818E-05-2.76598E-05-2.89887E-05-8.09613E-08 7.56596E-19 1.37615E-19
 -1      2782 9.50477E-05-2.70045E-05-2.91680E-05 1.01289E-06 7.60279E-19 5.72165E-19
 -1      2783 9.52391E-05-2.65862E-05-2.93944E-05 1.79610E-06 7.07279E-19 6.75585E-19
 -1      2784 9.53526E-05-2.69069E-05-2.93417E-05 9.61449E-07 8.21460E-19 1.99879E-19
 -1      2785 9.47433E-05-2.84573E-05-2.84077E-05-1.13880E-06 4.68929E-19 4.67230E-19
 -1      2786 9.47159E-05-2.83796E-05-2.84252E-05-1.10147E-06 4.94993E-19 4.61106E-19
 -1      2787 9.47741E-05-2.85557E-05-2.83784E-05-1.14029E-06 2.26349E-19 8.82225E-19
 -1      2788 9.47288E-05-2.85045E-05-2.83797E-05-1.15466E-06 2.71245E-19 7.30107E-19
 -1      2789 9.51134E-05-2.85867E-05-2.85150E-05-1.13953E-06 1.54576E-19 4.49337E-19
 -1      2790 9.48231E-05-2.86118E-05-2.83752E-05-1.07142E-06 2.51608E-20 7.76312E-19
 -1      2791 9.47695E-05-2.85795E-05-2.83666E-05-1.11394E-06 2.52445E-19 5.86454E-19
 -1      2792 9.51010E-05-2.86837E-05-2.84670E-05-1.14271E-06 3.40724E-19 5.47631E-19
 -1      2793 9.48811E-05-2.86382E-05-2.83887E-05-9.68933E-07-4.55774E-20 7.50653E-19
 -1      2794 9.48253E-05-2.86198E-05-2.83742E-05-1.02339E-06-9.75311E-20 5.81553E-19
 -1      2795 9.51030E-05-2.87293E-05-2.84476E-05-1.07642E-06-1.74424E-20 8.92957E-20
 -1      2796 9.49423E-05-2.86435E-05-2.84125E-05-8.58435E-07 6.92470E-20 9.75937E-19
 -1      2797 9.48876E-05-2.86354E-05-2.83948E-05-9.13613E-07 8.48299E-20 8.26325E-19
 -1      2798 9.51145E-05-2.87396E-05-2.84475E-05-9.77537E-07-1.54666E-20-7.08405E-21
 -1      2799 9.50036E-05-2.86335E-05-2.84430E-05-7.57798E-07 2.55353E-19 4.51222E-19
 -1      2800 9.49514E-05-2.86332E-05-2.84234E-05-8.05903E-07 2.15786E-19 9.82480E-19
 -1      2801 9.51316E-05-2.87256E-05-2.84605E-05-8.71985E-07 2.26459E-19 1.92593E-19
 -1      2802 9.50642E-05-2.86126E-05-2.84778E-05-6.79708E-07 4.98808E-19-1.24602E-19
 -1      2803 9.50144E-05-2.86179E-05-2.84571E-05-7.15186E-07 6.39296E-19 2.88277E-20
 -1      2804 9.51521E-05-2.86944E-05-2.84824E-05-7.78059E-07 6.38054E-19-2.70141E-19
 -1      2805 9.51250E-05-2.85833E-05-2.85162E-05-6.33505E-07 3.91124E-19-3.34540E-19
 -1      2806 9.50763E-05-2.85929E-05-2.84944E-05-6.52225E-07 2.14052E-19-2.36899E-19
 -1      2807 9.51749E-05-2.86508E-05-2.85108E-05-7.08901E-07 5.19057E-19-5.57859E-19
 -1      2808 9.51882E-05-2.85480E-05-2.85582E-05-6.26479E-07 7.33588E-19-3.14450E-19
 -1      2809 9.51386E-05-2.85606E-05-2.85349E-05-6.25174E-07 4.00886E-19-2.06039E-19
 -1      2810 9.52000E-05-2.85978E-05-2.85443E-05-6.74343E-07 3.23984E-19-7.81872E-19
 -1      2811 9.52572E-05-2.85084E-05-2.86044E-05-6.64655E-07 7.58543E-19 5.87028E-20
 -1      2812 9.52038E-05-2.85227E-05-2.85790E-05-6.40614E-07 8.56706E-19-1.20152E-19
 -1      2813 9.52282E-05-2.85372E-05-2.85824E-05-6.82172E-07 6.40827E-19-3.47257E-19
 -1      2814 9.53368E-05-2.84669E-05-2.86558E-05-7.53111E-07 1.04927E-19 9.21542E-19
 -1      2815 9.52761E-05-2.84814E-05-2.86277E-05-7.04100E-07 3.11687E-19 6.20709E-19
 -1      2816 9.52615E-05-2.84708E-05-2.86252E-05-7.38898E-07 7.65800E-20 1.94197E-19
 -1      2817 9.54329E-05-2.84272E-05-2.87137E-05-8.95777E-07 1.58541E-19 9.48649E-19
 -1      2818 9.53607E-05-2.84395E-05-2.86818E-05-8.20239E-07 4.67069E-19 9.96048E-19
 -1      2819 9.53028E-05-2.84010E-05-2.86730E-05-8.50015E-07 1.84128E-19 1.06911E-18
 -1      2820 9.55533E-05-2.83948E-05-2.87788E-05-1.09465E-06-2.26012E-19 6.88137E-19
 -1      2821 9.54648E-05-2.84015E-05-2.87426E-05-9.92199E-07 4.99172E-21 6.03329E-19
 -1      2822 9.53571E-05-2.83319E-05-2.87261E-05-1.01974E-06 1.27638E-19 7.20976E-19
 -1      2823 9.57079E-05-2.83788E-05-2.88516E-05-1.34828E-06-2.98148E-19 1.04833E-18
 -1      2824 9.55974E-05-2.83748E-05-2.88107E-05-1.22059E-06-2.70630E-19 8.47978E-19
 -1      2825 9.54314E-05-2.82705E-05-2.87845E-05-1.25013E-06-4.87300E-19 5.10598E-19
 -1      2826 9.59095E-05-2.83933E-05-2.89317E-05-1.64948E-06-4.89320E-19 1.41463E-18
 -1      2827 9.57704E-05-2.83709E-05-2.88862E-05-1.50159E-06-4.22810E-19 1.21921E-18
 -1      2828 9.55362E-05-2.82288E-05-2.88477E-05-1.53946E-06-6.71316E-19 4.66914E-19
 -1      2829 9.61747E-05-2.84587E-05-2.90176E-05-1.98203E-06-1.91096E-19 1.17239E-18
 -1      2830 9.59995E-05-2.84072E-05-2.89682E-05-1.82407E-06-1.58496E-19 1.27214E-18
 -1      2831 9.56868E-05-2.82254E-05-2.89142E-05-1.87976E-06-2.75346E-19 1.18269E-19
 -1      2832 9.65246E-05-2.86035E-05-2.91063E-05-2.31649E-06-3.92082E-19 1.11960E-18
 -1      2833 9.63050E-05-2.85086E-05-2.90546E-05-2.16592E-06-1.50391E-19 1.38275E-18
 -1      2834 9.59052E-05-2.82879E-05-2.89819E-05-2.25333E-06-2.79224E-20 3.33751E-19
 -1      2835 9.69853E-05-2.88643E-05-2.91937E-05-2.60525E-06-1.48967E-19 6.55986E-19
 -1      2836 9.67129E-05-2.87084E-05-2.91421E-05-2.48921E-06-3.18262E-20 7.68463E-19
 -1      2837 9.62220E-05-2.84545E-05-2.90474E-05-2.62827E-06-1.11351E-19 6.92142E-21
 -1      2838 9.75872E-05-2.92841E-05-2.92746E-05-2.77767E-06 1.43047E-19 9.71582E-19
 -1      2839 9.72546E-05-2.90479E-05-2.92263E-05-2.73502E-06-9.05137E-20 9.51680E-19
 -1      2840 9.66777E-05-2.87745E-05-2.91072E-05-2.95307E-06-2.33857E-19-4.57648E-19
 -1      2841 9.83604E-05-2.99043E-05-2.93443E-05-2.73669E-06-2.52045E-19 2.39482E-19
 -1      2842 9.79643E-05-2.95718E-05-2.93027E-05-2.81858E-06 1.09656E-19 5.27147E-19
 -1      2843 9.73224E-05-2.93046E-05-2.91583E-05-3.15093E-06 4.58088E-19-5.28664E-19
 -1      2844 9.93247E-05-3.07489E-05-2.94013E-05-2.36017E-06-5.39264E-19 6.09856E-19
 -1      2845 9.88718E-05-3.03165E-05-2.93685E-05-2.62731E-06-5.36768E-19 6.82750E-19
 -1      2846 9.82104E-05-3.00981E-05-2.92011E-05-3.11501E-06-3.62558E-19-4.52029E-19
 -1      2847 1.00469E-04-3.17954E-05-2.94503E-05-1.51242E-06-1.92719E-19 8.43849E-19
 -1      2848 9.99860E-05-3.12877E-05-2.94258E-05-2.02576E-06-1.11451E-19 9.73448E-19
 -1      2849 9.93856E-05-3.11823E-05-2.92422E-05-2.70812E-06-5.89980E-19-1.55483E-19
 -1      2850 1.01721E-04-3.29311E-05-2.95066E-05-7.46742E-08 1.73934E-19 7.42357E-19
 -1      2851 1.01266E-04-3.24229E-05-2.94853E-05-8.75567E-07 8.35184E-21 9.55983E-19
 -1      2852 1.00852E-04-3.25177E-05-2.92988E-05-1.77304E-06-1.61669E-19 1.02813E-18
 -1      2853 1.02903E-04-3.39058E-05-2.95994E-05 1.99333E-06 1.15717E-18 3.21896E-19
 -1      2854 1.02579E-04-3.35417E-05-2.95696E-05 9.18076E-07 8.08271E-19 7.67112E-19
 -1      2855 1.02527E-04-3.39405E-05-2.94031E-05-1.65859E-07 3.59760E-19-3.71022E-19
 -1      2856 1.03715E-04-3.43142E-05-2.97686E-05 4.55271E-06 1.26186E-18 3.78342E-19
 -1      2857 1.03661E-04-3.43054E-05-2.97146E-05 3.31859E-06 1.29274E-18 1.76117E-19
 -1      2858 1.04176E-04-3.51000E-05-2.96031E-05 2.16820E-06 1.20903E-18 1.85965E-19
 -1      2859 1.03773E-04-3.36728E-05-3.00520E-05 7.16827E-06 3.65701E-20 6.74123E-19
 -1      2860 1.04126E-04-3.42397E-05-2.99592E-05 6.03605E-06 8.17941E-19 9.68671E-19
 -1      2861 1.05387E-04-3.54584E-05-2.99531E-05 5.06145E-06 9.54118E-19 1.58678E-18
 -1      2862 1.02771E-04-3.16560E-05-3.04590E-05 9.04526E-06 2.42147E-19 1.11702E-18
 -1      2863 1.03575E-04-3.28879E-05-3.03258E-05 8.41724E-06 4.95159E-20 8.73652E-19
 -1      2864 1.05630E-04-3.44067E-05-3.04905E-05 7.96893E-06 1.98263E-19 1.39068E-18
 -1      2865 1.00792E-04-2.84914E-05-3.09392E-05 9.18888E-06 4.33932E-19 5.67220E-19
 -1      2866 1.01883E-04-3.01597E-05-3.07882E-05 9.48265E-06 2.91272E-19 5.03449E-19
 -1      2867 1.04525E-04-3.16486E-05-3.11930E-05 9.88228E-06 7.18918E-19 1.83328E-18
 -1      2868 9.85299E-05-2.52123E-05-3.13710E-05 6.93545E-06-6.59461E-19 1.48773E-18
 -1      2869 9.95214E-05-2.67193E-05-3.12519E-05 8.31839E-06-2.76318E-19 1.04609E-18
 -1      2870 1.02286E-04-2.76983E-05-3.19467E-05 9.60695E-06 1.33905E-19 1.54930E-18
 -1      2871 9.70790E-05-2.33132E-05-3.15929E-05 2.60519E-06-9.21751E-19 1.55061E-18
 -1      2872 9.75460E-05-2.39545E-05-3.15614E-05 4.76941E-06-5.68453E-19 1.52861E-18
 -1      2873 9.99364E-05-2.40478E-05-3.25443E-05 6.51702E-06-7.96737E-19 1.01200E-18
 -1      2874 9.72615E-05-2.37998E-05-3.15050E-05-2.31263E-06-4.83553E-19 8.67750E-19
 -1      2875 9.70150E-05-2.32639E-05-3.15828E-05-1.20215E-07-5.53293E-19 1.28911E-18
 -1      2876 9.88362E-05-2.24666E-05-3.27630E-05 1.31779E-06-5.15502E-19 1.85507E-18
 -1      2877 9.89742E-05-2.64668E-05-3.11253E-05-5.97200E-06 1.23266E-19 2.67292E-19
 -1      2878 9.81602E-05-2.50129E-05-3.12916E-05-4.54644E-06-4.78051E-19 5.71561E-19
 -1      2879 9.96843E-05-2.38532E-05-3.25128E-05-3.93498E-06 7.60229E-20 4.98634E-19
 -1      2880 1.01128E-04-2.98761E-05-3.05894E-05-7.21363E-06 8.42434E-20 7.58359E-21
 -1      2881 1.00199E-04-2.82405E-05-3.07875E-05-6.89061E-06 4.06977E-19-1.51663E-19
 -1      2882 1.01916E-04-2.74839E-05-3.18794E-05-7.15651E-06 6.38265E-19 4.81869E-19
 -1      2883 1.02616E-04-3.25622E-05-3.00568E-05-6.18283E-06 7.32909E-19-9.63514E-19
 -1      2884 1.01976E-04-3.13767E-05-3.02339E-05-6.79435E-06 3.85855E-19-1.48358E-19
 -1      2885 1.04072E-04-3.14518E-05-3.10831E-05-7.50568E-06 3.90731E-19 8.31581E-20
 -1      2886 1.02914E-04-3.37795E-05-2.96367E-05-3.82255E-06 7.56410E-19-1.48269E-18
 -1      2887 1.02744E-04-3.33123E-05-2.97639E-05-4.93000E-06 5.14457E-19-1.35358E-18
 -1      2888 1.05067E-04-3.41765E-05-3.03435E-05-5.60403E-06 7.40526E-19-3.63047E-19
 -1      2889 1.02093E-04-3.35438E-05-2.93661E-05-1.20284E-06-9.67089E-19-5.79930E-19
 -1      2890 1.02366E-04-3.37339E-05-2.94408E-05-2.35468E-06-2.37208E-19-1.22081E-18
 -1      2891 1.04620E-04-3.50602E-05-2.97922E-05-2.69516E-06-4.78268E-20 1.60712E-19
 -1      2892 1.00558E-04-3.23207E-05-2.92239E-05 9.05808E-07-9.56747E-19-5.55133E-20
 -1      2893 1.01129E-04-3.29344E-05-2.92602E-05 1.88377E-08-1.11776E-18-5.97839E-19
 -1      2894 1.03066E-04-3.43255E-05-2.94580E-05 8.95388E-08-1.21705E-18-8.18190E-19
 -1      2895 9.88019E-05-3.06805E-05-2.91697E-05 2.15562E-06-2.61808E-19 2.98505E-20
 -1      2896 9.95223E-05-3.14903E-05-2.91880E-05 1.69062E-06-4.69445E-19-1.44128E-19
 -1      2897 1.01027E-04-3.26303E-05-2.93076E-05 2.11608E-06-1.26926E-18-2.37710E-18
 -1      2898 9.88839E-05-3.05461E-05-2.92730E-05 3.18820E-06-1.61919E-20-3.25700E-18
 -1      2899 9.94794E-05-3.04340E-05-2.95686E-05 8.02275E-06 7.65073E-19 1.68893E-18
 -1      2900 9.96541E-05-3.08533E-05-2.94820E-05 6.68199E-06 1.97113E-19-1.85735E-18
 -1      2901 9.54205E-05-2.67829E-05-2.94467E-05 1.29045E-05-1.18697E-18-5.92859E-19
 -1      2902 9.70717E-05-2.82115E-05-2.94657E-05 1.22865E-05-1.11249E-18-1.11056E-18
 -1      2903 9.95298E-05-3.07462E-05-2.94473E-05 5.41013E-06-7.81645E-19-3.94352E-18
 -1      2904 9.92721E-05-3.08047E-05-2.93373E-05 4.20021E-06-4.72008E-19-3.77853E-18
 -1      2905 1.00336E-04-3.19509E-05-2.93351E-05 3.94333E-06-4.66035E-19-4.37045E-18
 -1      2906 1.00995E-04-3.23574E-05-2.94179E-05 6.25804E-06 2.19165E-19-1.26526E-18
 -1      2907 9.82860E-05-2.92488E-05-2.95841E-05 1.09207E-05-6.67467E-19-9.50053E-19
 -1      2908 9.91315E-05-3.01555E-05-2.95430E-05 9.69094E-06-3.42433E-19 9.46698E-19
 -1      2909 1.00688E-04-3.21574E-05-2.93992E-05 9.29233E-06 8.59183E-19 7.84121E-19
 -1      2910 9.88934E-05-3.08575E-05-2.91991E-05 1.25387E-05-6.48810E-19-1.50921E-18
 -1      2911 8.61845E-05-1.90659E-05-2.88575E-05 9.71975E-06-4.03214E-19 2.27214E-18
 -1      2912 8.84272E-05-2.07379E-05-2.89402E-05 1.16272E-05-1.17627E-18 2.09093E-18
 -1      2913 8.25815E-05-1.59284E-05-2.86385E-05 3.77454E-06 2.80122E-19 3.54161E-19
 -1      2914 8.39927E-05-1.69649E-05-2.86852E-05 6.83318E-06-5.46462E-19 2.71139E-18
 -1      2915 8.37795E-05-1.89332E-05-2.77654E-05 9.80062E-06 3.91381E-20 2.41838E-18
 -1      2916 8.17512E-05-1.49252E-05-2.86594E-05-3.92553E-06 4.81820E-19 5.58643E-19
 -1      2917 8.16921E-05-1.49551E-05-2.86187E-05-3.60492E-07 1.41200E-19 7.59534E-19
 -1      2918 8.01412E-05-1.57639E-05-2.75228E-05 2.39548E-06 4.62513E-19 1.03246E-18
 -1      2919 8.43223E-05-1.66088E-05-2.90032E-05-1.09540E-05-7.91511E-19 2.34885E-19
 -1      2920 8.27375E-05-1.55687E-05-2.88504E-05-8.02133E-06 1.22647E-19 3.86257E-19
 -1      2921 8.02684E-05-1.54364E-05-2.77138E-05-6.39172E-06-2.91088E-19-9.83270E-21
 -1      2922 3.75148E-05-1.82308E-05-7.76460E-06-1.98755E-05 3.22984E-19-1.24895E-18
 -1      2923 4.74763E-05-2.53846E-05-9.00678E-06-3.11771E-05 3.60201E-19-7.58518E-19
 -1      2924 6.05224E-05-2.81774E-05-1.32986E-05-3.24259E-05-4.83021E-19 3.94823E-19
 -1      2925 5.42849E-05-2.87718E-05-1.05669E-05 3.72093E-05 8.75197E-19 2.96546E-18
 -1      2926 3.98000E-05-1.94187E-05-8.16049E-06 2.47948E-05-9.20195E-19 4.12992E-18
 -1      2927 9.28366E-05-1.80026E-05-3.20780E-05-8.83558E-06-6.01369E-19-1.25118E-18
 -1      2928 3.28414E-05-1.37897E-05-7.68019E-06 9.81345E-06-1.03195E-18 3.23355E-19
 -1      2929 3.27640E-05-1.38026E-05-7.50848E-06-6.17981E-06-3.73753E-19-1.81964E-18
 -1      2930 1.22396E-04-5.88415E-05-2.69706E-05-2.66705E-05-3.64859E-19-7.28342E-19
 -1      2931 1.28779E-04-5.87665E-05-3.02826E-05-1.94223E-05-3.29999E-19-4.30954E-19
 -1      2932 9.10363E-05-2.31325E-05-2.91727E-05 1.28310E-05-1.17027E-18 4.83060E-19
 -1      2933 9.33071E-05-2.49118E-05-2.92427E-05 1.33201E-05-7.54340E-19-3.18168E-19
 -1      2934 8.94283E-05-2.35393E-05-2.82557E-05 1.39430E-05-4.68664E-19 1.11113E-18
 -1      2935 1.48802E-04-6.22093E-05-3.71238E-05 1.37828E-06-7.92823E-19-3.69942E-19
 -1      2936 9.16172E-05-5.02633E-05-1.76550E-05 4.41719E-05 1.48485E-18 1.13921E-18
 -1      2937 7.29392E-05-4.01295E-05-1.35505E-05 4.32639E-05 1.72435E-18 2.00535E-18
 -1      2938 1.31758E-04-1.72801E-05-4.97559E-05-9.70975E-06 1.16806E-18-8.21940E-19
 -1      2939 1.35344E-04-2.77251E-05-4.65182E-05-1.08108E-05 9.28772E-19-4.87891E-19
 -1      2940 9.11775E-05-1.60894E-05-3.22085E-05 4.91901E-06 1.44958E-18-4.44555E-19
 -1      2941 9.08349E-05-1.55910E-05-3.22691E-05 3.99703E-06 1.34290E-18-7.06894E-19
 -1      2942 9.18129E-05-1.72028E-05-3.19607E-05 3.20003E-06 1.21044E-18-6.50881E-19
 -1      2943 9.24800E-05-1.82617E-05-3.17886E-05 4.61931E-06 1.31996E-18-3.17548E-19
 -1      2944 5.84875E-05-2.98777E-05-1.16447E-05-3.88971E-05-6.05099E-19-3.88989E-18
 -1      2945 7.50979E-05-3.96843E-05-1.51102E-05-4.34944E-05-2.92862E-19-3.20613E-18
 -1      2946 9.24643E-05-4.82685E-05-1.84188E-05-4.10745E-05-5.22090E-19-2.83105E-18
 -1      2947 1.09383E-04-5.53654E-05-2.32798E-05-3.57680E-05-4.73703E-19-1.97081E-18
 -1      2948 1.13886E-04-5.52349E-05-2.49582E-05-2.93309E-05-8.89067E-19-6.46859E-19
 -1      2949 9.08001E-05-1.55443E-05-3.22740E-05-3.93312E-06 3.64139E-19-1.43865E-18
 -1      2950 9.11327E-05-1.60285E-05-3.22149E-05-4.85862E-06 1.97942E-19-1.50802E-18
 -1      2951 1.27928E-04-1.45564E-05-4.90626E-05 1.08028E-05 1.56638E-18 2.15559E-18
 -1      2952 1.26167E-04-9.81907E-06-5.05438E-05 6.37627E-06 6.83344E-19 1.08693E-18
 -1      2953 9.07760E-05-4.92990E-05-1.80193E-05 3.69060E-05-9.91029E-19 3.74060E-18
 -1      2954 7.10118E-05-3.88556E-05-1.29509E-05 3.56933E-05 1.77877E-20 1.17907E-18
 -1      2955 1.37211E-04-3.50159E-05-4.39838E-05 1.04620E-05 2.21044E-18 3.51857E-18
 -1      2956 1.32704E-04-2.44902E-05-4.71145E-05 1.22195E-05 2.99977E-18 3.48342E-18
 -1      2957 3.33464E-05-1.50078E-05-7.31704E-06-1.97661E-05 5.19337E-19-3.57490E-18
 -1      2958 4.27687E-05-2.11812E-05-8.94407E-06-3.21396E-05 2.66921E-19-4.17926E-18
 -1      2959 1.39033E-04-5.82205E-05-3.52071E-05 1.10005E-05 1.80140E-19 9.22419E-19
 -1      2960 1.31771E-04-6.14076E-05-2.98960E-05 2.23133E-05 1.59210E-18 6.13358E-19
 -1      2961 1.28931E-04-6.45557E-05-2.77686E-05 2.08437E-05-1.79486E-18 1.76839E-18
 -1      2962 1.12473E-04-5.74294E-05-2.30407E-05 2.77315E-05-3.10353E-18 4.74677E-18
 -1      2963 3.36276E-05-1.28680E-05-8.33617E-06 7.65940E-06 5.94458E-19-9.93781E-19
 -1      2964 3.11802E-05-1.16405E-05-7.72451E-06-6.91577E-06 6.67025E-19-2.18662E-18
 -1      2965 1.25378E-04-7.31441E-06-5.12259E-05 8.93627E-07 1.35716E-18-2.63401E-19
 -1      2966 1.26842E-04-9.58243E-06-5.07924E-05-5.67896E-06 1.28749E-18-5.17061E-19
 -1      2967 1.27921E-04-6.35320E-05-2.72250E-05-2.40295E-05-1.56405E-18-8.11034E-20
 -1      2968 1.41080E-04-6.41691E-05-3.33023E-05-1.10119E-05-1.22269E-18 1.75018E-19
 -1      2969 1.39642E-04-6.25006E-05-3.32288E-05-7.06011E-06-7.82764E-19-5.98323E-19
 -1      2970 1.19889E-04-5.93214E-05-2.59018E-05-2.65238E-05-1.20469E-18 1.31958E-19
 -1      2971 9.47436E-05-2.82973E-05-2.84771E-05-1.01433E-06 4.85158E-19 4.09675E-19
 -1      2972 9.47475E-05-2.81818E-05-2.85199E-05-8.91055E-07 5.37180E-19 4.19904E-19
 -1      2973 9.52037E-05-2.81257E-05-2.87542E-05-6.95271E-07 6.34884E-19-7.81835E-20
 -1      2974 9.51462E-05-2.84136E-05-2.86047E-05-1.01471E-06 5.67007E-19-8.80335E-20
 -1      2975 9.12897E-05-1.63938E-05-3.20861E-05 2.86415E-08 8.04789E-19-1.02440E-18
 -1      2976 9.01666E-05-1.46039E-05-3.24034E-05-3.83201E-07 7.81654E-19-1.15833E-18
 -1      2977 9.02231E-05-1.46842E-05-3.23935E-05-1.34119E-06 6.83470E-19-1.22073E-18
 -1      2978 9.44857E-05-2.14006E-05-3.13164E-05 7.86667E-06 1.27103E-18 1.03772E-18
 -1      2979 1.34977E-04-3.44791E-05-4.33949E-05-1.06520E-05 5.43795E-19-8.60691E-19
 -1      2980 1.32457E-04-3.97101E-05-3.99430E-05-8.80022E-06 4.37598E-19-1.52013E-18
 -1      2981 1.27243E-04-2.79631E-05-4.29187E-05-1.26249E-05 3.31825E-19-2.50293E-18
 -1      2982 1.19539E-04-1.00688E-05-4.73046E-05 3.57649E-06-5.60206E-19 5.06115E-19
 -1      2983 8.98322E-05-4.50532E-05-1.87867E-05-3.68215E-05 9.52912E-22 6.06370E-19
 -1      2984 1.02369E-04-5.29124E-05-2.08381E-05 3.87448E-05 1.45488E-18 1.24651E-18
 -1      2985 8.94679E-05-3.86688E-05-2.16534E-05 2.97081E-05 1.12767E-18 2.81556E-18
 -1      2986 1.03304E-04-4.54771E-05-2.44248E-05 2.57612E-05-2.01832E-19 3.20598E-18
 -1      2987 1.29656E-04-5.95933E-05-2.91583E-05 1.52402E-05-1.07409E-18 9.94311E-19
 -1      2988 1.38029E-04-6.25498E-05-3.20595E-05 7.41652E-06-7.38401E-19 2.24887E-19
 -1      2989 8.70861E-05-4.27880E-05-1.85645E-05-3.88050E-05-9.54500E-19-2.67318E-18
 -1      2990 1.11561E-04-5.28179E-05-2.47805E-05 2.40072E-05-9.13207E-19 3.05156E-18
 -1      2991 1.32008E-04-5.98782E-05-3.06041E-05-1.35100E-05-5.59518E-19-1.45510E-18
 -1      2992 9.50087E-05-2.79210E-05-2.87933E-05 1.45634E-05-3.28662E-19-1.08016E-19
 -1      2993 9.15676E-05-1.66812E-05-3.21142E-05-5.58830E-06 6.01943E-20-1.42353E-18
 -1      2994 9.20894E-05-1.74719E-05-3.20132E-05-6.40444E-06-1.54906E-19-1.26650E-18
 -1      2995 9.24322E-05-1.81995E-05-3.17978E-05-4.56868E-06 6.67748E-20-1.31025E-18
 -1      2996 4.25176E-05-1.54777E-05-1.09900E-05-1.27691E-05-5.58459E-19-1.81879E-18
 -1      2997 8.84174E-05-1.94718E-05-2.95413E-05-1.47068E-05-9.48551E-19-1.08668E-18
 -1      2998 8.62669E-05-1.79251E-05-2.93595E-05-1.32340E-05-9.41091E-19-1.39493E-18
 -1      2999 8.34087E-05-1.73324E-05-2.83274E-05-1.28991E-05-5.64600E-19-1.04074E-18
 -1      3000 8.83514E-05-2.03392E-05-2.91443E-05-1.61682E-05-1.14221E-18-5.24304E-19
 -1      3001 9.53214E-05-2.56694E-05-2.98576E-05 2.59541E-06 8.59592E-19 3.23659E-19
 -1      3002 9.52054E-05-2.58920E-05-2.97005E-05 2.76696E-06 7.78711E-19 7.69735E-19
 -1      3003 9.52334E-05-2.55600E-05-2.98368E-05 3.46078E-06 8.46963E-19 9.54331E-19
 -1      3004 6.74933E-05-3.40695E-05-1.37774E-05 3.93425E-05 9.89864E-19 1.17123E-18
 -1      3005 6.32468E-05-2.73703E-05-1.49335E-05 3.39036E-05 4.38234E-19 2.73983E-18
 -1      3006 7.96831E-05-3.88473E-05-1.74744E-05 3.90905E-05 4.80003E-19 1.37579E-18
 -1      3007 9.42337E-05-2.07558E-05-3.15189E-05-8.16972E-06-7.26404E-19-1.18677E-18
 -1      3008 9.47379E-05-2.26628E-05-3.09104E-05-6.44124E-06-6.09927E-19-1.01815E-18
 -1      3009 3.96515E-05-1.48524E-05-9.90550E-06 1.35473E-05 7.22943E-19-5.18914E-19
 -1      3010 4.26856E-05-1.19071E-05-1.28239E-05 6.82153E-06 6.01340E-19-7.85305E-19
 -1      3011 4.70428E-05-1.76422E-05-1.23000E-05 1.99350E-05 1.22777E-18 2.58874E-19
 -1      3012 6.56554E-05-3.21749E-05-1.37328E-05 3.23937E-05 1.35906E-18 9.97593E-19
 -1      3013 1.32955E-04-5.72624E-05-3.23774E-05-1.14394E-05 6.93508E-20 7.23154E-19
 -1      3014 1.32852E-04-5.36747E-05-3.44253E-05-2.86318E-06 1.86566E-19 2.43027E-18
 -1      3015 1.27365E-04-5.66268E-05-3.02800E-05-1.36891E-05-1.73509E-19 1.19665E-18
 -1      3016 4.38637E-05-1.63732E-05-1.11427E-05 1.65099E-05-5.92923E-20 2.47842E-18
 -1      3017 1.42755E-04-6.36145E-05-3.37285E-05 5.27495E-06-6.16428E-19-7.36707E-19
 -1      3018 1.37755E-04-5.44275E-05-3.57718E-05 3.84961E-06 1.41325E-19-3.13508E-19
 -1      3019 3.96054E-05-1.29083E-05-1.08193E-05-1.24302E-05 1.03934E-18-2.75942E-18
 -1      3020 1.35035E-04-4.17347E-05-4.02324E-05 7.47997E-06 1.14164E-18 3.48988E-18
 -1      3021 9.47480E-05-2.24168E-05-3.09677E-05 6.33964E-06 1.10994E-18 8.04386E-19
 -1      3022 1.25317E-04-2.12597E-05-4.49751E-05 1.22778E-05 1.35652E-18 3.95527E-18
 -1      3023 1.23519E-04-1.48607E-05-4.70317E-05-7.94438E-06 9.83511E-19-1.64555E-18
 -1      3024 9.03483E-05-1.48753E-05-3.23657E-05-2.17787E-06 6.36571E-19-1.10014E-18
 -1      3025 9.05330E-05-1.51392E-05-3.23336E-05-3.12916E-06 4.36402E-19-1.25671E-18
 -1      3026 9.17830E-05-1.71610E-05-3.19658E-05-3.14223E-06 3.75398E-19-1.22862E-18
 -1      3027 9.14076E-05-1.65770E-05-3.20574E-05-1.58344E-06 5.53147E-19-1.12807E-18
 -1      3028 9.45430E-05-2.22467E-05-3.09673E-05-5.83039E-06-5.00009E-19-1.09281E-18
 -1      3029 1.26718E-04-6.06332E-05-2.81884E-05 2.46221E-05 6.47027E-19 7.66512E-19
 -1      3030 5.67001E-05-2.50029E-05-1.30100E-05-3.35406E-05-4.33575E-19-3.69740E-18
 -1      3031 1.20161E-04-5.68131E-05-2.72090E-05-2.35265E-05-1.11528E-18-4.39127E-19
 -1      3032 9.42677E-05-2.18669E-05-3.10641E-05 5.00084E-06 1.15678E-18 1.66023E-20
 -1      3033 9.38154E-05-2.09219E-05-3.12451E-05 4.61161E-06 1.22492E-18-1.89266E-19
 -1      3034 9.53819E-05-2.53551E-05-2.99878E-05 4.67844E-06 8.39310E-19 1.44061E-18
 -1      3035 8.14168E-05-2.99298E-05-2.20188E-05 2.60685E-05 1.92912E-18 1.93409E-18
 -1      3036 7.48213E-05-3.24489E-05-1.79404E-05 3.04723E-05 1.77448E-18 2.21192E-18
 -1      3037 1.33602E-04-4.97796E-05-3.63747E-05-2.48034E-06 5.83023E-19-7.04890E-19
 -1      3038 1.33412E-04-5.60937E-05-3.29161E-05 6.84388E-06 1.52837E-19-5.24102E-20
 -1      3039 8.12338E-05-3.67098E-05-1.85680E-05-3.61407E-05-1.53361E-18-3.18299E-18
 -1      3040 9.47113E-05-4.52118E-05-2.13424E-05-3.51745E-05-1.35557E-18-1.20456E-18
 -1      3041 1.51582E-04-6.18940E-05-3.90089E-05-6.71124E-06 2.14988E-19-2.85979E-19
 -1      3042 9.54929E-05-2.55653E-05-2.99558E-05-2.14305E-06-3.07366E-19-8.81521E-19
 -1      3043 9.55364E-05-2.62668E-05-2.96992E-05-1.33429E-06-2.83608E-19-9.13230E-19
 -1      3044 9.56812E-05-2.68800E-05-2.94719E-05-7.47655E-07-2.06904E-19-7.17777E-19
 -1      3045 9.56568E-05-2.73271E-05-2.92924E-05-2.22052E-07-1.12008E-19-7.78851E-19
 -1      3046 9.57105E-05-2.62053E-05-2.97900E-05-1.17132E-06-1.99216E-19-6.86879E-19
 -1      3047 9.57012E-05-2.77129E-05-2.91266E-05 1.58835E-07-2.07499E-19-6.68243E-19
 -1      3048 9.56643E-05-2.79991E-05-2.90040E-05 4.74142E-07-3.85882E-19-8.41718E-19
 -1      3049 9.58981E-05-2.73298E-05-2.93894E-05-1.65728E-07-1.53975E-19-6.09202E-19
 -1      3050 9.56567E-05-2.82370E-05-2.88863E-05 6.96191E-07-4.67761E-19-7.20925E-19
 -1      3051 9.56246E-05-2.84171E-05-2.88054E-05 8.64791E-07-4.36670E-19-7.03138E-19
 -1      3052 9.59399E-05-2.80542E-05-2.90975E-05 4.70070E-07-3.70652E-19-5.53118E-19
 -1      3053 9.55927E-05-2.85577E-05-2.87241E-05 9.74832E-07-1.88853E-19-5.02082E-19
 -1      3054 9.55699E-05-2.86669E-05-2.86733E-05 1.04540E-06-2.74262E-20-1.78417E-19
 -1      3055 9.59062E-05-2.85034E-05-2.88903E-05 8.29249E-07-1.60630E-19-4.46513E-19
 -1      3056 9.55284E-05-2.87427E-05-2.86193E-05 1.08061E-06-4.78634E-20-1.60129E-19
 -1      3057 9.55147E-05-2.88042E-05-2.85899E-05 1.08947E-06-1.37053E-19-1.71009E-19
 -1      3058 9.58384E-05-2.87673E-05-2.87477E-05 9.95571E-07 1.14490E-19-1.80536E-19
 -1      3059 9.54693E-05-2.88380E-05-2.85547E-05 1.07720E-06-4.34536E-19 1.56638E-19
 -1      3060 9.54619E-05-2.88665E-05-2.85400E-05 1.04787E-06-2.68833E-19 7.00272E-20
 -1      3061 9.57556E-05-2.89065E-05-2.86520E-05 1.03484E-06-1.26727E-19 1.53443E-19
 -1      3062 9.54201E-05-2.88685E-05-2.85216E-05 1.01045E-06-3.30488E-19 1.07642E-19
 -1      3063 9.54185E-05-2.88730E-05-2.85182E-05 9.65514E-07-4.23570E-19-8.76727E-20
 -1      3064 9.56721E-05-2.89592E-05-2.85932E-05 9.97183E-07-4.37859E-19 5.51227E-19
 -1      3065 9.53803E-05-2.88566E-05-2.85104E-05 9.19093E-07-5.79381E-19-2.81303E-19
 -1      3066 9.53822E-05-2.88454E-05-2.85143E-05 8.70738E-07-8.86233E-19-5.96404E-19
 -1      3067 9.55948E-05-2.89519E-05-2.85628E-05 9.22315E-07-6.68801E-19 1.53331E-19
 -1      3068 9.53478E-05-2.88160E-05-2.85143E-05 8.25813E-07-7.65217E-19-4.66973E-19
 -1      3069 9.53521E-05-2.87935E-05-2.85234E-05 7.83526E-07-4.41970E-19-5.34620E-19
 -1      3070 9.55240E-05-2.89061E-05-2.85517E-05 8.37389E-07-6.18341E-19-3.81284E-19
 -1      3071 9.53208E-05-2.87546E-05-2.85294E-05 7.48000E-07-4.69832E-19-6.00193E-19
 -1      3072 9.53267E-05-2.87232E-05-2.85426E-05 7.18823E-07-4.10842E-19-4.89963E-19
 -1      3073 9.54594E-05-2.88328E-05-2.85552E-05 7.61772E-07-5.51361E-19-4.35123E-19
 -1      3074 9.52973E-05-2.86761E-05-2.85533E-05 6.98775E-07-7.99187E-20-5.11146E-19
 -1      3075 9.53044E-05-2.86367E-05-2.85699E-05 6.88383E-07 1.28780E-19-4.48745E-19
 -1      3076 9.53994E-05-2.87379E-05-2.85699E-05 7.09954E-07-2.10413E-19-1.97927E-19
 -1      3077 9.52749E-05-2.85812E-05-2.85846E-05 6.88887E-07 1.87679E-19-1.88383E-19
 -1      3078 9.52827E-05-2.85335E-05-2.86046E-05 7.02378E-07 2.63059E-19-4.85210E-19
 -1      3079 9.53409E-05-2.86234E-05-2.85937E-05 6.93435E-07 1.79350E-19 2.37977E-19
 -1      3080 9.52505E-05-2.84681E-05-2.86230E-05 7.28156E-07-1.03805E-19-5.66976E-19
 -1      3081 9.52584E-05-2.84105E-05-2.86467E-05 7.70676E-07-2.98567E-19-7.54629E-19
 -1      3082 9.52795E-05-2.84875E-05-2.86253E-05 7.22211E-07 1.34841E-21-2.00776E-19
 -1      3083 9.52198E-05-2.83320E-05-2.86686E-05 8.26587E-07 1.65133E-19-5.47980E-19
 -1      3084 9.52267E-05-2.82617E-05-2.86964E-05 9.03831E-07 2.10299E-19-3.65609E-19
 -1      3085 9.52090E-05-2.83256E-05-2.86642E-05 8.05894E-07 1.35552E-19-8.11157E-20
 -1      3086 9.51766E-05-2.81656E-05-2.87220E-05 9.95228E-07 2.83768E-19 9.88270E-20
 -1      3087 9.51805E-05-2.80787E-05-2.87547E-05 1.11383E-06 3.14334E-19 5.25960E-19
 -1      3088 9.51209E-05-2.81296E-05-2.87101E-05 9.54516E-07 4.82287E-19 1.71308E-19
 -1      3089 9.51119E-05-2.79588E-05-2.87837E-05 1.24678E-06-8.24105E-20 3.86151E-19
 -1      3090 9.51093E-05-2.78496E-05-2.88219E-05 1.41460E-06 4.13222E-20 5.56118E-19
 -1      3091 9.50034E-05-2.78884E-05-2.87624E-05 1.17903E-06 2.61690E-19 4.82548E-19
 -1      3092 9.50122E-05-2.76977E-05-2.88540E-05 1.59593E-06-2.64648E-19 2.50305E-19
 -1      3093 9.49974E-05-2.75590E-05-2.88980E-05 1.82218E-06-2.68293E-19-3.36478E-19
 -1      3094 9.48398E-05-2.75871E-05-2.88206E-05 1.49145E-06-3.06483E-19 2.37916E-19
 -1      3095 9.48577E-05-2.73649E-05-2.89321E-05 2.05952E-06-1.74332E-19-3.35161E-19
 -1      3096 9.48228E-05-2.71874E-05-2.89817E-05 2.35461E-06-4.86672E-19-5.00148E-19
 -1      3097 9.46066E-05-2.72063E-05-2.88824E-05 1.90471E-06-2.95512E-19 3.13645E-19
 -1      3098 9.46100E-05-2.69241E-05-2.90169E-05 2.67167E-06-4.30107E-19-8.22375E-19
 -1      3099 9.45327E-05-2.66833E-05-2.90730E-05 3.07003E-06-2.39821E-19-9.65780E-19
 -1      3100 9.42605E-05-2.67097E-05-2.89454E-05 2.44790E-06-6.01032E-19-5.97420E-19
 -1      3101 9.42348E-05-2.63593E-05-2.91010E-05 3.44699E-06-2.74506E-19-1.04990E-18
 -1      3102 9.41050E-05-2.60664E-05-2.91544E-05 3.92086E-06-1.36022E-19-1.19704E-18
 -1      3103 9.37586E-05-2.60735E-05-2.89992E-05 3.12167E-06-2.74610E-19-1.80481E-19
 -1      3104 9.36811E-05-2.56562E-05-2.91687E-05 4.37791E-06-2.42619E-19-8.64722E-19
 -1      3105 9.34683E-05-2.52912E-05-2.92141E-05 4.95692E-06 3.91014E-19-1.22049E-18
 -1      3106 9.30534E-05-2.52890E-05-2.90290E-05 3.91901E-06-2.97278E-19-7.13030E-19
 -1      3107 9.28708E-05-2.47830E-05-2.92004E-05 5.50190E-06 6.44721E-19-1.91856E-18
 -1      3108 9.25436E-05-2.43452E-05-2.92237E-05 6.19657E-06 5.54145E-19-2.09136E-18
 -1      3109 9.20542E-05-2.43148E-05-2.90122E-05 4.86158E-06 2.13726E-19-1.19287E-18
 -1      3110 9.17178E-05-2.37402E-05-2.91594E-05 6.84018E-06 4.57749E-19-2.15032E-18
 -1      3111 9.12486E-05-2.32521E-05-2.91372E-05 7.66051E-06 7.91322E-21-2.65280E-18
 -1      3112 9.06610E-05-2.31396E-05-2.89109E-05 5.95763E-06 3.30509E-19-1.86799E-18
 -1      3113 9.01374E-05-2.25818E-05-2.89868E-05 8.42464E-06-2.71202E-19-2.74007E-18
 -1      3114 8.95229E-05-2.21154E-05-2.88827E-05 9.38524E-06-6.54124E-19-2.31317E-18
 -1      3115 8.87612E-05-2.17910E-05-2.86648E-05 7.22729E-06-8.45573E-20-1.85056E-18
 -1      3116 8.80808E-05-2.14707E-05-2.85922E-05 1.03228E-05-6.36780E-19-2.07494E-18
 -1      3117 8.73868E-05-2.11930E-05-2.83540E-05 1.14578E-05-5.17056E-19-1.52181E-18
 -1      3118 8.62465E-05-2.03755E-05-2.81820E-05 8.73242E-06 3.41774E-20-1.31872E-18
 -1      3119 8.56075E-05-2.07712E-05-2.78443E-05 1.26949E-05-5.87203E-19-1.03338E-18
 -1      3120 8.50561E-05-2.10210E-05-2.74035E-05 1.40862E-05-5.84000E-19-4.33022E-19
 -1      3121 8.30460E-05-1.91426E-05-2.73254E-05 1.06429E-05 7.93622E-20-4.95741E-19
 -1      3122 8.30327E-05-2.12032E-05-2.65589E-05 1.58744E-05-1.09075E-19 2.59437E-20
 -1      3123 8.31092E-05-2.25976E-05-2.58339E-05 1.77163E-05 3.06599E-19 4.03358E-19
 -1      3124 7.92048E-05-1.86136E-05-2.58898E-05 1.33568E-05 8.56992E-20-4.72568E-19
 -1      3125 8.10819E-05-2.37156E-05-2.46480E-05 2.00872E-05 7.23922E-19 7.88879E-19
 -1      3126 8.27780E-05-2.72042E-05-2.36449E-05 2.26339E-05 1.34504E-18 1.46719E-18
 -1      3127 7.13123E-05-2.23310E-05-2.06368E-05 2.25339E-05 1.96349E-18 1.84881E-18
 -1      3128 7.51357E-05-1.93961E-05-2.37336E-05 1.71171E-05 9.49670E-19 1.27199E-18
 -1      3129 1.09592E-04-5.41192E-05-2.39069E-05 3.34583E-05 1.30792E-18 7.84564E-19
 -1      3130 9.68328E-05-4.71389E-05-2.07540E-05 3.71103E-05 7.57989E-19 1.23143E-18
 -1      3131 9.40035E-05-2.09258E-05-3.13219E-05-6.07514E-06-4.14914E-19-1.14435E-18
 -1      3132 9.44361E-05-2.22662E-05-3.09414E-05-4.97719E-06-3.86841E-19-1.13314E-18
 -1      3133 8.85160E-05-3.00186E-05-2.49432E-05-2.60503E-05 1.08171E-18 1.31878E-18
 -1      3134 8.64630E-05-2.60363E-05-2.58272E-05-2.39850E-05 1.24341E-18 2.13434E-18
 -1      3135 8.77481E-05-2.43201E-05-2.70910E-05-2.13633E-05 9.18915E-19 1.24977E-18
 -1      3136 8.71466E-05-2.23615E-05-2.77900E-05-1.96660E-05 8.77433E-19 8.30807E-19
 -1      3137 8.09716E-05-2.21394E-05-2.51553E-05-2.18761E-05 5.94617E-19 1.65926E-18
 -1      3138 9.55780E-05-2.76826E-05-2.91041E-05-1.48676E-07 7.84566E-19-1.30938E-19
 -1      3139 9.56225E-05-2.73336E-05-2.92527E-05 2.74817E-07 8.60016E-19 4.78405E-20
 -1      3140 9.55481E-05-2.68577E-05-2.94491E-05 7.74229E-07 8.53111E-19 4.86709E-20
 -1      3141 9.55713E-05-2.63105E-05-2.96662E-05 1.45381E-06 8.13567E-19-5.73484E-21
 -1      3142 9.57675E-05-2.68150E-05-2.95538E-05 6.75154E-07 8.63865E-19-1.79047E-19
 -1      3143 9.54027E-05-2.88035E-05-2.85418E-05-1.09423E-06 2.10272E-19 2.56821E-19
 -1      3144 9.54069E-05-2.87591E-05-2.85611E-05-1.10590E-06 1.86225E-19 3.09409E-19
 -1      3145 9.54469E-05-2.87069E-05-2.86029E-05-1.09502E-06 2.31461E-20 2.98776E-19
 -1      3146 9.54604E-05-2.86240E-05-2.86400E-05-1.05759E-06 2.00709E-19 2.65870E-19
 -1      3147 9.57177E-05-2.88122E-05-2.86766E-05-1.04839E-06 1.01277E-19 9.28030E-20
 -1      3148 9.53366E-05-2.88344E-05-2.84995E-05-9.37965E-07 2.80202E-19-2.02993E-19
 -1      3149 9.53304E-05-2.88348E-05-2.84980E-05-9.86861E-07 8.09021E-20 5.61536E-20
 -1      3150 9.53133E-05-2.88012E-05-2.85036E-05-8.41417E-07 3.50282E-19-3.41902E-19
 -1      3151 9.53046E-05-2.88145E-05-2.84963E-05-8.89670E-07 2.59660E-19-2.01038E-19
 -1      3152 9.55066E-05-2.89100E-05-2.85428E-05-9.03504E-07 4.16763E-19-6.81419E-19
 -1      3153 9.52951E-05-2.87484E-05-2.85183E-05-7.58267E-07 5.87961E-19-5.02437E-19
 -1      3154 9.52848E-05-2.87708E-05-2.85069E-05-7.97834E-07 4.02552E-19-6.06429E-19
 -1      3155 9.54477E-05-2.88575E-05-2.85397E-05-8.16751E-07 3.58831E-19-8.47877E-19
 -1      3156 9.52810E-05-2.86813E-05-2.85410E-05-7.01285E-07 5.90773E-19-3.10699E-19
 -1      3157 9.52695E-05-2.87106E-05-2.85264E-05-7.26274E-07 7.46449E-19-3.75720E-20
 -1      3158 9.53946E-05-2.87830E-05-2.85486E-05-7.44958E-07 2.91715E-19-1.97865E-19
 -1      3159 9.52704E-05-2.86029E-05-2.85699E-05-6.80213E-07 2.62713E-19-4.89455E-19
 -1      3160 9.52575E-05-2.86376E-05-2.85528E-05-6.86091E-07 4.52053E-19-3.65573E-19
 -1      3161 9.53461E-05-2.86919E-05-2.85667E-05-7.00700E-07 4.65916E-19 4.28151E-19
 -1      3162 9.52630E-05-2.85150E-05-2.86042E-05-7.02948E-07 5.17040E-19 9.17439E-21
 -1      3163 9.52481E-05-2.85541E-05-2.85847E-05-6.86026E-07 1.86124E-19-4.55819E-19
 -1      3164 9.53004E-05-2.85874E-05-2.85917E-05-6.93775E-07 4.21885E-19-2.40352E-19
 -1      3165 9.52594E-05-2.84193E-05-2.86434E-05-7.76246E-07-3.20089E-19 4.11456E-19
 -1      3166 9.52412E-05-2.84617E-05-2.86215E-05-7.33400E-07 4.43957E-19 1.71652E-19
 -1      3167 9.52562E-05-2.84712E-05-2.86225E-05-7.32314E-07 1.47028E-19 1.77023E-19
 -1      3168 9.52611E-05-2.83180E-05-2.86873E-05-9.05958E-07 1.88580E-19 3.50462E-19
 -1      3169 9.52379E-05-2.83621E-05-2.86629E-05-8.34605E-07-2.18297E-19 4.93474E-19
 -1      3170 9.52126E-05-2.83448E-05-2.86579E-05-8.23451E-07-3.21497E-19 1.67408E-19
 -1      3171 9.52718E-05-2.82157E-05-2.87354E-05-1.09677E-06-2.13332E-19 8.77439E-19
 -1      3172 9.52405E-05-2.82586E-05-2.87085E-05-9.95114E-07 2.11049E-19 9.12046E-19
 -1      3173 9.51699E-05-2.82108E-05-2.86970E-05-9.73577E-07-1.26414E-19 7.37686E-19
 -1      3174 9.52979E-05-2.81207E-05-2.87869E-05-1.35131E-06-4.77017E-19 5.02101E-19
 -1      3175 9.52543E-05-2.81574E-05-2.87578E-05-1.21894E-06-2.97655E-19 6.80338E-19
 -1      3176 9.51311E-05-2.80749E-05-2.87387E-05-1.18807E-06-3.16038E-20 1.42268E-18
 -1      3177 9.53503E-05-2.80475E-05-2.88405E-05-1.66863E-06-5.41412E-19 3.79656E-19
 -1      3178 9.52881E-05-2.80699E-05-2.88097E-05-1.50744E-06-5.62730E-19 5.80583E-19
 -1      3179 9.51027E-05-2.79478E-05-2.87813E-05-1.47050E-06-3.61925E-19 4.69003E-19
 -1      3180 9.54468E-05-2.80191E-05-2.88938E-05-2.04177E-06-1.10029E-19-1.44769E-19
 -1      3181 9.53566E-05-2.80145E-05-2.88624E-05-1.85737E-06-1.57402E-19 1.87256E-19
 -1      3182 9.50974E-05-2.78476E-05-2.88224E-05-1.82112E-06-1.53655E-19 1.93227E-19
 -1      3183 9.56142E-05-2.80699E-05-2.89438E-05-2.45441E-06-2.20384E-19 5.91130E-20
 -1      3184 9.54829E-05-2.80201E-05-2.89133E-05-2.25803E-06-2.85262E-19-1.19659E-19
 -1      3185 9.51369E-05-2.78036E-05-2.88592E-05-2.23458E-06-2.06826E-19-6.46181E-19
 -1      3186 9.58917E-05-2.82476E-05-2.89870E-05-2.87634E-06-1.95633E-19 2.03424E-19
 -1      3187 9.57012E-05-2.81280E-05-2.89591E-05-2.68718E-06 7.37820E-20 1.74225E-19
 -1      3188 9.52557E-05-2.78588E-05-2.88878E-05-2.69650E-06-2.71495E-19 2.12915E-19
 -1      3189 9.63334E-05-2.86145E-05-2.90199E-05-3.25787E-06-1.43847E-19-1.67165E-19
 -1      3190 9.60604E-05-2.83942E-05-2.89964E-05-3.10586E-06-3.13337E-19-7.60771E-20
 -1      3191 9.55050E-05-2.80732E-05-2.89050E-05-3.17879E-06-1.57711E-19 4.71576E-20
 -1      3192 9.70083E-05-2.92430E-05-2.90417E-05-3.52319E-06 3.71487E-19-4.73995E-19
 -1      3193 9.66254E-05-2.88879E-05-2.90232E-05-3.45178E-06 5.83096E-19 2.11450E-20
 -1      3194 9.59564E-05-2.85238E-05-2.89086E-05-3.63310E-06-2.03985E-19 6.27643E-19
 -1      3195 9.79949E-05-3.02034E-05-2.90561E-05-3.56355E-06-3.35296E-19-2.60384E-19
 -1      3196 9.74752E-05-2.96840E-05-2.90408E-05-3.63174E-06 8.29844E-20-3.96413E-19
 -1      3197 9.67030E-05-2.92992E-05-2.89007E-05-3.98222E-06 3.50281E-19 4.52673E-19
 -1      3198 9.93641E-05-3.15362E-05-2.90769E-05-3.23276E-06-8.18757E-19-1.12115E-19
 -1      3199 9.86920E-05-3.08442E-05-2.90584E-05-3.51439E-06-4.99957E-19 3.74066E-20
 -1      3200 9.78530E-05-3.04839E-05-2.88913E-05-4.10930E-06-2.91812E-19 4.24844E-19
 -1      3201 1.01143E-04-3.32021E-05-2.91326E-05-2.35155E-06-7.34096E-19 7.75199E-19
 -1      3202 1.00334E-04-3.23783E-05-2.90973E-05-2.92781E-06-8.54896E-19 2.13134E-19
 -1      3203 9.95080E-05-3.21221E-05-2.89040E-05-3.84700E-06-1.14394E-18 1.45482E-19
 -1      3204 1.03251E-04-3.50061E-05-2.92717E-05-7.34499E-07 4.25402E-19 8.62924E-19
 -1      3205 1.02382E-04-3.41798E-05-2.91972E-05-1.67254E-06-8.95795E-20 5.37387E-19
 -1      3206 1.01716E-04-3.41531E-05-2.89829E-05-2.97479E-06-8.64927E-19 6.35493E-19
 -1      3207 1.05420E-04-3.65080E-05-2.95639E-05 1.73184E-06 1.03758E-18 1.18427E-18
 -1      3208 1.04659E-04-3.59367E-05-2.94193E-05 4.27447E-07 7.87357E-19 8.88459E-19
 -1      3209 1.04385E-04-3.63118E-05-2.91980E-05-1.24519E-06 1.78126E-19 7.10642E-19
 -1      3210 1.07126E-04-3.69866E-05-3.00894E-05 4.91493E-06 3.97797E-19 2.35895E-18
 -1      3211 1.06726E-04-3.70454E-05-2.98434E-05 3.38912E-06 7.80359E-19 1.93102E-18
 -1      3212 1.07155E-04-3.79955E-05-2.96456E-05 1.52119E-06 6.09401E-19 1.46976E-18
 -1      3213 1.07687E-04-3.56169E-05-3.08981E-05 8.24947E-06 3.63898E-19 1.13333E-18
 -1      3214 1.07927E-04-3.66959E-05-3.05381E-05 6.85271E-06 4.00159E-19 1.62255E-18
 -1      3215 1.09352E-04-3.83329E-05-3.04277E-05 5.17226E-06 4.28088E-19 1.86362E-18
 -1      3216 1.06555E-04-3.19259E-05-3.19513E-05 1.04766E-05 9.87647E-19 7.89077E-19
 -1      3217 1.07495E-04-3.40927E-05-3.15100E-05 9.83405E-06 2.24482E-19 4.08088E-19
 -1      3218 1.10014E-04-3.62358E-05-3.15848E-05 8.95389E-06 8.73646E-19 5.81999E-19
 -1      3219 1.03978E-04-2.66578E-05-3.30690E-05 1.00343E-05-3.31137E-19 1.45031E-18
 -1      3220 1.05279E-04-2.93231E-05-3.26395E-05 1.07624E-05 9.01397E-19 9.70071E-19
 -1      3221 1.08520E-04-3.13656E-05-3.30223E-05 1.12417E-05 3.26161E-19 5.07268E-19
 -1      3222 1.01248E-04-2.20459E-05-3.39188E-05 6.17291E-06-4.51872E-19 2.92670E-19
 -1      3223 1.02290E-04-2.40210E-05-3.36446E-05 8.32306E-06-4.25316E-19 1.07825E-18
 -1      3224 1.05477E-04-2.52190E-05-3.43642E-05 1.01115E-05-1.61810E-19 1.58336E-18
 -1      3225 1.00303E-04-2.08288E-05-3.41485E-05 8.61159E-08-7.91155E-19 1.01765E-18
 -1      3226 1.00534E-04-2.09368E-05-3.41483E-05 2.77725E-06-5.54582E-19 4.87411E-19
 -1      3227 1.02976E-04-2.05611E-05-3.52719E-05 4.77321E-06-5.00279E-19 9.86517E-19
 -1      3228 1.02083E-04-2.37880E-05-3.36531E-05-5.77061E-06 3.13453E-19-1.62682E-19
 -1      3229 1.01189E-04-2.18486E-05-3.39413E-05-3.58322E-06-1.78750E-19 4.04514E-19
 -1      3230 1.02623E-04-2.00104E-05-3.53476E-05-2.28967E-06-1.28064E-19-3.70011E-19
 -1      3231 1.05087E-04-2.91397E-05-3.26408E-05-8.35269E-06 8.39026E-20 8.40720E-19
 -1      3232 1.03804E-04-2.64471E-05-3.30864E-05-7.57761E-06 4.63784E-20 1.54287E-19
 -1      3233 1.05430E-04-2.48597E-05-3.44856E-05-7.55176E-06-2.28047E-19-1.06642E-18
 -1      3234 1.07325E-04-3.39828E-05-3.14916E-05-7.47951E-06 4.60228E-19 1.48460E-18
 -1      3235 1.06433E-04-3.17954E-05-3.19523E-05-8.09057E-06 3.45389E-19 1.44502E-18
 -1      3236 1.08636E-04-3.12767E-05-3.31124E-05-8.83177E-06-3.15551E-19 1.39735E-18
 -1      3237 1.07775E-04-3.66160E-05-3.05079E-05-4.46397E-06 7.75995E-19 1.36513E-18
 -1      3238 1.07611E-04-3.55679E-05-3.08783E-05-5.87432E-06 8.61653E-19 1.14885E-18
 -1      3239 1.10266E-04-3.62253E-05-3.16766E-05-6.61461E-06 3.77397E-19 2.23932E-18
 -1      3240 1.06422E-04-3.67544E-05-2.98380E-05-9.44876E-07 5.44475E-20 1.71774E-19
 -1      3241 1.06952E-04-3.68455E-05-3.00776E-05-2.46666E-06 6.06802E-19 4.76275E-19
 -1      3242 1.09672E-04-3.83668E-05-3.05431E-05-2.69695E-06 7.92435E-19 1.08697E-18
 -1      3243 1.03997E-04-3.51459E-05-2.94735E-05 1.87737E-06-2.95002E-19-1.51609E-18
 -1      3244 1.04958E-04-3.59806E-05-2.95953E-05 7.12368E-07 1.38043E-19-3.77149E-19
 -1      3245 1.07291E-04-3.77153E-05-2.98294E-05 1.04943E-06 4.96968E-19 2.24659E-19
 -1      3246 1.01588E-04-3.30781E-05-2.93513E-05 3.52301E-06-5.19190E-19-3.57450E-18
 -1      3247 1.02673E-04-3.41634E-05-2.93913E-05 2.76325E-06-7.55607E-19-2.47300E-18
 -1      3248 1.04608E-04-3.58381E-05-2.95045E-05 3.47074E-06 3.54090E-19 2.16506E-20
 -1      3249 1.01992E-04-3.34144E-05-2.93984E-05 4.64538E-06-1.85762E-19-2.59866E-18
 -1      3250 7.62196E-05-1.51724E-05-2.61954E-05 1.21005E-06 8.47483E-19 7.91933E-19
 -1      3251 7.74692E-05-1.60121E-05-2.62354E-05 5.51053E-06 7.08561E-19 1.63060E-18
 -1      3252 4.56488E-05-1.28217E-05-1.37176E-05-7.14279E-06-8.98517E-19-2.76980E-18
 -1      3253 5.06252E-05-1.70865E-05-1.39426E-05-2.01754E-05-3.30925E-19-1.86877E-18
 -1      3254 7.74877E-05-1.53736E-05-2.65682E-05-8.96913E-06-5.32823E-19-3.32027E-19
 -1      3255 7.60866E-05-1.47835E-05-2.63344E-05-4.56476E-06-1.03259E-19 4.16624E-19
 -1      3256 7.35060E-05-1.49168E-05-2.50215E-05-1.27988E-06 1.32481E-18 2.36565E-19
 -1      3257 8.02404E-05-1.86610E-05-2.65119E-05 1.03472E-05 4.64955E-19 2.38104E-18
 -1      3258 8.34936E-05-2.06202E-05-2.67721E-05 1.31779E-05 2.44614E-19 2.07768E-18
 -1      3259 7.62354E-05-1.76777E-05-2.51640E-05 9.72121E-06 8.67395E-19 1.74304E-18
 -1      3260 5.69918E-05-2.16261E-05-1.46298E-05-2.66529E-05-2.91009E-19-3.62848E-19
 -1      3261 6.75892E-05-2.91697E-05-1.63300E-05-3.28290E-05-2.53686E-19 1.91694E-18
 -1      3262 5.90293E-05-1.87685E-05-1.68667E-05-2.10465E-05-3.47813E-20-7.01502E-19
 -1      3263 9.53013E-05-2.45496E-05-3.03479E-05 4.84152E-06 9.38790E-19 8.47307E-19
 -1      3264 9.28010E-05-1.84030E-05-3.18852E-05-7.47900E-06-3.77646E-19-1.28181E-18
 -1      3265 1.07986E-04-5.10083E-05-2.38900E-05-3.07691E-05-3.90059E-19 8.44095E-19
 -1      3266 9.65064E-05-4.49387E-05-2.20583E-05-3.34663E-05-1.04820E-19 8.76679E-19
 -1      3267 9.91255E-05-4.36574E-05-2.36444E-05-3.05822E-05-2.47228E-20 1.15601E-18
 -1      3268 9.36571E-05-3.62433E-05-2.42695E-05-2.89934E-05 2.05889E-19-1.66018E-19
 -1      3269 8.16228E-05-3.62682E-05-1.88157E-05-3.47583E-05 6.19393E-20 9.01984E-19
 -1      3270 5.26966E-05-1.84941E-05-1.43003E-05 2.29887E-05 3.23196E-19 4.29467E-18
 -1      3271 4.64583E-05-1.33833E-05-1.38588E-05 9.12604E-06 6.57536E-19 8.51692E-19
 -1      3272 8.74852E-05-2.41423E-05-2.72707E-05 1.55741E-05-4.82691E-19 1.27792E-18
 -1      3273 9.12621E-05-2.65815E-05-2.76124E-05 1.66569E-05 3.66970E-20 5.34702E-19
 -1      3274 8.41234E-05-2.36019E-05-2.60065E-05 1.66585E-05 3.90965E-19 2.02942E-18
 -1      3275 9.53661E-05-2.88396E-05-2.85102E-05-1.03040E-06-1.48476E-19 3.07329E-19
 -1      3276 9.53639E-05-2.88216E-05-2.85172E-05-1.06867E-06 1.53877E-19 4.12774E-19
 -1      3277 9.56433E-05-2.89057E-05-2.86041E-05-1.04743E-06 1.78099E-19 2.82215E-19
 -1      3278 9.55720E-05-2.89309E-05-2.85622E-05-9.88234E-07 1.44588E-19 2.45976E-19
 -1      3279 1.03321E-04-5.25440E-05-2.19981E-05 3.05399E-05-1.60576E-18 4.02507E-18
 -1      3280 1.15110E-04-1.19215E-05-4.45104E-05 6.89164E-06-9.22842E-19 1.23229E-18
 -1      3281 1.14568E-04-1.04068E-05-4.50046E-05 5.68885E-09-5.55230E-19 7.83161E-19
 -1      3282 9.49812E-05-2.36013E-05-3.05856E-05-4.02074E-06-3.18447E-19-1.00759E-18
 -1      3283 9.51958E-05-2.46847E-05-3.02329E-05-2.88685E-06-3.20744E-19-9.87492E-19
 -1      3284 9.52696E-05-2.45627E-05-3.02999E-05-2.54435E-06-2.65500E-19-8.02658E-19
 -1      3285 9.44391E-05-2.22621E-05-3.09255E-05-4.25065E-06-3.28511E-19-9.31338E-19
 -1      3286 4.30009E-05-1.11819E-05-1.32806E-05-6.95857E-06 1.25937E-18-2.26179E-18
 -1      3287 4.51901E-05-1.41038E-05-1.29373E-05-1.95094E-05 1.10697E-18-2.99723E-18
 -1      3288 1.07198E-04-5.07325E-05-2.38210E-05-3.00629E-05-1.69370E-18-9.71110E-20
 -1      3289 1.17067E-04-5.46918E-05-2.68670E-05-2.29898E-05-1.61889E-18-3.01517E-19
 -1      3290 1.16312E-04-1.21459E-05-4.51075E-05-5.82431E-06 3.71636E-20 4.15390E-19
 -1      3291 1.21319E-04-1.91645E-05-4.41775E-05-1.07454E-05 8.52750E-19-6.81809E-19
 -1      3292 5.35312E-05-1.98217E-05-1.39866E-05-2.77978E-05 1.72636E-19-2.73422E-18
 -1      3293 6.66050E-05-2.85802E-05-1.62877E-05-3.49196E-05-6.92396E-19-3.79090E-18
 -1      3294 5.60037E-05-1.76005E-05-1.60162E-05-2.20100E-05 1.29728E-19-1.99148E-18
 -1      3295 9.47475E-05-2.29731E-05-3.07481E-05 4.95269E-06 1.01212E-18 3.86325E-19
 -1      3296 1.32570E-04-4.68617E-05-3.66714E-05 5.73722E-06 7.28607E-19 3.04778E-18
 -1      3297 1.27965E-04-3.71261E-05-3.94257E-05 1.17391E-05 2.09752E-18 4.65953E-18
 -1      3298 9.23729E-05-1.83419E-05-3.17428E-05 1.81284E-06 9.61198E-19-6.37580E-19
 -1      3299 9.22543E-05-1.81405E-05-3.17748E-05 1.05868E-06 7.64606E-19-8.69360E-19
 -1      3300 9.49474E-05-2.93333E-05-2.81588E-05 1.62927E-05-3.18352E-19-8.41787E-19
 -1      3301 9.78340E-05-3.12488E-05-2.84598E-05 1.56895E-05-1.70344E-19-4.44532E-19
 -1      3302 9.36965E-05-3.02820E-05-2.72382E-05 1.82887E-05 1.92607E-19-2.59222E-19
 -1      3303 9.50025E-05-2.37682E-05-3.05112E-05 3.81430E-06 9.64660E-19 1.39833E-19
 -1      3304 1.22720E-04-2.58260E-05-4.15972E-05 1.43261E-05 1.65722E-18 3.50396E-18
 -1      3305 1.17577E-04-1.77683E-05-4.32693E-05 1.12764E-05-2.43204E-19 1.46517E-18
 -1      3306 1.27488E-04-5.91356E-05-2.97077E-05 1.82966E-05 3.74521E-19 7.84260E-19
 -1      3307 1.19851E-04-5.77000E-05-2.63064E-05 2.68326E-05 4.39081E-19 3.41235E-19
 -1      3308 1.13914E-04-5.33524E-05-2.57782E-05 2.69029E-05 4.16581E-19 1.84959E-19
 -1      3309 5.98419E-05-2.37439E-05-1.47822E-05 2.66665E-05 1.65259E-18 1.05201E-18
 -1      3310 1.21897E-04-2.44479E-05-4.21620E-05-1.18020E-05 5.40460E-19-6.58250E-19
 -1      3311 1.21804E-04-2.91914E-05-3.97292E-05-1.20799E-05 2.10647E-19-2.53872E-19
 -1      3312 1.15436E-04-2.08550E-05-4.06541E-05-1.06450E-05-1.34943E-19 1.99783E-18
 -1      3313 9.26656E-05-1.84584E-05-3.18136E-05-6.49607E-06-3.01010E-19-1.18440E-18
 -1      3314 5.79850E-05-1.91915E-05-1.63342E-05 2.03145E-05 1.53609E-18 9.83511E-19
 -1      3315 1.26155E-04-3.91234E-05-3.76707E-05-9.85654E-06 4.52130E-19-1.81853E-18
 -1      3316 1.31759E-04-4.51478E-05-3.71538E-05-6.87848E-06 6.92039E-19-1.19236E-18
 -1      3317 1.28242E-04-4.77186E-05-3.44638E-05-3.31488E-06 5.18887E-19-9.21307E-19
 -1      3318 1.27668E-04-5.55455E-05-3.08917E-05 1.10419E-05 6.30484E-19 4.23516E-19
 -1      3319 1.01064E-04-4.59206E-05-2.34607E-05-2.91562E-05-2.24829E-18 4.22669E-19
 -1      3320 4.45205E-05-1.06362E-05-1.38868E-05-1.03103E-06 8.86708E-19-1.94616E-18
 -1      3321 4.85913E-05-1.14782E-05-1.56575E-05-7.46258E-06 1.30792E-18-3.02131E-18
 -1      3322 4.74642E-05-1.17699E-05-1.50597E-05 5.08824E-06 7.06121E-19-9.13949E-19
 -1      3323 8.99688E-05-4.12851E-05-2.06116E-05 3.51675E-05-1.67024E-19 1.43329E-18
 -1      3324 6.11662E-05-2.22546E-05-1.61432E-05 2.68081E-05-1.92647E-19 3.93553E-18
 -1      3325 6.15268E-05-1.85275E-05-1.82440E-05 1.98490E-05-8.74032E-20 3.02433E-18
 -1      3326 7.02388E-05-2.70336E-05-1.85784E-05 2.95760E-05-4.47419E-19 1.87115E-18
 -1      3327 9.43226E-05-2.19796E-05-3.09909E-05 3.62003E-06 1.18384E-18-2.80228E-19
 -1      3328 9.34313E-05-2.02089E-05-3.14047E-05 4.25310E-06 1.30130E-18-3.35437E-19
 -1      3329 9.30758E-05-1.95542E-05-3.15183E-05 3.65160E-06 1.24775E-18-5.00912E-19
 -1      3330 8.32137E-05-3.00157E-05-2.28271E-05-2.84518E-05 1.12550E-18 1.21229E-18
 -1      3331 9.55850E-05-2.79791E-05-2.89639E-05-4.56565E-07 7.48013E-19-2.49901E-20
 -1      3332 9.58535E-05-2.77094E-05-2.92086E-05-1.71201E-07 7.99000E-19-1.65512E-19
 -1      3333 9.55467E-05-2.82014E-05-2.88654E-05-6.98422E-07 7.45071E-19-8.92387E-20
 -1      3334 8.86944E-05-2.13901E-05-2.88154E-05-1.74595E-05-1.85704E-19-3.05396E-19
 -1      3335 9.21943E-05-1.80404E-05-3.17933E-05 4.08885E-07 7.51459E-19-9.77036E-19
 -1      3336 9.21911E-05-1.80357E-05-3.17938E-05-3.59571E-07 7.05342E-19-1.06457E-18
 -1      3337 9.31477E-05-1.96239E-05-3.14926E-05 6.29036E-07 6.91432E-19-8.55918E-19
 -1      3338 9.57888E-05-2.86176E-05-2.87911E-05-9.46087E-07 3.00542E-19 5.11822E-19
 -1      3339 9.54970E-05-2.85206E-05-2.87054E-05-9.84909E-07 4.83112E-19 2.79082E-19
 -1      3340 9.55226E-05-2.83816E-05-2.87680E-05-8.66900E-07 6.01640E-19 1.05022E-19
 -1      3341 4.96818E-05-1.24243E-05-1.54739E-05 9.32877E-07 3.92785E-19-5.59995E-19
 -1      3342 5.49409E-05-1.29934E-05-1.77920E-05-6.50020E-06 5.91022E-19-1.70328E-18
 -1      3343 5.67734E-05-1.39738E-05-1.80416E-05 7.30287E-06 7.13599E-19 2.10414E-18
 -1      3344 1.21913E-04-3.29725E-05-3.83210E-05 1.23576E-05 1.41623E-18 2.97152E-18
 -1      3345 1.00078E-04-3.27216E-05-2.88686E-05 1.39257E-05 1.64880E-19-1.00021E-18
 -1      3346 1.01654E-04-3.37811E-05-2.90563E-05 1.23996E-05 6.21762E-19-1.55679E-18
 -1      3347 1.00356E-04-3.44516E-05-2.83080E-05 1.58458E-05 5.93500E-19-1.43474E-18
 -1      3348 9.30389E-05-1.94930E-05-3.15270E-05-3.61977E-06 7.18664E-20-1.14615E-18
 -1      3349 9.34013E-05-2.01494E-05-3.14131E-05-4.20348E-06-1.17404E-19-1.15696E-18
 -1      3350 7.71360E-05-3.03506E-05-1.97494E-05-3.07859E-05 1.99688E-19 9.79488E-19
 -1      3351 9.53636E-05-2.55436E-05-2.99347E-05 2.19609E-06 8.59329E-19 1.08433E-19
 -1      3352 9.52865E-05-2.47003E-05-3.02470E-05 3.20629E-06 9.35076E-19 1.60259E-19
 -1      3353 8.41367E-05-1.95667E-05-2.76294E-05-1.70120E-05-2.98318E-19-1.03587E-18
 -1      3354 8.12539E-05-1.80368E-05-2.71372E-05-1.47476E-05-3.94363E-19-4.79020E-19
 -1      3355 9.49422E-05-2.35982E-05-3.05662E-05 3.36092E-06 1.05243E-18-1.41861E-19
 -1      3356 1.02450E-04-3.40470E-05-2.92893E-05 1.01327E-05 1.15195E-18 9.06817E-21
 -1      3357 1.02835E-04-3.43651E-05-2.93596E-05 8.38429E-06 1.52922E-18 7.43693E-19
 -1      3358 1.03770E-04-3.61385E-05-2.90183E-05 1.15431E-05 1.83266E-18-8.88397E-19
 -1      3359 1.22220E-04-5.53185E-05-2.84943E-05-1.68912E-05-1.32889E-18 1.10556E-18
 -1      3360 1.24092E-04-5.38744E-05-3.02810E-05-9.83123E-06-1.21723E-18 2.39517E-18
 -1      3361 1.15293E-04-5.18540E-05-2.71985E-05-1.91228E-05-2.76366E-18 1.31336E-18
 -1      3362 9.33536E-05-1.98816E-05-3.14807E-05-5.22892E-06-2.37183E-19-1.07191E-18
 -1      3363 1.02313E-04-3.35810E-05-2.94284E-05 5.88144E-06 8.54825E-19-2.41629E-19
 -1      3364 1.12597E-04-1.36964E-05-4.25865E-05-3.01922E-06-2.16417E-19 1.07822E-18
 -1      3365 1.13079E-04-1.71725E-05-4.13345E-05 8.98377E-06-2.86297E-19 9.18660E-19
 -1      3366 7.72789E-05-1.71907E-05-2.56999E-05-1.36881E-05-7.35334E-19-5.74990E-19
 -1      3367 9.27865E-05-1.90510E-05-3.16193E-05 3.12904E-06 1.18613E-18-4.91773E-19
 -1      3368 9.25497E-05-1.86391E-05-3.16868E-05 2.42363E-06 1.08967E-18-5.66842E-19
 -1      3369 9.33606E-05-2.00155E-05-3.14161E-05 1.80042E-06 9.48143E-19-4.87003E-19
 -1      3370 9.37607E-05-2.07951E-05-3.12559E-05 2.83650E-06 1.10822E-18-4.24316E-19
 -1      3371 1.04149E-04-3.55416E-05-2.93802E-05 6.58545E-06 9.09312E-19 2.08068E-19
 -1      3372 1.29012E-04-4.92809E-05-3.42805E-05 1.76266E-06-2.31058E-19 2.89757E-18
 -1      3373 7.69391E-05-3.16968E-05-1.90795E-05-3.21702E-05-1.09728E-18-2.67639E-18
 -1      3374 9.25253E-05-1.86042E-05-3.16913E-05-2.37512E-06 4.20355E-19-1.03966E-18
 -1      3375 9.27571E-05-1.90072E-05-3.16256E-05-3.08112E-06 2.50407E-19-1.14073E-18
 -1      3376 9.37458E-05-2.07520E-05-3.12632E-05-2.81630E-06 2.61142E-20-1.00197E-18
 -1      3377 9.54929E-05-2.54321E-05-3.00258E-05 1.95978E-06 8.58199E-19-7.90917E-20
 -1      3378 6.28779E-05-1.89157E-05-1.86561E-05 1.89307E-05 1.94789E-18 1.53673E-18
 -1      3379 5.32618E-05-1.32135E-05-1.65396E-05 1.24222E-05 1.53071E-18 3.07791E-19
 -1      3380 5.32948E-05-1.22305E-05-1.74499E-05 5.62801E-06 1.04520E-18-5.35219E-20
 -1      3381 6.49914E-05-1.70163E-05-2.06152E-05 1.60950E-05 1.97026E-18 1.18651E-18
 -1      3382 9.60391E-05-2.69125E-05-2.96159E-05-4.48072E-07-6.73105E-20-5.90555E-19
 -1      3383 9.60875E-05-2.74074E-05-2.94419E-05-3.51952E-08-9.45661E-20-5.32233E-19
 -1      3384 9.61697E-05-2.78280E-05-2.92818E-05 2.43463E-07-1.61288E-19-5.66613E-19
 -1      3385 9.61656E-05-2.81463E-05-2.91556E-05 4.96091E-07-3.14585E-19-4.77330E-19
 -1      3386 9.62742E-05-2.74605E-05-2.94922E-05 1.23917E-08-1.51177E-19-4.09207E-19
 -1      3387 9.61746E-05-2.84085E-05-2.90369E-05 6.58005E-07-2.98357E-19-4.57809E-19
 -1      3388 9.61449E-05-2.86053E-05-2.89478E-05 7.93896E-07 1.11700E-21-3.06436E-19
 -1      3389 9.63656E-05-2.82183E-05-2.92076E-05 4.73879E-07-1.76355E-19-4.18449E-19
 -1      3390 9.61117E-05-2.87578E-05-2.88620E-05 8.71110E-07 2.11439E-19-4.54629E-19
 -1      3391 9.60717E-05-2.88711E-05-2.88011E-05 9.27638E-07 1.13888E-19-4.58255E-19
 -1      3392 9.63435E-05-2.86877E-05-2.89974E-05 7.32138E-07 9.34447E-21-4.98897E-19
 -1      3393 9.60132E-05-2.89513E-05-2.87383E-05 9.48654E-07 7.30304E-20-2.69109E-19
 -1      3394 9.59680E-05-2.90071E-05-2.86973E-05 9.53193E-07 7.23083E-20 9.17781E-20
 -1      3395 9.62541E-05-2.89577E-05-2.88433E-05 8.47450E-07 2.43695E-19-3.21141E-19
 -1      3396 9.59020E-05-2.90304E-05-2.86578E-05 9.37637E-07-1.82208E-19 3.50182E-19
 -1      3397 9.58606E-05-2.90441E-05-2.86347E-05 9.13339E-07-4.17821E-19 4.48030E-19
 -1      3398 9.61321E-05-2.90841E-05-2.87370E-05 8.67375E-07 1.11244E-19-2.75121E-19
 -1      3399 9.57924E-05-2.90342E-05-2.86101E-05 8.81112E-07-7.73710E-19 3.95119E-19
 -1      3400 9.57542E-05-2.90211E-05-2.85986E-05 8.44499E-07-6.67241E-19 3.69766E-19
 -1      3401 9.60003E-05-2.91098E-05-2.86692E-05 8.31871E-07-5.71391E-19 1.52875E-19
 -1      3402 9.56874E-05-2.89881E-05-2.85854E-05 8.07256E-07-4.94908E-19 3.80020E-20
 -1      3403 9.56527E-05-2.89564E-05-2.85826E-05 7.69866E-07-5.33045E-19 2.69445E-20
 -1      3404 9.58673E-05-2.90711E-05-2.86285E-05 7.72032E-07-7.70821E-19 4.50647E-19
 -1      3405 9.55884E-05-2.89073E-05-2.85781E-05 7.36437E-07-6.60270E-19 7.38833E-20
 -1      3406 9.55567E-05-2.88618E-05-2.85819E-05 7.06696E-07-5.28146E-19 3.04872E-20
 -1      3407 9.57378E-05-2.89875E-05-2.86086E-05 7.09011E-07-6.41606E-19 1.86556E-19
 -1      3408 9.54943E-05-2.88001E-05-2.85841E-05 6.83667E-07-8.45565E-21-6.23346E-20
 -1      3409 9.54643E-05-2.87431E-05-2.85931E-05 6.68035E-07 3.20983E-19 2.72627E-19
 -1      3410 9.56126E-05-2.88709E-05-2.86045E-05 6.58450E-07-1.89468E-19 5.28675E-19
 -1      3411 9.54017E-05-2.86699E-05-2.86006E-05 6.60548E-07 1.09675E-19 3.15266E-19
 -1      3412 9.53716E-05-2.86016E-05-2.86139E-05 6.64331E-07 3.12064E-19 3.62626E-19
 -1      3413 9.54889E-05-2.87269E-05-2.86128E-05 6.32228E-07 5.52763E-19 6.18442E-19
 -1      3414 9.53052E-05-2.85159E-05-2.86257E-05 6.76696E-07 2.24442E-19 4.45081E-19
 -1      3415 9.52722E-05-2.84349E-05-2.86427E-05 7.04673E-07-1.19997E-19 5.47619E-19
 -1      3416 9.53612E-05-2.85560E-05-2.86309E-05 6.39834E-07 2.11326E-19 8.18933E-19
 -1      3417 9.51971E-05-2.83336E-05-2.86580E-05 7.40811E-07 1.10688E-19 6.50264E-19
 -1      3418 9.51576E-05-2.82367E-05-2.86784E-05 7.97686E-07 5.17788E-19 7.91218E-19
 -1      3419 9.52212E-05-2.83545E-05-2.86568E-05 6.89391E-07 1.83281E-19 1.41282E-18
 -1      3420 9.50672E-05-2.81153E-05-2.86965E-05 8.61388E-07 5.48242E-19 7.94192E-19
 -1      3421 9.50160E-05-2.79977E-05-2.87202E-05 9.52068E-07 5.94995E-19 1.04801E-18
 -1      3422 9.50576E-05-2.81148E-05-2.86888E-05 7.88288E-07 7.12880E-19 1.59020E-18
 -1      3423 9.49014E-05-2.78496E-05-2.87401E-05 1.04706E-06 1.23556E-19 1.01163E-18
 -1      3424 9.48315E-05-2.77049E-05-2.87666E-05 1.17676E-06 1.10583E-19 1.00702E-18
 -1      3425 9.48552E-05-2.78257E-05-2.87251E-05 9.43430E-07 4.06841E-19 1.29718E-18
 -1      3426 9.46810E-05-2.75217E-05-2.87872E-05 1.30656E-06-1.21375E-19 5.88290E-19
 -1      3427 9.45822E-05-2.73414E-05-2.88156E-05 1.48070E-06-5.84934E-19 5.36881E-19
 -1      3428 9.45938E-05-2.74725E-05-2.87633E-05 1.16105E-06-2.01262E-19 5.81128E-19
 -1      3429 9.43802E-05-2.71128E-05-2.88349E-05 1.64830E-06-6.40854E-19 3.25673E-19
 -1      3430 9.42393E-05-2.68867E-05-2.88638E-05 1.87216E-06-2.65753E-19 3.98346E-19
 -1      3431 9.42467E-05-2.70360E-05-2.88000E-05 1.44603E-06-5.10143E-19 3.74365E-19
 -1      3432 9.39500E-05-2.65837E-05-2.88790E-05 2.09009E-06-3.71707E-19-1.31945E-19
 -1      3433 9.37321E-05-2.62826E-05-2.89060E-05 2.38452E-06-6.53975E-19-5.11284E-20
 -1      3434 9.37643E-05-2.64793E-05-2.88300E-05 1.81127E-06-5.36172E-19 5.18730E-19
 -1      3435 9.33506E-05-2.59177E-05-2.89098E-05 2.63266E-06-7.96421E-19 1.84869E-19
 -1      3436 9.30507E-05-2.55560E-05-2.89270E-05 2.97147E-06-2.49923E-19-1.57349E-19
 -1      3437 9.31044E-05-2.57820E-05-2.88425E-05 2.24516E-06-6.88340E-19 4.05769E-19
 -1      3438 9.25318E-05-2.51011E-05-2.89117E-05 3.25538E-06-2.17954E-19-3.21846E-21
 -1      3439 9.21037E-05-2.46517E-05-2.89109E-05 3.65251E-06-2.14714E-19-3.02554E-20
 -1      3440 9.22233E-05-2.49372E-05-2.88226E-05 2.72809E-06-3.97887E-19 4.10522E-19
 -1      3441 9.13982E-05-2.40913E-05-2.88625E-05 3.96535E-06-1.65824E-19-1.36477E-19
 -1      3442 9.07950E-05-2.35429E-05-2.88282E-05 4.41904E-06 8.42701E-20-3.63980E-19
 -1      3443 9.10246E-05-2.38991E-05-2.87478E-05 3.25112E-06-2.75959E-19 8.84634E-19
 -1      3444 8.98412E-05-2.28669E-05-2.87253E-05 4.75196E-06 3.43253E-19-6.71742E-19
 -1      3445 8.90067E-05-2.22185E-05-2.86333E-05 5.26049E-06 3.49584E-19-8.86825E-19
 -1      3446 8.94016E-05-2.26437E-05-2.85822E-05 3.78773E-06-4.86990E-20 9.68927E-19
 -1      3447 8.77257E-05-2.14294E-05-2.84428E-05 5.60811E-06-1.08998E-20-1.01100E-18
 -1      3448 8.65991E-05-2.07022E-05-2.82556E-05 6.17833E-06-1.06077E-19-7.97156E-19
 -1      3449 8.72175E-05-2.11604E-05-2.82707E-05 4.30835E-06-1.18970E-19 3.20208E-19
 -1      3450 8.48883E-05-1.98265E-05-2.79267E-05 6.55323E-06 9.45492E-20-4.47013E-19
 -1      3451 8.34153E-05-1.90844E-05-2.75872E-05 7.22139E-06 1.11195E-19-2.33022E-19
 -1      3452 8.42959E-05-1.94659E-05-2.77295E-05 4.79844E-06 3.56056E-20-7.88171E-20
 -1      3453 8.11355E-05-1.81870E-05-2.70408E-05 7.68278E-06 1.18131E-19-5.72213E-19
 -1      3454 7.92895E-05-1.75677E-05-2.64645E-05 8.55941E-06 1.16044E-19-1.02636E-18
 -1      3455 8.04038E-05-1.76236E-05-2.68279E-05 5.29800E-06 8.79988E-20-4.67211E-19
 -1      3456 7.62227E-05-1.67513E-05-2.55730E-05 9.28271E-06 1.53784E-19-3.83658E-19
 -1      3457 7.40320E-05-1.65551E-05-2.46121E-05 1.06513E-05 8.14326E-19 4.21654E-19
 -1      3458 7.51906E-05-1.57550E-05-2.53589E-05 5.97234E-06 4.42834E-19-9.89947E-19
 -1      3459 9.59302E-05-2.68696E-05-2.96071E-05 4.70232E-07 7.84471E-19-1.28405E-19
 -1      3460 9.58502E-05-2.62654E-05-2.98117E-05 1.00568E-06 7.78583E-19-2.27665E-19
 -1      3461 1.05536E-04-3.68727E-05-2.94400E-05 5.90614E-06 8.90033E-19 3.73752E-19
 -1      3462 9.55711E-05-2.89039E-05-2.85701E-05-7.57000E-07 2.56146E-19-1.53359E-19
 -1      3463 9.55999E-05-2.89383E-05-2.85696E-05-7.94301E-07 3.97392E-19-1.49506E-19
 -1      3464 9.56622E-05-2.89759E-05-2.85784E-05-8.32757E-07 4.50177E-19-1.08274E-19
 -1      3465 9.56943E-05-2.89949E-05-2.85852E-05-8.72695E-07 4.42925E-19-9.68293E-20
 -1      3466 9.57720E-05-2.90229E-05-2.86082E-05-7.67936E-07 3.07901E-19 1.53618E-19
 -1      3467 9.54046E-05-2.86929E-05-2.85890E-05-6.66931E-07 2.70274E-19 1.46314E-19
 -1      3468 9.54286E-05-2.87471E-05-2.85788E-05-6.78528E-07 4.24463E-19 1.05100E-19
 -1      3469 9.53253E-05-2.85624E-05-2.86108E-05-6.73545E-07 5.42275E-19-6.74388E-20
 -1      3470 9.53482E-05-2.86241E-05-2.85974E-05-6.64961E-07 2.46325E-19-5.31028E-20
 -1      3471 9.54242E-05-2.86737E-05-2.86079E-05-6.40021E-07 4.06431E-19-4.61440E-19
 -1      3472 9.52453E-05-2.84177E-05-2.86384E-05-7.25663E-07-2.73339E-19 6.09998E-19
 -1      3473 9.52677E-05-2.84860E-05-2.86224E-05-6.93045E-07 2.67291E-19 2.92807E-19
 -1      3474 9.53110E-05-2.85159E-05-2.86267E-05-6.59847E-07 1.93181E-19 4.07987E-19
 -1      3475 9.51623E-05-2.82598E-05-2.86703E-05-8.30577E-07-4.96565E-19 6.36604E-19
 -1      3476 9.51844E-05-2.83338E-05-2.86522E-05-7.70465E-07-2.79634E-19 6.18561E-19
 -1      3477 9.51932E-05-2.83409E-05-2.86510E-05-7.25353E-07-2.62881E-19 9.36572E-19
 -1      3478 9.50756E-05-2.80917E-05-2.87049E-05-9.95176E-07-3.24108E-19 9.45060E-19
 -1      3479 9.50968E-05-2.81694E-05-2.86854E-05-9.04482E-07-4.37785E-19 7.28731E-19
 -1      3480 9.50674E-05-2.81498E-05-2.86787E-05-8.44321E-07-7.09341E-19 5.40412E-19
 -1      3481 9.49870E-05-2.79193E-05-2.87405E-05-1.22575E-06 1.57810E-19 9.67427E-19
 -1      3482 9.50051E-05-2.79969E-05-2.87203E-05-1.10198E-06 4.40393E-20 1.20736E-18
 -1      3483 9.49317E-05-2.79459E-05-2.87078E-05-1.02455E-06-2.82237E-19 6.30079E-19
 -1      3484 9.49031E-05-2.77550E-05-2.87746E-05-1.52735E-06-2.18003E-19 6.68524E-19
 -1      3485 9.49133E-05-2.78252E-05-2.87548E-05-1.36908E-06 7.68397E-20 9.49711E-19
 -1      3486 9.47873E-05-2.77368E-05-2.87355E-05-1.27382E-06 1.67184E-19 7.17716E-19
 -1      3487 9.48377E-05-2.76197E-05-2.88040E-05-1.90255E-06-1.42662E-19-1.03021E-19
 -1      3488 9.48316E-05-2.76704E-05-2.87861E-05-1.71027E-06-2.29168E-19 3.75445E-20
 -1      3489 9.46412E-05-2.75370E-05-2.87587E-05-1.59947E-06 1.10096E-19 3.03317E-22
 -1      3490 9.48155E-05-2.75472E-05-2.88250E-05-2.34942E-06-4.15497E-19 4.48791E-20
 -1      3491 9.47792E-05-2.75599E-05-2.88107E-05-2.12679E-06 8.40040E-20 1.25293E-19
 -1      3492 9.45090E-05-2.73720E-05-2.87734E-05-2.00749E-06-1.25286E-19-2.28073E-20
 -1      3493 9.48769E-05-2.75880E-05-2.88331E-05-2.85847E-06-4.78392E-19 2.63102E-19
 -1      3494 9.47890E-05-2.75355E-05-2.88245E-05-2.61413E-06-8.71735E-19-3.27298E-19
 -1      3495 9.44197E-05-2.72820E-05-2.87749E-05-2.50077E-06-3.26812E-19 1.54380E-19
 -1      3496 9.50832E-05-2.78124E-05-2.88248E-05-3.40809E-06-6.40778E-19 7.30229E-19
 -1      3497 9.49126E-05-2.76576E-05-2.88234E-05-3.15819E-06-8.03154E-20 6.89092E-19
 -1      3498 9.44214E-05-2.73269E-05-2.87585E-05-3.07624E-06-6.80797E-19 5.18403E-19
 -1      3499 9.55213E-05-2.83114E-05-2.87983E-05-3.95763E-06-1.32190E-19 5.41008E-19
 -1      3500 9.52259E-05-2.80079E-05-2.88045E-05-3.72941E-06-4.87603E-19 4.19054E-19
 -1      3501 9.45876E-05-2.75899E-05-2.87204E-05-3.72006E-06-4.61541E-19 1.19217E-18
 -1      3502 9.63061E-05-2.91922E-05-2.87575E-05-4.43726E-06 2.26706E-19 1.14353E-18
 -1      3503 9.58335E-05-2.86878E-05-2.87686E-05-4.27384E-06 2.31912E-19 1.01173E-18
 -1      3504 9.50241E-05-2.81788E-05-2.86604E-05-4.39942E-06-6.64119E-19 3.57968E-20
 -1      3505 9.75749E-05-3.05614E-05-2.87164E-05-4.73336E-06-5.94988E-19 1.27127E-18
 -1      3506 9.68687E-05-2.98092E-05-2.87245E-05-4.69985E-06-1.68720E-19 1.67396E-18
 -1      3507 9.58734E-05-2.92206E-05-2.85852E-05-5.04898E-06-2.47333E-19 1.73390E-18
 -1      3508 9.94647E-05-3.24860E-05-2.87066E-05-4.66939E-06-1.16461E-18 9.11794E-19
 -1      3509 9.84815E-05-3.14686E-05-2.86947E-05-4.85902E-06-3.42035E-19 1.15785E-18
 -1      3510 9.73109E-05-3.08433E-05-2.85155E-05-5.54891E-06-2.90147E-19 1.99202E-18
 -1      3511 1.02058E-04-3.49183E-05-2.87854E-05-3.99113E-06-1.11863E-18 8.64051E-19
 -1      3512 1.00801E-04-3.36911E-05-2.87241E-05-4.52497E-06-1.57957E-18 7.38445E-19
 -1      3513 9.95212E-05-3.31280E-05-2.84946E-05-5.69309E-06-9.30282E-19 1.18398E-18
 -1      3514 1.05277E-04-3.75647E-05-2.90443E-05-2.37160E-06 5.12795E-19 6.77570E-19
 -1      3515 1.03853E-04-3.63291E-05-2.88893E-05-3.38060E-06-1.26141E-19 6.92724E-19
 -1      3516 1.02636E-04-3.60180E-05-2.86000E-05-5.15361E-06-7.46631E-19 8.38845E-19
 -1      3517 1.08749E-04-3.97316E-05-2.96154E-05 5.02107E-07 5.03588E-21 1.80209E-18
 -1      3518 1.07422E-04-3.89211E-05-2.93052E-05-1.07318E-06 4.13259E-19 1.21336E-18
 -1      3519 1.06587E-04-3.91575E-05-2.89570E-05-3.46695E-06-3.55076E-19 1.27207E-18
 -1      3520 1.11570E-04-4.02340E-05-3.06433E-05 4.47697E-06 1.18823E-18 1.14791E-18
 -1      3521 1.10789E-04-4.03928E-05-3.01315E-05 2.57319E-06 5.80965E-19 1.78369E-18
 -1      3522 1.10879E-04-4.14046E-05-2.97578E-05-5.42378E-08 4.00670E-19 1.15060E-18
 -1      3523 1.12578E-04-3.75175E-05-3.21981E-05 8.94213E-06 1.11602E-18 1.18407E-18
 -1      3524 1.12944E-04-3.94521E-05-3.14710E-05 7.31622E-06 1.51842E-18 2.04938E-18
 -1      3525 1.14518E-04-4.19456E-05-3.11763E-05 4.62316E-06 9.61819E-19 7.67078E-19
 -1      3526 1.10800E-04-3.12236E-05-3.40809E-05 1.15856E-05-5.17173E-19 2.04715E-18
 -1      3527 1.12414E-04-3.47915E-05-3.33215E-05 1.12745E-05 1.59040E-19 1.55911E-18
 -1      3528 1.15542E-04-3.80902E-05-3.32945E-05 9.83462E-06 2.33404E-19 3.40203E-18
 -1      3529 1.08888E-04-2.16997E-05-3.74128E-05 1.07283E-05-1.59997E-19 9.94934E-19
 -1      3530 1.11145E-04-2.61164E-05-3.65489E-05 1.22813E-05-3.42751E-20 1.11170E-18
 -1      3531 1.05610E-04-1.58443E-05-3.86953E-05 2.79562E-06-3.99005E-19 5.75718E-20
 -1      3532 1.06415E-04-1.72933E-05-3.83932E-05 6.21054E-06-4.50198E-19 5.11540E-19
 -1      3533 1.11255E-04-2.69821E-05-3.62363E-05-1.01979E-05-4.31620E-19 2.06092E-19
 -1      3534 1.09082E-04-2.29015E-05-3.69952E-05-8.16097E-06 3.54695E-19 2.62607E-19
 -1      3535 1.13664E-04-3.97928E-05-3.16645E-05-5.00380E-06 4.56868E-20 1.23237E-18
 -1      3536 1.13329E-04-3.77094E-05-3.23937E-05-6.80792E-06-4.68060E-19 9.00678E-19
 -1      3537 1.11613E-04-4.06351E-05-3.03834E-05-1.34329E-07 1.34914E-18 2.34380E-19
 -1      3538 1.12405E-04-4.05122E-05-3.08678E-05-2.10850E-06 7.83558E-19 1.20144E-18
 -1      3539 1.15666E-04-4.22851E-05-3.15351E-05-2.54991E-06-9.23795E-21-4.95124E-19
 -1      3540 1.08118E-04-3.87751E-05-2.96671E-05 3.73044E-06-3.21965E-19 1.02338E-18
 -1      3541 1.09533E-04-3.98306E-05-2.99296E-05 2.14233E-06 6.48095E-19 8.33236E-19
 -1      3542 1.12250E-04-4.19317E-05-3.01921E-05 2.61587E-06 5.22454E-19 1.17265E-18
 -1      3543 9.55639E-05-2.54649E-05-3.00546E-05 1.55375E-06 8.40314E-19-2.39462E-19
 -1      3544 9.53379E-05-2.45553E-05-3.03305E-05 2.32452E-06 9.09516E-19-2.95299E-19
 -1      3545 9.57021E-05-2.54736E-05-3.00953E-05 1.30411E-06 8.21708E-19-3.01135E-19
 -1      3546 7.28593E-05-2.33320E-05-2.08221E-05-2.56916E-05 1.25109E-18 1.13894E-18
 -1      3547 6.62111E-05-1.37035E-05-2.23929E-05-3.69382E-06 1.10468E-18-1.02447E-18
 -1      3548 6.59355E-05-1.38820E-05-2.23157E-05 2.66775E-06 1.05019E-18 5.58062E-19
 -1      3549 7.00959E-05-1.77951E-05-2.23573E-05 1.28086E-05 4.37962E-19 1.38508E-18
 -1      3550 7.45054E-05-2.06646E-05-2.27275E-05 1.81528E-05 4.45460E-19 2.56441E-18
 -1      3551 5.93256E-05-1.50405E-05-1.85807E-05-1.47741E-05 1.70690E-19-2.72708E-18
 -1      3552 6.39832E-05-1.89875E-05-1.91362E-05-2.14507E-05 6.52215E-19-3.00485E-19
 -1      3553 7.19138E-05-1.98642E-05-2.22001E-05-2.06531E-05 1.60155E-18-9.40736E-20
 -1      3554 6.05930E-05-1.39595E-05-1.98475E-05-7.90040E-06 1.15081E-18-2.09490E-18
 -1      3555 9.50346E-05-2.38078E-05-3.05275E-05 2.68960E-06 9.97874E-19-2.94691E-19
 -1      3556 9.47005E-05-2.29078E-05-3.07789E-05 3.23227E-06 1.07229E-18-2.37590E-19
 -1      3557 9.44212E-05-2.22250E-05-3.09384E-05 2.95900E-06 1.05800E-18-3.43847E-19
 -1      3558 9.51123E-05-2.38383E-05-3.05401E-05 2.24589E-06 9.05826E-19-3.81983E-19
 -1      3559 9.31026E-05-3.14901E-05-2.63715E-05 2.02689E-05-5.48242E-19 7.04457E-19
 -1      3560 9.75939E-05-3.42215E-05-2.70207E-05 1.99579E-05-3.26855E-19-1.33644E-18
 -1      3561 5.62501E-05-1.47799E-05-1.75265E-05-1.59967E-05 7.77576E-19-1.89534E-18
 -1      3562 6.29122E-05-2.00172E-05-1.83450E-05-2.37677E-05 4.35997E-19-1.23047E-18
 -1      3563 9.60987E-05-4.26643E-05-2.30947E-05 3.15482E-05 6.45969E-19 1.99058E-18
 -1      3564 8.26502E-05-3.38753E-05-2.02892E-05 3.24948E-05-5.70636E-19 2.35822E-18
 -1      3565 8.27437E-05-2.68710E-05-2.39567E-05 2.16169E-05 9.88395E-19 3.34225E-18
 -1      3566 8.89586E-05-3.07717E-05-2.47636E-05 2.36503E-05-1.88375E-19 3.08644E-18
 -1      3567 1.26580E-04-5.14189E-05-3.20558E-05-2.08526E-06-1.06565E-18 2.76413E-18
 -1      3568 1.24590E-04-4.58162E-05-3.39671E-05 5.37546E-06-3.05845E-19 3.57792E-18
 -1      3569 9.22452E-05-1.81277E-05-3.17765E-05-1.00911E-06 6.19579E-19-1.03010E-18
 -1      3570 9.23569E-05-1.83186E-05-3.17459E-05-1.76190E-06 4.64714E-19-9.79484E-19
 -1      3571 9.33451E-05-1.99879E-05-3.14200E-05-1.76591E-06 3.94545E-19-9.41748E-19
 -1      3572 9.54858E-05-2.88077E-05-2.85746E-05-6.97854E-07 1.16221E-20 2.57393E-19
 -1      3573 9.55118E-05-2.88532E-05-2.85687E-05-7.25110E-07-3.88465E-20 2.75484E-20
 -1      3574 9.56520E-05-2.89314E-05-2.85957E-05-7.04114E-07 1.08216E-19 3.45906E-19
 -1      3575 9.55368E-05-2.88131E-05-2.85967E-05-6.57810E-07 2.11898E-19-2.48317E-19
 -1      3576 9.56821E-05-2.55216E-05-3.00602E-05-1.50470E-06-1.84206E-19-8.09280E-19
 -1      3577 9.58318E-05-2.62609E-05-2.98262E-05-8.86393E-07-9.99417E-20-7.94075E-19
 -1      3578 9.59847E-05-2.62880E-05-2.98681E-05-7.14310E-07-2.87404E-20-6.42442E-19
 -1      3579 9.37043E-05-2.07160E-05-3.12775E-05-4.29737E-06-1.59980E-19-1.01503E-18
 -1      3580 9.41893E-05-2.17030E-05-3.10779E-05-4.26980E-06-2.69826E-19-9.16711E-19
 -1      3581 9.47119E-05-2.30024E-05-3.07359E-05-3.34431E-06-3.04094E-19-8.32795E-19
 -1      3582 9.42717E-05-2.18534E-05-3.10212E-05-3.34937E-06-4.43463E-20-9.71370E-19
 -1      3583 9.59565E-05-2.89158E-05-2.87319E-05-9.75214E-07 1.35924E-19 2.07193E-19
 -1      3584 9.59955E-05-2.88334E-05-2.87804E-05-9.45355E-07 9.63874E-20 2.63574E-19
 -1      3585 1.07276E-04-1.69177E-05-3.88757E-05-3.22389E-06-1.81053E-19 2.89381E-19
 -1      3586 1.26045E-04-5.22533E-05-3.18900E-05 4.86338E-06-5.78960E-20-2.57193E-18
 -1      3587 1.22839E-04-5.39179E-05-2.92501E-05 1.42724E-05-9.36782E-19-4.29578E-19
 -1      3588 7.21919E-05-2.60945E-05-1.94157E-05-2.79426E-05-7.39407E-19-1.49800E-18
 -1      3589 8.35468E-05-3.41805E-05-2.13163E-05-2.99741E-05-2.47062E-18-3.53689E-19
 -1      3590 9.51701E-05-4.05291E-05-2.30807E-05-2.83076E-05-2.16884E-18 2.76702E-19
 -1      3591 1.04504E-04-4.61325E-05-2.51266E-05-2.43770E-05-2.00961E-18 4.97102E-19
 -1      3592 1.15850E-04-5.26814E-05-2.73525E-05 2.21453E-05 6.32495E-20 8.94798E-19
 -1      3593 1.08944E-04-4.87259E-05-2.53717E-05 2.69402E-05 8.64331E-19-4.02542E-19
 -1      3594 1.07420E-04-3.86959E-05-2.94589E-05 7.13106E-06 7.96180E-19 1.36542E-18
 -1      3595 1.21439E-04-3.46968E-05-3.72940E-05-1.02881E-05-6.50495E-21 2.88256E-20
 -1      3596 7.82326E-05-2.88729E-05-2.11319E-05 2.76962E-05-2.93100E-19 2.26041E-18
 -1      3597 9.60612E-05-2.73903E-05-2.94212E-05 9.73183E-08 7.89874E-19-7.71533E-20
 -1      3598 9.61081E-05-2.68976E-05-2.96614E-05 3.66647E-07 7.03628E-19-1.46767E-19
 -1      3599 9.60724E-05-2.77852E-05-2.92720E-05-2.45394E-07 7.10812E-19-3.78003E-20
 -1      3600 7.09461E-05-1.62971E-05-2.35352E-05 1.19890E-05 1.09556E-18 6.50224E-19
 -1      3601 6.88090E-05-1.67354E-05-2.22314E-05 1.38185E-05 1.73312E-18 1.25735E-18
 -1      3602 6.26785E-05-1.38091E-05-2.05954E-05 9.94371E-06 1.69746E-18 1.21965E-18
 -1      3603 6.91343E-05-1.42855E-05-2.33170E-05 7.29395E-06 1.39944E-18 2.64943E-19
 -1      3604 7.47165E-05-1.99023E-05-2.34347E-05-1.94146E-05 9.28758E-19-2.64592E-19
 -1      3605 7.64348E-05-1.82664E-05-2.49143E-05-1.70471E-05-3.42066E-19-3.42757E-19
 -1      3606 9.58431E-05-2.82739E-05-2.89621E-05-6.79897E-07 6.71112E-19 4.92902E-20
 -1      3607 9.38696E-05-2.10502E-05-3.12197E-05 8.07647E-07 6.96632E-19-7.66173E-19
 -1      3608 9.38216E-05-2.09521E-05-3.12392E-05 2.47774E-07 6.13697E-19-9.06212E-19
 -1      3609 9.60402E-05-2.87214E-05-2.88523E-05-8.95192E-07 2.01342E-19 3.61912E-19
 -1      3610 9.60751E-05-2.85703E-05-2.89256E-05-7.98295E-07 5.18408E-19 4.26710E-19
 -1      3611 9.62457E-05-2.88072E-05-2.89045E-05-8.26346E-07 3.46375E-19 4.55210E-19
 -1      3612 9.58973E-05-2.89664E-05-2.86827E-05-9.77863E-07 1.43172E-19 4.00581E-20
 -1      3613 9.61447E-05-2.90007E-05-2.87782E-05-8.95056E-07 1.55326E-19 1.50333E-19
 -1      3614 9.58590E-05-2.90017E-05-2.86525E-05-9.66900E-07 1.36863E-19 2.08752E-20
 -1      3615 1.15363E-04-2.92116E-05-3.71079E-05 1.30508E-05 8.18419E-19 2.03655E-18
 -1      3616 7.12115E-05-2.28292E-05-2.05349E-05-2.26838E-05-2.19620E-19-2.53766E-19
 -1      3617 8.96619E-05-3.54975E-05-2.31118E-05-2.57682E-05-2.27076E-18-7.08000E-20
 -1      3618 1.08627E-04-1.94833E-05-3.84494E-05-6.75542E-06 3.64701E-19 5.35914E-20
 -1      3619 1.12619E-04-3.46958E-05-3.35091E-05-9.03027E-06-9.47456E-19 5.32595E-19
 -1      3620 1.11103E-04-3.11218E-05-3.42946E-05-9.29776E-06-1.14974E-18-5.14387E-19
 -1      3621 1.21086E-04-3.82939E-05-3.53984E-05 1.14877E-05 5.03667E-19 3.50834E-18
 -1      3622 1.17708E-04-5.05923E-05-2.86371E-05 1.54876E-05-1.04206E-18-7.93445E-19
 -1      3623 9.42361E-05-2.18178E-05-3.10411E-05-2.12347E-06 1.34024E-19-7.80120E-19
 -1      3624 9.44502E-05-2.22971E-05-3.09366E-05-2.54033E-06-7.66263E-20-7.95443E-19
 -1      3625 1.01574E-04-3.65871E-05-2.78567E-05 1.75909E-05-3.46904E-19-2.68017E-18
 -1      3626 1.04397E-04-3.81208E-05-2.83494E-05 1.55849E-05 4.73748E-19-2.52251E-18
 -1      3627 1.01137E-04-3.83210E-05-2.70260E-05 2.03058E-05-5.69256E-19-2.40301E-18
 -1      3628 9.31433E-05-1.96161E-05-3.14938E-05-5.87721E-07 5.88684E-19-8.94755E-19
 -1      3629 6.78132E-05-1.57466E-05-2.20153E-05-1.52563E-05 6.99715E-19-2.69456E-18
 -1      3630 1.00839E-04-4.30301E-05-2.47928E-05 2.69724E-05 1.06663E-18 1.35062E-18
 -1      3631 9.40871E-05-2.15031E-05-3.11192E-05 1.75846E-06 8.93340E-19-3.58240E-19
 -1      3632 9.39522E-05-2.12196E-05-3.11785E-05 1.25178E-06 8.06768E-19-4.90192E-19
 -1      3633 9.46180E-05-2.23902E-05-3.09362E-05 8.31915E-07 6.90002E-19-4.99896E-19
 -1      3634 5.48079E-05-1.29926E-05-1.76467E-05-1.20696E-05 1.18611E-18-2.75005E-18
 -1      3635 6.17920E-05-1.53378E-05-1.97493E-05-1.37196E-05 8.77510E-19-1.26798E-18
 -1      3636 5.44198E-05-1.20335E-05-1.80403E-05-6.39126E-06 1.32483E-18-2.25634E-18
 -1      3637 1.06328E-04-3.88737E-05-2.88649E-05 1.24987E-05 8.84951E-19-1.94582E-18
 -1      3638 1.07270E-04-3.91719E-05-2.91549E-05 1.01789E-05 1.20419E-18-4.71033E-19
 -1      3639 1.10188E-04-4.15447E-05-2.94343E-05 7.90114E-06 4.41594E-19 8.76825E-19
 -1      3640 1.07942E-04-4.15098E-05-2.85061E-05 1.42164E-05-6.68613E-19-2.48267E-18
 -1      3641 1.09930E-04-4.82302E-05-2.62617E-05-2.06499E-05-1.73513E-18 7.37972E-19
 -1      3642 1.13593E-04-4.93232E-05-2.76567E-05-1.55977E-05-1.74545E-18 1.78205E-18
 -1      3643 1.03647E-04-4.37574E-05-2.57504E-05-2.09559E-05-1.14257E-18 4.60045E-20
 -1      3644 1.19593E-04-4.17264E-05-3.34157E-05 7.49305E-06-2.38168E-19 3.10606E-18
 -1      3645 9.57589E-05-2.90137E-05-2.86039E-05-9.09736E-07 4.07844E-19-1.58944E-19
 -1      3646 9.57945E-05-2.90107E-05-2.86206E-05-9.42199E-07 2.51378E-19 8.38378E-20
 -1      3647 9.60237E-05-2.90785E-05-2.86928E-05-8.86138E-07 2.73289E-19-2.83548E-19
 -1      3648 9.58970E-05-2.90775E-05-2.86387E-05-8.35007E-07 3.79270E-19 9.57430E-20
 -1      3649 1.21622E-04-5.08891E-05-3.03787E-05-6.19475E-06-1.29129E-18 3.49661E-18
 -1      3650 9.51034E-05-2.39008E-05-3.05146E-05-2.71614E-06-2.98023E-19-7.53121E-19
 -1      3651 9.53950E-05-2.48549E-05-3.02398E-05-1.96074E-06-2.68268E-19-7.91089E-19
 -1      3652 9.55196E-05-2.49198E-05-3.02644E-05-1.63419E-06-2.03826E-19-8.30713E-19
 -1      3653 9.48737E-05-2.33427E-05-3.06642E-05-2.75113E-06-2.34660E-19-7.94178E-19
 -1      3654 1.23761E-04-4.62033E-05-3.31270E-05-3.10990E-06-4.72075E-19-1.65338E-18
 -1      3655 1.20206E-04-4.66694E-05-3.15445E-05 1.01365E-06-7.65302E-19-2.53498E-18
 -1      3656 1.16437E-04-3.80736E-05-3.35206E-05-7.96797E-06-1.15688E-18-1.26015E-18
 -1      3657 7.17661E-05-1.53893E-05-2.42473E-05-1.10672E-05-6.32462E-20-2.49757E-18
 -1      3658 1.18622E-04-4.68927E-05-3.06469E-05 3.83575E-06-2.87409E-19-2.20517E-18
 -1      3659 9.63452E-05-2.71012E-05-2.96711E-05-1.84831E-07-1.16453E-19-4.12537E-19
 -1      3660 9.64320E-05-2.75982E-05-2.95055E-05 1.15372E-07-5.23146E-20-3.76023E-19
 -1      3661 9.65212E-05-2.80190E-05-2.93537E-05 2.94031E-07-4.89987E-20-4.59034E-19
 -1      3662 9.65333E-05-2.83399E-05-2.92291E-05 4.76913E-07-2.38113E-19-4.78369E-19
 -1      3663 9.65773E-05-2.76945E-05-2.95203E-05 1.33392E-07-9.69241E-20-3.61680E-19
 -1      3664 9.65415E-05-2.86009E-05-2.91137E-05 5.77569E-07-1.30030E-19-2.88023E-19
 -1      3665 9.65101E-05-2.87956E-05-2.90223E-05 6.74604E-07 7.87043E-20-3.57031E-19
 -1      3666 9.66731E-05-2.84280E-05-2.92485E-05 4.28071E-07-8.17963E-20-2.41648E-19
 -1      3667 9.64655E-05-2.89486E-05-2.89331E-05 7.20426E-07 3.81819E-19-5.24379E-19
 -1      3668 9.64074E-05-2.90556E-05-2.88656E-05 7.58747E-07 4.41323E-19-4.09092E-19
 -1      3669 9.66364E-05-2.88794E-05-2.90398E-05 5.89049E-07 1.42860E-19-3.06297E-19
 -1      3670 9.63362E-05-2.91196E-05-2.88053E-05 7.63318E-07 3.85059E-19-4.66599E-19
 -1      3671 9.62709E-05-2.91592E-05-2.87617E-05 7.63305E-07-6.47564E-21-4.08738E-19
 -1      3672 9.65207E-05-2.91213E-05-2.88872E-05 6.53566E-07 4.12085E-19-5.43273E-19
 -1      3673 9.61866E-05-2.91703E-05-2.87202E-05 7.47061E-07-2.95160E-19-3.50474E-19
 -1      3674 9.61186E-05-2.91677E-05-2.86923E-05 7.27415E-07-5.88457E-19-6.10339E-20
 -1      3675 9.63666E-05-2.92122E-05-2.87823E-05 6.55636E-07-1.69684E-19-5.92639E-19
 -1      3676 9.60297E-05-2.91424E-05-2.86655E-05 7.01447E-07-6.36809E-19 4.84642E-19
 -1      3677 9.59628E-05-2.91106E-05-2.86496E-05 6.74458E-07-3.65829E-19 6.91913E-19
 -1      3678 9.61949E-05-2.92054E-05-2.87115E-05 6.25137E-07-1.95965E-19 2.15265E-19
 -1      3679 9.58735E-05-2.90601E-05-2.86343E-05 6.47389E-07-5.08438E-19 9.87152E-19
 -1      3680 9.58090E-05-2.90076E-05-2.86277E-05 6.22050E-07-5.25878E-19 9.68724E-19
 -1      3681 9.60185E-05-2.91314E-05-2.86674E-05 5.82002E-07-1.51336E-19 1.29102E-18
 -1      3682 9.57207E-05-2.89387E-05-2.86212E-05 6.00212E-07-2.69690E-19 1.37877E-18
 -1      3683 9.56579E-05-2.88703E-05-2.86218E-05 5.83248E-07 3.09901E-19 1.46445E-18
 -1      3684 9.58426E-05-2.90094E-05-2.86440E-05 5.41040E-07-5.21040E-20 1.75809E-18
 -1      3685 9.55693E-05-2.87861E-05-2.86222E-05 5.71383E-07 6.43796E-19 1.53699E-18
 -1      3686 9.55062E-05-2.87034E-05-2.86284E-05 5.67990E-07 6.10024E-19 1.66178E-18
 -1      3687 9.56675E-05-2.88506E-05-2.86366E-05 5.13235E-07 3.47418E-19 2.26752E-18
 -1      3688 9.54140E-05-2.86044E-05-2.86340E-05 5.69746E-07 4.26777E-19 1.43285E-18
 -1      3689 9.53471E-05-2.85067E-05-2.86445E-05 5.84162E-07 2.71280E-19 1.36487E-18
 -1      3690 9.54886E-05-2.86591E-05-2.86415E-05 5.06852E-07 4.42986E-19 2.20113E-18
 -1      3691 9.52462E-05-2.83909E-05-2.86540E-05 6.02465E-07 3.35005E-19 1.42494E-18
 -1      3692 9.51705E-05-2.82756E-05-2.86680E-05 6.38343E-07 5.56381E-19 1.68271E-18
 -1      3693 9.52976E-05-2.84339E-05-2.86555E-05 5.28246E-07 3.16369E-19 1.70988E-18
 -1      3694 9.50539E-05-2.81388E-05-2.86802E-05 6.75552E-07 6.14953E-19 1.57912E-18
 -1      3695 9.49627E-05-2.80015E-05-2.86967E-05 7.36149E-07 8.04868E-19 1.86371E-18
 -1      3696 9.50827E-05-2.81693E-05-2.86761E-05 5.82330E-07 6.63702E-19 1.59007E-18
 -1      3697 9.48214E-05-2.78380E-05-2.87101E-05 7.94015E-07 3.69726E-19 1.68296E-18
 -1      3698 9.47059E-05-2.76722E-05-2.87280E-05 8.82151E-07 4.48978E-20 1.39553E-18
 -1      3699 9.48281E-05-2.78557E-05-2.87005E-05 6.72601E-07 3.33104E-19 1.56876E-18
 -1      3700 9.45281E-05-2.74744E-05-2.87411E-05 9.61522E-07-2.96563E-19 1.29728E-18
 -1      3701 9.43767E-05-2.72721E-05-2.87589E-05 1.07928E-06-6.22898E-19 9.65727E-19
 -1      3702 9.45134E-05-2.74803E-05-2.87254E-05 8.00704E-07-3.30447E-19 7.95888E-19
 -1      3703 9.41478E-05-2.70309E-05-2.87692E-05 1.17957E-06-6.95617E-19 7.43583E-19
 -1      3704 9.39453E-05-2.67826E-05-2.87846E-05 1.32780E-06-6.62177E-19 6.57092E-19
 -1      3705 9.41128E-05-2.70266E-05-2.87465E-05 9.65491E-07-9.23565E-19 1.30297E-18
 -1      3706 9.36302E-05-2.64707E-05-2.87886E-05 1.45218E-06-6.00553E-19 5.17633E-19
 -1      3707 9.33378E-05-2.61473E-05-2.87978E-05 1.63920E-06-2.58658E-19 7.19348E-19
 -1      3708 9.35780E-05-2.64613E-05-2.87578E-05 1.16710E-06-7.70092E-19 8.35155E-19
 -1      3709 9.29386E-05-2.57810E-05-2.87893E-05 1.76911E-06-3.33162E-19 6.39699E-19
 -1      3710 9.25570E-05-2.54003E-05-2.87857E-05 1.97158E-06-7.02265E-19 6.96889E-19
 -1      3711 9.28744E-05-2.57713E-05-2.87488E-05 1.38618E-06-5.58435E-19 1.10475E-18
 -1      3712 9.20325E-05-2.49540E-05-2.87570E-05 2.10064E-06-6.85210E-19 6.37505E-19
 -1      3713 9.15123E-05-2.44888E-05-2.87316E-05 2.31716E-06-2.67509E-19 1.05955E-18
 -1      3714 9.19685E-05-2.49558E-05-2.87065E-05 1.59519E-06-5.83923E-19 8.31993E-19
 -1      3715 9.08220E-05-2.39501E-05-2.86706E-05 2.42661E-06-4.66596E-19 7.93518E-19
 -1      3716 9.01149E-05-2.33879E-05-2.86090E-05 2.64136E-06-5.46438E-19 6.28129E-19
 -1      3717 9.07774E-05-2.39774E-05-2.86104E-05 1.76188E-06-5.85328E-19 4.18475E-19
 -1      3718 8.92082E-05-2.27473E-05-2.84975E-05 2.70471E-06-4.47585E-20 5.27821E-19
 -1      3719 8.82520E-05-2.20793E-05-2.83776E-05 2.89634E-06 1.26650E-20 2.01133E-19
 -1      3720 8.92139E-05-2.28188E-05-2.84301E-05 1.83204E-06-3.98978E-19-1.69715E-19
 -1      3721 8.70619E-05-2.13332E-05-2.81884E-05 2.87950E-06-5.28355E-19 7.36522E-21
 -1      3722 8.57762E-05-2.05589E-05-2.79767E-05 3.02497E-06-5.13641E-19-4.02333E-19
 -1      3723 8.71651E-05-2.14705E-05-2.81207E-05 1.73200E-06-2.58557E-19-7.93580E-19
 -1      3724 8.42106E-05-1.97125E-05-2.76691E-05 2.88945E-06 1.19089E-20-2.33798E-20
 -1      3725 8.24888E-05-1.88435E-05-2.73144E-05 2.97494E-06 1.87370E-19 1.32958E-19
 -1      3726 8.44806E-05-1.99350E-05-2.76154E-05 1.36937E-06 5.75201E-20-4.52051E-19
 -1      3727 8.04089E-05-1.79143E-05-2.68247E-05 2.69006E-06 3.77542E-20-3.43952E-19
 -1      3728 7.81075E-05-1.69856E-05-2.62456E-05 2.73240E-06-3.03807E-20-5.18378E-19
 -1      3729 8.09436E-05-1.82253E-05-2.68122E-05 6.41429E-07 1.26736E-19-2.82163E-19
 -1      3730 7.52884E-05-1.59870E-05-2.54701E-05 2.28586E-06 1.07510E-19-6.41214E-19
 -1      3731 7.21795E-05-1.50562E-05-2.45287E-05 2.36636E-06 6.88211E-19-4.48018E-19
 -1      3732 7.62175E-05-1.63710E-05-2.55462E-05-5.54557E-07-2.23609E-19 3.94813E-20
 -1      3733 9.32540E-05-3.57030E-05-2.45530E-05 2.61131E-05-4.07304E-21 2.36390E-18
 -1      3734 9.60902E-05-2.83685E-05-2.90270E-05-6.74237E-07 4.49852E-19 2.25352E-19
 -1      3735 9.61114E-05-2.81177E-05-2.91330E-05-4.75939E-07 5.26996E-19 4.77174E-20
 -1      3736 9.62770E-05-2.78428E-05-2.93303E-05-2.57780E-07 5.34370E-19 2.80921E-21
 -1      3737 9.63027E-05-2.84457E-05-2.90837E-05-6.33409E-07 3.58513E-19 5.51434E-19
 -1      3738 1.18464E-04-5.00565E-05-2.90991E-05-9.61403E-06-1.17846E-18 2.58184E-18
 -1      3739 1.19460E-04-4.83770E-05-3.06442E-05-2.70053E-06-4.14020E-19 2.80187E-18
 -1      3740 1.12919E-04-4.73350E-05-2.81238E-05-1.21409E-05-7.77867E-19 1.41581E-18
 -1      3741 9.52932E-05-2.84628E-05-2.86400E-05-6.14568E-07-3.84829E-19 8.42571E-19
 -1      3742 9.53513E-05-2.85522E-05-2.86296E-05-5.93216E-07-3.63708E-20 2.13860E-19
 -1      3743 9.54377E-05-2.86462E-05-2.86233E-05-5.83962E-07 3.64538E-19-9.00353E-20
 -1      3744 9.54945E-05-2.87256E-05-2.86162E-05-5.82481E-07 3.34810E-19-1.17956E-19
 -1      3745 9.54164E-05-2.85988E-05-2.86364E-05-5.32707E-07-9.89919E-20 7.09279E-19
 -1      3746 9.49738E-05-2.80356E-05-2.86859E-05-8.16639E-07-8.99956E-19 1.01119E-18
 -1      3747 9.50399E-05-2.81434E-05-2.86722E-05-7.43713E-07-4.54343E-19 7.16700E-19
 -1      3748 9.47909E-05-2.77956E-05-2.87101E-05-1.00474E-06-1.54791E-19 6.85298E-19
 -1      3749 9.48621E-05-2.79100E-05-2.86964E-05-9.00069E-07-8.01788E-19 6.99234E-19
 -1      3750 9.48388E-05-2.78948E-05-2.86893E-05-7.90531E-07-5.25886E-19 9.34080E-19
 -1      3751 9.45919E-05-2.75470E-05-2.87310E-05-1.26304E-06 2.24440E-19 3.50773E-19
 -1      3752 9.46662E-05-2.76629E-05-2.87189E-05-1.12261E-06 2.45878E-19 5.95702E-19
 -1      3753 9.46034E-05-2.76167E-05-2.87073E-05-9.87196E-07 1.12131E-19 6.30435E-19
 -1      3754 9.43833E-05-2.73055E-05-2.87445E-05-1.60154E-06 1.87185E-20 1.97458E-19
 -1      3755 9.44554E-05-2.74134E-05-2.87359E-05-1.42147E-06 3.68492E-19 2.83113E-19
 -1      3756 9.43427E-05-2.73276E-05-2.87193E-05-1.25747E-06 3.99192E-19 3.97261E-19
 -1      3757 9.41817E-05-2.70989E-05-2.87457E-05-2.03033E-06-1.68540E-19 1.93683E-19
 -1      3758 9.42406E-05-2.71827E-05-2.87430E-05-1.80746E-06-1.63490E-19 1.72789E-19
 -1      3759 9.40628E-05-2.70455E-05-2.87204E-05-1.61524E-06 7.35157E-20 6.21838E-19
 -1      3760 9.40184E-05-2.69713E-05-2.87292E-05-2.55849E-06-3.43915E-19 5.06440E-19
 -1      3761 9.40452E-05-2.70063E-05-2.87349E-05-2.29119E-06-8.32383E-20 4.12834E-19
 -1      3762 9.37811E-05-2.68016E-05-2.87048E-05-2.07648E-06-2.56953E-19 3.71219E-19
 -1      3763 9.39467E-05-2.69891E-05-2.86891E-05-3.19177E-06-1.24694E-18 1.29254E-18
 -1      3764 9.39110E-05-2.69388E-05-2.87057E-05-2.88156E-06-9.28745E-19 7.71260E-19
 -1      3765 9.35315E-05-2.66460E-05-2.86659E-05-2.65871E-06-8.54591E-19 1.01991E-18
 -1      3766 9.40489E-05-2.72449E-05-2.86212E-05-3.92819E-06 8.41072E-20 1.12013E-18
 -1      3767 9.39054E-05-2.70594E-05-2.86501E-05-3.58241E-06-4.24447E-19 1.44556E-18
 -1      3768 9.33721E-05-2.66533E-05-2.85970E-05-3.37914E-06-7.52881E-19 7.11362E-19
 -1      3769 9.44455E-05-2.78609E-05-2.85249E-05-4.74962E-06-8.96831E-19 7.57802E-19
 -1      3770 9.41312E-05-2.74762E-05-2.85652E-05-4.38625E-06-4.13627E-19 9.48327E-19
 -1      3771 9.33952E-05-2.69287E-05-2.84933E-05-4.25030E-06-1.81621E-19 9.74425E-19
 -1      3772 9.53020E-05-2.89854E-05-2.84080E-05-5.60650E-06-9.24966E-19 1.91417E-18
 -1      3773 9.47345E-05-2.83267E-05-2.84540E-05-5.26230E-06-1.03477E-18 1.13273E-18
 -1      3774 9.37382E-05-2.76124E-05-2.83543E-05-5.27036E-06-9.95712E-19 5.17085E-19
 -1      3775 9.68286E-05-3.07773E-05-2.82943E-05-6.39184E-06-3.90802E-19 2.30689E-18
 -1      3776 9.59119E-05-2.97701E-05-2.83312E-05-6.13546E-06-2.96908E-19 2.14419E-18
 -1      3777 9.45951E-05-2.88777E-05-2.81899E-05-6.40420E-06-8.77451E-19 1.23635E-18
 -1      3778 9.92615E-05-3.33585E-05-2.82346E-05-6.89477E-06-7.12353E-19 1.63490E-18
 -1      3779 9.79066E-05-3.19613E-05-2.82334E-05-6.84690E-06-2.13045E-19 2.12209E-18
 -1      3780 9.62268E-05-3.09206E-05-2.80293E-05-7.54722E-06-1.97141E-19 2.85989E-18
 -1      3781 1.02810E-04-3.67252E-05-2.83213E-05-6.75019E-06-5.69276E-19 1.45638E-18
 -1      3782 1.00969E-04-3.49802E-05-2.82319E-05-7.10479E-06-7.66944E-19 8.28671E-19
 -1      3783 9.89439E-05-3.39010E-05-2.79358E-05-8.45819E-06-5.70874E-19 2.25777E-18
 -1      3784 1.07417E-04-4.05164E-05-2.86852E-05-5.46951E-06-1.06329E-19 1.14679E-18
 -1      3785 1.05255E-04-3.86588E-05-2.84534E-05-6.41557E-06-5.40951E-19 1.07424E-18
 -1      3786 1.03019E-04-3.78078E-05-2.80262E-05-8.68708E-06-3.80862E-19 1.85925E-18
 -1      3787 1.15012E-04-4.50079E-05-2.99698E-05-1.79786E-06 2.46083E-19 1.59837E-18
 -1      3788 1.12483E-04-4.40082E-05-2.93099E-05-4.07477E-06 5.51686E-19 1.99835E-18
 -1      3789 1.16958E-04-4.49575E-05-3.08824E-05 1.03383E-06 8.97822E-20 2.24604E-18
 -1      3790 1.19698E-04-4.43890E-05-3.21129E-05 4.83773E-06 1.49263E-19 2.46271E-18
 -1      3791 6.96485E-05-1.95584E-05-2.13206E-05-1.80111E-05-6.70612E-20 1.22957E-18
 -1      3792 7.67389E-05-2.52800E-05-2.21616E-05-2.21371E-05-1.54881E-18 1.28527E-18
 -1      3793 6.40666E-05-1.40442E-05-2.12561E-05-7.94351E-06 8.09909E-19-2.69949E-18
 -1      3794 9.58167E-05-2.56398E-05-3.00881E-05 9.40678E-07 8.12270E-19-3.04955E-19
 -1      3795 9.55399E-05-2.47432E-05-3.03355E-05 1.50614E-06 8.37229E-19-3.70114E-19
 -1      3796 9.59468E-05-2.57283E-05-3.00789E-05-9.10102E-07 7.34930E-20-3.80419E-19
 -1      3797 9.61350E-05-2.64651E-05-2.98666E-05-4.62516E-07 7.97431E-21-4.25573E-19
 -1      3798 9.62718E-05-2.65685E-05-2.98717E-05-3.36050E-07-3.83998E-21-4.36596E-19
 -1      3799 9.40775E-05-2.14931E-05-3.11246E-05-1.72934E-06 3.26302E-19-8.93537E-19
 -1      3800 9.48348E-05-2.28838E-05-3.08120E-05-1.54371E-06 1.47311E-19-6.14485E-19
 -1      3801 9.39438E-05-2.12040E-05-3.11822E-05-1.21768E-06 4.10230E-19-7.57699E-19
 -1      3802 1.03607E-04-4.22256E-05-2.63520E-05 2.29805E-05 2.74879E-19-8.63166E-19
 -1      3803 8.48752E-05-3.03425E-05-2.31430E-05-2.33798E-05-1.41543E-18-4.62454E-19
 -1      3804 9.37012E-05-3.65821E-05-2.45756E-05-2.24166E-05-1.06163E-18-1.75627E-18
 -1      3805 9.43362E-05-2.20418E-05-3.09940E-05 2.58809E-06 1.03122E-18-4.65369E-19
 -1      3806 9.41249E-05-2.15740E-05-3.10975E-05 2.15687E-06 9.66323E-19-3.51621E-19
 -1      3807 9.47070E-05-2.26438E-05-3.08690E-05 1.58217E-06 7.51190E-19-3.27784E-19
 -1      3808 9.47526E-05-2.28933E-05-3.07904E-05 2.27298E-06 8.79678E-19-4.16571E-19
 -1      3809 9.46525E-05-2.27916E-05-3.07966E-05-2.72255E-06-1.80537E-19-8.69728E-19
 -1      3810 1.08662E-04-4.46033E-05-2.74075E-05 1.98806E-05-1.86135E-19-1.35360E-18
 -1      3811 9.38167E-05-2.09458E-05-3.12399E-05-2.13560E-07 5.13419E-19-1.00062E-18
 -1      3812 9.38625E-05-2.10416E-05-3.12218E-05-7.70285E-07 4.23020E-19-9.00165E-19
 -1      3813 9.46218E-05-2.23747E-05-3.09382E-05-8.20741E-07 2.70705E-19-7.33191E-19
 -1      3814 9.45395E-05-2.22108E-05-3.09785E-05 7.94458E-09 4.44600E-19-8.24121E-19
 -1      3815 1.15905E-04-3.03829E-05-3.68111E-05-1.10976E-05-1.02224E-18 3.52975E-19
 -1      3816 1.12929E-04-4.36833E-05-2.96175E-05 7.40999E-06-6.78076E-19-3.62527E-19
 -1      3817 1.15469E-04-4.51416E-05-3.01298E-05 5.29864E-06-5.25849E-19-1.43542E-18
 -1      3818 1.18322E-04-4.92507E-05-2.98105E-05 9.63456E-06-1.39219E-18-4.16766E-18
 -1      3819 1.12328E-04-4.43252E-05-2.91834E-05 1.08840E-05-9.03667E-19-2.20571E-18
 -1      3820 9.50965E-05-2.36784E-05-3.05896E-05-2.01085E-06-1.43112E-19-8.00575E-19
 -1      3821 1.20273E-04-3.84679E-05-3.50776E-05-8.92343E-06-8.91860E-19-8.24011E-19
 -1      3822 9.51402E-05-2.82590E-05-2.86617E-05-6.89445E-07-2.62262E-19 9.84777E-19
 -1      3823 9.52015E-05-2.83580E-05-2.86490E-05-6.44263E-07-1.67332E-19 1.03236E-18
 -1      3824 9.52400E-05-2.83879E-05-2.86507E-05-5.72676E-07-3.64624E-19 8.93230E-19
 -1      3825 9.58663E-05-2.90592E-05-2.86302E-05-6.76267E-07 3.61434E-19 2.25198E-19
 -1      3826 9.59287E-05-2.90975E-05-2.86416E-05-7.05650E-07 3.61465E-19 2.46687E-19
 -1      3827 9.53833E-05-2.44727E-05-3.04010E-05-1.52066E-06-6.51190E-20-7.30807E-19
 -1      3828 9.55265E-05-2.46522E-05-3.03848E-05-1.21089E-06 1.36965E-20-3.95891E-19
 -1      3829 9.54324E-05-2.43461E-05-3.04731E-05-9.54062E-07 2.40988E-19-3.99358E-19
 -1      3830 9.33031E-05-3.47593E-05-2.51621E-05-1.96535E-05-9.73747E-20-2.08151E-18
 -1      3831 9.86391E-05-3.91913E-05-2.52723E-05-2.09748E-05-8.43425E-19-1.82740E-18
 -1      3832 1.02884E-04-4.15933E-05-2.62748E-05-1.80244E-05 2.56988E-20-6.26803E-19
 -1      3833 6.90514E-05-1.42063E-05-2.35805E-05 2.24452E-06 1.07503E-18-1.06491E-18
 -1      3834 6.60527E-05-1.36564E-05-2.24597E-05 2.84065E-06 1.42411E-18-1.13734E-18
 -1      3835 7.04961E-05-1.45301E-05-2.38139E-05-1.84283E-06 7.16462E-19-7.69369E-19
 -1      3836 9.64194E-05-2.89082E-05-2.89345E-05-7.53090E-07 3.58853E-19 3.44145E-19
 -1      3837 9.64628E-05-2.87601E-05-2.90119E-05-6.83849E-07 2.53974E-19 3.37670E-19
 -1      3838 6.54483E-05-1.57941E-05-2.12525E-05-1.18911E-05 7.09321E-19-1.33169E-19
 -1      3839 6.74856E-05-1.77758E-05-2.12439E-05-1.58162E-05 3.69955E-19 1.24555E-18
 -1      3840 7.29476E-05-1.99500E-05-2.27288E-05-1.55877E-05-1.33490E-18 2.75638E-18
 -1      3841 1.20405E-04-4.23681E-05-3.37281E-05-6.03112E-06-8.56345E-19-9.10521E-19
 -1      3842 9.57208E-05-2.89481E-05-2.86154E-05-6.23867E-07-3.76130E-20 1.72235E-19
 -1      3843 9.57804E-05-2.90036E-05-2.86188E-05-6.48801E-07 2.01889E-19 3.32318E-19
 -1      3844 9.59213E-05-2.90773E-05-2.86488E-05-5.90442E-07 2.42649E-19 4.21497E-19
 -1      3845 5.90052E-05-1.27528E-05-1.97342E-05 5.71778E-06 1.93771E-18-1.06991E-19
 -1      3846 5.53346E-05-1.13788E-05-1.85023E-05-1.00318E-06 1.45908E-18-1.87853E-18
 -1      3847 6.03269E-05-1.28861E-05-2.02046E-05-4.86596E-06 1.84050E-18-2.12359E-18
 -1      3848 6.26720E-05-1.29773E-05-2.13747E-05 4.28983E-06 1.72241E-18-2.18283E-19
 -1      3849 6.51508E-05-1.50786E-05-2.11489E-05 9.39310E-06 7.95754E-19 1.56463E-18
 -1      3850 9.60923E-05-2.91676E-05-2.86837E-05-6.38088E-07 2.35658E-19 9.47780E-20
 -1      3851 9.60156E-05-2.91322E-05-2.86632E-05-7.34680E-07 2.31447E-19 1.09150E-19
 -1      3852 9.60801E-05-2.91461E-05-2.86851E-05-7.60306E-07 2.92845E-19 1.32198E-19
 -1      3853 9.55855E-05-2.87858E-05-2.86291E-05-5.27815E-07 4.18809E-19 4.93445E-19
 -1      3854 9.55788E-05-2.88087E-05-2.86142E-05-5.89857E-07 4.29811E-19 2.26159E-20
 -1      3855 9.56363E-05-2.88772E-05-2.86116E-05-6.04086E-07 2.03291E-19 2.06782E-19
 -1      3856 1.10430E-04-4.37201E-05-2.86709E-05-7.57665E-06 2.03913E-19 1.01169E-18
 -1      3857 9.63634E-05-2.90148E-05-2.88612E-05-7.79795E-07 4.30451E-19 2.52234E-19
 -1      3858 9.65524E-05-2.89831E-05-2.89599E-05-6.58900E-07 4.28023E-19 1.15202E-19
 -1      3859 9.63050E-05-2.90880E-05-2.88073E-05-7.98997E-07 2.16851E-19 4.35215E-20
 -1      3860 9.61341E-05-2.64277E-05-2.98655E-05 5.85080E-07 6.16953E-19-2.12472E-19
 -1      3861 9.59727E-05-2.57557E-05-3.00929E-05 7.34730E-07 7.32175E-19-1.76429E-19
 -1      3862 9.62571E-05-2.70368E-05-2.96740E-05 1.91135E-07 5.30864E-19-5.06478E-20
 -1      3863 9.50495E-05-2.81530E-05-2.86693E-05-6.55698E-07-3.77212E-19 1.06544E-18
 -1      3864 8.25473E-05-2.71049E-05-2.36636E-05-1.96171E-05-7.02170E-19-7.62958E-20
 -1      3865 9.50617E-05-2.33394E-05-3.07473E-05 2.01003E-07 4.41313E-19-7.31675E-19
 -1      3866 9.50625E-05-2.33459E-05-3.07475E-05-1.91564E-07 2.76453E-19-8.46804E-19
 -1      3867 1.13971E-04-4.78319E-05-2.82672E-05 1.61145E-05-1.00990E-18-1.95655E-18
 -1      3868 9.51437E-05-2.35629E-05-3.06863E-05 8.32354E-07 6.55214E-19-2.44646E-19
 -1      3869 9.50779E-05-2.34024E-05-3.07259E-05 4.80120E-07 5.20002E-19-4.63726E-19
 -1      3870 9.55825E-05-2.43718E-05-3.05072E-05 2.41905E-07 3.83289E-19-4.57180E-19
 -1      3871 1.10798E-04-4.38696E-05-2.85988E-05 1.40821E-05-1.24543E-18-3.27354E-18
 -1      3872 1.07458E-04-4.28635E-05-2.75636E-05-1.24839E-05 2.30112E-19 1.00748E-18
 -1      3873 9.67796E-05-2.82673E-05-2.93612E-05 2.79554E-07 2.51347E-20-2.31774E-19
 -1      3874 9.67894E-05-2.85650E-05-2.92412E-05 3.96724E-07 6.28964E-20-1.56934E-19
 -1      3875 9.67822E-05-2.88133E-05-2.91274E-05 4.47257E-07 1.80111E-20-1.16776E-19
 -1      3876 9.67377E-05-2.89923E-05-2.90348E-05 5.07676E-07 1.45308E-19-1.26755E-19
 -1      3877 9.68720E-05-2.86699E-05-2.92298E-05 3.19766E-07 7.37313E-20 1.41200E-19
 -1      3878 9.66793E-05-2.91139E-05-2.89548E-05 5.22858E-07 3.75455E-19-1.55346E-19
 -1      3879 9.66087E-05-2.91957E-05-2.88913E-05 5.43013E-07 3.86707E-19-1.74286E-19
 -1      3880 9.68022E-05-2.90580E-05-2.90344E-05 3.96669E-07 2.23225E-19 1.20925E-19
 -1      3881 9.65228E-05-2.92419E-05-2.88333E-05 5.38962E-07 2.27485E-19-1.66214E-19
 -1      3882 9.64388E-05-2.92627E-05-2.87891E-05 5.36614E-07-1.36823E-19 1.70103E-20
 -1      3883 9.66579E-05-2.92413E-05-2.88944E-05 4.21040E-07 3.24805E-19 3.14399E-19
 -1      3884 9.63396E-05-2.92567E-05-2.87490E-05 5.21922E-07 2.11886E-20 5.82757E-19
 -1      3885 9.62507E-05-2.92352E-05-2.87199E-05 5.07978E-07 2.67368E-19 1.16207E-18
 -1      3886 9.64736E-05-2.92902E-05-2.87946E-05 4.14866E-07 3.23567E-19 1.10916E-18
 -1      3887 9.61464E-05-2.91930E-05-2.86939E-05 4.89606E-07 2.82734E-19 1.14769E-18
 -1      3888 9.60571E-05-2.91420E-05-2.86767E-05 4.72481E-07 1.63510E-19 1.49201E-18
 -1      3889 9.62714E-05-2.92455E-05-2.87270E-05 3.93277E-07 4.43971E-19 1.66318E-18
 -1      3890 9.59515E-05-2.90742E-05-2.86616E-05 4.55467E-07 1.12791E-19 1.86791E-18
 -1      3891 9.58630E-05-2.90016E-05-2.86537E-05 4.41363E-07 3.38038E-19 2.08028E-18
 -1      3892 9.60631E-05-2.91353E-05-2.86847E-05 3.67504E-07 5.01336E-19 1.72866E-18
 -1      3893 9.57567E-05-2.89141E-05-2.86471E-05 4.29375E-07 2.32618E-19 1.78071E-18
 -1      3894 9.56678E-05-2.88240E-05-2.86462E-05 4.22890E-07 4.78347E-19 1.87019E-18
 -1      3895 9.58531E-05-2.89772E-05-2.86621E-05 3.46013E-07 3.08245E-19 1.77024E-18
 -1      3896 9.55586E-05-2.87194E-05-2.86461E-05 4.18548E-07 3.35297E-19 1.38399E-18
 -1      3897 9.54661E-05-2.86125E-05-2.86506E-05 4.23075E-07 2.92064E-19 1.14845E-18
 -1      3898 9.56399E-05-2.87804E-05-2.86546E-05 3.34820E-07 4.88050E-20 9.73286E-19
 -1      3899 9.53496E-05-2.84902E-05-2.86551E-05 4.28212E-07 3.23573E-19 1.16251E-18
 -1      3900 9.52483E-05-2.83651E-05-2.86636E-05 4.46393E-07 4.75262E-19 1.28949E-18
 -1      3901 9.54168E-05-2.85474E-05-2.86582E-05 3.38039E-07 3.58116E-19 7.05456E-19
 -1      3902 9.51181E-05-2.82223E-05-2.86712E-05 4.62106E-07 4.91702E-19 1.34823E-18
 -1      3903 9.50010E-05-2.80753E-05-2.86821E-05 4.95773E-07 5.60655E-19 1.19361E-18
 -1      3904 9.51730E-05-2.82753E-05-2.86696E-05 3.58176E-07 3.16045E-19 8.78862E-19
 -1      3905 9.48487E-05-2.79075E-05-2.86912E-05 5.22283E-07 3.89960E-19 8.39122E-19
 -1      3906 9.47068E-05-2.77333E-05-2.87031E-05 5.72360E-07 1.30734E-19 9.12812E-19
 -1      3907 9.48940E-05-2.79573E-05-2.86855E-05 3.96057E-07 1.17873E-19 5.83583E-19
 -1      3908 9.45221E-05-2.75344E-05-2.87117E-05 6.08649E-07-1.31742E-19 3.92619E-19
 -1      3909 9.43438E-05-2.73262E-05-2.87228E-05 6.74745E-07-4.94724E-19 2.77459E-19
 -1      3910 9.45613E-05-2.75834E-05-2.87020E-05 4.50075E-07-1.09102E-19 7.97149E-19
 -1      3911 9.41139E-05-2.70891E-05-2.87283E-05 7.17967E-07-8.88854E-19 7.34526E-19
 -1      3912 9.38850E-05-2.68389E-05-2.87360E-05 7.97787E-07-9.45516E-19 7.86143E-19
 -1      3913 9.41522E-05-2.71413E-05-2.87148E-05 5.15301E-07-5.25477E-19 1.42910E-19
 -1      3914 9.35789E-05-2.65399E-05-2.87349E-05 8.44455E-07-1.25598E-18 6.69185E-19
 -1      3915 9.32620E-05-2.62222E-05-2.87349E-05 9.36666E-07-9.27580E-19 6.23611E-19
 -1      3916 9.36244E-05-2.66031E-05-2.87176E-05 5.83354E-07-1.23269E-18 3.56502E-19
 -1      3917 9.28877E-05-2.58807E-05-2.87221E-05 9.71491E-07-4.14760E-19 4.80075E-19
 -1      3918 9.24894E-05-2.55160E-05-2.87088E-05 1.05691E-06-4.82002E-19 6.64156E-19
 -1      3919 9.29528E-05-2.59644E-05-2.87013E-05 6.32168E-07-7.87204E-19 4.88998E-19
 -1      3920 9.20139E-05-2.51121E-05-2.86775E-05 1.06617E-06-8.15192E-19 8.32130E-19
 -1      3921 9.14898E-05-2.46783E-05-2.86427E-05 1.13210E-06-4.58351E-19 1.01561E-18
 -1      3922 9.21172E-05-2.52316E-05-2.86545E-05 6.32167E-07-5.15028E-19 6.42576E-19
 -1      3923 9.08861E-05-2.42062E-05-2.85830E-05 1.09098E-06-4.91971E-19 6.10045E-19
 -1      3924 9.01969E-05-2.36957E-05-2.85144E-05 1.11177E-06-9.01522E-19 2.92926E-19
 -1      3925 9.10562E-05-2.43821E-05-2.85604E-05 5.39236E-07-7.97484E-19 4.67479E-19
 -1      3926 8.94336E-05-2.31540E-05-2.84121E-05 9.84746E-07-9.51440E-19 3.92066E-19
 -1      3927 8.85289E-05-2.25630E-05-2.82915E-05 9.24124E-07-5.47696E-19 5.23429E-20
 -1      3928 8.97140E-05-2.34153E-05-2.83950E-05 2.87127E-07-9.92980E-19 6.97754E-19
 -1      3929 8.75672E-05-2.19565E-05-2.81262E-05 6.62158E-07-2.73990E-19-5.55588E-19
 -1      3930 8.63809E-05-2.12869E-05-2.79270E-05 4.71923E-07-3.05788E-19-5.30985E-19
 -1      3931 8.80235E-05-2.23422E-05-2.81247E-05-2.17352E-07-7.62055E-19 2.82756E-19
 -1      3932 8.51718E-05-2.06298E-05-2.76696E-05 9.73034E-09 4.76975E-19-3.33689E-19
 -1      3933 8.36122E-05-1.98909E-05-2.73522E-05-3.69873E-07 4.73219E-19 2.33724E-19
 -1      3934 8.59022E-05-2.11910E-05-2.77012E-05-1.10126E-06 3.59310E-19-4.14260E-20
 -1      3935 8.20907E-05-1.92105E-05-2.69603E-05-1.12186E-06 2.16568E-19 3.47070E-19
 -1      3936 8.00138E-05-1.84110E-05-2.64637E-05-1.76169E-06 1.26823E-19 5.24048E-19
 -1      3937 8.32479E-05-2.00177E-05-2.70558E-05-2.53593E-06 5.51758E-19 9.14183E-20
 -1      3938 7.80877E-05-1.77727E-05-2.58689E-05-2.91512E-06-1.69435E-19 5.59475E-19
 -1      3939 7.52953E-05-1.69364E-05-2.50906E-05-3.95372E-06 9.94668E-20 5.58206E-19
 -1      3940 7.99324E-05-1.89112E-05-2.60850E-05-4.76052E-06 1.76311E-19 4.71587E-19
 -1      3941 9.41073E-05-2.71112E-05-2.87104E-05-1.18877E-06 1.81627E-19 7.82703E-19
 -1      3942 9.42445E-05-2.72696E-05-2.87075E-05-1.03884E-06 5.09877E-19 5.42296E-19
 -1      3943 9.53912E-05-2.85470E-05-2.86463E-05-4.57151E-07-2.89242E-19 8.05926E-19
 -1      3944 9.54780E-05-2.86509E-05-2.86411E-05-4.45655E-07 1.72909E-19 8.36280E-19
 -1      3945 9.44271E-05-2.74431E-05-2.87057E-05-9.18999E-07 2.40685E-19 2.42207E-19
 -1      3946 9.45523E-05-2.75967E-05-2.86984E-05-8.07914E-07-1.23767E-19 4.32506E-19
 -1      3947 9.42093E-05-2.72388E-05-2.86992E-05-8.45467E-07 4.27032E-19 2.95453E-19
 -1      3948 9.47115E-05-2.77587E-05-2.86927E-05-7.23509E-07-2.67702E-19 4.48187E-19
 -1      3949 9.48237E-05-2.79018E-05-2.86833E-05-6.44731E-07-5.45558E-19 8.28197E-19
 -1      3950 9.45488E-05-2.75950E-05-2.86926E-05-6.51143E-07-2.90239E-19 3.92918E-19
 -1      3951 9.37572E-05-2.67810E-05-2.87010E-05-1.55045E-06-4.83318E-19 1.01933E-18
 -1      3952 9.39008E-05-2.69330E-05-2.87052E-05-1.35376E-06-1.38335E-19 7.43065E-19
 -1      3953 9.38218E-05-2.68614E-05-2.86945E-05-1.11763E-06-2.80190E-19 7.28349E-19
 -1      3954 9.33932E-05-2.64846E-05-2.86706E-05-2.02571E-06-4.21241E-19 1.12946E-18
 -1      3955 9.35307E-05-2.66114E-05-2.86852E-05-1.77298E-06-2.81994E-19 1.02116E-18
 -1      3956 9.33892E-05-2.64817E-05-2.86716E-05-1.49055E-06-2.73332E-19 9.97260E-19
 -1      3957 9.30493E-05-2.62742E-05-2.86114E-05-2.64075E-06-1.28046E-18 1.31401E-18
 -1      3958 9.31580E-05-2.63458E-05-2.86400E-05-2.32154E-06-8.65955E-19 1.12299E-18
 -1      3959 9.29258E-05-2.61339E-05-2.86224E-05-1.99398E-06-7.08846E-19 1.15247E-18
 -1      3960 9.27856E-05-2.62282E-05-2.85151E-05-3.42526E-06-2.25674E-19 1.31512E-19
 -1      3961 9.28281E-05-2.62005E-05-2.85612E-05-3.02902E-06-8.39501E-19 3.74971E-19
 -1      3962 9.24640E-05-2.58732E-05-2.85374E-05-2.66583E-06-7.19600E-19 2.00534E-19
 -1      3963 9.26986E-05-2.64585E-05-2.83751E-05-4.40902E-06-6.11950E-19 1.48453E-18
 -1      3964 9.26175E-05-2.62697E-05-2.84408E-05-3.92769E-06-3.43965E-19 8.17590E-19
 -1      3965 9.20632E-05-2.57836E-05-2.84066E-05-3.55225E-06-5.80517E-19 3.51918E-19
 -1      3966 9.29361E-05-2.71180E-05-2.81893E-05-5.61295E-06-1.14606E-18 1.09608E-18
 -1      3967 9.26474E-05-2.66852E-05-2.82735E-05-5.04681E-06-6.66007E-19 1.43424E-18
 -1      3968 9.18227E-05-2.59872E-05-2.82209E-05-4.70507E-06-7.27467E-19 1.20552E-18
 -1      3969 9.37124E-05-2.84022E-05-2.79662E-05-7.02883E-06-8.98290E-19 1.50386E-18
 -1      3970 9.31000E-05-2.76225E-05-2.80611E-05-6.39831E-06-1.14912E-18 9.74678E-19
 -1      3971 9.18996E-05-2.66543E-05-2.79761E-05-6.17249E-06-6.86978E-19 1.35481E-18
 -1      3972 9.53238E-05-3.05455E-05-2.77353E-05-8.58494E-06-3.35943E-19 1.77416E-18
 -1      3973 9.42358E-05-2.92984E-05-2.78206E-05-7.95149E-06-1.99412E-19 1.48701E-18
 -1      3974 9.25286E-05-2.80080E-05-2.76797E-05-7.97547E-06-6.35390E-19 4.62691E-19
 -1      3975 9.81490E-05-3.37771E-05-2.75636E-05-1.00723E-05-7.59222E-19 1.30699E-18
 -1      3976 9.64267E-05-3.19657E-05-2.75981E-05-9.57029E-06-2.17615E-19 1.95900E-18
 -1      3977 9.40538E-05-3.03445E-05-2.73611E-05-1.00807E-05-2.99415E-19 7.64749E-19
 -1      3978 1.02722E-04-3.82903E-05-2.76156E-05-1.08766E-05-2.08167E-19 1.09891E-18
 -1      3979 1.00138E-04-3.58643E-05-2.74915E-05-1.08424E-05-8.65908E-19 1.17268E-18
 -1      3980 9.71012E-05-3.40491E-05-2.71084E-05-1.22570E-05-4.40329E-19 2.33966E-19
 -1      3981 9.52840E-05-2.38913E-05-3.06132E-05-8.08715E-07 1.76475E-19-6.68606E-19
 -1      3982 9.59741E-05-2.54398E-05-3.02149E-05-5.59898E-07 2.42564E-19-4.67077E-19
 -1      3983 9.61650E-05-2.91504E-05-2.87198E-05-7.82933E-07 2.65932E-19-6.16078E-20
 -1      3984 9.62290E-05-2.91289E-05-2.87556E-05-7.93806E-07 1.49137E-19-1.97087E-20
 -1      3985 9.62625E-05-2.92016E-05-2.87423E-05-6.78962E-07 6.67891E-20 2.59697E-19
 -1      3986 9.66258E-05-2.86409E-05-2.91375E-05-5.40109E-07 1.82649E-19-7.59816E-20
 -1      3987 9.64809E-05-2.85581E-05-2.91124E-05-6.06457E-07 2.99066E-19 1.66061E-19
 -1      3988 9.64942E-05-2.83035E-05-2.92199E-05-4.60869E-07 4.45944E-19 1.54203E-19
 -1      3989 9.51867E-05-2.83120E-05-2.86594E-05-5.02650E-07-2.16469E-19 6.14214E-19
 -1      3990 9.52787E-05-2.84290E-05-2.86513E-05-4.72982E-07-1.66298E-19 7.95910E-19
 -1      3991 9.53379E-05-2.84765E-05-2.86548E-05-3.82595E-07-1.03587E-19 7.31603E-19
 -1      3992 9.62847E-05-2.62883E-05-3.00029E-05-3.64053E-07 7.78859E-20-5.71984E-19
 -1      3993 9.64907E-05-2.69465E-05-2.98060E-05-9.16225E-08-9.36899E-20-6.44044E-19
 -1      3994 9.61658E-05-2.58406E-05-3.01341E-05-2.92562E-07 7.51332E-20-8.04189E-19
 -1      3995 9.52183E-05-2.37064E-05-3.06565E-05-4.55148E-07 2.03812E-19-8.50961E-19
 -1      3996 9.51968E-05-2.38434E-05-3.05783E-05 1.53087E-06 8.23354E-19-3.38190E-19
 -1      3997 9.50591E-05-2.36728E-05-3.06008E-05 1.93271E-06 8.68212E-19-4.36238E-19
 -1      3998 9.51947E-05-2.37904E-05-3.06082E-05 1.21419E-06 7.82599E-19-2.32878E-19
 -1      3999 7.95661E-05-2.34785E-05-2.39696E-05-1.64654E-05 3.46521E-19 6.39219E-19
 -1      4000 8.61054E-05-2.85743E-05-2.47528E-05-1.78483E-05 4.85059E-19-2.20964E-18
 -1      4001 9.49626E-05-2.80492E-05-2.86760E-05-5.88435E-07-5.70989E-19 6.43319E-19
 -1      4002 9.50634E-05-2.81795E-05-2.86664E-05-5.36515E-07-3.28109E-19 4.79571E-19
 -1      4003 9.48444E-05-2.79212E-05-2.86801E-05-5.17398E-07-3.93036E-19 1.04206E-19
 -1      4004 9.66388E-05-2.74668E-05-2.96463E-05 1.11726E-08 1.77044E-20-5.90343E-19
 -1      4005 9.67291E-05-2.79228E-05-2.94906E-05 1.98513E-07-1.77138E-20-4.81114E-19
 -1      4006 9.68297E-05-2.80502E-05-2.94759E-05 1.68269E-07 2.66168E-19-2.91131E-19
 -1      4007 9.66391E-05-2.71833E-05-2.97636E-05-2.91807E-08 8.04054E-20-6.16997E-19
 -1      4008 9.57029E-05-2.46495E-05-3.04420E-05-2.19654E-07 1.61411E-19-7.03969E-19
 -1      4009 9.56349E-05-2.46432E-05-3.04136E-05 8.51627E-07 6.63739E-19-2.50478E-19
 -1      4010 8.97645E-05-3.08175E-05-2.51202E-05-1.80407E-05 1.26840E-20-2.26907E-18
 -1      4011 9.34917E-05-3.36370E-05-2.57033E-05-1.72734E-05 1.76901E-20-1.90130E-18
 -1      4012 8.68951E-05-2.77069E-05-2.53521E-05-1.56397E-05 2.78401E-19-1.97616E-18
 -1      4013 9.55540E-05-2.87072E-05-2.86491E-05-3.63960E-07 2.59289E-20 3.42556E-19
 -1      4014 9.55840E-05-2.87549E-05-2.86398E-05-4.43788E-07 4.19505E-19 6.67498E-19
 -1      4015 9.56686E-05-2.88458E-05-2.86389E-05-4.46192E-07 4.00537E-19 3.28790E-19
 -1      4016 9.57526E-05-2.89469E-05-2.86321E-05-5.49988E-07 1.63074E-19 6.51774E-19
 -1      4017 6.40756E-05-1.29190E-05-2.17709E-05-1.11915E-06 1.65495E-18-1.76459E-18
 -1      4018 9.61503E-05-2.91939E-05-2.86945E-05-5.24541E-07 1.47550E-19-1.51638E-19
 -1      4019 9.62372E-05-2.92264E-05-2.87182E-05-5.42507E-07 1.22699E-19-3.41758E-19
 -1      4020 9.59798E-05-2.55662E-05-3.01827E-05 4.92874E-07 5.70460E-19-5.10636E-20
 -1      4021 9.64217E-05-2.91525E-05-2.88315E-05-6.94220E-07 2.68946E-19 1.07934E-19
 -1      4022 9.67460E-05-2.87613E-05-2.91380E-05-4.84445E-07 1.23976E-19 7.85470E-20
 -1      4023 9.67635E-05-2.85261E-05-2.92428E-05-3.90009E-07 2.40552E-19 8.53279E-20
 -1      4024 9.51043E-05-2.82148E-05-2.86662E-05-4.31204E-07-2.57539E-19 6.64949E-19
 -1      4025 9.59612E-05-2.90850E-05-2.86599E-05-4.86151E-07-1.59249E-19 3.54877E-19
 -1      4026 9.60467E-05-2.91423E-05-2.86730E-05-5.04449E-07-1.08605E-19-5.71712E-20
 -1      4027 9.61730E-05-2.92018E-05-2.87036E-05-4.14365E-07-1.85897E-19-6.71826E-19
 -1      4028 7.59727E-05-1.95565E-05-2.41890E-05-1.15504E-05 3.70941E-20 2.12552E-18
 -1      4029 8.02187E-05-2.13343E-05-2.51756E-05-1.07174E-05 1.08028E-18 4.25971E-19
 -1      4030 9.64479E-05-2.79663E-05-2.93540E-05-3.11801E-07 4.89294E-19-3.56699E-20
 -1      4031 9.64075E-05-2.75608E-05-2.94993E-05-5.89697E-08 5.20523E-19-1.12795E-19
 -1      4032 9.64042E-05-2.71193E-05-2.96910E-05 1.16419E-07 5.34313E-19-1.51854E-19
 -1      4033 9.65997E-05-2.80538E-05-2.93770E-05-2.97082E-07 4.19556E-19-1.71970E-19
 -1      4034 1.02506E-04-3.92665E-05-2.71151E-05-1.34174E-05 4.31751E-19-9.18501E-21
 -1      4035 9.59759E-05-2.52782E-05-3.02971E-05 6.15941E-09 2.38684E-19-4.83156E-19
 -1      4036 9.61108E-05-2.56179E-05-3.02157E-05-1.99042E-07 2.03282E-19-6.06104E-19
 -1      4037 9.64275E-05-2.64155E-05-3.00038E-05-5.88512E-08 1.94582E-19-6.17833E-19
 -1      4038 9.60125E-05-2.53770E-05-3.02764E-05 2.09117E-07 3.35220E-19-3.62003E-19
 -1      4039 9.66595E-05-2.90752E-05-2.89652E-05-5.62918E-07 3.72503E-19 1.41484E-19
 -1      4040 9.67144E-05-2.89445E-05-2.90422E-05-5.20583E-07 2.83600E-19 3.83047E-20
 -1      4041 9.68306E-05-2.88438E-05-2.91382E-05-3.91120E-07 2.44279E-19-2.27556E-19
 -1      4042 6.35163E-05-1.34525E-05-2.13611E-05-6.04485E-06 1.39838E-18-1.75192E-18
 -1      4043 6.85982E-05-1.56280E-05-2.26573E-05-7.91455E-06 2.63914E-19 1.66796E-19
 -1      4044 7.25947E-05-1.61174E-05-2.42149E-05-5.08358E-06 3.45166E-20 7.67822E-19
 -1      4045 6.95540E-05-1.53570E-05-2.32585E-05-5.91545E-06 2.77378E-19-4.21068E-20
 -1      4046 9.69033E-05-2.90079E-05-2.90964E-05 2.58372E-07 1.39464E-19 1.90646E-19
 -1      4047 9.68440E-05-2.91443E-05-2.90144E-05 2.89693E-07 3.24562E-19 2.68407E-19
 -1      4048 9.67705E-05-2.92370E-05-2.89415E-05 2.86016E-07 5.01852E-19 2.18972E-19
 -1      4049 9.66835E-05-2.92914E-05-2.88818E-05 2.96592E-07 4.22567E-19 3.97862E-19
 -1      4050 9.68498E-05-2.91929E-05-2.89979E-05 1.62986E-07 2.86161E-19 1.74885E-19
 -1      4051 9.65850E-05-2.93144E-05-2.88293E-05 2.90097E-07 5.66473E-19 8.26619E-19
 -1      4052 9.64865E-05-2.93134E-05-2.87876E-05 2.88991E-07 6.18605E-19 1.21646E-18
 -1      4053 9.66731E-05-2.93122E-05-2.88709E-05 1.65014E-07 7.99947E-19 4.01354E-19
 -1      4054 9.63772E-05-2.92880E-05-2.87516E-05 2.77424E-07 4.05169E-19 1.31312E-18
 -1      4055 9.62725E-05-2.92470E-05-2.87242E-05 2.71406E-07 5.49887E-19 1.41506E-18
 -1      4056 9.64691E-05-2.93158E-05-2.87824E-05 1.60500E-07 6.23104E-19 6.54476E-19
 -1      4057 9.61593E-05-2.91883E-05-2.87012E-05 2.60237E-07 5.87417E-19 1.22983E-18
 -1      4058 9.60530E-05-2.91191E-05-2.86850E-05 2.53223E-07 4.45579E-19 1.13523E-18
 -1      4059 9.62467E-05-2.92328E-05-2.87226E-05 1.52735E-07 5.50506E-19 6.29245E-19
 -1      4060 9.59383E-05-2.90362E-05-2.86721E-05 2.44546E-07-7.13821E-20 1.10557E-18
 -1      4061 9.58316E-05-2.89456E-05-2.86646E-05 2.39560E-07-1.25095E-19 8.18505E-19
 -1      4062 9.60191E-05-2.90893E-05-2.86859E-05 1.43355E-07 1.91165E-19 4.36836E-19
 -1      4063 9.57144E-05-2.88428E-05-2.86593E-05 2.34301E-07-2.18177E-19 6.23492E-19
 -1      4064 9.56053E-05-2.87343E-05-2.86584E-05 2.34206E-07-4.14963E-19 9.40337E-20
 -1      4065 9.57887E-05-2.89007E-05-2.86672E-05 1.35265E-07-5.15792E-19 2.19359E-19
 -1      4066 9.54827E-05-2.86131E-05-2.86588E-05 2.31465E-07-1.51891E-19 1.42750E-19
 -1      4067 9.53659E-05-2.84860E-05-2.86626E-05 2.37900E-07 3.33512E-19-1.31389E-19
 -1      4068 9.55525E-05-2.86751E-05-2.86621E-05 1.31642E-07-2.45482E-19-2.14695E-19
 -1      4069 9.52329E-05-2.83455E-05-2.86668E-05 2.38735E-07 6.12596E-19-6.28014E-20
 -1      4070 9.51022E-05-2.81977E-05-2.86736E-05 2.52072E-07 2.78939E-19 1.40122E-19
 -1      4071 9.52993E-05-2.84102E-05-2.86663E-05 1.31538E-07 2.07894E-19-8.36813E-19
 -1      4072 9.49517E-05-2.80348E-05-2.86798E-05 2.55305E-07-1.25093E-19 2.67777E-19
 -1      4073 9.47988E-05-2.78624E-05-2.86879E-05 2.75071E-07 1.76073E-19 8.88613E-20
 -1      4074 9.50188E-05-2.81039E-05-2.86763E-05 1.33049E-07 2.59343E-20-6.96406E-19
 -1      4075 9.46221E-05-2.76727E-05-2.86941E-05 2.78548E-07 3.58486E-20 1.90784E-19
 -1      4076 9.44365E-05-2.74705E-05-2.87014E-05 3.02788E-07-4.42538E-19-5.63733E-20
 -1      4077 9.46949E-05-2.77493E-05-2.86882E-05 1.32645E-07 1.61271E-19-6.38082E-19
 -1      4078 9.42235E-05-2.72488E-05-2.87053E-05 3.02425E-07-6.85129E-19-2.59728E-19
 -1      4079 9.39928E-05-2.70113E-05-2.87093E-05 3.27312E-07-8.78560E-19-3.25682E-19
 -1      4080 9.43089E-05-2.73381E-05-2.86976E-05 1.23332E-07-6.76937E-19-1.23371E-18
 -1      4081 9.37181E-05-2.67386E-05-2.87075E-05 3.15498E-07-8.48716E-19-2.58420E-19
 -1      4082 9.34099E-05-2.64443E-05-2.87041E-05 3.33284E-07-1.14729E-18-2.22787E-20
 -1      4083 9.38263E-05-2.68492E-05-2.86989E-05 9.18005E-08-7.77732E-19-1.01212E-18
 -1      4084 9.30854E-05-2.61418E-05-2.86923E-05 2.99260E-07-1.24088E-18 6.20794E-19
 -1      4085 9.27103E-05-2.58137E-05-2.86768E-05 2.96008E-07-7.31685E-19 5.38067E-19
 -1      4086 9.32312E-05-2.62847E-05-2.86840E-05 1.77756E-08-8.85330E-19-2.50990E-20
 -1      4087 9.23124E-05-2.54676E-05-2.86496E-05 2.23005E-07-4.40038E-19 6.93187E-19
 -1      4088 9.18353E-05-2.50902E-05-2.86151E-05 1.80119E-07-6.37833E-19 7.99347E-19
 -1      4089 9.25151E-05-2.56582E-05-2.86438E-05-1.25815E-07-4.48827E-19 7.27171E-19
 -1      4090 9.13503E-05-2.47022E-05-2.85646E-05 4.29348E-08-8.70722E-19 7.95594E-19
 -1      4091 9.07450E-05-2.42757E-05-2.85012E-05-6.84673E-08-6.86783E-19 9.12711E-19
 -1      4092 9.16389E-05-2.49618E-05-2.85649E-05-3.84628E-07-5.96198E-19 5.16401E-19
 -1      4093 9.01606E-05-2.38537E-05-2.84169E-05-3.05747E-07-1.00807E-18 1.01806E-18
 -1      4094 8.93956E-05-2.33842E-05-2.83108E-05-5.26771E-07-1.08144E-18 1.05280E-18
 -1      4095 9.05775E-05-2.42121E-05-2.84295E-05-8.22638E-07-8.89413E-19 1.72768E-18
 -1      4096 8.87021E-05-2.29455E-05-2.81787E-05-9.14222E-07-1.49442E-18 6.81432E-19
 -1      4097 8.77394E-05-2.24475E-05-2.80105E-05-1.30161E-06-7.24006E-19 8.51786E-19
 -1      4098 8.93088E-05-2.34435E-05-2.82137E-05-1.52961E-06-1.29849E-18 1.08576E-18
 -1      4099 8.69312E-05-2.20227E-05-2.78115E-05-1.90739E-06-1.82484E-19 5.85786E-19
 -1      4100 8.57236E-05-2.15224E-05-2.75537E-05-2.53754E-06 2.65786E-19-3.74252E-19
 -1      4101 8.78180E-05-2.27159E-05-2.78858E-05-2.62877E-06-6.30092E-19 9.48435E-19
 -1      4102 8.48016E-05-2.11593E-05-2.72620E-05-3.45060E-06 6.07329E-19-1.13229E-18
 -1      4103 8.32993E-05-2.07060E-05-2.68754E-05-4.42520E-06 5.94192E-19-6.48449E-19
 -1      4104 8.61012E-05-2.21248E-05-2.74036E-05-4.28617E-06 6.24836E-20-9.57293E-19
 -1      4105 8.22787E-05-2.04878E-05-2.64549E-05-5.74647E-06 6.60028E-19-3.02880E-19
 -1      4106 8.02364E-05-1.99966E-05-2.58599E-05-7.23872E-06 5.74082E-19 3.39667E-19
 -1      4107 8.41425E-05-2.18055E-05-2.67085E-05-6.71637E-06 9.48247E-19-1.04567E-18
 -1      4108 9.30525E-05-2.61931E-05-2.86506E-05-1.34397E-06-2.05858E-19 8.31845E-19
 -1      4109 9.32774E-05-2.63994E-05-2.86686E-05-1.13914E-06-3.94182E-19 7.52487E-19
 -1      4110 9.52838E-05-2.84070E-05-2.86607E-05-2.89625E-07-2.26461E-19 7.27720E-19
 -1      4111 9.53963E-05-2.85335E-05-2.86563E-05-2.73082E-07 2.41498E-22 7.37698E-19
 -1      4112 9.35637E-05-2.66290E-05-2.86842E-05-9.80847E-07-3.01252E-19 6.46016E-19
 -1      4113 9.37690E-05-2.68355E-05-2.86910E-05-8.31370E-07-9.07857E-20 6.32146E-19
 -1      4114 9.32600E-05-2.63557E-05-2.86668E-05-8.35152E-07-2.54955E-19 6.92043E-19
 -1      4115 8.30845E-05-2.32669E-05-2.56479E-05-1.15536E-05 1.25102E-18-1.01725E-18
 -1      4116 9.64327E-05-2.67500E-05-2.98620E-05 2.45431E-07 4.56292E-19 1.65275E-20
 -1      4117 9.61355E-05-2.57736E-05-3.01529E-05 2.93720E-07 3.70613E-19-6.80211E-21
 -1      4118 9.64761E-05-2.65654E-05-2.99620E-05 4.38899E-08 2.96933E-19-2.53725E-19
 -1      4119 9.65801E-05-2.73259E-05-2.96842E-05-2.39311E-08 4.03441E-19 5.54532E-20
 -1      4120 9.57731E-05-2.89357E-05-2.86431E-05-4.56504E-07 9.57493E-20 3.16109E-19
 -1      4121 9.58570E-05-2.90116E-05-2.86482E-05-4.68948E-07-3.47686E-20 3.46295E-19
 -1      4122 9.59681E-05-2.90762E-05-2.86696E-05-3.85787E-07-2.02277E-19-4.92463E-19
 -1      4123 9.44022E-05-2.74473E-05-2.86941E-05-5.40624E-07 6.10134E-20-1.92950E-19
 -1      4124 9.45607E-05-2.76264E-05-2.86891E-05-4.65424E-07-2.40507E-19-1.01104E-20
 -1      4125 9.24907E-05-2.57778E-05-2.85857E-05-1.84795E-06-9.71277E-19 9.56176E-19
 -1      4126 9.27237E-05-2.59640E-05-2.86196E-05-1.57023E-06-2.14657E-19 1.09844E-18
 -1      4127 9.26530E-05-2.58584E-05-2.86190E-05-1.19669E-06-2.76726E-19 8.81559E-19
 -1      4128 9.19065E-05-2.54371E-05-2.84782E-05-2.54075E-06-3.92889E-19 7.89551E-20
 -1      4129 9.21248E-05-2.55712E-05-2.85332E-05-2.16765E-06-6.84620E-19 6.20197E-19
 -1      4130 9.19670E-05-2.53711E-05-2.85334E-05-1.71725E-06-4.22383E-19 6.27747E-19
 -1      4131 9.13548E-05-2.52545E-05-2.83153E-05-3.48330E-06-9.16083E-19 9.16035E-19
 -1      4132 9.15190E-05-2.52880E-05-2.83969E-05-2.98728E-06-7.91644E-19 1.67445E-19
 -1      4133 9.12217E-05-2.49476E-05-2.83960E-05-2.45865E-06-8.14852E-19 5.72331E-19
 -1      4134 9.09309E-05-2.53531E-05-2.80845E-05-4.74882E-06-8.75107E-19 1.13926E-18
 -1      4135 9.09765E-05-2.52154E-05-2.81973E-05-4.09890E-06-8.60684E-19 9.95066E-19
 -1      4136 9.04617E-05-2.46718E-05-2.81907E-05-3.50195E-06-1.23993E-18 1.12697E-18
 -1      4137 9.07909E-05-2.59096E-05-2.77767E-05-6.41668E-06-4.76959E-19 1.51605E-18
 -1      4138 9.06174E-05-2.55005E-05-2.79219E-05-5.58416E-06-4.77068E-19 1.57173E-18
 -1      4139 8.97698E-05-2.46709E-05-2.78996E-05-4.94963E-06-8.65778E-19 1.06616E-18
 -1      4140 9.11737E-05-2.71701E-05-2.73933E-05-8.55446E-06-1.96376E-19 1.08726E-18
 -1      4141 9.06415E-05-2.63542E-05-2.75645E-05-7.52379E-06-2.16123E-19 1.48863E-18
 -1      4142 8.92925E-05-2.51362E-05-2.75068E-05-6.92361E-06-1.78408E-19 2.42110E-18
 -1      4143 9.24771E-05-2.94446E-05-2.69699E-05-1.11459E-05-3.59312E-19 6.37758E-19
 -1      4144 9.13474E-05-2.80266E-05-2.71365E-05-9.94086E-06-1.52647E-19 7.38563E-19
 -1      4145 8.93181E-05-2.63762E-05-2.70085E-05-9.52989E-06-7.42453E-20 1.15860E-18
 -1      4146 9.87415E-05-3.68699E-05-2.64673E-05-1.57320E-05-3.49666E-19-7.54665E-19
 -1      4147 9.65570E-05-2.67516E-05-2.99124E-05-8.32561E-09 4.27170E-19-5.27682E-19
 -1      4148 9.66281E-05-2.70128E-05-2.98394E-05-5.68458E-08 3.11108E-19-5.46405E-19
 -1      4149 9.67741E-05-2.75115E-05-2.96830E-05 4.41848E-08 3.81853E-19-4.15847E-19
 -1      4150 9.50265E-05-2.81240E-05-2.86718E-05-3.36831E-07-5.34781E-20 2.98825E-19
 -1      4151 9.51495E-05-2.82672E-05-2.86653E-05-3.05361E-07 6.03734E-20 6.99469E-19
 -1      4152 9.52097E-05-2.83202E-05-2.86661E-05-1.93276E-07 9.41129E-20 1.40168E-19
 -1      4153 9.63371E-05-2.92467E-05-2.87522E-05-5.60435E-07 1.77992E-19-2.98289E-19
 -1      4154 9.64222E-05-2.92439E-05-2.87895E-05-5.69114E-07 6.66920E-20-2.20683E-19
 -1      4155 9.63746E-05-2.92713E-05-2.87605E-05-4.43188E-07 2.46733E-19-8.34888E-19
 -1      4156 7.53239E-05-1.75961E-05-2.46534E-05-7.33288E-06 1.89206E-19 1.44633E-18
 -1      4157 9.69432E-05-2.85360E-05-2.93168E-05 1.87269E-07 1.88514E-19 6.05341E-20
 -1      4158 9.69352E-05-2.88053E-05-2.91997E-05 2.49698E-07 1.43403E-19 1.70423E-19
 -1      4159 9.69592E-05-2.88873E-05-2.91749E-05 1.40789E-07 1.61388E-19-1.17475E-19
 -1      4160 9.47365E-05-2.78048E-05-2.86843E-05-4.17035E-07-5.43805E-19-1.05454E-20
 -1      4161 9.48749E-05-2.79657E-05-2.86775E-05-3.66459E-07-4.86342E-19-8.88708E-20
 -1      4162 9.46055E-05-2.76630E-05-2.86866E-05-3.06906E-07-3.16785E-19-8.30202E-19
 -1      4163 9.65142E-05-2.92202E-05-2.88398E-05-5.81235E-07 1.21416E-19 5.46035E-20
 -1      4164 9.65885E-05-2.91640E-05-2.88946E-05-5.71080E-07 4.00546E-19 8.57170E-20
 -1      4165 9.67263E-05-2.91349E-05-2.89694E-05-4.47311E-07 2.58447E-19-1.28463E-19
 -1      4166 9.65681E-05-2.92630E-05-2.88472E-05-4.57855E-07 3.44607E-19-3.83374E-19
 -1      4167 9.40136E-05-2.70530E-05-2.86961E-05-7.22016E-07-2.10678E-19 3.64583E-19
 -1      4168 9.41951E-05-2.72485E-05-2.86954E-05-6.14824E-07 1.88240E-19 1.81349E-19
 -1      4169 9.42282E-05-2.72690E-05-2.86925E-05-4.18273E-07-1.34652E-19-7.89183E-19
 -1      4170 9.47302E-05-3.32321E-05-2.63398E-05-1.48539E-05-4.48947E-19-8.58574E-19
 -1      4171 9.55200E-05-2.86569E-05-2.86547E-05-2.67599E-07-1.51629E-19 5.34070E-19
 -1      4172 9.56274E-05-2.87672E-05-2.86543E-05-2.63700E-07-5.86003E-20 2.17043E-19
 -1      4173 9.54636E-05-2.85904E-05-2.86601E-05-1.71268E-07-1.29685E-19 9.54944E-20
 -1      4174 9.66717E-05-2.71243E-05-2.98036E-05 4.28783E-08 3.71629E-19-3.03966E-19
 -1      4175 9.68685E-05-2.79152E-05-2.95533E-05 6.46460E-08 4.63739E-19-4.06826E-19
 -1      4176 9.69178E-05-2.82606E-05-2.94248E-05 1.54609E-07 4.60232E-19-8.19723E-20
 -1      4177 9.69664E-05-2.83968E-05-2.93872E-05 8.01708E-08 4.27319E-19-3.17098E-19
 -1      4178 9.68566E-05-2.77424E-05-2.96200E-05 1.75286E-08 5.58612E-19-3.78811E-19
 -1      4179 8.63382E-05-2.44239E-05-2.64924E-05-9.78702E-06 5.71085E-19-6.41338E-20
 -1      4180 8.67268E-05-2.61484E-05-2.59462E-05-1.28556E-05 2.70223E-19-7.93981E-19
 -1      4181 9.37833E-05-2.68314E-05-2.86883E-05-5.86759E-07-1.71286E-19 4.61865E-19
 -1      4182 9.28541E-05-3.09835E-05-2.64997E-05-1.34670E-05-1.74141E-19-1.74629E-19
 -1      4183 9.67461E-05-2.82077E-05-2.93758E-05-3.02473E-07 4.75649E-19 1.45897E-19
 -1      4184 9.66969E-05-2.78281E-05-2.95149E-05-1.33435E-07 4.80217E-19 1.00388E-19
 -1      4185 9.67068E-05-2.74830E-05-2.96691E-05-3.78283E-08 3.71031E-19 3.29924E-19
 -1      4186 9.68448E-05-2.83196E-05-2.93682E-05-2.52366E-07 4.48674E-19 3.14836E-19
 -1      4187 9.49280E-05-2.80123E-05-2.86763E-05-2.35736E-07-6.45090E-20-3.51422E-19
 -1      4188 7.18550E-05-1.74746E-05-2.31580E-05-1.11433E-05-5.65011E-19 2.26243E-18
 -1      4189 9.63940E-05-2.92907E-05-2.87574E-05-3.17277E-07 2.38352E-19-5.75495E-19
 -1      4190 9.64968E-05-2.93082E-05-2.87937E-05-3.24231E-07 4.72716E-19-6.05875E-19
 -1      4191 9.57634E-05-2.89093E-05-2.86530E-05-3.67025E-07 2.75139E-19-3.68874E-19
 -1      4192 9.61801E-05-2.92008E-05-2.87039E-05-2.94979E-07-2.60122E-19-9.07636E-19
 -1      4193 9.62820E-05-2.92519E-05-2.87266E-05-3.04257E-07-6.82008E-20-8.15173E-19
 -1      4194 9.63800E-05-2.92899E-05-2.87554E-05-1.90633E-07 3.17510E-19-6.35966E-19
 -1      4195 9.68935E-05-2.89564E-05-2.91162E-05-3.04719E-07 2.05483E-19-1.78463E-19
 -1      4196 9.69244E-05-2.87539E-05-2.92150E-05-2.54391E-07 3.26241E-19-1.65230E-19
 -1      4197 9.35109E-05-2.65778E-05-2.86867E-05-3.12831E-07-3.68283E-19-1.53978E-19
 -1      4198 9.37600E-05-2.68224E-05-2.86928E-05-2.24367E-07-5.54723E-19-3.29069E-19
 -1      4199 9.67485E-05-2.93130E-05-2.88996E-05 3.04431E-08 8.14755E-19 7.47618E-20
 -1      4200 9.66491E-05-2.93363E-05-2.88466E-05 3.43521E-08 9.42202E-19 2.12779E-19
 -1      4201 9.65495E-05-2.93323E-05-2.88063E-05-2.06976E-08 8.11536E-19-2.67933E-20
 -1      4202 9.64431E-05-2.93116E-05-2.87694E-05-1.75343E-08 6.22770E-19 1.16576E-19
 -1      4203 9.63310E-05-2.92717E-05-2.87382E-05-1.83810E-08 3.01242E-19-1.11085E-20
 -1      4204 9.62164E-05-2.92147E-05-2.87141E-05-1.65612E-08 3.07128E-19-2.75365E-19
 -1      4205 9.58566E-05-2.89574E-05-2.86703E-05 2.80056E-08-5.34456E-19-1.57129E-19
 -1      4206 9.57389E-05-2.88530E-05-2.86647E-05 2.72779E-08-7.72144E-19-5.49479E-19
 -1      4207 9.56331E-05-2.87558E-05-2.86614E-05-1.80707E-08-5.23614E-19-4.85249E-19
 -1      4208 9.55113E-05-2.86351E-05-2.86613E-05-1.77166E-08-1.87798E-19-5.26846E-19
 -1      4209 9.53869E-05-2.85067E-05-2.86628E-05-2.50035E-08 4.27224E-20-5.61496E-19
 -1      4210 9.52533E-05-2.83669E-05-2.86664E-05-2.52996E-08 1.86918E-19-8.19346E-19
 -1      4211 9.51173E-05-2.82193E-05-2.86708E-05-3.90745E-08 5.52895E-20-7.52377E-19
 -1      4212 9.49662E-05-2.80584E-05-2.86763E-05-4.15428E-08 8.55284E-20-7.25860E-19
 -1      4213 9.48124E-05-2.78897E-05-2.86818E-05-6.51078E-08-1.39232E-19-8.33154E-19
 -1      4214 9.46353E-05-2.77043E-05-2.86873E-05-7.25719E-08-2.08227E-19-1.23473E-18
 -1      4215 9.44567E-05-2.75117E-05-2.86918E-05-1.10351E-07-5.68411E-20-1.68162E-18
 -1      4216 9.42439E-05-2.72984E-05-2.86948E-05-1.27740E-07-4.62443E-19-1.22390E-18
 -1      4217 9.40336E-05-2.70798E-05-2.86957E-05-1.86033E-07-6.19323E-19-6.55197E-19
 -1      4218 9.31893E-05-2.62995E-05-2.86740E-05-3.80590E-07-4.05629E-19 3.02215E-19
 -1      4219 9.28973E-05-2.60326E-05-2.86570E-05-5.12385E-07-4.36967E-19 4.35076E-19
 -1      4220 9.25039E-05-2.57241E-05-2.86289E-05-6.29910E-07-1.97957E-19 6.46720E-19
 -1      4221 9.21678E-05-2.54441E-05-2.85956E-05-8.24466E-07-4.11379E-19 5.47925E-19
 -1      4222 9.16906E-05-2.51125E-05-2.85448E-05-1.01877E-06-4.11471E-19 8.19492E-19
 -1      4223 9.13154E-05-2.48372E-05-2.84885E-05-1.30268E-06-6.57751E-19 6.34761E-19
 -1      4224 9.07440E-05-2.44976E-05-2.84052E-05-1.61187E-06-9.30036E-19 8.50095E-19
 -1      4225 9.03444E-05-2.42568E-05-2.83178E-05-2.02109E-06-1.31502E-18 8.78545E-19
 -1      4226 8.96722E-05-2.39359E-05-2.81893E-05-2.49757E-06-1.14722E-18 1.07386E-18
 -1      4227 8.92782E-05-2.37767E-05-2.80612E-05-3.07926E-06-1.00746E-18 1.38433E-18
 -1      4228 8.85050E-05-2.35171E-05-2.78710E-05-3.79360E-06-7.77381E-19 9.85978E-19
 -1      4229 8.81714E-05-2.35113E-05-2.76916E-05-4.60746E-06-6.24583E-19 9.46990E-19
 -1      4230 8.73067E-05-2.33766E-05-2.74180E-05-5.65494E-06-3.88897E-20 5.22568E-19
 -1      4231 8.71369E-05-2.36351E-05-2.71781E-05-6.77260E-06 5.29752E-19 6.15881E-19
 -1      4232 8.61933E-05-2.37085E-05-2.67926E-05-8.30075E-06 9.35482E-19 7.74258E-19
 -1      4233 9.67591E-05-2.75060E-05-2.96805E-05-1.61634E-08 4.63403E-19-1.69133E-19
 -1      4234 9.68479E-05-2.77054E-05-2.96369E-05-2.82010E-08 5.56711E-19-6.20681E-19
 -1      4235 9.69326E-05-2.80644E-05-2.95116E-05-3.44961E-09 5.78182E-19-5.10900E-19
 -1      4236 9.68708E-05-2.79896E-05-2.95159E-05-1.19316E-07 6.15004E-19-4.52775E-20
 -1      4237 7.37054E-05-1.93569E-05-2.32648E-05-1.33010E-05-6.09401E-19 2.53547E-18
 -1      4238 9.69240E-05-2.85276E-05-2.93126E-05-2.30302E-07 4.27721E-19-8.98000E-20
 -1      4239 9.69052E-05-2.81975E-05-2.94451E-05-1.41450E-07 5.87801E-19-2.86825E-21
 -1      4240 9.69661E-05-2.86360E-05-2.92855E-05-1.40449E-07 3.72864E-19-2.40168E-19
 -1      4241 8.96463E-05-2.85753E-05-2.62471E-05-1.34101E-05-1.02456E-19-5.15019E-19
 -1      4242 9.65916E-05-2.93292E-05-2.88293E-05-1.46136E-07 8.38475E-19-3.88709E-19
 -1      4243 9.69970E-05-2.87677E-05-2.92400E-05-2.82986E-08 2.20828E-19-3.91165E-19
 -1      4244 9.69939E-05-2.85386E-05-2.93374E-05 4.18624E-09 3.51760E-19-5.00385E-19
 -1      4245 9.57335E-05-2.88609E-05-2.86587E-05-2.23928E-07-2.57664E-19-3.13540E-19
 -1      4246 9.58398E-05-2.89577E-05-2.86636E-05-2.26336E-07-5.46272E-20-7.48195E-19
 -1      4247 9.59607E-05-2.90538E-05-2.86729E-05-2.54212E-07 1.02188E-20-7.63109E-19
 -1      4248 9.60633E-05-2.91303E-05-2.86853E-05-2.61399E-07-3.65997E-19-9.99720E-19
 -1      4249 9.61532E-05-2.91801E-05-2.87048E-05-1.56751E-07-2.49091E-20-1.15719E-18
 -1      4250 9.59156E-05-2.90089E-05-2.86758E-05-1.03646E-07-4.47836E-19-1.11466E-18
 -1      4251 9.68424E-05-2.91071E-05-2.90283E-05-3.09954E-07 2.68193E-19-1.44094E-19
 -1      4252 9.69176E-05-2.90264E-05-2.90979E-05-1.86208E-07 3.73680E-19-1.57668E-19
 -1      4253 9.67764E-05-2.92109E-05-2.89558E-05-3.32738E-07 3.33523E-19-1.02851E-19
 -1      4254 9.65992E-05-2.93109E-05-2.88371E-05-2.82001E-07 7.50746E-19-4.01197E-19
 -1      4255 9.69145E-05-2.91365E-05-2.90462E-05-2.84144E-08 2.93890E-19-2.44918E-19
 -1      4256 9.68386E-05-2.92380E-05-2.89713E-05-1.48348E-08 4.52318E-19-7.55279E-20
 -1      4257 9.69677E-05-2.89863E-05-2.91345E-05-9.38921E-09 2.43624E-19-2.49662E-19
 -1      4258 9.56892E-05-2.88121E-05-2.86627E-05-1.21784E-07-4.69817E-19-4.55267E-19
 -1      4259 9.59792E-05-2.90570E-05-2.86804E-05 7.50088E-09 5.88069E-21-3.33903E-19
 -1      4260 9.69671E-05-2.82674E-05-2.94422E-05-3.24422E-08 5.08599E-19-6.21489E-19
 -1      4261 9.60968E-05-2.91406E-05-2.86942E-05 7.10849E-09 4.03576E-19-4.28560E-19
 -1      4262 9.69347E-05-2.82155E-05-2.94546E-05-8.05459E-08 5.69495E-19-6.87946E-19
 -1      4263 9.67814E-05-2.92604E-05-2.89395E-05-1.52312E-07 6.63056E-19-2.65772E-19
 -1      4264 9.66919E-05-2.92830E-05-2.88886E-05-2.76301E-07 6.41263E-19-2.86787E-19
 -3
    1PSTEP                         4           1           1          
  100CL  101 1.000000000        4264                     0    1           1
 -4  ERROR       1    1
 -5  STR(%)      1    1    0    0
 -1         1 4.83034E+01
 -1         2 2.49865E+01
 -1         3 3.69579E-02
 -1         4 5.73821E-01
 -1         5 1.40396E+01
 -1         6 1.31437E+01
 -1         7 1.31437E+01
 -1         8 3.66371E+00
 -1         9 1.82387E+00
 -1        10 1.29118E+00
 -1        11 1.04606E+00
 -1        12 8.99309E-01
 -1        13 8.08929E-01
 -1        14 7.53977E-01
 -1        15 7.55943E-01
 -1        16 8.13175E-01
 -1        17 9.00778E-01
 -1        18 1.05281E+00
 -1        19 1.30638E+00
 -1        20 1.83142E+00
 -1        21 3.50864E+00
 -1        22 8.64218E+00
 -1        23 1.31437E+01
 -1        24 4.31808E+00
 -1        25 3.34138E+00
 -1        26 2.11189E+00
 -1        27 1.36315E+00
 -1        28 1.01442E+00
 -1        29 7.75670E-01
 -1        30 5.96192E-01
 -1        31 4.56390E-01
 -1        32 3.49211E-01
 -1        33 2.70965E-01
 -1        34 2.08386E-01
 -1        35 1.59445E-01
 -1        36 1.26199E-01
 -1        37 9.37574E-02
 -1        38 7.53249E-02
 -1        39 6.38701E-02
 -1        40 6.41807E-02
 -1        41 7.46098E-02
 -1        42 8.99805E-02
 -1        43 1.16366E-01
 -1        44 1.59545E-01
 -1        45 2.19387E-01
 -1        46 3.00286E-01
 -1        47 4.07254E-01
 -1        48 5.73742E-01
 -1        49 7.27167E-01
 -1        50 9.31583E-01
 -1        51 1.19711E+00
 -1        52 1.62471E+00
 -1        53 2.10331E+00
 -1        54 2.73107E+00
 -1        55 3.23236E+00
 -1        56 3.23236E+00
 -1        57 3.13045E+00
 -1        58 3.62098E+00
 -1        59 7.18472E+00
 -1        60 9.61442E+00
 -1        61 9.61442E+00
 -1        62 9.43415E+00
 -1        63 6.87286E+00
 -1        64 3.32005E+00
 -1        65 3.11967E+00
 -1        66 3.11967E+00
 -1        67 3.08566E+00
 -1        68 2.39714E+00
 -1        69 1.99141E+00
 -1        70 1.81507E+00
 -1        71 1.36843E+00
 -1        72 1.40396E+01
 -1        73 3.39592E+00
 -1        74 2.41776E+00
 -1        75 1.66774E+00
 -1        76 1.14786E+00
 -1        77 9.06539E-01
 -1        78 7.31830E-01
 -1        79 5.88456E-01
 -1        80 4.69209E-01
 -1        81 3.70229E-01
 -1        82 2.96302E-01
 -1        83 2.35355E-01
 -1        84 1.85476E-01
 -1        85 1.45928E-01
 -1        86 1.15776E-01
 -1        87 9.40418E-02
 -1        88 7.97770E-02
 -1        89 7.41469E-02
 -1        90 8.17001E-02
 -1        91 9.32012E-02
 -1        92 1.07036E-01
 -1        93 1.24295E-01
 -1        94 1.53478E-01
 -1        95 1.83996E-01
 -1        96 2.11517E-01
 -1        97 2.29452E-01
 -1        98 2.37374E-01
 -1        99 2.78201E-01
 -1       100 3.54194E-01
 -1       101 4.09894E-01
 -1       102 5.36476E-01
 -1       103 6.87023E-01
 -1       104 7.51634E-01
 -1       105 9.86102E-01
 -1       106 1.13967E+00
 -1       107 1.43410E+00
 -1       108 1.96445E+00
 -1       109 2.23144E+00
 -1       110 2.35236E+00
 -1       111 2.41499E+00
 -1       112 2.41499E+00
 -1       113 2.07043E+00
 -1       114 1.52347E+00
 -1       115 1.00960E+00
 -1       116 5.58887E-01
 -1       117 2.43605E-01
 -1       118 1.34461E-01
 -1       119 1.15496E-01
 -1       120 8.51736E-02
 -1       121 5.01430E-02
 -1       122 1.00411E-01
 -1       123 1.53010E-01
 -1       124 1.87305E-01
 -1       125 1.96874E-01
 -1       126 1.96874E-01
 -1       127 1.53780E-01
 -1       128 1.54089E-01
 -1       129 3.32238E-01
 -1       130 4.35855E-01
 -1       131 4.35855E-01
 -1       132 4.19384E-01
 -1       133 2.69042E-01
 -1       134 2.91292E-01
 -1       135 3.76148E-01
 -1       136 3.76148E-01
 -1       137 2.49865E+01
 -1       138 4.61972E+01
 -1       139 4.61972E+01
 -1       140 1.84849E+01
 -1       141 1.21924E+01
 -1       142 1.33894E+01
 -1       143 1.33894E+01
 -1       144 1.21695E+01
 -1       145 1.23346E+01
 -1       146 1.24430E+01
 -1       147 2.66281E+01
 -1       148 2.88610E+01
 -1       149 2.88610E+01
 -1       150 2.47493E+01
 -1       151 2.47493E+01
 -1       152 2.49582E+01
 -1       153 4.83034E+01
 -1       154 2.15184E+01
 -1       155 1.20719E+01
 -1       156 1.24362E+01
 -1       157 1.24362E+01
 -1       158 1.32597E+01
 -1       159 1.32597E+01
 -1       160 1.28385E+01
 -1       161 2.81428E+01
 -1       162 2.99048E+01
 -1       163 2.80100E+01
 -1       164 2.41992E+01
 -1       165 6.07795E+00
 -1       166 2.29813E+00
 -1       167 1.50804E+00
 -1       168 1.15739E+00
 -1       169 9.73293E-01
 -1       170 8.64188E-01
 -1       171 7.96139E-01
 -1       172 7.55943E-01
 -1       173 7.99524E-01
 -1       174 8.67194E-01
 -1       175 9.81017E-01
 -1       176 1.17160E+00
 -1       177 1.52717E+00
 -1       178 2.25919E+00
 -1       179 3.93343E+00
 -1       180 1.40396E+01
 -1       181 4.31808E+00
 -1       182 3.34138E+00
 -1       183 2.11189E+00
 -1       184 1.44765E+00
 -1       185 1.02622E+00
 -1       186 7.75670E-01
 -1       187 5.96192E-01
 -1       188 4.69050E-01
 -1       189 3.69438E-01
 -1       190 2.91596E-01
 -1       191 2.35393E-01
 -1       192 1.87884E-01
 -1       193 1.51823E-01
 -1       194 1.16540E-01
 -1       195 9.28423E-02
 -1       196 7.51480E-02
 -1       197 6.24159E-02
 -1       198 6.41807E-02
 -1       199 7.47471E-02
 -1       200 9.73731E-02
 -1       201 1.29778E-01
 -1       202 1.74415E-01
 -1       203 2.34278E-01
 -1       204 3.12684E-01
 -1       205 4.48136E-01
 -1       206 6.45002E-01
 -1       207 9.00991E-01
 -1       208 1.22184E+00
 -1       209 1.59398E+00
 -1       210 1.97083E+00
 -1       211 2.27379E+00
 -1       212 2.73107E+00
 -1       213 3.23236E+00
 -1       214 3.13045E+00
 -1       215 3.05902E+00
 -1       216 3.68523E+00
 -1       217 7.18472E+00
 -1       218 9.61442E+00
 -1       219 9.43415E+00
 -1       220 6.87286E+00
 -1       221 3.51821E+00
 -1       222 2.85550E+00
 -1       223 3.11967E+00
 -1       224 3.08566E+00
 -1       225 2.39714E+00
 -1       226 1.99141E+00
 -1       227 1.81507E+00
 -1       228 1.36843E+00
 -1       229 6.55976E-01
 -1       230 3.39592E+00
 -1       231 2.41776E+00
 -1       232 1.66774E+00
 -1       233 1.14786E+00
 -1       234 9.06539E-01
 -1       235 7.31830E-01
 -1       236 5.88456E-01
 -1       237 4.69209E-01
 -1       238 3.70229E-01
 -1       239 2.96302E-01
 -1       240 2.35355E-01
 -1       241 1.87874E-01
 -1       242 1.49842E-01
 -1       243 1.19796E-01
 -1       244 9.70708E-02
 -1       245 8.09029E-02
 -1       246 7.20895E-02
 -1       247 7.41469E-02
 -1       248 8.17001E-02
 -1       249 9.32012E-02
 -1       250 1.10642E-01
 -1       251 1.34161E-01
 -1       252 1.58212E-01
 -1       253 1.99340E-01
 -1       254 2.44146E-01
 -1       255 2.88305E-01
 -1       256 3.33778E-01
 -1       257 3.54913E-01
 -1       258 3.54913E-01
 -1       259 4.09894E-01
 -1       260 5.36476E-01
 -1       261 6.87023E-01
 -1       262 8.00857E-01
 -1       263 1.17301E+00
 -1       264 1.60754E+00
 -1       265 1.89833E+00
 -1       266 1.96445E+00
 -1       267 2.23144E+00
 -1       268 2.35236E+00
 -1       269 2.41499E+00
 -1       270 2.07043E+00
 -1       271 1.52347E+00
 -1       272 1.06755E+00
 -1       273 6.77584E-01
 -1       274 4.18000E-01
 -1       275 2.90267E-01
 -1       276 2.14233E-01
 -1       277 1.14446E-01
 -1       278 1.14446E-01
 -1       279 2.67935E-01
 -1       280 3.35144E-01
 -1       281 3.66007E-01
 -1       282 3.66810E-01
 -1       283 3.66810E-01
 -1       284 2.72629E-01
 -1       285 5.36508E-01
 -1       286 8.04994E-01
 -1       287 8.51441E-01
 -1       288 8.51441E-01
 -1       289 7.51598E-01
 -1       290 4.15205E-01
 -1       291 1.04163E+00
 -1       292 1.04163E+00
 -1       293 2.97861E+01
 -1       294 2.63870E+01
 -1       295 4.61972E+01
 -1       296 1.95941E+01
 -1       297 1.06468E+01
 -1       298 1.21924E+01
 -1       299 1.33894E+01
 -1       300 1.21695E+01
 -1       301 1.20548E+01
 -1       302 1.23346E+01
 -1       303 1.24430E+01
 -1       304 2.78603E+01
 -1       305 2.88610E+01
 -1       306 2.43641E+01
 -1       307 2.98105E+01
 -1       308 2.98105E+01
 -1       309 2.69094E+01
 -1       310 4.83034E+01
 -1       311 2.37894E+01
 -1       312 1.16256E+01
 -1       313 1.20719E+01
 -1       314 1.24362E+01
 -1       315 1.19642E+01
 -1       316 1.32597E+01
 -1       317 1.24065E+01
 -1       318 1.28385E+01
 -1       319 2.99048E+01
 -1       320 2.99048E+01
 -1       321 2.41992E+01
 -1       322 2.97861E+01
 -1       323 1.04711E+00
 -1       324 2.48015E+00
 -1       325 7.91901E-01
 -1       326 6.94068E-01
 -1       327 6.31796E-01
 -1       328 5.87646E-01
 -1       329 5.90895E-01
 -1       330 6.34558E-01
 -1       331 7.01224E-01
 -1       332 7.96399E-01
 -1       333 9.30494E-01
 -1       334 1.14473E+00
 -1       335 1.32955E+00
 -1       336 2.19689E+00
 -1       337 1.91322E+00
 -1       338 1.72955E+00
 -1       339 1.26788E+00
 -1       340 9.07636E-01
 -1       341 6.56716E-01
 -1       342 5.39184E-01
 -1       343 4.42354E-01
 -1       344 3.57171E-01
 -1       345 2.91887E-01
 -1       346 2.37076E-01
 -1       347 1.90218E-01
 -1       348 1.55737E-01
 -1       349 1.23773E-01
 -1       350 9.96174E-02
 -1       351 7.96826E-02
 -1       352 6.33280E-02
 -1       353 5.64229E-02
 -1       354 5.99763E-02
 -1       355 7.47471E-02
 -1       356 9.73731E-02
 -1       357 1.33722E-01
 -1       358 1.99330E-01
 -1       359 2.89615E-01
 -1       360 4.17952E-01
 -1       361 5.88146E-01
 -1       362 8.09045E-01
 -1       363 1.08980E+00
 -1       364 1.42893E+00
 -1       365 1.80551E+00
 -1       366 2.16509E+00
 -1       367 2.41215E+00
 -1       368 2.75637E+00
 -1       369 3.40229E+00
 -1       370 3.63340E+00
 -1       371 4.42668E+00
 -1       372 3.40138E+00
 -1       373 5.73089E+00
 -1       374 6.42566E+00
 -1       375 5.63492E+00
 -1       376 3.34995E+00
 -1       377 3.78894E+00
 -1       378 2.93195E+00
 -1       379 2.48159E+00
 -1       380 2.16674E+00
 -1       381 1.86529E+00
 -1       382 1.46556E+00
 -1       383 1.22798E+00
 -1       384 1.13477E+00
 -1       385 8.15382E-01
 -1       386 6.31372E-01
 -1       387 5.17393E-01
 -1       388 4.17949E-01
 -1       389 3.37142E-01
 -1       390 2.73255E-01
 -1       391 2.19216E-01
 -1       392 1.76647E-01
 -1       393 1.43420E-01
 -1       394 1.15218E-01
 -1       395 9.18168E-02
 -1       396 7.26473E-02
 -1       397 5.69308E-02
 -1       398 5.30800E-02
 -1       399 6.08256E-02
 -1       400 7.31205E-02
 -1       401 8.98936E-02
 -1       402 1.10642E-01
 -1       403 1.44723E-01
 -1       404 1.82708E-01
 -1       405 2.19673E-01
 -1       406 2.52713E-01
 -1       407 2.88376E-01
 -1       408 3.33778E-01
 -1       409 3.54913E-01
 -1       410 3.30677E-01
 -1       411 3.03473E-01
 -1       412 3.20687E-01
 -1       413 5.87954E-01
 -1       414 9.16439E-01
 -1       415 1.26580E+00
 -1       416 1.60754E+00
 -1       417 1.89833E+00
 -1       418 1.96218E+00
 -1       419 1.87408E+00
 -1       420 1.88570E+00
 -1       421 1.67025E+00
 -1       422 1.37283E+00
 -1       423 1.08432E+00
 -1       424 7.92219E-01
 -1       425 6.17646E-01
 -1       426 4.65443E-01
 -1       427 3.14921E-01
 -1       428 2.14233E-01
 -1       429 4.90807E-01
 -1       430 4.15539E-01
 -1       431 5.16716E-01
 -1       432 5.34104E-01
 -1       433 5.34104E-01
 -1       434 6.07279E-01
 -1       435 1.07537E+00
 -1       436 1.27609E+00
 -1       437 1.30600E+00
 -1       438 1.30600E+00
 -1       439 1.01371E+00
 -1       440 9.87326E-01
 -1       441 1.35839E+00
 -1       442 2.63870E+01
 -1       443 8.64896E+00
 -1       444 3.17817E+01
 -1       445 1.58481E+01
 -1       446 9.17203E-01
 -1       447 7.85915E+00
 -1       448 9.36424E+00
 -1       449 1.10582E+01
 -1       450 1.02611E+01
 -1       451 9.32992E+00
 -1       452 6.10047E+00
 -1       453 1.14013E+01
 -1       454 1.98591E+01
 -1       455 2.23391E+01
 -1       456 3.23795E+01
 -1       457 3.23795E+01
 -1       458 2.96491E+01
 -1       459 2.69094E+01
 -1       460 1.74122E+01
 -1       461 9.73349E+00
 -1       462 7.28139E+00
 -1       463 9.45045E+00
 -1       464 1.05362E+01
 -1       465 1.09755E+01
 -1       466 9.10982E+00
 -1       467 7.35085E+00
 -1       468 1.10018E+01
 -1       469 1.99785E+01
 -1       470 2.54692E+01
 -1       471 3.17817E+01
 -1       472 2.87378E+01
 -1       473 2.22574E+01
 -1       474 4.86450E-01
 -1       475 5.10668E-01
 -1       476 4.31663E-01
 -1       477 4.57551E-01
 -1       478 4.87154E-01
 -1       479 5.11005E-01
 -1       480 5.11005E-01
 -1       481 5.03777E-01
 -1       482 6.39414E-01
 -1       483 1.31606E+00
 -1       484 8.03333E-01
 -1       485 1.23857E+01
 -1       486 7.76622E+00
 -1       487 7.02686E-01
 -1       488 5.89345E-01
 -1       489 4.77126E-01
 -1       490 3.78588E-01
 -1       491 3.23984E-01
 -1       492 2.74259E-01
 -1       493 2.27311E-01
 -1       494 1.88519E-01
 -1       495 1.55737E-01
 -1       496 1.24483E-01
 -1       497 9.98892E-02
 -1       498 7.96826E-02
 -1       499 6.33280E-02
 -1       500 5.15965E-02
 -1       501 4.77231E-02
 -1       502 5.72488E-02
 -1       503 7.49254E-02
 -1       504 1.15825E-01
 -1       505 1.70412E-01
 -1       506 2.43459E-01
 -1       507 3.45167E-01
 -1       508 4.78394E-01
 -1       509 6.51842E-01
 -1       510 8.77752E-01
 -1       511 1.16798E+00
 -1       512 1.53421E+00
 -1       513 1.98539E+00
 -1       514 2.52430E+00
 -1       515 3.12724E+00
 -1       516 3.70691E+00
 -1       517 7.10261E+00
 -1       518 1.09080E+01
 -1       519 5.52820E+00
 -1       520 7.80151E+00
 -1       521 4.14118E+00
 -1       522 5.02398E+00
 -1       523 5.36126E+00
 -1       524 4.10217E+00
 -1       525 2.77661E+00
 -1       526 2.28627E+00
 -1       527 1.75627E+00
 -1       528 1.34265E+00
 -1       529 4.45193E-01
 -1       530 5.62680E-01
 -1       531 6.92179E-01
 -1       532 3.67756E-01
 -1       533 3.13273E-01
 -1       534 2.60678E-01
 -1       535 2.15089E-01
 -1       536 1.77585E-01
 -1       537 1.44408E-01
 -1       538 1.15986E-01
 -1       539 9.21599E-02
 -1       540 7.26473E-02
 -1       541 5.69308E-02
 -1       542 4.55329E-02
 -1       543 4.82782E-02
 -1       544 5.62875E-02
 -1       545 6.85842E-02
 -1       546 9.70123E-02
 -1       547 1.29447E-01
 -1       548 1.64870E-01
 -1       549 2.00870E-01
 -1       550 2.33165E-01
 -1       551 2.65522E-01
 -1       552 2.87718E-01
 -1       553 3.01722E-01
 -1       554 2.91899E-01
 -1       555 3.35325E-01
 -1       556 3.94662E-01
 -1       557 5.29611E-01
 -1       558 7.55716E-01
 -1       559 1.04028E+00
 -1       560 1.24933E+00
 -1       561 1.39494E+00
 -1       562 1.45221E+00
 -1       563 1.37968E+00
 -1       564 1.41864E+00
 -1       565 1.42384E+00
 -1       566 1.33470E+00
 -1       567 1.18766E+00
 -1       568 1.02184E+00
 -1       569 8.40604E-01
 -1       570 6.43350E-01
 -1       571 4.96408E-01
 -1       572 7.49842E-01
 -1       573 6.45801E-01
 -1       574 6.45801E-01
 -1       575 2.87378E+01
 -1       576 7.95073E-01
 -1       577 1.01105E+00
 -1       578 1.18661E+00
 -1       579 1.79305E+00
 -1       580 1.85204E+00
 -1       581 1.85204E+00
 -1       582 1.77155E+00
 -1       583 1.35301E+00
 -1       584 2.54692E+01
 -1       585 8.73666E-01
 -1       586 5.93694E+00
 -1       587 3.17817E+01
 -1       588 5.05336E+00
 -1       589 4.57434E-01
 -1       590 3.91783E+00
 -1       591 4.77316E+00
 -1       592 6.93722E+00
 -1       593 8.47369E+00
 -1       594 7.48501E+00
 -1       595 9.84697E+00
 -1       596 1.54618E+01
 -1       597 2.23391E+01
 -1       598 3.23795E+01
 -1       599 2.96491E+01
 -1       600 1.46492E+01
 -1       601 8.46677E+00
 -1       602 6.10159E+00
 -1       603 7.09963E+00
 -1       604 7.59260E+00
 -1       605 1.02102E+01
 -1       606 1.50667E+01
 -1       607 2.04656E+01
 -1       608 7.15951E-01
 -1       609 7.47495E-01
 -1       610 6.20750E+00
 -1       611 8.77738E+00
 -1       612 6.30363E-01
 -1       613 1.57585E+01
 -1       614 3.38953E+00
 -1       615 3.58449E-01
 -1       616 3.42869E-01
 -1       617 3.61326E-01
 -1       618 3.42848E-01
 -1       619 5.93775E-01
 -1       620 3.26355E+00
 -1       621 1.27218E+01
 -1       622 7.57722E+00
 -1       623 4.06012E-01
 -1       624 3.97688E-01
 -1       625 3.84627E-01
 -1       626 3.43802E-01
 -1       627 2.94299E-01
 -1       628 2.44714E-01
 -1       629 2.13299E-01
 -1       630 1.80734E-01
 -1       631 1.49001E-01
 -1       632 1.20331E-01
 -1       633 9.77533E-02
 -1       634 7.84132E-02
 -1       635 6.19541E-02
 -1       636 4.76434E-02
 -1       637 3.44915E-02
 -1       638 3.74135E-02
 -1       639 5.46371E-02
 -1       640 8.68778E-02
 -1       641 1.28092E-01
 -1       642 1.81287E-01
 -1       643 2.53039E-01
 -1       644 3.45167E-01
 -1       645 4.92840E-01
 -1       646 6.94182E-01
 -1       647 9.63410E-01
 -1       648 1.31522E+00
 -1       649 1.78838E+00
 -1       650 2.38527E+00
 -1       651 3.21835E+00
 -1       652 5.07456E+00
 -1       653 7.49292E+00
 -1       654 9.39076E+00
 -1       655 5.36126E+00
 -1       656 4.75674E+00
 -1       657 3.86521E+00
 -1       658 2.50303E+00
 -1       659 1.57947E+00
 -1       660 3.87859E-01
 -1       661 3.34353E-01
 -1       662 4.29864E-01
 -1       663 2.37898E-01
 -1       664 2.03039E-01
 -1       665 1.68909E-01
 -1       666 1.39160E-01
 -1       667 1.13577E-01
 -1       668 9.16407E-02
 -1       669 7.25901E-02
 -1       670 5.60851E-02
 -1       671 4.21471E-02
 -1       672 3.30333E-02
 -1       673 3.78827E-02
 -1       674 5.33128E-02
 -1       675 7.91456E-02
 -1       676 1.09047E-01
 -1       677 1.42996E-01
 -1       678 1.80138E-01
 -1       679 2.18374E-01
 -1       680 2.57276E-01
 -1       681 2.93066E-01
 -1       682 3.35736E-01
 -1       683 3.75483E-01
 -1       684 3.93071E-01
 -1       685 5.24152E-01
 -1       686 6.55317E-01
 -1       687 7.55716E-01
 -1       688 1.04297E+00
 -1       689 1.17792E+00
 -1       690 1.32269E+00
 -1       691 1.62172E+00
 -1       692 1.66667E+00
 -1       693 1.69999E+00
 -1       694 1.68643E+00
 -1       695 1.42873E+00
 -1       696 1.29345E+00
 -1       697 1.25392E+00
 -1       698 1.02184E+00
 -1       699 8.40604E-01
 -1       700 6.91367E-01
 -1       701 8.30916E-01
 -1       702 1.26555E+00
 -1       703 6.91367E-01
 -1       704 1.12260E+00
 -1       705 2.07034E+00
 -1       706 2.72945E+00
 -1       707 3.00211E+00
 -1       708 3.00211E+00
 -1       709 1.68311E+01
 -1       710 1.63525E+01
 -1       711 1.31913E+01
 -1       712 6.09998E+00
 -1       713 1.75853E+00
 -1       714 1.10979E+01
 -1       715 3.84201E+00
 -1       716 3.61326E-01
 -1       717 1.19130E+01
 -1       718 8.48154E+00
 -1       719 3.60679E-01
 -1       720 5.34770E+00
 -1       721 1.28884E+01
 -1       722 3.61881E+00
 -1       723 1.60602E+01
 -1       724 5.34033E+00
 -1       725 1.09080E+01
 -1       726 1.26179E+01
 -1       727 5.93379E+00
 -1       728 6.48216E+00
 -1       729 2.79074E-01
 -1       730 3.42498E-01
 -1       731 3.53195E+00
 -1       732 3.60679E-01
 -1       733 2.30293E+00
 -1       734 4.16304E-01
 -1       735 9.40200E+00
 -1       736 4.27388E-01
 -1       737 1.02375E+01
 -1       738 3.17720E+00
 -1       739 3.57893E-01
 -1       740 2.41623E-01
 -1       741 9.97875E+00
 -1       742 3.55255E+00
 -1       743 7.58343E+00
 -1       744 2.33708E-01
 -1       745 2.55922E-01
 -1       746 2.49032E-01
 -1       747 2.27276E-01
 -1       748 1.98891E-01
 -1       749 1.72127E-01
 -1       750 1.50338E-01
 -1       751 1.26937E-01
 -1       752 1.04785E-01
 -1       753 8.41529E-02
 -1       754 6.52046E-02
 -1       755 4.77268E-02
 -1       756 3.11645E-02
 -1       757 2.58633E-02
 -1       758 3.75319E-02
 -1       759 6.54910E-02
 -1       760 1.01824E-01
 -1       761 1.52953E-01
 -1       762 2.27010E-01
 -1       763 3.20937E-01
 -1       764 4.49685E-01
 -1       765 6.24614E-01
 -1       766 8.63293E-01
 -1       767 1.19176E+00
 -1       768 1.64934E+00
 -1       769 2.30095E+00
 -1       770 3.23193E+00
 -1       771 4.29179E+00
 -1       772 5.96495E+00
 -1       773 8.41997E+00
 -1       774 3.17953E-01
 -1       775 5.41432E+00
 -1       776 3.69255E+00
 -1       777 2.69714E-01
 -1       778 2.68776E-01
 -1       779 1.67072E-01
 -1       780 1.89625E-01
 -1       781 1.19870E-01
 -1       782 9.75668E-02
 -1       783 7.70857E-02
 -1       784 5.84193E-02
 -1       785 4.11780E-02
 -1       786 2.47012E-02
 -1       787 2.06106E-02
 -1       788 3.50420E-02
 -1       789 5.73543E-02
 -1       790 8.37078E-02
 -1       791 1.15111E-01
 -1       792 1.53528E-01
 -1       793 1.97631E-01
 -1       794 2.45923E-01
 -1       795 2.94778E-01
 -1       796 3.47878E-01
 -1       797 4.21444E-01
 -1       798 5.06990E-01
 -1       799 5.79554E-01
 -1       800 7.54510E-01
 -1       801 9.78316E-01
 -1       802 1.12987E+00
 -1       803 1.41691E+00
 -1       804 1.55217E+00
 -1       805 2.43916E+00
 -1       806 3.73277E+00
 -1       807 4.38237E+00
 -1       808 3.50832E+00
 -1       809 2.38677E+00
 -1       810 1.54274E+00
 -1       811 1.55938E+00
 -1       812 1.25392E+00
 -1       813 1.11300E+00
 -1       814 8.27931E-01
 -1       815 6.01120E+00
 -1       816 9.35009E+00
 -1       817 6.01120E+00
 -1       818 4.02245E+00
 -1       819 8.34679E+00
 -1       820 7.84132E+00
 -1       821 9.51512E+00
 -1       822 3.27984E+00
 -1       823 1.43469E-01
 -1       824 4.38237E+00
 -1       825 1.94146E-01
 -1       826 8.46237E+00
 -1       827 5.46828E+00
 -1       828 4.38237E+00
 -1       829 9.76180E+00
 -1       830 2.46084E+00
 -1       831 2.88629E-01
 -1       832 2.20097E+00
 -1       833 3.73277E+00
 -1       834 4.48137E+00
 -1       835 3.50832E+00
 -1       836 2.89593E+00
 -1       837 6.47502E+00
 -1       838 6.63657E+00
 -1       839 2.79399E-01
 -1       840 2.50469E-01
 -1       841 2.81755E-01
 -1       842 2.21634E-01
 -1       843 9.31058E+00
 -1       844 1.72200E+00
 -1       845 2.80299E-01
 -1       846 2.27662E-01
 -1       847 1.40876E+00
 -1       848 3.39048E+00
 -1       849 2.88629E-01
 -1       850 2.88790E-01
 -1       851 6.69624E+00
 -1       852 1.74687E-01
 -1       853 1.82834E-01
 -1       854 1.75563E-01
 -1       855 1.59655E-01
 -1       856 1.39033E-01
 -1       857 1.22394E-01
 -1       858 1.05377E-01
 -1       859 8.80205E-02
 -1       860 7.11830E-02
 -1       861 5.52496E-02
 -1       862 4.01887E-02
 -1       863 3.70065E-02
 -1       864 4.09127E-02
 -1       865 5.83857E-02
 -1       866 9.05439E-02
 -1       867 1.32774E-01
 -1       868 1.94587E-01
 -1       869 2.65240E-01
 -1       870 3.63055E-01
 -1       871 4.93114E-01
 -1       872 6.68115E-01
 -1       873 9.09153E-01
 -1       874 1.25491E+00
 -1       875 1.77760E+00
 -1       876 2.65421E+00
 -1       877 3.47920E+00
 -1       878 1.73667E-01
 -1       879 8.30579E-02
 -1       880 1.00882E-01
 -1       881 5.01204E-02
 -1       882 3.49128E-02
 -1       883 3.35844E-02
 -1       884 3.55355E-02
 -1       885 5.48581E-02
 -1       886 7.99181E-02
 -1       887 1.08820E-01
 -1       888 1.41105E-01
 -1       889 1.76756E-01
 -1       890 2.21329E-01
 -1       891 2.82271E-01
 -1       892 3.55076E-01
 -1       893 4.42311E-01
 -1       894 5.43720E-01
 -1       895 7.04459E-01
 -1       896 8.74054E-01
 -1       897 1.03504E+00
 -1       898 2.10981E+00
 -1       899 1.41691E+00
 -1       900 1.87923E+00
 -1       901 2.46084E+00
 -1       902 2.89593E+00
 -1       903 1.60573E+00
 -1       904 1.21011E+00
 -1       905 1.22935E-01
 -1       906 5.94679E+00
 -1       907 1.25654E-01
 -1       908 3.42861E+00
 -1       909 6.11101E+00
 -1       910 6.63657E+00
 -1       911 2.61238E+00
 -1       912 2.88790E-01
 -1       913 6.60905E-02
 -1       914 1.51061E-01
 -1       915 2.11533E-01
 -1       916 1.55237E-01
 -1       917 3.07073E+00
 -1       918 5.52596E+00
 -1       919 5.22072E+00
 -1       920 5.61101E+00
 -1       921 1.91038E-01
 -1       922 4.57185E+00
 -1       923 5.94679E+00
 -1       924 2.16171E-01
 -1       925 1.74958E-01
 -1       926 1.35690E-01
 -1       927 2.38677E+00
 -1       928 2.07710E-01
 -1       929 3.24356E+00
 -1       930 2.16171E-01
 -1       931 5.88934E+00
 -1       932 1.79496E+00
 -1       933 2.90092E+00
 -1       934 1.18873E-01
 -1       935 1.58337E-01
 -1       936 1.23612E-01
 -1       937 1.36331E-01
 -1       938 1.35459E-01
 -1       939 1.26032E-01
 -1       940 1.12135E-01
 -1       941 9.72458E-02
 -1       942 8.43899E-02
 -1       943 7.09386E-02
 -1       944 5.77233E-02
 -1       945 4.51609E-02
 -1       946 4.42717E-02
 -1       947 4.71105E-02
 -1       948 5.34576E-02
 -1       949 7.28725E-02
 -1       950 1.04218E-01
 -1       951 1.50739E-01
 -1       952 1.97154E-01
 -1       953 2.61399E-01
 -1       954 3.42010E-01
 -1       955 4.53142E-01
 -1       956 6.12426E-01
 -1       957 8.64282E-01
 -1       958 1.23708E+00
 -1       959 1.82070E+00
 -1       960 2.27461E+00
 -1       961 1.88773E-01
 -1       962 2.54925E+00
 -1       963 4.27117E-02
 -1       964 4.23570E-02
 -1       965 5.10070E-02
 -1       966 7.43650E-02
 -1       967 1.02888E-01
 -1       968 1.36992E-01
 -1       969 1.76756E-01
 -1       970 2.21329E-01
 -1       971 2.71867E-01
 -1       972 3.43461E-01
 -1       973 4.38406E-01
 -1       974 5.91636E-01
 -1       975 7.72110E-01
 -1       976 9.65154E-01
 -1       977 1.23768E+00
 -1       978 2.26837E+00
 -1       979 4.07936E+00
 -1       980 1.27972E-01
 -1       981 1.72361E-01
 -1       982 2.18345E-01
 -1       983 3.88680E+00
 -1       984 1.78328E-01
 -1       985 2.18345E-01
 -1       986 1.90474E+00
 -1       987 4.50656E-02
 -1       988 8.17743E-02
 -1       989 2.54951E+00
 -1       990 4.02343E+00
 -1       991 1.37231E-01
 -1       992 4.02343E+00
 -1       993 6.78619E-02
 -1       994 5.47142E+00
 -1       995 9.56666E-02
 -1       996 5.44226E-02
 -1       997 1.24798E-01
 -1       998 1.18027E-01
 -1       999 1.79485E-01
 -1      1000 1.52142E-01
 -1      1001 1.01965E-01
 -1      1002 1.03176E-01
 -1      1003 9.73078E-02
 -1      1004 8.75872E-02
 -1      1005 7.59655E-02
 -1      1006 6.43399E-02
 -1      1007 5.44617E-02
 -1      1008 4.91534E-02
 -1      1009 4.78989E-02
 -1      1010 4.88981E-02
 -1      1011 5.34576E-02
 -1      1012 6.69033E-02
 -1      1013 8.64563E-02
 -1      1014 1.20014E-01
 -1      1015 1.54804E-01
 -1      1016 2.08312E-01
 -1      1017 2.79890E-01
 -1      1018 3.75335E-01
 -1      1019 5.02394E-01
 -1      1020 6.71996E-01
 -1      1021 8.98848E-01
 -1      1022 1.36641E+00
 -1      1023 2.47819E+00
 -1      1024 1.20315E-01
 -1      1025 4.79608E-02
 -1      1026 8.82259E-02
 -1      1027 6.70174E-02
 -1      1028 1.60733E-01
 -1      1029 2.10912E-01
 -1      1030 2.71867E-01
 -1      1031 3.43461E-01
 -1      1032 4.36565E-01
 -1      1033 5.76257E-01
 -1      1034 7.75508E-01
 -1      1035 1.09527E+00
 -1      1036 1.63732E+00
 -1      1037 2.27182E+00
 -1      1038 1.79485E-01
 -1      1039 1.09203E-01
 -1      1040 1.43422E-01
 -1      1041 5.02184E-02
 -1      1042 8.00877E-02
 -1      1043 2.71145E+00
 -1      1044 5.54793E-02
 -1      1045 9.38484E-02
 -1      1046 2.27182E+00
 -1      1047 4.54495E-02
 -1      1048 7.38343E-02
 -1      1049 1.08851E-01
 -1      1050 6.33981E-02
 -1      1051 1.38627E-01
 -1      1052 9.93826E-02
 -1      1053 1.05968E-01
 -1      1054 2.41745E+00
 -1      1055 7.57990E-02
 -1      1056 7.17346E-02
 -1      1057 6.65579E-02
 -1      1058 6.26804E-02
 -1      1059 5.68735E-02
 -1      1060 5.21372E-02
 -1      1061 4.91534E-02
 -1      1062 4.88981E-02
 -1      1063 5.36072E-02
 -1      1064 6.38956E-02
 -1      1065 8.04945E-02
 -1      1066 1.09090E-01
 -1      1067 1.35577E-01
 -1      1068 1.75526E-01
 -1      1069 2.29518E-01
 -1      1070 3.35484E-01
 -1      1071 4.90882E-01
 -1      1072 7.17172E-01
 -1      1073 1.04385E+00
 -1      1074 1.52650E+00
 -1      1075 1.75494E+00
 -1      1076 2.11511E-01
 -1      1077 5.02184E-02
 -1      1078 1.54482E-01
 -1      1079 9.51932E-02
 -1      1080 5.42516E-02
 -1      1081 8.29293E-02
 -1      1082 2.89518E-01
 -1      1083 3.96010E-01
 -1      1084 5.40708E-01
 -1      1085 7.35047E-01
 -1      1086 1.04385E+00
 -1      1087 1.52650E+00
 -1      1088 1.75494E+00
 -1      1089 4.61356E-02
 -1      1090 5.54793E-02
 -1      1091 8.65121E-02
 -1      1092 7.68761E-02
 -1      1093 6.70174E-02
 -1      1094 9.77672E-02
 -1      1095 1.12898E-01
 -1      1096 4.79608E-02
 -1      1097 6.47742E-02
 -1      1098 1.10642E-01
 -1      1099 6.60622E-02
 -1      1100 6.07966E-02
 -1      1101 8.04753E-02
 -1      1102 7.47358E-02
 -1      1103 5.42516E-02
 -1      1104 5.25384E-02
 -1      1105 7.30928E-02
 -1      1106 5.86071E-02
 -1      1107 7.94927E-02
 -1      1108 1.31437E+01
 -1      1109 8.40371E+00
 -1      1110 2.74379E+00
 -1      1111 1.55753E+00
 -1      1112 1.16862E+00
 -1      1113 9.72683E-01
 -1      1114 8.54119E-01
 -1      1115 7.81453E-01
 -1      1116 7.54960E-01
 -1      1117 7.84559E-01
 -1      1118 8.56977E-01
 -1      1119 9.76793E-01
 -1      1120 1.17959E+00
 -1      1121 1.56890E+00
 -1      1122 2.67003E+00
 -1      1123 6.07541E+00
 -1      1124 1.13409E+01
 -1      1125 1.31437E+01
 -1      1126 8.73089E+00
 -1      1127 3.82973E+00
 -1      1128 2.72664E+00
 -1      1129 1.73752E+00
 -1      1130 1.18878E+00
 -1      1131 8.95044E-01
 -1      1132 6.85931E-01
 -1      1133 5.26291E-01
 -1      1134 4.02801E-01
 -1      1135 3.10088E-01
 -1      1136 2.39675E-01
 -1      1137 1.83915E-01
 -1      1138 1.42822E-01
 -1      1139 1.09978E-01
 -1      1140 8.45411E-02
 -1      1141 6.95975E-02
 -1      1142 6.40254E-02
 -1      1143 6.93952E-02
 -1      1144 8.22951E-02
 -1      1145 1.03173E-01
 -1      1146 1.37955E-01
 -1      1147 1.89466E-01
 -1      1148 2.59837E-01
 -1      1149 3.53770E-01
 -1      1150 4.90498E-01
 -1      1151 6.50455E-01
 -1      1152 8.29375E-01
 -1      1153 1.06435E+00
 -1      1154 1.41091E+00
 -1      1155 1.86401E+00
 -1      1156 2.41719E+00
 -1      1157 2.98171E+00
 -1      1158 3.23236E+00
 -1      1159 3.18140E+00
 -1      1160 3.37572E+00
 -1      1161 5.40285E+00
 -1      1162 8.39957E+00
 -1      1163 9.61442E+00
 -1      1164 9.52428E+00
 -1      1165 8.15350E+00
 -1      1166 5.09646E+00
 -1      1167 3.21986E+00
 -1      1168 3.11967E+00
 -1      1169 3.10267E+00
 -1      1170 2.74140E+00
 -1      1171 2.19428E+00
 -1      1172 1.90324E+00
 -1      1173 1.59175E+00
 -1      1174 9.71124E-01
 -1      1175 1.40396E+01
 -1      1176 8.71774E+00
 -1      1177 2.90684E+00
 -1      1178 2.04275E+00
 -1      1179 1.40780E+00
 -1      1180 1.02720E+00
 -1      1181 8.19184E-01
 -1      1182 6.60143E-01
 -1      1183 5.28833E-01
 -1      1184 4.19719E-01
 -1      1185 3.33266E-01
 -1      1186 2.65829E-01
 -1      1187 2.10416E-01
 -1      1188 1.65702E-01
 -1      1189 1.30852E-01
 -1      1190 1.04909E-01
 -1      1191 8.69094E-02
 -1      1192 7.69619E-02
 -1      1193 7.79235E-02
 -1      1194 8.74506E-02
 -1      1195 1.00119E-01
 -1      1196 1.15666E-01
 -1      1197 1.38887E-01
 -1      1198 1.68737E-01
 -1      1199 1.97756E-01
 -1      1200 2.20484E-01
 -1      1201 2.33413E-01
 -1      1202 2.57787E-01
 -1      1203 3.16197E-01
 -1      1204 3.82044E-01
 -1      1205 4.73185E-01
 -1      1206 6.11749E-01
 -1      1207 7.19329E-01
 -1      1208 8.68868E-01
 -1      1209 1.06289E+00
 -1      1210 1.28689E+00
 -1      1211 1.69927E+00
 -1      1212 2.09795E+00
 -1      1213 2.29190E+00
 -1      1214 2.38368E+00
 -1      1215 2.41499E+00
 -1      1216 2.24271E+00
 -1      1217 1.79695E+00
 -1      1218 1.26653E+00
 -1      1219 7.84242E-01
 -1      1220 4.01246E-01
 -1      1221 1.89033E-01
 -1      1222 1.24979E-01
 -1      1223 1.00335E-01
 -1      1224 6.10657E-02
 -1      1225 4.35504E-02
 -1      1226 7.52770E-02
 -1      1227 1.26710E-01
 -1      1228 1.70157E-01
 -1      1229 1.92090E-01
 -1      1230 1.96874E-01
 -1      1231 1.75327E-01
 -1      1232 1.53934E-01
 -1      1233 2.43163E-01
 -1      1234 3.84047E-01
 -1      1235 4.35855E-01
 -1      1236 4.27620E-01
 -1      1237 3.44213E-01
 -1      1238 2.80167E-01
 -1      1239 3.33720E-01
 -1      1240 3.76148E-01
 -1      1241 4.74985E-01
 -1      1242 2.49865E+01
 -1      1243 3.55919E+01
 -1      1244 4.61972E+01
 -1      1245 3.23411E+01
 -1      1246 1.53387E+01
 -1      1247 1.27909E+01
 -1      1248 1.33894E+01
 -1      1249 1.27795E+01
 -1      1250 1.22521E+01
 -1      1251 1.23888E+01
 -1      1252 1.95356E+01
 -1      1253 2.77446E+01
 -1      1254 2.88610E+01
 -1      1255 2.68052E+01
 -1      1256 2.47493E+01
 -1      1257 2.48538E+01
 -1      1258 3.66308E+01
 -1      1259 4.83034E+01
 -1      1260 3.49109E+01
 -1      1261 1.67952E+01
 -1      1262 1.22540E+01
 -1      1263 1.24362E+01
 -1      1264 1.28480E+01
 -1      1265 1.32597E+01
 -1      1266 1.30491E+01
 -1      1267 2.04906E+01
 -1      1268 2.90238E+01
 -1      1269 2.89574E+01
 -1      1270 2.61046E+01
 -1      1271 2.45929E+01
 -1      1272 1.31437E+01
 -1      1273 4.87083E+00
 -1      1274 9.61083E+00
 -1      1275 2.06100E+00
 -1      1276 2.98092E+00
 -1      1277 4.18804E+00
 -1      1278 1.39961E+00
 -1      1279 1.66595E+00
 -1      1280 1.90308E+00
 -1      1281 1.10172E+00
 -1      1282 1.22429E+00
 -1      1283 1.33271E+00
 -1      1284 9.36301E-01
 -1      1285 1.00968E+00
 -1      1286 1.06534E+00
 -1      1287 8.36559E-01
 -1      1288 8.81748E-01
 -1      1289 9.18741E-01
 -1      1290 7.75058E-01
 -1      1291 8.02534E-01
 -1      1292 8.30163E-01
 -1      1293 7.55943E-01
 -1      1294 7.54960E-01
 -1      1295 7.76041E-01
 -1      1296 8.06349E-01
 -1      1297 7.77734E-01
 -1      1298 7.77734E-01
 -1      1299 8.83986E-01
 -1      1300 8.40185E-01
 -1      1301 8.33359E-01
 -1      1302 1.01691E+00
 -1      1303 9.40898E-01
 -1      1304 9.24106E-01
 -1      1305 1.23899E+00
 -1      1306 1.11220E+00
 -1      1307 1.07631E+00
 -1      1308 1.67929E+00
 -1      1309 1.41678E+00
 -1      1310 1.34938E+00
 -1      1311 2.88391E+00
 -1      1312 2.04530E+00
 -1      1313 1.89318E+00
 -1      1314 6.28780E+00
 -1      1315 3.72103E+00
 -1      1316 3.09631E+00
 -1      1317 1.40396E+01
 -1      1318 1.13409E+01
 -1      1319 8.98650E+00
 -1      1320 1.40396E+01
 -1      1321 8.73089E+00
 -1      1322 4.31808E+00
 -1      1323 3.82973E+00
 -1      1324 3.34138E+00
 -1      1325 3.82973E+00
 -1      1326 2.72664E+00
 -1      1327 2.11189E+00
 -1      1328 2.72664E+00
 -1      1329 1.77977E+00
 -1      1330 1.40540E+00
 -1      1331 1.77977E+00
 -1      1332 1.19468E+00
 -1      1333 1.02032E+00
 -1      1334 1.23693E+00
 -1      1335 8.95044E-01
 -1      1336 7.75670E-01
 -1      1337 9.00944E-01
 -1      1338 6.85931E-01
 -1      1339 5.96192E-01
 -1      1340 6.85931E-01
 -1      1341 5.32621E-01
 -1      1342 4.62720E-01
 -1      1343 5.32621E-01
 -1      1344 4.12914E-01
 -1      1345 3.59325E-01
 -1      1346 4.19244E-01
 -1      1347 3.20404E-01
 -1      1348 2.81280E-01
 -1      1349 3.30517E-01
 -1      1350 2.53179E-01
 -1      1351 2.21889E-01
 -1      1352 2.63495E-01
 -1      1353 1.98135E-01
 -1      1354 1.73664E-01
 -1      1355 2.11638E-01
 -1      1356 1.55634E-01
 -1      1357 1.39011E-01
 -1      1358 1.69853E-01
 -1      1359 1.21370E-01
 -1      1360 1.05149E-01
 -1      1361 1.34181E-01
 -1      1362 9.32998E-02
 -1      1363 8.40836E-02
 -1      1364 1.04691E-01
 -1      1365 7.52365E-02
 -1      1366 6.95091E-02
 -1      1367 8.39952E-02
 -1      1368 6.31430E-02
 -1      1369 6.32983E-02
 -1      1370 6.87820E-02
 -1      1371 6.41807E-02
 -1      1372 6.93952E-02
 -1      1373 6.32983E-02
 -1      1374 7.46784E-02
 -1      1375 8.23638E-02
 -1      1376 6.94639E-02
 -1      1377 9.36768E-02
 -1      1378 1.06869E-01
 -1      1379 8.60601E-02
 -1      1380 1.23072E-01
 -1      1381 1.44662E-01
 -1      1382 1.13576E-01
 -1      1383 1.66980E-01
 -1      1384 1.96901E-01
 -1      1385 1.52097E-01
 -1      1386 2.26833E-01
 -1      1387 2.67282E-01
 -1      1388 2.04347E-01
 -1      1389 3.06485E-01
 -1      1390 3.59969E-01
 -1      1391 2.73481E-01
 -1      1392 4.27695E-01
 -1      1393 5.10939E-01
 -1      1394 3.80410E-01
 -1      1395 6.09372E-01
 -1      1396 6.86085E-01
 -1      1397 5.46569E-01
 -1      1398 8.14079E-01
 -1      1399 9.16287E-01
 -1      1400 7.72996E-01
 -1      1401 1.07671E+00
 -1      1402 1.20947E+00
 -1      1403 1.06141E+00
 -1      1404 1.39554E+00
 -1      1405 1.60934E+00
 -1      1406 1.40791E+00
 -1      1407 1.79777E+00
 -1      1408 2.03707E+00
 -1      1409 1.78240E+00
 -1      1410 2.18855E+00
 -1      1411 2.50243E+00
 -1      1412 2.12231E+00
 -1      1413 2.73107E+00
 -1      1414 2.98171E+00
 -1      1415 2.50243E+00
 -1      1416 3.23236E+00
 -1      1417 3.23236E+00
 -1      1418 2.98171E+00
 -1      1419 3.18140E+00
 -1      1420 3.13045E+00
 -1      1421 3.18140E+00
 -1      1422 3.09473E+00
 -1      1423 3.34000E+00
 -1      1424 3.09473E+00
 -1      1425 3.65311E+00
 -1      1426 5.43498E+00
 -1      1427 3.37212E+00
 -1      1428 7.18472E+00
 -1      1429 8.39957E+00
 -1      1430 5.43498E+00
 -1      1431 9.61442E+00
 -1      1432 9.61442E+00
 -1      1433 8.39957E+00
 -1      1434 9.52428E+00
 -1      1435 9.43415E+00
 -1      1436 9.52428E+00
 -1      1437 8.15350E+00
 -1      1438 6.87286E+00
 -1      1439 8.15350E+00
 -1      1440 5.19554E+00
 -1      1441 3.41913E+00
 -1      1442 5.19554E+00
 -1      1443 3.08778E+00
 -1      1444 2.98759E+00
 -1      1445 3.18686E+00
 -1      1446 3.11967E+00
 -1      1447 3.11967E+00
 -1      1448 2.98759E+00
 -1      1449 3.10267E+00
 -1      1450 3.08566E+00
 -1      1451 3.10267E+00
 -1      1452 2.74140E+00
 -1      1453 2.39714E+00
 -1      1454 2.74140E+00
 -1      1455 2.19428E+00
 -1      1456 1.99141E+00
 -1      1457 2.19428E+00
 -1      1458 1.90324E+00
 -1      1459 1.81507E+00
 -1      1460 1.90324E+00
 -1      1461 1.59175E+00
 -1      1462 1.36843E+00
 -1      1463 1.59175E+00
 -1      1464 1.01220E+00
 -1      1465 6.14899E-01
 -1      1466 5.16062E-01
 -1      1467 1.01220E+00
 -1      1468 3.39592E+00
 -1      1469 8.71774E+00
 -1      1470 8.71774E+00
 -1      1471 2.41776E+00
 -1      1472 2.90684E+00
 -1      1473 2.90684E+00
 -1      1474 1.66774E+00
 -1      1475 2.04275E+00
 -1      1476 2.04275E+00
 -1      1477 1.14786E+00
 -1      1478 1.40780E+00
 -1      1479 1.40780E+00
 -1      1480 9.06539E-01
 -1      1481 1.02720E+00
 -1      1482 1.02720E+00
 -1      1483 7.31830E-01
 -1      1484 8.19184E-01
 -1      1485 8.19184E-01
 -1      1486 5.88456E-01
 -1      1487 6.60143E-01
 -1      1488 6.60143E-01
 -1      1489 4.69209E-01
 -1      1490 5.28833E-01
 -1      1491 5.28833E-01
 -1      1492 3.70229E-01
 -1      1493 4.19719E-01
 -1      1494 4.19719E-01
 -1      1495 2.96302E-01
 -1      1496 3.33266E-01
 -1      1497 3.33266E-01
 -1      1498 2.35355E-01
 -1      1499 2.65829E-01
 -1      1500 2.65829E-01
 -1      1501 1.86675E-01
 -1      1502 2.11615E-01
 -1      1503 2.11615E-01
 -1      1504 1.47885E-01
 -1      1505 1.67659E-01
 -1      1506 1.68858E-01
 -1      1507 1.17786E-01
 -1      1508 1.32862E-01
 -1      1509 1.34819E-01
 -1      1510 9.55563E-02
 -1      1511 1.06424E-01
 -1      1512 1.08434E-01
 -1      1513 8.03399E-02
 -1      1514 8.74724E-02
 -1      1515 8.89869E-02
 -1      1516 7.31182E-02
 -1      1517 7.59332E-02
 -1      1518 7.64962E-02
 -1      1519 7.79235E-02
 -1      1520 7.41469E-02
 -1      1521 7.31182E-02
 -1      1522 8.74506E-02
 -1      1523 8.17001E-02
 -1      1524 7.79235E-02
 -1      1525 1.00119E-01
 -1      1526 9.32012E-02
 -1      1527 8.74506E-02
 -1      1528 1.17468E-01
 -1      1529 1.08839E-01
 -1      1530 1.01921E-01
 -1      1531 1.43820E-01
 -1      1532 1.29228E-01
 -1      1533 1.22401E-01
 -1      1534 1.71104E-01
 -1      1535 1.55845E-01
 -1      1536 1.46186E-01
 -1      1537 2.05429E-01
 -1      1538 1.91668E-01
 -1      1539 1.78776E-01
 -1      1540 2.36799E-01
 -1      1541 2.27831E-01
 -1      1542 2.21743E-01
 -1      1543 2.62839E-01
 -1      1544 2.58878E-01
 -1      1545 2.66225E-01
 -1      1546 3.05990E-01
 -1      1547 2.85576E-01
 -1      1548 3.11041E-01
 -1      1549 3.54554E-01
 -1      1550 3.16557E-01
 -1      1551 3.44346E-01
 -1      1552 3.82404E-01
 -1      1553 3.54554E-01
 -1      1554 3.54913E-01
 -1      1555 4.73185E-01
 -1      1556 4.09894E-01
 -1      1557 3.82404E-01
 -1      1558 6.11749E-01
 -1      1559 5.36476E-01
 -1      1560 4.73185E-01
 -1      1561 7.19329E-01
 -1      1562 6.87023E-01
 -1      1563 6.11749E-01
 -1      1564 8.93479E-01
 -1      1565 7.76246E-01
 -1      1566 7.43940E-01
 -1      1567 1.15634E+00
 -1      1568 1.07956E+00
 -1      1569 9.86936E-01
 -1      1570 1.52082E+00
 -1      1571 1.37360E+00
 -1      1572 1.39028E+00
 -1      1573 1.93139E+00
 -1      1574 1.66621E+00
 -1      1575 1.75293E+00
 -1      1576 2.09795E+00
 -1      1577 1.96445E+00
 -1      1578 1.93139E+00
 -1      1579 2.29190E+00
 -1      1580 2.23144E+00
 -1      1581 2.09795E+00
 -1      1582 2.38368E+00
 -1      1583 2.35236E+00
 -1      1584 2.29190E+00
 -1      1585 2.41499E+00
 -1      1586 2.41499E+00
 -1      1587 2.38368E+00
 -1      1588 2.07043E+00
 -1      1589 2.24271E+00
 -1      1590 2.24271E+00
 -1      1591 1.52347E+00
 -1      1592 1.79695E+00
 -1      1593 1.79695E+00
 -1      1594 1.03857E+00
 -1      1595 1.29551E+00
 -1      1596 1.29551E+00
 -1      1597 6.18236E-01
 -1      1598 8.43591E-01
 -1      1599 8.72567E-01
 -1      1600 3.30803E-01
 -1      1601 4.88444E-01
 -1      1602 5.47792E-01
 -1      1603 2.12364E-01
 -1      1604 2.66936E-01
 -1      1605 3.54134E-01
 -1      1606 1.64864E-01
 -1      1607 1.74347E-01
 -1      1608 2.52250E-01
 -1      1609 9.98100E-02
 -1      1610 1.14971E-01
 -1      1611 1.64340E-01
 -1      1612 6.76583E-02
 -1      1613 1.07429E-01
 -1      1614 8.22947E-02
 -1      1615 2.10472E-01
 -1      1616 1.84173E-01
 -1      1617 1.91191E-01
 -1      1618 2.61225E-01
 -1      1619 2.44077E-01
 -1      1620 3.01540E-01
 -1      1621 2.81440E-01
 -1      1622 2.76656E-01
 -1      1623 3.50575E-01
 -1      1624 2.81842E-01
 -1      1625 2.81842E-01
 -1      1626 3.66408E-01
 -1      1627 2.60295E-01
 -1      1628 2.81842E-01
 -1      1629 3.66810E-01
 -1      1630 2.13359E-01
 -1      1631 2.13204E-01
 -1      1632 3.19720E-01
 -1      1633 4.34373E-01
 -1      1634 3.45298E-01
 -1      1635 4.04569E-01
 -1      1636 6.20425E-01
 -1      1637 5.68616E-01
 -1      1638 6.70751E-01
 -1      1639 6.43648E-01
 -1      1640 6.43648E-01
 -1      1641 8.28217E-01
 -1      1642 6.35413E-01
 -1      1643 6.43648E-01
 -1      1644 8.51441E-01
 -1      1645 5.10320E-01
 -1      1646 5.85491E-01
 -1      1647 8.01519E-01
 -1      1648 3.53249E-01
 -1      1649 3.42123E-01
 -1      1650 5.83402E-01
 -1      1651 7.08891E-01
 -1      1652 6.66463E-01
 -1      1653 7.28419E-01
 -1      1654 7.08891E-01
 -1      1655 7.08891E-01
 -1      1656 1.04163E+00
 -1      1657 8.48805E-01
 -1      1658 2.73863E+01
 -1      1659 2.73863E+01
 -1      1660 3.62921E+01
 -1      1661 2.56868E+01
 -1      1662 4.61972E+01
 -1      1663 4.61972E+01
 -1      1664 1.90395E+01
 -1      1665 3.28957E+01
 -1      1666 1.14196E+01
 -1      1667 1.45658E+01
 -1      1668 1.27909E+01
 -1      1669 1.21924E+01
 -1      1670 1.33894E+01
 -1      1671 1.33894E+01
 -1      1672 1.21695E+01
 -1      1673 1.27795E+01
 -1      1674 1.21947E+01
 -1      1675 1.21122E+01
 -1      1676 1.23888E+01
 -1      1677 1.23346E+01
 -1      1678 1.95356E+01
 -1      1679 1.24430E+01
 -1      1680 2.83607E+01
 -1      1681 2.72442E+01
 -1      1682 2.88610E+01
 -1      1683 2.88610E+01
 -1      1684 2.45567E+01
 -1      1685 2.66126E+01
 -1      1686 2.72799E+01
 -1      1687 2.72799E+01
 -1      1688 2.73843E+01
 -1      1689 2.72799E+01
 -1      1690 3.76064E+01
 -1      1691 2.59338E+01
 -1      1692 4.83034E+01
 -1      1693 4.83034E+01
 -1      1694 2.26539E+01
 -1      1695 3.60464E+01
 -1      1696 1.18488E+01
 -1      1697 1.65720E+01
 -1      1698 1.22540E+01
 -1      1699 1.20719E+01
 -1      1700 1.24362E+01
 -1      1701 1.24362E+01
 -1      1702 1.26120E+01
 -1      1703 1.22002E+01
 -1      1704 1.32597E+01
 -1      1705 1.32597E+01
 -1      1706 1.26225E+01
 -1      1707 1.28331E+01
 -1      1708 2.04906E+01
 -1      1709 1.28385E+01
 -1      1710 2.99048E+01
 -1      1711 2.90238E+01
 -1      1712 2.89574E+01
 -1      1713 2.99048E+01
 -1      1714 2.41992E+01
 -1      1715 2.61046E+01
 -1      1716 2.73863E+01
 -1      1717 2.69926E+01
 -1      1718 3.28957E+01
 -1      1719 2.97861E+01
 -1      1720 8.22947E-02
 -1      1721 1.14446E-01
 -1      1722 2.80866E+01
 -1      1723 3.62921E+01
 -1      1724 1.51205E+01
 -1      1725 1.14196E+01
 -1      1726 1.27909E+01
 -1      1727 1.27795E+01
 -1      1728 1.21122E+01
 -1      1729 1.21947E+01
 -1      1730 1.23888E+01
 -1      1731 2.01516E+01
 -1      1732 2.83607E+01
 -1      1733 2.66126E+01
 -1      1734 2.70873E+01
 -1      1735 2.98105E+01
 -1      1736 2.83599E+01
 -1      1737 3.76064E+01
 -1      1738 3.60464E+01
 -1      1739 1.77075E+01
 -1      1740 1.18488E+01
 -1      1741 1.22540E+01
 -1      1742 1.22002E+01
 -1      1743 1.26120E+01
 -1      1744 1.28331E+01
 -1      1745 1.26225E+01
 -1      1746 2.13717E+01
 -1      1747 2.99048E+01
 -1      1748 2.70520E+01
 -1      1749 2.69926E+01
 -1      1750 9.61083E+00
 -1      1751 1.27757E+00
 -1      1752 1.67262E+00
 -1      1753 2.38914E+00
 -1      1754 4.27905E+00
 -1      1755 1.76363E+00
 -1      1756 8.82597E-01
 -1      1757 9.74645E-01
 -1      1758 7.79128E-01
 -1      1759 8.33681E-01
 -1      1760 7.42984E-01
 -1      1761 7.13967E-01
 -1      1762 7.47992E-01
 -1      1763 6.62932E-01
 -1      1764 6.71795E-01
 -1      1765 6.91892E-01
 -1      1766 6.09721E-01
 -1      1767 6.95209E-01
 -1      1768 6.73419E-01
 -1      1769 5.89271E-01
 -1      1770 7.50876E-01
 -1      1771 7.17041E-01
 -1      1772 6.12727E-01
 -1      1773 8.41120E-01
 -1      1774 7.84209E-01
 -1      1775 6.67891E-01
 -1      1776 9.83999E-01
 -1      1777 8.88708E-01
 -1      1778 7.48812E-01
 -1      1779 1.22883E+00
 -1      1780 1.05105E+00
 -1      1781 8.63447E-01
 -1      1782 1.70196E+00
 -1      1783 1.33595E+00
 -1      1784 1.03761E+00
 -1      1785 2.63149E+00
 -1      1786 1.79437E+00
 -1      1787 1.23714E+00
 -1      1788 8.11823E+00
 -1      1789 3.06516E+00
 -1      1790 1.76322E+00
 -1      1791 2.79640E+00
 -1      1792 5.19801E+00
 -1      1793 2.16549E+00
 -1      1794 2.65457E+00
 -1      1795 2.05505E+00
 -1      1796 3.39912E+00
 -1      1797 2.53547E+00
 -1      1798 1.92072E+00
 -1      1799 1.68988E+00
 -1      1800 1.35776E+00
 -1      1801 1.49872E+00
 -1      1802 1.17764E+00
 -1      1803 9.66927E-01
 -1      1804 1.08776E+00
 -1      1805 8.41467E-01
 -1      1806 7.16193E-01
 -1      1807 7.82176E-01
 -1      1808 6.57427E-01
 -1      1809 5.67688E-01
 -1      1810 5.97950E-01
 -1      1811 5.19273E-01
 -1      1812 4.55702E-01
 -1      1813 4.90769E-01
 -1      1814 4.13111E-01
 -1      1815 3.63305E-01
 -1      1816 3.99763E-01
 -1      1817 3.30662E-01
 -1      1818 2.91742E-01
 -1      1819 3.24529E-01
 -1      1820 2.64336E-01
 -1      1821 2.36235E-01
 -1      1822 2.64482E-01
 -1      1823 2.12805E-01
 -1      1824 1.89051E-01
 -1      1825 2.13647E-01
 -1      1826 1.71810E-01
 -1      1827 1.53780E-01
 -1      1828 1.72978E-01
 -1      1829 1.37798E-01
 -1      1830 1.20156E-01
 -1      1831 1.39755E-01
 -1      1832 1.08079E-01
 -1      1833 9.62299E-02
 -1      1834 1.11695E-01
 -1      1835 8.62625E-02
 -1      1836 7.74153E-02
 -1      1837 8.96500E-02
 -1      1838 6.92380E-02
 -1      1839 6.28719E-02
 -1      1840 7.15053E-02
 -1      1841 5.94194E-02
 -1      1842 6.03018E-02
 -1      1843 5.98754E-02
 -1      1844 6.20785E-02
 -1      1845 6.73617E-02
 -1      1846 5.81996E-02
 -1      1847 7.47471E-02
 -1      1848 8.60601E-02
 -1      1849 6.73617E-02
 -1      1850 9.73731E-02
 -1      1851 1.13576E-01
 -1      1852 8.60601E-02
 -1      1853 1.31750E-01
 -1      1854 1.54069E-01
 -1      1855 1.15547E-01
 -1      1856 1.86873E-01
 -1      1857 2.16804E-01
 -1      1858 1.66526E-01
 -1      1859 2.61947E-01
 -1      1860 3.01150E-01
 -1      1861 2.44473E-01
 -1      1862 3.65318E-01
 -1      1863 4.33044E-01
 -1      1864 3.53783E-01
 -1      1865 5.18141E-01
 -1      1866 6.16574E-01
 -1      1867 5.03049E-01
 -1      1868 7.27023E-01
 -1      1869 8.55018E-01
 -1      1870 6.98595E-01
 -1      1871 9.95396E-01
 -1      1872 1.15582E+00
 -1      1873 9.49423E-01
 -1      1874 1.32538E+00
 -1      1875 1.51146E+00
 -1      1876 1.25937E+00
 -1      1877 1.69975E+00
 -1      1878 1.88817E+00
 -1      1879 1.61722E+00
 -1      1880 2.06796E+00
 -1      1881 2.21944E+00
 -1      1882 1.98530E+00
 -1      1883 2.34297E+00
 -1      1884 2.57161E+00
 -1      1885 2.28862E+00
 -1      1886 2.74372E+00
 -1      1887 2.99436E+00
 -1      1888 2.58426E+00
 -1      1889 3.31732E+00
 -1      1890 3.26637E+00
 -1      1891 3.07933E+00
 -1      1892 3.38192E+00
 -1      1893 3.34621E+00
 -1      1894 3.51784E+00
 -1      1895 3.74285E+00
 -1      1896 4.05596E+00
 -1      1897 4.03004E+00
 -1      1898 3.54331E+00
 -1      1899 5.29305E+00
 -1      1900 3.91403E+00
 -1      1901 6.45781E+00
 -1      1902 7.67265E+00
 -1      1903 4.56613E+00
 -1      1904 8.02004E+00
 -1      1905 7.92991E+00
 -1      1906 6.07828E+00
 -1      1907 7.53453E+00
 -1      1908 6.25389E+00
 -1      1909 6.03029E+00
 -1      1910 5.11141E+00
 -1      1911 3.43408E+00
 -1      1912 4.49244E+00
 -1      1913 3.65358E+00
 -1      1914 3.32222E+00
 -1      1915 3.56945E+00
 -1      1916 2.89372E+00
 -1      1917 3.02581E+00
 -1      1918 3.36045E+00
 -1      1919 2.80063E+00
 -1      1920 2.78362E+00
 -1      1921 2.70677E+00
 -1      1922 2.62620E+00
 -1      1923 2.28194E+00
 -1      1924 2.32416E+00
 -1      1925 2.13121E+00
 -1      1926 1.92835E+00
 -1      1927 2.01601E+00
 -1      1928 1.72848E+00
 -1      1929 1.64032E+00
 -1      1930 1.66542E+00
 -1      1931 1.52152E+00
 -1      1932 1.29820E+00
 -1      1933 1.34677E+00
 -1      1934 1.20503E+00
 -1      1935 1.14132E+00
 -1      1936 1.40125E+00
 -1      1937 8.60960E-01
 -1      1938 9.81622E-01
 -1      1939 9.75076E-01
 -1      1940 6.81601E-01
 -1      1941 7.68956E-01
 -1      1942 7.23377E-01
 -1      1943 5.52925E-01
 -1      1944 6.24612E-01
 -1      1945 5.74383E-01
 -1      1946 4.43579E-01
 -1      1947 5.03202E-01
 -1      1948 4.67671E-01
 -1      1949 3.53686E-01
 -1      1950 4.03176E-01
 -1      1951 3.77546E-01
 -1      1952 2.84779E-01
 -1      1953 3.21742E-01
 -1      1954 3.05199E-01
 -1      1955 2.27286E-01
 -1      1956 2.57759E-01
 -1      1957 2.46235E-01
 -1      1958 1.82260E-01
 -1      1959 2.06001E-01
 -1      1960 1.97931E-01
 -1      1961 1.46631E-01
 -1      1962 1.65647E-01
 -1      1963 1.60033E-01
 -1      1964 1.17507E-01
 -1      1965 1.32530E-01
 -1      1966 1.29319E-01
 -1      1967 9.44438E-02
 -1      1968 1.05807E-01
 -1      1969 1.03518E-01
 -1      1970 7.67751E-02
 -1      1971 8.48590E-02
 -1      1972 8.22320E-02
 -1      1973 6.45101E-02
 -1      1974 6.89169E-02
 -1      1975 6.47890E-02
 -1      1976 6.36134E-02
 -1      1977 6.25847E-02
 -1      1978 5.50054E-02
 -1      1979 7.12628E-02
 -1      1980 6.74862E-02
 -1      1981 5.69528E-02
 -1      1982 8.31608E-02
 -1      1983 7.74103E-02
 -1      1984 6.69730E-02
 -1      1985 1.00268E-01
 -1      1986 9.15474E-02
 -1      1987 8.15070E-02
 -1      1988 1.22401E-01
 -1      1989 1.10642E-01
 -1      1990 1.00268E-01
 -1      1991 1.51467E-01
 -1      1992 1.39442E-01
 -1      1993 1.27682E-01
 -1      1994 1.91024E-01
 -1      1995 1.70460E-01
 -1      1996 1.63715E-01
 -1      1997 2.31909E-01
 -1      1998 2.09506E-01
 -1      1999 2.01190E-01
 -1      2000 2.70509E-01
 -1      2001 2.48429E-01
 -1      2002 2.36193E-01
 -1      2003 3.11077E-01
 -1      2004 2.88340E-01
 -1      2005 2.70544E-01
 -1      2006 3.44346E-01
 -1      2007 3.33778E-01
 -1      2008 3.11077E-01
 -1      2009 3.54913E-01
 -1      2010 3.54913E-01
 -1      2011 3.44346E-01
 -1      2012 3.70286E-01
 -1      2013 3.42795E-01
 -1      2014 3.42795E-01
 -1      2015 4.19974E-01
 -1      2016 3.56684E-01
 -1      2017 3.17075E-01
 -1      2018 5.03855E-01
 -1      2019 4.28581E-01
 -1      2020 3.12080E-01
 -1      2021 6.94405E-01
 -1      2022 6.37488E-01
 -1      2023 4.54321E-01
 -1      2024 1.04473E+00
 -1      2025 8.58648E-01
 -1      2026 7.52196E-01
 -1      2027 1.43667E+00
 -1      2028 1.21941E+00
 -1      2029 1.09112E+00
 -1      2030 1.75293E+00
 -1      2031 1.60754E+00
 -1      2032 1.43667E+00
 -1      2033 1.93139E+00
 -1      2034 1.89833E+00
 -1      2035 1.75293E+00
 -1      2036 2.09681E+00
 -1      2037 1.96331E+00
 -1      2038 1.93025E+00
 -1      2039 2.11322E+00
 -1      2040 2.05276E+00
 -1      2041 1.91813E+00
 -1      2042 2.15035E+00
 -1      2043 2.11903E+00
 -1      2044 1.87989E+00
 -1      2045 1.87034E+00
 -1      2046 2.04262E+00
 -1      2047 1.77797E+00
 -1      2048 1.44815E+00
 -1      2049 1.72163E+00
 -1      2050 1.52154E+00
 -1      2051 1.07593E+00
 -1      2052 1.30389E+00
 -1      2053 1.22857E+00
 -1      2054 7.34902E-01
 -1      2055 9.29884E-01
 -1      2056 9.38269E-01
 -1      2057 5.17823E-01
 -1      2058 6.47615E-01
 -1      2059 7.04932E-01
 -1      2060 3.77855E-01
 -1      2061 4.41722E-01
 -1      2062 5.41544E-01
 -1      2063 2.64577E-01
 -1      2064 3.02594E-01
 -1      2065 3.90182E-01
 -1      2066 1.64340E-01
 -1      2067 2.14233E-01
 -1      2068 2.64577E-01
 -1      2069 1.64340E-01
 -1      2070 4.28407E-01
 -1      2071 4.12976E-01
 -1      2072 3.75341E-01
 -1      2073 3.41737E-01
 -1      2074 4.53173E-01
 -1      2075 2.41084E-01
 -1      2076 4.41763E-01
 -1      2077 4.41362E-01
 -1      2078 5.03762E-01
 -1      2079 4.50457E-01
 -1      2080 4.50457E-01
 -1      2081 5.25410E-01
 -1      2082 4.03366E-01
 -1      2083 4.50457E-01
 -1      2084 5.34104E-01
 -1      2085 5.71894E-01
 -1      2086 4.39954E-01
 -1      2087 5.70691E-01
 -1      2088 9.40182E-01
 -1      2089 8.05939E-01
 -1      2090 8.41324E-01
 -1      2091 1.06376E+00
 -1      2092 1.04054E+00
 -1      2093 1.17573E+00
 -1      2094 1.07872E+00
 -1      2095 1.07872E+00
 -1      2096 1.29104E+00
 -1      2097 1.02880E+00
 -1      2098 1.07872E+00
 -1      2099 1.30600E+00
 -1      2100 7.14457E-01
 -1      2101 8.82653E-01
 -1      2102 1.15986E+00
 -1      2103 1.01448E+00
 -1      2104 7.01266E-01
 -1      2105 1.00052E+00
 -1      2106 1.51306E+00
 -1      2107 1.88807E+00
 -1      2108 1.63580E+00
 -1      2109 1.24658E+00
 -1      2110 3.62921E+01
 -1      2111 2.63870E+01
 -1      2112 9.64789E+00
 -1      2113 1.41215E+01
 -1      2114 3.07839E+01
 -1      2115 3.07839E+01
 -1      2116 1.77211E+01
 -1      2117 3.10227E+01
 -1      2118 1.03730E+00
 -1      2119 1.21262E+00
 -1      2120 9.82158E-01
 -1      2121 8.54552E-01
 -1      2122 1.00258E+01
 -1      2123 9.25298E+00
 -1      2124 1.13768E+01
 -1      2125 1.07783E+01
 -1      2126 8.61169E+00
 -1      2127 1.16139E+01
 -1      2128 1.22238E+01
 -1      2129 1.11579E+01
 -1      2130 1.12153E+01
 -1      2131 1.06596E+01
 -1      2132 1.08323E+01
 -1      2133 1.06924E+01
 -1      2134 9.27174E+00
 -1      2135 9.21756E+00
 -1      2136 1.96308E+01
 -1      2137 1.19222E+01
 -1      2138 2.43601E+01
 -1      2139 2.38597E+01
 -1      2140 1.56302E+01
 -1      2141 2.33516E+01
 -1      2142 2.56001E+01
 -1      2143 3.10950E+01
 -1      2144 2.83718E+01
 -1      2145 2.73593E+01
 -1      2146 3.10950E+01
 -1      2147 3.10950E+01
 -1      2148 2.82793E+01
 -1      2149 2.97298E+01
 -1      2150 3.10143E+01
 -1      2151 3.76064E+01
 -1      2152 2.69094E+01
 -1      2153 2.06008E+01
 -1      2154 3.28578E+01
 -1      2155 2.21608E+01
 -1      2156 1.06796E+01
 -1      2157 1.67615E+01
 -1      2158 9.67666E+00
 -1      2159 9.45351E+00
 -1      2160 8.50744E+00
 -1      2161 1.09433E+01
 -1      2162 1.07612E+01
 -1      2163 1.12502E+01
 -1      2164 1.14862E+01
 -1      2165 1.21176E+01
 -1      2166 1.14698E+01
 -1      2167 1.07582E+01
 -1      2168 1.11848E+01
 -1      2169 1.00947E+01
 -1      2170 9.87867E+00
 -1      2171 2.04533E+01
 -1      2172 1.19202E+01
 -1      2173 2.49417E+01
 -1      2174 2.49417E+01
 -1      2175 2.48342E+01
 -1      2176 2.76870E+01
 -1      2177 3.07839E+01
 -1      2178 2.79904E+01
 -1      2179 3.17817E+01
 -1      2180 2.75624E+01
 -1      2181 2.92620E+01
 -1      2182 1.13480E+00
 -1      2183 1.22485E+01
 -1      2184 2.91077E+00
 -1      2185 2.11175E+01
 -1      2186 8.25405E+00
 -1      2187 2.10485E+00
 -1      2188 3.14886E-01
 -1      2189 3.02597E+01
 -1      2190 1.13480E+00
 -1      2191 2.75624E+01
 -1      2192 1.10765E+00
 -1      2193 2.86254E+01
 -1      2194 2.27238E+01
 -1      2195 1.54901E+01
 -1      2196 9.17632E+00
 -1      2197 8.23033E+00
 -1      2198 1.00426E+01
 -1      2199 1.07558E+01
 -1      2200 8.36592E+00
 -1      2201 1.35729E+01
 -1      2202 2.45834E+01
 -1      2203 2.59532E+01
 -1      2204 2.45834E+01
 -1      2205 3.23795E+01
 -1      2206 2.10991E+01
 -1      2207 8.75089E+00
 -1      2208 9.79550E+00
 -1      2209 1.02112E+01
 -1      2210 7.71520E+00
 -1      2211 9.99332E+00
 -1      2212 5.59123E-01
 -1      2213 5.90259E-01
 -1      2214 6.02368E-01
 -1      2215 6.51285E-01
 -1      2216 4.98559E-01
 -1      2217 5.11279E-01
 -1      2218 5.09655E-01
 -1      2219 5.46055E-01
 -1      2220 5.24223E-01
 -1      2221 4.44607E-01
 -1      2222 5.94189E-01
 -1      2223 5.60856E-01
 -1      2224 4.72352E-01
 -1      2225 6.53702E-01
 -1      2226 6.06114E-01
 -1      2227 4.99079E-01
 -1      2228 7.20749E-01
 -1      2229 6.53702E-01
 -1      2230 5.11005E-01
 -1      2231 8.24253E-01
 -1      2232 7.17135E-01
 -1      2233 5.07391E-01
 -1      2234 9.84481E-01
 -1      2235 8.92071E-01
 -1      2236 5.71596E-01
 -1      2237 1.75648E+00
 -1      2238 1.32280E+00
 -1      2239 9.77739E-01
 -1      2240 1.61464E+00
 -1      2241 1.26644E+00
 -1      2242 1.03561E+00
 -1      2243 1.41169E+01
 -1      2244 1.93864E+01
 -1      2245 8.20759E+00
 -1      2246 1.18071E+01
 -1      2247 1.00760E+01
 -1      2248 9.85283E-01
 -1      2249 8.05161E-01
 -1      2250 7.53009E-01
 -1      2251 7.48490E-01
 -1      2252 6.23031E-01
 -1      2253 6.46016E-01
 -1      2254 5.66921E-01
 -1      2255 5.08155E-01
 -1      2256 5.33236E-01
 -1      2257 4.58886E-01
 -1      2258 4.10471E-01
 -1      2259 4.27857E-01
 -1      2260 3.83169E-01
 -1      2261 3.40578E-01
 -1      2262 3.51286E-01
 -1      2263 3.15715E-01
 -1      2264 2.83073E-01
 -1      2265 2.99121E-01
 -1      2266 2.59599E-01
 -1      2267 2.32194E-01
 -1      2268 2.50785E-01
 -1      2269 2.12798E-01
 -1      2270 1.89369E-01
 -1      2271 2.07915E-01
 -1      2272 1.72978E-01
 -1      2273 1.55737E-01
 -1      2274 1.72128E-01
 -1      2275 1.40110E-01
 -1      2276 1.24128E-01
 -1      2277 1.40110E-01
 -1      2278 1.11831E-01
 -1      2279 9.97533E-02
 -1      2280 1.12186E-01
 -1      2281 8.96500E-02
 -1      2282 7.96826E-02
 -1      2283 8.97859E-02
 -1      2284 7.15053E-02
 -1      2285 6.33280E-02
 -1      2286 7.15053E-02
 -1      2287 5.74622E-02
 -1      2288 5.40097E-02
 -1      2289 5.74622E-02
 -1      2290 5.20730E-02
 -1      2291 5.38497E-02
 -1      2292 4.96598E-02
 -1      2293 5.86126E-02
 -1      2294 6.59980E-02
 -1      2295 5.24859E-02
 -1      2296 7.48362E-02
 -1      2297 8.61493E-02
 -1      2298 6.60871E-02
 -1      2299 1.06599E-01
 -1      2300 1.24773E-01
 -1      2301 9.53751E-02
 -1      2302 1.52067E-01
 -1      2303 1.84871E-01
 -1      2304 1.43119E-01
 -1      2305 2.21394E-01
 -1      2306 2.66537E-01
 -1      2307 2.06936E-01
 -1      2308 3.17391E-01
 -1      2309 3.81559E-01
 -1      2310 2.94313E-01
 -1      2311 4.48173E-01
 -1      2312 5.33270E-01
 -1      2313 4.11781E-01
 -1      2314 6.19994E-01
 -1      2315 7.30443E-01
 -1      2316 5.65118E-01
 -1      2317 8.43399E-01
 -1      2318 9.83777E-01
 -1      2319 7.64797E-01
 -1      2320 1.12889E+00
 -1      2321 1.29845E+00
 -1      2322 1.02286E+00
 -1      2323 1.48157E+00
 -1      2324 1.66986E+00
 -1      2325 1.35109E+00
 -1      2326 1.89545E+00
 -1      2327 2.07524E+00
 -1      2328 1.75980E+00
 -1      2329 2.34470E+00
 -1      2330 2.46822E+00
 -1      2331 2.25485E+00
 -1      2332 2.76969E+00
 -1      2333 2.94181E+00
 -1      2334 2.82577E+00
 -1      2335 3.23164E+00
 -1      2336 3.55460E+00
 -1      2337 3.41708E+00
 -1      2338 5.25245E+00
 -1      2339 5.36800E+00
 -1      2340 5.40476E+00
 -1      2341 7.27071E+00
 -1      2342 7.66735E+00
 -1      2343 9.00532E+00
 -1      2344 4.46479E+00
 -1      2345 5.62954E+00
 -1      2346 6.76620E+00
 -1      2347 7.11359E+00
 -1      2348 4.88805E+00
 -1      2349 3.74557E+00
 -1      2350 4.18697E+00
 -1      2351 4.40646E+00
 -1      2352 4.58258E+00
 -1      2353 4.57510E+00
 -1      2354 4.14660E+00
 -1      2355 5.19262E+00
 -1      2356 3.51706E+00
 -1      2357 3.29188E+00
 -1      2358 4.73171E+00
 -1      2359 2.62910E+00
 -1      2360 2.47168E+00
 -1      2361 3.43939E+00
 -1      2362 2.22650E+00
 -1      2363 2.07578E+00
 -1      2364 2.53144E+00
 -1      2365 1.81078E+00
 -1      2366 1.61091E+00
 -1      2367 2.02127E+00
 -1      2368 1.40411E+00
 -1      2369 1.28531E+00
 -1      2370 1.16499E+00
 -1      2371 1.54946E+00
 -1      2372 4.81293E-01
 -1      2373 5.38283E-01
 -1      2374 5.97026E-01
 -1      2375 6.89031E-01
 -1      2376 5.03937E-01
 -1      2377 7.53781E-01
 -1      2378 9.13475E-01
 -1      2379 6.27430E-01
 -1      2380 3.92852E-01
 -1      2381 4.42574E-01
 -1      2382 4.06475E-01
 -1      2383 3.25208E-01
 -1      2384 3.65611E-01
 -1      2385 3.40514E-01
 -1      2386 2.66966E-01
 -1      2387 2.98910E-01
 -1      2388 2.86975E-01
 -1      2389 2.17152E-01
 -1      2390 2.44172E-01
 -1      2391 2.37883E-01
 -1      2392 1.77116E-01
 -1      2393 1.98400E-01
 -1      2394 1.96337E-01
 -1      2395 1.43914E-01
 -1      2396 1.60527E-01
 -1      2397 1.60997E-01
 -1      2398 1.15602E-01
 -1      2399 1.29703E-01
 -1      2400 1.30197E-01
 -1      2401 9.19883E-02
 -1      2402 1.03689E-01
 -1      2403 1.04073E-01
 -1      2404 7.26473E-02
 -1      2405 8.22320E-02
 -1      2406 8.24036E-02
 -1      2407 5.69308E-02
 -1      2408 6.47890E-02
 -1      2409 6.47890E-02
 -1      2410 4.93064E-02
 -1      2411 5.12318E-02
 -1      2412 5.12318E-02
 -1      2413 5.45519E-02
 -1      2414 5.06791E-02
 -1      2415 4.69055E-02
 -1      2416 6.47040E-02
 -1      2417 5.85565E-02
 -1      2418 5.22828E-02
 -1      2419 7.92389E-02
 -1      2420 7.08523E-02
 -1      2421 6.24358E-02
 -1      2422 1.03827E-01
 -1      2423 9.34530E-02
 -1      2424 8.27983E-02
 -1      2425 1.37085E-01
 -1      2426 1.20044E-01
 -1      2427 1.13230E-01
 -1      2428 1.73789E-01
 -1      2429 1.54796E-01
 -1      2430 1.47158E-01
 -1      2431 2.10271E-01
 -1      2432 1.91789E-01
 -1      2433 1.82870E-01
 -1      2434 2.42939E-01
 -1      2435 2.26419E-01
 -1      2436 2.17018E-01
 -1      2437 2.76949E-01
 -1      2438 2.59117E-01
 -1      2439 2.49343E-01
 -1      2440 3.10748E-01
 -1      2441 2.88047E-01
 -1      2442 2.76620E-01
 -1      2443 3.28318E-01
 -1      2444 3.17750E-01
 -1      2445 2.94720E-01
 -1      2446 3.11288E-01
 -1      2447 3.23406E-01
 -1      2448 2.96811E-01
 -1      2449 3.19399E-01
 -1      2450 3.33001E-01
 -1      2451 3.13612E-01
 -1      2452 3.57675E-01
 -1      2453 3.49068E-01
 -1      2454 3.64994E-01
 -1      2455 5.58782E-01
 -1      2456 4.25149E-01
 -1      2457 4.62136E-01
 -1      2458 8.36078E-01
 -1      2459 6.71835E-01
 -1      2460 6.42663E-01
 -1      2461 1.15304E+00
 -1      2462 9.78358E-01
 -1      2463 8.97997E-01
 -1      2464 1.42843E+00
 -1      2465 1.25757E+00
 -1      2466 1.14480E+00
 -1      2467 1.64663E+00
 -1      2468 1.50124E+00
 -1      2469 1.32213E+00
 -1      2470 1.70720E+00
 -1      2471 1.67527E+00
 -1      2472 1.42357E+00
 -1      2473 1.62688E+00
 -1      2474 1.67093E+00
 -1      2475 1.41594E+00
 -1      2476 1.65217E+00
 -1      2477 1.64636E+00
 -1      2478 1.39916E+00
 -1      2479 1.54704E+00
 -1      2480 1.65477E+00
 -1      2481 1.42124E+00
 -1      2482 1.35376E+00
 -1      2483 1.50247E+00
 -1      2484 1.37927E+00
 -1      2485 1.13599E+00
 -1      2486 1.28025E+00
 -1      2487 1.26118E+00
 -1      2488 9.07029E-01
 -1      2489 1.05308E+00
 -1      2490 1.10475E+00
 -1      2491 7.29125E-01
 -1      2492 8.16411E-01
 -1      2493 9.31222E-01
 -1      2494 5.54397E-01
 -1      2495 6.30498E-01
 -1      2496 7.41977E-01
 -1      2497 4.05665E-01
 -1      2498 4.80926E-01
 -1      2499 5.69879E-01
 -1      2500 3.65230E-01
 -1      2501 6.41973E-01
 -1      2502 6.33279E-01
 -1      2503 5.81259E-01
 -1      2504 5.68304E-01
 -1      2505 6.97822E-01
 -1      2506 5.68304E-01
 -1      2507 5.30670E-01
 -1      2508 6.45801E-01
 -1      2509 2.87378E+01
 -1      2510 3.02597E+01
 -1      2511 6.64588E-01
 -1      2512 6.64588E-01
 -1      2513 7.72458E-01
 -1      2514 8.09165E-01
 -1      2515 7.72577E-01
 -1      2516 9.03062E-01
 -1      2517 1.13099E+00
 -1      2518 8.96944E-01
 -1      2519 1.09883E+00
 -1      2520 1.53457E+00
 -1      2521 1.43421E+00
 -1      2522 1.48983E+00
 -1      2523 1.57902E+00
 -1      2524 1.56406E+00
 -1      2525 1.82254E+00
 -1      2526 1.57902E+00
 -1      2527 1.57902E+00
 -1      2528 1.85204E+00
 -1      2529 1.39263E+00
 -1      2530 1.53878E+00
 -1      2531 1.81180E+00
 -1      2532 1.17017E+00
 -1      2533 1.18336E+00
 -1      2534 1.56228E+00
 -1      2535 1.34783E+00
 -1      2536 2.86254E+01
 -1      2537 2.54692E+01
 -1      2538 1.67691E+00
 -1      2539 1.30161E+00
 -1      2540 8.38499E-01
 -1      2541 9.60390E-01
 -1      2542 6.89804E+00
 -1      2543 7.29295E+00
 -1      2544 3.17817E+01
 -1      2545 3.17817E+01
 -1      2546 8.22733E+00
 -1      2547 5.57692E+00
 -1      2548 5.22540E-01
 -1      2549 5.44615E-01
 -1      2550 4.71942E-01
 -1      2551 4.44548E-01
 -1      2552 5.00915E+00
 -1      2553 6.62388E+00
 -1      2554 7.06870E+00
 -1      2555 6.31615E+00
 -1      2556 8.99772E+00
 -1      2557 8.15073E+00
 -1      2558 9.36738E+00
 -1      2559 9.76595E+00
 -1      2560 9.16885E+00
 -1      2561 8.62598E+00
 -1      2562 8.40747E+00
 -1      2563 8.87304E+00
 -1      2564 7.97935E+00
 -1      2565 1.48530E+01
 -1      2566 1.06241E+01
 -1      2567 7.45017E+00
 -1      2568 1.89005E+01
 -1      2569 1.76605E+01
 -1      2570 2.73593E+01
 -1      2571 2.23391E+01
 -1      2572 3.23795E+01
 -1      2573 3.23795E+01
 -1      2574 2.96491E+01
 -1      2575 3.10143E+01
 -1      2576 1.60307E+01
 -1      2577 2.07793E+01
 -1      2578 9.10013E+00
 -1      2579 1.29395E+01
 -1      2580 1.15580E+01
 -1      2581 6.69149E+00
 -1      2582 7.91754E+00
 -1      2583 7.48932E+00
 -1      2584 6.40480E+00
 -1      2585 8.10472E+00
 -1      2586 9.03754E+00
 -1      2587 5.74602E+00
 -1      2588 6.62550E+00
 -1      2589 9.29720E+00
 -1      2590 7.47173E+00
 -1      2591 1.50944E+01
 -1      2592 1.06060E+01
 -1      2593 2.02679E+01
 -1      2594 1.75226E+01
 -1      2595 2.34263E+01
 -1      2596 2.46017E+01
 -1      2597 4.55974E-01
 -1      2598 6.13310E-01
 -1      2599 7.53926E-01
 -1      2600 8.16577E-01
 -1      2601 5.35505E+00
 -1      2602 1.33036E+00
 -1      2603 1.03178E+00
 -1      2604 1.05294E+00
 -1      2605 6.66485E+00
 -1      2606 1.64257E+01
 -1      2607 2.02679E+01
 -1      2608 1.26385E+01
 -1      2609 8.90141E+00
 -1      2610 5.86689E+00
 -1      2611 5.31709E+00
 -1      2612 4.80444E+00
 -1      2613 8.28944E+00
 -1      2614 7.60152E+00
 -1      2615 7.20615E+00
 -1      2616 9.65678E+00
 -1      2617 3.02597E+01
 -1      2618 2.46017E+01
 -1      2619 5.62041E+00
 -1      2620 2.86254E+01
 -1      2621 8.95434E-01
 -1      2622 8.82566E-01
 -1      2623 9.94375E-01
 -1      2624 6.88929E-01
 -1      2625 6.61271E-01
 -1      2626 7.28418E+00
 -1      2627 5.71105E-01
 -1      2628 2.27038E+01
 -1      2629 2.27038E+01
 -1      2630 1.90079E+01
 -1      2631 4.22144E+00
 -1      2632 4.74500E+00
 -1      2633 3.65368E+00
 -1      2634 3.10143E+01
 -1      2635 2.73593E+01
 -1      2636 5.70142E+00
 -1      2637 7.70545E+00
 -1      2638 1.26544E+01
 -1      2639 1.84533E+01
 -1      2640 6.85158E+00
 -1      2641 5.85519E+00
 -1      2642 1.89005E+01
 -1      2643 5.81489E+00
 -1      2644 7.93850E+00
 -1      2645 9.87641E+00
 -1      2646 8.55776E+00
 -1      2647 4.22801E-01
 -1      2648 4.08000E-01
 -1      2649 4.00210E-01
 -1      2650 3.87266E-01
 -1      2651 3.50659E-01
 -1      2652 4.36166E-01
 -1      2653 4.36166E-01
 -1      2654 4.23313E-01
 -1      2655 4.26927E-01
 -1      2656 3.52087E-01
 -1      2657 9.54919E-01
 -1      2658 6.16595E-01
 -1      2659 6.70635E-01
 -1      2660 4.01836E+00
 -1      2661 4.60024E+00
 -1      2662 1.90955E+01
 -1      2663 1.38942E+01
 -1      2664 7.67172E+00
 -1      2665 9.98148E+00
 -1      2666 6.04672E-01
 -1      2667 5.54349E-01
 -1      2668 5.50187E-01
 -1      2669 4.93517E-01
 -1      2670 4.01850E-01
 -1      2671 4.86986E-01
 -1      2672 4.30877E-01
 -1      2673 3.91158E-01
 -1      2674 4.10464E-01
 -1      2675 3.61195E-01
 -1      2676 3.64215E-01
 -1      2677 3.36443E-01
 -1      2678 3.09141E-01
 -1      2679 3.19050E-01
 -1      2680 2.84349E-01
 -1      2681 2.59487E-01
 -1      2682 2.69507E-01
 -1      2683 2.43779E-01
 -1      2684 2.20305E-01
 -1      2685 2.29007E-01
 -1      2686 2.04023E-01
 -1      2687 1.84627E-01
 -1      2688 1.97017E-01
 -1      2689 1.68760E-01
 -1      2690 1.52369E-01
 -1      2691 1.64867E-01
 -1      2692 1.38034E-01
 -1      2693 1.22407E-01
 -1      2694 1.34666E-01
 -1      2695 1.11118E-01
 -1      2696 9.88212E-02
 -1      2697 1.09042E-01
 -1      2698 8.91512E-02
 -1      2699 7.90479E-02
 -1      2700 8.80833E-02
 -1      2701 7.08184E-02
 -1      2702 6.26411E-02
 -1      2703 7.01837E-02
 -1      2704 5.54857E-02
 -1      2705 4.96199E-02
 -1      2706 5.47988E-02
 -1      2707 4.30440E-02
 -1      2708 4.11073E-02
 -1      2709 4.10674E-02
 -1      2710 4.25683E-02
 -1      2711 4.73312E-02
 -1      2712 3.59525E-02
 -1      2713 5.59430E-02
 -1      2714 6.47813E-02
 -1      2715 4.60253E-02
 -1      2716 8.09016E-02
 -1      2717 1.01351E-01
 -1      2718 7.07574E-02
 -1      2719 1.21959E-01
 -1      2720 1.49252E-01
 -1      2721 1.07485E-01
 -1      2722 1.75850E-01
 -1      2723 2.12373E-01
 -1      2724 1.54690E-01
 -1      2725 2.48249E-01
 -1      2726 2.99103E-01
 -1      2727 2.17163E-01
 -1      2728 3.45167E-01
 -1      2729 4.11781E-01
 -1      2730 2.99103E-01
 -1      2731 4.85617E-01
 -1      2732 5.72341E-01
 -1      2733 4.19004E-01
 -1      2734 6.73012E-01
 -1      2735 7.85967E-01
 -1      2736 5.93511E-01
 -1      2737 9.20581E-01
 -1      2738 1.06569E+00
 -1      2739 8.28796E-01
 -1      2740 1.24160E+00
 -1      2741 1.42471E+00
 -1      2742 1.13932E+00
 -1      2743 1.66129E+00
 -1      2744 1.88689E+00
 -1      2745 1.55180E+00
 -1      2746 2.18533E+00
 -1      2747 2.45478E+00
 -1      2748 2.08682E+00
 -1      2749 2.87133E+00
 -1      2750 3.17280E+00
 -1      2751 2.80181E+00
 -1      2752 4.10090E+00
 -1      2753 4.39074E+00
 -1      2754 4.14646E+00
 -1      2755 5.59992E+00
 -1      2756 7.29777E+00
 -1      2757 6.28374E+00
 -1      2758 5.86785E+00
 -1      2759 6.36727E+00
 -1      2760 1.22287E+01
 -1      2761 9.80049E+00
 -1      2762 5.36126E+00
 -1      2763 4.73171E+00
 -1      2764 4.42946E+00
 -1      2765 3.76668E+00
 -1      2766 5.05900E+00
 -1      2767 3.32091E+00
 -1      2768 3.07574E+00
 -1      2769 4.31097E+00
 -1      2770 2.39465E+00
 -1      2771 2.12965E+00
 -1      2772 3.18412E+00
 -1      2773 1.66787E+00
 -1      2774 1.46106E+00
 -1      2775 1.46624E+00
 -1      2776 2.04125E+00
 -1      2777 4.16526E-01
 -1      2778 4.75270E-01
 -1      2779 3.51054E-01
 -1      2780 3.89773E-01
 -1      2781 3.61106E-01
 -1      2782 4.96272E-01
 -1      2783 5.61022E-01
 -1      2784 4.08862E-01
 -1      2785 2.49288E-01
 -1      2786 2.75586E-01
 -1      2787 2.09064E-01
 -1      2788 2.31858E-01
 -1      2789 2.20468E-01
 -1      2790 1.73247E-01
 -1      2791 1.91999E-01
 -1      2792 1.85974E-01
 -1      2793 1.41784E-01
 -1      2794 1.58373E-01
 -1      2795 1.54034E-01
 -1      2796 1.14781E-01
 -1      2797 1.28992E-01
 -1      2798 1.26368E-01
 -1      2799 9.19003E-02
 -1      2800 1.03813E-01
 -1      2801 1.02609E-01
 -1      2802 7.26187E-02
 -1      2803 8.23750E-02
 -1      2804 8.21154E-02
 -1      2805 5.65079E-02
 -1      2806 6.43662E-02
 -1      2807 6.43376E-02
 -1      2808 4.38400E-02
 -1      2809 4.95390E-02
 -1      2810 4.91161E-02
 -1      2811 4.06557E-02
 -1      2812 3.92831E-02
 -1      2813 3.75902E-02
 -1      2814 4.70851E-02
 -1      2815 4.30804E-02
 -1      2816 3.54580E-02
 -1      2817 6.09485E-02
 -1      2818 5.48001E-02
 -1      2819 4.55977E-02
 -1      2820 8.80790E-02
 -1      2821 7.38649E-02
 -1      2822 6.62292E-02
 -1      2823 1.19247E-01
 -1      2824 1.03030E-01
 -1      2825 9.40962E-02
 -1      2826 1.53933E-01
 -1      2827 1.36221E-01
 -1      2828 1.26021E-01
 -1      2829 1.90504E-01
 -1      2830 1.72504E-01
 -1      2831 1.61567E-01
 -1      2832 2.25769E-01
 -1      2833 2.09622E-01
 -1      2834 1.99256E-01
 -1      2835 2.61399E-01
 -1      2836 2.45221E-01
 -1      2837 2.37825E-01
 -1      2838 2.90392E-01
 -1      2839 2.79294E-01
 -1      2840 2.75171E-01
 -1      2841 3.18729E-01
 -1      2842 3.11727E-01
 -1      2843 3.14401E-01
 -1      2844 3.33691E-01
 -1      2845 3.38602E-01
 -1      2846 3.55610E-01
 -1      2847 3.64198E-01
 -1      2848 3.42485E-01
 -1      2849 3.84277E-01
 -1      2850 4.59407E-01
 -1      2851 4.29739E-01
 -1      2852 4.58612E-01
 -1      2853 5.92464E-01
 -1      2854 5.24990E-01
 -1      2855 5.89735E-01
 -1      2856 7.55716E-01
 -1      2857 6.42663E-01
 -1      2858 7.05517E-01
 -1      2859 1.04162E+00
 -1      2860 8.99341E-01
 -1      2861 8.99341E-01
 -1      2862 1.21362E+00
 -1      2863 1.10910E+00
 -1      2864 1.11044E+00
 -1      2865 1.35882E+00
 -1      2866 1.28601E+00
 -1      2867 1.25030E+00
 -1      2868 1.53697E+00
 -1      2869 1.50833E+00
 -1      2870 1.47221E+00
 -1      2871 1.52318E+00
 -1      2872 1.55944E+00
 -1      2873 1.64420E+00
 -1      2874 1.55931E+00
 -1      2875 1.53983E+00
 -1      2876 1.68333E+00
 -1      2877 1.55513E+00
 -1      2878 1.55253E+00
 -1      2879 1.69321E+00
 -1      2880 1.38171E+00
 -1      2881 1.42628E+00
 -1      2882 1.55758E+00
 -1      2883 1.24056E+00
 -1      2884 1.31407E+00
 -1      2885 1.36109E+00
 -1      2886 1.13788E+00
 -1      2887 1.22079E+00
 -1      2888 1.27368E+00
 -1      2889 9.31222E-01
 -1      2890 1.02184E+00
 -1      2891 1.13788E+00
 -1      2892 7.41977E-01
 -1      2893 8.40604E-01
 -1      2894 9.31222E-01
 -1      2895 5.93888E-01
 -1      2896 6.67359E-01
 -1      2897 7.65985E-01
 -1      2898 6.68584E-01
 -1      2899 7.90379E-01
 -1      2900 7.38359E-01
 -1      2901 1.13830E+00
 -1      2902 1.03031E+00
 -1      2903 6.68584E-01
 -1      2904 6.68584E-01
 -1      2905 6.91367E-01
 -1      2906 7.61142E-01
 -1      2907 9.58838E-01
 -1      2908 9.36223E-01
 -1      2909 9.76760E-01
 -1      2910 1.19408E+00
 -1      2911 1.93169E+00
 -1      2912 1.62847E+00
 -1      2913 2.29075E+00
 -1      2914 2.26125E+00
 -1      2915 2.39989E+00
 -1      2916 2.42708E+00
 -1      2917 2.42708E+00
 -1      2918 2.86578E+00
 -1      2919 2.38683E+00
 -1      2920 2.42708E+00
 -1      2921 3.00211E+00
 -1      2922 2.43064E+01
 -1      2923 2.11501E+01
 -1      2924 1.47765E+01
 -1      2925 1.84090E+01
 -1      2926 2.25451E+01
 -1      2927 7.94808E-01
 -1      2928 2.09646E+01
 -1      2929 2.24865E+01
 -1      2930 7.97347E+00
 -1      2931 5.57667E+00
 -1      2932 1.47257E+00
 -1      2933 1.38479E+00
 -1      2934 1.91443E+00
 -1      2935 6.30829E+00
 -1      2936 1.17418E+01
 -1      2937 1.57817E+01
 -1      2938 5.38962E+00
 -1      2939 4.30759E+00
 -1      2940 4.36166E-01
 -1      2941 4.24240E-01
 -1      2942 3.59888E-01
 -1      2943 3.61326E-01
 -1      2944 1.71260E+01
 -1      2945 1.36874E+01
 -1      2946 1.19717E+01
 -1      2947 9.16426E+00
 -1      2948 7.29076E+00
 -1      2949 4.23565E-01
 -1      2950 4.35674E-01
 -1      2951 6.41636E+00
 -1      2952 6.91069E+00
 -1      2953 1.37688E+01
 -1      2954 1.75729E+01
 -1      2955 3.76832E+00
 -1      2956 5.55191E+00
 -1      2957 2.42198E+01
 -1      2958 1.91997E+01
 -1      2959 5.63863E+00
 -1      2960 6.55327E+00
 -1      2961 9.68740E+00
 -1      2962 1.27786E+01
 -1      2963 2.11335E+01
 -1      2964 2.24987E+01
 -1      2965 7.20374E+00
 -1      2966 6.43551E+00
 -1      2967 8.34619E+00
 -1      2968 7.03738E+00
 -1      2969 5.75307E+00
 -1      2970 7.93646E+00
 -1      2971 2.96173E-01
 -1      2972 3.23415E-01
 -1      2973 3.06713E-01
 -1      2974 2.58486E-01
 -1      2975 3.42684E-01
 -1      2976 3.87080E-01
 -1      2977 3.99966E-01
 -1      2978 5.48776E-01
 -1      2979 4.15256E+00
 -1      2980 3.39775E+00
 -1      2981 3.68698E+00
 -1      2982 5.64075E+00
 -1      2983 1.10563E+01
 -1      2984 9.33755E+00
 -1      2985 1.01907E+01
 -1      2986 9.99550E+00
 -1      2987 1.09080E+01
 -1      2988 8.55776E+00
 -1      2989 1.01973E+01
 -1      2990 1.18982E+01
 -1      2991 5.92171E+00
 -1      2992 1.51204E+00
 -1      2993 4.35674E-01
 -1      2994 5.38315E-01
 -1      2995 3.60679E-01
 -1      2996 1.50112E+01
 -1      2997 1.82797E+00
 -1      2998 2.03724E+00
 -1      2999 2.65252E+00
 -1      3000 1.94120E+00
 -1      3001 4.23084E-01
 -1      3002 5.54242E-01
 -1      3003 5.23333E-01
 -1      3004 1.49338E+01
 -1      3005 1.28772E+01
 -1      3006 1.02499E+01
 -1      3007 6.50527E-01
 -1      3008 6.15360E-01
 -1      3009 1.99433E+01
 -1      3010 1.14277E+01
 -1      3011 1.29980E+01
 -1      3012 1.43234E+01
 -1      3013 4.11528E+00
 -1      3014 3.28336E+00
 -1      3015 4.63859E+00
 -1      3016 1.47719E+01
 -1      3017 7.33713E+00
 -1      3018 4.30194E+00
 -1      3019 1.43391E+01
 -1      3020 3.50417E+00
 -1      3021 4.68312E-01
 -1      3022 4.48326E+00
 -1      3023 4.88790E+00
 -1      3024 4.07664E-01
 -1      3025 4.22172E-01
 -1      3026 3.59286E-01
 -1      3027 3.50196E-01
 -1      3028 4.16700E-01
 -1      3029 6.45878E+00
 -1      3030 1.39866E+01
 -1      3031 5.92171E+00
 -1      3032 2.92235E-01
 -1      3033 3.01475E-01
 -1      3034 6.12069E-01
 -1      3035 8.73584E+00
 -1      3036 1.14336E+01
 -1      3037 3.40805E+00
 -1      3038 4.44644E+00
 -1      3039 9.74820E+00
 -1      3040 8.03249E+00
 -1      3041 6.15454E+00
 -1      3042 3.15698E-01
 -1      3043 3.09168E-01
 -1      3044 3.20274E-01
 -1      3045 2.99862E-01
 -1      3046 2.44815E-01
 -1      3047 2.96417E-01
 -1      3048 2.71665E-01
 -1      3049 2.52477E-01
 -1      3050 2.60787E-01
 -1      3051 2.35995E-01
 -1      3052 2.38154E-01
 -1      3053 2.21803E-01
 -1      3054 2.06095E-01
 -1      3055 2.13083E-01
 -1      3056 1.92713E-01
 -1      3057 1.76430E-01
 -1      3058 1.85509E-01
 -1      3059 1.65536E-01
 -1      3060 1.49669E-01
 -1      3061 1.61232E-01
 -1      3062 1.37969E-01
 -1      3063 1.23634E-01
 -1      3064 1.38637E-01
 -1      3065 1.12558E-01
 -1      3066 1.01269E-01
 -1      3067 1.15861E-01
 -1      3068 9.09531E-02
 -1      3069 8.12830E-02
 -1      3070 9.44688E-02
 -1      3071 7.18089E-02
 -1      3072 6.35794E-02
 -1      3073 7.46787E-02
 -1      3074 5.48404E-02
 -1      3075 4.76851E-02
 -1      3076 5.64657E-02
 -1      3077 3.94039E-02
 -1      3078 3.28280E-02
 -1      3079 3.94456E-02
 -1      3080 3.01774E-02
 -1      3081 3.16384E-02
 -1      3082 2.85139E-02
 -1      3083 3.74727E-02
 -1      3084 4.60845E-02
 -1      3085 3.16976E-02
 -1      3086 6.00641E-02
 -1      3087 7.61844E-02
 -1      3088 5.15114E-02
 -1      3089 9.43507E-02
 -1      3090 1.14958E-01
 -1      3091 8.36573E-02
 -1      3092 1.40523E-01
 -1      3093 1.67120E-01
 -1      3094 1.27388E-01
 -1      3095 2.04149E-01
 -1      3096 2.40024E-01
 -1      3097 1.89982E-01
 -1      3098 2.86988E-01
 -1      3099 3.33052E-01
 -1      3100 2.73974E-01
 -1      3101 3.97426E-01
 -1      3102 4.71263E-01
 -1      3103 3.85311E-01
 -1      3104 5.58727E-01
 -1      3105 6.59398E-01
 -1      3106 5.37150E-01
 -1      3107 7.78738E-01
 -1      3108 9.13351E-01
 -1      3109 7.43953E-01
 -1      3110 1.07759E+00
 -1      3111 1.25349E+00
 -1      3112 1.02753E+00
 -1      3113 1.48228E+00
 -1      3114 1.71886E+00
 -1      3115 1.42055E+00
 -1      3116 2.04467E+00
 -1      3117 2.34311E+00
 -1      3118 1.97514E+00
 -1      3119 2.80860E+00
 -1      3120 3.22514E+00
 -1      3121 2.76644E+00
 -1      3122 3.75507E+00
 -1      3123 4.68318E+00
 -1      3124 3.76186E+00
 -1      3125 5.51976E+00
 -1      3126 6.72894E+00
 -1      3127 7.97185E+00
 -1      3128 5.12837E+00
 -1      3129 7.99859E+00
 -1      3130 9.75892E+00
 -1      3131 3.72670E-01
 -1      3132 3.61982E-01
 -1      3133 5.08553E+00
 -1      3134 4.63976E+00
 -1      3135 3.77888E+00
 -1      3136 3.09779E+00
 -1      3137 4.55343E+00
 -1      3138 3.02033E-01
 -1      3139 3.28787E-01
 -1      3140 3.28318E-01
 -1      3141 3.49320E-01
 -1      3142 2.69245E-01
 -1      3143 1.67991E-01
 -1      3144 1.85055E-01
 -1      3145 1.96332E-01
 -1      3146 2.13762E-01
 -1      3147 1.78349E-01
 -1      3148 1.16723E-01
 -1      3149 1.29515E-01
 -1      3150 9.46037E-02
 -1      3151 1.05572E-01
 -1      3152 1.08718E-01
 -1      3153 7.48379E-02
 -1      3154 8.43632E-02
 -1      3155 8.73262E-02
 -1      3156 5.72522E-02
 -1      3157 6.55047E-02
 -1      3158 6.77525E-02
 -1      3159 4.16626E-02
 -1      3160 4.86315E-02
 -1      3161 4.97987E-02
 -1      3162 2.88673E-02
 -1      3163 3.34242E-02
 -1      3164 3.29396E-02
 -1      3165 2.92467E-02
 -1      3166 2.68220E-02
 -1      3167 2.26559E-02
 -1      3168 4.41774E-02
 -1      3169 3.64624E-02
 -1      3170 2.78263E-02
 -1      3171 6.82500E-02
 -1      3172 5.53335E-02
 -1      3173 4.61982E-02
 -1      3174 9.63772E-02
 -1      3175 8.14267E-02
 -1      3176 7.05311E-02
 -1      3177 1.29053E-01
 -1      3178 1.12079E-01
 -1      3179 9.94095E-02
 -1      3180 1.66833E-01
 -1      3181 1.48262E-01
 -1      3182 1.34319E-01
 -1      3183 2.08002E-01
 -1      3184 1.88884E-01
 -1      3185 1.75579E-01
 -1      3186 2.51600E-01
 -1      3187 2.32148E-01
 -1      3188 2.21777E-01
 -1      3189 2.93922E-01
 -1      3190 2.76027E-01
 -1      3191 2.70351E-01
 -1      3192 3.41807E-01
 -1      3193 3.20472E-01
 -1      3194 3.21328E-01
 -1      3195 3.98463E-01
 -1      3196 3.78590E-01
 -1      3197 3.84661E-01
 -1      3198 4.50031E-01
 -1      3199 4.41236E-01
 -1      3200 4.64217E-01
 -1      3201 5.51853E-01
 -1      3202 4.86313E-01
 -1      3203 5.43272E-01
 -1      3204 7.04914E-01
 -1      3205 6.39331E-01
 -1      3206 6.67032E-01
 -1      3207 8.67016E-01
 -1      3208 8.16817E-01
 -1      3209 8.66413E-01
 -1      3210 1.08642E+00
 -1      3211 9.42794E-01
 -1      3212 1.05409E+00
 -1      3213 1.29741E+00
 -1      3214 1.22994E+00
 -1      3215 1.27339E+00
 -1      3216 1.43743E+00
 -1      3217 1.36504E+00
 -1      3218 1.48454E+00
 -1      3219 2.03044E+00
 -1      3220 1.88093E+00
 -1      3221 1.99566E+00
 -1      3222 2.69972E+00
 -1      3223 2.67724E+00
 -1      3224 3.08596E+00
 -1      3225 3.04118E+00
 -1      3226 3.02452E+00
 -1      3227 4.05757E+00
 -1      3228 2.59737E+00
 -1      3229 2.60415E+00
 -1      3230 3.94535E+00
 -1      3231 1.90775E+00
 -1      3232 2.03660E+00
 -1      3233 2.94755E+00
 -1      3234 1.41809E+00
 -1      3235 1.48574E+00
 -1      3236 1.96475E+00
 -1      3237 1.40665E+00
 -1      3238 1.42641E+00
 -1      3239 1.55106E+00
 -1      3240 1.13788E+00
 -1      3241 1.25392E+00
 -1      3242 1.40665E+00
 -1      3243 9.76804E-01
 -1      3244 1.06742E+00
 -1      3245 1.18346E+00
 -1      3246 7.59649E-01
 -1      3247 8.34267E-01
 -1      3248 9.70468E-01
 -1      3249 7.59649E-01
 -1      3250 4.50665E+00
 -1      3251 4.37032E+00
 -1      3252 1.12707E+01
 -1      3253 1.30906E+01
 -1      3254 4.50665E+00
 -1      3255 4.50665E+00
 -1      3256 6.01120E+00
 -1      3257 3.37595E+00
 -1      3258 3.04639E+00
 -1      3259 5.01682E+00
 -1      3260 1.25890E+01
 -1      3261 1.05343E+01
 -1      3262 8.84844E+00
 -1      3263 5.05039E-01
 -1      3264 5.71669E-01
 -1      3265 7.37601E+00
 -1      3266 8.61604E+00
 -1      3267 6.60129E+00
 -1      3268 6.29903E+00
 -1      3269 1.02816E+01
 -1      3270 1.29338E+01
 -1      3271 1.13532E+01
 -1      3272 2.67509E+00
 -1      3273 2.51918E+00
 -1      3274 3.65114E+00
 -1      3275 1.41314E-01
 -1      3276 1.56189E-01
 -1      3277 1.55270E-01
 -1      3278 1.31669E-01
 -1      3279 1.18982E+01
 -1      3280 4.86504E+00
 -1      3281 5.15808E+00
 -1      3282 3.00079E-01
 -1      3283 2.95917E-01
 -1      3284 2.13927E-01
 -1      3285 2.56049E-01
 -1      3286 1.05402E+01
 -1      3287 1.22613E+01
 -1      3288 6.97491E+00
 -1      3289 5.78413E+00
 -1      3290 5.15808E+00
 -1      3291 4.11219E+00
 -1      3292 1.29110E+01
 -1      3293 1.08374E+01
 -1      3294 9.11208E+00
 -1      3295 3.79576E-01
 -1      3296 2.92518E+00
 -1      3297 3.03982E+00
 -1      3298 3.23539E-01
 -1      3299 3.15749E-01
 -1      3300 1.97975E+00
 -1      3301 1.73326E+00
 -1      3302 2.74040E+00
 -1      3303 3.28963E-01
 -1      3304 3.67579E+00
 -1      3305 4.54023E+00
 -1      3306 4.91085E+00
 -1      3307 6.02929E+00
 -1      3308 6.45067E+00
 -1      3309 1.28686E+01
 -1      3310 3.67517E+00
 -1      3311 3.52014E+00
 -1      3312 3.94535E+00
 -1      3313 5.16952E-01
 -1      3314 1.01081E+01
 -1      3315 3.21394E+00
 -1      3316 3.07974E+00
 -1      3317 3.22424E+00
 -1      3318 4.01696E+00
 -1      3319 6.52586E+00
 -1      3320 9.54648E+00
 -1      3321 7.46869E+00
 -1      3322 8.35628E+00
 -1      3323 8.91098E+00
 -1      3324 1.14945E+01
 -1      3325 8.07585E+00
 -1      3326 8.01929E+00
 -1      3327 2.60511E-01
 -1      3328 3.20363E-01
 -1      3329 3.20363E-01
 -1      3330 6.62782E+00
 -1      3331 2.92411E-01
 -1      3332 2.60092E-01
 -1      3333 2.64771E-01
 -1      3334 2.40298E+00
 -1      3335 3.12312E-01
 -1      3336 3.12127E-01
 -1      3337 2.85192E-01
 -1      3338 2.05630E-01
 -1      3339 2.29766E-01
 -1      3340 2.50354E-01
 -1      3341 1.12510E+01
 -1      3342 9.33034E+00
 -1      3343 9.41285E+00
 -1      3344 3.09680E+00
 -1      3345 1.49378E+00
 -1      3346 1.42230E+00
 -1      3347 1.96149E+00
 -1      3348 3.20489E-01
 -1      3349 3.20489E-01
 -1      3350 8.09405E+00
 -1      3351 3.28763E-01
 -1      3352 3.21983E-01
 -1      3353 2.99774E+00
 -1      3354 3.34733E+00
 -1      3355 2.34642E-01
 -1      3356 1.26568E+00
 -1      3357 1.11984E+00
 -1      3358 1.56538E+00
 -1      3359 4.74523E+00
 -1      3360 3.28384E+00
 -1      3361 4.42938E+00
 -1      3362 3.39316E-01
 -1      3363 8.29424E-01
 -1      3364 4.38237E+00
 -1      3365 4.05757E+00
 -1      3366 4.85187E+00
 -1      3367 3.24978E-01
 -1      3368 3.23539E-01
 -1      3369 2.88629E-01
 -1      3370 2.84014E-01
 -1      3371 1.11835E+00
 -1      3372 2.81902E+00
 -1      3373 8.67262E+00
 -1      3374 3.23342E-01
 -1      3375 3.24735E-01
 -1      3376 2.84544E-01
 -1      3377 2.48219E-01
 -1      3378 8.33750E+00
 -1      3379 8.46689E+00
 -1      3380 6.58563E+00
 -1      3381 6.33060E+00
 -1      3382 2.15304E-01
 -1      3383 2.11860E-01
 -1      3384 2.15933E-01
 -1      3385 2.05055E-01
 -1      3386 1.78761E-01
 -1      3387 2.01419E-01
 -1      3388 1.87227E-01
 -1      3389 1.79199E-01
 -1      3390 1.79273E-01
 -1      3391 1.65891E-01
 -1      3392 1.67609E-01
 -1      3393 1.55580E-01
 -1      3394 1.44685E-01
 -1      3395 1.49344E-01
 -1      3396 1.36366E-01
 -1      3397 1.24665E-01
 -1      3398 1.30713E-01
 -1      3399 1.16157E-01
 -1      3400 1.05081E-01
 -1      3401 1.13885E-01
 -1      3402 9.64026E-02
 -1      3403 8.60867E-02
 -1      3404 9.66986E-02
 -1      3405 7.76680E-02
 -1      3406 6.81938E-02
 -1      3407 7.96017E-02
 -1      3408 6.02271E-02
 -1      3409 5.14882E-02
 -1      3410 6.32163E-02
 -1      3411 4.39578E-02
 -1      3412 3.56766E-02
 -1      3413 4.77192E-02
 -1      3414 3.40855E-02
 -1      3415 3.14349E-02
 -1      3416 3.85976E-02
 -1      3417 3.33880E-02
 -1      3418 3.92223E-02
 -1      3419 3.89596E-02
 -1      3420 4.79588E-02
 -1      3421 6.19384E-02
 -1      3422 4.96492E-02
 -1      3423 7.80175E-02
 -1      3424 9.61838E-02
 -1      3425 7.44648E-02
 -1      3426 1.17299E-01
 -1      3427 1.42864E-01
 -1      3428 1.11659E-01
 -1      3429 1.73770E-01
 -1      3430 2.10799E-01
 -1      3431 1.63681E-01
 -1      3432 2.46125E-01
 -1      3433 2.93088E-01
 -1      3434 2.29914E-01
 -1      3435 3.41996E-01
 -1      3436 4.06370E-01
 -1      3437 3.14147E-01
 -1      3438 4.71400E-01
 -1      3439 5.58864E-01
 -1      3440 4.28085E-01
 -1      3441 6.46365E-01
 -1      3442 7.65704E-01
 -1      3443 5.80615E-01
 -1      3444 8.86223E-01
 -1      3445 1.05046E+00
 -1      3446 7.88634E-01
 -1      3447 1.22334E+00
 -1      3448 1.45213E+00
 -1      3449 1.08203E+00
 -1      3450 1.71347E+00
 -1      3451 2.03927E+00
 -1      3452 1.51626E+00
 -1      3453 2.47758E+00
 -1      3454 2.94307E+00
 -1      3455 2.21591E+00
 -1      3456 3.35556E+00
 -1      3457 3.88550E+00
 -1      3458 3.06671E+00
 -1      3459 2.21690E-01
 -1      3460 2.21221E-01
 -1      3461 1.26088E+00
 -1      3462 8.00718E-02
 -1      3463 9.03123E-02
 -1      3464 9.92243E-02
 -1      3465 1.10376E-01
 -1      3466 9.19699E-02
 -1      3467 4.56492E-02
 -1      3468 5.42699E-02
 -1      3469 2.98070E-02
 -1      3470 3.80454E-02
 -1      3471 4.25166E-02
 -1      3472 2.70975E-02
 -1      3473 2.91428E-02
 -1      3474 3.42486E-02
 -1      3475 3.52888E-02
 -1      3476 2.80731E-02
 -1      3477 3.45599E-02
 -1      3478 5.61062E-02
 -1      3479 4.49500E-02
 -1      3480 4.51968E-02
 -1      3481 8.18129E-02
 -1      3482 6.86362E-02
 -1      3483 6.73881E-02
 -1      3484 1.11966E-01
 -1      3485 9.62639E-02
 -1      3486 9.43690E-02
 -1      3487 1.47316E-01
 -1      3488 1.28108E-01
 -1      3489 1.24962E-01
 -1      3490 1.87193E-01
 -1      3491 1.65142E-01
 -1      3492 1.58930E-01
 -1      3493 2.33626E-01
 -1      3494 2.09480E-01
 -1      3495 1.99042E-01
 -1      3496 2.88524E-01
 -1      3497 2.64097E-01
 -1      3498 2.51800E-01
 -1      3499 3.51477E-01
 -1      3500 3.24927E-01
 -1      3501 3.18673E-01
 -1      3502 4.31877E-01
 -1      3503 3.95095E-01
 -1      3504 3.98693E-01
 -1      3505 5.25355E-01
 -1      3506 4.82582E-01
 -1      3507 4.93015E-01
 -1      3508 6.42007E-01
 -1      3509 6.05725E-01
 -1      3510 6.24089E-01
 -1      3511 8.14282E-01
 -1      3512 7.26804E-01
 -1      3513 7.89256E-01
 -1      3514 1.00668E+00
 -1      3515 8.94776E-01
 -1      3516 9.54548E-01
 -1      3517 1.61984E+00
 -1      3518 1.54406E+00
 -1      3519 1.57243E+00
 -1      3520 1.41691E+00
 -1      3521 1.27339E+00
 -1      3522 1.76336E+00
 -1      3523 1.71570E+00
 -1      3524 1.64807E+00
 -1      3525 1.64807E+00
 -1      3526 2.45000E+00
 -1      3527 2.00650E+00
 -1      3528 2.17004E+00
 -1      3529 3.73277E+00
 -1      3530 3.08596E+00
 -1      3531 4.38237E+00
 -1      3532 4.05757E+00
 -1      3533 2.94755E+00
 -1      3534 3.50832E+00
 -1      3535 2.22765E+00
 -1      3536 2.21933E+00
 -1      3537 1.42983E+00
 -1      3538 1.58255E+00
 -1      3539 2.25083E+00
 -1      3540 1.16156E+00
 -1      3541 1.23201E+00
 -1      3542 1.40792E+00
 -1      3543 1.95856E-01
 -1      3544 1.75299E-01
 -1      3545 1.48301E-01
 -1      3546 6.88055E+00
 -1      3547 7.66089E+00
 -1      3548 7.66089E+00
 -1      3549 6.32388E+00
 -1      3550 5.32951E+00
 -1      3551 7.64844E+00
 -1      3552 7.14679E+00
 -1      3553 5.68055E+00
 -1      3554 7.62869E+00
 -1      3555 1.76658E-01
 -1      3556 1.83638E-01
 -1      3557 2.02526E-01
 -1      3558 1.24295E-01
 -1      3559 3.35422E+00
 -1      3560 2.81479E+00
 -1      3561 7.28669E+00
 -1      3562 7.93640E+00
 -1      3563 7.52827E+00
 -1      3564 8.01929E+00
 -1      3565 5.32951E+00
 -1      3566 4.95820E+00
 -1      3567 2.89479E+00
 -1      3568 2.53661E+00
 -1      3569 3.15644E-01
 -1      3570 3.23342E-01
 -1      3571 2.88790E-01
 -1      3572 6.22549E-02
 -1      3573 7.15881E-02
 -1      3574 7.45742E-02
 -1      3575 5.81054E-02
 -1      3576 1.92385E-01
 -1      3577 2.03492E-01
 -1      3578 1.62874E-01
 -1      3579 2.86106E-01
 -1      3580 2.64743E-01
 -1      3581 2.02839E-01
 -1      3582 2.45916E-01
 -1      3583 1.61155E-01
 -1      3584 1.72431E-01
 -1      3585 4.38237E+00
 -1      3586 3.31164E+00
 -1      3587 3.77605E+00
 -1      3588 7.64388E+00
 -1      3589 6.55470E+00
 -1      3590 6.40208E+00
 -1      3591 5.34450E+00
 -1      3592 5.04619E+00
 -1      3593 7.01549E+00
 -1      3594 1.30943E+00
 -1      3595 3.20213E+00
 -1      3596 6.63657E+00
 -1      3597 2.30376E-01
 -1      3598 1.82352E-01
 -1      3599 2.20753E-01
 -1      3600 4.43182E+00
 -1      3601 5.26840E+00
 -1      3602 5.63405E+00
 -1      3603 4.02553E+00
 -1      3604 5.68055E+00
 -1      3605 4.81967E+00
 -1      3606 2.36052E-01
 -1      3607 2.52400E-01
 -1      3608 2.48963E-01
 -1      3609 1.82292E-01
 -1      3610 1.98296E-01
 -1      3611 1.65098E-01
 -1      3612 1.51381E-01
 -1      3613 1.45463E-01
 -1      3614 1.39579E-01
 -1      3615 3.09680E+00
 -1      3616 5.81849E+00
 -1      3617 5.37334E+00
 -1      3618 3.94535E+00
 -1      3619 1.96475E+00
 -1      3620 2.38677E+00
 -1      3621 2.46084E+00
 -1      3622 4.34087E+00
 -1      3623 2.48250E-01
 -1      3624 2.44004E-01
 -1      3625 2.72226E+00
 -1      3626 2.48278E+00
 -1      3627 3.33608E+00
 -1      3628 2.85273E-01
 -1      3629 5.94679E+00
 -1      3630 6.12379E+00
 -1      3631 2.52400E-01
 -1      3632 2.52400E-01
 -1      3633 2.16171E-01
 -1      3634 7.17585E+00
 -1      3635 6.00017E+00
 -1      3636 6.18218E+00
 -1      3637 1.75848E+00
 -1      3638 1.60186E+00
 -1      3639 1.50253E+00
 -1      3640 2.51926E+00
 -1      3641 4.18460E+00
 -1      3642 3.14570E+00
 -1      3643 4.06082E+00
 -1      3644 2.53661E+00
 -1      3645 1.19371E-01
 -1      3646 1.31171E-01
 -1      3647 1.27281E-01
 -1      3648 1.09877E-01
 -1      3649 3.00143E+00
 -1      3650 1.76241E-01
 -1      3651 1.96022E-01
 -1      3652 1.54699E-01
 -1      3653 1.84935E-01
 -1      3654 3.22424E+00
 -1      3655 2.98333E+00
 -1      3656 2.64135E+00
 -1      3657 5.97899E+00
 -1      3658 2.33823E+00
 -1      3659 1.49150E-01
 -1      3660 1.53223E-01
 -1      3661 1.59583E-01
 -1      3662 1.55947E-01
 -1      3663 1.29972E-01
 -1      3664 1.55511E-01
 -1      3665 1.47557E-01
 -1      3666 1.35895E-01
 -1      3667 1.42843E-01
 -1      3668 1.32532E-01
 -1      3669 1.30745E-01
 -1      3670 1.25584E-01
 -1      3671 1.17265E-01
 -1      3672 1.19083E-01
 -1      3673 1.09820E-01
 -1      3674 1.01311E-01
 -1      3675 1.04690E-01
 -1      3676 9.48833E-02
 -1      3677 8.62052E-02
 -1      3678 9.08179E-02
 -1      3679 7.94795E-02
 -1      3680 7.10608E-02
 -1      3681 7.76643E-02
 -1      3682 6.44532E-02
 -1      3683 5.64865E-02
 -1      3684 6.43310E-02
 -1      3685 5.02052E-02
 -1      3686 4.26748E-02
 -1      3687 5.14421E-02
 -1      3688 4.22302E-02
 -1      3689 4.06391E-02
 -1      3690 4.47163E-02
 -1      3691 4.20585E-02
 -1      3692 4.40116E-02
 -1      3693 4.56911E-02
 -1      3694 4.71852E-02
 -1      3695 5.59217E-02
 -1      3696 5.02841E-02
 -1      3697 6.56291E-02
 -1      3698 8.17082E-02
 -1      3699 6.31650E-02
 -1      3700 9.73812E-02
 -1      3701 1.18496E-01
 -1      3702 8.85454E-02
 -1      3703 1.41757E-01
 -1      3704 1.72663E-01
 -1      3705 1.27479E-01
 -1      3706 1.95871E-01
 -1      3707 2.31197E-01
 -1      3708 1.73947E-01
 -1      3709 2.63320E-01
 -1      3710 3.12227E-01
 -1      3711 2.29277E-01
 -1      3712 3.52533E-01
 -1      3713 4.17562E-01
 -1      3714 3.01705E-01
 -1      3715 4.73128E-01
 -1      3716 5.60629E-01
 -1      3717 3.97576E-01
 -1      3718 6.40271E-01
 -1      3719 7.60790E-01
 -1      3720 5.32784E-01
 -1      3721 8.86718E-01
 -1      3722 1.05960E+00
 -1      3723 7.38354E-01
 -1      3724 1.24600E+00
 -1      3725 1.50734E+00
 -1      3726 1.05068E+00
 -1      3727 1.79915E+00
 -1      3728 2.23746E+00
 -1      3729 1.52889E+00
 -1      3730 2.46441E+00
 -1      3731 2.87690E+00
 -1      3732 2.04765E+00
 -1      3733 5.03259E+00
 -1      3734 2.05204E-01
 -1      3735 2.19621E-01
 -1      3736 1.89905E-01
 -1      3737 1.81866E-01
 -1      3738 2.96986E+00
 -1      3739 2.58081E+00
 -1      3740 2.72508E+00
 -1      3741 3.81480E-02
 -1      3742 3.88122E-02
 -1      3743 3.86349E-02
 -1      3744 4.62387E-02
 -1      3745 4.25343E-02
 -1      3746 5.29325E-02
 -1      3747 4.32713E-02
 -1      3748 7.71415E-02
 -1      3749 6.46115E-02
 -1      3750 6.26860E-02
 -1      3751 1.05854E-01
 -1      3752 9.14032E-02
 -1      3753 8.86267E-02
 -1      3754 1.39049E-01
 -1      3755 1.22906E-01
 -1      3756 1.19940E-01
 -1      3757 1.76756E-01
 -1      3758 1.58930E-01
 -1      3759 1.56874E-01
 -1      3760 2.21329E-01
 -1      3761 1.99042E-01
 -1      3762 1.99042E-01
 -1      3763 2.77069E-01
 -1      3764 2.46598E-01
 -1      3765 2.46598E-01
 -1      3766 3.49269E-01
 -1      3767 3.12866E-01
 -1      3768 3.07664E-01
 -1      3769 4.40359E-01
 -1      3770 3.96741E-01
 -1      3771 3.90934E-01
 -1      3772 5.67678E-01
 -1      3773 5.16974E-01
 -1      3774 5.15021E-01
 -1      3775 7.38285E-01
 -1      3776 6.57915E-01
 -1      3777 6.81873E-01
 -1      3778 9.19604E-01
 -1      3779 8.34807E-01
 -1      3780 8.68632E-01
 -1      3781 1.13636E+00
 -1      3782 1.05587E+00
 -1      3783 1.10142E+00
 -1      3784 2.18909E+00
 -1      3785 1.65171E+00
 -1      3786 1.75303E+00
 -1      3787 1.98308E+00
 -1      3788 2.32953E+00
 -1      3789 2.21424E+00
 -1      3790 2.24581E+00
 -1      3791 5.09518E+00
 -1      3792 4.80266E+00
 -1      3793 7.62869E+00
 -1      3794 1.50819E-01
 -1      3795 1.25453E-01
 -1      3796 1.61711E-01
 -1      3797 1.73524E-01
 -1      3798 1.47987E-01
 -1      3799 2.53568E-01
 -1      3800 2.13028E-01
 -1      3801 2.53568E-01
 -1      3802 4.51981E+00
 -1      3803 4.70638E+00
 -1      3804 4.55376E+00
 -1      3805 2.28863E-01
 -1      3806 2.33478E-01
 -1      3807 1.97249E-01
 -1      3808 1.51991E-01
 -1      3809 2.19318E-01
 -1      3810 4.42729E+00
 -1      3811 2.50050E-01
 -1      3812 2.53568E-01
 -1      3813 2.18345E-01
 -1      3814 2.17258E-01
 -1      3815 2.94755E+00
 -1      3816 1.55743E+00
 -1      3817 1.75524E+00
 -1      3818 2.48774E+00
 -1      3819 1.84985E+00
 -1      3820 1.83023E-01
 -1      3821 2.64135E+00
 -1      3822 4.03006E-02
 -1      3823 3.93250E-02
 -1      3824 4.38886E-02
 -1      3825 8.24161E-02
 -1      3826 9.13281E-02
 -1      3827 1.79386E-01
 -1      3828 1.90036E-01
 -1      3829 1.95353E-01
 -1      3830 3.21816E+00
 -1      3831 3.88512E+00
 -1      3832 2.72522E+00
 -1      3833 3.75131E+00
 -1      3834 4.29764E+00
 -1      3835 3.14902E+00
 -1      3836 1.46234E-01
 -1      3837 1.56095E-01
 -1      3838 4.95638E+00
 -1      3839 5.06722E+00
 -1      3840 4.05139E+00
 -1      3841 2.89593E+00
 -1      3842 6.69762E-02
 -1      3843 7.54599E-02
 -1      3844 7.48181E-02
 -1      3845 6.08383E+00
 -1      3846 5.97322E+00
 -1      3847 5.68038E+00
 -1      3848 5.02163E+00
 -1      3849 7.76316E+00
 -1      3850 8.87204E-02
 -1      3851 9.82742E-02
 -1      3852 1.07270E-01
 -1      3853 4.83898E-02
 -1      3854 5.22715E-02
 -1      3855 6.02565E-02
 -1      3856 2.40881E+00
 -1      3857 1.40018E-01
 -1      3858 1.31015E-01
 -1      3859 1.30244E-01
 -1      3860 1.45847E-01
 -1      3861 1.23000E-01
 -1      3862 1.54533E-01
 -1      3863 4.80363E-02
 -1      3864 3.98308E+00
 -1      3865 1.97828E-01
 -1      3866 1.98915E-01
 -1      3867 3.75788E+00
 -1      3868 1.84157E-01
 -1      3869 1.84157E-01
 -1      3870 1.65814E-01
 -1      3871 2.57415E+00
 -1      3872 2.58465E+00
 -1      3873 1.19148E-01
 -1      3874 1.18712E-01
 -1      3875 1.19317E-01
 -1      3876 1.14604E-01
 -1      3877 1.02571E-01
 -1      3878 1.11670E-01
 -1      3879 1.04721E-01
 -1      3880 1.00242E-01
 -1      3881 9.98612E-02
 -1      3882 9.24165E-02
 -1      3883 9.24475E-02
 -1      3884 8.66057E-02
 -1      3885 8.01777E-02
 -1      3886 8.17763E-02
 -1      3887 7.43649E-02
 -1      3888 6.76392E-02
 -1      3889 7.01527E-02
 -1      3890 6.27001E-02
 -1      3891 5.60925E-02
 -1      3892 5.94008E-02
 -1      3893 5.34384E-02
 -1      3894 4.71571E-02
 -1      3895 5.18075E-02
 -1      3896 4.65299E-02
 -1      3897 4.60853E-02
 -1      3898 4.85261E-02
 -1      3899 4.65849E-02
 -1      3900 4.80043E-02
 -1      3901 4.83985E-02
 -1      3902 5.02841E-02
 -1      3903 5.34576E-02
 -1      3904 5.11779E-02
 -1      3905 6.01804E-02
 -1      3906 6.98879E-02
 -1      3907 6.01804E-02
 -1      3908 7.96644E-02
 -1      3909 9.53373E-02
 -1      3910 7.66798E-02
 -1      3911 1.12116E-01
 -1      3912 1.35376E-01
 -1      3913 1.03235E-01
 -1      3914 1.52771E-01
 -1      3915 1.75979E-01
 -1      3916 1.37409E-01
 -1      3917 2.02733E-01
 -1      3918 2.34856E-01
 -1      3919 1.81558E-01
 -1      3920 2.70645E-01
 -1      3921 3.10950E-01
 -1      3922 2.44101E-01
 -1      3923 3.58673E-01
 -1      3924 4.14238E-01
 -1      3925 3.27612E-01
 -1      3926 4.77768E-01
 -1      3927 5.57410E-01
 -1      3928 4.38865E-01
 -1      3929 6.42211E-01
 -1      3930 7.68139E-01
 -1      3931 5.87195E-01
 -1      3932 8.81565E-01
 -1      3933 1.06796E+00
 -1      3934 7.85422E-01
 -1      3935 1.30174E+00
 -1      3936 1.59355E+00
 -1      3937 1.13263E+00
 -1      3938 2.14945E+00
 -1      3939 2.37640E+00
 -1      3940 1.92230E+00
 -1      3941 1.28654E-01
 -1      3942 1.11602E-01
 -1      3943 4.53362E-02
 -1      3944 4.51589E-02
 -1      3945 9.55571E-02
 -1      3946 8.12954E-02
 -1      3947 1.04270E-01
 -1      3948 7.06912E-02
 -1      3949 5.90122E-02
 -1      3950 7.76217E-02
 -1      3951 1.68744E-01
 -1      3952 1.48863E-01
 -1      3953 1.40524E-01
 -1      3954 2.16120E-01
 -1      3955 1.93834E-01
 -1      3956 1.85823E-01
 -1      3957 2.71867E-01
 -1      3958 2.46598E-01
 -1      3959 2.41390E-01
 -1      3960 3.43461E-01
 -1      3961 3.07664E-01
 -1      3962 3.07664E-01
 -1      3963 4.37486E-01
 -1      3964 3.90013E-01
 -1      3965 3.90013E-01
 -1      3966 5.83946E-01
 -1      3967 5.07331E-01
 -1      3968 5.06411E-01
 -1      3969 7.73809E-01
 -1      3970 6.83572E-01
 -1      3971 6.75882E-01
 -1      3972 1.03021E+00
 -1      3973 9.33692E-01
 -1      3974 9.35391E-01
 -1      3975 1.43750E+00
 -1      3976 1.30124E+00
 -1      3977 1.36630E+00
 -1      3978 2.27009E+00
 -1      3979 1.75475E+00
 -1      3980 1.95457E+00
 -1      3981 1.98915E-01
 -1      3982 1.75923E-01
 -1      3983 1.14038E-01
 -1      3984 1.22446E-01
 -1      3985 1.02435E-01
 -1      3986 1.40326E-01
 -1      3987 1.59190E-01
 -1      3988 1.66097E-01
 -1      3989 4.76420E-02
 -1      3990 4.64650E-02
 -1      3991 4.90896E-02
 -1      3992 1.26224E-01
 -1      3993 1.01850E-01
 -1      3994 1.29786E-01
 -1      3995 1.98915E-01
 -1      3996 1.53150E-01
 -1      3997 1.50631E-01
 -1      3998 1.72071E-01
 -1      3999 3.39541E+00
 -1      4000 3.29913E+00
 -1      4001 5.32432E-02
 -1      4002 5.02724E-02
 -1      4003 6.12484E-02
 -1      4004 1.08730E-01
 -1      4005 1.15090E-01
 -1      4006 9.79069E-02
 -1      4007 8.69680E-02
 -1      4008 1.79485E-01
 -1      4009 1.40057E-01
 -1      4010 3.07931E+00
 -1      4011 2.41066E+00
 -1      4012 2.49163E+00
 -1      4013 4.67051E-02
 -1      4014 4.39033E-02
 -1      4015 4.99361E-02
 -1      4016 6.11422E-02
 -1      4017 4.74742E+00
 -1      4018 7.78043E-02
 -1      4019 8.47504E-02
 -1      4020 1.35085E-01
 -1      4021 1.17001E-01
 -1      4022 1.23041E-01
 -1      4023 1.26136E-01
 -1      4024 5.28489E-02
 -1      4025 6.56300E-02
 -1      4026 7.25862E-02
 -1      4027 6.86162E-02
 -1      4028 3.27878E+00
 -1      4029 2.59482E+00
 -1      4030 1.63700E-01
 -1      4031 1.64832E-01
 -1      4032 1.28327E-01
 -1      4033 1.41024E-01
 -1      4034 2.40894E+00
 -1      4035 1.39434E-01
 -1      4036 1.39434E-01
 -1      4037 8.97352E-02
 -1      4038 1.25763E-01
 -1      4039 1.15383E-01
 -1      4040 1.21600E-01
 -1      4041 1.07410E-01
 -1      4042 4.95638E+00
 -1      4043 4.02343E+00
 -1      4044 2.34603E+00
 -1      4045 3.22044E+00
 -1      4046 8.94873E-02
 -1      4047 8.65534E-02
 -1      4048 8.45212E-02
 -1      4049 7.96609E-02
 -1      4050 7.37668E-02
 -1      4051 7.70725E-02
 -1      4052 7.12617E-02
 -1      4053 6.91463E-02
 -1      4054 6.93229E-02
 -1      4055 6.35101E-02
 -1      4056 6.46191E-02
 -1      4057 6.06067E-02
 -1      4058 5.56676E-02
 -1      4059 5.97769E-02
 -1      4060 5.32994E-02
 -1      4061 5.06453E-02
 -1      4062 5.45053E-02
 -1      4063 4.91534E-02
 -1      4064 4.85261E-02
 -1      4065 5.06453E-02
 -1      4066 4.83985E-02
 -1      4067 4.88981E-02
 -1      4068 4.90258E-02
 -1      4069 5.12526E-02
 -1      4070 5.35324E-02
 -1      4071 5.12526E-02
 -1      4072 5.86766E-02
 -1      4073 6.53994E-02
 -1      4074 5.87514E-02
 -1      4075 7.36989E-02
 -1      4076 8.34754E-02
 -1      4077 7.21951E-02
 -1      4078 9.77734E-02
 -1      4079 1.14552E-01
 -1      4080 9.47925E-02
 -1      4081 1.27796E-01
 -1      4082 1.45190E-01
 -1      4083 1.22334E-01
 -1      4084 1.65165E-01
 -1      4085 1.91919E-01
 -1      4086 1.55552E-01
 -1      4087 2.18915E-01
 -1      4088 2.54704E-01
 -1      4089 2.02522E-01
 -1      4090 3.07687E-01
 -1      4091 3.55409E-01
 -1      4092 2.82501E-01
 -1      4093 4.33108E-01
 -1      4094 4.96638E-01
 -1      4095 4.13183E-01
 -1      4096 6.09783E-01
 -1      4097 6.94584E-01
 -1      4098 6.04027E-01
 -1      4099 8.57922E-01
 -1      4100 9.71348E-01
 -1      4101 8.80510E-01
 -1      4102 1.21267E+00
 -1      4103 1.44645E+00
 -1      4104 1.28517E+00
 -1      4105 1.56067E+00
 -1      4106 2.11657E+00
 -1      4107 1.64072E+00
 -1      4108 2.11212E-01
 -1      4109 1.86122E-01
 -1      4110 5.02184E-02
 -1      4111 4.90896E-02
 -1      4112 1.57607E-01
 -1      4113 1.37398E-01
 -1      4114 1.82996E-01
 -1      4115 2.23319E+00
 -1      4116 1.06610E-01
 -1      4117 1.23668E-01
 -1      4118 9.72879E-02
 -1      4119 1.16910E-01
 -1      4120 5.43371E-02
 -1      4121 6.10567E-02
 -1      4122 5.88249E-02
 -1      4123 8.55776E-02
 -1      4124 7.49734E-02
 -1      4125 2.80692E-01
 -1      4126 2.50215E-01
 -1      4127 2.50515E-01
 -1      4128 3.69736E-01
 -1      4129 3.33939E-01
 -1      4130 3.42764E-01
 -1      4131 4.88637E-01
 -1      4132 4.42085E-01
 -1      4133 4.68359E-01
 -1      4134 6.55652E-01
 -1      4135 5.85806E-01
 -1      4136 6.37878E-01
 -1      4137 9.09677E-01
 -1      4138 8.10052E-01
 -1      4139 8.89447E-01
 -1      4140 1.31089E+00
 -1      4141 1.15100E+00
 -1      4142 1.28517E+00
 -1      4143 1.69613E+00
 -1      4144 1.42511E+00
 -1      4145 1.64072E+00
 -1      4146 2.41066E+00
 -1      4147 7.27591E-02
 -1      4148 6.31116E-02
 -1      4149 6.99920E-02
 -1      4150 5.54793E-02
 -1      4151 5.28489E-02
 -1      4152 5.28489E-02
 -1      4153 9.10893E-02
 -1      4154 9.78576E-02
 -1      4155 8.01732E-02
 -1      4156 2.44782E+00
 -1      4157 8.94207E-02
 -1      4158 9.00258E-02
 -1      4159 7.63375E-02
 -1      4160 6.70174E-02
 -1      4161 6.12484E-02
 -1      4162 7.49734E-02
 -1      4163 1.03485E-01
 -1      4164 1.11283E-01
 -1      4165 1.01868E-01
 -1      4166 9.21396E-02
 -1      4167 1.16606E-01
 -1      4168 1.00562E-01
 -1      4169 9.79137E-02
 -1      4170 2.27182E+00
 -1      4171 4.79608E-02
 -1      4172 4.67051E-02
 -1      4173 4.90896E-02
 -1      4174 7.06644E-02
 -1      4175 7.93113E-02
 -1      4176 8.33698E-02
 -1      4177 7.08251E-02
 -1      4178 5.54549E-02
 -1      4179 1.75494E+00
 -1      4180 2.23319E+00
 -1      4181 1.33690E-01
 -1      4182 1.95457E+00
 -1      4183 1.27032E-01
 -1      4184 1.24634E-01
 -1      4185 1.02917E-01
 -1      4186 1.09746E-01
 -1      4187 6.12484E-02
 -1      4188 3.22044E+00
 -1      4189 6.99483E-02
 -1      4190 7.62872E-02
 -1      4191 4.98505E-02
 -1      4192 6.20974E-02
 -1      4193 6.73155E-02
 -1      4194 6.34294E-02
 -1      4195 9.32219E-02
 -1      4196 9.46633E-02
 -1      4197 1.45029E-01
 -1      4198 1.24238E-01
 -1      4199 7.32352E-02
 -1      4200 7.06469E-02
 -1      4201 6.63101E-02
 -1      4202 6.43713E-02
 -1      4203 6.17385E-02
 -1      4204 5.88351E-02
 -1      4205 5.31944E-02
 -1      4206 5.17025E-02
 -1      4207 4.85571E-02
 -1      4208 4.84294E-02
 -1      4209 4.95583E-02
 -1      4210 5.19128E-02
 -1      4211 5.45432E-02
 -1      4212 5.96875E-02
 -1      4213 6.54565E-02
 -1      4214 7.37560E-02
 -1      4215 8.17119E-02
 -1      4216 9.60099E-02
 -1      4217 1.10994E-01
 -1      4218 1.65004E-01
 -1      4219 1.93519E-01
 -1      4220 2.20515E-01
 -1      4221 2.59518E-01
 -1      4222 3.12501E-01
 -1      4223 3.65747E-01
 -1      4224 4.43446E-01
 -1      4225 5.15795E-01
 -1      4226 6.28940E-01
 -1      4227 7.26109E-01
 -1      4228 8.89447E-01
 -1      4229 1.04385E+00
 -1      4230 1.28517E+00
 -1      4231 1.52650E+00
 -1      4232 1.64072E+00
 -1      4233 7.38658E-02
 -1      4234 4.93370E-02
 -1      4235 5.86563E-02
 -1      4236 8.15900E-02
 -1      4237 3.24841E+00
 -1      4238 9.09721E-02
 -1      4239 9.18672E-02
 -1      4240 7.67841E-02
 -1      4241 2.01338E+00
 -1      4242 7.03990E-02
 -1      4243 7.86757E-02
 -1      4244 7.49844E-02
 -1      4245 4.98505E-02
 -1      4246 5.42516E-02
 -1      4247 5.64294E-02
 -1      4248 6.10026E-02
 -1      4249 5.97019E-02
 -1      4250 5.64294E-02
 -1      4251 9.27306E-02
 -1      4252 7.99840E-02
 -1      4253 8.86300E-02
 -1      4254 8.06240E-02
 -1      4255 7.76459E-02
 -1      4256 7.56137E-02
 -1      4257 7.81372E-02
 -1      4258 5.11062E-02
 -1      4259 5.53722E-02
 -1      4260 6.89335E-02
 -1      4261 5.77403E-02
 -1      4262 6.28156E-02
 -1      4263 7.71143E-02
 -1      4264 8.62515E-02
 -3
 9999
