    1C
    1UUSER                                                              
    1UDATE              27.october.2022                                 
    1UTIME              01:05:03                                        
    1UHOST                                                              
    1UPGM               CalculiX                                        
    1UVERSION           Version 2.17                             
    1UCOMPILETIME       Thu Jul 23 21:43:50 CEST 2020                    
    1UDIR                                                               
    1UDBN                                                               
    1UMAT    1SOLIDMATERIAL                                             
    2C                          4348                                     1
 -1         1 1.09939E+02 2.63639E+01 0.00000E+00
 -1         2 1.21249E+02 2.08483E+01 0.00000E+00
 -1         3 1.50000E+02 0.00000E+00 0.00000E+00
 -1         4 1.50000E+02 5.00000E+01 0.00000E+00
 -1         5 0.00000E+00 0.00000E+00 0.00000E+00
 -1         6 0.00000E+00 5.00000E+01 0.00000E+00
 -1         7 0.00000E+00 4.70500E+01 0.00000E+00
 -1         8 0.00000E+00 4.41000E+01 0.00000E+00
 -1         9 0.00000E+00 4.11500E+01 0.00000E+00
 -1        10 0.00000E+00 3.82000E+01 0.00000E+00
 -1        11 0.00000E+00 3.52500E+01 0.00000E+00
 -1        12 0.00000E+00 3.23500E+01 0.00000E+00
 -1        13 0.00000E+00 2.94000E+01 0.00000E+00
 -1        14 0.00000E+00 2.64500E+01 0.00000E+00
 -1        15 0.00000E+00 2.35000E+01 0.00000E+00
 -1        16 0.00000E+00 2.05500E+01 0.00000E+00
 -1        17 0.00000E+00 1.76000E+01 0.00000E+00
 -1        18 0.00000E+00 1.47000E+01 0.00000E+00
 -1        19 0.00000E+00 1.17500E+01 0.00000E+00
 -1        20 0.00000E+00 8.80000E+00 0.00000E+00
 -1        21 0.00000E+00 5.85000E+00 0.00000E+00
 -1        22 0.00000E+00 2.90000E+00 0.00000E+00
 -1        23 3.15000E+00 5.00000E+01 0.00000E+00
 -1        24 6.15000E+00 5.00000E+01 0.00000E+00
 -1        25 9.15000E+00 5.00000E+01 0.00000E+00
 -1        26 1.21500E+01 5.00000E+01 0.00000E+00
 -1        27 1.51500E+01 5.00000E+01 0.00000E+00
 -1        28 1.81500E+01 5.00000E+01 0.00000E+00
 -1        29 2.11500E+01 5.00000E+01 0.00000E+00
 -1        30 2.41500E+01 5.00000E+01 0.00000E+00
 -1        31 2.71500E+01 5.00000E+01 0.00000E+00
 -1        32 3.01500E+01 5.00000E+01 0.00000E+00
 -1        33 3.31500E+01 5.00000E+01 0.00000E+00
 -1        34 3.61500E+01 5.00000E+01 0.00000E+00
 -1        35 3.91500E+01 5.00000E+01 0.00000E+00
 -1        36 4.21500E+01 5.00000E+01 0.00000E+00
 -1        37 4.51500E+01 5.00000E+01 0.00000E+00
 -1        38 4.81500E+01 5.00000E+01 0.00000E+00
 -1        39 5.11500E+01 5.00000E+01 0.00000E+00
 -1        40 5.41500E+01 5.00000E+01 0.00000E+00
 -1        41 5.71500E+01 5.00000E+01 0.00000E+00
 -1        42 6.01500E+01 5.00000E+01 0.00000E+00
 -1        43 6.31500E+01 5.00000E+01 0.00000E+00
 -1        44 6.61500E+01 5.00000E+01 0.00000E+00
 -1        45 6.91500E+01 5.00000E+01 0.00000E+00
 -1        46 7.21500E+01 5.00000E+01 0.00000E+00
 -1        47 7.51500E+01 5.00000E+01 0.00000E+00
 -1        48 7.81500E+01 5.00000E+01 0.00000E+00
 -1        49 8.11500E+01 5.00000E+01 0.00000E+00
 -1        50 8.41500E+01 5.00000E+01 0.00000E+00
 -1        51 8.71500E+01 5.00000E+01 0.00000E+00
 -1        52 9.01500E+01 5.00000E+01 0.00000E+00
 -1        53 9.31500E+01 5.00000E+01 0.00000E+00
 -1        54 9.61500E+01 5.00000E+01 0.00000E+00
 -1        55 9.91500E+01 5.00000E+01 0.00000E+00
 -1        56 1.02150E+02 5.00000E+01 0.00000E+00
 -1        57 1.05150E+02 5.00000E+01 0.00000E+00
 -1        58 1.08150E+02 5.00000E+01 0.00000E+00
 -1        59 1.11150E+02 5.00000E+01 0.00000E+00
 -1        60 1.14150E+02 5.00000E+01 0.00000E+00
 -1        61 1.17150E+02 5.00000E+01 0.00000E+00
 -1        62 1.20150E+02 5.00000E+01 0.00000E+00
 -1        63 1.23150E+02 5.00000E+01 0.00000E+00
 -1        64 1.26150E+02 5.00000E+01 0.00000E+00
 -1        65 1.29150E+02 5.00000E+01 0.00000E+00
 -1        66 1.32150E+02 5.00000E+01 0.00000E+00
 -1        67 1.35150E+02 5.00000E+01 0.00000E+00
 -1        68 1.38150E+02 5.00000E+01 0.00000E+00
 -1        69 1.41150E+02 5.00000E+01 0.00000E+00
 -1        70 1.44150E+02 5.00000E+01 0.00000E+00
 -1        71 1.47150E+02 5.00000E+01 0.00000E+00
 -1        72 3.15000E+00 0.00000E+00 0.00000E+00
 -1        73 6.15000E+00 0.00000E+00 0.00000E+00
 -1        74 9.15000E+00 0.00000E+00 0.00000E+00
 -1        75 1.21500E+01 0.00000E+00 0.00000E+00
 -1        76 1.51500E+01 0.00000E+00 0.00000E+00
 -1        77 1.81500E+01 0.00000E+00 0.00000E+00
 -1        78 2.11500E+01 0.00000E+00 0.00000E+00
 -1        79 2.41500E+01 0.00000E+00 0.00000E+00
 -1        80 2.71500E+01 0.00000E+00 0.00000E+00
 -1        81 3.01500E+01 0.00000E+00 0.00000E+00
 -1        82 3.31500E+01 0.00000E+00 0.00000E+00
 -1        83 3.61500E+01 0.00000E+00 0.00000E+00
 -1        84 3.91500E+01 0.00000E+00 0.00000E+00
 -1        85 4.21500E+01 0.00000E+00 0.00000E+00
 -1        86 4.51500E+01 0.00000E+00 0.00000E+00
 -1        87 4.81500E+01 0.00000E+00 0.00000E+00
 -1        88 5.11500E+01 0.00000E+00 0.00000E+00
 -1        89 5.41500E+01 0.00000E+00 0.00000E+00
 -1        90 5.71500E+01 0.00000E+00 0.00000E+00
 -1        91 6.01500E+01 0.00000E+00 0.00000E+00
 -1        92 6.31500E+01 0.00000E+00 0.00000E+00
 -1        93 6.61500E+01 0.00000E+00 0.00000E+00
 -1        94 6.91500E+01 0.00000E+00 0.00000E+00
 -1        95 7.21500E+01 0.00000E+00 0.00000E+00
 -1        96 7.51500E+01 0.00000E+00 0.00000E+00
 -1        97 7.81500E+01 0.00000E+00 0.00000E+00
 -1        98 8.11500E+01 0.00000E+00 0.00000E+00
 -1        99 8.41500E+01 0.00000E+00 0.00000E+00
 -1       100 8.71500E+01 0.00000E+00 0.00000E+00
 -1       101 9.01500E+01 0.00000E+00 0.00000E+00
 -1       102 9.31500E+01 0.00000E+00 0.00000E+00
 -1       103 9.61500E+01 0.00000E+00 0.00000E+00
 -1       104 9.91500E+01 0.00000E+00 0.00000E+00
 -1       105 1.02150E+02 0.00000E+00 0.00000E+00
 -1       106 1.05150E+02 0.00000E+00 0.00000E+00
 -1       107 1.08150E+02 0.00000E+00 0.00000E+00
 -1       108 1.11150E+02 0.00000E+00 0.00000E+00
 -1       109 1.14150E+02 0.00000E+00 0.00000E+00
 -1       110 1.17150E+02 0.00000E+00 0.00000E+00
 -1       111 1.20150E+02 0.00000E+00 0.00000E+00
 -1       112 1.23150E+02 0.00000E+00 0.00000E+00
 -1       113 1.26150E+02 0.00000E+00 0.00000E+00
 -1       114 1.29150E+02 0.00000E+00 0.00000E+00
 -1       115 1.32150E+02 0.00000E+00 0.00000E+00
 -1       116 1.35150E+02 0.00000E+00 0.00000E+00
 -1       117 1.38150E+02 0.00000E+00 0.00000E+00
 -1       118 1.41150E+02 0.00000E+00 0.00000E+00
 -1       119 1.44150E+02 0.00000E+00 0.00000E+00
 -1       120 1.47150E+02 0.00000E+00 0.00000E+00
 -1       121 1.50000E+02 2.95000E+00 0.00000E+00
 -1       122 1.50000E+02 5.90000E+00 0.00000E+00
 -1       123 1.50000E+02 8.85000E+00 0.00000E+00
 -1       124 1.50000E+02 1.18000E+01 0.00000E+00
 -1       125 1.50000E+02 1.47500E+01 0.00000E+00
 -1       126 1.50000E+02 1.76500E+01 0.00000E+00
 -1       127 1.50000E+02 2.06000E+01 0.00000E+00
 -1       128 1.50000E+02 2.35500E+01 0.00000E+00
 -1       129 1.50000E+02 2.65000E+01 0.00000E+00
 -1       130 1.50000E+02 2.94500E+01 0.00000E+00
 -1       131 1.50000E+02 3.24000E+01 0.00000E+00
 -1       132 1.50000E+02 3.53000E+01 0.00000E+00
 -1       133 1.50000E+02 3.82500E+01 0.00000E+00
 -1       134 1.50000E+02 4.12000E+01 0.00000E+00
 -1       135 1.50000E+02 4.41500E+01 0.00000E+00
 -1       136 1.50000E+02 4.71000E+01 0.00000E+00
 -1       137 1.21094E+02 1.93842E+01 0.00000E+00
 -1       138 1.20634E+02 1.79787E+01 0.00000E+00
 -1       139 1.19849E+02 1.66484E+01 0.00000E+00
 -1       140 1.18779E+02 1.55118E+01 0.00000E+00
 -1       141 1.17568E+02 1.46853E+01 0.00000E+00
 -1       142 1.16238E+02 1.41367E+01 0.00000E+00
 -1       143 1.14853E+02 1.38743E+01 0.00000E+00
 -1       144 1.13282E+02 1.39154E+01 0.00000E+00
 -1       145 1.11769E+02 1.43021E+01 0.00000E+00
 -1       146 1.10510E+02 1.49305E+01 0.00000E+00
 -1       147 1.09241E+02 1.59575E+01 0.00000E+00
 -1       148 1.08332E+02 1.71070E+01 0.00000E+00
 -1       149 1.07683E+02 1.84217E+01 0.00000E+00
 -1       150 1.07308E+02 1.99411E+01 0.00000E+00
 -1       151 1.07266E+02 2.13345E+01 0.00000E+00
 -1       152 1.07517E+02 2.27667E+01 0.00000E+00
 -1       153 1.08091E+02 2.41767E+01 0.00000E+00
 -1       154 1.08882E+02 2.53420E+01 0.00000E+00
 -1       155 1.11139E+02 2.71194E+01 0.00000E+00
 -1       156 1.12544E+02 2.76375E+01 0.00000E+00
 -1       157 1.13881E+02 2.78386E+01 0.00000E+00
 -1       158 1.15316E+02 2.77665E+01 0.00000E+00
 -1       159 1.16749E+02 2.73866E+01 0.00000E+00
 -1       160 1.17999E+02 2.67590E+01 0.00000E+00
 -1       161 1.19122E+02 2.58738E+01 0.00000E+00
 -1       162 1.20030E+02 2.47952E+01 0.00000E+00
 -1       163 1.20717E+02 2.35248E+01 0.00000E+00
 -1       164 1.21116E+02 2.22065E+01 0.00000E+00
 -1       165 2.59800E+00 4.55750E+01 0.00000E+00
 -1       166 2.59800E+00 4.26250E+01 0.00000E+00
 -1       167 2.59800E+00 3.96750E+01 0.00000E+00
 -1       168 2.59800E+00 3.67250E+01 0.00000E+00
 -1       169 2.59800E+00 3.38250E+01 0.00000E+00
 -1       170 2.59800E+00 3.08750E+01 0.00000E+00
 -1       171 2.59800E+00 2.79250E+01 0.00000E+00
 -1       172 2.59800E+00 2.49750E+01 0.00000E+00
 -1       173 2.59800E+00 2.20250E+01 0.00000E+00
 -1       174 2.59800E+00 1.90750E+01 0.00000E+00
 -1       175 2.59800E+00 1.61750E+01 0.00000E+00
 -1       176 2.59800E+00 1.32250E+01 0.00000E+00
 -1       177 2.59800E+00 1.02750E+01 0.00000E+00
 -1       178 2.59800E+00 7.32500E+00 0.00000E+00
 -1       179 2.59800E+00 4.37500E+00 0.00000E+00
 -1       180 2.87400E+00 2.18750E+00 0.00000E+00
 -1       181 4.65000E+00 4.74020E+01 0.00000E+00
 -1       182 7.65000E+00 4.74020E+01 0.00000E+00
 -1       183 1.06500E+01 4.74020E+01 0.00000E+00
 -1       184 1.36500E+01 4.74020E+01 0.00000E+00
 -1       185 1.66500E+01 4.74020E+01 0.00000E+00
 -1       186 1.96500E+01 4.74020E+01 0.00000E+00
 -1       187 2.26500E+01 4.74020E+01 0.00000E+00
 -1       188 2.56500E+01 4.74020E+01 0.00000E+00
 -1       189 2.86500E+01 4.74020E+01 0.00000E+00
 -1       190 3.16500E+01 4.74020E+01 0.00000E+00
 -1       191 3.46500E+01 4.74020E+01 0.00000E+00
 -1       192 3.76500E+01 4.74020E+01 0.00000E+00
 -1       193 4.06500E+01 4.74020E+01 0.00000E+00
 -1       194 4.36500E+01 4.74020E+01 0.00000E+00
 -1       195 4.66500E+01 4.74020E+01 0.00000E+00
 -1       196 4.96500E+01 4.74020E+01 0.00000E+00
 -1       197 5.26500E+01 4.74020E+01 0.00000E+00
 -1       198 5.56500E+01 4.74020E+01 0.00000E+00
 -1       199 5.86500E+01 4.74020E+01 0.00000E+00
 -1       200 6.16500E+01 4.74020E+01 0.00000E+00
 -1       201 6.46500E+01 4.74020E+01 0.00000E+00
 -1       202 6.76500E+01 4.74020E+01 0.00000E+00
 -1       203 7.06500E+01 4.74020E+01 0.00000E+00
 -1       204 7.36500E+01 4.74020E+01 0.00000E+00
 -1       205 7.66500E+01 4.74020E+01 0.00000E+00
 -1       206 7.96500E+01 4.74020E+01 0.00000E+00
 -1       207 8.26500E+01 4.74020E+01 0.00000E+00
 -1       208 8.56500E+01 4.74020E+01 0.00000E+00
 -1       209 8.86500E+01 4.74020E+01 0.00000E+00
 -1       210 9.16500E+01 4.74020E+01 0.00000E+00
 -1       211 9.46500E+01 4.74020E+01 0.00000E+00
 -1       212 9.76500E+01 4.74020E+01 0.00000E+00
 -1       213 1.00650E+02 4.74020E+01 0.00000E+00
 -1       214 1.03650E+02 4.74020E+01 0.00000E+00
 -1       215 1.06650E+02 4.74020E+01 0.00000E+00
 -1       216 1.09650E+02 4.74020E+01 0.00000E+00
 -1       217 1.12650E+02 4.74020E+01 0.00000E+00
 -1       218 1.15650E+02 4.74020E+01 0.00000E+00
 -1       219 1.18650E+02 4.74020E+01 0.00000E+00
 -1       220 1.21650E+02 4.74020E+01 0.00000E+00
 -1       221 1.24650E+02 4.74020E+01 0.00000E+00
 -1       222 1.27650E+02 4.74020E+01 0.00000E+00
 -1       223 1.30650E+02 4.74020E+01 0.00000E+00
 -1       224 1.33650E+02 4.74020E+01 0.00000E+00
 -1       225 1.36650E+02 4.74020E+01 0.00000E+00
 -1       226 1.39650E+02 4.74020E+01 0.00000E+00
 -1       227 1.42650E+02 4.74020E+01 0.00000E+00
 -1       228 1.45650E+02 4.74020E+01 0.00000E+00
 -1       229 5.87400E+00 2.18750E+00 0.00000E+00
 -1       230 8.87400E+00 2.18750E+00 0.00000E+00
 -1       231 1.18740E+01 2.18750E+00 0.00000E+00
 -1       232 1.48740E+01 2.18750E+00 0.00000E+00
 -1       233 1.78740E+01 2.18750E+00 0.00000E+00
 -1       234 2.08740E+01 2.18750E+00 0.00000E+00
 -1       235 2.38740E+01 2.18750E+00 0.00000E+00
 -1       236 2.68740E+01 2.18750E+00 0.00000E+00
 -1       237 2.98740E+01 2.18750E+00 0.00000E+00
 -1       238 3.28740E+01 2.18750E+00 0.00000E+00
 -1       239 3.58740E+01 2.18750E+00 0.00000E+00
 -1       240 3.88740E+01 2.18750E+00 0.00000E+00
 -1       241 4.18740E+01 2.18750E+00 0.00000E+00
 -1       242 4.48740E+01 2.18750E+00 0.00000E+00
 -1       243 4.78740E+01 2.18750E+00 0.00000E+00
 -1       244 5.08740E+01 2.18750E+00 0.00000E+00
 -1       245 5.38740E+01 2.18750E+00 0.00000E+00
 -1       246 5.68740E+01 2.18750E+00 0.00000E+00
 -1       247 5.98740E+01 2.18750E+00 0.00000E+00
 -1       248 6.28740E+01 2.18750E+00 0.00000E+00
 -1       249 6.58740E+01 2.18750E+00 0.00000E+00
 -1       250 6.88740E+01 2.18750E+00 0.00000E+00
 -1       251 7.18740E+01 2.18750E+00 0.00000E+00
 -1       252 7.48740E+01 2.18750E+00 0.00000E+00
 -1       253 7.78740E+01 2.18750E+00 0.00000E+00
 -1       254 8.08740E+01 2.18750E+00 0.00000E+00
 -1       255 8.38740E+01 2.18750E+00 0.00000E+00
 -1       256 8.68740E+01 2.18750E+00 0.00000E+00
 -1       257 8.98740E+01 2.18750E+00 0.00000E+00
 -1       258 9.28740E+01 2.18750E+00 0.00000E+00
 -1       259 9.58740E+01 2.18750E+00 0.00000E+00
 -1       260 9.88740E+01 2.18750E+00 0.00000E+00
 -1       261 1.01874E+02 2.18750E+00 0.00000E+00
 -1       262 1.04874E+02 2.18750E+00 0.00000E+00
 -1       263 1.07874E+02 2.18750E+00 0.00000E+00
 -1       264 1.10874E+02 2.18750E+00 0.00000E+00
 -1       265 1.13874E+02 2.18750E+00 0.00000E+00
 -1       266 1.16874E+02 2.18750E+00 0.00000E+00
 -1       267 1.19874E+02 2.18750E+00 0.00000E+00
 -1       268 1.22874E+02 2.18750E+00 0.00000E+00
 -1       269 1.25874E+02 2.18750E+00 0.00000E+00
 -1       270 1.28874E+02 2.18750E+00 0.00000E+00
 -1       271 1.31874E+02 2.18750E+00 0.00000E+00
 -1       272 1.34874E+02 2.18750E+00 0.00000E+00
 -1       273 1.37874E+02 2.18750E+00 0.00000E+00
 -1       274 1.40874E+02 2.18750E+00 0.00000E+00
 -1       275 1.43874E+02 2.18750E+00 0.00000E+00
 -1       276 1.46874E+02 2.18750E+00 0.00000E+00
 -1       277 1.47402E+02 4.42500E+00 0.00000E+00
 -1       278 1.47402E+02 7.37500E+00 0.00000E+00
 -1       279 1.47402E+02 1.03250E+01 0.00000E+00
 -1       280 1.47402E+02 1.32750E+01 0.00000E+00
 -1       281 1.47402E+02 1.61750E+01 0.00000E+00
 -1       282 1.47402E+02 1.91250E+01 0.00000E+00
 -1       283 1.47402E+02 2.20750E+01 0.00000E+00
 -1       284 1.47402E+02 2.50250E+01 0.00000E+00
 -1       285 1.47402E+02 2.79750E+01 0.00000E+00
 -1       286 1.47402E+02 3.09250E+01 0.00000E+00
 -1       287 1.47402E+02 3.38250E+01 0.00000E+00
 -1       288 1.47402E+02 3.67750E+01 0.00000E+00
 -1       289 1.47402E+02 3.97250E+01 0.00000E+00
 -1       290 1.47402E+02 4.26750E+01 0.00000E+00
 -1       291 1.46526E+02 4.50385E+01 0.00000E+00
 -1       292 1.22460E+02 1.99799E+01 0.00000E+00
 -1       293 1.22016E+02 1.83041E+01 0.00000E+00
 -1       294 1.21286E+02 1.66976E+01 0.00000E+00
 -1       295 1.20319E+02 1.51342E+01 0.00000E+00
 -1       296 1.18904E+02 1.40280E+01 0.00000E+00
 -1       297 1.17365E+02 1.32901E+01 0.00000E+00
 -1       298 1.15771E+02 1.28143E+01 0.00000E+00
 -1       299 1.14031E+02 1.25154E+01 0.00000E+00
 -1       300 1.12163E+02 1.26906E+01 0.00000E+00
 -1       301 1.10598E+02 1.35314E+01 0.00000E+00
 -1       302 1.08954E+02 1.43062E+01 0.00000E+00
 -1       303 1.07770E+02 1.57287E+01 0.00000E+00
 -1       304 1.06921E+02 1.72273E+01 0.00000E+00
 -1       305 1.06156E+02 1.88508E+01 0.00000E+00
 -1       306 1.06075E+02 2.06012E+01 0.00000E+00
 -1       307 1.06197E+02 2.22600E+01 0.00000E+00
 -1       308 1.06603E+02 2.39604E+01 0.00000E+00
 -1       309 1.07483E+02 2.54402E+01 0.00000E+00
 -1       310 1.08567E+02 2.67245E+01 0.00000E+00
 -1       311 1.09893E+02 2.77676E+01 0.00000E+00
 -1       312 1.11364E+02 2.86732E+01 0.00000E+00
 -1       313 1.13032E+02 2.89369E+01 0.00000E+00
 -1       314 1.14663E+02 2.90971E+01 0.00000E+00
 -1       315 1.16386E+02 2.89104E+01 0.00000E+00
 -1       316 1.17955E+02 2.82312E+01 0.00000E+00
 -1       317 1.19311E+02 2.72684E+01 0.00000E+00
 -1       318 1.20503E+02 2.61155E+01 0.00000E+00
 -1       319 1.21440E+02 2.47366E+01 0.00000E+00
 -1       320 1.22077E+02 2.32167E+01 0.00000E+00
 -1       321 1.22389E+02 2.16456E+01 0.00000E+00
 -1       322 5.19600E+00 4.11500E+01 0.00000E+00
 -1       323 5.19600E+00 4.41000E+01 0.00000E+00
 -1       324 5.19600E+00 3.52750E+01 0.00000E+00
 -1       325 5.19600E+00 3.23250E+01 0.00000E+00
 -1       326 5.19600E+00 2.93750E+01 0.00000E+00
 -1       327 5.19600E+00 2.64250E+01 0.00000E+00
 -1       328 5.19600E+00 2.34750E+01 0.00000E+00
 -1       329 5.19600E+00 2.05250E+01 0.00000E+00
 -1       330 5.19600E+00 1.76250E+01 0.00000E+00
 -1       331 5.19600E+00 1.46750E+01 0.00000E+00
 -1       332 5.19600E+00 1.17250E+01 0.00000E+00
 -1       333 5.19600E+00 8.77500E+00 0.00000E+00
 -1       334 5.19600E+00 5.82500E+00 0.00000E+00
 -1       335 5.53500E+00 4.00625E+00 0.00000E+00
 -1       336 8.53500E+00 4.00625E+00 0.00000E+00
 -1       337 9.15000E+00 4.48040E+01 0.00000E+00
 -1       338 1.21500E+01 4.48040E+01 0.00000E+00
 -1       339 1.51500E+01 4.48040E+01 0.00000E+00
 -1       340 1.81500E+01 4.48040E+01 0.00000E+00
 -1       341 2.11500E+01 4.48040E+01 0.00000E+00
 -1       342 2.41500E+01 4.48040E+01 0.00000E+00
 -1       343 2.71500E+01 4.48040E+01 0.00000E+00
 -1       344 3.01500E+01 4.48040E+01 0.00000E+00
 -1       345 3.31500E+01 4.48040E+01 0.00000E+00
 -1       346 3.61500E+01 4.48040E+01 0.00000E+00
 -1       347 3.91500E+01 4.48040E+01 0.00000E+00
 -1       348 4.21500E+01 4.48040E+01 0.00000E+00
 -1       349 4.51500E+01 4.48040E+01 0.00000E+00
 -1       350 4.81500E+01 4.48040E+01 0.00000E+00
 -1       351 5.11500E+01 4.48040E+01 0.00000E+00
 -1       352 5.41500E+01 4.48040E+01 0.00000E+00
 -1       353 5.71500E+01 4.48040E+01 0.00000E+00
 -1       354 6.01500E+01 4.48040E+01 0.00000E+00
 -1       355 6.31500E+01 4.48040E+01 0.00000E+00
 -1       356 6.61500E+01 4.48040E+01 0.00000E+00
 -1       357 6.91500E+01 4.48040E+01 0.00000E+00
 -1       358 7.21500E+01 4.48040E+01 0.00000E+00
 -1       359 7.51500E+01 4.48040E+01 0.00000E+00
 -1       360 7.81500E+01 4.48040E+01 0.00000E+00
 -1       361 8.11500E+01 4.48040E+01 0.00000E+00
 -1       362 8.41500E+01 4.48040E+01 0.00000E+00
 -1       363 8.71500E+01 4.48040E+01 0.00000E+00
 -1       364 9.01500E+01 4.48040E+01 0.00000E+00
 -1       365 9.31500E+01 4.48040E+01 0.00000E+00
 -1       366 9.61500E+01 4.48040E+01 0.00000E+00
 -1       367 9.91500E+01 4.48040E+01 0.00000E+00
 -1       368 1.02150E+02 4.48040E+01 0.00000E+00
 -1       369 1.05150E+02 4.48040E+01 0.00000E+00
 -1       370 1.08150E+02 4.48040E+01 0.00000E+00
 -1       371 1.11150E+02 4.48040E+01 0.00000E+00
 -1       372 1.14150E+02 4.48040E+01 0.00000E+00
 -1       373 1.17150E+02 4.48040E+01 0.00000E+00
 -1       374 1.20150E+02 4.48040E+01 0.00000E+00
 -1       375 1.23150E+02 4.48040E+01 0.00000E+00
 -1       376 1.26150E+02 4.48040E+01 0.00000E+00
 -1       377 1.29150E+02 4.48040E+01 0.00000E+00
 -1       378 1.32150E+02 4.48040E+01 0.00000E+00
 -1       379 1.35150E+02 4.48040E+01 0.00000E+00
 -1       380 1.38150E+02 4.48040E+01 0.00000E+00
 -1       381 1.41150E+02 4.48040E+01 0.00000E+00
 -1       382 1.43838E+02 4.49212E+01 0.00000E+00
 -1       383 1.15350E+01 4.00625E+00 0.00000E+00
 -1       384 1.45350E+01 4.00625E+00 0.00000E+00
 -1       385 1.75350E+01 4.00625E+00 0.00000E+00
 -1       386 2.05350E+01 4.00625E+00 0.00000E+00
 -1       387 2.35350E+01 4.00625E+00 0.00000E+00
 -1       388 2.65350E+01 4.00625E+00 0.00000E+00
 -1       389 2.95350E+01 4.00625E+00 0.00000E+00
 -1       390 3.25350E+01 4.00625E+00 0.00000E+00
 -1       391 3.55350E+01 4.00625E+00 0.00000E+00
 -1       392 3.85350E+01 4.00625E+00 0.00000E+00
 -1       393 4.15350E+01 4.00625E+00 0.00000E+00
 -1       394 4.45350E+01 4.00625E+00 0.00000E+00
 -1       395 4.75350E+01 4.00625E+00 0.00000E+00
 -1       396 5.05350E+01 4.00625E+00 0.00000E+00
 -1       397 5.35350E+01 4.00625E+00 0.00000E+00
 -1       398 5.65350E+01 4.00625E+00 0.00000E+00
 -1       399 5.95350E+01 4.00625E+00 0.00000E+00
 -1       400 6.25350E+01 4.00625E+00 0.00000E+00
 -1       401 6.55350E+01 4.00625E+00 0.00000E+00
 -1       402 6.85350E+01 4.00625E+00 0.00000E+00
 -1       403 7.15350E+01 4.00625E+00 0.00000E+00
 -1       404 7.45350E+01 4.00625E+00 0.00000E+00
 -1       405 7.75350E+01 4.00625E+00 0.00000E+00
 -1       406 8.05350E+01 4.00625E+00 0.00000E+00
 -1       407 8.35350E+01 4.00625E+00 0.00000E+00
 -1       408 8.65350E+01 4.00625E+00 0.00000E+00
 -1       409 8.95350E+01 4.00625E+00 0.00000E+00
 -1       410 9.25350E+01 4.00625E+00 0.00000E+00
 -1       411 9.55350E+01 4.00625E+00 0.00000E+00
 -1       412 9.85350E+01 4.00625E+00 0.00000E+00
 -1       413 1.01535E+02 4.00625E+00 0.00000E+00
 -1       414 1.04535E+02 4.00625E+00 0.00000E+00
 -1       415 1.07535E+02 4.00625E+00 0.00000E+00
 -1       416 1.10535E+02 4.00625E+00 0.00000E+00
 -1       417 1.13535E+02 4.00625E+00 0.00000E+00
 -1       418 1.16535E+02 4.00625E+00 0.00000E+00
 -1       419 1.19535E+02 4.00625E+00 0.00000E+00
 -1       420 1.22535E+02 4.00625E+00 0.00000E+00
 -1       421 1.25535E+02 4.00625E+00 0.00000E+00
 -1       422 1.28535E+02 4.00625E+00 0.00000E+00
 -1       423 1.31535E+02 4.00625E+00 0.00000E+00
 -1       424 1.34535E+02 4.00625E+00 0.00000E+00
 -1       425 1.37535E+02 4.00625E+00 0.00000E+00
 -1       426 1.40535E+02 4.00625E+00 0.00000E+00
 -1       427 1.43535E+02 4.00625E+00 0.00000E+00
 -1       428 1.45469E+02 4.21562E+00 0.00000E+00
 -1       429 1.44804E+02 1.18000E+01 0.00000E+00
 -1       430 1.44804E+02 8.85000E+00 0.00000E+00
 -1       431 1.45136E+02 6.53281E+00 0.00000E+00
 -1       432 1.44804E+02 1.47000E+01 0.00000E+00
 -1       433 1.44804E+02 1.76500E+01 0.00000E+00
 -1       434 1.44804E+02 2.06000E+01 0.00000E+00
 -1       435 1.44804E+02 2.35500E+01 0.00000E+00
 -1       436 1.44804E+02 2.65000E+01 0.00000E+00
 -1       437 1.44804E+02 2.94500E+01 0.00000E+00
 -1       438 1.44804E+02 3.23500E+01 0.00000E+00
 -1       439 1.44804E+02 3.53000E+01 0.00000E+00
 -1       440 1.44804E+02 3.82500E+01 0.00000E+00
 -1       441 1.44804E+02 4.12000E+01 0.00000E+00
 -1       442 1.22907E+02 1.69297E+01 0.00000E+00
 -1       443 1.23720E+02 2.08683E+01 0.00000E+00
 -1       444 1.23815E+02 1.87239E+01 0.00000E+00
 -1       445 1.21905E+02 1.52342E+01 0.00000E+00
 -1       446 1.20513E+02 1.34281E+01 0.00000E+00
 -1       447 5.19600E+00 3.82125E+01 0.00000E+00
 -1       448 1.17010E+02 1.15693E+01 0.00000E+00
 -1       449 1.15135E+02 1.13048E+01 0.00000E+00
 -1       450 1.12952E+02 1.10622E+01 0.00000E+00
 -1       451 1.10727E+02 1.18955E+01 0.00000E+00
 -1       452 1.09083E+02 1.26702E+01 0.00000E+00
 -1       453 1.07109E+02 1.39734E+01 0.00000E+00
 -1       454 1.06072E+02 1.57566E+01 0.00000E+00
 -1       455 1.05306E+02 1.73800E+01 0.00000E+00
 -1       456 1.04820E+02 1.96663E+01 0.00000E+00
 -1       457 1.04843E+02 2.15258E+01 0.00000E+00
 -1       458 1.04895E+02 2.34697E+01 0.00000E+00
 -1       459 1.05929E+02 2.53626E+01 0.00000E+00
 -1       460 1.06843E+02 2.70807E+01 0.00000E+00
 -1       461 1.08221E+02 2.85280E+01 0.00000E+00
 -1       462 1.09692E+02 2.94336E+01 0.00000E+00
 -1       463 1.11982E+02 3.01681E+01 0.00000E+00
 -1       464 1.13614E+02 3.03282E+01 0.00000E+00
 -1       465 1.15691E+02 3.05423E+01 0.00000E+00
 -1       466 1.17785E+02 2.99911E+01 0.00000E+00
 -1       467 1.19432E+02 2.88749E+01 0.00000E+00
 -1       468 1.20983E+02 2.78044E+01 0.00000E+00
 -1       469 1.22044E+02 2.61545E+01 0.00000E+00
 -1       470 1.22954E+02 2.44776E+01 0.00000E+00
 -1       471 1.23915E+02 2.27653E+01 0.00000E+00
 -1       472 1.18731E+02 1.24147E+01 0.00000E+00
 -1       473 1.03971E+02 1.81956E+01 0.00000E+00
 -1       474 1.00350E+01 6.60425E+00 0.00000E+00
 -1       475 7.79400E+00 3.08500E+01 0.00000E+00
 -1       476 7.79400E+00 3.38000E+01 0.00000E+00
 -1       477 7.79400E+00 2.49500E+01 0.00000E+00
 -1       478 7.79400E+00 2.20000E+01 0.00000E+00
 -1       479 7.79400E+00 1.91000E+01 0.00000E+00
 -1       480 7.79400E+00 1.61500E+01 0.00000E+00
 -1       481 7.79400E+00 1.32000E+01 0.00000E+00
 -1       482 7.79400E+00 1.02500E+01 0.00000E+00
 -1       483 1.30350E+01 6.60425E+00 0.00000E+00
 -1       484 1.06500E+01 4.22060E+01 0.00000E+00
 -1       485 1.20429E+02 1.15033E+01 0.00000E+00
 -1       486 1.36500E+01 4.22060E+01 0.00000E+00
 -1       487 1.66500E+01 4.22060E+01 0.00000E+00
 -1       488 1.96500E+01 4.22060E+01 0.00000E+00
 -1       489 2.26500E+01 4.22060E+01 0.00000E+00
 -1       490 2.56500E+01 4.22060E+01 0.00000E+00
 -1       491 2.86500E+01 4.22060E+01 0.00000E+00
 -1       492 3.16500E+01 4.22060E+01 0.00000E+00
 -1       493 3.46500E+01 4.22060E+01 0.00000E+00
 -1       494 3.76500E+01 4.22060E+01 0.00000E+00
 -1       495 4.06500E+01 4.22060E+01 0.00000E+00
 -1       496 4.36500E+01 4.22060E+01 0.00000E+00
 -1       497 4.66500E+01 4.22060E+01 0.00000E+00
 -1       498 4.96500E+01 4.22060E+01 0.00000E+00
 -1       499 5.26500E+01 4.22060E+01 0.00000E+00
 -1       500 5.56500E+01 4.22060E+01 0.00000E+00
 -1       501 5.86500E+01 4.22060E+01 0.00000E+00
 -1       502 6.16500E+01 4.22060E+01 0.00000E+00
 -1       503 6.46500E+01 4.22060E+01 0.00000E+00
 -1       504 6.76500E+01 4.22060E+01 0.00000E+00
 -1       505 7.06500E+01 4.22060E+01 0.00000E+00
 -1       506 7.36500E+01 4.22060E+01 0.00000E+00
 -1       507 7.66500E+01 4.22060E+01 0.00000E+00
 -1       508 7.96500E+01 4.22060E+01 0.00000E+00
 -1       509 8.26500E+01 4.22060E+01 0.00000E+00
 -1       510 8.56500E+01 4.22060E+01 0.00000E+00
 -1       511 8.86500E+01 4.22060E+01 0.00000E+00
 -1       512 9.16500E+01 4.22060E+01 0.00000E+00
 -1       513 9.46500E+01 4.22060E+01 0.00000E+00
 -1       514 9.76500E+01 4.22060E+01 0.00000E+00
 -1       515 1.00650E+02 4.22060E+01 0.00000E+00
 -1       516 1.03650E+02 4.22060E+01 0.00000E+00
 -1       517 1.06650E+02 4.22060E+01 0.00000E+00
 -1       518 1.09650E+02 4.22060E+01 0.00000E+00
 -1       519 1.12650E+02 4.22060E+01 0.00000E+00
 -1       520 1.15650E+02 4.22060E+01 0.00000E+00
 -1       521 1.18650E+02 4.22060E+01 0.00000E+00
 -1       522 1.21650E+02 4.22060E+01 0.00000E+00
 -1       523 1.24650E+02 4.22060E+01 0.00000E+00
 -1       524 1.27650E+02 4.22060E+01 0.00000E+00
 -1       525 1.30650E+02 4.22060E+01 0.00000E+00
 -1       526 1.33650E+02 4.22060E+01 0.00000E+00
 -1       527 1.36650E+02 4.22060E+01 0.00000E+00
 -1       528 1.39650E+02 4.22060E+01 0.00000E+00
 -1       529 1.90350E+01 6.60425E+00 0.00000E+00
 -1       530 2.20350E+01 6.60425E+00 0.00000E+00
 -1       531 2.50350E+01 6.60425E+00 0.00000E+00
 -1       532 2.80350E+01 6.60425E+00 0.00000E+00
 -1       533 3.10350E+01 6.60425E+00 0.00000E+00
 -1       534 3.40350E+01 6.60425E+00 0.00000E+00
 -1       535 3.70350E+01 6.60425E+00 0.00000E+00
 -1       536 4.00350E+01 6.60425E+00 0.00000E+00
 -1       537 4.30350E+01 6.60425E+00 0.00000E+00
 -1       538 4.60350E+01 6.60425E+00 0.00000E+00
 -1       539 4.90350E+01 6.60425E+00 0.00000E+00
 -1       540 5.20350E+01 6.60425E+00 0.00000E+00
 -1       541 5.50350E+01 6.60425E+00 0.00000E+00
 -1       542 5.80350E+01 6.60425E+00 0.00000E+00
 -1       543 6.10350E+01 6.60425E+00 0.00000E+00
 -1       544 6.40350E+01 6.60425E+00 0.00000E+00
 -1       545 6.70350E+01 6.60425E+00 0.00000E+00
 -1       546 7.00350E+01 6.60425E+00 0.00000E+00
 -1       547 7.30350E+01 6.60425E+00 0.00000E+00
 -1       548 7.60350E+01 6.60425E+00 0.00000E+00
 -1       549 7.90350E+01 6.60425E+00 0.00000E+00
 -1       550 8.20350E+01 6.60425E+00 0.00000E+00
 -1       551 8.50350E+01 6.60425E+00 0.00000E+00
 -1       552 8.80350E+01 6.60425E+00 0.00000E+00
 -1       553 9.10350E+01 6.60425E+00 0.00000E+00
 -1       554 9.40350E+01 6.60425E+00 0.00000E+00
 -1       555 9.70350E+01 6.60425E+00 0.00000E+00
 -1       556 1.00035E+02 6.60425E+00 0.00000E+00
 -1       557 1.03035E+02 6.60425E+00 0.00000E+00
 -1       558 1.06035E+02 6.60425E+00 0.00000E+00
 -1       559 1.09035E+02 6.60425E+00 0.00000E+00
 -1       560 1.12035E+02 6.60425E+00 0.00000E+00
 -1       561 1.15035E+02 6.60425E+00 0.00000E+00
 -1       562 1.18035E+02 6.60425E+00 0.00000E+00
 -1       563 1.21035E+02 6.60425E+00 0.00000E+00
 -1       564 1.24035E+02 6.60425E+00 0.00000E+00
 -1       565 1.27035E+02 6.60425E+00 0.00000E+00
 -1       566 1.30035E+02 6.60425E+00 0.00000E+00
 -1       567 1.33035E+02 6.60425E+00 0.00000E+00
 -1       568 1.36035E+02 6.60425E+00 0.00000E+00
 -1       569 1.39035E+02 6.60425E+00 0.00000E+00
 -1       570 1.42035E+02 6.60425E+00 0.00000E+00
 -1       571 1.42206E+02 1.61750E+01 0.00000E+00
 -1       572 1.42206E+02 1.91250E+01 0.00000E+00
 -1       573 1.42206E+02 1.03250E+01 0.00000E+00
 -1       574 1.42206E+02 1.32500E+01 0.00000E+00
 -1       575 1.42206E+02 2.20750E+01 0.00000E+00
 -1       576 1.42206E+02 2.50250E+01 0.00000E+00
 -1       577 1.42206E+02 2.79750E+01 0.00000E+00
 -1       578 1.42206E+02 3.08750E+01 0.00000E+00
 -1       579 1.42206E+02 3.38250E+01 0.00000E+00
 -1       580 1.42206E+02 3.67750E+01 0.00000E+00
 -1       581 1.42206E+02 3.97250E+01 0.00000E+00
 -1       582 1.25230E+02 1.98611E+01 0.00000E+00
 -1       583 1.23666E+02 1.53370E+01 0.00000E+00
 -1       584 1.60350E+01 6.60425E+00 0.00000E+00
 -1       585 1.25425E+02 2.17581E+01 0.00000E+00
 -1       586 1.24817E+02 1.70901E+01 0.00000E+00
 -1       587 7.92300E+00 4.16780E+01 0.00000E+00
 -1       588 1.24930E+02 2.44611E+01 0.00000E+00
 -1       589 1.06290E+02 2.89871E+01 0.00000E+00
 -1       590 1.07198E+02 1.19602E+01 0.00000E+00
 -1       591 1.11268E+02 9.95116E+00 0.00000E+00
 -1       592 7.79400E+00 2.79000E+01 0.00000E+00
 -1       593 1.14251E+02 9.31235E+00 0.00000E+00
 -1       594 1.05107E+02 1.40027E+01 0.00000E+00
 -1       595 1.16127E+02 9.57687E+00 0.00000E+00
 -1       596 1.09246E+02 1.08830E+01 0.00000E+00
 -1       597 1.03201E+02 2.06161E+01 0.00000E+00
 -1       598 1.04289E+02 1.59085E+01 0.00000E+00
 -1       599 1.17154E+02 3.18443E+01 0.00000E+00
 -1       600 1.03252E+02 2.25601E+01 0.00000E+00
 -1       601 1.04127E+02 2.51179E+01 0.00000E+00
 -1       602 1.04946E+02 2.69877E+01 0.00000E+00
 -1       603 1.08058E+02 3.04414E+01 0.00000E+00
 -1       604 1.10339E+02 3.13542E+01 0.00000E+00
 -1       605 1.12655E+02 3.17049E+01 0.00000E+00
 -1       606 1.14733E+02 3.19190E+01 0.00000E+00
 -1       607 1.19571E+02 3.08528E+01 0.00000E+00
 -1       608 1.21122E+02 2.97822E+01 0.00000E+00
 -1       609 1.22956E+02 2.79070E+01 0.00000E+00
 -1       610 1.24020E+02 2.61379E+01 0.00000E+00
 -1       611 1.18553E+02 1.06030E+01 0.00000E+00
 -1       612 7.61550E+00 6.21462E+00 0.00000E+00
 -1       613 1.22833E+02 1.30799E+01 0.00000E+00
 -1       614 7.79400E+00 3.67375E+01 0.00000E+00
 -1       615 1.26440E+02 2.34539E+01 0.00000E+00
 -1       616 1.26231E+02 1.82274E+01 0.00000E+00
 -1       617 1.02485E+02 2.42082E+01 0.00000E+00
 -1       618 1.05196E+02 1.19896E+01 0.00000E+00
 -1       619 1.02352E+02 1.91454E+01 0.00000E+00
 -1       620 1.41678E+02 4.22645E+01 0.00000E+00
 -1       621 1.03920E+01 2.05500E+01 0.00000E+00
 -1       622 1.03920E+01 2.35000E+01 0.00000E+00
 -1       623 1.03920E+01 1.46750E+01 0.00000E+00
 -1       624 1.03920E+01 1.17250E+01 0.00000E+00
 -1       625 1.15350E+01 9.20225E+00 0.00000E+00
 -1       626 1.25909E+02 2.60777E+01 0.00000E+00
 -1       627 1.23265E+02 3.00439E+01 0.00000E+00
 -1       628 1.51500E+01 3.96080E+01 0.00000E+00
 -1       629 1.81500E+01 3.96080E+01 0.00000E+00
 -1       630 2.11500E+01 3.96080E+01 0.00000E+00
 -1       631 2.41500E+01 3.96080E+01 0.00000E+00
 -1       632 2.71500E+01 3.96080E+01 0.00000E+00
 -1       633 3.01500E+01 3.96080E+01 0.00000E+00
 -1       634 3.31500E+01 3.96080E+01 0.00000E+00
 -1       635 3.61500E+01 3.96080E+01 0.00000E+00
 -1       636 3.91500E+01 3.96080E+01 0.00000E+00
 -1       637 4.21500E+01 3.96080E+01 0.00000E+00
 -1       638 4.51500E+01 3.96080E+01 0.00000E+00
 -1       639 4.81500E+01 3.96080E+01 0.00000E+00
 -1       640 5.11500E+01 3.96080E+01 0.00000E+00
 -1       641 5.41500E+01 3.96080E+01 0.00000E+00
 -1       642 5.71500E+01 3.96080E+01 0.00000E+00
 -1       643 6.01500E+01 3.96080E+01 0.00000E+00
 -1       644 6.31500E+01 3.96080E+01 0.00000E+00
 -1       645 6.61500E+01 3.96080E+01 0.00000E+00
 -1       646 6.91500E+01 3.96080E+01 0.00000E+00
 -1       647 7.21500E+01 3.96080E+01 0.00000E+00
 -1       648 7.51500E+01 3.96080E+01 0.00000E+00
 -1       649 7.81500E+01 3.96080E+01 0.00000E+00
 -1       650 8.11500E+01 3.96080E+01 0.00000E+00
 -1       651 8.41500E+01 3.96080E+01 0.00000E+00
 -1       652 8.71500E+01 3.96080E+01 0.00000E+00
 -1       653 9.01500E+01 3.96080E+01 0.00000E+00
 -1       654 9.31500E+01 3.96080E+01 0.00000E+00
 -1       655 9.61500E+01 3.96080E+01 0.00000E+00
 -1       656 9.91500E+01 3.96080E+01 0.00000E+00
 -1       657 1.02150E+02 3.96080E+01 0.00000E+00
 -1       658 1.05150E+02 3.96080E+01 0.00000E+00
 -1       659 1.08150E+02 3.96080E+01 0.00000E+00
 -1       660 1.11150E+02 3.96080E+01 0.00000E+00
 -1       661 1.14150E+02 3.96080E+01 0.00000E+00
 -1       662 1.17150E+02 3.96080E+01 0.00000E+00
 -1       663 1.20150E+02 3.96080E+01 0.00000E+00
 -1       664 1.23150E+02 3.96080E+01 0.00000E+00
 -1       665 1.26150E+02 3.96080E+01 0.00000E+00
 -1       666 1.29150E+02 3.96080E+01 0.00000E+00
 -1       667 1.32150E+02 3.96080E+01 0.00000E+00
 -1       668 1.35150E+02 3.96080E+01 0.00000E+00
 -1       669 1.38150E+02 3.96080E+01 0.00000E+00
 -1       670 2.35350E+01 9.20225E+00 0.00000E+00
 -1       671 1.39206E+02 1.03250E+01 0.00000E+00
 -1       672 2.05350E+01 9.20225E+00 0.00000E+00
 -1       673 2.95350E+01 9.20225E+00 0.00000E+00
 -1       674 3.25350E+01 9.20225E+00 0.00000E+00
 -1       675 3.55350E+01 9.20225E+00 0.00000E+00
 -1       676 3.85350E+01 9.20225E+00 0.00000E+00
 -1       677 4.15350E+01 9.20225E+00 0.00000E+00
 -1       678 4.45350E+01 9.20225E+00 0.00000E+00
 -1       679 4.75350E+01 9.20225E+00 0.00000E+00
 -1       680 5.05350E+01 9.20225E+00 0.00000E+00
 -1       681 5.35350E+01 9.20225E+00 0.00000E+00
 -1       682 5.65350E+01 9.20225E+00 0.00000E+00
 -1       683 5.95350E+01 9.20225E+00 0.00000E+00
 -1       684 6.25350E+01 9.20225E+00 0.00000E+00
 -1       685 6.55350E+01 9.20225E+00 0.00000E+00
 -1       686 6.85350E+01 9.20225E+00 0.00000E+00
 -1       687 7.15350E+01 9.20225E+00 0.00000E+00
 -1       688 7.45350E+01 9.20225E+00 0.00000E+00
 -1       689 7.75350E+01 9.20225E+00 0.00000E+00
 -1       690 8.05350E+01 9.20225E+00 0.00000E+00
 -1       691 8.35350E+01 9.20225E+00 0.00000E+00
 -1       692 8.65350E+01 9.20225E+00 0.00000E+00
 -1       693 8.95350E+01 9.20225E+00 0.00000E+00
 -1       694 9.25350E+01 9.20225E+00 0.00000E+00
 -1       695 9.55350E+01 9.20225E+00 0.00000E+00
 -1       696 9.85350E+01 9.20225E+00 0.00000E+00
 -1       697 1.01535E+02 9.20225E+00 0.00000E+00
 -1       698 1.04535E+02 9.20225E+00 0.00000E+00
 -1       699 1.19535E+02 8.82207E+00 0.00000E+00
 -1       700 1.22535E+02 8.82207E+00 0.00000E+00
 -1       701 1.25535E+02 8.82207E+00 0.00000E+00
 -1       702 1.28535E+02 8.82207E+00 0.00000E+00
 -1       703 1.31535E+02 8.82207E+00 0.00000E+00
 -1       704 1.34535E+02 8.82207E+00 0.00000E+00
 -1       705 1.36870E+02 9.57353E+00 0.00000E+00
 -1       706 1.24859E+02 1.36148E+01 0.00000E+00
 -1       707 1.39608E+02 2.35500E+01 0.00000E+00
 -1       708 1.24845E+02 2.78468E+01 0.00000E+00
 -1       709 1.39608E+02 1.76500E+01 0.00000E+00
 -1       710 1.39608E+02 2.65000E+01 0.00000E+00
 -1       711 1.39608E+02 2.06000E+01 0.00000E+00
 -1       712 1.39608E+02 2.94000E+01 0.00000E+00
 -1       713 1.39608E+02 3.23500E+01 0.00000E+00
 -1       714 1.39608E+02 3.53000E+01 0.00000E+00
 -1       715 1.26009E+02 1.53680E+01 0.00000E+00
 -1       716 1.27367E+02 2.05995E+01 0.00000E+00
 -1       717 1.19077E+02 3.30904E+01 0.00000E+00
 -1       718 1.07220E+01 3.94717E+01 0.00000E+00
 -1       719 1.11215E+02 3.33910E+01 0.00000E+00
 -1       720 1.02099E+02 1.67698E+01 0.00000E+00
 -1       721 1.75350E+01 9.20225E+00 0.00000E+00
 -1       722 1.13054E+02 9.07494E+00 0.00000E+00
 -1       723 2.65350E+01 9.20225E+00 0.00000E+00
 -1       724 1.45350E+01 9.20225E+00 0.00000E+00
 -1       725 1.08499E+02 3.26457E+01 0.00000E+00
 -1       726 1.18008E+02 8.51034E+00 0.00000E+00
 -1       727 1.03920E+01 1.76125E+01 0.00000E+00
 -1       728 1.02968E+02 1.42128E+01 0.00000E+00
 -1       729 1.03920E+01 3.23250E+01 0.00000E+00
 -1       730 1.01512E+02 2.16337E+01 0.00000E+00
 -1       731 1.40178E+02 3.96665E+01 0.00000E+00
 -1       732 1.04194E+02 2.89444E+01 0.00000E+00
 -1       733 1.05978E+02 3.11682E+01 0.00000E+00
 -1       734 1.13527E+02 3.34347E+01 0.00000E+00
 -1       735 1.16006E+02 3.39309E+01 0.00000E+00
 -1       736 1.21511E+02 3.20047E+01 0.00000E+00
 -1       737 1.02812E+02 2.68075E+01 0.00000E+00
 -1       738 1.22847E+02 1.04369E+01 0.00000E+00
 -1       739 1.03920E+01 3.52625E+01 0.00000E+00
 -1       740 1.03920E+01 2.64500E+01 0.00000E+00
 -1       741 1.27419E+02 2.50705E+01 0.00000E+00
 -1       742 1.03057E+02 1.21997E+01 0.00000E+00
 -1       743 1.10535E+02 8.82207E+00 0.00000E+00
 -1       744 1.27424E+02 1.65052E+01 0.00000E+00
 -1       745 1.00744E+02 2.32818E+01 0.00000E+00
 -1       746 1.38879E+02 3.74540E+01 0.00000E+00
 -1       747 1.00663E+02 2.01629E+01 0.00000E+00
 -1       748 1.39608E+02 1.47250E+01 0.00000E+00
 -1       749 1.03920E+01 2.93875E+01 0.00000E+00
 -1       750 1.29900E+01 1.32000E+01 0.00000E+00
 -1       751 1.25719E+02 3.01423E+01 0.00000E+00
 -1       752 1.96500E+01 3.70100E+01 0.00000E+00
 -1       753 2.26500E+01 3.70100E+01 0.00000E+00
 -1       754 2.56500E+01 3.70100E+01 0.00000E+00
 -1       755 2.86500E+01 3.70100E+01 0.00000E+00
 -1       756 3.16500E+01 3.70100E+01 0.00000E+00
 -1       757 3.46500E+01 3.70100E+01 0.00000E+00
 -1       758 3.76500E+01 3.70100E+01 0.00000E+00
 -1       759 4.06500E+01 3.70100E+01 0.00000E+00
 -1       760 4.36500E+01 3.70100E+01 0.00000E+00
 -1       761 4.66500E+01 3.70100E+01 0.00000E+00
 -1       762 4.96500E+01 3.70100E+01 0.00000E+00
 -1       763 5.26500E+01 3.70100E+01 0.00000E+00
 -1       764 5.56500E+01 3.70100E+01 0.00000E+00
 -1       765 5.86500E+01 3.70100E+01 0.00000E+00
 -1       766 6.16500E+01 3.70100E+01 0.00000E+00
 -1       767 6.46500E+01 3.70100E+01 0.00000E+00
 -1       768 6.76500E+01 3.70100E+01 0.00000E+00
 -1       769 7.06500E+01 3.70100E+01 0.00000E+00
 -1       770 7.36500E+01 3.70100E+01 0.00000E+00
 -1       771 7.66500E+01 3.70100E+01 0.00000E+00
 -1       772 7.96500E+01 3.70100E+01 0.00000E+00
 -1       773 8.26500E+01 3.70100E+01 0.00000E+00
 -1       774 8.56500E+01 3.70100E+01 0.00000E+00
 -1       775 8.86500E+01 3.70100E+01 0.00000E+00
 -1       776 9.16500E+01 3.70100E+01 0.00000E+00
 -1       777 9.46500E+01 3.70100E+01 0.00000E+00
 -1       778 9.76500E+01 3.70100E+01 0.00000E+00
 -1       779 1.00650E+02 3.70100E+01 0.00000E+00
 -1       780 1.03650E+02 3.70100E+01 0.00000E+00
 -1       781 1.06650E+02 3.70100E+01 0.00000E+00
 -1       782 1.09650E+02 3.70100E+01 0.00000E+00
 -1       783 1.12650E+02 3.70100E+01 0.00000E+00
 -1       784 1.15650E+02 3.70100E+01 0.00000E+00
 -1       785 1.18650E+02 3.70100E+01 0.00000E+00
 -1       786 1.21650E+02 3.70100E+01 0.00000E+00
 -1       787 1.24650E+02 3.70100E+01 0.00000E+00
 -1       788 1.27650E+02 3.70100E+01 0.00000E+00
 -1       789 1.30650E+02 3.70100E+01 0.00000E+00
 -1       790 1.33650E+02 3.70100E+01 0.00000E+00
 -1       791 1.36264E+02 3.72320E+01 0.00000E+00
 -1       792 2.20350E+01 1.18003E+01 0.00000E+00
 -1       793 3.40350E+01 1.18003E+01 0.00000E+00
 -1       794 3.10350E+01 1.18003E+01 0.00000E+00
 -1       795 4.00350E+01 1.18003E+01 0.00000E+00
 -1       796 4.30350E+01 1.18003E+01 0.00000E+00
 -1       797 4.60350E+01 1.18003E+01 0.00000E+00
 -1       798 4.90350E+01 1.18003E+01 0.00000E+00
 -1       799 5.20350E+01 1.18003E+01 0.00000E+00
 -1       800 5.50350E+01 1.18003E+01 0.00000E+00
 -1       801 5.80350E+01 1.18003E+01 0.00000E+00
 -1       802 6.10350E+01 1.18003E+01 0.00000E+00
 -1       803 6.40350E+01 1.18003E+01 0.00000E+00
 -1       804 6.70350E+01 1.18003E+01 0.00000E+00
 -1       805 7.00350E+01 1.18003E+01 0.00000E+00
 -1       806 7.30350E+01 1.18003E+01 0.00000E+00
 -1       807 7.60350E+01 1.18003E+01 0.00000E+00
 -1       808 7.90350E+01 1.18003E+01 0.00000E+00
 -1       809 8.20350E+01 1.18003E+01 0.00000E+00
 -1       810 8.50350E+01 1.18003E+01 0.00000E+00
 -1       811 8.80350E+01 1.18003E+01 0.00000E+00
 -1       812 9.10350E+01 1.18003E+01 0.00000E+00
 -1       813 9.40350E+01 1.18003E+01 0.00000E+00
 -1       814 9.70350E+01 1.18003E+01 0.00000E+00
 -1       815 1.00035E+02 1.18003E+01 0.00000E+00
 -1       816 1.30035E+02 1.14201E+01 0.00000E+00
 -1       817 1.33035E+02 1.14201E+01 0.00000E+00
 -1       818 1.24284E+02 1.16891E+01 0.00000E+00
 -1       819 1.37010E+02 2.79500E+01 0.00000E+00
 -1       820 1.28853E+02 2.26599E+01 0.00000E+00
 -1       821 1.37010E+02 3.38250E+01 0.00000E+00
 -1       822 1.37010E+02 2.50000E+01 0.00000E+00
 -1       823 1.27008E+02 1.34583E+01 0.00000E+00
 -1       824 1.28560E+02 1.88774E+01 0.00000E+00
 -1       825 1.37010E+02 3.08875E+01 0.00000E+00
 -1       826 1.00411E+02 1.77874E+01 0.00000E+00
 -1       827 1.26783E+02 2.83732E+01 0.00000E+00
 -1       828 1.90350E+01 1.18003E+01 0.00000E+00
 -1       829 1.09359E+02 3.48340E+01 0.00000E+00
 -1       830 1.24041E+02 3.25028E+01 0.00000E+00
 -1       831 3.70350E+01 1.18003E+01 0.00000E+00
 -1       832 1.00780E+02 2.57428E+01 0.00000E+00
 -1       833 1.21334E+02 3.48792E+01 0.00000E+00
 -1       834 1.12332E+02 3.54627E+01 0.00000E+00
 -1       835 1.06117E+02 3.38204E+01 0.00000E+00
 -1       836 1.01922E+02 2.88988E+01 0.00000E+00
 -1       837 1.37625E+01 1.12011E+01 0.00000E+00
 -1       838 1.03356E+02 3.14438E+01 0.00000E+00
 -1       839 1.48200E+01 3.53988E+01 0.00000E+00
 -1       840 1.72350E+01 3.62044E+01 0.00000E+00
 -1       841 1.18083E+02 3.54881E+01 0.00000E+00
 -1       842 1.00593E+02 1.48317E+01 0.00000E+00
 -1       843 1.29900E+01 2.20250E+01 0.00000E+00
 -1       844 1.29900E+01 2.49750E+01 0.00000E+00
 -1       845 1.63988E+01 1.15007E+01 0.00000E+00
 -1       846 1.28293E+02 2.73660E+01 0.00000E+00
 -1       847 9.98910E+01 2.78341E+01 0.00000E+00
 -1       848 2.80350E+01 1.18003E+01 0.00000E+00
 -1       849 1.48200E+01 3.24613E+01 0.00000E+00
 -1       850 1.30046E+02 2.09377E+01 0.00000E+00
 -1       851 1.35370E+02 1.21715E+01 0.00000E+00
 -1       852 1.28422E+02 1.45956E+01 0.00000E+00
 -1       853 1.37273E+02 1.39735E+01 0.00000E+00
 -1       854 1.37010E+02 1.91250E+01 0.00000E+00
 -1       855 1.37010E+02 2.20625E+01 0.00000E+00
 -1       856 1.37141E+02 1.65493E+01 0.00000E+00
 -1       857 1.48200E+01 2.95238E+01 0.00000E+00
 -1       858 2.50350E+01 1.18003E+01 0.00000E+00
 -1       859 9.98953E+01 2.18111E+01 0.00000E+00
 -1       860 1.29900E+01 1.61375E+01 0.00000E+00
 -1       861 1.29900E+01 1.90812E+01 0.00000E+00
 -1       862 1.14430E+02 3.53646E+01 0.00000E+00
 -1       863 1.36637E+02 3.55285E+01 0.00000E+00
 -1       864 1.28152E+02 3.04008E+01 0.00000E+00
 -1       865 1.00314E+02 1.33160E+01 0.00000E+00
 -1       866 2.41500E+01 3.44120E+01 0.00000E+00
 -1       867 2.71500E+01 3.44120E+01 0.00000E+00
 -1       868 3.01500E+01 3.44120E+01 0.00000E+00
 -1       869 3.31500E+01 3.44120E+01 0.00000E+00
 -1       870 3.61500E+01 3.44120E+01 0.00000E+00
 -1       871 3.91500E+01 3.44120E+01 0.00000E+00
 -1       872 4.21500E+01 3.44120E+01 0.00000E+00
 -1       873 4.51500E+01 3.44120E+01 0.00000E+00
 -1       874 4.81500E+01 3.44120E+01 0.00000E+00
 -1       875 5.11500E+01 3.44120E+01 0.00000E+00
 -1       876 5.41500E+01 3.44120E+01 0.00000E+00
 -1       877 5.71500E+01 3.44120E+01 0.00000E+00
 -1       878 6.01500E+01 3.44120E+01 0.00000E+00
 -1       879 6.31500E+01 3.44120E+01 0.00000E+00
 -1       880 6.61500E+01 3.44120E+01 0.00000E+00
 -1       881 6.91500E+01 3.44120E+01 0.00000E+00
 -1       882 7.21500E+01 3.44120E+01 0.00000E+00
 -1       883 7.51500E+01 3.44120E+01 0.00000E+00
 -1       884 7.81500E+01 3.44120E+01 0.00000E+00
 -1       885 8.11500E+01 3.44120E+01 0.00000E+00
 -1       886 8.41500E+01 3.44120E+01 0.00000E+00
 -1       887 8.71500E+01 3.44120E+01 0.00000E+00
 -1       888 9.01500E+01 3.44120E+01 0.00000E+00
 -1       889 9.31500E+01 3.44120E+01 0.00000E+00
 -1       890 9.61500E+01 3.44120E+01 0.00000E+00
 -1       891 9.91500E+01 3.44120E+01 0.00000E+00
 -1       892 1.02150E+02 3.44120E+01 0.00000E+00
 -1       893 1.26150E+02 3.44120E+01 0.00000E+00
 -1       894 1.29150E+02 3.44120E+01 0.00000E+00
 -1       895 1.32150E+02 3.44120E+01 0.00000E+00
 -1       896 3.25350E+01 1.43982E+01 0.00000E+00
 -1       897 4.45350E+01 1.43982E+01 0.00000E+00
 -1       898 4.15350E+01 1.43982E+01 0.00000E+00
 -1       899 5.05350E+01 1.43982E+01 0.00000E+00
 -1       900 5.35350E+01 1.43982E+01 0.00000E+00
 -1       901 5.65350E+01 1.43982E+01 0.00000E+00
 -1       902 5.95350E+01 1.43982E+01 0.00000E+00
 -1       903 6.25350E+01 1.43982E+01 0.00000E+00
 -1       904 6.55350E+01 1.43982E+01 0.00000E+00
 -1       905 6.85350E+01 1.43982E+01 0.00000E+00
 -1       906 7.15350E+01 1.43982E+01 0.00000E+00
 -1       907 7.45350E+01 1.43982E+01 0.00000E+00
 -1       908 7.75350E+01 1.43982E+01 0.00000E+00
 -1       909 8.05350E+01 1.43982E+01 0.00000E+00
 -1       910 8.35350E+01 1.43982E+01 0.00000E+00
 -1       911 8.65350E+01 1.43982E+01 0.00000E+00
 -1       912 8.95350E+01 1.43982E+01 0.00000E+00
 -1       913 9.25350E+01 1.43982E+01 0.00000E+00
 -1       914 9.55350E+01 1.43982E+01 0.00000E+00
 -1       915 1.72350E+01 3.32669E+01 0.00000E+00
 -1       916 1.31535E+02 1.40181E+01 0.00000E+00
 -1       917 9.82881E+01 1.61733E+01 0.00000E+00
 -1       918 1.00561E+02 3.13419E+01 0.00000E+00
 -1       919 9.88313E+01 1.91561E+01 0.00000E+00
 -1       920 1.29690E+02 1.68783E+01 0.00000E+00
 -1       921 2.05350E+01 1.43982E+01 0.00000E+00
 -1       922 1.30186E+02 2.50852E+01 0.00000E+00
 -1       923 1.39050E+01 2.72494E+01 0.00000E+00
 -1       924 1.34412E+02 2.64750E+01 0.00000E+00
 -1       925 2.11500E+01 3.44120E+01 0.00000E+00
 -1       926 4.75350E+01 1.43982E+01 0.00000E+00
 -1       927 1.27151E+02 3.24064E+01 0.00000E+00
 -1       928 9.85448E+01 2.45446E+01 0.00000E+00
 -1       929 1.55880E+01 2.35000E+01 0.00000E+00
 -1       930 1.78988E+01 1.40987E+01 0.00000E+00
 -1       931 1.55880E+01 2.05562E+01 0.00000E+00
 -1       932 1.34412E+02 2.35375E+01 0.00000E+00
 -1       933 2.95350E+01 1.43982E+01 0.00000E+00
 -1       934 3.55350E+01 1.43982E+01 0.00000E+00
 -1       935 1.34394E+02 3.49702E+01 0.00000E+00
 -1       936 3.85350E+01 1.43982E+01 0.00000E+00
 -1       937 1.72350E+01 3.03294E+01 0.00000E+00
 -1       938 1.31177E+02 1.89387E+01 0.00000E+00
 -1       939 1.33870E+02 1.47695E+01 0.00000E+00
 -1       940 9.76555E+01 2.66359E+01 0.00000E+00
 -1       941 9.80637E+01 2.08043E+01 0.00000E+00
 -1       942 1.34481E+02 1.77049E+01 0.00000E+00
 -1       943 1.34412E+02 2.94125E+01 0.00000E+00
 -1       944 1.55880E+01 1.46687E+01 0.00000E+00
 -1       945 2.35350E+01 1.43982E+01 0.00000E+00
 -1       946 1.31379E+02 2.33631E+01 0.00000E+00
 -1       947 1.91925E+01 3.38394E+01 0.00000E+00
 -1       948 1.34447E+02 2.06212E+01 0.00000E+00
 -1       949 1.34580E+02 3.26497E+01 0.00000E+00
 -1       950 2.86500E+01 3.18140E+01 0.00000E+00
 -1       951 3.16500E+01 3.18140E+01 0.00000E+00
 -1       952 3.46500E+01 3.18140E+01 0.00000E+00
 -1       953 3.76500E+01 3.18140E+01 0.00000E+00
 -1       954 4.06500E+01 3.18140E+01 0.00000E+00
 -1       955 4.36500E+01 3.18140E+01 0.00000E+00
 -1       956 4.66500E+01 3.18140E+01 0.00000E+00
 -1       957 4.96500E+01 3.18140E+01 0.00000E+00
 -1       958 5.26500E+01 3.18140E+01 0.00000E+00
 -1       959 5.56500E+01 3.18140E+01 0.00000E+00
 -1       960 5.86500E+01 3.18140E+01 0.00000E+00
 -1       961 6.16500E+01 3.18140E+01 0.00000E+00
 -1       962 6.46500E+01 3.18140E+01 0.00000E+00
 -1       963 6.76500E+01 3.18140E+01 0.00000E+00
 -1       964 7.06500E+01 3.18140E+01 0.00000E+00
 -1       965 7.36500E+01 3.18140E+01 0.00000E+00
 -1       966 7.66500E+01 3.18140E+01 0.00000E+00
 -1       967 7.96500E+01 3.18140E+01 0.00000E+00
 -1       968 8.26500E+01 3.18140E+01 0.00000E+00
 -1       969 8.56500E+01 3.18140E+01 0.00000E+00
 -1       970 8.86500E+01 3.18140E+01 0.00000E+00
 -1       971 9.16500E+01 3.18140E+01 0.00000E+00
 -1       972 9.46500E+01 3.18140E+01 0.00000E+00
 -1       973 9.76500E+01 3.18140E+01 0.00000E+00
 -1       974 9.78828E+01 3.00354E+01 0.00000E+00
 -1       975 1.30650E+02 3.18140E+01 0.00000E+00
 -1       976 5.80350E+01 1.69963E+01 0.00000E+00
 -1       977 4.30350E+01 1.69963E+01 0.00000E+00
 -1       978 2.65350E+01 1.43982E+01 0.00000E+00
 -1       979 5.50350E+01 1.69963E+01 0.00000E+00
 -1       980 5.20350E+01 1.69963E+01 0.00000E+00
 -1       981 6.10350E+01 1.69963E+01 0.00000E+00
 -1       982 6.40350E+01 1.69963E+01 0.00000E+00
 -1       983 6.70350E+01 1.69963E+01 0.00000E+00
 -1       984 7.00350E+01 1.69963E+01 0.00000E+00
 -1       985 7.30350E+01 1.69963E+01 0.00000E+00
 -1       986 7.60350E+01 1.69963E+01 0.00000E+00
 -1       987 7.90350E+01 1.69963E+01 0.00000E+00
 -1       988 8.20350E+01 1.69963E+01 0.00000E+00
 -1       989 8.50350E+01 1.69963E+01 0.00000E+00
 -1       990 8.80350E+01 1.69963E+01 0.00000E+00
 -1       991 9.10350E+01 1.69963E+01 0.00000E+00
 -1       992 9.40350E+01 1.69963E+01 0.00000E+00
 -1       993 9.67132E+01 2.35378E+01 0.00000E+00
 -1       994 9.64331E+01 1.80762E+01 0.00000E+00
 -1       995 1.31075E+02 2.77488E+01 0.00000E+00
 -1       996 2.26500E+01 3.18140E+01 0.00000E+00
 -1       997 1.65030E+01 2.57744E+01 0.00000E+00
 -1       998 2.56500E+01 3.18140E+01 0.00000E+00
 -1       999 1.55880E+01 1.76125E+01 0.00000E+00
 -1      1000 1.32027E+02 2.50063E+01 0.00000E+00
 -1      1001 4.60350E+01 1.69963E+01 0.00000E+00
 -1      1002 1.89235E+01 1.68299E+01 0.00000E+00
 -1      1003 3.10350E+01 1.69963E+01 0.00000E+00
 -1      1004 4.00350E+01 1.69963E+01 0.00000E+00
 -1      1005 3.40350E+01 1.69963E+01 0.00000E+00
 -1      1006 1.91925E+01 3.09019E+01 0.00000E+00
 -1      1007 9.58240E+01 2.56291E+01 0.00000E+00
 -1      1008 1.81860E+01 2.20281E+01 0.00000E+00
 -1      1009 1.68690E+01 2.80519E+01 0.00000E+00
 -1      1010 2.19235E+01 1.68299E+01 0.00000E+00
 -1      1011 1.91010E+01 2.43025E+01 0.00000E+00
 -1      1012 4.90350E+01 1.69963E+01 0.00000E+00
 -1      1013 2.09212E+01 3.13580E+01 0.00000E+00
 -1      1014 3.31500E+01 2.92160E+01 0.00000E+00
 -1      1015 3.61500E+01 2.92160E+01 0.00000E+00
 -1      1016 3.91500E+01 2.92160E+01 0.00000E+00
 -1      1017 4.21500E+01 2.92160E+01 0.00000E+00
 -1      1018 4.51500E+01 2.92160E+01 0.00000E+00
 -1      1019 4.81500E+01 2.92160E+01 0.00000E+00
 -1      1020 5.11500E+01 2.92160E+01 0.00000E+00
 -1      1021 5.41500E+01 2.92160E+01 0.00000E+00
 -1      1022 5.71500E+01 2.92160E+01 0.00000E+00
 -1      1023 6.01500E+01 2.92160E+01 0.00000E+00
 -1      1024 6.31500E+01 2.92160E+01 0.00000E+00
 -1      1025 6.61500E+01 2.92160E+01 0.00000E+00
 -1      1026 6.91500E+01 2.92160E+01 0.00000E+00
 -1      1027 7.21500E+01 2.92160E+01 0.00000E+00
 -1      1028 7.51500E+01 2.92160E+01 0.00000E+00
 -1      1029 7.81500E+01 2.92160E+01 0.00000E+00
 -1      1030 8.11500E+01 2.92160E+01 0.00000E+00
 -1      1031 8.41500E+01 2.92160E+01 0.00000E+00
 -1      1032 8.71500E+01 2.92160E+01 0.00000E+00
 -1      1033 9.01500E+01 2.92160E+01 0.00000E+00
 -1      1034 9.31500E+01 2.92160E+01 0.00000E+00
 -1      1035 9.55164E+01 2.96257E+01 0.00000E+00
 -1      1036 3.70350E+01 1.69963E+01 0.00000E+00
 -1      1037 2.49235E+01 1.68299E+01 0.00000E+00
 -1      1038 5.65350E+01 1.95942E+01 0.00000E+00
 -1      1039 5.35350E+01 1.95942E+01 0.00000E+00
 -1      1040 6.55350E+01 1.95942E+01 0.00000E+00
 -1      1041 6.85350E+01 1.95942E+01 0.00000E+00
 -1      1042 7.15350E+01 1.95942E+01 0.00000E+00
 -1      1043 7.45350E+01 1.95942E+01 0.00000E+00
 -1      1044 7.75350E+01 1.95942E+01 0.00000E+00
 -1      1045 8.05350E+01 1.95942E+01 0.00000E+00
 -1      1046 8.35350E+01 1.95942E+01 0.00000E+00
 -1      1047 8.65350E+01 1.95942E+01 0.00000E+00
 -1      1048 8.95350E+01 1.95942E+01 0.00000E+00
 -1      1049 9.25350E+01 1.95942E+01 0.00000E+00
 -1      1050 3.01500E+01 2.92160E+01 0.00000E+00
 -1      1051 9.49331E+01 2.06742E+01 0.00000E+00
 -1      1052 2.80350E+01 1.69963E+01 0.00000E+00
 -1      1053 2.71500E+01 2.92160E+01 0.00000E+00
 -1      1054 5.05350E+01 1.95942E+01 0.00000E+00
 -1      1055 1.32656E+02 2.10825E+01 0.00000E+00
 -1      1056 1.85548E+01 1.94290E+01 0.00000E+00
 -1      1057 2.41500E+01 2.92160E+01 0.00000E+00
 -1      1058 6.25350E+01 1.95942E+01 0.00000E+00
 -1      1059 5.95350E+01 1.95942E+01 0.00000E+00
 -1      1060 4.45350E+01 1.95942E+01 0.00000E+00
 -1      1061 4.15350E+01 1.95942E+01 0.00000E+00
 -1      1062 2.10538E+01 2.21956E+01 0.00000E+00
 -1      1063 1.88265E+01 2.86244E+01 0.00000E+00
 -1      1064 9.44870E+01 2.74225E+01 0.00000E+00
 -1      1065 2.24212E+01 2.87600E+01 0.00000E+00
 -1      1066 2.95350E+01 1.95942E+01 0.00000E+00
 -1      1067 9.40439E+01 2.27654E+01 0.00000E+00
 -1      1068 3.25350E+01 1.95942E+01 0.00000E+00
 -1      1069 2.15548E+01 1.94290E+01 0.00000E+00
 -1      1070 1.94670E+01 2.65800E+01 0.00000E+00
 -1      1071 4.75350E+01 1.95942E+01 0.00000E+00
 -1      1072 3.76500E+01 2.66180E+01 0.00000E+00
 -1      1073 4.06500E+01 2.66180E+01 0.00000E+00
 -1      1074 4.36500E+01 2.66180E+01 0.00000E+00
 -1      1075 4.66500E+01 2.66180E+01 0.00000E+00
 -1      1076 4.96500E+01 2.66180E+01 0.00000E+00
 -1      1077 5.26500E+01 2.66180E+01 0.00000E+00
 -1      1078 5.56500E+01 2.66180E+01 0.00000E+00
 -1      1079 5.86500E+01 2.66180E+01 0.00000E+00
 -1      1080 6.16500E+01 2.66180E+01 0.00000E+00
 -1      1081 6.46500E+01 2.66180E+01 0.00000E+00
 -1      1082 6.76500E+01 2.66180E+01 0.00000E+00
 -1      1083 7.06500E+01 2.66180E+01 0.00000E+00
 -1      1084 7.36500E+01 2.66180E+01 0.00000E+00
 -1      1085 7.66500E+01 2.66180E+01 0.00000E+00
 -1      1086 7.96500E+01 2.66180E+01 0.00000E+00
 -1      1087 8.26500E+01 2.66180E+01 0.00000E+00
 -1      1088 8.56500E+01 2.66180E+01 0.00000E+00
 -1      1089 8.86500E+01 2.66180E+01 0.00000E+00
 -1      1090 9.16500E+01 2.66180E+01 0.00000E+00
 -1      1091 7.30350E+01 2.21922E+01 0.00000E+00
 -1      1092 5.50350E+01 2.21922E+01 0.00000E+00
 -1      1093 4.90350E+01 2.21922E+01 0.00000E+00
 -1      1094 7.00350E+01 2.21922E+01 0.00000E+00
 -1      1095 6.70350E+01 2.21922E+01 0.00000E+00
 -1      1096 7.60350E+01 2.21922E+01 0.00000E+00
 -1      1097 7.90350E+01 2.21922E+01 0.00000E+00
 -1      1098 8.20350E+01 2.21922E+01 0.00000E+00
 -1      1099 8.50350E+01 2.21922E+01 0.00000E+00
 -1      1100 8.80350E+01 2.21922E+01 0.00000E+00
 -1      1101 9.10350E+01 2.21922E+01 0.00000E+00
 -1      1102 3.16500E+01 2.66180E+01 0.00000E+00
 -1      1103 2.64235E+01 1.94279E+01 0.00000E+00
 -1      1104 2.39892E+01 1.94284E+01 0.00000E+00
 -1      1105 2.19828E+01 2.50151E+01 0.00000E+00
 -1      1106 3.46500E+01 2.66180E+01 0.00000E+00
 -1      1107 5.20350E+01 2.21922E+01 0.00000E+00
 -1      1108 2.86500E+01 2.66180E+01 0.00000E+00
 -1      1109 4.60350E+01 2.21922E+01 0.00000E+00
 -1      1110 6.40350E+01 2.21922E+01 0.00000E+00
 -1      1111 2.06239E+01 2.86922E+01 0.00000E+00
 -1      1112 2.56500E+01 2.66180E+01 0.00000E+00
 -1      1113 2.78405E+01 2.21053E+01 0.00000E+00
 -1      1114 4.30350E+01 2.21922E+01 0.00000E+00
 -1      1115 3.55350E+01 1.95942E+01 0.00000E+00
 -1      1116 5.80350E+01 2.21922E+01 0.00000E+00
 -1      1117 2.34881E+01 2.21951E+01 0.00000E+00
 -1      1118 2.39212E+01 2.61620E+01 0.00000E+00
 -1      1119 3.85350E+01 1.95942E+01 0.00000E+00
 -1      1120 9.27610E+01 2.48074E+01 0.00000E+00
 -1      1121 3.08405E+01 2.21053E+01 0.00000E+00
 -1      1122 6.10350E+01 2.21922E+01 0.00000E+00
 -1      1123 3.91500E+01 2.40200E+01 0.00000E+00
 -1      1124 2.71500E+01 2.40200E+01 0.00000E+00
 -1      1125 3.31500E+01 2.40200E+01 0.00000E+00
 -1      1126 3.01500E+01 2.40200E+01 0.00000E+00
 -1      1127 3.61500E+01 2.40200E+01 0.00000E+00
 -1      1128 2.22020E+01 2.68876E+01 0.00000E+00
 -1      1129 0.00000E+00 4.85250E+01 0.00000E+00
 -1      1130 0.00000E+00 4.55750E+01 0.00000E+00
 -1      1131 0.00000E+00 4.26250E+01 0.00000E+00
 -1      1132 0.00000E+00 3.96750E+01 0.00000E+00
 -1      1133 0.00000E+00 3.67250E+01 0.00000E+00
 -1      1134 0.00000E+00 3.38000E+01 0.00000E+00
 -1      1135 0.00000E+00 3.08750E+01 0.00000E+00
 -1      1136 0.00000E+00 2.79250E+01 0.00000E+00
 -1      1137 0.00000E+00 2.49750E+01 0.00000E+00
 -1      1138 0.00000E+00 2.20250E+01 0.00000E+00
 -1      1139 0.00000E+00 1.90750E+01 0.00000E+00
 -1      1140 0.00000E+00 1.61500E+01 0.00000E+00
 -1      1141 0.00000E+00 1.32250E+01 0.00000E+00
 -1      1142 0.00000E+00 1.02750E+01 0.00000E+00
 -1      1143 0.00000E+00 7.32500E+00 0.00000E+00
 -1      1144 0.00000E+00 4.37500E+00 0.00000E+00
 -1      1145 0.00000E+00 1.45000E+00 0.00000E+00
 -1      1146 1.57500E+00 5.00000E+01 0.00000E+00
 -1      1147 4.65000E+00 5.00000E+01 0.00000E+00
 -1      1148 7.65000E+00 5.00000E+01 0.00000E+00
 -1      1149 1.06500E+01 5.00000E+01 0.00000E+00
 -1      1150 1.36500E+01 5.00000E+01 0.00000E+00
 -1      1151 1.66500E+01 5.00000E+01 0.00000E+00
 -1      1152 1.96500E+01 5.00000E+01 0.00000E+00
 -1      1153 2.26500E+01 5.00000E+01 0.00000E+00
 -1      1154 2.56500E+01 5.00000E+01 0.00000E+00
 -1      1155 2.86500E+01 5.00000E+01 0.00000E+00
 -1      1156 3.16500E+01 5.00000E+01 0.00000E+00
 -1      1157 3.46500E+01 5.00000E+01 0.00000E+00
 -1      1158 3.76500E+01 5.00000E+01 0.00000E+00
 -1      1159 4.06500E+01 5.00000E+01 0.00000E+00
 -1      1160 4.36500E+01 5.00000E+01 0.00000E+00
 -1      1161 4.66500E+01 5.00000E+01 0.00000E+00
 -1      1162 4.96500E+01 5.00000E+01 0.00000E+00
 -1      1163 5.26500E+01 5.00000E+01 0.00000E+00
 -1      1164 5.56500E+01 5.00000E+01 0.00000E+00
 -1      1165 5.86500E+01 5.00000E+01 0.00000E+00
 -1      1166 6.16500E+01 5.00000E+01 0.00000E+00
 -1      1167 6.46500E+01 5.00000E+01 0.00000E+00
 -1      1168 6.76500E+01 5.00000E+01 0.00000E+00
 -1      1169 7.06500E+01 5.00000E+01 0.00000E+00
 -1      1170 7.36500E+01 5.00000E+01 0.00000E+00
 -1      1171 7.66500E+01 5.00000E+01 0.00000E+00
 -1      1172 7.96500E+01 5.00000E+01 0.00000E+00
 -1      1173 8.26500E+01 5.00000E+01 0.00000E+00
 -1      1174 8.56500E+01 5.00000E+01 0.00000E+00
 -1      1175 8.86500E+01 5.00000E+01 0.00000E+00
 -1      1176 9.16500E+01 5.00000E+01 0.00000E+00
 -1      1177 9.46500E+01 5.00000E+01 0.00000E+00
 -1      1178 9.76500E+01 5.00000E+01 0.00000E+00
 -1      1179 1.00650E+02 5.00000E+01 0.00000E+00
 -1      1180 1.03650E+02 5.00000E+01 0.00000E+00
 -1      1181 1.06650E+02 5.00000E+01 0.00000E+00
 -1      1182 1.09650E+02 5.00000E+01 0.00000E+00
 -1      1183 1.12650E+02 5.00000E+01 0.00000E+00
 -1      1184 1.15650E+02 5.00000E+01 0.00000E+00
 -1      1185 1.18650E+02 5.00000E+01 0.00000E+00
 -1      1186 1.21650E+02 5.00000E+01 0.00000E+00
 -1      1187 1.24650E+02 5.00000E+01 0.00000E+00
 -1      1188 1.27650E+02 5.00000E+01 0.00000E+00
 -1      1189 1.30650E+02 5.00000E+01 0.00000E+00
 -1      1190 1.33650E+02 5.00000E+01 0.00000E+00
 -1      1191 1.36650E+02 5.00000E+01 0.00000E+00
 -1      1192 1.39650E+02 5.00000E+01 0.00000E+00
 -1      1193 1.42650E+02 5.00000E+01 0.00000E+00
 -1      1194 1.45650E+02 5.00000E+01 0.00000E+00
 -1      1195 1.48575E+02 5.00000E+01 0.00000E+00
 -1      1196 1.57500E+00 0.00000E+00 0.00000E+00
 -1      1197 4.65000E+00 0.00000E+00 0.00000E+00
 -1      1198 7.65000E+00 0.00000E+00 0.00000E+00
 -1      1199 1.06500E+01 0.00000E+00 0.00000E+00
 -1      1200 1.36500E+01 0.00000E+00 0.00000E+00
 -1      1201 1.66500E+01 0.00000E+00 0.00000E+00
 -1      1202 1.96500E+01 0.00000E+00 0.00000E+00
 -1      1203 2.26500E+01 0.00000E+00 0.00000E+00
 -1      1204 2.56500E+01 0.00000E+00 0.00000E+00
 -1      1205 2.86500E+01 0.00000E+00 0.00000E+00
 -1      1206 3.16500E+01 0.00000E+00 0.00000E+00
 -1      1207 3.46500E+01 0.00000E+00 0.00000E+00
 -1      1208 3.76500E+01 0.00000E+00 0.00000E+00
 -1      1209 4.06500E+01 0.00000E+00 0.00000E+00
 -1      1210 4.36500E+01 0.00000E+00 0.00000E+00
 -1      1211 4.66500E+01 0.00000E+00 0.00000E+00
 -1      1212 4.96500E+01 0.00000E+00 0.00000E+00
 -1      1213 5.26500E+01 0.00000E+00 0.00000E+00
 -1      1214 5.56500E+01 0.00000E+00 0.00000E+00
 -1      1215 5.86500E+01 0.00000E+00 0.00000E+00
 -1      1216 6.16500E+01 0.00000E+00 0.00000E+00
 -1      1217 6.46500E+01 0.00000E+00 0.00000E+00
 -1      1218 6.76500E+01 0.00000E+00 0.00000E+00
 -1      1219 7.06500E+01 0.00000E+00 0.00000E+00
 -1      1220 7.36500E+01 0.00000E+00 0.00000E+00
 -1      1221 7.66500E+01 0.00000E+00 0.00000E+00
 -1      1222 7.96500E+01 0.00000E+00 0.00000E+00
 -1      1223 8.26500E+01 0.00000E+00 0.00000E+00
 -1      1224 8.56500E+01 0.00000E+00 0.00000E+00
 -1      1225 8.86500E+01 0.00000E+00 0.00000E+00
 -1      1226 9.16500E+01 0.00000E+00 0.00000E+00
 -1      1227 9.46500E+01 0.00000E+00 0.00000E+00
 -1      1228 9.76500E+01 0.00000E+00 0.00000E+00
 -1      1229 1.00650E+02 0.00000E+00 0.00000E+00
 -1      1230 1.03650E+02 0.00000E+00 0.00000E+00
 -1      1231 1.06650E+02 0.00000E+00 0.00000E+00
 -1      1232 1.09650E+02 0.00000E+00 0.00000E+00
 -1      1233 1.12650E+02 0.00000E+00 0.00000E+00
 -1      1234 1.15650E+02 0.00000E+00 0.00000E+00
 -1      1235 1.18650E+02 0.00000E+00 0.00000E+00
 -1      1236 1.21650E+02 0.00000E+00 0.00000E+00
 -1      1237 1.24650E+02 0.00000E+00 0.00000E+00
 -1      1238 1.27650E+02 0.00000E+00 0.00000E+00
 -1      1239 1.30650E+02 0.00000E+00 0.00000E+00
 -1      1240 1.33650E+02 0.00000E+00 0.00000E+00
 -1      1241 1.36650E+02 0.00000E+00 0.00000E+00
 -1      1242 1.39650E+02 0.00000E+00 0.00000E+00
 -1      1243 1.42650E+02 0.00000E+00 0.00000E+00
 -1      1244 1.45650E+02 0.00000E+00 0.00000E+00
 -1      1245 1.48575E+02 0.00000E+00 0.00000E+00
 -1      1246 1.50000E+02 1.47500E+00 0.00000E+00
 -1      1247 1.50000E+02 4.42500E+00 0.00000E+00
 -1      1248 1.50000E+02 7.37500E+00 0.00000E+00
 -1      1249 1.50000E+02 1.03250E+01 0.00000E+00
 -1      1250 1.50000E+02 1.32750E+01 0.00000E+00
 -1      1251 1.50000E+02 1.62000E+01 0.00000E+00
 -1      1252 1.50000E+02 1.91250E+01 0.00000E+00
 -1      1253 1.50000E+02 2.20750E+01 0.00000E+00
 -1      1254 1.50000E+02 2.50250E+01 0.00000E+00
 -1      1255 1.50000E+02 2.79750E+01 0.00000E+00
 -1      1256 1.50000E+02 3.09250E+01 0.00000E+00
 -1      1257 1.50000E+02 3.38500E+01 0.00000E+00
 -1      1258 1.50000E+02 3.67750E+01 0.00000E+00
 -1      1259 1.50000E+02 3.97250E+01 0.00000E+00
 -1      1260 1.50000E+02 4.26750E+01 0.00000E+00
 -1      1261 1.50000E+02 4.56250E+01 0.00000E+00
 -1      1262 1.50000E+02 4.85500E+01 0.00000E+00
 -1      1263 1.21210E+02 2.01122E+01 0.00000E+00
 -1      1264 1.20901E+02 1.86693E+01 0.00000E+00
 -1      1265 1.20278E+02 1.72918E+01 0.00000E+00
 -1      1266 1.19346E+02 1.60502E+01 0.00000E+00
 -1      1267 1.18195E+02 1.50668E+01 0.00000E+00
 -1      1268 1.16917E+02 1.43767E+01 0.00000E+00
 -1      1269 1.15552E+02 1.39706E+01 0.00000E+00
 -1      1270 1.14066E+02 1.38506E+01 0.00000E+00
 -1      1271 1.12515E+02 1.40665E+01 0.00000E+00
 -1      1272 1.11124E+02 1.45846E+01 0.00000E+00
 -1      1273 1.09845E+02 1.54069E+01 0.00000E+00
 -1      1274 1.08756E+02 1.65085E+01 0.00000E+00
 -1      1275 1.07973E+02 1.77473E+01 0.00000E+00
 -1      1276 1.07453E+02 1.91709E+01 0.00000E+00
 -1      1277 1.07252E+02 2.06368E+01 0.00000E+00
 -1      1278 1.07354E+02 2.20571E+01 0.00000E+00
 -1      1279 1.07765E+02 2.34873E+01 0.00000E+00
 -1      1280 1.08457E+02 2.47793E+01 0.00000E+00
 -1      1281 1.09383E+02 2.58807E+01 0.00000E+00
 -1      1282 1.10519E+02 2.67721E+01 0.00000E+00
 -1      1283 1.11827E+02 2.74161E+01 0.00000E+00
 -1      1284 1.13207E+02 2.77704E+01 0.00000E+00
 -1      1285 1.14600E+02 2.78394E+01 0.00000E+00
 -1      1286 1.16042E+02 2.76146E+01 0.00000E+00
 -1      1287 1.17390E+02 2.71041E+01 0.00000E+00
 -1      1288 1.18583E+02 2.63451E+01 0.00000E+00
 -1      1289 1.19603E+02 2.53574E+01 0.00000E+00
 -1      1290 1.20406E+02 2.41777E+01 0.00000E+00
 -1      1291 1.20949E+02 2.28755E+01 0.00000E+00
 -1      1292 1.21215E+02 2.15306E+01 0.00000E+00
 -1      1293 1.57500E+00 4.85250E+01 0.00000E+00
 -1      1294 1.29900E+00 4.48375E+01 0.00000E+00
 -1      1295 1.29900E+00 4.63125E+01 0.00000E+00
 -1      1296 1.29900E+00 4.18875E+01 0.00000E+00
 -1      1297 1.29900E+00 4.33625E+01 0.00000E+00
 -1      1298 2.59800E+00 4.41000E+01 0.00000E+00
 -1      1299 1.29900E+00 3.89375E+01 0.00000E+00
 -1      1300 1.29900E+00 4.04125E+01 0.00000E+00
 -1      1301 2.59800E+00 4.11500E+01 0.00000E+00
 -1      1302 1.29900E+00 3.59875E+01 0.00000E+00
 -1      1303 1.29900E+00 3.74625E+01 0.00000E+00
 -1      1304 2.59800E+00 3.82000E+01 0.00000E+00
 -1      1305 1.29900E+00 3.30875E+01 0.00000E+00
 -1      1306 1.29900E+00 3.45375E+01 0.00000E+00
 -1      1307 2.59800E+00 3.52750E+01 0.00000E+00
 -1      1308 1.29900E+00 3.01375E+01 0.00000E+00
 -1      1309 1.29900E+00 3.16125E+01 0.00000E+00
 -1      1310 2.59800E+00 3.23500E+01 0.00000E+00
 -1      1311 1.29900E+00 2.71875E+01 0.00000E+00
 -1      1312 1.29900E+00 2.86625E+01 0.00000E+00
 -1      1313 2.59800E+00 2.94000E+01 0.00000E+00
 -1      1314 1.29900E+00 2.42375E+01 0.00000E+00
 -1      1315 1.29900E+00 2.57125E+01 0.00000E+00
 -1      1316 2.59800E+00 2.64500E+01 0.00000E+00
 -1      1317 1.29900E+00 2.12875E+01 0.00000E+00
 -1      1318 1.29900E+00 2.27625E+01 0.00000E+00
 -1      1319 2.59800E+00 2.35000E+01 0.00000E+00
 -1      1320 1.29900E+00 1.83375E+01 0.00000E+00
 -1      1321 1.29900E+00 1.98125E+01 0.00000E+00
 -1      1322 2.59800E+00 2.05500E+01 0.00000E+00
 -1      1323 1.29900E+00 1.54375E+01 0.00000E+00
 -1      1324 1.29900E+00 1.68875E+01 0.00000E+00
 -1      1325 2.59800E+00 1.76250E+01 0.00000E+00
 -1      1326 1.29900E+00 1.24875E+01 0.00000E+00
 -1      1327 1.29900E+00 1.39625E+01 0.00000E+00
 -1      1328 2.59800E+00 1.47000E+01 0.00000E+00
 -1      1329 1.29900E+00 9.53750E+00 0.00000E+00
 -1      1330 1.29900E+00 1.10125E+01 0.00000E+00
 -1      1331 2.59800E+00 1.17500E+01 0.00000E+00
 -1      1332 1.29900E+00 6.58750E+00 0.00000E+00
 -1      1333 1.29900E+00 8.06250E+00 0.00000E+00
 -1      1334 2.59800E+00 8.80000E+00 0.00000E+00
 -1      1335 1.29900E+00 3.63750E+00 0.00000E+00
 -1      1336 1.29900E+00 5.11250E+00 0.00000E+00
 -1      1337 2.59800E+00 5.85000E+00 0.00000E+00
 -1      1338 1.43700E+00 1.09375E+00 0.00000E+00
 -1      1339 1.43700E+00 2.54375E+00 0.00000E+00
 -1      1340 2.73600E+00 3.28125E+00 0.00000E+00
 -1      1341 3.01200E+00 1.09375E+00 0.00000E+00
 -1      1342 3.90000E+00 4.87010E+01 0.00000E+00
 -1      1343 5.40000E+00 4.87010E+01 0.00000E+00
 -1      1344 6.90000E+00 4.87010E+01 0.00000E+00
 -1      1345 8.40000E+00 4.87010E+01 0.00000E+00
 -1      1346 6.15000E+00 4.74020E+01 0.00000E+00
 -1      1347 9.90000E+00 4.87010E+01 0.00000E+00
 -1      1348 1.14000E+01 4.87010E+01 0.00000E+00
 -1      1349 9.15000E+00 4.74020E+01 0.00000E+00
 -1      1350 1.29000E+01 4.87010E+01 0.00000E+00
 -1      1351 1.44000E+01 4.87010E+01 0.00000E+00
 -1      1352 1.21500E+01 4.74020E+01 0.00000E+00
 -1      1353 1.59000E+01 4.87010E+01 0.00000E+00
 -1      1354 1.74000E+01 4.87010E+01 0.00000E+00
 -1      1355 1.51500E+01 4.74020E+01 0.00000E+00
 -1      1356 1.89000E+01 4.87010E+01 0.00000E+00
 -1      1357 2.04000E+01 4.87010E+01 0.00000E+00
 -1      1358 1.81500E+01 4.74020E+01 0.00000E+00
 -1      1359 2.19000E+01 4.87010E+01 0.00000E+00
 -1      1360 2.34000E+01 4.87010E+01 0.00000E+00
 -1      1361 2.11500E+01 4.74020E+01 0.00000E+00
 -1      1362 2.49000E+01 4.87010E+01 0.00000E+00
 -1      1363 2.64000E+01 4.87010E+01 0.00000E+00
 -1      1364 2.41500E+01 4.74020E+01 0.00000E+00
 -1      1365 2.79000E+01 4.87010E+01 0.00000E+00
 -1      1366 2.94000E+01 4.87010E+01 0.00000E+00
 -1      1367 2.71500E+01 4.74020E+01 0.00000E+00
 -1      1368 3.09000E+01 4.87010E+01 0.00000E+00
 -1      1369 3.24000E+01 4.87010E+01 0.00000E+00
 -1      1370 3.01500E+01 4.74020E+01 0.00000E+00
 -1      1371 3.39000E+01 4.87010E+01 0.00000E+00
 -1      1372 3.54000E+01 4.87010E+01 0.00000E+00
 -1      1373 3.31500E+01 4.74020E+01 0.00000E+00
 -1      1374 3.69000E+01 4.87010E+01 0.00000E+00
 -1      1375 3.84000E+01 4.87010E+01 0.00000E+00
 -1      1376 3.61500E+01 4.74020E+01 0.00000E+00
 -1      1377 3.99000E+01 4.87010E+01 0.00000E+00
 -1      1378 4.14000E+01 4.87010E+01 0.00000E+00
 -1      1379 3.91500E+01 4.74020E+01 0.00000E+00
 -1      1380 4.29000E+01 4.87010E+01 0.00000E+00
 -1      1381 4.44000E+01 4.87010E+01 0.00000E+00
 -1      1382 4.21500E+01 4.74020E+01 0.00000E+00
 -1      1383 4.59000E+01 4.87010E+01 0.00000E+00
 -1      1384 4.74000E+01 4.87010E+01 0.00000E+00
 -1      1385 4.51500E+01 4.74020E+01 0.00000E+00
 -1      1386 4.89000E+01 4.87010E+01 0.00000E+00
 -1      1387 5.04000E+01 4.87010E+01 0.00000E+00
 -1      1388 4.81500E+01 4.74020E+01 0.00000E+00
 -1      1389 5.19000E+01 4.87010E+01 0.00000E+00
 -1      1390 5.34000E+01 4.87010E+01 0.00000E+00
 -1      1391 5.11500E+01 4.74020E+01 0.00000E+00
 -1      1392 5.49000E+01 4.87010E+01 0.00000E+00
 -1      1393 5.64000E+01 4.87010E+01 0.00000E+00
 -1      1394 5.41500E+01 4.74020E+01 0.00000E+00
 -1      1395 5.79000E+01 4.87010E+01 0.00000E+00
 -1      1396 5.94000E+01 4.87010E+01 0.00000E+00
 -1      1397 5.71500E+01 4.74020E+01 0.00000E+00
 -1      1398 6.09000E+01 4.87010E+01 0.00000E+00
 -1      1399 6.24000E+01 4.87010E+01 0.00000E+00
 -1      1400 6.01500E+01 4.74020E+01 0.00000E+00
 -1      1401 6.39000E+01 4.87010E+01 0.00000E+00
 -1      1402 6.54000E+01 4.87010E+01 0.00000E+00
 -1      1403 6.31500E+01 4.74020E+01 0.00000E+00
 -1      1404 6.69000E+01 4.87010E+01 0.00000E+00
 -1      1405 6.84000E+01 4.87010E+01 0.00000E+00
 -1      1406 6.61500E+01 4.74020E+01 0.00000E+00
 -1      1407 6.99000E+01 4.87010E+01 0.00000E+00
 -1      1408 7.14000E+01 4.87010E+01 0.00000E+00
 -1      1409 6.91500E+01 4.74020E+01 0.00000E+00
 -1      1410 7.29000E+01 4.87010E+01 0.00000E+00
 -1      1411 7.44000E+01 4.87010E+01 0.00000E+00
 -1      1412 7.21500E+01 4.74020E+01 0.00000E+00
 -1      1413 7.59000E+01 4.87010E+01 0.00000E+00
 -1      1414 7.74000E+01 4.87010E+01 0.00000E+00
 -1      1415 7.51500E+01 4.74020E+01 0.00000E+00
 -1      1416 7.89000E+01 4.87010E+01 0.00000E+00
 -1      1417 8.04000E+01 4.87010E+01 0.00000E+00
 -1      1418 7.81500E+01 4.74020E+01 0.00000E+00
 -1      1419 8.19000E+01 4.87010E+01 0.00000E+00
 -1      1420 8.34000E+01 4.87010E+01 0.00000E+00
 -1      1421 8.11500E+01 4.74020E+01 0.00000E+00
 -1      1422 8.49000E+01 4.87010E+01 0.00000E+00
 -1      1423 8.64000E+01 4.87010E+01 0.00000E+00
 -1      1424 8.41500E+01 4.74020E+01 0.00000E+00
 -1      1425 8.79000E+01 4.87010E+01 0.00000E+00
 -1      1426 8.94000E+01 4.87010E+01 0.00000E+00
 -1      1427 8.71500E+01 4.74020E+01 0.00000E+00
 -1      1428 9.09000E+01 4.87010E+01 0.00000E+00
 -1      1429 9.24000E+01 4.87010E+01 0.00000E+00
 -1      1430 9.01500E+01 4.74020E+01 0.00000E+00
 -1      1431 9.39000E+01 4.87010E+01 0.00000E+00
 -1      1432 9.54000E+01 4.87010E+01 0.00000E+00
 -1      1433 9.31500E+01 4.74020E+01 0.00000E+00
 -1      1434 9.69000E+01 4.87010E+01 0.00000E+00
 -1      1435 9.84000E+01 4.87010E+01 0.00000E+00
 -1      1436 9.61500E+01 4.74020E+01 0.00000E+00
 -1      1437 9.99000E+01 4.87010E+01 0.00000E+00
 -1      1438 1.01400E+02 4.87010E+01 0.00000E+00
 -1      1439 9.91500E+01 4.74020E+01 0.00000E+00
 -1      1440 1.02900E+02 4.87010E+01 0.00000E+00
 -1      1441 1.04400E+02 4.87010E+01 0.00000E+00
 -1      1442 1.02150E+02 4.74020E+01 0.00000E+00
 -1      1443 1.05900E+02 4.87010E+01 0.00000E+00
 -1      1444 1.07400E+02 4.87010E+01 0.00000E+00
 -1      1445 1.05150E+02 4.74020E+01 0.00000E+00
 -1      1446 1.08900E+02 4.87010E+01 0.00000E+00
 -1      1447 1.10400E+02 4.87010E+01 0.00000E+00
 -1      1448 1.08150E+02 4.74020E+01 0.00000E+00
 -1      1449 1.11900E+02 4.87010E+01 0.00000E+00
 -1      1450 1.13400E+02 4.87010E+01 0.00000E+00
 -1      1451 1.11150E+02 4.74020E+01 0.00000E+00
 -1      1452 1.14900E+02 4.87010E+01 0.00000E+00
 -1      1453 1.16400E+02 4.87010E+01 0.00000E+00
 -1      1454 1.14150E+02 4.74020E+01 0.00000E+00
 -1      1455 1.17900E+02 4.87010E+01 0.00000E+00
 -1      1456 1.19400E+02 4.87010E+01 0.00000E+00
 -1      1457 1.17150E+02 4.74020E+01 0.00000E+00
 -1      1458 1.20900E+02 4.87010E+01 0.00000E+00
 -1      1459 1.22400E+02 4.87010E+01 0.00000E+00
 -1      1460 1.20150E+02 4.74020E+01 0.00000E+00
 -1      1461 1.23900E+02 4.87010E+01 0.00000E+00
 -1      1462 1.25400E+02 4.87010E+01 0.00000E+00
 -1      1463 1.23150E+02 4.74020E+01 0.00000E+00
 -1      1464 1.26900E+02 4.87010E+01 0.00000E+00
 -1      1465 1.28400E+02 4.87010E+01 0.00000E+00
 -1      1466 1.26150E+02 4.74020E+01 0.00000E+00
 -1      1467 1.29900E+02 4.87010E+01 0.00000E+00
 -1      1468 1.31400E+02 4.87010E+01 0.00000E+00
 -1      1469 1.29150E+02 4.74020E+01 0.00000E+00
 -1      1470 1.32900E+02 4.87010E+01 0.00000E+00
 -1      1471 1.34400E+02 4.87010E+01 0.00000E+00
 -1      1472 1.32150E+02 4.74020E+01 0.00000E+00
 -1      1473 1.35900E+02 4.87010E+01 0.00000E+00
 -1      1474 1.37400E+02 4.87010E+01 0.00000E+00
 -1      1475 1.35150E+02 4.74020E+01 0.00000E+00
 -1      1476 1.38900E+02 4.87010E+01 0.00000E+00
 -1      1477 1.40400E+02 4.87010E+01 0.00000E+00
 -1      1478 1.38150E+02 4.74020E+01 0.00000E+00
 -1      1479 1.41900E+02 4.87010E+01 0.00000E+00
 -1      1480 1.43400E+02 4.87010E+01 0.00000E+00
 -1      1481 1.41150E+02 4.74020E+01 0.00000E+00
 -1      1482 1.44900E+02 4.87010E+01 0.00000E+00
 -1      1483 1.46400E+02 4.87010E+01 0.00000E+00
 -1      1484 1.44150E+02 4.74020E+01 0.00000E+00
 -1      1485 1.48575E+02 4.85500E+01 0.00000E+00
 -1      1486 1.47825E+02 4.72510E+01 0.00000E+00
 -1      1487 6.01200E+00 1.09375E+00 0.00000E+00
 -1      1488 4.51200E+00 1.09375E+00 0.00000E+00
 -1      1489 4.37400E+00 2.18750E+00 0.00000E+00
 -1      1490 9.01200E+00 1.09375E+00 0.00000E+00
 -1      1491 7.51200E+00 1.09375E+00 0.00000E+00
 -1      1492 7.37400E+00 2.18750E+00 0.00000E+00
 -1      1493 1.20120E+01 1.09375E+00 0.00000E+00
 -1      1494 1.05120E+01 1.09375E+00 0.00000E+00
 -1      1495 1.03740E+01 2.18750E+00 0.00000E+00
 -1      1496 1.50120E+01 1.09375E+00 0.00000E+00
 -1      1497 1.35120E+01 1.09375E+00 0.00000E+00
 -1      1498 1.33740E+01 2.18750E+00 0.00000E+00
 -1      1499 1.80120E+01 1.09375E+00 0.00000E+00
 -1      1500 1.65120E+01 1.09375E+00 0.00000E+00
 -1      1501 1.63740E+01 2.18750E+00 0.00000E+00
 -1      1502 2.10120E+01 1.09375E+00 0.00000E+00
 -1      1503 1.95120E+01 1.09375E+00 0.00000E+00
 -1      1504 1.93740E+01 2.18750E+00 0.00000E+00
 -1      1505 2.40120E+01 1.09375E+00 0.00000E+00
 -1      1506 2.25120E+01 1.09375E+00 0.00000E+00
 -1      1507 2.23740E+01 2.18750E+00 0.00000E+00
 -1      1508 2.70120E+01 1.09375E+00 0.00000E+00
 -1      1509 2.55120E+01 1.09375E+00 0.00000E+00
 -1      1510 2.53740E+01 2.18750E+00 0.00000E+00
 -1      1511 3.00120E+01 1.09375E+00 0.00000E+00
 -1      1512 2.85120E+01 1.09375E+00 0.00000E+00
 -1      1513 2.83740E+01 2.18750E+00 0.00000E+00
 -1      1514 3.30120E+01 1.09375E+00 0.00000E+00
 -1      1515 3.15120E+01 1.09375E+00 0.00000E+00
 -1      1516 3.13740E+01 2.18750E+00 0.00000E+00
 -1      1517 3.60120E+01 1.09375E+00 0.00000E+00
 -1      1518 3.45120E+01 1.09375E+00 0.00000E+00
 -1      1519 3.43740E+01 2.18750E+00 0.00000E+00
 -1      1520 3.90120E+01 1.09375E+00 0.00000E+00
 -1      1521 3.75120E+01 1.09375E+00 0.00000E+00
 -1      1522 3.73740E+01 2.18750E+00 0.00000E+00
 -1      1523 4.20120E+01 1.09375E+00 0.00000E+00
 -1      1524 4.05120E+01 1.09375E+00 0.00000E+00
 -1      1525 4.03740E+01 2.18750E+00 0.00000E+00
 -1      1526 4.50120E+01 1.09375E+00 0.00000E+00
 -1      1527 4.35120E+01 1.09375E+00 0.00000E+00
 -1      1528 4.33740E+01 2.18750E+00 0.00000E+00
 -1      1529 4.80120E+01 1.09375E+00 0.00000E+00
 -1      1530 4.65120E+01 1.09375E+00 0.00000E+00
 -1      1531 4.63740E+01 2.18750E+00 0.00000E+00
 -1      1532 5.10120E+01 1.09375E+00 0.00000E+00
 -1      1533 4.95120E+01 1.09375E+00 0.00000E+00
 -1      1534 4.93740E+01 2.18750E+00 0.00000E+00
 -1      1535 5.40120E+01 1.09375E+00 0.00000E+00
 -1      1536 5.25120E+01 1.09375E+00 0.00000E+00
 -1      1537 5.23740E+01 2.18750E+00 0.00000E+00
 -1      1538 5.70120E+01 1.09375E+00 0.00000E+00
 -1      1539 5.55120E+01 1.09375E+00 0.00000E+00
 -1      1540 5.53740E+01 2.18750E+00 0.00000E+00
 -1      1541 6.00120E+01 1.09375E+00 0.00000E+00
 -1      1542 5.85120E+01 1.09375E+00 0.00000E+00
 -1      1543 5.83740E+01 2.18750E+00 0.00000E+00
 -1      1544 6.30120E+01 1.09375E+00 0.00000E+00
 -1      1545 6.15120E+01 1.09375E+00 0.00000E+00
 -1      1546 6.13740E+01 2.18750E+00 0.00000E+00
 -1      1547 6.60120E+01 1.09375E+00 0.00000E+00
 -1      1548 6.45120E+01 1.09375E+00 0.00000E+00
 -1      1549 6.43740E+01 2.18750E+00 0.00000E+00
 -1      1550 6.90120E+01 1.09375E+00 0.00000E+00
 -1      1551 6.75120E+01 1.09375E+00 0.00000E+00
 -1      1552 6.73740E+01 2.18750E+00 0.00000E+00
 -1      1553 7.20120E+01 1.09375E+00 0.00000E+00
 -1      1554 7.05120E+01 1.09375E+00 0.00000E+00
 -1      1555 7.03740E+01 2.18750E+00 0.00000E+00
 -1      1556 7.50120E+01 1.09375E+00 0.00000E+00
 -1      1557 7.35120E+01 1.09375E+00 0.00000E+00
 -1      1558 7.33740E+01 2.18750E+00 0.00000E+00
 -1      1559 7.80120E+01 1.09375E+00 0.00000E+00
 -1      1560 7.65120E+01 1.09375E+00 0.00000E+00
 -1      1561 7.63740E+01 2.18750E+00 0.00000E+00
 -1      1562 8.10120E+01 1.09375E+00 0.00000E+00
 -1      1563 7.95120E+01 1.09375E+00 0.00000E+00
 -1      1564 7.93740E+01 2.18750E+00 0.00000E+00
 -1      1565 8.40120E+01 1.09375E+00 0.00000E+00
 -1      1566 8.25120E+01 1.09375E+00 0.00000E+00
 -1      1567 8.23740E+01 2.18750E+00 0.00000E+00
 -1      1568 8.70120E+01 1.09375E+00 0.00000E+00
 -1      1569 8.55120E+01 1.09375E+00 0.00000E+00
 -1      1570 8.53740E+01 2.18750E+00 0.00000E+00
 -1      1571 9.00120E+01 1.09375E+00 0.00000E+00
 -1      1572 8.85120E+01 1.09375E+00 0.00000E+00
 -1      1573 8.83740E+01 2.18750E+00 0.00000E+00
 -1      1574 9.30120E+01 1.09375E+00 0.00000E+00
 -1      1575 9.15120E+01 1.09375E+00 0.00000E+00
 -1      1576 9.13740E+01 2.18750E+00 0.00000E+00
 -1      1577 9.60120E+01 1.09375E+00 0.00000E+00
 -1      1578 9.45120E+01 1.09375E+00 0.00000E+00
 -1      1579 9.43740E+01 2.18750E+00 0.00000E+00
 -1      1580 9.90120E+01 1.09375E+00 0.00000E+00
 -1      1581 9.75120E+01 1.09375E+00 0.00000E+00
 -1      1582 9.73740E+01 2.18750E+00 0.00000E+00
 -1      1583 1.02012E+02 1.09375E+00 0.00000E+00
 -1      1584 1.00512E+02 1.09375E+00 0.00000E+00
 -1      1585 1.00374E+02 2.18750E+00 0.00000E+00
 -1      1586 1.05012E+02 1.09375E+00 0.00000E+00
 -1      1587 1.03512E+02 1.09375E+00 0.00000E+00
 -1      1588 1.03374E+02 2.18750E+00 0.00000E+00
 -1      1589 1.08012E+02 1.09375E+00 0.00000E+00
 -1      1590 1.06512E+02 1.09375E+00 0.00000E+00
 -1      1591 1.06374E+02 2.18750E+00 0.00000E+00
 -1      1592 1.11012E+02 1.09375E+00 0.00000E+00
 -1      1593 1.09512E+02 1.09375E+00 0.00000E+00
 -1      1594 1.09374E+02 2.18750E+00 0.00000E+00
 -1      1595 1.14012E+02 1.09375E+00 0.00000E+00
 -1      1596 1.12512E+02 1.09375E+00 0.00000E+00
 -1      1597 1.12374E+02 2.18750E+00 0.00000E+00
 -1      1598 1.17012E+02 1.09375E+00 0.00000E+00
 -1      1599 1.15512E+02 1.09375E+00 0.00000E+00
 -1      1600 1.15374E+02 2.18750E+00 0.00000E+00
 -1      1601 1.20012E+02 1.09375E+00 0.00000E+00
 -1      1602 1.18512E+02 1.09375E+00 0.00000E+00
 -1      1603 1.18374E+02 2.18750E+00 0.00000E+00
 -1      1604 1.23012E+02 1.09375E+00 0.00000E+00
 -1      1605 1.21512E+02 1.09375E+00 0.00000E+00
 -1      1606 1.21374E+02 2.18750E+00 0.00000E+00
 -1      1607 1.26012E+02 1.09375E+00 0.00000E+00
 -1      1608 1.24512E+02 1.09375E+00 0.00000E+00
 -1      1609 1.24374E+02 2.18750E+00 0.00000E+00
 -1      1610 1.29012E+02 1.09375E+00 0.00000E+00
 -1      1611 1.27512E+02 1.09375E+00 0.00000E+00
 -1      1612 1.27374E+02 2.18750E+00 0.00000E+00
 -1      1613 1.32012E+02 1.09375E+00 0.00000E+00
 -1      1614 1.30512E+02 1.09375E+00 0.00000E+00
 -1      1615 1.30374E+02 2.18750E+00 0.00000E+00
 -1      1616 1.35012E+02 1.09375E+00 0.00000E+00
 -1      1617 1.33512E+02 1.09375E+00 0.00000E+00
 -1      1618 1.33374E+02 2.18750E+00 0.00000E+00
 -1      1619 1.38012E+02 1.09375E+00 0.00000E+00
 -1      1620 1.36512E+02 1.09375E+00 0.00000E+00
 -1      1621 1.36374E+02 2.18750E+00 0.00000E+00
 -1      1622 1.41012E+02 1.09375E+00 0.00000E+00
 -1      1623 1.39512E+02 1.09375E+00 0.00000E+00
 -1      1624 1.39374E+02 2.18750E+00 0.00000E+00
 -1      1625 1.44012E+02 1.09375E+00 0.00000E+00
 -1      1626 1.42512E+02 1.09375E+00 0.00000E+00
 -1      1627 1.42374E+02 2.18750E+00 0.00000E+00
 -1      1628 1.47012E+02 1.09375E+00 0.00000E+00
 -1      1629 1.45512E+02 1.09375E+00 0.00000E+00
 -1      1630 1.45374E+02 2.18750E+00 0.00000E+00
 -1      1631 1.48575E+02 1.47500E+00 0.00000E+00
 -1      1632 1.48701E+02 5.16250E+00 0.00000E+00
 -1      1633 1.48701E+02 3.68750E+00 0.00000E+00
 -1      1634 1.48701E+02 8.11250E+00 0.00000E+00
 -1      1635 1.48701E+02 6.63750E+00 0.00000E+00
 -1      1636 1.47402E+02 5.90000E+00 0.00000E+00
 -1      1637 1.48701E+02 1.10625E+01 0.00000E+00
 -1      1638 1.48701E+02 9.58750E+00 0.00000E+00
 -1      1639 1.47402E+02 8.85000E+00 0.00000E+00
 -1      1640 1.48701E+02 1.40125E+01 0.00000E+00
 -1      1641 1.48701E+02 1.25375E+01 0.00000E+00
 -1      1642 1.47402E+02 1.18000E+01 0.00000E+00
 -1      1643 1.48701E+02 1.69125E+01 0.00000E+00
 -1      1644 1.48701E+02 1.54625E+01 0.00000E+00
 -1      1645 1.47402E+02 1.47250E+01 0.00000E+00
 -1      1646 1.48701E+02 1.98625E+01 0.00000E+00
 -1      1647 1.48701E+02 1.83875E+01 0.00000E+00
 -1      1648 1.47402E+02 1.76500E+01 0.00000E+00
 -1      1649 1.48701E+02 2.28125E+01 0.00000E+00
 -1      1650 1.48701E+02 2.13375E+01 0.00000E+00
 -1      1651 1.47402E+02 2.06000E+01 0.00000E+00
 -1      1652 1.48701E+02 2.57625E+01 0.00000E+00
 -1      1653 1.48701E+02 2.42875E+01 0.00000E+00
 -1      1654 1.47402E+02 2.35500E+01 0.00000E+00
 -1      1655 1.48701E+02 2.87125E+01 0.00000E+00
 -1      1656 1.48701E+02 2.72375E+01 0.00000E+00
 -1      1657 1.47402E+02 2.65000E+01 0.00000E+00
 -1      1658 1.48701E+02 3.16625E+01 0.00000E+00
 -1      1659 1.48701E+02 3.01875E+01 0.00000E+00
 -1      1660 1.47402E+02 2.94500E+01 0.00000E+00
 -1      1661 1.48701E+02 3.45625E+01 0.00000E+00
 -1      1662 1.48701E+02 3.31125E+01 0.00000E+00
 -1      1663 1.47402E+02 3.23750E+01 0.00000E+00
 -1      1664 1.48701E+02 3.75125E+01 0.00000E+00
 -1      1665 1.48701E+02 3.60375E+01 0.00000E+00
 -1      1666 1.47402E+02 3.53000E+01 0.00000E+00
 -1      1667 1.48701E+02 4.04625E+01 0.00000E+00
 -1      1668 1.48701E+02 3.89875E+01 0.00000E+00
 -1      1669 1.47402E+02 3.82500E+01 0.00000E+00
 -1      1670 1.48701E+02 4.34125E+01 0.00000E+00
 -1      1671 1.48701E+02 4.19375E+01 0.00000E+00
 -1      1672 1.47402E+02 4.12000E+01 0.00000E+00
 -1      1673 1.48263E+02 4.60692E+01 0.00000E+00
 -1      1674 1.48263E+02 4.45942E+01 0.00000E+00
 -1      1675 1.46964E+02 4.38568E+01 0.00000E+00
 -1      1676 1.46088E+02 4.62202E+01 0.00000E+00
 -1      1677 1.21777E+02 1.96821E+01 0.00000E+00
 -1      1678 1.21855E+02 2.04141E+01 0.00000E+00
 -1      1679 1.21325E+02 1.81414E+01 0.00000E+00
 -1      1680 1.21555E+02 1.88442E+01 0.00000E+00
 -1      1681 1.20567E+02 1.66730E+01 0.00000E+00
 -1      1682 1.20960E+02 1.73382E+01 0.00000E+00
 -1      1683 1.19549E+02 1.53230E+01 0.00000E+00
 -1      1684 1.20084E+02 1.58913E+01 0.00000E+00
 -1      1685 1.18236E+02 1.43567E+01 0.00000E+00
 -1      1686 1.18842E+02 1.47699E+01 0.00000E+00
 -1      1687 1.16801E+02 1.37134E+01 0.00000E+00
 -1      1688 1.17467E+02 1.39877E+01 0.00000E+00
 -1      1689 1.15312E+02 1.33443E+01 0.00000E+00
 -1      1690 1.16004E+02 1.34755E+01 0.00000E+00
 -1      1691 1.13656E+02 1.32154E+01 0.00000E+00
 -1      1692 1.14442E+02 1.31949E+01 0.00000E+00
 -1      1693 1.11966E+02 1.34964E+01 0.00000E+00
 -1      1694 1.12722E+02 1.33030E+01 0.00000E+00
 -1      1695 1.10554E+02 1.42310E+01 0.00000E+00
 -1      1696 1.11184E+02 1.39168E+01 0.00000E+00
 -1      1697 1.09098E+02 1.51319E+01 0.00000E+00
 -1      1698 1.09732E+02 1.46183E+01 0.00000E+00
 -1      1699 1.08051E+02 1.64179E+01 0.00000E+00
 -1      1700 1.08505E+02 1.58431E+01 0.00000E+00
 -1      1701 1.07302E+02 1.78245E+01 0.00000E+00
 -1      1702 1.07627E+02 1.71672E+01 0.00000E+00
 -1      1703 1.06732E+02 1.93959E+01 0.00000E+00
 -1      1704 1.06919E+02 1.86362E+01 0.00000E+00
 -1      1705 1.06670E+02 2.09679E+01 0.00000E+00
 -1      1706 1.06691E+02 2.02712E+01 0.00000E+00
 -1      1707 1.06857E+02 2.25133E+01 0.00000E+00
 -1      1708 1.06731E+02 2.17972E+01 0.00000E+00
 -1      1709 1.07347E+02 2.40685E+01 0.00000E+00
 -1      1710 1.07060E+02 2.33635E+01 0.00000E+00
 -1      1711 1.08182E+02 2.53911E+01 0.00000E+00
 -1      1712 1.07787E+02 2.48084E+01 0.00000E+00
 -1      1713 1.09253E+02 2.65442E+01 0.00000E+00
 -1      1714 1.08725E+02 2.60332E+01 0.00000E+00
 -1      1715 1.10516E+02 2.74435E+01 0.00000E+00
 -1      1716 1.09916E+02 2.70657E+01 0.00000E+00
 -1      1717 1.11954E+02 2.81553E+01 0.00000E+00
 -1      1718 1.11251E+02 2.78963E+01 0.00000E+00
 -1      1719 1.13456E+02 2.83877E+01 0.00000E+00
 -1      1720 1.12788E+02 2.82872E+01 0.00000E+00
 -1      1721 1.14989E+02 2.84318E+01 0.00000E+00
 -1      1722 1.14272E+02 2.84678E+01 0.00000E+00
 -1      1723 1.16567E+02 2.81485E+01 0.00000E+00
 -1      1724 1.15851E+02 2.83385E+01 0.00000E+00
 -1      1725 1.17977E+02 2.74951E+01 0.00000E+00
 -1      1726 1.17352E+02 2.78089E+01 0.00000E+00
 -1      1727 1.19216E+02 2.65711E+01 0.00000E+00
 -1      1728 1.18655E+02 2.70137E+01 0.00000E+00
 -1      1729 1.20267E+02 2.54553E+01 0.00000E+00
 -1      1730 1.19812E+02 2.59946E+01 0.00000E+00
 -1      1731 1.21078E+02 2.41307E+01 0.00000E+00
 -1      1732 1.20735E+02 2.47659E+01 0.00000E+00
 -1      1733 1.21596E+02 2.27116E+01 0.00000E+00
 -1      1734 1.21397E+02 2.33707E+01 0.00000E+00
 -1      1735 1.21819E+02 2.12469E+01 0.00000E+00
 -1      1736 1.21752E+02 2.19260E+01 0.00000E+00
 -1      1737 1.19612E+02 1.45811E+01 0.00000E+00
 -1      1738 1.20802E+02 1.59159E+01 0.00000E+00
 -1      1739 1.48437E+02 2.56875E+00 0.00000E+00
 -1      1740 1.47138E+02 3.30625E+00 0.00000E+00
 -1      1741 1.22238E+02 1.91420E+01 0.00000E+00
 -1      1742 1.21651E+02 1.75008E+01 0.00000E+00
 -1      1743 1.22425E+02 2.08127E+01 0.00000E+00
 -1      1744 1.18135E+02 1.36591E+01 0.00000E+00
 -1      1745 1.16568E+02 1.30522E+01 0.00000E+00
 -1      1746 1.14901E+02 1.26648E+01 0.00000E+00
 -1      1747 1.13097E+02 1.26030E+01 0.00000E+00
 -1      1748 1.11381E+02 1.31110E+01 0.00000E+00
 -1      1749 1.09776E+02 1.39188E+01 0.00000E+00
 -1      1750 1.08362E+02 1.50174E+01 0.00000E+00
 -1      1751 1.07345E+02 1.64780E+01 0.00000E+00
 -1      1752 1.06538E+02 1.80390E+01 0.00000E+00
 -1      1753 1.06115E+02 1.97260E+01 0.00000E+00
 -1      1754 1.06136E+02 2.14306E+01 0.00000E+00
 -1      1755 1.06400E+02 2.31102E+01 0.00000E+00
 -1      1756 1.07043E+02 2.47003E+01 0.00000E+00
 -1      1757 1.08025E+02 2.60824E+01 0.00000E+00
 -1      1758 1.09230E+02 2.72461E+01 0.00000E+00
 -1      1759 1.10628E+02 2.82204E+01 0.00000E+00
 -1      1760 1.12198E+02 2.88051E+01 0.00000E+00
 -1      1761 1.13848E+02 2.90170E+01 0.00000E+00
 -1      1762 1.15525E+02 2.90038E+01 0.00000E+00
 -1      1763 1.17171E+02 2.85708E+01 0.00000E+00
 -1      1764 1.18633E+02 2.77498E+01 0.00000E+00
 -1      1765 1.19907E+02 2.66919E+01 0.00000E+00
 -1      1766 1.20972E+02 2.54260E+01 0.00000E+00
 -1      1767 1.21758E+02 2.39767E+01 0.00000E+00
 -1      1768 1.22233E+02 2.24311E+01 0.00000E+00
 -1      1769 2.87400E+00 4.77875E+01 0.00000E+00
 -1      1770 3.89700E+00 4.04125E+01 0.00000E+00
 -1      1771 3.89700E+00 4.18875E+01 0.00000E+00
 -1      1772 3.89700E+00 4.33625E+01 0.00000E+00
 -1      1773 3.89700E+00 4.48375E+01 0.00000E+00
 -1      1774 5.19600E+00 4.26250E+01 0.00000E+00
 -1      1775 3.89700E+00 3.45500E+01 0.00000E+00
 -1      1776 3.89700E+00 3.60000E+01 0.00000E+00
 -1      1777 3.89700E+00 3.16000E+01 0.00000E+00
 -1      1778 3.89700E+00 3.30750E+01 0.00000E+00
 -1      1779 5.19600E+00 3.38000E+01 0.00000E+00
 -1      1780 3.89700E+00 2.86500E+01 0.00000E+00
 -1      1781 3.89700E+00 3.01250E+01 0.00000E+00
 -1      1782 5.19600E+00 3.08500E+01 0.00000E+00
 -1      1783 3.89700E+00 2.57000E+01 0.00000E+00
 -1      1784 3.89700E+00 2.71750E+01 0.00000E+00
 -1      1785 5.19600E+00 2.79000E+01 0.00000E+00
 -1      1786 3.89700E+00 2.27500E+01 0.00000E+00
 -1      1787 3.89700E+00 2.42250E+01 0.00000E+00
 -1      1788 5.19600E+00 2.49500E+01 0.00000E+00
 -1      1789 3.89700E+00 1.98000E+01 0.00000E+00
 -1      1790 3.89700E+00 2.12750E+01 0.00000E+00
 -1      1791 5.19600E+00 2.20000E+01 0.00000E+00
 -1      1792 3.89700E+00 1.69000E+01 0.00000E+00
 -1      1793 3.89700E+00 1.83500E+01 0.00000E+00
 -1      1794 5.19600E+00 1.90750E+01 0.00000E+00
 -1      1795 3.89700E+00 1.39500E+01 0.00000E+00
 -1      1796 3.89700E+00 1.54250E+01 0.00000E+00
 -1      1797 5.19600E+00 1.61500E+01 0.00000E+00
 -1      1798 3.89700E+00 1.10000E+01 0.00000E+00
 -1      1799 3.89700E+00 1.24750E+01 0.00000E+00
 -1      1800 5.19600E+00 1.32000E+01 0.00000E+00
 -1      1801 3.89700E+00 8.05000E+00 0.00000E+00
 -1      1802 3.89700E+00 9.52500E+00 0.00000E+00
 -1      1803 5.19600E+00 1.02500E+01 0.00000E+00
 -1      1804 3.89700E+00 5.10000E+00 0.00000E+00
 -1      1805 3.89700E+00 6.57500E+00 0.00000E+00
 -1      1806 5.19600E+00 7.30000E+00 0.00000E+00
 -1      1807 4.20450E+00 3.09687E+00 0.00000E+00
 -1      1808 4.06650E+00 4.19063E+00 0.00000E+00
 -1      1809 5.36550E+00 4.91563E+00 0.00000E+00
 -1      1810 5.70450E+00 3.09687E+00 0.00000E+00
 -1      1811 3.62400E+00 4.64885E+01 0.00000E+00
 -1      1812 8.70450E+00 3.09687E+00 0.00000E+00
 -1      1813 7.20450E+00 3.09687E+00 0.00000E+00
 -1      1814 7.03500E+00 4.00625E+00 0.00000E+00
 -1      1815 4.92300E+00 4.57510E+01 0.00000E+00
 -1      1816 8.40000E+00 4.61030E+01 0.00000E+00
 -1      1817 9.90000E+00 4.61030E+01 0.00000E+00
 -1      1818 1.14000E+01 4.61030E+01 0.00000E+00
 -1      1819 1.29000E+01 4.61030E+01 0.00000E+00
 -1      1820 1.06500E+01 4.48040E+01 0.00000E+00
 -1      1821 1.44000E+01 4.61030E+01 0.00000E+00
 -1      1822 1.59000E+01 4.61030E+01 0.00000E+00
 -1      1823 1.36500E+01 4.48040E+01 0.00000E+00
 -1      1824 1.74000E+01 4.61030E+01 0.00000E+00
 -1      1825 1.89000E+01 4.61030E+01 0.00000E+00
 -1      1826 1.66500E+01 4.48040E+01 0.00000E+00
 -1      1827 2.04000E+01 4.61030E+01 0.00000E+00
 -1      1828 2.19000E+01 4.61030E+01 0.00000E+00
 -1      1829 1.96500E+01 4.48040E+01 0.00000E+00
 -1      1830 2.34000E+01 4.61030E+01 0.00000E+00
 -1      1831 2.49000E+01 4.61030E+01 0.00000E+00
 -1      1832 2.26500E+01 4.48040E+01 0.00000E+00
 -1      1833 2.64000E+01 4.61030E+01 0.00000E+00
 -1      1834 2.79000E+01 4.61030E+01 0.00000E+00
 -1      1835 2.56500E+01 4.48040E+01 0.00000E+00
 -1      1836 2.94000E+01 4.61030E+01 0.00000E+00
 -1      1837 3.09000E+01 4.61030E+01 0.00000E+00
 -1      1838 2.86500E+01 4.48040E+01 0.00000E+00
 -1      1839 3.24000E+01 4.61030E+01 0.00000E+00
 -1      1840 3.39000E+01 4.61030E+01 0.00000E+00
 -1      1841 3.16500E+01 4.48040E+01 0.00000E+00
 -1      1842 3.54000E+01 4.61030E+01 0.00000E+00
 -1      1843 3.69000E+01 4.61030E+01 0.00000E+00
 -1      1844 3.46500E+01 4.48040E+01 0.00000E+00
 -1      1845 3.84000E+01 4.61030E+01 0.00000E+00
 -1      1846 3.99000E+01 4.61030E+01 0.00000E+00
 -1      1847 3.76500E+01 4.48040E+01 0.00000E+00
 -1      1848 4.14000E+01 4.61030E+01 0.00000E+00
 -1      1849 4.29000E+01 4.61030E+01 0.00000E+00
 -1      1850 4.06500E+01 4.48040E+01 0.00000E+00
 -1      1851 4.44000E+01 4.61030E+01 0.00000E+00
 -1      1852 4.59000E+01 4.61030E+01 0.00000E+00
 -1      1853 4.36500E+01 4.48040E+01 0.00000E+00
 -1      1854 4.74000E+01 4.61030E+01 0.00000E+00
 -1      1855 4.89000E+01 4.61030E+01 0.00000E+00
 -1      1856 4.66500E+01 4.48040E+01 0.00000E+00
 -1      1857 5.04000E+01 4.61030E+01 0.00000E+00
 -1      1858 5.19000E+01 4.61030E+01 0.00000E+00
 -1      1859 4.96500E+01 4.48040E+01 0.00000E+00
 -1      1860 5.34000E+01 4.61030E+01 0.00000E+00
 -1      1861 5.49000E+01 4.61030E+01 0.00000E+00
 -1      1862 5.26500E+01 4.48040E+01 0.00000E+00
 -1      1863 5.64000E+01 4.61030E+01 0.00000E+00
 -1      1864 5.79000E+01 4.61030E+01 0.00000E+00
 -1      1865 5.56500E+01 4.48040E+01 0.00000E+00
 -1      1866 5.94000E+01 4.61030E+01 0.00000E+00
 -1      1867 6.09000E+01 4.61030E+01 0.00000E+00
 -1      1868 5.86500E+01 4.48040E+01 0.00000E+00
 -1      1869 6.24000E+01 4.61030E+01 0.00000E+00
 -1      1870 6.39000E+01 4.61030E+01 0.00000E+00
 -1      1871 6.16500E+01 4.48040E+01 0.00000E+00
 -1      1872 6.54000E+01 4.61030E+01 0.00000E+00
 -1      1873 6.69000E+01 4.61030E+01 0.00000E+00
 -1      1874 6.46500E+01 4.48040E+01 0.00000E+00
 -1      1875 6.84000E+01 4.61030E+01 0.00000E+00
 -1      1876 6.99000E+01 4.61030E+01 0.00000E+00
 -1      1877 6.76500E+01 4.48040E+01 0.00000E+00
 -1      1878 7.14000E+01 4.61030E+01 0.00000E+00
 -1      1879 7.29000E+01 4.61030E+01 0.00000E+00
 -1      1880 7.06500E+01 4.48040E+01 0.00000E+00
 -1      1881 7.44000E+01 4.61030E+01 0.00000E+00
 -1      1882 7.59000E+01 4.61030E+01 0.00000E+00
 -1      1883 7.36500E+01 4.48040E+01 0.00000E+00
 -1      1884 7.74000E+01 4.61030E+01 0.00000E+00
 -1      1885 7.89000E+01 4.61030E+01 0.00000E+00
 -1      1886 7.66500E+01 4.48040E+01 0.00000E+00
 -1      1887 8.04000E+01 4.61030E+01 0.00000E+00
 -1      1888 8.19000E+01 4.61030E+01 0.00000E+00
 -1      1889 7.96500E+01 4.48040E+01 0.00000E+00
 -1      1890 8.34000E+01 4.61030E+01 0.00000E+00
 -1      1891 8.49000E+01 4.61030E+01 0.00000E+00
 -1      1892 8.26500E+01 4.48040E+01 0.00000E+00
 -1      1893 8.64000E+01 4.61030E+01 0.00000E+00
 -1      1894 8.79000E+01 4.61030E+01 0.00000E+00
 -1      1895 8.56500E+01 4.48040E+01 0.00000E+00
 -1      1896 8.94000E+01 4.61030E+01 0.00000E+00
 -1      1897 9.09000E+01 4.61030E+01 0.00000E+00
 -1      1898 8.86500E+01 4.48040E+01 0.00000E+00
 -1      1899 9.24000E+01 4.61030E+01 0.00000E+00
 -1      1900 9.39000E+01 4.61030E+01 0.00000E+00
 -1      1901 9.16500E+01 4.48040E+01 0.00000E+00
 -1      1902 9.54000E+01 4.61030E+01 0.00000E+00
 -1      1903 9.69000E+01 4.61030E+01 0.00000E+00
 -1      1904 9.46500E+01 4.48040E+01 0.00000E+00
 -1      1905 9.84000E+01 4.61030E+01 0.00000E+00
 -1      1906 9.99000E+01 4.61030E+01 0.00000E+00
 -1      1907 9.76500E+01 4.48040E+01 0.00000E+00
 -1      1908 1.01400E+02 4.61030E+01 0.00000E+00
 -1      1909 1.02900E+02 4.61030E+01 0.00000E+00
 -1      1910 1.00650E+02 4.48040E+01 0.00000E+00
 -1      1911 1.04400E+02 4.61030E+01 0.00000E+00
 -1      1912 1.05900E+02 4.61030E+01 0.00000E+00
 -1      1913 1.03650E+02 4.48040E+01 0.00000E+00
 -1      1914 1.07400E+02 4.61030E+01 0.00000E+00
 -1      1915 1.08900E+02 4.61030E+01 0.00000E+00
 -1      1916 1.06650E+02 4.48040E+01 0.00000E+00
 -1      1917 1.10400E+02 4.61030E+01 0.00000E+00
 -1      1918 1.11900E+02 4.61030E+01 0.00000E+00
 -1      1919 1.09650E+02 4.48040E+01 0.00000E+00
 -1      1920 1.13400E+02 4.61030E+01 0.00000E+00
 -1      1921 1.14900E+02 4.61030E+01 0.00000E+00
 -1      1922 1.12650E+02 4.48040E+01 0.00000E+00
 -1      1923 1.16400E+02 4.61030E+01 0.00000E+00
 -1      1924 1.17900E+02 4.61030E+01 0.00000E+00
 -1      1925 1.15650E+02 4.48040E+01 0.00000E+00
 -1      1926 1.19400E+02 4.61030E+01 0.00000E+00
 -1      1927 1.20900E+02 4.61030E+01 0.00000E+00
 -1      1928 1.18650E+02 4.48040E+01 0.00000E+00
 -1      1929 1.22400E+02 4.61030E+01 0.00000E+00
 -1      1930 1.23900E+02 4.61030E+01 0.00000E+00
 -1      1931 1.21650E+02 4.48040E+01 0.00000E+00
 -1      1932 1.25400E+02 4.61030E+01 0.00000E+00
 -1      1933 1.26900E+02 4.61030E+01 0.00000E+00
 -1      1934 1.24650E+02 4.48040E+01 0.00000E+00
 -1      1935 1.28400E+02 4.61030E+01 0.00000E+00
 -1      1936 1.29900E+02 4.61030E+01 0.00000E+00
 -1      1937 1.27650E+02 4.48040E+01 0.00000E+00
 -1      1938 1.31400E+02 4.61030E+01 0.00000E+00
 -1      1939 1.32900E+02 4.61030E+01 0.00000E+00
 -1      1940 1.30650E+02 4.48040E+01 0.00000E+00
 -1      1941 1.34400E+02 4.61030E+01 0.00000E+00
 -1      1942 1.35900E+02 4.61030E+01 0.00000E+00
 -1      1943 1.33650E+02 4.48040E+01 0.00000E+00
 -1      1944 1.37400E+02 4.61030E+01 0.00000E+00
 -1      1945 1.38900E+02 4.61030E+01 0.00000E+00
 -1      1946 1.36650E+02 4.48040E+01 0.00000E+00
 -1      1947 1.40400E+02 4.61030E+01 0.00000E+00
 -1      1948 1.41900E+02 4.61030E+01 0.00000E+00
 -1      1949 1.39650E+02 4.48040E+01 0.00000E+00
 -1      1950 1.43244E+02 4.61616E+01 0.00000E+00
 -1      1951 1.44744E+02 4.61616E+01 0.00000E+00
 -1      1952 1.45182E+02 4.49799E+01 0.00000E+00
 -1      1953 1.42494E+02 4.48626E+01 0.00000E+00
 -1      1954 1.17045E+01 3.09687E+00 0.00000E+00
 -1      1955 1.02045E+01 3.09687E+00 0.00000E+00
 -1      1956 1.00350E+01 4.00625E+00 0.00000E+00
 -1      1957 1.47045E+01 3.09687E+00 0.00000E+00
 -1      1958 1.32045E+01 3.09687E+00 0.00000E+00
 -1      1959 1.30350E+01 4.00625E+00 0.00000E+00
 -1      1960 1.77045E+01 3.09687E+00 0.00000E+00
 -1      1961 1.62045E+01 3.09687E+00 0.00000E+00
 -1      1962 1.60350E+01 4.00625E+00 0.00000E+00
 -1      1963 2.07045E+01 3.09687E+00 0.00000E+00
 -1      1964 1.92045E+01 3.09687E+00 0.00000E+00
 -1      1965 1.90350E+01 4.00625E+00 0.00000E+00
 -1      1966 2.37045E+01 3.09687E+00 0.00000E+00
 -1      1967 2.22045E+01 3.09687E+00 0.00000E+00
 -1      1968 2.20350E+01 4.00625E+00 0.00000E+00
 -1      1969 2.67045E+01 3.09687E+00 0.00000E+00
 -1      1970 2.52045E+01 3.09687E+00 0.00000E+00
 -1      1971 2.50350E+01 4.00625E+00 0.00000E+00
 -1      1972 2.97045E+01 3.09687E+00 0.00000E+00
 -1      1973 2.82045E+01 3.09687E+00 0.00000E+00
 -1      1974 2.80350E+01 4.00625E+00 0.00000E+00
 -1      1975 3.27045E+01 3.09687E+00 0.00000E+00
 -1      1976 3.12045E+01 3.09687E+00 0.00000E+00
 -1      1977 3.10350E+01 4.00625E+00 0.00000E+00
 -1      1978 3.57045E+01 3.09687E+00 0.00000E+00
 -1      1979 3.42045E+01 3.09687E+00 0.00000E+00
 -1      1980 3.40350E+01 4.00625E+00 0.00000E+00
 -1      1981 3.87045E+01 3.09687E+00 0.00000E+00
 -1      1982 3.72045E+01 3.09687E+00 0.00000E+00
 -1      1983 3.70350E+01 4.00625E+00 0.00000E+00
 -1      1984 4.17045E+01 3.09687E+00 0.00000E+00
 -1      1985 4.02045E+01 3.09687E+00 0.00000E+00
 -1      1986 4.00350E+01 4.00625E+00 0.00000E+00
 -1      1987 4.47045E+01 3.09687E+00 0.00000E+00
 -1      1988 4.32045E+01 3.09687E+00 0.00000E+00
 -1      1989 4.30350E+01 4.00625E+00 0.00000E+00
 -1      1990 4.77045E+01 3.09687E+00 0.00000E+00
 -1      1991 4.62045E+01 3.09687E+00 0.00000E+00
 -1      1992 4.60350E+01 4.00625E+00 0.00000E+00
 -1      1993 5.07045E+01 3.09687E+00 0.00000E+00
 -1      1994 4.92045E+01 3.09687E+00 0.00000E+00
 -1      1995 4.90350E+01 4.00625E+00 0.00000E+00
 -1      1996 5.37045E+01 3.09687E+00 0.00000E+00
 -1      1997 5.22045E+01 3.09687E+00 0.00000E+00
 -1      1998 5.20350E+01 4.00625E+00 0.00000E+00
 -1      1999 5.67045E+01 3.09687E+00 0.00000E+00
 -1      2000 5.52045E+01 3.09687E+00 0.00000E+00
 -1      2001 5.50350E+01 4.00625E+00 0.00000E+00
 -1      2002 5.97045E+01 3.09687E+00 0.00000E+00
 -1      2003 5.82045E+01 3.09687E+00 0.00000E+00
 -1      2004 5.80350E+01 4.00625E+00 0.00000E+00
 -1      2005 6.27045E+01 3.09687E+00 0.00000E+00
 -1      2006 6.12045E+01 3.09687E+00 0.00000E+00
 -1      2007 6.10350E+01 4.00625E+00 0.00000E+00
 -1      2008 6.57045E+01 3.09687E+00 0.00000E+00
 -1      2009 6.42045E+01 3.09687E+00 0.00000E+00
 -1      2010 6.40350E+01 4.00625E+00 0.00000E+00
 -1      2011 6.87045E+01 3.09687E+00 0.00000E+00
 -1      2012 6.72045E+01 3.09687E+00 0.00000E+00
 -1      2013 6.70350E+01 4.00625E+00 0.00000E+00
 -1      2014 7.17045E+01 3.09687E+00 0.00000E+00
 -1      2015 7.02045E+01 3.09687E+00 0.00000E+00
 -1      2016 7.00350E+01 4.00625E+00 0.00000E+00
 -1      2017 7.47045E+01 3.09687E+00 0.00000E+00
 -1      2018 7.32045E+01 3.09687E+00 0.00000E+00
 -1      2019 7.30350E+01 4.00625E+00 0.00000E+00
 -1      2020 7.77045E+01 3.09687E+00 0.00000E+00
 -1      2021 7.62045E+01 3.09687E+00 0.00000E+00
 -1      2022 7.60350E+01 4.00625E+00 0.00000E+00
 -1      2023 8.07045E+01 3.09687E+00 0.00000E+00
 -1      2024 7.92045E+01 3.09687E+00 0.00000E+00
 -1      2025 7.90350E+01 4.00625E+00 0.00000E+00
 -1      2026 8.37045E+01 3.09687E+00 0.00000E+00
 -1      2027 8.22045E+01 3.09687E+00 0.00000E+00
 -1      2028 8.20350E+01 4.00625E+00 0.00000E+00
 -1      2029 8.67045E+01 3.09687E+00 0.00000E+00
 -1      2030 8.52045E+01 3.09687E+00 0.00000E+00
 -1      2031 8.50350E+01 4.00625E+00 0.00000E+00
 -1      2032 8.97045E+01 3.09687E+00 0.00000E+00
 -1      2033 8.82045E+01 3.09687E+00 0.00000E+00
 -1      2034 8.80350E+01 4.00625E+00 0.00000E+00
 -1      2035 9.27045E+01 3.09687E+00 0.00000E+00
 -1      2036 9.12045E+01 3.09687E+00 0.00000E+00
 -1      2037 9.10350E+01 4.00625E+00 0.00000E+00
 -1      2038 9.57045E+01 3.09687E+00 0.00000E+00
 -1      2039 9.42045E+01 3.09687E+00 0.00000E+00
 -1      2040 9.40350E+01 4.00625E+00 0.00000E+00
 -1      2041 9.87045E+01 3.09687E+00 0.00000E+00
 -1      2042 9.72045E+01 3.09687E+00 0.00000E+00
 -1      2043 9.70350E+01 4.00625E+00 0.00000E+00
 -1      2044 1.01704E+02 3.09687E+00 0.00000E+00
 -1      2045 1.00204E+02 3.09687E+00 0.00000E+00
 -1      2046 1.00035E+02 4.00625E+00 0.00000E+00
 -1      2047 1.04704E+02 3.09687E+00 0.00000E+00
 -1      2048 1.03204E+02 3.09687E+00 0.00000E+00
 -1      2049 1.03035E+02 4.00625E+00 0.00000E+00
 -1      2050 1.07704E+02 3.09687E+00 0.00000E+00
 -1      2051 1.06204E+02 3.09687E+00 0.00000E+00
 -1      2052 1.06035E+02 4.00625E+00 0.00000E+00
 -1      2053 1.10704E+02 3.09687E+00 0.00000E+00
 -1      2054 1.09204E+02 3.09687E+00 0.00000E+00
 -1      2055 1.09035E+02 4.00625E+00 0.00000E+00
 -1      2056 1.13704E+02 3.09687E+00 0.00000E+00
 -1      2057 1.12204E+02 3.09687E+00 0.00000E+00
 -1      2058 1.12035E+02 4.00625E+00 0.00000E+00
 -1      2059 1.16704E+02 3.09687E+00 0.00000E+00
 -1      2060 1.15204E+02 3.09687E+00 0.00000E+00
 -1      2061 1.15035E+02 4.00625E+00 0.00000E+00
 -1      2062 1.19704E+02 3.09687E+00 0.00000E+00
 -1      2063 1.18204E+02 3.09687E+00 0.00000E+00
 -1      2064 1.18035E+02 4.00625E+00 0.00000E+00
 -1      2065 1.22704E+02 3.09687E+00 0.00000E+00
 -1      2066 1.21204E+02 3.09687E+00 0.00000E+00
 -1      2067 1.21035E+02 4.00625E+00 0.00000E+00
 -1      2068 1.25704E+02 3.09687E+00 0.00000E+00
 -1      2069 1.24204E+02 3.09687E+00 0.00000E+00
 -1      2070 1.24035E+02 4.00625E+00 0.00000E+00
 -1      2071 1.28704E+02 3.09687E+00 0.00000E+00
 -1      2072 1.27204E+02 3.09687E+00 0.00000E+00
 -1      2073 1.27035E+02 4.00625E+00 0.00000E+00
 -1      2074 1.31704E+02 3.09687E+00 0.00000E+00
 -1      2075 1.30204E+02 3.09687E+00 0.00000E+00
 -1      2076 1.30035E+02 4.00625E+00 0.00000E+00
 -1      2077 1.34704E+02 3.09687E+00 0.00000E+00
 -1      2078 1.33204E+02 3.09687E+00 0.00000E+00
 -1      2079 1.33035E+02 4.00625E+00 0.00000E+00
 -1      2080 1.37704E+02 3.09687E+00 0.00000E+00
 -1      2081 1.36204E+02 3.09687E+00 0.00000E+00
 -1      2082 1.36035E+02 4.00625E+00 0.00000E+00
 -1      2083 1.40704E+02 3.09687E+00 0.00000E+00
 -1      2084 1.39204E+02 3.09687E+00 0.00000E+00
 -1      2085 1.39035E+02 4.00625E+00 0.00000E+00
 -1      2086 1.43704E+02 3.09687E+00 0.00000E+00
 -1      2087 1.42204E+02 3.09687E+00 0.00000E+00
 -1      2088 1.42035E+02 4.00625E+00 0.00000E+00
 -1      2089 1.46171E+02 3.20156E+00 0.00000E+00
 -1      2090 1.44671E+02 3.20156E+00 0.00000E+00
 -1      2091 1.44502E+02 4.11094E+00 0.00000E+00
 -1      2092 1.46435E+02 4.32031E+00 0.00000E+00
 -1      2093 1.46103E+02 1.25375E+01 0.00000E+00
 -1      2094 1.46103E+02 1.10625E+01 0.00000E+00
 -1      2095 1.46103E+02 9.58750E+00 0.00000E+00
 -1      2096 1.46103E+02 8.11250E+00 0.00000E+00
 -1      2097 1.44804E+02 1.03250E+01 0.00000E+00
 -1      2098 1.46269E+02 6.95391E+00 0.00000E+00
 -1      2099 1.46269E+02 5.47891E+00 0.00000E+00
 -1      2100 1.45302E+02 5.37422E+00 0.00000E+00
 -1      2101 1.44970E+02 7.69141E+00 0.00000E+00
 -1      2102 1.46103E+02 1.54375E+01 0.00000E+00
 -1      2103 1.46103E+02 1.39875E+01 0.00000E+00
 -1      2104 1.44804E+02 1.32500E+01 0.00000E+00
 -1      2105 1.46103E+02 1.83875E+01 0.00000E+00
 -1      2106 1.46103E+02 1.69125E+01 0.00000E+00
 -1      2107 1.44804E+02 1.61750E+01 0.00000E+00
 -1      2108 1.46103E+02 2.13375E+01 0.00000E+00
 -1      2109 1.46103E+02 1.98625E+01 0.00000E+00
 -1      2110 1.44804E+02 1.91250E+01 0.00000E+00
 -1      2111 1.46103E+02 2.42875E+01 0.00000E+00
 -1      2112 1.46103E+02 2.28125E+01 0.00000E+00
 -1      2113 1.44804E+02 2.20750E+01 0.00000E+00
 -1      2114 1.46103E+02 2.72375E+01 0.00000E+00
 -1      2115 1.46103E+02 2.57625E+01 0.00000E+00
 -1      2116 1.44804E+02 2.50250E+01 0.00000E+00
 -1      2117 1.46103E+02 3.01875E+01 0.00000E+00
 -1      2118 1.46103E+02 2.87125E+01 0.00000E+00
 -1      2119 1.44804E+02 2.79750E+01 0.00000E+00
 -1      2120 1.46103E+02 3.30875E+01 0.00000E+00
 -1      2121 1.46103E+02 3.16375E+01 0.00000E+00
 -1      2122 1.44804E+02 3.09000E+01 0.00000E+00
 -1      2123 1.46103E+02 3.60375E+01 0.00000E+00
 -1      2124 1.46103E+02 3.45625E+01 0.00000E+00
 -1      2125 1.44804E+02 3.38250E+01 0.00000E+00
 -1      2126 1.46103E+02 3.89875E+01 0.00000E+00
 -1      2127 1.46103E+02 3.75125E+01 0.00000E+00
 -1      2128 1.44804E+02 3.67750E+01 0.00000E+00
 -1      2129 1.46103E+02 4.19375E+01 0.00000E+00
 -1      2130 1.46103E+02 4.04625E+01 0.00000E+00
 -1      2131 1.44804E+02 3.97250E+01 0.00000E+00
 -1      2132 1.22096E+02 1.68136E+01 0.00000E+00
 -1      2133 1.22461E+02 1.76169E+01 0.00000E+00
 -1      2134 1.23090E+02 2.04241E+01 0.00000E+00
 -1      2135 1.23054E+02 2.12569E+01 0.00000E+00
 -1      2136 1.22916E+02 1.85140E+01 0.00000E+00
 -1      2137 1.23138E+02 1.93519E+01 0.00000E+00
 -1      2138 1.21112E+02 1.51842E+01 0.00000E+00
 -1      2139 1.21595E+02 1.59659E+01 0.00000E+00
 -1      2140 1.19709E+02 1.37281E+01 0.00000E+00
 -1      2141 1.20416E+02 1.42812E+01 0.00000E+00
 -1      2142 3.89700E+00 3.74688E+01 0.00000E+00
 -1      2143 3.89700E+00 3.89437E+01 0.00000E+00
 -1      2144 5.19600E+00 3.96813E+01 0.00000E+00
 -1      2145 5.19600E+00 3.67438E+01 0.00000E+00
 -1      2146 1.16391E+02 1.21918E+01 0.00000E+00
 -1      2147 1.17188E+02 1.24297E+01 0.00000E+00
 -1      2148 1.14583E+02 1.19101E+01 0.00000E+00
 -1      2149 1.15453E+02 1.20595E+01 0.00000E+00
 -1      2150 1.12558E+02 1.18764E+01 0.00000E+00
 -1      2151 1.13492E+02 1.17888E+01 0.00000E+00
 -1      2152 1.10663E+02 1.27135E+01 0.00000E+00
 -1      2153 1.11445E+02 1.22931E+01 0.00000E+00
 -1      2154 1.09019E+02 1.34882E+01 0.00000E+00
 -1      2155 1.09841E+02 1.31008E+01 0.00000E+00
 -1      2156 1.09905E+02 1.22829E+01 0.00000E+00
 -1      2157 1.07439E+02 1.48510E+01 0.00000E+00
 -1      2158 1.08032E+02 1.41398E+01 0.00000E+00
 -1      2159 1.06496E+02 1.64919E+01 0.00000E+00
 -1      2160 1.06921E+02 1.57426E+01 0.00000E+00
 -1      2161 1.05731E+02 1.81154E+01 0.00000E+00
 -1      2162 1.06114E+02 1.73037E+01 0.00000E+00
 -1      2163 1.05689E+02 1.65683E+01 0.00000E+00
 -1      2164 1.05448E+02 2.01338E+01 0.00000E+00
 -1      2165 1.05488E+02 1.92585E+01 0.00000E+00
 -1      2166 1.05520E+02 2.18929E+01 0.00000E+00
 -1      2167 1.05459E+02 2.10635E+01 0.00000E+00
 -1      2168 1.05749E+02 2.37150E+01 0.00000E+00
 -1      2169 1.05546E+02 2.28648E+01 0.00000E+00
 -1      2170 1.06706E+02 2.54014E+01 0.00000E+00
 -1      2171 1.06266E+02 2.46615E+01 0.00000E+00
 -1      2172 1.07705E+02 2.69026E+01 0.00000E+00
 -1      2173 1.07163E+02 2.62604E+01 0.00000E+00
 -1      2174 1.09057E+02 2.81478E+01 0.00000E+00
 -1      2175 1.08394E+02 2.76262E+01 0.00000E+00
 -1      2176 1.10528E+02 2.90534E+01 0.00000E+00
 -1      2177 1.09793E+02 2.86006E+01 0.00000E+00
 -1      2178 1.08957E+02 2.89808E+01 0.00000E+00
 -1      2179 1.12507E+02 2.95525E+01 0.00000E+00
 -1      2180 1.11673E+02 2.94206E+01 0.00000E+00
 -1      2181 1.14138E+02 2.97127E+01 0.00000E+00
 -1      2182 1.13323E+02 2.96326E+01 0.00000E+00
 -1      2183 1.12798E+02 3.02482E+01 0.00000E+00
 -1      2184 1.16039E+02 2.97264E+01 0.00000E+00
 -1      2185 1.15177E+02 2.98197E+01 0.00000E+00
 -1      2186 1.17870E+02 2.91111E+01 0.00000E+00
 -1      2187 1.17086E+02 2.94508E+01 0.00000E+00
 -1      2188 1.19372E+02 2.80717E+01 0.00000E+00
 -1      2189 1.18694E+02 2.85530E+01 0.00000E+00
 -1      2190 1.20743E+02 2.69599E+01 0.00000E+00
 -1      2191 1.20147E+02 2.75364E+01 0.00000E+00
 -1      2192 1.21742E+02 2.54455E+01 0.00000E+00
 -1      2193 1.21273E+02 2.61350E+01 0.00000E+00
 -1      2194 1.22515E+02 2.38472E+01 0.00000E+00
 -1      2195 1.22197E+02 2.46071E+01 0.00000E+00
 -1      2196 1.23152E+02 2.22054E+01 0.00000E+00
 -1      2197 1.22996E+02 2.29910E+01 0.00000E+00
 -1      2198 1.18048E+02 1.28524E+01 0.00000E+00
 -1      2199 1.18818E+02 1.32213E+01 0.00000E+00
 -1      2200 1.21209E+02 1.43311E+01 0.00000E+00
 -1      2201 6.42300E+00 4.57510E+01 0.00000E+00
 -1      2202 1.19622E+02 1.29214E+01 0.00000E+00
 -1      2203 1.17871E+02 1.19920E+01 0.00000E+00
 -1      2204 7.17300E+00 4.44520E+01 0.00000E+00
 -1      2205 1.23361E+02 1.78268E+01 0.00000E+00
 -1      2206 1.23767E+02 1.97961E+01 0.00000E+00
 -1      2207 1.45665E+02 4.31193E+01 0.00000E+00
 -1      2208 1.22406E+02 1.60819E+01 0.00000E+00
 -1      2209 1.23817E+02 2.18168E+01 0.00000E+00
 -1      2210 1.23434E+02 2.36215E+01 0.00000E+00
 -1      2211 1.22499E+02 2.53160E+01 0.00000E+00
 -1      2212 1.21513E+02 2.69794E+01 0.00000E+00
 -1      2213 1.20208E+02 2.83396E+01 0.00000E+00
 -1      2214 1.18609E+02 2.94330E+01 0.00000E+00
 -1      2215 1.14652E+02 3.04353E+01 0.00000E+00
 -1      2216 1.10837E+02 2.98008E+01 0.00000E+00
 -1      2217 1.07532E+02 2.78043E+01 0.00000E+00
 -1      2218 1.06386E+02 2.62217E+01 0.00000E+00
 -1      2219 1.05412E+02 2.44162E+01 0.00000E+00
 -1      2220 1.04869E+02 2.24978E+01 0.00000E+00
 -1      2221 1.05063E+02 1.85232E+01 0.00000E+00
 -1      2222 1.04639E+02 1.77878E+01 0.00000E+00
 -1      2223 1.04396E+02 1.89310E+01 0.00000E+00
 -1      2224 1.08096E+02 1.33218E+01 0.00000E+00
 -1      2225 1.11840E+02 1.14789E+01 0.00000E+00
 -1      2226 1.16072E+02 1.14371E+01 0.00000E+00
 -1      2227 1.14043E+02 1.11835E+01 0.00000E+00
 -1      2228 1.06590E+02 1.48650E+01 0.00000E+00
 -1      2229 1.04832E+02 2.05961E+01 0.00000E+00
 -1      2230 1.16738E+02 3.02667E+01 0.00000E+00
 -1      2231 1.07850E+01 5.30525E+00 0.00000E+00
 -1      2232 9.28500E+00 5.30525E+00 0.00000E+00
 -1      2233 6.49500E+00 3.01125E+01 0.00000E+00
 -1      2234 6.49500E+00 3.15875E+01 0.00000E+00
 -1      2235 6.49500E+00 3.30625E+01 0.00000E+00
 -1      2236 6.49500E+00 3.45375E+01 0.00000E+00
 -1      2237 7.79400E+00 3.23250E+01 0.00000E+00
 -1      2238 6.49500E+00 2.42125E+01 0.00000E+00
 -1      2239 6.49500E+00 2.56875E+01 0.00000E+00
 -1      2240 6.49500E+00 2.12625E+01 0.00000E+00
 -1      2241 6.49500E+00 2.27375E+01 0.00000E+00
 -1      2242 7.79400E+00 2.34750E+01 0.00000E+00
 -1      2243 6.49500E+00 1.83625E+01 0.00000E+00
 -1      2244 6.49500E+00 1.98125E+01 0.00000E+00
 -1      2245 7.79400E+00 2.05500E+01 0.00000E+00
 -1      2246 6.49500E+00 1.54125E+01 0.00000E+00
 -1      2247 6.49500E+00 1.68875E+01 0.00000E+00
 -1      2248 7.79400E+00 1.76250E+01 0.00000E+00
 -1      2249 6.49500E+00 1.24625E+01 0.00000E+00
 -1      2250 6.49500E+00 1.39375E+01 0.00000E+00
 -1      2251 7.79400E+00 1.46750E+01 0.00000E+00
 -1      2252 6.49500E+00 9.51250E+00 0.00000E+00
 -1      2253 6.49500E+00 1.09875E+01 0.00000E+00
 -1      2254 7.79400E+00 1.17250E+01 0.00000E+00
 -1      2255 1.37850E+01 5.30525E+00 0.00000E+00
 -1      2256 1.22850E+01 5.30525E+00 0.00000E+00
 -1      2257 1.15350E+01 6.60425E+00 0.00000E+00
 -1      2258 9.90000E+00 4.35050E+01 0.00000E+00
 -1      2259 1.14000E+01 4.35050E+01 0.00000E+00
 -1      2260 1.19580E+02 1.19590E+01 0.00000E+00
 -1      2261 1.20471E+02 1.24657E+01 0.00000E+00
 -1      2262 1.29000E+01 4.35050E+01 0.00000E+00
 -1      2263 1.44000E+01 4.35050E+01 0.00000E+00
 -1      2264 1.21500E+01 4.22060E+01 0.00000E+00
 -1      2265 1.59000E+01 4.35050E+01 0.00000E+00
 -1      2266 1.74000E+01 4.35050E+01 0.00000E+00
 -1      2267 1.51500E+01 4.22060E+01 0.00000E+00
 -1      2268 1.89000E+01 4.35050E+01 0.00000E+00
 -1      2269 2.04000E+01 4.35050E+01 0.00000E+00
 -1      2270 1.81500E+01 4.22060E+01 0.00000E+00
 -1      2271 2.19000E+01 4.35050E+01 0.00000E+00
 -1      2272 2.34000E+01 4.35050E+01 0.00000E+00
 -1      2273 2.11500E+01 4.22060E+01 0.00000E+00
 -1      2274 2.49000E+01 4.35050E+01 0.00000E+00
 -1      2275 2.64000E+01 4.35050E+01 0.00000E+00
 -1      2276 2.41500E+01 4.22060E+01 0.00000E+00
 -1      2277 2.79000E+01 4.35050E+01 0.00000E+00
 -1      2278 2.94000E+01 4.35050E+01 0.00000E+00
 -1      2279 2.71500E+01 4.22060E+01 0.00000E+00
 -1      2280 3.09000E+01 4.35050E+01 0.00000E+00
 -1      2281 3.24000E+01 4.35050E+01 0.00000E+00
 -1      2282 3.01500E+01 4.22060E+01 0.00000E+00
 -1      2283 3.39000E+01 4.35050E+01 0.00000E+00
 -1      2284 3.54000E+01 4.35050E+01 0.00000E+00
 -1      2285 3.31500E+01 4.22060E+01 0.00000E+00
 -1      2286 3.69000E+01 4.35050E+01 0.00000E+00
 -1      2287 3.84000E+01 4.35050E+01 0.00000E+00
 -1      2288 3.61500E+01 4.22060E+01 0.00000E+00
 -1      2289 3.99000E+01 4.35050E+01 0.00000E+00
 -1      2290 4.14000E+01 4.35050E+01 0.00000E+00
 -1      2291 3.91500E+01 4.22060E+01 0.00000E+00
 -1      2292 4.29000E+01 4.35050E+01 0.00000E+00
 -1      2293 4.44000E+01 4.35050E+01 0.00000E+00
 -1      2294 4.21500E+01 4.22060E+01 0.00000E+00
 -1      2295 4.59000E+01 4.35050E+01 0.00000E+00
 -1      2296 4.74000E+01 4.35050E+01 0.00000E+00
 -1      2297 4.51500E+01 4.22060E+01 0.00000E+00
 -1      2298 4.89000E+01 4.35050E+01 0.00000E+00
 -1      2299 5.04000E+01 4.35050E+01 0.00000E+00
 -1      2300 4.81500E+01 4.22060E+01 0.00000E+00
 -1      2301 5.19000E+01 4.35050E+01 0.00000E+00
 -1      2302 5.34000E+01 4.35050E+01 0.00000E+00
 -1      2303 5.11500E+01 4.22060E+01 0.00000E+00
 -1      2304 5.49000E+01 4.35050E+01 0.00000E+00
 -1      2305 5.64000E+01 4.35050E+01 0.00000E+00
 -1      2306 5.41500E+01 4.22060E+01 0.00000E+00
 -1      2307 5.79000E+01 4.35050E+01 0.00000E+00
 -1      2308 5.94000E+01 4.35050E+01 0.00000E+00
 -1      2309 5.71500E+01 4.22060E+01 0.00000E+00
 -1      2310 6.09000E+01 4.35050E+01 0.00000E+00
 -1      2311 6.24000E+01 4.35050E+01 0.00000E+00
 -1      2312 6.01500E+01 4.22060E+01 0.00000E+00
 -1      2313 6.39000E+01 4.35050E+01 0.00000E+00
 -1      2314 6.54000E+01 4.35050E+01 0.00000E+00
 -1      2315 6.31500E+01 4.22060E+01 0.00000E+00
 -1      2316 6.69000E+01 4.35050E+01 0.00000E+00
 -1      2317 6.84000E+01 4.35050E+01 0.00000E+00
 -1      2318 6.61500E+01 4.22060E+01 0.00000E+00
 -1      2319 6.99000E+01 4.35050E+01 0.00000E+00
 -1      2320 7.14000E+01 4.35050E+01 0.00000E+00
 -1      2321 6.91500E+01 4.22060E+01 0.00000E+00
 -1      2322 7.29000E+01 4.35050E+01 0.00000E+00
 -1      2323 7.44000E+01 4.35050E+01 0.00000E+00
 -1      2324 7.21500E+01 4.22060E+01 0.00000E+00
 -1      2325 7.59000E+01 4.35050E+01 0.00000E+00
 -1      2326 7.74000E+01 4.35050E+01 0.00000E+00
 -1      2327 7.51500E+01 4.22060E+01 0.00000E+00
 -1      2328 7.89000E+01 4.35050E+01 0.00000E+00
 -1      2329 8.04000E+01 4.35050E+01 0.00000E+00
 -1      2330 7.81500E+01 4.22060E+01 0.00000E+00
 -1      2331 8.19000E+01 4.35050E+01 0.00000E+00
 -1      2332 8.34000E+01 4.35050E+01 0.00000E+00
 -1      2333 8.11500E+01 4.22060E+01 0.00000E+00
 -1      2334 8.49000E+01 4.35050E+01 0.00000E+00
 -1      2335 8.64000E+01 4.35050E+01 0.00000E+00
 -1      2336 8.41500E+01 4.22060E+01 0.00000E+00
 -1      2337 8.79000E+01 4.35050E+01 0.00000E+00
 -1      2338 8.94000E+01 4.35050E+01 0.00000E+00
 -1      2339 8.71500E+01 4.22060E+01 0.00000E+00
 -1      2340 9.09000E+01 4.35050E+01 0.00000E+00
 -1      2341 9.24000E+01 4.35050E+01 0.00000E+00
 -1      2342 9.01500E+01 4.22060E+01 0.00000E+00
 -1      2343 9.39000E+01 4.35050E+01 0.00000E+00
 -1      2344 9.54000E+01 4.35050E+01 0.00000E+00
 -1      2345 9.31500E+01 4.22060E+01 0.00000E+00
 -1      2346 9.69000E+01 4.35050E+01 0.00000E+00
 -1      2347 9.84000E+01 4.35050E+01 0.00000E+00
 -1      2348 9.61500E+01 4.22060E+01 0.00000E+00
 -1      2349 9.99000E+01 4.35050E+01 0.00000E+00
 -1      2350 1.01400E+02 4.35050E+01 0.00000E+00
 -1      2351 9.91500E+01 4.22060E+01 0.00000E+00
 -1      2352 1.02900E+02 4.35050E+01 0.00000E+00
 -1      2353 1.04400E+02 4.35050E+01 0.00000E+00
 -1      2354 1.02150E+02 4.22060E+01 0.00000E+00
 -1      2355 1.05900E+02 4.35050E+01 0.00000E+00
 -1      2356 1.07400E+02 4.35050E+01 0.00000E+00
 -1      2357 1.05150E+02 4.22060E+01 0.00000E+00
 -1      2358 1.08900E+02 4.35050E+01 0.00000E+00
 -1      2359 1.10400E+02 4.35050E+01 0.00000E+00
 -1      2360 1.08150E+02 4.22060E+01 0.00000E+00
 -1      2361 1.11900E+02 4.35050E+01 0.00000E+00
 -1      2362 1.13400E+02 4.35050E+01 0.00000E+00
 -1      2363 1.11150E+02 4.22060E+01 0.00000E+00
 -1      2364 1.14900E+02 4.35050E+01 0.00000E+00
 -1      2365 1.16400E+02 4.35050E+01 0.00000E+00
 -1      2366 1.14150E+02 4.22060E+01 0.00000E+00
 -1      2367 1.17900E+02 4.35050E+01 0.00000E+00
 -1      2368 1.19400E+02 4.35050E+01 0.00000E+00
 -1      2369 1.17150E+02 4.22060E+01 0.00000E+00
 -1      2370 1.20900E+02 4.35050E+01 0.00000E+00
 -1      2371 1.22400E+02 4.35050E+01 0.00000E+00
 -1      2372 1.20150E+02 4.22060E+01 0.00000E+00
 -1      2373 1.23900E+02 4.35050E+01 0.00000E+00
 -1      2374 1.25400E+02 4.35050E+01 0.00000E+00
 -1      2375 1.23150E+02 4.22060E+01 0.00000E+00
 -1      2376 1.26900E+02 4.35050E+01 0.00000E+00
 -1      2377 1.28400E+02 4.35050E+01 0.00000E+00
 -1      2378 1.26150E+02 4.22060E+01 0.00000E+00
 -1      2379 1.29900E+02 4.35050E+01 0.00000E+00
 -1      2380 1.31400E+02 4.35050E+01 0.00000E+00
 -1      2381 1.29150E+02 4.22060E+01 0.00000E+00
 -1      2382 1.32900E+02 4.35050E+01 0.00000E+00
 -1      2383 1.34400E+02 4.35050E+01 0.00000E+00
 -1      2384 1.32150E+02 4.22060E+01 0.00000E+00
 -1      2385 1.35900E+02 4.35050E+01 0.00000E+00
 -1      2386 1.37400E+02 4.35050E+01 0.00000E+00
 -1      2387 1.35150E+02 4.22060E+01 0.00000E+00
 -1      2388 1.38900E+02 4.35050E+01 0.00000E+00
 -1      2389 1.40400E+02 4.35050E+01 0.00000E+00
 -1      2390 1.38150E+02 4.22060E+01 0.00000E+00
 -1      2391 1.97850E+01 5.30525E+00 0.00000E+00
 -1      2392 1.82850E+01 5.30525E+00 0.00000E+00
 -1      2393 2.27850E+01 5.30525E+00 0.00000E+00
 -1      2394 2.12850E+01 5.30525E+00 0.00000E+00
 -1      2395 2.05350E+01 6.60425E+00 0.00000E+00
 -1      2396 2.57850E+01 5.30525E+00 0.00000E+00
 -1      2397 2.42850E+01 5.30525E+00 0.00000E+00
 -1      2398 2.35350E+01 6.60425E+00 0.00000E+00
 -1      2399 2.87850E+01 5.30525E+00 0.00000E+00
 -1      2400 2.72850E+01 5.30525E+00 0.00000E+00
 -1      2401 2.65350E+01 6.60425E+00 0.00000E+00
 -1      2402 3.17850E+01 5.30525E+00 0.00000E+00
 -1      2403 3.02850E+01 5.30525E+00 0.00000E+00
 -1      2404 2.95350E+01 6.60425E+00 0.00000E+00
 -1      2405 3.47850E+01 5.30525E+00 0.00000E+00
 -1      2406 3.32850E+01 5.30525E+00 0.00000E+00
 -1      2407 3.25350E+01 6.60425E+00 0.00000E+00
 -1      2408 3.77850E+01 5.30525E+00 0.00000E+00
 -1      2409 3.62850E+01 5.30525E+00 0.00000E+00
 -1      2410 3.55350E+01 6.60425E+00 0.00000E+00
 -1      2411 4.07850E+01 5.30525E+00 0.00000E+00
 -1      2412 3.92850E+01 5.30525E+00 0.00000E+00
 -1      2413 3.85350E+01 6.60425E+00 0.00000E+00
 -1      2414 4.37850E+01 5.30525E+00 0.00000E+00
 -1      2415 4.22850E+01 5.30525E+00 0.00000E+00
 -1      2416 4.15350E+01 6.60425E+00 0.00000E+00
 -1      2417 4.67850E+01 5.30525E+00 0.00000E+00
 -1      2418 4.52850E+01 5.30525E+00 0.00000E+00
 -1      2419 4.45350E+01 6.60425E+00 0.00000E+00
 -1      2420 4.97850E+01 5.30525E+00 0.00000E+00
 -1      2421 4.82850E+01 5.30525E+00 0.00000E+00
 -1      2422 4.75350E+01 6.60425E+00 0.00000E+00
 -1      2423 5.27850E+01 5.30525E+00 0.00000E+00
 -1      2424 5.12850E+01 5.30525E+00 0.00000E+00
 -1      2425 5.05350E+01 6.60425E+00 0.00000E+00
 -1      2426 5.57850E+01 5.30525E+00 0.00000E+00
 -1      2427 5.42850E+01 5.30525E+00 0.00000E+00
 -1      2428 5.35350E+01 6.60425E+00 0.00000E+00
 -1      2429 5.87850E+01 5.30525E+00 0.00000E+00
 -1      2430 5.72850E+01 5.30525E+00 0.00000E+00
 -1      2431 5.65350E+01 6.60425E+00 0.00000E+00
 -1      2432 6.17850E+01 5.30525E+00 0.00000E+00
 -1      2433 6.02850E+01 5.30525E+00 0.00000E+00
 -1      2434 5.95350E+01 6.60425E+00 0.00000E+00
 -1      2435 6.47850E+01 5.30525E+00 0.00000E+00
 -1      2436 6.32850E+01 5.30525E+00 0.00000E+00
 -1      2437 6.25350E+01 6.60425E+00 0.00000E+00
 -1      2438 6.77850E+01 5.30525E+00 0.00000E+00
 -1      2439 6.62850E+01 5.30525E+00 0.00000E+00
 -1      2440 6.55350E+01 6.60425E+00 0.00000E+00
 -1      2441 7.07850E+01 5.30525E+00 0.00000E+00
 -1      2442 6.92850E+01 5.30525E+00 0.00000E+00
 -1      2443 6.85350E+01 6.60425E+00 0.00000E+00
 -1      2444 7.37850E+01 5.30525E+00 0.00000E+00
 -1      2445 7.22850E+01 5.30525E+00 0.00000E+00
 -1      2446 7.15350E+01 6.60425E+00 0.00000E+00
 -1      2447 7.67850E+01 5.30525E+00 0.00000E+00
 -1      2448 7.52850E+01 5.30525E+00 0.00000E+00
 -1      2449 7.45350E+01 6.60425E+00 0.00000E+00
 -1      2450 7.97850E+01 5.30525E+00 0.00000E+00
 -1      2451 7.82850E+01 5.30525E+00 0.00000E+00
 -1      2452 7.75350E+01 6.60425E+00 0.00000E+00
 -1      2453 8.27850E+01 5.30525E+00 0.00000E+00
 -1      2454 8.12850E+01 5.30525E+00 0.00000E+00
 -1      2455 8.05350E+01 6.60425E+00 0.00000E+00
 -1      2456 8.57850E+01 5.30525E+00 0.00000E+00
 -1      2457 8.42850E+01 5.30525E+00 0.00000E+00
 -1      2458 8.35350E+01 6.60425E+00 0.00000E+00
 -1      2459 8.87850E+01 5.30525E+00 0.00000E+00
 -1      2460 8.72850E+01 5.30525E+00 0.00000E+00
 -1      2461 8.65350E+01 6.60425E+00 0.00000E+00
 -1      2462 9.17850E+01 5.30525E+00 0.00000E+00
 -1      2463 9.02850E+01 5.30525E+00 0.00000E+00
 -1      2464 8.95350E+01 6.60425E+00 0.00000E+00
 -1      2465 9.47850E+01 5.30525E+00 0.00000E+00
 -1      2466 9.32850E+01 5.30525E+00 0.00000E+00
 -1      2467 9.25350E+01 6.60425E+00 0.00000E+00
 -1      2468 9.77850E+01 5.30525E+00 0.00000E+00
 -1      2469 9.62850E+01 5.30525E+00 0.00000E+00
 -1      2470 9.55350E+01 6.60425E+00 0.00000E+00
 -1      2471 1.00785E+02 5.30525E+00 0.00000E+00
 -1      2472 9.92850E+01 5.30525E+00 0.00000E+00
 -1      2473 9.85350E+01 6.60425E+00 0.00000E+00
 -1      2474 1.03785E+02 5.30525E+00 0.00000E+00
 -1      2475 1.02285E+02 5.30525E+00 0.00000E+00
 -1      2476 1.01535E+02 6.60425E+00 0.00000E+00
 -1      2477 1.06785E+02 5.30525E+00 0.00000E+00
 -1      2478 1.05285E+02 5.30525E+00 0.00000E+00
 -1      2479 1.04535E+02 6.60425E+00 0.00000E+00
 -1      2480 1.09785E+02 5.30525E+00 0.00000E+00
 -1      2481 1.08285E+02 5.30525E+00 0.00000E+00
 -1      2482 1.07535E+02 6.60425E+00 0.00000E+00
 -1      2483 1.12785E+02 5.30525E+00 0.00000E+00
 -1      2484 1.11285E+02 5.30525E+00 0.00000E+00
 -1      2485 1.10535E+02 6.60425E+00 0.00000E+00
 -1      2486 1.15785E+02 5.30525E+00 0.00000E+00
 -1      2487 1.14285E+02 5.30525E+00 0.00000E+00
 -1      2488 1.13535E+02 6.60425E+00 0.00000E+00
 -1      2489 1.18785E+02 5.30525E+00 0.00000E+00
 -1      2490 1.17285E+02 5.30525E+00 0.00000E+00
 -1      2491 1.16535E+02 6.60425E+00 0.00000E+00
 -1      2492 1.21785E+02 5.30525E+00 0.00000E+00
 -1      2493 1.20285E+02 5.30525E+00 0.00000E+00
 -1      2494 1.19535E+02 6.60425E+00 0.00000E+00
 -1      2495 1.24785E+02 5.30525E+00 0.00000E+00
 -1      2496 1.23285E+02 5.30525E+00 0.00000E+00
 -1      2497 1.22535E+02 6.60425E+00 0.00000E+00
 -1      2498 1.27785E+02 5.30525E+00 0.00000E+00
 -1      2499 1.26285E+02 5.30525E+00 0.00000E+00
 -1      2500 1.25535E+02 6.60425E+00 0.00000E+00
 -1      2501 1.30785E+02 5.30525E+00 0.00000E+00
 -1      2502 1.29285E+02 5.30525E+00 0.00000E+00
 -1      2503 1.28535E+02 6.60425E+00 0.00000E+00
 -1      2504 1.33785E+02 5.30525E+00 0.00000E+00
 -1      2505 1.32285E+02 5.30525E+00 0.00000E+00
 -1      2506 1.31535E+02 6.60425E+00 0.00000E+00
 -1      2507 1.36785E+02 5.30525E+00 0.00000E+00
 -1      2508 1.35285E+02 5.30525E+00 0.00000E+00
 -1      2509 1.34535E+02 6.60425E+00 0.00000E+00
 -1      2510 1.39785E+02 5.30525E+00 0.00000E+00
 -1      2511 1.38285E+02 5.30525E+00 0.00000E+00
 -1      2512 1.37535E+02 6.60425E+00 0.00000E+00
 -1      2513 1.42785E+02 5.30525E+00 0.00000E+00
 -1      2514 1.41285E+02 5.30525E+00 0.00000E+00
 -1      2515 1.40535E+02 6.60425E+00 0.00000E+00
 -1      2516 1.44336E+02 5.26953E+00 0.00000E+00
 -1      2517 1.43505E+02 1.69125E+01 0.00000E+00
 -1      2518 1.43505E+02 1.54375E+01 0.00000E+00
 -1      2519 1.43505E+02 1.98625E+01 0.00000E+00
 -1      2520 1.43505E+02 1.83875E+01 0.00000E+00
 -1      2521 1.42206E+02 1.76500E+01 0.00000E+00
 -1      2522 1.43505E+02 1.10625E+01 0.00000E+00
 -1      2523 1.43505E+02 9.58750E+00 0.00000E+00
 -1      2524 1.43505E+02 1.39750E+01 0.00000E+00
 -1      2525 1.43505E+02 1.25250E+01 0.00000E+00
 -1      2526 1.42206E+02 1.17875E+01 0.00000E+00
 -1      2527 1.42206E+02 1.47125E+01 0.00000E+00
 -1      2528 1.43505E+02 2.28125E+01 0.00000E+00
 -1      2529 1.43505E+02 2.13375E+01 0.00000E+00
 -1      2530 1.42206E+02 2.06000E+01 0.00000E+00
 -1      2531 1.43505E+02 2.57625E+01 0.00000E+00
 -1      2532 1.43505E+02 2.42875E+01 0.00000E+00
 -1      2533 1.42206E+02 2.35500E+01 0.00000E+00
 -1      2534 1.43505E+02 2.87125E+01 0.00000E+00
 -1      2535 1.43505E+02 2.72375E+01 0.00000E+00
 -1      2536 1.42206E+02 2.65000E+01 0.00000E+00
 -1      2537 1.43505E+02 3.16125E+01 0.00000E+00
 -1      2538 1.43505E+02 3.01625E+01 0.00000E+00
 -1      2539 1.42206E+02 2.94250E+01 0.00000E+00
 -1      2540 1.43505E+02 3.45625E+01 0.00000E+00
 -1      2541 1.43505E+02 3.30875E+01 0.00000E+00
 -1      2542 1.42206E+02 3.23500E+01 0.00000E+00
 -1      2543 1.43505E+02 3.75125E+01 0.00000E+00
 -1      2544 1.43505E+02 3.60375E+01 0.00000E+00
 -1      2545 1.42206E+02 3.53000E+01 0.00000E+00
 -1      2546 1.43505E+02 4.04625E+01 0.00000E+00
 -1      2547 1.43505E+02 3.89875E+01 0.00000E+00
 -1      2548 1.42206E+02 3.82500E+01 0.00000E+00
 -1      2549 1.24522E+02 1.92925E+01 0.00000E+00
 -1      2550 1.24475E+02 2.03647E+01 0.00000E+00
 -1      2551 1.22785E+02 1.52856E+01 0.00000E+00
 -1      2552 1.23286E+02 1.61333E+01 0.00000E+00
 -1      2553 1.67850E+01 5.30525E+00 0.00000E+00
 -1      2554 1.52850E+01 5.30525E+00 0.00000E+00
 -1      2555 1.75350E+01 6.60425E+00 0.00000E+00
 -1      2556 1.44321E+02 4.30606E+01 0.00000E+00
 -1      2557 1.24572E+02 2.13132E+01 0.00000E+00
 -1      2558 1.24670E+02 2.22617E+01 0.00000E+00
 -1      2559 1.25327E+02 2.08096E+01 0.00000E+00
 -1      2560 1.23862E+02 1.70099E+01 0.00000E+00
 -1      2561 1.24316E+02 1.79070E+01 0.00000E+00
 -1      2562 6.55950E+00 4.28890E+01 0.00000E+00
 -1      2563 8.53650E+00 4.32410E+01 0.00000E+00
 -1      2564 9.28650E+00 4.19420E+01 0.00000E+00
 -1      2565 6.55950E+00 4.14140E+01 0.00000E+00
 -1      2566 1.24423E+02 2.36132E+01 0.00000E+00
 -1      2567 1.23942E+02 2.44693E+01 0.00000E+00
 -1      2568 1.07256E+02 2.87576E+01 0.00000E+00
 -1      2569 1.06566E+02 2.80339E+01 0.00000E+00
 -1      2570 1.07153E+02 1.29668E+01 0.00000E+00
 -1      2571 1.08140E+02 1.23152E+01 0.00000E+00
 -1      2572 1.10997E+02 1.09233E+01 0.00000E+00
 -1      2573 1.12110E+02 1.05067E+01 0.00000E+00
 -1      2574 6.49500E+00 2.71625E+01 0.00000E+00
 -1      2575 6.49500E+00 2.86375E+01 0.00000E+00
 -1      2576 7.79400E+00 2.93750E+01 0.00000E+00
 -1      2577 7.79400E+00 2.64250E+01 0.00000E+00
 -1      2578 1.13602E+02 1.01873E+01 0.00000E+00
 -1      2579 1.14693E+02 1.03086E+01 0.00000E+00
 -1      2580 1.05589E+02 1.48796E+01 0.00000E+00
 -1      2581 1.06108E+02 1.39881E+01 0.00000E+00
 -1      2582 1.15631E+02 1.04408E+01 0.00000E+00
 -1      2583 1.16569E+02 1.05731E+01 0.00000E+00
 -1      2584 1.15189E+02 9.44461E+00 0.00000E+00
 -1      2585 1.09164E+02 1.17766E+01 0.00000E+00
 -1      2586 1.09986E+02 1.13893E+01 0.00000E+00
 -1      2587 1.04022E+02 2.10710E+01 0.00000E+00
 -1      2588 1.04011E+02 2.01412E+01 0.00000E+00
 -1      2589 1.04798E+02 1.66443E+01 0.00000E+00
 -1      2590 1.05180E+02 1.58326E+01 0.00000E+00
 -1      2591 1.17469E+02 3.09177E+01 0.00000E+00
 -1      2592 1.16422E+02 3.11933E+01 0.00000E+00
 -1      2593 1.04074E+02 2.30149E+01 0.00000E+00
 -1      2594 1.04048E+02 2.20429E+01 0.00000E+00
 -1      2595 1.03227E+02 2.15881E+01 0.00000E+00
 -1      2596 1.05028E+02 2.52403E+01 0.00000E+00
 -1      2597 1.04511E+02 2.42938E+01 0.00000E+00
 -1      2598 1.05894E+02 2.70342E+01 0.00000E+00
 -1      2599 1.05437E+02 2.61752E+01 0.00000E+00
 -1      2600 1.08875E+02 2.99375E+01 0.00000E+00
 -1      2601 1.08139E+02 2.94847E+01 0.00000E+00
 -1      2602 1.11161E+02 3.07611E+01 0.00000E+00
 -1      2603 1.10016E+02 3.03939E+01 0.00000E+00
 -1      2604 1.13134E+02 3.10166E+01 0.00000E+00
 -1      2605 1.12319E+02 3.09365E+01 0.00000E+00
 -1      2606 1.15212E+02 3.12306E+01 0.00000E+00
 -1      2607 1.14173E+02 3.11236E+01 0.00000E+00
 -1      2608 1.13694E+02 3.18119E+01 0.00000E+00
 -1      2609 1.19502E+02 2.98638E+01 0.00000E+00
 -1      2610 1.18678E+02 3.04219E+01 0.00000E+00
 -1      2611 1.21052E+02 2.87933E+01 0.00000E+00
 -1      2612 1.20277E+02 2.93286E+01 0.00000E+00
 -1      2613 1.20346E+02 3.03175E+01 0.00000E+00
 -1      2614 1.22500E+02 2.70307E+01 0.00000E+00
 -1      2615 1.21969E+02 2.78557E+01 0.00000E+00
 -1      2616 1.23487E+02 2.53078E+01 0.00000E+00
 -1      2617 1.23032E+02 2.61462E+01 0.00000E+00
 -1      2618 1.24475E+02 2.52995E+01 0.00000E+00
 -1      2619 1.17782E+02 1.10862E+01 0.00000E+00
 -1      2620 1.18642E+02 1.15088E+01 0.00000E+00
 -1      2621 8.07525E+00 5.11044E+00 0.00000E+00
 -1      2622 6.57525E+00 5.11044E+00 0.00000E+00
 -1      2623 6.40575E+00 6.01981E+00 0.00000E+00
 -1      2624 8.82525E+00 6.40944E+00 0.00000E+00
 -1      2625 1.21673E+02 1.32540E+01 0.00000E+00
 -1      2626 1.22369E+02 1.41570E+01 0.00000E+00
 -1      2627 1.10257E+02 1.04171E+01 0.00000E+00
 -1      2628 7.79400E+00 3.52687E+01 0.00000E+00
 -1      2629 6.49500E+00 3.60062E+01 0.00000E+00
 -1      2630 6.49500E+00 3.74750E+01 0.00000E+00
 -1      2631 1.45350E+01 6.60425E+00 0.00000E+00
 -1      2632 6.40575E+00 7.49481E+00 0.00000E+00
 -1      2633 1.21631E+02 1.22916E+01 0.00000E+00
 -1      2634 1.25178E+02 2.31096E+01 0.00000E+00
 -1      2635 1.25685E+02 2.39575E+01 0.00000E+00
 -1      2636 1.25933E+02 2.26060E+01 0.00000E+00
 -1      2637 1.22039E+02 2.88446E+01 0.00000E+00
 -1      2638 1.43586E+02 6.56853E+00 0.00000E+00
 -1      2639 1.23249E+02 1.42085E+01 0.00000E+00
 -1      2640 1.43419E+02 7.72713E+00 0.00000E+00
 -1      2641 1.15943E+02 3.18816E+01 0.00000E+00
 -1      2642 1.25524E+02 1.76587E+01 0.00000E+00
 -1      2643 1.25023E+02 1.84756E+01 0.00000E+00
 -1      2644 1.25730E+02 1.90442E+01 0.00000E+00
 -1      2645 1.24241E+02 1.62135E+01 0.00000E+00
 -1      2646 1.18362E+02 3.13485E+01 0.00000E+00
 -1      2647 1.11497E+02 3.15296E+01 0.00000E+00
 -1      2648 7.70475E+00 8.23231E+00 0.00000E+00
 -1      2649 6.55950E+00 3.99453E+01 0.00000E+00
 -1      2650 1.09198E+02 3.08978E+01 0.00000E+00
 -1      2651 1.07174E+02 2.97143E+01 0.00000E+00
 -1      2652 1.05618E+02 2.79874E+01 0.00000E+00
 -1      2653 1.03690E+02 2.38390E+01 0.00000E+00
 -1      2654 1.02869E+02 2.33841E+01 0.00000E+00
 -1      2655 1.03306E+02 2.46631E+01 0.00000E+00
 -1      2656 1.04130E+02 1.70521E+01 0.00000E+00
 -1      2657 1.08222E+02 1.14216E+01 0.00000E+00
 -1      2658 1.06152E+02 1.29815E+01 0.00000E+00
 -1      2659 1.06197E+02 1.19749E+01 0.00000E+00
 -1      2660 1.05152E+02 1.29961E+01 0.00000E+00
 -1      2661 1.03586E+02 1.94059E+01 0.00000E+00
 -1      2662 1.03161E+02 1.86705E+01 0.00000E+00
 -1      2663 1.02776E+02 1.98808E+01 0.00000E+00
 -1      2664 1.04698E+02 1.49556E+01 0.00000E+00
 -1      2665 1.19491E+02 1.10532E+01 0.00000E+00
 -1      2666 1.17340E+02 1.00899E+01 0.00000E+00
 -1      2667 1.04537E+02 2.60528E+01 0.00000E+00
 -1      2668 1.42758E+02 4.35929E+01 0.00000E+00
 -1      2669 1.43241E+02 4.17323E+01 0.00000E+00
 -1      2670 1.41942E+02 4.09948E+01 0.00000E+00
 -1      2671 1.41414E+02 4.35342E+01 0.00000E+00
 -1      2672 1.42120E+02 8.46463E+00 0.00000E+00
 -1      2673 1.23488E+02 2.70224E+01 0.00000E+00
 -1      2674 1.40664E+02 4.22352E+01 0.00000E+00
 -1      2675 9.09300E+00 1.98250E+01 0.00000E+00
 -1      2676 9.09300E+00 2.12750E+01 0.00000E+00
 -1      2677 9.09300E+00 2.27500E+01 0.00000E+00
 -1      2678 9.09300E+00 2.42250E+01 0.00000E+00
 -1      2679 1.03920E+01 2.20250E+01 0.00000E+00
 -1      2680 9.09300E+00 1.39375E+01 0.00000E+00
 -1      2681 9.09300E+00 1.54125E+01 0.00000E+00
 -1      2682 9.09300E+00 1.09875E+01 0.00000E+00
 -1      2683 9.09300E+00 1.24625E+01 0.00000E+00
 -1      2684 1.03920E+01 1.32000E+01 0.00000E+00
 -1      2685 1.22850E+01 7.90325E+00 0.00000E+00
 -1      2686 1.07850E+01 7.90325E+00 0.00000E+00
 -1      2687 7.85850E+00 3.92077E+01 0.00000E+00
 -1      2688 8.91450E+00 8.42712E+00 0.00000E+00
 -1      2689 1.25419E+02 2.52694E+01 0.00000E+00
 -1      2690 1.24964E+02 2.61078E+01 0.00000E+00
 -1      2691 1.23110E+02 2.89755E+01 0.00000E+00
 -1      2692 1.22193E+02 2.99131E+01 0.00000E+00
 -1      2693 1.44000E+01 4.09070E+01 0.00000E+00
 -1      2694 1.59000E+01 4.09070E+01 0.00000E+00
 -1      2695 1.74000E+01 4.09070E+01 0.00000E+00
 -1      2696 1.89000E+01 4.09070E+01 0.00000E+00
 -1      2697 1.66500E+01 3.96080E+01 0.00000E+00
 -1      2698 2.04000E+01 4.09070E+01 0.00000E+00
 -1      2699 2.19000E+01 4.09070E+01 0.00000E+00
 -1      2700 1.96500E+01 3.96080E+01 0.00000E+00
 -1      2701 2.34000E+01 4.09070E+01 0.00000E+00
 -1      2702 2.49000E+01 4.09070E+01 0.00000E+00
 -1      2703 2.26500E+01 3.96080E+01 0.00000E+00
 -1      2704 2.64000E+01 4.09070E+01 0.00000E+00
 -1      2705 2.79000E+01 4.09070E+01 0.00000E+00
 -1      2706 2.56500E+01 3.96080E+01 0.00000E+00
 -1      2707 2.94000E+01 4.09070E+01 0.00000E+00
 -1      2708 3.09000E+01 4.09070E+01 0.00000E+00
 -1      2709 2.86500E+01 3.96080E+01 0.00000E+00
 -1      2710 3.24000E+01 4.09070E+01 0.00000E+00
 -1      2711 3.39000E+01 4.09070E+01 0.00000E+00
 -1      2712 3.16500E+01 3.96080E+01 0.00000E+00
 -1      2713 3.54000E+01 4.09070E+01 0.00000E+00
 -1      2714 3.69000E+01 4.09070E+01 0.00000E+00
 -1      2715 3.46500E+01 3.96080E+01 0.00000E+00
 -1      2716 3.84000E+01 4.09070E+01 0.00000E+00
 -1      2717 3.99000E+01 4.09070E+01 0.00000E+00
 -1      2718 3.76500E+01 3.96080E+01 0.00000E+00
 -1      2719 4.14000E+01 4.09070E+01 0.00000E+00
 -1      2720 4.29000E+01 4.09070E+01 0.00000E+00
 -1      2721 4.06500E+01 3.96080E+01 0.00000E+00
 -1      2722 4.44000E+01 4.09070E+01 0.00000E+00
 -1      2723 4.59000E+01 4.09070E+01 0.00000E+00
 -1      2724 4.36500E+01 3.96080E+01 0.00000E+00
 -1      2725 4.74000E+01 4.09070E+01 0.00000E+00
 -1      2726 4.89000E+01 4.09070E+01 0.00000E+00
 -1      2727 4.66500E+01 3.96080E+01 0.00000E+00
 -1      2728 5.04000E+01 4.09070E+01 0.00000E+00
 -1      2729 5.19000E+01 4.09070E+01 0.00000E+00
 -1      2730 4.96500E+01 3.96080E+01 0.00000E+00
 -1      2731 5.34000E+01 4.09070E+01 0.00000E+00
 -1      2732 5.49000E+01 4.09070E+01 0.00000E+00
 -1      2733 5.26500E+01 3.96080E+01 0.00000E+00
 -1      2734 5.64000E+01 4.09070E+01 0.00000E+00
 -1      2735 5.79000E+01 4.09070E+01 0.00000E+00
 -1      2736 5.56500E+01 3.96080E+01 0.00000E+00
 -1      2737 5.94000E+01 4.09070E+01 0.00000E+00
 -1      2738 6.09000E+01 4.09070E+01 0.00000E+00
 -1      2739 5.86500E+01 3.96080E+01 0.00000E+00
 -1      2740 6.24000E+01 4.09070E+01 0.00000E+00
 -1      2741 6.39000E+01 4.09070E+01 0.00000E+00
 -1      2742 6.16500E+01 3.96080E+01 0.00000E+00
 -1      2743 6.54000E+01 4.09070E+01 0.00000E+00
 -1      2744 6.69000E+01 4.09070E+01 0.00000E+00
 -1      2745 6.46500E+01 3.96080E+01 0.00000E+00
 -1      2746 6.84000E+01 4.09070E+01 0.00000E+00
 -1      2747 6.99000E+01 4.09070E+01 0.00000E+00
 -1      2748 6.76500E+01 3.96080E+01 0.00000E+00
 -1      2749 7.14000E+01 4.09070E+01 0.00000E+00
 -1      2750 7.29000E+01 4.09070E+01 0.00000E+00
 -1      2751 7.06500E+01 3.96080E+01 0.00000E+00
 -1      2752 7.44000E+01 4.09070E+01 0.00000E+00
 -1      2753 7.59000E+01 4.09070E+01 0.00000E+00
 -1      2754 7.36500E+01 3.96080E+01 0.00000E+00
 -1      2755 7.74000E+01 4.09070E+01 0.00000E+00
 -1      2756 7.89000E+01 4.09070E+01 0.00000E+00
 -1      2757 7.66500E+01 3.96080E+01 0.00000E+00
 -1      2758 8.04000E+01 4.09070E+01 0.00000E+00
 -1      2759 8.19000E+01 4.09070E+01 0.00000E+00
 -1      2760 7.96500E+01 3.96080E+01 0.00000E+00
 -1      2761 8.34000E+01 4.09070E+01 0.00000E+00
 -1      2762 8.49000E+01 4.09070E+01 0.00000E+00
 -1      2763 8.26500E+01 3.96080E+01 0.00000E+00
 -1      2764 8.64000E+01 4.09070E+01 0.00000E+00
 -1      2765 8.79000E+01 4.09070E+01 0.00000E+00
 -1      2766 8.56500E+01 3.96080E+01 0.00000E+00
 -1      2767 8.94000E+01 4.09070E+01 0.00000E+00
 -1      2768 9.09000E+01 4.09070E+01 0.00000E+00
 -1      2769 8.86500E+01 3.96080E+01 0.00000E+00
 -1      2770 9.24000E+01 4.09070E+01 0.00000E+00
 -1      2771 9.39000E+01 4.09070E+01 0.00000E+00
 -1      2772 9.16500E+01 3.96080E+01 0.00000E+00
 -1      2773 9.54000E+01 4.09070E+01 0.00000E+00
 -1      2774 9.69000E+01 4.09070E+01 0.00000E+00
 -1      2775 9.46500E+01 3.96080E+01 0.00000E+00
 -1      2776 9.84000E+01 4.09070E+01 0.00000E+00
 -1      2777 9.99000E+01 4.09070E+01 0.00000E+00
 -1      2778 9.76500E+01 3.96080E+01 0.00000E+00
 -1      2779 1.01400E+02 4.09070E+01 0.00000E+00
 -1      2780 1.02900E+02 4.09070E+01 0.00000E+00
 -1      2781 1.00650E+02 3.96080E+01 0.00000E+00
 -1      2782 1.04400E+02 4.09070E+01 0.00000E+00
 -1      2783 1.05900E+02 4.09070E+01 0.00000E+00
 -1      2784 1.03650E+02 3.96080E+01 0.00000E+00
 -1      2785 1.07400E+02 4.09070E+01 0.00000E+00
 -1      2786 1.08900E+02 4.09070E+01 0.00000E+00
 -1      2787 1.06650E+02 3.96080E+01 0.00000E+00
 -1      2788 1.10400E+02 4.09070E+01 0.00000E+00
 -1      2789 1.11900E+02 4.09070E+01 0.00000E+00
 -1      2790 1.09650E+02 3.96080E+01 0.00000E+00
 -1      2791 1.13400E+02 4.09070E+01 0.00000E+00
 -1      2792 1.14900E+02 4.09070E+01 0.00000E+00
 -1      2793 1.12650E+02 3.96080E+01 0.00000E+00
 -1      2794 1.16400E+02 4.09070E+01 0.00000E+00
 -1      2795 1.17900E+02 4.09070E+01 0.00000E+00
 -1      2796 1.15650E+02 3.96080E+01 0.00000E+00
 -1      2797 1.19400E+02 4.09070E+01 0.00000E+00
 -1      2798 1.20900E+02 4.09070E+01 0.00000E+00
 -1      2799 1.18650E+02 3.96080E+01 0.00000E+00
 -1      2800 1.22400E+02 4.09070E+01 0.00000E+00
 -1      2801 1.23900E+02 4.09070E+01 0.00000E+00
 -1      2802 1.21650E+02 3.96080E+01 0.00000E+00
 -1      2803 1.25400E+02 4.09070E+01 0.00000E+00
 -1      2804 1.26900E+02 4.09070E+01 0.00000E+00
 -1      2805 1.24650E+02 3.96080E+01 0.00000E+00
 -1      2806 1.28400E+02 4.09070E+01 0.00000E+00
 -1      2807 1.29900E+02 4.09070E+01 0.00000E+00
 -1      2808 1.27650E+02 3.96080E+01 0.00000E+00
 -1      2809 1.31400E+02 4.09070E+01 0.00000E+00
 -1      2810 1.32900E+02 4.09070E+01 0.00000E+00
 -1      2811 1.30650E+02 3.96080E+01 0.00000E+00
 -1      2812 1.34400E+02 4.09070E+01 0.00000E+00
 -1      2813 1.35900E+02 4.09070E+01 0.00000E+00
 -1      2814 1.33650E+02 3.96080E+01 0.00000E+00
 -1      2815 1.37400E+02 4.09070E+01 0.00000E+00
 -1      2816 1.38900E+02 4.09070E+01 0.00000E+00
 -1      2817 1.36650E+02 3.96080E+01 0.00000E+00
 -1      2818 2.42850E+01 7.90325E+00 0.00000E+00
 -1      2819 2.27850E+01 7.90325E+00 0.00000E+00
 -1      2820 1.40706E+02 1.03250E+01 0.00000E+00
 -1      2821 1.40620E+02 8.46463E+00 0.00000E+00
 -1      2822 1.39120E+02 8.46463E+00 0.00000E+00
 -1      2823 2.12850E+01 7.90325E+00 0.00000E+00
 -1      2824 1.97850E+01 7.90325E+00 0.00000E+00
 -1      2825 2.20350E+01 9.20225E+00 0.00000E+00
 -1      2826 3.02850E+01 7.90325E+00 0.00000E+00
 -1      2827 2.87850E+01 7.90325E+00 0.00000E+00
 -1      2828 3.32850E+01 7.90325E+00 0.00000E+00
 -1      2829 3.17850E+01 7.90325E+00 0.00000E+00
 -1      2830 3.10350E+01 9.20225E+00 0.00000E+00
 -1      2831 3.62850E+01 7.90325E+00 0.00000E+00
 -1      2832 3.47850E+01 7.90325E+00 0.00000E+00
 -1      2833 3.40350E+01 9.20225E+00 0.00000E+00
 -1      2834 3.92850E+01 7.90325E+00 0.00000E+00
 -1      2835 3.77850E+01 7.90325E+00 0.00000E+00
 -1      2836 3.70350E+01 9.20225E+00 0.00000E+00
 -1      2837 4.22850E+01 7.90325E+00 0.00000E+00
 -1      2838 4.07850E+01 7.90325E+00 0.00000E+00
 -1      2839 4.00350E+01 9.20225E+00 0.00000E+00
 -1      2840 4.52850E+01 7.90325E+00 0.00000E+00
 -1      2841 4.37850E+01 7.90325E+00 0.00000E+00
 -1      2842 4.30350E+01 9.20225E+00 0.00000E+00
 -1      2843 4.82850E+01 7.90325E+00 0.00000E+00
 -1      2844 4.67850E+01 7.90325E+00 0.00000E+00
 -1      2845 4.60350E+01 9.20225E+00 0.00000E+00
 -1      2846 5.12850E+01 7.90325E+00 0.00000E+00
 -1      2847 4.97850E+01 7.90325E+00 0.00000E+00
 -1      2848 4.90350E+01 9.20225E+00 0.00000E+00
 -1      2849 5.42850E+01 7.90325E+00 0.00000E+00
 -1      2850 5.27850E+01 7.90325E+00 0.00000E+00
 -1      2851 5.20350E+01 9.20225E+00 0.00000E+00
 -1      2852 5.72850E+01 7.90325E+00 0.00000E+00
 -1      2853 5.57850E+01 7.90325E+00 0.00000E+00
 -1      2854 5.50350E+01 9.20225E+00 0.00000E+00
 -1      2855 6.02850E+01 7.90325E+00 0.00000E+00
 -1      2856 5.87850E+01 7.90325E+00 0.00000E+00
 -1      2857 5.80350E+01 9.20225E+00 0.00000E+00
 -1      2858 6.32850E+01 7.90325E+00 0.00000E+00
 -1      2859 6.17850E+01 7.90325E+00 0.00000E+00
 -1      2860 6.10350E+01 9.20225E+00 0.00000E+00
 -1      2861 6.62850E+01 7.90325E+00 0.00000E+00
 -1      2862 6.47850E+01 7.90325E+00 0.00000E+00
 -1      2863 6.40350E+01 9.20225E+00 0.00000E+00
 -1      2864 6.92850E+01 7.90325E+00 0.00000E+00
 -1      2865 6.77850E+01 7.90325E+00 0.00000E+00
 -1      2866 6.70350E+01 9.20225E+00 0.00000E+00
 -1      2867 7.22850E+01 7.90325E+00 0.00000E+00
 -1      2868 7.07850E+01 7.90325E+00 0.00000E+00
 -1      2869 7.00350E+01 9.20225E+00 0.00000E+00
 -1      2870 7.52850E+01 7.90325E+00 0.00000E+00
 -1      2871 7.37850E+01 7.90325E+00 0.00000E+00
 -1      2872 7.30350E+01 9.20225E+00 0.00000E+00
 -1      2873 7.82850E+01 7.90325E+00 0.00000E+00
 -1      2874 7.67850E+01 7.90325E+00 0.00000E+00
 -1      2875 7.60350E+01 9.20225E+00 0.00000E+00
 -1      2876 8.12850E+01 7.90325E+00 0.00000E+00
 -1      2877 7.97850E+01 7.90325E+00 0.00000E+00
 -1      2878 7.90350E+01 9.20225E+00 0.00000E+00
 -1      2879 8.42850E+01 7.90325E+00 0.00000E+00
 -1      2880 8.27850E+01 7.90325E+00 0.00000E+00
 -1      2881 8.20350E+01 9.20225E+00 0.00000E+00
 -1      2882 8.72850E+01 7.90325E+00 0.00000E+00
 -1      2883 8.57850E+01 7.90325E+00 0.00000E+00
 -1      2884 8.50350E+01 9.20225E+00 0.00000E+00
 -1      2885 9.02850E+01 7.90325E+00 0.00000E+00
 -1      2886 8.87850E+01 7.90325E+00 0.00000E+00
 -1      2887 8.80350E+01 9.20225E+00 0.00000E+00
 -1      2888 9.32850E+01 7.90325E+00 0.00000E+00
 -1      2889 9.17850E+01 7.90325E+00 0.00000E+00
 -1      2890 9.10350E+01 9.20225E+00 0.00000E+00
 -1      2891 9.62850E+01 7.90325E+00 0.00000E+00
 -1      2892 9.47850E+01 7.90325E+00 0.00000E+00
 -1      2893 9.40350E+01 9.20225E+00 0.00000E+00
 -1      2894 9.92850E+01 7.90325E+00 0.00000E+00
 -1      2895 9.77850E+01 7.90325E+00 0.00000E+00
 -1      2896 9.70350E+01 9.20225E+00 0.00000E+00
 -1      2897 1.02285E+02 7.90325E+00 0.00000E+00
 -1      2898 1.00785E+02 7.90325E+00 0.00000E+00
 -1      2899 1.00035E+02 9.20225E+00 0.00000E+00
 -1      2900 1.05285E+02 7.90325E+00 0.00000E+00
 -1      2901 1.03785E+02 7.90325E+00 0.00000E+00
 -1      2902 1.03035E+02 9.20225E+00 0.00000E+00
 -1      2903 1.09140E+02 8.74363E+00 0.00000E+00
 -1      2904 1.07640E+02 8.74363E+00 0.00000E+00
 -1      2905 1.14643E+02 7.95830E+00 0.00000E+00
 -1      2906 1.13143E+02 7.95830E+00 0.00000E+00
 -1      2907 1.20285E+02 7.71316E+00 0.00000E+00
 -1      2908 1.18785E+02 7.71316E+00 0.00000E+00
 -1      2909 1.23285E+02 7.71316E+00 0.00000E+00
 -1      2910 1.21785E+02 7.71316E+00 0.00000E+00
 -1      2911 1.21035E+02 8.82207E+00 0.00000E+00
 -1      2912 1.26285E+02 7.71316E+00 0.00000E+00
 -1      2913 1.24785E+02 7.71316E+00 0.00000E+00
 -1      2914 1.24035E+02 8.82207E+00 0.00000E+00
 -1      2915 1.29285E+02 7.71316E+00 0.00000E+00
 -1      2916 1.27785E+02 7.71316E+00 0.00000E+00
 -1      2917 1.27035E+02 8.82207E+00 0.00000E+00
 -1      2918 1.32285E+02 7.71316E+00 0.00000E+00
 -1      2919 1.30785E+02 7.71316E+00 0.00000E+00
 -1      2920 1.30035E+02 8.82207E+00 0.00000E+00
 -1      2921 1.35285E+02 7.71316E+00 0.00000E+00
 -1      2922 1.33785E+02 7.71316E+00 0.00000E+00
 -1      2923 1.33035E+02 8.82207E+00 0.00000E+00
 -1      2924 1.37953E+02 8.08889E+00 0.00000E+00
 -1      2925 1.36453E+02 8.08889E+00 0.00000E+00
 -1      2926 1.35703E+02 9.19780E+00 0.00000E+00
 -1      2927 1.38038E+02 9.94927E+00 0.00000E+00
 -1      2928 1.23846E+02 1.33474E+01 0.00000E+00
 -1      2929 1.24262E+02 1.44759E+01 0.00000E+00
 -1      2930 1.40907E+02 2.42875E+01 0.00000E+00
 -1      2931 1.40907E+02 2.28125E+01 0.00000E+00
 -1      2932 1.24432E+02 2.69923E+01 0.00000E+00
 -1      2933 1.23900E+02 2.78769E+01 0.00000E+00
 -1      2934 1.25377E+02 2.69622E+01 0.00000E+00
 -1      2935 1.40907E+02 1.83875E+01 0.00000E+00
 -1      2936 1.40907E+02 1.69125E+01 0.00000E+00
 -1      2937 1.40907E+02 2.72375E+01 0.00000E+00
 -1      2938 1.40907E+02 2.57625E+01 0.00000E+00
 -1      2939 1.39608E+02 2.50250E+01 0.00000E+00
 -1      2940 1.40907E+02 2.13375E+01 0.00000E+00
 -1      2941 1.40907E+02 1.98625E+01 0.00000E+00
 -1      2942 1.39608E+02 1.91250E+01 0.00000E+00
 -1      2943 1.39608E+02 2.20750E+01 0.00000E+00
 -1      2944 1.40907E+02 3.01375E+01 0.00000E+00
 -1      2945 1.40907E+02 2.86875E+01 0.00000E+00
 -1      2946 1.39608E+02 2.79500E+01 0.00000E+00
 -1      2947 1.40907E+02 3.30875E+01 0.00000E+00
 -1      2948 1.40907E+02 3.16125E+01 0.00000E+00
 -1      2949 1.39608E+02 3.08750E+01 0.00000E+00
 -1      2950 1.40907E+02 3.60375E+01 0.00000E+00
 -1      2951 1.40907E+02 3.45625E+01 0.00000E+00
 -1      2952 1.39608E+02 3.38250E+01 0.00000E+00
 -1      2953 1.24838E+02 1.53525E+01 0.00000E+00
 -1      2954 1.25413E+02 1.62290E+01 0.00000E+00
 -1      2955 1.25434E+02 1.44914E+01 0.00000E+00
 -1      2956 1.26298E+02 2.02303E+01 0.00000E+00
 -1      2957 1.26396E+02 2.11788E+01 0.00000E+00
 -1      2958 1.19324E+02 3.19716E+01 0.00000E+00
 -1      2959 1.18115E+02 3.24673E+01 0.00000E+00
 -1      2960 9.32250E+00 4.05749E+01 0.00000E+00
 -1      2961 1.06860E+01 4.08389E+01 0.00000E+00
 -1      2962 1.21860E+01 4.08389E+01 0.00000E+00
 -1      2963 9.25800E+00 3.81046E+01 0.00000E+00
 -1      2964 1.11935E+02 3.25480E+01 0.00000E+00
 -1      2965 1.10777E+02 3.23726E+01 0.00000E+00
 -1      2966 1.03035E+02 1.74827E+01 0.00000E+00
 -1      2967 1.03194E+02 1.63392E+01 0.00000E+00
 -1      2968 1.15581E+02 8.09056E+00 0.00000E+00
 -1      2969 1.82850E+01 7.90325E+00 0.00000E+00
 -1      2970 1.67850E+01 7.90325E+00 0.00000E+00
 -1      2971 1.90350E+01 9.20225E+00 0.00000E+00
 -1      2972 1.12161E+02 9.51305E+00 0.00000E+00
 -1      2973 1.13003E+02 1.00686E+01 0.00000E+00
 -1      2974 2.72850E+01 7.90325E+00 0.00000E+00
 -1      2975 2.57850E+01 7.90325E+00 0.00000E+00
 -1      2976 2.50350E+01 9.20225E+00 0.00000E+00
 -1      2977 2.80350E+01 9.20225E+00 0.00000E+00
 -1      2978 1.52850E+01 7.90325E+00 0.00000E+00
 -1      2979 1.37850E+01 7.90325E+00 0.00000E+00
 -1      2980 1.30350E+01 9.20225E+00 0.00000E+00
 -1      2981 1.60350E+01 9.20225E+00 0.00000E+00
 -1      2982 1.09419E+02 3.20000E+01 0.00000E+00
 -1      2983 1.08278E+02 3.15436E+01 0.00000E+00
 -1      2984 1.17068E+02 9.04361E+00 0.00000E+00
 -1      2985 1.18281E+02 9.55668E+00 0.00000E+00
 -1      2986 9.09300E+00 1.68813E+01 0.00000E+00
 -1      2987 9.09300E+00 1.83563E+01 0.00000E+00
 -1      2988 1.03920E+01 1.90812E+01 0.00000E+00
 -1      2989 1.03920E+01 1.61437E+01 0.00000E+00
 -1      2990 1.03629E+02 1.50607E+01 0.00000E+00
 -1      2991 1.04038E+02 1.41078E+01 0.00000E+00
 -1      2992 9.09300E+00 3.15875E+01 0.00000E+00
 -1      2993 9.09300E+00 3.30625E+01 0.00000E+00
 -1      2994 1.19044E+02 9.71254E+00 0.00000E+00
 -1      2995 1.19982E+02 1.01627E+01 0.00000E+00
 -1      2996 1.02382E+02 2.20969E+01 0.00000E+00
 -1      2997 1.02356E+02 2.11249E+01 0.00000E+00
 -1      2998 1.40928E+02 4.09655E+01 0.00000E+00
 -1      2999 1.41192E+02 3.96958E+01 0.00000E+00
 -1      3000 1.39914E+02 4.09362E+01 0.00000E+00
 -1      3001 1.05242E+02 2.89658E+01 0.00000E+00
 -1      3002 1.04570E+02 2.79660E+01 0.00000E+00
 -1      3003 1.07018E+02 3.08048E+01 0.00000E+00
 -1      3004 1.06134E+02 3.00777E+01 0.00000E+00
 -1      3005 1.14130E+02 3.26768E+01 0.00000E+00
 -1      3006 1.13091E+02 3.25698E+01 0.00000E+00
 -1      3007 1.16580E+02 3.28876E+01 0.00000E+00
 -1      3008 1.15369E+02 3.29249E+01 0.00000E+00
 -1      3009 1.21316E+02 3.08935E+01 0.00000E+00
 -1      3010 1.20541E+02 3.14287E+01 0.00000E+00
 -1      3011 1.03879E+02 2.68976E+01 0.00000E+00
 -1      3012 1.03470E+02 2.59627E+01 0.00000E+00
 -1      3013 1.21638E+02 1.09701E+01 0.00000E+00
 -1      3014 1.22840E+02 1.17584E+01 0.00000E+00
 -1      3015 1.06890E+02 1.00426E+01 0.00000E+00
 -1      3016 9.09300E+00 3.45313E+01 0.00000E+00
 -1      3017 9.09300E+00 3.60000E+01 0.00000E+00
 -1      3018 1.03920E+01 3.37938E+01 0.00000E+00
 -1      3019 1.03920E+01 2.49750E+01 0.00000E+00
 -1      3020 9.09300E+00 2.57000E+01 0.00000E+00
 -1      3021 9.09300E+00 2.71750E+01 0.00000E+00
 -1      3022 1.09857E+02 3.30184E+01 0.00000E+00
 -1      3023 1.24055E+02 2.89453E+01 0.00000E+00
 -1      3024 1.26903E+02 2.20267E+01 0.00000E+00
 -1      3025 1.26929E+02 2.42622E+01 0.00000E+00
 -1      3026 1.26174E+02 2.47658E+01 0.00000E+00
 -1      3027 1.26664E+02 2.55741E+01 0.00000E+00
 -1      3028 1.03013E+02 1.32062E+01 0.00000E+00
 -1      3029 1.04082E+02 1.31012E+01 0.00000E+00
 -1      3030 1.04127E+02 1.20946E+01 0.00000E+00
 -1      3031 1.22388E+02 3.10243E+01 0.00000E+00
 -1      3032 1.39164E+02 3.96372E+01 0.00000E+00
 -1      3033 1.11285E+02 7.71316E+00 0.00000E+00
 -1      3034 1.09785E+02 7.71316E+00 0.00000E+00
 -1      3035 1.17081E+02 8.09056E+00 0.00000E+00
 -1      3036 1.13653E+02 9.19365E+00 0.00000E+00
 -1      3037 1.03503E+02 2.78760E+01 0.00000E+00
 -1      3038 1.40706E+02 1.17875E+01 0.00000E+00
 -1      3039 1.20294E+02 3.25475E+01 0.00000E+00
 -1      3040 1.17541E+02 3.35106E+01 0.00000E+00
 -1      3041 1.26120E+02 1.67977E+01 0.00000E+00
 -1      3042 1.26828E+02 1.73663E+01 0.00000E+00
 -1      3043 1.26717E+02 1.59366E+01 0.00000E+00
 -1      3044 1.41192E+02 3.82207E+01 0.00000E+00
 -1      3045 1.14766E+02 3.36828E+01 0.00000E+00
 -1      3046 1.29360E+01 3.95399E+01 0.00000E+00
 -1      3047 1.26799E+02 1.94134E+01 0.00000E+00
 -1      3048 1.07238E+02 3.19070E+01 0.00000E+00
 -1      3049 1.01998E+02 2.29209E+01 0.00000E+00
 -1      3050 1.01128E+02 2.24577E+01 0.00000E+00
 -1      3051 1.01615E+02 2.37450E+01 0.00000E+00
 -1      3052 1.02225E+02 1.79576E+01 0.00000E+00
 -1      3053 1.02648E+02 2.55079E+01 0.00000E+00
 -1      3054 1.02534E+02 1.54913E+01 0.00000E+00
 -1      3055 1.39529E+02 3.85602E+01 0.00000E+00
 -1      3056 1.40542E+02 3.71145E+01 0.00000E+00
 -1      3057 1.39243E+02 3.63770E+01 0.00000E+00
 -1      3058 1.38514E+02 3.85310E+01 0.00000E+00
 -1      3059 9.66450E+00 9.72612E+00 0.00000E+00
 -1      3060 1.01932E+02 2.03895E+01 0.00000E+00
 -1      3061 1.01507E+02 1.96542E+01 0.00000E+00
 -1      3062 1.01087E+02 2.08983E+01 0.00000E+00
 -1      3063 1.10901E+02 9.38661E+00 0.00000E+00
 -1      3064 1.11795E+02 8.94850E+00 0.00000E+00
 -1      3065 1.40907E+02 1.54500E+01 0.00000E+00
 -1      3066 1.40907E+02 1.39875E+01 0.00000E+00
 -1      3067 1.39608E+02 1.61875E+01 0.00000E+00
 -1      3068 9.09300E+00 2.86437E+01 0.00000E+00
 -1      3069 9.09300E+00 3.01187E+01 0.00000E+00
 -1      3070 1.03920E+01 3.08563E+01 0.00000E+00
 -1      3071 1.03920E+01 2.79188E+01 0.00000E+00
 -1      3072 1.12371E+02 3.34128E+01 0.00000E+00
 -1      3073 1.05086E+02 3.00563E+01 0.00000E+00
 -1      3074 1.09635E+01 1.04636E+01 0.00000E+00
 -1      3075 1.09890E+02 9.85254E+00 0.00000E+00
 -1      3076 1.16910E+01 1.24625E+01 0.00000E+00
 -1      3077 1.16910E+01 1.39375E+01 0.00000E+00
 -1      3078 1.25282E+02 2.89945E+01 0.00000E+00
 -1      3079 1.24492E+02 3.00931E+01 0.00000E+00
 -1      3080 1.89000E+01 3.83090E+01 0.00000E+00
 -1      3081 2.04000E+01 3.83090E+01 0.00000E+00
 -1      3082 2.19000E+01 3.83090E+01 0.00000E+00
 -1      3083 2.34000E+01 3.83090E+01 0.00000E+00
 -1      3084 2.11500E+01 3.70100E+01 0.00000E+00
 -1      3085 2.49000E+01 3.83090E+01 0.00000E+00
 -1      3086 2.64000E+01 3.83090E+01 0.00000E+00
 -1      3087 2.41500E+01 3.70100E+01 0.00000E+00
 -1      3088 2.79000E+01 3.83090E+01 0.00000E+00
 -1      3089 2.94000E+01 3.83090E+01 0.00000E+00
 -1      3090 2.71500E+01 3.70100E+01 0.00000E+00
 -1      3091 3.09000E+01 3.83090E+01 0.00000E+00
 -1      3092 3.24000E+01 3.83090E+01 0.00000E+00
 -1      3093 3.01500E+01 3.70100E+01 0.00000E+00
 -1      3094 3.39000E+01 3.83090E+01 0.00000E+00
 -1      3095 3.54000E+01 3.83090E+01 0.00000E+00
 -1      3096 3.31500E+01 3.70100E+01 0.00000E+00
 -1      3097 3.69000E+01 3.83090E+01 0.00000E+00
 -1      3098 3.84000E+01 3.83090E+01 0.00000E+00
 -1      3099 3.61500E+01 3.70100E+01 0.00000E+00
 -1      3100 3.99000E+01 3.83090E+01 0.00000E+00
 -1      3101 4.14000E+01 3.83090E+01 0.00000E+00
 -1      3102 3.91500E+01 3.70100E+01 0.00000E+00
 -1      3103 4.29000E+01 3.83090E+01 0.00000E+00
 -1      3104 4.44000E+01 3.83090E+01 0.00000E+00
 -1      3105 4.21500E+01 3.70100E+01 0.00000E+00
 -1      3106 4.59000E+01 3.83090E+01 0.00000E+00
 -1      3107 4.74000E+01 3.83090E+01 0.00000E+00
 -1      3108 4.51500E+01 3.70100E+01 0.00000E+00
 -1      3109 4.89000E+01 3.83090E+01 0.00000E+00
 -1      3110 5.04000E+01 3.83090E+01 0.00000E+00
 -1      3111 4.81500E+01 3.70100E+01 0.00000E+00
 -1      3112 5.19000E+01 3.83090E+01 0.00000E+00
 -1      3113 5.34000E+01 3.83090E+01 0.00000E+00
 -1      3114 5.11500E+01 3.70100E+01 0.00000E+00
 -1      3115 5.49000E+01 3.83090E+01 0.00000E+00
 -1      3116 5.64000E+01 3.83090E+01 0.00000E+00
 -1      3117 5.41500E+01 3.70100E+01 0.00000E+00
 -1      3118 5.79000E+01 3.83090E+01 0.00000E+00
 -1      3119 5.94000E+01 3.83090E+01 0.00000E+00
 -1      3120 5.71500E+01 3.70100E+01 0.00000E+00
 -1      3121 6.09000E+01 3.83090E+01 0.00000E+00
 -1      3122 6.24000E+01 3.83090E+01 0.00000E+00
 -1      3123 6.01500E+01 3.70100E+01 0.00000E+00
 -1      3124 6.39000E+01 3.83090E+01 0.00000E+00
 -1      3125 6.54000E+01 3.83090E+01 0.00000E+00
 -1      3126 6.31500E+01 3.70100E+01 0.00000E+00
 -1      3127 6.69000E+01 3.83090E+01 0.00000E+00
 -1      3128 6.84000E+01 3.83090E+01 0.00000E+00
 -1      3129 6.61500E+01 3.70100E+01 0.00000E+00
 -1      3130 6.99000E+01 3.83090E+01 0.00000E+00
 -1      3131 7.14000E+01 3.83090E+01 0.00000E+00
 -1      3132 6.91500E+01 3.70100E+01 0.00000E+00
 -1      3133 7.29000E+01 3.83090E+01 0.00000E+00
 -1      3134 7.44000E+01 3.83090E+01 0.00000E+00
 -1      3135 7.21500E+01 3.70100E+01 0.00000E+00
 -1      3136 7.59000E+01 3.83090E+01 0.00000E+00
 -1      3137 7.74000E+01 3.83090E+01 0.00000E+00
 -1      3138 7.51500E+01 3.70100E+01 0.00000E+00
 -1      3139 7.89000E+01 3.83090E+01 0.00000E+00
 -1      3140 8.04000E+01 3.83090E+01 0.00000E+00
 -1      3141 7.81500E+01 3.70100E+01 0.00000E+00
 -1      3142 8.19000E+01 3.83090E+01 0.00000E+00
 -1      3143 8.34000E+01 3.83090E+01 0.00000E+00
 -1      3144 8.11500E+01 3.70100E+01 0.00000E+00
 -1      3145 8.49000E+01 3.83090E+01 0.00000E+00
 -1      3146 8.64000E+01 3.83090E+01 0.00000E+00
 -1      3147 8.41500E+01 3.70100E+01 0.00000E+00
 -1      3148 8.79000E+01 3.83090E+01 0.00000E+00
 -1      3149 8.94000E+01 3.83090E+01 0.00000E+00
 -1      3150 8.71500E+01 3.70100E+01 0.00000E+00
 -1      3151 9.09000E+01 3.83090E+01 0.00000E+00
 -1      3152 9.24000E+01 3.83090E+01 0.00000E+00
 -1      3153 9.01500E+01 3.70100E+01 0.00000E+00
 -1      3154 9.39000E+01 3.83090E+01 0.00000E+00
 -1      3155 9.54000E+01 3.83090E+01 0.00000E+00
 -1      3156 9.31500E+01 3.70100E+01 0.00000E+00
 -1      3157 9.69000E+01 3.83090E+01 0.00000E+00
 -1      3158 9.84000E+01 3.83090E+01 0.00000E+00
 -1      3159 9.61500E+01 3.70100E+01 0.00000E+00
 -1      3160 9.99000E+01 3.83090E+01 0.00000E+00
 -1      3161 1.01400E+02 3.83090E+01 0.00000E+00
 -1      3162 9.91500E+01 3.70100E+01 0.00000E+00
 -1      3163 1.02900E+02 3.83090E+01 0.00000E+00
 -1      3164 1.04400E+02 3.83090E+01 0.00000E+00
 -1      3165 1.02150E+02 3.70100E+01 0.00000E+00
 -1      3166 1.05900E+02 3.83090E+01 0.00000E+00
 -1      3167 1.07400E+02 3.83090E+01 0.00000E+00
 -1      3168 1.05150E+02 3.70100E+01 0.00000E+00
 -1      3169 1.08900E+02 3.83090E+01 0.00000E+00
 -1      3170 1.10400E+02 3.83090E+01 0.00000E+00
 -1      3171 1.08150E+02 3.70100E+01 0.00000E+00
 -1      3172 1.11900E+02 3.83090E+01 0.00000E+00
 -1      3173 1.13400E+02 3.83090E+01 0.00000E+00
 -1      3174 1.11150E+02 3.70100E+01 0.00000E+00
 -1      3175 1.14900E+02 3.83090E+01 0.00000E+00
 -1      3176 1.16400E+02 3.83090E+01 0.00000E+00
 -1      3177 1.14150E+02 3.70100E+01 0.00000E+00
 -1      3178 1.17900E+02 3.83090E+01 0.00000E+00
 -1      3179 1.19400E+02 3.83090E+01 0.00000E+00
 -1      3180 1.17150E+02 3.70100E+01 0.00000E+00
 -1      3181 1.20900E+02 3.83090E+01 0.00000E+00
 -1      3182 1.22400E+02 3.83090E+01 0.00000E+00
 -1      3183 1.20150E+02 3.70100E+01 0.00000E+00
 -1      3184 1.23900E+02 3.83090E+01 0.00000E+00
 -1      3185 1.25400E+02 3.83090E+01 0.00000E+00
 -1      3186 1.23150E+02 3.70100E+01 0.00000E+00
 -1      3187 1.26900E+02 3.83090E+01 0.00000E+00
 -1      3188 1.28400E+02 3.83090E+01 0.00000E+00
 -1      3189 1.26150E+02 3.70100E+01 0.00000E+00
 -1      3190 1.29900E+02 3.83090E+01 0.00000E+00
 -1      3191 1.31400E+02 3.83090E+01 0.00000E+00
 -1      3192 1.29150E+02 3.70100E+01 0.00000E+00
 -1      3193 1.32900E+02 3.83090E+01 0.00000E+00
 -1      3194 1.34400E+02 3.83090E+01 0.00000E+00
 -1      3195 1.32150E+02 3.70100E+01 0.00000E+00
 -1      3196 1.35707E+02 3.84200E+01 0.00000E+00
 -1      3197 1.37207E+02 3.84200E+01 0.00000E+00
 -1      3198 1.37572E+02 3.73430E+01 0.00000E+00
 -1      3199 1.34957E+02 3.71210E+01 0.00000E+00
 -1      3200 2.27850E+01 1.05013E+01 0.00000E+00
 -1      3201 2.12850E+01 1.05013E+01 0.00000E+00
 -1      3202 1.21191E+02 9.62951E+00 0.00000E+00
 -1      3203 3.47850E+01 1.05013E+01 0.00000E+00
 -1      3204 3.32850E+01 1.05013E+01 0.00000E+00
 -1      3205 3.17850E+01 1.05013E+01 0.00000E+00
 -1      3206 3.02850E+01 1.05013E+01 0.00000E+00
 -1      3207 3.25350E+01 1.18003E+01 0.00000E+00
 -1      3208 4.07850E+01 1.05013E+01 0.00000E+00
 -1      3209 3.92850E+01 1.05013E+01 0.00000E+00
 -1      3210 4.37850E+01 1.05013E+01 0.00000E+00
 -1      3211 4.22850E+01 1.05013E+01 0.00000E+00
 -1      3212 4.15350E+01 1.18003E+01 0.00000E+00
 -1      3213 4.67850E+01 1.05013E+01 0.00000E+00
 -1      3214 4.52850E+01 1.05013E+01 0.00000E+00
 -1      3215 4.45350E+01 1.18003E+01 0.00000E+00
 -1      3216 4.97850E+01 1.05013E+01 0.00000E+00
 -1      3217 4.82850E+01 1.05013E+01 0.00000E+00
 -1      3218 4.75350E+01 1.18003E+01 0.00000E+00
 -1      3219 5.27850E+01 1.05013E+01 0.00000E+00
 -1      3220 5.12850E+01 1.05013E+01 0.00000E+00
 -1      3221 5.05350E+01 1.18003E+01 0.00000E+00
 -1      3222 5.57850E+01 1.05013E+01 0.00000E+00
 -1      3223 5.42850E+01 1.05013E+01 0.00000E+00
 -1      3224 5.35350E+01 1.18003E+01 0.00000E+00
 -1      3225 5.87850E+01 1.05013E+01 0.00000E+00
 -1      3226 5.72850E+01 1.05013E+01 0.00000E+00
 -1      3227 5.65350E+01 1.18003E+01 0.00000E+00
 -1      3228 6.17850E+01 1.05013E+01 0.00000E+00
 -1      3229 6.02850E+01 1.05013E+01 0.00000E+00
 -1      3230 5.95350E+01 1.18003E+01 0.00000E+00
 -1      3231 6.47850E+01 1.05013E+01 0.00000E+00
 -1      3232 6.32850E+01 1.05013E+01 0.00000E+00
 -1      3233 6.25350E+01 1.18003E+01 0.00000E+00
 -1      3234 6.77850E+01 1.05013E+01 0.00000E+00
 -1      3235 6.62850E+01 1.05013E+01 0.00000E+00
 -1      3236 6.55350E+01 1.18003E+01 0.00000E+00
 -1      3237 7.07850E+01 1.05013E+01 0.00000E+00
 -1      3238 6.92850E+01 1.05013E+01 0.00000E+00
 -1      3239 6.85350E+01 1.18003E+01 0.00000E+00
 -1      3240 7.37850E+01 1.05013E+01 0.00000E+00
 -1      3241 7.22850E+01 1.05013E+01 0.00000E+00
 -1      3242 7.15350E+01 1.18003E+01 0.00000E+00
 -1      3243 7.67850E+01 1.05013E+01 0.00000E+00
 -1      3244 7.52850E+01 1.05013E+01 0.00000E+00
 -1      3245 7.45350E+01 1.18003E+01 0.00000E+00
 -1      3246 7.97850E+01 1.05013E+01 0.00000E+00
 -1      3247 7.82850E+01 1.05013E+01 0.00000E+00
 -1      3248 7.75350E+01 1.18003E+01 0.00000E+00
 -1      3249 8.27850E+01 1.05013E+01 0.00000E+00
 -1      3250 8.12850E+01 1.05013E+01 0.00000E+00
 -1      3251 8.05350E+01 1.18003E+01 0.00000E+00
 -1      3252 8.57850E+01 1.05013E+01 0.00000E+00
 -1      3253 8.42850E+01 1.05013E+01 0.00000E+00
 -1      3254 8.35350E+01 1.18003E+01 0.00000E+00
 -1      3255 8.87850E+01 1.05013E+01 0.00000E+00
 -1      3256 8.72850E+01 1.05013E+01 0.00000E+00
 -1      3257 8.65350E+01 1.18003E+01 0.00000E+00
 -1      3258 9.17850E+01 1.05013E+01 0.00000E+00
 -1      3259 9.02850E+01 1.05013E+01 0.00000E+00
 -1      3260 8.95350E+01 1.18003E+01 0.00000E+00
 -1      3261 9.47850E+01 1.05013E+01 0.00000E+00
 -1      3262 9.32850E+01 1.05013E+01 0.00000E+00
 -1      3263 9.25350E+01 1.18003E+01 0.00000E+00
 -1      3264 9.77850E+01 1.05013E+01 0.00000E+00
 -1      3265 9.62850E+01 1.05013E+01 0.00000E+00
 -1      3266 9.55350E+01 1.18003E+01 0.00000E+00
 -1      3267 1.00785E+02 1.05013E+01 0.00000E+00
 -1      3268 9.92850E+01 1.05013E+01 0.00000E+00
 -1      3269 9.85350E+01 1.18003E+01 0.00000E+00
 -1      3270 1.03796E+02 1.07010E+01 0.00000E+00
 -1      3271 1.02296E+02 1.07010E+01 0.00000E+00
 -1      3272 1.18022E+02 7.55730E+00 0.00000E+00
 -1      3273 1.18772E+02 8.66621E+00 0.00000E+00
 -1      3274 1.30785E+02 1.01211E+01 0.00000E+00
 -1      3275 1.29285E+02 1.01211E+01 0.00000E+00
 -1      3276 1.33785E+02 1.01211E+01 0.00000E+00
 -1      3277 1.32285E+02 1.01211E+01 0.00000E+00
 -1      3278 1.31535E+02 1.14201E+01 0.00000E+00
 -1      3279 1.23558E+02 1.23845E+01 0.00000E+00
 -1      3280 1.24571E+02 1.26520E+01 0.00000E+00
 -1      3281 1.38309E+02 2.86750E+01 0.00000E+00
 -1      3282 1.38309E+02 2.72250E+01 0.00000E+00
 -1      3283 1.28110E+02 2.16297E+01 0.00000E+00
 -1      3284 1.27647E+02 2.30569E+01 0.00000E+00
 -1      3285 1.38309E+02 3.45625E+01 0.00000E+00
 -1      3286 1.38309E+02 3.30875E+01 0.00000E+00
 -1      3287 1.38309E+02 2.57500E+01 0.00000E+00
 -1      3288 1.38309E+02 2.42750E+01 0.00000E+00
 -1      3289 1.37010E+02 2.64750E+01 0.00000E+00
 -1      3290 1.25933E+02 1.35366E+01 0.00000E+00
 -1      3291 1.26509E+02 1.44132E+01 0.00000E+00
 -1      3292 1.05570E+01 3.73671E+01 0.00000E+00
 -1      3293 1.27395E+02 1.85524E+01 0.00000E+00
 -1      3294 1.27963E+02 1.97384E+01 0.00000E+00
 -1      3295 1.27992E+02 1.76913E+01 0.00000E+00
 -1      3296 1.38309E+02 3.16187E+01 0.00000E+00
 -1      3297 1.38309E+02 3.01437E+01 0.00000E+00
 -1      3298 1.37010E+02 2.94188E+01 0.00000E+00
 -1      3299 1.37010E+02 3.23563E+01 0.00000E+00
 -1      3300 1.01381E+02 1.84664E+01 0.00000E+00
 -1      3301 1.01255E+02 1.72786E+01 0.00000E+00
 -1      3302 1.00537E+02 1.89751E+01 0.00000E+00
 -1      3303 1.26346E+02 2.72255E+01 0.00000E+00
 -1      3304 1.25814E+02 2.81100E+01 0.00000E+00
 -1      3305 1.26251E+02 2.92578E+01 0.00000E+00
 -1      3306 1.27771E+02 1.11402E+01 0.00000E+00
 -1      3307 1.26271E+02 1.11402E+01 0.00000E+00
 -1      3308 1.97850E+01 1.05013E+01 0.00000E+00
 -1      3309 1.82850E+01 1.05013E+01 0.00000E+00
 -1      3310 2.05350E+01 1.18003E+01 0.00000E+00
 -1      3311 1.10287E+02 3.41125E+01 0.00000E+00
 -1      3312 1.08929E+02 3.37398E+01 0.00000E+00
 -1      3313 1.23653E+02 3.12734E+01 0.00000E+00
 -1      3314 1.22776E+02 3.22538E+01 0.00000E+00
 -1      3315 3.77850E+01 1.05013E+01 0.00000E+00
 -1      3316 3.62850E+01 1.05013E+01 0.00000E+00
 -1      3317 3.55350E+01 1.18003E+01 0.00000E+00
 -1      3318 3.85350E+01 1.18003E+01 0.00000E+00
 -1      3319 1.01796E+02 2.62752E+01 0.00000E+00
 -1      3320 1.01633E+02 2.49755E+01 0.00000E+00
 -1      3321 1.21422E+02 3.34419E+01 0.00000E+00
 -1      3322 1.20205E+02 3.39848E+01 0.00000E+00
 -1      3323 1.04866E+02 1.05959E+01 0.00000E+00
 -1      3324 1.05866E+02 1.05812E+01 0.00000E+00
 -1      3325 1.12929E+02 3.44487E+01 0.00000E+00
 -1      3326 1.11774E+02 3.44269E+01 0.00000E+00
 -1      3327 1.07308E+02 3.32331E+01 0.00000E+00
 -1      3328 1.06047E+02 3.24943E+01 0.00000E+00
 -1      3329 1.03058E+02 2.89216E+01 0.00000E+00
 -1      3330 1.02367E+02 2.78531E+01 0.00000E+00
 -1      3331 1.26488E+01 1.02017E+01 0.00000E+00
 -1      3332 1.20772E+01 1.14631E+01 0.00000E+00
 -1      3333 1.33763E+01 1.22006E+01 0.00000E+00
 -1      3334 1.41488E+01 1.02017E+01 0.00000E+00
 -1      3335 1.04667E+02 3.13060E+01 0.00000E+00
 -1      3336 1.03775E+02 3.01941E+01 0.00000E+00
 -1      3337 1.27710E+01 3.74352E+01 0.00000E+00
 -1      3338 1.49850E+01 3.75034E+01 0.00000E+00
 -1      3339 1.26060E+01 3.53306E+01 0.00000E+00
 -1      3340 1.61925E+01 3.79062E+01 0.00000E+00
 -1      3341 1.76925E+01 3.79062E+01 0.00000E+00
 -1      3342 1.84425E+01 3.66072E+01 0.00000E+00
 -1      3343 1.60275E+01 3.58016E+01 0.00000E+00
 -1      3344 1.18580E+02 3.42893E+01 0.00000E+00
 -1      3345 1.17045E+02 3.47095E+01 0.00000E+00
 -1      3346 1.01346E+02 1.58008E+01 0.00000E+00
 -1      3347 1.01780E+02 1.45223E+01 0.00000E+00
 -1      3348 1.16910E+01 2.12875E+01 0.00000E+00
 -1      3349 1.16910E+01 2.27625E+01 0.00000E+00
 -1      3350 1.39407E+02 1.25250E+01 0.00000E+00
 -1      3351 1.23565E+02 1.10630E+01 0.00000E+00
 -1      3352 1.16910E+01 2.42375E+01 0.00000E+00
 -1      3353 1.16910E+01 2.57125E+01 0.00000E+00
 -1      3354 1.29900E+01 2.35000E+01 0.00000E+00
 -1      3355 1.24880E+02 3.13226E+01 0.00000E+00
 -1      3356 1.07738E+02 3.43272E+01 0.00000E+00
 -1      3357 1.28136E+02 2.38652E+01 0.00000E+00
 -1      3358 1.02639E+02 3.01713E+01 0.00000E+00
 -1      3359 1.12545E+02 7.83959E+00 0.00000E+00
 -1      3360 1.69669E+01 1.03515E+01 0.00000E+00
 -1      3361 1.54669E+01 1.03515E+01 0.00000E+00
 -1      3362 1.50806E+01 1.13509E+01 0.00000E+00
 -1      3363 1.77169E+01 1.16505E+01 0.00000E+00
 -1      3364 1.27856E+02 2.62183E+01 0.00000E+00
 -1      3365 1.27101E+02 2.67219E+01 0.00000E+00
 -1      3366 1.27538E+02 2.78696E+01 0.00000E+00
 -1      3367 1.01351E+02 2.73208E+01 0.00000E+00
 -1      3368 1.00336E+02 2.67885E+01 0.00000E+00
 -1      3369 1.00907E+02 2.83664E+01 0.00000E+00
 -1      3370 2.95350E+01 1.18003E+01 0.00000E+00
 -1      3371 2.87850E+01 1.05013E+01 0.00000E+00
 -1      3372 2.72850E+01 1.05013E+01 0.00000E+00
 -1      3373 1.01546E+02 1.20000E+01 0.00000E+00
 -1      3374 1.26060E+01 3.23931E+01 0.00000E+00
 -1      3375 1.26060E+01 3.38619E+01 0.00000E+00
 -1      3376 1.48200E+01 3.39300E+01 0.00000E+00
 -1      3377 1.29303E+02 1.99076E+01 0.00000E+00
 -1      3378 1.28707E+02 2.07686E+01 0.00000E+00
 -1      3379 1.29450E+02 2.17988E+01 0.00000E+00
 -1      3380 1.34953E+02 1.04968E+01 0.00000E+00
 -1      3381 1.34203E+02 1.17958E+01 0.00000E+00
 -1      3382 1.36120E+02 1.08725E+01 0.00000E+00
 -1      3383 1.25646E+02 1.25737E+01 0.00000E+00
 -1      3384 1.27715E+02 1.40269E+01 0.00000E+00
 -1      3385 1.27216E+02 1.49818E+01 0.00000E+00
 -1      3386 1.27923E+02 1.55504E+01 0.00000E+00
 -1      3387 1.38239E+02 1.21493E+01 0.00000E+00
 -1      3388 1.37072E+02 1.17735E+01 0.00000E+00
 -1      3389 1.38440E+02 1.43493E+01 0.00000E+00
 -1      3390 1.38309E+02 1.98625E+01 0.00000E+00
 -1      3391 1.38309E+02 1.83875E+01 0.00000E+00
 -1      3392 1.00502E+02 1.63095E+01 0.00000E+00
 -1      3393 1.38309E+02 2.28062E+01 0.00000E+00
 -1      3394 1.38309E+02 2.13312E+01 0.00000E+00
 -1      3395 1.37010E+02 2.05938E+01 0.00000E+00
 -1      3396 1.37010E+02 2.35313E+01 0.00000E+00
 -1      3397 1.28521E+02 1.24392E+01 0.00000E+00
 -1      3398 1.38375E+02 1.70996E+01 0.00000E+00
 -1      3399 1.38375E+02 1.56371E+01 0.00000E+00
 -1      3400 1.37207E+02 1.52614E+01 0.00000E+00
 -1      3401 1.37076E+02 1.78371E+01 0.00000E+00
 -1      3402 1.00762E+02 2.45123E+01 0.00000E+00
 -1      3403 1.26060E+01 3.09244E+01 0.00000E+00
 -1      3404 1.48200E+01 3.09925E+01 0.00000E+00
 -1      3405 1.26060E+01 2.94556E+01 0.00000E+00
 -1      3406 2.42850E+01 1.05013E+01 0.00000E+00
 -1      3407 2.35350E+01 1.18003E+01 0.00000E+00
 -1      3408 2.57850E+01 1.05013E+01 0.00000E+00
 -1      3409 1.10846E+02 3.51483E+01 0.00000E+00
 -1      3410 1.22687E+02 3.36910E+01 0.00000E+00
 -1      3411 1.00704E+02 2.17224E+01 0.00000E+00
 -1      3412 1.00279E+02 2.09870E+01 0.00000E+00
 -1      3413 1.00320E+02 2.25465E+01 0.00000E+00
 -1      3414 1.29900E+01 1.46687E+01 0.00000E+00
 -1      3415 1.16910E+01 1.54063E+01 0.00000E+00
 -1      3416 1.16910E+01 1.68750E+01 0.00000E+00
 -1      3417 1.24191E+02 9.62951E+00 0.00000E+00
 -1      3418 1.24909E+02 1.02556E+01 0.00000E+00
 -1      3419 1.22691E+02 9.62951E+00 0.00000E+00
 -1      3420 1.16910E+01 1.83469E+01 0.00000E+00
 -1      3421 1.16910E+01 1.98156E+01 0.00000E+00
 -1      3422 1.29900E+01 2.05531E+01 0.00000E+00
 -1      3423 1.29900E+01 1.76094E+01 0.00000E+00
 -1      3424 1.19708E+02 3.51836E+01 0.00000E+00
 -1      3425 1.04736E+02 3.26321E+01 0.00000E+00
 -1      3426 1.15218E+02 3.46477E+01 0.00000E+00
 -1      3427 1.13978E+02 3.43996E+01 0.00000E+00
 -1      3428 1.37758E+02 3.64912E+01 0.00000E+00
 -1      3429 1.38123E+02 3.54142E+01 0.00000E+00
 -1      3430 1.36824E+02 3.46768E+01 0.00000E+00
 -1      3431 1.36451E+02 3.63802E+01 0.00000E+00
 -1      3432 1.13381E+02 3.54136E+01 0.00000E+00
 -1      3433 1.27468E+02 2.93870E+01 0.00000E+00
 -1      3434 1.26936E+02 3.02716E+01 0.00000E+00
 -1      3435 1.01641E+02 1.37644E+01 0.00000E+00
 -1      3436 1.01686E+02 1.27578E+01 0.00000E+00
 -1      3437 1.00174E+02 1.25581E+01 0.00000E+00
 -1      3438 1.00453E+02 1.40738E+01 0.00000E+00
 -1      3439 1.13540E+02 3.61873E+01 0.00000E+00
 -1      3440 1.12491E+02 3.62364E+01 0.00000E+00
 -1      3441 2.34000E+01 3.57110E+01 0.00000E+00
 -1      3442 2.49000E+01 3.57110E+01 0.00000E+00
 -1      3443 2.64000E+01 3.57110E+01 0.00000E+00
 -1      3444 2.79000E+01 3.57110E+01 0.00000E+00
 -1      3445 2.56500E+01 3.44120E+01 0.00000E+00
 -1      3446 2.94000E+01 3.57110E+01 0.00000E+00
 -1      3447 3.09000E+01 3.57110E+01 0.00000E+00
 -1      3448 2.86500E+01 3.44120E+01 0.00000E+00
 -1      3449 3.24000E+01 3.57110E+01 0.00000E+00
 -1      3450 3.39000E+01 3.57110E+01 0.00000E+00
 -1      3451 3.16500E+01 3.44120E+01 0.00000E+00
 -1      3452 3.54000E+01 3.57110E+01 0.00000E+00
 -1      3453 3.69000E+01 3.57110E+01 0.00000E+00
 -1      3454 3.46500E+01 3.44120E+01 0.00000E+00
 -1      3455 3.84000E+01 3.57110E+01 0.00000E+00
 -1      3456 3.99000E+01 3.57110E+01 0.00000E+00
 -1      3457 3.76500E+01 3.44120E+01 0.00000E+00
 -1      3458 4.14000E+01 3.57110E+01 0.00000E+00
 -1      3459 4.29000E+01 3.57110E+01 0.00000E+00
 -1      3460 4.06500E+01 3.44120E+01 0.00000E+00
 -1      3461 4.44000E+01 3.57110E+01 0.00000E+00
 -1      3462 4.59000E+01 3.57110E+01 0.00000E+00
 -1      3463 4.36500E+01 3.44120E+01 0.00000E+00
 -1      3464 4.74000E+01 3.57110E+01 0.00000E+00
 -1      3465 4.89000E+01 3.57110E+01 0.00000E+00
 -1      3466 4.66500E+01 3.44120E+01 0.00000E+00
 -1      3467 5.04000E+01 3.57110E+01 0.00000E+00
 -1      3468 5.19000E+01 3.57110E+01 0.00000E+00
 -1      3469 4.96500E+01 3.44120E+01 0.00000E+00
 -1      3470 5.34000E+01 3.57110E+01 0.00000E+00
 -1      3471 5.49000E+01 3.57110E+01 0.00000E+00
 -1      3472 5.26500E+01 3.44120E+01 0.00000E+00
 -1      3473 5.64000E+01 3.57110E+01 0.00000E+00
 -1      3474 5.79000E+01 3.57110E+01 0.00000E+00
 -1      3475 5.56500E+01 3.44120E+01 0.00000E+00
 -1      3476 5.94000E+01 3.57110E+01 0.00000E+00
 -1      3477 6.09000E+01 3.57110E+01 0.00000E+00
 -1      3478 5.86500E+01 3.44120E+01 0.00000E+00
 -1      3479 6.24000E+01 3.57110E+01 0.00000E+00
 -1      3480 6.39000E+01 3.57110E+01 0.00000E+00
 -1      3481 6.16500E+01 3.44120E+01 0.00000E+00
 -1      3482 6.54000E+01 3.57110E+01 0.00000E+00
 -1      3483 6.69000E+01 3.57110E+01 0.00000E+00
 -1      3484 6.46500E+01 3.44120E+01 0.00000E+00
 -1      3485 6.84000E+01 3.57110E+01 0.00000E+00
 -1      3486 6.99000E+01 3.57110E+01 0.00000E+00
 -1      3487 6.76500E+01 3.44120E+01 0.00000E+00
 -1      3488 7.14000E+01 3.57110E+01 0.00000E+00
 -1      3489 7.29000E+01 3.57110E+01 0.00000E+00
 -1      3490 7.06500E+01 3.44120E+01 0.00000E+00
 -1      3491 7.44000E+01 3.57110E+01 0.00000E+00
 -1      3492 7.59000E+01 3.57110E+01 0.00000E+00
 -1      3493 7.36500E+01 3.44120E+01 0.00000E+00
 -1      3494 7.74000E+01 3.57110E+01 0.00000E+00
 -1      3495 7.89000E+01 3.57110E+01 0.00000E+00
 -1      3496 7.66500E+01 3.44120E+01 0.00000E+00
 -1      3497 8.04000E+01 3.57110E+01 0.00000E+00
 -1      3498 8.19000E+01 3.57110E+01 0.00000E+00
 -1      3499 7.96500E+01 3.44120E+01 0.00000E+00
 -1      3500 8.34000E+01 3.57110E+01 0.00000E+00
 -1      3501 8.49000E+01 3.57110E+01 0.00000E+00
 -1      3502 8.26500E+01 3.44120E+01 0.00000E+00
 -1      3503 8.64000E+01 3.57110E+01 0.00000E+00
 -1      3504 8.79000E+01 3.57110E+01 0.00000E+00
 -1      3505 8.56500E+01 3.44120E+01 0.00000E+00
 -1      3506 8.94000E+01 3.57110E+01 0.00000E+00
 -1      3507 9.09000E+01 3.57110E+01 0.00000E+00
 -1      3508 8.86500E+01 3.44120E+01 0.00000E+00
 -1      3509 9.24000E+01 3.57110E+01 0.00000E+00
 -1      3510 9.39000E+01 3.57110E+01 0.00000E+00
 -1      3511 9.16500E+01 3.44120E+01 0.00000E+00
 -1      3512 9.54000E+01 3.57110E+01 0.00000E+00
 -1      3513 9.69000E+01 3.57110E+01 0.00000E+00
 -1      3514 9.46500E+01 3.44120E+01 0.00000E+00
 -1      3515 9.84000E+01 3.57110E+01 0.00000E+00
 -1      3516 9.99000E+01 3.57110E+01 0.00000E+00
 -1      3517 9.76500E+01 3.44120E+01 0.00000E+00
 -1      3518 1.01400E+02 3.57110E+01 0.00000E+00
 -1      3519 1.02900E+02 3.57110E+01 0.00000E+00
 -1      3520 1.00650E+02 3.44120E+01 0.00000E+00
 -1      3521 1.04884E+02 3.54152E+01 0.00000E+00
 -1      3522 1.06384E+02 3.54152E+01 0.00000E+00
 -1      3523 1.08004E+02 3.59220E+01 0.00000E+00
 -1      3524 1.09504E+02 3.59220E+01 0.00000E+00
 -1      3525 1.15040E+02 3.61873E+01 0.00000E+00
 -1      3526 1.16866E+02 3.62491E+01 0.00000E+00
 -1      3527 1.18366E+02 3.62491E+01 0.00000E+00
 -1      3528 1.25400E+02 3.57110E+01 0.00000E+00
 -1      3529 1.26900E+02 3.57110E+01 0.00000E+00
 -1      3530 1.28400E+02 3.57110E+01 0.00000E+00
 -1      3531 1.29900E+02 3.57110E+01 0.00000E+00
 -1      3532 1.27650E+02 3.44120E+01 0.00000E+00
 -1      3533 1.31400E+02 3.57110E+01 0.00000E+00
 -1      3534 1.32900E+02 3.57110E+01 0.00000E+00
 -1      3535 1.30650E+02 3.44120E+01 0.00000E+00
 -1      3536 3.32850E+01 1.30992E+01 0.00000E+00
 -1      3537 3.17850E+01 1.30992E+01 0.00000E+00
 -1      3538 4.52850E+01 1.30992E+01 0.00000E+00
 -1      3539 4.37850E+01 1.30992E+01 0.00000E+00
 -1      3540 4.22850E+01 1.30992E+01 0.00000E+00
 -1      3541 4.07850E+01 1.30992E+01 0.00000E+00
 -1      3542 4.30350E+01 1.43982E+01 0.00000E+00
 -1      3543 5.12850E+01 1.30992E+01 0.00000E+00
 -1      3544 4.97850E+01 1.30992E+01 0.00000E+00
 -1      3545 5.42850E+01 1.30992E+01 0.00000E+00
 -1      3546 5.27850E+01 1.30992E+01 0.00000E+00
 -1      3547 5.20350E+01 1.43982E+01 0.00000E+00
 -1      3548 5.72850E+01 1.30992E+01 0.00000E+00
 -1      3549 5.57850E+01 1.30992E+01 0.00000E+00
 -1      3550 5.50350E+01 1.43982E+01 0.00000E+00
 -1      3551 6.02850E+01 1.30992E+01 0.00000E+00
 -1      3552 5.87850E+01 1.30992E+01 0.00000E+00
 -1      3553 5.80350E+01 1.43982E+01 0.00000E+00
 -1      3554 6.32850E+01 1.30992E+01 0.00000E+00
 -1      3555 6.17850E+01 1.30992E+01 0.00000E+00
 -1      3556 6.10350E+01 1.43982E+01 0.00000E+00
 -1      3557 6.62850E+01 1.30992E+01 0.00000E+00
 -1      3558 6.47850E+01 1.30992E+01 0.00000E+00
 -1      3559 6.40350E+01 1.43982E+01 0.00000E+00
 -1      3560 6.92850E+01 1.30992E+01 0.00000E+00
 -1      3561 6.77850E+01 1.30992E+01 0.00000E+00
 -1      3562 6.70350E+01 1.43982E+01 0.00000E+00
 -1      3563 7.22850E+01 1.30992E+01 0.00000E+00
 -1      3564 7.07850E+01 1.30992E+01 0.00000E+00
 -1      3565 7.00350E+01 1.43982E+01 0.00000E+00
 -1      3566 7.52850E+01 1.30992E+01 0.00000E+00
 -1      3567 7.37850E+01 1.30992E+01 0.00000E+00
 -1      3568 7.30350E+01 1.43982E+01 0.00000E+00
 -1      3569 7.82850E+01 1.30992E+01 0.00000E+00
 -1      3570 7.67850E+01 1.30992E+01 0.00000E+00
 -1      3571 7.60350E+01 1.43982E+01 0.00000E+00
 -1      3572 8.12850E+01 1.30992E+01 0.00000E+00
 -1      3573 7.97850E+01 1.30992E+01 0.00000E+00
 -1      3574 7.90350E+01 1.43982E+01 0.00000E+00
 -1      3575 8.42850E+01 1.30992E+01 0.00000E+00
 -1      3576 8.27850E+01 1.30992E+01 0.00000E+00
 -1      3577 8.20350E+01 1.43982E+01 0.00000E+00
 -1      3578 8.72850E+01 1.30992E+01 0.00000E+00
 -1      3579 8.57850E+01 1.30992E+01 0.00000E+00
 -1      3580 8.50350E+01 1.43982E+01 0.00000E+00
 -1      3581 9.02850E+01 1.30992E+01 0.00000E+00
 -1      3582 8.87850E+01 1.30992E+01 0.00000E+00
 -1      3583 8.80350E+01 1.43982E+01 0.00000E+00
 -1      3584 9.32850E+01 1.30992E+01 0.00000E+00
 -1      3585 9.17850E+01 1.30992E+01 0.00000E+00
 -1      3586 9.10350E+01 1.43982E+01 0.00000E+00
 -1      3587 9.62850E+01 1.30992E+01 0.00000E+00
 -1      3588 9.47850E+01 1.30992E+01 0.00000E+00
 -1      3589 9.40350E+01 1.43982E+01 0.00000E+00
 -1      3590 1.60275E+01 3.28641E+01 0.00000E+00
 -1      3591 1.60275E+01 3.43328E+01 0.00000E+00
 -1      3592 1.72350E+01 3.47356E+01 0.00000E+00
 -1      3593 1.32285E+02 1.27191E+01 0.00000E+00
 -1      3594 1.30785E+02 1.27191E+01 0.00000E+00
 -1      3595 9.93494E+01 1.69803E+01 0.00000E+00
 -1      3596 9.94404E+01 1.55025E+01 0.00000E+00
 -1      3597 1.01958E+02 3.13928E+01 0.00000E+00
 -1      3598 1.01242E+02 3.01203E+01 0.00000E+00
 -1      3599 1.29271E+02 1.37382E+01 0.00000E+00
 -1      3600 9.97470E+01 1.96595E+01 0.00000E+00
 -1      3601 9.96210E+01 1.84717E+01 0.00000E+00
 -1      3602 1.28557E+02 1.66918E+01 0.00000E+00
 -1      3603 1.29125E+02 1.78779E+01 0.00000E+00
 -1      3604 2.12850E+01 1.30992E+01 0.00000E+00
 -1      3605 1.97850E+01 1.30992E+01 0.00000E+00
 -1      3606 1.29520E+02 2.38725E+01 0.00000E+00
 -1      3607 1.28802E+02 2.50778E+01 0.00000E+00
 -1      3608 1.21485E+01 2.68497E+01 0.00000E+00
 -1      3609 1.21485E+01 2.83184E+01 0.00000E+00
 -1      3610 1.43625E+01 2.83866E+01 0.00000E+00
 -1      3611 1.34475E+01 2.61122E+01 0.00000E+00
 -1      3612 1.10991E+02 3.62364E+01 0.00000E+00
 -1      3613 1.35711E+02 2.72125E+01 0.00000E+00
 -1      3614 1.35711E+02 2.57375E+01 0.00000E+00
 -1      3615 2.04000E+01 3.57110E+01 0.00000E+00
 -1      3616 2.19000E+01 3.57110E+01 0.00000E+00
 -1      3617 2.26500E+01 3.44120E+01 0.00000E+00
 -1      3618 4.82850E+01 1.30992E+01 0.00000E+00
 -1      3619 4.67850E+01 1.30992E+01 0.00000E+00
 -1      3620 4.60350E+01 1.43982E+01 0.00000E+00
 -1      3621 4.90350E+01 1.43982E+01 0.00000E+00
 -1      3622 1.25096E+02 3.34574E+01 0.00000E+00
 -1      3623 1.23742E+02 3.46456E+01 0.00000E+00
 -1      3624 1.15828E+02 3.54704E+01 0.00000E+00
 -1      3625 1.04134E+02 3.41162E+01 0.00000E+00
 -1      3626 1.02753E+02 3.29279E+01 0.00000E+00
 -1      3627 1.26435E+02 3.12744E+01 0.00000E+00
 -1      3628 1.25596E+02 3.24546E+01 0.00000E+00
 -1      3629 1.26650E+02 3.34092E+01 0.00000E+00
 -1      3630 1.27651E+02 3.14036E+01 0.00000E+00
 -1      3631 9.96625E+01 2.51437E+01 0.00000E+00
 -1      3632 9.96446E+01 2.39132E+01 0.00000E+00
 -1      3633 1.42890E+01 2.27625E+01 0.00000E+00
 -1      3634 1.42890E+01 2.42375E+01 0.00000E+00
 -1      3635 1.84669E+01 1.29495E+01 0.00000E+00
 -1      3636 1.71488E+01 1.27997E+01 0.00000E+00
 -1      3637 1.92169E+01 1.42485E+01 0.00000E+00
 -1      3638 1.42890E+01 2.12906E+01 0.00000E+00
 -1      3639 1.55880E+01 2.20281E+01 0.00000E+00
 -1      3640 1.42890E+01 1.98188E+01 0.00000E+00
 -1      3641 1.34412E+02 2.50063E+01 0.00000E+00
 -1      3642 1.35711E+02 2.42687E+01 0.00000E+00
 -1      3643 1.35711E+02 2.28000E+01 0.00000E+00
 -1      3644 1.01355E+02 3.28769E+01 0.00000E+00
 -1      3645 1.19992E+02 3.59446E+01 0.00000E+00
 -1      3646 1.21492E+02 3.59446E+01 0.00000E+00
 -1      3647 1.22992E+02 3.59446E+01 0.00000E+00
 -1      3648 3.10350E+01 1.43982E+01 0.00000E+00
 -1      3649 3.02850E+01 1.30992E+01 0.00000E+00
 -1      3650 2.87850E+01 1.30992E+01 0.00000E+00
 -1      3651 3.47850E+01 1.30992E+01 0.00000E+00
 -1      3652 3.40350E+01 1.43982E+01 0.00000E+00
 -1      3653 3.62850E+01 1.30992E+01 0.00000E+00
 -1      3654 1.34022E+02 3.59901E+01 0.00000E+00
 -1      3655 1.35329E+02 3.61011E+01 0.00000E+00
 -1      3656 1.35515E+02 3.52494E+01 0.00000E+00
 -1      3657 1.33272E+02 3.46911E+01 0.00000E+00
 -1      3658 1.00226E+02 2.95880E+01 0.00000E+00
 -1      3659 4.00350E+01 1.43982E+01 0.00000E+00
 -1      3660 3.92850E+01 1.30992E+01 0.00000E+00
 -1      3661 3.77850E+01 1.30992E+01 0.00000E+00
 -1      3662 9.76615E+01 1.39868E+01 0.00000E+00
 -1      3663 9.69115E+01 1.52858E+01 0.00000E+00
 -1      3664 1.60275E+01 3.13953E+01 0.00000E+00
 -1      3665 1.72350E+01 3.17981E+01 0.00000E+00
 -1      3666 1.60275E+01 2.99266E+01 0.00000E+00
 -1      3667 9.91615E+01 1.39868E+01 0.00000E+00
 -1      3668 2.65350E+01 1.18003E+01 0.00000E+00
 -1      3669 1.29056E+02 1.57370E+01 0.00000E+00
 -1      3670 1.29868E+02 1.89080E+01 0.00000E+00
 -1      3671 1.30611E+02 1.99382E+01 0.00000E+00
 -1      3672 1.30433E+02 1.79085E+01 0.00000E+00
 -1      3673 1.34620E+02 1.34705E+01 0.00000E+00
 -1      3674 1.33453E+02 1.30948E+01 0.00000E+00
 -1      3675 1.32703E+02 1.43938E+01 0.00000E+00
 -1      3676 9.85597E+01 1.76647E+01 0.00000E+00
 -1      3677 9.92179E+01 2.61894E+01 0.00000E+00
 -1      3678 9.81001E+01 2.55903E+01 0.00000E+00
 -1      3679 9.87733E+01 2.72350E+01 0.00000E+00
 -1      3680 9.93633E+01 2.04836E+01 0.00000E+00
 -1      3681 9.84475E+01 1.99802E+01 0.00000E+00
 -1      3682 9.89795E+01 2.13077E+01 0.00000E+00
 -1      3683 1.35745E+02 1.84150E+01 0.00000E+00
 -1      3684 1.35811E+02 1.71271E+01 0.00000E+00
 -1      3685 9.92200E+01 2.31779E+01 0.00000E+00
 -1      3686 1.35711E+02 3.01500E+01 0.00000E+00
 -1      3687 1.35711E+02 2.86812E+01 0.00000E+00
 -1      3688 1.34412E+02 2.79438E+01 0.00000E+00
 -1      3689 1.29240E+02 2.62256E+01 0.00000E+00
 -1      3690 1.28223E+02 2.88834E+01 0.00000E+00
 -1      3691 1.42890E+01 1.39344E+01 0.00000E+00
 -1      3692 1.42890E+01 1.54031E+01 0.00000E+00
 -1      3693 2.27850E+01 1.30992E+01 0.00000E+00
 -1      3694 2.20350E+01 1.43982E+01 0.00000E+00
 -1      3695 2.42850E+01 1.30992E+01 0.00000E+00
 -1      3696 1.30116E+02 2.30115E+01 0.00000E+00
 -1      3697 1.30782E+02 2.42241E+01 0.00000E+00
 -1      3698 1.30712E+02 2.21504E+01 0.00000E+00
 -1      3699 1.82138E+01 3.50219E+01 0.00000E+00
 -1      3700 1.94212E+01 3.54247E+01 0.00000E+00
 -1      3701 2.01712E+01 3.41257E+01 0.00000E+00
 -1      3702 1.82138E+01 3.35532E+01 0.00000E+00
 -1      3703 1.35702E+02 3.43976E+01 0.00000E+00
 -1      3704 1.35728E+02 2.13419E+01 0.00000E+00
 -1      3705 1.35728E+02 1.98731E+01 0.00000E+00
 -1      3706 1.34464E+02 1.91631E+01 0.00000E+00
 -1      3707 1.34429E+02 2.20794E+01 0.00000E+00
 -1      3708 1.34487E+02 3.38100E+01 0.00000E+00
 -1      3709 1.35795E+02 3.32374E+01 0.00000E+00
 -1      3710 1.35795E+02 3.17686E+01 0.00000E+00
 -1      3711 1.33365E+02 3.35309E+01 0.00000E+00
 -1      3712 2.79000E+01 3.31130E+01 0.00000E+00
 -1      3713 2.94000E+01 3.31130E+01 0.00000E+00
 -1      3714 3.09000E+01 3.31130E+01 0.00000E+00
 -1      3715 3.24000E+01 3.31130E+01 0.00000E+00
 -1      3716 3.01500E+01 3.18140E+01 0.00000E+00
 -1      3717 3.39000E+01 3.31130E+01 0.00000E+00
 -1      3718 3.54000E+01 3.31130E+01 0.00000E+00
 -1      3719 3.31500E+01 3.18140E+01 0.00000E+00
 -1      3720 3.69000E+01 3.31130E+01 0.00000E+00
 -1      3721 3.84000E+01 3.31130E+01 0.00000E+00
 -1      3722 3.61500E+01 3.18140E+01 0.00000E+00
 -1      3723 3.99000E+01 3.31130E+01 0.00000E+00
 -1      3724 4.14000E+01 3.31130E+01 0.00000E+00
 -1      3725 3.91500E+01 3.18140E+01 0.00000E+00
 -1      3726 4.29000E+01 3.31130E+01 0.00000E+00
 -1      3727 4.44000E+01 3.31130E+01 0.00000E+00
 -1      3728 4.21500E+01 3.18140E+01 0.00000E+00
 -1      3729 4.59000E+01 3.31130E+01 0.00000E+00
 -1      3730 4.74000E+01 3.31130E+01 0.00000E+00
 -1      3731 4.51500E+01 3.18140E+01 0.00000E+00
 -1      3732 4.89000E+01 3.31130E+01 0.00000E+00
 -1      3733 5.04000E+01 3.31130E+01 0.00000E+00
 -1      3734 4.81500E+01 3.18140E+01 0.00000E+00
 -1      3735 5.19000E+01 3.31130E+01 0.00000E+00
 -1      3736 5.34000E+01 3.31130E+01 0.00000E+00
 -1      3737 5.11500E+01 3.18140E+01 0.00000E+00
 -1      3738 5.49000E+01 3.31130E+01 0.00000E+00
 -1      3739 5.64000E+01 3.31130E+01 0.00000E+00
 -1      3740 5.41500E+01 3.18140E+01 0.00000E+00
 -1      3741 5.79000E+01 3.31130E+01 0.00000E+00
 -1      3742 5.94000E+01 3.31130E+01 0.00000E+00
 -1      3743 5.71500E+01 3.18140E+01 0.00000E+00
 -1      3744 6.09000E+01 3.31130E+01 0.00000E+00
 -1      3745 6.24000E+01 3.31130E+01 0.00000E+00
 -1      3746 6.01500E+01 3.18140E+01 0.00000E+00
 -1      3747 6.39000E+01 3.31130E+01 0.00000E+00
 -1      3748 6.54000E+01 3.31130E+01 0.00000E+00
 -1      3749 6.31500E+01 3.18140E+01 0.00000E+00
 -1      3750 6.69000E+01 3.31130E+01 0.00000E+00
 -1      3751 6.84000E+01 3.31130E+01 0.00000E+00
 -1      3752 6.61500E+01 3.18140E+01 0.00000E+00
 -1      3753 6.99000E+01 3.31130E+01 0.00000E+00
 -1      3754 7.14000E+01 3.31130E+01 0.00000E+00
 -1      3755 6.91500E+01 3.18140E+01 0.00000E+00
 -1      3756 7.29000E+01 3.31130E+01 0.00000E+00
 -1      3757 7.44000E+01 3.31130E+01 0.00000E+00
 -1      3758 7.21500E+01 3.18140E+01 0.00000E+00
 -1      3759 7.59000E+01 3.31130E+01 0.00000E+00
 -1      3760 7.74000E+01 3.31130E+01 0.00000E+00
 -1      3761 7.51500E+01 3.18140E+01 0.00000E+00
 -1      3762 7.89000E+01 3.31130E+01 0.00000E+00
 -1      3763 8.04000E+01 3.31130E+01 0.00000E+00
 -1      3764 7.81500E+01 3.18140E+01 0.00000E+00
 -1      3765 8.19000E+01 3.31130E+01 0.00000E+00
 -1      3766 8.34000E+01 3.31130E+01 0.00000E+00
 -1      3767 8.11500E+01 3.18140E+01 0.00000E+00
 -1      3768 8.49000E+01 3.31130E+01 0.00000E+00
 -1      3769 8.64000E+01 3.31130E+01 0.00000E+00
 -1      3770 8.41500E+01 3.18140E+01 0.00000E+00
 -1      3771 8.79000E+01 3.31130E+01 0.00000E+00
 -1      3772 8.94000E+01 3.31130E+01 0.00000E+00
 -1      3773 8.71500E+01 3.18140E+01 0.00000E+00
 -1      3774 9.09000E+01 3.31130E+01 0.00000E+00
 -1      3775 9.24000E+01 3.31130E+01 0.00000E+00
 -1      3776 9.01500E+01 3.18140E+01 0.00000E+00
 -1      3777 9.39000E+01 3.31130E+01 0.00000E+00
 -1      3778 9.54000E+01 3.31130E+01 0.00000E+00
 -1      3779 9.31500E+01 3.18140E+01 0.00000E+00
 -1      3780 9.69000E+01 3.31130E+01 0.00000E+00
 -1      3781 9.84000E+01 3.31130E+01 0.00000E+00
 -1      3782 9.61500E+01 3.18140E+01 0.00000E+00
 -1      3783 9.98554E+01 3.28769E+01 0.00000E+00
 -1      3784 9.92218E+01 3.06886E+01 0.00000E+00
 -1      3785 9.88869E+01 2.89347E+01 0.00000E+00
 -1      3786 1.29900E+02 3.31130E+01 0.00000E+00
 -1      3787 1.31400E+02 3.31130E+01 0.00000E+00
 -1      3788 5.87850E+01 1.56973E+01 0.00000E+00
 -1      3789 5.72850E+01 1.56973E+01 0.00000E+00
 -1      3790 4.37850E+01 1.56973E+01 0.00000E+00
 -1      3791 4.22850E+01 1.56973E+01 0.00000E+00
 -1      3792 2.72850E+01 1.30992E+01 0.00000E+00
 -1      3793 2.57850E+01 1.30992E+01 0.00000E+00
 -1      3794 2.80350E+01 1.43982E+01 0.00000E+00
 -1      3795 5.57850E+01 1.56973E+01 0.00000E+00
 -1      3796 5.42850E+01 1.56973E+01 0.00000E+00
 -1      3797 5.65350E+01 1.69963E+01 0.00000E+00
 -1      3798 5.27850E+01 1.56973E+01 0.00000E+00
 -1      3799 5.12850E+01 1.56973E+01 0.00000E+00
 -1      3800 5.35350E+01 1.69963E+01 0.00000E+00
 -1      3801 6.17850E+01 1.56973E+01 0.00000E+00
 -1      3802 6.02850E+01 1.56973E+01 0.00000E+00
 -1      3803 5.95350E+01 1.69963E+01 0.00000E+00
 -1      3804 6.47850E+01 1.56973E+01 0.00000E+00
 -1      3805 6.32850E+01 1.56973E+01 0.00000E+00
 -1      3806 6.25350E+01 1.69963E+01 0.00000E+00
 -1      3807 6.77850E+01 1.56973E+01 0.00000E+00
 -1      3808 6.62850E+01 1.56973E+01 0.00000E+00
 -1      3809 6.55350E+01 1.69963E+01 0.00000E+00
 -1      3810 7.07850E+01 1.56973E+01 0.00000E+00
 -1      3811 6.92850E+01 1.56973E+01 0.00000E+00
 -1      3812 6.85350E+01 1.69963E+01 0.00000E+00
 -1      3813 7.37850E+01 1.56973E+01 0.00000E+00
 -1      3814 7.22850E+01 1.56973E+01 0.00000E+00
 -1      3815 7.15350E+01 1.69963E+01 0.00000E+00
 -1      3816 7.67850E+01 1.56973E+01 0.00000E+00
 -1      3817 7.52850E+01 1.56973E+01 0.00000E+00
 -1      3818 7.45350E+01 1.69963E+01 0.00000E+00
 -1      3819 7.97850E+01 1.56973E+01 0.00000E+00
 -1      3820 7.82850E+01 1.56973E+01 0.00000E+00
 -1      3821 7.75350E+01 1.69963E+01 0.00000E+00
 -1      3822 8.27850E+01 1.56973E+01 0.00000E+00
 -1      3823 8.12850E+01 1.56973E+01 0.00000E+00
 -1      3824 8.05350E+01 1.69963E+01 0.00000E+00
 -1      3825 8.57850E+01 1.56973E+01 0.00000E+00
 -1      3826 8.42850E+01 1.56973E+01 0.00000E+00
 -1      3827 8.35350E+01 1.69963E+01 0.00000E+00
 -1      3828 8.87850E+01 1.56973E+01 0.00000E+00
 -1      3829 8.72850E+01 1.56973E+01 0.00000E+00
 -1      3830 8.65350E+01 1.69963E+01 0.00000E+00
 -1      3831 9.17850E+01 1.56973E+01 0.00000E+00
 -1      3832 9.02850E+01 1.56973E+01 0.00000E+00
 -1      3833 8.95350E+01 1.69963E+01 0.00000E+00
 -1      3834 9.47850E+01 1.56973E+01 0.00000E+00
 -1      3835 9.32850E+01 1.56973E+01 0.00000E+00
 -1      3836 9.25350E+01 1.69963E+01 0.00000E+00
 -1      3837 1.36322E+02 1.30725E+01 0.00000E+00
 -1      3838 9.76290E+01 2.40412E+01 0.00000E+00
 -1      3839 9.83042E+01 2.26745E+01 0.00000E+00
 -1      3840 9.73885E+01 2.21711E+01 0.00000E+00
 -1      3841 9.73606E+01 1.71248E+01 0.00000E+00
 -1      3842 9.59841E+01 1.62372E+01 0.00000E+00
 -1      3843 9.52341E+01 1.75362E+01 0.00000E+00
 -1      3844 9.76322E+01 1.86161E+01 0.00000E+00
 -1      3845 1.46944E+01 1.23503E+01 0.00000E+00
 -1      3846 1.59934E+01 1.30847E+01 0.00000E+00
 -1      3847 1.67434E+01 1.43837E+01 0.00000E+00
 -1      3848 1.30631E+02 2.64170E+01 0.00000E+00
 -1      3849 1.29684E+02 2.75574E+01 0.00000E+00
 -1      3850 1.28150E+02 3.34092E+01 0.00000E+00
 -1      3851 2.19000E+01 3.31130E+01 0.00000E+00
 -1      3852 2.34000E+01 3.31130E+01 0.00000E+00
 -1      3853 1.34176E+02 1.62372E+01 0.00000E+00
 -1      3854 1.35506E+02 1.56594E+01 0.00000E+00
 -1      3855 1.29614E+02 2.90748E+01 0.00000E+00
 -1      3856 1.60455E+01 2.46372E+01 0.00000E+00
 -1      3857 1.47465E+01 2.53747E+01 0.00000E+00
 -1      3858 1.52040E+01 2.65119E+01 0.00000E+00
 -1      3859 2.49000E+01 3.31130E+01 0.00000E+00
 -1      3860 2.64000E+01 3.31130E+01 0.00000E+00
 -1      3861 2.41500E+01 3.18140E+01 0.00000E+00
 -1      3862 1.42890E+01 1.68750E+01 0.00000E+00
 -1      3863 1.42890E+01 1.83469E+01 0.00000E+00
 -1      3864 1.55880E+01 1.90844E+01 0.00000E+00
 -1      3865 1.55880E+01 1.61406E+01 0.00000E+00
 -1      3866 1.35572E+02 1.43715E+01 0.00000E+00
 -1      3867 1.33219E+02 2.57406E+01 0.00000E+00
 -1      3868 1.33219E+02 2.42719E+01 0.00000E+00
 -1      3869 4.67850E+01 1.56973E+01 0.00000E+00
 -1      3870 4.52850E+01 1.56973E+01 0.00000E+00
 -1      3871 4.45350E+01 1.69963E+01 0.00000E+00
 -1      3872 1.28900E+02 3.21102E+01 0.00000E+00
 -1      3873 9.91054E+01 3.15779E+01 0.00000E+00
 -1      3874 9.77664E+01 3.09247E+01 0.00000E+00
 -1      3875 1.97293E+01 1.56141E+01 0.00000E+00
 -1      3876 1.84111E+01 1.54643E+01 0.00000E+00
 -1      3877 1.29401E+02 3.11074E+01 0.00000E+00
 -1      3878 1.32615E+02 3.22319E+01 0.00000E+00
 -1      3879 3.17850E+01 1.56973E+01 0.00000E+00
 -1      3880 3.02850E+01 1.56973E+01 0.00000E+00
 -1      3881 3.70350E+01 1.43982E+01 0.00000E+00
 -1      3882 4.15350E+01 1.69963E+01 0.00000E+00
 -1      3883 4.07850E+01 1.56973E+01 0.00000E+00
 -1      3884 3.92850E+01 1.56973E+01 0.00000E+00
 -1      3885 2.50350E+01 1.43982E+01 0.00000E+00
 -1      3886 3.47850E+01 1.56973E+01 0.00000E+00
 -1      3887 3.32850E+01 1.56973E+01 0.00000E+00
 -1      3888 3.25350E+01 1.69963E+01 0.00000E+00
 -1      3889 1.82138E+01 3.06157E+01 0.00000E+00
 -1      3890 1.82138E+01 3.20844E+01 0.00000E+00
 -1      3891 1.91925E+01 3.23707E+01 0.00000E+00
 -1      3892 9.93010E+01 1.47446E+01 0.00000E+00
 -1      3893 9.71844E+01 2.50868E+01 0.00000E+00
 -1      3894 9.62686E+01 2.45834E+01 0.00000E+00
 -1      3895 9.67397E+01 2.61325E+01 0.00000E+00
 -1      3896 9.77692E+01 2.83356E+01 0.00000E+00
 -1      3897 1.34496E+02 3.10311E+01 0.00000E+00
 -1      3898 9.72484E+01 1.94402E+01 0.00000E+00
 -1      3899 1.32829E+02 1.83218E+01 0.00000E+00
 -1      3900 1.32524E+02 1.68541E+01 0.00000E+00
 -1      3901 1.68870E+01 2.12922E+01 0.00000E+00
 -1      3902 1.68870E+01 2.27641E+01 0.00000E+00
 -1      3903 2.71500E+01 3.18140E+01 0.00000E+00
 -1      3904 1.53870E+01 2.76506E+01 0.00000E+00
 -1      3905 1.58445E+01 2.87878E+01 0.00000E+00
 -1      3906 1.70520E+01 2.91906E+01 0.00000E+00
 -1      3907 1.66860E+01 2.69131E+01 0.00000E+00
 -1      3908 1.72558E+01 1.57493E+01 0.00000E+00
 -1      3909 1.32744E+02 2.85807E+01 0.00000E+00
 -1      3910 1.32744E+02 2.71119E+01 0.00000E+00
 -1      3911 1.32812E+02 1.97799E+01 0.00000E+00
 -1      3912 2.27293E+01 1.56141E+01 0.00000E+00
 -1      3913 2.12293E+01 1.56141E+01 0.00000E+00
 -1      3914 2.04235E+01 1.68299E+01 0.00000E+00
 -1      3915 1.30863E+02 2.97814E+01 0.00000E+00
 -1      3916 1.86435E+01 2.31653E+01 0.00000E+00
 -1      3917 1.73445E+01 2.39013E+01 0.00000E+00
 -1      3918 1.78020E+01 2.50384E+01 0.00000E+00
 -1      3919 4.97850E+01 1.56973E+01 0.00000E+00
 -1      3920 4.82850E+01 1.56973E+01 0.00000E+00
 -1      3921 4.75350E+01 1.69963E+01 0.00000E+00
 -1      3922 1.72558E+01 1.72212E+01 0.00000E+00
 -1      3923 2.00569E+01 3.25987E+01 0.00000E+00
 -1      3924 2.10356E+01 3.28850E+01 0.00000E+00
 -1      3925 2.17856E+01 3.15860E+01 0.00000E+00
 -1      3926 2.00569E+01 3.11300E+01 0.00000E+00
 -1      3927 1.31703E+02 2.41847E+01 0.00000E+00
 -1      3928 1.31106E+02 2.50457E+01 0.00000E+00
 -1      3929 1.31551E+02 2.63775E+01 0.00000E+00
 -1      3930 5.05350E+01 1.69963E+01 0.00000E+00
 -1      3931 1.32531E+02 3.06133E+01 0.00000E+00
 -1      3932 3.24000E+01 3.05150E+01 0.00000E+00
 -1      3933 3.39000E+01 3.05150E+01 0.00000E+00
 -1      3934 3.54000E+01 3.05150E+01 0.00000E+00
 -1      3935 3.69000E+01 3.05150E+01 0.00000E+00
 -1      3936 3.46500E+01 2.92160E+01 0.00000E+00
 -1      3937 3.84000E+01 3.05150E+01 0.00000E+00
 -1      3938 3.99000E+01 3.05150E+01 0.00000E+00
 -1      3939 3.76500E+01 2.92160E+01 0.00000E+00
 -1      3940 4.14000E+01 3.05150E+01 0.00000E+00
 -1      3941 4.29000E+01 3.05150E+01 0.00000E+00
 -1      3942 4.06500E+01 2.92160E+01 0.00000E+00
 -1      3943 4.44000E+01 3.05150E+01 0.00000E+00
 -1      3944 4.59000E+01 3.05150E+01 0.00000E+00
 -1      3945 4.36500E+01 2.92160E+01 0.00000E+00
 -1      3946 4.74000E+01 3.05150E+01 0.00000E+00
 -1      3947 4.89000E+01 3.05150E+01 0.00000E+00
 -1      3948 4.66500E+01 2.92160E+01 0.00000E+00
 -1      3949 5.04000E+01 3.05150E+01 0.00000E+00
 -1      3950 5.19000E+01 3.05150E+01 0.00000E+00
 -1      3951 4.96500E+01 2.92160E+01 0.00000E+00
 -1      3952 5.34000E+01 3.05150E+01 0.00000E+00
 -1      3953 5.49000E+01 3.05150E+01 0.00000E+00
 -1      3954 5.26500E+01 2.92160E+01 0.00000E+00
 -1      3955 5.64000E+01 3.05150E+01 0.00000E+00
 -1      3956 5.79000E+01 3.05150E+01 0.00000E+00
 -1      3957 5.56500E+01 2.92160E+01 0.00000E+00
 -1      3958 5.94000E+01 3.05150E+01 0.00000E+00
 -1      3959 6.09000E+01 3.05150E+01 0.00000E+00
 -1      3960 5.86500E+01 2.92160E+01 0.00000E+00
 -1      3961 6.24000E+01 3.05150E+01 0.00000E+00
 -1      3962 6.39000E+01 3.05150E+01 0.00000E+00
 -1      3963 6.16500E+01 2.92160E+01 0.00000E+00
 -1      3964 6.54000E+01 3.05150E+01 0.00000E+00
 -1      3965 6.69000E+01 3.05150E+01 0.00000E+00
 -1      3966 6.46500E+01 2.92160E+01 0.00000E+00
 -1      3967 6.84000E+01 3.05150E+01 0.00000E+00
 -1      3968 6.99000E+01 3.05150E+01 0.00000E+00
 -1      3969 6.76500E+01 2.92160E+01 0.00000E+00
 -1      3970 7.14000E+01 3.05150E+01 0.00000E+00
 -1      3971 7.29000E+01 3.05150E+01 0.00000E+00
 -1      3972 7.06500E+01 2.92160E+01 0.00000E+00
 -1      3973 7.44000E+01 3.05150E+01 0.00000E+00
 -1      3974 7.59000E+01 3.05150E+01 0.00000E+00
 -1      3975 7.36500E+01 2.92160E+01 0.00000E+00
 -1      3976 7.74000E+01 3.05150E+01 0.00000E+00
 -1      3977 7.89000E+01 3.05150E+01 0.00000E+00
 -1      3978 7.66500E+01 2.92160E+01 0.00000E+00
 -1      3979 8.04000E+01 3.05150E+01 0.00000E+00
 -1      3980 8.19000E+01 3.05150E+01 0.00000E+00
 -1      3981 7.96500E+01 2.92160E+01 0.00000E+00
 -1      3982 8.34000E+01 3.05150E+01 0.00000E+00
 -1      3983 8.49000E+01 3.05150E+01 0.00000E+00
 -1      3984 8.26500E+01 2.92160E+01 0.00000E+00
 -1      3985 8.64000E+01 3.05150E+01 0.00000E+00
 -1      3986 8.79000E+01 3.05150E+01 0.00000E+00
 -1      3987 8.56500E+01 2.92160E+01 0.00000E+00
 -1      3988 8.94000E+01 3.05150E+01 0.00000E+00
 -1      3989 9.09000E+01 3.05150E+01 0.00000E+00
 -1      3990 8.86500E+01 2.92160E+01 0.00000E+00
 -1      3991 9.24000E+01 3.05150E+01 0.00000E+00
 -1      3992 9.39000E+01 3.05150E+01 0.00000E+00
 -1      3993 9.16500E+01 2.92160E+01 0.00000E+00
 -1      3994 9.50832E+01 3.07198E+01 0.00000E+00
 -1      3995 9.65832E+01 3.07198E+01 0.00000E+00
 -1      3996 9.66996E+01 2.98305E+01 0.00000E+00
 -1      3997 9.43332E+01 2.94208E+01 0.00000E+00
 -1      3998 3.77850E+01 1.56973E+01 0.00000E+00
 -1      3999 3.62850E+01 1.56973E+01 0.00000E+00
 -1      4000 3.55350E+01 1.69963E+01 0.00000E+00
 -1      4001 3.85350E+01 1.69963E+01 0.00000E+00
 -1      4002 2.57293E+01 1.56141E+01 0.00000E+00
 -1      4003 2.42293E+01 1.56141E+01 0.00000E+00
 -1      4004 2.34235E+01 1.68299E+01 0.00000E+00
 -1      4005 5.72850E+01 1.82952E+01 0.00000E+00
 -1      4006 5.57850E+01 1.82952E+01 0.00000E+00
 -1      4007 5.42850E+01 1.82952E+01 0.00000E+00
 -1      4008 5.27850E+01 1.82952E+01 0.00000E+00
 -1      4009 5.50350E+01 1.95942E+01 0.00000E+00
 -1      4010 6.62850E+01 1.82952E+01 0.00000E+00
 -1      4011 6.47850E+01 1.82952E+01 0.00000E+00
 -1      4012 6.92850E+01 1.82952E+01 0.00000E+00
 -1      4013 6.77850E+01 1.82952E+01 0.00000E+00
 -1      4014 6.70350E+01 1.95942E+01 0.00000E+00
 -1      4015 7.22850E+01 1.82952E+01 0.00000E+00
 -1      4016 7.07850E+01 1.82952E+01 0.00000E+00
 -1      4017 7.00350E+01 1.95942E+01 0.00000E+00
 -1      4018 7.52850E+01 1.82952E+01 0.00000E+00
 -1      4019 7.37850E+01 1.82952E+01 0.00000E+00
 -1      4020 7.30350E+01 1.95942E+01 0.00000E+00
 -1      4021 7.82850E+01 1.82952E+01 0.00000E+00
 -1      4022 7.67850E+01 1.82952E+01 0.00000E+00
 -1      4023 7.60350E+01 1.95942E+01 0.00000E+00
 -1      4024 8.12850E+01 1.82952E+01 0.00000E+00
 -1      4025 7.97850E+01 1.82952E+01 0.00000E+00
 -1      4026 7.90350E+01 1.95942E+01 0.00000E+00
 -1      4027 8.42850E+01 1.82952E+01 0.00000E+00
 -1      4028 8.27850E+01 1.82952E+01 0.00000E+00
 -1      4029 8.20350E+01 1.95942E+01 0.00000E+00
 -1      4030 8.72850E+01 1.82952E+01 0.00000E+00
 -1      4031 8.57850E+01 1.82952E+01 0.00000E+00
 -1      4032 8.50350E+01 1.95942E+01 0.00000E+00
 -1      4033 9.02850E+01 1.82952E+01 0.00000E+00
 -1      4034 8.87850E+01 1.82952E+01 0.00000E+00
 -1      4035 8.80350E+01 1.95942E+01 0.00000E+00
 -1      4036 9.32850E+01 1.82952E+01 0.00000E+00
 -1      4037 9.17850E+01 1.82952E+01 0.00000E+00
 -1      4038 9.10350E+01 1.95942E+01 0.00000E+00
 -1      4039 2.94000E+01 3.05150E+01 0.00000E+00
 -1      4040 3.09000E+01 3.05150E+01 0.00000E+00
 -1      4041 3.16500E+01 2.92160E+01 0.00000E+00
 -1      4042 1.32895E+02 2.34503E+01 0.00000E+00
 -1      4043 9.56831E+01 1.93752E+01 0.00000E+00
 -1      4044 9.44841E+01 1.88352E+01 0.00000E+00
 -1      4045 9.37341E+01 2.01342E+01 0.00000E+00
 -1      4046 2.95350E+01 1.69963E+01 0.00000E+00
 -1      4047 2.87850E+01 1.56973E+01 0.00000E+00
 -1      4048 2.72850E+01 1.56973E+01 0.00000E+00
 -1      4049 9.58232E+01 2.21060E+01 0.00000E+00
 -1      4050 9.64984E+01 2.07392E+01 0.00000E+00
 -1      4051 1.31356E+02 1.64784E+01 0.00000E+00
 -1      4052 2.64000E+01 3.05150E+01 0.00000E+00
 -1      4053 2.79000E+01 3.05150E+01 0.00000E+00
 -1      4054 2.86500E+01 2.92160E+01 0.00000E+00
 -1      4055 9.65860E+01 2.81308E+01 0.00000E+00
 -1      4056 5.12850E+01 1.82952E+01 0.00000E+00
 -1      4057 4.97850E+01 1.82952E+01 0.00000E+00
 -1      4058 5.20350E+01 1.95942E+01 0.00000E+00
 -1      4059 1.31351E+02 2.10101E+01 0.00000E+00
 -1      4060 1.32017E+02 2.22228E+01 0.00000E+00
 -1      4061 1.31916E+02 2.00106E+01 0.00000E+00
 -1      4062 1.70714E+01 1.85207E+01 0.00000E+00
 -1      4063 1.70714E+01 1.99926E+01 0.00000E+00
 -1      4064 1.83704E+01 2.07286E+01 0.00000E+00
 -1      4065 1.87392E+01 1.81294E+01 0.00000E+00
 -1      4066 2.34000E+01 3.05150E+01 0.00000E+00
 -1      4067 2.49000E+01 3.05150E+01 0.00000E+00
 -1      4068 2.56500E+01 2.92160E+01 0.00000E+00
 -1      4069 6.32850E+01 1.82952E+01 0.00000E+00
 -1      4070 6.17850E+01 1.82952E+01 0.00000E+00
 -1      4071 6.40350E+01 1.95942E+01 0.00000E+00
 -1      4072 6.02850E+01 1.82952E+01 0.00000E+00
 -1      4073 5.87850E+01 1.82952E+01 0.00000E+00
 -1      4074 5.80350E+01 1.95942E+01 0.00000E+00
 -1      4075 6.10350E+01 1.95942E+01 0.00000E+00
 -1      4076 4.52850E+01 1.82952E+01 0.00000E+00
 -1      4077 4.37850E+01 1.82952E+01 0.00000E+00
 -1      4078 1.33534E+02 2.23100E+01 0.00000E+00
 -1      4079 4.22850E+01 1.82952E+01 0.00000E+00
 -1      4080 4.07850E+01 1.82952E+01 0.00000E+00
 -1      4081 4.30350E+01 1.95942E+01 0.00000E+00
 -1      4082 1.96199E+01 2.21119E+01 0.00000E+00
 -1      4083 2.00774E+01 2.32491E+01 0.00000E+00
 -1      4084 1.80308E+01 2.94769E+01 0.00000E+00
 -1      4085 1.90095E+01 2.97632E+01 0.00000E+00
 -1      4086 1.78477E+01 2.83382E+01 0.00000E+00
 -1      4087 2.64793E+01 1.69131E+01 0.00000E+00
 -1      4088 9.50017E+01 2.85241E+01 0.00000E+00
 -1      4089 9.60712E+01 2.70292E+01 0.00000E+00
 -1      4090 9.51555E+01 2.65258E+01 0.00000E+00
 -1      4091 9.38185E+01 2.83193E+01 0.00000E+00
 -1      4092 2.16712E+01 3.00590E+01 0.00000E+00
 -1      4093 2.25356E+01 3.02870E+01 0.00000E+00
 -1      4094 2.32856E+01 2.89880E+01 0.00000E+00
 -1      4095 1.30612E+02 1.54482E+01 0.00000E+00
 -1      4096 1.29979E+02 1.43068E+01 0.00000E+00
 -1      4097 3.02850E+01 1.82952E+01 0.00000E+00
 -1      4098 2.87850E+01 1.82952E+01 0.00000E+00
 -1      4099 9.49339E+01 2.41972E+01 0.00000E+00
 -1      4100 9.53785E+01 2.31516E+01 0.00000E+00
 -1      4101 9.44885E+01 2.17198E+01 0.00000E+00
 -1      4102 1.33551E+02 2.08519E+01 0.00000E+00
 -1      4103 1.98043E+01 2.08123E+01 0.00000E+00
 -1      4104 3.17850E+01 1.82952E+01 0.00000E+00
 -1      4105 3.10350E+01 1.95942E+01 0.00000E+00
 -1      4106 3.32850E+01 1.82952E+01 0.00000E+00
 -1      4107 2.17392E+01 1.81294E+01 0.00000E+00
 -1      4108 2.02392E+01 1.81294E+01 0.00000E+00
 -1      4109 2.00548E+01 1.94290E+01 0.00000E+00
 -1      4110 1.79850E+01 2.61772E+01 0.00000E+00
 -1      4111 1.81680E+01 2.73159E+01 0.00000E+00
 -1      4112 1.92840E+01 2.54412E+01 0.00000E+00
 -1      4113 4.82850E+01 1.82952E+01 0.00000E+00
 -1      4114 4.67850E+01 1.82952E+01 0.00000E+00
 -1      4115 4.60350E+01 1.95942E+01 0.00000E+00
 -1      4116 4.90350E+01 1.95942E+01 0.00000E+00
 -1      4117 3.69000E+01 2.79170E+01 0.00000E+00
 -1      4118 3.84000E+01 2.79170E+01 0.00000E+00
 -1      4119 3.99000E+01 2.79170E+01 0.00000E+00
 -1      4120 4.14000E+01 2.79170E+01 0.00000E+00
 -1      4121 3.91500E+01 2.66180E+01 0.00000E+00
 -1      4122 4.29000E+01 2.79170E+01 0.00000E+00
 -1      4123 4.44000E+01 2.79170E+01 0.00000E+00
 -1      4124 4.21500E+01 2.66180E+01 0.00000E+00
 -1      4125 4.59000E+01 2.79170E+01 0.00000E+00
 -1      4126 4.74000E+01 2.79170E+01 0.00000E+00
 -1      4127 4.51500E+01 2.66180E+01 0.00000E+00
 -1      4128 4.89000E+01 2.79170E+01 0.00000E+00
 -1      4129 5.04000E+01 2.79170E+01 0.00000E+00
 -1      4130 4.81500E+01 2.66180E+01 0.00000E+00
 -1      4131 5.19000E+01 2.79170E+01 0.00000E+00
 -1      4132 5.34000E+01 2.79170E+01 0.00000E+00
 -1      4133 5.11500E+01 2.66180E+01 0.00000E+00
 -1      4134 5.49000E+01 2.79170E+01 0.00000E+00
 -1      4135 5.64000E+01 2.79170E+01 0.00000E+00
 -1      4136 5.41500E+01 2.66180E+01 0.00000E+00
 -1      4137 5.79000E+01 2.79170E+01 0.00000E+00
 -1      4138 5.94000E+01 2.79170E+01 0.00000E+00
 -1      4139 5.71500E+01 2.66180E+01 0.00000E+00
 -1      4140 6.09000E+01 2.79170E+01 0.00000E+00
 -1      4141 6.24000E+01 2.79170E+01 0.00000E+00
 -1      4142 6.01500E+01 2.66180E+01 0.00000E+00
 -1      4143 6.39000E+01 2.79170E+01 0.00000E+00
 -1      4144 6.54000E+01 2.79170E+01 0.00000E+00
 -1      4145 6.31500E+01 2.66180E+01 0.00000E+00
 -1      4146 6.69000E+01 2.79170E+01 0.00000E+00
 -1      4147 6.84000E+01 2.79170E+01 0.00000E+00
 -1      4148 6.61500E+01 2.66180E+01 0.00000E+00
 -1      4149 6.99000E+01 2.79170E+01 0.00000E+00
 -1      4150 7.14000E+01 2.79170E+01 0.00000E+00
 -1      4151 6.91500E+01 2.66180E+01 0.00000E+00
 -1      4152 7.29000E+01 2.79170E+01 0.00000E+00
 -1      4153 7.44000E+01 2.79170E+01 0.00000E+00
 -1      4154 7.21500E+01 2.66180E+01 0.00000E+00
 -1      4155 7.59000E+01 2.79170E+01 0.00000E+00
 -1      4156 7.74000E+01 2.79170E+01 0.00000E+00
 -1      4157 7.51500E+01 2.66180E+01 0.00000E+00
 -1      4158 7.89000E+01 2.79170E+01 0.00000E+00
 -1      4159 8.04000E+01 2.79170E+01 0.00000E+00
 -1      4160 7.81500E+01 2.66180E+01 0.00000E+00
 -1      4161 8.19000E+01 2.79170E+01 0.00000E+00
 -1      4162 8.34000E+01 2.79170E+01 0.00000E+00
 -1      4163 8.11500E+01 2.66180E+01 0.00000E+00
 -1      4164 8.49000E+01 2.79170E+01 0.00000E+00
 -1      4165 8.64000E+01 2.79170E+01 0.00000E+00
 -1      4166 8.41500E+01 2.66180E+01 0.00000E+00
 -1      4167 8.79000E+01 2.79170E+01 0.00000E+00
 -1      4168 8.94000E+01 2.79170E+01 0.00000E+00
 -1      4169 8.71500E+01 2.66180E+01 0.00000E+00
 -1      4170 9.09000E+01 2.79170E+01 0.00000E+00
 -1      4171 9.24000E+01 2.79170E+01 0.00000E+00
 -1      4172 9.01500E+01 2.66180E+01 0.00000E+00
 -1      4173 7.37850E+01 2.08932E+01 0.00000E+00
 -1      4174 7.22850E+01 2.08932E+01 0.00000E+00
 -1      4175 5.57850E+01 2.08932E+01 0.00000E+00
 -1      4176 5.42850E+01 2.08932E+01 0.00000E+00
 -1      4177 4.97850E+01 2.08932E+01 0.00000E+00
 -1      4178 4.82850E+01 2.08932E+01 0.00000E+00
 -1      4179 7.07850E+01 2.08932E+01 0.00000E+00
 -1      4180 6.92850E+01 2.08932E+01 0.00000E+00
 -1      4181 7.15350E+01 2.21922E+01 0.00000E+00
 -1      4182 6.77850E+01 2.08932E+01 0.00000E+00
 -1      4183 6.62850E+01 2.08932E+01 0.00000E+00
 -1      4184 6.85350E+01 2.21922E+01 0.00000E+00
 -1      4185 7.67850E+01 2.08932E+01 0.00000E+00
 -1      4186 7.52850E+01 2.08932E+01 0.00000E+00
 -1      4187 7.45350E+01 2.21922E+01 0.00000E+00
 -1      4188 7.97850E+01 2.08932E+01 0.00000E+00
 -1      4189 7.82850E+01 2.08932E+01 0.00000E+00
 -1      4190 7.75350E+01 2.21922E+01 0.00000E+00
 -1      4191 8.27850E+01 2.08932E+01 0.00000E+00
 -1      4192 8.12850E+01 2.08932E+01 0.00000E+00
 -1      4193 8.05350E+01 2.21922E+01 0.00000E+00
 -1      4194 8.57850E+01 2.08932E+01 0.00000E+00
 -1      4195 8.42850E+01 2.08932E+01 0.00000E+00
 -1      4196 8.35350E+01 2.21922E+01 0.00000E+00
 -1      4197 8.87850E+01 2.08932E+01 0.00000E+00
 -1      4198 8.72850E+01 2.08932E+01 0.00000E+00
 -1      4199 8.65350E+01 2.21922E+01 0.00000E+00
 -1      4200 9.17850E+01 2.08932E+01 0.00000E+00
 -1      4201 9.02850E+01 2.08932E+01 0.00000E+00
 -1      4202 8.95350E+01 2.21922E+01 0.00000E+00
 -1      4203 3.09000E+01 2.79170E+01 0.00000E+00
 -1      4204 3.24000E+01 2.79170E+01 0.00000E+00
 -1      4205 2.79793E+01 1.95111E+01 0.00000E+00
 -1      4206 2.72293E+01 1.82121E+01 0.00000E+00
 -1      4207 2.56735E+01 1.81289E+01 0.00000E+00
 -1      4208 2.44564E+01 1.81291E+01 0.00000E+00
 -1      4209 2.29564E+01 1.81291E+01 0.00000E+00
 -1      4210 2.27720E+01 1.94287E+01 0.00000E+00
 -1      4211 2.52064E+01 1.94281E+01 0.00000E+00
 -1      4212 2.15183E+01 2.36054E+01 0.00000E+00
 -1      4213 2.05419E+01 2.46588E+01 0.00000E+00
 -1      4214 3.39000E+01 2.79170E+01 0.00000E+00
 -1      4215 3.54000E+01 2.79170E+01 0.00000E+00
 -1      4216 3.31500E+01 2.66180E+01 0.00000E+00
 -1      4217 5.27850E+01 2.08932E+01 0.00000E+00
 -1      4218 5.12850E+01 2.08932E+01 0.00000E+00
 -1      4219 5.05350E+01 2.21922E+01 0.00000E+00
 -1      4220 2.79000E+01 2.79170E+01 0.00000E+00
 -1      4221 2.94000E+01 2.79170E+01 0.00000E+00
 -1      4222 3.01500E+01 2.66180E+01 0.00000E+00
 -1      4223 9.32894E+01 2.11798E+01 0.00000E+00
 -1      4224 4.67850E+01 2.08932E+01 0.00000E+00
 -1      4225 4.52850E+01 2.08932E+01 0.00000E+00
 -1      4226 4.75350E+01 2.21922E+01 0.00000E+00
 -1      4227 6.47850E+01 2.08932E+01 0.00000E+00
 -1      4228 6.32850E+01 2.08932E+01 0.00000E+00
 -1      4229 6.55350E+01 2.21922E+01 0.00000E+00
 -1      4230 2.13043E+01 2.08123E+01 0.00000E+00
 -1      4231 1.99082E+01 2.97971E+01 0.00000E+00
 -1      4232 2.07726E+01 3.00251E+01 0.00000E+00
 -1      4233 2.15226E+01 2.87261E+01 0.00000E+00
 -1      4234 1.97252E+01 2.86583E+01 0.00000E+00
 -1      4235 2.49000E+01 2.79170E+01 0.00000E+00
 -1      4236 2.64000E+01 2.79170E+01 0.00000E+00
 -1      4237 2.71500E+01 2.66180E+01 0.00000E+00
 -1      4238 2.86878E+01 2.08498E+01 0.00000E+00
 -1      4239 2.71320E+01 2.07666E+01 0.00000E+00
 -1      4240 4.37850E+01 2.08932E+01 0.00000E+00
 -1      4241 4.22850E+01 2.08932E+01 0.00000E+00
 -1      4242 4.45350E+01 2.21922E+01 0.00000E+00
 -1      4243 3.47850E+01 1.82952E+01 0.00000E+00
 -1      4244 3.40350E+01 1.95942E+01 0.00000E+00
 -1      4245 3.62850E+01 1.82952E+01 0.00000E+00
 -1      4246 5.72850E+01 2.08932E+01 0.00000E+00
 -1      4247 5.65350E+01 2.21922E+01 0.00000E+00
 -1      4248 5.87850E+01 2.08932E+01 0.00000E+00
 -1      4249 2.25215E+01 2.08120E+01 0.00000E+00
 -1      4250 2.22710E+01 2.21954E+01 0.00000E+00
 -1      4251 2.37387E+01 2.08118E+01 0.00000E+00
 -1      4252 2.31712E+01 2.74610E+01 0.00000E+00
 -1      4253 2.40356E+01 2.76890E+01 0.00000E+00
 -1      4254 2.47856E+01 2.63900E+01 0.00000E+00
 -1      4255 5.35350E+01 2.21922E+01 0.00000E+00
 -1      4256 4.00350E+01 1.95942E+01 0.00000E+00
 -1      4257 3.92850E+01 1.82952E+01 0.00000E+00
 -1      4258 3.77850E+01 1.82952E+01 0.00000E+00
 -1      4259 9.25394E+01 2.24788E+01 0.00000E+00
 -1      4260 2.07249E+01 2.57976E+01 0.00000E+00
 -1      4261 9.30685E+01 2.70203E+01 0.00000E+00
 -1      4262 9.42925E+01 2.52182E+01 0.00000E+00
 -1      4263 9.34024E+01 2.37864E+01 0.00000E+00
 -1      4264 9.18980E+01 2.34998E+01 0.00000E+00
 -1      4265 9.36240E+01 2.61150E+01 0.00000E+00
 -1      4266 2.27355E+01 2.36051E+01 0.00000E+00
 -1      4267 3.61500E+01 2.66180E+01 0.00000E+00
 -1      4268 3.16878E+01 2.08498E+01 0.00000E+00
 -1      4269 3.01878E+01 2.08498E+01 0.00000E+00
 -1      4270 2.93405E+01 2.21053E+01 0.00000E+00
 -1      4271 1.91467E+01 2.76022E+01 0.00000E+00
 -1      4272 6.17850E+01 2.08932E+01 0.00000E+00
 -1      4273 6.02850E+01 2.08932E+01 0.00000E+00
 -1      4274 5.95350E+01 2.21922E+01 0.00000E+00
 -1      4275 6.25350E+01 2.21922E+01 0.00000E+00
 -1      4276 3.84000E+01 2.53190E+01 0.00000E+00
 -1      4277 3.99000E+01 2.53190E+01 0.00000E+00
 -1      4278 4.18425E+01 2.44051E+01 0.00000E+00
 -1      4279 4.33425E+01 2.44051E+01 0.00000E+00
 -1      4280 4.48425E+01 2.44051E+01 0.00000E+00
 -1      4281 4.63425E+01 2.44051E+01 0.00000E+00
 -1      4282 4.78425E+01 2.44051E+01 0.00000E+00
 -1      4283 4.93425E+01 2.44051E+01 0.00000E+00
 -1      4284 5.08425E+01 2.44051E+01 0.00000E+00
 -1      4285 5.23425E+01 2.44051E+01 0.00000E+00
 -1      4286 5.38425E+01 2.44051E+01 0.00000E+00
 -1      4287 5.53425E+01 2.44051E+01 0.00000E+00
 -1      4288 5.68425E+01 2.44051E+01 0.00000E+00
 -1      4289 5.83425E+01 2.44051E+01 0.00000E+00
 -1      4290 5.98425E+01 2.44051E+01 0.00000E+00
 -1      4291 6.13425E+01 2.44051E+01 0.00000E+00
 -1      4292 6.28425E+01 2.44051E+01 0.00000E+00
 -1      4293 6.43425E+01 2.44051E+01 0.00000E+00
 -1      4294 6.58425E+01 2.44051E+01 0.00000E+00
 -1      4295 6.73425E+01 2.44051E+01 0.00000E+00
 -1      4296 6.88425E+01 2.44051E+01 0.00000E+00
 -1      4297 7.03425E+01 2.44051E+01 0.00000E+00
 -1      4298 7.18425E+01 2.44051E+01 0.00000E+00
 -1      4299 7.33425E+01 2.44051E+01 0.00000E+00
 -1      4300 7.48425E+01 2.44051E+01 0.00000E+00
 -1      4301 7.63425E+01 2.44051E+01 0.00000E+00
 -1      4302 7.78425E+01 2.44051E+01 0.00000E+00
 -1      4303 7.93425E+01 2.44051E+01 0.00000E+00
 -1      4304 8.08425E+01 2.44051E+01 0.00000E+00
 -1      4305 8.23425E+01 2.44051E+01 0.00000E+00
 -1      4306 8.38425E+01 2.44051E+01 0.00000E+00
 -1      4307 8.53425E+01 2.44051E+01 0.00000E+00
 -1      4308 8.68425E+01 2.44051E+01 0.00000E+00
 -1      4309 8.83425E+01 2.44051E+01 0.00000E+00
 -1      4310 2.64000E+01 2.53190E+01 0.00000E+00
 -1      4311 2.79000E+01 2.53190E+01 0.00000E+00
 -1      4312 8.98425E+01 2.44051E+01 0.00000E+00
 -1      4313 2.53191E+01 2.31075E+01 0.00000E+00
 -1      4314 2.45664E+01 2.45176E+01 0.00000E+00
 -1      4315 9.22055E+01 2.57127E+01 0.00000E+00
 -1      4316 3.24000E+01 2.53190E+01 0.00000E+00
 -1      4317 3.39000E+01 2.53190E+01 0.00000E+00
 -1      4318 2.94000E+01 2.53190E+01 0.00000E+00
 -1      4319 3.09000E+01 2.53190E+01 0.00000E+00
 -1      4320 3.16500E+01 2.40200E+01 0.00000E+00
 -1      4321 2.86500E+01 2.40200E+01 0.00000E+00
 -1      4322 3.54000E+01 2.53190E+01 0.00000E+00
 -1      4323 3.69000E+01 2.53190E+01 0.00000E+00
 -1      4324 3.76500E+01 2.40200E+01 0.00000E+00
 -1      4325 2.00454E+01 2.76361E+01 0.00000E+00
 -1      4326 4.10925E+01 2.31061E+01 0.00000E+00
 -1      4327 4.03425E+01 2.18071E+01 0.00000E+00
 -1      4328 3.70350E+01 1.95942E+01 0.00000E+00
 -1      4329 2.08345E+01 2.67338E+01 0.00000E+00
 -1      4330 2.14130E+01 2.77899E+01 0.00000E+00
 -1      4331 2.23116E+01 2.78238E+01 0.00000E+00
 -1      4332 2.20924E+01 2.59513E+01 0.00000E+00
 -1      4333 2.49558E+01 2.08115E+01 0.00000E+00
 -1      4334 9.07055E+01 2.57127E+01 0.00000E+00
 -1      4335 3.88425E+01 2.18071E+01 0.00000E+00
 -1      4336 2.56643E+01 2.21502E+01 0.00000E+00
 -1      4337 3.46500E+01 2.40200E+01 0.00000E+00
 -1      4338 3.43425E+01 2.18071E+01 0.00000E+00
 -1      4339 3.28425E+01 2.18071E+01 0.00000E+00
 -1      4340 3.04953E+01 2.30627E+01 0.00000E+00
 -1      4341 2.89953E+01 2.30627E+01 0.00000E+00
 -1      4342 2.74953E+01 2.30627E+01 0.00000E+00
 -1      4343 3.73425E+01 2.18071E+01 0.00000E+00
 -1      4344 3.58425E+01 2.18071E+01 0.00000E+00
 -1      4345 2.29520E+01 2.55886E+01 0.00000E+00
 -1      4346 2.30616E+01 2.65248E+01 0.00000E+00
 -1      4347 3.19953E+01 2.30627E+01 0.00000E+00
 -1      4348 2.55356E+01 2.50910E+01 0.00000E+00
 -3
    3C                          2092                                     1
 -1       165    8    0    1
 -2         6         7        23      1129      1293      1146
 -1       166    8    0    1
 -2         7         8       165      1130      1294      1295
 -1       167    8    0    1
 -2         8         9       166      1131      1296      1297
 -1       168    8    0    1
 -2         8       166       165      1297      1298      1294
 -1       169    8    0    1
 -2         9        10       167      1132      1299      1300
 -1       170    8    0    1
 -2         9       167       166      1300      1301      1296
 -1       171    8    0    1
 -2        10        11       168      1133      1302      1303
 -1       172    8    0    1
 -2        10       168       167      1303      1304      1299
 -1       173    8    0    1
 -2        11        12       169      1134      1305      1306
 -1       174    8    0    1
 -2        11       169       168      1306      1307      1302
 -1       175    8    0    1
 -2        12        13       170      1135      1308      1309
 -1       176    8    0    1
 -2        12       170       169      1309      1310      1305
 -1       177    8    0    1
 -2        13        14       171      1136      1311      1312
 -1       178    8    0    1
 -2        13       171       170      1312      1313      1308
 -1       179    8    0    1
 -2        14        15       172      1137      1314      1315
 -1       180    8    0    1
 -2        14       172       171      1315      1316      1311
 -1       181    8    0    1
 -2        15        16       173      1138      1317      1318
 -1       182    8    0    1
 -2        15       173       172      1318      1319      1314
 -1       183    8    0    1
 -2        16        17       174      1139      1320      1321
 -1       184    8    0    1
 -2        16       174       173      1321      1322      1317
 -1       185    8    0    1
 -2        17        18       175      1140      1323      1324
 -1       186    8    0    1
 -2        17       175       174      1324      1325      1320
 -1       187    8    0    1
 -2        18        19       176      1141      1326      1327
 -1       188    8    0    1
 -2        18       176       175      1327      1328      1323
 -1       189    8    0    1
 -2        19        20       177      1142      1329      1330
 -1       190    8    0    1
 -2        19       177       176      1330      1331      1326
 -1       191    8    0    1
 -2        20        21       178      1143      1332      1333
 -1       192    8    0    1
 -2        20       178       177      1333      1334      1329
 -1       193    8    0    1
 -2        21        22       179      1144      1335      1336
 -1       194    8    0    1
 -2        21       179       178      1336      1337      1332
 -1       195    8    0    1
 -2        22         5       180      1145      1338      1339
 -1       196    8    0    1
 -2       179        22       180      1335      1339      1340
 -1       197    8    0    1
 -2         5        72       180      1196      1341      1338
 -1       198    8    0    1
 -2        24        23       181      1147      1342      1343
 -1       199    8    0    1
 -2        25        24       182      1148      1344      1345
 -1       200    8    0    1
 -2        24       181       182      1343      1346      1344
 -1       201    8    0    1
 -2        26        25       183      1149      1347      1348
 -1       202    8    0    1
 -2        25       182       183      1345      1349      1347
 -1       203    8    0    1
 -2        27        26       184      1150      1350      1351
 -1       204    8    0    1
 -2        26       183       184      1348      1352      1350
 -1       205    8    0    1
 -2        28        27       185      1151      1353      1354
 -1       206    8    0    1
 -2        27       184       185      1351      1355      1353
 -1       207    8    0    1
 -2        29        28       186      1152      1356      1357
 -1       208    8    0    1
 -2        28       185       186      1354      1358      1356
 -1       209    8    0    1
 -2        30        29       187      1153      1359      1360
 -1       210    8    0    1
 -2        29       186       187      1357      1361      1359
 -1       211    8    0    1
 -2        31        30       188      1154      1362      1363
 -1       212    8    0    1
 -2        30       187       188      1360      1364      1362
 -1       213    8    0    1
 -2        32        31       189      1155      1365      1366
 -1       214    8    0    1
 -2        31       188       189      1363      1367      1365
 -1       215    8    0    1
 -2        33        32       190      1156      1368      1369
 -1       216    8    0    1
 -2        32       189       190      1366      1370      1368
 -1       217    8    0    1
 -2        34        33       191      1157      1371      1372
 -1       218    8    0    1
 -2        33       190       191      1369      1373      1371
 -1       219    8    0    1
 -2        35        34       192      1158      1374      1375
 -1       220    8    0    1
 -2        34       191       192      1372      1376      1374
 -1       221    8    0    1
 -2        36        35       193      1159      1377      1378
 -1       222    8    0    1
 -2        35       192       193      1375      1379      1377
 -1       223    8    0    1
 -2        37        36       194      1160      1380      1381
 -1       224    8    0    1
 -2        36       193       194      1378      1382      1380
 -1       225    8    0    1
 -2        38        37       195      1161      1383      1384
 -1       226    8    0    1
 -2        37       194       195      1381      1385      1383
 -1       227    8    0    1
 -2        39        38       196      1162      1386      1387
 -1       228    8    0    1
 -2        38       195       196      1384      1388      1386
 -1       229    8    0    1
 -2        40        39       197      1163      1389      1390
 -1       230    8    0    1
 -2        39       196       197      1387      1391      1389
 -1       231    8    0    1
 -2        41        40       198      1164      1392      1393
 -1       232    8    0    1
 -2        40       197       198      1390      1394      1392
 -1       233    8    0    1
 -2        42        41       199      1165      1395      1396
 -1       234    8    0    1
 -2        41       198       199      1393      1397      1395
 -1       235    8    0    1
 -2        43        42       200      1166      1398      1399
 -1       236    8    0    1
 -2        42       199       200      1396      1400      1398
 -1       237    8    0    1
 -2        44        43       201      1167      1401      1402
 -1       238    8    0    1
 -2        43       200       201      1399      1403      1401
 -1       239    8    0    1
 -2        45        44       202      1168      1404      1405
 -1       240    8    0    1
 -2        44       201       202      1402      1406      1404
 -1       241    8    0    1
 -2        46        45       203      1169      1407      1408
 -1       242    8    0    1
 -2        45       202       203      1405      1409      1407
 -1       243    8    0    1
 -2        47        46       204      1170      1410      1411
 -1       244    8    0    1
 -2        46       203       204      1408      1412      1410
 -1       245    8    0    1
 -2        48        47       205      1171      1413      1414
 -1       246    8    0    1
 -2        47       204       205      1411      1415      1413
 -1       247    8    0    1
 -2        49        48       206      1172      1416      1417
 -1       248    8    0    1
 -2        48       205       206      1414      1418      1416
 -1       249    8    0    1
 -2        50        49       207      1173      1419      1420
 -1       250    8    0    1
 -2        49       206       207      1417      1421      1419
 -1       251    8    0    1
 -2        51        50       208      1174      1422      1423
 -1       252    8    0    1
 -2        50       207       208      1420      1424      1422
 -1       253    8    0    1
 -2        52        51       209      1175      1425      1426
 -1       254    8    0    1
 -2        51       208       209      1423      1427      1425
 -1       255    8    0    1
 -2        53        52       210      1176      1428      1429
 -1       256    8    0    1
 -2        52       209       210      1426      1430      1428
 -1       257    8    0    1
 -2        54        53       211      1177      1431      1432
 -1       258    8    0    1
 -2        53       210       211      1429      1433      1431
 -1       259    8    0    1
 -2        55        54       212      1178      1434      1435
 -1       260    8    0    1
 -2        54       211       212      1432      1436      1434
 -1       261    8    0    1
 -2        56        55       213      1179      1437      1438
 -1       262    8    0    1
 -2        55       212       213      1435      1439      1437
 -1       263    8    0    1
 -2        57        56       214      1180      1440      1441
 -1       264    8    0    1
 -2        56       213       214      1438      1442      1440
 -1       265    8    0    1
 -2        58        57       215      1181      1443      1444
 -1       266    8    0    1
 -2        57       214       215      1441      1445      1443
 -1       267    8    0    1
 -2        59        58       216      1182      1446      1447
 -1       268    8    0    1
 -2        58       215       216      1444      1448      1446
 -1       269    8    0    1
 -2        60        59       217      1183      1449      1450
 -1       270    8    0    1
 -2        59       216       217      1447      1451      1449
 -1       271    8    0    1
 -2        61        60       218      1184      1452      1453
 -1       272    8    0    1
 -2        60       217       218      1450      1454      1452
 -1       273    8    0    1
 -2        62        61       219      1185      1455      1456
 -1       274    8    0    1
 -2        61       218       219      1453      1457      1455
 -1       275    8    0    1
 -2        63        62       220      1186      1458      1459
 -1       276    8    0    1
 -2        62       219       220      1456      1460      1458
 -1       277    8    0    1
 -2        64        63       221      1187      1461      1462
 -1       278    8    0    1
 -2        63       220       221      1459      1463      1461
 -1       279    8    0    1
 -2        65        64       222      1188      1464      1465
 -1       280    8    0    1
 -2        64       221       222      1462      1466      1464
 -1       281    8    0    1
 -2        66        65       223      1189      1467      1468
 -1       282    8    0    1
 -2        65       222       223      1465      1469      1467
 -1       283    8    0    1
 -2        67        66       224      1190      1470      1471
 -1       284    8    0    1
 -2        66       223       224      1468      1472      1470
 -1       285    8    0    1
 -2        68        67       225      1191      1473      1474
 -1       286    8    0    1
 -2        67       224       225      1471      1475      1473
 -1       287    8    0    1
 -2        69        68       226      1192      1476      1477
 -1       288    8    0    1
 -2        68       225       226      1474      1478      1476
 -1       289    8    0    1
 -2        70        69       227      1193      1479      1480
 -1       290    8    0    1
 -2        69       226       227      1477      1481      1479
 -1       291    8    0    1
 -2        71        70       228      1194      1482      1483
 -1       292    8    0    1
 -2        70       227       228      1480      1484      1482
 -1       293    8    0    1
 -2         4        71       136      1195      1485      1262
 -1       294    8    0    1
 -2       136        71       228      1485      1483      1486
 -1       295    8    0    1
 -2        72        73       229      1197      1487      1488
 -1       296    8    0    1
 -2        72       229       180      1488      1489      1341
 -1       297    8    0    1
 -2        73        74       230      1198      1490      1491
 -1       298    8    0    1
 -2        73       230       229      1491      1492      1487
 -1       299    8    0    1
 -2        74        75       231      1199      1493      1494
 -1       300    8    0    1
 -2        74       231       230      1494      1495      1490
 -1       301    8    0    1
 -2        75        76       232      1200      1496      1497
 -1       302    8    0    1
 -2        75       232       231      1497      1498      1493
 -1       303    8    0    1
 -2        76        77       233      1201      1499      1500
 -1       304    8    0    1
 -2        76       233       232      1500      1501      1496
 -1       305    8    0    1
 -2        77        78       234      1202      1502      1503
 -1       306    8    0    1
 -2        77       234       233      1503      1504      1499
 -1       307    8    0    1
 -2        78        79       235      1203      1505      1506
 -1       308    8    0    1
 -2        78       235       234      1506      1507      1502
 -1       309    8    0    1
 -2        79        80       236      1204      1508      1509
 -1       310    8    0    1
 -2        79       236       235      1509      1510      1505
 -1       311    8    0    1
 -2        80        81       237      1205      1511      1512
 -1       312    8    0    1
 -2        80       237       236      1512      1513      1508
 -1       313    8    0    1
 -2        81        82       238      1206      1514      1515
 -1       314    8    0    1
 -2        81       238       237      1515      1516      1511
 -1       315    8    0    1
 -2        82        83       239      1207      1517      1518
 -1       316    8    0    1
 -2        82       239       238      1518      1519      1514
 -1       317    8    0    1
 -2        83        84       240      1208      1520      1521
 -1       318    8    0    1
 -2        83       240       239      1521      1522      1517
 -1       319    8    0    1
 -2        84        85       241      1209      1523      1524
 -1       320    8    0    1
 -2        84       241       240      1524      1525      1520
 -1       321    8    0    1
 -2        85        86       242      1210      1526      1527
 -1       322    8    0    1
 -2        85       242       241      1527      1528      1523
 -1       323    8    0    1
 -2        86        87       243      1211      1529      1530
 -1       324    8    0    1
 -2        86       243       242      1530      1531      1526
 -1       325    8    0    1
 -2        87        88       244      1212      1532      1533
 -1       326    8    0    1
 -2        87       244       243      1533      1534      1529
 -1       327    8    0    1
 -2        88        89       245      1213      1535      1536
 -1       328    8    0    1
 -2        88       245       244      1536      1537      1532
 -1       329    8    0    1
 -2        89        90       246      1214      1538      1539
 -1       330    8    0    1
 -2        89       246       245      1539      1540      1535
 -1       331    8    0    1
 -2        90        91       247      1215      1541      1542
 -1       332    8    0    1
 -2        90       247       246      1542      1543      1538
 -1       333    8    0    1
 -2        91        92       248      1216      1544      1545
 -1       334    8    0    1
 -2        91       248       247      1545      1546      1541
 -1       335    8    0    1
 -2        92        93       249      1217      1547      1548
 -1       336    8    0    1
 -2        92       249       248      1548      1549      1544
 -1       337    8    0    1
 -2        93        94       250      1218      1550      1551
 -1       338    8    0    1
 -2        93       250       249      1551      1552      1547
 -1       339    8    0    1
 -2        94        95       251      1219      1553      1554
 -1       340    8    0    1
 -2        94       251       250      1554      1555      1550
 -1       341    8    0    1
 -2        95        96       252      1220      1556      1557
 -1       342    8    0    1
 -2        95       252       251      1557      1558      1553
 -1       343    8    0    1
 -2        96        97       253      1221      1559      1560
 -1       344    8    0    1
 -2        96       253       252      1560      1561      1556
 -1       345    8    0    1
 -2        97        98       254      1222      1562      1563
 -1       346    8    0    1
 -2        97       254       253      1563      1564      1559
 -1       347    8    0    1
 -2        98        99       255      1223      1565      1566
 -1       348    8    0    1
 -2        98       255       254      1566      1567      1562
 -1       349    8    0    1
 -2        99       100       256      1224      1568      1569
 -1       350    8    0    1
 -2        99       256       255      1569      1570      1565
 -1       351    8    0    1
 -2       100       101       257      1225      1571      1572
 -1       352    8    0    1
 -2       100       257       256      1572      1573      1568
 -1       353    8    0    1
 -2       101       102       258      1226      1574      1575
 -1       354    8    0    1
 -2       101       258       257      1575      1576      1571
 -1       355    8    0    1
 -2       102       103       259      1227      1577      1578
 -1       356    8    0    1
 -2       102       259       258      1578      1579      1574
 -1       357    8    0    1
 -2       103       104       260      1228      1580      1581
 -1       358    8    0    1
 -2       103       260       259      1581      1582      1577
 -1       359    8    0    1
 -2       104       105       261      1229      1583      1584
 -1       360    8    0    1
 -2       104       261       260      1584      1585      1580
 -1       361    8    0    1
 -2       105       106       262      1230      1586      1587
 -1       362    8    0    1
 -2       105       262       261      1587      1588      1583
 -1       363    8    0    1
 -2       106       107       263      1231      1589      1590
 -1       364    8    0    1
 -2       106       263       262      1590      1591      1586
 -1       365    8    0    1
 -2       107       108       264      1232      1592      1593
 -1       366    8    0    1
 -2       107       264       263      1593      1594      1589
 -1       367    8    0    1
 -2       108       109       265      1233      1595      1596
 -1       368    8    0    1
 -2       108       265       264      1596      1597      1592
 -1       369    8    0    1
 -2       109       110       266      1234      1598      1599
 -1       370    8    0    1
 -2       109       266       265      1599      1600      1595
 -1       371    8    0    1
 -2       110       111       267      1235      1601      1602
 -1       372    8    0    1
 -2       110       267       266      1602      1603      1598
 -1       373    8    0    1
 -2       111       112       268      1236      1604      1605
 -1       374    8    0    1
 -2       111       268       267      1605      1606      1601
 -1       375    8    0    1
 -2       112       113       269      1237      1607      1608
 -1       376    8    0    1
 -2       112       269       268      1608      1609      1604
 -1       377    8    0    1
 -2       113       114       270      1238      1610      1611
 -1       378    8    0    1
 -2       113       270       269      1611      1612      1607
 -1       379    8    0    1
 -2       114       115       271      1239      1613      1614
 -1       380    8    0    1
 -2       114       271       270      1614      1615      1610
 -1       381    8    0    1
 -2       115       116       272      1240      1616      1617
 -1       382    8    0    1
 -2       115       272       271      1617      1618      1613
 -1       383    8    0    1
 -2       116       117       273      1241      1619      1620
 -1       384    8    0    1
 -2       116       273       272      1620      1621      1616
 -1       385    8    0    1
 -2       117       118       274      1242      1622      1623
 -1       386    8    0    1
 -2       117       274       273      1623      1624      1619
 -1       387    8    0    1
 -2       118       119       275      1243      1625      1626
 -1       388    8    0    1
 -2       118       275       274      1626      1627      1622
 -1       389    8    0    1
 -2       119       120       276      1244      1628      1629
 -1       390    8    0    1
 -2       119       276       275      1629      1630      1625
 -1       391    8    0    1
 -2       120         3       121      1245      1246      1631
 -1       392    8    0    1
 -2       121       122       277      1247      1632      1633
 -1       393    8    0    1
 -2       122       123       278      1248      1634      1635
 -1       394    8    0    1
 -2       122       278       277      1635      1636      1632
 -1       395    8    0    1
 -2       123       124       279      1249      1637      1638
 -1       396    8    0    1
 -2       123       279       278      1638      1639      1634
 -1       397    8    0    1
 -2       124       125       280      1250      1640      1641
 -1       398    8    0    1
 -2       124       280       279      1641      1642      1637
 -1       399    8    0    1
 -2       125       126       281      1251      1643      1644
 -1       400    8    0    1
 -2       125       281       280      1644      1645      1640
 -1       401    8    0    1
 -2       126       127       282      1252      1646      1647
 -1       402    8    0    1
 -2       126       282       281      1647      1648      1643
 -1       403    8    0    1
 -2       127       128       283      1253      1649      1650
 -1       404    8    0    1
 -2       127       283       282      1650      1651      1646
 -1       405    8    0    1
 -2       128       129       284      1254      1652      1653
 -1       406    8    0    1
 -2       128       284       283      1653      1654      1649
 -1       407    8    0    1
 -2       129       130       285      1255      1655      1656
 -1       408    8    0    1
 -2       129       285       284      1656      1657      1652
 -1       409    8    0    1
 -2       130       131       286      1256      1658      1659
 -1       410    8    0    1
 -2       130       286       285      1659      1660      1655
 -1       411    8    0    1
 -2       131       132       287      1257      1661      1662
 -1       412    8    0    1
 -2       131       287       286      1662      1663      1658
 -1       413    8    0    1
 -2       132       133       288      1258      1664      1665
 -1       414    8    0    1
 -2       132       288       287      1665      1666      1661
 -1       415    8    0    1
 -2       133       134       289      1259      1667      1668
 -1       416    8    0    1
 -2       133       289       288      1668      1669      1664
 -1       417    8    0    1
 -2       134       135       290      1260      1670      1671
 -1       418    8    0    1
 -2       134       290       289      1671      1672      1667
 -1       419    8    0    1
 -2       135       136       291      1261      1673      1674
 -1       420    8    0    1
 -2       290       135       291      1670      1674      1675
 -1       421    8    0    1
 -2       136       228       291      1486      1676      1673
 -1       422    8    0    1
 -2         2       137       292      1263      1677      1678
 -1       423    8    0    1
 -2       137       138       293      1264      1679      1680
 -1       424    8    0    1
 -2       138       139       294      1265      1681      1682
 -1       425    8    0    1
 -2       139       140       295      1266      1683      1684
 -1       426    8    0    1
 -2       140       141       296      1267      1685      1686
 -1       427    8    0    1
 -2       141       142       297      1268      1687      1688
 -1       428    8    0    1
 -2       142       143       298      1269      1689      1690
 -1       429    8    0    1
 -2       143       144       299      1270      1691      1692
 -1       430    8    0    1
 -2       144       145       300      1271      1693      1694
 -1       431    8    0    1
 -2       145       146       301      1272      1695      1696
 -1       432    8    0    1
 -2       146       147       302      1273      1697      1698
 -1       433    8    0    1
 -2       147       148       303      1274      1699      1700
 -1       434    8    0    1
 -2       148       149       304      1275      1701      1702
 -1       435    8    0    1
 -2       149       150       305      1276      1703      1704
 -1       436    8    0    1
 -2       150       151       306      1277      1705      1706
 -1       437    8    0    1
 -2       151       152       307      1278      1707      1708
 -1       438    8    0    1
 -2       152       153       308      1279      1709      1710
 -1       439    8    0    1
 -2       153       154       309      1280      1711      1712
 -1       440    8    0    1
 -2       154         1       310      1281      1713      1714
 -1       441    8    0    1
 -2         1       155       311      1282      1715      1716
 -1       442    8    0    1
 -2       155       156       312      1283      1717      1718
 -1       443    8    0    1
 -2       156       157       313      1284      1719      1720
 -1       444    8    0    1
 -2       157       158       314      1285      1721      1722
 -1       445    8    0    1
 -2       158       159       315      1286      1723      1724
 -1       446    8    0    1
 -2       159       160       316      1287      1725      1726
 -1       447    8    0    1
 -2       160       161       317      1288      1727      1728
 -1       448    8    0    1
 -2       161       162       318      1289      1729      1730
 -1       449    8    0    1
 -2       162       163       319      1290      1731      1732
 -1       450    8    0    1
 -2       163       164       320      1291      1733      1734
 -1       451    8    0    1
 -2       164         2       321      1292      1735      1736
 -1       452    8    0    1
 -2       295       140       296      1683      1686      1737
 -1       453    8    0    1
 -2       294       139       295      1681      1684      1738
 -1       454    8    0    1
 -2       120       121       276      1631      1739      1628
 -1       455    8    0    1
 -2       121       277       276      1633      1740      1739
 -1       456    8    0    1
 -2       292       137       293      1677      1680      1741
 -1       457    8    0    1
 -2       293       138       294      1679      1682      1742
 -1       458    8    0    1
 -2         2       292       321      1678      1743      1735
 -1       459    8    0    1
 -2       141       297       296      1688      1744      1685
 -1       460    8    0    1
 -2       142       298       297      1690      1745      1687
 -1       461    8    0    1
 -2       143       299       298      1692      1746      1689
 -1       462    8    0    1
 -2       144       300       299      1694      1747      1691
 -1       463    8    0    1
 -2       145       301       300      1696      1748      1693
 -1       464    8    0    1
 -2       146       302       301      1698      1749      1695
 -1       465    8    0    1
 -2       147       303       302      1700      1750      1697
 -1       466    8    0    1
 -2       148       304       303      1702      1751      1699
 -1       467    8    0    1
 -2       149       305       304      1704      1752      1701
 -1       468    8    0    1
 -2       150       306       305      1706      1753      1703
 -1       469    8    0    1
 -2       151       307       306      1708      1754      1705
 -1       470    8    0    1
 -2       152       308       307      1710      1755      1707
 -1       471    8    0    1
 -2       153       309       308      1712      1756      1709
 -1       472    8    0    1
 -2       154       310       309      1714      1757      1711
 -1       473    8    0    1
 -2         1       311       310      1716      1758      1713
 -1       474    8    0    1
 -2       155       312       311      1718      1759      1715
 -1       475    8    0    1
 -2       156       313       312      1720      1760      1717
 -1       476    8    0    1
 -2       157       314       313      1722      1761      1719
 -1       477    8    0    1
 -2       158       315       314      1724      1762      1721
 -1       478    8    0    1
 -2       159       316       315      1726      1763      1723
 -1       479    8    0    1
 -2       160       317       316      1728      1764      1725
 -1       480    8    0    1
 -2       161       318       317      1730      1765      1727
 -1       481    8    0    1
 -2       162       319       318      1732      1766      1729
 -1       482    8    0    1
 -2       163       320       319      1734      1767      1731
 -1       483    8    0    1
 -2       164       321       320      1736      1768      1733
 -1       484    8    0    1
 -2        23         7       165      1293      1295      1769
 -1       485    8    0    1
 -2       166       167       322      1301      1770      1771
 -1       486    8    0    1
 -2       165       166       323      1298      1772      1773
 -1       487    8    0    1
 -2       166       322       323      1771      1774      1772
 -1       488    8    0    1
 -2       168       169       324      1307      1775      1776
 -1       489    8    0    1
 -2       169       170       325      1310      1777      1778
 -1       490    8    0    1
 -2       169       325       324      1778      1779      1775
 -1       491    8    0    1
 -2       170       171       326      1313      1780      1781
 -1       492    8    0    1
 -2       170       326       325      1781      1782      1777
 -1       493    8    0    1
 -2       171       172       327      1316      1783      1784
 -1       494    8    0    1
 -2       171       327       326      1784      1785      1780
 -1       495    8    0    1
 -2       172       173       328      1319      1786      1787
 -1       496    8    0    1
 -2       172       328       327      1787      1788      1783
 -1       497    8    0    1
 -2       173       174       329      1322      1789      1790
 -1       498    8    0    1
 -2       173       329       328      1790      1791      1786
 -1       499    8    0    1
 -2       174       175       330      1325      1792      1793
 -1       500    8    0    1
 -2       174       330       329      1793      1794      1789
 -1       501    8    0    1
 -2       175       176       331      1328      1795      1796
 -1       502    8    0    1
 -2       175       331       330      1796      1797      1792
 -1       503    8    0    1
 -2       176       177       332      1331      1798      1799
 -1       504    8    0    1
 -2       176       332       331      1799      1800      1795
 -1       505    8    0    1
 -2       177       178       333      1334      1801      1802
 -1       506    8    0    1
 -2       177       333       332      1802      1803      1798
 -1       507    8    0    1
 -2       178       179       334      1337      1804      1805
 -1       508    8    0    1
 -2       178       334       333      1805      1806      1801
 -1       509    8    0    1
 -2       179       180       335      1340      1807      1808
 -1       510    8    0    1
 -2       334       179       335      1804      1808      1809
 -1       511    8    0    1
 -2       180       229       335      1489      1810      1807
 -1       512    8    0    1
 -2       181        23       165      1342      1769      1811
 -1       513    8    0    1
 -2       229       230       336      1492      1812      1813
 -1       514    8    0    1
 -2       229       336       335      1813      1814      1810
 -1       515    8    0    1
 -2       181       165       323      1811      1773      1815
 -1       516    8    0    1
 -2       183       182       337      1349      1816      1817
 -1       517    8    0    1
 -2       184       183       338      1352      1818      1819
 -1       518    8    0    1
 -2       183       337       338      1817      1820      1818
 -1       519    8    0    1
 -2       185       184       339      1355      1821      1822
 -1       520    8    0    1
 -2       184       338       339      1819      1823      1821
 -1       521    8    0    1
 -2       186       185       340      1358      1824      1825
 -1       522    8    0    1
 -2       185       339       340      1822      1826      1824
 -1       523    8    0    1
 -2       187       186       341      1361      1827      1828
 -1       524    8    0    1
 -2       186       340       341      1825      1829      1827
 -1       525    8    0    1
 -2       188       187       342      1364      1830      1831
 -1       526    8    0    1
 -2       187       341       342      1828      1832      1830
 -1       527    8    0    1
 -2       189       188       343      1367      1833      1834
 -1       528    8    0    1
 -2       188       342       343      1831      1835      1833
 -1       529    8    0    1
 -2       190       189       344      1370      1836      1837
 -1       530    8    0    1
 -2       189       343       344      1834      1838      1836
 -1       531    8    0    1
 -2       191       190       345      1373      1839      1840
 -1       532    8    0    1
 -2       190       344       345      1837      1841      1839
 -1       533    8    0    1
 -2       192       191       346      1376      1842      1843
 -1       534    8    0    1
 -2       191       345       346      1840      1844      1842
 -1       535    8    0    1
 -2       193       192       347      1379      1845      1846
 -1       536    8    0    1
 -2       192       346       347      1843      1847      1845
 -1       537    8    0    1
 -2       194       193       348      1382      1848      1849
 -1       538    8    0    1
 -2       193       347       348      1846      1850      1848
 -1       539    8    0    1
 -2       195       194       349      1385      1851      1852
 -1       540    8    0    1
 -2       194       348       349      1849      1853      1851
 -1       541    8    0    1
 -2       196       195       350      1388      1854      1855
 -1       542    8    0    1
 -2       195       349       350      1852      1856      1854
 -1       543    8    0    1
 -2       197       196       351      1391      1857      1858
 -1       544    8    0    1
 -2       196       350       351      1855      1859      1857
 -1       545    8    0    1
 -2       198       197       352      1394      1860      1861
 -1       546    8    0    1
 -2       197       351       352      1858      1862      1860
 -1       547    8    0    1
 -2       199       198       353      1397      1863      1864
 -1       548    8    0    1
 -2       198       352       353      1861      1865      1863
 -1       549    8    0    1
 -2       200       199       354      1400      1866      1867
 -1       550    8    0    1
 -2       199       353       354      1864      1868      1866
 -1       551    8    0    1
 -2       201       200       355      1403      1869      1870
 -1       552    8    0    1
 -2       200       354       355      1867      1871      1869
 -1       553    8    0    1
 -2       202       201       356      1406      1872      1873
 -1       554    8    0    1
 -2       201       355       356      1870      1874      1872
 -1       555    8    0    1
 -2       203       202       357      1409      1875      1876
 -1       556    8    0    1
 -2       202       356       357      1873      1877      1875
 -1       557    8    0    1
 -2       204       203       358      1412      1878      1879
 -1       558    8    0    1
 -2       203       357       358      1876      1880      1878
 -1       559    8    0    1
 -2       205       204       359      1415      1881      1882
 -1       560    8    0    1
 -2       204       358       359      1879      1883      1881
 -1       561    8    0    1
 -2       206       205       360      1418      1884      1885
 -1       562    8    0    1
 -2       205       359       360      1882      1886      1884
 -1       563    8    0    1
 -2       207       206       361      1421      1887      1888
 -1       564    8    0    1
 -2       206       360       361      1885      1889      1887
 -1       565    8    0    1
 -2       208       207       362      1424      1890      1891
 -1       566    8    0    1
 -2       207       361       362      1888      1892      1890
 -1       567    8    0    1
 -2       209       208       363      1427      1893      1894
 -1       568    8    0    1
 -2       208       362       363      1891      1895      1893
 -1       569    8    0    1
 -2       210       209       364      1430      1896      1897
 -1       570    8    0    1
 -2       209       363       364      1894      1898      1896
 -1       571    8    0    1
 -2       211       210       365      1433      1899      1900
 -1       572    8    0    1
 -2       210       364       365      1897      1901      1899
 -1       573    8    0    1
 -2       212       211       366      1436      1902      1903
 -1       574    8    0    1
 -2       211       365       366      1900      1904      1902
 -1       575    8    0    1
 -2       213       212       367      1439      1905      1906
 -1       576    8    0    1
 -2       212       366       367      1903      1907      1905
 -1       577    8    0    1
 -2       214       213       368      1442      1908      1909
 -1       578    8    0    1
 -2       213       367       368      1906      1910      1908
 -1       579    8    0    1
 -2       215       214       369      1445      1911      1912
 -1       580    8    0    1
 -2       214       368       369      1909      1913      1911
 -1       581    8    0    1
 -2       216       215       370      1448      1914      1915
 -1       582    8    0    1
 -2       215       369       370      1912      1916      1914
 -1       583    8    0    1
 -2       217       216       371      1451      1917      1918
 -1       584    8    0    1
 -2       216       370       371      1915      1919      1917
 -1       585    8    0    1
 -2       218       217       372      1454      1920      1921
 -1       586    8    0    1
 -2       217       371       372      1918      1922      1920
 -1       587    8    0    1
 -2       219       218       373      1457      1923      1924
 -1       588    8    0    1
 -2       218       372       373      1921      1925      1923
 -1       589    8    0    1
 -2       220       219       374      1460      1926      1927
 -1       590    8    0    1
 -2       219       373       374      1924      1928      1926
 -1       591    8    0    1
 -2       221       220       375      1463      1929      1930
 -1       592    8    0    1
 -2       220       374       375      1927      1931      1929
 -1       593    8    0    1
 -2       222       221       376      1466      1932      1933
 -1       594    8    0    1
 -2       221       375       376      1930      1934      1932
 -1       595    8    0    1
 -2       223       222       377      1469      1935      1936
 -1       596    8    0    1
 -2       222       376       377      1933      1937      1935
 -1       597    8    0    1
 -2       224       223       378      1472      1938      1939
 -1       598    8    0    1
 -2       223       377       378      1936      1940      1938
 -1       599    8    0    1
 -2       225       224       379      1475      1941      1942
 -1       600    8    0    1
 -2       224       378       379      1939      1943      1941
 -1       601    8    0    1
 -2       226       225       380      1478      1944      1945
 -1       602    8    0    1
 -2       225       379       380      1942      1946      1944
 -1       603    8    0    1
 -2       227       226       381      1481      1947      1948
 -1       604    8    0    1
 -2       226       380       381      1945      1949      1947
 -1       605    8    0    1
 -2       228       227       382      1484      1950      1951
 -1       606    8    0    1
 -2       291       228       382      1676      1951      1952
 -1       607    8    0    1
 -2       227       381       382      1948      1953      1950
 -1       608    8    0    1
 -2       230       231       383      1495      1954      1955
 -1       609    8    0    1
 -2       230       383       336      1955      1956      1812
 -1       610    8    0    1
 -2       231       232       384      1498      1957      1958
 -1       611    8    0    1
 -2       231       384       383      1958      1959      1954
 -1       612    8    0    1
 -2       232       233       385      1501      1960      1961
 -1       613    8    0    1
 -2       232       385       384      1961      1962      1957
 -1       614    8    0    1
 -2       233       234       386      1504      1963      1964
 -1       615    8    0    1
 -2       233       386       385      1964      1965      1960
 -1       616    8    0    1
 -2       234       235       387      1507      1966      1967
 -1       617    8    0    1
 -2       234       387       386      1967      1968      1963
 -1       618    8    0    1
 -2       235       236       388      1510      1969      1970
 -1       619    8    0    1
 -2       235       388       387      1970      1971      1966
 -1       620    8    0    1
 -2       236       237       389      1513      1972      1973
 -1       621    8    0    1
 -2       236       389       388      1973      1974      1969
 -1       622    8    0    1
 -2       237       238       390      1516      1975      1976
 -1       623    8    0    1
 -2       237       390       389      1976      1977      1972
 -1       624    8    0    1
 -2       238       239       391      1519      1978      1979
 -1       625    8    0    1
 -2       238       391       390      1979      1980      1975
 -1       626    8    0    1
 -2       239       240       392      1522      1981      1982
 -1       627    8    0    1
 -2       239       392       391      1982      1983      1978
 -1       628    8    0    1
 -2       240       241       393      1525      1984      1985
 -1       629    8    0    1
 -2       240       393       392      1985      1986      1981
 -1       630    8    0    1
 -2       241       242       394      1528      1987      1988
 -1       631    8    0    1
 -2       241       394       393      1988      1989      1984
 -1       632    8    0    1
 -2       242       243       395      1531      1990      1991
 -1       633    8    0    1
 -2       242       395       394      1991      1992      1987
 -1       634    8    0    1
 -2       243       244       396      1534      1993      1994
 -1       635    8    0    1
 -2       243       396       395      1994      1995      1990
 -1       636    8    0    1
 -2       244       245       397      1537      1996      1997
 -1       637    8    0    1
 -2       244       397       396      1997      1998      1993
 -1       638    8    0    1
 -2       245       246       398      1540      1999      2000
 -1       639    8    0    1
 -2       245       398       397      2000      2001      1996
 -1       640    8    0    1
 -2       246       247       399      1543      2002      2003
 -1       641    8    0    1
 -2       246       399       398      2003      2004      1999
 -1       642    8    0    1
 -2       247       248       400      1546      2005      2006
 -1       643    8    0    1
 -2       247       400       399      2006      2007      2002
 -1       644    8    0    1
 -2       248       249       401      1549      2008      2009
 -1       645    8    0    1
 -2       248       401       400      2009      2010      2005
 -1       646    8    0    1
 -2       249       250       402      1552      2011      2012
 -1       647    8    0    1
 -2       249       402       401      2012      2013      2008
 -1       648    8    0    1
 -2       250       251       403      1555      2014      2015
 -1       649    8    0    1
 -2       250       403       402      2015      2016      2011
 -1       650    8    0    1
 -2       251       252       404      1558      2017      2018
 -1       651    8    0    1
 -2       251       404       403      2018      2019      2014
 -1       652    8    0    1
 -2       252       253       405      1561      2020      2021
 -1       653    8    0    1
 -2       252       405       404      2021      2022      2017
 -1       654    8    0    1
 -2       253       254       406      1564      2023      2024
 -1       655    8    0    1
 -2       253       406       405      2024      2025      2020
 -1       656    8    0    1
 -2       254       255       407      1567      2026      2027
 -1       657    8    0    1
 -2       254       407       406      2027      2028      2023
 -1       658    8    0    1
 -2       255       256       408      1570      2029      2030
 -1       659    8    0    1
 -2       255       408       407      2030      2031      2026
 -1       660    8    0    1
 -2       256       257       409      1573      2032      2033
 -1       661    8    0    1
 -2       256       409       408      2033      2034      2029
 -1       662    8    0    1
 -2       257       258       410      1576      2035      2036
 -1       663    8    0    1
 -2       257       410       409      2036      2037      2032
 -1       664    8    0    1
 -2       258       259       411      1579      2038      2039
 -1       665    8    0    1
 -2       258       411       410      2039      2040      2035
 -1       666    8    0    1
 -2       259       260       412      1582      2041      2042
 -1       667    8    0    1
 -2       259       412       411      2042      2043      2038
 -1       668    8    0    1
 -2       260       261       413      1585      2044      2045
 -1       669    8    0    1
 -2       260       413       412      2045      2046      2041
 -1       670    8    0    1
 -2       261       262       414      1588      2047      2048
 -1       671    8    0    1
 -2       261       414       413      2048      2049      2044
 -1       672    8    0    1
 -2       262       263       415      1591      2050      2051
 -1       673    8    0    1
 -2       262       415       414      2051      2052      2047
 -1       674    8    0    1
 -2       263       264       416      1594      2053      2054
 -1       675    8    0    1
 -2       263       416       415      2054      2055      2050
 -1       676    8    0    1
 -2       264       265       417      1597      2056      2057
 -1       677    8    0    1
 -2       264       417       416      2057      2058      2053
 -1       678    8    0    1
 -2       265       266       418      1600      2059      2060
 -1       679    8    0    1
 -2       265       418       417      2060      2061      2056
 -1       680    8    0    1
 -2       266       267       419      1603      2062      2063
 -1       681    8    0    1
 -2       266       419       418      2063      2064      2059
 -1       682    8    0    1
 -2       267       268       420      1606      2065      2066
 -1       683    8    0    1
 -2       267       420       419      2066      2067      2062
 -1       684    8    0    1
 -2       268       269       421      1609      2068      2069
 -1       685    8    0    1
 -2       268       421       420      2069      2070      2065
 -1       686    8    0    1
 -2       269       270       422      1612      2071      2072
 -1       687    8    0    1
 -2       269       422       421      2072      2073      2068
 -1       688    8    0    1
 -2       270       271       423      1615      2074      2075
 -1       689    8    0    1
 -2       270       423       422      2075      2076      2071
 -1       690    8    0    1
 -2       271       272       424      1618      2077      2078
 -1       691    8    0    1
 -2       271       424       423      2078      2079      2074
 -1       692    8    0    1
 -2       272       273       425      1621      2080      2081
 -1       693    8    0    1
 -2       272       425       424      2081      2082      2077
 -1       694    8    0    1
 -2       273       274       426      1624      2083      2084
 -1       695    8    0    1
 -2       273       426       425      2084      2085      2080
 -1       696    8    0    1
 -2       274       275       427      1627      2086      2087
 -1       697    8    0    1
 -2       274       427       426      2087      2088      2083
 -1       698    8    0    1
 -2       275       276       428      1630      2089      2090
 -1       699    8    0    1
 -2       427       275       428      2086      2090      2091
 -1       700    8    0    1
 -2       276       277       428      1740      2092      2089
 -1       701    8    0    1
 -2       279       280       429      1642      2093      2094
 -1       702    8    0    1
 -2       278       279       430      1639      2095      2096
 -1       703    8    0    1
 -2       279       429       430      2094      2097      2095
 -1       704    8    0    1
 -2       277       278       431      1636      2098      2099
 -1       705    8    0    1
 -2       428       277       431      2092      2099      2100
 -1       706    8    0    1
 -2       278       430       431      2096      2101      2098
 -1       707    8    0    1
 -2       280       281       432      1645      2102      2103
 -1       708    8    0    1
 -2       280       432       429      2103      2104      2093
 -1       709    8    0    1
 -2       281       282       433      1648      2105      2106
 -1       710    8    0    1
 -2       281       433       432      2106      2107      2102
 -1       711    8    0    1
 -2       282       283       434      1651      2108      2109
 -1       712    8    0    1
 -2       282       434       433      2109      2110      2105
 -1       713    8    0    1
 -2       283       284       435      1654      2111      2112
 -1       714    8    0    1
 -2       283       435       434      2112      2113      2108
 -1       715    8    0    1
 -2       284       285       436      1657      2114      2115
 -1       716    8    0    1
 -2       284       436       435      2115      2116      2111
 -1       717    8    0    1
 -2       285       286       437      1660      2117      2118
 -1       718    8    0    1
 -2       285       437       436      2118      2119      2114
 -1       719    8    0    1
 -2       286       287       438      1663      2120      2121
 -1       720    8    0    1
 -2       286       438       437      2121      2122      2117
 -1       721    8    0    1
 -2       287       288       439      1666      2123      2124
 -1       722    8    0    1
 -2       287       439       438      2124      2125      2120
 -1       723    8    0    1
 -2       288       289       440      1669      2126      2127
 -1       724    8    0    1
 -2       288       440       439      2127      2128      2123
 -1       725    8    0    1
 -2       289       290       441      1672      2129      2130
 -1       726    8    0    1
 -2       289       441       440      2130      2131      2126
 -1       727    8    0    1
 -2       293       294       442      1742      2132      2133
 -1       728    8    0    1
 -2       321       292       443      1743      2134      2135
 -1       729    8    0    1
 -2       292       293       444      1741      2136      2137
 -1       730    8    0    1
 -2       294       295       445      1738      2138      2139
 -1       731    8    0    1
 -2       295       296       446      1737      2140      2141
 -1       732    8    0    1
 -2       167       168       447      1304      2142      2143
 -1       733    8    0    1
 -2       322       167       447      1770      2143      2144
 -1       734    8    0    1
 -2       168       324       447      1776      2145      2142
 -1       735    8    0    1
 -2       297       298       448      1745      2146      2147
 -1       736    8    0    1
 -2       298       299       449      1746      2148      2149
 -1       737    8    0    1
 -2       299       300       450      1747      2150      2151
 -1       738    8    0    1
 -2       300       301       451      1748      2152      2153
 -1       739    8    0    1
 -2       301       302       452      1749      2154      2155
 -1       740    8    0    1
 -2       301       452       451      2155      2156      2152
 -1       741    8    0    1
 -2       302       303       453      1750      2157      2158
 -1       742    8    0    1
 -2       303       304       454      1751      2159      2160
 -1       743    8    0    1
 -2       304       305       455      1752      2161      2162
 -1       744    8    0    1
 -2       304       455       454      2162      2163      2159
 -1       745    8    0    1
 -2       305       306       456      1753      2164      2165
 -1       746    8    0    1
 -2       306       307       457      1754      2166      2167
 -1       747    8    0    1
 -2       307       308       458      1755      2168      2169
 -1       748    8    0    1
 -2       308       309       459      1756      2170      2171
 -1       749    8    0    1
 -2       309       310       460      1757      2172      2173
 -1       750    8    0    1
 -2       310       311       461      1758      2174      2175
 -1       751    8    0    1
 -2       311       312       462      1759      2176      2177
 -1       752    8    0    1
 -2       311       462       461      2177      2178      2174
 -1       753    8    0    1
 -2       312       313       463      1760      2179      2180
 -1       754    8    0    1
 -2       313       314       464      1761      2181      2182
 -1       755    8    0    1
 -2       313       464       463      2182      2183      2179
 -1       756    8    0    1
 -2       314       315       465      1762      2184      2185
 -1       757    8    0    1
 -2       315       316       466      1763      2186      2187
 -1       758    8    0    1
 -2       316       317       467      1764      2188      2189
 -1       759    8    0    1
 -2       317       318       468      1765      2190      2191
 -1       760    8    0    1
 -2       318       319       469      1766      2192      2193
 -1       761    8    0    1
 -2       319       320       470      1767      2194      2195
 -1       762    8    0    1
 -2       320       321       471      1768      2196      2197
 -1       763    8    0    1
 -2       296       297       472      1744      2198      2199
 -1       764    8    0    1
 -2       445       295       446      2138      2141      2200
 -1       765    8    0    1
 -2       181       323       182      1815      2201      1346
 -1       766    8    0    1
 -2       446       296       472      2140      2199      2202
 -1       767    8    0    1
 -2       297       448       472      2147      2203      2198
 -1       768    8    0    1
 -2       337       182       323      1816      2201      2204
 -1       769    8    0    1
 -2       444       293       442      2136      2133      2205
 -1       770    8    0    1
 -2       443       292       444      2134      2137      2206
 -1       771    8    0    1
 -2       441       290       291      2129      1675      2207
 -1       772    8    0    1
 -2       442       294       445      2132      2139      2208
 -1       773    8    0    1
 -2       321       443       471      2135      2209      2196
 -1       774    8    0    1
 -2       470       320       471      2194      2197      2210
 -1       775    8    0    1
 -2       469       319       470      2192      2195      2211
 -1       776    8    0    1
 -2       468       318       469      2190      2193      2212
 -1       777    8    0    1
 -2       467       317       468      2188      2191      2213
 -1       778    8    0    1
 -2       466       316       467      2186      2189      2214
 -1       779    8    0    1
 -2       464       314       465      2181      2185      2215
 -1       780    8    0    1
 -2       462       312       463      2176      2180      2216
 -1       781    8    0    1
 -2       460       310       461      2172      2175      2217
 -1       782    8    0    1
 -2       459       309       460      2170      2173      2218
 -1       783    8    0    1
 -2       458       308       459      2168      2171      2219
 -1       784    8    0    1
 -2       457       307       458      2166      2169      2220
 -1       785    8    0    1
 -2       455       305       473      2161      2221      2222
 -1       786    8    0    1
 -2       305       456       473      2165      2223      2221
 -1       787    8    0    1
 -2       452       302       453      2154      2158      2224
 -1       788    8    0    1
 -2       450       300       451      2150      2153      2225
 -1       789    8    0    1
 -2       448       298       449      2146      2149      2226
 -1       790    8    0    1
 -2       449       299       450      2148      2151      2227
 -1       791    8    0    1
 -2       453       303       454      2157      2160      2228
 -1       792    8    0    1
 -2       456       306       457      2164      2167      2229
 -1       793    8    0    1
 -2       465       315       466      2184      2187      2230
 -1       794    8    0    1
 -2       336       383       474      1956      2231      2232
 -1       795    8    0    1
 -2       325       326       475      1782      2233      2234
 -1       796    8    0    1
 -2       324       325       476      1779      2235      2236
 -1       797    8    0    1
 -2       325       475       476      2234      2237      2235
 -1       798    8    0    1
 -2       327       328       477      1788      2238      2239
 -1       799    8    0    1
 -2       328       329       478      1791      2240      2241
 -1       800    8    0    1
 -2       328       478       477      2241      2242      2238
 -1       801    8    0    1
 -2       329       330       479      1794      2243      2244
 -1       802    8    0    1
 -2       329       479       478      2244      2245      2240
 -1       803    8    0    1
 -2       330       331       480      1797      2246      2247
 -1       804    8    0    1
 -2       330       480       479      2247      2248      2243
 -1       805    8    0    1
 -2       331       332       481      1800      2249      2250
 -1       806    8    0    1
 -2       331       481       480      2250      2251      2246
 -1       807    8    0    1
 -2       332       333       482      1803      2252      2253
 -1       808    8    0    1
 -2       332       482       481      2253      2254      2249
 -1       809    8    0    1
 -2       383       384       483      1959      2255      2256
 -1       810    8    0    1
 -2       383       483       474      2256      2257      2231
 -1       811    8    0    1
 -2       338       337       484      1820      2258      2259
 -1       812    8    0    1
 -2       446       472       485      2202      2260      2261
 -1       813    8    0    1
 -2       339       338       486      1823      2262      2263
 -1       814    8    0    1
 -2       338       484       486      2259      2264      2262
 -1       815    8    0    1
 -2       340       339       487      1826      2265      2266
 -1       816    8    0    1
 -2       339       486       487      2263      2267      2265
 -1       817    8    0    1
 -2       341       340       488      1829      2268      2269
 -1       818    8    0    1
 -2       340       487       488      2266      2270      2268
 -1       819    8    0    1
 -2       342       341       489      1832      2271      2272
 -1       820    8    0    1
 -2       341       488       489      2269      2273      2271
 -1       821    8    0    1
 -2       343       342       490      1835      2274      2275
 -1       822    8    0    1
 -2       342       489       490      2272      2276      2274
 -1       823    8    0    1
 -2       344       343       491      1838      2277      2278
 -1       824    8    0    1
 -2       343       490       491      2275      2279      2277
 -1       825    8    0    1
 -2       345       344       492      1841      2280      2281
 -1       826    8    0    1
 -2       344       491       492      2278      2282      2280
 -1       827    8    0    1
 -2       346       345       493      1844      2283      2284
 -1       828    8    0    1
 -2       345       492       493      2281      2285      2283
 -1       829    8    0    1
 -2       347       346       494      1847      2286      2287
 -1       830    8    0    1
 -2       346       493       494      2284      2288      2286
 -1       831    8    0    1
 -2       348       347       495      1850      2289      2290
 -1       832    8    0    1
 -2       347       494       495      2287      2291      2289
 -1       833    8    0    1
 -2       349       348       496      1853      2292      2293
 -1       834    8    0    1
 -2       348       495       496      2290      2294      2292
 -1       835    8    0    1
 -2       350       349       497      1856      2295      2296
 -1       836    8    0    1
 -2       349       496       497      2293      2297      2295
 -1       837    8    0    1
 -2       351       350       498      1859      2298      2299
 -1       838    8    0    1
 -2       350       497       498      2296      2300      2298
 -1       839    8    0    1
 -2       352       351       499      1862      2301      2302
 -1       840    8    0    1
 -2       351       498       499      2299      2303      2301
 -1       841    8    0    1
 -2       353       352       500      1865      2304      2305
 -1       842    8    0    1
 -2       352       499       500      2302      2306      2304
 -1       843    8    0    1
 -2       354       353       501      1868      2307      2308
 -1       844    8    0    1
 -2       353       500       501      2305      2309      2307
 -1       845    8    0    1
 -2       355       354       502      1871      2310      2311
 -1       846    8    0    1
 -2       354       501       502      2308      2312      2310
 -1       847    8    0    1
 -2       356       355       503      1874      2313      2314
 -1       848    8    0    1
 -2       355       502       503      2311      2315      2313
 -1       849    8    0    1
 -2       357       356       504      1877      2316      2317
 -1       850    8    0    1
 -2       356       503       504      2314      2318      2316
 -1       851    8    0    1
 -2       358       357       505      1880      2319      2320
 -1       852    8    0    1
 -2       357       504       505      2317      2321      2319
 -1       853    8    0    1
 -2       359       358       506      1883      2322      2323
 -1       854    8    0    1
 -2       358       505       506      2320      2324      2322
 -1       855    8    0    1
 -2       360       359       507      1886      2325      2326
 -1       856    8    0    1
 -2       359       506       507      2323      2327      2325
 -1       857    8    0    1
 -2       361       360       508      1889      2328      2329
 -1       858    8    0    1
 -2       360       507       508      2326      2330      2328
 -1       859    8    0    1
 -2       362       361       509      1892      2331      2332
 -1       860    8    0    1
 -2       361       508       509      2329      2333      2331
 -1       861    8    0    1
 -2       363       362       510      1895      2334      2335
 -1       862    8    0    1
 -2       362       509       510      2332      2336      2334
 -1       863    8    0    1
 -2       364       363       511      1898      2337      2338
 -1       864    8    0    1
 -2       363       510       511      2335      2339      2337
 -1       865    8    0    1
 -2       365       364       512      1901      2340      2341
 -1       866    8    0    1
 -2       364       511       512      2338      2342      2340
 -1       867    8    0    1
 -2       366       365       513      1904      2343      2344
 -1       868    8    0    1
 -2       365       512       513      2341      2345      2343
 -1       869    8    0    1
 -2       367       366       514      1907      2346      2347
 -1       870    8    0    1
 -2       366       513       514      2344      2348      2346
 -1       871    8    0    1
 -2       368       367       515      1910      2349      2350
 -1       872    8    0    1
 -2       367       514       515      2347      2351      2349
 -1       873    8    0    1
 -2       369       368       516      1913      2352      2353
 -1       874    8    0    1
 -2       368       515       516      2350      2354      2352
 -1       875    8    0    1
 -2       370       369       517      1916      2355      2356
 -1       876    8    0    1
 -2       369       516       517      2353      2357      2355
 -1       877    8    0    1
 -2       371       370       518      1919      2358      2359
 -1       878    8    0    1
 -2       370       517       518      2356      2360      2358
 -1       879    8    0    1
 -2       372       371       519      1922      2361      2362
 -1       880    8    0    1
 -2       371       518       519      2359      2363      2361
 -1       881    8    0    1
 -2       373       372       520      1925      2364      2365
 -1       882    8    0    1
 -2       372       519       520      2362      2366      2364
 -1       883    8    0    1
 -2       374       373       521      1928      2367      2368
 -1       884    8    0    1
 -2       373       520       521      2365      2369      2367
 -1       885    8    0    1
 -2       375       374       522      1931      2370      2371
 -1       886    8    0    1
 -2       374       521       522      2368      2372      2370
 -1       887    8    0    1
 -2       376       375       523      1934      2373      2374
 -1       888    8    0    1
 -2       375       522       523      2371      2375      2373
 -1       889    8    0    1
 -2       377       376       524      1937      2376      2377
 -1       890    8    0    1
 -2       376       523       524      2374      2378      2376
 -1       891    8    0    1
 -2       378       377       525      1940      2379      2380
 -1       892    8    0    1
 -2       377       524       525      2377      2381      2379
 -1       893    8    0    1
 -2       379       378       526      1943      2382      2383
 -1       894    8    0    1
 -2       378       525       526      2380      2384      2382
 -1       895    8    0    1
 -2       380       379       527      1946      2385      2386
 -1       896    8    0    1
 -2       379       526       527      2383      2387      2385
 -1       897    8    0    1
 -2       381       380       528      1949      2388      2389
 -1       898    8    0    1
 -2       380       527       528      2386      2390      2388
 -1       899    8    0    1
 -2       385       386       529      1965      2391      2392
 -1       900    8    0    1
 -2       386       387       530      1968      2393      2394
 -1       901    8    0    1
 -2       386       530       529      2394      2395      2391
 -1       902    8    0    1
 -2       387       388       531      1971      2396      2397
 -1       903    8    0    1
 -2       387       531       530      2397      2398      2393
 -1       904    8    0    1
 -2       388       389       532      1974      2399      2400
 -1       905    8    0    1
 -2       388       532       531      2400      2401      2396
 -1       906    8    0    1
 -2       389       390       533      1977      2402      2403
 -1       907    8    0    1
 -2       389       533       532      2403      2404      2399
 -1       908    8    0    1
 -2       390       391       534      1980      2405      2406
 -1       909    8    0    1
 -2       390       534       533      2406      2407      2402
 -1       910    8    0    1
 -2       391       392       535      1983      2408      2409
 -1       911    8    0    1
 -2       391       535       534      2409      2410      2405
 -1       912    8    0    1
 -2       392       393       536      1986      2411      2412
 -1       913    8    0    1
 -2       392       536       535      2412      2413      2408
 -1       914    8    0    1
 -2       393       394       537      1989      2414      2415
 -1       915    8    0    1
 -2       393       537       536      2415      2416      2411
 -1       916    8    0    1
 -2       394       395       538      1992      2417      2418
 -1       917    8    0    1
 -2       394       538       537      2418      2419      2414
 -1       918    8    0    1
 -2       395       396       539      1995      2420      2421
 -1       919    8    0    1
 -2       395       539       538      2421      2422      2417
 -1       920    8    0    1
 -2       396       397       540      1998      2423      2424
 -1       921    8    0    1
 -2       396       540       539      2424      2425      2420
 -1       922    8    0    1
 -2       397       398       541      2001      2426      2427
 -1       923    8    0    1
 -2       397       541       540      2427      2428      2423
 -1       924    8    0    1
 -2       398       399       542      2004      2429      2430
 -1       925    8    0    1
 -2       398       542       541      2430      2431      2426
 -1       926    8    0    1
 -2       399       400       543      2007      2432      2433
 -1       927    8    0    1
 -2       399       543       542      2433      2434      2429
 -1       928    8    0    1
 -2       400       401       544      2010      2435      2436
 -1       929    8    0    1
 -2       400       544       543      2436      2437      2432
 -1       930    8    0    1
 -2       401       402       545      2013      2438      2439
 -1       931    8    0    1
 -2       401       545       544      2439      2440      2435
 -1       932    8    0    1
 -2       402       403       546      2016      2441      2442
 -1       933    8    0    1
 -2       402       546       545      2442      2443      2438
 -1       934    8    0    1
 -2       403       404       547      2019      2444      2445
 -1       935    8    0    1
 -2       403       547       546      2445      2446      2441
 -1       936    8    0    1
 -2       404       405       548      2022      2447      2448
 -1       937    8    0    1
 -2       404       548       547      2448      2449      2444
 -1       938    8    0    1
 -2       405       406       549      2025      2450      2451
 -1       939    8    0    1
 -2       405       549       548      2451      2452      2447
 -1       940    8    0    1
 -2       406       407       550      2028      2453      2454
 -1       941    8    0    1
 -2       406       550       549      2454      2455      2450
 -1       942    8    0    1
 -2       407       408       551      2031      2456      2457
 -1       943    8    0    1
 -2       407       551       550      2457      2458      2453
 -1       944    8    0    1
 -2       408       409       552      2034      2459      2460
 -1       945    8    0    1
 -2       408       552       551      2460      2461      2456
 -1       946    8    0    1
 -2       409       410       553      2037      2462      2463
 -1       947    8    0    1
 -2       409       553       552      2463      2464      2459
 -1       948    8    0    1
 -2       410       411       554      2040      2465      2466
 -1       949    8    0    1
 -2       410       554       553      2466      2467      2462
 -1       950    8    0    1
 -2       411       412       555      2043      2468      2469
 -1       951    8    0    1
 -2       411       555       554      2469      2470      2465
 -1       952    8    0    1
 -2       412       413       556      2046      2471      2472
 -1       953    8    0    1
 -2       412       556       555      2472      2473      2468
 -1       954    8    0    1
 -2       413       414       557      2049      2474      2475
 -1       955    8    0    1
 -2       413       557       556      2475      2476      2471
 -1       956    8    0    1
 -2       414       415       558      2052      2477      2478
 -1       957    8    0    1
 -2       414       558       557      2478      2479      2474
 -1       958    8    0    1
 -2       415       416       559      2055      2480      2481
 -1       959    8    0    1
 -2       415       559       558      2481      2482      2477
 -1       960    8    0    1
 -2       416       417       560      2058      2483      2484
 -1       961    8    0    1
 -2       416       560       559      2484      2485      2480
 -1       962    8    0    1
 -2       417       418       561      2061      2486      2487
 -1       963    8    0    1
 -2       417       561       560      2487      2488      2483
 -1       964    8    0    1
 -2       418       419       562      2064      2489      2490
 -1       965    8    0    1
 -2       418       562       561      2490      2491      2486
 -1       966    8    0    1
 -2       419       420       563      2067      2492      2493
 -1       967    8    0    1
 -2       419       563       562      2493      2494      2489
 -1       968    8    0    1
 -2       420       421       564      2070      2495      2496
 -1       969    8    0    1
 -2       420       564       563      2496      2497      2492
 -1       970    8    0    1
 -2       421       422       565      2073      2498      2499
 -1       971    8    0    1
 -2       421       565       564      2499      2500      2495
 -1       972    8    0    1
 -2       422       423       566      2076      2501      2502
 -1       973    8    0    1
 -2       422       566       565      2502      2503      2498
 -1       974    8    0    1
 -2       423       424       567      2079      2504      2505
 -1       975    8    0    1
 -2       423       567       566      2505      2506      2501
 -1       976    8    0    1
 -2       424       425       568      2082      2507      2508
 -1       977    8    0    1
 -2       424       568       567      2508      2509      2504
 -1       978    8    0    1
 -2       425       426       569      2085      2510      2511
 -1       979    8    0    1
 -2       425       569       568      2511      2512      2507
 -1       980    8    0    1
 -2       426       427       570      2088      2513      2514
 -1       981    8    0    1
 -2       426       570       569      2514      2515      2510
 -1       982    8    0    1
 -2       427       428       431      2091      2100      2516
 -1       983    8    0    1
 -2       432       433       571      2107      2517      2518
 -1       984    8    0    1
 -2       433       434       572      2110      2519      2520
 -1       985    8    0    1
 -2       433       572       571      2520      2521      2517
 -1       986    8    0    1
 -2       430       429       573      2097      2522      2523
 -1       987    8    0    1
 -2       429       432       574      2104      2524      2525
 -1       988    8    0    1
 -2       573       429       574      2522      2525      2526
 -1       989    8    0    1
 -2       432       571       574      2518      2527      2524
 -1       990    8    0    1
 -2       434       435       575      2113      2528      2529
 -1       991    8    0    1
 -2       434       575       572      2529      2530      2519
 -1       992    8    0    1
 -2       435       436       576      2116      2531      2532
 -1       993    8    0    1
 -2       435       576       575      2532      2533      2528
 -1       994    8    0    1
 -2       436       437       577      2119      2534      2535
 -1       995    8    0    1
 -2       436       577       576      2535      2536      2531
 -1       996    8    0    1
 -2       437       438       578      2122      2537      2538
 -1       997    8    0    1
 -2       437       578       577      2538      2539      2534
 -1       998    8    0    1
 -2       438       439       579      2125      2540      2541
 -1       999    8    0    1
 -2       438       579       578      2541      2542      2537
 -1      1000    8    0    1
 -2       439       440       580      2128      2543      2544
 -1      1001    8    0    1
 -2       439       580       579      2544      2545      2540
 -1      1002    8    0    1
 -2       440       441       581      2131      2546      2547
 -1      1003    8    0    1
 -2       440       581       580      2547      2548      2543
 -1      1004    8    0    1
 -2       443       444       582      2206      2549      2550
 -1      1005    8    0    1
 -2       442       445       583      2208      2551      2552
 -1      1006    8    0    1
 -2       384       385       584      1962      2553      2554
 -1      1007    8    0    1
 -2       385       529       584      2392      2555      2553
 -1      1008    8    0    1
 -2       441       291       382      2207      1952      2556
 -1      1009    8    0    1
 -2       471       443       585      2209      2557      2558
 -1      1010    8    0    1
 -2       443       582       585      2550      2559      2557
 -1      1011    8    0    1
 -2       444       442       586      2205      2560      2561
 -1      1012    8    0    1
 -2       337       323       587      2204      2562      2563
 -1      1013    8    0    1
 -2       484       337       587      2258      2563      2564
 -1      1014    8    0    1
 -2       323       322       587      1774      2565      2562
 -1      1015    8    0    1
 -2       470       471       588      2210      2566      2567
 -1      1016    8    0    1
 -2       460       461       589      2217      2568      2569
 -1      1017    8    0    1
 -2       452       453       590      2224      2570      2571
 -1      1018    8    0    1
 -2       450       451       591      2225      2572      2573
 -1      1019    8    0    1
 -2       326       327       592      1785      2574      2575
 -1      1020    8    0    1
 -2       475       326       592      2233      2575      2576
 -1      1021    8    0    1
 -2       327       477       592      2239      2577      2574
 -1      1022    8    0    1
 -2       449       450       593      2227      2578      2579
 -1      1023    8    0    1
 -2       453       454       594      2228      2580      2581
 -1      1024    8    0    1
 -2       448       449       595      2226      2582      2583
 -1      1025    8    0    1
 -2       449       593       595      2579      2584      2582
 -1      1026    8    0    1
 -2       451       452       596      2156      2585      2586
 -1      1027    8    0    1
 -2       456       457       597      2229      2587      2588
 -1      1028    8    0    1
 -2       454       455       598      2163      2589      2590
 -1      1029    8    0    1
 -2       465       466       599      2230      2591      2592
 -1      1030    8    0    1
 -2       457       458       600      2220      2593      2594
 -1      1031    8    0    1
 -2       457       600       597      2594      2595      2587
 -1      1032    8    0    1
 -2       458       459       601      2219      2596      2597
 -1      1033    8    0    1
 -2       459       460       602      2218      2598      2599
 -1      1034    8    0    1
 -2       461       462       603      2178      2600      2601
 -1      1035    8    0    1
 -2       462       463       604      2216      2602      2603
 -1      1036    8    0    1
 -2       463       464       605      2183      2604      2605
 -1      1037    8    0    1
 -2       464       465       606      2215      2606      2607
 -1      1038    8    0    1
 -2       464       606       605      2607      2608      2604
 -1      1039    8    0    1
 -2       466       467       607      2214      2609      2610
 -1      1040    8    0    1
 -2       467       468       608      2213      2611      2612
 -1      1041    8    0    1
 -2       467       608       607      2612      2613      2609
 -1      1042    8    0    1
 -2       468       469       609      2212      2614      2615
 -1      1043    8    0    1
 -2       469       470       610      2211      2616      2617
 -1      1044    8    0    1
 -2       470       588       610      2567      2618      2616
 -1      1045    8    0    1
 -2       472       448       611      2203      2619      2620
 -1      1046    8    0    1
 -2       335       336       612      1814      2621      2622
 -1      1047    8    0    1
 -2       334       335       612      1809      2622      2623
 -1      1048    8    0    1
 -2       336       474       612      2232      2624      2621
 -1      1049    8    0    1
 -2       445       446       613      2200      2625      2626
 -1      1050    8    0    1
 -2       451       596       591      2586      2627      2572
 -1      1051    8    0    1
 -2       324       476       614      2236      2628      2629
 -1      1052    8    0    1
 -2       324       614       447      2629      2630      2145
 -1      1053    8    0    1
 -2       483       384       584      2255      2554      2631
 -1      1054    8    0    1
 -2       333       334       612      1806      2623      2632
 -1      1055    8    0    1
 -2       613       446       485      2625      2261      2633
 -1      1056    8    0    1
 -2       588       471       615      2566      2634      2635
 -1      1057    8    0    1
 -2       471       585       615      2558      2636      2634
 -1      1058    8    0    1
 -2       608       468       609      2611      2615      2637
 -1      1059    8    0    1
 -2       427       431       570      2516      2638      2513
 -1      1060    8    0    1
 -2       583       445       613      2551      2626      2639
 -1      1061    8    0    1
 -2       431       430       570      2101      2640      2638
 -1      1062    8    0    1
 -2       606       465       599      2606      2592      2641
 -1      1063    8    0    1
 -2       444       586       616      2561      2642      2643
 -1      1064    8    0    1
 -2       444       616       582      2643      2644      2549
 -1      1065    8    0    1
 -2       442       583       586      2552      2645      2560
 -1      1066    8    0    1
 -2       466       607       599      2610      2646      2591
 -1      1067    8    0    1
 -2       604       463       605      2602      2605      2647
 -1      1068    8    0    1
 -2       333       612       482      2632      2648      2252
 -1      1069    8    0    1
 -2       587       322       447      2565      2144      2649
 -1      1070    8    0    1
 -2       603       462       604      2600      2603      2650
 -1      1071    8    0    1
 -2       589       461       603      2568      2601      2651
 -1      1072    8    0    1
 -2       460       589       602      2569      2652      2598
 -1      1073    8    0    1
 -2       600       458       617      2593      2653      2654
 -1      1074    8    0    1
 -2       458       601       617      2597      2655      2653
 -1      1075    8    0    1
 -2       598       455       473      2589      2222      2656
 -1      1076    8    0    1
 -2       452       590       596      2571      2657      2585
 -1      1077    8    0    1
 -2       590       453       618      2570      2658      2659
 -1      1078    8    0    1
 -2       453       594       618      2581      2660      2658
 -1      1079    8    0    1
 -2       473       456       619      2223      2661      2662
 -1      1080    8    0    1
 -2       456       597       619      2588      2663      2661
 -1      1081    8    0    1
 -2       594       454       598      2580      2590      2664
 -1      1082    8    0    1
 -2       472       611       485      2620      2665      2260
 -1      1083    8    0    1
 -2       448       595       611      2583      2666      2619
 -1      1084    8    0    1
 -2       601       459       602      2596      2599      2667
 -1      1085    8    0    1
 -2       441       382       620      2556      2668      2669
 -1      1086    8    0    1
 -2       581       441       620      2546      2669      2670
 -1      1087    8    0    1
 -2       382       381       620      1953      2671      2668
 -1      1088    8    0    1
 -2       570       430       573      2640      2523      2672
 -1      1089    8    0    1
 -2       609       469       610      2614      2617      2673
 -1      1090    8    0    1
 -2       620       381       528      2671      2389      2674
 -1      1091    8    0    1
 -2       478       479       621      2245      2675      2676
 -1      1092    8    0    1
 -2       477       478       622      2242      2677      2678
 -1      1093    8    0    1
 -2       478       621       622      2676      2679      2677
 -1      1094    8    0    1
 -2       480       481       623      2251      2680      2681
 -1      1095    8    0    1
 -2       481       482       624      2254      2682      2683
 -1      1096    8    0    1
 -2       481       624       623      2683      2684      2680
 -1      1097    8    0    1
 -2       474       483       625      2257      2685      2686
 -1      1098    8    0    1
 -2       587       447       614      2649      2630      2687
 -1      1099    8    0    1
 -2       612       474       482      2624      2688      2648
 -1      1100    8    0    1
 -2       610       588       626      2618      2689      2690
 -1      1101    8    0    1
 -2       608       609       627      2637      2691      2692
 -1      1102    8    0    1
 -2       487       486       628      2267      2693      2694
 -1      1103    8    0    1
 -2       488       487       629      2270      2695      2696
 -1      1104    8    0    1
 -2       487       628       629      2694      2697      2695
 -1      1105    8    0    1
 -2       489       488       630      2273      2698      2699
 -1      1106    8    0    1
 -2       488       629       630      2696      2700      2698
 -1      1107    8    0    1
 -2       490       489       631      2276      2701      2702
 -1      1108    8    0    1
 -2       489       630       631      2699      2703      2701
 -1      1109    8    0    1
 -2       491       490       632      2279      2704      2705
 -1      1110    8    0    1
 -2       490       631       632      2702      2706      2704
 -1      1111    8    0    1
 -2       492       491       633      2282      2707      2708
 -1      1112    8    0    1
 -2       491       632       633      2705      2709      2707
 -1      1113    8    0    1
 -2       493       492       634      2285      2710      2711
 -1      1114    8    0    1
 -2       492       633       634      2708      2712      2710
 -1      1115    8    0    1
 -2       494       493       635      2288      2713      2714
 -1      1116    8    0    1
 -2       493       634       635      2711      2715      2713
 -1      1117    8    0    1
 -2       495       494       636      2291      2716      2717
 -1      1118    8    0    1
 -2       494       635       636      2714      2718      2716
 -1      1119    8    0    1
 -2       496       495       637      2294      2719      2720
 -1      1120    8    0    1
 -2       495       636       637      2717      2721      2719
 -1      1121    8    0    1
 -2       497       496       638      2297      2722      2723
 -1      1122    8    0    1
 -2       496       637       638      2720      2724      2722
 -1      1123    8    0    1
 -2       498       497       639      2300      2725      2726
 -1      1124    8    0    1
 -2       497       638       639      2723      2727      2725
 -1      1125    8    0    1
 -2       499       498       640      2303      2728      2729
 -1      1126    8    0    1
 -2       498       639       640      2726      2730      2728
 -1      1127    8    0    1
 -2       500       499       641      2306      2731      2732
 -1      1128    8    0    1
 -2       499       640       641      2729      2733      2731
 -1      1129    8    0    1
 -2       501       500       642      2309      2734      2735
 -1      1130    8    0    1
 -2       500       641       642      2732      2736      2734
 -1      1131    8    0    1
 -2       502       501       643      2312      2737      2738
 -1      1132    8    0    1
 -2       501       642       643      2735      2739      2737
 -1      1133    8    0    1
 -2       503       502       644      2315      2740      2741
 -1      1134    8    0    1
 -2       502       643       644      2738      2742      2740
 -1      1135    8    0    1
 -2       504       503       645      2318      2743      2744
 -1      1136    8    0    1
 -2       503       644       645      2741      2745      2743
 -1      1137    8    0    1
 -2       505       504       646      2321      2746      2747
 -1      1138    8    0    1
 -2       504       645       646      2744      2748      2746
 -1      1139    8    0    1
 -2       506       505       647      2324      2749      2750
 -1      1140    8    0    1
 -2       505       646       647      2747      2751      2749
 -1      1141    8    0    1
 -2       507       506       648      2327      2752      2753
 -1      1142    8    0    1
 -2       506       647       648      2750      2754      2752
 -1      1143    8    0    1
 -2       508       507       649      2330      2755      2756
 -1      1144    8    0    1
 -2       507       648       649      2753      2757      2755
 -1      1145    8    0    1
 -2       509       508       650      2333      2758      2759
 -1      1146    8    0    1
 -2       508       649       650      2756      2760      2758
 -1      1147    8    0    1
 -2       510       509       651      2336      2761      2762
 -1      1148    8    0    1
 -2       509       650       651      2759      2763      2761
 -1      1149    8    0    1
 -2       511       510       652      2339      2764      2765
 -1      1150    8    0    1
 -2       510       651       652      2762      2766      2764
 -1      1151    8    0    1
 -2       512       511       653      2342      2767      2768
 -1      1152    8    0    1
 -2       511       652       653      2765      2769      2767
 -1      1153    8    0    1
 -2       513       512       654      2345      2770      2771
 -1      1154    8    0    1
 -2       512       653       654      2768      2772      2770
 -1      1155    8    0    1
 -2       514       513       655      2348      2773      2774
 -1      1156    8    0    1
 -2       513       654       655      2771      2775      2773
 -1      1157    8    0    1
 -2       515       514       656      2351      2776      2777
 -1      1158    8    0    1
 -2       514       655       656      2774      2778      2776
 -1      1159    8    0    1
 -2       516       515       657      2354      2779      2780
 -1      1160    8    0    1
 -2       515       656       657      2777      2781      2779
 -1      1161    8    0    1
 -2       517       516       658      2357      2782      2783
 -1      1162    8    0    1
 -2       516       657       658      2780      2784      2782
 -1      1163    8    0    1
 -2       518       517       659      2360      2785      2786
 -1      1164    8    0    1
 -2       517       658       659      2783      2787      2785
 -1      1165    8    0    1
 -2       519       518       660      2363      2788      2789
 -1      1166    8    0    1
 -2       518       659       660      2786      2790      2788
 -1      1167    8    0    1
 -2       520       519       661      2366      2791      2792
 -1      1168    8    0    1
 -2       519       660       661      2789      2793      2791
 -1      1169    8    0    1
 -2       521       520       662      2369      2794      2795
 -1      1170    8    0    1
 -2       520       661       662      2792      2796      2794
 -1      1171    8    0    1
 -2       522       521       663      2372      2797      2798
 -1      1172    8    0    1
 -2       521       662       663      2795      2799      2797
 -1      1173    8    0    1
 -2       523       522       664      2375      2800      2801
 -1      1174    8    0    1
 -2       522       663       664      2798      2802      2800
 -1      1175    8    0    1
 -2       524       523       665      2378      2803      2804
 -1      1176    8    0    1
 -2       523       664       665      2801      2805      2803
 -1      1177    8    0    1
 -2       525       524       666      2381      2806      2807
 -1      1178    8    0    1
 -2       524       665       666      2804      2808      2806
 -1      1179    8    0    1
 -2       526       525       667      2384      2809      2810
 -1      1180    8    0    1
 -2       525       666       667      2807      2811      2809
 -1      1181    8    0    1
 -2       527       526       668      2387      2812      2813
 -1      1182    8    0    1
 -2       526       667       668      2810      2814      2812
 -1      1183    8    0    1
 -2       528       527       669      2390      2815      2816
 -1      1184    8    0    1
 -2       527       668       669      2813      2817      2815
 -1      1185    8    0    1
 -2       530       531       670      2398      2818      2819
 -1      1186    8    0    1
 -2       570       573       671      2672      2820      2821
 -1      1187    8    0    1
 -2       570       671       569      2821      2822      2515
 -1      1188    8    0    1
 -2       529       530       672      2395      2823      2824
 -1      1189    8    0    1
 -2       530       670       672      2819      2825      2823
 -1      1190    8    0    1
 -2       532       533       673      2404      2826      2827
 -1      1191    8    0    1
 -2       533       534       674      2407      2828      2829
 -1      1192    8    0    1
 -2       533       674       673      2829      2830      2826
 -1      1193    8    0    1
 -2       534       535       675      2410      2831      2832
 -1      1194    8    0    1
 -2       534       675       674      2832      2833      2828
 -1      1195    8    0    1
 -2       535       536       676      2413      2834      2835
 -1      1196    8    0    1
 -2       535       676       675      2835      2836      2831
 -1      1197    8    0    1
 -2       536       537       677      2416      2837      2838
 -1      1198    8    0    1
 -2       536       677       676      2838      2839      2834
 -1      1199    8    0    1
 -2       537       538       678      2419      2840      2841
 -1      1200    8    0    1
 -2       537       678       677      2841      2842      2837
 -1      1201    8    0    1
 -2       538       539       679      2422      2843      2844
 -1      1202    8    0    1
 -2       538       679       678      2844      2845      2840
 -1      1203    8    0    1
 -2       539       540       680      2425      2846      2847
 -1      1204    8    0    1
 -2       539       680       679      2847      2848      2843
 -1      1205    8    0    1
 -2       540       541       681      2428      2849      2850
 -1      1206    8    0    1
 -2       540       681       680      2850      2851      2846
 -1      1207    8    0    1
 -2       541       542       682      2431      2852      2853
 -1      1208    8    0    1
 -2       541       682       681      2853      2854      2849
 -1      1209    8    0    1
 -2       542       543       683      2434      2855      2856
 -1      1210    8    0    1
 -2       542       683       682      2856      2857      2852
 -1      1211    8    0    1
 -2       543       544       684      2437      2858      2859
 -1      1212    8    0    1
 -2       543       684       683      2859      2860      2855
 -1      1213    8    0    1
 -2       544       545       685      2440      2861      2862
 -1      1214    8    0    1
 -2       544       685       684      2862      2863      2858
 -1      1215    8    0    1
 -2       545       546       686      2443      2864      2865
 -1      1216    8    0    1
 -2       545       686       685      2865      2866      2861
 -1      1217    8    0    1
 -2       546       547       687      2446      2867      2868
 -1      1218    8    0    1
 -2       546       687       686      2868      2869      2864
 -1      1219    8    0    1
 -2       547       548       688      2449      2870      2871
 -1      1220    8    0    1
 -2       547       688       687      2871      2872      2867
 -1      1221    8    0    1
 -2       548       549       689      2452      2873      2874
 -1      1222    8    0    1
 -2       548       689       688      2874      2875      2870
 -1      1223    8    0    1
 -2       549       550       690      2455      2876      2877
 -1      1224    8    0    1
 -2       549       690       689      2877      2878      2873
 -1      1225    8    0    1
 -2       550       551       691      2458      2879      2880
 -1      1226    8    0    1
 -2       550       691       690      2880      2881      2876
 -1      1227    8    0    1
 -2       551       552       692      2461      2882      2883
 -1      1228    8    0    1
 -2       551       692       691      2883      2884      2879
 -1      1229    8    0    1
 -2       552       553       693      2464      2885      2886
 -1      1230    8    0    1
 -2       552       693       692      2886      2887      2882
 -1      1231    8    0    1
 -2       553       554       694      2467      2888      2889
 -1      1232    8    0    1
 -2       553       694       693      2889      2890      2885
 -1      1233    8    0    1
 -2       554       555       695      2470      2891      2892
 -1      1234    8    0    1
 -2       554       695       694      2892      2893      2888
 -1      1235    8    0    1
 -2       555       556       696      2473      2894      2895
 -1      1236    8    0    1
 -2       555       696       695      2895      2896      2891
 -1      1237    8    0    1
 -2       556       557       697      2476      2897      2898
 -1      1238    8    0    1
 -2       556       697       696      2898      2899      2894
 -1      1239    8    0    1
 -2       557       558       698      2479      2900      2901
 -1      1240    8    0    1
 -2       557       698       697      2901      2902      2897
 -1      1241    8    0    1
 -2       558       559       596      2482      2903      2904
 -1      1242    8    0    1
 -2       560       561       593      2488      2905      2906
 -1      1243    8    0    1
 -2       562       563       699      2494      2907      2908
 -1      1244    8    0    1
 -2       563       564       700      2497      2909      2910
 -1      1245    8    0    1
 -2       563       700       699      2910      2911      2907
 -1      1246    8    0    1
 -2       564       565       701      2500      2912      2913
 -1      1247    8    0    1
 -2       564       701       700      2913      2914      2909
 -1      1248    8    0    1
 -2       565       566       702      2503      2915      2916
 -1      1249    8    0    1
 -2       565       702       701      2916      2917      2912
 -1      1250    8    0    1
 -2       566       567       703      2506      2918      2919
 -1      1251    8    0    1
 -2       566       703       702      2919      2920      2915
 -1      1252    8    0    1
 -2       567       568       704      2509      2921      2922
 -1      1253    8    0    1
 -2       567       704       703      2922      2923      2918
 -1      1254    8    0    1
 -2       568       569       705      2512      2924      2925
 -1      1255    8    0    1
 -2       704       568       705      2921      2925      2926
 -1      1256    8    0    1
 -2       569       671       705      2822      2927      2924
 -1      1257    8    0    1
 -2       583       613       706      2639      2928      2929
 -1      1258    8    0    1
 -2       575       576       707      2533      2930      2931
 -1      1259    8    0    1
 -2       609       610       708      2673      2932      2933
 -1      1260    8    0    1
 -2       610       626       708      2690      2934      2932
 -1      1261    8    0    1
 -2       571       572       709      2521      2935      2936
 -1      1262    8    0    1
 -2       576       577       710      2536      2937      2938
 -1      1263    8    0    1
 -2       576       710       707      2938      2939      2930
 -1      1264    8    0    1
 -2       572       575       711      2530      2940      2941
 -1      1265    8    0    1
 -2       709       572       711      2935      2941      2942
 -1      1266    8    0    1
 -2       575       707       711      2931      2943      2940
 -1      1267    8    0    1
 -2       577       578       712      2539      2944      2945
 -1      1268    8    0    1
 -2       577       712       710      2945      2946      2937
 -1      1269    8    0    1
 -2       578       579       713      2542      2947      2948
 -1      1270    8    0    1
 -2       578       713       712      2948      2949      2944
 -1      1271    8    0    1
 -2       579       580       714      2545      2950      2951
 -1      1272    8    0    1
 -2       579       714       713      2951      2952      2947
 -1      1273    8    0    1
 -2       586       583       715      2645      2953      2954
 -1      1274    8    0    1
 -2       583       706       715      2929      2955      2953
 -1      1275    8    0    1
 -2       585       582       716      2559      2956      2957
 -1      1276    8    0    1
 -2       599       607       717      2646      2958      2959
 -1      1277    8    0    1
 -2       484       587       718      2564      2960      2961
 -1      1278    8    0    1
 -2       486       484       718      2264      2961      2962
 -1      1279    8    0    1
 -2       587       614       718      2687      2963      2960
 -1      1280    8    0    1
 -2       604       605       719      2647      2964      2965
 -1      1281    8    0    1
 -2       598       473       720      2656      2966      2967
 -1      1282    8    0    1
 -2       595       593       561      2584      2905      2968
 -1      1283    8    0    1
 -2       584       529       721      2555      2969      2970
 -1      1284    8    0    1
 -2       529       672       721      2824      2971      2969
 -1      1285    8    0    1
 -2       450       591       722      2573      2972      2973
 -1      1286    8    0    1
 -2       531       532       723      2401      2974      2975
 -1      1287    8    0    1
 -2       670       531       723      2818      2975      2976
 -1      1288    8    0    1
 -2       532       673       723      2827      2977      2974
 -1      1289    8    0    1
 -2       483       584       724      2631      2978      2979
 -1      1290    8    0    1
 -2       625       483       724      2685      2979      2980
 -1      1291    8    0    1
 -2       584       721       724      2970      2981      2978
 -1      1292    8    0    1
 -2       603       604       725      2650      2982      2983
 -1      1293    8    0    1
 -2       611       595       726      2666      2984      2985
 -1      1294    8    0    1
 -2       479       480       727      2248      2986      2987
 -1      1295    8    0    1
 -2       621       479       727      2675      2987      2988
 -1      1296    8    0    1
 -2       480       623       727      2681      2989      2986
 -1      1297    8    0    1
 -2       594       598       728      2664      2990      2991
 -1      1298    8    0    1
 -2       476       475       729      2237      2992      2993
 -1      1299    8    0    1
 -2       485       611       699      2665      2994      2995
 -1      1300    8    0    1
 -2       597       600       730      2595      2996      2997
 -1      1301    8    0    1
 -2       581       620       731      2670      2998      2999
 -1      1302    8    0    1
 -2       620       528       731      2674      3000      2998
 -1      1303    8    0    1
 -2       602       589       732      2652      3001      3002
 -1      1304    8    0    1
 -2       589       603       733      2651      3003      3004
 -1      1305    8    0    1
 -2       605       606       734      2608      3005      3006
 -1      1306    8    0    1
 -2       606       599       735      2641      3007      3008
 -1      1307    8    0    1
 -2       607       608       736      2613      3009      3010
 -1      1308    8    0    1
 -2       601       602       737      2667      3011      3012
 -1      1309    8    0    1
 -2       613       485       738      2633      3013      3014
 -1      1310    8    0    1
 -2       558       596       698      2904      3015      2900
 -1      1311    8    0    1
 -2       614       476       739      2628      3016      3017
 -1      1312    8    0    1
 -2       476       729       739      2993      3018      3016
 -1      1313    8    0    1
 -2       477       622       740      2678      3019      3020
 -1      1314    8    0    1
 -2       477       740       592      3020      3021      2577
 -1      1315    8    0    1
 -2       725       604       719      2982      2965      3022
 -1      1316    8    0    1
 -2       627       609       708      2691      2933      3023
 -1      1317    8    0    1
 -2       615       585       716      2636      2957      3024
 -1      1318    8    0    1
 -2       588       615       741      2635      3025      3026
 -1      1319    8    0    1
 -2       588       741       626      3026      3027      2689
 -1      1320    8    0    1
 -2       594       728       742      2991      3028      3029
 -1      1321    8    0    1
 -2       594       742       618      3029      3030      2660
 -1      1322    8    0    1
 -2       608       627       736      2692      3031      3009
 -1      1323    8    0    1
 -2       528       669       731      2816      3032      3000
 -1      1324    8    0    1
 -2       559       560       743      2485      3033      3034
 -1      1325    8    0    1
 -2       561       562       595      2491      3035      2968
 -1      1326    8    0    1
 -2       450       722       593      2973      3036      2578
 -1      1327    8    0    1
 -2       737       602       732      3011      3002      3037
 -1      1328    8    0    1
 -2       573       574       671      2526      3038      2820
 -1      1329    8    0    1
 -2       717       607       736      2958      3010      3039
 -1      1330    8    0    1
 -2       735       599       717      3007      2959      3040
 -1      1331    8    0    1
 -2       616       586       744      2642      3041      3042
 -1      1332    8    0    1
 -2       586       715       744      2954      3043      3041
 -1      1333    8    0    1
 -2       580       581       731      2548      2999      3044
 -1      1334    8    0    1
 -2       734       606       735      3005      3008      3045
 -1      1335    8    0    1
 -2       628       486       718      2693      2962      3046
 -1      1336    8    0    1
 -2       716       582       616      2956      2644      3047
 -1      1337    8    0    1
 -2       733       603       725      3003      2983      3048
 -1      1338    8    0    1
 -2       730       600       745      2996      3049      3050
 -1      1339    8    0    1
 -2       600       617       745      2654      3051      3049
 -1      1340    8    0    1
 -2       720       473       619      2966      2662      3052
 -1      1341    8    0    1
 -2       617       601       737      2655      3012      3053
 -1      1342    8    0    1
 -2       598       720       728      2967      3054      2990
 -1      1343    8    0    1
 -2       580       731       746      3044      3055      3056
 -1      1344    8    0    1
 -2       714       580       746      2950      3056      3057
 -1      1345    8    0    1
 -2       731       669       746      3032      3058      3055
 -1      1346    8    0    1
 -2       482       474       625      2688      2686      3059
 -1      1347    8    0    1
 -2       619       597       747      2663      3060      3061
 -1      1348    8    0    1
 -2       597       730       747      2997      3062      3060
 -1      1349    8    0    1
 -2       722       591       743      2972      3063      3064
 -1      1350    8    0    1
 -2       574       571       748      2527      3065      3066
 -1      1351    8    0    1
 -2       571       709       748      2936      3067      3065
 -1      1352    8    0    1
 -2       475       592       749      2576      3068      3069
 -1      1353    8    0    1
 -2       729       475       749      2992      3069      3070
 -1      1354    8    0    1
 -2       592       740       749      3021      3071      3068
 -1      1355    8    0    1
 -2       719       605       734      2964      3006      3072
 -1      1356    8    0    1
 -2       732       589       733      3001      3004      3073
 -1      1357    8    0    1
 -2       624       482       625      2682      3059      3074
 -1      1358    8    0    1
 -2       591       596       743      2627      3075      3063
 -1      1359    8    0    1
 -2       623       624       750      2684      3076      3077
 -1      1360    8    0    1
 -2       627       708       751      3023      3078      3079
 -1      1361    8    0    1
 -2       630       629       752      2700      3080      3081
 -1      1362    8    0    1
 -2       631       630       753      2703      3082      3083
 -1      1363    8    0    1
 -2       630       752       753      3081      3084      3082
 -1      1364    8    0    1
 -2       632       631       754      2706      3085      3086
 -1      1365    8    0    1
 -2       631       753       754      3083      3087      3085
 -1      1366    8    0    1
 -2       633       632       755      2709      3088      3089
 -1      1367    8    0    1
 -2       632       754       755      3086      3090      3088
 -1      1368    8    0    1
 -2       634       633       756      2712      3091      3092
 -1      1369    8    0    1
 -2       633       755       756      3089      3093      3091
 -1      1370    8    0    1
 -2       635       634       757      2715      3094      3095
 -1      1371    8    0    1
 -2       634       756       757      3092      3096      3094
 -1      1372    8    0    1
 -2       636       635       758      2718      3097      3098
 -1      1373    8    0    1
 -2       635       757       758      3095      3099      3097
 -1      1374    8    0    1
 -2       637       636       759      2721      3100      3101
 -1      1375    8    0    1
 -2       636       758       759      3098      3102      3100
 -1      1376    8    0    1
 -2       638       637       760      2724      3103      3104
 -1      1377    8    0    1
 -2       637       759       760      3101      3105      3103
 -1      1378    8    0    1
 -2       639       638       761      2727      3106      3107
 -1      1379    8    0    1
 -2       638       760       761      3104      3108      3106
 -1      1380    8    0    1
 -2       640       639       762      2730      3109      3110
 -1      1381    8    0    1
 -2       639       761       762      3107      3111      3109
 -1      1382    8    0    1
 -2       641       640       763      2733      3112      3113
 -1      1383    8    0    1
 -2       640       762       763      3110      3114      3112
 -1      1384    8    0    1
 -2       642       641       764      2736      3115      3116
 -1      1385    8    0    1
 -2       641       763       764      3113      3117      3115
 -1      1386    8    0    1
 -2       643       642       765      2739      3118      3119
 -1      1387    8    0    1
 -2       642       764       765      3116      3120      3118
 -1      1388    8    0    1
 -2       644       643       766      2742      3121      3122
 -1      1389    8    0    1
 -2       643       765       766      3119      3123      3121
 -1      1390    8    0    1
 -2       645       644       767      2745      3124      3125
 -1      1391    8    0    1
 -2       644       766       767      3122      3126      3124
 -1      1392    8    0    1
 -2       646       645       768      2748      3127      3128
 -1      1393    8    0    1
 -2       645       767       768      3125      3129      3127
 -1      1394    8    0    1
 -2       647       646       769      2751      3130      3131
 -1      1395    8    0    1
 -2       646       768       769      3128      3132      3130
 -1      1396    8    0    1
 -2       648       647       770      2754      3133      3134
 -1      1397    8    0    1
 -2       647       769       770      3131      3135      3133
 -1      1398    8    0    1
 -2       649       648       771      2757      3136      3137
 -1      1399    8    0    1
 -2       648       770       771      3134      3138      3136
 -1      1400    8    0    1
 -2       650       649       772      2760      3139      3140
 -1      1401    8    0    1
 -2       649       771       772      3137      3141      3139
 -1      1402    8    0    1
 -2       651       650       773      2763      3142      3143
 -1      1403    8    0    1
 -2       650       772       773      3140      3144      3142
 -1      1404    8    0    1
 -2       652       651       774      2766      3145      3146
 -1      1405    8    0    1
 -2       651       773       774      3143      3147      3145
 -1      1406    8    0    1
 -2       653       652       775      2769      3148      3149
 -1      1407    8    0    1
 -2       652       774       775      3146      3150      3148
 -1      1408    8    0    1
 -2       654       653       776      2772      3151      3152
 -1      1409    8    0    1
 -2       653       775       776      3149      3153      3151
 -1      1410    8    0    1
 -2       655       654       777      2775      3154      3155
 -1      1411    8    0    1
 -2       654       776       777      3152      3156      3154
 -1      1412    8    0    1
 -2       656       655       778      2778      3157      3158
 -1      1413    8    0    1
 -2       655       777       778      3155      3159      3157
 -1      1414    8    0    1
 -2       657       656       779      2781      3160      3161
 -1      1415    8    0    1
 -2       656       778       779      3158      3162      3160
 -1      1416    8    0    1
 -2       658       657       780      2784      3163      3164
 -1      1417    8    0    1
 -2       657       779       780      3161      3165      3163
 -1      1418    8    0    1
 -2       659       658       781      2787      3166      3167
 -1      1419    8    0    1
 -2       658       780       781      3164      3168      3166
 -1      1420    8    0    1
 -2       660       659       782      2790      3169      3170
 -1      1421    8    0    1
 -2       659       781       782      3167      3171      3169
 -1      1422    8    0    1
 -2       661       660       783      2793      3172      3173
 -1      1423    8    0    1
 -2       660       782       783      3170      3174      3172
 -1      1424    8    0    1
 -2       662       661       784      2796      3175      3176
 -1      1425    8    0    1
 -2       661       783       784      3173      3177      3175
 -1      1426    8    0    1
 -2       663       662       785      2799      3178      3179
 -1      1427    8    0    1
 -2       662       784       785      3176      3180      3178
 -1      1428    8    0    1
 -2       664       663       786      2802      3181      3182
 -1      1429    8    0    1
 -2       663       785       786      3179      3183      3181
 -1      1430    8    0    1
 -2       665       664       787      2805      3184      3185
 -1      1431    8    0    1
 -2       664       786       787      3182      3186      3184
 -1      1432    8    0    1
 -2       666       665       788      2808      3187      3188
 -1      1433    8    0    1
 -2       665       787       788      3185      3189      3187
 -1      1434    8    0    1
 -2       667       666       789      2811      3190      3191
 -1      1435    8    0    1
 -2       666       788       789      3188      3192      3190
 -1      1436    8    0    1
 -2       668       667       790      2814      3193      3194
 -1      1437    8    0    1
 -2       667       789       790      3191      3195      3193
 -1      1438    8    0    1
 -2       669       668       791      2817      3196      3197
 -1      1439    8    0    1
 -2       746       669       791      3058      3197      3198
 -1      1440    8    0    1
 -2       668       790       791      3194      3199      3196
 -1      1441    8    0    1
 -2       672       670       792      2825      3200      3201
 -1      1442    8    0    1
 -2       738       485       699      3013      2995      3202
 -1      1443    8    0    1
 -2       674       675       793      2833      3203      3204
 -1      1444    8    0    1
 -2       673       674       794      2830      3205      3206
 -1      1445    8    0    1
 -2       674       793       794      3204      3207      3205
 -1      1446    8    0    1
 -2       676       677       795      2839      3208      3209
 -1      1447    8    0    1
 -2       677       678       796      2842      3210      3211
 -1      1448    8    0    1
 -2       677       796       795      3211      3212      3208
 -1      1449    8    0    1
 -2       678       679       797      2845      3213      3214
 -1      1450    8    0    1
 -2       678       797       796      3214      3215      3210
 -1      1451    8    0    1
 -2       679       680       798      2848      3216      3217
 -1      1452    8    0    1
 -2       679       798       797      3217      3218      3213
 -1      1453    8    0    1
 -2       680       681       799      2851      3219      3220
 -1      1454    8    0    1
 -2       680       799       798      3220      3221      3216
 -1      1455    8    0    1
 -2       681       682       800      2854      3222      3223
 -1      1456    8    0    1
 -2       681       800       799      3223      3224      3219
 -1      1457    8    0    1
 -2       682       683       801      2857      3225      3226
 -1      1458    8    0    1
 -2       682       801       800      3226      3227      3222
 -1      1459    8    0    1
 -2       683       684       802      2860      3228      3229
 -1      1460    8    0    1
 -2       683       802       801      3229      3230      3225
 -1      1461    8    0    1
 -2       684       685       803      2863      3231      3232
 -1      1462    8    0    1
 -2       684       803       802      3232      3233      3228
 -1      1463    8    0    1
 -2       685       686       804      2866      3234      3235
 -1      1464    8    0    1
 -2       685       804       803      3235      3236      3231
 -1      1465    8    0    1
 -2       686       687       805      2869      3237      3238
 -1      1466    8    0    1
 -2       686       805       804      3238      3239      3234
 -1      1467    8    0    1
 -2       687       688       806      2872      3240      3241
 -1      1468    8    0    1
 -2       687       806       805      3241      3242      3237
 -1      1469    8    0    1
 -2       688       689       807      2875      3243      3244
 -1      1470    8    0    1
 -2       688       807       806      3244      3245      3240
 -1      1471    8    0    1
 -2       689       690       808      2878      3246      3247
 -1      1472    8    0    1
 -2       689       808       807      3247      3248      3243
 -1      1473    8    0    1
 -2       690       691       809      2881      3249      3250
 -1      1474    8    0    1
 -2       690       809       808      3250      3251      3246
 -1      1475    8    0    1
 -2       691       692       810      2884      3252      3253
 -1      1476    8    0    1
 -2       691       810       809      3253      3254      3249
 -1      1477    8    0    1
 -2       692       693       811      2887      3255      3256
 -1      1478    8    0    1
 -2       692       811       810      3256      3257      3252
 -1      1479    8    0    1
 -2       693       694       812      2890      3258      3259
 -1      1480    8    0    1
 -2       693       812       811      3259      3260      3255
 -1      1481    8    0    1
 -2       694       695       813      2893      3261      3262
 -1      1482    8    0    1
 -2       694       813       812      3262      3263      3258
 -1      1483    8    0    1
 -2       695       696       814      2896      3264      3265
 -1      1484    8    0    1
 -2       695       814       813      3265      3266      3261
 -1      1485    8    0    1
 -2       696       697       815      2899      3267      3268
 -1      1486    8    0    1
 -2       696       815       814      3268      3269      3264
 -1      1487    8    0    1
 -2       697       698       742      2902      3270      3271
 -1      1488    8    0    1
 -2       596       559       743      2903      3034      3075
 -1      1489    8    0    1
 -2       595       562       726      3035      3272      2984
 -1      1490    8    0    1
 -2       562       699       726      2908      3273      3272
 -1      1491    8    0    1
 -2       702       703       816      2920      3274      3275
 -1      1492    8    0    1
 -2       703       704       817      2923      3276      3277
 -1      1493    8    0    1
 -2       703       817       816      3277      3278      3274
 -1      1494    8    0    1
 -2       706       613       818      2928      3279      3280
 -1      1495    8    0    1
 -2       710       712       819      2946      3281      3282
 -1      1496    8    0    1
 -2       615       716       820      3024      3283      3284
 -1      1497    8    0    1
 -2       713       714       821      2952      3285      3286
 -1      1498    8    0    1
 -2       707       710       822      2939      3287      3288
 -1      1499    8    0    1
 -2       710       819       822      3282      3289      3287
 -1      1500    8    0    1
 -2       715       706       823      2955      3290      3291
 -1      1501    8    0    1
 -2       699       611       726      2994      2985      3273
 -1      1502    8    0    1
 -2       718       614       739      2963      3017      3292
 -1      1503    8    0    1
 -2       716       616       824      3047      3293      3294
 -1      1504    8    0    1
 -2       616       744       824      3042      3295      3293
 -1      1505    8    0    1
 -2       712       713       825      2949      3296      3297
 -1      1506    8    0    1
 -2       819       712       825      3281      3297      3298
 -1      1507    8    0    1
 -2       713       821       825      3286      3299      3296
 -1      1508    8    0    1
 -2       720       619       826      3052      3300      3301
 -1      1509    8    0    1
 -2       619       747       826      3061      3302      3300
 -1      1510    8    0    1
 -2       708       626       827      2934      3303      3304
 -1      1511    8    0    1
 -2       708       827       751      3304      3305      3078
 -1      1512    8    0    1
 -2       701       702       823      2917      3306      3307
 -1      1513    8    0    1
 -2       721       672       828      2971      3308      3309
 -1      1514    8    0    1
 -2       672       792       828      3201      3310      3308
 -1      1515    8    0    1
 -2       725       719       829      3022      3311      3312
 -1      1516    8    0    1
 -2       736       627       830      3031      3313      3314
 -1      1517    8    0    1
 -2       675       676       831      2836      3315      3316
 -1      1518    8    0    1
 -2       793       675       831      3203      3316      3317
 -1      1519    8    0    1
 -2       676       795       831      3209      3318      3315
 -1      1520    8    0    1
 -2       617       737       832      3053      3319      3320
 -1      1521    8    0    1
 -2       717       736       833      3039      3321      3322
 -1      1522    8    0    1
 -2       590       618       698      2659      3323      3324
 -1      1523    8    0    1
 -2       719       734       834      3072      3325      3326
 -1      1524    8    0    1
 -2       733       725       835      3048      3327      3328
 -1      1525    8    0    1
 -2       737       732       836      3037      3329      3330
 -1      1526    8    0    1
 -2       596       590       698      2657      3324      3015
 -1      1527    8    0    1
 -2       624       625       837      3074      3331      3332
 -1      1528    8    0    1
 -2       750       624       837      3076      3332      3333
 -1      1529    8    0    1
 -2       625       724       837      2980      3334      3331
 -1      1530    8    0    1
 -2       732       733       838      3073      3335      3336
 -1      1531    8    0    1
 -2       628       718       839      3046      3337      3338
 -1      1532    8    0    1
 -2       718       739       839      3292      3339      3337
 -1      1533    8    0    1
 -2       629       628       840      2697      3340      3341
 -1      1534    8    0    1
 -2       752       629       840      3080      3341      3342
 -1      1535    8    0    1
 -2       628       839       840      3338      3343      3340
 -1      1536    8    0    1
 -2       735       717       841      3040      3344      3345
 -1      1537    8    0    1
 -2       728       720       842      3054      3346      3347
 -1      1538    8    0    1
 -2       622       621       843      2679      3348      3349
 -1      1539    8    0    1
 -2       671       574       748      3038      3066      3350
 -1      1540    8    0    1
 -2       613       738       818      3014      3351      3279
 -1      1541    8    0    1
 -2       698       618       742      3323      3030      3270
 -1      1542    8    0    1
 -2       740       622       844      3019      3352      3353
 -1      1543    8    0    1
 -2       622       843       844      3349      3354      3352
 -1      1544    8    0    1
 -2       627       751       830      3079      3355      3313
 -1      1545    8    0    1
 -2       725       829       835      3312      3356      3327
 -1      1546    8    0    1
 -2       741       615       820      3025      3284      3357
 -1      1547    8    0    1
 -2       732       838       836      3336      3358      3329
 -1      1548    8    0    1
 -2       743       560       722      3033      3359      3064
 -1      1549    8    0    1
 -2       724       721       845      2981      3360      3361
 -1      1550    8    0    1
 -2       837       724       845      3334      3361      3362
 -1      1551    8    0    1
 -2       721       828       845      3309      3363      3360
 -1      1552    8    0    1
 -2       626       741       846      3027      3364      3365
 -1      1553    8    0    1
 -2       626       846       827      3365      3366      3303
 -1      1554    8    0    1
 -2       832       737       847      3319      3367      3368
 -1      1555    8    0    1
 -2       737       836       847      3330      3369      3367
 -1      1556    8    0    1
 -2       673       794       848      3206      3370      3371
 -1      1557    8    0    1
 -2       673       848       723      3371      3372      2977
 -1      1558    8    0    1
 -2       697       742       815      3271      3373      3267
 -1      1559    8    0    1
 -2       739       729       849      3018      3374      3375
 -1      1560    8    0    1
 -2       739       849       839      3375      3376      3339
 -1      1561    8    0    1
 -2       716       824       850      3294      3377      3378
 -1      1562    8    0    1
 -2       716       850       820      3378      3379      3283
 -1      1563    8    0    1
 -2       817       704       851      3276      3380      3381
 -1      1564    8    0    1
 -2       704       705       851      2926      3382      3380
 -1      1565    8    0    1
 -2       706       818       823      3280      3383      3290
 -1      1566    8    0    1
 -2       715       823       852      3291      3384      3385
 -1      1567    8    0    1
 -2       715       852       744      3385      3386      3043
 -1      1568    8    0    1
 -2       705       671       853      2927      3387      3388
 -1      1569    8    0    1
 -2       671       748       853      3350      3389      3387
 -1      1570    8    0    1
 -2       709       711       854      2942      3390      3391
 -1      1571    8    0    1
 -2       720       826       842      3301      3392      3346
 -1      1572    8    0    1
 -2       711       707       855      2943      3393      3394
 -1      1573    8    0    1
 -2       854       711       855      3390      3394      3395
 -1      1574    8    0    1
 -2       707       822       855      3288      3396      3393
 -1      1575    8    0    1
 -2       702       816       823      3275      3397      3306
 -1      1576    8    0    1
 -2       748       709       856      3067      3398      3399
 -1      1577    8    0    1
 -2       853       748       856      3389      3399      3400
 -1      1578    8    0    1
 -2       709       854       856      3391      3401      3398
 -1      1579    8    0    1
 -2       745       617       832      3051      3320      3402
 -1      1580    8    0    1
 -2       849       729       857      3374      3403      3404
 -1      1581    8    0    1
 -2       729       749       857      3070      3405      3403
 -1      1582    8    0    1
 -2       792       670       858      3200      3406      3407
 -1      1583    8    0    1
 -2       670       723       858      2976      3408      3406
 -1      1584    8    0    1
 -2       829       719       834      3311      3326      3409
 -1      1585    8    0    1
 -2       736       830       833      3314      3410      3321
 -1      1586    8    0    1
 -2       747       730       859      3062      3411      3412
 -1      1587    8    0    1
 -2       730       745       859      3050      3413      3411
 -1      1588    8    0    1
 -2       623       750       860      3077      3414      3415
 -1      1589    8    0    1
 -2       623       860       727      3415      3416      2989
 -1      1590    8    0    1
 -2       818       738       701      3351      3417      3418
 -1      1591    8    0    1
 -2       700       701       738      2914      3417      3419
 -1      1592    8    0    1
 -2       818       701       823      3418      3307      3383
 -1      1593    8    0    1
 -2       621       727       861      2988      3420      3421
 -1      1594    8    0    1
 -2       843       621       861      3348      3421      3422
 -1      1595    8    0    1
 -2       727       860       861      3416      3423      3420
 -1      1596    8    0    1
 -2       717       833       841      3322      3424      3344
 -1      1597    8    0    1
 -2       733       835       838      3328      3425      3335
 -1      1598    8    0    1
 -2       734       735       862      3045      3426      3427
 -1      1599    8    0    1
 -2       714       746       863      3057      3428      3429
 -1      1600    8    0    1
 -2       821       714       863      3285      3429      3430
 -1      1601    8    0    1
 -2       746       791       863      3198      3431      3428
 -1      1602    8    0    1
 -2       734       862       834      3427      3432      3325
 -1      1603    8    0    1
 -2       751       827       864      3305      3433      3434
 -1      1604    8    0    1
 -2       742       728       865      3028      3435      3436
 -1      1605    8    0    1
 -2       815       742       865      3373      3436      3437
 -1      1606    8    0    1
 -2       728       842       865      3347      3438      3435
 -1      1607    8    0    1
 -2       834       862       783      3432      3439      3440
 -1      1608    8    0    1
 -2       754       753       866      3087      3441      3442
 -1      1609    8    0    1
 -2       755       754       867      3090      3443      3444
 -1      1610    8    0    1
 -2       754       866       867      3442      3445      3443
 -1      1611    8    0    1
 -2       756       755       868      3093      3446      3447
 -1      1612    8    0    1
 -2       755       867       868      3444      3448      3446
 -1      1613    8    0    1
 -2       757       756       869      3096      3449      3450
 -1      1614    8    0    1
 -2       756       868       869      3447      3451      3449
 -1      1615    8    0    1
 -2       758       757       870      3099      3452      3453
 -1      1616    8    0    1
 -2       757       869       870      3450      3454      3452
 -1      1617    8    0    1
 -2       759       758       871      3102      3455      3456
 -1      1618    8    0    1
 -2       758       870       871      3453      3457      3455
 -1      1619    8    0    1
 -2       760       759       872      3105      3458      3459
 -1      1620    8    0    1
 -2       759       871       872      3456      3460      3458
 -1      1621    8    0    1
 -2       761       760       873      3108      3461      3462
 -1      1622    8    0    1
 -2       760       872       873      3459      3463      3461
 -1      1623    8    0    1
 -2       762       761       874      3111      3464      3465
 -1      1624    8    0    1
 -2       761       873       874      3462      3466      3464
 -1      1625    8    0    1
 -2       763       762       875      3114      3467      3468
 -1      1626    8    0    1
 -2       762       874       875      3465      3469      3467
 -1      1627    8    0    1
 -2       764       763       876      3117      3470      3471
 -1      1628    8    0    1
 -2       763       875       876      3468      3472      3470
 -1      1629    8    0    1
 -2       765       764       877      3120      3473      3474
 -1      1630    8    0    1
 -2       764       876       877      3471      3475      3473
 -1      1631    8    0    1
 -2       766       765       878      3123      3476      3477
 -1      1632    8    0    1
 -2       765       877       878      3474      3478      3476
 -1      1633    8    0    1
 -2       767       766       879      3126      3479      3480
 -1      1634    8    0    1
 -2       766       878       879      3477      3481      3479
 -1      1635    8    0    1
 -2       768       767       880      3129      3482      3483
 -1      1636    8    0    1
 -2       767       879       880      3480      3484      3482
 -1      1637    8    0    1
 -2       769       768       881      3132      3485      3486
 -1      1638    8    0    1
 -2       768       880       881      3483      3487      3485
 -1      1639    8    0    1
 -2       770       769       882      3135      3488      3489
 -1      1640    8    0    1
 -2       769       881       882      3486      3490      3488
 -1      1641    8    0    1
 -2       771       770       883      3138      3491      3492
 -1      1642    8    0    1
 -2       770       882       883      3489      3493      3491
 -1      1643    8    0    1
 -2       772       771       884      3141      3494      3495
 -1      1644    8    0    1
 -2       771       883       884      3492      3496      3494
 -1      1645    8    0    1
 -2       773       772       885      3144      3497      3498
 -1      1646    8    0    1
 -2       772       884       885      3495      3499      3497
 -1      1647    8    0    1
 -2       774       773       886      3147      3500      3501
 -1      1648    8    0    1
 -2       773       885       886      3498      3502      3500
 -1      1649    8    0    1
 -2       775       774       887      3150      3503      3504
 -1      1650    8    0    1
 -2       774       886       887      3501      3505      3503
 -1      1651    8    0    1
 -2       776       775       888      3153      3506      3507
 -1      1652    8    0    1
 -2       775       887       888      3504      3508      3506
 -1      1653    8    0    1
 -2       777       776       889      3156      3509      3510
 -1      1654    8    0    1
 -2       776       888       889      3507      3511      3509
 -1      1655    8    0    1
 -2       778       777       890      3159      3512      3513
 -1      1656    8    0    1
 -2       777       889       890      3510      3514      3512
 -1      1657    8    0    1
 -2       779       778       891      3162      3515      3516
 -1      1658    8    0    1
 -2       778       890       891      3513      3517      3515
 -1      1659    8    0    1
 -2       780       779       892      3165      3518      3519
 -1      1660    8    0    1
 -2       779       891       892      3516      3520      3518
 -1      1661    8    0    1
 -2       781       780       835      3168      3521      3522
 -1      1662    8    0    1
 -2       782       781       829      3171      3523      3524
 -1      1663    8    0    1
 -2       784       783       862      3177      3439      3525
 -1      1664    8    0    1
 -2       785       784       841      3180      3526      3527
 -1      1665    8    0    1
 -2       788       787       893      3189      3528      3529
 -1      1666    8    0    1
 -2       789       788       894      3192      3530      3531
 -1      1667    8    0    1
 -2       788       893       894      3529      3532      3530
 -1      1668    8    0    1
 -2       790       789       895      3195      3533      3534
 -1      1669    8    0    1
 -2       789       894       895      3531      3535      3533
 -1      1670    8    0    1
 -2       794       793       896      3207      3536      3537
 -1      1671    8    0    1
 -2       738       699       700      3202      2911      3419
 -1      1672    8    0    1
 -2       796       797       897      3215      3538      3539
 -1      1673    8    0    1
 -2       795       796       898      3212      3540      3541
 -1      1674    8    0    1
 -2       796       897       898      3539      3542      3540
 -1      1675    8    0    1
 -2       798       799       899      3221      3543      3544
 -1      1676    8    0    1
 -2       799       800       900      3224      3545      3546
 -1      1677    8    0    1
 -2       799       900       899      3546      3547      3543
 -1      1678    8    0    1
 -2       800       801       901      3227      3548      3549
 -1      1679    8    0    1
 -2       800       901       900      3549      3550      3545
 -1      1680    8    0    1
 -2       801       802       902      3230      3551      3552
 -1      1681    8    0    1
 -2       801       902       901      3552      3553      3548
 -1      1682    8    0    1
 -2       802       803       903      3233      3554      3555
 -1      1683    8    0    1
 -2       802       903       902      3555      3556      3551
 -1      1684    8    0    1
 -2       803       804       904      3236      3557      3558
 -1      1685    8    0    1
 -2       803       904       903      3558      3559      3554
 -1      1686    8    0    1
 -2       804       805       905      3239      3560      3561
 -1      1687    8    0    1
 -2       804       905       904      3561      3562      3557
 -1      1688    8    0    1
 -2       805       806       906      3242      3563      3564
 -1      1689    8    0    1
 -2       805       906       905      3564      3565      3560
 -1      1690    8    0    1
 -2       806       807       907      3245      3566      3567
 -1      1691    8    0    1
 -2       806       907       906      3567      3568      3563
 -1      1692    8    0    1
 -2       807       808       908      3248      3569      3570
 -1      1693    8    0    1
 -2       807       908       907      3570      3571      3566
 -1      1694    8    0    1
 -2       808       809       909      3251      3572      3573
 -1      1695    8    0    1
 -2       808       909       908      3573      3574      3569
 -1      1696    8    0    1
 -2       809       810       910      3254      3575      3576
 -1      1697    8    0    1
 -2       809       910       909      3576      3577      3572
 -1      1698    8    0    1
 -2       810       811       911      3257      3578      3579
 -1      1699    8    0    1
 -2       810       911       910      3579      3580      3575
 -1      1700    8    0    1
 -2       811       812       912      3260      3581      3582
 -1      1701    8    0    1
 -2       811       912       911      3582      3583      3578
 -1      1702    8    0    1
 -2       812       813       913      3263      3584      3585
 -1      1703    8    0    1
 -2       812       913       912      3585      3586      3581
 -1      1704    8    0    1
 -2       813       814       914      3266      3587      3588
 -1      1705    8    0    1
 -2       813       914       913      3588      3589      3584
 -1      1706    8    0    1
 -2       839       849       915      3376      3590      3591
 -1      1707    8    0    1
 -2       839       915       840      3591      3592      3343
 -1      1708    8    0    1
 -2       560       593       722      2906      3036      3359
 -1      1709    8    0    1
 -2       816       817       916      3278      3593      3594
 -1      1710    8    0    1
 -2       842       826       917      3392      3595      3596
 -1      1711    8    0    1
 -2       836       838       918      3358      3597      3598
 -1      1712    8    0    1
 -2       823       816       916      3397      3594      3599
 -1      1713    8    0    1
 -2       826       747       919      3302      3600      3601
 -1      1714    8    0    1
 -2       824       744       920      3295      3602      3603
 -1      1715    8    0    1
 -2       828       792       921      3310      3604      3605
 -1      1716    8    0    1
 -2       741       820       922      3357      3606      3607
 -1      1717    8    0    1
 -2       749       740       923      3071      3608      3609
 -1      1718    8    0    1
 -2       857       749       923      3405      3609      3610
 -1      1719    8    0    1
 -2       740       844       923      3353      3611      3608
 -1      1720    8    0    1
 -2       829       834       782      3409      3612      3524
 -1      1721    8    0    1
 -2       822       819       924      3289      3613      3614
 -1      1722    8    0    1
 -2       753       752       925      3084      3615      3616
 -1      1723    8    0    1
 -2       753       925       866      3616      3617      3441
 -1      1724    8    0    1
 -2       835       829       781      3356      3523      3522
 -1      1725    8    0    1
 -2       797       798       926      3218      3618      3619
 -1      1726    8    0    1
 -2       897       797       926      3538      3619      3620
 -1      1727    8    0    1
 -2       798       899       926      3544      3621      3618
 -1      1728    8    0    1
 -2       833       830       893      3410      3622      3623
 -1      1729    8    0    1
 -2       862       735       784      3426      3624      3525
 -1      1730    8    0    1
 -2       838       835       892      3425      3625      3626
 -1      1731    8    0    1
 -2       735       841       784      3345      3526      3624
 -1      1732    8    0    1
 -2       830       751       927      3355      3627      3628
 -1      1733    8    0    1
 -2       893       830       927      3622      3628      3629
 -1      1734    8    0    1
 -2       751       864       927      3434      3630      3627
 -1      1735    8    0    1
 -2       745       832       928      3402      3631      3632
 -1      1736    8    0    1
 -2       835       780       892      3521      3519      3625
 -1      1737    8    0    1
 -2       844       843       929      3354      3633      3634
 -1      1738    8    0    1
 -2       845       828       930      3363      3635      3636
 -1      1739    8    0    1
 -2       828       921       930      3605      3637      3635
 -1      1740    8    0    1
 -2       929       843       931      3633      3638      3639
 -1      1741    8    0    1
 -2       843       861       931      3422      3640      3638
 -1      1742    8    0    1
 -2       822       924       932      3614      3641      3642
 -1      1743    8    0    1
 -2       822       932       855      3642      3643      3396
 -1      1744    8    0    1
 -2       838       892       918      3626      3644      3597
 -1      1745    8    0    1
 -2       783       782       834      3174      3612      3440
 -1      1746    8    0    1
 -2       786       785       833      3183      3645      3646
 -1      1747    8    0    1
 -2       787       786       833      3186      3646      3647
 -1      1748    8    0    1
 -2       794       896       933      3537      3648      3649
 -1      1749    8    0    1
 -2       794       933       848      3649      3650      3370
 -1      1750    8    0    1
 -2       896       793       934      3536      3651      3652
 -1      1751    8    0    1
 -2       793       831       934      3317      3653      3651
 -1      1752    8    0    1
 -2       791       790       935      3199      3654      3655
 -1      1753    8    0    1
 -2       863       791       935      3431      3655      3656
 -1      1754    8    0    1
 -2       790       895       935      3534      3657      3654
 -1      1755    8    0    1
 -2       847       836       918      3369      3598      3658
 -1      1756    8    0    1
 -2       795       898       936      3541      3659      3660
 -1      1757    8    0    1
 -2       795       936       831      3660      3661      3318
 -1      1758    8    0    1
 -2       914       814       917      3587      3662      3663
 -1      1759    8    0    1
 -2       915       849       937      3590      3664      3665
 -1      1760    8    0    1
 -2       849       857       937      3404      3666      3664
 -1      1761    8    0    1
 -2       814       815       917      3269      3667      3662
 -1      1762    8    0    1
 -2       858       723       848      3408      3372      3668
 -1      1763    8    0    1
 -2       920       744       852      3602      3386      3669
 -1      1764    8    0    1
 -2       787       833       893      3647      3623      3528
 -1      1765    8    0    1
 -2       833       785       841      3645      3527      3424
 -1      1766    8    0    1
 -2       850       824       938      3377      3670      3671
 -1      1767    8    0    1
 -2       824       920       938      3603      3672      3670
 -1      1768    8    0    1
 -2       817       851       939      3381      3673      3674
 -1      1769    8    0    1
 -2       817       939       916      3674      3675      3593
 -1      1770    8    0    1
 -2       917       826       919      3595      3601      3676
 -1      1771    8    0    1
 -2       928       832       940      3631      3677      3678
 -1      1772    8    0    1
 -2       832       847       940      3368      3679      3677
 -1      1773    8    0    1
 -2       919       747       941      3600      3680      3681
 -1      1774    8    0    1
 -2       747       859       941      3412      3682      3680
 -1      1775    8    0    1
 -2       856       854       942      3401      3683      3684
 -1      1776    8    0    1
 -2       745       928       859      3632      3685      3413
 -1      1777    8    0    1
 -2       819       825       943      3298      3686      3687
 -1      1778    8    0    1
 -2       819       943       924      3687      3688      3613
 -1      1779    8    0    1
 -2       741       922       846      3607      3689      3364
 -1      1780    8    0    1
 -2       827       846       864      3366      3690      3433
 -1      1781    8    0    1
 -2       860       750       944      3414      3691      3692
 -1      1782    8    0    1
 -2       921       792       945      3604      3693      3694
 -1      1783    8    0    1
 -2       792       858       945      3407      3695      3693
 -1      1784    8    0    1
 -2       922       820       946      3606      3696      3697
 -1      1785    8    0    1
 -2       820       850       946      3379      3698      3696
 -1      1786    8    0    1
 -2       752       840       947      3342      3699      3700
 -1      1787    8    0    1
 -2       925       752       947      3615      3700      3701
 -1      1788    8    0    1
 -2       840       915       947      3592      3702      3699
 -1      1789    8    0    1
 -2       821       863       935      3430      3656      3703
 -1      1790    8    0    1
 -2       854       855       948      3395      3704      3705
 -1      1791    8    0    1
 -2       942       854       948      3683      3705      3706
 -1      1792    8    0    1
 -2       855       932       948      3643      3707      3704
 -1      1793    8    0    1
 -2       821       935       949      3703      3708      3709
 -1      1794    8    0    1
 -2       825       821       949      3299      3709      3710
 -1      1795    8    0    1
 -2       935       895       949      3657      3711      3708
 -1      1796    8    0    1
 -2       868       867       950      3448      3712      3713
 -1      1797    8    0    1
 -2       869       868       951      3451      3714      3715
 -1      1798    8    0    1
 -2       868       950       951      3713      3716      3714
 -1      1799    8    0    1
 -2       870       869       952      3454      3717      3718
 -1      1800    8    0    1
 -2       869       951       952      3715      3719      3717
 -1      1801    8    0    1
 -2       871       870       953      3457      3720      3721
 -1      1802    8    0    1
 -2       870       952       953      3718      3722      3720
 -1      1803    8    0    1
 -2       872       871       954      3460      3723      3724
 -1      1804    8    0    1
 -2       871       953       954      3721      3725      3723
 -1      1805    8    0    1
 -2       873       872       955      3463      3726      3727
 -1      1806    8    0    1
 -2       872       954       955      3724      3728      3726
 -1      1807    8    0    1
 -2       874       873       956      3466      3729      3730
 -1      1808    8    0    1
 -2       873       955       956      3727      3731      3729
 -1      1809    8    0    1
 -2       875       874       957      3469      3732      3733
 -1      1810    8    0    1
 -2       874       956       957      3730      3734      3732
 -1      1811    8    0    1
 -2       876       875       958      3472      3735      3736
 -1      1812    8    0    1
 -2       875       957       958      3733      3737      3735
 -1      1813    8    0    1
 -2       877       876       959      3475      3738      3739
 -1      1814    8    0    1
 -2       876       958       959      3736      3740      3738
 -1      1815    8    0    1
 -2       878       877       960      3478      3741      3742
 -1      1816    8    0    1
 -2       877       959       960      3739      3743      3741
 -1      1817    8    0    1
 -2       879       878       961      3481      3744      3745
 -1      1818    8    0    1
 -2       878       960       961      3742      3746      3744
 -1      1819    8    0    1
 -2       880       879       962      3484      3747      3748
 -1      1820    8    0    1
 -2       879       961       962      3745      3749      3747
 -1      1821    8    0    1
 -2       881       880       963      3487      3750      3751
 -1      1822    8    0    1
 -2       880       962       963      3748      3752      3750
 -1      1823    8    0    1
 -2       882       881       964      3490      3753      3754
 -1      1824    8    0    1
 -2       881       963       964      3751      3755      3753
 -1      1825    8    0    1
 -2       883       882       965      3493      3756      3757
 -1      1826    8    0    1
 -2       882       964       965      3754      3758      3756
 -1      1827    8    0    1
 -2       884       883       966      3496      3759      3760
 -1      1828    8    0    1
 -2       883       965       966      3757      3761      3759
 -1      1829    8    0    1
 -2       885       884       967      3499      3762      3763
 -1      1830    8    0    1
 -2       884       966       967      3760      3764      3762
 -1      1831    8    0    1
 -2       886       885       968      3502      3765      3766
 -1      1832    8    0    1
 -2       885       967       968      3763      3767      3765
 -1      1833    8    0    1
 -2       887       886       969      3505      3768      3769
 -1      1834    8    0    1
 -2       886       968       969      3766      3770      3768
 -1      1835    8    0    1
 -2       888       887       970      3508      3771      3772
 -1      1836    8    0    1
 -2       887       969       970      3769      3773      3771
 -1      1837    8    0    1
 -2       889       888       971      3511      3774      3775
 -1      1838    8    0    1
 -2       888       970       971      3772      3776      3774
 -1      1839    8    0    1
 -2       890       889       972      3514      3777      3778
 -1      1840    8    0    1
 -2       889       971       972      3775      3779      3777
 -1      1841    8    0    1
 -2       891       890       973      3517      3780      3781
 -1      1842    8    0    1
 -2       890       972       973      3778      3782      3780
 -1      1843    8    0    1
 -2       892       891       918      3520      3783      3644
 -1      1844    8    0    1
 -2       847       918       974      3658      3784      3785
 -1      1845    8    0    1
 -2       895       894       975      3535      3786      3787
 -1      1846    8    0    1
 -2       901       902       976      3553      3788      3789
 -1      1847    8    0    1
 -2       898       897       977      3542      3790      3791
 -1      1848    8    0    1
 -2       858       848       978      3668      3792      3793
 -1      1849    8    0    1
 -2       848       933       978      3650      3794      3792
 -1      1850    8    0    1
 -2       900       901       979      3550      3795      3796
 -1      1851    8    0    1
 -2       901       976       979      3789      3797      3795
 -1      1852    8    0    1
 -2       899       900       980      3547      3798      3799
 -1      1853    8    0    1
 -2       900       979       980      3796      3800      3798
 -1      1854    8    0    1
 -2       902       903       981      3556      3801      3802
 -1      1855    8    0    1
 -2       902       981       976      3802      3803      3788
 -1      1856    8    0    1
 -2       903       904       982      3559      3804      3805
 -1      1857    8    0    1
 -2       903       982       981      3805      3806      3801
 -1      1858    8    0    1
 -2       904       905       983      3562      3807      3808
 -1      1859    8    0    1
 -2       904       983       982      3808      3809      3804
 -1      1860    8    0    1
 -2       905       906       984      3565      3810      3811
 -1      1861    8    0    1
 -2       905       984       983      3811      3812      3807
 -1      1862    8    0    1
 -2       906       907       985      3568      3813      3814
 -1      1863    8    0    1
 -2       906       985       984      3814      3815      3810
 -1      1864    8    0    1
 -2       907       908       986      3571      3816      3817
 -1      1865    8    0    1
 -2       907       986       985      3817      3818      3813
 -1      1866    8    0    1
 -2       908       909       987      3574      3819      3820
 -1      1867    8    0    1
 -2       908       987       986      3820      3821      3816
 -1      1868    8    0    1
 -2       909       910       988      3577      3822      3823
 -1      1869    8    0    1
 -2       909       988       987      3823      3824      3819
 -1      1870    8    0    1
 -2       910       911       989      3580      3825      3826
 -1      1871    8    0    1
 -2       910       989       988      3826      3827      3822
 -1      1872    8    0    1
 -2       911       912       990      3583      3828      3829
 -1      1873    8    0    1
 -2       911       990       989      3829      3830      3825
 -1      1874    8    0    1
 -2       912       913       991      3586      3831      3832
 -1      1875    8    0    1
 -2       912       991       990      3832      3833      3828
 -1      1876    8    0    1
 -2       913       914       992      3589      3834      3835
 -1      1877    8    0    1
 -2       913       992       991      3835      3836      3831
 -1      1878    8    0    1
 -2       851       705       853      3382      3388      3837
 -1      1879    8    0    1
 -2       859       928       993      3685      3838      3839
 -1      1880    8    0    1
 -2       859       993       941      3839      3840      3682
 -1      1881    8    0    1
 -2       914       917       994      3663      3841      3842
 -1      1882    8    0    1
 -2       992       914       994      3834      3842      3843
 -1      1883    8    0    1
 -2       917       919       994      3676      3844      3841
 -1      1884    8    0    1
 -2       944       750       845      3691      3845      3846
 -1      1885    8    0    1
 -2       944       845       930      3846      3636      3847
 -1      1886    8    0    1
 -2       846       922       995      3689      3848      3849
 -1      1887    8    0    1
 -2       894       893       927      3532      3629      3850
 -1      1888    8    0    1
 -2       866       925       996      3617      3851      3852
 -1      1889    8    0    1
 -2       856       942       939      3684      3853      3854
 -1      1890    8    0    1
 -2       864       846       995      3690      3849      3855
 -1      1891    8    0    1
 -2       844       929       997      3634      3856      3857
 -1      1892    8    0    1
 -2       844       997       923      3857      3858      3611
 -1      1893    8    0    1
 -2       867       866       998      3445      3859      3860
 -1      1894    8    0    1
 -2       866       996       998      3852      3861      3859
 -1      1895    8    0    1
 -2       861       860       999      3423      3862      3863
 -1      1896    8    0    1
 -2       861       999       931      3863      3864      3640
 -1      1897    8    0    1
 -2       750       837       845      3333      3362      3845
 -1      1898    8    0    1
 -2       860       944       999      3692      3865      3862
 -1      1899    8    0    1
 -2       851       853       939      3837      3866      3673
 -1      1900    8    0    1
 -2       932       924      1000      3641      3867      3868
 -1      1901    8    0    1
 -2       897       926      1001      3620      3869      3870
 -1      1902    8    0    1
 -2       897      1001       977      3870      3871      3790
 -1      1903    8    0    1
 -2       975       894       927      3786      3850      3872
 -1      1904    8    0    1
 -2       974       918       973      3784      3873      3874
 -1      1905    8    0    1
 -2       930       921      1002      3637      3875      3876
 -1      1906    8    0    1
 -2       927       864       975      3630      3877      3872
 -1      1907    8    0    1
 -2       895       975       949      3787      3878      3711
 -1      1908    8    0    1
 -2       933       896      1003      3648      3879      3880
 -1      1909    8    0    1
 -2       934       831       936      3653      3661      3881
 -1      1910    8    0    1
 -2       918       891       973      3783      3781      3873
 -1      1911    8    0    1
 -2       898       977      1004      3791      3882      3883
 -1      1912    8    0    1
 -2       898      1004       936      3883      3884      3659
 -1      1913    8    0    1
 -2       858       978       945      3793      3885      3695
 -1      1914    8    0    1
 -2       896       934      1005      3652      3886      3887
 -1      1915    8    0    1
 -2       896      1005      1003      3887      3888      3879
 -1      1916    8    0    1
 -2       915       937      1006      3665      3889      3890
 -1      1917    8    0    1
 -2       915      1006       947      3890      3891      3702
 -1      1918    8    0    1
 -2       865       842       917      3438      3596      3892
 -1      1919    8    0    1
 -2       993       928      1007      3838      3893      3894
 -1      1920    8    0    1
 -2       928       940      1007      3678      3895      3893
 -1      1921    8    0    1
 -2       940       847       974      3679      3785      3896
 -1      1922    8    0    1
 -2       825       949       943      3710      3897      3686
 -1      1923    8    0    1
 -2       994       919       941      3844      3681      3898
 -1      1924    8    0    1
 -2       939       942       938      3853      3899      3900
 -1      1925    8    0    1
 -2       929       931      1008      3639      3901      3902
 -1      1926    8    0    1
 -2       950       867       998      3712      3860      3903
 -1      1927    8    0    1
 -2       857       923      1009      3610      3904      3905
 -1      1928    8    0    1
 -2       937       857      1009      3666      3905      3906
 -1      1929    8    0    1
 -2       923       997      1009      3858      3907      3904
 -1      1930    8    0    1
 -2       853       856       939      3400      3854      3866
 -1      1931    8    0    1
 -2       944       930      1002      3847      3876      3908
 -1      1932    8    0    1
 -2       924       943       995      3688      3909      3910
 -1      1933    8    0    1
 -2       942       948       938      3706      3911      3899
 -1      1934    8    0    1
 -2       921       945      1010      3694      3912      3913
 -1      1935    8    0    1
 -2       921      1010      1002      3913      3914      3875
 -1      1936    8    0    1
 -2       975       864       995      3877      3855      3915
 -1      1937    8    0    1
 -2       929      1008      1011      3902      3916      3917
 -1      1938    8    0    1
 -2       929      1011       997      3917      3918      3856
 -1      1939    8    0    1
 -2       926       899      1012      3621      3919      3920
 -1      1940    8    0    1
 -2       926      1012      1001      3920      3921      3869
 -1      1941    8    0    1
 -2       944      1002       999      3908      3922      3865
 -1      1942    8    0    1
 -2       925       947      1013      3701      3923      3924
 -1      1943    8    0    1
 -2       996       925      1013      3851      3924      3925
 -1      1944    8    0    1
 -2       947      1006      1013      3891      3926      3923
 -1      1945    8    0    1
 -2       922       946      1000      3697      3927      3928
 -1      1946    8    0    1
 -2       922      1000       995      3928      3929      3848
 -1      1947    8    0    1
 -2      1012       899       980      3919      3799      3930
 -1      1948    8    0    1
 -2       975       995       943      3915      3909      3931
 -1      1949    8    0    1
 -2       952       951      1014      3719      3932      3933
 -1      1950    8    0    1
 -2       953       952      1015      3722      3934      3935
 -1      1951    8    0    1
 -2       952      1014      1015      3933      3936      3934
 -1      1952    8    0    1
 -2       954       953      1016      3725      3937      3938
 -1      1953    8    0    1
 -2       953      1015      1016      3935      3939      3937
 -1      1954    8    0    1
 -2       955       954      1017      3728      3940      3941
 -1      1955    8    0    1
 -2       954      1016      1017      3938      3942      3940
 -1      1956    8    0    1
 -2       956       955      1018      3731      3943      3944
 -1      1957    8    0    1
 -2       955      1017      1018      3941      3945      3943
 -1      1958    8    0    1
 -2       957       956      1019      3734      3946      3947
 -1      1959    8    0    1
 -2       956      1018      1019      3944      3948      3946
 -1      1960    8    0    1
 -2       958       957      1020      3737      3949      3950
 -1      1961    8    0    1
 -2       957      1019      1020      3947      3951      3949
 -1      1962    8    0    1
 -2       959       958      1021      3740      3952      3953
 -1      1963    8    0    1
 -2       958      1020      1021      3950      3954      3952
 -1      1964    8    0    1
 -2       960       959      1022      3743      3955      3956
 -1      1965    8    0    1
 -2       959      1021      1022      3953      3957      3955
 -1      1966    8    0    1
 -2       961       960      1023      3746      3958      3959
 -1      1967    8    0    1
 -2       960      1022      1023      3956      3960      3958
 -1      1968    8    0    1
 -2       962       961      1024      3749      3961      3962
 -1      1969    8    0    1
 -2       961      1023      1024      3959      3963      3961
 -1      1970    8    0    1
 -2       963       962      1025      3752      3964      3965
 -1      1971    8    0    1
 -2       962      1024      1025      3962      3966      3964
 -1      1972    8    0    1
 -2       964       963      1026      3755      3967      3968
 -1      1973    8    0    1
 -2       963      1025      1026      3965      3969      3967
 -1      1974    8    0    1
 -2       965       964      1027      3758      3970      3971
 -1      1975    8    0    1
 -2       964      1026      1027      3968      3972      3970
 -1      1976    8    0    1
 -2       966       965      1028      3761      3973      3974
 -1      1977    8    0    1
 -2       965      1027      1028      3971      3975      3973
 -1      1978    8    0    1
 -2       967       966      1029      3764      3976      3977
 -1      1979    8    0    1
 -2       966      1028      1029      3974      3978      3976
 -1      1980    8    0    1
 -2       968       967      1030      3767      3979      3980
 -1      1981    8    0    1
 -2       967      1029      1030      3977      3981      3979
 -1      1982    8    0    1
 -2       969       968      1031      3770      3982      3983
 -1      1983    8    0    1
 -2       968      1030      1031      3980      3984      3982
 -1      1984    8    0    1
 -2       970       969      1032      3773      3985      3986
 -1      1985    8    0    1
 -2       969      1031      1032      3983      3987      3985
 -1      1986    8    0    1
 -2       971       970      1033      3776      3988      3989
 -1      1987    8    0    1
 -2       970      1032      1033      3986      3990      3988
 -1      1988    8    0    1
 -2       972       971      1034      3779      3991      3992
 -1      1989    8    0    1
 -2       971      1033      1034      3989      3993      3991
 -1      1990    8    0    1
 -2       973       972      1035      3782      3994      3995
 -1      1991    8    0    1
 -2       974       973      1035      3874      3995      3996
 -1      1992    8    0    1
 -2       972      1034      1035      3992      3997      3994
 -1      1993    8    0    1
 -2       924       995      1000      3910      3929      3867
 -1      1994    8    0    1
 -2       934       936      1036      3881      3998      3999
 -1      1995    8    0    1
 -2      1005       934      1036      3886      3999      4000
 -1      1996    8    0    1
 -2       936      1004      1036      3884      4001      3998
 -1      1997    8    0    1
 -2       975       943       949      3931      3897      3878
 -1      1998    8    0    1
 -2       945       978      1037      3885      4002      4003
 -1      1999    8    0    1
 -2       945      1037      1010      4003      4004      3912
 -1      2000    8    0    1
 -2       979       976      1038      3797      4005      4006
 -1      2001    8    0    1
 -2       980       979      1039      3800      4007      4008
 -1      2002    8    0    1
 -2       979      1038      1039      4006      4009      4007
 -1      2003    8    0    1
 -2       982       983      1040      3809      4010      4011
 -1      2004    8    0    1
 -2       983       984      1041      3812      4012      4013
 -1      2005    8    0    1
 -2       983      1041      1040      4013      4014      4010
 -1      2006    8    0    1
 -2       984       985      1042      3815      4015      4016
 -1      2007    8    0    1
 -2       984      1042      1041      4016      4017      4012
 -1      2008    8    0    1
 -2       985       986      1043      3818      4018      4019
 -1      2009    8    0    1
 -2       985      1043      1042      4019      4020      4015
 -1      2010    8    0    1
 -2       986       987      1044      3821      4021      4022
 -1      2011    8    0    1
 -2       986      1044      1043      4022      4023      4018
 -1      2012    8    0    1
 -2       987       988      1045      3824      4024      4025
 -1      2013    8    0    1
 -2       987      1045      1044      4025      4026      4021
 -1      2014    8    0    1
 -2       988       989      1046      3827      4027      4028
 -1      2015    8    0    1
 -2       988      1046      1045      4028      4029      4024
 -1      2016    8    0    1
 -2       989       990      1047      3830      4030      4031
 -1      2017    8    0    1
 -2       989      1047      1046      4031      4032      4027
 -1      2018    8    0    1
 -2       990       991      1048      3833      4033      4034
 -1      2019    8    0    1
 -2       990      1048      1047      4034      4035      4030
 -1      2020    8    0    1
 -2       991       992      1049      3836      4036      4037
 -1      2021    8    0    1
 -2       991      1049      1048      4037      4038      4033
 -1      2022    8    0    1
 -2       951       950      1050      3716      4039      4040
 -1      2023    8    0    1
 -2       951      1050      1014      4040      4041      3932
 -1      2024    8    0    1
 -2       932      1000       946      3868      3927      4042
 -1      2025    8    0    1
 -2       992       994      1051      3843      4043      4044
 -1      2026    8    0    1
 -2       992      1051      1049      4044      4045      4036
 -1      2027    8    0    1
 -2       933      1003      1052      3880      4046      4047
 -1      2028    8    0    1
 -2       933      1052       978      4047      4048      3794
 -1      2029    8    0    1
 -2       941       993      1051      3840      4049      4050
 -1      2030    8    0    1
 -2       994       941      1051      3898      4050      4043
 -1      2031    8    0    1
 -2       916       939       938      3675      3900      4051
 -1      2032    8    0    1
 -2       950       998      1053      3903      4052      4053
 -1      2033    8    0    1
 -2       950      1053      1050      4053      4054      4039
 -1      2034    8    0    1
 -2       940       974      1035      3896      3996      4055
 -1      2035    8    0    1
 -2      1012       980      1054      3930      4056      4057
 -1      2036    8    0    1
 -2       980      1039      1054      4008      4058      4056
 -1      2037    8    0    1
 -2       946       850      1055      3698      4059      4060
 -1      2038    8    0    1
 -2       850       938      1055      3671      4061      4059
 -1      2039    8    0    1
 -2       931       999      1056      3864      4062      4063
 -1      2040    8    0    1
 -2      1008       931      1056      3901      4063      4064
 -1      2041    8    0    1
 -2       999      1002      1056      3922      4065      4062
 -1      2042    8    0    1
 -2       998       996      1057      3861      4066      4067
 -1      2043    8    0    1
 -2       998      1057      1053      4067      4068      4052
 -1      2044    8    0    1
 -2       981       982      1058      3806      4069      4070
 -1      2045    8    0    1
 -2       982      1040      1058      4011      4071      4069
 -1      2046    8    0    1
 -2       976       981      1059      3803      4072      4073
 -1      2047    8    0    1
 -2      1038       976      1059      4005      4073      4074
 -1      2048    8    0    1
 -2       981      1058      1059      4070      4075      4072
 -1      2049    8    0    1
 -2       977      1001      1060      3871      4076      4077
 -1      2050    8    0    1
 -2       932       946      1055      4042      4060      4078
 -1      2051    8    0    1
 -2      1004       977      1061      3882      4079      4080
 -1      2052    8    0    1
 -2       977      1060      1061      4077      4081      4079
 -1      2053    8    0    1
 -2      1011      1008      1062      3916      4082      4083
 -1      2054    8    0    1
 -2      1006       937      1063      3889      4084      4085
 -1      2055    8    0    1
 -2       937      1009      1063      3906      4086      4084
 -1      2056    8    0    1
 -2       978      1052      1037      4048      4087      4002
 -1      2057    8    0    1
 -2       940      1035      1064      4055      4088      4089
 -1      2058    8    0    1
 -2      1007       940      1064      3895      4089      4090
 -1      2059    8    0    1
 -2      1035      1034      1064      3997      4091      4088
 -1      2060    8    0    1
 -2       996      1013      1065      3925      4092      4093
 -1      2061    8    0    1
 -2       996      1065      1057      4093      4094      4066
 -1      2062    8    0    1
 -2       916       938       920      4051      3672      4095
 -1      2063    8    0    1
 -2       852       823       916      3384      3599      4096
 -1      2064    8    0    1
 -2      1052      1003      1066      4046      4097      4098
 -1      2065    8    0    1
 -2       993      1007      1067      3894      4099      4100
 -1      2066    8    0    1
 -2       993      1067      1051      4100      4101      4049
 -1      2067    8    0    1
 -2       916       920       852      4095      3669      4096
 -1      2068    8    0    1
 -2       932      1055       948      4078      4102      3707
 -1      2069    8    0    1
 -2      1062      1008      1056      4082      4064      4103
 -1      2070    8    0    1
 -2      1066      1003      1068      4097      4104      4105
 -1      2071    8    0    1
 -2      1003      1005      1068      3888      4106      4104
 -1      2072    8    0    1
 -2      1002      1010      1069      3914      4107      4108
 -1      2073    8    0    1
 -2      1002      1069      1056      4108      4109      4065
 -1      2074    8    0    1
 -2      1009       997      1070      3907      4110      4111
 -1      2075    8    0    1
 -2       997      1011      1070      3918      4112      4110
 -1      2076    8    0    1
 -2      1001      1012      1071      3921      4113      4114
 -1      2077    8    0    1
 -2      1001      1071      1060      4114      4115      4076
 -1      2078    8    0    1
 -2      1071      1012      1054      4113      4057      4116
 -1      2079    8    0    1
 -2       815       865       917      3437      3892      3667
 -1      2080    8    0    1
 -2      1016      1015      1072      3939      4117      4118
 -1      2081    8    0    1
 -2      1017      1016      1073      3942      4119      4120
 -1      2082    8    0    1
 -2      1016      1072      1073      4118      4121      4119
 -1      2083    8    0    1
 -2      1018      1017      1074      3945      4122      4123
 -1      2084    8    0    1
 -2      1017      1073      1074      4120      4124      4122
 -1      2085    8    0    1
 -2      1019      1018      1075      3948      4125      4126
 -1      2086    8    0    1
 -2      1018      1074      1075      4123      4127      4125
 -1      2087    8    0    1
 -2      1020      1019      1076      3951      4128      4129
 -1      2088    8    0    1
 -2      1019      1075      1076      4126      4130      4128
 -1      2089    8    0    1
 -2      1021      1020      1077      3954      4131      4132
 -1      2090    8    0    1
 -2      1020      1076      1077      4129      4133      4131
 -1      2091    8    0    1
 -2      1022      1021      1078      3957      4134      4135
 -1      2092    8    0    1
 -2      1021      1077      1078      4132      4136      4134
 -1      2093    8    0    1
 -2      1023      1022      1079      3960      4137      4138
 -1      2094    8    0    1
 -2      1022      1078      1079      4135      4139      4137
 -1      2095    8    0    1
 -2      1024      1023      1080      3963      4140      4141
 -1      2096    8    0    1
 -2      1023      1079      1080      4138      4142      4140
 -1      2097    8    0    1
 -2      1025      1024      1081      3966      4143      4144
 -1      2098    8    0    1
 -2      1024      1080      1081      4141      4145      4143
 -1      2099    8    0    1
 -2      1026      1025      1082      3969      4146      4147
 -1      2100    8    0    1
 -2      1025      1081      1082      4144      4148      4146
 -1      2101    8    0    1
 -2      1027      1026      1083      3972      4149      4150
 -1      2102    8    0    1
 -2      1026      1082      1083      4147      4151      4149
 -1      2103    8    0    1
 -2      1028      1027      1084      3975      4152      4153
 -1      2104    8    0    1
 -2      1027      1083      1084      4150      4154      4152
 -1      2105    8    0    1
 -2      1029      1028      1085      3978      4155      4156
 -1      2106    8    0    1
 -2      1028      1084      1085      4153      4157      4155
 -1      2107    8    0    1
 -2      1030      1029      1086      3981      4158      4159
 -1      2108    8    0    1
 -2      1029      1085      1086      4156      4160      4158
 -1      2109    8    0    1
 -2      1031      1030      1087      3984      4161      4162
 -1      2110    8    0    1
 -2      1030      1086      1087      4159      4163      4161
 -1      2111    8    0    1
 -2      1032      1031      1088      3987      4164      4165
 -1      2112    8    0    1
 -2      1031      1087      1088      4162      4166      4164
 -1      2113    8    0    1
 -2      1033      1032      1089      3990      4167      4168
 -1      2114    8    0    1
 -2      1032      1088      1089      4165      4169      4167
 -1      2115    8    0    1
 -2      1034      1033      1090      3993      4170      4171
 -1      2116    8    0    1
 -2      1033      1089      1090      4168      4172      4170
 -1      2117    8    0    1
 -2      1042      1043      1091      4020      4173      4174
 -1      2118    8    0    1
 -2      1039      1038      1092      4009      4175      4176
 -1      2119    8    0    1
 -2      1071      1054      1093      4116      4177      4178
 -1      2120    8    0    1
 -2      1041      1042      1094      4017      4179      4180
 -1      2121    8    0    1
 -2      1042      1091      1094      4174      4181      4179
 -1      2122    8    0    1
 -2      1040      1041      1095      4014      4182      4183
 -1      2123    8    0    1
 -2      1041      1094      1095      4180      4184      4182
 -1      2124    8    0    1
 -2      1043      1044      1096      4023      4185      4186
 -1      2125    8    0    1
 -2      1043      1096      1091      4186      4187      4173
 -1      2126    8    0    1
 -2      1044      1045      1097      4026      4188      4189
 -1      2127    8    0    1
 -2      1044      1097      1096      4189      4190      4185
 -1      2128    8    0    1
 -2      1045      1046      1098      4029      4191      4192
 -1      2129    8    0    1
 -2      1045      1098      1097      4192      4193      4188
 -1      2130    8    0    1
 -2      1046      1047      1099      4032      4194      4195
 -1      2131    8    0    1
 -2      1046      1099      1098      4195      4196      4191
 -1      2132    8    0    1
 -2      1047      1048      1100      4035      4197      4198
 -1      2133    8    0    1
 -2      1047      1100      1099      4198      4199      4194
 -1      2134    8    0    1
 -2      1048      1049      1101      4038      4200      4201
 -1      2135    8    0    1
 -2      1048      1101      1100      4201      4202      4197
 -1      2136    8    0    1
 -2      1014      1050      1102      4041      4203      4204
 -1      2137    8    0    1
 -2      1052      1066      1103      4098      4205      4206
 -1      2138    8    0    1
 -2      1052      1103      1037      4206      4207      4087
 -1      2139    8    0    1
 -2      1010      1037      1104      4004      4208      4209
 -1      2140    8    0    1
 -2      1069      1010      1104      4107      4209      4210
 -1      2141    8    0    1
 -2      1037      1103      1104      4207      4211      4208
 -1      2142    8    0    1
 -2      1011      1062      1105      4083      4212      4213
 -1      2143    8    0    1
 -2      1015      1014      1106      3936      4214      4215
 -1      2144    8    0    1
 -2      1014      1102      1106      4204      4216      4214
 -1      2145    8    0    1
 -2       948      1055       938      4102      4061      3911
 -1      2146    8    0    1
 -2      1054      1039      1107      4058      4217      4218
 -1      2147    8    0    1
 -2      1054      1107      1093      4218      4219      4177
 -1      2148    8    0    1
 -2      1050      1053      1108      4054      4220      4221
 -1      2149    8    0    1
 -2      1050      1108      1102      4221      4222      4203
 -1      2150    8    0    1
 -2      1049      1051      1067      4045      4101      4223
 -1      2151    8    0    1
 -2      1060      1071      1109      4115      4224      4225
 -1      2152    8    0    1
 -2      1071      1093      1109      4178      4226      4224
 -1      2153    8    0    1
 -2      1058      1040      1110      4071      4227      4228
 -1      2154    8    0    1
 -2      1040      1095      1110      4183      4229      4227
 -1      2155    8    0    1
 -2      1062      1056      1069      4103      4109      4230
 -1      2156    8    0    1
 -2      1013      1006      1111      3926      4231      4232
 -1      2157    8    0    1
 -2      1065      1013      1111      4092      4232      4233
 -1      2158    8    0    1
 -2      1006      1063      1111      4085      4234      4231
 -1      2159    8    0    1
 -2      1053      1057      1112      4068      4235      4236
 -1      2160    8    0    1
 -2      1053      1112      1108      4236      4237      4220
 -1      2161    8    0    1
 -2      1103      1066      1113      4205      4238      4239
 -1      2162    8    0    1
 -2      1061      1060      1114      4081      4240      4241
 -1      2163    8    0    1
 -2      1060      1109      1114      4225      4242      4240
 -1      2164    8    0    1
 -2      1068      1005      1115      4106      4243      4244
 -1      2165    8    0    1
 -2      1005      1036      1115      4000      4245      4243
 -1      2166    8    0    1
 -2      1092      1038      1116      4175      4246      4247
 -1      2167    8    0    1
 -2      1038      1059      1116      4074      4248      4246
 -1      2168    8    0    1
 -2      1062      1069      1117      4230      4249      4250
 -1      2169    8    0    1
 -2      1069      1104      1117      4210      4251      4249
 -1      2170    8    0    1
 -2      1057      1065      1118      4094      4252      4253
 -1      2171    8    0    1
 -2      1057      1118      1112      4253      4254      4235
 -1      2172    8    0    1
 -2      1039      1092      1107      4176      4255      4217
 -1      2173    8    0    1
 -2      1004      1061      1119      4080      4256      4257
 -1      2174    8    0    1
 -2      1004      1119      1036      4257      4258      4001
 -1      2175    8    0    1
 -2      1101      1049      1067      4200      4223      4259
 -1      2176    8    0    1
 -2      1011      1105      1070      4213      4260      4112
 -1      2177    8    0    1
 -2      1064      1034      1090      4091      4171      4261
 -1      2178    8    0    1
 -2      1067      1007      1120      4099      4262      4263
 -1      2179    8    0    1
 -2      1101      1067      1120      4259      4263      4264
 -1      2180    8    0    1
 -2      1007      1064      1120      4090      4265      4262
 -1      2181    8    0    1
 -2      1105      1062      1117      4212      4250      4266
 -1      2182    8    0    1
 -2      1015      1106      1072      4215      4267      4117
 -1      2183    8    0    1
 -2      1066      1068      1121      4105      4268      4269
 -1      2184    8    0    1
 -2      1066      1121      1113      4269      4270      4238
 -1      2185    8    0    1
 -2      1009      1070      1063      4111      4271      4086
 -1      2186    8    0    1
 -2      1059      1058      1122      4075      4272      4273
 -1      2187    8    0    1
 -2      1116      1059      1122      4248      4273      4274
 -1      2188    8    0    1
 -2      1058      1110      1122      4228      4275      4272
 -1      2189    8    0    1
 -2      1073      1072      1123      4121      4276      4277
 -1      2190    8    0    1
 -2      1074      1073      1114      4124      4278      4279
 -1      2191    8    0    1
 -2      1075      1074      1109      4127      4280      4281
 -1      2192    8    0    1
 -2      1076      1075      1093      4130      4282      4283
 -1      2193    8    0    1
 -2      1077      1076      1107      4133      4284      4285
 -1      2194    8    0    1
 -2      1078      1077      1092      4136      4286      4287
 -1      2195    8    0    1
 -2      1079      1078      1116      4139      4288      4289
 -1      2196    8    0    1
 -2      1080      1079      1122      4142      4290      4291
 -1      2197    8    0    1
 -2      1081      1080      1110      4145      4292      4293
 -1      2198    8    0    1
 -2      1082      1081      1095      4148      4294      4295
 -1      2199    8    0    1
 -2      1083      1082      1094      4151      4296      4297
 -1      2200    8    0    1
 -2      1084      1083      1091      4154      4298      4299
 -1      2201    8    0    1
 -2      1085      1084      1096      4157      4300      4301
 -1      2202    8    0    1
 -2      1086      1085      1097      4160      4302      4303
 -1      2203    8    0    1
 -2      1087      1086      1098      4163      4304      4305
 -1      2204    8    0    1
 -2      1088      1087      1099      4166      4306      4307
 -1      2205    8    0    1
 -2      1089      1088      1100      4169      4308      4309
 -1      2206    8    0    1
 -2      1096      1097      1085      4190      4302      4301
 -1      2207    8    0    1
 -2      1095      1081      1110      4294      4293      4229
 -1      2208    8    0    1
 -2      1108      1112      1124      4237      4310      4311
 -1      2209    8    0    1
 -2      1091      1096      1084      4187      4300      4299
 -1      2210    8    0    1
 -2      1110      1080      1122      4292      4291      4275
 -1      2211    8    0    1
 -2      1095      1094      1082      4184      4296      4295
 -1      2212    8    0    1
 -2      1097      1098      1086      4193      4304      4303
 -1      2213    8    0    1
 -2      1098      1099      1087      4196      4306      4305
 -1      2214    8    0    1
 -2      1099      1100      1088      4199      4308      4307
 -1      2215    8    0    1
 -2      1100      1101      1089      4202      4312      4309
 -1      2216    8    0    1
 -2      1107      1092      1077      4255      4286      4285
 -1      2217    8    0    1
 -2      1093      1075      1109      4282      4281      4226
 -1      2218    8    0    1
 -2      1105      1117      1124      4266      4313      4314
 -1      2219    8    0    1
 -2      1064      1090      1120      4261      4315      4265
 -1      2220    8    0    1
 -2      1106      1102      1125      4216      4316      4317
 -1      2221    8    0    1
 -2      1102      1108      1126      4222      4318      4319
 -1      2222    8    0    1
 -2      1125      1102      1126      4316      4319      4320
 -1      2223    8    0    1
 -2      1108      1124      1126      4311      4321      4318
 -1      2224    8    0    1
 -2      1091      1083      1094      4298      4297      4181
 -1      2225    8    0    1
 -2      1109      1074      1114      4280      4279      4242
 -1      2226    8    0    1
 -2      1093      1107      1076      4219      4284      4283
 -1      2227    8    0    1
 -2      1072      1106      1127      4267      4322      4323
 -1      2228    8    0    1
 -2      1072      1127      1123      4323      4324      4276
 -1      2229    8    0    1
 -2      1063      1070      1111      4271      4325      4234
 -1      2230    8    0    1
 -2      1078      1092      1116      4287      4247      4288
 -1      2231    8    0    1
 -2      1061      1114      1123      4241      4326      4327
 -1      2232    8    0    1
 -2      1115      1036      1119      4245      4258      4328
 -1      2233    8    0    1
 -2      1111      1070      1128      4325      4329      4330
 -1      2234    8    0    1
 -2      1065      1111      1128      4233      4330      4331
 -1      2235    8    0    1
 -2      1070      1105      1128      4260      4332      4329
 -1      2236    8    0    1
 -2      1117      1104      1103      4251      4211      4333
 -1      2237    8    0    1
 -2      1079      1116      1122      4289      4274      4290
 -1      2238    8    0    1
 -2      1089      1101      1120      4312      4264      4334
 -1      2239    8    0    1
 -2      1119      1061      1123      4256      4327      4335
 -1      2240    8    0    1
 -2      1073      1123      1114      4277      4326      4278
 -1      2241    8    0    1
 -2      1117      1103      1113      4333      4239      4336
 -1      2242    8    0    1
 -2      1106      1125      1127      4317      4337      4322
 -1      2243    8    0    1
 -2      1068      1115      1125      4244      4338      4339
 -1      2244    8    0    1
 -2      1113      1121      1126      4270      4340      4341
 -1      2245    8    0    1
 -2      1113      1126      1124      4341      4321      4342
 -1      2246    8    0    1
 -2      1117      1113      1124      4336      4342      4313
 -1      2247    8    0    1
 -2      1115      1119      1127      4328      4343      4344
 -1      2248    8    0    1
 -2      1128      1105      1118      4332      4345      4346
 -1      2249    8    0    1
 -2      1118      1065      1128      4252      4331      4346
 -1      2250    8    0    1
 -2      1115      1127      1125      4344      4337      4338
 -1      2251    8    0    1
 -2      1123      1127      1119      4324      4343      4335
 -1      2252    8    0    1
 -2      1126      1121      1125      4340      4347      4320
 -1      2253    8    0    1
 -2      1121      1068      1125      4268      4339      4347
 -1      2254    8    0    1
 -2      1124      1112      1118      4310      4254      4348
 -1      2255    8    0    1
 -2      1090      1089      1120      4172      4334      4315
 -1      2256    8    0    1
 -2      1105      1124      1118      4314      4348      4345
 -3
    1PSTEP                         1           1           1          
  100CL  101 1.000000000        4348                     0    1           1
 -4  DISP        4    1
 -5  D1          1    2    1    0
 -5  D2          1    2    2    0
 -5  D3          1    2    3    0
 -5  ALL         1    2    0    0    1ALL
 -1         1 9.95212E-03-3.72928E-04-1.12476E-13
 -1         2 1.36224E-02 4.24330E-04-1.33553E-13
 -1         3 1.53940E-02 1.13677E-03-1.91268E-13
 -1         4 1.44532E-02 2.57756E-04-1.93687E-13
 -1         5 0.00000E+00 0.00000E+00 0.00000E+00
 -1         6 0.00000E+00 0.00000E+00 0.00000E+00
 -1         7 0.00000E+00 0.00000E+00 0.00000E+00
 -1         8 0.00000E+00 0.00000E+00 0.00000E+00
 -1         9 0.00000E+00 0.00000E+00 0.00000E+00
 -1        10 0.00000E+00 0.00000E+00 0.00000E+00
 -1        11 0.00000E+00 0.00000E+00 0.00000E+00
 -1        12 0.00000E+00 0.00000E+00 0.00000E+00
 -1        13 0.00000E+00 0.00000E+00 0.00000E+00
 -1        14 0.00000E+00 0.00000E+00 0.00000E+00
 -1        15 0.00000E+00 0.00000E+00 0.00000E+00
 -1        16 0.00000E+00 0.00000E+00 0.00000E+00
 -1        17 0.00000E+00 0.00000E+00 0.00000E+00
 -1        18 0.00000E+00 0.00000E+00 0.00000E+00
 -1        19 0.00000E+00 0.00000E+00 0.00000E+00
 -1        20 0.00000E+00 0.00000E+00 0.00000E+00
 -1        21 0.00000E+00 0.00000E+00 0.00000E+00
 -1        22 0.00000E+00 0.00000E+00 0.00000E+00
 -1        23 4.11392E-04-2.60756E-04 6.75526E-17
 -1        24 7.03378E-04-4.01022E-04-7.93805E-17
 -1        25 9.73443E-04-4.98417E-04-4.36957E-16
 -1        26 1.23793E-03-5.67180E-04-1.00266E-15
 -1        27 1.50144E-03-6.16453E-04-1.77448E-15
 -1        28 1.76607E-03-6.51611E-04-2.74970E-15
 -1        29 2.03278E-03-6.76360E-04-3.92618E-15
 -1        30 2.30194E-03-6.93393E-04-5.29947E-15
 -1        31 2.57358E-03-7.04722E-04-6.86520E-15
 -1        32 2.84757E-03-7.11861E-04-8.61954E-15
 -1        33 3.12368E-03-7.15950E-04-1.05572E-14
 -1        34 3.40164E-03-7.17830E-04-1.26694E-14
 -1        35 3.68117E-03-7.18113E-04-1.49554E-14
 -1        36 3.96203E-03-7.17224E-04-1.74136E-14
 -1        37 4.24401E-03-7.15446E-04-2.00398E-14
 -1        38 4.52695E-03-7.12953E-04-2.28391E-14
 -1        39 4.81075E-03-7.09835E-04-2.58105E-14
 -1        40 5.09540E-03-7.06128E-04-2.89536E-14
 -1        41 5.38095E-03-7.01839E-04-3.22601E-14
 -1        42 5.66756E-03-6.96967E-04-3.57272E-14
 -1        43 5.95547E-03-6.91543E-04-3.93579E-14
 -1        44 6.24505E-03-6.85660E-04-4.31499E-14
 -1        45 6.53677E-03-6.79519E-04-4.70966E-14
 -1        46 6.83123E-03-6.73485E-04-5.11939E-14
 -1        47 7.12910E-03-6.68153E-04-5.54330E-14
 -1        48 7.43111E-03-6.64415E-04-5.98104E-14
 -1        49 7.73794E-03-6.63526E-04-6.43144E-14
 -1        50 8.05008E-03-6.67139E-04-6.89364E-14
 -1        51 8.36759E-03-6.77266E-04-7.36686E-14
 -1        52 8.68977E-03-6.96115E-04-7.85040E-14
 -1        53 9.01488E-03-7.25690E-04-8.34409E-14
 -1        54 9.33974E-03-7.67100E-04-8.84868E-14
 -1        55 9.65979E-03-8.19558E-04-9.36437E-14
 -1        56 9.96952E-03-8.79255E-04-9.88991E-14
 -1        57 1.02638E-02-9.38605E-04-1.04256E-13
 -1        58 1.05398E-02-9.86623E-04-1.09698E-13
 -1        59 1.07988E-02-1.01102E-03-1.15227E-13
 -1        60 1.10470E-02-1.00179E-03-1.20829E-13
 -1        61 1.12937E-02-9.54790E-04-1.26517E-13
 -1        62 1.15484E-02-8.73294E-04-1.32308E-13
 -1        63 1.18171E-02-7.66559E-04-1.38205E-13
 -1        64 1.21013E-02-6.46231E-04-1.44189E-13
 -1        65 1.23980E-02-5.22622E-04-1.50257E-13
 -1        66 1.27019E-02-4.02432E-04-1.56393E-13
 -1        67 1.30071E-02-2.88240E-04-1.62585E-13
 -1        68 1.33093E-02-1.79246E-04-1.68816E-13
 -1        69 1.36057E-02-7.25338E-05-1.75085E-13
 -1        70 1.38960E-02 3.55408E-05-1.81372E-13
 -1        71 1.41823E-02 1.47679E-04-1.87677E-13
 -1        72 4.13840E-04 2.61461E-04 8.17488E-17
 -1        73 7.03204E-04 4.03730E-04-4.33850E-17
 -1        74 9.73982E-04 5.00195E-04-3.69151E-16
 -1        75 1.23875E-03 5.68897E-04-8.95456E-16
 -1        76 1.50239E-03 6.18215E-04-1.62071E-15
 -1        77 1.76710E-03 6.53463E-04-2.54244E-15
 -1        78 2.03384E-03 6.78324E-04-3.65982E-15
 -1        79 2.30302E-03 6.95480E-04-4.96960E-15
 -1        80 2.57467E-03 7.06938E-04-6.46997E-15
 -1        81 2.84867E-03 7.14210E-04-8.16006E-15
 -1        82 3.12478E-03 7.18431E-04-1.00354E-14
 -1        83 3.40273E-03 7.20444E-04-1.20919E-14
 -1        84 3.68226E-03 7.20856E-04-1.43268E-14
 -1        85 3.96310E-03 7.20090E-04-1.67368E-14
 -1        86 4.24504E-03 7.18424E-04-1.93202E-14
 -1        87 4.52794E-03 7.16021E-04-2.20766E-14
 -1        88 4.81168E-03 7.12959E-04-2.49972E-14
 -1        89 5.09625E-03 7.09250E-04-2.80767E-14
 -1        90 5.38172E-03 7.04867E-04-3.13124E-14
 -1        91 5.66824E-03 6.99762E-04-3.46979E-14
 -1        92 5.95612E-03 6.93892E-04-3.82273E-14
 -1        93 6.24579E-03 6.87257E-04-4.18985E-14
 -1        94 6.53788E-03 6.79934E-04-4.57206E-14
 -1        95 6.83324E-03 6.72150E-04-4.96854E-14
 -1        96 7.13301E-03 6.64364E-04-5.37870E-14
 -1        97 7.43864E-03 6.57400E-04-5.80190E-14
 -1        98 7.75198E-03 6.52633E-04-6.23824E-14
 -1        99 8.07520E-03 6.52244E-04-6.68726E-14
 -1       100 8.41076E-03 6.59558E-04-7.14927E-14
 -1       101 8.76100E-03 6.79406E-04-7.62401E-14
 -1       102 9.12745E-03 7.18388E-04-8.10996E-14
 -1       103 9.50944E-03 7.84619E-04-8.60640E-14
 -1       104 9.90212E-03 8.86232E-04-9.11326E-14
 -1       105 1.02943E-02 1.02757E-03-9.63196E-14
 -1       106 1.06685E-02 1.20262E-03-1.01625E-13
 -1       107 1.10057E-02 1.38826E-03-1.07050E-13
 -1       108 1.12967E-02 1.54445E-03-1.12594E-13
 -1       109 1.15530E-02 1.62893E-03-1.18250E-13
 -1       110 1.18055E-02 1.62161E-03-1.24020E-13
 -1       111 1.20867E-02 1.53815E-03-1.29907E-13
 -1       112 1.24106E-02 1.41871E-03-1.35884E-13
 -1       113 1.27699E-02 1.30363E-03-1.41928E-13
 -1       114 1.31455E-02 1.21708E-03-1.48014E-13
 -1       115 1.35190E-02 1.16548E-03-1.54139E-13
 -1       116 1.38781E-02 1.14363E-03-1.60321E-13
 -1       117 1.42169E-02 1.14135E-03-1.66528E-13
 -1       118 1.45350E-02 1.14754E-03-1.72771E-13
 -1       119 1.48351E-02 1.15229E-03-1.79042E-13
 -1       120 1.51234E-02 1.14851E-03-1.85315E-13
 -1       121 1.54089E-02 1.05167E-03-1.91491E-13
 -1       122 1.54323E-02 9.70178E-04-1.91727E-13
 -1       123 1.54633E-02 8.99989E-04-1.91940E-13
 -1       124 1.54945E-02 8.45727E-04-1.92156E-13
 -1       125 1.55168E-02 8.08197E-04-1.92370E-13
 -1       126 1.55217E-02 7.85234E-04-1.92570E-13
 -1       127 1.55032E-02 7.71135E-04-1.92754E-13
 -1       128 1.54579E-02 7.59993E-04-1.92917E-13
 -1       129 1.53862E-02 7.45290E-04-1.93066E-13
 -1       130 1.52920E-02 7.21691E-04-1.93179E-13
 -1       131 1.51807E-02 6.85882E-04-1.93298E-13
 -1       132 1.50610E-02 6.37713E-04-1.93439E-13
 -1       133 1.49345E-02 5.76299E-04-1.93546E-13
 -1       134 1.48079E-02 5.04412E-04-1.93602E-13
 -1       135 1.46846E-02 4.24770E-04-1.93632E-13
 -1       136 1.45661E-02 3.41109E-04-1.93656E-13
 -1       137 1.35912E-02 6.04669E-04-1.33181E-13
 -1       138 1.34603E-02 7.78937E-04-1.32213E-13
 -1       139 1.32222E-02 9.45127E-04-1.30604E-13
 -1       140 1.28878E-02 1.08822E-03-1.28460E-13
 -1       141 1.25015E-02 1.19236E-03-1.26068E-13
 -1       142 1.20700E-02 1.25770E-03-1.23481E-13
 -1       143 1.16157E-02 1.27998E-03-1.20836E-13
 -1       144 1.10993E-02 1.25224E-03-1.17885E-13
 -1       145 1.06036E-02 1.17205E-03-1.15089E-13
 -1       146 1.01898E-02 1.06233E-03-1.12804E-13
 -1       147 9.77833E-03 9.01045E-04-1.10547E-13
 -1       148 9.48506E-03 7.36402E-04-1.08968E-13
 -1       149 9.27620E-03 5.60263E-04-1.07876E-13
 -1       150 9.15410E-03 3.70017E-04-1.07297E-13
 -1       151 9.13698E-03 2.01461E-04-1.07306E-13
 -1       152 9.21070E-03 3.35218E-05-1.07847E-13
 -1       153 9.38451E-03-1.27733E-04-1.08972E-13
 -1       154 9.62638E-03-2.59434E-04-1.10479E-13
 -1       155 1.03252E-02-4.53990E-04-1.14732E-13
 -1       156 1.07635E-02-5.05265E-04-1.17369E-13
 -1       157 1.11860E-02-5.17563E-04-1.19878E-13
 -1       158 1.16423E-02-4.94388E-04-1.22580E-13
 -1       159 1.21014E-02-4.31868E-04-1.25282E-13
 -1       160 1.25072E-02-3.40254E-04-1.27631E-13
 -1       161 1.28766E-02-2.18218E-04-1.29732E-13
 -1       162 1.31806E-02-7.50655E-05-1.31426E-13
 -1       163 1.34170E-02 8.87408E-05-1.32684E-13
 -1       164 1.35620E-02 2.55070E-04-1.33377E-13
 -1       165 2.40404E-04-1.25535E-04-3.40270E-17
 -1       166 2.25274E-04-9.46377E-05-6.53638E-17
 -1       167 2.19521E-04-7.27935E-05-8.30905E-17
 -1       168 2.16706E-04-5.51230E-05-9.29703E-17
 -1       169 2.15221E-04-3.99818E-05-9.83337E-17
 -1       170 2.14389E-04-2.59245E-05-1.01122E-16
 -1       171 2.13971E-04-1.26478E-05-1.02508E-16
 -1       172 2.13849E-04 2.74317E-07-1.02637E-16
 -1       173 2.13989E-04 1.32083E-05-1.01732E-16
 -1       174 2.14429E-04 2.65233E-05-9.95569E-17
 -1       175 2.15270E-04 4.04068E-05-9.57486E-17
 -1       176 2.16817E-04 5.59296E-05-8.92705E-17
 -1       177 2.19672E-04 7.38337E-05-7.80761E-17
 -1       178 2.25443E-04 9.60353E-05-5.87536E-17
 -1       179 2.39335E-04 1.27612E-04-2.51196E-17
 -1       180 2.97712E-04 1.85518E-04 1.03677E-17
 -1       181 4.68625E-04-2.63582E-04-9.47118E-17
 -1       182 7.66763E-04-3.82193E-04-3.91394E-16
 -1       183 1.05060E-03-4.65091E-04-8.85637E-16
 -1       184 1.32798E-03-5.23885E-04-1.57971E-15
 -1       185 1.60256E-03-5.65585E-04-2.47277E-15
 -1       186 1.87642E-03-5.94872E-04-3.56370E-15
 -1       187 2.15069E-03-6.15049E-04-4.84955E-15
 -1       188 2.42596E-03-6.28531E-04-6.32622E-15
 -1       189 2.70249E-03-6.37121E-04-7.99078E-15
 -1       190 2.98036E-03-6.42165E-04-9.83884E-15
 -1       191 3.25952E-03-6.44659E-04-1.18655E-14
 -1       192 3.53986E-03-6.45328E-04-1.40646E-14
 -1       193 3.82126E-03-6.44682E-04-1.64373E-14
 -1       194 4.10360E-03-6.43063E-04-1.89789E-14
 -1       195 4.38678E-03-6.40686E-04-2.16897E-14
 -1       196 4.67074E-03-6.37666E-04-2.45709E-14
 -1       197 4.95545E-03-6.34047E-04-2.76212E-14
 -1       198 5.24096E-03-6.29828E-04-3.08379E-14
 -1       199 5.52735E-03-6.24990E-04-3.42170E-14
 -1       200 5.81481E-03-6.19520E-04-3.77543E-14
 -1       201 6.10357E-03-6.13449E-04-4.14534E-14
 -1       202 6.39396E-03-6.06894E-04-4.53107E-14
 -1       203 6.68639E-03-6.00105E-04-4.93220E-14
 -1       204 6.98131E-03-5.93533E-04-5.34780E-14
 -1       205 7.27925E-03-5.87903E-04-5.77722E-14
 -1       206 7.58069E-03-5.84290E-04-6.21992E-14
 -1       207 7.88604E-03-5.84186E-04-6.67476E-14
 -1       208 8.19549E-03-5.89525E-04-7.14139E-14
 -1       209 8.50883E-03-6.02601E-04-7.61853E-14
 -1       210 8.82529E-03-6.25817E-04-8.10633E-14
 -1       211 9.14335E-03-6.61139E-04-8.60456E-14
 -1       212 9.46057E-03-7.09195E-04-9.11351E-14
 -1       213 9.77380E-03-7.68059E-04-9.63282E-14
 -1       214 1.00796E-02-8.32059E-04-1.01620E-13
 -1       215 1.03754E-02-8.91303E-04-1.07009E-13
 -1       216 1.06602E-02-9.32841E-04-1.12488E-13
 -1       217 1.09363E-02-9.43884E-04-1.18048E-13
 -1       218 1.12084E-02-9.16172E-04-1.23690E-13
 -1       219 1.14822E-02-8.49245E-04-1.29427E-13
 -1       220 1.17626E-02-7.50530E-04-1.35267E-13
 -1       221 1.20516E-02-6.32151E-04-1.41204E-13
 -1       222 1.23486E-02-5.06462E-04-1.47220E-13
 -1       223 1.26507E-02-3.82622E-04-1.53311E-13
 -1       224 1.29545E-02-2.65250E-04-1.59469E-13
 -1       225 1.32567E-02-1.54804E-04-1.65675E-13
 -1       226 1.35553E-02-4.88221E-05-1.71923E-13
 -1       227 1.38493E-02 5.66170E-05-1.78199E-13
 -1       228 1.41390E-02 1.65406E-04-1.84496E-13
 -1       229 6.04567E-04 3.31077E-04-1.44097E-16
 -1       230 8.93655E-04 4.32713E-04-4.86932E-16
 -1       231 1.17253E-03 5.04476E-04-1.02319E-15
 -1       232 1.44686E-03 5.55574E-04-1.75312E-15
 -1       233 1.71965E-03 5.91824E-04-2.67612E-15
 -1       234 1.99251E-03 6.17203E-04-3.79147E-15
 -1       235 2.26629E-03 6.34575E-04-5.09756E-15
 -1       236 2.54139E-03 6.46066E-04-6.59257E-15
 -1       237 2.81794E-03 6.53264E-04-8.27431E-15
 -1       238 3.09594E-03 6.57358E-04-1.01394E-14
 -1       239 3.37527E-03 6.59220E-04-1.21846E-14
 -1       240 3.65582E-03 6.59478E-04-1.44058E-14
 -1       241 3.93742E-03 6.58568E-04-1.68020E-14
 -1       242 4.21995E-03 6.56771E-04-1.93708E-14
 -1       243 4.50332E-03 6.54249E-04-2.21110E-14
 -1       244 4.78747E-03 6.51075E-04-2.50166E-14
 -1       245 5.07240E-03 6.47250E-04-2.80828E-14
 -1       246 5.35819E-03 6.42732E-04-3.13017E-14
 -1       247 5.64498E-03 6.37451E-04-3.46711E-14
 -1       248 5.93303E-03 6.31339E-04-3.81894E-14
 -1       249 6.22271E-03 6.24354E-04-4.18507E-14
 -1       250 6.51452E-03 6.16530E-04-4.56592E-14
 -1       251 6.80915E-03 6.08027E-04-4.96069E-14
 -1       252 7.10746E-03 5.99222E-04-5.36922E-14
 -1       253 7.41056E-03 5.90835E-04-5.79147E-14
 -1       254 7.71978E-03 5.84112E-04-6.22683E-14
 -1       255 8.03665E-03 5.81085E-04-6.67489E-14
 -1       256 8.36285E-03 5.84925E-04-7.13556E-14
 -1       257 8.69991E-03 6.00360E-04-7.60877E-14
 -1       258 9.04886E-03 6.34032E-04-8.09374E-14
 -1       259 9.40942E-03 6.94442E-04-8.58919E-14
 -1       260 9.77908E-03 7.90738E-04-9.09534E-14
 -1       261 1.01519E-02 9.29140E-04-9.61274E-14
 -1       262 1.05185E-02 1.10613E-03-1.01414E-13
 -1       263 1.08678E-02 1.30018E-03-1.06820E-13
 -1       264 1.11932E-02 1.46967E-03-1.12341E-13
 -1       265 1.14987E-02 1.56667E-03-1.17974E-13
 -1       266 1.18000E-02 1.56516E-03-1.23719E-13
 -1       267 1.21149E-02 1.47962E-03-1.29576E-13
 -1       268 1.24512E-02 1.35385E-03-1.35533E-13
 -1       269 1.28046E-02 1.23255E-03-1.41563E-13
 -1       270 1.31646E-02 1.14225E-03-1.47645E-13
 -1       271 1.35206E-02 1.08974E-03-1.53769E-13
 -1       272 1.38655E-02 1.06925E-03-1.59937E-13
 -1       273 1.41959E-02 1.06977E-03-1.66134E-13
 -1       274 1.45114E-02 1.07951E-03-1.72367E-13
 -1       275 1.48136E-02 1.08786E-03-1.78626E-13
 -1       276 1.51059E-02 1.08686E-03-1.84899E-13
 -1       277 1.51726E-02 1.02397E-03-1.86173E-13
 -1       278 1.52034E-02 9.49659E-04-1.86400E-13
 -1       279 1.52393E-02 8.85481E-04-1.86618E-13
 -1       280 1.52711E-02 8.32558E-04-1.86831E-13
 -1       281 1.52888E-02 7.90824E-04-1.87032E-13
 -1       282 1.52849E-02 7.56327E-04-1.87218E-13
 -1       283 1.52538E-02 7.25968E-04-1.87387E-13
 -1       284 1.51941E-02 6.95274E-04-1.87539E-13
 -1       285 1.51084E-02 6.60121E-04-1.87669E-13
 -1       286 1.50020E-02 6.17490E-04-1.87788E-13
 -1       287 1.48837E-02 5.66784E-04-1.87898E-13
 -1       288 1.47561E-02 5.06121E-04-1.87998E-13
 -1       289 1.46266E-02 4.37232E-04-1.88073E-13
 -1       290 1.44995E-02 3.61711E-04-1.88128E-13
 -1       291 1.43177E-02 2.64490E-04-1.86314E-13
 -1       292 1.36454E-02 4.86485E-04-1.35951E-13
 -1       293 1.35263E-02 5.95308E-04-1.34978E-13
 -1       294 1.32795E-02 7.32818E-04-1.33448E-13
 -1       295 1.29198E-02 8.95282E-04-1.31459E-13
 -1       296 1.25347E-02 1.08326E-03-1.28628E-13
 -1       297 1.21532E-02 1.24010E-03-1.25597E-13
 -1       298 1.17758E-02 1.33684E-03-1.22509E-13
 -1       299 1.13871E-02 1.35643E-03-1.19192E-13
 -1       300 1.09847E-02 1.26432E-03-1.15709E-13
 -1       301 1.05644E-02 1.09450E-03-1.12876E-13
 -1       302 1.01683E-02 8.73532E-04-1.09930E-13
 -1       303 9.75261E-03 6.69546E-04-1.07890E-13
 -1       304 9.42856E-03 5.07415E-04-1.06470E-13
 -1       305 9.20164E-03 3.62596E-04-1.05221E-13
 -1       306 9.10768E-03 2.66868E-04-1.05190E-13
 -1       307 9.14792E-03 1.73728E-04-1.05512E-13
 -1       308 9.31952E-03 6.86003E-05-1.06342E-13
 -1       309 9.58875E-03-6.87696E-05-1.07998E-13
 -1       310 9.91972E-03-2.20363E-04-1.10023E-13
 -1       311 1.02844E-02-3.75178E-04-1.12489E-13
 -1       312 1.06700E-02-5.08578E-04-1.15240E-13
 -1       313 1.10248E-02-5.81298E-04-1.18346E-13
 -1       314 1.13782E-02-5.87232E-04-1.21413E-13
 -1       315 1.17471E-02-5.10992E-04-1.24667E-13
 -1       316 1.21345E-02-3.66191E-04-1.27636E-13
 -1       317 1.25272E-02-1.92813E-04-1.30197E-13
 -1       318 1.29009E-02-1.09589E-05-1.32450E-13
 -1       319 1.32341E-02 1.53607E-04-1.34208E-13
 -1       320 1.34853E-02 2.87388E-04-1.35377E-13
 -1       321 1.36256E-02 3.90926E-04-1.35902E-13
 -1       322 4.55396E-04-1.64832E-04-2.84037E-16
 -1       323 4.74253E-04-2.13014E-04-2.31907E-16
 -1       324 4.40447E-04-9.40429E-05-3.36333E-16
 -1       325 4.37493E-04-6.49311E-05-3.47873E-16
 -1       326 4.35875E-04-3.79164E-05-3.54090E-16
 -1       327 4.35166E-04-1.20188E-05-3.56269E-16
 -1       328 4.35195E-04 1.35431E-05-3.55015E-16
 -1       329 4.35970E-04 3.94968E-05-3.50079E-16
 -1       330 4.37632E-04 6.61608E-05-3.41212E-16
 -1       331 4.40684E-04 9.54422E-05-3.26741E-16
 -1       332 4.46067E-04 1.28359E-04-3.03671E-16
 -1       333 4.55897E-04 1.67340E-04-2.67310E-16
 -1       334 4.75887E-04 2.17082E-04-2.10359E-16
 -1       335 5.32014E-04 2.70010E-04-1.88018E-16
 -1       336 8.24488E-04 3.73564E-04-5.39014E-16
 -1       337 8.63254E-04-3.57462E-04-7.43227E-16
 -1       338 1.14961E-03-4.26218E-04-1.36615E-15
 -1       339 1.43238E-03-4.75419E-04-2.18258E-15
 -1       340 1.71308E-03-5.10152E-04-3.19277E-15
 -1       341 1.99284E-03-5.34233E-04-4.39515E-15
 -1       342 2.27241E-03-5.50477E-04-5.78634E-15
 -1       343 2.55227E-03-5.60992E-04-7.36275E-15
 -1       344 2.83267E-03-5.67353E-04-9.12352E-15
 -1       345 3.11374E-03-5.70734E-04-1.10642E-14
 -1       346 3.39551E-03-5.71992E-04-1.31782E-14
 -1       347 3.67797E-03-5.71739E-04-1.54651E-14
 -1       348 3.96107E-03-5.70392E-04-1.79225E-14
 -1       349 4.24478E-03-5.68220E-04-2.05471E-14
 -1       350 4.52906E-03-5.65375E-04-2.33406E-14
 -1       351 4.81391E-03-5.61924E-04-2.63023E-14
 -1       352 5.09934E-03-5.57874E-04-2.94290E-14
 -1       353 5.38543E-03-5.53198E-04-3.27189E-14
 -1       354 5.67226E-03-5.47859E-04-3.61679E-14
 -1       355 5.96000E-03-5.41845E-04-3.97758E-14
 -1       356 6.24885E-03-5.35202E-04-4.35427E-14
 -1       357 6.53908E-03-5.28082E-04-4.74658E-14
 -1       358 6.83101E-03-5.20798E-04-5.15397E-14
 -1       359 7.12502E-03-5.13900E-04-5.57525E-14
 -1       360 7.42150E-03-5.08247E-04-6.00998E-14
 -1       361 7.72089E-03-5.05095E-04-6.45767E-14
 -1       362 8.02357E-03-5.06151E-04-6.91734E-14
 -1       363 8.32983E-03-5.13582E-04-7.38823E-14
 -1       364 8.63977E-03-5.29892E-04-7.86962E-14
 -1       365 8.95311E-03-5.57590E-04-8.36164E-14
 -1       366 9.26902E-03-5.98513E-04-8.86418E-14
 -1       367 9.58586E-03-6.52737E-04-9.37736E-14
 -1       368 9.90113E-03-7.17146E-04-9.90034E-14
 -1       369 1.02117E-02-7.84100E-04-1.04333E-13
 -1       370 1.05150E-02-8.41198E-04-1.09757E-13
 -1       371 1.08103E-02-8.73371E-04-1.15268E-13
 -1       372 1.10999E-02-8.67610E-04-1.20868E-13
 -1       373 1.13887E-02-8.18399E-04-1.26552E-13
 -1       374 1.16816E-02-7.30270E-04-1.32337E-13
 -1       375 1.19809E-02-6.15484E-04-1.38223E-13
 -1       376 1.22862E-02-4.88585E-04-1.44196E-13
 -1       377 1.25947E-02-3.61422E-04-1.50248E-13
 -1       378 1.29032E-02-2.40809E-04-1.56363E-13
 -1       379 1.32091E-02-1.28609E-04-1.62540E-13
 -1       380 1.35107E-02-2.30469E-05-1.68762E-13
 -1       381 1.38074E-02 7.97378E-05-1.75025E-13
 -1       382 1.40642E-02 1.69889E-04-1.80660E-13
 -1       383 1.10996E-03 4.47900E-04-1.07772E-15
 -1       384 1.39070E-03 5.00973E-04-1.80605E-15
 -1       385 1.66899E-03 5.38587E-04-2.72459E-15
 -1       386 1.94636E-03 5.64859E-04-3.83288E-15
 -1       387 2.22375E-03 5.82790E-04-5.12907E-15
 -1       388 2.50170E-03 5.94609E-04-6.61265E-15
 -1       389 2.78048E-03 6.01981E-04-8.28135E-15
 -1       390 3.06019E-03 6.06149E-04-1.01325E-14
 -1       391 3.34084E-03 6.08024E-04-1.21617E-14
 -1       392 3.62238E-03 6.08261E-04-1.43662E-14
 -1       393 3.90475E-03 6.07314E-04-1.67450E-14
 -1       394 4.18786E-03 6.05475E-04-1.92959E-14
 -1       395 4.47167E-03 6.02913E-04-2.20181E-14
 -1       396 4.75614E-03 5.99701E-04-2.49060E-14
 -1       397 5.04129E-03 5.95838E-04-2.79538E-14
 -1       398 5.32719E-03 5.91276E-04-3.11560E-14
 -1       399 5.61395E-03 5.85934E-04-3.45083E-14
 -1       400 5.90178E-03 5.79725E-04-3.80106E-14
 -1       401 6.19096E-03 5.72587E-04-4.16575E-14
 -1       402 6.48188E-03 5.64518E-04-4.54486E-14
 -1       403 6.77505E-03 5.55634E-04-4.93792E-14
 -1       404 7.07112E-03 5.46250E-04-5.34492E-14
 -1       405 7.37087E-03 5.36998E-04-5.76566E-14
 -1       406 7.67527E-03 5.29004E-04-6.19968E-14
 -1       407 7.98541E-03 5.24136E-04-6.64648E-14
 -1       408 8.30253E-03 5.25342E-04-7.10563E-14
 -1       409 8.62793E-03 5.37071E-04-7.57747E-14
 -1       410 8.96284E-03 5.65678E-04-8.06107E-14
 -1       411 9.30815E-03 6.19541E-04-8.55549E-14
 -1       412 9.66391E-03 7.08246E-04-9.06035E-14
 -1       413 1.00284E-02 8.39732E-04-9.57632E-14
 -1       414 1.03964E-02 1.01401E-03-1.01033E-13
 -1       415 1.07591E-02 1.21366E-03-1.06417E-13
 -1       416 1.11074E-02 1.39786E-03-1.11917E-13
 -1       417 1.14395E-02 1.51179E-03-1.17527E-13
 -1       418 1.17664E-02 1.51965E-03-1.23248E-13
 -1       419 1.21031E-02 1.43322E-03-1.29081E-13
 -1       420 1.24544E-02 1.30151E-03-1.35019E-13
 -1       421 1.28141E-02 1.17479E-03-1.41038E-13
 -1       422 1.31721E-02 1.08147E-03-1.47111E-13
 -1       423 1.35212E-02 1.02816E-03-1.53227E-13
 -1       424 1.38580E-02 1.00844E-03-1.59387E-13
 -1       425 1.41818E-02 1.01081E-03-1.65577E-13
 -1       426 1.44934E-02 1.02323E-03-1.71803E-13
 -1       427 1.47940E-02 1.03489E-03-1.78056E-13
 -1       428 1.49849E-02 1.03205E-03-1.82114E-13
 -1       429 1.50170E-02 8.50276E-04-1.81297E-13
 -1       430 1.49772E-02 9.13799E-04-1.81079E-13
 -1       431 1.49781E-02 9.70744E-04-1.81599E-13
 -1       432 1.50468E-02 7.96614E-04-1.81501E-13
 -1       433 1.50579E-02 7.49540E-04-1.81691E-13
 -1       434 1.50422E-02 7.07266E-04-1.81861E-13
 -1       435 1.49962E-02 6.66072E-04-1.82013E-13
 -1       436 1.49209E-02 6.22184E-04-1.82156E-13
 -1       437 1.48209E-02 5.72658E-04-1.82281E-13
 -1       438 1.47053E-02 5.16930E-04-1.82388E-13
 -1       439 1.45775E-02 4.52875E-04-1.82481E-13
 -1       440 1.44458E-02 3.82170E-04-1.82560E-13
 -1       441 1.43154E-02 3.06078E-04-1.82627E-13
 -1       442 1.34036E-02 6.06837E-04-1.36688E-13
 -1       443 1.36683E-02 4.50198E-04-1.38532E-13
 -1       444 1.36119E-02 5.13565E-04-1.38605E-13
 -1       445 1.30908E-02 7.47563E-04-1.34600E-13
 -1       446 1.26613E-02 9.57849E-04-1.31745E-13
 -1       447 4.45598E-04-1.26513E-04-3.16421E-16
 -1       448 1.19207E-02 1.31962E-03-1.24801E-13
 -1       449 1.15971E-02 1.39244E-03-1.21194E-13
 -1       450 1.12378E-02 1.35595E-03-1.17061E-13
 -1       451 1.08143E-02 1.16819E-03-1.12994E-13
 -1       452 1.04639E-02 9.62761E-04-1.10048E-13
 -1       453 1.00005E-02 6.83049E-04-1.06588E-13
 -1       454 9.61270E-03 4.95736E-04-1.04873E-13
 -1       455 9.33576E-03 3.73292E-04-1.03637E-13
 -1       456 9.11994E-03 2.76243E-04-1.02941E-13
 -1       457 9.09631E-03 2.23501E-04-1.03104E-13
 -1       458 9.20676E-03 1.63646E-04-1.03319E-13
 -1       459 9.47372E-03 5.22432E-05-1.05248E-13
 -1       460 9.79983E-03-8.63276E-05-1.06966E-13
 -1       461 1.01671E-02-2.63326E-04-1.09509E-13
 -1       462 1.04813E-02-4.18532E-04-1.12220E-13
 -1       463 1.08979E-02-5.81730E-04-1.16460E-13
 -1       464 1.11702E-02-6.25170E-04-1.19502E-13
 -1       465 1.15048E-02-5.88089E-04-1.23425E-13
 -1       466 1.18749E-02-4.38508E-04-1.27398E-13
 -1       467 1.22585E-02-2.41092E-04-1.30524E-13
 -1       468 1.26334E-02-3.22107E-05-1.33492E-13
 -1       469 1.30252E-02 1.50954E-04-1.35492E-13
 -1       470 1.33520E-02 2.94910E-04-1.37206E-13
 -1       471 1.35796E-02 3.99168E-04-1.39035E-13
 -1       472 1.22717E-02 1.16401E-03-1.28190E-13
 -1       473 9.19651E-03 2.94964E-04-1.01359E-13
 -1       474 9.31243E-04 3.46099E-04-9.12163E-16
 -1       475 6.65866E-04-7.51563E-05-7.47886E-16
 -1       476 6.69817E-04-1.15932E-04-7.31427E-16
 -1       477 6.63200E-04 1.10889E-06-7.56326E-16
 -1       478 6.63916E-04 3.87823E-05-7.50237E-16
 -1       479 6.66049E-04 7.68490E-05-7.37295E-16
 -1       480 6.70130E-04 1.17773E-04-7.15570E-16
 -1       481 6.77125E-04 1.62399E-04-6.82295E-16
 -1       482 6.89026E-04 2.12768E-04-6.32147E-16
 -1       483 1.21712E-03 4.06600E-04-1.57638E-15
 -1       484 9.76273E-04-3.28740E-04-1.13802E-15
 -1       485 1.24457E-02 1.07277E-03-1.31452E-13
 -1       486 1.26224E-03-3.83628E-04-1.88164E-15
 -1       487 1.54721E-03-4.23350E-04-2.81469E-15
 -1       488 1.83133E-03-4.51395E-04-3.93689E-15
 -1       489 2.11486E-03-4.70634E-04-5.24599E-15
 -1       490 2.39812E-03-4.83347E-04-6.73750E-15
 -1       491 2.68136E-03-4.91291E-04-8.41179E-15
 -1       492 2.96474E-03-4.95795E-04-1.02662E-14
 -1       493 3.24836E-03-4.97845E-04-1.22961E-14
 -1       494 3.53227E-03-4.98155E-04-1.44982E-14
 -1       495 3.81648E-03-4.97224E-04-1.68713E-14
 -1       496 4.10101E-03-4.95383E-04-1.94123E-14
 -1       497 4.38584E-03-4.92829E-04-2.21189E-14
 -1       498 4.67099E-03-4.89661E-04-2.49940E-14
 -1       499 4.95647E-03-4.85908E-04-2.80326E-14
 -1       500 5.24231E-03-4.81546E-04-3.12339E-14
 -1       501 5.52856E-03-4.76531E-04-3.45957E-14
 -1       502 5.81532E-03-4.70821E-04-3.81159E-14
 -1       503 6.10268E-03-4.64408E-04-4.17952E-14
 -1       504 6.39081E-03-4.57359E-04-4.56303E-14
 -1       505 6.67991E-03-4.49862E-04-4.96167E-14
 -1       506 6.97023E-03-4.42285E-04-5.37485E-14
 -1       507 7.26212E-03-4.35253E-04-5.80184E-14
 -1       508 7.55599E-03-4.29725E-04-6.24184E-14
 -1       509 7.85236E-03-4.27073E-04-6.69452E-14
 -1       510 8.15189E-03-4.29144E-04-7.15884E-14
 -1       511 8.45532E-03-4.38266E-04-7.63412E-14
 -1       512 8.76342E-03-4.57123E-04-8.11992E-14
 -1       513 9.07674E-03-4.88415E-04-8.61644E-14
 -1       514 9.39525E-03-5.34119E-04-9.12339E-14
 -1       515 9.71766E-03-5.94179E-04-9.64034E-14
 -1       516 1.00410E-02-6.64583E-04-1.01669E-13
 -1       517 1.03610E-02-7.35407E-04-1.07036E-13
 -1       518 1.06736E-02-7.90479E-04-1.12495E-13
 -1       519 1.09782E-02-8.11111E-04-1.18043E-13
 -1       520 1.12791E-02-7.83964E-04-1.23683E-13
 -1       521 1.15826E-02-7.08400E-04-1.29414E-13
 -1       522 1.18933E-02-5.96753E-04-1.35249E-13
 -1       523 1.22106E-02-4.67222E-04-1.41176E-13
 -1       524 1.25307E-02-3.35707E-04-1.47184E-13
 -1       525 1.28492E-02-2.11605E-04-1.53266E-13
 -1       526 1.31626E-02-9.79751E-05-1.59410E-13
 -1       527 1.34696E-02 6.59326E-06-1.65607E-13
 -1       528 1.37699E-02 1.06003E-04-1.71843E-13
 -1       529 1.78395E-03 4.81162E-04-3.46274E-15
 -1       530 2.06593E-03 5.02490E-04-4.68384E-15
 -1       531 2.34765E-03 5.16756E-04-6.08922E-15
 -1       532 2.62948E-03 5.25859E-04-7.67794E-15
 -1       533 2.91160E-03 5.31232E-04-9.44818E-15
 -1       534 3.19414E-03 5.33936E-04-1.13974E-14
 -1       535 3.47714E-03 5.34744E-04-1.35211E-14
 -1       536 3.76061E-03 5.34199E-04-1.58173E-14
 -1       537 4.04454E-03 5.32664E-04-1.82855E-14
 -1       538 4.32891E-03 5.30359E-04-2.09259E-14
 -1       539 4.61371E-03 5.27394E-04-2.37336E-14
 -1       540 4.89897E-03 5.23797E-04-2.67036E-14
 -1       541 5.18470E-03 5.19532E-04-2.98282E-14
 -1       542 5.47098E-03 5.14523E-04-3.31073E-14
 -1       543 5.75791E-03 5.08673E-04-3.65358E-14
 -1       544 6.04564E-03 5.01892E-04-4.01113E-14
 -1       545 6.33435E-03 4.94128E-04-4.38323E-14
 -1       546 6.62430E-03 4.85412E-04-4.76933E-14
 -1       547 6.91579E-03 4.75921E-04-5.16942E-14
 -1       548 7.20918E-03 4.66068E-04-5.58350E-14
 -1       549 7.50494E-03 4.56641E-04-6.01102E-14
 -1       550 7.80359E-03 4.48980E-04-6.45172E-14
 -1       551 8.10585E-03 4.45244E-04-6.90473E-14
 -1       552 8.41267E-03 4.48738E-04-7.37044E-14
 -1       553 8.72548E-03 4.64316E-04-7.84843E-14
 -1       554 9.04648E-03 4.98776E-04-8.33756E-14
 -1       555 9.37884E-03 5.61023E-04-8.83711E-14
 -1       556 9.72642E-03 6.61428E-04-9.34728E-14
 -1       557 1.00920E-02 8.09084E-04-9.86819E-14
 -1       558 1.04718E-02 1.00391E-03-1.03997E-13
 -1       559 1.08553E-02 1.22049E-03-1.09426E-13
 -1       560 1.12271E-02 1.39985E-03-1.14970E-13
 -1       561 1.15854E-02 1.46933E-03-1.20623E-13
 -1       562 1.19475E-02 1.40856E-03-1.26390E-13
 -1       563 1.23237E-02 1.26918E-03-1.32268E-13
 -1       564 1.27040E-02 1.12383E-03-1.38239E-13
 -1       565 1.30734E-02 1.01405E-03-1.44282E-13
 -1       566 1.34242E-02 9.49572E-04-1.50372E-13
 -1       567 1.37567E-02 9.23641E-04-1.56506E-13
 -1       568 1.40744E-02 9.24170E-04-1.62682E-13
 -1       569 1.43809E-02 9.38960E-04-1.68890E-13
 -1       570 1.46786E-02 9.56983E-04-1.75127E-13
 -1       571 1.48241E-02 7.45367E-04-1.76172E-13
 -1       572 1.48260E-02 6.95547E-04-1.76349E-13
 -1       573 1.47544E-02 8.64513E-04-1.75767E-13
 -1       574 1.47968E-02 8.00974E-04-1.75978E-13
 -1       575 1.47958E-02 6.48311E-04-1.76508E-13
 -1       576 1.47321E-02 5.99349E-04-1.76651E-13
 -1       577 1.46391E-02 5.44985E-04-1.76781E-13
 -1       578 1.45261E-02 4.84332E-04-1.76891E-13
 -1       579 1.43979E-02 4.15198E-04-1.76986E-13
 -1       580 1.42640E-02 3.39776E-04-1.77067E-13
 -1       581 1.41304E-02 2.59860E-04-1.77138E-13
 -1       582 1.36955E-02 4.83490E-04-1.41516E-13
 -1       583 1.32684E-02 6.54412E-04-1.38114E-13
 -1       584 1.50122E-03 4.50278E-04-2.42643E-15
 -1       585 1.36796E-02 4.51155E-04-1.42016E-13
 -1       586 1.35299E-02 5.55143E-04-1.40525E-13
 -1       587 7.12605E-04-2.51892E-04-6.39334E-16
 -1       588 1.34611E-02 3.74464E-04-1.41163E-13
 -1       589 9.96214E-03-1.60813E-04-1.06080E-13
 -1       590 1.02741E-02 8.12788E-04-1.06589E-13
 -1       591 1.10294E-02 1.27539E-03-1.13839E-13
 -1       592 6.63809E-04-3.65287E-05-7.55814E-16
 -1       593 1.14665E-02 1.42079E-03-1.19370E-13
 -1       594 9.76509E-03 5.26676E-04-1.03036E-13
 -1       595 1.17256E-02 1.40217E-03-1.22960E-13
 -1       596 1.06748E-02 1.06580E-03-1.10202E-13
 -1       597 9.06149E-03 2.30859E-04-1.00186E-13
 -1       598 9.45277E-03 3.86604E-04-1.01746E-13
 -1       599 1.16601E-02-5.31731E-04-1.26270E-13
 -1       600 9.09537E-03 1.97336E-04-1.00402E-13
 -1       601 9.32464E-03 1.18550E-04-1.02075E-13
 -1       602 9.59285E-03 1.23243E-05-1.03607E-13
 -1       603 1.03265E-02-3.48289E-04-1.09309E-13
 -1       604 1.07021E-02-5.27702E-04-1.13491E-13
 -1       605 1.10376E-02-6.29675E-04-1.17778E-13
 -1       606 1.13243E-02-6.34973E-04-1.21674E-13
 -1       607 1.20663E-02-3.16635E-04-1.30888E-13
 -1       608 1.23883E-02-1.30245E-04-1.33864E-13
 -1       609 1.28559E-02 1.19700E-04-1.37391E-13
 -1       610 1.31990E-02 2.73760E-04-1.39423E-13
 -1       611 1.21092E-02 1.25210E-03-1.27718E-13
 -1       612 7.03806E-04 2.90948E-04-4.98154E-16
 -1       613 1.29255E-02 8.20049E-04-1.36314E-13
 -1       614 6.76583E-04-1.60098E-04-7.03739E-16
 -1       615 1.36250E-02 4.30958E-04-1.44153E-13
 -1       616 1.36768E-02 5.21268E-04-1.43441E-13
 -1       617 9.15428E-03 1.57155E-04-9.91660E-14
 -1       618 1.00010E-02 6.52951E-04-1.03024E-13
 -1       619 9.07880E-03 2.44122E-04-9.86121E-14
 -1       620 1.39668E-02 1.71126E-04-1.76084E-13
 -1       621 8.99828E-04 7.41411E-05-1.27962E-15
 -1       622 8.97744E-04 2.51833E-05-1.29474E-15
 -1       623 9.11863E-04 1.78293E-04-1.21215E-15
 -1       624 9.24213E-04 2.36867E-04-1.15154E-15
 -1       625 1.04888E-03 3.14004E-04-1.33037E-15
 -1       626 1.33605E-02 3.39027E-04-1.43207E-13
 -1       627 1.26491E-02 1.10839E-05-1.38098E-13
 -1       628 1.38327E-03-3.37148E-04-2.43380E-15
 -1       629 1.66950E-03-3.68062E-04-3.47726E-15
 -1       630 1.95571E-03-3.89822E-04-4.70558E-15
 -1       631 2.24175E-03-4.04578E-04-6.11575E-15
 -1       632 2.52761E-03-4.14108E-04-7.70584E-15
 -1       633 2.81332E-03-4.19816E-04-9.47504E-15
 -1       634 3.09895E-03-4.22773E-04-1.14199E-14
 -1       635 3.38453E-03-4.23775E-04-1.35371E-14
 -1       636 3.67010E-03-4.23388E-04-1.58268E-14
 -1       637 3.95568E-03-4.22002E-04-1.82845E-14
 -1       638 4.24128E-03-4.19861E-04-2.09059E-14
 -1       639 4.52693E-03-4.17103E-04-2.36955E-14
 -1       640 4.81263E-03-4.13780E-04-2.66487E-14
 -1       641 5.09839E-03-4.09886E-04-2.97629E-14
 -1       642 5.38424E-03-4.05381E-04-3.30366E-14
 -1       643 5.67020E-03-4.00208E-04-3.64702E-14
 -1       644 5.95630E-03-3.94323E-04-4.00641E-14
 -1       645 6.24261E-03-3.87725E-04-4.38125E-14
 -1       646 6.52923E-03-3.80493E-04-4.77119E-14
 -1       647 6.81629E-03-3.72831E-04-5.17600E-14
 -1       648 7.10403E-03-3.65129E-04-5.59500E-14
 -1       649 7.39279E-03-3.58032E-04-6.02747E-14
 -1       650 7.68312E-03-3.52514E-04-6.47281E-14
 -1       651 7.97578E-03-3.49968E-04-6.93036E-14
 -1       652 8.27189E-03-3.52282E-04-7.39943E-14
 -1       653 8.57289E-03-3.61897E-04-7.87917E-14
 -1       654 8.88052E-03-3.81783E-04-8.36965E-14
 -1       655 9.19640E-03-4.15210E-04-8.87054E-14
 -1       656 9.52133E-03-4.65026E-04-9.38159E-14
 -1       657 9.85398E-03-5.31937E-04-9.90225E-14
 -1       658 1.01899E-02-6.11374E-04-1.04328E-13
 -1       659 1.05220E-02-6.89643E-04-1.09732E-13
 -1       660 1.08445E-02-7.43363E-04-1.15229E-13
 -1       661 1.11584E-02-7.47276E-04-1.20814E-13
 -1       662 1.14719E-02-6.89490E-04-1.26496E-13
 -1       663 1.17935E-02-5.80228E-04-1.32281E-13
 -1       664 1.21249E-02-4.43962E-04-1.38162E-13
 -1       665 1.24603E-02-3.04407E-04-1.44128E-13
 -1       666 1.27926E-02-1.75064E-04-1.50171E-13
 -1       667 1.31167E-02-6.00021E-05-1.56285E-13
 -1       668 1.34311E-02 4.26811E-05-1.62453E-13
 -1       669 1.37360E-02 1.37526E-04-1.68667E-13
 -1       670 2.19065E-03 4.37487E-04-5.55974E-15
 -1       671 1.44711E-02 8.38713E-04-1.69526E-13
 -1       672 1.90566E-03 4.20770E-04-4.22927E-15
 -1       673 2.76009E-03 4.55175E-04-8.76136E-15
 -1       674 3.04477E-03 4.58876E-04-1.06307E-14
 -1       675 3.32953E-03 4.60415E-04-1.26748E-14
 -1       676 3.61440E-03 4.60419E-04-1.48910E-14
 -1       677 3.89941E-03 4.59320E-04-1.72782E-14
 -1       678 4.18459E-03 4.57395E-04-1.98374E-14
 -1       679 4.46992E-03 4.54799E-04-2.25647E-14
 -1       680 4.75543E-03 4.51592E-04-2.54555E-14
 -1       681 5.04113E-03 4.47767E-04-2.85055E-14
 -1       682 5.32705E-03 4.43265E-04-3.17092E-14
 -1       683 5.61320E-03 4.37998E-04-3.50643E-14
 -1       684 5.89962E-03 4.31873E-04-3.85675E-14
 -1       685 6.18637E-03 4.24818E-04-4.22179E-14
 -1       686 6.47347E-03 4.16814E-04-4.60109E-14
 -1       687 6.76097E-03 4.07953E-04-4.99429E-14
 -1       688 7.04893E-03 3.98495E-04-5.40157E-14
 -1       689 7.33737E-03 3.88969E-04-5.82281E-14
 -1       690 7.62638E-03 3.80292E-04-6.25711E-14
 -1       691 7.91611E-03 3.73940E-04-6.70411E-14
 -1       692 8.20697E-03 3.72157E-04-7.16375E-14
 -1       693 8.49991E-03 3.78222E-04-7.63596E-14
 -1       694 8.79691E-03 3.96798E-04-8.11977E-14
 -1       695 9.10182E-03 4.34438E-04-8.61417E-14
 -1       696 9.42107E-03 5.00399E-04-9.11920E-14
 -1       697 9.76349E-03 6.07302E-04-9.63435E-14
 -1       698 1.01375E-02 7.69668E-04-1.01594E-13
 -1       699 1.21803E-02 1.26071E-03-1.29499E-13
 -1       700 1.25884E-02 1.08687E-03-1.35421E-13
 -1       701 1.29760E-02 9.55179E-04-1.41429E-13
 -1       702 1.33358E-02 8.79852E-04-1.47489E-13
 -1       703 1.36659E-02 8.49451E-04-1.53602E-13
 -1       704 1.39775E-02 8.48905E-04-1.59757E-13
 -1       705 1.42297E-02 8.39298E-04-1.64633E-13
 -1       706 1.32117E-02 7.13645E-04-1.40397E-13
 -1       707 1.45456E-02 5.85403E-04-1.71167E-13
 -1       708 1.30709E-02 2.20570E-04-1.41149E-13
 -1       709 1.46055E-02 6.86808E-04-1.70853E-13
 -1       710 1.44600E-02 5.29165E-04-1.71302E-13
 -1       711 1.45948E-02 6.36124E-04-1.71020E-13
 -1       712 1.43487E-02 4.65186E-04-1.71413E-13
 -1       713 1.42184E-02 3.90863E-04-1.71512E-13
 -1       714 1.40808E-02 3.09126E-04-1.71596E-13
 -1       715 1.34715E-02 6.11244E-04-1.42823E-13
 -1       716 1.37706E-02 4.89578E-04-1.45875E-13
 -1       717 1.18618E-02-4.38172E-04-1.30021E-13
 -1       718 9.61605E-04-2.66836E-04-1.23657E-15
 -1       719 1.08638E-02-6.15191E-04-1.15183E-13
 -1       720 9.22001E-03 2.93511E-04-9.79987E-14
 -1       721 1.62032E-03 3.96306E-04-3.08040E-15
 -1       722 1.13081E-02 1.39362E-03-1.17096E-13
 -1       723 2.47542E-03 4.48438E-04-7.06999E-15
 -1       724 1.33461E-03 3.61641E-04-2.11401E-15
 -1       725 1.04955E-02-4.71842E-04-1.10195E-13
 -1       726 1.19670E-02 1.35383E-03-1.26498E-13
 -1       727 9.04264E-04 1.24666E-04-1.25322E-15
 -1       728 9.52376E-03 4.15007E-04-9.93019E-14
 -1       729 9.03906E-04-1.22239E-04-1.27491E-15
 -1       730 9.01177E-03 2.00030E-04-9.73312E-14
 -1       731 1.39348E-02 1.98225E-04-1.72895E-13
 -1       732 9.70330E-03-7.18953E-05-1.02375E-13
 -1       733 1.00897E-02-2.69651E-04-1.05614E-13
 -1       734 1.11516E-02-6.58347E-04-1.19472E-13
 -1       735 1.14466E-02-6.20500E-04-1.24162E-13
 -1       736 1.22498E-02-2.18318E-04-1.34723E-13
 -1       737 9.37887E-03 6.39449E-05-9.98640E-14
 -1       738 1.27141E-02 9.79959E-04-1.36164E-13
 -1       739 9.11321E-04-1.75680E-04-1.24245E-15
 -1       740 8.97686E-04-2.31521E-05-1.29926E-15
 -1       741 1.35619E-02 4.02678E-04-1.46209E-13
 -1       742 9.72233E-03 5.20986E-04-9.92824E-14
 -1       743 1.09743E-02 1.25419E-03-1.12391E-13
 -1       744 1.36547E-02 5.71141E-04-1.45752E-13
 -1       745 9.01891E-03 1.67391E-04-9.61076E-14
 -1       746 1.39081E-02 2.25698E-04-1.70134E-13
 -1       747 8.98320E-03 2.10785E-04-9.57716E-14
 -1       748 1.45829E-02 7.42326E-04-1.70671E-13
 -1       749 8.99638E-04-7.18215E-05-1.29304E-15
 -1       750 1.16156E-03 2.43706E-04-1.82232E-15
 -1       751 1.29413E-02 1.30898E-04-1.42995E-13
 -1       752 1.79734E-03-3.09572E-04-4.16955E-15
 -1       753 2.08503E-03-3.25615E-04-5.49821E-15
 -1       754 2.37284E-03-3.36336E-04-7.00586E-15
 -1       755 2.66055E-03-3.43064E-04-8.69088E-15
 -1       756 2.94806E-03-3.46873E-04-1.05513E-14
 -1       757 3.23532E-03-3.48583E-04-1.25848E-14
 -1       758 3.52234E-03-3.48802E-04-1.47899E-14
 -1       759 3.80911E-03-3.47956E-04-1.71641E-14
 -1       760 4.09565E-03-3.46327E-04-1.97029E-14
 -1       761 4.38197E-03-3.44085E-04-2.24074E-14
 -1       762 4.66808E-03-3.41311E-04-2.52749E-14
 -1       763 4.95398E-03-3.38020E-04-2.83034E-14
 -1       764 5.23966E-03-3.34185E-04-3.14925E-14
 -1       765 5.52510E-03-3.29747E-04-3.48397E-14
 -1       766 5.81028E-03-3.24646E-04-3.83485E-14
 -1       767 6.09519E-03-3.18834E-04-4.20130E-14
 -1       768 6.37982E-03-3.12305E-04-4.58276E-14
 -1       769 6.66419E-03-3.05131E-04-4.97896E-14
 -1       770 6.94840E-03-2.97497E-04-5.38980E-14
 -1       771 7.23267E-03-2.89755E-04-5.81456E-14
 -1       772 7.51739E-03-2.82485E-04-6.25246E-14
 -1       773 7.80326E-03-2.76569E-04-6.70303E-14
 -1       774 8.09137E-03-2.73298E-04-7.16548E-14
 -1       775 8.38339E-03-2.74502E-04-7.63934E-14
 -1       776 8.68165E-03-2.82742E-04-8.12396E-14
 -1       777 8.98909E-03-3.01521E-04-8.61899E-14
 -1       778 9.30882E-03-3.35385E-04-9.12421E-14
 -1       779 9.64287E-03-3.89359E-04-9.63902E-14
 -1       780 9.98975E-03-4.66301E-04-1.01635E-13
 -1       781 1.03425E-02-5.61683E-04-1.06979E-13
 -1       782 1.06902E-02-6.53354E-04-1.12420E-13
 -1       783 1.10247E-02-7.03135E-04-1.17953E-13
 -1       784 1.13518E-02-6.76754E-04-1.23582E-13
 -1       785 1.16859E-02-5.72498E-04-1.29319E-13
 -1       786 1.20335E-02-4.23864E-04-1.35155E-13
 -1       787 1.23883E-02-2.68502E-04-1.41078E-13
 -1       788 1.27374E-02-1.29792E-04-1.47082E-13
 -1       789 1.30743E-02-1.23570E-05-1.53162E-13
 -1       790 1.33966E-02 8.75045E-05-1.59304E-13
 -1       791 1.36562E-02 1.57888E-04-1.64703E-13
 -1       792 2.03277E-03 3.57695E-04-5.02484E-15
 -1       793 3.18009E-03 3.85224E-04-1.18292E-14
 -1       794 2.89351E-03 3.82895E-04-9.86500E-15
 -1       795 3.75280E-03 3.85308E-04-1.62739E-14
 -1       796 4.03896E-03 3.83871E-04-1.87537E-14
 -1       797 4.32501E-03 3.81755E-04-2.14006E-14
 -1       798 4.61097E-03 3.79056E-04-2.42123E-14
 -1       799 4.89683E-03 3.75800E-04-2.71853E-14
 -1       800 5.18258E-03 3.71954E-04-3.03142E-14
 -1       801 5.46821E-03 3.67452E-04-3.35956E-14
 -1       802 5.75367E-03 3.62215E-04-3.70261E-14
 -1       803 6.03890E-03 3.56172E-04-4.06055E-14
 -1       804 6.32380E-03 3.49288E-04-4.43296E-14
 -1       805 6.60822E-03 3.41607E-04-4.81948E-14
 -1       806 6.89198E-03 3.33295E-04-5.22003E-14
 -1       807 7.17483E-03 3.24708E-04-5.63457E-14
 -1       808 7.45647E-03 3.16467E-04-6.06287E-14
 -1       809 7.73657E-03 3.09554E-04-6.50395E-14
 -1       810 8.01489E-03 3.05418E-04-6.95756E-14
 -1       811 8.29151E-03 3.06086E-04-7.42394E-14
 -1       812 8.56718E-03 3.14323E-04-7.90242E-14
 -1       813 8.84408E-03 3.33898E-04-8.39166E-14
 -1       814 9.12702E-03 3.70230E-04-8.89143E-14
 -1       815 9.42608E-03 4.33602E-04-9.40124E-14
 -1       816 1.36132E-02 7.55366E-04-1.50724E-13
 -1       817 1.39105E-02 7.59672E-04-1.56861E-13
 -1       818 1.29871E-02 8.40405E-04-1.39119E-13
 -1       819 1.41762E-02 4.55649E-04-1.65961E-13
 -1       820 1.37899E-02 4.73754E-04-1.49000E-13
 -1       821 1.38971E-02 2.88845E-04-1.66154E-13
 -1       822 1.42891E-02 5.21505E-04-1.65842E-13
 -1       823 1.34223E-02 6.85739E-04-1.44716E-13
 -1       824 1.38139E-02 5.27401E-04-1.48196E-13
 -1       825 1.40411E-02 3.77337E-04-1.66064E-13
 -1       826 9.05514E-03 2.45286E-04-9.51658E-14
 -1       827 1.32166E-02 2.59974E-04-1.45065E-13
 -1       828 1.74572E-03 3.39164E-04-3.76781E-15
 -1       829 1.06468E-02-5.84399E-04-1.11829E-13
 -1       830 1.25485E-02-8.35344E-05-1.39734E-13
 -1       831 3.46652E-03 3.85867E-04-1.39663E-14
 -1       832 9.14214E-03 1.07128E-04-9.62962E-14
 -1       833 1.20730E-02-3.59980E-04-1.34477E-13
 -1       834 1.09991E-02-6.75057E-04-1.17318E-13
 -1       835 1.02212E-02-4.10399E-04-1.05946E-13
 -1       836 9.45204E-03-2.38157E-05-9.84028E-14
 -1       837 1.24622E-03 3.00936E-04-1.97351E-15
 -1       838 9.77275E-03-1.86222E-04-1.00989E-13
 -1       839 1.32810E-03-2.29984E-04-2.44898E-15
 -1       840 1.56201E-03-2.71048E-04-3.25432E-15
 -1       841 1.16573E-02-5.61514E-04-1.28185E-13
 -1       842 9.26099E-03 3.27782E-04-9.52401E-14
 -1       843 1.13836E-03 5.90738E-05-1.96443E-15
 -1       844 1.13701E-03 1.18910E-06-1.97799E-15
 -1       845 1.49562E-03 3.24228E-04-2.79942E-15
 -1       846 1.34462E-02 3.38341E-04-1.48078E-13
 -1       847 9.19113E-03 3.30114E-05-9.48559E-14
 -1       848 2.60676E-03 3.78195E-04-8.07436E-15
 -1       849 1.31792E-03-1.62200E-04-2.49955E-15
 -1       850 1.38991E-02 5.12150E-04-1.51340E-13
 -1       851 1.41536E-02 7.54696E-04-1.61721E-13
 -1       852 1.36239E-02 6.36727E-04-1.47657E-13
 -1       853 1.43656E-02 7.30524E-04-1.65776E-13
 -1       854 1.43931E-02 6.26335E-04-1.65551E-13
 -1       855 1.43642E-02 5.76135E-04-1.65707E-13
 -1       856 1.43923E-02 6.75035E-04-1.65670E-13
 -1       857 1.31169E-03-9.69429E-05-2.52880E-15
 -1       858 2.31983E-03 3.70199E-04-6.46012E-15
 -1       859 8.94480E-03 1.82313E-04-9.45619E-14
 -1       860 1.14987E-03 1.79179E-04-1.88920E-15
 -1       861 1.14246E-03 1.17981E-04-1.93551E-15
 -1       862 1.12387E-02-6.74321E-04-1.21231E-13
 -1       863 1.37763E-02 2.24806E-04-1.65430E-13
 -1       864 1.31928E-02 2.02432E-04-1.47903E-13
 -1       865 9.34656E-03 3.78070E-04-9.46296E-14
 -1       866 2.21847E-03-2.58871E-04-6.31467E-15
 -1       867 2.50757E-03-2.66101E-04-7.91674E-15
 -1       868 2.79660E-03-2.70465E-04-9.69308E-15
 -1       869 3.08536E-03-2.72738E-04-1.16420E-14
 -1       870 3.37375E-03-2.73509E-04-1.37626E-14
 -1       871 3.66173E-03-2.73210E-04-1.60521E-14
 -1       872 3.94928E-03-2.72136E-04-1.85084E-14
 -1       873 4.23640E-03-2.70477E-04-2.11284E-14
 -1       874 4.52308E-03-2.68334E-04-2.39114E-14
 -1       875 4.80931E-03-2.65744E-04-2.68564E-14
 -1       876 5.09506E-03-2.62696E-04-2.99620E-14
 -1       877 5.38030E-03-2.59144E-04-3.32255E-14
 -1       878 5.66495E-03-2.55021E-04-3.66470E-14
 -1       879 5.94893E-03-2.50258E-04-4.02287E-14
 -1       880 6.23216E-03-2.44799E-04-4.39620E-14
 -1       881 6.51455E-03-2.38617E-04-4.78407E-14
 -1       882 6.79605E-03-2.31743E-04-5.18669E-14
 -1       883 7.07669E-03-2.24295E-04-5.60331E-14
 -1       884 7.35666E-03-2.16514E-04-6.03362E-14
 -1       885 7.63637E-03-2.08816E-04-6.47720E-14
 -1       886 7.91662E-03-2.01871E-04-6.93290E-14
 -1       887 8.19878E-03-1.96732E-04-7.40024E-14
 -1       888 8.48504E-03-1.95065E-04-7.87899E-14
 -1       889 8.77866E-03-1.99555E-04-8.36846E-14
 -1       890 9.08412E-03-2.14587E-04-8.86801E-14
 -1       891 9.40663E-03-2.47012E-04-9.37710E-14
 -1       892 9.75088E-03-3.06253E-04-9.89548E-14
 -1       893 1.26924E-02-7.48838E-05-1.44000E-13
 -1       894 1.30422E-02 4.65459E-05-1.50046E-13
 -1       895 1.33708E-02 1.42507E-04-1.56161E-13
 -1       896 3.02959E-03 3.09304E-04-1.09869E-14
 -1       897 4.17927E-03 3.08126E-04-2.02417E-14
 -1       898 3.89236E-03 3.09686E-04-1.76738E-14
 -1       899 4.75205E-03 3.03433E-04-2.58694E-14
 -1       900 5.03789E-03 3.00351E-04-2.89222E-14
 -1       901 5.32330E-03 2.96740E-04-3.21289E-14
 -1       902 5.60820E-03 2.92545E-04-3.54876E-14
 -1       903 5.89245E-03 2.87709E-04-3.89951E-14
 -1       904 6.17588E-03 2.82202E-04-4.26524E-14
 -1       905 6.45823E-03 2.76051E-04-4.64495E-14
 -1       906 6.73916E-03 2.69372E-04-5.03875E-14
 -1       907 7.01824E-03 2.62419E-04-5.44674E-14
 -1       908 7.29492E-03 2.55632E-04-5.86859E-14
 -1       909 7.56855E-03 2.49689E-04-6.30385E-14
 -1       910 7.83836E-03 2.45550E-04-6.75160E-14
 -1       911 8.10361E-03 2.44476E-04-7.21223E-14
 -1       912 8.36366E-03 2.48023E-04-7.68507E-14
 -1       913 8.61835E-03 2.58036E-04-8.16924E-14
 -1       914 8.86915E-03 2.77054E-04-8.66400E-14
 -1       915 1.55003E-03-1.97317E-04-3.32064E-15
 -1       916 1.38656E-02 6.70751E-04-1.53964E-13
 -1       917 9.00084E-03 2.58271E-04-9.14172E-14
 -1       918 9.44537E-03-1.25031E-04-9.61235E-14
 -1       919 8.91642E-03 2.07768E-04-9.25683E-14
 -1       920 1.38268E-02 5.78119E-04-1.50377E-13
 -1       921 1.87599E-03 2.78805E-04-4.48915E-15
 -1       922 1.37547E-02 4.37229E-04-1.51831E-13
 -1       923 1.22318E-03-4.55576E-05-2.25024E-15
 -1       924 1.40172E-02 4.54196E-04-1.60548E-13
 -1       925 1.92965E-03-2.47822E-04-4.88995E-15
 -1       926 4.46583E-03 3.06024E-04-2.29744E-14
 -1       927 1.29357E-02 6.86480E-05-1.45950E-13
 -1       928 8.93449E-03 1.22696E-04-9.24097E-14
 -1       929 1.38118E-03 3.41287E-05-2.78621E-15
 -1       930 1.62460E-03 2.70158E-04-3.42909E-15
 -1       931 1.38432E-03 1.00010E-04-2.75899E-15
 -1       932 1.41291E-02 5.17318E-04-1.60420E-13
 -1       933 2.74135E-03 3.06294E-04-9.10036E-15
 -1       934 3.31752E-03 3.10563E-04-1.30448E-14
 -1       935 1.35761E-02 1.84122E-04-1.60783E-13
 -1       936 3.60512E-03 3.10573E-04-1.52738E-14
 -1       937 1.54221E-03-1.25746E-04-3.36129E-15
 -1       938 1.39701E-02 5.55515E-04-1.53537E-13
 -1       939 1.40899E-02 6.72725E-04-1.58805E-13
 -1       940 8.94765E-03 6.37719E-05-9.09974E-14
 -1       941 8.84898E-03 1.78903E-04-9.13759E-14
 -1       942 1.41913E-02 6.18385E-04-1.60246E-13
 -1       943 1.38720E-02 3.73365E-04-1.60652E-13
 -1       944 1.40135E-03 2.37146E-04-2.64042E-15
 -1       945 2.16432E-03 2.92053E-04-5.84974E-15
 -1       946 1.39177E-02 4.86773E-04-1.54191E-13
 -1       947 1.73945E-03-2.23101E-04-4.06883E-15
 -1       948 1.41900E-02 5.67957E-04-1.60345E-13
 -1       949 1.37163E-02 2.71100E-04-1.61100E-13
 -1       950 2.64550E-03-1.94080E-04-8.84616E-15
 -1       951 2.93541E-03-1.96565E-04-1.07105E-14
 -1       952 3.22497E-03-1.97688E-04-1.27458E-14
 -1       953 3.51405E-03-1.97835E-04-1.49515E-14
 -1       954 3.80258E-03-1.97282E-04-1.73235E-14
 -1       955 4.09052E-03-1.96210E-04-1.98606E-14
 -1       956 4.37786E-03-1.94728E-04-2.25607E-14
 -1       957 4.66457E-03-1.92888E-04-2.54224E-14
 -1       958 4.95062E-03-1.90693E-04-2.84441E-14
 -1       959 5.23593E-03-1.88111E-04-3.16255E-14
 -1       960 5.52042E-03-1.85088E-04-3.49631E-14
 -1       961 5.80397E-03-1.81551E-04-3.84599E-14
 -1       962 6.08642E-03-1.77420E-04-4.21111E-14
 -1       963 6.36760E-03-1.72615E-04-4.59094E-14
 -1       964 6.64732E-03-1.67071E-04-4.98529E-14
 -1       965 6.92545E-03-1.60742E-04-5.39391E-14
 -1       966 7.20190E-03-1.53625E-04-5.81648E-14
 -1       967 7.47675E-03-1.45779E-04-6.25254E-14
 -1       968 7.75032E-03-1.37363E-04-6.70124E-14
 -1       969 8.02336E-03-1.28713E-04-7.16216E-14
 -1       970 8.29727E-03-1.20502E-04-7.63479E-14
 -1       971 8.57449E-03-1.14083E-04-8.11837E-14
 -1       972 8.85901E-03-1.12148E-04-8.61243E-14
 -1       973 9.15689E-03-1.20138E-04-9.11611E-14
 -1       974 9.11048E-03-5.05336E-05-9.15072E-14
 -1       975 1.33622E-02 2.08212E-04-1.53022E-13
 -1       976 5.46339E-03 2.22504E-04-3.39516E-14
 -1       977 4.03303E-03 2.33837E-04-1.90863E-14
 -1       978 2.45287E-03 3.00842E-04-7.38711E-15
 -1       979 5.17866E-03 2.25584E-04-3.06670E-14
 -1       980 4.89317E-03 2.28238E-04-2.75344E-14
 -1       981 5.74720E-03 2.18967E-04-3.73870E-14
 -1       982 6.02987E-03 2.14957E-04-4.09734E-14
 -1       983 6.31109E-03 2.10501E-04-4.47054E-14
 -1       984 6.59047E-03 2.05695E-04-4.85774E-14
 -1       985 6.86748E-03 2.00737E-04-5.25922E-14
 -1       986 7.14148E-03 1.95965E-04-5.67448E-14
 -1       987 7.41163E-03 1.91891E-04-6.10361E-14
 -1       988 7.67694E-03 1.89219E-04-6.54585E-14
 -1       989 7.93617E-03 1.88837E-04-7.00056E-14
 -1       990 8.18784E-03 1.91760E-04-7.46776E-14
 -1       991 8.43010E-03 1.99013E-04-7.94684E-14
 -1       992 8.66101E-03 2.11676E-04-8.43649E-14
 -1       993 8.78906E-03 1.25718E-04-8.92593E-14
 -1       994 8.80024E-03 2.06626E-04-8.84371E-14
 -1       995 1.36649E-02 3.72007E-04-1.53754E-13
 -1       996 2.06575E-03-1.82867E-04-5.63613E-15
 -1       997 1.46750E-03-1.69846E-05-3.11314E-15
 -1       998 2.35548E-03-1.89724E-04-7.15421E-15
 -1       999 1.39084E-03 1.67373E-04-2.71143E-15
 -1      1000 1.38947E-02 4.60100E-04-1.55591E-13
 -1      1001 4.32030E-03 2.32371E-04-2.17406E-14
 -1      1002 1.71171E-03 2.06237E-04-3.90854E-15
 -1      1003 2.87885E-03 2.32981E-04-1.01483E-14
 -1      1004 3.74522E-03 2.34820E-04-1.65976E-14
 -1      1005 3.16809E-03 2.34676E-04-1.21275E-14
 -1      1006 1.73071E-03-1.47570E-04-4.11874E-15
 -1      1007 8.77425E-03 7.59429E-05-8.78715E-14
 -1      1008 1.62947E-03 7.32853E-05-3.71868E-15
 -1      1009 1.50381E-03-7.04624E-05-3.24245E-15
 -1      1010 2.00011E-03 2.19344E-04-5.18655E-15
 -1      1011 1.71538E-03 1.83064E-05-4.10260E-15
 -1      1012 4.60703E-03 2.30497E-04-2.45573E-14
 -1      1013 1.89796E-03-1.65407E-04-4.84896E-15
 -1      1014 3.07665E-03-1.21645E-04-1.17419E-14
 -1      1015 3.36661E-03-1.22014E-04-1.38626E-14
 -1      1016 3.65598E-03-1.21849E-04-1.61502E-14
 -1      1017 3.94469E-03-1.21295E-04-1.86031E-14
 -1      1018 4.23269E-03-1.20444E-04-2.12208E-14
 -1      1019 4.51996E-03-1.19344E-04-2.40009E-14
 -1      1020 4.80643E-03-1.18006E-04-2.69400E-14
 -1      1021 5.09205E-03-1.16416E-04-3.00376E-14
 -1      1022 5.37671E-03-1.14533E-04-3.32934E-14
 -1      1023 5.66026E-03-1.12297E-04-3.67064E-14
 -1      1024 5.94251E-03-1.09631E-04-4.02740E-14
 -1      1025 6.22323E-03-1.06438E-04-4.39916E-14
 -1      1026 6.50214E-03-1.02608E-04-4.78542E-14
 -1      1027 6.77895E-03-9.80089E-05-5.18606E-14
 -1      1028 7.05336E-03-9.24934E-05-5.60082E-14
 -1      1029 7.32512E-03-8.58945E-05-6.02930E-14
 -1      1030 7.59407E-03-7.80343E-05-6.47096E-14
 -1      1031 7.86026E-03-6.87482E-05-6.92514E-14
 -1      1032 8.12405E-03-5.79498E-05-7.39125E-14
 -1      1033 8.38640E-03-4.57996E-05-7.86902E-14
 -1      1034 8.64926E-03-3.32007E-05-8.35735E-14
 -1      1035 8.87278E-03-3.75973E-05-8.75089E-14
 -1      1036 3.45690E-03 2.35176E-04-1.42775E-14
 -1      1037 2.28940E-03 2.28350E-04-6.63971E-15
 -1      1038 5.31925E-03 1.51798E-04-3.24179E-14
 -1      1039 5.03437E-03 1.53759E-04-2.92075E-14
 -1      1040 6.16651E-03 1.44305E-04-4.29605E-14
 -1      1041 6.44541E-03 1.41410E-04-4.67698E-14
 -1      1042 6.72179E-03 1.38534E-04-5.07196E-14
 -1      1043 6.99498E-03 1.35955E-04-5.48093E-14
 -1      1044 7.26418E-03 1.34085E-04-5.90371E-14
 -1      1045 7.52837E-03 1.33493E-04-6.33997E-14
 -1      1046 7.78625E-03 1.34901E-04-6.78915E-14
 -1      1047 8.03615E-03 1.39148E-04-7.25080E-14
 -1      1048 8.27581E-03 1.47091E-04-7.72455E-14
 -1      1049 8.50202E-03 1.59565E-04-8.20921E-14
 -1      1050 2.78624E-03-1.20532E-04-9.79208E-15
 -1      1051 8.65895E-03 1.56552E-04-8.61140E-14
 -1      1052 2.58930E-03 2.29614E-04-8.33890E-15
 -1      1053 2.49563E-03-1.18394E-04-8.01360E-15
 -1      1054 4.74858E-03 1.55451E-04-2.61503E-14
 -1      1055 1.40593E-02 5.38969E-04-1.56689E-13
 -1      1056 1.66912E-03 1.38655E-04-3.82343E-15
 -1      1057 2.20520E-03-1.14871E-04-6.40739E-15
 -1      1058 5.88559E-03 1.47051E-04-3.92961E-14
 -1      1059 5.60307E-03 1.49561E-04-3.57813E-14
 -1      1060 4.17467E-03 1.58041E-04-2.05110E-14
 -1      1061 3.88667E-03 1.58895E-04-1.79359E-14
 -1      1062 1.90453E-03 7.42191E-05-4.91548E-15
 -1      1063 1.69142E-03-8.90750E-05-3.99112E-15
 -1      1064 8.71703E-03 2.27100E-05-8.57201E-14
 -1      1065 2.03745E-03-9.97779E-05-5.56442E-15
 -1      1066 2.72870E-03 1.56747E-04-9.31425E-15
 -1      1067 8.59942E-03 1.17411E-04-8.47663E-14
 -1      1068 3.01891E-03 1.58526E-04-1.12154E-14
 -1      1069 1.95741E-03 1.48344E-04-5.09036E-15
 -1      1070 1.75081E-03-3.88939E-05-4.25949E-15
 -1      1071 4.46199E-03 1.56882E-04-2.32504E-14
 -1      1072 3.50994E-03-4.60153E-05-1.49894E-14
 -1      1073 3.79926E-03-4.58329E-05-1.73579E-14
 -1      1074 4.08785E-03-4.55120E-05-1.98919E-14
 -1      1075 4.37564E-03-4.50822E-05-2.25887E-14
 -1      1076 4.66260E-03-4.45483E-05-2.54487E-14
 -1      1077 4.94866E-03-4.39026E-05-2.84641E-14
 -1      1078 5.23371E-03-4.31216E-05-3.16365E-14
 -1      1079 5.51760E-03-4.21650E-05-3.49648E-14
 -1      1080 5.80014E-03-4.09738E-05-3.84498E-14
 -1      1081 6.08106E-03-3.94647E-05-4.20885E-14
 -1      1082 6.36003E-03-3.75235E-05-4.58722E-14
 -1      1083 6.63667E-03-3.49958E-05-4.97986E-14
 -1      1084 6.91054E-03-3.16751E-05-5.38675E-14
 -1      1085 7.18115E-03-2.72899E-05-5.80759E-14
 -1      1086 7.44798E-03-2.14930E-05-6.24173E-14
 -1      1087 7.71049E-03-1.38558E-05-6.68894E-14
 -1      1088 7.96819E-03-3.88201E-06-7.14862E-14
 -1      1089 8.22065E-03 8.88683E-06-7.62013E-14
 -1      1090 8.46746E-03 2.49633E-05-8.10288E-14
 -1      1091 6.85386E-03 7.45083E-05-5.28731E-14
 -1      1092 5.17574E-03 8.02252E-05-3.08884E-14
 -1      1093 4.60424E-03 8.19051E-05-2.47711E-14
 -1      1094 6.58005E-03 7.49894E-05-4.88476E-14
 -1      1095 6.30323E-03 7.58905E-05-4.49612E-14
 -1      1096 7.12396E-03 7.47830E-05-5.70398E-14
 -1      1097 7.38947E-03 7.62779E-05-6.13423E-14
 -1      1098 7.64933E-03 7.95995E-05-6.57753E-14
 -1      1099 7.90220E-03 8.54926E-05-7.03370E-14
 -1      1100 8.14623E-03 9.48123E-05-7.50205E-14
 -1      1101 8.37863E-03 1.08223E-04-7.98173E-14
 -1      1102 2.92941E-03-4.57800E-05-1.07533E-14
 -1      1103 2.42786E-03 1.58134E-04-7.51769E-15
 -1      1104 2.19239E-03 1.54034E-04-6.24664E-15
 -1      1105 1.99249E-03 5.57051E-07-5.36253E-15
 -1      1106 3.21995E-03-4.60210E-05-1.27870E-14
 -1      1107 4.89047E-03 8.11250E-05-2.77523E-14
 -1      1108 2.63853E-03-4.51982E-05-8.89006E-15
 -1      1109 4.31714E-03 8.25558E-05-2.19483E-14
 -1      1110 6.02397E-03 7.69829E-05-4.12167E-14
 -1      1111 1.86410E-03-9.47280E-05-4.74648E-15
 -1      1112 2.34768E-03-4.41471E-05-7.19917E-15
 -1      1113 2.56111E-03 8.35675E-05-8.37330E-15
 -1      1114 4.02923E-03 8.30567E-05-1.92878E-14
 -1      1115 3.30873E-03 1.59304E-04-1.32859E-14
 -1      1116 5.45990E-03 7.92164E-05-3.41772E-14
 -1      1117 2.13947E-03 7.73789E-05-6.05428E-15
 -1      1118 2.18005E-03-3.07602E-05-6.30219E-15
 -1      1119 3.59800E-03 1.59357E-04-1.55271E-14
 -1      1120 8.52712E-03 7.08836E-05-8.27627E-14
 -1      1121 2.85192E-03 8.49807E-05-1.01849E-14
 -1      1122 5.74273E-03 7.81203E-05-3.76203E-14
 -1      1123 3.65461E-03 3.00116E-05-1.61263E-14
 -1      1124 2.49287E-03 2.88671E-05-8.00821E-15
 -1      1125 3.07458E-03 2.97948E-05-1.17276E-14
 -1      1126 2.78381E-03 2.94534E-05-9.78280E-15
 -1      1127 3.36491E-03 2.99651E-05-1.38423E-14
 -1      1128 2.01429E-03-4.93680E-05-5.46827E-15
 -1      1129 0.00000E+00 0.00000E+00 0.00000E+00
 -1      1130 0.00000E+00 0.00000E+00 0.00000E+00
 -1      1131 0.00000E+00 0.00000E+00 0.00000E+00
 -1      1132 0.00000E+00 0.00000E+00 0.00000E+00
 -1      1133 0.00000E+00 0.00000E+00 0.00000E+00
 -1      1134 0.00000E+00 0.00000E+00 0.00000E+00
 -1      1135 0.00000E+00 0.00000E+00 0.00000E+00
 -1      1136 0.00000E+00 0.00000E+00 0.00000E+00
 -1      1137 0.00000E+00 0.00000E+00 0.00000E+00
 -1      1138 0.00000E+00 0.00000E+00 0.00000E+00
 -1      1139 0.00000E+00 0.00000E+00 0.00000E+00
 -1      1140 0.00000E+00 0.00000E+00 0.00000E+00
 -1      1141 0.00000E+00 0.00000E+00 0.00000E+00
 -1      1142 0.00000E+00 0.00000E+00 0.00000E+00
 -1      1143 0.00000E+00 0.00000E+00 0.00000E+00
 -1      1144 0.00000E+00 0.00000E+00 0.00000E+00
 -1      1145 0.00000E+00 0.00000E+00 0.00000E+00
 -1      1146 2.11670E-04-1.48338E-04 2.99782E-17
 -1      1147 5.51637E-04-3.37535E-04-3.42879E-17
 -1      1148 8.33450E-04-4.59040E-04-2.82719E-16
 -1      1149 1.10302E-03-5.40733E-04-7.46107E-16
 -1      1150 1.36842E-03-5.97993E-04-1.41628E-15
 -1      1151 1.63320E-03-6.38708E-04-2.29040E-15
 -1      1152 1.89923E-03-6.67518E-04-3.36661E-15
 -1      1153 2.16734E-03-6.87543E-04-4.64075E-15
 -1      1154 2.43783E-03-7.01061E-04-6.10957E-15
 -1      1155 2.71069E-03-7.09787E-04-7.76889E-15
 -1      1156 2.98576E-03-7.15014E-04-9.61426E-15
 -1      1157 3.26280E-03-7.17710E-04-1.16397E-14
 -1      1158 3.54154E-03-7.18579E-04-1.38383E-14
 -1      1159 3.82174E-03-7.18125E-04-1.62103E-14
 -1      1160 4.10315E-03-7.16689E-04-1.87521E-14
 -1      1161 4.38560E-03-7.14488E-04-2.14641E-14
 -1      1162 4.66898E-03-7.11641E-04-2.43500E-14
 -1      1163 4.95321E-03-7.08203E-04-2.74071E-14
 -1      1164 5.23833E-03-7.04184E-04-3.06306E-14
 -1      1165 5.52444E-03-6.99575E-04-3.40175E-14
 -1      1166 5.81173E-03-6.94380E-04-3.75666E-14
 -1      1167 6.10052E-03-6.88643E-04-4.12784E-14
 -1      1168 6.39122E-03-6.82493E-04-4.51469E-14
 -1      1169 6.68436E-03-6.76195E-04-4.91672E-14
 -1      1170 6.98057E-03-6.70206E-04-5.33348E-14
 -1      1171 7.28054E-03-6.65253E-04-5.76415E-14
 -1      1172 7.58497E-03-6.62401E-04-6.20814E-14
 -1      1173 7.89443E-03-6.63119E-04-6.66422E-14
 -1      1174 8.20916E-03-6.69297E-04-7.13214E-14
 -1      1175 8.52885E-03-6.83163E-04-7.61038E-14
 -1      1176 8.85230E-03-7.07025E-04-8.09867E-14
 -1      1177 9.17707E-03-7.42722E-04-8.59792E-14
 -1      1178 9.49936E-03-7.90735E-04-9.10808E-14
 -1      1179 9.81417E-03-8.49000E-04-9.62857E-14
 -1      1180 1.01162E-02-9.11792E-04-1.01593E-13
 -1      1181 1.04015E-02-9.69360E-04-1.06990E-13
 -1      1182 1.06691E-02-1.00917E-03-1.12474E-13
 -1      1183 1.09228E-02-1.01900E-03-1.18041E-13
 -1      1184 1.11702E-02-9.91052E-04-1.23690E-13
 -1      1185 1.14209E-02-9.24872E-04-1.29429E-13
 -1      1186 1.16827E-02-8.27453E-04-1.35267E-13
 -1      1187 1.19593E-02-7.10328E-04-1.41205E-13
 -1      1188 1.22499E-02-5.85422E-04-1.47234E-13
 -1      1189 1.25501E-02-4.61748E-04-1.53338E-13
 -1      1190 1.28545E-02-3.43988E-04-1.59500E-13
 -1      1191 1.31581E-02-2.32761E-04-1.65707E-13
 -1      1192 1.34573E-02-1.25786E-04-1.71953E-13
 -1      1193 1.37506E-02-1.93034E-05-1.78231E-13
 -1      1194 1.40387E-02 9.03940E-05-1.84528E-13
 -1      1195 1.43170E-02 2.01758E-04-1.90689E-13
 -1      1196 2.28429E-04 1.60716E-04 4.22026E-17
 -1      1197 5.53812E-04 3.42168E-04-4.07931E-18
 -1      1198 8.34383E-04 4.61212E-04-2.29973E-16
 -1      1199 1.10392E-03 5.42426E-04-6.57731E-16
 -1      1200 1.36932E-03 5.99678E-04-1.28482E-15
 -1      1201 1.63415E-03 6.40478E-04-2.10885E-15
 -1      1202 1.90023E-03 6.69395E-04-3.12918E-15
 -1      1203 2.16839E-03 6.89540E-04-4.34265E-15
 -1      1204 2.43890E-03 7.03187E-04-5.74820E-15
 -1      1205 2.71178E-03 7.12047E-04-7.34199E-15
 -1      1206 2.98686E-03 7.17411E-04-9.12398E-15
 -1      1207 3.26389E-03 7.20243E-04-1.10887E-14
 -1      1208 3.54263E-03 7.21247E-04-1.32347E-14
 -1      1209 3.82281E-03 7.20925E-04-1.55585E-14
 -1      1210 4.10419E-03 7.19611E-04-1.80551E-14
 -1      1211 4.38661E-03 7.17518E-04-2.07247E-14
 -1      1212 4.66993E-03 7.14753E-04-2.35610E-14
 -1      1213 4.95410E-03 7.11354E-04-2.65601E-14
 -1      1214 5.23914E-03 7.07303E-04-2.97178E-14
 -1      1215 5.52517E-03 7.02552E-04-3.30296E-14
 -1      1216 5.81242E-03 6.97043E-04-3.64867E-14
 -1      1217 6.10126E-03 6.90736E-04-4.00846E-14
 -1      1218 6.39222E-03 6.83648E-04-4.38279E-14
 -1      1219 6.68605E-03 6.75899E-04-4.77218E-14
 -1      1220 6.98374E-03 6.67786E-04-5.17599E-14
 -1      1221 7.28658E-03 6.59892E-04-5.59255E-14
 -1      1222 7.59621E-03 6.53236E-04-6.02189E-14
 -1      1223 7.91462E-03 6.49501E-04-6.46447E-14
 -1      1224 8.24407E-03 6.51346E-04-6.91995E-14
 -1      1225 8.58690E-03 6.62805E-04-7.38842E-14
 -1      1226 8.94501E-03 6.89710E-04-7.86865E-14
 -1      1227 9.31884E-03 7.39873E-04-8.35992E-14
 -1      1228 9.70577E-03 8.22437E-04-8.86139E-14
 -1      1229 1.00982E-02 9.45284E-04-9.37411E-14
 -1      1230 1.04819E-02 1.10937E-03-9.89884E-14
 -1      1231 1.08386E-02 1.30066E-03-1.04351E-13
 -1      1232 1.11531E-02 1.48491E-03-1.09835E-13
 -1      1233 1.14257E-02 1.61506E-03-1.15437E-13
 -1      1234 1.16783E-02 1.65432E-03-1.21153E-13
 -1      1235 1.19440E-02 1.60001E-03-1.26980E-13
 -1      1236 1.22468E-02 1.48536E-03-1.32910E-13
 -1      1237 1.25893E-02 1.35703E-03-1.38918E-13
 -1      1238 1.29573E-02 1.25041E-03-1.44978E-13
 -1      1239 1.33319E-02 1.18041E-03-1.51082E-13
 -1      1240 1.36979E-02 1.14579E-03-1.57232E-13
 -1      1241 1.40466E-02 1.13713E-03-1.63427E-13
 -1      1242 1.43750E-02 1.14260E-03-1.69653E-13
 -1      1243 1.46841E-02 1.15095E-03-1.75911E-13
 -1      1244 1.49781E-02 1.15303E-03-1.82183E-13
 -1      1245 1.52569E-02 1.14487E-03-1.88296E-13
 -1      1246 1.53992E-02 1.09598E-03-1.91378E-13
 -1      1247 1.54182E-02 1.01198E-03-1.91610E-13
 -1      1248 1.54471E-02 9.35884E-04-1.91835E-13
 -1      1249 1.54809E-02 8.73650E-04-1.92045E-13
 -1      1250 1.55106E-02 8.27715E-04-1.92261E-13
 -1      1251 1.55266E-02 7.97369E-04-1.92472E-13
 -1      1252 1.55215E-02 7.78543E-04-1.92665E-13
 -1      1253 1.54901E-02 7.65620E-04-1.92833E-13
 -1      1254 1.54310E-02 7.52384E-04-1.92992E-13
 -1      1255 1.53465E-02 7.32948E-04-1.93123E-13
 -1      1256 1.52418E-02 7.03028E-04-1.93230E-13
 -1      1257 1.51242E-02 6.60866E-04-1.93366E-13
 -1      1258 1.49992E-02 6.06120E-04-1.93500E-13
 -1      1259 1.48712E-02 5.39553E-04-1.93577E-13
 -1      1260 1.47453E-02 4.63919E-04-1.93615E-13
 -1      1261 1.46241E-02 3.82272E-04-1.93642E-13
 -1      1262 1.45087E-02 2.98561E-04-1.93679E-13
 -1      1263 1.36606E-02 5.01761E-04-1.33443E-13
 -1      1264 1.35640E-02 6.57689E-04-1.32784E-13
 -1      1265 1.33533E-02 8.20218E-04-1.31490E-13
 -1      1266 1.30385E-02 9.85372E-04-1.29603E-13
 -1      1267 1.26597E-02 1.13381E-03-1.27326E-13
 -1      1268 1.22503E-02 1.24733E-03-1.24833E-13
 -1      1269 1.18226E-02 1.31253E-03-1.22211E-13
 -1      1270 1.13618E-02 1.31611E-03-1.19399E-13
 -1      1271 1.08783E-02 1.24836E-03-1.16504E-13
 -1      1272 1.04343E-02 1.12741E-03-1.13950E-13
 -1      1273 1.00121E-02 9.62912E-04-1.11647E-13
 -1      1274 9.63867E-03 7.79559E-04-1.09722E-13
 -1      1275 9.35939E-03 6.06523E-04-1.08370E-13
 -1      1276 9.16896E-03 4.37093E-04-1.07516E-13
 -1      1277 9.09169E-03 2.81766E-04-1.07239E-13
 -1      1278 9.12599E-03 1.38135E-04-1.07507E-13
 -1      1279 9.26999E-03-9.88252E-06-1.08343E-13
 -1      1280 9.50613E-03-1.54289E-04-1.09685E-13
 -1      1281 9.81273E-03-2.90847E-04-1.11454E-13
 -1      1282 1.01749E-02-4.11884E-04-1.13605E-13
 -1      1283 1.05769E-02-5.04023E-04-1.16065E-13
 -1      1284 1.09916E-02-5.53884E-04-1.18658E-13
 -1      1285 1.14078E-02-5.52173E-04-1.21277E-13
 -1      1286 1.18445E-02-4.96923E-04-1.23989E-13
 -1      1287 1.22666E-02-3.96591E-04-1.26519E-13
 -1      1288 1.26596E-02-2.64204E-04-1.28753E-13
 -1      1289 1.30151E-02-1.11599E-04-1.30652E-13
 -1      1290 1.33126E-02 4.82889E-05-1.32137E-13
 -1      1291 1.35274E-02 2.04700E-04-1.33104E-13
 -1      1292 1.36447E-02 3.52251E-04-1.33529E-13
 -1      1293 1.66699E-04-1.10348E-04-8.67362E-19
 -1      1294 1.12539E-04-5.69832E-05-3.88009E-17
 -1      1295 1.17621E-04-6.75899E-05-2.84332E-17
 -1      1296 1.08424E-04-4.35026E-05-5.59584E-17
 -1      1297 1.10285E-04-4.96166E-05-5.07000E-17
 -1      1298 2.26327E-04-1.07643E-04-1.19032E-16
 -1      1299 1.06840E-04-3.36177E-05-6.58382E-17
 -1      1300 1.07689E-04-3.83420E-05-6.30464E-17
 -1      1301 2.19110E-04-8.24781E-05-1.50243E-16
 -1      1302 1.06059E-04-2.53639E-05-7.16658E-17
 -1      1303 1.06489E-04-2.93950E-05-7.01614E-17
 -1      1304 2.15860E-04-6.32937E-05-1.69122E-16
 -1      1305 1.05662E-04-1.81005E-05-7.48371E-17
 -1      1306 1.05891E-04-2.16699E-05-7.40917E-17
 -1      1307 2.14208E-04-4.72101E-05-1.80249E-16
 -1      1308 1.05442E-04-1.12450E-05-7.68699E-17
 -1      1309 1.05564E-04-1.46320E-05-7.64769E-17
 -1      1310 2.13300E-04-3.27681E-05-1.86754E-16
 -1      1311 1.05342E-04-4.69114E-06-7.78864E-17
 -1      1312 1.05395E-04-7.94620E-06-7.77508E-17
 -1      1313 2.12804E-04-1.91987E-05-1.90630E-16
 -1      1314 1.05331E-04 1.74458E-06-7.77915E-17
 -1      1315 1.05329E-04-1.47045E-06-7.79135E-17
 -1      1316 2.12590E-04-6.16209E-06-1.92080E-16
 -1      1317 1.05403E-04 8.22954E-06-7.70597E-17
 -1      1318 1.05346E-04 4.96830E-06-7.72223E-17
 -1      1319 2.12597E-04 6.71319E-06-1.91226E-16
 -1      1320 1.05580E-04 1.49395E-05-7.54334E-17
 -1      1321 1.05453E-04 1.15383E-05-7.59890E-17
 -1      1322 2.12828E-04 1.97746E-05-1.88570E-16
 -1      1323 1.05912E-04 2.19606E-05-7.22214E-17
 -1      1324 1.05678E-04 1.83684E-05-7.31836E-17
 -1      1325 2.13337E-04 3.32818E-05-1.83420E-16
 -1      1326 1.06535E-04 2.98287E-05-6.74103E-17
 -1      1327 1.06096E-04 2.57512E-05-6.91450E-17
 -1      1328 2.14276E-04 4.78134E-05-1.75017E-16
 -1      1329 1.07725E-04 3.89279E-05-5.94007E-17
 -1      1330 1.06874E-04 3.41342E-05-6.24772E-17
 -1      1331 2.15978E-04 6.42284E-05-1.61993E-16
 -1      1332 1.10263E-04 5.03541E-05-4.60108E-17
 -1      1333 1.08426E-04 4.41708E-05-5.17164E-17
 -1      1334 2.19203E-04 8.37267E-05-1.41204E-16
 -1      1335 1.16937E-04 6.76252E-05-2.39473E-17
 -1      1336 1.12186E-04 5.77816E-05-3.47080E-17
 -1      1337 2.26315E-04 1.09461E-04-1.08759E-16
 -1      1338 1.57580E-04 1.09864E-04 1.09233E-17
 -1      1339 1.35661E-04 8.60965E-05-1.11537E-17
 -1      1340 2.56037E-04 1.52106E-04-6.96193E-17
 -1      1341 3.35085E-04 2.20750E-04-1.21702E-17
 -1      1342 4.21538E-04-2.61756E-04-6.31006E-17
 -1      1343 5.74632E-04-3.36823E-04-1.44958E-16
 -1      1344 7.21816E-04-3.97431E-04-2.82557E-16
 -1      1345 8.64979E-04-4.46732E-04-4.71804E-16
 -1      1346 6.12063E-04-3.30922E-04-2.72636E-16
 -1      1347 1.00500E-03-4.87809E-04-7.10857E-16
 -1      1348 1.14284E-03-5.21803E-04-1.00121E-15
 -1      1349 9.05286E-04-4.31630E-04-6.67869E-16
 -1      1350 1.27932E-03-5.50583E-04-1.34197E-15
 -1      1351 1.41496E-03-5.74625E-04-1.73367E-15
 -1      1352 1.18770E-03-5.01062E-04-1.26236E-15
 -1      1353 1.55019E-03-5.94992E-04-2.17542E-15
 -1      1354 1.68527E-03-6.12017E-04-2.66727E-15
 -1      1355 1.46462E-03-5.49846E-04-2.05622E-15
 -1      1356 1.82044E-03-6.26330E-04-3.20855E-15
 -1      1357 1.95580E-03-6.38222E-04-3.79951E-15
 -1      1358 1.73928E-03-5.84149E-04-3.04810E-15
 -1      1359 2.09150E-03-6.48094E-04-4.43928E-15
 -1      1360 2.22755E-03-6.56195E-04-5.12730E-15
 -1      1361 2.01356E-03-6.07948E-04-4.23613E-15
 -1      1362 2.36404E-03-6.62800E-04-5.86346E-15
 -1      1363 2.50094E-03-6.68112E-04-6.64724E-15
 -1      1364 2.28843E-03-6.24053E-04-5.61648E-15
 -1      1365 2.63830E-03-6.72325E-04-7.47830E-15
 -1      1366 2.77609E-03-6.75601E-04-8.35524E-15
 -1      1367 2.56439E-03-6.34528E-04-7.18674E-15
 -1      1368 2.91432E-03-6.78077E-04-9.27759E-15
 -1      1369 3.05295E-03-6.79881E-04-1.02458E-14
 -1      1370 2.84161E-03-6.40913E-04-8.94205E-15
 -1      1371 3.19198E-03-6.81107E-04-1.12587E-14
 -1      1372 3.33138E-03-6.81854E-04-1.23150E-14
 -1      1373 3.12012E-03-6.44355E-04-1.08784E-14
 -1      1374 3.47112E-03-6.82185E-04-1.34145E-14
 -1      1375 3.61119E-03-6.82172E-04-1.45574E-14
 -1      1376 3.39986E-03-6.45692E-04-1.29912E-14
 -1      1377 3.75157E-03-6.81858E-04-1.57437E-14
 -1      1378 3.89223E-03-6.81293E-04-1.69717E-14
 -1      1379 3.68072E-03-6.45527E-04-1.52775E-14
 -1      1380 4.03315E-03-6.80501E-04-1.82423E-14
 -1      1381 4.17431E-03-6.79517E-04-1.95559E-14
 -1      1382 3.96257E-03-6.44270E-04-1.77343E-14
 -1      1383 4.31571E-03-6.78352E-04-2.09120E-14
 -1      1384 4.45732E-03-6.77030E-04-2.23108E-14
 -1      1385 4.24533E-03-6.42190E-04-2.03604E-14
 -1      1386 4.59915E-03-6.75548E-04-2.37522E-14
 -1      1387 4.74119E-03-6.73924E-04-2.52367E-14
 -1      1388 4.52889E-03-6.39438E-04-2.31564E-14
 -1      1389 4.88343E-03-6.72149E-04-2.67635E-14
 -1      1390 5.02588E-03-6.70233E-04-2.83315E-14
 -1      1391 4.81323E-03-6.36085E-04-2.61221E-14
 -1      1392 5.16856E-03-6.68162E-04-2.99412E-14
 -1      1393 5.31146E-03-6.65947E-04-3.15920E-14
 -1      1394 5.09835E-03-6.32143E-04-2.92554E-14
 -1      1395 5.45461E-03-6.63572E-04-3.32829E-14
 -1      1396 5.59804E-03-6.61049E-04-3.50143E-14
 -1      1397 5.38432E-03-6.27590E-04-3.25518E-14
 -1      1398 5.74177E-03-6.58364E-04-3.67866E-14
 -1      1399 5.88584E-03-6.55536E-04-3.85994E-14
 -1      1400 5.67128E-03-6.22398E-04-3.60100E-14
 -1      1401 6.03028E-03-6.52557E-04-4.04523E-14
 -1      1402 6.17515E-03-6.49457E-04-4.23438E-14
 -1      1403 5.95943E-03-6.16563E-04-3.96291E-14
 -1      1404 6.32049E-03-6.46240E-04-4.42753E-14
 -1      1405 6.46637E-03-6.42955E-04-4.62446E-14
 -1      1406 6.24906E-03-6.10142E-04-4.34074E-14
 -1      1407 6.61284E-03-6.39625E-04-4.82517E-14
 -1      1408 6.75997E-03-6.36325E-04-5.02960E-14
 -1      1409 6.54053E-03-6.03300E-04-4.73403E-14
 -1      1410 6.90785E-03-6.33106E-04-5.23760E-14
 -1      1411 7.05652E-03-6.30074E-04-5.44920E-14
 -1      1412 6.83427E-03-5.96367E-04-5.14218E-14
 -1      1413 7.20609E-03-6.27326E-04-5.66429E-14
 -1      1414 7.35660E-03-6.25005E-04-5.88247E-14
 -1      1415 7.13075E-03-5.89911E-04-5.56460E-14
 -1      1416 7.50813E-03-6.23263E-04-6.10405E-14
 -1      1417 7.66073E-03-6.22287E-04-6.32882E-14
 -1      1418 7.43048E-03-5.84819E-04-6.00054E-14
 -1      1419 7.81446E-03-6.22299E-04-6.55655E-14
 -1      1420 7.96931E-03-6.23524E-04-6.78725E-14
 -1      1421 7.73388E-03-5.82376E-04-6.44929E-14
 -1      1422 8.12530E-03-6.26262E-04-7.02068E-14
 -1      1423 8.28239E-03-6.30759E-04-7.25697E-14
 -1      1424 8.04122E-03-5.84324E-04-6.90984E-14
 -1      1425 8.44049E-03-6.37383E-04-7.49588E-14
 -1      1426 8.59947E-03-6.46367E-04-7.73720E-14
 -1      1427 8.35248E-03-5.92858E-04-7.38163E-14
 -1      1428 8.75916E-03-6.58099E-04-7.98128E-14
 -1      1429 8.91929E-03-6.72738E-04-8.22799E-14
 -1      1430 8.66717E-03-6.10478E-04-7.86406E-14
 -1      1431 9.07956E-03-6.90591E-04-8.47737E-14
 -1      1432 9.23958E-03-7.11639E-04-8.72955E-14
 -1      1433 8.98415E-03-6.39606E-04-8.35709E-14
 -1      1434 9.39892E-03-7.35953E-04-8.98424E-14
 -1      1435 9.55707E-03-7.63204E-04-9.24142E-14
 -1      1436 9.30149E-03-6.81851E-04-8.86064E-14
 -1      1437 9.71354E-03-7.93022E-04-9.50153E-14
 -1      1438 9.86781E-03-8.24647E-04-9.76406E-14
 -1      1439 9.61647E-03-7.36877E-04-9.37482E-14
 -1      1440 1.00194E-02-8.57101E-04-1.00289E-13
 -1      1441 1.01679E-02-8.89152E-04-1.02963E-13
 -1      1442 9.92589E-03-8.01050E-04-9.89910E-14
 -1      1443 1.03131E-02-9.19224E-04-1.05660E-13
 -1      1444 1.04549E-02-9.45753E-04-1.08376E-13
 -1      1445 1.02267E-02-8.66389E-04-1.04330E-13
 -1      1446 1.05934E-02-9.66878E-04-1.11116E-13
 -1      1447 1.07290E-02-9.81076E-04-1.13877E-13
 -1      1448 1.05172E-02-9.20777E-04-1.09761E-13
 -1      1449 1.08622E-02-9.86784E-04-1.16658E-13
 -1      1450 1.09937E-02-9.83024E-04-1.19463E-13
 -1      1451 1.07979E-02-9.50252E-04-1.15279E-13
 -1      1452 1.11245E-02-9.69152E-04-1.22286E-13
 -1      1453 1.12554E-02-9.45100E-04-1.25131E-13
 -1      1454 1.10722E-02-9.43241E-04-1.20882E-13
 -1      1455 1.13873E-02-9.11417E-04-1.28003E-13
 -1      1456 1.15209E-02-8.68960E-04-1.30897E-13
 -1      1457 1.13453E-02-8.94934E-04-1.26574E-13
 -1      1458 1.16569E-02-8.19216E-04-1.33815E-13
 -1      1459 1.17954E-02-7.63605E-04-1.36757E-13
 -1      1460 1.16226E-02-8.09235E-04-1.32361E-13
 -1      1461 1.19368E-02-7.03937E-04-1.39725E-13
 -1      1462 1.20809E-02-6.41684E-04-1.42716E-13
 -1      1463 1.19075E-02-6.96972E-04-1.38248E-13
 -1      1464 1.22273E-02-5.78363E-04-1.45727E-13
 -1      1465 1.23758E-02-5.15103E-04-1.48759E-13
 -1      1466 1.22006E-02-5.71514E-04-1.44224E-13
 -1      1467 1.25259E-02-4.52790E-04-1.51807E-13
 -1      1468 1.26769E-02-3.92042E-04-1.54870E-13
 -1      1469 1.25001E-02-4.44367E-04-1.50278E-13
 -1      1470 1.28284E-02-3.33080E-04-1.57947E-13
 -1      1471 1.29799E-02-2.76049E-04-1.61040E-13
 -1      1472 1.28028E-02-3.22649E-04-1.56400E-13
 -1      1473 1.31310E-02-2.20658E-04-1.64143E-13
 -1      1474 1.32813E-02-1.66711E-04-1.67253E-13
 -1      1475 1.31055E-02-2.08729E-04-1.62579E-13
 -1      1476 1.34306E-02-1.13621E-04-1.70377E-13
 -1      1477 1.35787E-02-6.10038E-05-1.73509E-13
 -1      1478 1.34058E-02-1.01232E-04-1.68803E-13
 -1      1479 1.37255E-02-8.19871E-06-1.76646E-13
 -1      1480 1.38712E-02 4.52178E-05-1.79789E-13
 -1      1481 1.37020E-02 3.47151E-06-1.75063E-13
 -1      1482 1.40159E-02 9.97423E-05-1.82939E-13
 -1      1483 1.41596E-02 1.55627E-04-1.86093E-13
 -1      1484 1.39938E-02 1.09742E-04-1.81349E-13
 -1      1485 1.43730E-02 2.43126E-04-1.90673E-13
 -1      1486 1.43522E-02 2.51076E-04-1.89079E-13
 -1      1487 6.43075E-04 3.72040E-04-1.47953E-16
 -1      1488 4.92951E-04 3.03710E-04-5.45354E-17
 -1      1489 4.44879E-04 2.65914E-04-9.73207E-17
 -1      1490 9.28650E-04 4.72019E-04-4.84001E-16
 -1      1491 7.87793E-04 4.26521E-04-2.91312E-16
 -1      1492 7.44733E-04 3.90751E-04-3.42283E-16
 -1      1493 1.20353E-03 5.41450E-04-1.01555E-15
 -1      1494 1.06687E-03 5.09766E-04-7.24952E-16
 -1      1495 1.03077E-03 4.76205E-04-7.82577E-16
 -1      1496 1.47405E-03 5.90652E-04-1.74363E-15
 -1      1497 1.33901E-03 5.68192E-04-1.35516E-15
 -1      1498 1.30866E-03 5.36038E-04-1.41627E-15
 -1      1499 1.74355E-03 6.25544E-04-2.66590E-15
 -1      1500 1.60876E-03 6.09646E-04-2.18015E-15
 -1      1501 1.58287E-03 5.78328E-04-2.24301E-15
 -1      1502 2.01371E-03 6.49987E-04-3.78206E-15
 -1      1503 1.87846E-03 6.38900E-04-3.19993E-15
 -1      1504 1.85600E-03 6.08047E-04-3.26227E-15
 -1      1505 2.28534E-03 6.66724E-04-5.08953E-15
 -1      1506 2.14930E-03 6.59189E-04-4.41209E-15
 -1      1507 2.12947E-03 6.28572E-04-4.47297E-15
 -1      1508 2.55875E-03 6.77787E-04-6.58699E-15
 -1      1509 2.42181E-03 6.72865E-04-5.81448E-15
 -1      1510 2.40398E-03 6.42345E-04-5.87348E-15
 -1      1511 2.83400E-03 6.84703E-04-8.27067E-15
 -1      1512 2.69615E-03 6.81687E-04-7.40563E-15
 -1      1513 2.67984E-03 6.51182E-04-7.46076E-15
 -1      1514 3.11100E-03 6.88617E-04-1.01401E-14
 -1      1515 2.97229E-03 6.86979E-04-9.18285E-15
 -1      1516 2.95712E-03 6.56439E-04-9.23380E-15
 -1      1517 3.38957E-03 6.90372E-04-1.21891E-14
 -1      1518 3.25010E-03 6.89723E-04-1.11420E-14
 -1      1519 3.23578E-03 6.59124E-04-1.11880E-14
 -1      1520 3.66953E-03 6.90574E-04-1.44178E-14
 -1      1521 3.52939E-03 6.90638E-04-1.32813E-14
 -1      1522 3.51571E-03 6.59970E-04-1.33210E-14
 -1      1523 3.95069E-03 6.89641E-04-1.68210E-14
 -1      1524 3.80997E-03 6.90229E-04-1.55976E-14
 -1      1525 3.79676E-03 6.59492E-04-1.56302E-14
 -1      1526 4.23288E-03 6.87845E-04-1.93971E-14
 -1      1527 4.09167E-03 6.88839E-04-1.80871E-14
 -1      1528 4.07882E-03 6.58035E-04-1.81125E-14
 -1      1529 4.51599E-03 6.85342E-04-2.21423E-14
 -1      1530 4.37433E-03 6.86675E-04-2.07488E-14
 -1      1531 4.36176E-03 6.55810E-04-2.07665E-14
 -1      1532 4.79994E-03 6.82199E-04-2.50534E-14
 -1      1533 4.65786E-03 6.83847E-04-2.35779E-14
 -1      1534 4.64552E-03 6.52925E-04-2.35880E-14
 -1      1535 5.08472E-03 6.78415E-04-2.81249E-14
 -1      1536 4.94222E-03 6.80386E-04-2.65694E-14
 -1      1537 4.93007E-03 6.49407E-04-2.65729E-14
 -1      1538 5.37042E-03 6.73948E-04-3.13523E-14
 -1      1539 5.22745E-03 6.76267E-04-2.97191E-14
 -1      1540 5.21545E-03 6.45225E-04-2.97151E-14
 -1      1541 5.65719E-03 6.68731E-04-3.47301E-14
 -1      1542 5.51366E-03 6.71432E-04-3.30228E-14
 -1      1543 5.50178E-03 6.40315E-04-3.30105E-14
 -1      1544 5.94532E-03 6.62697E-04-3.82507E-14
 -1      1545 5.80107E-03 6.65810E-04-3.64720E-14
 -1      1546 5.78925E-03 6.34593E-04-3.64529E-14
 -1      1547 6.23523E-03 6.55809E-04-4.19178E-14
 -1      1548 6.09003E-03 6.59346E-04-4.00663E-14
 -1      1549 6.07818E-03 6.27990E-04-4.00417E-14
 -1      1550 6.52748E-03 6.48103E-04-4.57273E-14
 -1      1551 6.38102E-03 6.52033E-04-4.38047E-14
 -1      1552 6.36902E-03 6.20478E-04-4.37745E-14
 -1      1553 6.82286E-03 6.39745E-04-4.96872E-14
 -1      1554 6.67473E-03 6.43963E-04-4.76896E-14
 -1      1555 6.66236E-03 6.12125E-04-4.76522E-14
 -1      1556 7.12239E-03 6.31117E-04-5.37838E-14
 -1      1557 6.97204E-03 6.35397E-04-5.17181E-14
 -1      1558 6.95897E-03 6.03158E-04-5.16720E-14
 -1      1559 7.42733E-03 6.22943E-04-5.80054E-14
 -1      1560 7.27410E-03 6.26868E-04-5.58787E-14
 -1      1561 7.25985E-03 5.94070E-04-5.58262E-14
 -1      1562 7.73924E-03 6.16476E-04-6.23621E-14
 -1      1563 7.58231E-03 6.19339E-04-6.01675E-14
 -1      1564 7.56620E-03 5.85769E-04-6.01116E-14
 -1      1565 8.05994E-03 6.13765E-04-6.68468E-14
 -1      1566 7.89837E-03 6.14425E-04-6.45883E-14
 -1      1567 7.87942E-03 5.79806E-04-6.45270E-14
 -1      1568 8.39132E-03 6.18022E-04-7.14602E-14
 -1      1569 8.22417E-03 6.14710E-04-6.91371E-14
 -1      1570 8.20109E-03 5.78694E-04-6.90698E-14
 -1      1571 8.73512E-03 6.34070E-04-7.61984E-14
 -1      1572 8.56156E-03 6.24164E-04-7.38147E-14
 -1      1573 8.53273E-03 5.86329E-04-7.37402E-14
 -1      1574 9.09227E-03 6.68744E-04-8.10492E-14
 -1      1575 8.91198E-03 6.48592E-04-7.86091E-14
 -1      1576 8.87554E-03 6.08468E-04-7.85294E-14
 -1      1577 9.46193E-03 7.30871E-04-8.60111E-14
 -1      1578 9.27564E-03 6.95894E-04-8.35175E-14
 -1      1579 9.22984E-03 6.53041E-04-8.34316E-14
 -1      1580 9.84024E-03 8.29993E-04-9.10755E-14
 -1      1581 9.65038E-03 7.75532E-04-8.85299E-14
 -1      1582 9.59429E-03 7.29737E-04-8.84402E-14
 -1      1583 1.02191E-02 9.72513E-04-9.62564E-14
 -1      1584 1.00303E-02 8.96132E-04-9.36501E-14
 -1      1585 9.96494E-03 8.47772E-04-9.35565E-14
 -1      1586 1.05863E-02 1.15439E-03-1.01554E-13
 -1      1587 1.04051E-02 1.05987E-03-9.88908E-14
 -1      1588 1.03345E-02 1.01044E-03-9.87874E-14
 -1      1589 1.09287E-02 1.35252E-03-1.06966E-13
 -1      1590 1.07614E-02 1.25396E-03-1.04245E-13
 -1      1591 1.06929E-02 1.20631E-03-1.04133E-13
 -1      1592 1.12395E-02 1.52322E-03-1.12498E-13
 -1      1593 1.10880E-02 1.44432E-03-1.09717E-13
 -1      1594 1.10309E-02 1.40186E-03-1.09596E-13
 -1      1595 1.15258E-02 1.61771E-03-1.18145E-13
 -1      1596 1.13846E-02 1.58187E-03-1.15309E-13
 -1      1597 1.13462E-02 1.54640E-03-1.15175E-13
 -1      1598 1.18082E-02 1.61099E-03-1.23905E-13
 -1      1599 1.16658E-02 1.62638E-03-1.21010E-13
 -1      1600 1.16488E-02 1.59629E-03-1.20864E-13
 -1      1601 1.21087E-02 1.51937E-03-1.29770E-13
 -1      1602 1.19551E-02 1.57299E-03-1.26825E-13
 -1      1603 1.19566E-02 1.54433E-03-1.26665E-13
 -1      1604 1.24375E-02 1.38845E-03-1.35732E-13
 -1      1605 1.22695E-02 1.45566E-03-1.32740E-13
 -1      1606 1.22827E-02 1.42508E-03-1.32570E-13
 -1      1607 1.27900E-02 1.26408E-03-1.41759E-13
 -1      1608 1.26115E-02 1.32347E-03-1.38739E-13
 -1      1609 1.26282E-02 1.28983E-03-1.38559E-13
 -1      1610 1.31537E-02 1.17287E-03-1.47842E-13
 -1      1611 1.29714E-02 1.21379E-03-1.44795E-13
 -1      1612 1.29848E-02 1.17771E-03-1.44611E-13
 -1      1613 1.35153E-02 1.12082E-03-1.53965E-13
 -1      1614 1.33355E-02 1.14233E-03-1.50897E-13
 -1      1615 1.33423E-02 1.10503E-03-1.50710E-13
 -1      1616 1.38657E-02 1.10131E-03-1.60135E-13
 -1      1617 1.36924E-02 1.10775E-03-1.57046E-13
 -1      1618 1.36921E-02 1.07043E-03-1.56856E-13
 -1      1619 1.42001E-02 1.10271E-03-1.66342E-13
 -1      1620 1.40351E-02 1.10018E-03-1.63234E-13
 -1      1621 1.40293E-02 1.06373E-03-1.63039E-13
 -1      1622 1.45177E-02 1.11286E-03-1.72578E-13
 -1      1623 1.43610E-02 1.10737E-03-1.69455E-13
 -1      1624 1.43522E-02 1.07235E-03-1.69256E-13
 -1      1625 1.48204E-02 1.12102E-03-1.78840E-13
 -1      1626 1.46707E-02 1.11772E-03-1.75706E-13
 -1      1627 1.46612E-02 1.08442E-03-1.75501E-13
 -1      1628 1.51121E-02 1.11930E-03-1.85109E-13
 -1      1629 1.49673E-02 1.12162E-03-1.81974E-13
 -1      1630 1.49586E-02 1.09008E-03-1.81767E-13
 -1      1631 1.52633E-02 1.10289E-03-1.88403E-13
 -1      1632 1.53014E-02 1.00112E-03-1.88948E-13
 -1      1633 1.52888E-02 1.04043E-03-1.88833E-13
 -1      1634 1.53340E-02 9.29637E-04-1.89169E-13
 -1      1635 1.53167E-02 9.64030E-04-1.89062E-13
 -1      1636 1.51860E-02 9.87767E-04-1.86286E-13
 -1      1637 1.53697E-02 8.70169E-04-1.89383E-13
 -1      1638 1.53520E-02 8.98279E-04-1.89275E-13
 -1      1639 1.52219E-02 9.18622E-04-1.86507E-13
 -1      1640 1.53989E-02 8.23735E-04-1.89597E-13
 -1      1641 1.53857E-02 8.45351E-04-1.89491E-13
 -1      1642 1.52587E-02 8.60101E-04-1.86721E-13
 -1      1643 1.54118E-02 7.89504E-04-1.89798E-13
 -1      1644 1.54078E-02 8.05363E-04-1.89699E-13
 -1      1645 1.52861E-02 8.12680E-04-1.86929E-13
 -1      1646 1.54014E-02 7.62967E-04-1.89982E-13
 -1      1647 1.54099E-02 7.75457E-04-1.89893E-13
 -1      1648 1.52952E-02 7.74232E-04-1.87122E-13
 -1      1649 1.53632E-02 7.40078E-04-1.90146E-13
 -1      1650 1.53859E-02 7.51382E-04-1.90067E-13
 -1      1651 1.52788E-02 7.41413E-04-1.87299E-13
 -1      1652 1.52968E-02 7.15722E-04-1.90296E-13
 -1      1653 1.53334E-02 7.28383E-04-1.90225E-13
 -1      1654 1.52333E-02 7.10464E-04-1.87458E-13
 -1      1655 1.52054E-02 6.85410E-04-1.90421E-13
 -1      1656 1.52539E-02 7.01539E-04-1.90364E-13
 -1      1657 1.51595E-02 6.77149E-04-1.87601E-13
 -1      1658 1.50950E-02 6.46023E-04-1.90537E-13
 -1      1659 1.51522E-02 6.66978E-04-1.90477E-13
 -1      1660 1.50616E-02 6.37947E-04-1.87724E-13
 -1      1661 1.49745E-02 5.97062E-04-1.90661E-13
 -1      1662 1.50358E-02 6.22836E-04-1.90600E-13
 -1      1663 1.49471E-02 5.91051E-04-1.87839E-13
 -1      1664 1.48460E-02 5.36953E-04-1.90770E-13
 -1      1665 1.49106E-02 5.68251E-04-1.90720E-13
 -1      1666 1.48222E-02 5.35359E-04-1.87952E-13
 -1      1667 1.47170E-02 4.67716E-04-1.90838E-13
 -1      1668 1.47813E-02 5.03367E-04-1.90809E-13
 -1      1669 1.46919E-02 4.70666E-04-1.88042E-13
 -1      1670 1.45912E-02 3.91344E-04-1.90880E-13
 -1      1671 1.46535E-02 4.30275E-04-1.90862E-13
 -1      1672 1.45624E-02 3.98632E-04-1.88106E-13
 -1      1673 1.44409E-02 3.01215E-04-1.89987E-13
 -1      1674 1.45006E-02 3.42086E-04-1.89967E-13
 -1      1675 1.44077E-02 3.12193E-04-1.87222E-13
 -1      1676 1.42271E-02 2.14257E-04-1.85407E-13
 -1      1677 1.36609E-02 5.06638E-04-1.34572E-13
 -1      1678 1.36846E-02 4.59316E-04-1.34755E-13
 -1      1679 1.35109E-02 6.27072E-04-1.33611E-13
 -1      1680 1.35966E-02 5.69748E-04-1.34097E-13
 -1      1681 1.32344E-02 7.78004E-04-1.32035E-13
 -1      1682 1.33773E-02 7.03523E-04-1.32846E-13
 -1      1683 1.28567E-02 9.51452E-04-1.29973E-13
 -1      1684 1.30359E-02 8.64173E-04-1.31047E-13
 -1      1685 1.24645E-02 1.13565E-03-1.27372E-13
 -1      1686 1.26464E-02 1.05471E-03-1.28565E-13
 -1      1687 1.20749E-02 1.28197E-03-1.24575E-13
 -1      1688 1.22562E-02 1.22082E-03-1.25867E-13
 -1      1689 1.16911E-02 1.36207E-03-1.21714E-13
 -1      1690 1.18664E-02 1.33444E-03-1.23038E-13
 -1      1691 1.12834E-02 1.35687E-03-1.18581E-13
 -1      1692 1.14741E-02 1.37445E-03-1.20059E-13
 -1      1693 1.08656E-02 1.24345E-03-1.15440E-13
 -1      1694 1.10575E-02 1.30824E-03-1.16836E-13
 -1      1695 1.04471E-02 1.06942E-03-1.12878E-13
 -1      1696 1.06289E-02 1.15339E-03-1.14019E-13
 -1      1697 1.00302E-02 8.41052E-04-1.10271E-13
 -1      1698 1.02343E-02 9.48752E-04-1.11396E-13
 -1      1699 9.63646E-03 6.46225E-04-1.08450E-13
 -1      1700 9.80098E-03 7.33229E-04-1.09239E-13
 -1      1701 9.33278E-03 4.87809E-04-1.07186E-13
 -1      1702 9.46062E-03 5.58709E-04-1.07730E-13
 -1      1703 9.13226E-03 3.48582E-04-1.06267E-13
 -1      1704 9.21104E-03 4.04938E-04-1.06554E-13
 -1      1705 9.07347E-03 2.50601E-04-1.06249E-13
 -1      1706 9.08350E-03 2.94452E-04-1.06246E-13
 -1      1707 9.14561E-03 1.50338E-04-1.06678E-13
 -1      1708 9.09574E-03 1.97800E-04-1.06408E-13
 -1      1709 9.34864E-03 3.30225E-05-1.07660E-13
 -1      1710 9.23920E-03 9.15648E-05-1.07099E-13
 -1      1711 9.63408E-03-1.09750E-04-1.09250E-13
 -1      1712 9.49458E-03-4.39232E-05-1.08496E-13
 -1      1713 9.98288E-03-2.67613E-04-1.11273E-13
 -1      1714 9.81419E-03-1.92545E-04-1.10275E-13
 -1      1715 1.03540E-02-4.19201E-04-1.13643E-13
 -1      1716 1.01826E-02-3.51572E-04-1.12518E-13
 -1      1717 1.07483E-02-5.43330E-04-1.16340E-13
 -1      1718 1.05699E-02-4.89942E-04-1.15025E-13
 -1      1719 1.11057E-02-6.01391E-04-1.19153E-13
 -1      1720 1.09435E-02-5.82786E-04-1.17898E-13
 -1      1721 1.14729E-02-5.88833E-04-1.22038E-13
 -1      1722 1.13017E-02-6.05368E-04-1.20689E-13
 -1      1723 1.18579E-02-4.95751E-04-1.25011E-13
 -1      1724 1.16782E-02-5.49165E-04-1.23661E-13
 -1      1725 1.22500E-02-3.45106E-04-1.27665E-13
 -1      1726 1.20738E-02-4.19113E-04-1.26488E-13
 -1      1727 1.26469E-02-1.68088E-04-1.29995E-13
 -1      1728 1.24663E-02-2.53404E-04-1.28940E-13
 -1      1729 1.30155E-02 1.11946E-05-1.31961E-13
 -1      1730 1.28498E-02-7.01047E-05-1.31112E-13
 -1      1731 1.33359E-02 1.71818E-04-1.33465E-13
 -1      1732 1.31955E-02 1.00363E-04-1.32832E-13
 -1      1733 1.35615E-02 3.00513E-04-1.34385E-13
 -1      1734 1.34708E-02 2.45435E-04-1.34038E-13
 -1      1735 1.36741E-02 4.05174E-04-1.34727E-13
 -1      1736 1.36366E-02 3.59275E-04-1.34641E-13
 -1      1737 1.26946E-02 9.63830E-04-1.30060E-13
 -1      1738 1.30923E-02 7.69717E-04-1.32467E-13
 -1      1739 1.52560E-02 1.07258E-03-1.88198E-13
 -1      1740 1.51367E-02 1.05676E-03-1.85536E-13
 -1      1741 1.36325E-02 5.12117E-04-1.35476E-13
 -1      1742 1.34269E-02 6.19189E-04-1.34228E-13
 -1      1743 1.36897E-02 4.39594E-04-1.35928E-13
 -1      1744 1.23023E-02 1.16657E-03-1.27137E-13
 -1      1745 1.19306E-02 1.32095E-03-1.24087E-13
 -1      1746 1.15673E-02 1.39600E-03-1.20888E-13
 -1      1747 1.12024E-02 1.35658E-03-1.17486E-13
 -1      1748 1.08179E-02 1.20123E-03-1.14326E-13
 -1      1749 1.04043E-02 9.76307E-04-1.11432E-13
 -1      1750 9.98492E-03 7.35329E-04-1.08934E-13
 -1      1751 9.58646E-03 5.41356E-04-1.07195E-13
 -1      1752 9.28155E-03 3.92763E-04-1.05853E-13
 -1      1753 9.10277E-03 2.99299E-04-1.05209E-13
 -1      1754 9.07586E-03 2.31135E-04-1.05351E-13
 -1      1755 9.19600E-03 1.54808E-04-1.05928E-13
 -1      1756 9.44349E-03 4.57804E-05-1.07175E-13
 -1      1757 9.77173E-03-1.04972E-04-1.09025E-13
 -1      1758 1.01392E-02-2.78883E-04-1.11280E-13
 -1      1759 1.05215E-02-4.49567E-04-1.13896E-13
 -1      1760 1.08740E-02-5.78593E-04-1.16826E-13
 -1      1761 1.12097E-02-6.29742E-04-1.19916E-13
 -1      1762 1.15448E-02-5.90136E-04-1.23074E-13
 -1      1763 1.19014E-02-4.59224E-04-1.26182E-13
 -1      1764 1.22881E-02-2.73128E-04-1.28944E-13
 -1      1765 1.26851E-02-7.07449E-05-1.31347E-13
 -1      1766 1.30637E-02 1.16352E-04-1.33348E-13
 -1      1767 1.33839E-02 2.63219E-04-1.34804E-13
 -1      1768 1.36005E-02 3.65270E-04-1.35642E-13
 -1      1769 2.85238E-04-1.76243E-04-6.18131E-17
 -1      1770 3.32193E-04-1.16795E-04-2.40368E-16
 -1      1771 3.36328E-04-1.33041E-04-2.22844E-16
 -1      1772 3.42206E-04-1.52028E-04-2.01946E-16
 -1      1773 3.51757E-04-1.74029E-04-1.73228E-16
 -1      1774 4.58329E-04-1.88103E-04-3.23024E-16
 -1      1775 3.24570E-04-6.53952E-05-2.78830E-16
 -1      1776 3.25704E-04-7.66952E-05-2.72555E-16
 -1      1777 3.23082E-04-4.38991E-05-2.87341E-16
 -1      1778 3.23733E-04-5.43912E-05-2.83573E-16
 -1      1779 4.36520E-04-7.93009E-05-4.15548E-16
 -1      1780 3.22303E-04-2.37759E-05-2.91867E-16
 -1      1781 3.22633E-04-3.36922E-05-2.89929E-16
 -1      1782 4.34529E-04-5.13263E-05-4.25875E-16
 -1      1783 3.22011E-04-4.33605E-06-2.93060E-16
 -1      1784 3.22107E-04-1.39910E-05-2.92897E-16
 -1      1785 4.33514E-04-2.49266E-05-4.30862E-16
 -1      1786 3.22131E-04 1.49865E-05-2.91068E-16
 -1      1787 3.22018E-04 5.32189E-06-2.92491E-16
 -1      1788 4.33217E-04 7.60415E-07-4.31445E-16
 -1      1789 3.22693E-04 3.47394E-05-2.86270E-16
 -1      1790 3.22344E-04 2.47916E-05-2.89048E-16
 -1      1791 4.33570E-04 2.64753E-05-4.27650E-16
 -1      1792 3.23817E-04 5.51798E-05-2.77502E-16
 -1      1793 3.23157E-04 4.48158E-05-2.82584E-16
 -1      1794 4.34640E-04 5.27351E-05-4.19478E-16
 -1      1795 3.25867E-04 7.78328E-05-2.63963E-16
 -1      1796 3.24672E-04 6.62512E-05-2.71660E-16
 -1      1797 4.36687E-04 8.06182E-05-4.05912E-16
 -1      1798 3.29548E-04 1.03671E-04-2.42292E-16
 -1      1799 3.27403E-04 9.03208E-05-2.54584E-16
 -1      1800 4.40325E-04 1.11590E-04-3.84580E-16
 -1      1801 3.36575E-04 1.35128E-04-2.08302E-16
 -1      1802 3.32396E-04 1.18630E-04-2.27547E-16
 -1      1803 4.46784E-04 1.47359E-04-3.51376E-16
 -1      1804 3.52295E-04 1.77619E-04-1.55962E-16
 -1      1805 3.42803E-04 1.54775E-04-1.85521E-16
 -1      1806 4.59309E-04 1.91479E-04-3.00975E-16
 -1      1807 4.07693E-04 2.33701E-04-1.20279E-16
 -1      1808 3.78083E-04 2.02677E-04-1.44090E-16
 -1      1809 4.95846E-04 2.44016E-04-2.56048E-16
 -1      1810 5.58538E-04 3.02525E-04-2.20459E-16
 -1      1811 3.40017E-04-1.90924E-04-1.19547E-16
 -1      1812 8.53552E-04 4.07148E-04-5.68718E-16
 -1      1813 7.07152E-04 3.59403E-04-3.70797E-16
 -1      1814 6.73388E-04 3.28836E-04-3.93498E-16
 -1      1815 4.58947E-04-2.36738E-04-2.23373E-16
 -1      1816 8.07212E-04-3.74143E-04-6.17833E-16
 -1      1817 9.52473E-04-4.15327E-04-8.73338E-16
 -1      1818 1.09531E-03-4.50014E-04-1.17743E-15
 -1      1819 1.23698E-03-4.78913E-04-1.53100E-15
 -1      1820 1.00390E-03-3.97941E-04-1.08787E-15
 -1      1821 1.37737E-03-5.03401E-04-1.93325E-15
 -1      1822 1.51706E-03-5.23771E-04-2.38493E-15
 -1      1823 1.28959E-03-4.55914E-04-1.80700E-15
 -1      1824 1.65621E-03-5.40946E-04-2.88502E-15
 -1      1825 1.79504E-03-5.55160E-04-3.43394E-15
 -1      1826 1.57198E-03-4.96858E-04-2.71936E-15
 -1      1827 1.93375E-03-5.67021E-04-4.03090E-15
 -1      1828 2.07239E-03-5.76735E-04-4.67623E-15
 -1      1829 1.85258E-03-5.25381E-04-3.82471E-15
 -1      1830 2.21113E-03-5.84718E-04-5.36908E-15
 -1      1831 2.34995E-03-5.91139E-04-6.10850E-15
 -1      1832 2.13246E-03-5.44818E-04-5.12067E-15
 -1      1833 2.48898E-03-5.96293E-04-6.89525E-15
 -1      1834 2.62817E-03-6.00319E-04-7.72846E-15
 -1      1835 2.41230E-03-5.57618E-04-6.60412E-15
 -1      1836 2.76762E-03-6.03426E-04-8.60721E-15
 -1      1837 2.90727E-03-6.05725E-04-9.53061E-15
 -1      1838 2.69251E-03-5.65600E-04-8.27216E-15
 -1      1839 3.04719E-03-6.07365E-04-1.04998E-14
 -1      1840 3.18732E-03-6.08431E-04-1.15128E-14
 -1      1841 2.97328E-03-5.70116E-04-1.01219E-14
 -1      1842 3.32771E-03-6.09027E-04-1.25691E-14
 -1      1843 3.46830E-03-6.09217E-04-1.36694E-14
 -1      1844 3.25473E-03-5.72166E-04-1.21485E-14
 -1      1845 3.60913E-03-6.09070E-04-1.48127E-14
 -1      1846 3.75016E-03-6.08633E-04-1.59986E-14
 -1      1847 3.53685E-03-5.72467E-04-1.43489E-14
 -1      1848 3.89140E-03-6.07950E-04-1.72265E-14
 -1      1849 4.03282E-03-6.07052E-04-1.84970E-14
 -1      1850 3.81963E-03-5.71521E-04-1.67203E-14
 -1      1851 4.17443E-03-6.05963E-04-1.98101E-14
 -1      1852 4.31621E-03-6.04705E-04-2.11655E-14
 -1      1853 4.10304E-03-5.69659E-04-1.92615E-14
 -1      1854 4.45818E-03-6.03285E-04-2.25624E-14
 -1      1855 4.60031E-03-6.01718E-04-2.40016E-14
 -1      1856 4.38704E-03-5.67081E-04-2.19703E-14
 -1      1857 4.74261E-03-5.99999E-04-2.54838E-14
 -1      1858 4.88508E-03-5.98138E-04-2.70076E-14
 -1      1859 4.67161E-03-5.63887E-04-2.48479E-14
 -1      1860 5.02773E-03-5.96123E-04-2.85716E-14
 -1      1861 5.17057E-03-5.93960E-04-3.01771E-14
 -1      1862 4.95676E-03-5.60103E-04-2.78914E-14
 -1      1863 5.31360E-03-5.91634E-04-3.18247E-14
 -1      1864 5.45685E-03-5.89152E-04-3.35108E-14
 -1      1865 5.24254E-03-5.55710E-04-3.10989E-14
 -1      1866 5.60032E-03-5.86496E-04-3.52377E-14
 -1      1867 5.74406E-03-5.83678E-04-3.70047E-14
 -1      1868 5.52902E-03-5.50666E-04-3.44691E-14
 -1      1869 5.88806E-03-5.80687E-04-3.88111E-14
 -1      1870 6.03239E-03-5.77538E-04-4.06579E-14
 -1      1871 5.81633E-03-5.44933E-04-3.79974E-14
 -1      1872 6.17705E-03-5.74233E-04-4.25441E-14
 -1      1873 6.32211E-03-5.70800E-04-4.44692E-14
 -1      1874 6.10467E-03-5.38515E-04-4.16850E-14
 -1      1875 6.46758E-03-5.67258E-04-4.64328E-14
 -1      1876 6.61354E-03-5.63652E-04-4.84337E-14
 -1      1877 6.39425E-03-5.31493E-04-4.55296E-14
 -1      1878 6.76000E-03-5.60032E-04-5.04713E-14
 -1      1879 6.90707E-03-5.56466E-04-5.25452E-14
 -1      1880 6.68536E-03-5.24084E-04-4.95257E-14
 -1      1881 7.05473E-03-5.53046E-04-5.46542E-14
 -1      1882 7.20310E-03-5.49872E-04-5.67977E-14
 -1      1883 6.97836E-03-5.16700E-04-5.36666E-14
 -1      1884 7.35219E-03-5.47090E-04-5.89745E-14
 -1      1885 7.50209E-03-5.44839E-04-6.11818E-14
 -1      1886 7.27361E-03-5.10030E-04-5.79464E-14
 -1      1887 7.65280E-03-5.43337E-04-6.34226E-14
 -1      1888 7.80439E-03-5.42764E-04-6.56937E-14
 -1      1889 7.57153E-03-5.05127E-04-6.23565E-14
 -1      1890 7.95688E-03-5.43417E-04-6.79936E-14
 -1      1891 8.11028E-03-5.45519E-04-7.03217E-14
 -1      1892 7.87250E-03-5.03484E-04-6.68914E-14
 -1      1893 8.26462E-03-5.49437E-04-7.26783E-14
 -1      1894 8.41978E-03-5.55427E-04-7.50612E-14
 -1      1895 8.17686E-03-5.07087E-04-7.15439E-14
 -1      1896 8.57586E-03-5.63893E-04-7.74712E-14
 -1      1897 8.73257E-03-5.75088E-04-7.99071E-14
 -1      1898 8.48482E-03-5.18372E-04-7.63046E-14
 -1      1899 8.89003E-03-5.89374E-04-8.23708E-14
 -1      1900 9.04777E-03-6.06931E-04-8.48602E-14
 -1      1901 8.79630E-03-5.40018E-04-8.11731E-14
 -1      1902 9.20596E-03-6.27939E-04-8.73759E-14
 -1      1903 9.36387E-03-6.52387E-04-8.99168E-14
 -1      1904 9.11083E-03-5.74456E-04-8.61478E-14
 -1      1905 9.52171E-03-6.80085E-04-9.24833E-14
 -1      1906 9.67860E-03-7.10659E-04-9.50780E-14
 -1      1907 9.42724E-03-6.22964E-04-9.12247E-14
 -1      1908 9.83470E-03-7.43354E-04-9.76958E-14
 -1      1909 9.98914E-03-7.77274E-04-1.00337E-13
 -1      1910 9.74353E-03-6.84316E-04-9.64044E-14
 -1      1911 1.01420E-02-8.11006E-04-1.03006E-13
 -1      1912 1.02927E-02-8.43091E-04-1.05696E-13
 -1      1913 1.00569E-02-7.53217E-04-1.01683E-13
 -1      1914 1.04411E-02-8.71614E-04-1.08408E-13
 -1      1915 1.05875E-02-8.94794E-04-1.11143E-13
 -1      1916 1.03641E-02-8.19285E-04-1.07059E-13
 -1      1917 1.07315E-02-9.10695E-04-1.13902E-13
 -1      1918 1.08742E-02-9.17784E-04-1.16681E-13
 -1      1919 1.06634E-02-8.67841E-04-1.12526E-13
 -1      1920 1.10152E-02-9.14797E-04-1.19480E-13
 -1      1921 1.11562E-02-9.01080E-04-1.22303E-13
 -1      1922 1.09554E-02-8.83573E-04-1.18080E-13
 -1      1923 1.12967E-02-8.76575E-04-1.25147E-13
 -1      1924 1.14384E-02-8.41807E-04-1.28018E-13
 -1      1925 1.12439E-02-8.56266E-04-1.23724E-13
 -1      1926 1.15810E-02-7.97937E-04-1.30913E-13
 -1      1927 1.17254E-02-7.46405E-04-1.33828E-13
 -1      1928 1.15342E-02-7.85401E-04-1.29460E-13
 -1      1929 1.18715E-02-6.89066E-04-1.36770E-13
 -1      1930 1.20194E-02-6.27638E-04-1.39735E-13
 -1      1931 1.18302E-02-6.80307E-04-1.35295E-13
 -1      1932 1.21689E-02-5.63963E-04-1.42721E-13
 -1      1933 1.23197E-02-4.99444E-04-1.45730E-13
 -1      1934 1.21328E-02-5.55684E-04-1.41222E-13
 -1      1935 1.24716E-02-4.35399E-04-1.48754E-13
 -1      1936 1.26238E-02-3.72633E-04-1.51796E-13
 -1      1937 1.24401E-02-4.25734E-04-1.47232E-13
 -1      1938 1.27765E-02-3.11752E-04-1.54859E-13
 -1      1939 1.29288E-02-2.52999E-04-1.57932E-13
 -1      1940 1.27489E-02-3.00195E-04-1.53316E-13
 -1      1941 1.30809E-02-1.96345E-04-1.61016E-13
 -1      1942 1.32321E-02-1.41617E-04-1.64117E-13
 -1      1943 1.30563E-02-1.83332E-04-1.59461E-13
 -1      1944 1.33825E-02-8.83594E-05-1.67230E-13
 -1      1945 1.35317E-02-3.61594E-05-1.70350E-13
 -1      1946 1.33600E-02-7.48739E-05-1.65655E-13
 -1      1947 1.36800E-02 1.56321E-05-1.73481E-13
 -1      1948 1.38270E-02 6.75254E-05-1.76618E-13
 -1      1949 1.36592E-02 2.83983E-05-1.71898E-13
 -1      1950 1.39554E-02 1.12920E-04-1.79433E-13
 -1      1951 1.41004E-02 1.66597E-04-1.82582E-13
 -1      1952 1.41907E-02 2.15683E-04-1.83485E-13
 -1      1953 1.39357E-02 1.23948E-04-1.77845E-13
 -1      1954 1.13859E-03 4.80118E-04-1.10599E-15
 -1      1955 9.96828E-04 4.46865E-04-8.13287E-16
 -1      1956 9.64448E-04 4.17411E-04-8.38034E-16
 -1      1957 1.41769E-03 5.31599E-04-1.83542E-15
 -1      1958 1.27854E-03 5.08152E-04-1.44658E-15
 -1      1959 1.24891E-03 4.80016E-04-1.47130E-15
 -1      1960 1.69405E-03 5.67883E-04-2.75583E-15
 -1      1961 1.55603E-03 5.51396E-04-2.27176E-15
 -1      1962 1.52916E-03 5.24226E-04-2.29466E-15
 -1      1963 1.96958E-03 5.93143E-04-3.86717E-15
 -1      1964 1.83182E-03 5.81721E-04-3.28769E-15
 -1      1965 1.80738E-03 5.55191E-04-3.30798E-15
 -1      1966 2.24538E-03 6.10330E-04-5.16842E-15
 -1      1967 2.10741E-03 6.02621E-04-4.49414E-15
 -1      1968 2.08497E-03 5.76498E-04-4.51000E-15
 -1      1969 2.52200E-03 6.21608E-04-6.65666E-15
 -1      1970 2.38357E-03 6.16614E-04-5.88910E-15
 -1      1971 2.36276E-03 5.90741E-04-5.89978E-15
 -1      1972 2.79969E-03 6.28595E-04-8.33045E-15
 -1      1973 2.66070E-03 6.25569E-04-7.47044E-15
 -1      1974 2.64118E-03 5.99840E-04-7.47477E-15
 -1      1975 3.07853E-03 6.32492E-04-1.01875E-14
 -1      1976 2.93897E-03 6.30879E-04-9.23617E-15
 -1      1977 2.92045E-03 6.05225E-04-9.23387E-15
 -1      1978 3.35849E-03 6.34181E-04-1.22232E-14
 -1      1979 3.21837E-03 6.33576E-04-1.11834E-14
 -1      1980 3.20065E-03 6.07953E-04-1.11734E-14
 -1      1981 3.63949E-03 6.34295E-04-1.44363E-14
 -1      1982 3.49887E-03 6.34410E-04-1.33079E-14
 -1      1983 3.48175E-03 6.08791E-04-1.32901E-14
 -1      1984 3.92143E-03 6.33268E-04-1.68236E-14
 -1      1985 3.78035E-03 6.33908E-04-1.56082E-14
 -1      1986 3.76370E-03 6.08279E-04-1.55819E-14
 -1      1987 4.20423E-03 6.31380E-04-1.93836E-14
 -1      1988 4.06273E-03 6.32422E-04-1.80821E-14
 -1      1989 4.04643E-03 6.06776E-04-1.80469E-14
 -1      1990 4.48780E-03 6.28790E-04-2.21125E-14
 -1      1991 4.34592E-03 6.30168E-04-2.07274E-14
 -1      1992 4.32989E-03 6.04504E-04-2.06836E-14
 -1      1993 4.77211E-03 6.25562E-04-2.50078E-14
 -1      1994 4.62987E-03 6.27254E-04-2.35395E-14
 -1      1995 4.61403E-03 6.01572E-04-2.34873E-14
 -1      1996 5.05718E-03 6.21692E-04-2.80629E-14
 -1      1997 4.91455E-03 6.23708E-04-2.65160E-14
 -1      1998 4.89886E-03 5.98010E-04-2.64548E-14
 -1      1999 5.34308E-03 6.17124E-04-3.12725E-14
 -1      2000 5.20002E-03 6.19497E-04-2.96480E-14
 -1      2001 5.18440E-03 5.93781E-04-2.95784E-14
 -1      2002 5.62994E-03 6.11776E-04-3.46341E-14
 -1      2003 5.48638E-03 6.14548E-04-3.29346E-14
 -1      2004 5.47076E-03 5.88811E-04-3.28552E-14
 -1      2005 5.91801E-03 6.05559E-04-3.81414E-14
 -1      2006 5.77381E-03 6.08774E-04-3.63700E-14
 -1      2007 5.75810E-03 5.83004E-04-3.62822E-14
 -1      2008 6.20761E-03 5.98406E-04-4.17960E-14
 -1      2009 6.06259E-03 6.02092E-04-3.99502E-14
 -1      2010 6.04667E-03 5.76271E-04-3.98558E-14
 -1      2011 6.49920E-03 5.90314E-04-4.55918E-14
 -1      2012 6.35312E-03 5.94462E-04-4.36770E-14
 -1      2013 6.33680E-03 5.68559E-04-4.35739E-14
 -1      2014 6.79338E-03 5.81396E-04-4.95338E-14
 -1      2015 6.64592E-03 5.85930E-04-4.75455E-14
 -1      2016 6.62895E-03 5.59895E-04-4.74357E-14
 -1      2017 7.09091E-03 5.71965E-04-5.36138E-14
 -1      2018 6.94166E-03 5.76698E-04-5.15550E-14
 -1      2019 6.92369E-03 5.50457E-04-5.14369E-14
 -1      2020 7.39273E-03 5.62656E-04-5.78251E-14
 -1      2021 7.24120E-03 5.67220E-04-5.57035E-14
 -1      2022 7.22174E-03 5.40667E-04-5.55763E-14
 -1      2023 7.69995E-03 5.54606E-04-6.21696E-14
 -1      2024 7.54556E-03 5.58358E-04-5.99810E-14
 -1      2025 7.52395E-03 5.31336E-04-5.98478E-14
 -1      2026 8.01386E-03 5.49719E-04-6.66427E-14
 -1      2027 7.85595E-03 5.51594E-04-6.43907E-14
 -1      2028 7.83133E-03 5.23878E-04-6.42506E-14
 -1      2029 8.33582E-03 5.51034E-04-7.12425E-14
 -1      2030 8.17370E-03 5.49350E-04-6.89268E-14
 -1      2031 8.14502E-03 5.20614E-04-6.87802E-14
 -1      2032 8.66709E-03 5.63185E-04-7.59662E-14
 -1      2033 8.50017E-03 5.55405E-04-7.35882E-14
 -1      2034 8.46621E-03 5.25182E-04-7.34347E-14
 -1      2035 9.00865E-03 5.92863E-04-8.08045E-14
 -1      2036 8.83653E-03 5.75375E-04-7.83717E-14
 -1      2037 8.79609E-03 5.43019E-04-7.82109E-14
 -1      2038 9.36067E-03 6.48951E-04-8.57556E-14
 -1      2039 9.18343E-03 6.17072E-04-8.32663E-14
 -1      2040 9.13572E-03 5.81758E-04-8.31003E-14
 -1      2041 9.72198E-03 7.41593E-04-9.08122E-14
 -1      2042 9.54049E-03 6.90235E-04-8.82711E-14
 -1      2043 9.48570E-03 6.51107E-04-8.80978E-14
 -1      2044 1.00891E-02 8.78863E-04-9.59767E-14
 -1      2045 9.90549E-03 8.04577E-04-9.33800E-14
 -1      2046 9.84559E-03 7.61234E-04-9.32013E-14
 -1      2047 1.04555E-02 1.05983E-03-1.01258E-13
 -1      2048 1.02734E-02 9.64826E-04-9.86026E-14
 -1      2049 1.02126E-02 9.18269E-04-9.84154E-14
 -1      2050 1.08116E-02 1.26437E-03-1.06651E-13
 -1      2051 1.06358E-02 1.16149E-03-1.03940E-13
 -1      2052 1.05798E-02 1.11518E-03-1.03743E-13
 -1      2053 1.11494E-02 1.44867E-03-1.12158E-13
 -1      2054 1.09830E-02 1.36237E-03-1.09389E-13
 -1      2055 1.09369E-02 1.32147E-03-1.09182E-13
 -1      2056 1.14692E-02 1.55787E-03-1.17782E-13
 -1      2057 1.13103E-02 1.51507E-03-1.14957E-13
 -1      2058 1.12761E-02 1.48328E-03-1.14737E-13
 -1      2059 1.17843E-02 1.55923E-03-1.23518E-13
 -1      2060 1.16253E-02 1.57161E-03-1.20636E-13
 -1      2061 1.16019E-02 1.54733E-03-1.20404E-13
 -1      2062 1.21108E-02 1.46705E-03-1.29359E-13
 -1      2063 1.19450E-02 1.52192E-03-1.26426E-13
 -1      2064 1.19308E-02 1.49958E-03-1.26184E-13
 -1      2065 1.24546E-02 1.33077E-03-1.35301E-13
 -1      2066 1.22807E-02 1.40112E-03-1.32319E-13
 -1      2067 1.22752E-02 1.37644E-03-1.32068E-13
 -1      2068 1.28099E-02 1.20089E-03-1.41316E-13
 -1      2069 1.26317E-02 1.26309E-03-1.38299E-13
 -1      2070 1.26327E-02 1.23523E-03-1.38041E-13
 -1      2071 1.31669E-02 1.10615E-03-1.47389E-13
 -1      2072 1.29891E-02 1.14870E-03-1.44345E-13
 -1      2073 1.29930E-02 1.11880E-03-1.44081E-13
 -1      2074 1.35178E-02 1.05282E-03-1.53508E-13
 -1      2075 1.33438E-02 1.07474E-03-1.50444E-13
 -1      2076 1.33468E-02 1.04408E-03-1.50174E-13
 -1      2077 1.38576E-02 1.03390E-03-1.59669E-13
 -1      2078 1.36894E-02 1.03981E-03-1.56584E-13
 -1      2079 1.36894E-02 1.00923E-03-1.56312E-13
 -1      2080 1.41845E-02 1.03725E-03-1.65865E-13
 -1      2081 1.40228E-02 1.03355E-03-1.62762E-13
 -1      2082 1.40193E-02 1.00361E-03-1.62486E-13
 -1      2083 1.44984E-02 1.05027E-03-1.72095E-13
 -1      2084 1.43431E-02 1.04320E-03-1.68978E-13
 -1      2085 1.43368E-02 1.01435E-03-1.68697E-13
 -1      2086 1.48008E-02 1.06185E-03-1.78349E-13
 -1      2087 1.46509E-02 1.05677E-03-1.75219E-13
 -1      2088 1.46429E-02 1.02940E-03-1.74937E-13
 -1      2089 1.50429E-02 1.06113E-03-1.83509E-13
 -1      2090 1.48968E-02 1.06077E-03-1.80374E-13
 -1      2091 1.48883E-02 1.03489E-03-1.80091E-13
 -1      2092 1.50777E-02 1.03034E-03-1.84144E-13
 -1      2093 1.51478E-02 8.43871E-04-1.84062E-13
 -1      2094 1.51298E-02 8.71949E-04-1.83956E-13
 -1      2095 1.51102E-02 9.02446E-04-1.83847E-13
 -1      2096 1.50902E-02 9.35346E-04-1.83739E-13
 -1      2097 1.49991E-02 8.82013E-04-1.81189E-13
 -1      2098 1.50909E-02 9.63008E-04-1.83999E-13
 -1      2099 1.50735E-02 9.99875E-04-1.83885E-13
 -1      2100 1.49795E-02 1.00212E-03-1.81858E-13
 -1      2101 1.49772E-02 9.42879E-04-1.81339E-13
 -1      2102 1.51730E-02 7.95289E-04-1.84263E-13
 -1      2103 1.51624E-02 8.18610E-04-1.84163E-13
 -1      2104 1.50367E-02 8.23498E-04-1.81401E-13
 -1      2105 1.51776E-02 7.53228E-04-1.84451E-13
 -1      2106 1.51784E-02 7.73618E-04-1.84360E-13
 -1      2107 1.50597E-02 7.73117E-04-1.81597E-13
 -1      2108 1.51545E-02 7.15466E-04-1.84619E-13
 -1      2109 1.51698E-02 7.34182E-04-1.84538E-13
 -1      2110 1.50590E-02 7.28489E-04-1.81778E-13
 -1      2111 1.51013E-02 6.78166E-04-1.84775E-13
 -1      2112 1.51317E-02 6.97137E-04-1.84698E-13
 -1      2113 1.50286E-02 6.86789E-04-1.81942E-13
 -1      2114 1.50199E-02 6.37610E-04-1.84912E-13
 -1      2115 1.50639E-02 6.58602E-04-1.84843E-13
 -1      2116 1.49673E-02 6.44225E-04-1.82089E-13
 -1      2117 1.49155E-02 5.90968E-04-1.85031E-13
 -1      2118 1.49702E-02 6.15235E-04-1.84974E-13
 -1      2119 1.48781E-02 5.97405E-04-1.82221E-13
 -1      2120 1.47973E-02 5.37700E-04-1.85141E-13
 -1      2121 1.48580E-02 5.65304E-04-1.85085E-13
 -1      2122 1.47683E-02 5.44567E-04-1.82338E-13
 -1      2123 1.46684E-02 4.75724E-04-1.85241E-13
 -1      2124 1.47336E-02 5.07641E-04-1.85193E-13
 -1      2125 1.46446E-02 4.84524E-04-1.82439E-13
 -1      2126 1.45368E-02 4.06606E-04-1.85320E-13
 -1      2127 1.46026E-02 4.41939E-04-1.85282E-13
 -1      2128 1.45131E-02 4.17018E-04-1.82528E-13
 -1      2129 1.44072E-02 3.31579E-04-1.85379E-13
 -1      2130 1.44715E-02 3.69687E-04-1.85351E-13
 -1      2131 1.43806E-02 3.43592E-04-1.82600E-13
 -1      2132 1.33429E-02 6.13040E-04-1.35080E-13
 -1      2133 1.34799E-02 5.59663E-04-1.35853E-13
 -1      2134 1.36973E-02 4.54193E-04-1.37246E-13
 -1      2135 1.36869E-02 4.35347E-04-1.37219E-13
 -1      2136 1.35951E-02 5.09588E-04-1.36808E-13
 -1      2137 1.36641E-02 4.82937E-04-1.37290E-13
 -1      2138 1.29813E-02 7.73133E-04-1.33042E-13
 -1      2139 1.31682E-02 6.89595E-04-1.34039E-13
 -1      2140 1.25523E-02 9.96270E-04-1.30204E-13
 -1      2141 1.27428E-02 8.89435E-04-1.31623E-13
 -1      2142 3.27127E-04-8.90006E-05-2.64383E-16
 -1      2143 3.29240E-04-1.02145E-04-2.53595E-16
 -1      2144 4.46321E-04-1.45130E-04-3.68547E-16
 -1      2145 4.39991E-04-1.09965E-04-3.97536E-16
 -1      2146 1.18247E-02 1.36249E-03-1.23690E-13
 -1      2147 1.19786E-02 1.29907E-03-1.25235E-13
 -1      2148 1.15008E-02 1.41940E-03-1.20230E-13
 -1      2149 1.16528E-02 1.40510E-03-1.21891E-13
 -1      2150 1.11532E-02 1.34488E-03-1.16420E-13
 -1      2151 1.13131E-02 1.39956E-03-1.18164E-13
 -1      2152 1.07509E-02 1.13860E-03-1.12974E-13
 -1      2153 1.09299E-02 1.24011E-03-1.14386E-13
 -1      2154 1.03720E-02 8.96650E-04-1.10022E-13
 -1      2155 1.05612E-02 1.02375E-03-1.11493E-13
 -1      2156 1.06784E-02 1.07051E-03-1.11550E-13
 -1      2157 9.91521E-03 6.30089E-04-1.07266E-13
 -1      2158 1.01212E-02 7.41024E-04-1.08284E-13
 -1      2159 9.52634E-03 4.51849E-04-1.05689E-13
 -1      2160 9.69796E-03 5.27976E-04-1.06397E-13
 -1      2161 9.24425E-03 3.34903E-04-1.04441E-13
 -1      2162 9.37343E-03 3.86630E-04-1.05063E-13
 -1      2163 9.46087E-03 3.91487E-04-1.04269E-13
 -1      2164 9.07505E-03 2.67661E-04-1.04071E-13
 -1      2165 9.12562E-03 2.89052E-04-1.04088E-13
 -1      2166 9.08554E-03 2.24087E-04-1.04309E-13
 -1      2167 9.06191E-03 2.43117E-04-1.04149E-13
 -1      2168 9.24492E-03 1.65005E-04-1.04833E-13
 -1      2169 9.14959E-03 1.95968E-04-1.04420E-13
 -1      2170 9.54095E-03 4.58048E-05-1.06631E-13
 -1      2171 9.39348E-03 1.05333E-04-1.05804E-13
 -1      2172 9.89443E-03-1.09494E-04-1.08510E-13
 -1      2173 9.72406E-03-2.91453E-05-1.07498E-13
 -1      2174 1.02728E-02-3.01072E-04-1.11024E-13
 -1      2175 1.00990E-02-2.08959E-04-1.09793E-13
 -1      2176 1.06132E-02-4.73992E-04-1.13757E-13
 -1      2177 1.04454E-02-3.89621E-04-1.12387E-13
 -1      2178 1.03630E-02-3.33326E-04-1.10887E-13
 -1      2179 1.09801E-02-6.16940E-04-1.17438E-13
 -1      2180 1.08336E-02-5.67352E-04-1.15885E-13
 -1      2181 1.12627E-02-6.48534E-04-1.20495E-13
 -1      2182 1.11239E-02-6.42580E-04-1.18962E-13
 -1      2183 1.10513E-02-6.39406E-04-1.18012E-13
 -1      2184 1.15840E-02-5.81574E-04-1.24083E-13
 -1      2185 1.14379E-02-6.27956E-04-1.22457E-13
 -1      2186 1.19443E-02-4.09997E-04-1.27549E-13
 -1      2187 1.17804E-02-4.97716E-04-1.26063E-13
 -1      2188 1.23338E-02-1.96871E-04-1.30392E-13
 -1      2189 1.21525E-02-3.00323E-04-1.29106E-13
 -1      2190 1.27238E-02 2.14550E-05-1.33000E-13
 -1      2191 1.25374E-02-7.96190E-05-1.31870E-13
 -1      2192 1.31176E-02 2.01488E-04-1.34872E-13
 -1      2193 1.29411E-02 1.20683E-04-1.33991E-13
 -1      2194 1.34356E-02 3.30386E-04-1.36305E-13
 -1      2195 1.32976E-02 2.78416E-04-1.35722E-13
 -1      2196 1.36370E-02 4.11878E-04-1.37473E-13
 -1      2197 1.35593E-02 3.85974E-04-1.37211E-13
 -1      2198 1.21686E-02 1.21049E-03-1.26923E-13
 -1      2199 1.23416E-02 1.11415E-03-1.28436E-13
 -1      2200 1.28539E-02 8.16826E-04-1.33189E-13
 -1      2201 6.07868E-04-2.98154E-04-3.69605E-16
 -1      2202 1.24291E-02 1.05074E-03-1.29988E-13
 -1      2203 1.20567E-02 1.25979E-03-1.26522E-13
 -1      2204 6.63588E-04-2.92446E-04-5.08545E-16
 -1      2205 1.35409E-02 5.21831E-04-1.37663E-13
 -1      2206 1.36909E-02 4.70098E-04-1.38579E-13
 -1      2207 1.43149E-02 2.84246E-04-1.84474E-13
 -1      2208 1.32536E-02 6.31493E-04-1.35660E-13
 -1      2209 1.36698E-02 4.35334E-04-1.38789E-13
 -1      2210 1.34992E-02 3.83776E-04-1.38131E-13
 -1      2211 1.31972E-02 2.67238E-04-1.36366E-13
 -1      2212 1.28100E-02 9.67427E-05-1.34517E-13
 -1      2213 1.24114E-02-1.17500E-04-1.32033E-13
 -1      2214 1.20241E-02-3.46694E-04-1.28987E-13
 -1      2215 1.13366E-02-6.50423E-04-1.21494E-13
 -1      2216 1.07242E-02-5.22672E-04-1.14362E-13
 -1      2217 1.00118E-02-1.46086E-04-1.08254E-13
 -1      2218 9.64345E-03 2.45639E-05-1.06119E-13
 -1      2219 9.31511E-03 1.49793E-04-1.04290E-13
 -1      2220 9.10976E-03 2.13760E-04-1.03217E-13
 -1      2221 9.17961E-03 2.93364E-04-1.03300E-13
 -1      2222 9.24410E-03 2.98593E-04-1.02509E-13
 -1      2223 9.12863E-03 2.67459E-04-1.02163E-13
 -1      2224 1.02612E-02 7.99810E-04-1.08340E-13
 -1      2225 1.10587E-02 1.29885E-03-1.15054E-13
 -1      2226 1.17379E-02 1.39488E-03-1.23026E-13
 -1      2227 1.14166E-02 1.42351E-03-1.19155E-13
 -1      2228 9.81789E-03 5.49038E-04-1.05751E-13
 -1      2229 9.06018E-03 2.47688E-04-1.03029E-13
 -1      2230 1.16615E-02-5.44965E-04-1.25439E-13
 -1      2231 1.01656E-03 3.99854E-04-1.05230E-15
 -1      2232 8.72103E-04 3.63467E-04-7.74771E-16
 -1      2233 5.47808E-04-5.53142E-05-6.06950E-16
 -1      2234 5.48841E-04-7.20357E-05-6.01949E-16
 -1      2235 5.50256E-04-8.93616E-05-5.95078E-16
 -1      2236 5.52123E-04-1.07341E-04-5.85822E-16
 -1      2237 6.65312E-04-9.55166E-05-8.11539E-16
 -1      2238 5.46428E-04 8.86269E-06-6.11219E-16
 -1      2239 5.46409E-04-6.97952E-06-6.12412E-16
 -1      2240 5.47179E-04 4.08828E-05-6.04700E-16
 -1      2241 5.46681E-04 2.48035E-05-6.08780E-16
 -1      2242 6.61370E-04 1.99394E-05-8.25986E-16
 -1      2243 5.49001E-04 7.35136E-05-5.92151E-16
 -1      2244 5.47941E-04 5.70168E-05-5.99347E-16
 -1      2245 6.62693E-04 5.78057E-05-8.15700E-16
 -1      2246 5.52386E-04 1.08994E-04-5.71442E-16
 -1      2247 5.50466E-04 9.09154E-05-5.82881E-16
 -1      2248 6.65548E-04 9.72852E-05-7.97105E-16
 -1      2249 5.58258E-04 1.48332E-04-5.39838E-16
 -1      2250 5.54943E-04 1.28106E-04-5.57429E-16
 -1      2251 6.70629E-04 1.40064E-04-7.67642E-16
 -1      2252 5.68579E-04 1.93931E-04-4.92011E-16
 -1      2253 5.62744E-04 1.70213E-04-5.18479E-16
 -1      2254 6.79269E-04 1.87612E-04-7.23475E-16
 -1      2255 1.30201E-03 4.56794E-04-1.74776E-15
 -1      2256 1.15969E-03 4.30855E-04-1.37635E-15
 -1      2257 1.07174E-03 3.81377E-04-1.27659E-15
 -1      2258 9.15161E-04-3.46424E-04-9.93997E-16
 -1      2259 1.05924E-03-3.79719E-04-1.31193E-15
 -1      2260 1.23222E-02 1.11104E-03-1.29844E-13
 -1      2261 1.25076E-02 9.99536E-04-1.31623E-13
 -1      2262 1.20252E-03-4.08111E-04-1.67706E-15
 -1      2263 1.34532E-03-4.31996E-04-2.09052E-15
 -1      2264 1.11692E-03-3.60472E-04-1.54523E-15
 -1      2265 1.48747E-03-4.52213E-04-2.55187E-15
 -1      2266 1.62924E-03-4.69042E-04-3.06087E-15
 -1      2267 1.40328E-03-4.07325E-04-2.38244E-15
 -1      2268 1.77066E-03-4.83156E-04-3.61720E-15
 -1      2269 1.91183E-03-4.94774E-04-4.22114E-15
 -1      2270 1.68838E-03-4.40539E-04-3.40872E-15
 -1      2271 2.05285E-03-5.04388E-04-4.87190E-15
 -1      2272 2.19375E-03-5.12174E-04-5.56945E-15
 -1      2273 1.97256E-03-4.63540E-04-4.62300E-15
 -1      2274 2.33464E-03-5.18490E-04-6.31292E-15
 -1      2275 2.47552E-03-5.23477E-04-7.10265E-15
 -1      2276 2.25618E-03-4.78969E-04-6.02232E-15
 -1      2277 2.61645E-03-5.27397E-04-7.93826E-15
 -1      2278 2.75743E-03-5.30362E-04-8.81890E-15
 -1      2279 2.53958E-03-4.88848E-04-7.60491E-15
 -1      2280 2.89852E-03-5.32562E-04-9.74438E-15
 -1      2281 3.03969E-03-5.34083E-04-1.07147E-14
 -1      2282 2.82299E-03-4.94711E-04-9.36862E-15
 -1      2283 3.18099E-03-5.35059E-04-1.17285E-14
 -1      2284 3.32238E-03-5.35557E-04-1.27855E-14
 -1      2285 3.10655E-03-4.97704E-04-1.13097E-14
 -1      2286 3.46391E-03-5.35669E-04-1.38862E-14
 -1      2287 3.60554E-03-5.35443E-04-1.50298E-14
 -1      2288 3.39035E-03-4.98668E-04-1.34249E-14
 -1      2289 3.74731E-03-5.34940E-04-1.62151E-14
 -1      2290 3.88917E-03-5.34193E-04-1.74433E-14
 -1      2291 3.67444E-03-4.98195E-04-1.57118E-14
 -1      2292 4.03117E-03-5.33239E-04-1.87138E-14
 -1      2293 4.17326E-03-5.32100E-04-2.00263E-14
 -1      2294 3.95883E-03-4.96691E-04-1.81682E-14
 -1      2295 4.31548E-03-5.30793E-04-2.13812E-14
 -1      2296 4.45780E-03-5.29332E-04-2.27768E-14
 -1      2297 4.24352E-03-4.94410E-04-2.07923E-14
 -1      2298 4.60024E-03-5.27721E-04-2.42138E-14
 -1      2299 4.74279E-03-5.25967E-04-2.56937E-14
 -1      2300 4.52853E-03-4.91491E-04-2.35833E-14
 -1      2301 4.88546E-03-5.24062E-04-2.72148E-14
 -1      2302 5.02824E-03-5.22011E-04-2.87751E-14
 -1      2303 4.81386E-03-4.87989E-04-2.65395E-14
 -1      2304 5.17116E-03-5.19802E-04-3.03768E-14
 -1      2305 5.31422E-03-5.17435E-04-3.20202E-14
 -1      2306 5.09953E-03-4.83896E-04-2.96591E-14
 -1      2307 5.45742E-03-5.14896E-04-3.37034E-14
 -1      2308 5.60079E-03-5.12188E-04-3.54257E-14
 -1      2309 5.38560E-03-4.79171E-04-3.29406E-14
 -1      2310 5.74432E-03-5.09298E-04-3.71879E-14
 -1      2311 5.88806E-03-5.06233E-04-3.89896E-14
 -1      2312 5.67212E-03-4.73759E-04-3.63815E-14
 -1      2313 6.03201E-03-5.02988E-04-4.08309E-14
 -1      2314 6.17621E-03-4.99578E-04-4.27115E-14
 -1      2315 5.95920E-03-4.67623E-04-3.99809E-14
 -1      2316 6.32066E-03-4.96014E-04-4.46319E-14
 -1      2317 6.46543E-03-4.92322E-04-4.65893E-14
 -1      2318 6.24697E-03-4.60780E-04-4.37377E-14
 -1      2319 6.61050E-03-4.88536E-04-4.85852E-14
 -1      2320 6.75597E-03-4.84704E-04-5.06167E-14
 -1      2321 6.53560E-03-4.53341E-04-4.76480E-14
 -1      2322 6.90182E-03-4.80893E-04-5.26831E-14
 -1      2323 7.04815E-03-4.77176E-04-5.47863E-14
 -1      2324 6.82531E-03-4.45569E-04-5.17052E-14
 -1      2325 7.19495E-03-4.73668E-04-5.69238E-14
 -1      2326 7.34232E-03-4.70479E-04-5.90941E-14
 -1      2327 7.11640E-03-4.37944E-04-5.59041E-14
 -1      2328 7.49027E-03-4.67780E-04-6.12965E-14
 -1      2329 7.63890E-03-4.65729E-04-6.35302E-14
 -1      2330 7.40923E-03-4.31247E-04-6.02394E-14
 -1      2331 7.78824E-03-4.64564E-04-6.57938E-14
 -1      2332 7.93836E-03-4.64500E-04-6.80883E-14
 -1      2333 7.70426E-03-4.26644E-04-6.47001E-14
 -1      2334 8.08933E-03-4.65841E-04-7.04113E-14
 -1      2335 8.24118E-03-4.68866E-04-7.27629E-14
 -1      2336 8.00209E-03-4.25762E-04-6.92819E-14
 -1      2337 8.39403E-03-4.73925E-04-7.51423E-14
 -1      2338 8.54781E-03-4.81352E-04-7.75470E-14
 -1      2339 8.30342E-03-4.30742E-04-7.39807E-14
 -1      2340 8.70274E-03-4.91501E-04-7.99786E-14
 -1      2341 8.85858E-03-5.04723E-04-8.24371E-14
 -1      2342 8.60905E-03-4.44193E-04-7.87871E-14
 -1      2343 9.01561E-03-5.21281E-04-8.49211E-14
 -1      2344 9.17340E-03-5.41454E-04-8.74318E-14
 -1      2345 8.91975E-03-4.68990E-04-8.36981E-14
 -1      2346 9.33226E-03-5.65278E-04-8.99689E-14
 -1      2347 9.49150E-03-5.92777E-04-9.25302E-14
 -1      2348 9.23589E-03-5.07750E-04-8.87143E-14
 -1      2349 9.65136E-03-6.23585E-04-9.51173E-14
 -1      2350 9.81092E-03-6.57186E-04-9.77285E-14
 -1      2351 9.55694E-03-5.61821E-04-9.38342E-14
 -1      2352 9.97026E-03-6.92642E-04-1.00367E-13
 -1      2353 1.01284E-02-7.28635E-04-1.03028E-13
 -1      2354 9.88076E-03-6.29549E-04-9.90526E-14
 -1      2355 1.02853E-02-7.63594E-04-1.05712E-13
 -1      2356 1.04403E-02-7.95353E-04-1.08419E-13
 -1      2357 1.02034E-02-7.04092E-04-1.04369E-13
 -1      2358 1.05931E-02-8.21935E-04-1.11151E-13
 -1      2359 1.07441E-02-8.40862E-04-1.13905E-13
 -1      2360 1.05200E-02-7.71836E-04-1.09780E-13
 -1      2361 1.08928E-02-8.50393E-04-1.16681E-13
 -1      2362 1.10407E-02-8.48743E-04-1.19479E-13
 -1      2363 1.08278E-02-8.13905E-04-1.15283E-13
 -1      2364 1.11874E-02-8.35170E-04-1.22299E-13
 -1      2365 1.13349E-02-8.09595E-04-1.25142E-13
 -1      2366 1.11286E-02-8.12484E-04-1.20877E-13
 -1      2367 1.14829E-02-7.72639E-04-1.28012E-13
 -1      2368 1.16328E-02-7.25937E-04-1.30905E-13
 -1      2369 1.14288E-02-7.59693E-04-1.26564E-13
 -1      2370 1.17843E-02-6.71141E-04-1.33821E-13
 -1      2371 1.19377E-02-6.10688E-04-1.36761E-13
 -1      2372 1.17350E-02-6.62180E-04-1.32348E-13
 -1      2373 1.20928E-02-5.46474E-04-1.39724E-13
 -1      2374 1.22489E-02-4.80656E-04-1.42707E-13
 -1      2375 1.20493E-02-5.37002E-04-1.38227E-13
 -1      2376 1.24060E-02-4.14735E-04-1.45712E-13
 -1      2377 1.25630E-02-3.49966E-04-1.48736E-13
 -1      2378 1.23691E-02-4.02779E-04-1.44193E-13
 -1      2379 1.27200E-02-2.87170E-04-1.51775E-13
 -1      2380 1.28761E-02-2.26773E-04-1.54834E-13
 -1      2381 1.26894E-02-2.72776E-04-1.50237E-13
 -1      2382 1.30315E-02-1.68958E-04-1.57905E-13
 -1      2383 1.31854E-02-1.13539E-04-1.60986E-13
 -1      2384 1.30060E-02-1.53122E-04-1.56347E-13
 -1      2385 1.33382E-02-6.02401E-05-1.64084E-13
 -1      2386 1.34895E-02-8.55064E-06-1.67194E-13
 -1      2387 1.33166E-02-4.42642E-05-1.62515E-13
 -1      2388 1.36394E-02 4.20584E-05-1.70314E-13
 -1      2389 1.37878E-02 9.22521E-05-1.73443E-13
 -1      2390 1.36204E-02 5.68764E-05-1.68730E-13
 -1      2391 1.86513E-03 5.25247E-04-3.70239E-15
 -1      2392 1.72491E-03 5.12521E-04-3.14335E-15
 -1      2393 2.14517E-03 5.44455E-04-4.96052E-15
 -1      2394 2.00520E-03 5.35832E-04-4.30801E-15
 -1      2395 1.92447E-03 4.94619E-04-4.10335E-15
 -1      2396 2.42519E-03 5.57127E-04-6.40357E-15
 -1      2397 2.28517E-03 5.51503E-04-5.65901E-15
 -1      2398 2.20654E-03 5.11799E-04-5.41620E-15
 -1      2399 2.70555E-03 5.65055E-04-8.03140E-15
 -1      2400 2.56532E-03 5.61604E-04-7.19474E-15
 -1      2401 2.48846E-03 5.22981E-04-6.91286E-15
 -1      2402 2.98647E-03 5.69572E-04-9.84046E-15
 -1      2403 2.84595E-03 5.67679E-04-8.91320E-15
 -1      2404 2.77052E-03 5.29820E-04-8.59146E-15
 -1      2405 3.26804E-03 5.71661E-04-1.18282E-14
 -1      2406 3.12718E-03 5.70875E-04-1.08124E-14
 -1      2407 3.05290E-03 5.33546E-04-1.04503E-14
 -1      2408 3.55027E-03 5.72028E-04-1.39916E-14
 -1      2409 3.40908E-03 5.72027E-04-1.28880E-14
 -1      2410 3.33571E-03 5.35064E-04-1.24861E-14
 -1      2411 3.83314E-03 5.71163E-04-1.63292E-14
 -1      2412 3.69163E-03 5.71726E-04-1.51390E-14
 -1      2413 3.61896E-03 5.35019E-04-1.46956E-14
 -1      2414 4.11662E-03 5.69386E-04-1.88388E-14
 -1      2415 3.97481E-03 5.70373E-04-1.75622E-14
 -1      2416 3.90267E-03 5.33852E-04-1.70784E-14
 -1      2417 4.40068E-03 5.66885E-04-2.15188E-14
 -1      2418 4.25858E-03 5.68217E-04-2.01580E-14
 -1      2419 4.18683E-03 5.31843E-04-1.96326E-14
 -1      2420 4.68531E-03 5.63744E-04-2.43644E-14
 -1      2421 4.54292E-03 5.65390E-04-2.29207E-14
 -1      2422 4.47143E-03 5.29149E-04-2.23557E-14
 -1      2423 4.97051E-03 5.59969E-04-2.73716E-14
 -1      2424 4.82784E-03 5.61935E-04-2.58484E-14
 -1      2425 4.75647E-03 5.25830E-04-2.52431E-14
 -1      2426 5.25636E-03 5.55509E-04-3.05342E-14
 -1      2427 5.11335E-03 5.57826E-04-2.89345E-14
 -1      2428 5.04198E-03 5.21872E-04-2.82902E-14
 -1      2429 5.54293E-03 5.50275E-04-3.38487E-14
 -1      2430 5.39954E-03 5.52991E-04-3.21719E-14
 -1      2431 5.32802E-03 5.17210E-04-3.14913E-14
 -1      2432 5.83038E-03 5.44165E-04-3.73133E-14
 -1      2433 5.68653E-03 5.47331E-04-3.55630E-14
 -1      2434 5.61466E-03 5.11747E-04-3.48444E-14
 -1      2435 6.11893E-03 5.37086E-04-4.09249E-14
 -1      2436 5.97449E-03 5.40745E-04-3.91006E-14
 -1      2437 5.90203E-03 5.05376E-04-3.83463E-14
 -1      2438 6.40886E-03 5.28992E-04-4.46783E-14
 -1      2439 6.26369E-03 5.33159E-04-4.27836E-14
 -1      2440 6.19031E-03 4.98009E-04-4.19940E-14
 -1      2441 6.70055E-03 5.19929E-04-4.85754E-14
 -1      2442 6.55444E-03 5.24566E-04-4.66089E-14
 -1      2443 6.47971E-03 4.89611E-04-4.57845E-14
 -1      2444 6.99446E-03 5.10110E-04-5.26122E-14
 -1      2445 6.84717E-03 5.15086E-04-5.05762E-14
 -1      2446 6.77050E-03 4.80256E-04-4.97160E-14
 -1      2447 7.29114E-03 5.00016E-04-5.67835E-14
 -1      2448 7.14238E-03 5.05049E-04-5.46805E-14
 -1      2449 7.06302E-03 4.70199E-04-5.37866E-14
 -1      2450 7.59129E-03 4.90553E-04-6.10904E-14
 -1      2451 7.44069E-03 4.95126E-04-5.89212E-14
 -1      2452 7.35766E-03 4.59989E-04-5.79941E-14
 -1      2453 7.89566E-03 4.83273E-04-6.55255E-14
 -1      2454 7.74284E-03 4.86515E-04-6.32919E-14
 -1      2455 7.65490E-03 4.50623E-04-6.23349E-14
 -1      2456 8.20520E-03 4.80691E-04-7.00880E-14
 -1      2457 8.04967E-03 4.81203E-04-6.77917E-14
 -1      2458 7.95531E-03 4.43778E-04-6.68034E-14
 -1      2459 8.52099E-03 4.86694E-04-7.47741E-14
 -1      2460 8.36219E-03 4.82330E-04-7.24156E-14
 -1      2461 8.25969E-03 4.42115E-04-7.13972E-14
 -1      2462 8.84440E-03 5.07017E-04-7.95782E-14
 -1      2463 8.68164E-03 4.94641E-04-7.71611E-14
 -1      2464 8.56918E-03 4.49674E-04-7.61134E-14
 -1      2465 9.17717E-03 5.49617E-04-8.44944E-14
 -1      2466 9.00957E-03 5.24943E-04-8.20219E-14
 -1      2467 8.88557E-03 4.72335E-04-8.09467E-14
 -1      2468 9.52137E-03 6.24502E-04-8.95177E-14
 -1      2469 9.34794E-03 5.82276E-04-8.69919E-14
 -1      2470 9.21170E-03 5.18204E-04-8.58885E-14
 -1      2471 9.87877E-03 7.42134E-04-9.46483E-14
 -1      2472 9.69882E-03 6.77261E-04-9.20709E-14
 -1      2473 9.55158E-03 5.97620E-04-9.09387E-14
 -1      2474 1.02486E-02 9.08638E-04-9.98871E-14
 -1      2475 1.00630E-02 8.19104E-04-9.72534E-14
 -1      2476 9.90935E-03 7.21838E-04-9.60960E-14
 -1      2477 1.06237E-02 1.11579E-03-1.05237E-13
 -1      2478 1.04368E-02 1.00885E-03-1.02548E-13
 -1      2479 1.02856E-02 8.98686E-04-1.01357E-13
 -1      2480 1.09916E-02 1.32654E-03-1.10698E-13
 -1      2481 1.08097E-02 1.22420E-03-1.07953E-13
 -1      2482 1.06719E-02 1.11726E-03-1.06727E-13
 -1      2483 1.13408E-02 1.47855E-03-1.16275E-13
 -1      2484 1.11679E-02 1.41488E-03-1.13472E-13
 -1      2485 1.10508E-02 1.33434E-03-1.12213E-13
 -1      2486 1.16773E-02 1.51474E-03-1.21966E-13
 -1      2487 1.15075E-02 1.51314E-03-1.19107E-13
 -1      2488 1.14089E-02 1.47257E-03-1.17811E-13
 -1      2489 1.20224E-02 1.43288E-03-1.27766E-13
 -1      2490 1.18465E-02 1.48514E-03-1.24853E-13
 -1      2491 1.17594E-02 1.47221E-03-1.23524E-13
 -1      2492 1.23856E-02 1.28935E-03-1.33668E-13
 -1      2493 1.22023E-02 1.36409E-03-1.30703E-13
 -1      2494 1.21251E-02 1.35403E-03-1.29345E-13
 -1      2495 1.27558E-02 1.14739E-03-1.39657E-13
 -1      2496 1.25714E-02 1.21517E-03-1.36654E-13
 -1      2497 1.25070E-02 1.19512E-03-1.35269E-13
 -1      2498 1.31191E-02 1.04280E-03-1.45705E-13
 -1      2499 1.29395E-02 1.08971E-03-1.42673E-13
 -1      2500 1.28864E-02 1.05894E-03-1.41270E-13
 -1      2501 1.34685E-02 9.82989E-04-1.51810E-13
 -1      2502 1.32961E-02 1.00765E-03-1.48752E-13
 -1      2503 1.32491E-02 9.69814E-04-1.47330E-13
 -1      2504 1.38027E-02 9.60872E-04-1.57956E-13
 -1      2505 1.36376E-02 9.68006E-04-1.54878E-13
 -1      2506 1.35914E-02 9.26171E-04-1.53444E-13
 -1      2507 1.41236E-02 9.63941E-04-1.64139E-13
 -1      2508 1.39648E-02 9.60052E-04-1.61043E-13
 -1      2509 1.39163E-02 9.16452E-04-1.59601E-13
 -1      2510 1.44332E-02 9.79444E-04-1.70356E-13
 -1      2511 1.42797E-02 9.70856E-04-1.67243E-13
 -1      2512 1.42281E-02 9.27407E-04-1.65792E-13
 -1      2513 1.47333E-02 9.96070E-04-1.76600E-13
 -1      2514 1.45843E-02 9.88250E-04-1.73474E-13
 -1      2515 1.45300E-02 9.46901E-04-1.72014E-13
 -1      2516 1.48846E-02 1.00290E-03-1.79832E-13
 -1      2517 1.49465E-02 7.47537E-04-1.78930E-13
 -1      2518 1.49392E-02 7.72728E-04-1.78836E-13
 -1      2519 1.49400E-02 7.00967E-04-1.79103E-13
 -1      2520 1.49470E-02 7.23918E-04-1.79018E-13
 -1      2521 1.48336E-02 7.19777E-04-1.76264E-13
 -1      2522 1.48888E-02 8.58018E-04-1.78535E-13
 -1      2523 1.48664E-02 8.90991E-04-1.78424E-13
 -1      2524 1.49263E-02 7.99208E-04-1.78739E-13
 -1      2525 1.49092E-02 8.27526E-04-1.78638E-13
 -1      2526 1.47792E-02 8.31454E-04-1.75878E-13
 -1      2527 1.48169E-02 7.72029E-04-1.76079E-13
 -1      2528 1.49017E-02 6.56107E-04-1.79263E-13
 -1      2529 1.49249E-02 6.78709E-04-1.79185E-13
 -1      2530 1.48205E-02 6.71866E-04-1.76434E-13
 -1      2531 1.48316E-02 6.09015E-04-1.79405E-13
 -1      2532 1.48704E-02 6.33183E-04-1.79336E-13
 -1      2533 1.47734E-02 6.24355E-04-1.76586E-13
 -1      2534 1.47341E-02 5.56517E-04-1.79532E-13
 -1      2535 1.47858E-02 5.83660E-04-1.79470E-13
 -1      2536 1.46937E-02 5.73035E-04-1.76722E-13
 -1      2537 1.46188E-02 4.98020E-04-1.79640E-13
 -1      2538 1.46784E-02 5.28189E-04-1.79588E-13
 -1      2539 1.45886E-02 5.15505E-04-1.76841E-13
 -1      2540 1.44898E-02 4.31401E-04-1.79737E-13
 -1      2541 1.45553E-02 4.65556E-04-1.79689E-13
 -1      2542 1.44660E-02 4.50398E-04-1.76945E-13
 -1      2543 1.43561E-02 3.58593E-04-1.79817E-13
 -1      2544 1.44232E-02 3.95645E-04-1.79780E-13
 -1      2545 1.43330E-02 3.77771E-04-1.77035E-13
 -1      2546 1.42233E-02 2.81038E-04-1.79886E-13
 -1      2547 1.42893E-02 3.20262E-04-1.79853E-13
 -1      2548 1.41977E-02 2.99790E-04-1.77112E-13
 -1      2549 1.36868E-02 4.77561E-04-1.40074E-13
 -1      2550 1.37132E-02 4.64852E-04-1.40032E-13
 -1      2551 1.31721E-02 6.55901E-04-1.36371E-13
 -1      2552 1.33336E-02 5.91655E-04-1.37421E-13
 -1      2553 1.58441E-03 4.97106E-04-2.63130E-15
 -1      2554 1.44348E-03 4.78791E-04-2.16587E-15
 -1      2555 1.64176E-03 4.69246E-04-2.97524E-15
 -1      2556 1.41885E-02 2.38032E-04-1.81649E-13
 -1      2557 1.37032E-02 4.52722E-04-1.40281E-13
 -1      2558 1.36605E-02 4.43872E-04-1.40532E-13
 -1      2559 1.37266E-02 4.66260E-04-1.41778E-13
 -1      2560 1.34779E-02 5.39694E-04-1.38623E-13
 -1      2561 1.35911E-02 5.08119E-04-1.39585E-13
 -1      2562 5.88493E-04-2.38012E-04-4.73444E-16
 -1      2563 7.81289E-04-3.04873E-04-7.56055E-16
 -1      2564 8.40743E-04-2.93644E-04-9.31736E-16
 -1      2565 5.78963E-04-2.10221E-04-5.06919E-16
 -1      2566 1.35415E-02 4.11157E-04-1.40111E-13
 -1      2567 1.34174E-02 3.74437E-04-1.39197E-13
 -1      2568 1.00940E-02-1.85649E-04-1.07811E-13
 -1      2569 9.91595E-03-9.28419E-05-1.06543E-13
 -1      2570 1.01747E-02 7.25417E-04-1.06618E-13
 -1      2571 1.04019E-02 8.69784E-04-1.08344E-13
 -1      2572 1.09649E-02 1.24075E-03-1.13450E-13
 -1      2573 1.11477E-02 1.34465E-03-1.15478E-13
 -1      2574 5.46623E-04-2.29045E-05-6.12032E-16
 -1      2575 5.47080E-04-3.89506E-05-6.10189E-16
 -1      2576 6.62549E-04-5.58277E-05-8.24441E-16
 -1      2577 6.61321E-04-1.77059E-05-8.28845E-16
 -1      2578 1.13702E-02 1.42496E-03-1.18246E-13
 -1      2579 1.15179E-02 1.44173E-03-1.20316E-13
 -1      2580 9.70758E-03 4.72381E-04-1.03977E-13
 -1      2581 9.89775E-03 5.66191E-04-1.04832E-13
 -1      2582 1.16527E-02 1.42925E-03-1.22109E-13
 -1      2583 1.17876E-02 1.38968E-03-1.23913E-13
 -1      2584 1.15883E-02 1.44761E-03-1.21189E-13
 -1      2585 1.06158E-02 1.01088E-03-1.10158E-13
 -1      2586 1.07772E-02 1.12268E-03-1.11630E-13
 -1      2587 9.04760E-03 2.34399E-04-1.01652E-13
 -1      2588 9.05906E-03 2.41867E-04-1.01573E-13
 -1      2589 9.38979E-03 3.44172E-04-1.02709E-13
 -1      2590 9.53197E-03 3.97452E-04-1.03325E-13
 -1      2591 1.17279E-02-5.04100E-04-1.26865E-13
 -1      2592 1.15677E-02-5.85825E-04-1.24879E-13
 -1      2593 9.12407E-03 2.07879E-04-1.01866E-13
 -1      2594 9.06915E-03 2.21615E-04-1.01759E-13
 -1      2595 9.04062E-03 2.21323E-04-1.00306E-13
 -1      2596 9.39488E-03 1.28614E-04-1.03669E-13
 -1      2597 9.25250E-03 1.71717E-04-1.02706E-13
 -1      2598 9.70968E-03 3.90135E-06-1.05297E-13
 -1      2599 9.54704E-03 7.16971E-05-1.04441E-13
 -1      2600 1.04396E-02-3.77235E-04-1.10789E-13
 -1      2601 1.02928E-02-2.93050E-04-1.09437E-13
 -1      2602 1.08237E-02-5.73675E-04-1.15002E-13
 -1      2603 1.06394E-02-4.82711E-04-1.12885E-13
 -1      2604 1.11110E-02-6.58958E-04-1.18673E-13
 -1      2605 1.09964E-02-6.33417E-04-1.17150E-13
 -1      2606 1.13971E-02-6.43436E-04-1.22584E-13
 -1      2607 1.12577E-02-6.65112E-04-1.20623E-13
 -1      2608 1.11871E-02-6.69626E-04-1.19752E-13
 -1      2609 1.21126E-02-2.74992E-04-1.30735E-13
 -1      2610 1.19398E-02-3.83249E-04-1.29167E-13
 -1      2611 1.24681E-02-5.90858E-05-1.33709E-13
 -1      2612 1.22870E-02-1.69384E-04-1.32219E-13
 -1      2613 1.21955E-02-2.19051E-04-1.32400E-13
 -1      2614 1.29149E-02 1.73794E-04-1.36468E-13
 -1      2615 1.27228E-02 8.00533E-05-1.35465E-13
 -1      2616 1.32739E-02 3.22689E-04-1.38334E-13
 -1      2617 1.31064E-02 2.58207E-04-1.37475E-13
 -1      2618 1.33458E-02 3.57248E-04-1.40309E-13
 -1      2619 1.19875E-02 1.30239E-03-1.26289E-13
 -1      2620 1.21425E-02 1.21468E-03-1.27987E-13
 -1      2621 7.57866E-04 3.34258E-04-5.77202E-16
 -1      2622 6.11457E-04 2.84890E-04-3.84160E-16
 -1      2623 5.84736E-04 2.58122E-04-3.95287E-16
 -1      2624 8.13693E-04 3.22934E-04-7.45796E-16
 -1      2625 1.27684E-02 8.54232E-04-1.34044E-13
 -1      2626 1.29751E-02 7.46225E-04-1.35477E-13
 -1      2627 1.08817E-02 1.18838E-03-1.12044E-13
 -1      2628 6.70248E-04-1.37986E-04-7.88012E-16
 -1      2629 5.54610E-04-1.26240E-04-5.74044E-16
 -1      2630 5.57761E-04-1.46228E-04-5.58933E-16
 -1      2631 1.35775E-03 4.32777E-04-2.03293E-15
 -1      2632 5.72240E-04 2.27927E-04-4.36486E-16
 -1      2633 1.26637E-02 9.24192E-04-1.33899E-13
 -1      2634 1.36168E-02 4.36886E-04-1.41601E-13
 -1      2635 1.35651E-02 4.25803E-04-1.42671E-13
 -1      2636 1.36779E-02 4.52664E-04-1.43097E-13
 -1      2637 1.26001E-02 1.91047E-05-1.35649E-13
 -1      2638 1.48286E-02 9.65748E-04-1.78364E-13
 -1      2639 1.30866E-02 7.03209E-04-1.37235E-13
 -1      2640 1.48296E-02 9.35359E-04-1.78106E-13
 -1      2641 1.14793E-02-6.18789E-04-1.23996E-13
 -1      2642 1.36268E-02 5.13004E-04-1.42001E-13
 -1      2643 1.36603E-02 4.93256E-04-1.41038E-13
 -1      2644 1.37123E-02 4.89561E-04-1.42493E-13
 -1      2645 1.34156E-02 5.67978E-04-1.39339E-13
 -1      2646 1.18322E-02-4.43883E-04-1.28599E-13
 -1      2647 1.08918E-02-6.07337E-04-1.15655E-13
 -1      2648 6.89523E-04 2.51285E-04-6.30843E-16
 -1      2649 5.71836E-04-1.85247E-04-5.33983E-16
 -1      2650 1.05454E-02-4.45683E-04-1.11420E-13
 -1      2651 1.01724E-02-2.40363E-04-1.07712E-13
 -1      2652 9.79154E-03-4.37075E-05-1.04858E-13
 -1      2653 9.17099E-03 1.89679E-04-1.01248E-13
 -1      2654 9.10399E-03 1.94869E-04-9.97961E-14
 -1      2655 9.22301E-03 1.66750E-04-1.00629E-13
 -1      2656 9.30045E-03 3.08560E-04-1.01571E-13
 -1      2657 1.05034E-02 9.32902E-04-1.08419E-13
 -1      2658 1.00360E-02 6.35813E-04-1.04833E-13
 -1      2659 1.01544E-02 7.10367E-04-1.04829E-13
 -1      2660 9.90231E-03 5.64318E-04-1.03059E-13
 -1      2661 9.07954E-03 2.45542E-04-1.00786E-13
 -1      2662 9.11173E-03 2.48750E-04-9.99989E-14
 -1      2663 9.04111E-03 2.31347E-04-9.94141E-14
 -1      2664 9.60726E-03 4.21155E-04-1.02413E-13
 -1      2665 1.22455E-02 1.16674E-03-1.29610E-13
 -1      2666 1.18886E-02 1.35983E-03-1.25362E-13
 -1      2667 9.45298E-03 1.00392E-04-1.02853E-13
 -1      2668 1.40147E-02 1.69249E-04-1.78377E-13
 -1      2669 1.41418E-02 2.37594E-04-1.79357E-13
 -1      2670 1.40483E-02 2.15479E-04-1.76619E-13
 -1      2671 1.38862E-02 1.25378E-04-1.75562E-13
 -1      2672 1.47165E-02 9.08698E-04-1.75456E-13
 -1      2673 1.30241E-02 2.31231E-04-1.38428E-13
 -1      2674 1.38686E-02 1.38289E-04-1.73969E-13
 -1      2675 7.80236E-04 7.73599E-05-1.05948E-15
 -1      2676 7.78979E-04 5.54907E-05-1.06833E-15
 -1      2677 7.78134E-04 3.35711E-05-1.07477E-15
 -1      2678 7.77712E-04 1.19014E-05-1.07892E-15
 -1      2679 8.96556E-04 4.96936E-05-1.35665E-15
 -1      2680 7.91550E-04 1.73181E-04-9.93346E-16
 -1      2681 7.87554E-04 1.47762E-04-1.01542E-15
 -1      2682 8.03395E-04 2.28384E-04-9.34433E-16
 -1      2683 7.96782E-04 1.99990E-04-9.66783E-16
 -1      2684 9.14849E-04 2.07883E-04-1.24740E-15
 -1      2685 1.12978E-03 3.62017E-04-1.51155E-15
 -1      2686 9.86182E-04 3.32948E-04-1.17275E-15
 -1      2687 6.88569E-04-2.04067E-04-7.44251E-16
 -1      2688 8.03067E-04 2.78291E-04-8.32234E-16
 -1      2689 1.34175E-02 3.81230E-04-1.42201E-13
 -1      2690 1.32840E-02 3.37256E-04-1.41330E-13
 -1      2691 1.27267E-02 8.71422E-05-1.37774E-13
 -1      2692 1.24988E-02-3.92416E-05-1.36004E-13
 -1      2693 1.32011E-03-3.62866E-04-2.21210E-15
 -1      2694 1.46332E-03-3.81833E-04-2.68287E-15
 -1      2695 1.60636E-03-3.97887E-04-3.19987E-15
 -1      2696 1.74929E-03-4.11279E-04-3.76351E-15
 -1      2697 1.52494E-03-3.55489E-04-2.99088E-15
 -1      2698 1.89207E-03-4.22464E-04-4.37370E-15
 -1      2699 2.03472E-03-4.31630E-04-5.03005E-15
 -1      2700 1.81163E-03-3.81350E-04-4.12505E-15
 -1      2701 2.17726E-03-4.39149E-04-5.73238E-15
 -1      2702 2.31972E-03-4.45172E-04-6.47992E-15
 -1      2703 2.09809E-03-3.99152E-04-5.44297E-15
 -1      2704 2.46214E-03-4.49987E-04-7.27268E-15
 -1      2705 2.60450E-03-4.53712E-04-8.11123E-15
 -1      2706 2.38427E-03-4.10890E-04-6.94207E-15
 -1      2707 2.74685E-03-4.56564E-04-8.99380E-15
 -1      2708 2.88918E-03-4.58636E-04-9.92103E-15
 -1      2709 2.67022E-03-4.18167E-04-8.62059E-15
 -1      2710 3.03153E-03-4.60084E-04-1.08926E-14
 -1      2711 3.17388E-03-4.60980E-04-1.19072E-14
 -1      2712 2.95600E-03-4.22221E-04-1.04771E-14
 -1      2713 3.31626E-03-4.61436E-04-1.29656E-14
 -1      2714 3.45866E-03-4.61502E-04-1.40672E-14
 -1      2715 3.24169E-03-4.23981E-04-1.25082E-14
 -1      2716 3.60110E-03-4.61256E-04-1.52104E-14
 -1      2717 3.74356E-03-4.60733E-04-1.63962E-14
 -1      2718 3.52732E-03-4.24120E-04-1.47110E-14
 -1      2719 3.88607E-03-4.59983E-04-1.76243E-14
 -1      2720 4.02862E-03-4.59029E-04-1.88944E-14
 -1      2721 3.81293E-03-4.23107E-04-1.70827E-14
 -1      2722 4.17121E-03-4.57899E-04-2.02068E-14
 -1      2723 4.31383E-03-4.56608E-04-2.15605E-14
 -1      2724 4.09855E-03-4.21251E-04-1.96229E-14
 -1      2725 4.45651E-03-4.55167E-04-2.29547E-14
 -1      2726 4.59922E-03-4.53582E-04-2.43904E-14
 -1      2727 4.38420E-03-4.18735E-04-2.23281E-14
 -1      2728 4.74199E-03-4.51856E-04-2.58678E-14
 -1      2729 4.88481E-03-4.49986E-04-2.73856E-14
 -1      2730 4.66989E-03-4.15645E-04-2.51990E-14
 -1      2731 5.02768E-03-4.47969E-04-2.89436E-14
 -1      2732 5.17061E-03-4.45800E-04-3.05424E-14
 -1      2733 4.95565E-03-4.11999E-04-2.82317E-14
 -1      2734 5.31360E-03-4.43469E-04-3.21814E-14
 -1      2735 5.45666E-03-4.40972E-04-3.38601E-14
 -1      2736 5.24147E-03-4.07763E-04-3.14257E-14
 -1      2737 5.59979E-03-4.38299E-04-3.55792E-14
 -1      2738 5.74301E-03-4.35446E-04-3.73377E-14
 -1      2739 5.52739E-03-4.02881E-04-3.47800E-14
 -1      2740 5.88632E-03-4.32407E-04-3.91351E-14
 -1      2741 6.02974E-03-4.29185E-04-4.09721E-14
 -1      2742 5.81344E-03-3.97293E-04-3.82934E-14
 -1      2743 6.17327E-03-4.25783E-04-4.28483E-14
 -1      2744 6.31695E-03-4.22212E-04-4.47631E-14
 -1      2745 6.09966E-03-3.90965E-04-4.19636E-14
 -1      2746 6.46077E-03-4.18493E-04-4.67153E-14
 -1      2747 6.60478E-03-4.14650E-04-4.87043E-14
 -1      2748 6.38612E-03-3.83922E-04-4.57866E-14
 -1      2749 6.74897E-03-4.10729E-04-5.07313E-14
 -1      2750 6.89343E-03-4.06775E-04-5.27918E-14
 -1      2751 6.67294E-03-3.76293E-04-4.97594E-14
 -1      2752 7.03813E-03-4.02869E-04-5.48885E-14
 -1      2753 7.18318E-03-3.99088E-04-5.70201E-14
 -1      2754 6.96030E-03-3.68361E-04-5.38779E-14
 -1      2755 7.32857E-03-3.95554E-04-5.91843E-14
 -1      2756 7.47442E-03-3.92389E-04-6.13809E-14
 -1      2757 7.24848E-03-3.60629E-04-5.81339E-14
 -1      2758 7.62075E-03-3.89766E-04-6.36099E-14
 -1      2759 7.76769E-03-3.87865E-04-6.58678E-14
 -1      2760 7.53790E-03-3.53896E-04-6.25210E-14
 -1      2761 7.91533E-03-3.86914E-04-6.81562E-14
 -1      2762 8.06376E-03-3.87172E-04-7.04737E-14
 -1      2763 7.82924E-03-3.49343E-04-6.70340E-14
 -1      2764 8.21315E-03-3.88912E-04-7.28211E-14
 -1      2765 8.36360E-03-3.92489E-04-7.51969E-14
 -1      2766 8.12343E-03-3.48622E-04-7.16653E-14
 -1      2767 8.51536E-03-3.98202E-04-7.75971E-14
 -1      2768 8.66844E-03-4.06508E-04-8.00244E-14
 -1      2769 8.42181E-03-3.53936E-04-7.64096E-14
 -1      2770 8.82320E-03-4.17686E-04-8.24789E-14
 -1      2771 8.97953E-03-4.32266E-04-8.49590E-14
 -1      2772 8.72606E-03-3.68076E-04-8.12612E-14
 -1      2773 9.13784E-03-4.50429E-04-8.74650E-14
 -1      2774 9.29776E-03-4.72661E-04-8.99967E-14
 -1      2775 9.03801E-03-3.94340E-04-8.62184E-14
 -1      2776 9.45970E-03-4.98925E-04-9.25546E-14
 -1      2777 9.62286E-03-5.29388E-04-9.51355E-14
 -1      2778 9.35912E-03-4.36127E-04-9.12774E-14
 -1      2779 9.78752E-03-5.63629E-04-9.77419E-14
 -1      2780 9.95239E-03-6.00929E-04-1.00373E-13
 -1      2781 9.68930E-03-4.95827E-04-9.64355E-14
 -1      2782 1.01174E-02-6.40282E-04-1.03029E-13
 -1      2783 1.02812E-02-6.79614E-04-1.05707E-13
 -1      2784 1.00255E-02-5.72206E-04-1.01691E-13
 -1      2785 1.04434E-02-7.17106E-04-1.08410E-13
 -1      2786 1.06033E-02-7.49374E-04-1.11138E-13
 -1      2787 1.03611E-02-6.56431E-04-1.07044E-13
 -1      2788 1.07601E-02-7.74292E-04-1.13887E-13
 -1      2789 1.09150E-02-7.88044E-04-1.16660E-13
 -1      2790 1.06883E-02-7.28966E-04-1.12494E-13
 -1      2791 1.10673E-02-7.89125E-04-1.19456E-13
 -1      2792 1.12196E-02-7.75699E-04-1.22272E-13
 -1      2793 1.10037E-02-7.62741E-04-1.18035E-13
 -1      2794 1.13716E-02-7.47712E-04-1.25116E-13
 -1      2795 1.15260E-02-7.06730E-04-1.27986E-13
 -1      2796 1.13130E-02-7.36078E-04-1.23670E-13
 -1      2797 1.16822E-02-6.54169E-04-1.30877E-13
 -1      2798 1.18413E-02-5.93693E-04-1.33792E-13
 -1      2799 1.16276E-02-6.48037E-04-1.29406E-13
 -1      2800 1.20027E-02-5.27317E-04-1.36731E-13
 -1      2801 1.21657E-02-4.58649E-04-1.39691E-13
 -1      2802 1.19538E-02-5.18887E-04-1.35236E-13
 -1      2803 1.23299E-02-3.89444E-04-1.42676E-13
 -1      2804 1.24939E-02-3.21682E-04-1.45678E-13
 -1      2805 1.22889E-02-3.75681E-04-1.41159E-13
 -1      2806 1.26577E-02-2.56305E-04-1.48698E-13
 -1      2807 1.28197E-02-1.94030E-04-1.51737E-13
 -1      2808 1.26248E-02-2.38250E-04-1.47162E-13
 -1      2809 1.29805E-02-1.35128E-04-1.54794E-13
 -1      2810 1.31389E-02-7.92978E-05-1.57863E-13
 -1      2811 1.29545E-02-1.15003E-04-1.53240E-13
 -1      2812 1.32955E-02-2.63726E-05-1.60946E-13
 -1      2813 1.34498E-02 2.43301E-05-1.64041E-13
 -1      2814 1.32747E-02-6.40821E-06-1.59378E-13
 -1      2815 1.36022E-02 7.32295E-05-1.67148E-13
 -1      2816 1.37526E-02 1.21187E-04-1.70267E-13
 -1      2817 1.35847E-02 9.13839E-05-1.65568E-13
 -1      2818 2.26908E-03 4.78500E-04-5.87755E-15
 -1      2819 2.12727E-03 4.71697E-04-5.17163E-15
 -1      2820 1.46146E-02 8.51083E-04-1.72650E-13
 -1      2821 1.45718E-02 8.97227E-04-1.72333E-13
 -1      2822 1.44257E-02 8.85043E-04-1.69219E-13
 -1      2823 1.98536E-03 4.63261E-04-4.51111E-15
 -1      2824 1.84332E-03 4.53030E-04-3.89616E-15
 -1      2825 2.04757E-03 4.31316E-04-4.92531E-15
 -1      2826 2.83611E-03 4.94122E-04-9.15629E-15
 -1      2827 2.69434E-03 4.91629E-04-8.26937E-15
 -1      2828 3.11977E-03 4.97139E-04-1.10636E-14
 -1      2829 2.97792E-03 4.95933E-04-1.00877E-14
 -1      2830 2.90233E-03 4.58053E-04-9.72531E-15
 -1      2831 3.40367E-03 4.98160E-04-1.31466E-14
 -1      2832 3.26170E-03 4.97863E-04-1.20835E-14
 -1      2833 3.18712E-03 4.60427E-04-1.16807E-14
 -1      2834 3.68784E-03 4.97767E-04-1.54028E-14
 -1      2835 3.54573E-03 4.98115E-04-1.42532E-14
 -1      2836 3.47198E-03 4.61011E-04-1.38109E-14
 -1      2837 3.97231E-03 4.96353E-04-1.78311E-14
 -1      2838 3.83004E-03 4.97171E-04-1.65958E-14
 -1      2839 3.75696E-03 4.60324E-04-1.61128E-14
 -1      2840 4.25706E-03 4.94160E-04-2.04293E-14
 -1      2841 4.11465E-03 4.95344E-04-1.91083E-14
 -1      2842 4.04208E-03 4.58710E-04-1.85861E-14
 -1      2843 4.54213E-03 4.91317E-04-2.31946E-14
 -1      2844 4.39956E-03 4.92815E-04-2.17915E-14
 -1      2845 4.32735E-03 4.56378E-04-2.12279E-14
 -1      2846 4.82751E-03 4.87861E-04-2.61235E-14
 -1      2847 4.68478E-03 4.89665E-04-2.46389E-14
 -1      2848 4.61280E-03 4.53427E-04-2.40359E-14
 -1      2849 5.11323E-03 4.83762E-04-2.92103E-14
 -1      2850 4.97032E-03 4.85894E-04-2.76473E-14
 -1      2851 4.89842E-03 4.49875E-04-2.70053E-14
 -1      2852 5.39935E-03 4.78944E-04-3.24490E-14
 -1      2853 5.25624E-03 4.81447E-04-3.08105E-14
 -1      2854 5.18426E-03 4.45680E-04-3.01301E-14
 -1      2855 5.68591E-03 4.73307E-04-3.58409E-14
 -1      2856 5.54256E-03 4.76233E-04-3.41262E-14
 -1      2857 5.47032E-03 4.40759E-04-3.34091E-14
 -1      2858 5.97301E-03 4.66745E-04-3.93801E-14
 -1      2859 5.82938E-03 4.70145E-04-3.75921E-14
 -1      2860 5.75664E-03 4.35012E-04-3.68382E-14
 -1      2861 6.26077E-03 4.59180E-04-4.30642E-14
 -1      2862 6.11679E-03 4.63088E-04-4.12045E-14
 -1      2863 6.04327E-03 4.28340E-04-4.04152E-14
 -1      2864 6.54931E-03 4.50597E-04-4.68909E-14
 -1      2865 6.40491E-03 4.55011E-04-4.49602E-14
 -1      2866 6.33024E-03 4.20680E-04-4.41362E-14
 -1      2867 6.83879E-03 4.41103E-04-5.08592E-14
 -1      2868 6.69390E-03 4.45950E-04-4.88573E-14
 -1      2869 6.61759E-03 4.12046E-04-4.79992E-14
 -1      2870 7.12941E-03 4.31002E-04-5.49637E-14
 -1      2871 6.98392E-03 4.36102E-04-5.28942E-14
 -1      2872 6.90536E-03 4.02582E-04-5.20022E-14
 -1      2873 7.42138E-03 4.20909E-04-5.92066E-14
 -1      2874 7.27517E-03 4.25907E-04-5.70674E-14
 -1      2875 7.19358E-03 3.92645E-04-5.61429E-14
 -1      2876 7.71497E-03 4.11903E-04-6.35794E-14
 -1      2877 7.56791E-03 4.16191E-04-6.13771E-14
 -1      2878 7.48227E-03 3.82910E-04-6.04194E-14
 -1      2879 8.01059E-03 4.05746E-04-6.80810E-14
 -1      2880 7.86245E-03 4.08341E-04-6.58143E-14
 -1      2881 7.77154E-03 3.74517E-04-6.48263E-14
 -1      2882 8.30893E-03 4.05166E-04-7.27083E-14
 -1      2883 8.15931E-03 4.04558E-04-7.03795E-14
 -1      2884 8.06160E-03 3.69261E-04-6.93610E-14
 -1      2885 8.61124E-03 4.14216E-04-7.74532E-14
 -1      2886 8.45943E-03 4.08174E-04-7.50654E-14
 -1      2887 8.35308E-03 3.69837E-04-7.40186E-14
 -1      2888 8.91987E-03 4.38715E-04-8.23162E-14
 -1      2889 8.76455E-03 4.24047E-04-7.98723E-14
 -1      2890 8.64742E-03 3.80145E-04-7.87970E-14
 -1      2891 9.23892E-03 4.86737E-04-8.72855E-14
 -1      2892 9.07783E-03 4.59048E-04-8.47873E-14
 -1      2893 8.94760E-03 4.05724E-04-8.36875E-14
 -1      2894 9.57457E-03 5.68890E-04-9.23612E-14
 -1      2895 9.40444E-03 5.22440E-04-8.98084E-14
 -1      2896 9.25917E-03 4.54422E-04-8.86828E-14
 -1      2897 9.93396E-03 6.97992E-04-9.75388E-14
 -1      2898 9.75150E-03 6.26311E-04-9.49372E-14
 -1      2899 9.59077E-03 5.37619E-04-9.37811E-14
 -1      2900 1.03209E-02 8.84493E-04-1.02826E-13
 -1      2901 1.01254E-02 7.82879E-04-1.00170E-13
 -1      2902 9.95310E-03 6.70535E-04-9.89837E-14
 -1      2903 1.08060E-02 1.15383E-03-1.09855E-13
 -1      2904 1.05997E-02 1.02614E-03-1.07131E-13
 -1      2905 1.15278E-02 1.46918E-03-1.20029E-13
 -1      2906 1.13428E-02 1.43911E-03-1.17196E-13
 -1      2907 1.22379E-02 1.26954E-03-1.30910E-13
 -1      2908 1.20418E-02 1.35271E-03-1.27975E-13
 -1      2909 1.26351E-02 1.10176E-03-1.36852E-13
 -1      2910 1.24379E-02 1.18172E-03-1.33869E-13
 -1      2911 1.23701E-02 1.17207E-03-1.32475E-13
 -1      2912 1.30178E-02 9.78409E-04-1.42864E-13
 -1      2913 1.28300E-02 1.03355E-03-1.39852E-13
 -1      2914 1.27757E-02 1.00736E-03-1.38433E-13
 -1      2915 1.33756E-02 9.07833E-04-1.48942E-13
 -1      2916 1.32008E-02 9.37248E-04-1.45896E-13
 -1      2917 1.31555E-02 9.02030E-04-1.44465E-13
 -1      2918 1.37085E-02 8.80566E-04-1.55067E-13
 -1      2919 1.35449E-02 8.89962E-04-1.51999E-13
 -1      2920 1.35026E-02 8.52149E-04-1.50553E-13
 -1      2921 1.40238E-02 8.82113E-04-1.61229E-13
 -1      2922 1.38680E-02 8.78672E-04-1.58141E-13
 -1      2923 1.38239E-02 8.40180E-04-1.56686E-13
 -1      2924 1.43026E-02 8.86447E-04-1.66769E-13
 -1      2925 1.41524E-02 8.76317E-04-1.63666E-13
 -1      2926 1.41060E-02 8.38222E-04-1.62199E-13
 -1      2927 1.43529E-02 8.35432E-04-1.67084E-13
 -1      2928 1.30630E-02 7.35188E-04-1.38373E-13
 -1      2929 1.32276E-02 6.54183E-04-1.39277E-13
 -1      2930 1.46438E-02 5.91837E-04-1.73912E-13
 -1      2931 1.46769E-02 6.17352E-04-1.73842E-13
 -1      2932 1.31263E-02 2.75534E-04-1.40310E-13
 -1      2933 1.29559E-02 2.00726E-04-1.39292E-13
 -1      2934 1.32215E-02 3.06963E-04-1.42199E-13
 -1      2935 1.47217E-02 6.90425E-04-1.73602E-13
 -1      2936 1.47190E-02 7.16090E-04-1.73514E-13
 -1      2937 1.45536E-02 5.36298E-04-1.74042E-13
 -1      2938 1.46024E-02 5.65090E-04-1.73981E-13
 -1      2939 1.45122E-02 5.58894E-04-1.71242E-13
 -1      2940 1.47010E-02 6.41686E-04-1.73765E-13
 -1      2941 1.47159E-02 6.66014E-04-1.73683E-13
 -1      2942 1.46104E-02 6.60522E-04-1.70941E-13
 -1      2943 1.45808E-02 6.11236E-04-1.71100E-13
 -1      2944 1.44406E-02 4.73675E-04-1.74153E-13
 -1      2945 1.44995E-02 5.06082E-04-1.74099E-13
 -1      2946 1.44115E-02 4.99226E-04-1.71365E-13
 -1      2947 1.43105E-02 4.01711E-04-1.74252E-13
 -1      2948 1.43768E-02 4.38659E-04-1.74205E-13
 -1      2949 1.42883E-02 4.29941E-04-1.71471E-13
 -1      2950 1.41740E-02 3.23082E-04-1.74340E-13
 -1      2951 1.42425E-02 3.63047E-04-1.74298E-13
 -1      2952 1.41521E-02 3.51347E-04-1.71566E-13
 -1      2953 1.33736E-02 5.97899E-04-1.40483E-13
 -1      2954 1.35054E-02 5.57409E-04-1.41694E-13
 -1      2955 1.33479E-02 6.34236E-04-1.41630E-13
 -1      2956 1.37557E-02 4.80115E-04-1.43705E-13
 -1      2957 1.37504E-02 4.74685E-04-1.43954E-13
 -1      2958 1.19288E-02-3.86559E-04-1.30482E-13
 -1      2959 1.17429E-02-4.98162E-04-1.28170E-13
 -1      2960 8.33587E-04-2.63975E-04-9.77097E-16
 -1      2961 9.65153E-04-2.98910E-04-1.25160E-15
 -1      2962 1.10819E-03-3.26694E-04-1.60606E-15
 -1      2963 8.14029E-04-2.12348E-04-1.02004E-15
 -1      2964 1.09627E-02-6.43423E-04-1.16506E-13
 -1      2965 1.08128E-02-5.90032E-04-1.14364E-13
 -1      2966 9.19799E-03 2.70879E-04-9.96954E-14
 -1      2967 9.32033E-03 3.07239E-04-9.98879E-14
 -1      2968 1.16393E-02 1.46271E-03-1.21826E-13
 -1      2969 1.70112E-03 4.40585E-04-3.32754E-15
 -1      2970 1.55867E-03 4.25723E-04-2.80438E-15
 -1      2971 1.76207E-03 4.11255E-04-3.68717E-15
 -1      2972 1.11880E-02 1.36617E-03-1.15491E-13
 -1      2973 1.12889E-02 1.40438E-03-1.17111E-13
 -1      2974 2.55259E-03 4.88284E-04-7.42712E-15
 -1      2975 2.41085E-03 4.83986E-04-6.62984E-15
 -1      2976 2.33267E-03 4.44687E-04-6.34546E-15
 -1      2977 2.61754E-03 4.53146E-04-7.94606E-15
 -1      2978 1.41601E-03 4.07910E-04-2.32723E-15
 -1      2979 1.27296E-03 3.86882E-04-1.89622E-15
 -1      2980 1.18963E-03 3.41562E-04-1.75688E-15
 -1      2981 1.47607E-03 3.82257E-04-2.63064E-15
 -1      2982 1.06217E-02-5.05249E-04-1.11867E-13
 -1      2983 1.04469E-02-4.12612E-04-1.09779E-13
 -1      2984 1.18344E-02 1.40105E-03-1.24756E-13
 -1      2985 1.20063E-02 1.31931E-03-1.27143E-13
 -1      2986 7.84415E-04 1.23500E-04-1.03319E-15
 -1      2987 7.82035E-04 1.00057E-04-1.04794E-15
 -1      2988 8.99659E-04 9.94814E-05-1.33487E-15
 -1      2989 9.05380E-04 1.51636E-04-1.29978E-15
 -1      2990 9.49350E-03 3.72312E-04-1.00546E-13
 -1      2991 9.64522E-03 4.37508E-04-1.01187E-13
 -1      2992 7.81775E-04-9.80007E-05-1.06448E-15
 -1      2993 7.84076E-04-1.21365E-04-1.05348E-15
 -1      2994 1.21180E-02 1.26364E-03-1.28641E-13
 -1      2995 1.22717E-02 1.17265E-03-1.30506E-13
 -1      2996 9.02987E-03 2.09889E-04-9.88756E-14
 -1      2997 9.01350E-03 2.16189E-04-9.87697E-14
 -1      2998 1.39505E-02 1.83828E-04-1.74498E-13
 -1      2999 1.40333E-02 2.28598E-04-1.75024E-13
 -1      3000 1.38520E-02 1.52425E-04-1.72382E-13
 -1      3001 9.84602E-03-8.98414E-05-1.04242E-13
 -1      3002 9.66624E-03-3.48358E-06-1.03010E-13
 -1      3003 1.02310E-02-2.96697E-04-1.07482E-13
 -1      3004 1.00570E-02-2.00787E-04-1.05871E-13
 -1      3005 1.12339E-02-6.74353E-04-1.20605E-13
 -1      3006 1.11088E-02-6.70537E-04-1.18656E-13
 -1      3007 1.15308E-02-6.00452E-04-1.25247E-13
 -1      3008 1.13826E-02-6.52246E-04-1.22951E-13
 -1      3009 1.22847E-02-1.67028E-04-1.34321E-13
 -1      3010 1.21334E-02-2.62415E-04-1.32827E-13
 -1      3011 9.48575E-03 7.04227E-05-1.01745E-13
 -1      3012 9.35405E-03 1.18633E-04-1.00984E-13
 -1      3013 1.25577E-02 1.01091E-03-1.33823E-13
 -1      3014 1.27888E-02 8.84118E-04-1.36261E-13
 -1      3015 1.04172E-02 8.93375E-04-1.05901E-13
 -1      3016 7.87138E-04-1.45538E-04-1.03930E-15
 -1      3017 7.91019E-04-1.70736E-04-1.02106E-15
 -1      3018 9.04933E-04-1.49141E-04-1.32696E-15
 -1      3019 8.95529E-04 1.00888E-06-1.36679E-15
 -1      3020 7.77687E-04-9.71758E-06-1.08085E-15
 -1      3021 7.78048E-04-3.13698E-05-1.08048E-15
 -1      3022 1.07017E-02-5.61980E-04-1.12703E-13
 -1      3023 1.28502E-02 1.40550E-04-1.39648E-13
 -1      3024 1.37408E-02 4.70384E-04-1.45028E-13
 -1      3025 1.36080E-02 4.32696E-04-1.45193E-13
 -1      3026 1.35186E-02 4.11421E-04-1.43693E-13
 -1      3027 1.34750E-02 3.92274E-04-1.44719E-13
 -1      3028 9.62839E-03 4.45886E-04-9.93170E-14
 -1      3029 9.76112E-03 4.97106E-04-1.01181E-13
 -1      3030 9.86774E-03 5.62265E-04-1.01173E-13
 -1      3031 1.24254E-02-9.45730E-05-1.36433E-13
 -1      3032 1.38361E-02 1.68085E-04-1.70792E-13
 -1      3033 1.11209E-02 1.35078E-03-1.13706E-13
 -1      3034 1.09289E-02 1.24718E-03-1.10938E-13
 -1      3035 1.18283E-02 1.42361E-03-1.24704E-13
 -1      3036 1.13909E-02 1.43786E-03-1.18259E-13
 -1      3037 9.54085E-03 2.34057E-05-1.01136E-13
 -1      3038 1.46406E-02 8.16634E-04-1.72756E-13
 -1      3039 1.20318E-02-3.35039E-04-1.32390E-13
 -1      3040 1.16344E-02-5.58143E-04-1.27108E-13
 -1      3041 1.35992E-02 5.38055E-04-1.43152E-13
 -1      3042 1.36799E-02 5.28910E-04-1.44612E-13
 -1      3043 1.35775E-02 5.68608E-04-1.44304E-13
 -1      3044 1.41006E-02 2.70356E-04-1.74991E-13
 -1      3045 1.12988E-02-6.71363E-04-1.21839E-13
 -1      3046 1.16985E-03-3.06976E-04-1.84584E-15
 -1      3047 1.37611E-02 4.93752E-04-1.44672E-13
 -1      3048 1.03172E-02-3.69853E-04-1.07918E-13
 -1      3049 9.04463E-03 1.95627E-04-9.82629E-14
 -1      3050 8.99409E-03 1.91669E-04-9.67351E-14
 -1      3051 9.06776E-03 1.78556E-04-9.76478E-14
 -1      3052 9.12262E-03 2.50328E-04-9.83268E-14
 -1      3053 9.25109E-03 1.36541E-04-9.95315E-14
 -1      3054 9.35555E-03 3.25300E-04-9.86740E-14
 -1      3055 1.39217E-02 2.11528E-04-1.71527E-13
 -1      3056 1.40884E-02 2.82832E-04-1.73605E-13
 -1      3057 1.39957E-02 2.68536E-04-1.70878E-13
 -1      3058 1.38223E-02 1.82515E-04-1.69414E-13
 -1      3059 8.64837E-04 2.66614E-04-1.00991E-15
 -1      3060 9.00519E-03 2.18311E-04-9.79873E-14
 -1      3061 9.00850E-03 2.19393E-04-9.72060E-14
 -1      3062 8.97339E-03 2.06304E-04-9.65660E-14
 -1      3063 1.10214E-02 1.28078E-03-1.13144E-13
 -1      3064 1.11535E-02 1.35521E-03-1.14761E-13
 -1      3065 1.47089E-02 7.42793E-04-1.73422E-13
 -1      3066 1.46924E-02 7.71491E-04-1.73325E-13
 -1      3067 1.46024E-02 7.12480E-04-1.70768E-13
 -1      3068 7.78832E-04-5.31605E-05-1.07756E-15
 -1      3069 7.80040E-04-7.53594E-05-1.07234E-15
 -1      3070 8.99384E-04-9.71270E-05-1.35314E-15
 -1      3071 8.96426E-04-4.75342E-05-1.36582E-15
 -1      3072 1.10180E-02-6.64908E-04-1.17349E-13
 -1      3073 9.91428E-03-1.52810E-04-1.04013E-13
 -1      3074 9.82936E-04 2.75855E-04-1.30248E-15
 -1      3075 1.08587E-02 1.17544E-03-1.11325E-13
 -1      3076 1.04028E-03 2.43332E-04-1.52929E-15
 -1      3077 1.03368E-03 2.11605E-04-1.56574E-15
 -1      3078 1.29916E-02 1.94033E-04-1.42098E-13
 -1      3079 1.27871E-02 9.16292E-05-1.40566E-13
 -1      3080 1.73168E-03-3.40516E-04-3.87736E-15
 -1      3081 1.87535E-03-3.50710E-04-4.49307E-15
 -1      3082 2.01901E-03-3.59173E-04-5.15450E-15
 -1      3083 2.16266E-03-3.66068E-04-5.86124E-15
 -1      3084 1.94020E-03-3.19379E-04-4.86819E-15
 -1      3085 2.30626E-03-3.71668E-04-6.61279E-15
 -1      3086 2.44981E-03-3.76097E-04-7.40903E-15
 -1      3087 2.22825E-03-3.32439E-04-6.28493E-15
 -1      3088 2.59331E-03-3.79575E-04-8.24961E-15
 -1      3089 2.73675E-03-3.82199E-04-9.13446E-15
 -1      3090 2.51624E-03-3.40867E-04-7.88039E-15
 -1      3091 2.88013E-03-3.84138E-04-1.00632E-14
 -1      3092 3.02346E-03-3.85464E-04-1.10361E-14
 -1      3093 2.80401E-03-3.45883E-04-9.65203E-15
 -1      3094 3.16675E-03-3.86305E-04-1.20522E-14
 -1      3095 3.30998E-03-3.86712E-04-1.31114E-14
 -1      3096 3.09152E-03-3.48435E-04-1.15983E-14
 -1      3097 3.45318E-03-3.86775E-04-1.42127E-14
 -1      3098 3.59633E-03-3.86532E-04-1.53565E-14
 -1      3099 3.37875E-03-3.49236E-04-1.37166E-14
 -1      3100 3.73946E-03-3.86043E-04-1.65427E-14
 -1      3101 3.88254E-03-3.85333E-04-1.77705E-14
 -1      3102 3.66571E-03-3.48795E-04-1.60047E-14
 -1      3103 4.02561E-03-3.84440E-04-1.90400E-14
 -1      3104 4.16864E-03-3.83378E-04-2.03521E-14
 -1      3105 3.95241E-03-3.47463E-04-1.84608E-14
 -1      3106 4.31165E-03-3.82169E-04-2.17050E-14
 -1      3107 4.45463E-03-3.80817E-04-2.30981E-14
 -1      3108 4.23888E-03-3.45457E-04-2.10826E-14
 -1      3109 4.59760E-03-3.79332E-04-2.45316E-14
 -1      3110 4.74054E-03-3.77712E-04-2.60066E-14
 -1      3111 4.52513E-03-3.42897E-04-2.38685E-14
 -1      3112 4.88346E-03-3.75959E-04-2.75229E-14
 -1      3113 5.02636E-03-3.74065E-04-2.90783E-14
 -1      3114 4.81116E-03-3.39825E-04-2.68158E-14
 -1      3115 5.16925E-03-3.72027E-04-3.06729E-14
 -1      3116 5.31212E-03-3.69834E-04-3.23082E-14
 -1      3117 5.09697E-03-3.36228E-04-2.99246E-14
 -1      3118 5.45496E-03-3.67481E-04-3.39847E-14
 -1      3119 5.59779E-03-3.64956E-04-3.57005E-14
 -1      3120 5.38254E-03-3.32056E-04-3.31922E-14
 -1      3121 5.74060E-03-3.62255E-04-3.74560E-14
 -1      3122 5.88341E-03-3.59370E-04-3.92499E-14
 -1      3123 5.66787E-03-3.27241E-04-3.66205E-14
 -1      3124 6.02619E-03-3.56299E-04-4.10828E-14
 -1      3125 6.16897E-03-3.53040E-04-4.29541E-14
 -1      3126 5.95292E-03-3.21720E-04-4.02064E-14
 -1      3127 6.31173E-03-3.49604E-04-4.48637E-14
 -1      3128 6.45452E-03-3.45995E-04-4.68096E-14
 -1      3129 6.23768E-03-3.15458E-04-4.39444E-14
 -1      3130 6.59731E-03-3.42241E-04-4.87944E-14
 -1      3131 6.74014E-03-3.38360E-04-5.08146E-14
 -1      3132 6.52216E-03-3.08474E-04-4.78334E-14
 -1      3133 6.88302E-03-3.34403E-04-5.28706E-14
 -1      3134 7.02600E-03-3.30410E-04-5.49618E-14
 -1      3135 6.80640E-03-3.00886E-04-5.18679E-14
 -1      3136 7.16909E-03-3.26463E-04-5.70867E-14
 -1      3137 7.31238E-03-3.22635E-04-5.92451E-14
 -1      3138 7.09055E-03-2.92947E-04-5.60441E-14
 -1      3139 7.45590E-03-3.19040E-04-6.14366E-14
 -1      3140 7.59977E-03-3.15805E-04-6.36600E-14
 -1      3141 7.37491E-03-2.85109E-04-6.03554E-14
 -1      3142 7.74405E-03-3.13080E-04-6.59136E-14
 -1      3143 7.88893E-03-3.11064E-04-6.81972E-14
 -1      3144 7.66002E-03-2.78087E-04-6.47963E-14
 -1      3145 8.03452E-03-3.09945E-04-7.05111E-14
 -1      3146 8.18104E-03-3.10029E-04-7.28539E-14
 -1      3147 7.94677E-03-2.72954E-04-6.93599E-14
 -1      3148 8.32873E-03-3.11529E-04-7.52250E-14
 -1      3149 8.47780E-03-3.14902E-04-7.76225E-14
 -1      3150 8.23657E-03-2.71255E-04-7.40417E-14
 -1      3151 8.62862E-03-3.20374E-04-8.00452E-14
 -1      3152 8.78140E-03-3.28593E-04-8.24966E-14
 -1      3153 8.53151E-03-2.75181E-04-7.88327E-14
 -1      3154 8.93663E-03-3.39772E-04-8.49737E-14
 -1      3155 9.09436E-03-3.54758E-04-8.74761E-14
 -1      3156 8.83436E-03-2.87799E-04-8.37308E-14
 -1      3157 9.25519E-03-3.73703E-04-9.00026E-14
 -1      3158 9.41879E-03-3.97528E-04-9.25548E-14
 -1      3159 9.14843E-03-3.13291E-04-8.87321E-14
 -1      3160 9.58574E-03-4.26227E-04-9.51322E-14
 -1      3161 9.75496E-03-4.60357E-04-9.77327E-14
 -1      3162 9.47665E-03-3.56904E-04-9.38316E-14
 -1      3163 9.92681E-03-4.99572E-04-1.00357E-13
 -1      3164 1.00992E-02-5.42837E-04-1.03007E-13
 -1      3165 9.81971E-03-4.23877E-04-9.90261E-14
 -1      3166 1.02722E-02-5.88880E-04-1.05682E-13
 -1      3167 1.04431E-02-6.34447E-04-1.08380E-13
 -1      3168 1.01732E-02-5.14382E-04-1.04321E-13
 -1      3169 1.06114E-02-6.77354E-04-1.11103E-13
 -1      3170 1.07761E-02-7.11240E-04-1.13849E-13
 -1      3171 1.05254E-02-6.16009E-04-1.09714E-13
 -1      3172 1.09366E-02-7.33742E-04-1.16617E-13
 -1      3173 1.10953E-02-7.38973E-04-1.19409E-13
 -1      3174 1.08641E-02-6.97173E-04-1.15201E-13
 -1      3175 1.12516E-02-7.25899E-04-1.22226E-13
 -1      3176 1.14101E-02-6.94091E-04-1.25069E-13
 -1      3177 1.11885E-02-7.14265E-04-1.20783E-13
 -1      3178 1.15700E-02-6.44538E-04-1.27935E-13
 -1      3179 1.17346E-02-5.83011E-04-1.30828E-13
 -1      3180 1.15123E-02-6.44800E-04-1.26467E-13
 -1      3181 1.19026E-02-5.11631E-04-1.33744E-13
 -1      3182 1.20735E-02-4.36831E-04-1.36681E-13
 -1      3183 1.18508E-02-5.08184E-04-1.32251E-13
 -1      3184 1.22466E-02-3.61070E-04-1.39644E-13
 -1      3185 1.24194E-02-2.87696E-04-1.42627E-13
 -1      3186 1.22037E-02-3.47166E-04-1.38130E-13
 -1      3187 1.25919E-02-2.17815E-04-1.45628E-13
 -1      3188 1.27618E-02-1.52513E-04-1.48647E-13
 -1      3189 1.25591E-02-1.96112E-04-1.44094E-13
 -1      3190 1.29294E-02-9.21191E-05-1.51685E-13
 -1      3191 1.30936E-02-3.59714E-05-1.54741E-13
 -1      3192 1.29051E-02-6.66387E-05-1.50134E-13
 -1      3193 1.32549E-02 1.61030E-05-1.57811E-13
 -1      3194 1.34130E-02 6.52121E-05-1.60892E-13
 -1      3195 1.32364E-02 4.13146E-05-1.56243E-13
 -1      3196 1.35432E-02 1.02004E-04-1.63590E-13
 -1      3197 1.36961E-02 1.47360E-04-1.66695E-13
 -1      3198 1.37836E-02 1.92644E-04-1.67426E-13
 -1      3199 1.35276E-02 1.24705E-04-1.62011E-13
 -1      3200 2.11105E-03 3.98741E-04-5.34630E-15
 -1      3201 1.96783E-03 3.90849E-04-4.67760E-15
 -1      3202 1.24236E-02 1.12011E-03-1.32844E-13
 -1      3203 3.25494E-03 4.23411E-04-1.23019E-14
 -1      3204 3.11207E-03 4.22751E-04-1.12785E-14
 -1      3205 2.96918E-03 4.21607E-04-1.02982E-14
 -1      3206 2.82627E-03 4.19920E-04-9.36249E-15
 -1      3207 3.03665E-03 3.84859E-04-1.08764E-14
 -1      3208 3.82631E-03 4.22701E-04-1.68262E-14
 -1      3209 3.68348E-03 4.23285E-04-1.56305E-14
 -1      3210 4.11199E-03 4.20942E-04-1.93436E-14
 -1      3211 3.96915E-03 4.21914E-04-1.80636E-14
 -1      3212 3.89591E-03 3.84951E-04-1.75423E-14
 -1      3213 4.39769E-03 4.18521E-04-2.20290E-14
 -1      3214 4.25484E-03 4.19808E-04-2.06657E-14
 -1      3215 4.18206E-03 3.83096E-04-2.01043E-14
 -1      3216 4.68343E-03 4.15511E-04-2.48793E-14
 -1      3217 4.54056E-03 4.17088E-04-2.34340E-14
 -1      3218 4.46809E-03 3.80632E-04-2.28331E-14
 -1      3219 4.96921E-03 4.11915E-04-2.78885E-14
 -1      3220 4.82631E-03 4.13788E-04-2.63638E-14
 -1      3221 4.75403E-03 3.77612E-04-2.57241E-14
 -1      3222 5.25504E-03 4.07682E-04-3.10529E-14
 -1      3223 5.11212E-03 4.09882E-04-2.94518E-14
 -1      3224 5.03986E-03 3.74026E-04-2.87734E-14
 -1      3225 5.54093E-03 4.02727E-04-3.43707E-14
 -1      3226 5.39797E-03 4.05300E-04-3.26928E-14
 -1      3227 5.32558E-03 3.69816E-04-3.19778E-14
 -1      3228 5.82686E-03 3.96954E-04-3.78384E-14
 -1      3229 5.68388E-03 3.99948E-04-3.60860E-14
 -1      3230 5.61116E-03 3.64900E-04-3.53341E-14
 -1      3231 6.11281E-03 3.90277E-04-4.14520E-14
 -1      3232 5.96982E-03 3.93732E-04-3.96267E-14
 -1      3233 5.89653E-03 3.59191E-04-3.88392E-14
 -1      3234 6.39876E-03 3.82656E-04-4.52093E-14
 -1      3235 6.25578E-03 3.86585E-04-4.33127E-14
 -1      3236 6.18163E-03 3.52624E-04-4.24905E-14
 -1      3237 6.68463E-03 3.74136E-04-4.91093E-14
 -1      3238 6.54169E-03 3.78504E-04-4.71418E-14
 -1      3239 6.46632E-03 3.45184E-04-4.62850E-14
 -1      3240 6.97032E-03 3.64907E-04-5.31476E-14
 -1      3241 6.82748E-03 3.69597E-04-5.11116E-14
 -1      3242 6.75043E-03 3.36955E-04-5.02203E-14
 -1      3243 7.25571E-03 3.55374E-04-5.73248E-14
 -1      3244 7.11304E-03 3.60152E-04-5.52191E-14
 -1      3245 7.03373E-03 3.28170E-04-5.42957E-14
 -1      3246 7.54065E-03 3.46264E-04-6.16359E-14
 -1      3247 7.39822E-03 3.50721E-04-5.94642E-14
 -1      3248 7.31591E-03 3.19285E-04-5.85091E-14
 -1      3249 7.82502E-03 3.38749E-04-6.60761E-14
 -1      3250 7.68287E-03 3.42234E-04-6.38402E-14
 -1      3251 7.59664E-03 3.11063E-04-6.28548E-14
 -1      3252 8.10887E-03 3.34601E-04-7.06441E-14
 -1      3253 7.96694E-03 3.36139E-04-6.83433E-14
 -1      3254 7.87560E-03 3.04670E-04-6.73274E-14
 -1      3255 8.39272E-03 3.36377E-04-7.53333E-14
 -1      3256 8.25067E-03 3.34568E-04-7.29744E-14
 -1      3257 8.15263E-03 3.01786E-04-7.19280E-14
 -1      3258 8.67809E-03 3.47668E-04-8.01411E-14
 -1      3259 8.53499E-03 3.40543E-04-7.77215E-14
 -1      3260 8.42808E-03 3.04711E-04-7.66503E-14
 -1      3261 8.96842E-03 3.73517E-04-8.50578E-14
 -1      3262 8.82223E-03 3.58265E-04-8.25862E-14
 -1      3263 8.70343E-03 3.16533E-04-8.14856E-14
 -1      3264 9.27059E-03 4.21474E-04-9.00787E-14
 -1      3265 9.11737E-03 3.93773E-04-8.75556E-14
 -1      3266 8.98236E-03 3.41570E-04-8.64292E-14
 -1      3267 9.59528E-03 5.03595E-04-9.52025E-14
 -1      3268 9.42909E-03 4.56581E-04-9.26292E-14
 -1      3269 9.27265E-03 3.86876E-04-9.14770E-14
 -1      3270 9.94365E-03 6.27999E-04-1.00464E-13
 -1      3271 9.75814E-03 5.51703E-04-9.78384E-14
 -1      3272 1.19429E-02 1.39643E-03-1.26479E-13
 -1      3273 1.20558E-02 1.32101E-03-1.28027E-13
 -1      3274 1.36364E-02 7.95061E-04-1.52178E-13
 -1      3275 1.34752E-02 8.04357E-04-1.49119E-13
 -1      3276 1.39429E-02 7.98738E-04-1.58319E-13
 -1      3277 1.37917E-02 7.94166E-04-1.55243E-13
 -1      3278 1.37662E-02 7.46639E-04-1.53800E-13
 -1      3279 1.29381E-02 8.07350E-04-1.37735E-13
 -1      3280 1.30896E-02 7.55133E-04-1.39779E-13
 -1      3281 1.42656E-02 4.60846E-04-1.68694E-13
 -1      3282 1.43249E-02 4.94555E-04-1.68639E-13
 -1      3283 1.38045E-02 4.84355E-04-1.47451E-13
 -1      3284 1.37254E-02 4.63719E-04-1.46586E-13
 -1      3285 1.39905E-02 2.98776E-04-1.68884E-13
 -1      3286 1.40618E-02 3.42410E-04-1.68840E-13
 -1      3287 1.43788E-02 5.25823E-04-1.68578E-13
 -1      3288 1.44244E-02 5.54608E-04-1.68513E-13
 -1      3289 1.42418E-02 4.92022E-04-1.65919E-13
 -1      3290 1.33167E-02 6.75851E-04-1.42574E-13
 -1      3291 1.34451E-02 6.28457E-04-1.43790E-13
 -1      3292 9.32148E-04-2.20508E-04-1.30966E-15
 -1      3293 1.37633E-02 5.11153E-04-1.45832E-13
 -1      3294 1.38148E-02 5.03883E-04-1.47049E-13
 -1      3295 1.37614E-02 5.33490E-04-1.46990E-13
 -1      3296 1.41320E-02 3.84217E-04-1.68796E-13
 -1      3297 1.42006E-02 4.23924E-04-1.68746E-13
 -1      3298 1.41145E-02 4.20079E-04-1.66029E-13
 -1      3299 1.39720E-02 3.35885E-04-1.66124E-13
 -1      3300 9.05264E-03 2.32458E-04-9.69058E-14
 -1      3301 9.11947E-03 2.51324E-04-9.66007E-14
 -1      3302 8.99290E-03 2.18688E-04-9.54897E-14
 -1      3303 1.32858E-02 3.19595E-04-1.44157E-13
 -1      3304 1.31408E-02 2.61937E-04-1.43128E-13
 -1      3305 1.30765E-02 2.13295E-04-1.44051E-13
 -1      3306 1.33590E-02 7.72812E-04-1.46122E-13
 -1      3307 1.31874E-02 8.00027E-04-1.43091E-13
 -1      3308 1.82455E-03 3.81202E-04-4.05425E-15
 -1      3309 1.68119E-03 3.69626E-04-3.47606E-15
 -1      3310 1.88827E-03 3.50475E-04-4.42935E-15
 -1      3311 1.07681E-02-6.11584E-04-1.13529E-13
 -1      3312 1.05952E-02-5.39063E-04-1.11038E-13
 -1      3313 1.25756E-02-2.65488E-05-1.38945E-13
 -1      3314 1.23853E-02-1.41029E-04-1.37246E-13
 -1      3315 3.54064E-03 4.23623E-04-1.44774E-14
 -1      3316 3.39780E-03 4.23688E-04-1.33679E-14
 -1      3317 3.32324E-03 3.86158E-04-1.29264E-14
 -1      3318 3.60965E-03 3.86056E-04-1.51486E-14
 -1      3319 9.24839E-03 1.08730E-04-9.80931E-14
 -1      3320 9.14230E-03 1.49973E-04-9.77454E-14
 -1      3321 1.21352E-02-2.92954E-04-1.34627E-13
 -1      3322 1.19524E-02-4.01422E-04-1.32270E-13
 -1      3323 1.00933E-02 6.98376E-04-1.02343E-13
 -1      3324 1.02333E-02 7.73467E-04-1.04118E-13
 -1      3325 1.10789E-02-6.85547E-04-1.18423E-13
 -1      3326 1.09468E-02-6.64875E-04-1.16275E-13
 -1      3327 1.03742E-02-4.38924E-04-1.08091E-13
 -1      3328 1.01815E-02-3.37940E-04-1.05808E-13
 -1      3329 9.58103E-03-2.53708E-05-1.00405E-13
 -1      3330 9.42244E-03 3.92008E-05-9.91548E-14
 -1      3331 1.14499E-03 3.10640E-04-1.69642E-15
 -1      3332 1.08236E-03 2.71712E-04-1.59532E-15
 -1      3333 1.20147E-03 2.73145E-04-1.95883E-15
 -1      3334 1.28814E-03 3.32609E-04-2.10315E-15
 -1      3335 9.94224E-03-2.12306E-04-1.03318E-13
 -1      3336 9.75807E-03-1.14731E-04-1.01708E-13
 -1      3337 1.14132E-03-2.54828E-04-1.85972E-15
 -1      3338 1.35244E-03-2.83653E-04-2.50993E-15
 -1      3339 1.11647E-03-2.05791E-04-1.85975E-15
 -1      3340 1.47010E-03-3.06471E-04-2.89474E-15
 -1      3341 1.61366E-03-3.20179E-04-3.42917E-15
 -1      3342 1.67834E-03-2.91735E-04-3.75661E-15
 -1      3343 1.44325E-03-2.51790E-04-2.89849E-15
 -1      3344 1.17377E-02-5.15077E-04-1.29131E-13
 -1      3345 1.15445E-02-6.07359E-04-1.26198E-13
 -1      3346 9.23641E-03 2.91785E-04-9.66435E-14
 -1      3347 9.38338E-03 3.45733E-04-9.72895E-14
 -1      3348 1.01664E-03 6.82241E-05-1.67089E-15
 -1      3349 1.01547E-03 4.12301E-05-1.68024E-15
 -1      3350 1.45340E-02 7.85876E-04-1.70110E-13
 -1      3351 1.28375E-02 8.94713E-04-1.37659E-13
 -1      3352 1.01487E-03 1.44402E-05-1.68625E-15
 -1      3353 1.01483E-03-1.22618E-05-1.68916E-15
 -1      3354 1.13557E-03 3.01656E-05-2.03819E-15
 -1      3355 1.27320E-02 3.64797E-05-1.41386E-13
 -1      3356 1.04520E-02-5.05585E-04-1.08900E-13
 -1      3357 1.37035E-02 4.53001E-04-1.47616E-13
 -1      3358 9.62006E-03-8.76620E-05-9.97198E-14
 -1      3359 1.12726E-02 1.41891E-03-1.16062E-13
 -1      3360 1.55629E-03 3.61563E-04-2.99783E-15
 -1      3361 1.41292E-03 3.45386E-04-2.50462E-15
 -1      3362 1.36910E-03 3.15139E-04-2.42649E-15
 -1      3363 1.61930E-03 3.33950E-04-3.32261E-15
 -1      3364 1.35102E-02 3.86555E-04-1.47157E-13
 -1      3365 1.34023E-02 3.57181E-04-1.45655E-13
 -1      3366 1.33370E-02 3.16352E-04-1.46587E-13
 -1      3367 9.28717E-03 6.76764E-05-9.73710E-14
 -1      3368 9.16410E-03 8.47749E-05-9.55988E-14
 -1      3369 9.31691E-03 2.25244E-05-9.66480E-14
 -1      3370 2.74987E-03 3.81581E-04-8.99953E-15
 -1      3371 2.68332E-03 4.17551E-04-8.47009E-15
 -1      3372 2.54034E-03 4.14418E-04-7.62212E-15
 -1      3373 9.57318E-03 4.56175E-04-9.66598E-14
 -1      3374 1.10755E-03-1.44156E-04-1.90271E-15
 -1      3375 1.11145E-03-1.74533E-04-1.88350E-15
 -1      3376 1.32073E-03-1.96484E-04-2.53917E-15
 -1      3377 1.38797E-02 5.15753E-04-1.49782E-13
 -1      3378 1.38480E-02 4.99963E-04-1.48615E-13
 -1      3379 1.38650E-02 4.96034E-04-1.50184E-13
 -1      3380 1.40693E-02 7.94299E-04-1.60749E-13
 -1      3381 1.40367E-02 7.50041E-04-1.59298E-13
 -1      3382 1.41922E-02 7.92886E-04-1.63185E-13
 -1      3383 1.32089E-02 7.34190E-04-1.41931E-13
 -1      3384 1.35300E-02 6.43149E-04-1.46203E-13
 -1      3385 1.35501E-02 6.03875E-04-1.45253E-13
 -1      3386 1.36459E-02 5.87616E-04-1.46719E-13
 -1      3387 1.44200E-02 7.81555E-04-1.67660E-13
 -1      3388 1.43040E-02 7.78279E-04-1.65213E-13
 -1      3389 1.44789E-02 7.34047E-04-1.68227E-13
 -1      3390 1.45004E-02 6.30329E-04-1.68287E-13
 -1      3391 1.45043E-02 6.55476E-04-1.68205E-13
 -1      3392 9.13904E-03 2.67238E-04-9.52309E-14
 -1      3393 1.44604E-02 5.80838E-04-1.68442E-13
 -1      3394 1.44859E-02 6.06064E-04-1.68366E-13
 -1      3395 1.43912E-02 6.00837E-04-1.65639E-13
 -1      3396 1.43384E-02 5.50815E-04-1.65789E-13
 -1      3397 1.35129E-02 7.07420E-04-1.47732E-13
 -1      3398 1.45048E-02 6.79058E-04-1.68265E-13
 -1      3399 1.44913E-02 7.06906E-04-1.68174E-13
 -1      3400 1.43865E-02 6.99150E-04-1.65730E-13
 -1      3401 1.44026E-02 6.48272E-04-1.65618E-13
 -1      3402 9.06137E-03 1.53194E-04-9.62222E-14
 -1      3403 1.10448E-03-1.14522E-04-1.91718E-15
 -1      3404 1.31267E-03-1.29796E-04-2.57966E-15
 -1      3405 1.10225E-03-8.54861E-05-1.92748E-15
 -1      3406 2.25421E-03 4.05190E-04-6.06026E-15
 -1      3407 2.17564E-03 3.65614E-04-5.77468E-15
 -1      3408 2.39730E-03 4.10333E-04-6.81918E-15
 -1      3409 1.08366E-02-6.52564E-04-1.14587E-13
 -1      3410 1.22892E-02-2.22434E-04-1.37123E-13
 -1      3411 8.96234E-03 1.95023E-04-9.59602E-14
 -1      3412 8.94152E-03 1.96757E-04-9.51848E-14
 -1      3413 8.96121E-03 1.82177E-04-9.53522E-14
 -1      3414 1.15311E-03 2.11874E-04-1.92052E-15
 -1      3415 1.02836E-03 1.81222E-04-1.59592E-15
 -1      3416 1.02419E-03 1.51886E-04-1.62106E-15
 -1      3417 1.28341E-02 9.53993E-04-1.38805E-13
 -1      3418 1.29643E-02 8.87511E-04-1.40289E-13
 -1      3419 1.26321E-02 1.02788E-03-1.35813E-13
 -1      3420 1.02090E-03 1.23336E-04-1.64156E-15
 -1      3421 1.01844E-03 9.55548E-05-1.65819E-15
 -1      3422 1.13823E-03 8.86474E-05-2.01651E-15
 -1      3423 1.14381E-03 1.48818E-04-1.97821E-15
 -1      3424 1.18496E-02-4.74040E-04-1.31343E-13
 -1      3425 1.00142E-02-2.90551E-04-1.03484E-13
 -1      3426 1.13351E-02-6.70341E-04-1.22726E-13
 -1      3427 1.11992E-02-6.86713E-04-1.20385E-13
 -1      3428 1.38429E-02 2.24966E-04-1.67792E-13
 -1      3429 1.39310E-02 2.68137E-04-1.68520E-13
 -1      3430 1.38381E-02 2.58690E-04-1.65805E-13
 -1      3431 1.37167E-02 1.92858E-04-1.65077E-13
 -1      3432 1.11216E-02-6.97275E-04-1.19298E-13
 -1      3433 1.31987E-02 2.43906E-04-1.46504E-13
 -1      3434 1.30653E-02 1.81862E-04-1.45465E-13
 -1      3435 9.43645E-03 3.74478E-04-9.69834E-14
 -1      3436 9.52663E-03 4.23978E-04-9.69714E-14
 -1      3437 9.38497E-03 3.91732E-04-9.43487E-14
 -1      3438 9.30022E-03 3.36680E-04-9.49636E-14
 -1      3439 1.11310E-02-7.06897E-04-1.19619E-13
 -1      3440 1.10172E-02-7.03714E-04-1.17661E-13
 -1      3441 2.15049E-03-2.93375E-04-5.95966E-15
 -1      3442 2.29485E-03-2.98245E-04-6.71448E-15
 -1      3443 2.43921E-03-3.02152E-04-7.51333E-15
 -1      3444 2.58353E-03-3.05189E-04-8.35662E-15
 -1      3445 2.36234E-03-2.63533E-04-7.14888E-15
 -1      3446 2.72781E-03-3.07519E-04-9.24276E-15
 -1      3447 2.87201E-03-3.09215E-04-1.01729E-14
 -1      3448 2.65162E-03-2.69120E-04-8.83661E-15
 -1      3449 3.01614E-03-3.10404E-04-1.11470E-14
 -1      3450 3.16017E-03-3.11138E-04-1.21638E-14
 -1      3451 2.94067E-03-2.72259E-04-1.06982E-14
 -1      3452 3.30413E-03-3.11512E-04-1.32235E-14
 -1      3453 3.44798E-03-3.11563E-04-1.43252E-14
 -1      3454 3.22938E-03-2.73634E-04-1.27324E-14
 -1      3455 3.59176E-03-3.11360E-04-1.54692E-14
 -1      3456 3.73543E-03-3.10926E-04-1.66555E-14
 -1      3457 3.51766E-03-2.73753E-04-1.49365E-14
 -1      3458 3.87902E-03-3.10307E-04-1.78827E-14
 -1      3459 4.02253E-03-3.09516E-04-1.91521E-14
 -1      3460 3.80549E-03-2.72977E-04-1.73076E-14
 -1      3461 4.16594E-03-3.08584E-04-2.04629E-14
 -1      3462 4.30927E-03-3.07513E-04-2.18147E-14
 -1      3463 4.09287E-03-2.71543E-04-1.98456E-14
 -1      3464 4.45252E-03-3.06322E-04-2.32062E-14
 -1      3465 4.59568E-03-3.05006E-04-2.46381E-14
 -1      3466 4.37981E-03-2.69591E-04-2.25467E-14
 -1      3467 4.73876E-03-3.03575E-04-2.61120E-14
 -1      3468 4.88175E-03-3.02020E-04-2.76259E-14
 -1      3469 4.66630E-03-2.67187E-04-2.54112E-14
 -1      3470 5.02465E-03-3.00342E-04-2.91790E-14
 -1      3471 5.16746E-03-2.98529E-04-3.07714E-14
 -1      3472 4.95232E-03-2.64338E-04-2.84362E-14
 -1      3473 5.31016E-03-2.96579E-04-3.24046E-14
 -1      3474 5.45277E-03-2.94477E-04-3.40781E-14
 -1      3475 5.23784E-03-2.61008E-04-3.16205E-14
 -1      3476 5.59526E-03-2.92220E-04-3.57905E-14
 -1      3477 5.73764E-03-2.89792E-04-3.75428E-14
 -1      3478 5.52280E-03-2.57138E-04-3.49640E-14
 -1      3479 5.87989E-03-2.87194E-04-3.93332E-14
 -1      3480 6.02202E-03-2.84410E-04-4.11625E-14
 -1      3481 5.80712E-03-2.52652E-04-3.84644E-14
 -1      3482 6.16400E-03-2.81445E-04-4.30305E-14
 -1      3483 6.30585E-03-2.78287E-04-4.49351E-14
 -1      3484 6.09072E-03-2.47480E-04-4.21202E-14
 -1      3485 6.44754E-03-2.74953E-04-4.68775E-14
 -1      3486 6.58910E-03-2.71436E-04-4.88566E-14
 -1      3487 6.37350E-03-2.41571E-04-4.59260E-14
 -1      3488 6.73051E-03-2.67766E-04-5.08704E-14
 -1      3489 6.87180E-03-2.63950E-04-5.29204E-14
 -1      3490 6.65540E-03-2.34918E-04-4.98779E-14
 -1      3491 7.01296E-03-2.60035E-04-5.50068E-14
 -1      3492 7.15405E-03-2.56048E-04-5.71254E-14
 -1      3493 6.93638E-03-2.27584E-04-5.39726E-14
 -1      3494 7.29509E-03-2.52057E-04-5.92796E-14
 -1      3495 7.43617E-03-2.48121E-04-6.14667E-14
 -1      3496 7.21655E-03-2.19732E-04-5.82073E-14
 -1      3497 7.57733E-03-2.44332E-04-6.36839E-14
 -1      3498 7.71873E-03-2.40802E-04-6.59333E-14
 -1      3499 7.49619E-03-2.11672E-04-6.25750E-14
 -1      3500 7.86045E-03-2.37643E-04-6.82126E-14
 -1      3501 8.00273E-03-2.35056E-04-7.05219E-14
 -1      3502 7.77590E-03-2.03919E-04-6.70686E-14
 -1      3503 8.14574E-03-2.33168E-04-7.28613E-14
 -1      3504 8.28981E-03-2.32324E-04-7.52291E-14
 -1      3505 8.05679E-03-1.97295E-04-7.16832E-14
 -1      3506 8.43523E-03-2.32661E-04-7.76220E-14
 -1      3507 8.58242E-03-2.34758E-04-8.00427E-14
 -1      3508 8.34065E-03-1.93091E-04-7.64138E-14
 -1      3509 8.73184E-03-2.38760E-04-8.24902E-14
 -1      3510 8.88397E-03-2.45600E-04-8.49652E-14
 -1      3511 8.63032E-03-1.93398E-04-8.12528E-14
 -1      3512 9.03947E-03-2.55445E-04-8.74638E-14
 -1      3513 9.19867E-03-2.69679E-04-8.99862E-14
 -1      3514 8.92991E-03-2.01671E-04-8.61966E-14
 -1      3515 9.36248E-03-2.88473E-04-9.25339E-14
 -1      3516 9.53061E-03-3.13651E-04-9.51056E-14
 -1      3517 9.24471E-03-2.23590E-04-9.12397E-14
 -1      3518 9.70431E-03-3.45273E-04-9.77022E-14
 -1      3519 9.88156E-03-3.84977E-04-1.00321E-13
 -1      3520 9.58044E-03-2.67735E-04-9.63785E-14
 -1      3521 1.01170E-02-4.35727E-04-1.03817E-13
 -1      3522 1.03013E-02-4.91882E-04-1.06493E-13
 -1      3523 1.05039E-02-5.75599E-04-1.09424E-13
 -1      3524 1.06813E-02-6.29106E-04-1.12152E-13
 -1      3525 1.12946E-02-6.91884E-04-1.22438E-13
 -1      3526 1.14936E-02-6.40534E-04-1.25905E-13
 -1      3527 1.16628E-02-5.77001E-04-1.28780E-13
 -1      3528 1.25284E-02-1.71798E-04-1.42563E-13
 -1      3529 1.27080E-02-1.00624E-04-1.45565E-13
 -1      3530 1.28838E-02-3.79839E-05-1.48586E-13
 -1      3531 1.30543E-02 1.87516E-05-1.51623E-13
 -1      3532 1.28657E-02-6.27230E-06-1.47038E-13
 -1      3533 1.32205E-02 6.95184E-05-1.54678E-13
 -1      3534 1.33819E-02 1.16280E-04-1.57748E-13
 -1      3535 1.32076E-02 1.00903E-04-1.53116E-13
 -1      3536 3.10473E-03 3.47811E-04-1.14589E-14
 -1      3537 2.96099E-03 3.46781E-04-1.04748E-14
 -1      3538 4.25227E-03 3.45196E-04-2.08681E-14
 -1      3539 4.10905E-03 3.46221E-04-1.95441E-14
 -1      3540 3.96576E-03 3.47094E-04-1.82623E-14
 -1      3541 3.82242E-03 3.47806E-04-1.70222E-14
 -1      3542 4.03585E-03 3.09179E-04-1.89855E-14
 -1      3543 4.82459E-03 3.39769E-04-2.65713E-14
 -1      3544 4.68160E-03 3.41322E-04-2.50858E-14
 -1      3545 5.11038E-03 3.36254E-04-2.96610E-14
 -1      3546 4.96752E-03 3.38083E-04-2.80965E-14
 -1      3547 4.89511E-03 3.02026E-04-2.74207E-14
 -1      3548 5.39588E-03 3.32140E-04-3.29036E-14
 -1      3549 5.25317E-03 3.34277E-04-3.12631E-14
 -1      3550 5.18077E-03 2.98645E-04-3.05498E-14
 -1      3551 5.68103E-03 3.27351E-04-3.62984E-14
 -1      3552 5.53850E-03 3.29836E-04-3.45818E-14
 -1      3553 5.46595E-03 2.94702E-04-3.38313E-14
 -1      3554 5.96572E-03 3.21815E-04-3.98419E-14
 -1      3555 5.82343E-03 3.24682E-04-3.80517E-14
 -1      3556 5.75056E-03 2.90131E-04-3.72638E-14
 -1      3557 6.24979E-03 3.15490E-04-4.35302E-14
 -1      3558 6.10783E-03 3.18755E-04-4.16678E-14
 -1      3559 6.03442E-03 2.84880E-04-4.08460E-14
 -1      3560 6.53304E-03 3.08393E-04-4.73622E-14
 -1      3561 6.39152E-03 3.12039E-04-4.54288E-14
 -1      3562 6.31733E-03 2.78934E-04-4.45735E-14
 -1      3563 6.81517E-03 3.00650E-04-5.13344E-14
 -1      3564 6.67425E-03 3.04598E-04-4.93306E-14
 -1      3565 6.59897E-03 2.72347E-04-4.84414E-14
 -1      3566 7.09583E-03 2.92540E-04-5.54458E-14
 -1      3567 6.95569E-03 2.96629E-04-5.33725E-14
 -1      3568 6.87895E-03 2.65288E-04-5.24503E-14
 -1      3569 7.37453E-03 2.84561E-04-5.96948E-14
 -1      3570 7.23543E-03 2.88512E-04-5.75535E-14
 -1      3571 7.15677E-03 2.58081E-04-5.65984E-14
 -1      3572 7.65075E-03 2.77498E-04-6.40752E-14
 -1      3573 7.51296E-03 2.80879E-04-6.18688E-14
 -1      3574 7.43178E-03 2.51262E-04-6.08833E-14
 -1      3575 7.92393E-03 2.72487E-04-6.85828E-14
 -1      3576 7.78771E-03 2.74683E-04-6.63133E-14
 -1      3577 7.70325E-03 2.45621E-04-6.52987E-14
 -1      3578 8.19366E-03 2.71064E-04-7.32157E-14
 -1      3579 8.05918E-03 2.71252E-04-7.08833E-14
 -1      3580 7.97036E-03 2.42233E-04-6.98399E-14
 -1      3581 8.45996E-03 2.75205E-04-7.79671E-14
 -1      3582 8.32711E-03 2.72330E-04-7.55777E-14
 -1      3583 8.23235E-03 2.42440E-04-7.45039E-14
 -1      3584 8.72392E-03 2.87416E-04-8.28329E-14
 -1      3585 8.59191E-03 2.80110E-04-8.03865E-14
 -1      3586 8.48871E-03 2.47805E-04-7.92873E-14
 -1      3587 8.98861E-03 3.11189E-04-8.78029E-14
 -1      3588 8.85553E-03 2.97519E-04-8.53054E-14
 -1      3589 8.73982E-03 2.60070E-04-8.41814E-14
 -1      3590 1.43206E-03-1.80478E-04-2.95785E-15
 -1      3591 1.43707E-03-2.15795E-04-2.93149E-15
 -1      3592 1.55403E-03-2.34761E-04-3.35123E-15
 -1      3593 1.38894E-02 7.07675E-04-1.55424E-13
 -1      3594 1.37491E-02 6.98781E-04-1.52357E-13
 -1      3595 9.02117E-03 2.39885E-04-9.33109E-14
 -1      3596 9.11691E-03 2.75764E-04-9.33489E-14
 -1      3597 9.61161E-03-1.40728E-04-9.85720E-14
 -1      3598 9.45901E-03-6.26686E-05-9.72887E-14
 -1      3599 1.36561E-02 6.56222E-04-1.49342E-13
 -1      3600 8.93551E-03 2.04383E-04-9.41846E-14
 -1      3601 8.96739E-03 2.16733E-04-9.38865E-14
 -1      3602 1.37527E-02 5.60397E-04-1.48075E-13
 -1      3603 1.38352E-02 5.43383E-04-1.49302E-13
 -1      3604 1.95321E-03 3.19040E-04-4.81215E-15
 -1      3605 1.80922E-03 3.10472E-04-4.18067E-15
 -1      3606 1.37873E-02 4.64140E-04-1.50428E-13
 -1      3607 1.36673E-02 4.32311E-04-1.49023E-13
 -1      3608 1.05749E-03-3.39109E-05-1.81056E-15
 -1      3609 1.05848E-03-6.15087E-05-1.80707E-15
 -1      3610 1.26543E-03-7.09175E-05-2.45303E-15
 -1      3611 1.17807E-03-2.16846E-05-2.17816E-15
 -1      3612 1.08501E-02-6.78954E-04-1.14887E-13
 -1      3613 1.41000E-02 4.57007E-04-1.63260E-13
 -1      3614 1.41617E-02 4.91092E-04-1.63201E-13
 -1      3615 1.86194E-03-2.80025E-04-4.58391E-15
 -1      3616 2.00617E-03-2.87345E-04-5.24950E-15
 -1      3617 2.07310E-03-2.54619E-04-5.63693E-15
 -1      3618 4.53854E-03 3.42743E-04-2.36392E-14
 -1      3619 4.39544E-03 3.44037E-04-2.22334E-14
 -1      3620 4.32263E-03 3.07289E-04-2.16347E-14
 -1      3621 4.60905E-03 3.04898E-04-2.44477E-14
 -1      3622 1.26105E-02-7.24452E-05-1.41890E-13
 -1      3623 1.23753E-02-2.08604E-04-1.39235E-13
 -1      3624 1.13909E-02-6.64523E-04-1.23907E-13
 -1      3625 9.99131E-03-3.46805E-04-1.02460E-13
 -1      3626 9.77773E-03-2.40508E-04-1.00002E-13
 -1      3627 1.29271E-02 1.09804E-04-1.44496E-13
 -1      3628 1.27381E-02 6.55975E-06-1.42855E-13
 -1      3629 1.28061E-02 3.40337E-06-1.44999E-13
 -1      3630 1.30602E-02 1.46472E-04-1.46946E-13
 -1      3631 9.02366E-03 1.28814E-04-9.43687E-14
 -1      3632 8.96822E-03 1.53993E-04-9.42736E-14
 -1      3633 1.25758E-03 4.78635E-05-2.42228E-15
 -1      3634 1.25684E-03 1.67821E-05-2.43023E-15
 -1      3635 1.68360E-03 3.05491E-04-3.65636E-15
 -1      3636 1.55815E-03 2.98894E-04-3.16717E-15
 -1      3637 1.74899E-03 2.76153E-04-3.99875E-15
 -1      3638 1.25904E-03 7.90890E-05-2.40992E-15
 -1      3639 1.38076E-03 6.71836E-05-2.83738E-15
 -1      3640 1.26124E-03 1.10652E-04-2.39292E-15
 -1      3641 1.40857E-02 4.90539E-04-1.60491E-13
 -1      3642 1.42142E-02 5.20831E-04-1.63137E-13
 -1      3643 1.42550E-02 5.47664E-04-1.63067E-13
 -1      3644 9.60760E-03-2.06048E-04-9.75667E-14
 -1      3645 1.18608E-02-4.82024E-04-1.31916E-13
 -1      3646 1.20411E-02-3.96209E-04-1.34842E-13
 -1      3647 1.22237E-02-3.10851E-04-1.37790E-13
 -1      3648 2.88517E-03 3.08565E-04-1.00740E-14
 -1      3649 2.81717E-03 3.45231E-04-9.53400E-15
 -1      3650 2.67329E-03 3.43098E-04-8.63678E-15
 -1      3651 3.24841E-03 3.48428E-04-1.24857E-14
 -1      3652 3.17338E-03 3.10527E-04-1.20456E-14
 -1      3653 3.39201E-03 3.48676E-04-1.35553E-14
 -1      3654 1.34860E-02 1.38390E-04-1.60057E-13
 -1      3655 1.36159E-02 1.71470E-04-1.62751E-13
 -1      3656 1.36775E-02 2.06126E-04-1.63115E-13
 -1      3657 1.34743E-02 1.66331E-04-1.58482E-13
 -1      3658 9.32081E-03-3.01713E-05-9.55189E-14
 -1      3659 3.74872E-03 3.10482E-04-1.65027E-14
 -1      3660 3.67901E-03 3.48324E-04-1.58243E-14
 -1      3661 3.53555E-03 3.48632E-04-1.46681E-14
 -1      3662 9.06229E-03 3.00378E-04-9.01967E-14
 -1      3663 8.93367E-03 2.58068E-04-8.90459E-14
 -1      3664 1.42807E-03-1.45794E-04-2.97811E-15
 -1      3665 1.54418E-03-1.61875E-04-3.40488E-15
 -1      3666 1.42502E-03-1.11607E-04-2.99327E-15
 -1      3667 9.19223E-03 3.19998E-04-9.27430E-14
 -1      3668 2.46286E-03 3.75523E-04-7.29816E-15
 -1      3669 1.37428E-02 5.90823E-04-1.49031E-13
 -1      3670 1.39024E-02 5.35643E-04-1.50875E-13
 -1      3671 1.39520E-02 5.31070E-04-1.52450E-13
 -1      3672 1.39164E-02 5.58367E-04-1.51968E-13
 -1      3673 1.41243E-02 7.08283E-04-1.60274E-13
 -1      3674 1.40087E-02 7.06508E-04-1.57846E-13
 -1      3675 1.39851E-02 6.63496E-04-1.56392E-13
 -1      3676 8.94016E-03 2.22017E-04-9.20191E-14
 -1      3677 9.04288E-03 9.71805E-05-9.36583E-14
 -1      3678 8.93348E-03 1.02357E-04-9.17292E-14
 -1      3679 9.06017E-03 6.11899E-05-9.29459E-14
 -1      3680 8.90375E-03 1.92611E-04-9.35863E-14
 -1      3681 8.86567E-03 1.90055E-04-9.19948E-14
 -1      3682 8.88233E-03 1.81518E-04-9.29860E-14
 -1      3683 1.43006E-02 6.19848E-04-1.62903E-13
 -1      3684 1.42965E-02 6.43892E-04-1.62962E-13
 -1      3685 8.92159E-03 1.60436E-04-9.35082E-14
 -1      3686 1.39587E-02 3.77254E-04-1.63364E-13
 -1      3687 1.40314E-02 4.19088E-04-1.63316E-13
 -1      3688 1.39523E-02 4.19768E-04-1.60609E-13
 -1      3689 1.36183E-02 4.03909E-04-1.49965E-13
 -1      3690 1.33192E-02 2.85544E-04-1.48010E-13
 -1      3691 1.27932E-03 2.42963E-04-2.27344E-15
 -1      3692 1.27320E-03 2.08757E-04-2.31198E-15
 -1      3693 2.09725E-03 3.26140E-04-5.48879E-15
 -1      3694 2.01919E-03 2.86921E-04-5.20332E-15
 -1      3695 2.24131E-03 3.31907E-04-6.20980E-15
 -1      3696 1.38631E-02 4.84839E-04-1.51599E-13
 -1      3697 1.38519E-02 4.69218E-04-1.53015E-13
 -1      3698 1.39268E-02 5.02654E-04-1.52774E-13
 -1      3699 1.64897E-03-2.48767E-04-3.71263E-15
 -1      3700 1.76662E-03-2.66852E-04-4.18196E-15
 -1      3701 1.83335E-03-2.36368E-04-4.52873E-15
 -1      3702 1.64327E-03-2.11064E-04-3.74577E-15
 -1      3703 1.37395E-02 2.40087E-04-1.63477E-13
 -1      3704 1.42842E-02 5.71948E-04-1.63029E-13
 -1      3705 1.42985E-02 5.95864E-04-1.62949E-13
 -1      3706 1.42062E-02 5.90568E-04-1.60303E-13
 -1      3707 1.41753E-02 5.44140E-04-1.60388E-13
 -1      3708 1.36467E-02 2.30621E-04-1.60954E-13
 -1      3709 1.38082E-02 2.81346E-04-1.63637E-13
 -1      3710 1.38838E-02 3.28917E-04-1.63591E-13
 -1      3711 1.35464E-02 2.12925E-04-1.58642E-13
 -1      3712 2.57560E-03-2.30782E-04-8.43336E-15
 -1      3713 2.72047E-03-2.32664E-04-9.32108E-15
 -1      3714 2.86527E-03-2.34062E-04-1.02525E-14
 -1      3715 3.00999E-03-2.35022E-04-1.12272E-14
 -1      3716 2.79001E-03-1.95875E-04-9.81015E-15
 -1      3717 3.15461E-03-2.35636E-04-1.22445E-14
 -1      3718 3.29912E-03-2.35935E-04-1.33043E-14
 -1      3719 3.07990E-03-1.97560E-04-1.17594E-14
 -1      3720 3.44350E-03-2.35990E-04-1.44061E-14
 -1      3721 3.58775E-03-2.35821E-04-1.55500E-14
 -1      3722 3.36934E-03-1.98099E-04-1.38787E-14
 -1      3723 3.73188E-03-2.35476E-04-1.67357E-14
 -1      3724 3.87587E-03-2.34968E-04-1.79623E-14
 -1      3725 3.65824E-03-1.97819E-04-1.61662E-14
 -1      3726 4.01973E-03-2.34330E-04-1.92310E-14
 -1      3727 4.16345E-03-2.33565E-04-2.05412E-14
 -1      3728 3.94654E-03-1.96948E-04-1.86198E-14
 -1      3729 4.30704E-03-2.32695E-04-2.18916E-14
 -1      3730 4.45049E-03-2.31718E-04-2.32818E-14
 -1      3731 4.23424E-03-1.95628E-04-2.12380E-14
 -1      3732 4.59381E-03-2.30645E-04-2.47130E-14
 -1      3733 4.73698E-03-2.29469E-04-2.61854E-14
 -1      3734 4.52131E-03-1.93935E-04-2.40191E-14
 -1      3735 4.88001E-03-2.28196E-04-2.76967E-14
 -1      3736 5.02288E-03-2.26812E-04-2.92480E-14
 -1      3737 4.80772E-03-1.91892E-04-2.69602E-14
 -1      3738 5.16559E-03-2.25321E-04-3.08395E-14
 -1      3739 5.30813E-03-2.23706E-04-3.24706E-14
 -1      3740 5.09342E-03-1.89482E-04-3.00620E-14
 -1      3741 5.45049E-03-2.21967E-04-3.41411E-14
 -1      3742 5.59266E-03-2.20084E-04-3.58513E-14
 -1      3743 5.37835E-03-1.86658E-04-3.33218E-14
 -1      3744 5.73462E-03-2.18059E-04-3.76000E-14
 -1      3745 5.87635E-03-2.15869E-04-3.93868E-14
 -1      3746 5.66238E-03-1.83352E-04-3.67382E-14
 -1      3747 6.01785E-03-2.13519E-04-4.12131E-14
 -1      3748 6.15909E-03-2.10985E-04-4.30769E-14
 -1      3749 5.94538E-03-1.79482E-04-4.03099E-14
 -1      3750 6.30005E-03-2.08276E-04-4.49778E-14
 -1      3751 6.44073E-03-2.05368E-04-4.69154E-14
 -1      3752 6.22717E-03-1.74964E-04-4.40339E-14
 -1      3753 6.58109E-03-2.02279E-04-4.88897E-14
 -1      3754 6.72115E-03-1.98986E-04-5.08990E-14
 -1      3755 6.50758E-03-1.69716E-04-4.79042E-14
 -1      3756 6.86087E-03-1.95518E-04-5.29438E-14
 -1      3757 7.00029E-03-1.91858E-04-5.50236E-14
 -1      3758 6.78642E-03-1.63675E-04-5.19192E-14
 -1      3759 7.13937E-03-1.88046E-04-5.71392E-14
 -1      3760 7.27819E-03-1.84079E-04-5.92879E-14
 -1      3761 7.06358E-03-1.56804E-04-5.60748E-14
 -1      3762 7.41673E-03-1.80008E-04-6.14696E-14
 -1      3763 7.55511E-03-1.75855E-04-6.36826E-14
 -1      3764 7.33904E-03-1.49114E-04-6.03674E-14
 -1      3765 7.69334E-03-1.71682E-04-6.59271E-14
 -1      3766 7.83164E-03-1.67561E-04-6.82025E-14
 -1      3767 7.61299E-03-1.40684E-04-6.47897E-14
 -1      3768 7.97004E-03-1.63556E-04-7.05075E-14
 -1      3769 8.10889E-03-1.59837E-04-7.28436E-14
 -1      3770 7.88594E-03-1.31717E-04-6.93356E-14
 -1      3771 8.24830E-03-1.56470E-04-7.52065E-14
 -1      3772 8.38879E-03-1.53797E-04-7.75972E-14
 -1      3773 8.15899E-03-1.22637E-04-7.40013E-14
 -1      3774 8.53060E-03-1.51875E-04-8.00167E-14
 -1      3775 8.67447E-03-1.51411E-04-8.24615E-14
 -1      3776 8.43407E-03-1.14307E-04-7.87815E-14
 -1      3777 8.82082E-03-1.52456E-04-8.49313E-14
 -1      3778 8.97065E-03-1.56339E-04-8.74266E-14
 -1      3779 8.71450E-03-1.08542E-04-8.36685E-14
 -1      3780 9.12470E-03-1.63113E-04-8.99466E-14
 -1      3781 9.28404E-03-1.75194E-04-9.24906E-14
 -1      3782 9.00568E-03-1.09198E-04-8.86556E-14
 -1      3783 9.43587E-03-1.80643E-04-9.49758E-14
 -1      3784 9.27346E-03-7.39361E-05-9.38326E-14
 -1      3785 9.15469E-03 7.47737E-07-9.32032E-14
 -1      3786 1.32005E-02 1.35308E-04-1.51552E-13
 -1      3787 1.33635E-02 1.78773E-04-1.54608E-13
 -1      3788 5.53582E-03 2.57557E-04-3.47606E-14
 -1      3789 5.39352E-03 2.59471E-04-3.30812E-14
 -1      3790 4.10617E-03 2.71230E-04-1.97113E-14
 -1      3791 3.96253E-03 2.71962E-04-1.84274E-14
 -1      3792 2.52934E-03 3.40239E-04-7.78369E-15
 -1      3793 2.38534E-03 3.36571E-04-6.97447E-15
 -1      3794 2.59665E-03 3.04546E-04-8.27485E-15
 -1      3795 5.25104E-03 2.61245E-04-3.14404E-14
 -1      3796 5.10840E-03 2.62896E-04-2.98373E-14
 -1      3797 5.32121E-03 2.24096E-04-3.23325E-14
 -1      3798 4.96561E-03 2.64421E-04-2.82721E-14
 -1      3799 4.82267E-03 2.65833E-04-2.67455E-14
 -1      3800 5.03607E-03 2.26996E-04-2.91251E-14
 -1      3801 5.81979E-03 2.53305E-04-3.82328E-14
 -1      3802 5.67791E-03 2.55507E-04-3.64787E-14
 -1      3803 5.60551E-03 2.20745E-04-3.56927E-14
 -1      3804 6.10274E-03 2.48460E-04-4.18534E-14
 -1      3805 5.96140E-03 2.50961E-04-4.00247E-14
 -1      3806 5.88877E-03 2.16914E-04-3.92034E-14
 -1      3807 6.38438E-03 2.43038E-04-4.56176E-14
 -1      3808 6.24374E-03 2.45824E-04-4.37175E-14
 -1      3809 6.17073E-03 2.12597E-04-4.28626E-14
 -1      3810 6.66432E-03 2.37135E-04-4.95234E-14
 -1      3811 6.52458E-03 2.40147E-04-4.75526E-14
 -1      3812 6.45102E-03 2.07846E-04-4.66643E-14
 -1      3813 6.94205E-03 2.30961E-04-5.35699E-14
 -1      3814 6.80348E-03 2.34077E-04-5.15294E-14
 -1      3815 6.72919E-03 2.02796E-04-5.06085E-14
 -1      3816 7.21693E-03 2.24885E-04-5.77537E-14
 -1      3817 7.07988E-03 2.27900E-04-5.56448E-14
 -1      3818 7.00463E-03 1.97702E-04-5.46916E-14
 -1      3819 7.48819E-03 2.19474E-04-6.20746E-14
 -1      3820 7.35305E-03 2.22081E-04-5.98978E-14
 -1      3821 7.27657E-03 1.92977E-04-5.89130E-14
 -1      3822 7.75485E-03 2.15518E-04-6.65242E-14
 -1      3823 7.62213E-03 2.17295E-04-6.42827E-14
 -1      3824 7.54408E-03 1.89213E-04-6.32690E-14
 -1      3825 8.01582E-03 2.14019E-04-7.10985E-14
 -1      3826 7.88608E-03 2.14445E-04-6.87960E-14
 -1      3827 7.80598E-03 1.87195E-04-6.77520E-14
 -1      3828 8.26989E-03 2.16130E-04-7.57965E-14
 -1      3829 8.14373E-03 2.14620E-04-7.34328E-14
 -1      3830 8.06086E-03 1.87850E-04-7.23609E-14
 -1      3831 8.51582E-03 2.23030E-04-8.06095E-14
 -1      3832 8.39382E-03 2.18999E-04-7.81889E-14
 -1      3833 8.30693E-03 1.92144E-04-7.70919E-14
 -1      3834 8.75244E-03 2.35717E-04-8.55299E-14
 -1      3835 8.63517E-03 2.28750E-04-8.30561E-14
 -1      3836 8.54210E-03 2.00857E-04-8.19324E-14
 -1      3837 1.42658E-02 7.37421E-04-1.63754E-13
 -1      3838 8.85036E-03 1.30511E-04-9.08542E-14
 -1      3839 8.86002E-03 1.58196E-04-9.19213E-14
 -1      3840 8.80237E-03 1.55558E-04-9.03433E-14
 -1      3841 8.88553E-03 2.22686E-04-8.99495E-14
 -1      3842 8.82301E-03 2.31809E-04-8.75689E-14
 -1      3843 8.72579E-03 2.03605E-04-8.64190E-14
 -1      3844 8.85049E-03 2.01062E-04-9.05181E-14
 -1      3845 1.32615E-03 2.85664E-04-2.34555E-15
 -1      3846 1.44607E-03 2.81041E-04-2.78269E-15
 -1      3847 1.51132E-03 2.54942E-04-3.08128E-15
 -1      3848 1.37175E-02 4.14367E-04-1.52804E-13
 -1      3849 1.35598E-02 3.66311E-04-1.50923E-13
 -1      3850 1.29836E-02 6.30164E-05-1.48018E-13
 -1      3851 1.99627E-03-2.16371E-04-5.31765E-15
 -1      3852 2.14097E-03-2.21209E-04-6.03074E-15
 -1      3853 1.41538E-02 6.39462E-04-1.59538E-13
 -1      3854 1.42504E-02 6.68324E-04-1.62242E-13
 -1      3855 1.34417E-02 3.06031E-04-1.50837E-13
 -1      3856 1.42252E-03 9.05348E-06-3.01122E-15
 -1      3857 1.29978E-03-7.27531E-06-2.57873E-15
 -1      3858 1.34325E-03-3.23614E-05-2.72899E-15
 -1      3859 2.28580E-03-2.25155E-04-6.78780E-15
 -1      3860 2.43070E-03-2.28300E-04-7.58894E-15
 -1      3861 2.20970E-03-1.87135E-04-6.43019E-15
 -1      3862 1.26821E-03 1.75359E-04-2.34428E-15
 -1      3863 1.26428E-03 1.42698E-04-2.37129E-15
 -1      3864 1.38551E-03 1.33949E-04-2.79927E-15
 -1      3865 1.39390E-03 2.02705E-04-2.73941E-15
 -1      3866 1.42300E-02 6.97489E-04-1.62293E-13
 -1      3867 1.39606E-02 4.61101E-04-1.58072E-13
 -1      3868 1.40231E-02 4.92523E-04-1.58008E-13
 -1      3869 4.39313E-03 2.69403E-04-2.24035E-14
 -1      3870 4.24971E-03 2.70377E-04-2.10368E-14
 -1      3871 4.17671E-03 2.33294E-04-2.04403E-14
 -1      3872 1.31521E-02 1.51422E-04-1.49493E-13
 -1      3873 9.30111E-03-1.12676E-04-9.36580E-14
 -1      3874 9.13455E-03-7.80730E-05-9.13602E-14
 -1      3875 1.79233E-03 2.42932E-04-4.25395E-15
 -1      3876 1.66636E-03 2.39307E-04-3.72620E-15
 -1      3877 1.32753E-02 2.13301E-04-1.50476E-13
 -1      3878 1.35416E-02 2.44531E-04-1.57066E-13
 -1      3879 2.95386E-03 2.71588E-04-1.06186E-14
 -1      3880 2.80935E-03 2.70273E-04-9.67347E-15
 -1      3881 3.46124E-03 3.11025E-04-1.41891E-14
 -1      3882 3.88911E-03 2.34574E-04-1.78703E-14
 -1      3883 3.81876E-03 2.72548E-04-1.71852E-14
 -1      3884 3.67489E-03 2.72980E-04-1.59842E-14
 -1      3885 2.30792E-03 2.97671E-04-6.65130E-15
 -1      3886 3.24259E-03 2.73017E-04-1.26365E-14
 -1      3887 3.09828E-03 2.72489E-04-1.16061E-14
 -1      3888 3.02317E-03 2.34357E-04-1.11677E-14
 -1      3889 1.63493E-03-1.37121E-04-3.79121E-15
 -1      3890 1.63861E-03-1.73880E-04-3.77168E-15
 -1      3891 1.73334E-03-1.85761E-04-4.15661E-15
 -1      3892 9.15541E-03 2.96767E-04-9.30473E-14
 -1      3893 8.85056E-03 1.05476E-04-9.01560E-14
 -1      3894 8.77305E-03 1.06552E-04-8.85917E-14
 -1      3895 8.85250E-03 7.71287E-05-8.94559E-14
 -1      3896 9.02419E-03 1.89870E-05-9.12823E-14
 -1      3897 1.37969E-02 3.27080E-04-1.60889E-13
 -1      3898 8.80883E-03 1.88204E-04-8.99300E-14
 -1      3899 1.40855E-02 5.82551E-04-1.56896E-13
 -1      3900 1.40393E-02 6.05934E-04-1.56182E-13
 -1      3901 1.50502E-03 8.79195E-05-3.28290E-15
 -1      3902 1.50338E-03 5.32290E-05-3.29847E-15
 -1      3903 2.49984E-03-1.92593E-04-8.03338E-15
 -1      3904 1.36132E-03-5.78577E-05-2.78801E-15
 -1      3905 1.40589E-03-8.47789E-05-2.93817E-15
 -1      3906 1.52127E-03-9.81905E-05-3.36454E-15
 -1      3907 1.48391E-03-4.36581E-05-3.24083E-15
 -1      3908 1.55453E-03 2.24470E-04-3.30462E-15
 -1      3909 1.37690E-02 3.77302E-04-1.57208E-13
 -1      3910 1.38513E-02 4.20836E-04-1.57152E-13
 -1      3911 1.40905E-02 5.59408E-04-1.56944E-13
 -1      3912 2.08111E-03 2.56204E-04-5.57222E-15
 -1      3913 1.93662E-03 2.50190E-04-4.89099E-15
 -1      3914 1.85463E-03 2.14032E-04-4.58290E-15
 -1      3915 1.35166E-02 3.02008E-04-1.53404E-13
 -1      3916 1.67080E-03 4.62881E-05-3.96949E-15
 -1      3917 1.54623E-03 2.69817E-05-3.47504E-15
 -1      3918 1.58964E-03-5.04248E-08-3.65284E-15
 -1      3919 4.67961E-03 2.67131E-04-2.52583E-14
 -1      3920 4.53643E-03 2.68323E-04-2.38108E-14
 -1      3921 4.46375E-03 2.31582E-04-2.31751E-14
 -1      3922 1.54936E-03 1.87834E-04-3.34346E-15
 -1      3923 1.81711E-03-1.95471E-04-4.51218E-15
 -1      3924 1.91224E-03-2.07017E-04-4.93126E-15
 -1      3925 1.98076E-03-1.74698E-04-5.29367E-15
 -1      3926 1.81306E-03-1.57023E-04-4.53581E-15
 -1      3927 1.39175E-02 4.78553E-04-1.54894E-13
 -1      3928 1.38334E-02 4.54918E-04-1.53715E-13
 -1      3929 1.37937E-02 4.25860E-04-1.54681E-13
 -1      3930 4.75022E-03 2.29482E-04-2.60715E-14
 -1      3931 1.36285E-02 3.03455E-04-1.56843E-13
 -1      3932 3.00536E-03-1.59464E-04-1.12772E-14
 -1      3933 3.15038E-03-1.59892E-04-1.22946E-14
 -1      3934 3.29528E-03-1.60114E-04-1.33542E-14
 -1      3935 3.44004E-03-1.60143E-04-1.44559E-14
 -1      3936 3.22137E-03-1.22072E-04-1.28330E-14
 -1      3937 3.58465E-03-1.60027E-04-1.55998E-14
 -1      3938 3.72910E-03-1.59770E-04-1.67844E-14
 -1      3939 3.51115E-03-1.22120E-04-1.50361E-14
 -1      3940 3.87338E-03-1.59407E-04-1.80106E-14
 -1      3941 4.01750E-03-1.58939E-04-1.92785E-14
 -1      3942 3.80028E-03-1.21719E-04-1.74050E-14
 -1      3943 4.16145E-03-1.58390E-04-2.05874E-14
 -1      3944 4.30523E-03-1.57755E-04-2.19374E-14
 -1      3945 4.08870E-03-1.20984E-04-1.99397E-14
 -1      3946 4.44883E-03-1.57050E-04-2.33269E-14
 -1      3947 4.59225E-03-1.56266E-04-2.47570E-14
 -1      3948 4.37639E-03-1.19985E-04-2.26379E-14
 -1      3949 4.73548E-03-1.55414E-04-2.62275E-14
 -1      3950 4.87852E-03-1.54481E-04-2.77372E-14
 -1      3951 4.66330E-03-1.18749E-04-2.54974E-14
 -1      3952 5.02135E-03-1.53474E-04-2.92873E-14
 -1      3953 5.16398E-03-1.52375E-04-3.08767E-14
 -1      3954 4.94938E-03-1.17272E-04-2.85161E-14
 -1      3955 5.30637E-03-1.51190E-04-3.25051E-14
 -1      3956 5.44852E-03-1.49897E-04-3.41735E-14
 -1      3957 5.23454E-03-1.15524E-04-3.16924E-14
 -1      3958 5.59040E-03-1.48500E-04-3.58806E-14
 -1      3959 5.73201E-03-1.46976E-04-3.76263E-14
 -1      3960 5.51867E-03-1.13453E-04-3.50257E-14
 -1      3961 5.87330E-03-1.45328E-04-3.94106E-14
 -1      3962 6.01426E-03-1.43528E-04-4.12327E-14
 -1      3963 5.80157E-03-1.10987E-04-3.85147E-14
 -1      3964 6.15485E-03-1.41582E-04-4.30931E-14
 -1      3965 6.29506E-03-1.39456E-04-4.49901E-14
 -1      3966 6.08305E-03-1.08037E-04-4.21565E-14
 -1      3967 6.43484E-03-1.37162E-04-4.69240E-14
 -1      3968 6.57418E-03-1.34660E-04-4.88929E-14
 -1      3969 6.36283E-03-1.04494E-04-4.59467E-14
 -1      3970 6.71303E-03-1.31967E-04-5.08987E-14
 -1      3971 6.85138E-03-1.29037E-04-5.29391E-14
 -1      3972 6.64063E-03-1.00233E-04-4.98809E-14
 -1      3973 6.98919E-03-1.25894E-04-5.50137E-14
 -1      3974 7.12647E-03-1.22488E-04-5.71244E-14
 -1      3975 6.91613E-03-9.51061E-05-5.39576E-14
 -1      3976 7.26316E-03-1.18848E-04-5.92684E-14
 -1      3977 7.39933E-03-1.14926E-04-6.14453E-14
 -1      3978 7.18905E-03-8.89422E-05-5.81723E-14
 -1      3979 7.53491E-03-1.10752E-04-6.36548E-14
 -1      3980 7.67005E-03-1.06293E-04-6.58944E-14
 -1      3981 7.45916E-03-8.15477E-05-6.25218E-14
 -1      3982 7.80467E-03-1.01577E-04-6.81663E-14
 -1      3983 7.93902E-03-9.66030E-05-7.04684E-14
 -1      3984 7.72640E-03-7.27129E-05-6.69995E-14
 -1      3985 8.07305E-03-9.13939E-05-7.27999E-14
 -1      3986 8.20716E-03-8.60372E-05-7.51599E-14
 -1      3987 7.99094E-03-6.22426E-05-7.16002E-14
 -1      3988 8.34136E-03-8.05597E-05-7.75484E-14
 -1      3989 8.47629E-03-7.52030E-05-7.99652E-14
 -1      3990 8.25342E-03-5.00496E-05-7.63183E-14
 -1      3991 8.61199E-03-6.99810E-05-8.24067E-14
 -1      3992 8.74961E-03-6.56330E-05-8.48731E-14
 -1      3993 8.51529E-03-3.63743E-05-8.11463E-14
 -1      3994 8.86613E-03-6.96592E-05-8.68437E-14
 -1      3995 9.01002E-03-6.87691E-05-8.93560E-14
 -1      3996 8.98796E-03-3.58906E-05-8.95259E-14
 -1      3997 8.75739E-03-2.99757E-05-8.55594E-14
 -1      3998 3.53090E-03 2.73220E-04-1.48260E-14
 -1      3999 3.38681E-03 2.73252E-04-1.37102E-14
 -1      4000 3.31232E-03 2.35338E-04-1.32322E-14
 -1      4001 3.60098E-03 2.35316E-04-1.54671E-14
 -1      4002 2.37036E-03 2.65121E-04-7.06613E-15
 -1      4003 2.22571E-03 2.61142E-04-6.29715E-15
 -1      4004 2.14382E-03 2.24903E-04-5.94694E-15
 -1      4005 5.39131E-03 1.87233E-04-3.32265E-14
 -1      4006 5.24903E-03 1.88557E-04-3.15843E-14
 -1      4007 5.10653E-03 1.89783E-04-2.99802E-14
 -1      4008 4.96381E-03 1.90928E-04-2.84141E-14
 -1      4009 5.17698E-03 1.52819E-04-3.08367E-14
 -1      4010 6.23851E-03 1.77334E-04-4.38741E-14
 -1      4011 6.09826E-03 1.79216E-04-4.20073E-14
 -1      4012 6.51745E-03 1.73395E-04-4.77147E-14
 -1      4013 6.37826E-03 1.75400E-04-4.57762E-14
 -1      4014 6.30618E-03 1.42695E-04-4.48892E-14
 -1      4015 6.79387E-03 1.69360E-04-5.16965E-14
 -1      4016 6.65601E-03 1.71388E-04-4.96880E-14
 -1      4017 6.58380E-03 1.39702E-04-4.87681E-14
 -1      4018 7.06706E-03 1.65525E-04-5.58170E-14
 -1      4019 6.93091E-03 1.67412E-04-5.37399E-14
 -1      4020 6.85852E-03 1.36831E-04-5.27877E-14
 -1      4021 7.33618E-03 1.62343E-04-6.00755E-14
 -1      4022 7.20218E-03 1.63845E-04-5.79288E-14
 -1      4023 7.12960E-03 1.34419E-04-5.69464E-14
 -1      4024 7.60014E-03 1.60433E-04-6.44650E-14
 -1      4025 7.46887E-03 1.61222E-04-6.22539E-14
 -1      4026 7.39609E-03 1.32955E-04-6.12403E-14
 -1      4027 7.85758E-03 1.60576E-04-6.89850E-14
 -1      4028 7.72975E-03 1.60249E-04-6.67093E-14
 -1      4029 7.65681E-03 1.33086E-04-6.56660E-14
 -1      4030 8.10674E-03 1.63648E-04-7.36267E-14
 -1      4031 7.98330E-03 1.61771E-04-7.12899E-14
 -1      4032 7.91023E-03 1.35601E-04-7.02196E-14
 -1      4033 8.34530E-03 1.70496E-04-7.83863E-14
 -1      4034 8.22748E-03 1.66683E-04-7.59919E-14
 -1      4035 8.15427E-03 1.41355E-04-7.48937E-14
 -1      4036 8.56989E-03 1.81620E-04-8.32552E-14
 -1      4037 8.45953E-03 1.75726E-04-8.08082E-14
 -1      4038 8.38610E-03 1.51119E-04-7.96832E-14
 -1      4039 2.71501E-03-1.57781E-04-9.37058E-15
 -1      4040 2.86022E-03-1.58767E-04-1.03024E-14
 -1      4041 2.93104E-03-1.21398E-04-1.07986E-14
 -1      4042 1.40296E-02 5.04327E-04-1.57304E-13
 -1      4043 8.71416E-03 1.78123E-04-8.73008E-14
 -1      4044 8.64409E-03 1.79477E-04-8.52704E-14
 -1      4045 8.57486E-03 1.55934E-04-8.41214E-14
 -1      4046 2.73362E-03 2.31972E-04-9.27467E-15
 -1      4047 2.66477E-03 2.68437E-04-8.77191E-15
 -1      4048 2.52012E-03 2.66024E-04-7.91375E-15
 -1      4049 8.70689E-03 1.43032E-04-8.77111E-14
 -1      4050 8.74781E-03 1.66292E-04-8.87569E-14
 -1      4051 1.39434E-02 5.99153E-04-1.53765E-13
 -1      4052 2.42447E-03-1.54670E-04-7.63701E-15
 -1      4053 2.56974E-03-1.56427E-04-8.48203E-15
 -1      4054 2.64034E-03-1.19852E-04-8.93547E-15
 -1      4055 8.91236E-03 2.03176E-05-8.92774E-14
 -1      4056 4.82089E-03 1.91983E-04-2.68871E-14
 -1      4057 4.67779E-03 1.92961E-04-2.53988E-14
 -1      4058 4.89161E-03 1.54670E-04-2.77043E-14
 -1      4059 1.39884E-02 5.25234E-04-1.54020E-13
 -1      4060 1.40061E-02 5.15286E-04-1.55444E-13
 -1      4061 1.40312E-02 5.45136E-04-1.55121E-13
 -1      4062 1.52803E-03 1.55014E-04-3.30496E-15
 -1      4063 1.52475E-03 1.19507E-04-3.33139E-15
 -1      4064 1.64757E-03 1.06053E-04-3.83263E-15
 -1      4065 1.68872E-03 1.72731E-04-3.92714E-15
 -1      4066 2.13415E-03-1.49629E-04-6.07636E-15
 -1      4067 2.27925E-03-1.52422E-04-6.83465E-15
 -1      4068 2.34957E-03-1.17105E-04-7.24457E-15
 -1      4069 5.95758E-03 1.81001E-04-4.01771E-14
 -1      4070 5.81650E-03 1.82707E-04-3.83834E-14
 -1      4071 6.02628E-03 1.45594E-04-4.11527E-14
 -1      4072 5.67507E-03 1.84309E-04-3.66271E-14
 -1      4073 5.53333E-03 1.85823E-04-3.49084E-14
 -1      4074 5.46136E-03 1.50690E-04-3.41242E-14
 -1      4075 5.74455E-03 1.48278E-04-3.75636E-14
 -1      4076 4.24745E-03 1.95396E-04-2.11726E-14
 -1      4077 4.10369E-03 1.96040E-04-1.98453E-14
 -1      4078 1.41067E-02 5.29889E-04-1.58562E-13
 -1      4079 3.95976E-03 1.96581E-04-1.85587E-14
 -1      4080 3.81568E-03 1.97022E-04-1.73148E-14
 -1      4081 4.03067E-03 1.58617E-04-1.92513E-14
 -1      4082 1.76546E-03 7.42567E-05-4.35562E-15
 -1      4083 1.80840E-03 4.58257E-05-4.56040E-15
 -1      4084 1.61521E-03-1.08301E-04-3.73066E-15
 -1      4085 1.70949E-03-1.18500E-04-4.11588E-15
 -1      4086 1.59603E-03-7.99241E-05-3.66791E-15
 -1      4087 2.43867E-03 2.29888E-04-7.51990E-15
 -1      4088 8.78905E-03-2.31268E-07-8.66408E-14
 -1      4089 8.83002E-03 4.88788E-05-8.83708E-14
 -1      4090 8.74156E-03 5.44800E-05-8.68207E-14
 -1      4091 8.68110E-03-9.67822E-07-8.46710E-14
 -1      4092 1.96623E-03-1.33429E-04-5.26203E-15
 -1      4093 2.05015E-03-1.41556E-04-5.66234E-15
 -1      4094 2.12032E-03-1.07609E-04-6.03615E-15
 -1      4095 1.38526E-02 6.14143E-04-1.52183E-13
 -1      4096 1.37491E-02 6.40603E-04-1.50817E-13
 -1      4097 2.80318E-03 1.95157E-04-9.78253E-15
 -1      4098 2.65810E-03 1.93750E-04-8.87680E-15
 -1      4099 8.67216E-03 1.01653E-04-8.63452E-14
 -1      4100 8.68693E-03 1.23558E-04-8.70293E-14
 -1      4101 8.61882E-03 1.37605E-04-8.54681E-14
 -1      4102 1.41334E-02 5.53023E-04-1.58521E-13
 -1      4103 1.78502E-03 1.07895E-04-4.41365E-15
 -1      4104 2.94818E-03 1.96192E-04-1.07310E-14
 -1      4105 2.87337E-03 1.58050E-04-1.02960E-14
 -1      4106 3.09308E-03 1.96887E-04-1.17219E-14
 -1      4107 1.97738E-03 1.84194E-04-5.19815E-15
 -1      4108 1.83286E-03 1.78961E-04-4.54075E-15
 -1      4109 1.81183E-03 1.44348E-04-4.49311E-15
 -1      4110 1.60735E-03-2.76724E-05-3.72566E-15
 -1      4111 1.62558E-03-5.56428E-05-3.79564E-15
 -1      4112 1.73156E-03-1.01843E-05-4.24153E-15
 -1      4113 4.53451E-03 1.93853E-04-2.39498E-14
 -1      4114 4.39107E-03 1.94669E-04-2.25407E-14
 -1      4115 4.31839E-03 1.57577E-04-2.19078E-14
 -1      4116 4.60539E-03 1.56255E-04-2.47269E-14
 -1      4117 3.43783E-03-8.41352E-05-1.44755E-14
 -1      4118 3.58266E-03-8.40523E-05-1.56184E-14
 -1      4119 3.72731E-03-8.39064E-05-1.68024E-14
 -1      4120 3.87177E-03-8.36896E-05-1.80279E-14
 -1      4121 3.65449E-03-4.59885E-05-1.62029E-14
 -1      4122 4.01605E-03-8.34243E-05-1.92950E-14
 -1      4123 4.16014E-03-8.31046E-05-2.06033E-14
 -1      4124 3.94353E-03-4.57181E-05-1.86535E-14
 -1      4125 4.30404E-03-8.27463E-05-2.19517E-14
 -1      4126 4.44772E-03-8.23393E-05-2.33408E-14
 -1      4127 4.23178E-03-4.53346E-05-2.12679E-14
 -1      4128 4.59121E-03-8.18952E-05-2.47693E-14
 -1      4129 4.73447E-03-8.14028E-05-2.62390E-14
 -1      4130 4.51921E-03-4.48469E-05-2.40452E-14
 -1      4131 4.87752E-03-8.08699E-05-2.77482E-14
 -1      4132 5.02032E-03-8.02834E-05-2.92958E-14
 -1      4133 4.80575E-03-4.42540E-05-2.69826E-14
 -1      4134 5.16287E-03-7.96483E-05-3.08829E-14
 -1      4135 5.30516E-03-7.89487E-05-3.25093E-14
 -1      4136 5.09134E-03-4.35395E-05-3.00768E-14
 -1      4137 5.44715E-03-7.81880E-05-3.41750E-14
 -1      4138 5.58884E-03-7.73467E-05-3.58795E-14
 -1      4139 5.37584E-03-4.26714E-05-3.33273E-14
 -1      4140 5.73018E-03-7.64273E-05-3.76221E-14
 -1      4141 5.87115E-03-7.54053E-05-3.94035E-14
 -1      4142 5.65907E-03-4.15994E-05-3.67327E-14
 -1      4143 6.01172E-03-7.42831E-05-4.12235E-14
 -1      4144 6.15185E-03-7.30300E-05-4.30799E-14
 -1      4145 5.94080E-03-4.02519E-05-4.02932E-14
 -1      4146 6.29149E-03-7.16484E-05-4.49724E-14
 -1      4147 6.43061E-03-7.00997E-05-4.69023E-14
 -1      4148 6.22073E-03-3.85293E-05-4.40029E-14
 -1      4149 6.56915E-03-6.83864E-05-4.88685E-14
 -1      4150 6.70708E-03-6.64602E-05-5.08692E-14
 -1      4151 6.49849E-03-3.62954E-05-4.78585E-14
 -1      4152 6.84433E-03-6.43231E-05-5.29051E-14
 -1      4153 6.98088E-03-6.19162E-05-5.49757E-14
 -1      4154 6.77367E-03-3.33659E-05-5.18559E-14
 -1      4155 7.11663E-03-5.92393E-05-5.70815E-14
 -1      4156 7.25160E-03-5.62223E-05-5.92211E-14
 -1      4157 7.04578E-03-2.94948E-05-5.59942E-14
 -1      4158 7.38567E-03-5.28608E-05-6.13938E-14
 -1      4159 7.51888E-03-4.90754E-05-6.35981E-14
 -1      4160 7.31430E-03-2.43591E-05-6.02685E-14
 -1      4161 7.65110E-03-4.48541E-05-6.58349E-14
 -1      4162 7.78244E-03-4.01149E-05-6.81035E-14
 -1      4163 7.57869E-03-1.75449E-05-6.46731E-14
 -1      4164 7.91271E-03-3.48350E-05-7.04024E-14
 -1      4165 8.04215E-03-2.89466E-05-7.27307E-14
 -1      4166 7.83840E-03-8.54178E-06-6.92064E-14
 -1      4167 8.17050E-03-2.24240E-05-7.50888E-14
 -1      4168 8.29819E-03-1.51984E-05-7.74751E-14
 -1      4169 8.09290E-03 3.23785E-06-7.38612E-14
 -1      4170 8.42494E-03-7.38133E-06-7.98884E-14
 -1      4171 8.55146E-03 1.15989E-06-8.23270E-14
 -1      4172 8.34165E-03 1.84175E-05-7.86311E-14
 -1      4173 6.92346E-03 1.05162E-04-5.38821E-14
 -1      4174 6.78731E-03 1.05910E-04-5.18356E-14
 -1      4175 5.24747E-03 1.16124E-04-3.16956E-14
 -1      4176 5.10506E-03 1.16872E-04-3.00903E-14
 -1      4177 4.67638E-03 1.18811E-04-2.55052E-14
 -1      4178 4.53304E-03 1.19363E-04-2.40550E-14
 -1      4179 6.65028E-03 1.06749E-04-4.98246E-14
 -1      4180 6.51245E-03 1.07703E-04-4.78480E-14
 -1      4181 6.71707E-03 7.45204E-05-5.08834E-14
 -1      4182 6.37391E-03 1.08680E-04-4.59070E-14
 -1      4183 6.23473E-03 1.09702E-04-4.40009E-14
 -1      4184 6.44181E-03 7.52883E-05-4.69284E-14
 -1      4185 7.19266E-03 1.04293E-04-5.80767E-14
 -1      4186 7.05861E-03 1.04635E-04-5.59619E-14
 -1      4187 6.98891E-03 7.43206E-05-5.49780E-14
 -1      4188 7.45689E-03 1.04662E-04-6.24087E-14
 -1      4189 7.32546E-03 1.04321E-04-6.02278E-14
 -1      4190 7.25654E-03 7.50913E-05-5.92124E-14
 -1      4191 7.71489E-03 1.06939E-04-6.68706E-14
 -1      4192 7.58676E-03 1.05566E-04-6.46226E-14
 -1      4193 7.51895E-03 7.73765E-05-6.35809E-14
 -1      4194 7.96505E-03 1.11929E-04-7.14574E-14
 -1      4195 7.84108E-03 1.09120E-04-6.91491E-14
 -1      4196 7.77491E-03 8.18715E-05-6.80772E-14
 -1      4197 8.20508E-03 1.20492E-04-7.61629E-14
 -1      4198 8.08652E-03 1.15842E-04-7.37954E-14
 -1      4199 8.02276E-03 8.94115E-05-7.26969E-14
 -1      4200 8.43180E-03 1.33426E-04-8.09817E-14
 -1      4201 8.32039E-03 1.26532E-04-7.85583E-14
 -1      4202 8.26019E-03 1.00894E-04-7.74334E-14
 -1      4203 2.85705E-03-8.34318E-05-1.03240E-14
 -1      4204 3.00243E-03-8.37916E-05-1.12987E-14
 -1      4205 2.57764E-03 1.58010E-04-8.44650E-15
 -1      4206 2.50779E-03 1.94167E-04-7.98060E-15
 -1      4207 2.35750E-03 1.93972E-04-7.13080E-15
 -1      4208 2.23980E-03 1.91479E-04-6.50073E-15
 -1      4209 2.09486E-03 1.87787E-04-5.76409E-15
 -1      4210 2.07384E-03 1.51819E-04-5.71098E-15
 -1      4211 2.30928E-03 1.56620E-04-6.92386E-15
 -1      4212 1.94699E-03 3.78164E-05-5.19735E-15
 -1      4213 1.85248E-03 9.77667E-06-4.77088E-15
 -1      4214 3.14770E-03-8.40221E-05-1.23156E-14
 -1      4215 3.29284E-03-8.41237E-05-1.33744E-14
 -1      4216 3.07433E-03-4.60071E-05-1.18016E-14
 -1      4217 4.96240E-03 1.17565E-04-2.85234E-14
 -1      4218 4.81950E-03 1.18215E-04-2.69951E-14
 -1      4219 4.74748E-03 8.15493E-05-2.62861E-14
 -1      4220 2.56610E-03-8.21816E-05-8.50500E-15
 -1      4221 2.71159E-03-8.28972E-05-9.39322E-15
 -1      4222 2.78345E-03-4.56221E-05-9.85460E-15
 -1      4223 8.53802E-03 1.37803E-04-8.34577E-14
 -1      4224 4.38950E-03 1.19860E-04-2.26458E-14
 -1      4225 4.24576E-03 1.20312E-04-2.12760E-14
 -1      4226 4.46077E-03 8.22790E-05-2.33856E-14
 -1      4227 6.09499E-03 1.10705E-04-4.21309E-14
 -1      4228 5.95474E-03 1.11709E-04-4.02984E-14
 -1      4229 6.16380E-03 7.63434E-05-4.31130E-14
 -1      4230 1.92947E-03 1.11363E-04-5.06310E-15
 -1      4231 1.79588E-03-1.21992E-04-4.48830E-15
 -1      4232 1.87952E-03-1.30275E-04-4.85891E-15
 -1      4233 1.94961E-03-9.76120E-05-5.20599E-15
 -1      4234 1.77642E-03-9.22738E-05-4.41978E-15
 -1      4235 2.27523E-03-8.00178E-05-6.85689E-15
 -1      4236 2.42063E-03-8.12273E-05-7.65905E-15
 -1      4237 2.49235E-03-4.48447E-05-8.07854E-15
 -1      4238 2.64412E-03 1.20258E-04-8.89463E-15
 -1      4239 2.49344E-03 1.21343E-04-7.99867E-15
 -1      4240 4.10183E-03 1.20701E-04-1.99473E-14
 -1      4241 3.95771E-03 1.21038E-04-1.86591E-14
 -1      4242 4.17321E-03 8.28725E-05-2.06457E-14
 -1      4243 3.23788E-03 1.97321E-04-1.27557E-14
 -1      4244 3.16354E-03 1.59231E-04-1.22808E-14
 -1      4245 3.38254E-03 1.97508E-04-1.38323E-14
 -1      4246 5.38960E-03 1.15335E-04-3.33403E-14
 -1      4247 5.31800E-03 7.97236E-05-3.25572E-14
 -1      4248 5.53142E-03 1.14489E-04-3.50231E-14
 -1      4249 2.04697E-03 1.13779E-04-5.62224E-15
 -1      4250 2.02084E-03 7.61357E-05-5.52753E-15
 -1      4251 2.16467E-03 1.15847E-04-6.21008E-15
 -1      4252 2.10740E-03-6.58501E-05-5.98799E-15
 -1      4253 2.19127E-03-7.29085E-05-6.41512E-15
 -1      4254 2.26296E-03-3.75049E-05-6.79940E-15
 -1      4255 5.03326E-03 8.06949E-05-2.93451E-14
 -1      4256 3.74227E-03 1.59315E-04-1.67603E-14
 -1      4257 3.67145E-03 1.97332E-04-1.61123E-14
 -1      4258 3.52707E-03 1.97507E-04-1.49507E-14
 -1      4259 8.48509E-03 1.12573E-04-8.23060E-14
 -1      4260 1.87019E-03-1.97887E-05-4.85518E-15
 -1      4261 8.58702E-03 2.74578E-05-8.33894E-14
 -1      4262 8.64440E-03 7.67229E-05-8.53294E-14
 -1      4263 8.55675E-03 9.64464E-05-8.37907E-14
 -1      4264 8.44407E-03 9.10765E-05-8.13145E-14
 -1      4265 8.61186E-03 5.21434E-05-8.42649E-14
 -1      4266 2.06457E-03 3.86533E-05-5.76417E-15
 -1      4267 3.36473E-03-4.61012E-05-1.39185E-14
 -1      4268 2.93483E-03 1.21897E-04-1.07497E-14
 -1      4269 2.78951E-03 1.21205E-04-9.80075E-15
 -1      4270 2.70595E-03 8.45287E-05-9.31130E-15
 -1      4271 1.71960E-03-6.43750E-05-4.18479E-15
 -1      4272 5.81403E-03 1.12670E-04-3.85027E-14
 -1      4273 5.67291E-03 1.13606E-04-3.67442E-14
 -1      4274 5.60152E-03 7.86487E-05-3.59244E-14
 -1      4275 5.88356E-03 7.75011E-05-3.94440E-14
 -1      4276 3.58192E-03-7.99859E-06-1.56065E-14
 -1      4277 3.72664E-03-7.95122E-06-1.67896E-14
 -1      4278 3.91383E-03 1.87609E-05-1.83713E-14
 -1      4279 4.05811E-03 1.87489E-05-1.96494E-14
 -1      4280 4.20219E-03 1.87183E-05-2.09674E-14
 -1      4281 4.34606E-03 1.86930E-05-2.23270E-14
 -1      4282 4.48972E-03 1.86518E-05-2.37259E-14
 -1      4283 4.63316E-03 1.86171E-05-2.51652E-14
 -1      4284 4.77637E-03 1.85700E-05-2.66448E-14
 -1      4285 4.91933E-03 1.85327E-05-2.81646E-14
 -1      4286 5.06204E-03 1.84866E-05-2.97216E-14
 -1      4287 5.20448E-03 1.84562E-05-3.13174E-14
 -1      4288 5.34661E-03 1.84220E-05-3.29528E-14
 -1      4289 5.48843E-03 1.84135E-05-3.46265E-14
 -1      4290 5.62990E-03 1.84092E-05-3.63395E-14
 -1      4291 5.77099E-03 1.84472E-05-3.80895E-14
 -1      4292 5.91166E-03 1.85023E-05-3.98781E-14
 -1      4293 6.05186E-03 1.86256E-05-4.17045E-14
 -1      4294 6.19155E-03 1.87869E-05-4.35682E-14
 -1      4295 6.33068E-03 1.90553E-05-4.54673E-14
 -1      4296 6.46918E-03 1.93943E-05-4.74024E-14
 -1      4297 6.60700E-03 1.98971E-05-4.93738E-14
 -1      4298 6.74404E-03 2.05187E-05-5.13794E-14
 -1      4299 6.88027E-03 2.13843E-05-5.34197E-14
 -1      4300 7.01554E-03 2.24373E-05-5.54940E-14
 -1      4301 7.14984E-03 2.38440E-05-5.76047E-14
 -1      4302 7.28299E-03 2.55315E-05-5.97501E-14
 -1      4303 7.41496E-03 2.77181E-05-6.19268E-14
 -1      4304 7.54554E-03 3.03058E-05-6.41352E-14
 -1      4305 7.67474E-03 3.35795E-05-6.63770E-14
 -1      4306 7.80224E-03 3.73998E-05-6.86506E-14
 -1      4307 7.92810E-03 4.21398E-05-7.09549E-14
 -1      4308 8.05187E-03 4.75884E-05-7.32878E-14
 -1      4309 8.17370E-03 5.42476E-05-7.56509E-14
 -1      4310 2.41918E-03-7.93587E-06-7.65684E-15
 -1      4311 2.56474E-03-7.98598E-06-8.50168E-15
 -1      4312 8.29291E-03 6.18136E-05-7.80409E-14
 -1      4313 2.31504E-03 5.38828E-05-7.05522E-15
 -1      4314 2.24143E-03 1.43959E-05-6.67879E-15
 -1      4315 8.49311E-03 5.05429E-05-8.19219E-14
 -1      4316 3.00133E-03-8.08615E-06-1.12922E-14
 -1      4317 3.14670E-03-8.07705E-06-1.23075E-14
 -1      4318 2.71032E-03-8.04453E-06-9.38915E-15
 -1      4319 2.85586E-03-8.06760E-06-1.03191E-14
 -1      4320 2.92876E-03 2.96990E-05-1.07874E-14
 -1      4321 2.63770E-03 2.92481E-05-8.92808E-15
 -1      4322 3.29193E-03-8.06428E-06-1.33654E-14
 -1      4323 3.43701E-03-8.03261E-06-1.44652E-14
 -1      4324 3.50960E-03 3.00395E-05-1.50138E-14
 -1      4325 1.80597E-03-6.66609E-05-4.56024E-15
 -1      4326 3.84190E-03 5.66853E-05-1.77235E-14
 -1      4327 3.77024E-03 9.46698E-05-1.70791E-14
 -1      4328 3.45321E-03 1.59576E-04-1.44363E-14
 -1      4329 1.88119E-03-4.42377E-05-4.90443E-15
 -1      4330 1.93786E-03-7.26413E-05-5.16103E-15
 -1      4331 2.02466E-03-7.47148E-05-5.57597E-15
 -1      4332 2.00215E-03-2.44164E-05-5.47475E-15
 -1      4333 2.28250E-03 1.17589E-04-6.82638E-15
 -1      4334 8.37419E-03 4.09684E-05-7.94879E-14
 -1      4335 3.62566E-03 9.47961E-05-1.58864E-14
 -1      4336 2.34938E-03 8.09153E-05-7.22393E-15
 -1      4337 3.21947E-03 2.99478E-05-1.28160E-14
 -1      4338 3.19090E-03 9.46364E-05-1.25581E-14
 -1      4339 3.04569E-03 9.43753E-05-1.15330E-14
 -1      4340 2.81721E-03 5.72768E-05-1.00377E-14
 -1      4341 2.67169E-03 5.68393E-05-9.12086E-15
 -1      4342 2.52615E-03 5.62596E-05-8.24628E-15
 -1      4343 3.48090E-03 9.48311E-05-1.47354E-14
 -1      4344 3.33598E-03 9.47936E-05-1.36254E-14
 -1      4345 2.08514E-03-1.49208E-05-5.88073E-15
 -1      4346 2.09609E-03-4.03328E-05-5.93570E-15
 -1      4347 2.96266E-03 5.76071E-05-1.09977E-14
 -1      4348 2.33533E-03-1.49652E-06-7.18864E-15
 -3
    1PSTEP                         2           1           1          
  100CL  101 1.000000000        4348                     0    1           1
 -4  STRESS      6    1
 -5  SXX         1    4    1    1
 -5  SYY         1    4    2    2
 -5  SZZ         1    4    3    3
 -5  SXY         1    4    1    2
 -5  SYZ         1    4    2    3
 -5  SZX         1    4    3    1
 -1         1 2.04152E+01 1.13714E+01 8.10355E-01 1.50307E+01-2.41601E-12-2.84983E-12
 -1         2-7.33516E-01-2.60330E+01-3.51661E+00-1.10262E-01 2.97897E-13 1.91843E-13
 -1         3 1.99533E+01-4.98143E-02 6.41571E-02-4.88464E-02-4.51290E-13-5.25345E-13
 -1         4 1.99846E+01-1.55630E-02 3.73495E-02 1.58556E-02 1.96005E-13 3.60755E-14
 -1         5 3.27678E+01 6.14266E+00 2.74252E+00 6.22433E+00-5.69683E-14 4.28067E-12
 -1         6 3.57519E+01 1.22633E+01 5.12557E+00-8.64672E+00-2.44041E-13 4.29023E-12
 -1         7 2.08181E+01 6.09953E+00-1.28693E-01-4.72576E+00-3.38063E-14 9.17245E-13
 -1         8 1.96713E+01 5.93485E+00 5.09370E-02-3.27524E+00-5.12090E-14-1.53533E-13
 -1         9 1.91373E+01 5.77191E+00 4.91769E-02-2.52708E+00-4.40689E-14-7.46046E-13
 -1        10 1.88948E+01 5.69206E+00 5.09530E-02-1.95168E+00-3.58776E-14-1.04250E-12
 -1        11 1.87737E+01 5.65125E+00 5.02905E-02-1.45674E+00-2.67581E-14-1.18494E-12
 -1        12 1.87107E+01 5.62978E+00 4.88772E-02-1.01564E+00-1.50524E-14-1.25111E-12
 -1        13 1.86774E+01 5.61840E+00 4.74761E-02-5.95618E-01-9.39971E-15-1.28276E-12
 -1        14 1.86634E+01 5.61359E+00 4.67413E-02-1.91254E-01-1.16573E-15-1.29167E-12
 -1        15 1.86638E+01 5.61374E+00 4.67759E-02 2.08347E-01 7.46018E-15-1.27967E-12
 -1        16 1.86788E+01 5.61887E+00 4.75921E-02 6.13493E-01 1.20749E-14-1.27453E-12
 -1        17 1.87134E+01 5.63051E+00 4.91019E-02 1.03540E+00 1.51840E-14-1.22394E-12
 -1        18 1.87780E+01 5.65246E+00 5.08433E-02 1.47958E+00 2.72985E-14-1.13176E-12
 -1        19 1.89009E+01 5.69375E+00 5.15419E-02 1.98076E+00 4.02803E-14-9.62970E-13
 -1        20 1.91421E+01 5.77439E+00 4.87795E-02 2.56434E+00 4.98213E-14-6.36050E-13
 -1        21 1.96668E+01 5.94943E+00 4.59012E-02 3.30922E+00 6.09721E-14 2.67841E-15
 -1        22 2.12010E+01 6.38130E+00 1.39667E-01 4.52330E+00 1.04083E-14 1.31638E-12
 -1        23 2.30288E+01-1.37917E+00-9.38283E-01-7.11261E-01-1.68740E-13 3.42222E-12
 -1        24 1.93657E+01-9.94820E-02-3.09836E-01 6.32107E-02-3.63112E-14 2.65486E-12
 -1        25 1.86771E+01-5.63087E-02-6.87552E-02 6.07476E-02-1.92543E-14 1.89491E-12
 -1        26 1.84742E+01-2.20828E-02-6.43958E-03 3.29299E-02-3.08054E-15 1.36218E-12
 -1        27 1.84846E+01-1.17920E-02 1.56632E-03 2.25716E-02-1.91987E-14 9.77654E-13
 -1        28 1.85980E+01-6.23810E-03 1.77785E-03 1.62860E-02-1.11088E-14 7.30962E-13
 -1        29 1.87569E+01-3.07792E-03 1.75154E-03 1.21235E-02 1.72347E-14 5.29739E-13
 -1        30 1.89300E+01-1.22814E-03 1.93506E-03 9.14835E-03-1.05368E-14 3.49503E-13
 -1        31 1.90997E+01-1.43606E-04 2.08759E-03 6.90737E-03-1.31278E-14 1.03828E-13
 -1        32 1.92562E+01 4.64349E-04 2.10634E-03 5.16665E-03-2.79747E-14-3.58554E-14
 -1        33 1.93949E+01 7.63004E-04 1.99493E-03 3.79486E-03 4.75539E-14-1.82288E-13
 -1        34 1.95145E+01 8.54865E-04 1.78681E-03 2.71027E-03-2.01715E-14-2.27183E-13
 -1        35 1.96157E+01 8.05042E-04 1.51257E-03 1.85678E-03 2.89820E-14-2.87969E-13
 -1        36 1.97008E+01 6.55083E-04 1.19232E-03 1.19383E-03 2.47818E-15-2.84296E-13
 -1        37 1.97730E+01 4.30685E-04 8.35836E-04 6.92359E-04-2.80276E-14-3.86682E-13
 -1        38 1.98364E+01 1.46648E-04 4.44439E-04 3.33476E-04-1.45021E-14-5.22933E-13
 -1        39 1.98957E+01-1.89378E-04 1.30998E-05 1.08435E-04-2.86421E-14-7.26301E-13
 -1        40 1.99562E+01-5.73511E-04-4.67111E-04 1.92764E-05 2.40216E-14-6.84831E-13
 -1        41 2.00240E+01-1.00202E-03-1.00596E-03 7.96675E-05-1.07942E-15-7.44413E-13
 -1        42 2.01057E+01-1.46698E-03-1.60971E-03 3.15547E-04 9.67415E-15-9.36857E-13
 -1        43 2.02088E+01-1.95068E-03-2.27472E-03 7.64916E-04-3.99179E-14-9.35325E-13
 -1        44 2.03412E+01-2.41819E-03-2.97761E-03 1.47560E-03 8.75756E-15-9.09903E-13
 -1        45 2.05110E+01-2.80785E-03-3.66045E-03 2.49893E-03-7.06675E-15-8.36496E-13
 -1        46 2.07254E+01-3.01984E-03-4.20928E-03 3.87580E-03 5.12242E-15-9.60090E-13
 -1        47 2.09895E+01-2.90447E-03-4.42506E-03 5.60955E-03-9.23114E-15-7.41106E-13
 -1        48 2.13038E+01-2.25519E-03-3.99052E-03 7.61790E-03-5.56101E-16-8.95290E-13
 -1        49 2.16603E+01-8.16818E-04-2.44608E-03 9.65535E-03 7.39234E-14-9.18729E-13
 -1        50 2.20380E+01 1.67161E-03 7.90532E-04 1.12032E-02-3.05498E-14-7.62727E-13
 -1        51 2.23971E+01 5.37065E-03 6.29272E-03 1.13458E-02 2.21908E-14-4.93076E-13
 -1        52 2.26741E+01 1.01434E-02 1.42829E-02 8.70633E-03-1.20065E-14-2.21694E-13
 -1        53 2.27814E+01 1.52752E-02 2.40102E-02 1.60582E-03-1.04052E-14-4.37089E-13
 -1        54 2.26174E+01 1.92251E-02 3.29731E-02-1.12881E-02-3.43496E-14-5.53444E-13
 -1        55 2.20936E+01 1.96823E-02 3.65307E-02-2.96197E-02 1.55480E-14-4.70346E-13
 -1        56 2.11825E+01 1.43343E-02 2.90812E-02-4.96456E-02-5.35545E-14-4.85089E-13
 -1        57 1.99720E+01 2.46200E-03 7.51700E-03-6.35376E-02 8.85476E-14-4.27935E-13
 -1        58 1.86931E+01-1.34081E-02-2.42322E-02-6.18511E-02-2.28116E-16-3.93477E-13
 -1        59 1.76763E+01-2.74462E-02-5.38287E-02-3.96620E-02-1.95200E-14-3.78563E-13
 -1        60 1.72256E+01-3.31900E-02-6.63170E-02-2.36712E-03-7.57380E-15-5.02417E-13
 -1        61 1.74681E+01-2.76738E-02-5.45298E-02 3.53069E-02 1.70726E-13-2.69191E-13
 -1        62 1.82833E+01-1.35800E-02-2.48225E-02 5.82296E-02-3.14231E-14-2.91607E-13
 -1        63 1.93662E+01 2.63698E-03 7.91060E-03 6.02063E-02-3.87703E-14-5.10807E-13
 -1        64 2.03770E+01 1.48515E-02 3.06654E-02 4.56608E-02-6.52748E-14-1.11855E-12
 -1        65 2.10742E+01 2.01559E-02 3.86990E-02 2.41157E-02-3.80427E-14-1.06252E-12
 -1        66 2.13664E+01 1.89616E-02 3.45289E-02 3.86446E-03-1.03701E-14-8.39935E-13
 -1        67 2.12904E+01 1.33953E-02 2.31917E-02-1.06663E-02 1.57820E-13-5.72368E-13
 -1        68 2.09614E+01 5.73897E-03 8.78298E-03-1.81393E-02-3.77893E-15 5.86874E-14
 -1        69 2.05284E+01-2.08823E-03-6.23629E-03-1.82189E-02-3.19019E-14-1.70289E-13
 -1        70 2.01501E+01-6.39914E-03-1.67762E-02-8.06196E-03 5.73323E-14-2.37605E-13
 -1        71 1.99722E+01 3.79609E-03-4.65890E-03 9.03502E-03 2.17404E-15-2.23326E-13
 -1        72 2.10414E+01-4.04881E-01-9.80390E-01-3.11569E-01 6.01498E-14 3.87476E-12
 -1        73 1.93303E+01-6.58815E-02-2.91133E-01-5.38206E-02 4.10128E-14 2.87603E-12
 -1        74 1.86864E+01-2.05027E-02-6.42688E-02-2.03378E-02 1.84518E-14 2.15850E-12
 -1        75 1.84831E+01-9.87435E-03-9.30052E-03-1.54377E-02 4.18123E-15 1.65357E-12
 -1        76 1.84937E+01-5.16122E-03 6.95223E-04-1.23646E-02 1.37115E-14 1.30165E-12
 -1        77 1.86062E+01-2.61096E-03 1.76144E-03-1.00857E-02 1.35853E-14 1.01013E-12
 -1        78 1.87640E+01-1.14359E-03 1.89743E-03-8.33522E-03 1.71898E-15 8.66776E-13
 -1        79 1.89360E+01-2.84853E-04 2.08846E-03-6.88716E-03 1.32732E-14 7.40746E-13
 -1        80 1.91046E+01 2.05440E-04 2.22332E-03-5.63428E-03-2.14241E-14 6.49082E-13
 -1        81 1.92601E+01 4.60987E-04 2.22245E-03-4.53342E-03 3.73982E-14 5.08891E-13
 -1        82 1.93978E+01 5.61777E-04 2.09345E-03-3.56461E-03 6.86084E-15 2.94838E-13
 -1        83 1.95164E+01 5.57562E-04 1.87027E-03-2.71441E-03 2.40047E-14-1.26248E-14
 -1        84 1.96165E+01 4.79463E-04 1.58343E-03-1.96995E-03-1.34196E-15-1.55825E-13
 -1        85 1.97004E+01 3.46061E-04 1.25237E-03-1.31739E-03 2.24383E-15-1.30091E-13
 -1        86 1.97712E+01 1.66819E-04 8.85315E-04-7.42167E-04 9.31199E-15-1.89270E-13
 -1        87 1.98332E+01-5.58567E-05 4.80384E-04-2.29931E-04-3.40643E-14-1.35911E-13
 -1        88 1.98909E+01-3.25313E-04 2.65956E-05 2.32138E-04 1.93584E-14-1.11494E-13
 -1        89 1.99501E+01-6.49738E-04-4.95759E-04 6.53723E-04 1.38325E-14-4.20650E-13
 -1        90 2.00173E+01-1.04139E-03-1.11530E-03 1.03916E-03-1.93514E-14-3.73776E-13
 -1        91 2.01004E+01-1.51563E-03-1.87018E-03 1.38419E-03 2.27592E-14-2.66780E-13
 -1        92 2.02090E+01-2.08921E-03-2.80896E-03 1.67081E-03-4.24446E-14-1.12069E-13
 -1        93 2.03547E+01-2.77663E-03-3.99074E-03 1.85869E-03 1.11516E-15-1.17076E-14
 -1        94 2.05520E+01-3.58272E-03-5.48251E-03 1.87089E-03 6.34690E-14-4.99572E-13
 -1        95 2.08187E+01-4.48761E-03-7.34827E-03 1.57038E-03-2.63055E-16-7.27746E-13
 -1        96 2.11761E+01-5.41841E-03-9.61826E-03 7.23194E-04-4.02205E-14-1.02500E-13
 -1        97 2.16488E+01-6.19916E-03-1.22137E-02-1.05383E-03-7.19222E-15 7.51183E-14
 -1        98 2.22634E+01-6.47033E-03-1.47803E-02-4.35264E-03 3.12508E-14-2.35307E-14
 -1        99 2.30426E+01-5.58060E-03-1.63582E-02-9.99903E-03 3.89077E-14-3.64916E-13
 -1       100 2.39953E+01-2.49581E-03-1.48266E-02-1.89127E-02 1.46678E-14-6.14172E-13
 -1       101 2.50940E+01 4.10403E-03-6.26258E-03-3.14947E-02 2.14123E-14-4.85433E-13
 -1       102 2.62392E+01 1.51839E-02 1.50296E-02-4.60116E-02-1.49567E-14-4.67581E-13
 -1       103 2.72100E+01 2.95522E-02 5.37256E-02-5.55289E-02-8.06538E-15-1.93238E-13
 -1       104 2.76286E+01 4.10025E-02 1.05030E-01-4.46077E-02 5.25578E-14-2.24892E-13
 -1       105 2.70087E+01 3.74746E-02 1.41287E-01 7.56119E-03 1.20902E-14-4.27644E-13
 -1       106 2.50047E+01 9.46675E-03 1.12870E-01 1.05659E-01-6.86450E-14-2.23647E-13
 -1       107 2.18712E+01-3.45166E-02-1.28419E-02 2.05513E-01 7.80441E-15-4.77993E-13
 -1       108 1.87793E+01-6.29048E-02-1.85162E-01 2.16685E-01-9.87617E-14-6.94909E-13
 -1       109 1.73636E+01-5.35127E-02-2.69313E-01 9.05612E-02 1.54595E-13-6.17231E-13
 -1       110 1.84494E+01-1.75397E-02-1.86662E-01-9.18102E-02-5.62723E-14-1.12138E-12
 -1       111 2.12751E+01 1.76319E-02-1.49346E-02-1.96855E-01 1.06448E-13-1.05330E-12
 -1       112 2.42035E+01 3.58016E-02 1.12122E-01-1.82245E-01-1.49548E-13-1.09358E-12
 -1       113 2.60136E+01 3.61066E-02 1.42651E-01-1.05167E-01 5.29071E-14-4.30003E-13
 -1       114 2.64112E+01 2.56832E-02 1.09210E-01-2.97356E-02-4.03460E-14-2.82090E-13
 -1       115 2.57192E+01 1.26194E-02 5.85208E-02 1.87540E-02 4.49451E-14-7.74339E-13
 -1       116 2.44270E+01 1.25776E-03 1.71489E-02 4.19177E-02 1.80064E-14-1.11443E-12
 -1       117 2.29448E+01-7.69292E-03-1.09974E-02 5.00338E-02 1.91933E-14-1.44495E-12
 -1       118 2.15593E+01-1.47811E-02-3.24758E-02 5.05872E-02 3.39579E-14-1.60093E-12
 -1       119 2.04950E+01-1.85283E-02-4.82771E-02 4.08450E-02 1.68682E-14-1.50321E-12
 -1       120 1.99872E+01 1.59969E-02-1.49441E-02 1.00037E-03 2.04733E-13-9.30685E-13
 -1       121 1.99965E+01 1.89452E-02-1.53988E-02-1.07087E-02-6.85757E-13 2.75182E-13
 -1       122 1.99795E+01 5.35798E-01-4.20448E-02 2.93122E-02-2.09346E-14-1.11083E-13
 -1       123 1.99906E+01 1.54589E+00-1.95942E-02 4.75754E-02 2.63515E-13 1.24039E-13
 -1       124 2.00035E+01 2.74092E+00 5.11581E-03 4.99366E-02-3.18892E-13 1.04904E-13
 -1       125 2.00149E+01 3.86886E+00 2.50376E-02 4.16040E-02-1.48360E-13-2.32716E-13
 -1       126 2.00239E+01 4.71403E+00 3.86177E-02 2.68519E-02-3.78426E-13 7.88970E-14
 -1       127 2.00270E+01 5.15942E+00 4.34658E-02 7.14941E-03-1.55003E-13-2.17742E-13
 -1       128 2.00251E+01 5.13204E+00 3.92517E-02-1.21707E-02-4.84629E-13-9.26377E-14
 -1       129 2.00187E+01 4.67302E+00 2.77708E-02-2.67818E-02 1.41552E-13 3.76730E-13
 -1       130 2.00100E+01 3.90184E+00 1.30089E-02-3.41586E-02 4.95694E-13-6.34722E-14
 -1       131 2.00014E+01 2.97618E+00-7.27338E-04-3.43754E-02-1.16733E-12-1.46032E-13
 -1       132 1.99943E+01 2.05923E+00-1.07723E-02-2.95741E-02-1.76350E-12 1.84506E-13
 -1       133 1.99900E+01 1.23333E+00-1.69455E-02-2.22178E-02-3.68298E-13 1.51148E-13
 -1       134 1.99863E+01 5.82508E-01-2.16435E-02-1.52008E-02 4.07786E-13-3.42779E-14
 -1       135 1.99894E+01 1.60233E-01-1.92878E-02-7.82280E-03 4.36295E-13-1.68317E-13
 -1       136 1.99896E+01-5.71904E-03-3.31125E-03 2.26034E-02 4.65027E-14 4.95066E-14
 -1       137-1.48129E+00-2.16511E+01-3.28562E+00-4.11787E+00 2.37449E-12 4.40946E-13
 -1       138-1.91179E+00-9.93610E+00-2.48803E+00-3.69730E+00 1.20404E-12 3.92769E-13
 -1       139 3.00719E+00 3.25230E+00-1.15515E+00 3.41881E+00 1.28653E-12 1.04700E-12
 -1       140 1.69424E+01 1.05964E+01 4.35366E-01 1.32760E+01 1.27304E-12 1.66939E-12
 -1       141 3.68138E+01 1.01846E+01 1.97136E+00 1.88278E+01 1.01699E-12 1.69609E-12
 -1       142 5.65749E+01 5.29355E+00 3.20766E+00 1.60607E+01 4.84751E-13 1.26343E-12
 -1       143 6.81116E+01 1.37144E+00 3.86976E+00 5.38261E+00 8.24653E-14 5.45841E-13
 -1       144 6.55162E+01 2.22458E+00 3.71476E+00-8.67751E+00 2.41934E-13-9.29146E-13
 -1       145 4.92709E+01 6.88848E+00 2.72600E+00-1.73430E+01 7.05741E-13-1.78008E-12
 -1       146 2.85796E+01 1.05858E+01 1.30019E+00-1.70021E+01 1.20065E-12-2.02294E-12
 -1       147 9.42806E+00 7.73466E+00-3.88935E-01-8.65696E+00 1.99429E-12-2.02610E-12
 -1       148 1.05550E-02-1.79671E+00-1.77586E+00 2.09265E-01 2.43877E-12-1.56403E-12
 -1       149-2.03784E+00-1.44324E+01-2.77844E+00 4.48286E+00 1.98830E-12-8.08131E-13
 -1       150-1.09967E+00-2.37717E+01-3.31458E+00 2.99772E+00 1.39569E-12-3.99281E-14
 -1       151-7.36130E-01-2.45021E+01-3.32059E+00-1.54308E+00 1.53419E-13-1.14009E-13
 -1       152-1.66779E+00-1.66774E+01-2.82350E+00-4.20953E+00-1.59694E-12-4.38538E-13
 -1       153-5.87701E-01-3.86691E+00-1.82758E+00-1.16775E+00-2.43083E-12-1.23804E-12
 -1       154 5.94886E+00 6.70800E+00-5.87228E-01 6.47010E+00-2.69956E-12-2.49495E-12
 -1       155 3.94956E+01 9.26919E+00 2.09440E+00 1.84454E+01-1.17734E-12-2.42900E-12
 -1       156 5.74394E+01 4.20408E+00 3.06588E+00 1.39780E+01-4.54997E-13-1.65179E-12
 -1       157 6.62032E+01 9.64576E-01 3.50236E+00 3.21418E+00-5.98584E-14-1.05177E-12
 -1       158 6.30692E+01 2.31112E+00 3.38900E+00-9.39331E+00-1.91291E-13 5.16476E-13
 -1       159 4.85901E+01 7.12381E+00 2.66630E+00-1.75385E+01-7.31026E-13 1.82832E-12
 -1       160 2.96475E+01 1.11098E+01 1.53362E+00-1.77014E+01-1.49014E-12 2.31848E-12
 -1       161 1.22544E+01 9.95217E+00 1.39305E-01-1.10153E+01-2.11964E-12 2.31359E-12
 -1       162 1.78491E+00 1.85780E+00-1.24113E+00-2.16544E+00-1.81455E-12 1.14081E-12
 -1       163-1.77297E+00-1.07792E+01-2.44917E+00 3.68758E+00-2.51399E-12 1.11311E-12
 -1       164-1.30233E+00-2.16053E+01-3.22101E+00 3.82583E+00-1.81841E-12 3.09010E-13
 -1       165 2.10126E+01 3.69403E+00-5.73454E-02-3.61075E+00-6.08315E-13 3.36991E-13
 -1       166 1.99905E+01 4.20774E+00-4.57363E-02-2.81004E+00-5.81549E-13-3.28602E-13
 -1       167 1.95089E+01 4.47683E+00-3.16021E-02-2.19479E+00-4.78477E-13-7.08556E-13
 -1       168 1.92671E+01 4.61512E+00-2.37591E-02-1.67606E+00-3.67388E-13-9.10900E-13
 -1       169 1.91377E+01 4.69666E+00-1.94769E-02-1.21967E+00-2.64216E-13-1.01486E-12
 -1       170 1.90642E+01 4.74774E+00-1.74145E-02-7.92408E-01-1.54550E-13-1.05955E-12
 -1       171 1.90272E+01 4.77565E+00-1.64267E-02-3.87022E-01-5.44947E-14-1.07432E-12
 -1       172 1.90163E+01 4.78422E+00-1.61385E-02 8.32970E-03 2.94986E-14-1.08314E-12
 -1       173 1.90288E+01 4.77442E+00-1.64700E-02 4.03991E-01 1.25425E-13-1.07044E-12
 -1       174 1.90678E+01 4.74486E+00-1.75225E-02 8.10398E-01 2.10722E-13-1.03861E-12
 -1       175 1.91420E+01 4.69241E+00-1.96893E-02 1.23202E+00 3.07603E-13-9.70567E-13
 -1       176 1.92772E+01 4.60526E+00-2.40078E-02 1.69880E+00 4.27494E-13-8.49206E-13
 -1       177 1.95237E+01 4.45947E+00-3.28519E-02 2.22720E+00 5.36966E-13-6.33970E-13
 -1       178 2.00128E+01 4.18377E+00-4.72152E-02 2.84741E+00 6.16079E-13-2.13485E-13
 -1       179 2.11343E+01 3.46366E+00-5.97848E-02 3.53723E+00 5.99921E-13 5.66699E-13
 -1       180 2.24185E+01 1.14341E+00-3.36472E-01 3.01519E+00 4.59970E-13 1.61392E-12
 -1       181 2.19707E+01 8.58317E-01 6.68153E-04-1.95937E+00-5.22627E-13 1.10543E-12
 -1       182 2.04459E+01 1.90266E-01-9.97832E-03-7.64417E-01-4.52093E-13 8.39059E-13
 -1       183 1.96702E+01 1.01498E-01 1.35673E-02-2.85989E-01-3.37621E-13 5.92355E-13
 -1       184 1.93299E+01 4.72303E-02 9.99990E-03-6.87230E-02-2.31938E-13 4.05760E-13
 -1       185 1.91997E+01 2.25710E-02 5.13827E-03 3.86998E-02-1.58344E-13 2.85652E-13
 -1       186 1.91857E+01 9.49634E-03 2.43888E-03 9.13054E-02-1.29364E-13 1.99521E-13
 -1       187 1.92338E+01 2.10078E-03 1.13567E-03 1.13642E-01-9.94029E-14 1.20030E-13
 -1       188 1.93124E+01-2.09670E-03 5.01104E-04 1.18587E-01-1.24224E-13 5.16680E-14
 -1       189 1.94031E+01-4.34128E-03 1.69329E-04 1.13624E-01-1.30024E-13 4.66225E-14
 -1       190 1.94947E+01-5.32587E-03-1.06545E-05 1.03425E-01-8.57699E-14-3.82127E-14
 -1       191 1.95813E+01-5.47580E-03-1.02056E-04 9.10404E-02-8.31409E-14-1.91027E-13
 -1       192 1.96599E+01-5.06456E-03-1.35855E-04 7.85068E-02-4.10127E-14-2.54981E-13
 -1       193 1.97301E+01-4.26755E-03-1.29902E-04 6.72132E-02-1.53294E-14-2.85344E-13
 -1       194 1.97925E+01-3.19168E-03-9.53743E-05 5.81376E-02-7.21263E-14-2.78456E-13
 -1       195 1.98492E+01-1.89442E-03-3.94024E-05 5.20122E-02-1.09348E-13-2.90323E-13
 -1       196 1.99031E+01-3.97985E-04 3.34298E-05 4.94409E-02-9.94620E-14-3.08710E-13
 -1       197 1.99576E+01 1.29808E-03 1.19936E-04 5.09781E-02-7.23325E-15-3.22298E-13
 -1       198 2.00168E+01 3.20366E-03 2.17237E-04 5.71728E-02-1.01367E-14-4.13324E-13
 -1       199 2.00854E+01 5.32210E-03 3.21554E-04 6.85720E-02-9.12658E-14-4.32580E-13
 -1       200 2.01685E+01 7.62893E-03 4.26785E-04 8.56751E-02 8.67137E-15-4.44576E-13
 -1       201 2.02716E+01 1.00422E-02 5.22769E-04 1.08824E-01-4.39325E-14-3.45760E-13
 -1       202 2.04002E+01 1.23806E-02 5.93301E-04 1.37998E-01-4.38873E-14-4.14933E-13
 -1       203 2.05592E+01 1.43066E-02 6.14194E-04 1.72494E-01-4.58390E-15-4.33915E-13
 -1       204 2.07522E+01 1.52536E-02 5.52231E-04 2.10440E-01 6.54371E-14-3.55191E-13
 -1       205 2.09798E+01 1.43451E-02 3.66677E-04 2.48134E-01-3.18853E-14-3.20097E-13
 -1       206 2.12383E+01 1.03351E-02 1.61739E-05 2.79226E-01-2.50515E-14-2.31342E-13
 -1       207 2.15165E+01 1.63867E-03-5.25550E-04 2.93891E-01 9.23780E-14-3.40858E-13
 -1       208 2.17935E+01-1.34078E-02-1.24260E-03 2.78393E-01 9.34640E-14-2.48427E-13
 -1       209 2.20357E+01-3.58385E-02-2.04263E-03 2.15856E-01 9.41179E-14-3.15835E-13
 -1       210 2.21966E+01-6.46632E-02-2.73119E-03 8.95817E-02-1.15687E-13-3.18965E-13
 -1       211 2.22201E+01-9.48025E-02-3.02531E-03-1.09498E-01-6.03315E-14-2.90061E-13
 -1       212 2.20511E+01-1.15209E-01-2.63905E-03-3.70703E-01 4.77049E-15-1.99635E-13
 -1       213 2.16563E+01-1.09612E-01-1.50560E-03-6.50071E-01 4.42938E-14-2.93427E-13
 -1       214 2.10522E+01-6.31349E-02 1.04516E-04-8.65538E-01 4.09869E-14 7.19867E-15
 -1       215 2.03291E+01 2.45589E-02 1.65035E-03-9.15881E-01-3.76262E-14-2.60271E-13
 -1       216 1.96504E+01 1.27572E-01 2.64935E-03-7.30530E-01-4.28980E-14-2.25424E-13
 -1       217 1.92055E+01 1.99291E-01 3.01073E-03-3.28297E-01-1.52470E-13-4.02054E-13
 -1       218 1.91257E+01 2.00585E-01 2.99570E-03 1.64828E-01 1.05153E-13-2.92425E-13
 -1       219 1.94131E+01 1.30001E-01 2.59372E-03 5.71738E-01 2.82955E-14-3.72548E-13
 -1       220 1.99383E+01 2.52214E-02 1.61407E-03 7.61013E-01-2.75462E-13-4.82998E-13
 -1       221 2.05092E+01-6.58861E-02 1.17792E-04 7.08265E-01-2.59663E-13-6.36119E-13
 -1       222 2.09573E+01-1.14810E-01-1.39510E-03 4.83497E-01 1.91564E-13-5.23842E-13
 -1       223 2.11901E+01-1.19732E-01-2.31410E-03 1.93200E-01 9.29313E-14-1.12392E-13
 -1       224 2.11952E+01-9.41365E-02-2.40044E-03-7.10823E-02 1.72677E-13-1.02137E-13
 -1       225 2.10188E+01-5.33031E-02-1.78022E-03-2.53219E-01 3.59580E-13-2.33353E-13
 -1       226 2.07374E+01-7.67493E-03-9.66962E-04-3.29053E-01-3.39674E-14-2.94520E-13
 -1       227 2.04345E+01 3.82741E-02-1.32378E-04-2.95276E-01 1.37894E-13-1.74216E-13
 -1       228 2.01756E+01 7.57728E-02 3.86211E-04-1.67876E-01 3.64774E-15-3.83749E-14
 -1       229 2.09623E+01 2.77030E-01-5.13376E-02 1.16522E+00 4.69746E-13 1.37559E-12
 -1       230 1.98671E+01 1.26835E-01 8.30806E-03 4.43526E-01 3.51673E-13 1.03633E-12
 -1       231 1.93604E+01 5.80443E-02 1.27345E-02 1.50524E-01 2.64279E-13 7.60566E-13
 -1       232 1.91502E+01 2.76912E-02 7.62946E-03 1.13209E-02 1.99001E-13 5.50080E-13
 -1       233 1.90998E+01 1.30439E-02 3.82477E-03-5.77327E-02 1.42197E-13 4.05869E-13
 -1       234 1.91350E+01 5.10361E-03 1.90858E-03-9.00997E-02 6.67930E-14 3.03084E-13
 -1       235 1.92134E+01 5.75480E-04 1.00753E-03-1.01838E-01 6.00885E-14 2.59563E-13
 -1       236 1.93104E+01-1.98393E-03 5.50276E-04-1.01698E-01 6.19413E-14 2.18552E-13
 -1       237 1.94116E+01-3.31354E-03 2.91659E-04-9.49319E-02 1.26740E-13 4.04246E-14
 -1       238 1.95087E+01-3.84220E-03 1.37540E-04-8.48861E-02 9.58399E-14 2.02198E-15
 -1       239 1.95974E+01-3.83805E-03 4.83721E-05-7.37614E-02 1.33131E-13 7.68645E-15
 -1       240 1.96763E+01-3.47310E-03 3.65493E-06-6.30370E-02 3.37869E-14-7.61984E-14
 -1       241 1.97456E+01-2.85486E-03-9.08790E-06-5.37339E-02 5.74939E-14-1.49783E-13
 -1       242 1.98071E+01-2.04357E-03 2.12195E-06-4.65965E-02 1.94540E-14-2.26369E-13
 -1       243 1.98633E+01-1.06273E-03 3.22284E-05-4.22275E-02-2.24491E-14-2.12136E-13
 -1       244 1.99177E+01 9.42928E-05 7.82691E-05-4.11940E-02-3.25922E-15-2.95190E-13
 -1       245 1.99748E+01 1.46025E-03 1.38723E-04-4.41158E-02 1.33149E-13-1.95937E-13
 -1       246 2.00398E+01 3.09172E-03 2.12904E-04-5.17413E-02-1.54227E-14-2.68833E-13
 -1       247 2.01188E+01 5.06767E-03 3.00252E-04-6.50162E-02-7.54922E-14-2.01909E-13
 -1       248 2.02196E+01 7.48769E-03 3.99256E-04-8.51435E-02-5.66805E-14-1.61747E-13
 -1       249 2.03512E+01 1.04675E-02 5.05666E-04-1.13630E-01 3.93560E-15-3.12531E-13
 -1       250 2.05246E+01 1.41262E-02 6.09448E-04-1.52301E-01 2.15333E-13-2.66248E-13
 -1       251 2.07525E+01 1.85543E-02 6.89839E-04-2.03236E-01 4.32473E-14-3.91015E-13
 -1       252 2.10499E+01 2.37405E-02 7.08143E-04-2.68538E-01-2.71762E-13-3.98637E-13
 -1       253 2.14328E+01 2.94175E-02 5.99834E-04-3.49752E-01-1.52411E-14-1.90826E-13
 -1       254 2.19167E+01 3.47575E-02 2.73308E-04-4.46603E-01 4.28615E-14-1.44931E-13
 -1       255 2.25133E+01 3.78223E-02-3.64195E-04-5.54524E-01 1.93372E-13-1.16675E-13
 -1       256 2.32224E+01 3.46878E-02-1.31421E-03-6.60222E-01 7.78435E-15-1.78607E-13
 -1       257 2.40209E+01 1.84044E-02-2.28132E-03-7.34772E-01-6.84654E-14-1.70287E-13
 -1       258 2.48442E+01-2.12523E-02-2.43632E-03-7.25360E-01-1.40612E-14-1.18366E-13
 -1       259 2.55664E+01-9.43608E-02-3.85376E-04-5.52004E-01-1.54652E-13-9.59866E-14
 -1       260 2.59894E+01-1.98428E-01 4.74455E-03-1.26024E-01 1.37332E-13 3.26115E-14
 -1       261 2.58705E+01-2.92741E-01 1.11323E-02 5.81359E-01 1.51389E-14 5.87152E-14
 -1       262 2.50288E+01-2.80970E-01 1.13166E-02 1.40814E+00-4.74672E-14 7.92665E-14
 -1       263 2.35563E+01-7.01495E-02-4.01455E-03 1.91793E+00 1.79596E-13-8.74301E-14
 -1       264 2.19837E+01 2.96323E-01-3.22323E-02 1.58779E+00-2.45966E-14-3.18136E-13
 -1       265 2.11520E+01 5.41231E-01-4.84780E-02 3.55992E-01 5.96623E-14-3.15798E-13
 -1       266 2.15645E+01 4.28794E-01-3.37109E-02-1.05656E+00 1.05436E-13-2.66783E-14
 -1       267 2.28811E+01 7.44037E-02-4.11523E-03-1.75370E+00 4.62204E-14 9.48720E-14
 -1       268 2.42577E+01-2.17218E-01 1.30019E-02-1.49862E+00-6.34536E-14 4.18311E-14
 -1       269 2.50506E+01-3.03725E-01 1.23299E-02-7.17441E-01-1.83030E-13-3.15713E-13
 -1       270 2.50923E+01-2.45338E-01 4.78598E-03 7.90320E-02-9.71922E-14-2.35587E-13
 -1       271 2.45302E+01-1.41971E-01-1.28204E-03 6.30126E-01 3.56224E-13-3.28816E-13
 -1       272 2.36156E+01-5.22011E-02-3.19299E-03 8.99082E-01 1.49558E-13-4.27509E-13
 -1       273 2.25786E+01 1.06837E-02-2.71885E-03 9.47184E-01 2.16492E-13-4.79779E-13
 -1       274 2.15945E+01 5.64765E-02-2.66129E-03 8.38675E-01 3.35756E-14-3.96497E-13
 -1       275 2.07943E+01 1.03626E-01-2.27556E-03 6.02912E-01-4.28531E-14-3.24894E-13
 -1       276 2.02498E+01 1.37590E-01 5.51870E-04 2.63280E-01-1.82459E-13-1.68144E-13
 -1       277 2.01729E+01 4.77220E-01 1.98661E-03 4.76635E-01-1.22979E-13 5.07999E-13
 -1       278 2.00970E+01 1.08787E+00 6.56765E-04 7.75199E-01 1.37566E-13 1.07506E-13
 -1       279 2.00147E+01 1.83559E+00-1.98802E-04 9.03235E-01-1.70142E-14-2.90046E-13
 -1       280 1.99449E+01 2.60040E+00-1.54133E-03 8.51808E-01-2.06919E-13 1.84350E-13
 -1       281 1.98898E+01 3.24228E+00-3.11950E-03 6.50567E-01-1.60661E-13-2.70271E-13
 -1       282 1.98573E+01 3.67197E+00-4.10911E-03 3.36871E-01-1.68114E-13-2.52628E-14
 -1       283 1.98551E+01 3.80670E+00-4.40622E-03-2.10025E-02 4.28739E-14-8.27758E-14
 -1       284 1.98817E+01 3.63889E+00-4.01578E-03-3.49219E-01 2.91520E-13 2.78846E-13
 -1       285 1.99271E+01 3.21927E+00-3.06772E-03-5.88334E-01-3.72239E-14 5.22499E-14
 -1       286 1.99767E+01 2.63832E+00-1.76034E-03-7.09385E-01-1.14444E-13-6.95003E-13
 -1       287 2.00176E+01 2.00853E+00-3.01949E-04-7.17641E-01-5.42932E-14-2.63521E-13
 -1       288 2.00456E+01 1.39445E+00 8.82902E-04-6.39954E-01 9.23517E-14 7.03921E-13
 -1       289 2.00607E+01 8.69478E-01 1.65807E-03-5.08252E-01-3.73431E-14 3.58946E-13
 -1       290 2.00708E+01 4.66206E-01 1.81699E-03-3.43075E-01-6.05121E-14-2.63784E-14
 -1       291 2.01249E+01 2.44683E-01 2.45040E-03-2.77766E-01-5.44505E-14-1.79353E-13
 -1       292-9.43283E-01-1.11988E+01-9.57862E-01 9.92498E-01 1.88918E-13 1.03861E-12
 -1       293 2.31912E+00-9.61830E+00-9.01228E-01 3.09590E+00 8.42992E-13-2.75939E-13
 -1       294 9.19935E+00-5.68087E+00-5.76491E-01 5.36218E+00 5.04430E-13 4.27949E-13
 -1       295 2.01894E+01-2.00322E+00-1.00863E-01 7.03720E+00 2.77112E-13 3.49193E-13
 -1       296 3.06483E+01 1.95120E+00 3.19200E-01 7.12580E+00 2.08000E-13 2.72005E-13
 -1       297 4.02968E+01 4.92768E+00 7.97440E-01 6.20329E+00 3.08118E-13 3.74589E-13
 -1       298 4.67163E+01 6.42341E+00 1.08357E+00 3.44488E+00 5.06192E-13 3.67317E-13
 -1       299 4.68545E+01 7.15182E+00 9.63379E-01-1.37772E-01 8.45879E-13-3.89574E-13
 -1       300 4.29760E+01 5.90045E+00 7.34297E-01-2.77193E+00 6.32702E-13-7.74963E-13
 -1       301 3.65618E+01 3.72781E+00 5.86604E-01-6.42086E+00 6.86368E-13-1.01741E-12
 -1       302 2.64813E+01-4.53378E-01 8.29306E-02-6.37651E+00 7.61918E-13-7.55673E-13
 -1       303 1.51395E+01-3.54701E+00-3.13002E-01-6.32632E+00 9.47104E-13-6.68882E-13
 -1       304 6.09947E+00-7.16926E+00-7.09806E-01-4.23773E+00 9.28591E-13-8.73853E-13
 -1       305 9.85582E-01-9.48400E+00-7.60101E-01-2.55289E+00 6.49703E-13-6.33812E-13
 -1       306-1.36221E+00-1.16298E+01-1.01717E+00 7.17487E-02 1.18889E-13-6.89948E-13
 -1       307-9.74021E-02-1.06142E+01-9.44024E-01 2.04465E+00-2.84467E-13-9.15087E-13
 -1       308 4.77693E+00-7.46491E+00-6.60203E-01 4.47792E+00-6.30607E-13-7.82319E-13
 -1       309 1.19743E+01-3.54635E+00-3.71760E-01 6.25772E+00-9.18654E-13-1.19407E-12
 -1       310 2.14341E+01 3.26692E-01 3.16006E-02 7.64256E+00-1.08555E-12-1.19646E-12
 -1       311 3.15433E+01 3.38831E+00 4.26461E-01 7.66270E+00-1.18175E-12-9.86045E-13
 -1       312 3.95917E+01 5.36112E+00 6.47001E-01 5.01355E+00-7.65853E-13-7.84428E-13
 -1       313 4.59499E+01 6.46378E+00 9.67609E-01 2.75006E+00-4.38746E-13-6.88144E-13
 -1       314 4.62885E+01 6.96068E+00 9.46113E-01-9.54997E-01-5.96800E-13-4.55490E-13
 -1       315 4.23782E+01 6.21393E+00 7.52356E-01-3.92058E+00-7.08447E-13-4.16889E-13
 -1       316 3.60178E+01 4.27563E+00 5.73541E-01-6.65700E+00-7.04384E-13 9.11493E-14
 -1       317 2.66251E+01 1.87239E+00 2.52708E-01-7.90612E+00-8.47517E-13 6.74516E-13
 -1       318 1.67318E+01-1.79279E+00-1.69682E-01-7.11968E+00-5.85282E-13 1.08466E-12
 -1       319 8.09822E+00-5.95491E+00-5.76006E-01-5.29409E+00-9.67115E-13 1.54855E-13
 -1       320 2.10029E+00-9.59514E+00-8.71994E-01-3.25989E+00-4.85417E-13 6.03059E-13
 -1       321-9.67157E-01-1.16272E+01-1.02336E+00-1.18275E+00-2.75571E-13 8.34832E-13
 -1       322 2.01453E+01 3.01538E+00-1.78326E-02-2.11131E+00-6.10854E-13-3.25631E-13
 -1       323 2.07553E+01 2.20834E+00-1.78025E-02-2.36398E+00-6.59318E-13 6.08472E-14
 -1       324 1.95847E+01 3.69130E+00-1.50502E-02-1.31781E+00-3.73721E-13-7.14820E-13
 -1       325 1.94612E+01 3.84835E+00-1.35899E-02-9.23974E-01-2.55601E-13-7.97700E-13
 -1       326 1.93925E+01 3.93911E+00-1.27155E-02-5.44066E-01-1.29623E-13-8.13540E-13
 -1       327 1.93621E+01 3.98050E+00-1.23075E-02-1.73230E-01-1.37392E-14-8.29121E-13
 -1       328 1.93633E+01 3.97894E+00-1.23189E-02 1.94550E-01 9.12121E-14-8.40421E-13
 -1       329 1.93965E+01 3.93401E+00-1.27625E-02 5.65652E-01 2.13599E-13-8.21497E-13
 -1       330 1.94671E+01 3.84071E+00-1.37679E-02 9.39751E-01 3.29442E-13-7.73364E-13
 -1       331 1.95936E+01 3.67848E+00-1.56542E-02 1.33392E+00 4.58111E-13-6.70814E-13
 -1       332 1.98087E+01 3.40983E+00-1.88307E-02 1.73927E+00 5.68776E-13-5.22553E-13
 -1       333 2.01788E+01 2.95511E+00-2.29402E-02 2.12786E+00 6.63362E-13-2.76170E-13
 -1       334 2.07482E+01 2.12940E+00-3.04704E-02 2.32278E+00 6.90464E-13 2.12424E-13
 -1       335 2.10945E+01 1.18772E+00-2.49256E-02 1.92244E+00 6.23019E-13 6.66401E-13
 -1       336 2.03905E+01 4.89248E-01 8.33077E-03 9.27908E-01 4.97463E-13 4.87699E-13
 -1       337 2.04566E+01 6.75547E-01 1.23554E-02-1.02577E+00-5.04775E-13 1.44750E-13
 -1       338 2.00364E+01 3.34453E-01 6.77850E-03-4.58862E-01-3.92677E-13 9.73598E-14
 -1       339 1.97810E+01 1.76532E-01 4.05442E-03-1.49584E-01-2.72581E-13 5.51084E-14
 -1       340 1.96452E+01 9.04568E-02 1.91988E-03 2.13998E-02-2.03001E-13-1.48215E-14
 -1       341 1.95895E+01 4.12921E-02 8.08291E-04 1.12522E-01-1.40180E-13-6.80227E-14
 -1       342 1.95841E+01 1.24480E-02 2.78329E-04 1.55755E-01-1.28033E-13-8.92349E-14
 -1       343 1.96080E+01-4.31895E-03 1.97246E-05 1.70116E-01-1.47294E-13-1.20429E-13
 -1       344 1.96477E+01-1.34421E-02-1.11396E-04 1.67463E-01-1.25502E-13-1.57073E-13
 -1       345 1.96944E+01-1.75408E-02-1.72464E-04 1.55540E-01-1.47083E-13-1.45555E-13
 -1       346 1.97427E+01-1.82641E-02-1.89541E-04 1.39534E-01-1.33365E-13-1.86073E-13
 -1       347 1.97897E+01-1.66761E-02-1.76967E-04 1.22992E-01-8.07567E-14-2.67263E-13
 -1       348 1.98344E+01-1.34567E-02-1.43520E-04 1.08389E-01-1.14406E-14-2.86780E-13
 -1       349 1.98770E+01-9.01824E-03-9.46016E-05 9.75187E-02-9.22973E-14-2.54736E-13
 -1       350 1.99184E+01-3.58415E-03-3.33406E-05 9.17609E-02-9.57362E-14-1.98625E-13
 -1       351 1.99605E+01 2.74979E-03 3.85828E-05 9.22679E-02-1.15233E-13-1.88220E-13
 -1       352 2.00058E+01 9.95819E-03 1.20180E-04 1.00080E-01-5.14793E-14-2.11167E-13
 -1       353 2.00569E+01 1.80240E-02 2.10325E-04 1.16176E-01-5.91074E-14-1.66816E-13
 -1       354 2.01173E+01 2.68625E-02 3.06738E-04 1.41440E-01-4.57245E-14-1.85992E-13
 -1       355 2.01905E+01 3.62205E-02 4.04675E-04 1.76542E-01 2.38101E-14-2.36331E-13
 -1       356 2.02802E+01 4.55408E-02 4.95214E-04 2.21691E-01 1.73538E-14-2.49513E-13
 -1       357 2.03900E+01 5.37785E-02 5.63128E-04 2.76226E-01 6.04104E-15-7.04592E-14
 -1       358 2.05230E+01 5.91688E-02 5.84546E-04 3.38009E-01 4.93769E-14-5.41835E-14
 -1       359 2.06816E+01 5.89601E-02 5.25073E-04 4.02568E-01 6.81915E-14-9.64624E-14
 -1       360 2.08663E+01 4.91830E-02 3.39904E-04 4.62023E-01 9.87375E-14-2.04070E-13
 -1       361 2.10749E+01 2.46239E-02-2.11673E-05 5.03884E-01-5.96058E-15-9.95966E-14
 -1       362 2.13017E+01-2.06411E-02-5.99994E-04 5.10097E-01 7.14142E-15-1.83566E-13
 -1       363 2.15352E+01-9.15476E-02-1.40133E-03 4.57103E-01 1.18950E-14-2.84592E-13
 -1       364 2.17570E+01-1.88380E-01-2.34986E-03 3.18336E-01-6.46618E-16-3.02182E-13
 -1       365 2.19390E+01-3.00639E-01-3.24084E-03 7.13313E-02-6.03842E-14-2.29290E-13
 -1       366 2.20427E+01-3.99589E-01-3.70602E-03-2.88365E-01-4.11330E-14-1.23722E-13
 -1       367 2.20223E+01-4.34708E-01-3.25189E-03-7.26522E-01 1.47128E-13 5.19615E-14
 -1       368 2.18377E+01-3.44935E-01-1.74048E-03-1.15021E+00 9.14258E-14 4.08253E-14
 -1       369 2.14838E+01-9.43723E-02 5.04955E-04-1.40864E+00-1.52432E-13 2.56186E-14
 -1       370 2.10273E+01 2.75254E-01 2.75101E-03-1.34186E+00-1.25071E-13-9.90286E-14
 -1       371 2.06145E+01 6.22865E-01 4.23515E-03-8.81770E-01-1.06066E-13-6.83128E-14
 -1       372 2.04123E+01 7.70515E-01 4.76117E-03-1.41944E-01 6.71832E-14 3.38810E-13
 -1       373 2.04993E+01 6.31200E-01 4.29585E-03 6.03253E-01 2.84078E-14 1.86014E-14
 -1       374 2.08037E+01 2.82546E-01 2.78175E-03 1.07363E+00-1.51739E-13-3.71216E-14
 -1       375 2.11588E+01-9.76584E-02 4.71059E-04 1.14389E+00-2.59309E-13 2.03111E-13
 -1       376 2.14116E+01-3.59220E-01-1.85436E-03 8.76746E-01-8.17095E-14 3.03416E-13
 -1       377 2.14912E+01-4.51514E-01-3.24266E-03 4.37539E-01 1.69682E-13-3.22301E-14
 -1       378 2.14023E+01-4.04403E-01-3.52636E-03-1.05764E-02 2.13871E-13 8.77716E-14
 -1       379 2.11897E+01-2.75394E-01-2.70385E-03-3.58140E-01 2.45848E-13 1.17776E-13
 -1       380 2.09076E+01-1.13447E-01-1.36634E-03-5.52902E-01 3.13349E-14 6.00624E-14
 -1       381 2.06051E+01 5.15271E-02-7.07720E-05-5.83069E-01 1.02991E-13 1.30385E-13
 -1       382 2.03511E+01 1.71862E-01 1.95894E-03-4.72746E-01 1.25513E-13 8.76983E-14
 -1       383 1.98886E+01 2.28413E-01 1.07947E-02 3.99340E-01 3.88923E-13 3.64962E-13
 -1       384 1.95996E+01 1.15242E-01 6.17454E-03 1.20776E-01 2.83408E-13 2.36402E-13
 -1       385 1.94646E+01 5.75487E-02 2.80718E-03-2.79146E-02 2.13442E-13 1.51243E-13
 -1       386 1.94244E+01 2.56758E-02 1.17714E-03-1.04666E-01 1.19662E-13 5.48019E-14
 -1       387 1.94397E+01 7.26823E-03 4.49499E-04-1.39812E-01 8.27158E-14-1.28106E-14
 -1       388 1.94855E+01-3.34588E-03 1.04214E-04-1.50344E-01 1.03796E-13-5.33988E-14
 -1       389 1.95457E+01-9.10581E-03-7.34321E-05-1.46561E-01 2.00800E-13-7.44376E-14
 -1       390 1.96107E+01-1.17097E-02-1.62869E-04-1.35039E-01 1.21943E-13-8.13479E-14
 -1       391 1.96746E+01-1.22104E-02-1.97241E-04-1.20129E-01 1.20848E-13-9.51822E-14
 -1       392 1.97347E+01-1.12806E-02-1.94196E-04-1.04775E-01 1.19987E-13-9.35685E-14
 -1       393 1.97899E+01-9.34412E-03-1.64485E-04-9.10230E-02 1.53074E-13-2.05776E-13
 -1       394 1.98408E+01-6.64568E-03-1.14585E-04-8.03610E-02 3.92153E-14-2.21403E-13
 -1       395 1.98890E+01-3.29399E-03-4.77841E-05-7.39701E-02 4.19613E-15-2.24365E-13
 -1       396 1.99369E+01 7.11427E-04 3.51370E-05-7.29146E-02-1.00930E-14-2.47697E-13
 -1       397 1.99877E+01 5.46301E-03 1.35430E-04-7.82950E-02 1.15076E-13-2.26122E-13
 -1       398 2.00454E+01 1.11338E-02 2.55986E-04-9.13763E-02 6.97108E-14-2.13964E-13
 -1       399 2.01147E+01 1.79685E-02 4.00937E-04-1.13696E-01-1.28735E-13-2.85764E-13
 -1       400 2.02014E+01 2.62721E-02 5.75010E-04-1.47151E-01 3.74231E-14-3.56312E-13
 -1       401 2.03121E+01 3.63876E-02 7.82292E-04-1.94056E-01 2.50210E-14-4.26383E-13
 -1       402 2.04549E+01 4.86438E-02 1.02373E-03-2.57134E-01 1.92812E-13-3.93058E-13
 -1       403 2.06386E+01 6.32390E-02 1.29223E-03-3.39388E-01 9.96756E-14-3.97025E-13
 -1       404 2.08731E+01 7.99920E-02 1.56380E-03-4.43706E-01-2.56456E-13-3.06561E-13
 -1       405 2.11690E+01 9.78467E-02 1.78281E-03-5.71968E-01-9.63314E-14-3.65246E-13
 -1       406 2.15362E+01 1.13942E-01 1.84169E-03-7.23225E-01 4.42876E-14-2.96389E-13
 -1       407 2.19826E+01 1.22014E-01 1.56204E-03-8.90298E-01 1.52012E-13-2.11339E-13
 -1       408 2.25110E+01 1.09996E-01 7.00557E-04-1.05397E+00 5.46938E-14-6.39733E-15
 -1       409 2.31155E+01 5.73729E-02-9.72655E-04-1.17425E+00-5.97401E-14-2.28975E-14
 -1       410 2.37755E+01-6.49016E-02-3.47112E-03-1.17995E+00-4.75605E-14 6.95574E-14
 -1       411 2.44476E+01-2.84438E-01-6.45345E-03-9.63933E-01-1.18937E-13-1.33974E-13
 -1       412 2.50524E+01-5.94036E-01-8.81237E-03-4.02533E-01 3.89463E-14 1.04016E-14
 -1       413 2.54523E+01-8.84014E-01-1.01972E-02 5.65393E-01 2.45940E-15 2.65794E-13
 -1       414 2.54526E+01-8.86151E-01-8.92492E-03 1.76856E+00 2.96265E-14 2.87331E-13
 -1       415 2.49005E+01-3.01708E-01-1.19225E-02 2.63147E+00 2.58446E-13 4.23039E-13
 -1       416 2.39410E+01 8.12265E-01-2.52458E-02 2.37254E+00 1.67848E-13 1.87478E-13
 -1       417 2.32449E+01 1.63768E+00-3.51672E-02 7.18395E-01-9.05942E-14-1.82730E-14
 -1       418 2.34093E+01 1.37274E+00-2.98002E-02-1.35211E+00 3.22763E-14-6.39853E-15
 -1       419 2.42042E+01 2.92781E-01-1.44795E-02-2.42346E+00-9.14303E-14 5.97786E-15
 -1       420 2.48788E+01-6.50124E-01-8.21243E-03-2.06605E+00-1.89122E-14 1.55960E-13
 -1       421 2.49915E+01-9.54552E-01-9.54231E-03-9.24751E-01-1.24148E-13 1.57139E-13
 -1       422 2.45925E+01-7.89545E-01-1.01876E-02 2.37263E-01-7.83132E-14-1.38945E-13
 -1       423 2.38862E+01-4.66605E-01-9.09026E-03 1.04354E+00 2.80432E-13-2.42936E-13
 -1       424 2.30569E+01-1.76258E-01-5.51183E-03 1.43961E+00 2.11628E-13-1.61359E-13
 -1       425 2.22224E+01 3.17332E-02-1.49723E-03 1.51266E+00 2.03405E-13-7.24611E-14
 -1       426 2.14573E+01 1.79273E-01 1.26702E-03 1.35654E+00-4.90596E-14 1.59042E-13
 -1       427 2.08048E+01 3.05689E-01 2.56113E-03 1.02773E+00-2.94161E-13 5.95100E-13
 -1       428 2.04553E+01 4.04696E-01 2.67304E-03 7.75621E-01-2.89371E-13 7.66607E-13
 -1       429 1.99134E+01 1.78001E+00-6.80270E-04 1.47718E+00-1.74985E-13-4.61114E-14
 -1       430 2.01860E+01 1.20779E+00 2.94181E-03 1.43656E+00-1.43439E-13-2.83539E-13
 -1       431 2.03567E+01 7.96230E-01 4.10606E-03 1.16794E+00-1.85593E-13 4.03614E-13
 -1       432 1.96760E+01 2.29865E+00-2.88899E-03 1.26377E+00-2.66712E-13-2.97391E-13
 -1       433 1.95001E+01 2.69754E+00-4.37226E-03 8.23881E-01 7.32865E-14 2.01776E-13
 -1       434 1.94296E+01 2.88955E+00-4.96624E-03 2.49828E-01 2.90196E-13-1.03468E-13
 -1       435 1.94777E+01 2.84151E+00-4.71779E-03-3.37042E-01 5.20509E-14 2.85325E-14
 -1       436 1.96217E+01 2.57600E+00-3.75307E-03-8.18547E-01-1.88022E-13 3.88901E-14
 -1       437 1.98116E+01 2.16154E+00-2.30112E-03-1.11733E+00-2.00306E-15-2.00285E-13
 -1       438 1.99896E+01 1.69291E+00-6.72817E-04-1.21564E+00 3.02826E-13-4.01330E-13
 -1       439 2.01258E+01 1.22874E+00 7.83441E-04-1.14838E+00 3.63863E-13 4.12147E-13
 -1       440 2.02087E+01 8.26136E-01 2.06086E-03-9.69456E-01 1.22793E-13 3.91404E-13
 -1       441 2.02471E+01 5.06495E-01 3.03302E-03-7.33752E-01-6.19766E-14-1.23968E-13
 -1       442 1.01991E+01-6.24597E+00-8.11732E-02 6.81732E+00 2.88325E-13-4.43534E-14
 -1       443 9.14178E-01-5.24477E+00-1.10465E-01-2.84805E-01-1.43449E-13 1.13909E-12
 -1       444 4.30405E+00-4.81166E+00 1.37047E-02 4.54090E+00-9.46604E-14 2.54533E-13
 -1       445 1.88487E+01-5.99586E+00-6.60368E-02 6.77634E+00 1.57291E-13-9.04138E-15
 -1       446 2.82463E+01-3.72451E+00 8.90080E-03 3.91701E+00 6.95971E-14-1.36724E-13
 -1       447 1.97871E+01 3.43928E+00-2.08456E-02-1.72623E+00-4.99528E-13-5.77308E-13
 -1       448 3.58684E+01 4.98554E+00 4.90138E-02-3.95986E-01 2.80886E-14-3.21826E-13
 -1       449 3.70984E+01 7.67417E+00 8.20334E-02-8.34567E-02 7.89896E-13-3.51774E-13
 -1       450 3.56709E+01 7.11564E+00-2.27401E-03 1.03771E+00 8.53456E-13-1.20737E-14
 -1       451 3.51070E+01 2.92238E+00 4.47083E-02 2.41769E-01 5.98445E-13-5.97883E-13
 -1       452 3.16354E+01-1.33769E+00 3.30371E-02-1.64117E+00 2.78947E-13-6.93862E-13
 -1       453 2.45788E+01-5.54212E+00-2.68079E-02-4.78463E+00 9.61314E-14-3.43642E-13
 -1       454 1.54734E+01-6.18553E+00-5.14819E-02-6.75507E+00 1.77552E-13-6.27966E-14
 -1       455 7.96668E+00-5.67695E+00-4.94498E-02-5.98894E+00 2.35589E-13-5.03264E-13
 -1       456 1.68239E+00-4.93932E+00-7.00200E-02-2.09737E+00 4.51028E-16-9.16850E-13
 -1       457 1.10151E+00-5.17648E+00-1.18561E-01 2.00294E+00-1.50172E-13-8.75772E-13
 -1       458 5.68718E+00-4.98528E+00-1.11116E-02 5.79069E+00 1.99216E-13-7.68011E-13
 -1       459 1.29441E+01-5.71434E+00-5.62352E-02 7.24243E+00 5.70655E-14-8.16925E-13
 -1       460 2.15804E+01-4.96272E+00-5.08114E-03 6.31741E+00-2.89074E-14-4.73344E-13
 -1       461 2.84644E+01-2.44482E+00 3.67144E-03 3.54018E+00-3.98528E-13-1.59706E-13
 -1       462 3.23017E+01 1.23383E+00-1.28046E-02 1.34748E+00-6.23775E-13-3.58338E-13
 -1       463 3.55974E+01 6.26639E+00 7.38895E-02-4.02517E-02-6.34104E-13-4.31155E-13
 -1       464 3.66981E+01 8.07247E+00 9.59110E-02-1.11560E-01-6.55448E-13-1.85265E-13
 -1       465 3.50899E+01 7.44947E+00-6.28944E-03 2.17088E-01-5.52225E-13 1.47243E-14
 -1       466 3.38718E+01 3.72785E+00-2.87772E-03-2.93257E-01-4.53665E-13-4.22440E-13
 -1       467 3.10336E+01-5.01484E-01 2.09139E-02-2.81826E+00-4.54119E-13-4.49252E-13
 -1       468 2.55263E+01-4.13236E+00 7.56627E-03-5.20668E+00-1.55390E-13 3.86774E-14
 -1       469 1.72126E+01-5.75058E+00-4.62481E-02-7.21340E+00-3.24185E-13 4.06924E-13
 -1       470 9.12522E+00-6.11404E+00-8.30216E-02-6.85825E+00-3.91354E-14 5.42719E-13
 -1       471 4.12568E+00-4.54605E+00 3.60148E-02-4.58925E+00-8.03246E-14 3.21965E-13
 -1       472 3.36759E+01 7.57451E-01 4.52748E-02 1.37199E+00-1.18750E-13-2.13857E-13
 -1       473 6.73780E+00-3.44132E+00 1.15410E-01-4.91764E+00-3.86080E-14-5.91208E-13
 -1       474 2.03723E+01 8.31853E-01 4.00985E-03 9.72787E-01 5.13067E-13-1.15793E-14
 -1       475 1.97341E+01 3.10343E+00-5.50873E-03-6.34291E-01-1.78015E-13-7.15424E-13
 -1       476 1.98299E+01 2.92998E+00-5.86573E-03-9.51196E-01-2.79686E-13-6.73061E-13
 -1       477 1.96666E+01 3.22640E+00-5.02862E-03 8.95729E-03 2.87495E-14-7.49555E-13
 -1       478 1.96850E+01 3.19331E+00-5.10015E-03 3.30575E-01 1.37003E-13-7.45147E-13
 -1       479 1.97386E+01 3.09640E+00-5.41458E-03 6.46209E-01 2.69017E-13-7.02849E-13
 -1       480 1.98368E+01 2.91859E+00-5.94496E-03 9.62047E-01 3.98969E-13-6.44558E-13
 -1       481 1.99917E+01 2.63360E+00-6.52685E-03 1.25738E+00 4.92380E-13-5.23211E-13
 -1       482 2.02333E+01 2.18756E+00-5.70382E-03 1.50224E+00 5.76093E-13-3.76580E-13
 -1       483 2.01104E+01 4.53401E-01 5.07404E-03 4.65019E-01 4.04093E-13-6.98607E-14
 -1       484 2.03409E+01 9.76433E-01 3.69330E-03-9.40170E-01-4.46895E-13-1.53539E-13
 -1       485 3.03168E+01-2.76785E+00-6.35258E-02 1.20923E-01-1.93109E-13-4.99219E-13
 -1       486 2.01757E+01 5.32380E-01 4.31188E-04-4.69985E-01-3.41551E-13-1.31936E-13
 -1       487 2.00230E+01 3.03941E-01 1.16430E-03-1.67537E-01-2.69291E-13-1.42630E-13
 -1       488 1.99226E+01 1.61532E-01 5.24973E-04 1.39280E-02-2.13243E-13-1.53259E-13
 -1       489 1.98637E+01 7.54815E-02 1.76996E-04 1.16547E-01-1.66066E-13-2.00901E-13
 -1       490 1.98365E+01 2.31706E-02 2.65085E-05 1.68232E-01-1.67827E-13-2.37914E-13
 -1       491 1.98307E+01-7.69360E-03-4.38238E-05 1.87601E-01-1.40524E-13-2.82590E-13
 -1       492 1.98386E+01-2.44158E-02-7.71883E-05 1.87411E-01-1.11462E-13-2.62433E-13
 -1       493 1.98546E+01-3.16046E-02-8.92030E-05 1.76435E-01-1.36698E-13-2.24516E-13
 -1       494 1.98750E+01-3.22587E-02-8.70961E-05 1.60770E-01-1.32187E-13-2.00730E-13
 -1       495 1.98976E+01-2.83419E-02-7.51351E-05 1.44701E-01-7.00333E-14-1.76536E-13
 -1       496 1.99214E+01-2.11101E-02-5.60338E-05 1.31303E-01-2.34266E-14-2.60593E-13
 -1       497 1.99461E+01-1.13197E-02-3.14174E-05 1.22866E-01-7.89706E-14-1.74052E-13
 -1       498 1.99721E+01 6.20783E-04-2.15275E-06 1.21200E-01-7.39859E-14-1.34555E-13
 -1       499 2.00004E+01 1.45228E-02 3.13549E-05 1.27838E-01-1.00283E-13-5.85280E-14
 -1       500 2.00322E+01 3.02913E-02 6.88415E-05 1.44157E-01-2.12548E-14-9.59771E-14
 -1       501 2.00692E+01 4.77829E-02 1.09800E-04 1.71406E-01-1.21047E-13-1.81917E-13
 -1       502 2.01134E+01 6.66289E-02 1.52997E-04 2.10635E-01-4.70234E-14-1.04781E-13
 -1       503 2.01671E+01 8.60046E-02 1.95821E-04 2.62499E-01 3.50425E-14-1.80023E-13
 -1       504 2.02327E+01 1.04324E-01 2.33430E-04 3.26914E-01 9.09533E-14-1.60390E-13
 -1       505 2.03131E+01 1.18849E-01 2.57696E-04 4.02512E-01 5.35428E-14-9.17267E-14
 -1       506 2.04114E+01 1.25217E-01 2.56053E-04 4.85870E-01-2.31266E-14-1.20691E-13
 -1       507 2.05311E+01 1.16971E-01 2.10619E-04 5.70479E-01-4.64569E-14-1.34523E-13
 -1       508 2.06767E+01 8.52603E-02 9.83013E-05 6.45475E-01 1.17789E-14-1.63003E-13
 -1       509 2.08528E+01 1.91673E-02-1.06534E-04 6.94285E-01 2.55414E-14-2.31619E-13
 -1       510 2.10647E+01-9.25407E-02-4.26293E-04 6.93547E-01-1.09003E-13-2.62385E-13
 -1       511 2.13159E+01-2.56924E-01-8.60537E-04 6.13183E-01 2.60787E-15-1.75365E-13
 -1       512 2.16047E+01-4.68095E-01-1.36078E-03 4.19344E-01 2.26391E-14-1.31500E-13
 -1       513 2.19152E+01-6.93580E-01-1.79733E-03 8.32806E-02-2.12573E-14 3.39154E-14
 -1       514 2.22066E+01-8.59545E-01-1.89003E-03-3.99541E-01 1.33471E-13 5.01023E-14
 -1       515 2.24057E+01-8.48570E-01-1.13790E-03-9.77504E-01 1.07769E-13-5.18553E-14
 -1       516 2.24224E+01-5.37946E-01-2.44507E-04-1.50803E+00 5.10304E-14 3.49475E-14
 -1       517 2.22076E+01 1.05822E-01-5.81054E-05-1.75759E+00-1.69573E-13 2.01843E-13
 -1       518 2.18379E+01 9.06047E-01-6.92937E-04-1.49946E+00-2.38891E-14 4.28319E-13
 -1       519 2.15282E+01 1.48603E+00-6.97061E-04-7.02962E-01 3.65001E-14 3.22283E-13
 -1       520 2.14895E+01 1.49798E+00-6.92497E-04 3.37898E-01-1.37174E-13 4.20785E-14
 -1       521 2.17302E+01 9.28871E-01-3.49077E-04 1.15276E+00-7.01283E-14 2.01914E-13
 -1       522 2.20468E+01 1.13887E-01-6.75869E-05 1.42857E+00-1.31094E-13 2.04776E-13
 -1       523 2.22159E+01-5.56398E-01-5.70190E-04 1.17607E+00-1.60419E-13 2.03867E-13
 -1       524 2.21482E+01-8.81887E-01-1.14335E-03 6.27512E-01-2.89134E-13 9.50733E-14
 -1       525 2.18891E+01-8.83549E-01-1.91019E-03 2.89585E-02 1.31402E-13 2.09434E-13
 -1       526 2.15290E+01-6.75625E-01-1.68360E-03-4.57792E-01 9.40715E-14 4.15587E-14
 -1       527 2.11443E+01-3.72806E-01-9.44882E-04-7.61880E-01 2.01162E-13-3.64128E-14
 -1       528 2.07810E+01-5.02363E-02 1.21595E-04-8.66897E-01 1.24706E-13-5.13515E-15
 -1       529 1.98078E+01 1.28801E-01 1.00160E-03-1.84704E-02 2.30706E-13-1.47080E-13
 -1       530 1.97497E+01 5.95243E-02 3.66443E-04-1.16983E-01 1.44995E-13-1.82080E-13
 -1       531 1.97309E+01 1.80146E-02 8.51343E-05-1.65306E-01 1.25413E-13-2.31299E-13
 -1       532 1.97371E+01-6.32981E-03-4.88547E-05-1.82454E-01 1.52461E-13-2.27087E-13
 -1       533 1.97580E+01-1.95559E-02-1.15295E-04-1.80930E-01 1.44391E-13-1.85142E-13
 -1       534 1.97868E+01-2.53715E-02-1.42634E-04-1.69152E-01 1.42688E-13-2.12381E-13
 -1       535 1.98189E+01-2.61467E-02-1.44354E-04-1.52890E-01 1.26701E-13-2.65849E-13
 -1       536 1.98521E+01-2.34113E-02-1.28363E-04-1.36164E-01 1.53594E-13-2.90835E-13
 -1       537 1.98851E+01-1.81176E-02-9.95633E-05-1.21856E-01 5.56704E-14-2.28290E-13
 -1       538 1.99180E+01-1.07943E-02-6.06903E-05-1.12142E-01 6.00340E-15-1.83208E-13
 -1       539 1.99516E+01-1.64444E-03-1.27773E-05-1.08816E-01 1.15080E-14-1.29564E-13
 -1       540 1.99873E+01 9.39021E-03 4.45205E-05-1.13542E-01 6.94614E-14-1.93510E-13
 -1       541 2.00272E+01 2.25857E-02 1.12634E-04-1.28055E-01 1.23052E-13-1.53926E-13
 -1       542 2.00738E+01 3.84012E-02 1.93907E-04-1.54311E-01-2.63427E-15-2.05667E-13
 -1       543 2.01300E+01 5.74438E-02 2.91332E-04-1.94615E-01-1.43652E-14-3.05066E-13
 -1       544 2.01992E+01 8.04166E-02 4.08114E-04-2.51691E-01 7.26431E-14-2.70146E-13
 -1       545 2.02851E+01 1.08019E-01 5.46774E-04-3.28694E-01 8.22553E-14-3.95539E-13
 -1       546 2.03918E+01 1.40741E-01 7.07333E-04-4.29097E-01 1.50451E-13-3.36444E-13
 -1       547 2.05234E+01 1.78451E-01 8.83751E-04-5.56365E-01-2.94370E-14-4.06876E-13
 -1       548 2.06841E+01 2.19588E-01 1.05742E-03-7.13248E-01-2.72023E-14-6.23637E-13
 -1       549 2.08784E+01 2.59674E-01 1.18634E-03-9.00390E-01-9.03953E-14-5.84057E-13
 -1       550 2.11113E+01 2.88750E-01 1.18976E-03-1.11383E+00-2.91143E-14-4.05855E-13
 -1       551 2.13905E+01 2.87372E-01 9.32526E-04-1.34077E+00 2.94469E-14-3.46407E-13
 -1       552 2.17302E+01 2.21398E-01 2.28747E-04-1.55290E+00-1.00008E-13-1.73111E-13
 -1       553 2.21576E+01 3.80375E-02-1.08681E-03-1.69676E+00-5.46242E-14-1.81765E-13
 -1       554 2.27204E+01-3.27947E-01-3.00568E-03-1.68135E+00 7.49918E-14-1.89793E-13
 -1       555 2.34813E+01-9.17502E-01-5.94037E-03-1.37111E+00-8.57392E-14-2.68864E-13
 -1       556 2.44822E+01-1.65253E+00-9.32268E-03-6.01569E-01-2.33622E-13 2.56245E-14
 -1       557 2.56314E+01-2.15901E+00-1.56450E-02 7.33930E-01-1.09625E-13 5.67426E-13
 -1       558 2.65019E+01-1.76608E+00-1.32717E-02 2.36124E+00-1.93179E-14 6.52220E-13
 -1       559 2.65088E+01 3.38110E-01-9.65261E-02 3.36024E+00 2.79225E-13 8.92156E-13
 -1       560 2.59791E+01 2.96425E+00-1.30198E-01 2.22427E+00 2.80501E-13 7.12801E-13
 -1       561 2.58064E+01 3.68261E+00-1.24615E-01-5.23890E-01 7.37813E-14 3.50113E-13
 -1       562 2.62304E+01 1.74556E+00-8.88362E-02-2.60832E+00 1.37775E-13 3.76402E-13
 -1       563 2.64740E+01-8.59030E-01-4.39696E-02-2.59142E+00-1.43297E-13 1.37043E-15
 -1       564 2.58369E+01-2.11410E+00-2.03181E-02-1.16904E+00 5.45224E-15 5.36771E-14
 -1       565 2.46867E+01-2.00954E+00-3.90112E-03 3.88055E-01 1.93193E-13-9.91599E-14
 -1       566 2.35000E+01-1.33622E+00-5.28646E-03 1.47361E+00 1.84190E-13-4.88552E-13
 -1       567 2.25240E+01-6.21273E-01-3.96225E-03 2.01450E+00 2.34121E-13-1.13322E-13
 -1       568 2.17926E+01-8.72968E-02 1.69709E-04 2.15450E+00-8.17471E-14-9.44701E-14
 -1       569 2.12248E+01 2.89616E-01 1.44760E-03 2.01765E+00-2.29461E-13 3.99005E-13
 -1       570 2.07575E+01 5.69104E-01 2.49140E-03 1.68785E+00-3.50822E-13 5.28479E-13
 -1       571 1.91220E+01 2.00501E+00-1.91855E-03 1.38839E+00 6.40108E-14 2.18248E-13
 -1       572 1.88516E+01 2.25293E+00-2.32639E-03 6.91788E-01 3.42601E-13 2.93913E-13
 -1       573 2.00788E+01 1.14157E+00-5.60979E-04 1.96098E+00-2.22791E-13-3.75895E-13
 -1       574 1.95668E+01 1.60078E+00 1.41770E-03 1.82720E+00-3.01183E-13-2.62206E-14
 -1       575 1.88276E+01 2.27627E+00-2.29379E-03-1.13369E-01 3.43506E-13-3.28514E-13
 -1       576 1.90445E+01 2.06938E+00-2.06578E-03-8.45110E-01 1.40634E-13-9.02802E-14
 -1       577 1.94165E+01 1.69907E+00-1.60097E-03-1.35605E+00 7.97638E-14 1.12616E-13
 -1       578 1.98134E+01 1.27576E+00-8.69745E-04-1.58374E+00 2.00573E-13-1.67743E-13
 -1       579 2.01479E+01 8.75527E-01 8.67200E-05-1.56280E+00 3.51391E-13-2.34907E-13
 -1       580 2.03650E+01 5.54919E-01 1.17399E-03-1.36794E+00 3.51472E-13 2.35528E-13
 -1       581 2.04677E+01 3.28974E-01-4.41755E-04-1.07776E+00-1.14566E-13 9.63111E-14
 -1       582 4.82664E+00-2.03184E+00 1.67711E-01 1.91023E+00-3.07518E-13 7.83540E-13
 -1       583 1.72724E+01-5.77437E+00 7.44168E-02 6.95648E+00 9.13297E-14-6.76681E-14
 -1       584 1.99229E+01 2.46125E-01 2.45713E-03 1.59844E-01 3.06515E-13-1.24982E-13
 -1       585 5.15453E+00-1.76903E+00 1.67878E-01-2.16394E+00-9.94552E-14 6.64094E-13
 -1       586 1.09578E+01-3.84913E+00 1.45045E-01 6.34467E+00-1.84304E-13 1.51171E-13
 -1       587 2.03936E+01 1.76913E+00-5.29595E-03-1.54633E+00-5.63387E-13-2.46979E-13
 -1       588 1.07228E+01-3.68906E+00 1.54431E-01-6.53336E+00 1.02973E-13 3.17371E-13
 -1       589 2.58365E+01-4.95022E+00-7.66043E-03 3.55259E+00 1.90518E-13 3.06109E-13
 -1       590 2.85165E+01-4.53262E+00-8.27349E-02-1.15292E+00-5.33809E-14-3.73652E-13
 -1       591 3.14204E+01 3.78891E+00-1.48826E-01 2.57125E+00 8.30641E-13 2.77771E-13
 -1       592 1.96823E+01 3.19766E+00-5.18976E-03-3.12799E-01-7.57143E-14-7.49320E-13
 -1       593 3.00472E+01 6.54336E+00-1.79570E-01 2.67163E-01 5.25482E-13-2.65175E-13
 -1       594 2.15124E+01-5.88675E+00 6.35688E-02-5.28571E+00-1.25684E-13-1.26564E-13
 -1       595 3.06253E+01 5.54620E+00-1.76298E-01-1.59261E+00 2.14384E-13-7.91298E-13
 -1       596 3.11491E+01-5.36204E-01-8.07471E-02 1.91052E+00 1.54626E-13 9.20444E-14
 -1       597 4.30096E+00-1.61177E+00 1.85532E-01 1.73472E-02-1.78858E-13-8.87027E-13
 -1       598 1.44338E+01-4.88903E+00 1.20931E-01-6.59199E+00-1.23845E-13 9.48894E-14
 -1       599 3.03004E+01 4.90098E+00-1.58245E-01 1.61577E+00-2.99719E-13-2.16209E-13
 -1       600 5.87627E+00-2.04754E+00 1.73908E-01 3.87171E+00 1.58828E-13-4.10769E-13
 -1       601 1.23195E+01-4.37495E+00 1.07598E-01 7.02026E+00 5.19938E-13-4.24071E-13
 -1       602 1.92166E+01-5.57015E+00 6.03680E-02 6.60923E+00 4.91648E-13-4.70364E-13
 -1       603 2.92651E+01-1.92291E+00-8.35387E-02 2.16717E-01-2.91113E-14 3.36779E-13
 -1       604 3.06176E+01 3.00576E+00-1.32628E-01-1.64231E+00-3.61267E-13 4.06869E-13
 -1       605 3.10028E+01 6.79696E+00-1.61079E-01-1.19102E+00-6.43749E-13 3.34465E-13
 -1       606 3.06228E+01 7.57870E+00-1.70569E-01 2.17845E-01-4.63560E-13-1.61954E-14
 -1       607 3.01765E+01-1.60838E-01-1.15082E-01 6.36525E-01-3.41883E-13-6.56371E-13
 -1       608 2.85809E+01-3.59057E+00-3.50750E-02-1.80859E+00-1.36183E-13-8.35935E-13
 -1       609 2.28911E+01-5.94464E+00 1.78985E-02-5.61912E+00 2.10623E-13 2.11775E-14
 -1       610 1.63268E+01-5.41366E+00 9.68174E-02-7.25521E+00 2.57246E-13 5.58685E-14
 -1       611 3.17262E+01 1.40715E+00-1.31533E-01-1.84113E+00-1.13839E-13-5.19390E-13
 -1       612 2.05842E+01 1.30517E+00-1.00034E-03 1.54861E+00 6.23491E-13 9.16472E-14
 -1       613 2.50561E+01-5.97872E+00 1.22646E-02 4.15567E+00 1.00545E-13-3.48159E-13
 -1       614 1.99818E+01 2.66153E+00-6.28133E-03-1.25880E+00-3.91185E-13-5.61509E-13
 -1       615 9.53266E+00-1.57222E+00 1.58759E-01-4.55598E+00 1.41248E-13 2.27478E-13
 -1       616 9.23259E+00-1.63374E+00 1.66273E-01 4.31682E+00-2.36439E-13 4.24022E-13
 -1       617 1.05627E+01-2.29531E+00 1.37633E-01 5.66741E+00 4.44658E-13-4.46719E-13
 -1       618 2.56016E+01-5.30269E+00 4.85517E-03-2.38689E+00-2.72535E-13-2.94202E-13
 -1       619 7.16575E+00-1.05907E+00 1.78456E-01-2.67583E+00-2.98626E-13-9.57519E-13
 -1       620 2.05545E+01 1.53782E-01 5.21080E-04-8.29770E-01 3.23071E-14 2.12610E-13
 -1       621 1.99619E+01 2.44856E+00-1.58375E-03 3.94442E-01 1.75026E-13-6.12983E-13
 -1       622 1.99301E+01 2.52320E+00-1.58864E-03 1.35178E-01 6.84702E-14-6.67095E-13
 -1       623 2.01210E+01 2.04547E+00-1.58152E-03 8.51199E-01 4.01038E-13-5.20225E-13
 -1       624 2.02396E+01 1.67495E+00-2.21915E-03 9.92748E-01 4.69453E-13-3.82549E-13
 -1       625 2.03186E+01 1.03654E+00 2.86057E-03 8.32543E-01 4.77304E-13-2.52207E-13
 -1       626 1.57096E+01-3.80903E+00 1.04643E-01-6.42012E+00 1.40079E-13-3.90209E-14
 -1       627 2.58967E+01-5.05980E+00-3.01992E-03-2.89169E+00 5.49769E-14-5.51947E-13
 -1       628 2.02423E+01 6.75821E-01 1.95327E-03-3.95583E-01-3.04038E-13-2.63823E-13
 -1       629 2.01678E+01 3.92640E-01 3.75440E-04-1.41868E-01-2.39304E-13-2.17056E-13
 -1       630 2.01016E+01 2.12522E-01 5.98387E-05 2.08253E-02-1.93930E-13-2.41830E-13
 -1       631 2.00518E+01 9.87134E-02 1.32013E-05 1.16158E-01-1.85122E-13-2.67880E-13
 -1       632 2.00171E+01 2.79267E-02-1.47414E-05 1.65543E-01-1.72245E-13-2.46742E-13
 -1       633 1.99952E+01-1.40093E-02-2.51831E-05 1.84864E-01-1.14584E-13-2.46614E-13
 -1       634 1.99829E+01-3.62399E-02-2.96209E-05 1.85687E-01-1.24932E-13-2.93597E-13
 -1       635 1.99778E+01-4.48483E-02-2.99737E-05 1.76382E-01-1.08782E-13-2.29249E-13
 -1       636 1.99776E+01-4.39201E-02-2.71586E-05 1.62971E-01-8.56074E-14-2.20349E-13
 -1       637 1.99811E+01-3.61666E-02-2.19609E-05 1.49813E-01-6.90380E-14-1.78300E-13
 -1       638 1.99872E+01-2.33198E-02-1.49260E-05 1.40119E-01-1.00936E-14-1.41797E-13
 -1       639 1.99954E+01-6.41164E-03-6.39186E-06 1.36349E-01-7.59292E-15-1.10542E-14
 -1       640 2.00056E+01 1.40024E-02 3.48383E-06 1.40507E-01-1.04872E-13 1.85949E-14
 -1       641 2.00179E+01 3.76400E-02 1.46565E-05 1.54324E-01-1.31760E-13 2.15007E-15
 -1       642 2.00325E+01 6.42817E-02 2.70834E-05 1.79368E-01-1.67403E-13-1.05201E-13
 -1       643 2.00501E+01 9.35270E-02 4.06185E-05 2.17047E-01-5.17933E-14-1.48985E-13
 -1       644 2.00714E+01 1.24490E-01 5.48356E-05 2.68520E-01 4.08830E-14-8.28980E-15
 -1       645 2.00979E+01 1.55404E-01 6.88050E-05 3.34472E-01 3.88082E-14 7.95100E-15
 -1       646 2.01315E+01 1.83123E-01 8.07931E-05 4.14745E-01 5.62403E-14-9.27833E-14
 -1       647 2.01752E+01 2.02490E-01 8.78719E-05 5.07787E-01-7.49573E-15-5.86777E-14
 -1       648 2.02336E+01 2.05638E-01 8.54371E-05 6.09884E-01 2.32043E-14-3.21436E-14
 -1       649 2.03138E+01 1.81338E-01 6.66126E-05 7.14122E-01-3.74531E-14-3.92674E-15
 -1       650 2.04266E+01 1.14764E-01 2.14449E-05 8.09061E-01-1.96111E-14-5.62404E-14
 -1       651 2.05872E+01-1.16184E-02-6.34329E-05 8.77066E-01-1.87370E-14-1.35204E-13
 -1       652 2.08155E+01-2.14659E-01-2.11255E-04 8.92391E-01-4.76282E-14-4.68444E-14
 -1       653 2.11336E+01-5.02413E-01-4.29071E-04 8.19498E-01-5.82064E-14-1.03013E-13
 -1       654 2.15578E+01-8.58507E-01-7.05610E-04 6.13412E-01 1.22239E-13-1.39531E-13
 -1       655 2.20810E+01-1.21746E+00-1.01988E-03 2.27064E-01 1.59042E-13 1.41494E-14
 -1       656 2.26448E+01-1.43711E+00-1.20796E-03-3.63688E-01 1.22726E-13 3.12328E-13
 -1       657 2.31180E+01-1.29653E+00-1.70517E-04-1.10261E+00 4.20250E-14 3.36860E-13
 -1       658 2.33179E+01-5.85587E-01-2.14556E-03-1.78174E+00 4.58843E-14 3.05518E-13
 -1       659 2.31407E+01 6.77210E-01-9.59654E-03-2.00928E+00-1.18009E-13 3.13532E-13
 -1       660 2.27491E+01 2.01786E+00-1.24686E-02-1.45081E+00-1.21561E-13 9.60933E-14
 -1       661 2.25282E+01 2.62885E+00-1.21183E-02-2.09921E-01-2.52805E-13-9.56709E-14
 -1       662 2.27083E+01 2.06704E+00-1.16383E-02 1.05341E+00-7.56461E-14-2.28970E-13
 -1       663 2.30876E+01 7.23814E-01-8.12244E-03 1.64817E+00-1.48195E-13-2.21433E-13
 -1       664 2.32751E+01-5.97187E-01-4.19920E-03 1.43834E+00-1.43607E-13-8.25895E-14
 -1       665 2.30806E+01-1.34479E+00 3.79223E-05 7.40497E-01-2.88004E-13-7.08919E-14
 -1       666 2.25961E+01-1.49322E+00-1.42294E-03-3.11949E-02-1.03260E-13 1.13819E-13
 -1       667 2.20040E+01-1.23213E+00-1.06853E-03-6.47441E-01-2.32271E-14-1.40734E-13
 -1       668 2.14384E+01-7.79269E-01-6.38700E-04-1.02875E+00 6.08575E-14-7.68414E-14
 -1       669 2.09635E+01-2.82649E-01-1.79292E-04-1.18112E+00 2.22043E-13-7.36418E-14
 -1       670 1.99726E+01 8.81213E-02 5.56777E-05-1.18276E-01 1.73580E-13-3.12343E-13
 -1       671 2.01478E+01 7.06272E-01-3.87048E-05 2.40748E+00-4.96555E-13-3.86673E-13
 -1       672 2.00262E+01 1.89230E-01 1.78377E-04-1.96229E-02 2.15623E-13-2.69151E-13
 -1       673 1.99259E+01-1.13163E-02-2.73640E-05-1.87951E-01 1.05314E-13-2.27972E-13
 -1       674 1.99222E+01-3.11478E-02-4.19857E-05-1.88123E-01 1.75998E-13-2.58103E-13
 -1       675 1.99261E+01-3.92268E-02-4.68030E-05-1.77817E-01 1.59147E-13-2.14803E-13
 -1       676 1.99349E+01-3.91260E-02-4.46923E-05-1.63147E-01 1.38498E-13-2.58517E-13
 -1       677 1.99469E+01-3.31734E-02-3.75201E-05-1.48504E-01 7.99399E-14-1.46057E-13
 -1       678 1.99612E+01-2.27961E-02-2.64841E-05-1.37132E-01-3.57080E-14-1.09986E-13
 -1       679 1.99773E+01-8.74475E-03-1.21739E-05-1.31563E-01 7.94394E-16-1.36544E-13
 -1       680 1.99953E+01 8.75607E-03 5.38976E-06-1.33953E-01 6.05399E-14-1.31831E-13
 -1       681 2.00158E+01 2.99053E-02 2.65201E-05-1.46339E-01 8.73090E-14-5.88834E-14
 -1       682 2.00392E+01 5.52460E-02 5.19360E-05-1.70833E-01 6.34794E-14 2.43571E-14
 -1       683 2.00664E+01 8.55922E-02 8.26377E-05-2.09776E-01 3.15803E-14-4.84529E-14
 -1       684 2.00981E+01 1.21944E-01 1.19867E-04-2.65818E-01 6.75660E-14-1.51671E-13
 -1       685 2.01349E+01 1.65357E-01 1.64955E-04-3.41954E-01 1.48515E-13-1.63807E-13
 -1       686 2.01771E+01 2.16699E-01 2.19014E-04-4.41461E-01 1.16977E-13-1.42307E-13
 -1       687 2.02246E+01 2.76199E-01 2.82267E-04-5.67713E-01 1.25457E-13-7.73842E-14
 -1       688 2.02767E+01 3.42589E-01 3.52712E-04-7.23801E-01 4.38625E-14-8.40701E-14
 -1       689 2.03327E+01 4.11545E-01 4.23484E-04-9.11867E-01-4.37238E-14-1.18651E-13
 -1       690 2.03929E+01 4.73005E-01 4.78060E-04-1.13202E+00-1.09753E-13-1.80373E-13
 -1       691 2.04617E+01 5.06819E-01 4.82969E-04-1.38065E+00 1.39198E-14-2.79842E-13
 -1       692 2.05535E+01 4.76414E-01 3.83157E-04-1.64788E+00-1.37237E-13-1.39031E-13
 -1       693 2.07037E+01 3.21263E-01 1.43029E-04-1.91332E+00-9.67653E-14-1.22739E-13
 -1       694 2.09868E+01-4.80318E-02-5.58987E-05-2.13833E+00-1.88840E-14 4.07709E-14
 -1       695 2.15416E+01-7.37745E-01 9.66219E-04-2.24480E+00-6.22056E-15 1.40948E-13
 -1       696 2.25477E+01-1.78845E+00 5.81549E-04-2.08003E+00-2.26096E-13 1.38990E-13
 -1       697 2.42254E+01-3.03749E+00 2.13786E-03-1.38019E+00-4.60179E-13-5.92307E-14
 -1       698 2.64407E+01-3.76922E+00 1.18984E-02 1.26457E-01-2.23361E-13 1.62098E-13
 -1       699 2.88979E+01-1.35787E-02-1.09388E-01-2.66675E+00-5.08690E-14-1.37269E-13
 -1       700 2.72951E+01-2.85211E+00-2.31677E-02-1.02824E+00 4.56232E-16 7.13145E-15
 -1       701 2.53568E+01-3.43532E+00-3.77391E-03 9.08656E-01 3.53748E-13-2.63269E-13
 -1       702 2.33819E+01-2.41805E+00-1.45553E-02 2.05839E+00 4.62721E-13-4.83712E-13
 -1       703 2.20314E+01-1.25043E+00 3.82773E-04 2.55483E+00 2.54531E-14-3.82631E-13
 -1       704 2.12304E+01-3.60879E-01-4.65023E-04 2.63641E+00 6.28942E-14-2.19232E-13
 -1       705 2.05686E+01 2.00032E-01 3.75268E-04 2.61670E+00-1.84694E-13-3.63503E-13
 -1       706 2.11673E+01-5.24955E+00 2.25964E-02 5.34988E+00 2.88627E-13-7.64406E-14
 -1       707 1.81755E+01 1.71867E+00-9.28338E-04-7.18684E-01 3.46190E-13-4.96275E-13
 -1       708 2.06503E+01-5.29169E+00 5.58776E-02-5.86474E+00 3.39295E-13 1.50543E-13
 -1       709 1.82626E+01 1.74874E+00-9.81611E-04 1.28666E+00 2.24728E-13 4.41620E-13
 -1       710 1.87254E+01 1.32560E+00-8.27630E-04-1.49902E+00 7.72267E-14 5.56514E-14
 -1       711 1.79911E+01 1.87798E+00-1.00147E-03 2.94546E-01 1.67787E-13 1.12308E-13
 -1       712 1.94149E+01 8.50209E-01-9.16406E-04-1.89919E+00 1.12532E-14-3.54852E-14
 -1       713 2.00498E+01 4.21409E-01-4.91598E-04-1.93898E+00 2.11357E-13-1.68646E-13
 -1       714 2.04914E+01 1.28828E-01 4.23279E-04-1.71430E+00 3.92036E-13 3.21007E-13
 -1       715 1.62881E+01-3.65688E+00 1.08513E-01 6.02814E+00 8.96158E-15 2.31572E-13
 -1       716 8.30527E+00-4.59525E-02 1.80925E-01 2.23966E-01-4.39269E-14 7.23442E-13
 -1       717 2.79507E+01 1.56027E+00-1.10907E-01 2.06539E+00-2.21462E-13-4.05911E-13
 -1       718 2.02960E+01 1.42440E+00 5.75338E-04-9.71886E-01-3.93250E-13-3.34759E-13
 -1       719 2.75935E+01 4.25912E+00-1.38093E-01-2.16550E+00-5.49817E-13 3.29257E-13
 -1       720 1.22729E+01-2.25503E+00 1.35082E-01-5.19620E+00-3.31596E-13-1.08025E-13
 -1       721 2.01046E+01 3.52828E-01 6.34550E-04 1.50418E-01 2.94836E-13-2.45880E-13
 -1       722 2.99391E+01 5.62597E+00-1.27181E-01 1.55904E+00 5.53009E-13-1.47816E-13
 -1       723 1.99410E+01 2.56664E-02 1.22438E-06-1.68708E-01 1.26966E-13-3.13225E-13
 -1       724 2.02053E+01 6.13509E-01 9.80724E-04 4.21489E-01 3.85226E-13-2.66273E-13
 -1       725 2.80640E+01 4.47106E-02-8.90361E-02-1.88054E+00-1.93477E-13 4.16583E-13
 -1       726 2.85626E+01 2.36953E+00-1.47438E-01-2.75776E+00 8.08242E-14-3.61385E-13
 -1       727 2.00253E+01 2.29415E+00-1.65373E-03 6.38480E-01 3.09294E-13-5.55866E-13
 -1       728 1.88651E+01-4.33887E+00 8.97495E-02-5.32907E+00-1.49276E-13 2.80713E-14
 -1       729 2.00226E+01 2.29682E+00-1.84072E-03-6.25234E-01-2.05444E-13-6.15212E-13
 -1       730 7.64863E+00-2.71263E-01 1.64884E-01 1.73590E+00 8.85186E-14-4.14932E-13
 -1       731 2.06988E+01 3.96872E-02 1.33696E-03-1.16627E+00 2.79040E-13-1.49561E-13
 -1       732 2.29478E+01-5.24305E+00 2.22668E-02 4.44321E+00 5.18176E-13 2.93146E-13
 -1       733 2.69263E+01-3.79062E+00-3.27742E-02 8.44603E-01 3.23516E-13 1.60254E-13
 -1       734 2.74497E+01 6.35185E+00-1.66538E-01-7.23118E-01-4.03601E-13 5.84342E-14
 -1       735 2.68047E+01 5.39580E+00-1.44142E-01 1.22982E+00-1.72390E-13-6.00926E-14
 -1       736 2.78407E+01-2.44631E+00-5.69078E-02 4.14794E-01-1.85124E-13-3.76591E-13
 -1       737 1.72205E+01-4.13403E+00 9.38685E-02 6.25868E+00 6.26551E-13-3.98577E-13
 -1       738 2.74607E+01-4.36187E+00-3.49851E-02 6.13400E-01 7.73825E-14-3.60607E-13
 -1       739 2.01134E+01 2.05322E+00-3.57499E-03-8.39963E-01-2.94558E-13-5.34308E-13
 -1       740 1.99286E+01 2.52415E+00-1.66908E-03-1.28027E-01-3.54187E-14-6.63485E-13
 -1       741 1.36531E+01-1.99965E+00 9.55631E-02-5.28978E+00 6.56662E-14 2.15206E-13
 -1       742 2.28773E+01-4.62178E+00 3.51328E-02-3.50236E+00-3.03405E-13-8.80014E-14
 -1       743 2.90174E+01 2.31757E+00-2.06493E-01 2.92228E+00 5.55382E-13 6.42375E-13
 -1       744 1.38369E+01-1.81833E+00 1.05048E-01 5.05858E+00-4.98438E-14 4.32713E-13
 -1       745 1.04294E+01-5.82194E-01 1.07940E-01 3.66741E+00 3.03712E-13-2.44273E-13
 -1       746 2.07716E+01-1.35051E-01 1.14199E-03-1.48384E+00 6.32665E-14-1.49943E-13
 -1       747 8.83554E+00 2.18017E-01 1.34694E-01-6.00595E-01-1.43770E-13-6.32140E-13
 -1       748 1.88911E+01 1.40185E+00-2.43356E-03 2.01474E+00-2.48439E-14 3.57099E-13
 -1       749 1.99605E+01 2.45086E+00-1.33769E-03-3.83291E-01-1.32943E-13-6.46064E-13
 -1       750 2.02722E+01 1.30077E+00 8.28574E-04 6.31803E-01 3.61338E-13-3.82084E-13
 -1       751 2.33009E+01-4.68883E+00 1.66397E-02-3.72931E+00-2.76125E-14-1.53490E-13
 -1       752 2.02637E+01 4.34387E-01-3.74526E-05-9.60699E-02-2.18562E-13-3.19219E-13
 -1       753 2.02230E+01 2.34567E-01-1.11292E-04 3.47380E-02-1.87295E-13-3.09474E-13
 -1       754 2.01819E+01 1.05301E-01-2.63725E-05 1.12492E-01-1.60260E-13-2.83865E-13
 -1       755 2.01447E+01 2.39204E-02-1.35040E-05 1.53069E-01-7.26828E-14-2.29065E-13
 -1       756 2.01132E+01-2.38627E-02-9.56727E-06 1.68853E-01-1.12740E-13-1.44928E-13
 -1       757 2.00876E+01-4.80190E-02-8.48277E-06 1.69377E-01-1.28296E-13-1.32781E-13
 -1       758 2.00673E+01-5.54830E-02-7.68791E-06 1.61817E-01-7.84527E-14-1.32266E-13
 -1       759 2.00516E+01-5.10233E-02-6.62616E-06 1.51488E-01-4.33767E-14-7.14680E-14
 -1       760 2.00396E+01-3.78242E-02-5.15550E-06 1.42330E-01-2.16922E-14-8.69062E-14
 -1       761 2.00303E+01-1.79013E-02-3.30254E-06 1.37332E-01-2.62358E-14-1.53667E-13
 -1       762 2.00231E+01 7.56528E-03-1.13291E-06 1.38858E-01-1.08928E-13-2.14573E-13
 -1       763 2.00171E+01 3.79429E-02 1.34645E-06 1.48901E-01-1.45486E-13-1.36444E-13
 -1       764 2.00115E+01 7.28699E-02 4.12326E-06 1.69244E-01-1.14370E-13-6.58371E-14
 -1       765 2.00058E+01 1.11956E-01 7.25352E-06 2.01552E-01-8.86763E-14 1.37249E-14
 -1       766 1.99996E+01 1.54431E-01 1.07796E-05 2.47380E-01 5.76959E-14 3.40915E-14
 -1       767 1.99928E+01 1.98701E-01 1.46991E-05 3.08094E-01 4.04040E-14 4.02303E-14
 -1       768 1.99862E+01 2.41799E-01 1.89280E-05 3.84695E-01 6.61933E-14-2.35134E-14
 -1       769 1.99814E+01 2.78680E-01 2.32453E-05 4.77537E-01 1.07816E-13 4.23581E-14
 -1       770 1.99824E+01 3.01387E-01 2.71984E-05 5.85909E-01 2.00551E-14 1.31057E-13
 -1       771 1.99960E+01 2.98140E-01 2.98781E-05 7.07435E-01-8.44755E-14 2.96634E-14
 -1       772 2.00337E+01 2.52531E-01 2.92330E-05 8.37196E-01-1.10003E-13-1.11635E-13
 -1       773 2.01140E+01 1.43277E-01 2.02082E-05 9.66351E-01 6.91527E-14-1.81505E-13
 -1       774 2.02641E+01-5.45177E-02-6.35226E-06 1.07982E+00-2.46023E-14-1.08461E-13
 -1       775 2.05217E+01-3.64713E-01-9.52423E-05 1.15238E+00-8.16118E-14-1.07716E-13
 -1       776 2.09324E+01-7.98582E-01-2.18956E-04 1.14252E+00 3.33306E-14 1.15207E-13
 -1       777 2.15390E+01-1.33079E+00-3.84928E-04 9.85383E-01 1.67852E-13 1.08768E-13
 -1       778 2.23531E+01-1.85749E+00-8.74600E-04 5.92866E-01 3.48898E-13 6.13379E-14
 -1       779 2.32992E+01-2.13650E+00-1.93113E-03-1.19640E-01 7.95387E-14 4.16375E-14
 -1       780 2.41484E+01-1.79847E+00-2.66047E-03-1.10081E+00 1.75398E-14 1.98582E-13
 -1       781 2.45278E+01-3.92173E-01-1.94355E-02-2.02147E+00-9.76589E-14-5.86608E-15
 -1       782 2.43668E+01 1.83770E+00-3.28117E-02-2.20134E+00-2.87400E-13 6.43825E-14
 -1       783 2.39863E+01 3.67700E+00-5.00794E-02-1.10784E+00-3.74841E-13-6.62526E-14
 -1       784 2.39621E+01 3.75195E+00-4.62850E-02 6.91699E-01-2.36994E-13-3.45587E-14
 -1       785 2.43988E+01 1.92107E+00-4.85309E-02 1.84306E+00 1.54889E-13-1.36033E-13
 -1       786 2.46270E+01-3.25347E-01-1.03315E-02 1.72947E+00-1.76881E-14-4.65010E-14
 -1       787 2.42523E+01-1.85930E+00-6.69113E-03 7.47222E-01-3.74319E-13-2.65649E-13
 -1       788 2.34720E+01-2.23185E+00-1.55324E-03-2.52546E-01-6.40358E-14-2.95116E-13
 -1       789 2.25318E+01-1.92835E+00-1.55977E-03-1.01567E+00-5.65942E-14-2.48026E-13
 -1       790 2.17086E+01-1.30037E+00-4.54472E-04-1.42443E+00 9.80192E-14 1.36510E-14
 -1       791 2.11707E+01-6.93191E-01 3.96728E-04-1.51920E+00 1.49047E-13 1.07124E-13
 -1       792 2.01712E+01 2.24212E-01-5.29936E-06-3.11360E-02 1.98149E-13-2.76044E-13
 -1       793 2.00440E+01-4.31923E-02-1.28724E-05-1.78028E-01 1.49643E-13-1.71358E-13
 -1       794 2.00637E+01-1.97950E-02-1.24708E-05-1.77583E-01 1.14280E-13-2.42335E-13
 -1       795 2.00218E+01-4.84117E-02-1.04563E-05-1.57728E-01 5.00446E-14-1.67859E-13
 -1       796 2.00168E+01-3.75372E-02-8.33336E-06-1.46831E-01-5.52048E-14-1.42910E-13
 -1       797 2.00148E+01-2.03576E-02-5.40448E-06-1.40008E-01-4.40344E-14-8.69370E-14
 -1       798 2.00148E+01 2.28819E-03-1.41511E-06-1.39811E-01 2.81568E-14-4.26180E-14
 -1       799 2.00163E+01 3.02541E-02 3.46027E-06-1.48459E-01 2.79954E-14-1.75223E-14
 -1       800 2.00185E+01 6.39499E-02 9.43005E-06-1.68065E-01 3.98340E-15-2.24287E-14
 -1       801 2.00205E+01 1.04212E-01 1.66631E-05-2.00793E-01 9.91549E-14-8.66520E-14
 -1       802 2.00211E+01 1.52176E-01 2.54719E-05-2.48958E-01 8.48609E-14-1.82426E-13
 -1       803 2.00188E+01 2.09126E-01 3.63010E-05-3.15064E-01 7.51054E-14-6.51170E-14
 -1       804 2.00112E+01 2.76244E-01 4.97335E-05-4.01771E-01 7.36688E-14 5.53193E-14
 -1       805 1.99951E+01 3.54204E-01 6.65074E-05-5.11809E-01 7.10411E-14 5.46895E-14
 -1       806 1.99662E+01 4.42437E-01 8.74902E-05-6.47823E-01 3.66638E-14 2.68905E-13
 -1       807 1.99194E+01 5.37859E-01 1.13421E-04-8.12211E-01 5.40628E-14 2.34595E-13
 -1       808 1.98493E+01 6.32704E-01 1.43851E-04-1.00704E+00 5.66577E-15 1.40342E-13
 -1       809 1.97524E+01 7.10998E-01 1.74093E-04-1.23425E+00-4.04724E-14 7.29722E-14
 -1       810 1.96314E+01 7.43130E-01 1.90771E-04-1.49642E+00-3.79005E-14 6.85372E-14
 -1       811 1.95036E+01 6.78180E-01 1.83693E-04-1.79826E+00-1.89602E-13 7.56223E-14
 -1       812 1.94172E+01 4.34554E-01 4.62029E-04-2.14759E+00-8.12275E-14 2.93010E-14
 -1       813 1.94695E+01-1.03559E-01 1.62051E-03-2.55426E+00-2.00434E-13 2.59764E-14
 -1       814 1.98826E+01-1.12881E+00-2.07454E-03-3.03593E+00-1.81088E-13 8.47213E-14
 -1       815 2.10367E+01-2.65979E+00 3.94119E-02-3.43283E+00-2.20801E-13 1.21199E-13
 -1       816 2.09756E+01-1.97031E+00 2.20472E-02 3.51496E+00-5.30964E-14 2.56852E-14
 -1       817 2.00832E+01-6.50899E-01-5.28159E-04 3.22648E+00-5.03884E-14 2.62977E-14
 -1       818 2.50792E+01-5.03727E+00 5.25832E-02 2.88686E+00 3.18469E-13-6.95798E-13
 -1       819 1.87119E+01 4.66330E-01-1.24463E-04-2.23235E+00 2.61537E-13 7.44015E-15
 -1       820 1.13138E+01 5.66548E-02 9.83823E-02-2.44561E+00 3.59435E-14 4.00912E-13
 -1       821 2.05647E+01-4.25896E-01 8.77662E-04-2.08059E+00 1.79155E-13 5.94428E-14
 -1       822 1.76458E+01 1.07793E+00 7.05365E-04-1.55845E+00 4.12390E-13-4.29070E-13
 -1       823 1.99837E+01-3.67748E+00 3.09570E-02 4.93168E+00 1.94129E-13 2.92752E-14
 -1       824 1.10751E+01 2.38758E-03 9.50105E-02 2.47173E+00 7.01010E-14 4.87548E-13
 -1       825 1.97835E+01-9.02840E-02-8.54762E-04-2.35261E+00 1.86618E-13 2.64506E-13
 -1       826 1.14847E+01-5.41155E-01 9.14511E-02-3.41546E+00-4.43034E-13-5.18828E-13
 -1       827 2.01215E+01-4.06411E+00 4.29445E-02-5.13067E+00 1.35923E-13 1.24043E-13
 -1       828 2.02199E+01 4.14349E-01-1.11030E-04 1.12548E-01 2.66269E-13-2.47994E-13
 -1       829 2.60977E+01 1.66174E+00-6.82305E-02-2.43185E+00-2.65692E-13 2.53037E-13
 -1       830 2.58730E+01-3.87836E+00-2.88470E-02-9.34353E-01-1.75399E-13-3.68440E-13
 -1       831 2.00305E+01-5.12556E-02-1.18406E-05-1.69521E-01 1.17780E-13-1.68905E-13
 -1       832 1.45943E+01-2.02039E+00 8.83558E-02 5.21943E+00 4.13686E-13-2.68344E-13
 -1       833 2.61026E+01-7.96875E-01-3.10802E-02 1.69629E+00-1.41860E-13-6.26035E-13
 -1       834 2.51821E+01 4.37162E+00-8.85887E-02-1.47649E+00-3.70485E-13-9.78375E-14
 -1       835 2.62620E+01-2.05583E+00-3.34907E-02-1.17775E+00-3.82177E-14 3.14120E-13
 -1       836 2.06233E+01-4.10385E+00 2.63277E-02 4.55150E+00 6.22839E-13-4.53717E-14
 -1       837 2.02762E+01 9.43311E-01 2.93393E-05 5.54112E-01 3.87809E-13-2.85248E-13
 -1       838 2.44531E+01-4.28289E+00-7.64688E-03 2.05633E+00 3.95290E-13 1.39261E-13
 -1       839 2.02936E+01 1.11910E+00 4.09682E-04-4.27255E-01-2.33865E-13-4.23365E-13
 -1       840 2.03063E+01 7.23941E-01 1.67138E-04-2.52795E-01-1.97834E-13-3.43137E-13
 -1       841 2.54503E+01 2.75894E+00-7.27487E-02 1.94523E+00 6.03614E-14-6.20112E-14
 -1       842 1.65343E+01-2.15371E+00 5.08567E-02-4.67794E+00-2.97243E-13-1.63411E-14
 -1       843 2.01412E+01 1.88762E+00-3.62825E-04 1.99464E-01 9.79778E-14-5.54946E-13
 -1       844 2.01312E+01 1.92247E+00-3.60728E-04 3.82729E-03 7.49126E-15-5.85324E-13
 -1       845 2.02539E+01 6.29791E-01-4.82692E-04 2.97948E-01 3.32065E-13-2.91066E-13
 -1       846 1.79003E+01-2.77796E+00 3.28446E-02-5.09885E+00 1.69304E-13-3.05259E-14
 -1       847 1.80396E+01-2.63453E+00 2.66332E-02 4.62568E+00 4.34911E-13-9.04901E-14
 -1       848 2.00909E+01 2.54448E-02-9.33323E-06-1.60441E-01 6.84155E-14-2.41002E-13
 -1       849 2.02772E+01 1.32602E+00 1.60887E-04-3.43847E-01-1.62413E-13-5.24150E-13
 -1       850 1.19771E+01 6.97136E-01 6.21546E-02-2.03170E-01-3.13975E-14 7.84371E-13
 -1       851 1.94675E+01 1.66604E-01-4.60233E-04 2.92090E+00 1.16269E-14-6.02491E-14
 -1       852 1.75895E+01-2.22870E+00 6.67065E-02 4.82552E+00 5.99971E-14 5.59784E-13
 -1       853 1.87658E+01 8.80087E-01-1.56840E-03 2.51205E+00-8.72219E-14 3.34670E-13
 -1       854 1.70711E+01 1.52767E+00-1.06493E-03 9.35341E-01 1.74403E-13 3.46026E-13
 -1       855 1.69976E+01 1.49376E+00-7.29163E-04-3.98053E-01 2.74820E-13-1.84345E-13
 -1       856 1.77551E+01 1.28789E+00 1.73826E-03 1.89096E+00-4.00463E-14 6.96754E-13
 -1       857 2.02575E+01 1.46545E+00-1.86148E-04-2.21798E-01-9.07997E-14-5.19960E-13
 -1       858 2.01268E+01 1.02055E-01-6.74743E-06-1.16218E-01 1.38926E-13-2.63644E-13
 -1       859 1.00253E+01 3.35574E-01 1.00969E-01 1.68526E+00 1.13332E-13-2.01308E-13
 -1       860 2.02205E+01 1.58158E+00-2.37801E-04 5.35084E-01 2.97230E-13-4.73525E-13
 -1       861 2.01732E+01 1.77449E+00-3.46743E-04 3.82308E-01 2.00914E-13-4.74538E-13
 -1       862 2.51483E+01 5.04370E+00-9.81717E-02-7.76474E-02-2.78808E-13-8.92090E-14
 -1       863 2.09168E+01-6.08472E-01-1.13872E-03-1.82771E+00 3.94482E-15-7.24145E-14
 -1       864 2.17122E+01-3.57103E+00 2.32099E-02-3.78189E+00 3.14237E-13-9.64116E-15
 -1       865 1.91977E+01-2.56722E+00 8.25039E-02-4.04909E+00-2.54345E-13-1.03905E-13
 -1       866 2.03067E+01 2.28800E-01-6.60375E-05 4.67491E-02-1.27248E-13-2.50931E-13
 -1       867 2.02707E+01 9.52867E-02-1.31906E-05 1.03310E-01-8.27038E-14-1.81545E-13
 -1       868 2.02315E+01 1.15180E-02-5.71957E-06 1.32368E-01-8.76107E-14-2.54250E-13
 -1       869 2.01933E+01-3.63686E-02-3.60732E-06 1.43072E-01-1.03337E-13-2.38608E-13
 -1       870 2.01581E+01-5.84867E-02-2.71279E-06 1.42699E-01-8.55655E-14-1.75092E-13
 -1       871 2.01266E+01-6.20803E-02-2.45796E-06 1.36871E-01-4.93371E-14-1.68528E-13
 -1       872 2.00988E+01-5.21886E-02-2.25452E-06 1.29835E-01-1.16135E-14-2.14576E-13
 -1       873 2.00741E+01-3.21554E-02-1.92669E-06 1.24814E-01-5.49121E-14-1.86789E-13
 -1       874 2.00515E+01-4.05488E-03-1.62175E-06 1.24332E-01-7.53969E-14-1.39551E-13
 -1       875 2.00296E+01 3.09323E-02-1.29280E-06 1.30471E-01-1.12226E-13-1.25555E-13
 -1       876 2.00072E+01 7.21836E-02-1.11361E-06 1.45072E-01-6.34702E-14-1.35857E-13
 -1       877 1.99826E+01 1.19293E-01-1.01308E-06 1.69879E-01-6.52363E-14-9.53177E-14
 -1       878 1.99544E+01 1.71688E-01-9.25806E-07 2.06634E-01 6.29859E-14-2.63894E-14
 -1       879 1.99212E+01 2.28183E-01-7.92249E-07 2.57109E-01 7.73121E-14-4.69888E-14
 -1       880 1.98822E+01 2.86420E-01-5.37487E-07 3.23106E-01 5.48077E-14 1.61304E-14
 -1       881 1.98374E+01 3.42179E-01-4.33230E-08 4.06401E-01 1.21727E-13 1.08662E-13
 -1       882 1.97885E+01 3.88530E-01 8.96785E-07 5.08659E-01 1.25012E-13 1.08901E-13
 -1       883 1.97398E+01 4.14837E-01 2.61389E-06 6.31289E-01-8.90828E-14 1.59548E-14
 -1       884 1.97000E+01 4.05659E-01 5.41327E-06 7.75190E-01-1.57412E-13 9.32343E-15
 -1       885 1.96842E+01 3.39728E-01 8.76157E-06 9.40214E-01-7.20582E-14 8.95549E-14
 -1       886 1.97176E+01 1.89356E-01 1.05045E-05 1.12389E+00-6.91830E-14-2.47745E-13
 -1       887 1.98388E+01-7.87818E-02 1.78261E-05 1.31833E+00 1.49214E-14-2.94144E-13
 -1       888 2.01054E+01-4.99310E-01-5.71797E-05 1.50362E+00 1.97581E-13-9.90113E-14
 -1       889 2.05958E+01-1.09519E+00 1.65966E-04 1.63462E+00 7.42398E-14-5.85486E-14
 -1       890 2.14027E+01-1.84373E+00 1.48822E-03 1.61689E+00 3.42268E-14-2.65747E-13
 -1       891 2.25895E+01-2.60549E+00 1.31581E-04 1.28664E+00 2.05397E-13-4.60973E-13
 -1       892 2.41139E+01-3.00889E+00 5.88827E-03 4.52808E-01 2.57786E-13-2.47095E-13
 -1       893 2.44485E+01-3.20020E+00-1.76298E-03-7.61237E-01-1.21713E-13-3.49707E-13
 -1       894 2.29560E+01-2.75380E+00-2.44256E-04-1.67454E+00 3.75397E-14-2.30019E-13
 -1       895 2.17891E+01-1.88467E+00 1.11090E-03-2.04564E+00 3.52853E-13 4.29673E-14
 -1       896 2.01602E+01-3.13737E-02-3.55680E-06-1.56119E-01 7.41132E-14-1.78607E-13
 -1       897 2.00619E+01-3.47364E-02 7.61890E-07-1.34106E-01-2.41702E-14-9.24026E-14
 -1       898 2.00808E+01-5.21228E-02 3.80203E-06-1.40774E-01 1.44282E-14 4.55003E-14
 -1       899 2.00299E+01 2.32186E-02 5.67373E-07-1.36743E-01-3.48475E-15-1.20446E-13
 -1       900 2.00139E+01 6.30152E-02 1.08375E-06-1.50311E-01-5.20712E-16-5.20505E-14
 -1       901 1.99956E+01 1.10669E-01 1.90459E-06-1.74585E-01 8.89298E-14-5.02296E-14
 -1       902 1.99724E+01 1.67252E-01 3.02388E-06-2.11420E-01 1.18902E-13-1.32149E-13
 -1       903 1.99414E+01 2.34081E-01 4.54220E-06-2.62674E-01 7.22481E-14-2.02472E-13
 -1       904 1.98986E+01 3.12481E-01 6.65759E-06-3.30192E-01 2.65281E-14-1.63921E-13
 -1       905 1.98389E+01 4.03424E-01 9.69878E-06-4.15727E-01 4.93809E-14-1.32186E-13
 -1       906 1.97558E+01 5.06976E-01 1.41622E-05-5.20870E-01-6.35193E-14 2.48773E-14
 -1       907 1.96411E+01 6.21388E-01 2.06104E-05-6.47051E-01-3.52409E-14-1.37303E-14
 -1       908 1.94852E+01 7.41655E-01 2.89284E-05-7.95814E-01 1.17911E-13-3.04006E-14
 -1       909 1.92773E+01 8.57246E-01 3.53833E-05-9.69698E-01 1.12885E-14-1.84165E-14
 -1       910 1.90066E+01 9.48648E-01 2.39647E-05-1.17431E+00-9.19619E-14 5.63882E-14
 -1       911 1.86662E+01 9.82257E-01-5.18488E-05-1.42240E+00-1.44208E-13 7.26986E-14
 -1       912 1.82584E+01 9.03134E-01-2.15996E-04-1.74068E+00-6.19885E-14-6.30931E-14
 -1       913 1.78044E+01 6.21869E-01-1.39172E-03-2.18472E+00-2.46767E-14-7.51050E-14
 -1       914 1.74444E+01-6.42636E-03 1.23930E-02-2.84664E+00-1.73813E-13-3.48341E-13
 -1       915 2.03354E+01 9.09841E-01-4.91447E-05-2.28833E-01-1.57606E-13-4.72701E-13
 -1       916 1.80554E+01-6.49163E-01 3.69659E-02 3.81048E+00 6.97025E-14 1.53842E-13
 -1       917 1.49048E+01-3.96621E-01 1.92808E-02-3.49935E+00-4.37689E-13-2.15829E-13
 -1       918 2.21724E+01-3.49400E+00 1.40099E-02 2.83946E+00 3.89932E-13-5.72535E-14
 -1       919 1.15319E+01 5.42765E-01 5.81504E-02-1.48676E+00-8.97716E-14-5.20958E-13
 -1       920 1.42984E+01-3.98436E-01 3.76434E-02 3.65027E+00 1.64221E-13 5.56354E-13
 -1       921 2.03023E+01 4.29801E-01-6.49045E-05 6.46792E-02 1.96585E-13-2.72066E-13
 -1       922 1.49591E+01-6.09716E-01 4.37269E-02-3.76853E+00 1.00760E-13-2.85128E-13
 -1       923 2.01963E+01 1.70835E+00 2.37562E-04-1.28718E-01-3.18132E-14-5.46476E-13
 -1       924 1.75339E+01 1.74312E-01 6.84412E-03-2.61008E+00 5.51039E-13-4.55163E-13
 -1       925 2.03320E+01 4.33163E-01-5.91326E-05-4.83671E-02-1.90997E-13-3.24114E-13
 -1       926 2.00454E+01-9.35580E-03 5.21621E-07-1.32005E-01-4.50903E-14-1.85270E-13
 -1       927 2.35361E+01-3.69509E+00 4.99352E-03-2.32394E+00-3.11140E-14-2.83181E-13
 -1       928 1.36884E+01-2.97542E-01 6.29525E-02 3.54000E+00 9.52780E-14-1.34179E-13
 -1       929 2.02785E+01 1.40333E+00-6.19214E-05 6.95536E-02 6.94570E-14-5.05395E-13
 -1       930 2.03078E+01 6.67185E-01 5.68654E-04 2.08496E-01 2.45386E-13-3.13961E-13
 -1       931 2.02872E+01 1.33660E+00-1.93237E-04 1.97741E-01 1.37752E-13-4.61245E-13
 -1       932 1.60756E+01 9.38292E-01 4.79899E-03-1.49334E+00 4.90498E-13-3.14415E-13
 -1       933 2.01952E+01 1.65180E-02-5.00339E-06-1.43448E-01 8.43853E-14-1.92362E-13
 -1       934 2.01294E+01-5.44154E-02 5.10620E-06-1.55933E-01 7.13365E-14-7.37762E-14
 -1       935 2.12827E+01-1.21058E+00 1.03893E-03-1.96082E+00 2.39448E-13 1.39574E-13
 -1       936 2.01031E+01-5.97296E-02 6.06352E-06-1.49244E-01 8.94472E-14-2.09219E-14
 -1       937 2.03422E+01 1.04430E+00-4.82192E-05-1.66709E-01-1.00437E-13-4.51705E-13
 -1       938 1.36328E+01 7.17591E-01 3.30258E-02 1.78656E+00 1.34092E-13 7.22028E-13
 -1       939 1.77120E+01 2.87476E-01-5.50437E-03 3.06172E+00-4.18509E-14 2.34047E-13
 -1       940 1.63439E+01-1.02348E+00 1.94296E-02 3.76025E+00 2.00060E-13-1.81250E-13
 -1       941 1.17632E+01 8.72301E-01 4.03060E-02 2.29548E-01 4.13421E-14-1.69729E-13
 -1       942 1.63717E+01 1.04586E+00 1.69337E-02 1.85605E+00-2.34221E-13 6.21005E-13
 -1       943 1.92435E+01-6.22397E-01 3.92313E-03-2.90485E+00 5.11469E-13 5.48500E-14
 -1       944 2.03036E+01 1.00126E+00-5.16837E-04 3.65198E-01 2.85926E-13-3.90831E-13
 -1       945 2.02707E+01 2.30332E-01-3.67064E-05-4.44666E-02 1.69922E-13-1.93302E-13
 -1       946 1.41660E+01 4.35737E-01 3.23564E-02-2.16283E+00 1.63700E-13-1.61286E-14
 -1       947 2.03465E+01 6.43494E-01-1.33457E-04-1.34075E-01-1.73508E-13-3.63182E-13
 -1       948 1.55739E+01 1.30189E+00 6.65691E-03 2.03672E-01-3.12387E-14 5.21392E-13
 -1       949 2.06440E+01-1.08781E+00-8.56171E-04-2.48323E+00 3.48685E-13-5.30120E-14
 -1       950 2.03270E+01 7.20190E-02-2.47095E-06 8.62121E-02-1.29908E-13-2.46237E-13
 -1       951 2.02850E+01-6.81980E-03-4.48091E-06 1.03864E-01-6.50540E-14-2.47512E-13
 -1       952 2.02414E+01-4.95925E-02-3.72510E-06 1.09591E-01-2.90868E-14-1.67476E-13
 -1       953 2.01991E+01-6.61428E-02-2.94208E-06 1.08454E-01-4.56991E-14-1.15324E-13
 -1       954 2.01593E+01-6.35597E-02-1.31061E-06 1.04398E-01-3.69989E-14-1.35778E-13
 -1       955 2.01222E+01-4.68011E-02-1.07874E-06 1.00442E-01-3.51207E-14-1.62139E-13
 -1       956 2.00872E+01-1.90428E-02-1.56481E-06 9.89516E-02 2.76602E-14-1.49354E-13
 -1       957 2.00529E+01 1.77855E-02-2.37828E-06 1.01865E-01-7.61869E-14-9.56321E-14
 -1       958 2.00175E+01 6.26488E-02-3.87980E-06 1.10865E-01-1.09023E-13-3.94258E-14
 -1       959 1.99790E+01 1.15035E-01-5.98819E-06 1.27561E-01-3.43048E-14-1.07011E-13
 -1       960 1.99351E+01 1.74554E-01-8.67973E-06 1.53620E-01 5.18551E-14 1.01258E-14
 -1       961 1.98832E+01 2.40501E-01-1.20120E-05 1.90878E-01 9.31947E-14 3.53202E-14
 -1       962 1.98211E+01 3.11336E-01-1.60958E-05 2.41446E-01 6.51617E-14-4.18507E-14
 -1       963 1.97468E+01 3.84053E-01-2.10789E-05 3.07815E-01 1.22486E-13-2.88499E-14
 -1       964 1.96595E+01 4.53415E-01-2.71364E-05 3.93003E-01 4.17839E-14-1.45706E-13
 -1       965 1.95600E+01 5.11030E-01-3.44871E-05 5.00737E-01-2.24233E-14-2.28748E-13
 -1       966 1.94519E+01 5.44267E-01-4.36383E-05 6.35708E-01-7.33959E-14-1.37473E-13
 -1       967 1.93436E+01 5.35028E-01-5.64065E-05 8.03843E-01-2.61900E-14-9.46475E-14
 -1       968 1.92506E+01 4.58402E-01-7.83134E-05 1.01243E+00-1.86412E-13-3.07617E-15
 -1       969 1.92002E+01 2.81187E-01-1.11494E-04 1.26956E+00-9.12414E-14 3.13625E-14
 -1       970 1.92383E+01-3.92571E-02-5.47993E-05 1.58097E+00 9.93212E-14-1.48479E-13
 -1       971 1.94394E+01-5.53569E-01-1.77170E-04 1.94204E+00 1.78612E-13-2.75100E-13
 -1       972 1.99240E+01-1.31115E+00 3.27713E-03 2.31902E+00-1.36260E-14-2.62480E-13
 -1       973 2.08488E+01-2.32581E+00 5.23031E-03 2.60510E+00 1.10880E-13-4.02211E-14
 -1       974 1.97371E+01-2.20393E+00 1.75557E-02 3.30257E+00 2.27806E-13-1.55609E-13
 -1       975 2.14000E+01-2.48038E+00 1.02704E-02-3.01785E+00 3.32312E-13 5.95398E-14
 -1       976 1.99511E+01 1.66766E-01-2.58335E-06-1.61914E-01 9.93052E-14-2.47081E-13
 -1       977 2.01144E+01-4.93870E-02 4.96309E-06-1.15019E-01 2.38041E-14-6.06111E-15
 -1       978 2.02330E+01 9.90255E-02-3.72000E-05-1.09641E-01 6.44027E-14-1.68566E-13
 -1       979 1.99908E+01 1.05086E-01-6.21661E-07-1.37208E-01 6.42592E-14-2.21347E-13
 -1       980 2.00243E+01 5.31192E-02 1.27800E-06-1.21602E-01 5.77758E-15-1.53288E-13
 -1       981 1.99012E+01 2.39315E-01-4.63715E-06-1.96917E-01 7.29824E-14-2.10720E-13
 -1       982 1.98365E+01 3.23982E-01-6.79194E-06-2.43224E-01 8.03509E-14-1.67728E-13
 -1       983 1.97511E+01 4.21787E-01-9.06720E-06-3.01553E-01 5.09932E-14-1.99142E-13
 -1       984 1.96375E+01 5.33082E-01-1.15754E-05-3.72230E-01-1.17576E-13 3.21551E-14
 -1       985 1.94864E+01 6.56928E-01-1.48096E-05-4.55134E-01-5.13340E-14 2.30052E-14
 -1       986 1.92862E+01 7.90223E-01-2.04961E-05-5.49853E-01 9.60944E-14-3.06410E-14
 -1       987 1.90223E+01 9.26475E-01-3.37040E-05-6.56345E-01 3.76785E-14-6.53596E-14
 -1       988 1.86766E+01 1.05413E+00-6.68263E-05-7.76594E-01-1.32337E-15-5.93563E-14
 -1       989 1.82258E+01 1.15429E+00-1.37724E-04-9.18095E-01-1.31760E-13-1.82988E-13
 -1       990 1.76401E+01 1.19756E+00-2.09770E-04-1.09993E+00-1.29345E-13-1.11083E-13
 -1       991 1.68778E+01 1.13770E+00-5.30499E-04-1.36731E+00-1.75084E-13-3.66677E-14
 -1       992 1.58735E+01 9.22101E-01 9.87475E-03-1.80726E+00 5.99181E-14-1.37545E-14
 -1       993 1.38063E+01 5.52115E-01 2.39154E-02 2.20725E+00 1.72736E-13-1.85794E-13
 -1       994 1.40927E+01 8.17615E-01 3.26117E-02-1.80125E+00-1.23019E-13-9.48183E-14
 -1       995 1.80728E+01-1.43786E+00 1.47127E-02-3.96671E+00 3.04137E-13-2.49220E-13
 -1       996 2.03824E+01 3.96133E-01-4.08316E-05-1.06365E-02-7.60398E-14-2.74842E-13
 -1       997 2.03172E+01 1.25178E+00 1.41901E-04-2.95564E-02 1.50478E-15-5.17215E-13
 -1       998 2.03623E+01 1.99897E-01-2.82169E-05 5.04180E-02-8.20373E-14-2.64292E-13
 -1       999 2.03013E+01 1.20075E+00-2.02828E-05 3.01837E-01 1.97747E-13-3.79477E-13
 -1      1000 1.57532E+01 2.35396E-03 2.00618E-02-2.89018E+00 3.83263E-13-1.74325E-13
 -1      1001 2.00839E+01-2.42801E-02 3.83728E-06-1.12133E-01 3.91007E-14-6.68918E-15
 -1      1002 2.03570E+01 6.97354E-01 2.32348E-04 1.39992E-01 1.53615E-13-3.10047E-13
 -1      1003 2.02633E+01 5.17825E-04-1.42660E-05-1.18502E-01 6.02324E-14-1.91962E-13
 -1      1004 2.01473E+01-6.34685E-02 9.51235E-06-1.20216E-01-2.84578E-14-1.15980E-13
 -1      1005 2.02224E+01-4.45941E-02-8.28341E-06-1.26060E-01 5.60980E-14-2.14563E-13
 -1      1006 2.03781E+01 7.64165E-01 8.19315E-05-1.09222E-01-9.53620E-14-4.05193E-13
 -1      1007 1.57017E+01-2.34632E-02 7.32122E-03 2.78844E+00 7.50748E-14-2.10655E-13
 -1      1008 2.03697E+01 9.69845E-01 1.96161E-04 7.92591E-02 1.16573E-13-4.26794E-13
 -1      1009 2.03305E+01 1.16442E+00-9.09668E-05-1.07634E-01-4.60808E-14-4.54525E-13
 -1      1010 2.03575E+01 4.13055E-01 1.30934E-04 2.51738E-02 1.18668E-13-2.32404E-13
 -1      1011 2.03949E+01 8.69328E-01 1.71544E-04 1.53386E-02 6.81936E-14-4.18821E-13
 -1      1012 2.00545E+01 1.00679E-02 3.20963E-06-1.13751E-01-3.31983E-14-7.86093E-14
 -1      1013 2.03883E+01 5.62492E-01 4.56319E-05-5.80880E-02-9.29089E-14-3.48001E-13
 -1      1014 2.03099E+01-2.74985E-02-4.81782E-06 6.82036E-02 2.01802E-14-1.89990E-13
 -1      1015 2.02619E+01-6.11362E-02-6.25397E-06 7.02283E-02-3.91840E-14-1.77317E-13
 -1      1016 2.02146E+01-6.95981E-02-1.96120E-06 6.89247E-02-6.68728E-14-1.79021E-13
 -1      1017 2.01691E+01-5.94210E-02-5.05443E-06 6.66865E-02 3.03630E-14-9.16233E-14
 -1      1018 2.01253E+01-3.50925E-02-4.05179E-06 6.51908E-02-5.33711E-14-1.35835E-13
 -1      1019 2.00824E+01 6.05895E-04-8.05832E-06 6.60248E-02 1.06176E-15-2.24344E-13
 -1      1020 2.00385E+01 4.60314E-02-1.27020E-05 7.04450E-02-2.72619E-14-1.68113E-13
 -1      1021 1.99914E+01 1.00450E-01-1.92511E-05 7.96933E-02-2.78658E-14-8.16830E-14
 -1      1022 1.99380E+01 1.63558E-01-2.73944E-05 9.51119E-02 6.44537E-14 8.33853E-14
 -1      1023 1.98754E+01 2.35074E-01-3.70195E-05 1.18268E-01 4.95399E-14 1.00448E-13
 -1      1024 1.97999E+01 3.14272E-01-4.81179E-05 1.51108E-01 5.09722E-14-3.91015E-14
 -1      1025 1.97082E+01 3.99432E-01-6.07614E-05 1.96145E-01 6.53179E-14-1.95645E-13
 -1      1026 1.95969E+01 4.87198E-01-7.51465E-05 2.56710E-01 4.52102E-14-2.75059E-13
 -1      1027 1.94633E+01 5.71806E-01-9.17651E-05 3.37296E-01-9.59490E-14-1.70196E-13
 -1      1028 1.93062E+01 6.44185E-01-1.12034E-04 4.44053E-01 4.18364E-14-2.12469E-13
 -1      1029 1.91261E+01 6.90915E-01-1.40690E-04 5.85479E-01-5.28782E-14-1.41245E-13
 -1      1030 1.89271E+01 6.92975E-01-1.93264E-04 7.73360E-01-1.00625E-13-1.55015E-13
 -1      1031 1.87192E+01 6.24163E-01-2.96926E-04 1.02388E+00-9.21727E-14-8.63440E-14
 -1      1032 1.85209E+01 4.48983E-01-5.97169E-04 1.35942E+00-7.77740E-14-4.22916E-14
 -1      1033 1.83760E+01 1.14312E-01-2.56641E-04 1.80658E+00 1.50003E-13-2.21983E-13
 -1      1034 1.83462E+01-4.42763E-01-1.46228E-04 2.38915E+00 5.86608E-14-1.83516E-13
 -1      1035 1.88060E+01-1.22574E+00-4.08491E-03 2.89857E+00 1.40271E-13-2.56014E-13
 -1      1036 2.01834E+01-6.35325E-02 1.44681E-05-1.25136E-01 5.94693E-14-2.10574E-13
 -1      1037 2.03354E+01 2.14506E-01 4.11641E-05-5.15372E-02 1.07793E-13-2.00233E-13
 -1      1038 1.99526E+01 1.52668E-01-1.72195E-05-1.07334E-01 7.93771E-14-1.38661E-13
 -1      1039 2.00023E+01 8.94319E-02-9.55126E-06-9.36571E-02 6.09252E-14-1.42211E-13
 -1      1040 1.97207E+01 4.12066E-01-4.82295E-05-1.85834E-01 3.13635E-14-8.91297E-14
 -1      1041 1.95959E+01 5.24143E-01-6.24457E-05-2.23764E-01-1.07104E-13-1.02136E-13
 -1      1042 1.94336E+01 6.48534E-01-8.05116E-05-2.65591E-01 9.89683E-15-1.44937E-13
 -1      1043 1.92227E+01 7.82843E-01-1.05920E-04-3.08841E-01-4.33746E-14-1.72217E-13
 -1      1044 1.89490E+01 9.22366E-01-1.46316E-04-3.50233E-01 8.64793E-15 7.57827E-15
 -1      1045 1.85935E+01 1.05939E+00-2.15325E-04-3.86233E-01-1.23144E-14-1.56697E-14
 -1      1046 1.81300E+01 1.18260E+00-3.20775E-04-4.14461E-01-1.10401E-13 6.54983E-14
 -1      1047 1.75193E+01 1.27654E+00-4.47927E-04-4.36983E-01-1.53008E-13 1.36317E-13
 -1      1048 1.67050E+01 1.31757E+00 2.76672E-04-4.64830E-01-6.29803E-14-6.94488E-14
 -1      1049 1.55684E+01 1.30007E+00 8.49721E-03-5.22616E-01-1.02971E-13-1.22051E-13
 -1      1050 2.03555E+01 4.05127E-02-5.48405E-06 5.99868E-02-1.08419E-13-2.67641E-13
 -1      1051 1.41396E+01 1.20507E+00 1.12207E-02 2.03138E-02-5.06323E-14-1.31735E-13
 -1      1052 2.03037E+01 8.13417E-02 6.39402E-07-9.62182E-02 7.77802E-14-2.28646E-13
 -1      1053 2.03935E+01 1.55198E-01 1.44017E-05 4.16847E-02-8.04052E-14-2.72232E-13
 -1      1054 2.00458E+01 3.63454E-02-3.17181E-06-8.55338E-02 2.03275E-14-2.16777E-13
 -1      1055 1.43741E+01 1.06214E+00 2.13752E-02-1.95640E-01 4.30359E-14 8.13090E-13
 -1      1056 2.03730E+01 8.48110E-01 1.24588E-04 1.23587E-01 1.27470E-13-4.01450E-13
 -1      1057 2.04159E+01 3.33277E-01 9.09580E-06 9.84587E-03-4.48822E-15-3.32383E-13
 -1      1058 1.98172E+01 3.13071E-01-3.63428E-05-1.53369E-01 3.28424E-14-2.40082E-13
 -1      1059 1.98925E+01 2.26882E-01-2.61102E-05-1.27147E-01 1.11112E-13-2.04220E-13
 -1      1060 2.01259E+01-4.00306E-02 8.20320E-06-8.24621E-02 5.37700E-14-1.74820E-13
 -1      1061 2.01671E+01-6.19747E-02-9.64393E-05-8.53887E-02-5.22683E-14-1.49794E-13
 -1      1062 2.04203E+01 6.22217E-01 1.02840E-04 2.96542E-02 7.96022E-14-4.23600E-13
 -1      1063 2.03815E+01 8.72908E-01 6.39549E-05-8.20420E-02-4.26285E-14-4.34638E-13
 -1      1064 1.72539E+01-2.91241E-01 5.63035E-03 2.69169E+00 4.01798E-14-8.80790E-14
 -1      1065 2.04206E+01 4.80178E-01 1.54448E-04-1.50292E-02-3.31833E-14-4.00264E-13
 -1      1066 2.03447E+01 5.32168E-02 1.28076E-05-7.39751E-02 6.71124E-14-2.66533E-13
 -1      1067 1.49000E+01 1.02406E+00 4.44935E-03 1.12008E+00 2.60235E-14-1.26507E-13
 -1      1068 2.03009E+01-1.87262E-02-1.00099E-04-8.57856E-02 5.07850E-14-2.82524E-13
 -1      1069 2.04013E+01 5.19723E-01 1.05449E-04 3.64084E-02 9.21140E-14-3.85087E-13
 -1      1070 2.04009E+01 8.17674E-01 2.28715E-05-3.02618E-02-1.24930E-14-4.33864E-13
 -1      1071 2.00862E+01-6.95697E-03 1.55964E-06-8.21447E-02 2.03233E-14-1.70139E-13
 -1      1072 2.02588E+01-6.88368E-02-9.38691E-06 2.71120E-02-5.03000E-14-1.71695E-13
 -1      1073 2.02093E+01-6.81073E-02 1.40808E-05 2.62272E-02 7.24784E-16-1.61264E-13
 -1      1074 2.01609E+01-4.95538E-02 1.62665E-05 2.56368E-02-1.86382E-15-2.19683E-13
 -1      1075 2.01131E+01-1.76930E-02 3.24474E-05 2.59429E-02-5.15526E-14-1.66773E-13
 -1      1076 2.00648E+01 2.53821E-02 2.90915E-05 2.74785E-02 1.89229E-14-2.15465E-13
 -1      1077 2.00136E+01 7.86580E-02 2.90267E-05 3.10514E-02 6.73913E-14-1.44681E-13
 -1      1078 1.99567E+01 1.41761E-01 3.20932E-05 3.74767E-02 1.19104E-13-2.95557E-14
 -1      1079 1.98903E+01 2.14677E-01 3.89719E-05 4.77987E-02 5.67538E-14-4.18076E-14
 -1      1080 1.98105E+01 2.97331E-01 5.07592E-05 6.34487E-02-2.47572E-14-1.01376E-13
 -1      1081 1.97126E+01 3.89124E-01 6.92474E-05 8.64456E-02-9.73825E-14-2.10101E-13
 -1      1082 1.95916E+01 4.88403E-01 9.73981E-05 1.19665E-01 4.19313E-14-2.96402E-13
 -1      1083 1.94424E+01 5.91852E-01 1.40068E-04 1.67210E-01 9.02770E-14-2.96933E-13
 -1      1084 1.92595E+01 6.93807E-01 2.04901E-04 2.34923E-01-7.98933E-14-1.50570E-13
 -1      1085 1.90374E+01 7.85494E-01 3.02306E-04 3.31114E-01-6.09560E-14-2.56833E-13
 -1      1086 1.87707E+01 8.54203E-01 4.39496E-04 4.67600E-01-7.78957E-14-2.64592E-13
 -1      1087 1.84540E+01 8.82267E-01 5.89948E-04 6.61259E-01-1.16062E-13-2.36583E-13
 -1      1088 1.80825E+01 8.45106E-01 4.99601E-04 9.36582E-01 7.05295E-15-2.57303E-13
 -1      1089 1.76706E+01 7.12190E-01 2.51210E-04 1.32197E+00-4.58989E-14-9.07668E-14
 -1      1090 1.71848E+01 4.11711E-01-2.40977E-03 1.86475E+00 1.72600E-13-9.69030E-14
 -1      1091 1.92548E+01 7.33254E-01-1.43971E-04-9.57469E-02 1.49515E-14 5.65682E-15
 -1      1092 1.99700E+01 1.28790E-01-1.20798E-05-5.27362E-02 9.95001E-14-2.64751E-13
 -1      1093 2.00734E+01 1.57665E-02-9.57577E-06-4.53217E-02 4.16751E-14-1.88783E-13
 -1      1094 1.94536E+01 6.06627E-01-9.46467E-05-9.57229E-02-2.11629E-15-4.09630E-14
 -1      1095 1.96096E+01 4.88275E-01-6.16539E-05-8.88856E-02-3.07331E-14-2.96552E-14
 -1      1096 1.90017E+01 8.63560E-01-2.18995E-04-8.34185E-02-3.85106E-14-8.77962E-14
 -1      1097 1.86796E+01 9.90401E-01-3.36558E-04-5.11613E-02-5.32784E-14 9.62037E-15
 -1      1098 1.82682E+01 1.10376E+00-5.20051E-04 1.10461E-02-7.77095E-14 1.55933E-13
 -1      1099 1.77380E+01 1.19081E+00-7.53741E-04 1.16373E-01-9.53914E-14 1.12532E-13
 -1      1100 1.70409E+01 1.24004E+00-8.12706E-06 2.84249E-01 1.04536E-14 5.42694E-14
 -1      1101 1.61146E+01 1.22353E+00 2.93664E-03 5.15622E-01-5.65897E-14 1.11892E-13
 -1      1102 2.03584E+01 6.49165E-03-2.20413E-05 2.48644E-02 2.15435E-14-2.67296E-13
 -1      1103 2.03799E+01 1.74990E-01-2.92302E-04-4.78613E-02 7.56545E-14-2.72882E-13
 -1      1104 2.03967E+01 3.23803E-01-4.88309E-05-1.42487E-02 7.50190E-14-3.58596E-13
 -1      1105 2.04361E+01 5.43784E-01 3.49994E-04 8.93148E-04 6.56033E-14-3.68394E-13
 -1      1106 2.03095E+01-4.68295E-02-2.25739E-05 2.70124E-02 1.43330E-14-2.83416E-13
 -1      1107 2.00244E+01 6.70995E-02-1.00492E-05-4.79133E-02 7.61292E-15-1.65202E-13
 -1      1108 2.04013E+01 1.01996E-01 7.10168E-05 2.00383E-02-8.03893E-14-3.26800E-13
 -1      1109 2.01201E+01-2.50354E-02-3.38269E-06-4.46279E-02-1.67927E-15-2.23144E-13
 -1      1110 1.97322E+01 3.80739E-01-3.96901E-05-7.90978E-02-7.57765E-14-1.23913E-13
 -1      1111 2.04092E+01 6.56440E-01-1.34608E-04-4.51068E-02-6.69366E-14-4.31486E-13
 -1      1112 2.04282E+01 2.55702E-01 1.50582E-05 9.00968E-03 2.73965E-15-3.69592E-13
 -1      1113 2.04019E+01 1.30703E-01 4.17517E-04-3.26771E-02 4.00664E-14-3.07479E-13
 -1      1114 2.01666E+01-5.41952E-02 5.98332E-05-4.50732E-02-1.10948E-14-2.47953E-13
 -1      1115 2.02564E+01-5.69965E-02 2.05905E-05-8.93151E-02 4.13491E-14-2.57212E-13
 -1      1116 1.99064E+01 2.01231E-01-1.68089E-05-5.98377E-02 1.62540E-13-3.23896E-13
 -1      1117 2.04315E+01 3.94035E-01-1.87080E-04-6.54601E-04 3.01665E-14-4.17093E-13
 -1      1118 2.04367E+01 3.73266E-01-1.08870E-03 1.93741E-03 1.85855E-14-3.04032E-13
 -1      1119 2.02109E+01-6.89576E-02-3.85863E-05-8.84343E-02-6.90583E-14-2.26136E-13
 -1      1120 1.61755E+01 6.94487E-01 2.03562E-03 1.66576E+00 1.06140E-13-2.95648E-13
 -1      1121 2.03617E+01 2.53199E-02 2.15707E-04-4.36360E-02 6.48779E-14-2.53525E-13
 -1      1122 1.98289E+01 2.85047E-01-2.54786E-05-6.89001E-02 1.47614E-14-2.51929E-13
 -1      1123 2.02368E+01-7.09266E-02 6.79672E-05-1.69381E-02-6.10293E-14-2.62628E-13
 -1      1124 2.04225E+01 1.66630E-01 4.72121E-04-8.56910E-03-4.67244E-14-4.11254E-13
 -1      1125 2.03386E+01-2.47420E-02-4.67223E-05-1.66855E-02 4.08381E-14-2.61034E-13
 -1      1126 2.03828E+01 4.88903E-02-7.76336E-05-1.43158E-02 4.24845E-14-3.29311E-13
 -1      1127 2.02880E+01-6.10605E-02 5.98558E-05-1.73357E-02 9.11987E-15-2.42437E-13
 -1      1128 2.04297E+01 5.21529E-01 3.64004E-04-9.82973E-03 1.18584E-14-3.34730E-13
 -1      1129 2.79627E+01 9.08648E+00 2.32535E+00-6.69850E+00-6.45040E-14 2.55812E-12
 -1      1130 2.05469E+01 6.22700E+00 2.09700E-01-3.90452E+00-3.96905E-14 4.91052E-13
 -1      1131 1.94344E+01 5.85293E+00 7.53754E-02-2.88865E+00-2.84078E-14-4.23907E-13
 -1      1132 1.90257E+01 5.72581E+00 6.02907E-02-2.23565E+00-2.09693E-14-8.72031E-13
 -1      1133 1.88395E+01 5.66910E+00 5.75245E-02-1.70218E+00-1.51702E-14-1.09159E-12
 -1      1134 1.87463E+01 5.64056E+00 5.55903E-02-1.23483E+00-9.55486E-15-1.19291E-12
 -1      1135 1.86977E+01 5.62546E+00 5.38459E-02-8.04793E-01-5.83257E-15-1.24402E-12
 -1      1136 1.86738E+01 5.61793E+00 5.25825E-02-3.93040E-01-2.36161E-15-1.26395E-12
 -1      1137 1.86670E+01 5.61576E+00 5.21767E-02 8.52842E-03 9.33064E-16-1.26186E-12
 -1      1138 1.86748E+01 5.61826E+00 5.26823E-02 4.10481E-01 3.18148E-15-1.25523E-12
 -1      1139 1.86998E+01 5.62616E+00 5.40638E-02 8.23512E-01 5.66734E-15-1.22935E-12
 -1      1140 1.87502E+01 5.64195E+00 5.62633E-02 1.25609E+00 1.08030E-14-1.15294E-12
 -1      1141 1.88451E+01 5.67109E+00 5.84628E-02 1.72798E+00 1.69031E-14-1.02208E-12
 -1      1142 1.90313E+01 5.72751E+00 6.03979E-02 2.26907E+00 2.22183E-14-7.75585E-13
 -1      1143 1.94307E+01 5.84997E+00 6.91933E-02 2.92916E+00 3.11695E-14-2.88353E-13
 -1      1144 2.04530E+01 6.18190E+00 1.53242E-01 3.87904E+00 3.60545E-14 6.66488E-13
 -1      1145 2.52170E+01 7.99428E+00 1.43043E+00 5.84668E+00 7.83262E-14 2.67492E-12
 -1      1146 2.88125E+01 3.61643E+00 1.27138E+00-4.21723E+00-2.84356E-13 3.88028E-12
 -1      1147 2.02268E+01-1.77727E-01-6.16313E-01-1.09949E-01-9.13575E-14 3.22462E-12
 -1      1148 1.88322E+01-9.63797E-02-2.36347E-01 6.25327E-02-3.20091E-14 2.27463E-12
 -1      1149 1.84980E+01-4.80141E-02-5.95316E-02 4.05051E-02-1.76985E-14 1.63446E-12
 -1      1150 1.84422E+01-2.46162E-02-1.51900E-02 2.67492E-02-1.90668E-14 1.17974E-12
 -1      1151 1.85231E+01-1.30647E-02-5.00044E-03 1.90473E-02-2.45359E-14 8.67049E-13
 -1      1152 1.86691E+01-6.60149E-03-1.46419E-03 1.40982E-02-7.05100E-15 6.39603E-13
 -1      1153 1.88408E+01-2.83697E-03 5.87956E-04 1.06537E-02 2.28572E-15 4.54891E-13
 -1      1154 1.90153E+01-6.16916E-04 1.89437E-03 8.09918E-03-1.69787E-14 2.25309E-13
 -1      1155 1.91802E+01 6.54891E-04 2.61680E-03 6.12829E-03-1.46366E-14 3.59643E-14
 -1      1156 1.93286E+01 1.31683E-03 2.88904E-03 4.57539E-03 4.17618E-15-1.36436E-13
 -1      1157 1.94580E+01 1.57444E-03 2.83859E-03 3.34277E-03 2.15837E-14-1.79681E-13
 -1      1158 1.95682E+01 1.55806E-03 2.56573E-03 2.36621E-03-8.72407E-15-2.77962E-13
 -1      1159 1.96609E+01 1.35149E-03 2.13927E-03 1.60010E-03 7.69919E-17-2.67727E-13
 -1      1160 1.97389E+01 1.00740E-03 1.60125E-03 1.01130E-03-5.34089E-15-3.14427E-13
 -1      1161 1.98059E+01 5.56827E-04 9.72781E-04 5.76944E-04-1.50186E-14-4.70087E-13
 -1      1162 1.98662E+01 1.58502E-05 2.59640E-04 2.83983E-04-1.91696E-14-6.04522E-13
 -1      1163 1.99250E+01-6.08763E-04-5.42531E-04 1.29596E-04 1.88904E-15-7.39434E-13
 -1      1164 1.99879E+01-1.31393E-03-1.44244E-03 1.21918E-04-5.72632E-15-6.98909E-13
 -1      1165 2.00613E+01-2.09381E-03-2.44598E-03 2.80705E-04 2.04546E-15-8.50510E-13
 -1      1166 2.01522E+01-2.93159E-03-3.54631E-03 6.37364E-04-7.59475E-15-9.50904E-13
 -1      1167 2.02684E+01-3.78862E-03-4.70971E-03 1.23343E-03-9.68014E-15-9.22155E-13
 -1      1168 2.04181E+01-4.58985E-03-5.85507E-03 2.11584E-03 1.59891E-14-8.59337E-13
 -1      1169 2.06090E+01-5.20507E-03-6.82492E-03 3.32629E-03-3.29055E-14-8.87538E-13
 -1      1170 2.08478E+01-5.42669E-03-7.34721E-03 4.88016E-03 1.34319E-14-8.68294E-13
 -1      1171 2.11378E+01-4.94801E-03-6.99095E-03 6.72872E-03-2.09954E-14-7.82004E-13
 -1      1172 2.14760E+01-3.35310E-03-5.13037E-03 8.69705E-03 4.13450E-14-9.88426E-13
 -1      1173 2.18489E+01-1.41916E-04-9.54636E-04 1.03929E-02 2.61890E-14-8.02181E-13
 -1      1174 2.22271E+01 5.16677E-03 6.40030E-03 1.10956E-02-1.33357E-15-6.64802E-13
 -1      1175 2.25593E+01 1.27928E-02 1.74775E-02 9.67063E-03 4.03150E-15-3.53934E-13
 -1      1176 2.27692E+01 2.22563E-02 3.17620E-02 4.62535E-03-6.81746E-15-3.08206E-13
 -1      1177 2.27586E+01 3.17755E-02 4.66237E-02-5.48897E-03-1.92871E-14-4.98438E-13
 -1      1178 2.24256E+01 3.77935E-02 5.64372E-02-2.11041E-02 2.81372E-15-5.79484E-13
 -1      1179 2.17028E+01 3.53027E-02 5.31491E-02-4.01583E-02 3.29164E-15-3.79273E-13
 -1      1180 2.06126E+01 1.99568E-02 2.98273E-02-5.69251E-02-1.48709E-15-6.19046E-13
 -1      1181 1.93155E+01-8.00690E-03-1.30222E-02-6.28636E-02 1.79608E-14-3.46591E-13
 -1      1182 1.81080E+01-4.03865E-02-6.24985E-02-5.08446E-02 2.46140E-14-4.47552E-13
 -1      1183 1.73335E+01-6.27952E-02-9.65649E-02-2.10869E-02 4.88325E-15-4.20563E-13
 -1      1184 1.72287E+01-6.31659E-02-9.71357E-02 1.63926E-02 5.42205E-14-4.03615E-13
 -1      1185 1.77978E+01-4.10934E-02-6.35633E-02 4.67044E-02 1.08333E-14-2.16459E-13
 -1      1186 1.88075E+01-8.18712E-03-1.32296E-02 5.92316E-02 1.40998E-14-3.66075E-13
 -1      1187 1.99085E+01 2.07342E-02 3.12829E-02 5.31124E-02-5.06374E-14-8.29448E-13
 -1      1188 2.07932E+01 3.66507E-02 5.58579E-02 3.52773E-02-4.33638E-14-1.24051E-12
 -1      1189 2.12925E+01 3.86793E-02 5.89100E-02 1.45439E-02 7.56296E-15-8.25645E-13
 -1      1190 2.13862E+01 3.07187E-02 4.65355E-02-2.78647E-03 4.90363E-14-7.71882E-13
 -1      1191 2.11592E+01 1.75783E-02 2.61026E-02-1.38220E-02 3.77769E-14-1.01604E-13
 -1      1192 2.07501E+01 2.90644E-03 2.92995E-03-1.77269E-02-5.00137E-15-1.30467E-13
 -1      1193 2.03171E+01-1.05063E-02-1.82277E-02-1.34611E-02-2.43910E-14-1.32495E-13
 -1      1194 2.00240E+01-2.10805E-02-2.47681E-02 1.52171E-03 4.02009E-14-3.64942E-13
 -1      1195 1.99727E+01 9.71108E-03 1.82645E-02 9.47327E-03 5.41700E-14-8.55540E-14
 -1      1196 2.77922E+01 5.25753E-01 3.77128E-01 1.96670E+00-5.03764E-14 4.34058E-12
 -1      1197 2.00844E+01-6.62380E-02-5.73620E-01 1.29483E-01 3.14124E-14 3.41924E-12
 -1      1198 1.89068E+01-4.06048E-02-1.93233E-01 1.94191E-02 2.30710E-14 2.53529E-12
 -1      1199 1.85266E+01-2.14170E-02-5.05583E-02 1.46075E-03 1.50348E-14 1.92781E-12
 -1      1200 1.84548E+01-1.24041E-02-1.34029E-02-4.07692E-03 6.05787E-15 1.49177E-12
 -1      1201 1.85295E+01-7.39922E-03-4.65417E-03-5.53026E-03 1.71306E-14 1.16008E-12
 -1      1202 1.86724E+01-4.32252E-03-1.92257E-03-5.71402E-03 6.87921E-15 9.62440E-13
 -1      1203 1.88423E+01-2.35291E-03-3.35950E-04-5.42573E-03 5.84190E-15 8.29090E-13
 -1      1204 1.90158E+01-1.08610E-03 7.79860E-04-4.91603E-03 2.27615E-16 6.87941E-13
 -1      1205 1.91800E+01-2.92083E-04 1.48163E-03-4.29763E-03 1.41315E-14 5.98255E-13
 -1      1206 1.93280E+01 1.73203E-04 1.82974E-03-3.63611E-03 1.21379E-14 3.99155E-13
 -1      1207 1.94570E+01 4.04149E-04 1.90715E-03-2.97174E-03 2.19386E-14 1.57057E-13
 -1      1208 1.95668E+01 4.62988E-04 1.78698E-03-2.32761E-03 2.36700E-14-1.01039E-13
 -1      1209 1.96590E+01 3.89226E-04 1.52085E-03-1.71432E-03-1.45570E-14-1.42827E-13
 -1      1210 1.97363E+01 2.05093E-04 1.13862E-03-1.13335E-03 6.09126E-15-1.62993E-13
 -1      1211 1.98024E+01-8.11689E-05 6.50888E-04-5.79750E-04 1.32048E-15-1.89844E-13
 -1      1212 1.98618E+01-4.73379E-04 5.11001E-05-4.43797E-05-1.64477E-14-1.13063E-13
 -1      1213 1.99195E+01-9.86410E-04-6.83364E-04 4.84136E-04 3.60525E-14-2.72940E-13
 -1      1214 1.99817E+01-1.64573E-03-1.59112E-03 1.01738E-03 1.21680E-14-4.26883E-13
 -1      1215 2.00555E+01-2.48711E-03-2.72748E-03 1.56465E-03 5.38450E-15-3.17408E-13
 -1      1216 2.01496E+01-3.55589E-03-4.16559E-03 2.12930E-03-1.11017E-14-2.16568E-13
 -1      1217 2.02744E+01-4.90433E-03-5.99669E-03 2.70264E-03-9.28267E-15 1.44170E-14
 -1      1218 2.04429E+01-6.58412E-03-8.32683E-03 3.25330E-03 8.41634E-15-2.14121E-13
 -1      1219 2.06710E+01-8.62845E-03-1.12633E-02 3.70841E-03 2.39699E-14-6.86354E-13
 -1      1220 2.09780E+01-1.10126E-02-1.48768E-02 3.92108E-03 7.72808E-15-5.08153E-13
 -1      1221 2.13872E+01-1.35746E-02-1.91103E-02 3.61719E-03-2.03928E-14 9.13575E-14
 -1      1222 2.19242E+01-1.58690E-02-2.35830E-02 2.31633E-03 1.64651E-14-1.61277E-14
 -1      1223 2.26150E+01-1.69213E-02-2.72034E-02-7.63230E-04 1.63565E-14-2.00891E-13
 -1      1224 2.34779E+01-1.48903E-02-2.75102E-02-6.75408E-03 2.81509E-14-4.86847E-13
 -1      1225 2.45089E+01-6.78509E-03-1.98142E-02-1.69489E-02 1.94701E-14-6.11733E-13
 -1      1226 2.56527E+01 1.11990E-02 3.18833E-03-3.19350E-02 1.45683E-14-4.91211E-13
 -1      1227 2.67596E+01 4.15768E-02 4.93344E-02-4.93817E-02 1.27155E-14-3.62634E-13
 -1      1228 2.75350E+01 7.99658E-02 1.18880E-01-6.02888E-02-1.52083E-14-1.00357E-13
 -1      1229 2.75295E+01 1.07390E-01 1.88706E-01-4.65956E-02 1.64001E-14-4.02831E-13
 -1      1230 2.62707E+01 9.08968E-02 2.02144E-01 1.06134E-02-4.35173E-14-3.41477E-13
 -1      1231 2.36345E+01 1.08506E-02 9.68900E-02 1.05747E-01-4.32640E-15-2.78055E-13
 -1      1232 2.03115E+01-9.77205E-02-1.17887E-01 1.84581E-01-6.70601E-15-6.84591E-13
 -1      1233 1.78184E+01-1.48771E-01-3.08711E-01 1.72100E-01-3.44863E-14-5.45564E-13
 -1      1234 1.75671E+01-1.02177E-01-3.19460E-01 5.55310E-02 6.81729E-14-9.16885E-13
 -1      1235 1.96386E+01-1.22858E-02-1.49747E-01-8.49221E-02 2.71397E-14-1.14911E-12
 -1      1236 2.27066E+01 4.92701E-02 5.09985E-02-1.57619E-01 3.93270E-14-1.10592E-12
 -1      1237 2.52045E+01 6.48912E-02 1.57648E-01-1.44390E-01-4.55495E-14-6.69589E-13
 -1      1238 2.63439E+01 5.32155E-02 1.60338E-01-8.71878E-02-5.99694E-14-4.19123E-13
 -1      1239 2.61761E+01 3.30139E-02 1.10727E-01-2.92960E-02 1.16452E-14-3.94322E-13
 -1      1240 2.51457E+01 1.43061E-02 5.44286E-02 1.09319E-02 3.44126E-14-1.02221E-12
 -1      1241 2.37215E+01-1.30538E-03 1.01848E-02 3.33762E-02 2.37414E-14-1.35848E-12
 -1      1242 2.22537E+01-1.60724E-02-2.37712E-02 4.43861E-02 3.87153E-14-1.53484E-12
 -1      1243 2.09896E+01-3.13493E-02-5.32391E-02 4.71756E-02 7.14108E-14-1.64957E-12
 -1      1244 2.01537E+01-3.70026E-02-6.21684E-02 3.29572E-02 7.12364E-14-1.17931E-12
 -1      1245 1.99559E+01 1.52123E-02 2.86191E-02-1.61042E-02-4.04312E-14-6.68263E-13
 -1      1246 2.00165E+01-4.44122E-02 2.70568E-02-1.35474E-02-6.91448E-13-5.64002E-14
 -1      1247 1.99599E+01 1.71607E-01-6.17604E-02 3.96757E-03-4.87464E-13 2.57606E-16
 -1      1248 1.99721E+01 9.84423E-01-4.73587E-02 3.86200E-02 3.56815E-13 3.85109E-14
 -1      1249 1.99953E+01 2.13367E+00-9.83480E-03 4.86557E-02-7.84928E-14-1.82999E-14
 -1      1250 2.00185E+01 3.33880E+00 2.58099E-02 4.57112E-02-1.52788E-13-4.62464E-14
 -1      1251 2.00378E+01 4.35873E+00 5.34083E-02 3.37510E-02-3.77157E-13 1.32242E-14
 -1      1252 2.00488E+01 5.02392E+00 6.86194E-02 1.70462E-02-2.64256E-13-1.79602E-13
 -1      1253 2.00499E+01 5.23470E+00 6.95871E-02-2.37717E-03-2.16763E-13-1.78363E-13
 -1      1254 2.00411E+01 4.97585E+00 5.67437E-02-1.92865E-02-2.59806E-13 1.96119E-14
 -1      1255 2.00259E+01 4.33365E+00 3.49643E-02-3.03014E-02 4.70294E-13 1.92045E-13
 -1      1256 2.00088E+01 3.45482E+00 1.10757E-02-3.41578E-02-2.54095E-13-2.51501E-13
 -1      1257 1.99946E+01 2.50791E+00-8.93011E-03-3.18176E-02-1.73709E-12 1.39734E-13
 -1      1258 1.99846E+01 1.61901E+00-2.24452E-02-2.60625E-02-1.20842E-12 6.10237E-14
 -1      1259 1.99790E+01 8.70351E-01-3.08210E-02-1.85230E-02 1.45873E-13 1.19392E-14
 -1      1260 1.99774E+01 3.16271E-01-3.68767E-02-1.24169E-02 4.80295E-13-7.35998E-14
 -1      1261 1.99724E+01 3.04282E-02-2.74011E-02 1.15061E-02 2.79713E-13-1.36307E-13
 -1      1262 2.00093E+01-2.75220E-02 1.73413E-02 9.15246E-03 1.12789E-13 1.39237E-13
 -1      1263-1.18660E+00-2.55956E+01-3.89214E+00-2.37252E+00 1.69703E-12 3.17742E-13
 -1      1264-1.96783E+00-1.70431E+01-3.29564E+00-4.60202E+00 1.97464E-12 5.11424E-13
 -1      1265-2.63033E-02-3.55072E+00-2.01517E+00-7.85757E-01 1.06026E-12 7.41851E-13
 -1      1266 9.51014E+00 7.54910E+00-3.05019E-01 8.33085E+00 1.43752E-12 1.35136E-12
 -1      1267 2.70980E+01 1.12087E+01 1.48763E+00 1.66712E+01 1.14797E-12 1.77547E-12
 -1      1268 4.80006E+01 8.32213E+00 3.11227E+00 1.83275E+01 7.27751E-13 1.57674E-12
 -1      1269 6.47068E+01 3.60448E+00 4.28151E+00 1.13615E+01 2.84786E-13 9.84213E-13
 -1      1270 6.97471E+01 1.91519E+00 4.62574E+00-1.77159E+00 9.53265E-14-1.57763E-13
 -1      1271 5.94984E+01 5.10655E+00 3.95661E+00-1.37999E+01 4.69236E-13-1.43374E-12
 -1      1272 4.00128E+01 9.48161E+00 2.53336E+00-1.81639E+01 1.02096E-12-1.99174E-12
 -1      1273 1.87826E+01 9.97272E+00 6.19282E-01-1.31849E+01 1.62648E-12-2.05991E-12
 -1      1274 4.12360E+00 3.25602E+00-1.14695E+00-3.87481E+00 2.32636E-12-1.87006E-12
 -1      1275-1.53756E+00-8.78386E+00-2.60239E+00 3.09759E+00 2.35101E-12-1.27542E-12
 -1      1276-1.77738E+00-2.05473E+01-3.47686E+00 4.28691E+00 1.67832E-12-4.44283E-13
 -1      1277-9.28213E-01-2.59678E+01-3.82539E+00 7.92727E-01 9.54320E-13-1.36800E-13
 -1      1278-1.27019E+00-2.21366E+01-3.50541E+00-3.31913E+00-7.97140E-13-2.01630E-13
 -1      1279-1.54524E+00-1.10226E+01-2.63316E+00-3.34330E+00-2.05302E-12-8.80962E-13
 -1      1280 2.13803E+00 1.48135E+00-1.33805E+00 2.23819E+00-2.71205E-12-1.89226E-12
 -1      1281 1.28786E+01 9.69523E+00 2.15492E-01 1.08971E+01-2.73648E-12-2.93232E-12
 -1      1282 3.04798E+01 1.11167E+01 1.83149E+00 1.74639E+01-1.77736E-12-2.67408E-12
 -1      1283 4.98860E+01 7.32786E+00 3.13402E+00 1.69724E+01-8.15237E-13-1.99396E-12
 -1      1284 6.41395E+01 2.79738E+00 3.99963E+00 9.07016E+00-2.20060E-13-1.44840E-12
 -1      1285 6.71174E+01 1.80748E+00 4.18364E+00-3.24632E+00-1.26107E-13-2.46997E-13
 -1      1286 5.77913E+01 5.19130E+00 3.70495E+00-1.41952E+01-3.94906E-13 1.15719E-12
 -1      1287 4.01670E+01 9.89984E+00 2.62308E+00-1.84344E+01-1.16274E-12 2.19846E-12
 -1      1288 2.10160E+01 1.13310E+01 1.08330E+00-1.48454E+01-1.94711E-12 2.42273E-12
 -1      1289 6.56664E+00 6.33456E+00-5.50523E-01-6.44810E+00-1.97531E-12 1.86828E-12
 -1      1290-5.03486E-01-4.79344E+00-2.06630E+00 1.35262E+00-2.22999E-12 1.09424E-12
 -1      1291-1.83097E+00-1.73710E+01-3.23631E+00 4.34387E+00-2.26019E-12 8.46045E-13
 -1      1292-1.10325E+00-2.55692E+01-3.87584E+00 2.13530E+00-1.00919E-12 1.85234E-13
 -1      1293 2.22661E+01 1.83815E+00-7.25871E-01-2.79087E+00-1.04750E-13 2.12691E-12
 -1      1294 2.03587E+01 4.69016E+00-4.86541E-02-3.30757E+00-3.14110E-13 6.25611E-14
 -1      1295 2.08661E+01 4.81063E+00-1.13376E-01-4.16172E+00-3.95212E-13 5.43399E-13
 -1      1296 1.95315E+01 4.99334E+00-1.95947E-02-2.65537E+00-3.21590E-13-6.17346E-13
 -1      1297 1.98293E+01 5.09017E+00 2.48880E-04-3.04634E+00-3.63112E-13-3.21784E-13
 -1      1298 2.05253E+01 3.95285E+00-2.58935E-02-3.07562E+00-5.57138E-13 5.86475E-14
 -1      1299 1.91839E+01 5.08407E+00-3.66111E-03-2.07099E+00-2.69439E-13-9.67219E-13
 -1      1300 1.93333E+01 5.13928E+00 1.05873E-02-2.36418E+00-2.98313E-13-8.09280E-13
 -1      1301 1.97541E+01 4.36594E+00-2.42586E-02-2.49034E+00-5.03420E-13-5.01800E-13
 -1      1302 1.90089E+01 5.13089E+00 3.28027E-03-1.56550E+00-2.03513E-13-1.13879E-12
 -1      1303 1.90862E+01 5.16075E+00 1.25552E-02-1.81543E+00-2.29955E-13-1.05984E-12
 -1      1304 1.93924E+01 4.55556E+00-1.95652E-02-1.93184E+00-4.06186E-13-8.01002E-13
 -1      1305 1.89161E+01 5.16061E+00 6.62691E-03-1.11766E+00-1.40968E-13-1.22517E-12
 -1      1306 1.89581E+01 5.17683E+00 1.27253E-02-1.33922E+00-1.64888E-13-1.18442E-12
 -1      1307 1.92059E+01 4.66127E+00-1.60615E-02-1.44565E+00-3.01991E-13-9.51544E-13
 -1      1308 1.88650E+01 5.18046E+00 8.21834E-03-6.94171E-01-8.05423E-14-1.26152E-12
 -1      1309 1.88878E+01 5.18928E+00 1.20451E-02-9.04487E-01-9.96529E-14-1.24514E-12
 -1      1310 1.91036E+01 4.72660E+00-1.39462E-02-1.00476E+00-2.02047E-13-1.03321E-12
 -1      1311 1.88412E+01 5.19243E+00 9.29946E-03-2.89278E-01-2.34560E-14-1.27796E-12
 -1      1312 1.88510E+01 5.19623E+00 1.10822E-02-4.91494E-01-4.23819E-14-1.26946E-12
 -1      1313 1.90481E+01 4.76561E+00-1.29134E-02-5.89047E-01-9.98522E-14-1.05341E-12
 -1      1314 1.88375E+01 5.19739E+00 1.02273E-02 1.08314E-01 2.68065E-14-1.27190E-12
 -1      1315 1.88371E+01 5.19726E+00 1.01602E-02-9.14432E-02 6.73398E-15-1.27935E-12
 -1      1316 1.90241E+01 4.78366E+00-1.24758E-02-1.89142E-01-1.35899E-14-1.07513E-12
 -1      1317 1.88526E+01 5.19589E+00 1.11653E-02 5.08916E-01 8.27472E-14-1.26113E-12
 -1      1318 1.88421E+01 5.19181E+00 9.23434E-03 3.06301E-01 6.58382E-14-1.26999E-12
 -1      1319 1.90249E+01 4.78305E+00-1.24933E-02 2.05922E-01 7.34662E-14-1.07016E-12
 -1      1320 1.88910E+01 5.18817E+00 1.20977E-02 9.23337E-01 1.28649E-13-1.21951E-12
 -1      1321 1.88674E+01 5.17918E+00 8.14244E-03 7.12088E-01 1.12796E-13-1.24618E-12
 -1      1322 1.90506E+01 4.76361E+00-1.29808E-02 6.06474E-01 1.60553E-13-1.04448E-12
 -1      1323 1.89626E+01 5.17513E+00 1.29006E-02 1.35668E+00 1.90204E-13-1.13627E-12
 -1      1324 1.89195E+01 5.15844E+00 6.45700E-03 1.13373E+00 1.65420E-13-1.18684E-12
 -1      1325 1.91078E+01 4.72316E+00-1.40034E-02 1.01994E+00 2.46798E-13-9.96956E-13
 -1      1326 1.90949E+01 5.15663E+00 1.28249E-02 1.84142E+00 2.62491E-13-9.89056E-13
 -1      1327 1.90156E+01 5.12633E+00 3.14996E-03 1.58859E+00 2.36451E-13-1.07934E-12
 -1      1328 1.92129E+01 4.65478E+00-1.61469E-02 1.46317E+00 3.54148E-13-8.99329E-13
 -1      1329 1.93432E+01 5.13334E+00 1.01637E-02 2.39854E+00 3.33168E-13-7.13398E-13
 -1      1330 1.91933E+01 5.07628E+00-4.37474E-03 2.10126E+00 3.01682E-13-8.84556E-13
 -1      1331 1.94052E+01 4.54234E+00-1.99859E-02 1.95893E+00 4.58544E-13-7.33271E-13
 -1      1332 1.98545E+01 5.09928E+00 6.03552E-03 3.08459E+00 3.89314E-13-1.82264E-13
 -1      1333 1.95427E+01 4.98432E+00-2.05457E-02 2.69725E+00 3.45217E-13-5.03007E-13
 -1      1334 1.97741E+01 4.34634E+00-2.45651E-02 2.52880E+00 5.48356E-13-4.05606E-13
 -1      1335 2.11022E+01 4.90689E+00 8.29457E-03 4.05449E+00 3.39312E-13 8.48904E-13
 -1      1336 2.03333E+01 4.73375E+00-4.79790E-02 3.41693E+00 3.31873E-13 2.17423E-13
 -1      1337 2.05636E+01 3.91588E+00-2.24199E-02 3.17909E+00 5.84505E-13 1.91666E-13
 -1      1338 2.72020E+01 3.20538E+00 9.29078E-01 4.58257E+00 1.71932E-13 2.81769E-12
 -1      1339 2.20190E+01 3.52213E+00-1.82008E-01 3.88544E+00 1.76775E-13 1.44448E-12
 -1      1340 2.21112E+01 2.56179E+00-3.25631E-02 3.45716E+00 5.61547E-13 1.12554E-12
 -1      1341 2.14257E+01 3.59607E-01-7.63531E-01 1.18414E+00 3.02161E-13 2.69829E-12
 -1      1342 2.19999E+01 1.31398E-01-4.00866E-01-1.28600E+00-3.24213E-13 2.23321E-12
 -1      1343 2.06770E+01 3.06757E-01-1.64815E-01-8.06009E-01-2.96922E-13 1.86116E-12
 -1      1344 2.00790E+01 1.53520E-01-7.35359E-02-4.02286E-01-2.34760E-13 1.69921E-12
 -1      1345 1.96090E+01 9.11974E-02-1.49230E-02-3.30108E-01-2.30704E-13 1.35730E-12
 -1      1346 2.09709E+01 3.69313E-01-1.04215E-01-1.27434E+00-5.18821E-13 9.91374E-13
 -1      1347 1.92516E+01 6.44444E-02 3.05033E-03-1.35544E-01-1.82318E-13 1.21611E-12
 -1      1348 1.90969E+01 4.11806E-02 1.32219E-02-1.17801E-01-1.65657E-13 9.66869E-13
 -1      1349 1.99198E+01 1.33742E-01-3.51755E-02-5.04302E-01-4.04489E-13 7.35200E-13
 -1      1350 1.89363E+01 3.14985E-02 1.32363E-02-2.84289E-02-1.22093E-13 8.66050E-13
 -1      1351 1.89163E+01 1.94017E-02 1.10399E-02-1.90393E-02-1.22571E-13 6.80365E-13
 -1      1352 1.94423E+01 5.55401E-02-8.43875E-03-1.70644E-01-2.90675E-13 5.13265E-13
 -1      1353 1.88599E+01 1.60205E-02 8.75667E-03 2.46332E-02-9.07414E-14 6.09257E-13
 -1      1354 1.89018E+01 9.07580E-03 6.41686E-03 2.92677E-02-7.81499E-14 5.00107E-13
 -1      1355 1.92326E+01 2.43847E-02-3.53779E-03-1.19279E-02-2.00518E-13 3.47155E-13
 -1      1356 1.89015E+01 7.84378E-03 4.67130E-03 5.04201E-02-7.24683E-14 4.46544E-13
 -1      1357 1.89713E+01 3.49209E-03 3.64958E-03 5.23018E-02-5.42202E-14 3.47776E-13
 -1      1358 1.91751E+01 1.01927E-02-2.22157E-03 6.67870E-02-1.47772E-13 2.57342E-13
 -1      1359 1.90004E+01 3.17122E-03 2.45659E-03 6.10702E-02-3.60485E-14 3.07457E-13
 -1      1360 1.90804E+01 3.25373E-04 2.22340E-03 6.13279E-02-5.83744E-14 2.22274E-13
 -1      1361 1.92005E+01 2.74674E-03-1.31587E-03 1.03566E-01-1.10427E-13 1.62008E-13
 -1      1362 1.91236E+01 4.40017E-04 1.34856E-03 6.30087E-02-7.31389E-14 1.87609E-13
 -1      1363 1.92038E+01-1.44729E-03 1.45336E-03 6.23254E-02-7.20965E-14 7.88562E-14
 -1      1364 1.92689E+01-1.32333E-03-5.57592E-04 1.16799E-01-1.19017E-13 8.64202E-14
 -1      1365 1.92521E+01-1.11922E-03 7.66637E-04 5.99911E-02-7.22457E-14 6.18923E-14
 -1      1366 1.93271E+01-2.35654E-03 9.89481E-04 5.88039E-02-7.27639E-14 4.63865E-15
 -1      1367 1.93565E+01-3.49100E-03-8.12714E-06 1.16528E-01-1.35964E-13 4.16864E-14
 -1      1368 1.93752E+01-1.92778E-03 4.35649E-04 5.43685E-02-7.14840E-14-3.50935E-14
 -1      1369 1.94424E+01-2.70552E-03 6.85758E-04 5.29687E-02-2.68385E-14-1.26117E-13
 -1      1370 1.94493E+01-4.49422E-03 3.31719E-04 1.08769E-01-1.11775E-13 1.07149E-14
 -1      1371 1.94873E+01-2.23865E-03 2.38847E-04 4.76789E-02-8.81562E-15-1.88948E-13
 -1      1372 1.95457E+01-2.68357E-03 4.80867E-04 4.62626E-02-4.46462E-14-2.25474E-13
 -1      1373 1.95393E+01-4.74760E-03 5.04123E-04 9.73530E-02-7.13258E-14-1.22194E-13
 -1      1374 1.95862E+01-2.21277E-03 1.23336E-04 4.09500E-02-4.94824E-14-2.37091E-13
 -1      1375 1.96360E+01-2.41288E-03 3.44620E-04 3.96502E-02-1.77926E-14-2.67261E-13
 -1      1376 1.96223E+01-4.50691E-03 5.54830E-04 8.48051E-02-7.68623E-14-2.27404E-13
 -1      1377 1.96719E+01-1.95394E-03 6.09060E-05 3.48807E-02 1.76944E-14-2.90364E-13
 -1      1378 1.97140E+01-1.97130E-03 2.59098E-04 3.37890E-02-6.50023E-15-2.84583E-13
 -1      1379 1.96967E+01-3.93458E-03 5.19472E-04 7.28274E-02-1.56056E-14-2.67918E-13
 -1      1380 1.97458E+01-1.52722E-03 3.40129E-05 2.99605E-02-1.29626E-14-3.01478E-13
 -1      1381 1.97818E+01-1.40565E-03 2.12202E-04 2.91435E-02-5.33812E-14-3.44896E-13
 -1      1382 1.97627E+01-3.13110E-03 4.22504E-04 6.25952E-02-4.13781E-14-2.82124E-13
 -1      1383 1.98105E+01-9.70129E-04 3.04866E-05 2.65541E-02-5.58830E-14-3.66989E-13
 -1      1384 1.98424E+01-7.40513E-04 1.95037E-04 2.60647E-02-5.28351E-14-4.27186E-13
 -1      1385 1.98218E+01-2.15297E-03 2.79341E-04 5.49575E-02-1.07906E-13-2.94875E-13
 -1      1386 1.98695E+01-3.00373E-04 4.10545E-05 2.49612E-02-6.14131E-14-4.25881E-13
 -1      1387 1.98995E+01 1.48177E-05 2.00463E-04 2.48480E-02-6.83527E-14-5.12361E-13
 -1      1388 1.98764E+01-1.02498E-03 9.86945E-05 5.05782E-02-1.00318E-13-2.98738E-13
 -1      1389 1.99269E+01 4.77663E-04 5.78513E-05 2.54581E-02-3.03180E-14-5.18015E-13
 -1      1390 1.99576E+01 8.60019E-04 2.22025E-04 2.57707E-02 1.38907E-14-5.32412E-13
 -1      1391 1.99298E+01 2.49860E-04-1.15378E-04 5.00337E-02-6.95475E-14-2.95822E-13
 -1      1392 1.99873E+01 1.36653E-03 7.33355E-05 2.83211E-02 3.99190E-15-5.35828E-13
 -1      1393 2.00217E+01 1.79690E-03 2.52983E-04 2.91126E-02-2.82941E-14-5.67039E-13
 -1      1394 1.99857E+01 1.68058E-03-3.61549E-04 5.38750E-02 6.36611E-15-3.84427E-13
 -1      1395 2.00561E+01 2.36827E-03 7.94286E-05 3.38305E-02-4.61262E-14-5.99161E-13
 -1      1396 2.00975E+01 2.82107E-03 2.85352E-04 3.51564E-02-4.49001E-14-6.77431E-13
 -1      1397 2.00486E+01 3.27699E-03-6.39175E-04 6.26508E-02-7.17884E-14-4.48429E-13
 -1      1398 2.01393E+01 3.47485E-03 6.68685E-05 4.22504E-02 5.70106E-15-6.86978E-13
 -1      1399 2.01913E+01 3.91078E-03 3.08939E-04 4.41621E-02-3.05348E-14-7.03834E-13
 -1      1400 2.01234E+01 5.03496E-03-9.45859E-04 7.68880E-02-3.19919E-14-4.21970E-13
 -1      1401 2.02433E+01 4.65481E-03 2.49356E-05 5.37757E-02-5.78062E-14-6.38499E-13
 -1      1402 2.03097E+01 5.01178E-03 3.10584E-04 5.63067E-02-1.93207E-14-6.37412E-13
 -1      1403 2.02154E+01 6.91597E-03-1.27428E-03 9.70141E-02-3.24921E-14-4.27528E-13
 -1      1404 2.03747E+01 5.83462E-03-5.80517E-05 6.84336E-02-7.61836E-15-6.54658E-13
 -1      1405 2.04593E+01 6.01635E-03 2.74037E-04 7.15757E-02-1.29878E-14-6.52101E-13
 -1      1406 2.03301E+01 8.81794E-03-1.60789E-03 1.23202E-01-2.62394E-14-3.77853E-13
 -1      1407 2.05399E+01 6.87304E-03-1.92705E-04 8.59239E-02-1.27351E-14-7.06682E-13
 -1      1408 2.06462E+01 6.73591E-03 1.81415E-04 8.95884E-02-7.26968E-15-7.26109E-13
 -1      1409 2.04730E+01 1.05343E-02-1.91506E-03 1.55107E-01-3.79041E-14-4.49281E-13
 -1      1410 2.07443E+01 7.52757E-03-3.83715E-04 1.05377E-01 3.42775E-14-6.66859E-13
 -1      1411 2.08743E+01 6.86807E-03 1.78094E-05 1.09337E-01 3.83049E-14-5.50466E-13
 -1      1412 2.06485E+01 1.16997E-02-2.14125E-03 1.91467E-01 3.11232E-14-3.98530E-13
 -1      1413 2.09905E+01 7.41570E-03-6.20414E-04 1.25018E-01-3.93191E-14-5.23687E-13
 -1      1414 2.11440E+01 5.96463E-03-2.18780E-04 1.28830E-01-2.82520E-14-5.82580E-13
 -1      1415 2.08591E+01 1.17244E-02-2.19919E-03 2.29528E-01 1.07853E-14-3.82586E-13
 -1      1416 2.12763E+01 5.98135E-03-8.61149E-04 1.41740E-01-1.06169E-14-6.18045E-13
 -1      1417 2.14490E+01 3.41852E-03-5.00406E-04 1.44643E-01 4.53339E-14-6.41228E-13
 -1      1418 2.11037E+01 9.73430E-03-1.95841E-03 2.64303E-01-3.43007E-14-2.58359E-13
 -1      1419 2.15918E+01 2.49380E-03-1.01226E-03 1.50660E-01 6.86552E-14-6.10465E-13
 -1      1420 2.17729E+01-1.49097E-03-7.46343E-04 1.51474E-01 5.11269E-15-5.62331E-13
 -1      1421 2.13753E+01 4.55643E-03-1.23856E-03 2.87735E-01 5.98114E-14-3.07035E-13
 -1      1422 2.19155E+01-3.86401E-03-9.09473E-04 1.44831E-01 4.50941E-14-4.92056E-13
 -1      1423 2.20851E+01-9.42358E-03-8.04790E-04 1.41913E-01 7.87763E-14-3.84489E-13
 -1      1424 2.16585E+01-5.15945E-03 1.82037E-04 2.88045E-01 9.51727E-14-3.52436E-13
 -1      1425 2.22100E+01-1.37226E-02-3.24420E-04 1.15527E-01 4.77270E-14-3.86668E-13
 -1      1426 2.23374E+01-2.05741E-02-4.65218E-04 1.06892E-01 2.54842E-14-2.62454E-13
 -1      1427 2.19264E+01-2.05295E-02 2.52032E-03 2.49842E-01 7.51372E-14-2.62631E-13
 -1      1428 2.24202E+01-2.69508E-02 9.63005E-04 5.37768E-02-2.57416E-14-2.81559E-13
 -1      1429 2.24641E+01-3.39603E-02 4.57651E-04 3.75740E-02-6.17466E-14-3.41271E-13
 -1      1430 2.21386E+01-4.15415E-02 5.86912E-03 1.56095E-01 8.74387E-15-3.71244E-13
 -1      1431 2.24752E+01-4.17385E-02 2.98496E-03-4.60005E-02-2.05985E-14-3.66724E-13
 -1      1432 2.23889E+01-4.65030E-02 1.93803E-03-7.04291E-02-4.87097E-14-3.78047E-13
 -1      1433 2.22424E+01-6.55950E-02 9.97233E-03-6.56061E-03-1.06311E-13-2.45012E-13
 -1      1434 2.22989E+01-5.36082E-02 5.31486E-03-1.79832E-01-2.74468E-14-3.51078E-13
 -1      1435 2.20442E+01-5.24553E-02 3.47797E-03-2.10293E-01 4.23064E-14-3.04697E-13
 -1      1436 2.21789E+01-8.58879E-02 1.39147E-02-2.38026E-01-5.89459E-14-2.70399E-13
 -1      1437 2.18349E+01-5.53290E-02 6.84750E-03-3.26908E-01 2.00829E-14-3.59761E-13
 -1      1438 2.14032E+01-4.44113E-02 4.00729E-03-3.56729E-01-2.86672E-14-3.45328E-13
 -1      1439 2.18989E+01-9.10732E-02 1.58855E-02-5.11611E-01 6.77028E-14-2.32432E-13
 -1      1440 2.10827E+01-3.92288E-02 6.08921E-03-4.46104E-01-4.18884E-14-2.54925E-13
 -1      1441 2.05187E+01-1.71369E-02 2.28949E-03-4.64179E-01 9.10088E-14-2.24230E-13
 -1      1442 2.13886E+01-6.86347E-02 1.34346E-02-7.64154E-01-2.68318E-14-1.57300E-13
 -1      1443 2.01344E+01-2.77851E-03 2.15231E-03-4.84212E-01 1.07150E-14-3.35273E-13
 -1      1444 1.95455E+01 2.63410E-02-2.03951E-03-4.78805E-01-4.50547E-14-2.83999E-13
 -1      1445 2.06987E+01-1.31574E-02 4.83056E-03-9.02233E-01 4.75068E-14-1.64056E-13
 -1      1446 1.91845E+01 4.52382E-02-3.97990E-03-4.00576E-01 1.64920E-14-2.93106E-13
 -1      1447 1.87195E+01 7.11025E-02-7.44283E-03-3.66815E-01-1.64027E-14-3.08333E-13
 -1      1448 1.99612E+01 6.40754E-02-8.74285E-03-8.36640E-01-4.56185E-14-1.89661E-13
 -1      1449 1.84832E+01 8.48326E-02-9.30292E-03-1.98625E-01-5.76822E-14-3.80643E-13
 -1      1450 1.82758E+01 9.56409E-02-1.08239E-02-1.44822E-01-5.36775E-14-4.33515E-13
 -1      1451 1.93660E+01 1.33716E-01-2.19993E-02-5.38785E-01-7.63434E-14-3.29362E-13
 -1      1452 1.82349E+01 9.56719E-02-1.06704E-02 6.09466E-02 6.38378E-15-3.68107E-13
 -1      1453 1.83406E+01 8.59050E-02-9.68631E-03 1.15146E-01 1.32374E-13-3.15463E-13
 -1      1454 1.90897E+01 1.62522E-01-2.77391E-02-8.19626E-02-7.65533E-14-3.62850E-13
 -1      1455 1.84963E+01 7.18854E-02-7.43503E-03 2.85229E-01 1.01183E-13-3.27949E-13
 -1      1456 1.88622E+01 4.65091E-02-4.44609E-03 3.19740E-01-7.65239E-14-3.39995E-13
 -1      1457 1.92068E+01 1.35107E-01-2.23468E-02 3.77384E-01 1.41540E-13-3.79908E-13
 -1      1458 1.91449E+01 2.66372E-02-1.91442E-03 3.99543E-01-1.16074E-13-3.73358E-13
 -1      1459 1.96365E+01-2.55849E-03 1.87827E-03 4.05193E-01-1.48736E-13-5.47853E-13
 -1      1460 1.96466E+01 6.51916E-02-9.06217E-03 6.79912E-01-1.42562E-13-3.23673E-13
 -1      1461 1.99432E+01-1.82940E-02 2.73395E-03 3.84129E-01-1.61180E-13-6.15816E-13
 -1      1462 2.04082E+01-4.04995E-02 6.17873E-03 3.65300E-01-1.48573E-13-8.41098E-13
 -1      1463 2.02321E+01-1.40557E-02 4.94381E-03 7.46468E-01-2.90899E-13-6.46741E-13
 -1      1464 2.06490E+01-4.68868E-02 4.81902E-03 2.72022E-01 2.18358E-14-8.15681E-13
 -1      1465 2.09756E+01-5.73230E-02 7.30496E-03 2.40707E-01 5.20304E-14-8.39644E-13
 -1      1466 2.07686E+01-7.19592E-02 1.39759E-02 6.02404E-01-6.34293E-14-5.99672E-13
 -1      1467 2.11016E+01-5.50315E-02 4.58652E-03 1.19487E-01 1.76152E-14-5.21545E-13
 -1      1468 2.12441E+01-5.46508E-02 6.05419E-03 8.76210E-02 3.99698E-14-4.80449E-13
 -1      1469 2.11198E+01-9.51992E-02 1.65774E-02 3.39362E-01 1.89500E-13-2.84696E-13
 -1      1470 2.12492E+01-4.72136E-02 3.16162E-03-2.31192E-02 4.13458E-14-5.49584E-13
 -1      1471 2.12212E+01-3.96190E-02 3.76162E-03-4.76948E-02 1.71465E-13-4.21723E-13
 -1      1472 2.12351E+01-8.77398E-02 1.42288E-02 5.82324E-02 7.70217E-14-1.30398E-13
 -1      1473 2.11304E+01-3.03063E-02 1.40184E-03-1.24210E-01 3.13545E-13-3.48835E-13
 -1      1474 2.09832E+01-1.91360E-02 1.30398E-03-1.37863E-01 1.76173E-13-3.77250E-14
 -1      1475 2.11366E+01-6.09832E-02 9.24739E-03-1.66936E-01 3.28487E-13-1.78609E-13
 -1      1476 2.08371E+01-9.75226E-03-5.57545E-04-1.69811E-01-3.10829E-14-1.39836E-13
 -1      1477 2.06398E+01 2.33920E-03-1.12465E-03-1.71531E-01-1.49878E-14-2.17458E-13
 -1      1478 2.08908E+01-2.55458E-02 3.33515E-03-2.96573E-01 9.98815E-14-2.42141E-13
 -1      1479 2.04829E+01 1.13317E-02-2.90363E-03-1.57399E-01 2.89635E-14-9.43932E-14
 -1      1480 2.03082E+01 2.21510E-02-2.72742E-03-1.47075E-01 6.51866E-14-1.07932E-13
 -1      1481 2.05825E+01 1.23802E-02-2.21700E-03-3.17431E-01 5.24573E-14-2.86592E-13
 -1      1482 2.01778E+01 3.17008E-02-3.76388E-03-9.16683E-02 1.71964E-14-1.63292E-13
 -1      1483 2.00864E+01 3.23514E-02-2.02237E-05-7.30901E-02 2.31004E-14-1.06101E-13
 -1      1484 2.02924E+01 5.00736E-02-5.18658E-03-2.35934E-01 9.20796E-14-1.22452E-13
 -1      1485 1.99972E+01 9.81458E-03 2.08477E-03 5.18622E-03 2.65786E-14 2.76645E-15
 -1      1486 2.00630E+01 5.35300E-02-2.36051E-03-6.86605E-02 6.39068E-14-1.16320E-14
 -1      1487 2.02579E+01 7.54787E-02-1.52103E-01 4.84095E-01 2.70159E-13 2.09778E-12
 -1      1488 2.15285E+01 2.16127E-01-2.29289E-01 7.21097E-01 2.33938E-13 2.53302E-12
 -1      1489 2.17272E+01 8.81804E-01-8.54593E-02 2.06529E+00 4.67446E-13 1.61285E-12
 -1      1490 1.93290E+01 3.23774E-02-2.13365E-02 1.86257E-01 1.92277E-13 1.57636E-12
 -1      1491 1.97500E+01 1.13612E-01-6.27070E-02 2.38263E-01 1.91062E-13 1.89624E-12
 -1      1492 2.03015E+01 1.87685E-01-5.51884E-02 7.86633E-01 4.01908E-13 1.23610E-12
 -1      1493 1.89466E+01 1.50972E-02 5.66756E-03 5.37788E-02 1.34924E-13 1.19140E-12
 -1      1494 1.90855E+01 5.16129E-02 9.74433E-04 8.00825E-02 1.41761E-13 1.42976E-12
 -1      1495 1.95559E+01 7.18309E-02-1.21516E-02 2.99471E-01 3.12438E-13 9.25666E-13
 -1      1496 1.88354E+01 7.11032E-03 6.97935E-03-8.67636E-03 1.10372E-13 9.10515E-13
 -1      1497 1.88504E+01 2.58406E-02 1.10886E-02 5.70805E-03 9.33247E-14 1.07686E-12
 -1      1498 1.92199E+01 3.10180E-02-2.45624E-03 8.40367E-02 2.19016E-13 6.70812E-13
 -1      1499 1.88605E+01 3.19889E-03 4.78647E-03-3.88803E-02 8.35922E-14 6.84799E-13
 -1      1500 1.88172E+01 1.37860E-02 8.52103E-03-3.07794E-02 7.90444E-14 8.34810E-13
 -1      1501 1.91026E+01 1.32405E-02-1.61001E-03-2.08607E-02 1.75333E-13 4.94618E-13
 -1      1502 1.89536E+01 1.04398E-03 3.29771E-03-5.22641E-02 4.71897E-14 5.77455E-13
 -1      1503 1.88837E+01 7.25695E-03 5.36876E-03-4.78116E-02 4.45631E-14 6.52024E-13
 -1      1504 1.91030E+01 4.51742E-03-1.62386E-03-7.22630E-02 1.08994E-13 3.69029E-13
 -1      1505 1.90768E+01-1.98292E-04 2.51470E-03-5.61806E-02 3.76492E-14 4.99349E-13
 -1      1506 1.89974E+01 3.42696E-03 3.43305E-03-5.39858E-02 3.30372E-14 5.47952E-13
 -1      1507 1.91649E+01-1.28804E-04-1.36817E-03-9.48303E-02 6.63598E-14 2.82727E-13
 -1      1508 1.92084E+01-8.93767E-04 2.04861E-03-5.46804E-02 2.21972E-14 4.23011E-13
 -1      1509 1.91289E+01 1.10642E-03 2.33241E-03-5.39009E-02 3.26556E-14 4.59952E-13
 -1      1510 1.92560E+01-2.63047E-03-9.93415E-04-1.00994E-01 5.48856E-14 2.50076E-13
 -1      1511 1.93360E+01-1.23646E-03 1.70191E-03-5.02246E-02 8.04824E-14 2.96174E-13
 -1      1512 1.92618E+01-2.78808E-04 1.65695E-03-5.03123E-02 4.38596E-14 3.62830E-13
 -1      1513 1.93574E+01-3.86975E-03-6.53427E-04-9.77959E-02 9.28548E-14 1.39294E-13
 -1      1514 1.94530E+01-1.34417E-03 1.40758E-03-4.43900E-02 5.76368E-14 1.58692E-13
 -1      1515 1.93866E+01-1.04887E-03 1.20080E-03-4.49748E-02 6.96699E-14 2.49798E-13
 -1      1516 1.94580E+01-4.32134E-03-3.95190E-04-8.95669E-02 1.24804E-13 2.22714E-14
 -1      1517 1.95564E+01-1.29301E-03 1.14723E-03-3.82158E-02 8.71026E-14-7.80886E-15
 -1      1518 1.94989E+01-1.40035E-03 8.75015E-04-3.90414E-02 7.12200E-14 1.23169E-13
 -1      1519 1.95519E+01-4.26901E-03-2.16777E-04-7.91002E-02 1.06456E-13 6.81448E-15
 -1      1520 1.96458E+01-1.13238E-03 9.15574E-04-3.23995E-02 2.17371E-14-1.06148E-13
 -1      1521 1.95970E+01-1.45968E-03 6.38464E-04-3.32841E-02 3.16112E-14-5.31985E-14
 -1      1522 1.96363E+01-3.89145E-03-1.05021E-04-6.82494E-02 9.45344E-14-1.88718E-14
 -1      1523 1.97225E+01-8.92603E-04 7.09575E-04-2.74216E-02 1.62882E-14-1.38958E-13
 -1      1524 1.96813E+01-1.30798E-03 4.68513E-04-2.82320E-02 2.81272E-15-1.40316E-13
 -1      1525 1.97107E+01-3.30135E-03-4.81457E-05-5.82735E-02 3.63265E-14-1.02090E-13
 -1      1526 1.97888E+01-5.89475E-04 5.25646E-04-2.36341E-02 7.34604E-15-2.07406E-13
 -1      1527 1.97537E+01-9.94009E-04 3.50676E-04-2.42655E-02 1.41903E-14-1.99860E-13
 -1      1528 1.97762E+01-2.56561E-03-3.84793E-05-5.00601E-02 4.45268E-14-2.11415E-13
 -1      1529 1.98481E+01-2.27115E-04 3.59128E-04-2.13258E-02-3.59275E-14-1.71147E-13
 -1      1530 1.98172E+01-5.41607E-04 2.74953E-04-2.16872E-02-1.82504E-15-1.88260E-13
 -1      1531 1.98349E+01-1.71693E-03-7.26200E-05-4.42852E-02-8.51478E-16-2.06091E-13
 -1      1532 1.99046E+01 2.00150E-04 2.04204E-04-2.07758E-02 5.71377E-15-1.99642E-13
 -1      1533 1.98755E+01 4.58421E-05 2.34294E-04-2.07762E-02-1.69676E-14-2.00619E-13
 -1      1534 1.98899E+01-7.61136E-04-1.51317E-04-4.15333E-02-1.45934E-14-2.59270E-13
 -1      1535 1.99631E+01 7.06665E-04 5.38120E-05-2.22973E-02 5.77727E-14-2.91841E-13
 -1      1536 1.99332E+01 7.82831E-04 2.23764E-04-2.18342E-02 8.07803E-14-1.93722E-13
 -1      1537 1.99452E+01 3.18047E-04-2.79538E-04-4.23952E-02 7.20230E-14-2.84349E-13
 -1      1538 2.00298E+01 1.31477E-03-1.00586E-04-2.62768E-02-3.70013E-14-3.28123E-13
 -1      1539 1.99957E+01 1.70043E-03 2.39923E-04-2.52244E-02-4.41400E-15-3.33168E-13
 -1      1540 2.00055E+01 1.55613E-03-4.66787E-04-4.75500E-02 7.04568E-14-1.88404E-13
 -1      1541 2.01115E+01 2.05426E-03-2.69453E-04-3.32102E-02-7.53011E-15-2.32299E-13
 -1      1542 2.00695E+01 2.84574E-03 2.80185E-04-3.14074E-02-3.85441E-14-2.83617E-13
 -1      1543 2.00766E+01 3.00601E-03-7.27643E-04-5.78370E-02-5.95341E-14-2.63685E-13
 -1      1544 2.02171E+01 2.96155E-03-4.65986E-04-4.37349E-02-5.16131E-14-1.63035E-13
 -1      1545 2.01623E+01 4.28150E-03 3.41934E-04-4.09730E-02-1.17330E-14-1.97487E-13
 -1      1546 2.01652E+01 4.73645E-03-1.08252E-03-7.43205E-02-5.87797E-14-1.32201E-13
 -1      1547 2.03568E+01 4.07720E-03-7.07339E-04-5.86563E-02 2.71362E-14-1.60624E-13
 -1      1548 2.02836E+01 6.08445E-03 4.21067E-04-5.46661E-02-2.62056E-14-1.85310E-13
 -1      1549 2.02798E+01 6.82958E-03-1.55848E-03-9.83432E-02-3.56835E-14-2.53640E-13
 -1      1550 2.05435E+01 5.43980E-03-1.01609E-03-7.89579E-02 1.60119E-13-3.56692E-13
 -1      1551 2.04447E+01 8.33975E-03 5.09536E-04-7.33984E-02 1.14599E-13-1.49509E-13
 -1      1552 2.04301E+01 9.37443E-03-2.18960E-03-1.31558E-01 1.08394E-13-2.52733E-13
 -1      1553 2.07924E+01 7.07125E-03-1.42108E-03-1.05771E-01-1.10350E-14-5.17253E-13
 -1      1554 2.06595E+01 1.11253E-02 5.91398E-04-9.82271E-02 5.09675E-14-4.33697E-13
 -1      1555 2.06281E+01 1.24503E-02-3.01574E-03-1.75905E-01 1.46296E-13-3.29298E-13
 -1      1556 2.11217E+01 8.94456E-03-1.95459E-03-1.40256E-01-1.78008E-13-2.65170E-13
 -1      1557 2.09443E+01 1.44741E-02 6.37204E-04-1.30257E-01-1.42186E-13-5.30288E-13
 -1      1558 2.08874E+01 1.60877E-02-4.07660E-03-2.33476E-01-1.00946E-13-4.24117E-13
 -1      1559 2.15516E+01 1.09186E-02-2.63769E-03-1.83292E-01-1.52079E-14-4.90866E-14
 -1      1560 2.13179E+01 1.82924E-02 5.98197E-04-1.70382E-01-2.91464E-14-1.04968E-13
 -1      1561 2.12237E+01 2.01820E-02-5.39457E-03-3.06120E-01-1.53335E-13-2.60507E-13
 -1      1562 2.21027E+01 1.26140E-02-3.43437E-03-2.34791E-01 4.91590E-14-9.10418E-14
 -1      1563 2.18006E+01 2.21944E-02 4.06912E-04-2.18715E-01-1.77375E-15-7.02502E-14
 -1      1564 2.16530E+01 2.43182E-02-6.93243E-03-3.94558E-01 4.44176E-15-1.85154E-13
 -1      1565 2.27915E+01 1.31996E-02-4.13654E-03-2.92333E-01 1.22315E-13-2.50973E-13
 -1      1566 2.24109E+01 2.51971E-02 2.53667E-06-2.73437E-01 1.10326E-13-7.09554E-14
 -1      1567 2.21896E+01 2.74384E-02-8.50005E-03-4.96567E-01 1.28049E-13-1.15775E-13
 -1      1568 2.36209E+01 1.10755E-02-4.12900E-03-3.48680E-01 6.78927E-15-3.83346E-13
 -1      1569 2.31593E+01 2.52228E-02-5.81152E-04-3.28707E-01 1.66614E-14-2.76975E-13
 -1      1570 2.28408E+01 2.72759E-02-9.57317E-03-6.03617E-01 7.13661E-14-1.75103E-13
 -1      1571 2.45631E+01 3.56090E-03-2.03824E-03-3.87862E-01-4.25928E-14-2.81997E-13
 -1      1572 2.40365E+01 1.84668E-02-1.01612E-03-3.71302E-01-3.35157E-14-3.60115E-13
 -1      1573 2.35979E+01 1.95637E-02-9.00763E-03-6.95286E-01-5.58538E-15-1.84614E-13
 -1      1574 2.55331E+01-1.29582E-02 4.47607E-03-3.80436E-01-3.11929E-14-2.93147E-13
 -1      1575 2.49922E+01-9.09645E-04-3.93022E-04-3.76339E-01 5.38220E-15-2.82621E-13
 -1      1576 2.44214E+01-2.55958E-03-4.76814E-03-7.31636E-01-4.35407E-14-1.66298E-13
 -1      1577 2.63555E+01-4.12887E-02 1.79329E-02-2.81557E-01-6.96509E-14-1.69247E-13
 -1      1578 2.59074E+01-3.93513E-02 2.89994E-03-3.04757E-01-8.91943E-14-3.34649E-13
 -1      1579 2.52209E+01-4.75739E-02 5.79177E-03-6.47020E-01-8.00237E-14-1.53181E-13
 -1      1580 2.67464E+01-7.81684E-02 3.77331E-02-4.17323E-02 9.89061E-14-1.18041E-13
 -1      1581 2.65663E+01-9.80184E-02 1.03362E-02-1.10071E-01 3.06734E-14-7.56374E-14
 -1      1582 2.58367E+01-1.19447E-01 2.41941E-02-3.56296E-01-2.04628E-14 4.17461E-14
 -1      1583 2.63558E+01-1.05185E-01 5.37293E-02 3.53095E-01 1.31249E-14-2.33237E-13
 -1      1584 2.66592E+01-1.60055E-01 2.04497E-02 2.31675E-01 5.00537E-14-1.61281E-13
 -1      1585 2.60403E+01-2.02995E-01 4.62000E-02 2.03660E-01 1.11737E-13 4.16299E-14
 -1      1586 2.49449E+01-8.67777E-02 4.35878E-02 8.07518E-01-4.19682E-14-8.01859E-14
 -1      1587 2.58723E+01-1.79577E-01 2.44655E-02 6.60163E-01-2.61804E-14-1.21833E-13
 -1      1588 2.55943E+01-2.42424E-01 5.80651E-02 9.75640E-01-7.55437E-14 8.53380E-14
 -1      1589 2.27007E+01 2.76407E-03-1.20846E-02 1.07266E+00 1.11480E-13-2.52950E-13
 -1      1590 2.41194E+01-1.00475E-01 7.86679E-03 9.76253E-01 6.58362E-14-1.33435E-13
 -1      1591 2.44168E+01-1.53661E-01 3.92573E-02 1.66468E+00 7.31247E-14-1.83048E-14
 -1      1592 2.04502E+01 1.28974E-01-9.64961E-02 8.62095E-01-2.63817E-14-5.02307E-13
 -1      1593 2.18322E+01 7.86350E-02-3.45691E-02 9.06079E-01 1.53991E-14-3.62141E-13
 -1      1594 2.28044E+01 9.69660E-02-1.51703E-02 1.78123E+00 1.06278E-13-1.64792E-13
 -1      1595 1.93734E+01 1.89056E-01-1.41140E-01 1.57744E-01 9.60551E-14-4.62418E-13
 -1      1596 2.00009E+01 2.46699E-01-7.73220E-02 3.46964E-01-7.26780E-14-4.67765E-13
 -1      1597 2.14905E+01 3.87151E-01-7.02047E-02 1.00245E+00-2.80331E-15-3.73233E-13
 -1      1598 2.00997E+01 1.24495E-01-9.65012E-02-6.25959E-01 2.06883E-14-5.82964E-13
 -1      1599 1.96149E+01 2.63267E-01-7.84779E-02-4.10018E-01 1.74985E-13-4.00891E-13
 -1      1600 2.12232E+01 4.66168E-01-8.20053E-02-3.46284E-01 1.32873E-13-2.23654E-13
 -1      1601 2.21045E+01-1.63216E-03-1.87753E-03-9.93563E-01 5.51499E-14-5.15393E-13
 -1      1602 2.08423E+01 1.23387E-01-3.24353E-02-8.83999E-01-1.43965E-14-5.34475E-13
 -1      1603 2.21081E+01 2.44016E-01-5.01086E-02-1.42316E+00 2.62741E-14 4.47073E-14
 -1      1604 2.41985E+01-8.82341E-02 6.55522E-02-8.30007E-01-8.97477E-14-5.42205E-13
 -1      1605 2.28808E+01-4.38138E-02 2.02639E-02-8.54487E-01 8.22649E-14-5.05249E-13
 -1      1606 2.35146E+01-8.06354E-02-1.05054E-02-1.64238E+00 5.05143E-14 4.18138E-14
 -1      1607 2.54755E+01-1.03548E-01 7.68146E-02-3.87023E-01-5.65763E-14-3.86649E-13
 -1      1608 2.46515E+01-1.31727E-01 4.40040E-02-4.82568E-01-2.11955E-13-6.56059E-13
 -1      1609 2.46555E+01-2.67557E-01 1.29391E-02-1.11202E+00-1.57874E-13-1.60868E-13
 -1      1610 2.56990E+01-7.64039E-02 5.38143E-02 4.97351E-02-5.13357E-14-2.84002E-13
 -1      1611 2.55143E+01-1.34419E-01 3.82654E-02-4.90036E-02-3.77857E-14-3.68830E-13
 -1      1612 2.51068E+01-2.72990E-01 1.94874E-02-3.16397E-01-1.30219E-13-2.92301E-13
 -1      1613 2.50887E+01-4.02092E-02 2.44138E-02 3.43398E-01 1.83108E-13-5.07309E-13
 -1      1614 2.54093E+01-9.48877E-02 2.07447E-02 2.73511E-01 1.67455E-13-3.11886E-13
 -1      1615 2.48572E+01-1.85847E-01 1.64346E-02 3.58102E-01 1.04123E-13-3.00260E-13
 -1      1616 2.40038E+01-1.12261E-02 3.17214E-03 4.81276E-01 5.96797E-14-7.46635E-13
 -1      1617 2.46102E+01-4.91253E-02 5.26280E-03 4.44136E-01 1.22887E-13-6.85035E-13
 -1      1618 2.41134E+01-8.74929E-02 1.08134E-02 7.66531E-01 2.94414E-13-3.96298E-13
 -1      1619 2.27603E+01 8.55835E-03-9.00075E-03 5.01141E-01 1.19567E-13-9.30426E-13
 -1      1620 2.34612E+01-1.19828E-02-3.58740E-03 4.89695E-01 1.40374E-13-8.29860E-13
 -1      1621 2.31239E+01-1.37897E-02 5.37295E-03 9.24200E-01 1.57059E-13-4.95612E-13
 -1      1622 2.15903E+01 2.35445E-02-1.66545E-02 4.38703E-01-1.31913E-14-1.00126E-12
 -1      1623 2.22470E+01 1.71201E-02-7.76625E-03 4.46973E-01 2.85319E-14-8.69849E-13
 -1      1624 2.20959E+01 3.52750E-02-3.37387E-04 8.94956E-01 1.32253E-13-3.51066E-13
 -1      1625 2.06703E+01 3.88204E-02-2.08745E-02 3.07750E-01-4.07079E-14-9.55231E-13
 -1      1626 2.11741E+01 4.49321E-02-1.01816E-02 3.36680E-01 1.42880E-14-9.40692E-13
 -1      1627 2.11826E+01 7.43653E-02-6.96222E-03 7.26309E-01-1.69795E-14-4.23455E-13
 -1      1628 2.01470E+01 5.57471E-02-4.62663E-03 1.22973E-01-2.43781E-14-6.61341E-13
 -1      1629 2.03961E+01 6.98280E-02-9.04937E-03 1.67924E-01-6.54169E-14-8.42184E-13
 -1      1630 2.04900E+01 1.13007E-01-1.19587E-02 4.38505E-01-1.11043E-13-2.66752E-13
 -1      1631 2.00236E+01 4.34155E-02-1.12496E-04 1.34565E-02-2.84982E-13-2.69451E-13
 -1      1632 2.00663E+01 5.36467E-01-1.05013E-02 2.63476E-01-1.30368E-13 9.41378E-14
 -1      1633 2.00803E+01 2.70026E-01-2.70185E-04 2.13296E-01-2.87750E-13 3.20037E-13
 -1      1634 2.00318E+01 1.32652E+00-4.64524E-03 4.14963E-01 2.19082E-13 7.56973E-14
 -1      1635 2.00532E+01 8.53128E-01-6.94223E-03 3.91352E-01 1.53856E-13 7.57437E-14
 -1      1636 2.01214E+01 7.46416E-01-1.17864E-02 6.31892E-01-4.71177E-14 3.38925E-13
 -1      1637 1.99961E+01 2.27372E+00-1.50612E-04 4.72049E-01-1.90119E-13-1.58035E-13
 -1      1638 2.00177E+01 1.71540E+00-3.40481E-03 4.68497E-01 6.24709E-14-8.74664E-14
 -1      1639 2.00451E+01 1.44489E+00-6.70434E-03 8.48612E-01 1.08510E-13-2.08862E-13
 -1      1640 1.99648E+01 3.20183E+00 2.37226E-03 4.36572E-01-1.48978E-13-5.21597E-14
 -1      1641 1.99837E+01 2.67357E+00-5.61620E-05 4.50980E-01-2.31572E-13 2.47003E-13
 -1      1642 1.99844E+01 2.22783E+00 2.95496E-03 8.86370E-01-8.75966E-14 5.47483E-14
 -1      1643 1.99418E+01 3.93391E+00 3.58985E-03 3.24530E-01-2.19071E-13-2.52281E-14
 -1      1644 1.99549E+01 3.53695E+00 1.87981E-03 3.52396E-01-1.34233E-13-2.66237E-13
 -1      1645 1.99336E+01 2.95758E+00 1.18996E-02 7.57975E-01-2.47901E-13-1.49692E-13
 -1      1646 1.99304E+01 4.36975E+00 3.91064E-03 1.56799E-01-1.94330E-13-1.24915E-13
 -1      1647 1.99362E+01 4.15892E+00 3.12521E-03 1.93688E-01-2.86212E-13 3.73035E-14
 -1      1648 1.98989E+01 3.51321E+00 1.82285E-02 4.98084E-01-1.93095E-13-1.00370E-13
 -1      1649 1.99336E+01 4.43042E+00 3.16057E-03-2.96749E-02-1.99360E-13-8.38617E-14
 -1      1650 1.99306E+01 4.43999E+00 3.14809E-03 7.61922E-03-9.83488E-14-1.33767E-13
 -1      1651 1.98854E+01 3.80354E+00 2.08597E-02 1.58338E-01-7.44702E-14-8.34064E-14
 -1      1652 1.99494E+01 4.13051E+00 1.57637E-03-1.96666E-01 2.50189E-13 2.99540E-13
 -1      1653 1.99392E+01 4.34250E+00 2.26452E-03-1.66510E-01-1.05920E-13 9.22777E-14
 -1      1654 1.98952E+01 3.78237E+00 1.89644E-02-1.88412E-01 1.15106E-13 6.85086E-14
 -1      1655 1.99722E+01 3.55104E+00-3.21150E-04-3.14626E-01 1.94372E-13 9.96902E-15
 -1      1656 1.99583E+01 3.91139E+00 8.82595E-04-2.96466E-01 7.39530E-14 2.83123E-13
 -1      1657 1.99236E+01 3.47339E+00 1.34544E-02-4.74524E-01 1.80253E-13 1.93318E-13
 -1      1658 1.99952E+01 2.81194E+00-1.84151E-03-3.70532E-01-5.61353E-13-4.72899E-13
 -1      1659 1.99815E+01 3.24839E+00-3.40969E-04-3.65364E-01 9.49726E-14-3.34595E-13
 -1      1660 1.99612E+01 2.95240E+00 6.32435E-03-6.55259E-01-1.23532E-13-3.61406E-13
 -1      1661 2.00131E+01 2.04901E+00-2.54419E-03-3.69017E-01-8.68061E-13 3.62251E-14
 -1      1662 2.00023E+01 2.48500E+00-9.67239E-04-3.74186E-01-5.53849E-13-2.80178E-13
 -1      1663 1.99976E+01 2.32650E+00-2.36687E-04-7.18674E-01-5.96953E-14-6.81927E-13
 -1      1664 2.00248E+01 1.33457E+00-2.70640E-03-3.24694E-01-2.15099E-13 4.18986E-13
 -1      1665 2.00171E+01 1.73079E+00-1.16256E-03-3.36717E-01-7.45584E-13 4.30965E-13
 -1      1666 2.00249E+01 1.68879E+00-4.97918E-03-6.82560E-01-9.03019E-14 3.86585E-13
 -1      1667 2.00309E+01 7.49889E-01-2.69160E-03-2.54636E-01 9.57246E-14 1.29539E-13
 -1      1668 2.00260E+01 1.06375E+00-1.22764E-03-2.69614E-01-1.85768E-13 2.86085E-13
 -1      1669 2.00426E+01 1.10909E+00-7.74926E-03-5.76108E-01-2.73770E-14 5.07579E-13
 -1      1670 2.00371E+01 3.39661E-01 4.95520E-04-1.71756E-01 1.31159E-13-3.38041E-14
 -1      1671 2.00282E+01 5.44427E-01-2.34925E-03-1.86694E-01 1.81150E-13 2.69619E-15
 -1      1672 2.00545E+01 6.40908E-01-8.24463E-03-4.28050E-01-4.45277E-14 6.93135E-14
 -1      1673 2.00564E+01 1.32113E-01 4.40785E-03-1.14852E-01-1.67496E-14-1.56245E-13
 -1      1674 2.00544E+01 2.28311E-01-1.51061E-03-1.46215E-01 2.13501E-13-2.15301E-13
 -1      1675 2.00901E+01 3.37725E-01-5.45175E-03-3.08473E-01-2.18543E-14-7.08140E-14
 -1      1676 2.01471E+01 1.49391E-01-2.86769E-03-2.23432E-01-4.19438E-14-1.42342E-13
 -1      1677-6.93951E-01-1.58600E+01-1.77687E+00-1.16365E+00 1.20359E-12 6.89893E-13
 -1      1678-6.39649E-01-1.77681E+01-1.92417E+00 1.87531E-01 3.05145E-13 6.19726E-13
 -1      1679 8.86102E-01-9.55805E+00-1.38846E+00-1.91530E-01 1.08868E-12 6.33105E-14
 -1      1680 3.17543E-01-1.47394E+01-1.87841E+00-5.91627E-01 1.53633E-12 9.08926E-14
 -1      1681 6.50382E+00-1.17459E+00-6.82622E-01 4.14650E+00 8.26006E-13 7.24198E-13
 -1      1682 3.34638E+00-7.23550E+00-1.48734E+00 1.07339E+00 7.82485E-13 3.81084E-13
 -1      1683 1.85564E+01 4.21847E+00 2.08481E-01 9.66069E+00 7.68940E-13 9.31255E-13
 -1      1684 1.15977E+01 5.46814E-01-7.14048E-01 5.74691E+00 7.67830E-13 6.23501E-13
 -1      1685 3.30900E+01 6.22651E+00 1.04956E+00 1.25662E+01 6.24167E-13 9.38805E-13
 -1      1686 2.37650E+01 5.69062E+00 1.33729E-01 1.04460E+01 7.19869E-13 9.60121E-13
 -1      1687 4.73263E+01 5.26186E+00 1.74635E+00 1.11165E+01 4.44311E-13 7.80487E-13
 -1      1688 3.83124E+01 6.72522E+00 1.01838E+00 1.24441E+01 6.51701E-13 1.00187E-12
 -1      1689 5.61189E+01 3.69372E+00 2.04032E+00 4.73516E+00 3.31457E-13 4.48031E-13
 -1      1690 5.10189E+01 5.09185E+00 1.70178E+00 9.32379E+00 4.76078E-13 7.85816E-13
 -1      1691 5.50907E+01 4.05540E+00 1.80218E+00-3.80034E+00 5.10147E-13-6.53921E-13
 -1      1692 5.63532E+01 3.86460E+00 1.94867E+00 2.12223E+00 4.44589E-13 2.22045E-15
 -1      1693 4.56520E+01 5.47795E+00 1.27053E+00-9.61440E+00 6.22710E-13-1.24833E-12
 -1      1694 5.26697E+01 4.00244E+00 1.76451E+00-5.90867E+00 4.86167E-13-8.03468E-13
 -1      1695 3.22973E+01 6.46667E+00 6.08013E-01-1.17823E+01 9.28591E-13-1.53588E-12
 -1      1696 4.17741E+01 5.46630E+00 1.39680E+00-1.17288E+01 7.55784E-13-1.36580E-12
 -1      1697 1.81197E+01 3.18880E+00-3.14607E-01-7.93179E+00 1.29552E-12-1.33882E-12
 -1      1698 2.71748E+01 5.05946E+00 6.47308E-01-1.11134E+01 9.50129E-13-1.34004E-12
 -1      1699 7.35081E+00-2.43923E+00-1.08683E+00-3.47148E+00 1.65068E-12-1.14730E-12
 -1      1700 1.24285E+01 2.12350E+00-2.37593E-01-7.11111E+00 1.51279E-12-1.30396E-12
 -1      1701 1.80908E+00-1.00262E+01-1.60981E+00-1.58164E-02 1.44107E-12-8.63559E-13
 -1      1702 3.61370E+00-4.31896E+00-9.82531E-01-1.93717E+00 1.67288E-12-1.17290E-12
 -1      1703-9.25727E-02-1.56976E+01-1.77004E+00 3.53006E-01 9.81937E-13-3.55549E-13
 -1      1704 1.20489E-01-1.16896E+01-1.44365E+00 7.11923E-01 1.25411E-12-6.76362E-13
 -1      1705-7.81417E-01-1.73470E+01-1.86934E+00-4.27843E-01 1.73916E-13-4.26770E-13
 -1      1706-8.63253E-01-1.69920E+01-1.83922E+00 1.20321E+00 6.96054E-13-3.06255E-13
 -1      1707-3.16158E-01-1.32557E+01-1.57051E+00-8.05910E-01-9.13825E-13-5.91305E-13
 -1      1708-3.80320E-01-1.67680E+01-1.89378E+00 6.16847E-02-1.02418E-13-4.70235E-13
 -1      1709 2.74849E+00-5.59077E+00-9.81557E-01 1.67139E+00-1.47926E-12-9.37250E-13
 -1      1710 1.38928E+00-1.12911E+01-1.59245E+00 2.50295E-01-1.16229E-12-6.28247E-13
 -1      1711 9.30287E+00 1.65894E+00-3.05917E-01 6.09371E+00-1.78457E-12-1.76603E-12
 -1      1712 5.48893E+00-3.31552E+00-1.08629E+00 2.88373E+00-1.67799E-12-1.26577E-12
 -1      1713 2.07128E+01 5.99919E+00 4.52100E-01 1.09424E+01-1.80433E-12-2.01628E-12
 -1      1714 1.35128E+01 3.35765E+00-4.28078E-01 7.42727E+00-1.83431E-12-1.89804E-12
 -1      1715 3.46870E+01 6.48022E+00 1.09337E+00 1.27885E+01-1.16973E-12-1.76148E-12
 -1      1716 2.57899E+01 6.74678E+00 3.22538E-01 1.14970E+01-1.67855E-12-1.89493E-12
 -1      1717 4.73498E+01 4.80580E+00 1.54450E+00 9.40460E+00-6.41362E-13-1.15152E-12
 -1      1718 3.93594E+01 6.36780E+00 9.82943E-01 1.14487E+01-9.27119E-13-1.53222E-12
 -1      1719 5.49362E+01 3.54728E+00 1.85003E+00 3.27101E+00-2.33202E-13-9.10549E-13
 -1      1720 5.09701E+01 4.66574E+00 1.57844E+00 7.95126E+00-3.99264E-13-1.17506E-12
 -1      1721 5.37215E+01 4.03162E+00 1.68567E+00-4.65959E+00-4.42424E-13-1.22680E-14
 -1      1722 5.52139E+01 3.61518E+00 1.80703E+00 7.41232E-01-3.77476E-13-7.22131E-13
 -1      1723 4.49913E+01 5.77763E+00 1.25594E+00-1.03264E+01-6.30718E-13 6.36713E-13
 -1      1724 5.14255E+01 4.21772E+00 1.68750E+00-6.80541E+00-4.22912E-13 7.22755E-14
 -1      1725 3.26387E+01 6.86104E+00 7.01201E-01-1.21444E+01-1.04672E-12 1.22879E-12
 -1      1726 4.11817E+01 5.77051E+00 1.34498E+00-1.18947E+01-7.66914E-13 9.33587E-13
 -1      1727 1.92927E+01 5.47591E+00-2.93572E-02-9.73439E+00-1.45561E-12 1.53388E-12
 -1      1728 2.75982E+01 6.60961E+00 8.11211E-01-1.24190E+01-1.19893E-12 1.43929E-12
 -1      1729 9.09389E+00 1.21380E-01-7.74359E-01-5.03935E+00-1.14952E-12 1.10423E-12
 -1      1730 1.45755E+01 4.13763E+00 7.87405E-02-8.68987E+00-1.26987E-12 1.57097E-12
 -1      1731 2.97443E+00-7.77550E+00-1.42842E+00-1.05260E+00-1.66933E-12 5.95246E-13
 -1      1732 5.44770E+00-2.01677E+00-7.00724E-01-3.58154E+00-1.41043E-12 5.21361E-13
 -1      1733 3.11427E-01-1.47450E+01-1.83886E+00 3.51300E-01-1.18927E-12 5.44648E-13
 -1      1734 8.06070E-01-9.95383E+00-1.36487E+00 9.14982E-02-1.41875E-12 8.25479E-13
 -1      1735-6.54789E-01-1.80187E+01-1.97054E+00-3.86573E-01-7.97418E-14 5.25413E-13
 -1      1736-6.56300E-01-1.60460E+01-1.79005E+00 9.76421E-01-1.01852E-12 4.98018E-13
 -1      1737 2.56790E+01 1.36621E-01 2.40492E-01 7.07970E+00 2.71561E-13 3.73479E-13
 -1      1738 1.46823E+01-3.83975E+00-3.45373E-01 6.34798E+00 3.77032E-13 4.57523E-13
 -1      1739 2.00897E+01 1.08498E-01-1.08332E-02 1.21971E-01-4.03178E-13 5.65446E-14
 -1      1740 2.02041E+01 2.93847E-01-6.60628E-03 3.65900E-01-1.42503E-13 3.61523E-13
 -1      1741 1.82106E-01-1.12985E+01-1.30091E+00 1.96535E+00 6.11955E-13 4.18943E-13
 -1      1742 5.34769E+00-8.23404E+00-9.97813E-01 4.10978E+00 6.89337E-13 7.45515E-14
 -1      1743-1.44123E+00-1.24396E+01-1.39756E+00-9.95136E-02-4.10574E-14 9.92206E-13
 -1      1744 3.61554E+01 3.91918E+00 8.85971E-01 6.82342E+00 2.87992E-13 3.26739E-13
 -1      1745 4.47168E+01 6.37487E+00 1.47357E+00 4.98351E+00 4.03372E-13 3.98903E-13
 -1      1746 4.83616E+01 7.51297E+00 1.65522E+00 1.66177E+00 6.94111E-13 6.05904E-14
 -1      1747 4.62570E+01 7.34773E+00 1.44971E+00-1.50740E+00 7.52176E-13-6.06459E-13
 -1      1748 4.11261E+01 5.38072E+00 1.17615E+00-4.82154E+00 6.39488E-13-8.95728E-13
 -1      1749 3.18343E+01 2.01390E+00 5.54446E-01-6.38946E+00 7.26585E-13-1.00941E-12
 -1      1750 2.10824E+01-1.88621E+00-1.94211E-02-6.54404E+00 8.78075E-13-7.09210E-13
 -1      1751 1.03694E+01-5.57064E+00-6.31215E-01-5.27465E+00 1.00941E-12-8.36664E-13
 -1      1752 3.05091E+00-9.21706E+00-1.07944E+00-3.18972E+00 8.11906E-13-7.88564E-13
 -1      1753-7.01493E-01-1.13521E+01-1.22741E+00-1.15474E+00 4.06508E-13-6.28664E-13
 -1      1754-1.20080E+00-1.20390E+01-1.35323E+00 1.01644E+00 1.94289E-15-8.78908E-13
 -1      1755 1.90414E+00-9.66842E+00-1.08832E+00 3.20922E+00-5.63882E-13-8.46517E-13
 -1      1756 8.09953E+00-5.94870E+00-6.98083E-01 5.23906E+00-7.74381E-13-1.03212E-12
 -1      1757 1.66911E+01-1.60622E+00-1.65183E-01 6.96504E+00-1.02740E-12-1.26787E-12
 -1      1758 2.69065E+01 2.22945E+00 4.53798E-01 7.79198E+00-1.21031E-12-1.12854E-12
 -1      1759 3.65915E+01 4.91611E+00 9.60056E-01 6.60987E+00-9.61536E-13-9.23372E-13
 -1      1760 4.38086E+01 6.58396E+00 1.29097E+00 4.02136E+00-6.21114E-13-7.03659E-13
 -1      1761 4.75471E+01 7.35606E+00 1.53293E+00 9.25932E-01-5.36293E-13-6.11511E-13
 -1      1762 4.56156E+01 7.32204E+00 1.41266E+00-2.55708E+00-6.68243E-13-4.05287E-13
 -1      1763 4.03393E+01 5.87328E+00 1.15646E+00-5.45034E+00-6.51521E-13-1.78746E-13
 -1      1764 3.20560E+01 3.56365E+00 7.52600E-01-7.53504E+00-7.82485E-13 4.19220E-13
 -1      1765 2.18661E+01 2.21708E-01 1.51390E-01-7.57177E+00-7.46403E-13 1.03817E-12
 -1      1766 1.22619E+01-4.04424E+00-4.51677E-01-6.17159E+00-8.62976E-13 6.64580E-13
 -1      1767 4.72241E+00-8.37340E+00-9.85152E-01-4.16007E+00-6.65135E-13 4.41099E-13
 -1      1768 5.78767E-02-1.14237E+01-1.31061E+00-2.16132E+00-5.02542E-13 7.08322E-13
 -1      1769 2.28589E+01 1.98496E+00-2.35544E-02-2.72276E+00-3.93026E-13 1.74705E-12
 -1      1770 1.98255E+01 3.71357E+00-3.53849E-02-2.15375E+00-5.30333E-13-4.42167E-13
 -1      1771 2.00577E+01 3.56271E+00-4.02503E-02-2.44594E+00-6.07200E-13-2.66745E-13
 -1      1772 2.03629E+01 3.18152E+00-4.58156E-02-2.58550E+00-6.01507E-13-4.03705E-14
 -1      1773 2.05830E+01 2.80983E+00-1.42524E-01-2.85377E+00-6.33781E-13 2.73469E-13
 -1      1774 2.04239E+01 2.69313E+00-4.10725E-03-2.22515E+00-6.32575E-13-1.22284E-13
 -1      1775 1.93553E+01 4.18865E+00-2.00254E-02-1.27110E+00-3.20592E-13-7.80655E-13
 -1      1776 1.94288E+01 4.14913E+00-1.69289E-02-1.49557E+00-3.75224E-13-7.28750E-13
 -1      1777 1.92590E+01 4.29447E+00-1.67534E-02-8.59959E-01-2.04805E-13-8.42834E-13
 -1      1778 1.93016E+01 4.27053E+00-1.42356E-02-1.07080E+00-2.67447E-13-8.17103E-13
 -1      1779 1.95276E+01 3.78286E+00-8.93926E-03-1.12005E+00-3.13158E-13-7.59162E-13
 -1      1780 1.92077E+01 4.35490E+00-1.48093E-02-4.66925E-01-9.08544E-14-8.50639E-13
 -1      1781 1.92296E+01 4.34203E+00-1.33156E-02-6.67314E-01-1.43481E-13-8.46800E-13
 -1      1782 1.94305E+01 3.90300E+00-9.17642E-03-7.33468E-01-1.86117E-13-8.09568E-13
 -1      1783 1.91884E+01 4.38056E+00-1.36815E-02-8.35864E-02 9.36683E-15-8.64843E-13
 -1      1784 1.91948E+01 4.37662E+00-1.32262E-02-2.79110E-01-3.47000E-14-8.61989E-13
 -1      1785 1.93804E+01 3.96750E+00-9.16731E-03-3.58360E-01-7.16958E-14-8.25524E-13
 -1      1786 1.91963E+01 4.37530E+00-1.31769E-02 2.98299E-01 1.08071E-13-8.64454E-13
 -1      1787 1.91888E+01 4.37975E+00-1.37604E-02 1.02630E-01 6.20328E-14-8.70982E-13
 -1      1788 1.93656E+01 3.98697E+00-9.14834E-03 1.06520E-02 3.82657E-14-8.39554E-13
 -1      1789 1.92335E+01 4.33809E+00-1.33333E-02 6.87160E-01 2.16009E-13-8.40607E-13
 -1      1790 1.92103E+01 4.35179E+00-1.49225E-02 4.86292E-01 1.68573E-13-8.55564E-13
 -1      1791 1.93830E+01 3.96425E+00-9.19283E-03 3.79802E-01 1.45353E-13-8.34974E-13
 -1      1792 1.93068E+01 4.26468E+00-1.44142E-02 1.08495E+00 3.24722E-13-7.79835E-13
 -1      1793 1.92636E+01 4.28915E+00-1.69739E-02 8.76919E-01 2.67384E-13-8.16540E-13
 -1      1794 1.94356E+01 3.89673E+00-9.19764E-03 7.52092E-01 2.66359E-13-8.02343E-13
 -1      1795 1.94382E+01 4.13749E+00-1.74072E-02 1.51504E+00 4.52927E-13-6.76365E-13
 -1      1796 1.93618E+01 4.18008E+00-2.04999E-02 1.28547E+00 3.82687E-13-7.38430E-13
 -1      1797 1.95350E+01 3.77284E+00-9.24148E-03 1.13598E+00 3.88569E-13-7.22535E-13
 -1      1798 1.96671E+01 3.92098E+00-2.51975E-02 1.98016E+00 5.60088E-13-5.03108E-13
 -1      1799 1.95344E+01 3.99775E+00-2.68998E-02 1.72281E+00 4.90171E-13-6.05838E-13
 -1      1800 1.97081E+01 3.56581E+00-8.69697E-03 1.53578E+00 5.03011E-13-5.98938E-13
 -1      1801 2.00755E+01 3.52270E+00-4.51898E-02 2.47258E+00 6.48580E-13-1.75922E-13
 -1      1802 1.98356E+01 3.68316E+00-3.97197E-02 2.18349E+00 5.88301E-13-3.71515E-13
 -1      1803 2.00043E+01 3.22274E+00-5.27258E-03 1.93513E+00 6.06883E-13-3.92256E-13
 -1      1804 2.09207E+01 2.68180E+00-5.76535E-02 2.85822E+00 6.46021E-13 4.39086E-13
 -1      1805 2.04133E+01 3.09691E+00-5.04265E-02 2.61647E+00 6.36414E-13 7.11028E-14
 -1      1806 2.05172E+01 2.60987E+00 3.18739E-03 2.24509E+00 6.67983E-13-3.17003E-14
 -1      1807 2.17309E+01 1.21299E+00-1.22096E-01 2.33019E+00 5.56909E-13 1.20674E-12
 -1      1808 2.12744E+01 2.26306E+00 1.18886E-04 2.74084E+00 5.99661E-13 6.99427E-13
 -1      1809 2.09372E+01 1.68502E+00-2.29651E-02 2.14065E+00 6.59209E-13 4.35048E-13
 -1      1810 2.09521E+01 7.78683E-01-6.24562E-02 1.52451E+00 5.61710E-13 1.03244E-12
 -1      1811 2.17968E+01 2.45829E+00 9.09194E-02-3.04856E+00-5.36344E-13 8.05203E-13
 -1      1812 2.01010E+01 2.97924E-01-8.92151E-03 6.57382E-01 4.31089E-13 7.69896E-13
 -1      1813 2.06533E+01 4.40401E-01-1.24701E-02 1.03441E+00 4.71449E-13 9.34378E-13
 -1      1814 2.07445E+01 8.45121E-01 2.25067E-03 1.41555E+00 5.52759E-13 5.91093E-13
 -1      1815 2.15071E+01 1.74241E+00 7.94425E-02-2.33759E+00-5.78385E-13 5.77885E-13
 -1      1816 2.05202E+01 5.00851E-01 3.24244E-02-9.21772E-01-4.61867E-13 4.89140E-13
 -1      1817 2.00884E+01 3.51897E-01 7.50686E-03-6.29760E-01-4.11522E-13 3.63041E-13
 -1      1818 1.98947E+01 2.56542E-01 2.74012E-02-3.91757E-01-3.56637E-13 3.41427E-13
 -1      1819 1.97032E+01 1.77485E-01 1.03218E-02-2.54586E-01-3.00891E-13 2.47817E-13
 -1      1820 2.01982E+01 4.81010E-01-6.68556E-03-7.22724E-01-4.57103E-13 1.28718E-13
 -1      1821 1.95806E+01 1.32920E-01 1.66275E-02-1.20798E-01-2.47627E-13 2.29709E-13
 -1      1822 1.95023E+01 9.31393E-02 6.92369E-03-4.99726E-02-2.06415E-13 1.69616E-13
 -1      1823 1.98722E+01 2.42888E-01-6.20779E-03-2.96814E-01-3.41885E-13 8.18382E-14
 -1      1824 1.94373E+01 6.83260E-02 8.68569E-03 2.35153E-02-1.82017E-13 1.55291E-13
 -1      1825 1.94224E+01 4.65879E-02 4.11443E-03 5.96369E-02-1.51660E-13 1.02741E-13
 -1      1826 1.96893E+01 1.25217E-01-4.65812E-03-5.98730E-02-2.46364E-13 3.03590E-14
 -1      1827 1.93962E+01 3.22187E-02 4.25146E-03 9.82339E-02-1.41130E-13 8.36371E-14
 -1      1828 1.94156E+01 1.97733E-02 2.43801E-03 1.14908E-01-1.18800E-13 3.09927E-14
 -1      1829 1.96025E+01 6.07173E-02-3.43390E-03 6.95147E-02-1.69528E-13-4.22163E-14
 -1      1830 1.94136E+01 1.11590E-02 1.86252E-03 1.32728E-01-1.15155E-13 2.47102E-14
 -1      1831 1.94503E+01 4.01638E-03 1.45387E-03 1.38080E-01-1.07840E-13-1.16853E-14
 -1      1832 1.95778E+01 2.38156E-02-2.33001E-03 1.35682E-01-1.47998E-13-8.08692E-14
 -1      1833 1.94626E+01-1.12599E-03 5.62969E-04 1.43435E-01-1.39970E-13-2.92407E-14
 -1      1834 1.95064E+01-5.03750E-03 8.49039E-04 1.42208E-01-1.35081E-13-3.13811E-14
 -1      1835 1.95910E+01 2.39976E-03-1.44400E-03 1.63870E-01-1.40980E-13-9.16716E-14
 -1      1836 1.95263E+01-7.94268E-03-1.51633E-04 1.40270E-01-1.31210E-13-2.68280E-14
 -1      1837 1.95714E+01-9.78798E-03 4.70113E-04 1.35446E-01-9.60963E-14-7.59657E-14
 -1      1838 1.96253E+01-9.65079E-03-8.09960E-04 1.69329E-01-1.39918E-13-1.42860E-13
 -1      1839 1.95946E+01-1.11968E-02-5.27027E-04 1.29585E-01-1.01782E-13-9.05474E-14
 -1      1840 1.96376E+01-1.16851E-02 2.43432E-04 1.23116E-01-1.04794E-13-1.37486E-13
 -1      1841 1.96701E+01-1.57083E-02-3.91083E-04 1.61776E-01-1.41992E-13-1.73174E-13
 -1      1842 1.96615E+01-1.20720E-02-6.92650E-04 1.15585E-01-1.20798E-13-1.78994E-13
 -1      1843 1.97010E+01-1.16533E-02 1.28244E-04 1.08783E-01-7.25133E-14-2.39600E-13
 -1      1844 1.97184E+01-1.78059E-02-1.35793E-04 1.47631E-01-1.38205E-13-1.53484E-13
 -1      1845 1.97242E+01-1.13298E-02-7.24393E-04 1.01119E-01-4.35030E-14-2.69590E-13
 -1      1846 1.97596E+01-1.02906E-02 9.92167E-05 9.48811E-02-5.25076E-14-2.73488E-13
 -1      1847 1.97665E+01-1.72309E-02-2.32698E-07 1.31231E-01-1.06814E-13-2.30445E-13
 -1      1848 1.97816E+01-9.45952E-03-6.70170E-04 8.81571E-02-2.67596E-14-2.93249E-13
 -1      1849 1.98133E+01-7.97517E-03 1.40180E-04 8.31180E-02-3.34309E-14-2.62837E-13
 -1      1850 1.98125E+01-1.48074E-02 4.81609E-05 1.15568E-01-5.68492E-14-2.94691E-13
 -1      1851 1.98342E+01-6.76281E-03-5.61252E-04 7.81096E-02-8.25677E-14-2.39564E-13
 -1      1852 1.98631E+01-4.93074E-03 2.41260E-04 7.47430E-02-1.12330E-13-2.34998E-13
 -1      1853 1.98560E+01-1.10490E-02 3.23672E-05 1.02764E-01-3.84096E-14-2.65069E-13
 -1      1854 1.98835E+01-3.40871E-03-4.18156E-04 7.20485E-02-1.21232E-13-2.01861E-13
 -1      1855 1.99111E+01-1.27166E-03 3.96855E-04 7.07401E-02-7.96988E-14-2.20813E-13
 -1      1856 1.98977E+01-6.25166E-03-3.18248E-05 9.43954E-02-1.19518E-13-2.34195E-13
 -1      1857 1.99318E+01 5.25279E-04-2.54296E-04 7.08618E-02-9.47726E-14-2.35899E-13
 -1      1858 1.99598E+01 2.95924E-03 6.03706E-04 7.19579E-02-4.62743E-14-2.37313E-13
 -1      1859 1.99390E+01-5.61017E-04-1.33729E-04 9.17227E-02-9.39386E-14-2.00724E-13
 -1      1860 1.99820E+01 5.01653E-03-7.85926E-05 7.53534E-02-3.50230E-14-2.83534E-13
 -1      1861 2.00124E+01 7.75391E-03 8.58713E-04 7.91875E-02-2.12603E-14-3.29674E-13
 -1      1862 1.99821E+01 5.97153E-03-2.66008E-04 9.58385E-02-8.68223E-14-1.92315E-13
 -1      1863 2.00375E+01 1.00590E-02 1.02424E-04 8.62906E-02-2.58899E-14-3.08002E-13
 -1      1864 2.00728E+01 1.30975E-02 1.15617E-03 9.31860E-02-7.32374E-14-2.94640E-13
 -1      1865 2.00297E+01 1.33316E-02-4.23128E-04 1.07751E-01-5.11190E-14-2.20588E-13
 -1      1866 2.01025E+01 1.56173E-02 2.82784E-04 1.04394E-01-6.39248E-14-2.98792E-13
 -1      1867 2.01451E+01 1.89157E-02 1.48409E-03 1.14637E-01 9.02327E-15-2.92525E-13
 -1      1868 2.00848E+01 2.14757E-02-5.99907E-04 1.28396E-01-8.33286E-14-1.77404E-13
 -1      1869 2.01811E+01 2.15672E-02 4.55390E-04 1.30255E-01 1.74784E-14-3.13972E-13
 -1      1870 2.02337E+01 2.50043E-02 1.81925E-03 1.44029E-01-3.01170E-15-2.71780E-13
 -1      1871 2.01508E+01 3.02453E-02-7.90079E-04 1.58557E-01-9.85052E-15-1.99180E-13
 -1      1872 2.02779E+01 2.76145E-02 6.10452E-04 1.64159E-01-2.45396E-14-2.34528E-13
 -1      1873 2.03433E+01 3.09329E-02 2.12079E-03 1.81430E-01-2.58208E-14-2.91700E-13
 -1      1874 2.02314E+01 3.92526E-02-9.84881E-04 1.98689E-01 2.42668E-14-2.50065E-13
 -1      1875 2.03975E+01 3.31852E-02 7.34199E-04 2.05788E-01-5.45500E-14-2.03065E-13
 -1      1876 2.04779E+01 3.59172E-02 2.32237E-03 2.26111E-01-4.55755E-15-1.72977E-13
 -1      1877 2.03305E+01 4.77244E-02-1.17168E-03 2.48588E-01 7.51742E-15-1.72499E-13
 -1      1878 2.05438E+01 3.72832E-02 8.08193E-04 2.53748E-01 4.23752E-14-1.97345E-13
 -1      1879 2.06409E+01 3.86588E-02 2.32410E-03 2.76001E-01 8.03695E-14-2.12460E-13
 -1      1880 2.04514E+01 5.42986E-02-1.33272E-03 3.06885E-01 2.97187E-14-5.21866E-14
 -1      1881 2.07197E+01 3.83199E-02 8.09796E-04 3.04915E-01 5.79253E-14-2.10510E-13
 -1      1882 2.08334E+01 3.71698E-02 1.98706E-03 3.26919E-01 3.86775E-14-1.93790E-13
 -1      1883 2.05971E+01 5.67783E-02-1.44395E-03 3.70321E-01 5.77209E-14-1.23225E-13
 -1      1884 2.09256E+01 3.39493E-02 7.14436E-04 3.53559E-01 2.36930E-14-2.06099E-13
 -1      1885 2.10537E+01 2.86426E-02 1.13681E-03 3.71634E-01 1.60889E-14-1.18153E-13
 -1      1886 2.07692E+01 5.18856E-02-1.47353E-03 4.32772E-01 5.85546E-14-1.47897E-13
 -1      1887 2.11586E+01 2.09979E-02 4.99844E-04 3.90343E-01-4.06918E-14-7.66300E-14
 -1      1888 2.12950E+01 9.50192E-03-4.12756E-04 3.98859E-01 5.35311E-14-1.04600E-13
 -1      1889 2.09670E+01 3.51323E-02-1.37901E-03 4.84111E-01 5.81178E-14-1.62585E-13
 -1      1890 2.14098E+01-4.31730E-03 1.50507E-04 4.01425E-01 5.61761E-14-2.23260E-13
 -1      1891 2.15435E+01-2.40838E-02-2.79794E-03 3.92590E-01 5.35267E-14-2.24838E-13
 -1      1892 2.11869E+01 1.06790E-03-1.10118E-03 5.09102E-01 2.51811E-15-1.41948E-13
 -1      1893 2.16631E+01-4.55285E-02-3.41715E-04 3.68257E-01 2.46554E-14-2.56366E-13
 -1      1894 2.17770E+01-7.47899E-02-5.98694E-03 3.32583E-01 5.20031E-14-2.91052E-13
 -1      1895 2.14205E+01-5.56202E-02-5.52379E-04 4.86905E-01 1.15823E-14-2.85211E-13
 -1      1896 2.18923E+01-1.03910E-01-9.89429E-04 2.69210E-01 6.79331E-14-3.61542E-13
 -1      1897 2.19634E+01-1.41304E-01-9.59959E-03 1.97377E-01-5.51694E-14-3.49996E-13
 -1      1898 2.16530E+01-1.37452E-01 3.98396E-04 3.92275E-01-4.01805E-16-2.82366E-13
 -1      1899 2.20602E+01-1.74889E-01-1.83377E-03 8.47313E-02-1.01378E-13-3.05577E-13
 -1      1900 2.20618E+01-2.13948E-01-1.27077E-02-2.83017E-02-4.69403E-14-2.64134E-13
 -1      1901 2.18609E+01-2.39303E-01 1.92155E-03 2.00244E-01-1.13247E-14-2.85319E-13
 -1      1902 2.21197E+01-2.43244E-01-2.94504E-03-1.92064E-01-6.38344E-14-2.40421E-13
 -1      1903 2.20274E+01-2.70124E-01-1.37630E-02-3.40398E-01-2.02997E-14-2.01273E-13
 -1      1904 2.20104E+01-3.41710E-01 4.15008E-03-1.03478E-01-6.34835E-14-1.22951E-13
 -1      1905 2.20214E+01-2.79692E-01-4.30515E-03-5.39202E-01 3.99359E-14-1.39388E-13
 -1      1906 2.18231E+01-2.74066E-01-1.10299E-02-6.98426E-01 1.25271E-13-1.25261E-13
 -1      1907 2.20580E+01-4.05600E-01 6.93334E-03-5.05147E-01 5.42314E-14-9.32639E-14
 -1      1908 2.17301E+01-2.45182E-01-5.63648E-03-8.89367E-01 7.91433E-14-1.30126E-13
 -1      1909 2.14387E+01-1.88323E-01-3.78304E-03-1.01354E+00 6.14057E-14 3.53780E-14
 -1      1910 2.19574E+01-3.76445E-01 9.28601E-03-9.42046E-01 1.17715E-13 6.75009E-14
 -1      1911 2.12539E+01-1.09879E-01-5.90827E-03-1.12797E+00-3.81518E-14-1.98105E-14
 -1      1912 2.09154E+01-1.01803E-03 6.21251E-03-1.15950E+00-4.13677E-14-1.35031E-13
 -1      1913 2.16819E+01-2.08184E-01 8.98364E-03-1.29160E+00-3.56726E-14 2.75491E-14
 -1      1914 2.06733E+01 1.14173E-01-3.38859E-03-1.12609E+00-4.64889E-14-1.50831E-13
 -1      1915 2.03623E+01 2.42890E-01 1.44549E-02-1.02357E+00-9.04892E-14-1.46606E-13
 -1      1916 2.12593E+01 9.37478E-02 3.78224E-03-1.39456E+00-1.00532E-13 1.75884E-14
 -1      1917 2.01421E+01 3.51115E-01 2.93117E-03-8.13486E-01-1.14208E-13-1.55741E-13
 -1      1918 1.99398E+01 4.41010E-01 1.62495E-02-5.86278E-01-1.69438E-13-1.95021E-13
 -1      1919 2.08000E+01 4.38992E-01-5.59955E-03-1.13089E+00-1.25299E-13-1.16773E-13
 -1      1920 1.98328E+01 4.87074E-01 1.12612E-02-2.51673E-01-5.10572E-14-5.77706E-14
 -1      1921 1.97931E+01 4.88523E-01 1.09102E-02 2.81636E-02 1.22734E-13 5.45835E-14
 -1      1922 2.04735E+01 6.75410E-01-1.35933E-02-5.20214E-01-2.68691E-14 8.36008E-14
 -1      1923 1.98425E+01 4.45409E-01 1.68254E-02 3.65090E-01 1.06468E-13-5.44898E-14
 -1      1924 1.99659E+01 3.56594E-01 2.41044E-03 5.95098E-01 5.27694E-14-1.95520E-13
 -1      1925 2.04154E+01 6.79231E-01-1.38171E-02 2.38418E-01 4.95628E-14 3.13622E-13
 -1      1926 2.01325E+01 2.48387E-01 1.53613E-02 8.09608E-01-4.43573E-14-1.48260E-13
 -1      1927 2.03658E+01 1.17146E-01-4.29315E-03 9.14506E-01-2.01576E-13-1.92743E-13
 -1      1928 2.06297E+01 4.46254E-01-5.99319E-03 8.57508E-01-4.77600E-14-8.24629E-14
 -1      1929 2.05580E+01-9.65667E-04 7.27372E-03 9.49383E-01-3.24981E-13-1.79857E-13
 -1      1930 2.08193E+01-1.14274E-01-7.03191E-03 9.16578E-01-2.45785E-13-1.59803E-13
 -1      1931 2.09845E+01 9.55288E-02 3.57431E-03 1.12866E+00-2.47515E-13-4.75227E-15
 -1      1932 2.09545E+01-1.95839E-01-2.88317E-03 7.98178E-01-1.69660E-13-1.67652E-13
 -1      1933 2.11671E+01-2.55730E-01-6.62659E-03 6.68931E-01 8.16144E-14-7.83904E-14
 -1      1934 2.13066E+01-2.16709E-01 9.07666E-03 1.02304E+00-1.22824E-13 2.59254E-13
 -1      1935 2.12081E+01-2.85129E-01-1.03164E-02 4.70809E-01 3.03004E-13-1.99874E-13
 -1      1936 2.13256E+01-2.89692E-01-4.65759E-03 3.05875E-01 2.53159E-13-6.29710E-14
 -1      1937 2.14791E+01-3.91598E-01 9.53053E-03 6.60919E-01 4.30359E-14 1.19040E-13
 -1      1938 2.12769E+01-2.76249E-01-1.31136E-02 1.02264E-01 9.76025E-14 1.28907E-14
 -1      1939 2.12888E+01-2.42552E-01-2.25025E-03-4.70265E-02 1.96758E-13 2.04310E-13
 -1      1940 2.14717E+01-4.16359E-01 7.06015E-03 2.10568E-01 2.11585E-13-6.58193E-14
 -1      1941 2.11756E+01-2.03882E-01-1.19356E-02-2.05704E-01 2.39389E-13 1.63824E-13
 -1      1942 2.11005E+01-1.51265E-01 3.35209E-04-3.08161E-01 2.83437E-13-4.02452E-14
 -1      1943 2.13134E+01-3.32219E-01 3.91490E-03-1.90828E-01 2.23090E-13 1.71841E-13
 -1      1944 2.09519E+01-1.02342E-01-8.61714E-03-3.97513E-01 1.32681E-13-1.87947E-13
 -1      1945 2.08244E+01-4.46800E-02 2.71954E-03-4.39950E-01 1.38715E-14-1.39618E-13
 -1      1946 2.10572E+01-1.91064E-01 1.20447E-03-4.63281E-01 1.47552E-13-1.04981E-14
 -1      1947 2.06660E+01 5.19028E-03-4.95627E-03-4.54837E-01 5.92857E-14-1.73432E-13
 -1      1948 2.05250E+01 5.99745E-02 4.46820E-03-4.36458E-01 1.89869E-13-8.55529E-14
 -1      1949 2.07575E+01-3.26588E-02-7.01895E-04-5.75676E-01 4.30335E-14 8.36857E-14
 -1      1950 2.03900E+01 9.53545E-02-2.10643E-03-3.83483E-01 1.81546E-13-9.52151E-14
 -1      1951 2.02704E+01 1.36280E-01 6.11354E-03-3.17513E-01 8.99452E-14-1.04773E-14
 -1      1952 2.02387E+01 1.99201E-01-6.45017E-04-3.80039E-01 2.46142E-14 9.43679E-15
 -1      1953 2.04740E+01 1.16435E-01 4.97146E-04-5.32591E-01 1.51187E-13 1.05022E-13
 -1      1954 1.96180E+01 1.41997E-01 7.87833E-03 2.59808E-01 3.33598E-13 5.63920E-13
 -1      1955 1.98903E+01 2.04065E-01 1.64321E-02 4.32780E-01 3.67728E-13 7.03894E-13
 -1      1956 2.01020E+01 3.50516E-01-1.52973E-03 6.55434E-01 4.49141E-13 4.37346E-13
 -1      1957 1.93753E+01 7.18599E-02 6.94493E-03 5.69125E-02 2.46099E-13 3.94205E-13
 -1      1958 1.94905E+01 1.01748E-01 1.41952E-02 1.45387E-01 2.68353E-13 4.97972E-13
 -1      1959 1.97090E+01 1.65124E-01-1.94049E-03 2.56757E-01 3.32607E-13 3.15100E-13
 -1      1960 1.92844E+01 3.61013E-02 4.42801E-03-4.84657E-02 1.71225E-13 2.79548E-13
 -1      1961 1.93148E+01 5.19093E-02 8.33667E-03-1.30170E-03 2.07709E-13 3.54168E-13
 -1      1962 1.95084E+01 8.06092E-02-2.82051E-03 4.48683E-02 2.55191E-13 2.03279E-13
 -1      1963 1.92823E+01 1.61809E-02 2.85994E-03-1.00905E-01 8.14427E-14 1.76521E-13
 -1      1964 1.92673E+01 2.50324E-02 4.35358E-03-7.63167E-02 1.25030E-13 2.33648E-13
 -1      1965 1.94290E+01 3.74234E-02-2.83924E-03-6.69583E-02 1.73839E-13 1.01898E-13
 -1      1966 1.93290E+01 4.58777E-03 1.98705E-03-1.23001E-01 7.10482E-14 1.22208E-13
 -1      1967 1.92910E+01 9.60195E-03 2.15110E-03-1.11584E-01 6.08850E-14 1.44885E-13
 -1      1968 1.94221E+01 1.36321E-02-2.31213E-03-1.22488E-01 9.73444E-14 3.45257E-14
 -1      1969 1.94002E+01-2.12971E-03 1.44884E-03-1.27319E-01 8.49803E-14 7.52731E-14
 -1      1970 1.93519E+01 5.83901E-04 9.57284E-04-1.23789E-01 7.05647E-14 1.17635E-13
 -1      1971 1.94564E+01 1.23895E-04-1.69576E-03-1.45114E-01 9.49702E-14-2.61096E-14
 -1      1972 1.94806E+01-5.78229E-03 1.07501E-03-1.21469E-01 1.63375E-13-4.11202E-14
 -1      1973 1.94297E+01-4.51072E-03 2.92282E-04-1.22584E-01 1.34963E-13 7.08471E-14
 -1      1974 1.95119E+01-7.35096E-03-1.17878E-03-1.48376E-01 1.56875E-13-7.37916E-14
 -1      1975 1.95613E+01-7.42760E-03 8.02108E-04-1.10316E-01 1.02049E-13-5.64085E-14
 -1      1976 1.95122E+01-7.07767E-03-7.89297E-05-1.13974E-01 1.32540E-13-5.26162E-14
 -1      1977 1.95761E+01-1.10473E-02-7.94479E-04-1.40663E-01 1.60071E-13-5.80252E-14
 -1      1978 1.96373E+01-7.72659E-03 6.04822E-04-9.70734E-02 1.33593E-13-2.30096E-14
 -1      1979 1.95923E+01-7.96684E-03-2.70492E-04-1.01863E-01 1.00155E-13-4.93278E-14
 -1      1980 1.96416E+01-1.22857E-02-5.25011E-04-1.27415E-01 1.24532E-13-8.50670E-14
 -1      1981 1.97066E+01-7.10315E-03 4.70075E-04-8.39159E-02 7.80389E-14-6.64685E-14
 -1      1982 1.96664E+01-7.71905E-03-3.44249E-04-8.88640E-02 1.20273E-13-1.93207E-14
 -1      1983 1.97042E+01-1.18870E-02-3.45640E-04-1.12263E-01 1.21809E-13-9.83440E-14
 -1      1984 1.97687E+01-5.82338E-03 3.90002E-04-7.23512E-02 1.26084E-13-1.87910E-13
 -1      1985 1.97333E+01-6.67900E-03-3.37437E-04-7.67678E-02 8.70257E-14-1.45638E-13
 -1      1986 1.97621E+01-1.03689E-02-2.36065E-04-9.76936E-02 1.39668E-13-1.36484E-13
 -1      1987 1.98248E+01-4.03917E-03 3.60277E-04-6.34800E-02 2.83944E-14-2.27522E-13
 -1      1988 1.97934E+01-5.05460E-03-2.73370E-04-6.68468E-02 5.86350E-14-1.87830E-13
 -1      1989 1.98152E+01-8.04447E-03-1.81722E-04-8.54674E-02 8.99876E-14-2.09556E-13
 -1      1990 1.98769E+01-1.81456E-03 3.79727E-04-5.81861E-02-2.96432E-14-2.29969E-13
 -1      1991 1.98482E+01-2.95151E-03-1.66171E-04-6.00744E-02-2.94965E-15-1.96304E-13
 -1      1992 1.98647E+01-5.07738E-03-1.72863E-04-7.69128E-02 2.86736E-14-2.37638E-13
 -1      1993 1.99282E+01 8.57359E-04 4.50251E-04-5.72831E-02-1.24751E-14-2.78929E-13
 -1      1994 1.99003E+01-3.94653E-04-2.33683E-05-5.72886E-02-1.74636E-14-2.40784E-13
 -1      1995 1.99124E+01-1.51494E-03-2.03534E-04-7.31470E-02-9.74396E-15-2.62054E-13
 -1      1996 1.99823E+01 4.04391E-03 5.76848E-04-6.16344E-02 1.24373E-13-2.27628E-13
 -1      1997 1.99530E+01 2.65801E-03 1.52414E-04-5.93221E-02 5.10069E-14-2.48441E-13
 -1      1998 1.99612E+01 2.69068E-03-2.70838E-04-7.52465E-02 6.93634E-14-2.16703E-13
 -1      1999 2.00438E+01 7.86575E-03 7.67609E-04-7.22550E-02 3.22448E-14-2.43671E-13
 -1      2000 2.00106E+01 6.30670E-03 3.62207E-04-6.71109E-02 9.83822E-14-1.91689E-13
 -1      2001 2.00148E+01 7.66899E-03-3.74400E-04-8.43879E-02 8.54092E-14-2.26651E-13
 -1      2002 2.01185E+01 1.24912E-02 1.03355E-03-9.03993E-02-1.23916E-13-2.82065E-13
 -1      2003 2.00780E+01 1.07034E-02 6.09588E-04-8.17864E-02-6.19712E-14-2.81057E-13
 -1      2004 2.00775E+01 1.36218E-02-5.15891E-04-1.01965E-01-1.44015E-14-2.23950E-13
 -1      2005 2.02128E+01 1.81285E-02 1.38785E-03-1.17634E-01-2.71025E-14-2.41515E-13
 -1      2006 2.01613E+01 1.60454E-02 8.99417E-04-1.04753E-01-5.51328E-14-2.65052E-13
 -1      2007 2.01545E+01 2.08137E-02-6.98636E-04-1.29689E-01-6.74577E-14-3.48649E-13
 -1      2008 2.03348E+01 2.50100E-02 1.84365E-03-1.55891E-01 1.81337E-14-4.27829E-13
 -1      2009 2.02677E+01 2.25630E-02 1.23598E-03-1.37748E-01 3.32210E-15-3.35402E-13
 -1      2010 2.02519E+01 2.95563E-02-9.27313E-04-1.69656E-01 4.99374E-14-3.98708E-13
 -1      2011 2.04939E+01 3.33546E-02 2.40894E-03-2.07464E-01 2.00547E-13-3.76074E-13
 -1      2012 2.04056E+01 3.04930E-02 1.61988E-03-1.82861E-01 1.04692E-13-3.50930E-13
 -1      2013 2.03772E+01 4.01725E-02-1.20782E-03-2.24379E-01 9.56046E-14-3.88952E-13
 -1      2014 2.07010E+01 4.32829E-02 3.07593E-03-2.74912E-01 8.47983E-14-4.66261E-13
 -1      2015 2.05851E+01 4.00165E-02 2.04256E-03-2.42481E-01 1.53573E-13-3.85052E-13
 -1      2016 2.05386E+01 5.29155E-02-1.54749E-03-2.96720E-01 1.67134E-13-4.29904E-13
 -1      2017 2.09686E+01 5.46386E-02 3.80068E-03-3.60728E-01-2.57961E-13-4.35779E-13
 -1      2018 2.08176E+01 5.11248E-02 2.47689E-03-3.19072E-01-1.12464E-13-4.41159E-13
 -1      2019 2.07457E+01 6.77916E-02-1.95605E-03-3.89638E-01-8.59098E-14-3.53272E-13
 -1      2020 2.13097E+01 6.66309E-02 4.46809E-03-4.66585E-01-6.30837E-14-2.60443E-13
 -1      2021 2.11158E+01 6.33457E-02 2.86238E-03-4.14632E-01-1.85308E-13-3.56403E-13
 -1      2022 2.10089E+01 8.41998E-02-2.44752E-03-5.05564E-01-1.87182E-13-2.97797E-13
 -1      2023 2.17368E+01 7.71700E-02 4.83980E-03-5.91746E-01 4.80410E-14-2.02400E-13
 -1      2024 2.14927E+01 7.52195E-02 3.08504E-03-5.29516E-01 2.60694E-14-2.19251E-13
 -1      2025 2.13384E+01 1.00238E-01-3.04228E-03-6.45068E-01-8.21131E-15-3.37502E-13
 -1      2026 2.22588E+01 8.17336E-02 4.49559E-03-7.30052E-01 1.83467E-13-8.49399E-14
 -1      2027 2.19597E+01 8.33691E-02 2.95874E-03-6.60170E-01 9.32089E-14-1.60391E-13
 -1      2028 2.17438E+01 1.11470E-01-3.76450E-03-8.04309E-01 7.44097E-14-3.05361E-13
 -1      2029 2.28759E+01 7.17061E-02 2.81474E-03-8.64697E-01 1.54863E-14-5.58442E-14
 -1      2030 2.25234E+01 8.10299E-02 2.22942E-03-7.95080E-01 1.07354E-13-5.46243E-14
 -1      2031 2.22309E+01 1.08980E-01-4.62033E-03-9.70500E-01 1.13758E-13-8.59625E-14
 -1      2032 2.35714E+01 3.26814E-02-8.82438E-04-9.60268E-01-7.54472E-14-1.15134E-13
 -1      2033 2.31798E+01 5.61989E-02 6.43414E-04-9.08330E-01-3.29318E-14-1.09583E-13
 -1      2034 2.27993E+01 7.69049E-02-5.52502E-03-1.11469E+00-1.52699E-14-2.45238E-14
 -1      2035 2.43008E+01-5.50726E-02-6.85564E-03-9.53379E-01-1.61863E-14-5.27712E-14
 -1      2036 2.39051E+01-9.31512E-03-1.87320E-03-9.51130E-01-3.45834E-14-9.25700E-14
 -1      2037 2.34370E+01-8.89737E-03-6.13320E-03-1.18217E+00-4.28696E-14 7.53512E-14
 -1      2038 2.49790E+01-2.08485E-01-1.40176E-02-7.49034E-01-1.62370E-13-1.17506E-13
 -1      2039 2.46430E+01-1.36027E-01-5.06367E-03-8.45356E-01-8.59243E-14-8.78507E-14
 -1      2040 2.41134E+01-1.75755E-01-5.60383E-03-1.08433E+00-7.35688E-14-6.24587E-14
 -1      2041 2.54727E+01-4.16438E-01-1.87054E-02-2.40754E-01 7.36251E-14 3.20900E-14
 -1      2042 2.52891E+01-3.30065E-01-8.16292E-03-4.91169E-01-6.88824E-14 2.81442E-14
 -1      2043 2.47680E+01-4.33274E-01-2.60042E-03-7.04755E-01-5.34486E-14-9.17252E-14
 -1      2044 2.56071E+01-5.93919E-01-1.53903E-02 6.12749E-01-4.49814E-15 2.54973E-13
 -1      2045 2.56781E+01-5.44403E-01-1.08742E-02 1.86222E-01 9.30211E-14 1.79819E-13
 -1      2046 2.52918E+01-7.22092E-01 4.24250E-03 5.47355E-02 5.50428E-14 1.14242E-13
 -1      2047 2.52078E+01-5.53480E-01-2.53746E-03 1.63222E+00-2.71293E-14 1.84651E-13
 -1      2048 2.55990E+01-6.29385E-01-1.26969E-02 1.12303E+00-3.03230E-14 2.52659E-13
 -1      2049 2.55112E+01-8.52846E-01 1.37252E-02 1.15142E+00-1.36922E-14 2.92113E-13
 -1      2050 2.42443E+01-1.24531E-01 5.72398E-03 2.30078E+00 1.75935E-13 1.58776E-13
 -1      2051 2.49039E+01-3.75348E-01-1.54486E-02 1.97039E+00 6.61259E-14 1.77157E-13
 -1      2052 2.52365E+01-5.54899E-01 1.61209E-02 2.22464E+00 1.23249E-13 3.45588E-13
 -1      2053 2.30054E+01 5.96908E-01-1.49024E-02 1.96531E+00 5.23886E-14-1.08885E-13
 -1      2054 2.37277E+01 2.77124E-01-1.86827E-02 2.13469E+00 1.93866E-13 6.47607E-14
 -1      2055 2.44598E+01 2.69851E-01-5.80884E-03 2.57499E+00 2.64361E-13 3.62882E-13
 -1      2056 2.22139E+01 1.06495E+00-5.23263E-02 4.96710E-01-6.30052E-15-2.08634E-13
 -1      2057 2.26480E+01 9.48752E-01-1.52713E-02 1.19075E+00-6.92779E-14-3.10977E-13
 -1      2058 2.35844E+01 1.19455E+00-4.32863E-02 1.60155E+00 6.44762E-14 3.69756E-14
 -1      2059 2.24645E+01 8.28078E-01-6.06278E-02-1.23831E+00 6.39072E-14 7.47874E-14
 -1      2060 2.23450E+01 1.04219E+00-7.35144E-03-4.55534E-01 2.27179E-14-8.88647E-14
 -1      2061 2.33000E+01 1.47680E+00-4.87278E-02-3.37549E-01-7.58699E-14-5.84597E-14
 -1      2062 2.35208E+01 1.26799E-01-2.69565E-02-2.10178E+00-4.32883E-14 7.15296E-14
 -1      2063 2.29413E+01 4.71638E-01-4.64362E-03-1.72584E+00-3.50275E-14 4.73926E-14
 -1      2064 2.38027E+01 8.31333E-01-2.29540E-02-1.95692E+00-9.90874E-15 7.87131E-14
 -1      2065 2.45781E+01-4.43646E-01 1.11950E-02-1.78192E+00-8.58211E-14 1.75956E-13
 -1      2066 2.39058E+01-2.34158E-01-1.16998E-02-1.91429E+00 2.95694E-14 1.72189E-13
 -1      2067 2.45560E+01-1.53217E-01 2.04636E-03-2.29299E+00-6.53063E-14 7.19633E-14
 -1      2068 2.50542E+01-6.09843E-01 2.54507E-02-8.12615E-01-1.59222E-13-4.48929E-14
 -1      2069 2.46241E+01-5.95422E-01-1.89463E-02-1.21418E+00-1.17680E-13 8.82593E-14
 -1      2070 2.49438E+01-7.83470E-01 2.04055E-04-1.49928E+00-9.63292E-15 1.33065E-13
 -1      2071 2.48750E+01-4.91990E-01 2.00498E-02 1.70283E-01-6.32758E-14-2.14250E-13
 -1      2072 2.48071E+01-5.82791E-01-1.96286E-02-2.39873E-01-1.57378E-13-1.89383E-13
 -1      2073 2.47943E+01-8.65519E-01-7.33049E-03-3.26875E-01-1.63241E-13-1.60629E-14
 -1      2074 2.42271E+01-2.84631E-01 8.43905E-03 8.48543E-01 2.85457E-13-3.55795E-13
 -1      2075 2.44717E+01-3.92194E-01-1.55726E-02 5.60370E-01 5.92078E-14-2.39976E-13
 -1      2076 2.42411E+01-6.30678E-01-1.07213E-02 6.59245E-01 1.35454E-13-1.70555E-13
 -1      2077 2.33419E+01-1.02000E-01 4.75887E-04 1.17783E+00 1.86911E-13-3.25238E-13
 -1      2078 2.37778E+01-1.84757E-01-9.20117E-03 1.03146E+00 3.59170E-13-2.54977E-13
 -1      2079 2.34746E+01-3.25261E-01-8.49392E-03 1.25470E+00 2.69303E-13-2.43717E-13
 -1      2080 2.23991E+01 2.92300E-02-2.25375E-03 1.23358E+00 2.24357E-13-3.15614E-13
 -1      2081 2.29075E+01-2.55306E-02-2.72818E-03 1.20159E+00 1.21050E-13-1.84620E-13
 -1      2082 2.26415E+01-7.59787E-02-4.59946E-03 1.48402E+00 1.30111E-13-3.54499E-14
 -1      2083 2.15243E+01 1.25570E-01-1.86197E-03 1.09617E+00 1.08828E-14-1.43671E-13
 -1      2084 2.20120E+01 8.69340E-02 2.22987E-03 1.14906E+00 7.56400E-14-1.65101E-13
 -1      2085 2.18364E+01 1.00198E-01-2.56210E-03 1.43955E+00 1.37349E-13-1.01533E-14
 -1      2086 2.08056E+01 2.13891E-01 1.55952E-03 8.08318E-01-1.62816E-13 1.09686E-13
 -1      2087 2.11999E+01 1.76889E-01 4.19566E-03 9.34942E-01-1.13779E-13 1.14284E-14
 -1      2088 2.11213E+01 2.36476E-01-2.11539E-03 1.19841E+00-2.13412E-13 2.68710E-13
 -1      2089 2.03600E+01 2.84622E-01 5.91405E-03 5.07949E-01-2.25134E-13 3.55566E-13
 -1      2090 2.06382E+01 2.53006E-01 3.89783E-03 6.89542E-01-1.41484E-13 2.88647E-13
 -1      2091 2.06197E+01 3.43246E-01-3.56446E-03 9.01889E-01-3.00757E-13 7.38408E-13
 -1      2092 2.03112E+01 4.36552E-01-1.92693E-03 6.24705E-01-2.00511E-13 6.54666E-13
 -1      2093 1.99025E+01 2.17581E+00-7.70712E-03 1.15759E+00-9.13115E-14 5.74647E-14
 -1      2094 1.99894E+01 1.81327E+00 3.43546E-03 1.18797E+00-5.85252E-14-1.15109E-13
 -1      2095 2.00773E+01 1.51461E+00-3.13784E-03 1.17099E+00-5.79693E-14-3.59599E-13
 -1      2096 2.01675E+01 1.15777E+00 6.25802E-03 1.09662E+00-6.67001E-16-6.41856E-14
 -1      2097 2.00492E+01 1.49322E+00 3.01744E-04 1.47292E+00-1.87606E-13-2.14472E-13
 -1      2098 2.02143E+01 9.47439E-01 2.07410E-04 9.70346E-01-3.93609E-15 2.70162E-13
 -1      2099 2.02866E+01 6.43208E-01 6.44541E-03 8.08374E-01-1.67732E-13 4.50182E-13
 -1      2100 2.04138E+01 6.01686E-01 4.95197E-03 9.68057E-01-2.75586E-13 5.67337E-13
 -1      2101 2.02581E+01 1.00175E+00-8.41681E-04 1.30488E+00-1.28570E-13 9.46192E-14
 -1      2102 1.97576E+01 2.74783E+00-1.18319E-02 9.44738E-01-2.76018E-13-2.83789E-13
 -1      2103 1.98280E+01 2.44333E+00-2.50582E-03 1.06075E+00-2.55363E-13-1.77480E-14
 -1      2104 1.98002E+01 2.05425E+00 3.82333E-03 1.38195E+00-2.22727E-13-1.19149E-13
 -1      2105 1.96597E+01 3.15819E+00-1.35788E-02 5.65227E-01-9.92099E-15-1.14145E-14
 -1      2106 1.97019E+01 2.95421E+00-8.23198E-03 7.47219E-01-1.48844E-13 1.89501E-14
 -1      2107 1.96031E+01 2.53042E+00 9.41058E-03 1.05285E+00-1.44412E-13-4.74924E-14
 -1      2108 1.96344E+01 3.32310E+00-1.22093E-02 9.97377E-02 2.04798E-13-6.79456E-14
 -1      2109 1.96374E+01 3.25653E+00-1.30333E-02 3.07663E-01 8.13826E-14-6.76542E-15
 -1      2110 1.94853E+01 2.83699E+00 1.29379E-02 5.40544E-01 2.07854E-13-1.61685E-14
 -1      2111 1.96834E+01 3.22138E+00-8.69688E-03-3.54292E-01 9.90085E-14 1.49596E-13
 -1      2112 1.96490E+01 3.29660E+00-1.53454E-02-1.63352E-01 1.01622E-13-1.75858E-14
 -1      2113 1.94748E+01 2.91052E+00 1.33203E-02-4.61229E-02 2.43941E-13-1.23588E-13
 -1      2114 1.97867E+01 2.88734E+00-4.50891E-03-7.09457E-01-1.01080E-13-1.42325E-14
 -1      2115 1.97280E+01 3.08235E+00-1.44462E-02-5.70304E-01 9.67768E-14 2.01136E-13
 -1      2116 1.95666E+01 2.74565E+00 1.03613E-02-5.85354E-01-9.90825E-14 1.86005E-13
 -1      2117 1.99097E+01 2.39789E+00-9.63569E-04-9.14310E-01-7.47618E-14-3.48648E-13
 -1      2118 1.98459E+01 2.67239E+00-1.05349E-02-8.43946E-01-4.96890E-14-3.54538E-14
 -1      2119 1.97261E+01 2.39137E+00 5.46455E-03-9.77842E-01-8.27207E-14-1.40223E-13
 -1      2120 2.00183E+01 1.85499E+00 1.60828E-03-9.63802E-01 1.25044E-13-3.41095E-13
 -1      2121 1.99655E+01 2.15714E+00-4.95769E-03-9.58788E-01 5.55172E-14-4.56018E-13
 -1      2122 1.99032E+01 1.93426E+00 7.78189E-04-1.17533E+00 9.49254E-14-3.18259E-13
 -1      2123 2.00973E+01 1.31994E+00 3.18070E-03-8.89194E-01 2.57795E-13 6.76387E-13
 -1      2124 2.00615E+01 1.61835E+00 4.50522E-04-9.34174E-01 1.59801E-13 2.36431E-13
 -1      2125 2.00541E+01 1.45524E+00-2.77930E-03-1.18878E+00 3.77160E-13-6.64763E-14
 -1      2126 2.01426E+01 8.57479E-01 3.99894E-03-7.32693E-01 7.08073E-14 3.82076E-13
 -1      2127 2.01237E+01 1.11655E+00 4.55431E-03-8.08972E-01 1.35106E-13 5.16896E-13
 -1      2128 2.01603E+01 1.01425E+00-4.25869E-03-1.06283E+00 2.58406E-13 4.35367E-13
 -1      2129 2.01638E+01 4.90139E-01 2.57606E-03-5.34555E-01-5.99865E-14-1.28316E-13
 -1      2130 2.01527E+01 6.95440E-01 5.37388E-03-6.26920E-01 2.43664E-14 1.39261E-13
 -1      2131 2.02201E+01 6.49533E-01-4.27336E-03-8.52906E-01 3.28554E-14 1.44078E-13
 -1      2132 9.94438E+00-5.91396E+00-2.05021E-01 6.22649E+00 4.37650E-13 1.79093E-13
 -1      2133 6.20246E+00-7.61373E+00-4.65495E-01 4.94867E+00 5.38236E-13-2.00395E-13
 -1      2134 6.08547E-02-7.90831E+00-4.28754E-01 5.38755E-01 7.72299E-14 1.14825E-12
 -1      2135 7.37880E-02-8.13195E+00-4.61411E-01-9.39892E-01-2.40016E-13 1.02590E-12
 -1      2136 3.58875E+00-7.01231E+00-2.88979E-01 4.13043E+00 3.95795E-13-2.08167E-14
 -1      2137 1.70081E+00-7.55992E+00-3.67526E-01 2.63899E+00 1.27676E-13 6.08180E-13
 -1      2138 1.93452E+01-3.90840E+00-5.54851E-02 6.92926E+00 2.27152E-13 1.53655E-13
 -1      2139 1.40100E+01-5.82770E+00-3.75374E-01 6.06466E+00 3.68372E-13 2.42723E-13
 -1      2140 2.93009E+01-9.16967E-01 1.75257E-01 5.50497E+00 1.30895E-13 2.74225E-14
 -1      2141 2.42506E+01-3.03746E+00-1.54630E-01 5.37530E+00 2.37976E-13 1.58484E-13
 -1      2142 1.95183E+01 4.01554E+00-2.70510E-02-1.70318E+00-4.30427E-13-6.60165E-13
 -1      2143 1.96465E+01 3.94547E+00-2.47401E-02-1.95448E+00-4.99384E-13-5.58706E-13
 -1      2144 1.99726E+01 3.24658E+00-1.36519E-02-1.91922E+00-5.34792E-13-4.54843E-13
 -1      2145 1.96975E+01 3.58513E+00-7.04063E-03-1.52144E+00-4.26327E-13-6.43721E-13
 -1      2146 4.05913E+01 5.62688E+00 3.96225E-01 1.69321E+00 2.75391E-13-2.24820E-14
 -1      2147 3.78425E+01 4.53114E+00 2.04222E-01 2.52152E+00 8.12128E-14-3.68594E-14
 -1      2148 4.13971E+01 7.19395E+00 3.00535E-01 1.61605E-01 8.59923E-13-2.69614E-13
 -1      2149 4.15478E+01 6.85283E+00 4.24041E-01 1.29131E+00 6.23501E-13-3.39728E-14
 -1      2150 3.90704E+01 6.28027E+00 2.09203E-01-4.88430E-01 6.87006E-13-4.09117E-13
 -1      2151 4.08283E+01 7.02452E+00 3.59959E-01 8.41912E-02 7.99361E-13-2.26083E-13
 -1      2152 3.58351E+01 2.95898E+00 1.88896E-01-2.77842E+00 5.66450E-13-8.22231E-13
 -1      2153 3.84528E+01 4.31257E+00 2.33222E-01-1.43307E+00 6.13398E-13-7.22811E-13
 -1      2154 2.88548E+01-1.03095E+00-9.15343E-02-3.89916E+00 5.00378E-13-7.07656E-13
 -1      2155 3.38357E+01 1.14692E+00 2.86911E-01-4.01149E+00 4.77438E-13-8.45102E-13
 -1      2156 3.37996E+01 1.03359E+00 2.31635E-01-6.88112E-01 4.88484E-13-7.03992E-13
 -1      2157 1.99689E+01-4.67639E+00-2.44084E-01-5.53999E+00 4.56024E-13-4.49085E-13
 -1      2158 2.52880E+01-2.99644E+00 3.23945E-02-5.61946E+00 4.63463E-13-4.83447E-13
 -1      2159 1.07720E+01-6.57838E+00-4.16528E-01-5.53084E+00 5.30131E-13-5.51670E-13
 -1      2160 1.53625E+01-4.88721E+00-1.19961E-01-6.55755E+00 5.53557E-13-3.20466E-13
 -1      2161 4.43576E+00-7.20205E+00-3.51689E-01-4.29784E+00 4.02012E-13-5.52947E-13
 -1      2162 7.29009E+00-6.40552E+00-2.73756E-01-5.33057E+00 5.71765E-13-6.52367E-13
 -1      2163 1.16251E+01-6.14336E+00-1.12513E-01-6.39020E+00 2.72116E-13-3.90410E-13
 -1      2164 1.35933E-01-8.19586E+00-5.30186E-01-7.74076E-01 6.74599E-14-8.37275E-13
 -1      2165 1.38005E+00-7.16896E+00-3.78998E-01-2.44029E+00 3.44003E-13-7.57006E-13
 -1      2166 6.43512E-01-7.63751E+00-4.16415E-01 2.22858E+00-2.04753E-13-9.06608E-13
 -1      2167-5.56656E-02-8.14658E+00-4.89304E-01 8.27299E-01 6.95971E-15-7.66720E-13
 -1      2168 5.41709E+00-6.09959E+00-2.08484E-01 5.33569E+00-2.06668E-13-7.44071E-13
 -1      2169 2.79438E+00-7.45429E+00-4.20641E-01 3.82698E+00-5.91194E-14-8.27116E-13
 -1      2170 1.26238E+01-4.58916E+00-1.24316E-01 6.81747E+00-4.71734E-13-9.73915E-13
 -1      2171 8.75939E+00-6.39550E+00-3.75310E-01 5.81375E+00-2.28817E-13-8.08690E-13
 -1      2172 2.15298E+01-2.41814E+00 4.90498E-02 6.91881E+00-5.55556E-13-7.81708E-13
 -1      2173 1.68201E+01-4.36043E+00-2.72950E-01 6.33556E+00-4.22995E-13-8.24396E-13
 -1      2174 2.97307E+01 3.64998E-01 1.74007E-01 5.46380E+00-8.50153E-13-4.80060E-13
 -1      2175 2.50129E+01-1.43329E+00-1.36964E-01 5.50223E+00-6.52367E-13-6.32161E-13
 -1      2176 3.53979E+01 3.28633E+00 2.08101E-01 3.26626E+00-7.09155E-13-5.87308E-13
 -1      2177 3.18147E+01 1.86364E+00 3.10605E-02 4.21223E+00-8.52790E-13-6.07514E-13
 -1      2178 3.07791E+01-3.76067E-01 1.88278E-01 2.44655E+00-5.57158E-13-2.88269E-13
 -1      2179 4.03325E+01 6.33117E+00 4.26851E-01 1.54597E+00-5.58997E-13-5.64826E-13
 -1      2180 3.73042E+01 5.54304E+00 1.74403E-01 2.20801E+00-6.55587E-13-6.62914E-13
 -1      2181 4.09710E+01 7.32428E+00 3.20831E-01-2.71959E-01-5.91638E-13-3.17163E-13
 -1      2182 4.09356E+01 7.03430E+00 3.66001E-01 1.01448E+00-5.50560E-13-4.47975E-13
 -1      2183 3.66725E+01 7.55073E+00 3.46273E-01-5.46589E-02-6.31106E-13-3.37896E-13
 -1      2184 3.83314E+01 6.53967E+00 1.66651E-01-1.49453E+00-6.78124E-13-2.16827E-13
 -1      2185 4.02099E+01 7.17174E+00 3.57360E-01-6.45657E-01-5.21527E-13-1.25608E-13
 -1      2186 3.48164E+01 3.61691E+00 1.13737E-01-3.14162E+00-5.62758E-13-1.92957E-13
 -1      2187 3.75373E+01 4.90667E+00 2.38869E-01-2.21572E+00-5.95940E-13-3.70759E-13
 -1      2188 2.87450E+01 3.39230E-01-2.85168E-02-5.20683E+00-5.90444E-13 3.04201E-14
 -1      2189 3.30921E+01 1.89087E+00 2.22550E-01-4.73452E+00-5.69905E-13-2.26041E-13
 -1      2190 2.12187E+01-3.21054E+00-1.93277E-01-6.16324E+00-3.59213E-13 6.30662E-13
 -1      2191 2.59859E+01-1.23287E+00 1.41281E-01-6.46521E+00-5.25247E-13 2.47802E-13
 -1      2192 1.25616E+01-5.79898E+00-3.73983E-01-6.23303E+00-6.65690E-13 3.44391E-13
 -1      2193 1.70258E+01-3.74774E+00-4.32926E-02-7.16625E+00-5.18474E-13 7.22367E-13
 -1      2194 5.54634E+00-7.55396E+00-4.47594E-01-5.01992E+00-1.60760E-13 5.64965E-13
 -1      2195 8.83108E+00-5.91164E+00-1.98933E-01-6.20645E+00-4.81948E-13 3.61645E-13
 -1      2196 1.61732E+00-7.62220E+00-3.84811E-01-2.77895E+00-1.33837E-13 5.11313E-13
 -1      2197 3.35465E+00-6.83725E+00-2.56741E-01-4.22461E+00-2.89990E-13 3.56049E-13
 -1      2198 3.65609E+01 2.85030E+00 3.52966E-01 3.79126E+00 8.09873E-14 8.27116E-14
 -1      2199 3.20088E+01 1.05235E+00 1.15365E-03 4.08926E+00 4.29795E-14-4.10783E-15
 -1      2200 2.38825E+01-4.90068E+00 4.36559E-02 5.51000E+00 1.17240E-13 2.91434E-14
 -1      2201 2.07351E+01 1.10867E+00-2.06936E-02-1.61636E+00-5.51961E-13 4.40229E-13
 -1      2202 3.12847E+01-1.38113E+00 1.46892E-01 2.59841E+00-3.81362E-14-2.70117E-13
 -1      2203 3.54212E+01 3.14034E+00 2.79286E-01 5.36818E-01-8.76521E-14-2.73281E-13
 -1      2204 2.06256E+01 1.33057E+00-1.85144E-02-1.67847E+00-5.90330E-13 1.24853E-13
 -1      2205 6.96578E+00-5.95806E+00-1.89058E-01 5.66790E+00 9.25926E-14 4.71567E-14
 -1      2206 2.23897E+00-5.35877E+00-1.89257E-01 2.16680E+00-3.92464E-14 7.70606E-13
 -1      2207 2.01903E+01 3.78422E-01 3.62797E-03-4.97924E-01-4.48392E-14-9.05799E-14
 -1      2208 1.44808E+01-6.27810E+00-9.98117E-02 6.84664E+00 2.43860E-13 6.65613E-14
 -1      2209 2.22770E+00-5.19361E+00-1.77368E-01-2.48382E+00-1.20265E-13 7.08988E-13
 -1      2210 6.31272E+00-5.80495E+00-1.87696E-01-5.68241E+00-8.74301E-14 4.52388E-13
 -1      2211 1.30715E+01-6.14632E+00-1.28203E-01-7.08251E+00-2.64067E-13 4.74371E-13
 -1      2212 2.16016E+01-4.93957E+00 3.37262E-02-6.36318E+00-2.14828E-13 3.44780E-13
 -1      2213 2.85803E+01-2.19664E+00 1.46484E-01-3.97693E+00-3.65014E-13-1.59039E-13
 -1      2214 3.30547E+01 1.86700E+00 2.23794E-01-1.64226E+00-4.74981E-13-4.85723E-13
 -1      2215 3.65184E+01 8.14176E+00 2.90440E-01 2.18336E-02-6.29385E-13-2.89976E-14
 -1      2216 3.45596E+01 3.99835E+00 2.21908E-01 6.89159E-01-6.44429E-13-4.25604E-13
 -1      2217 2.53350E+01-3.67158E+00 9.19665E-02 4.99435E+00-2.22294E-13-2.83940E-13
 -1      2218 1.73523E+01-5.38699E+00-2.55741E-02 6.90513E+00-1.13243E-14-6.74183E-13
 -1      2219 9.06960E+00-5.73595E+00-1.44676E-01 6.52648E+00 1.15796E-13-8.02053E-13
 -1      2220 3.13496E+00-5.32184E+00-1.78343E-01 3.94554E+00 3.25295E-14-8.63087E-13
 -1      2221 4.16522E+00-6.03923E+00-1.90890E-01-3.90262E+00 3.06477E-13-5.86475E-13
 -1      2222 7.06568E+00-4.77462E+00-1.00314E-01-5.45388E+00 7.16649E-14-5.21472E-13
 -1      2223 4.28886E+00-4.02752E+00 7.18407E-02-3.61426E+00 4.58245E-14-7.25309E-13
 -1      2224 2.82920E+01-3.54284E+00 4.01426E-02-3.23239E+00 1.65395E-13-4.68625E-13
 -1      2225 3.61659E+01 5.36166E+00 2.61545E-01 6.55086E-01 7.60170E-13-2.28317E-13
 -1      2226 3.71641E+01 6.78033E+00 3.74194E-01-2.75439E-01 4.14668E-13-3.25018E-13
 -1      2227 3.70687E+01 7.83928E+00 3.11437E-01 4.72772E-01 8.49321E-13-1.56257E-13
 -1      2228 2.02265E+01-5.80520E+00 3.37245E-02-5.93602E+00 1.53488E-13-1.79523E-13
 -1      2229 1.08390E+00-5.47292E+00-2.46506E-01-6.30078E-02-8.87554E-14-8.82627E-13
 -1      2230 3.50891E+01 5.90373E+00 2.25659E-01-2.48977E-02-4.62075E-13-2.33813E-13
 -1      2231 2.01468E+01 5.06359E-01 3.72531E-03 6.78637E-01 4.47637E-13 1.67419E-13
 -1      2232 2.04148E+01 6.99915E-01 2.07830E-02 9.70205E-01 4.96093E-13 2.36264E-13
 -1      2233 1.95612E+01 3.51571E+00-1.11397E-02-5.91806E-01-1.50144E-13-7.68020E-13
 -1      2234 1.95965E+01 3.46981E+00-1.05000E-02-7.76266E-01-2.20541E-13-7.64468E-13
 -1      2235 1.96429E+01 3.38179E+00-1.26961E-02-9.40881E-01-2.61621E-13-7.41192E-13
 -1      2236 1.97041E+01 3.30071E+00-1.25880E-02-1.13033E+00-3.33515E-13-6.98751E-13
 -1      2237 1.97879E+01 3.03262E+00 1.75253E-04-7.92931E-01-2.26348E-13-6.97969E-13
 -1      2238 1.95138E+01 3.59842E+00-9.61385E-03 9.95947E-02 6.45800E-14-8.00761E-13
 -1      2239 1.95132E+01 3.59915E+00-9.65284E-03-7.99772E-02 4.24714E-15-7.94703E-13
 -1      2240 1.95399E+01 3.55891E+00-9.71887E-03 4.45807E-01 1.78912E-13-7.85825E-13
 -1      2241 1.95225E+01 3.58148E+00-1.01512E-02 2.64860E-01 1.11341E-13-7.96920E-13
 -1      2242 1.96799E+01 3.22109E+00-9.14963E-04 1.69751E-01 8.32051E-14-7.52654E-13
 -1      2243 1.96015E+01 3.46234E+00-1.06092E-02 7.90042E-01 3.04868E-13-7.52029E-13
 -1      2244 1.95653E+01 3.50936E+00-1.12107E-02 6.08485E-01 2.36861E-13-7.69148E-13
 -1      2245 1.97167E+01 3.15742E+00-5.07665E-04 4.88382E-01 1.97730E-13-7.21219E-13
 -1      2246 1.97119E+01 3.28864E+00-1.29516E-02 1.14364E+00 4.32768E-13-6.61798E-13
 -1      2247 1.96494E+01 3.37196E+00-1.28698E-02 9.54266E-01 3.56514E-13-7.17442E-13
 -1      2248 1.97936E+01 3.02376E+00 2.71106E-04 8.04363E-01 3.29983E-13-6.75786E-13
 -1      2249 1.98907E+01 3.00315E+00-1.81699E-02 1.49081E+00 5.40146E-13-5.31232E-13
 -1      2250 1.97914E+01 3.14441E+00-1.51751E-02 1.30035E+00 4.68116E-13-6.03989E-13
 -1      2251 1.99224E+01 2.79870E+00 1.96087E-03 1.11085E+00 4.41655E-13-5.85676E-13
 -1      2252 2.01688E+01 2.54367E+00-2.84031E-02 1.79523E+00 6.29729E-13-3.36359E-13
 -1      2253 2.00178E+01 2.78301E+00-1.70889E-02 1.62072E+00 5.64276E-13-4.48502E-13
 -1      2254 2.01166E+01 2.44811E+00 5.81756E-03 1.37670E+00 5.28559E-13-4.43043E-13
 -1      2255 1.98694E+01 2.68091E-01 4.72580E-03 2.86199E-01 3.39117E-13 7.59165E-14
 -1      2256 2.00303E+01 3.67877E-01 2.01713E-02 4.43295E-01 3.90485E-13 1.45078E-13
 -1      2257 2.02096E+01 6.34455E-01-2.24612E-03 7.05648E-01 4.69685E-13-3.22793E-14
 -1      2258 2.03977E+01 8.56967E-01 1.28924E-02-1.00157E+00-4.69251E-13-1.05901E-14
 -1      2259 2.01863E+01 6.25494E-01-5.63275E-03-6.88000E-01-4.21779E-13-3.42055E-14
 -1      2260 3.16570E+01-1.20041E+00-1.05875E-01 8.60909E-01-1.21705E-13-2.90046E-13
 -1      2261 2.93297E+01-3.16457E+00-2.56632E-02 1.86782E+00-7.39131E-14-3.97071E-13
 -1      2262 2.01290E+01 4.69625E-01 1.78064E-02-4.80318E-01-3.72147E-13-8.32819E-15
 -1      2263 1.99817E+01 3.46823E-01 4.21486E-04-3.05296E-01-3.08681E-13-4.35597E-14
 -1      2264 2.02384E+01 7.24563E-01-9.79899E-03-6.91394E-01-4.08320E-13-1.37594E-13
 -1      2265 1.99190E+01 2.59557E-01 1.09741E-02-1.67129E-01-2.65934E-13-3.68792E-14
 -1      2266 1.98397E+01 1.87996E-01 7.54564E-04-6.99285E-02-2.36828E-13-8.13563E-14
 -1      2267 2.00769E+01 4.17328E-01-4.10340E-03-3.10978E-01-3.04639E-13-1.43168E-13
 -1      2268 1.97953E+01 1.38384E-01 6.44307E-03 1.20360E-02-2.13070E-13-8.04348E-14
 -1      2269 1.97601E+01 9.60252E-02 7.55975E-04 6.52622E-02-1.60942E-13-1.22463E-13
 -1      2270 1.99584E+01 2.27051E-01-3.57245E-03-7.25830E-02-2.53275E-13-1.35999E-13
 -1      2271 1.97342E+01 6.61695E-02 3.59773E-03 1.10894E-01-1.42112E-13-1.50662E-13
 -1      2272 1.97267E+01 4.07323E-02 6.36410E-04 1.37432E-01-1.35351E-13-1.57139E-13
 -1      2273 1.98826E+01 1.14607E-01-2.90697E-03 6.78779E-02-1.91120E-13-1.91371E-13
 -1      2274 1.97150E+01 2.25950E-02 1.86494E-03 1.59723E-01-1.55344E-13-1.61381E-13
 -1      2275 1.97240E+01 7.50893E-03 5.17372E-04 1.69926E-01-1.57713E-13-1.88042E-13
 -1      2276 1.98429E+01 4.67510E-02-2.12404E-03 1.44090E-01-1.63376E-13-1.87634E-13
 -1      2277 1.97221E+01-3.21195E-03 8.00628E-04 1.77509E-01-1.46576E-13-1.93984E-13
 -1      2278 1.97403E+01-1.16343E-02 4.15265E-04 1.77938E-01-1.29463E-13-2.31367E-13
 -1      2279 1.98289E+01 6.09302E-03-1.45216E-03 1.78972E-01-1.61660E-13-2.67625E-13
 -1      2280 1.97447E+01-1.74612E-02 1.51967E-04 1.76698E-01-1.17207E-13-2.17008E-13
 -1      2281 1.97672E+01-2.14685E-02 3.40776E-04 1.71669E-01-1.40955E-13-2.11092E-13
 -1      2282 1.98317E+01-1.70491E-02-9.44652E-04 1.88121E-01-1.20617E-13-2.84409E-13
 -1      2283 1.97752E+01-2.39869E-02-2.28779E-04 1.65643E-01-1.38235E-13-1.87976E-13
 -1      2284 1.97990E+01-2.50140E-02 3.00188E-04 1.58064E-01-1.16997E-13-1.93685E-13
 -1      2285 1.98448E+01-2.85707E-02-5.89226E-04 1.82233E-01-1.38904E-13-2.40031E-13
 -1      2286 1.98090E+01-2.52569E-02-4.33158E-04 1.50047E-01-1.39160E-13-1.75100E-13
 -1      2287 1.98327E+01-2.42369E-02 2.95754E-04 1.41918E-01-1.06055E-13-2.03892E-13
 -1      2288 1.98638E+01-3.22222E-02-3.56345E-04 1.68699E-01-1.24304E-13-2.22751E-13
 -1      2289 1.98436E+01-2.28826E-02-5.21614E-04 1.33872E-01-7.76003E-14-2.08751E-13
 -1      2290 1.98663E+01-2.04163E-02 3.28011E-04 1.26594E-01-3.93144E-14-2.33822E-13
 -1      2291 1.98858E+01-3.04432E-02-2.17550E-04 1.52680E-01-1.13806E-13-1.73300E-13
 -1      2292 1.98777E+01-1.78999E-02-5.35468E-04 1.19924E-01-1.14864E-14-2.78164E-13
 -1      2293 1.98996E+01-1.43568E-02 3.97419E-04 1.14514E-01-5.35336E-14-2.54023E-13
 -1      2294 1.99092E+01-2.48126E-02-1.49852E-04 1.37836E-01-4.03074E-14-2.44793E-13
 -1      2295 1.99113E+01-1.09414E-02-5.03235E-04 1.10266E-01-1.00279E-13-2.31743E-13
 -1      2296 1.99328E+01-6.52744E-03 5.04821E-04 1.07505E-01-8.02446E-14-1.95624E-13
 -1      2297 1.99334E+01-1.63138E-02-1.35813E-04 1.26833E-01-6.37079E-14-2.19791E-13
 -1      2298 1.99451E+01-2.35597E-03-4.44400E-04 1.06508E-01-7.11210E-14-1.74024E-13
 -1      2299 1.99671E+01 2.83306E-03 6.51050E-04 1.07040E-01-9.12960E-14-1.68445E-13
 -1      2300 1.99586E+01-5.51303E-03-1.62568E-04 1.21712E-01-7.51998E-14-1.54345E-13
 -1      2301 1.99804E+01 7.69332E-03-3.71873E-04 1.10003E-01-1.14139E-13-1.30203E-13
 -1      2302 2.00041E+01 1.36233E-02 8.35948E-04 1.14403E-01-6.56297E-14-1.15993E-13
 -1      2303 1.99855E+01 7.30284E-03-2.20677E-04 1.24136E-01-8.67326E-14-1.01309E-13
 -1      2304 2.00191E+01 1.91366E-02-2.93603E-04 1.21967E-01-3.15395E-14-1.51548E-13
 -1      2305 2.00459E+01 2.57835E-02 1.05678E-03 1.30764E-01-1.54782E-14-1.43021E-13
 -1      2306 2.00152E+01 2.20007E-02-3.03124E-04 1.35559E-01-8.36011E-14-8.83399E-14
 -1      2307 2.00634E+01 3.18954E-02-2.13526E-04 1.43518E-01-7.77736E-14-1.44233E-13
 -1      2308 2.00949E+01 3.91835E-02 1.30594E-03 1.57182E-01-8.95220E-14-1.36982E-13
 -1      2309 2.00493E+01 3.84686E-02-4.04553E-04 1.57293E-01-4.62104E-14-1.75072E-13
 -1      2310 2.01160E+01 4.57579E-02-1.31926E-04 1.75626E-01-4.28888E-14-1.48903E-13
 -1      2311 2.01540E+01 5.34803E-02 1.56779E-03 1.94506E-01-3.76381E-15-1.64819E-13
 -1      2312 2.00895E+01 5.64573E-02-5.20772E-04 1.90493E-01-1.07117E-13-1.49004E-13
 -1      2313 2.01796E+01 6.02163E-02-4.51694E-05 2.18959E-01 4.47903E-14-2.07241E-13
 -1      2314 2.02259E+01 6.79280E-02 1.81451E-03 2.43152E-01 5.16060E-14-2.34128E-13
 -1      2315 2.01380E+01 7.53778E-02-6.48695E-04 2.36024E-01 2.95499E-15-1.18290E-13
 -1      2316 2.02575E+01 7.42500E-02 5.52371E-05 2.73580E-01 6.92651E-14-2.45915E-13
 -1      2317 2.03138E+01 8.11286E-02 2.00090E-03 3.02721E-01 7.35736E-14-1.54202E-13
 -1      2318 2.01972E+01 9.40336E-02-7.86926E-04 2.94190E-01 5.39233E-14-1.91416E-13
 -1      2319 2.03529E+01 8.60440E-02 1.84290E-04 3.38480E-01 3.99710E-14-1.35654E-13
 -1      2320 2.04206E+01 9.07124E-02 2.05858E-03 3.71428E-01 4.26120E-14-4.00253E-14
 -1      2321 2.02698E+01 1.10272E-01-9.37189E-04 3.64292E-01 7.94754E-14-1.17629E-13
 -1      2322 2.04689E+01 9.26408E-02 3.65574E-04 4.10877E-01 3.53949E-15-5.05588E-14
 -1      2323 2.05488E+01 9.29685E-02 1.89083E-03 4.45287E-01 4.31359E-14-8.47062E-14
 -1      2324 2.03587E+01 1.20552E-01-1.10663E-03 4.43976E-01 1.26170E-14-7.11859E-14
 -1      2325 2.06084E+01 8.95681E-02 6.32770E-04 4.85282E-01-6.25178E-16-1.49061E-13
 -1      2326 2.07005E+01 8.24969E-02 1.37050E-03 5.17057E-01 4.64075E-14-1.84684E-13
 -1      2327 2.04675E+01 1.19470E-01-1.31037E-03 5.28325E-01-4.18480E-14-1.68853E-13
 -1      2328 2.07739E+01 7.05601E-02 1.02786E-03 5.52319E-01 8.60857E-14-2.21906E-13
 -1      2329 2.08765E+01 5.20779E-02 3.46551E-04 5.75023E-01 3.26519E-14-2.10362E-13
 -1      2330 2.05998E+01 9.93697E-02-1.57191E-03 6.08715E-01-1.49303E-14-1.02994E-13
 -1      2331 2.09668E+01 2.76590E-02 1.59009E-03 5.97457E-01 2.78628E-14-2.60084E-13
 -1      2332 2.10764E+01-6.83073E-03-1.33194E-03 6.01843E-01 3.38440E-14-1.91371E-13
 -1      2333 2.07604E+01 5.03567E-02-1.91574E-03 6.71487E-01 2.02888E-14-2.47087E-13
 -1      2334 2.11867E+01-4.77485E-02 2.32409E-03 6.00004E-01-5.88962E-14-2.44743E-13
 -1      2335 2.12969E+01-1.02225E-01-3.75737E-03 5.74056E-01-4.35212E-14-2.64858E-13
 -1      2336 2.09541E+01-3.86522E-02-2.34190E-03 6.96714E-01-5.10062E-14-2.49508E-13
 -1      2337 2.14296E+01-1.62038E-01 3.13648E-03 5.33221E-01 3.87911E-14-2.41862E-13
 -1      2338 2.15306E+01-2.37224E-01-6.84612E-03 4.63374E-01 9.26787E-15-1.97036E-13
 -1      2339 2.11856E+01-1.76777E-01-2.76630E-03 6.57645E-01-5.12185E-14-2.46843E-13
 -1      2340 2.16848E+01-3.13445E-01 3.72856E-03 3.67123E-01-3.50705E-14-2.05843E-13
 -1      2341 2.17628E+01-4.02238E-01-1.01393E-02 2.41720E-01-2.05992E-14-1.40421E-13
 -1      2342 2.14561E+01-3.64453E-01-2.91637E-03 5.22114E-01-1.06742E-14-1.51179E-13
 -1      2343 2.19295E+01-4.82522E-01 3.48428E-03 7.65706E-02-3.07469E-14-1.17576E-13
 -1      2344 2.19673E+01-5.64030E-01-1.25262E-02-1.07344E-01-1.97758E-14 2.99039E-15
 -1      2345 2.17579E+01-5.82095E-01-2.22854E-03 2.58278E-01 4.00273E-14-7.75129E-14
 -1      2346 2.21229E+01-6.21054E-01 1.52259E-03-3.42229E-01 6.95568E-14-7.83931E-14
 -1      2347 2.21021E+01-6.56693E-01-1.20365E-02-5.68588E-01 1.89926E-13 1.13152E-13
 -1      2348 2.20641E+01-7.75804E-01 1.16070E-04-1.51641E-01 2.49009E-14 4.27992E-14
 -1      2349 2.22050E+01-6.47960E-01-2.75515E-03-8.45909E-01 1.46518E-13 5.82350E-14
 -1      2350 2.21132E+01-5.88159E-01-6.58703E-03-1.06871E+00 1.22496E-13-2.30913E-14
 -1      2351 2.23184E+01-8.49271E-01 4.70429E-03-6.85981E-01 9.29772E-14 1.24028E-14
 -1      2352 2.21124E+01-4.70640E-01-9.13391E-03-1.31768E+00 6.66813E-14 2.65010E-14
 -1      2353 2.19547E+01-2.81535E-01 3.84899E-03-1.45966E+00-7.43069E-14 4.79076E-14
 -1      2354 2.24362E+01-6.82735E-01 1.01998E-02-1.24927E+00 1.02515E-13-7.02101E-14
 -1      2355 2.18232E+01-4.55729E-02-1.46271E-02-1.56921E+00-1.83466E-13 1.06087E-13
 -1      2356 2.16325E+01 2.45873E-01 1.49210E-02-1.54395E+00-1.62621E-13 1.97795E-14
 -1      2357 2.23402E+01-2.02463E-01 1.17463E-02-1.65262E+00-5.83058E-14 1.63207E-13
 -1      2358 2.14157E+01 5.35015E-01-1.37464E-02-1.41139E+00-1.47612E-13 1.04605E-13
 -1      2359 2.12492E+01 8.16330E-01 1.88441E-02-1.17764E+00-7.86584E-14 1.79868E-13
 -1      2360 2.20365E+01 5.13558E-01 4.67235E-03-1.65746E+00-8.52493E-14 3.15391E-13
 -1      2361 2.10707E+01 1.02428E+00-3.28805E-03-7.94922E-01 1.02847E-14 1.75714E-13
 -1      2362 2.09875E+01 1.14545E+00 1.12572E-02-4.09442E-01 1.99511E-14 2.73725E-13
 -1      2363 2.16749E+01 1.19028E+00-7.66493E-03-1.12436E+00-1.11491E-14 3.85355E-13
 -1      2364 2.09679E+01 1.14979E+00 1.13979E-02 8.52289E-02-4.36994E-14 1.74424E-13
 -1      2365 2.09943E+01 1.03562E+00-3.35956E-03 4.73778E-01-4.58691E-14 2.78683E-14
 -1      2366 2.14885E+01 1.47844E+00-1.42392E-02-1.83153E-01-5.35132E-14 1.16822E-13
 -1      2367 2.11384E+01 8.31917E-01 1.97992E-02 8.64649E-01-2.40107E-14 3.77985E-14
 -1      2368 2.12500E+01 5.49424E-01-1.43495E-02 1.10435E+00-1.07280E-13 8.14175E-14
 -1      2369 2.16002E+01 1.20681E+00-8.25680E-03 7.67934E-01-1.16993E-13 1.48594E-13
 -1      2370 2.14414E+01 2.55380E-01 1.63253E-02 1.24460E+00-1.16403E-13 1.97394E-14
 -1      2371 2.15796E+01-4.53200E-02-1.59535E-02 1.27195E+00-1.23617E-13 1.71569E-13
 -1      2372 2.19007E+01 5.28251E-01 4.14601E-03 1.32019E+00-1.24695E-13 1.54847E-13
 -1      2373 2.16900E+01-2.90389E-01 5.07356E-03 1.16123E+00-1.82207E-13 1.94341E-13
 -1      2374 2.17952E+01-4.88621E-01-1.05787E-02 1.01467E+00-1.02808E-13 2.40312E-13
 -1      2375 2.21568E+01-2.07465E-01 1.16312E-02 1.32322E+00-1.31417E-13 2.28277E-13
 -1      2376 2.17718E+01-6.11178E-01-5.81466E-03 7.56985E-01-1.83013E-13 2.23106E-13
 -1      2377 2.18105E+01-6.72994E-01-3.47534E-03 5.26381E-01-1.29024E-13 5.36632E-14
 -1      2378 2.22045E+01-7.08247E-01 1.03904E-02 9.08805E-01-2.12653E-13 1.36504E-13
 -1      2379 2.16778E+01-6.78151E-01-1.17661E-02 2.39044E-01 6.48140E-14 6.80206E-14
 -1      2380 2.16450E+01-6.33097E-01 1.73499E-03 8.05148E-03 2.45305E-13 1.73167E-14
 -1      2381 2.20309E+01-8.77701E-01 4.98956E-03 3.25429E-01-1.05908E-13 1.50053E-13
 -1      2382 2.14536E+01-5.60606E-01-1.27320E-02-2.29192E-01 1.42670E-13-5.95900E-14
 -1      2383 2.13642E+01-4.56029E-01 4.94479E-03-4.05971E-01 1.79928E-13 1.51682E-14
 -1      2384 2.17114E+01-7.79168E-01 1.35558E-04-2.22140E-01 9.63383E-14 1.19156E-13
 -1      2385 2.11576E+01-3.47153E-01-1.06268E-02-5.56291E-01 2.90739E-13 3.73019E-14
 -1      2386 2.10335E+01-2.21222E-01 6.47339E-03-6.53792E-01 1.92164E-13 1.08425E-13
 -1      2387 2.13331E+01-5.26299E-01-2.29428E-03-6.18947E-01 1.88043E-13-2.27371E-14
 -1      2388 2.08370E+01-1.02872E-01-7.21796E-03-7.09333E-01 1.32797E-14 1.65348E-13
 -1      2389 2.06982E+01 1.70617E-02 5.20023E-03-7.21086E-01 1.37231E-14 1.31617E-13
 -1      2390 2.09569E+01-2.15312E-01-2.55865E-03-8.24448E-01 1.25051E-13 6.86129E-15
 -1      2391 1.96213E+01 7.24954E-02 2.07222E-03-6.50609E-02 1.79380E-13-5.28915E-14
 -1      2392 1.96489E+01 1.04194E-01 6.91446E-03-1.89448E-02 2.26231E-13 5.01465E-15
 -1      2393 1.95975E+01 3.07455E-02 1.34370E-03-1.30760E-01 1.05973E-13-1.12567E-13
 -1      2394 1.95946E+01 4.96038E-02 3.68743E-03-1.08240E-01 1.38545E-13-6.80708E-14
 -1      2395 1.97665E+01 8.97825E-02-3.17938E-03-7.03316E-02 1.98454E-13-1.60532E-13
 -1      2396 1.96095E+01 5.88700E-03 8.85629E-04-1.59376E-01 1.11767E-13-1.39337E-13
 -1      2397 1.95895E+01 1.70333E-02 1.82286E-03-1.51048E-01 1.03156E-13-1.16342E-13
 -1      2398 1.97323E+01 3.59783E-02-2.29485E-03-1.42775E-01 1.26944E-13-2.06319E-13
 -1      2399 1.96418E+01-8.42499E-03 5.79992E-04-1.65491E-01 1.75265E-13-1.58868E-13
 -1      2400 1.96134E+01-2.16177E-03 7.28040E-04-1.65582E-01 1.27745E-13-1.44000E-13
 -1      2401 1.97290E+01 4.15189E-03-1.53272E-03-1.74890E-01 1.38817E-13-2.34149E-13
 -1      2402 1.96842E+01-1.58610E-02 3.78295E-04-1.58588E-01 1.36540E-13-1.38560E-13
 -1      2403 1.96526E+01-1.28016E-02 8.13018E-05-1.63370E-01 1.84158E-13-1.24336E-13
 -1      2404 1.97447E+01-1.38888E-02-9.66722E-04-1.82284E-01 1.59478E-13-1.88548E-13
 -1      2405 1.97303E+01-1.86928E-02 2.58641E-04-1.45005E-01 1.15548E-13-1.49157E-13
 -1      2406 1.96987E+01-1.77835E-02-2.85567E-04-1.51992E-01 1.35775E-13-1.30455E-13
 -1      2407 1.97709E+01-2.29266E-02-5.77512E-04-1.75346E-01 1.46074E-13-1.98253E-13
 -1      2408 1.97763E+01-1.83784E-02 2.07309E-04-1.29067E-01 1.19422E-13-1.90062E-13
 -1      2409 1.97463E+01-1.89413E-02-4.70209E-04-1.36561E-01 1.09021E-13-1.72874E-13
 -1      2410 1.98021E+01-2.59323E-02-3.27741E-04-1.61127E-01 1.36740E-13-2.54115E-13
 -1      2411 1.98206E+01-1.58527E-02 2.15294E-04-1.13783E-01 1.58989E-13-2.47104E-13
 -1      2412 1.97927E+01-1.74582E-02-5.34586E-04-1.20596E-01 1.43250E-13-2.37262E-13
 -1      2413 1.98352E+01-2.48048E-02-1.83495E-04-1.44491E-01 1.42467E-13-2.86203E-13
 -1      2414 1.98628E+01-1.16840E-02 2.77834E-04-1.01324E-01 5.25367E-14-2.24578E-13
 -1      2415 1.98369E+01-1.40793E-02-5.20001E-04-1.06584E-01 1.15057E-13-2.28895E-13
 -1      2416 1.98685E+01-2.07486E-02-1.18731E-04-1.28870E-01 1.17180E-13-2.43069E-13
 -1      2417 1.99037E+01-6.16702E-03 3.94225E-04-9.33606E-02 2.04389E-14-1.79129E-13
 -1      2418 1.98790E+01-9.23321E-03-4.54250E-04-9.63744E-02 3.17748E-14-2.03321E-13
 -1      2419 1.99013E+01-1.44791E-02-1.14670E-04-1.16776E-01 2.20451E-14-2.26823E-13
 -1      2420 1.99448E+01 6.16687E-04 5.67590E-04-9.13196E-02-2.18777E-14-2.00733E-13
 -1      2421 1.99201E+01-3.10705E-03-3.55851E-04-9.14667E-02 2.09379E-14-1.78188E-13
 -1      2422 1.99344E+01-6.34549E-03-1.58124E-04-1.10184E-01 1.81528E-14-1.37079E-13
 -1      2423 1.99886E+01 8.76015E-03 8.04621E-04-9.65858E-02 8.48968E-14-1.98196E-13
 -1      2424 1.99622E+01 4.30469E-03-2.36928E-04-9.32332E-02 2.89508E-14-1.99824E-13
 -1      2425 1.99687E+01 3.59019E-03-2.39955E-04-1.10813E-01 3.63915E-14-1.89048E-13
 -1      2426 2.00379E+01 1.85036E-02 1.11515E-03-1.10664E-01 1.06931E-13-1.85038E-13
 -1      2427 2.00080E+01 1.31676E-02-1.05297E-04-1.03096E-01 1.42228E-13-1.58139E-13
 -1      2428 2.00060E+01 1.55008E-02-3.53808E-04-1.20356E-01 9.97084E-14-1.39940E-13
 -1      2429 2.00965E+01 3.02123E-02 1.51150E-03-1.35310E-01-5.79803E-14-2.13732E-13
 -1      2430 2.00606E+01 2.37831E-02 3.39037E-05-1.22669E-01 4.57135E-14-1.96710E-13
 -1      2431 2.00486E+01 2.97569E-02-4.94792E-04-1.40652E-01 4.09210E-14-2.19538E-13
 -1      2432 2.01687E+01 4.43516E-02 2.00731E-03-1.72634E-01 2.00545E-14-3.45182E-13
 -1      2433 2.01239E+01 3.65664E-02 1.76811E-04-1.53880E-01-9.55757E-14-2.96984E-13
 -1      2434 2.00993E+01 4.68934E-02-6.58122E-04-1.73828E-01-2.29575E-14-2.54691E-13
 -1      2435 2.02595E+01 6.14456E-02 2.61489E-03-2.25166E-01 3.74532E-14-3.72255E-13
 -1      2436 2.02024E+01 5.20158E-02 3.19541E-04-1.99042E-01 8.06617E-14-3.25472E-13
 -1      2437 2.01612E+01 6.75682E-02-8.37811E-04-2.22396E-01 3.95865E-14-2.66961E-13
 -1      2438 2.03747E+01 8.19928E-02 3.34021E-03-2.95850E-01 1.19029E-13-3.75289E-13
 -1      2439 2.03014E+01 7.06551E-02 4.57054E-04-2.60896E-01 5.47379E-14-3.68848E-13
 -1      2440 2.02378E+01 9.24885E-02-1.02555E-03-2.89297E-01 8.43376E-14-3.34312E-13
 -1      2441 2.05207E+01 1.06289E-01 4.17321E-03-3.87917E-01 1.26978E-13-3.24688E-13
 -1      2442 2.04268E+01 9.29140E-02 5.82367E-04-3.42552E-01 1.70521E-13-3.30405E-13
 -1      2443 2.03332E+01 1.22261E-01-1.21034E-03-3.77852E-01 1.17762E-13-3.84110E-13
 -1      2444 2.07046E+01 1.34069E-01 5.07040E-03-5.04517E-01-1.29781E-13-3.29330E-13
 -1      2445 2.05851E+01 1.18879E-01 6.86724E-04-4.47255E-01 6.31331E-15-3.50016E-13
 -1      2446 2.04515E+01 1.57086E-01-1.38034E-03-4.91551E-01 5.26014E-14-3.53603E-13
 -1      2447 2.09334E+01 1.63806E-01 5.92582E-03-6.47893E-01-5.59930E-14-5.28591E-13
 -1      2448 2.07833E+01 1.47796E-01 7.62276E-04-5.77836E-01-1.31104E-13-4.20217E-13
 -1      2449 2.05969E+01 1.96147E-01-1.52970E-03-6.33543E-01-4.01312E-14-5.17621E-13
 -1      2450 2.12141E+01 1.91433E-01 6.52697E-03-8.17754E-01-1.87797E-14-4.51397E-13
 -1      2451 2.10289E+01 1.77135E-01 8.10584E-04-7.35559E-01-6.57465E-14-4.95559E-13
 -1      2452 2.07737E+01 2.36461E-01-1.67583E-03-8.05603E-01-4.42950E-14-6.01699E-13
 -1      2453 2.15529E+01 2.08166E-01 6.49766E-03-1.00829E+00 6.04555E-14-3.55521E-13
 -1      2454 2.13292E+01 2.00916E-01 8.63444E-04-9.17934E-01 7.50702E-16-3.53904E-13
 -1      2455 2.09869E+01 2.70837E-01-1.89455E-03-1.00621E+00-8.09534E-14-4.73835E-13
 -1      2456 2.19547E+01 1.97217E-01 5.24485E-03-1.20313E+00 2.68520E-14-1.97844E-13
 -1      2457 2.16921E+01 2.07014E-01 1.02585E-03-1.11485E+00 8.99992E-14-2.89845E-13
 -1      2458 2.12426E+01 2.84548E-01-2.38038E-03-1.22722E+00 2.76055E-14-3.67092E-13
 -1      2459 2.24234E+01 1.29899E-01 1.95448E-03-1.36763E+00-9.49519E-14-1.32817E-13
 -1      2460 2.21261E+01 1.73416E-01 1.54867E-03-1.30225E+00-2.49286E-14-1.05142E-13
 -1      2461 2.15509E+01 2.50633E-01-3.52320E-03-1.44845E+00-3.10549E-14-2.88085E-13
 -1      2462 2.29625E+01-3.59237E-02-4.26424E-03-1.43896E+00-8.21769E-14 8.71699E-17
 -1      2463 2.26424E+01 6.47923E-02 2.89883E-03-1.43277E+00-3.94626E-14-8.85459E-14
 -1      2464 2.19314E+01 1.25163E-01-5.93574E-03-1.62951E+00-1.00896E-13-1.41807E-13
 -1      2465 2.35743E+01-3.45891E-01-1.39289E-02-1.31767E+00 9.18189E-15-1.11896E-13
 -1      2466 2.32549E+01-1.65328E-01 5.62671E-03-1.42452E+00-1.33452E-14-4.24305E-14
 -1      2467 2.24195E+01-1.51942E-01-1.02387E-02-1.69887E+00 7.99838E-15-1.98516E-13
 -1      2468 2.42510E+01-8.10768E-01-2.62370E-02-8.74421E-01-2.95770E-14-1.86715E-13
 -1      2469 2.39726E+01-5.53556E-01 9.22101E-03-1.15579E+00-5.94221E-14-2.10730E-13
 -1      2470 2.30699E+01-6.33938E-01-1.62713E-02-1.54337E+00 1.35998E-14-1.78251E-13
 -1      2471 2.49438E+01-1.31798E+00-3.75154E-02 2.77581E-03-9.03878E-14 1.40151E-13
 -1      2472 2.47727E+01-1.06624E+00 1.09757E-02-4.84576E-01-3.56789E-14 3.58047E-15
 -1      2473 2.39385E+01-1.30363E+00-2.25383E-02-1.01241E+00-1.71782E-13-1.90110E-13
 -1      2474 2.55224E+01-1.50415E+00-3.19835E-02 1.27885E+00-4.45338E-14 3.84125E-13
 -1      2475 2.55283E+01-1.48439E+00 1.18210E-03 6.61659E-01-9.07694E-14 3.93536E-13
 -1      2476 2.50156E+01-1.93036E+00-2.36812E-02 3.40511E-02-1.91734E-13 3.33802E-13
 -1      2477 2.57303E+01-8.35871E-01 1.94374E-04 2.47869E+00 1.63870E-13 5.53427E-13
 -1      2478 2.59250E+01-1.31116E+00-2.96107E-02 2.03353E+00 3.60692E-14 4.60648E-13
 -1      2479 2.60251E+01-1.92031E+00-3.05150E-02 1.56441E+00-5.01808E-14 6.43936E-13
 -1      2480 2.53482E+01 7.88130E-01 2.14817E-03 2.79491E+00 2.31634E-13 5.20422E-13
 -1      2481 2.57136E+01-1.59468E-01-7.80459E-02 2.90107E+00 3.53974E-13 6.93204E-13
 -1      2482 2.66198E+01-7.72393E-01-1.49077E-02 2.96083E+00 1.26956E-13 7.95190E-13
 -1      2483 2.46834E+01 2.39125E+00-5.13502E-02 1.43703E+00 1.24512E-13 4.03992E-13
 -1      2484 2.50138E+01 1.71055E+00-9.26422E-02 2.26394E+00 1.65874E-13 4.56685E-13
 -1      2485 2.65131E+01 1.70985E+00-3.85278E-02 2.88210E+00 2.26846E-13 6.91655E-13
 -1      2486 2.46222E+01 2.40738E+00-9.05736E-02-9.32782E-01 3.87260E-14 7.98563E-14
 -1      2487 2.46040E+01 2.67803E+00-5.18754E-02 9.38564E-02-4.78784E-15 2.10694E-13
 -1      2488 2.60362E+01 3.46063E+00-7.97652E-02 8.43604E-01 2.36963E-13 4.38731E-13
 -1      2489 2.51838E+01 8.16948E-01-8.81062E-02-2.48229E+00 2.77556E-16 1.72886E-13
 -1      2490 2.48650E+01 1.73197E+00-2.05247E-02-1.98548E+00 8.40508E-14 1.30650E-13
 -1      2491 2.61113E+01 2.79591E+00-7.58509E-02-1.65812E+00 4.23689E-14 3.72820E-13
 -1      2492 2.56080E+01-8.57195E-01-4.77503E-02-2.29138E+00-1.43520E-13 3.78504E-14
 -1      2493 2.53341E+01-1.20558E-01-8.69933E-03-2.51766E+00-1.50668E-13-2.71137E-14
 -1      2494 2.64630E+01 4.54123E-01-3.88848E-02-2.70857E+00 4.66294E-15 2.29056E-13
 -1      2495 2.53765E+01-1.52164E+00-7.56134E-03-1.04320E+00-3.68186E-14 1.13349E-13
 -1      2496 2.53218E+01-1.32385E+00-2.52306E-02-1.62830E+00 6.61376E-14 1.41510E-14
 -1      2497 2.61902E+01-1.48908E+00-1.38080E-02-1.90721E+00-4.75106E-14-5.56222E-14
 -1      2498 2.46346E+01-1.34215E+00 1.27125E-02 2.96131E-01 9.71046E-14-1.38612E-13
 -1      2499 2.48004E+01-1.50214E+00-3.05769E-02-2.76084E-01 3.76851E-14 3.43991E-14
 -1      2500 2.52530E+01-2.06693E+00-7.37569E-03-3.66506E-01 6.10382E-14 5.20100E-14
 -1      2501 2.37016E+01-8.38101E-01 1.18861E-02 1.24224E+00 2.54631E-13-2.86646E-13
 -1      2502 2.40195E+01-1.10470E+00-2.65830E-02 8.52837E-01 9.56978E-14-2.10212E-13
 -1      2503 2.40572E+01-1.69498E+00-1.64561E-02 9.55447E-01 1.92188E-13-3.86842E-13
 -1      2504 2.28071E+01-3.53026E-01 8.19368E-03 1.71656E+00 2.37939E-13-1.94258E-13
 -1      2505 2.31943E+01-5.83388E-01-1.67371E-02 1.52795E+00 3.23963E-13-1.00718E-13
 -1      2506 2.29743E+01-9.87535E-01-1.65202E-02 1.76646E+00 1.87340E-13-2.67451E-13
 -1      2507 2.20227E+01 4.05907E-03 6.41072E-03 1.82502E+00 4.22200E-14-7.12382E-14
 -1      2508 2.24198E+01-1.60840E-01-7.45448E-03 1.79465E+00 2.29140E-14-4.25467E-14
 -1      2509 2.21273E+01-3.62313E-01-1.28340E-02 2.09724E+00 8.44262E-14-1.61063E-13
 -1      2510 2.13526E+01 2.55226E-01 5.59814E-03 1.67666E+00-1.17872E-13 4.25841E-13
 -1      2511 2.17241E+01 1.39344E-01-1.47398E-04 1.76247E+00 1.84476E-14 2.09627E-13
 -1      2512 2.14795E+01 9.28305E-02-9.76484E-03 2.09562E+00-1.63845E-13 1.45774E-13
 -1      2513 2.07955E+01 4.55737E-01 7.32707E-03 1.34890E+00-3.65260E-13 6.17455E-13
 -1      2514 2.11180E+01 3.57986E-01 4.18488E-03 1.51969E+00-1.96441E-13 4.93686E-13
 -1      2515 2.09683E+01 4.20495E-01-8.29804E-03 1.85767E+00-2.17966E-13 5.20832E-13
 -1      2516 2.05878E+01 5.37968E-01 4.31385E-03 1.10006E+00-2.91345E-13 6.14920E-13
 -1      2517 1.92817E+01 2.32943E+00-1.48876E-02 1.09478E+00 9.34612E-14 2.36289E-13
 -1      2518 1.94228E+01 2.15220E+00 1.35819E-03 1.32766E+00-5.58616E-14-1.56558E-13
 -1      2519 1.91266E+01 2.55165E+00-1.17966E-02 4.59138E-01 3.40381E-13 2.35805E-14
 -1      2520 1.91839E+01 2.46437E+00-5.86472E-03 7.64651E-01 2.52703E-13 2.64689E-13
 -1      2521 1.89997E+01 2.15711E+00 1.02535E-02 1.04950E+00 1.68725E-13 3.58476E-13
 -1      2522 1.99577E+01 1.45340E+00-9.47719E-03 1.71004E+00-2.49106E-13-2.12610E-13
 -1      2523 2.01684E+01 1.18300E+00 9.89400E-03 1.69505E+00-2.17801E-13-3.10081E-13
 -1      2524 1.95905E+01 1.93037E+00-1.28219E-02 1.53652E+00-3.42729E-13-1.75785E-13
 -1      2525 1.97757E+01 1.69855E+00 7.61813E-03 1.64277E+00-3.04826E-13-1.82318E-14
 -1      2526 1.97937E+01 1.37540E+00-4.34166E-03 1.89834E+00-2.01295E-13-2.95488E-13
 -1      2527 1.93565E+01 1.81709E+00 6.01800E-03 1.62628E+00-1.35308E-13 6.06236E-14
 -1      2528 1.91572E+01 2.54628E+00-5.89929E-03-2.33356E-01 2.37119E-13-1.87671E-13
 -1      2529 1.91177E+01 2.56370E+00-1.22815E-02 7.94668E-02 2.83371E-13-2.09657E-13
 -1      2530 1.88566E+01 2.29891E+00 1.29927E-02 2.90056E-01 3.24906E-13-7.85381E-14
 -1      2531 1.93527E+01 2.31913E+00 2.85187E-04-8.34635E-01-6.15843E-14 9.67726E-14
 -1      2532 1.92348E+01 2.43285E+00-1.58504E-02-5.78740E-01 5.81491E-14 6.69239E-14
 -1      2533 1.89509E+01 2.20330E+00 1.11962E-02-4.87000E-01 3.03563E-13-2.12971E-13
 -1      2534 1.96400E+01 1.93418E+00 4.35949E-03-1.23469E+00 8.13841E-14-1.06201E-13
 -1      2535 1.94865E+01 2.11760E+00-1.50121E-02-1.07743E+00-4.34169E-14 6.52659E-14
 -1      2536 1.92386E+01 1.90282E+00 5.84818E-03-1.11361E+00 1.22130E-13 9.20753E-14
 -1      2537 1.99262E+01 1.49239E+00 5.95551E-03-1.39485E+00 2.64949E-13-2.84238E-13
 -1      2538 1.97835E+01 1.70575E+00-1.04527E-02-1.34440E+00 1.17273E-13-3.21280E-13
 -1      2539 1.96167E+01 1.49199E+00 2.29598E-04-1.48276E+00 8.87735E-14-2.18237E-13
 -1      2540 2.01558E+01 1.06136E+00 5.80833E-03-1.34999E+00 3.65297E-13 1.13950E-14
 -1      2541 2.00485E+01 1.27886E+00-4.44227E-03-1.38751E+00 3.97302E-13-3.22763E-13
 -1      2542 1.99766E+01 1.06934E+00-3.85766E-03-1.58349E+00 2.88325E-13-1.66308E-13
 -1      2543 2.02974E+01 6.99612E-01 4.12307E-03-1.16279E+00 2.02863E-13 3.85585E-13
 -1      2544 2.02343E+01 8.93993E-01 5.18016E-04-1.25716E+00 2.87590E-13 3.33656E-13
 -1      2545 2.02513E+01 7.04047E-01-5.09557E-03-1.46937E+00 3.43617E-13 3.17091E-14
 -1      2546 2.03645E+01 4.29242E-01 4.47597E-03-9.03149E-01-1.09916E-13-2.74138E-14
 -1      2547 2.03372E+01 5.86254E-01 4.77381E-03-1.02400E+00-5.05708E-14 2.87166E-13
 -1      2548 2.04211E+01 4.37294E-01 2.83229E-04-1.22248E+00 1.25478E-13 1.29911E-13
 -1      2549 4.43805E+00-3.40366E+00 6.94942E-02 3.17844E+00-2.31537E-13 6.08347E-13
 -1      2550 2.92593E+00-3.62530E+00 3.06775E-02 7.62175E-01-2.60587E-13 8.89455E-13
 -1      2551 1.78683E+01-5.98335E+00-4.93679E-02 6.92129E+00 1.44273E-13 1.19522E-14
 -1      2552 1.38078E+01-5.88335E+00 1.11792E-02 6.79798E+00 1.19960E-13-1.91097E-14
 -1      2553 1.97027E+01 1.43210E-01 3.26976E-03 6.09604E-02 2.50212E-13 1.07043E-14
 -1      2554 1.97814E+01 1.98012E-01 1.23834E-02 1.47120E-01 2.85137E-13 5.97389E-14
 -1      2555 1.98476E+01 1.80773E-01-3.86590E-03 6.65404E-02 2.72229E-13-1.45833E-13
 -1      2556 2.02960E+01 3.18375E-01-1.91952E-03-6.01328E-01 1.31702E-14 3.39884E-14
 -1      2557 3.14391E+00-3.46807E+00 3.55863E-02-1.16625E+00-1.04684E-13 8.49543E-13
 -1      2558 4.55759E+00-3.10939E+00 8.85074E-02-3.31404E+00-8.14349E-14 5.25746E-13
 -1      2559 5.04918E+00-2.04088E+00 1.70034E-01-1.62950E-01-1.67874E-13 7.25198E-13
 -1      2560 1.05820E+01-5.05866E+00 4.88911E-02 6.69368E+00 6.78901E-14-5.04041E-14
 -1      2561 7.66728E+00-4.18431E+00 9.62410E-02 5.46169E+00-1.68421E-13 6.73905E-14
 -1      2562 2.05464E+01 1.95503E+00-1.38811E-02-1.89868E+00-5.99871E-13-1.14731E-13
 -1      2563 2.04127E+01 1.21534E+00-6.08970E-03-1.28719E+00-5.35985E-13-6.49551E-14
 -1      2564 2.03782E+01 1.37461E+00 5.44222E-03-1.23552E+00-4.97289E-13-1.88139E-13
 -1      2565 2.02879E+01 2.38491E+00-5.27153E-03-1.84405E+00-5.90574E-13-2.74437E-13
 -1      2566 7.45831E+00-3.97608E+00 1.18077E-01-5.61361E+00-3.93852E-14 3.15720E-13
 -1      2567 9.98079E+00-4.87939E+00 6.81731E-02-6.81640E+00 2.77556E-14 4.97019E-13
 -1      2568 2.68359E+01-3.83266E+00-8.50278E-02 3.62837E+00-9.48269E-14 7.98805E-14
 -1      2569 2.38791E+01-4.88620E+00 1.97283E-02 4.80332E+00 1.12743E-13-8.25451E-14
 -1      2570 2.67479E+01-4.83176E+00-1.43637E-02-2.97232E+00 3.05311E-14-3.48999E-13
 -1      2571 2.99104E+01-2.98956E+00-4.85687E-02-1.56654E+00 1.03015E-13-5.71432E-13
 -1      2572 3.33199E+01 3.42354E+00-3.53768E-02 1.63174E+00 6.72046E-13-8.07132E-14
 -1      2573 3.32341E+01 5.39276E+00-1.43120E-01 1.72220E+00 8.65474E-13 1.14769E-13
 -1      2574 1.95206E+01 3.58456E+00-1.01111E-02-2.45299E-01-4.20253E-14-7.95026E-13
 -1      2575 1.95366E+01 3.56373E+00-9.71991E-03-4.26126E-01-1.05521E-13-7.90603E-13
 -1      2576 1.97129E+01 3.16301E+00-7.24833E-04-4.73668E-01-1.21686E-13-7.29979E-13
 -1      2577 1.96786E+01 3.22324E+00-9.59295E-04-1.51988E-01-2.71774E-14-7.51018E-13
 -1      2578 3.25804E+01 6.80665E+00-1.90544E-01 7.48982E-01 6.78180E-13-2.53533E-13
 -1      2579 3.34098E+01 7.03216E+00-1.08621E-01-6.04189E-02 6.33826E-13-3.17635E-13
 -1      2580 1.86996E+01-6.01421E+00 2.31515E-02-5.92073E+00 4.57967E-15-4.56926E-15
 -1      2581 2.26706E+01-5.83607E+00-7.23350E-02-5.02779E+00 1.55431E-14-2.74669E-13
 -1      2582 3.34868E+01 6.44116E+00-1.64932E-01-6.69230E-01 5.28577E-13-6.34243E-13
 -1      2583 3.31564E+01 5.33002E+00-1.08223E-01-1.15931E+00 1.86018E-13-5.70544E-13
 -1      2584 3.07165E+01 6.24197E+00-3.86978E-02-6.88717E-01 3.92408E-13-5.11646E-13
 -1      2585 3.14351E+01-8.14187E-01-4.59498E-02 1.85426E-01 2.34840E-13-3.40283E-13
 -1      2586 3.27314E+01 1.06151E+00-1.54924E-01 8.49055E-01 3.97321E-13-2.70672E-13
 -1      2587 2.67801E+00-3.30423E+00 4.78565E-02 1.07530E+00-1.76997E-13-8.60867E-13
 -1      2588 2.96130E+00-3.20134E+00 7.18326E-02-1.10382E+00-1.11390E-13-9.29923E-13
 -1      2589 1.13712E+01-5.23414E+00 6.75284E-02-6.17989E+00 8.12128E-14-2.91211E-13
 -1      2590 1.47762E+01-5.62662E+00-2.23655E-02-6.70104E+00 4.79616E-14 5.14588E-14
 -1      2591 3.20814E+01 4.34966E+00-8.16112E-02 8.16787E-01-3.61239E-13-3.06533E-13
 -1      2592 3.24636E+01 6.04340E+00-1.47412E-01 7.74777E-01-3.94573E-13-1.83215E-13
 -1      2593 5.63974E+00-3.49003E+00 6.13818E-02 4.80792E+00 2.44332E-13-5.93192E-13
 -1      2594 3.56628E+00-3.52564E+00 5.02108E-02 2.87695E+00 6.50452E-14-6.98552E-13
 -1      2595 4.93035E+00-1.96827E+00 1.45799E-01 1.97733E+00-2.12885E-14-5.76650E-13
 -1      2596 1.25359E+01-5.11551E+00 9.28473E-03 7.21873E+00 2.80886E-13-6.34395E-13
 -1      2597 9.04823E+00-4.54176E+00 6.75058E-02 6.43409E+00 3.18190E-13-6.31273E-13
 -1      2598 2.01120E+01-5.38350E+00-4.81485E-02 6.51324E+00 2.47635E-13-4.59910E-13
 -1      2599 1.62851E+01-5.55585E+00 3.03660E-02 6.84935E+00 3.27072E-13-5.92493E-13
 -1      2600 3.05201E+01-5.19663E-01-1.25146E-01 8.85655E-01-3.52569E-13 6.00631E-14
 -1      2601 2.88960E+01-2.12712E+00-4.10880E-02 1.75535E+00-2.24088E-13 9.63396E-14
 -1      2602 3.28374E+01 4.50026E+00-1.08635E-01-7.28231E-01-4.78950E-13-7.93809E-15
 -1      2603 3.15266E+01 2.18356E+00-7.72008E-02-2.69946E-01-4.24411E-13 3.50275E-14
 -1      2604 3.36100E+01 7.30819E+00-1.06681E-01-5.20192E-01-6.49314E-13 9.15656E-14
 -1      2605 3.30998E+01 6.50265E+00-1.01994E-01-7.65383E-01-6.56530E-13-1.26843E-14
 -1      2606 3.26727E+01 7.46908E+00-1.48331E-01 3.21174E-01-5.79647E-13 2.18436E-14
 -1      2607 3.35448E+01 7.77010E+00-7.65436E-02-1.13216E-01-6.03295E-13-7.35662E-14
 -1      2608 3.10919E+01 7.38331E+00-6.29041E-02-5.04107E-01-5.36404E-13 1.60753E-13
 -1      2609 3.06682E+01-3.56272E-01-5.62797E-02-9.46487E-01-4.00437E-13-5.92859E-13
 -1      2610 3.16841E+01 1.60931E+00-1.62494E-01 9.25934E-02-3.99389E-13-5.29465E-13
 -1      2611 2.71680E+01-3.77501E+00-1.55956E-03-3.37037E+00-1.64618E-13-4.25465E-13
 -1      2612 2.95299E+01-2.18900E+00-7.96819E-02-2.37844E+00-3.63716E-13-6.43680E-13
 -1      2613 2.95843E+01-1.80777E+00 3.48029E-03-5.77307E-01-2.29622E-13-7.85816E-13
 -1      2614 2.02583E+01-5.78535E+00 1.44403E-02-6.33120E+00 2.07889E-14 2.72185E-13
 -1      2615 2.38869E+01-5.18508E+00-7.56749E-02-5.48455E+00 3.37785E-14 1.80411E-14
 -1      2616 1.28467E+01-5.62697E+00 2.34530E-02-7.05023E+00 1.01308E-13 3.15276E-13
 -1      2617 1.66508E+01-5.66070E+00 6.31166E-03-7.31090E+00 8.88178E-16 1.56108E-13
 -1      2618 1.34568E+01-4.68471E+00 9.68340E-02-6.91691E+00 1.49714E-13 2.94417E-13
 -1      2619 3.34889E+01 3.04264E+00-1.37178E-01-1.01486E+00-9.68670E-15-4.03289E-13
 -1      2620 3.26843E+01 1.09254E+00-5.54703E-02-4.30142E-01-1.12604E-13-3.13083E-13
 -1      2621 2.04893E+01 8.74890E-01-7.31928E-03 1.22740E+00 5.56749E-13 2.79887E-13
 -1      2622 2.08399E+01 1.25690E+00-6.05420E-03 1.72807E+00 6.06609E-13 3.58770E-13
 -1      2623 2.06459E+01 1.71558E+00-1.57943E-02 1.92227E+00 6.57602E-13 1.49564E-13
 -1      2624 2.04481E+01 1.05794E+00-9.39956E-03 1.24228E+00 5.75859E-13 5.26615E-14
 -1      2625 2.62870E+01-5.13705E+00-9.92040E-02 4.13629E+00 3.25018E-14-1.00087E-13
 -1      2626 2.23307E+01-5.90497E+00 3.51536E-02 5.38709E+00 5.14033E-14-9.52294E-14
 -1      2627 3.16255E+01 1.84580E+00-3.46142E-02 2.36472E+00 4.85362E-13 1.53377E-13
 -1      2628 1.99145E+01 2.81633E+00 3.17710E-03-1.10149E+00-3.30413E-13-6.21366E-13
 -1      2629 1.97807E+01 3.16017E+00-1.49444E-02-1.28613E+00-3.71984E-13-6.41459E-13
 -1      2630 1.98750E+01 3.03548E+00-1.82896E-02-1.48225E+00-4.56612E-13-5.74383E-13
 -1      2631 1.99935E+01 3.40064E-01-3.53224E-03 3.05609E-01 3.60911E-13-8.76339E-14
 -1      2632 2.04218E+01 2.11569E+00-1.27766E-02 1.87531E+00 6.39083E-13-9.62667E-14
 -1      2633 2.79428E+01-4.63910E+00 3.30894E-03 2.17320E+00-1.17684E-14-5.12812E-13
 -1      2634 7.20253E+00-2.95660E+00 1.44222E-01-4.57877E+00-1.26843E-14 2.87326E-13
 -1      2635 1.00474E+01-2.67133E+00 1.19218E-01-5.44942E+00 1.47687E-13 2.30316E-13
 -1      2636 7.30348E+00-1.68653E+00 1.39585E-01-3.45431E+00-3.87745E-14 4.05204E-13
 -1      2637 2.60023E+01-4.85657E+00 3.83160E-02-3.77907E+00 3.24463E-14-4.37983E-13
 -1      2638 2.05495E+01 6.78579E-01 2.68146E-03 1.43049E+00-3.51601E-13 4.42009E-13
 -1      2639 2.14205E+01-5.84131E+00 9.78019E-02 5.71641E+00 1.20265E-13-1.04798E-13
 -1      2640 2.04320E+01 8.71578E-01-2.99169E-03 1.56239E+00-2.84389E-13 9.35840E-14
 -1      2641 3.06855E+01 6.39548E+00-8.46000E-02 9.65252E-01-3.90021E-13-2.80415E-13
 -1      2642 1.00015E+01-2.78123E+00 1.20146E-01 5.23840E+00-1.93526E-13 4.09339E-13
 -1      2643 7.12799E+00-3.12511E+00 1.40801E-01 4.43869E+00-2.72726E-13 3.77587E-13
 -1      2644 6.96005E+00-1.81755E+00 1.42052E-01 3.23168E+00-3.23241E-13 5.47312E-13
 -1      2645 1.40139E+01-4.96230E+00 8.79484E-02 6.68019E+00-5.55389E-14-7.09155E-15
 -1      2646 3.05700E+01 2.43836E+00-6.17853E-02 1.17501E+00-3.70037E-13-3.58102E-13
 -1      2647 3.10630E+01 5.06180E+00-5.45774E-02-1.45814E+00-5.02653E-13 3.41838E-13
 -1      2648 2.04359E+01 1.80789E+00 1.25392E-02 1.56312E+00 5.97801E-13-1.45571E-13
 -1      2649 2.01145E+01 2.62149E+00-1.12074E-02-1.68022E+00-5.22710E-13-4.07334E-13
 -1      2650 3.02217E+01 5.80383E-01-3.38218E-02-7.97794E-01-1.91847E-13 3.89466E-13
 -1      2651 2.77924E+01-3.46174E+00 1.33327E-02 1.89701E+00 6.58223E-14 3.01426E-13
 -1      2652 2.27254E+01-5.32474E+00 6.40467E-02 5.18869E+00 3.06144E-13-9.04693E-14
 -1      2653 8.44044E+00-3.48870E+00 1.26496E-01 5.72201E+00 3.82111E-13-6.54754E-13
 -1      2654 8.28339E+00-2.10779E+00 1.78176E-01 4.86147E+00 2.91253E-13-4.88221E-13
 -1      2655 1.11854E+01-3.44883E+00 2.79784E-02 6.31905E+00 5.26468E-13-3.72646E-13
 -1      2656 1.05410E+01-4.21237E+00 1.26101E-01-5.90730E+00-7.16371E-14-3.44558E-13
 -1      2657 3.01536E+01-2.62460E+00-1.04844E-02 2.35334E-01 5.37001E-14-1.37862E-13
 -1      2658 2.52879E+01-5.51379E+00 6.64590E-03-3.50870E+00-8.93730E-14-3.75630E-13
 -1      2659 2.69342E+01-5.02785E+00-8.46758E-02-1.63246E+00-1.38667E-13-3.04715E-13
 -1      2660 2.37745E+01-5.53305E+00 8.56860E-02-3.94399E+00-1.81091E-13-2.64601E-13
 -1      2661 4.69756E+00-2.82876E+00 1.13487E-01-2.41713E+00-1.48631E-13-9.27036E-13
 -1      2662 6.71897E+00-2.28664E+00 7.47786E-02-3.67843E+00-1.87780E-13-7.64527E-13
 -1      2663 5.75175E+00-1.36529E+00 1.74032E-01-1.41520E+00-1.92818E-13-9.80521E-13
 -1      2664 1.81528E+01-5.45662E+00 1.26014E-01-5.99779E+00-1.20792E-13 4.99253E-14
 -1      2665 3.12728E+01-4.86399E-01 2.11088E-02-9.71579E-01-1.81938E-13-4.80949E-13
 -1      2666 3.15785E+01 3.70198E+00-6.30564E-02-1.75447E+00 6.44484E-14-6.66800E-13
 -1      2667 1.58760E+01-5.04067E+00 1.10333E-01 6.90001E+00 5.24913E-13-4.58980E-13
 -1      2668 2.04576E+01 1.78086E-01 5.62400E-03-6.49325E-01 7.00424E-14 9.59619E-14
 -1      2669 2.04000E+01 3.30525E-01 3.09541E-03-7.91613E-01-1.76024E-14 1.53050E-14
 -1      2670 2.05072E+01 2.27507E-01-4.86187E-03-9.53621E-01-8.71123E-15 1.13569E-13
 -1      2671 2.05759E+01 8.85070E-02-4.79617E-03-7.02890E-01 1.71534E-14 2.12560E-13
 -1      2672 2.04415E+01 8.50216E-01 4.39043E-03 1.83847E+00-2.94632E-13 8.72674E-15
 -1      2673 1.97118E+01-5.71815E+00 8.89963E-02-6.52113E+00 2.32758E-13 1.12042E-13
 -1      2674 2.06673E+01 5.45846E-02 8.70370E-04-8.50365E-01 6.83495E-14 1.21647E-13
 -1      2675 1.98465E+01 2.76440E+00-6.30032E-03 5.16602E-01 2.25161E-13-6.48982E-13
 -1      2676 1.98218E+01 2.81425E+00-5.67227E-03 3.65604E-01 1.48571E-13-6.75561E-13
 -1      2677 1.98048E+01 2.85181E+00-5.59558E-03 2.29742E-01 1.10270E-13-7.11343E-13
 -1      2678 1.97960E+01 2.86854E+00-5.57495E-03 7.50014E-02 4.71611E-14-6.99523E-13
 -1      2679 1.99515E+01 2.50017E+00 3.63659E-03 2.65213E-01 1.20826E-13-6.52507E-13
 -1      2680 2.00441E+01 2.32355E+00-1.07299E-02 1.04681E+00 4.49798E-13-5.25637E-13
 -1      2681 1.99803E+01 2.47246E+00-6.30281E-03 9.11152E-01 4.04919E-13-5.84687E-13
 -1      2682 2.02169E+01 1.90785E+00-1.20294E-02 1.22819E+00 5.20749E-13-3.89399E-13
 -1      2683 2.01247E+01 2.14592E+00-4.79608E-03 1.13472E+00 4.77215E-13-4.46363E-13
 -1      2684 2.01898E+01 1.88612E+00 6.44362E-03 9.27399E-01 4.30104E-13-4.40672E-13
 -1      2685 2.02118E+01 7.26698E-01-3.49676E-03 6.43738E-01 4.40265E-13-1.60632E-13
 -1      2686 2.03539E+01 9.51602E-01 9.14732E-03 9.07504E-01 4.87452E-13-1.36656E-13
 -1      2687 2.01890E+01 2.27595E+00 3.98851E-03-1.42816E+00-4.73867E-13-3.96151E-13
 -1      2688 2.03374E+01 1.50010E+00-1.89870E-03 1.26793E+00 5.45245E-13-1.95125E-13
 -1      2689 1.32279E+01-3.69912E+00 1.29945E-01-6.45041E+00 1.66450E-13 1.48881E-13
 -1      2690 1.58623E+01-4.62258E+00 7.16511E-02-6.87780E+00 2.03004E-13-1.59039E-14
 -1      2691 2.46344E+01-5.30658E+00 9.62126E-02-4.14491E+00 1.67824E-13-3.85511E-13
 -1      2692 2.69268E+01-4.51821E+00-1.27734E-01-2.43692E+00-2.49800E-16-7.03868E-13
 -1      2693 2.02241E+01 6.24346E-01 1.10493E-02-4.36844E-01-3.08797E-13-1.95171E-13
 -1      2694 2.01324E+01 4.74825E-01-3.25828E-03-2.78246E-01-2.83139E-13-2.14820E-13
 -1      2695 2.01054E+01 3.62303E-01 6.65505E-03-1.59700E-01-2.54047E-13-1.74463E-13
 -1      2696 2.00467E+01 2.67711E-01-1.59291E-03-6.20549E-02-2.18144E-13-1.90983E-13
 -1      2697 2.01981E+01 5.30508E-01-5.80674E-04-2.64419E-01-2.79863E-13-2.34091E-13
 -1      2698 2.00203E+01 1.97508E-01 4.55632E-03 1.31874E-02-1.99375E-13-1.93874E-13
 -1      2699 1.99845E+01 1.38217E-01-7.96247E-04 6.98410E-02-1.86626E-13-2.13943E-13
 -1      2700 2.01263E+01 2.98399E-01-2.07312E-03-5.69167E-02-2.16245E-13-2.26141E-13
 -1      2701 1.99637E+01 9.43054E-02 2.91581E-03 1.13395E-01-1.73869E-13-2.12213E-13
 -1      2702 1.99457E+01 5.73288E-02-2.68476E-04 1.43052E-01-1.59562E-13-2.37448E-13
 -1      2703 2.00699E+01 1.52981E-01-1.89613E-03 7.08977E-02-1.92991E-13-2.52921E-13
 -1      2704 1.99308E+01 3.02360E-02 1.73124E-03 1.64861E-01-1.71026E-13-2.53688E-13
 -1      2705 1.99252E+01 7.96178E-03 4.04215E-05 1.77194E-01-1.53218E-13-2.62015E-13
 -1      2706 2.00291E+01 6.13569E-02-1.53388E-03 1.42418E-01-1.84377E-13-2.63907E-13
 -1      2707 1.99156E+01-7.96369E-03 9.20299E-04 1.84896E-01-1.09862E-13-2.71721E-13
 -1      2708 1.99179E+01-2.03633E-02 2.16792E-04 1.86585E-01-9.22859E-14-2.61200E-13
 -1      2709 2.00022E+01 5.53768E-03-1.16197E-03 1.76199E-01-1.38224E-13-2.34829E-13
 -1      2710 1.99124E+01-2.87127E-02 3.74706E-04 1.85705E-01-1.05119E-13-2.81070E-13
 -1      2711 1.99196E+01-3.43717E-02 3.20203E-04 1.81392E-01-1.33701E-13-2.69540E-13
 -1      2712 1.99862E+01-2.61289E-02-8.48729E-04 1.85857E-01-1.19524E-13-2.52859E-13
 -1      2713 1.99171E+01-3.75028E-02 1.87093E-05 1.75906E-01-1.40117E-13-2.34870E-13
 -1      2714 1.99271E+01-3.85022E-02 3.87988E-04 1.68837E-01-1.15148E-13-2.39568E-13
 -1      2715 1.99784E+01-4.12435E-02-6.08660E-04 1.81318E-01-1.20749E-13-2.66137E-13
 -1      2716 1.99268E+01-3.79868E-02-2.05084E-04 1.61596E-01-1.05006E-13-2.08334E-13
 -1      2717 1.99383E+01-3.57091E-02 4.43162E-04 1.54068E-01-6.97157E-14-1.92894E-13
 -1      2718 1.99763E+01-4.48720E-02-4.35611E-04 1.69747E-01-1.01110E-13-2.29567E-13
 -1      2719 1.99395E+01-3.25853E-02-3.39915E-04 1.47127E-01-6.73271E-14-1.83055E-13
 -1      2720 1.99519E+01-2.79260E-02 5.00649E-04 1.40792E-01-4.45581E-14-2.04367E-13
 -1      2721 1.99783E+01-4.03936E-02-3.18099E-04 1.56307E-01-7.68761E-14-2.23224E-13
 -1      2722 1.99543E+01-2.28543E-02-4.18006E-04 1.35665E-01-2.95341E-14-2.14847E-13
 -1      2723 1.99673E+01-1.63612E-02 5.70725E-04 1.31754E-01-4.45630E-14-1.90909E-13
 -1      2724 1.99834E+01-3.00133E-02-2.44575E-04 1.44763E-01-4.92050E-14-1.40131E-13
 -1      2725 1.99707E+01-9.73323E-03-4.62890E-04 1.29603E-01-4.19840E-14-9.13048E-14
 -1      2726 1.99846E+01-1.71028E-03 6.60484E-04 1.29086E-01-5.09567E-14-6.38581E-14
 -1      2727 1.99907E+01-1.50996E-02-2.05154E-04 1.37939E-01 2.19998E-15-8.73950E-14
 -1      2728 1.99887E+01 6.26477E-03-4.91142E-04 1.30858E-01-7.32280E-14-3.69575E-14
 -1      2729 2.00039E+01 1.56696E-02 7.74322E-04 1.34550E-01-6.82642E-14 8.10082E-16
 -1      2730 1.99999E+01 3.56445E-03-1.91861E-04 1.38056E-01-7.66657E-14 1.56038E-14
 -1      2731 2.00090E+01 2.48856E-02-5.13511E-04 1.41072E-01-1.02669E-13-1.60263E-14
 -1      2732 2.00261E+01 3.55947E-02 9.13748E-04 1.49697E-01-8.28356E-14-3.58710E-14
 -1      2733 2.00111E+01 2.55685E-02-1.98572E-04 1.46974E-01-1.03126E-13 1.44799E-14
 -1      2734 2.00322E+01 4.59658E-02-5.35370E-04 1.61723E-01-9.23967E-14-7.39386E-14
 -1      2735 2.00521E+01 5.78770E-02 1.07662E-03 1.75929E-01-1.43391E-13-1.79095E-13
 -1      2736 2.00244E+01 5.06679E-02-2.21116E-04 1.66341E-01-1.67559E-13-3.92296E-14
 -1      2737 2.00596E+01 6.92411E-02-5.56415E-04 1.94144E-01-1.01157E-13-1.71333E-13
 -1      2738 2.00832E+01 8.21121E-02 1.25592E-03 2.14468E-01-4.23527E-14-1.29020E-13
 -1      2739 2.00404E+01 7.85575E-02-2.57596E-04 1.97647E-01-1.06727E-13-1.39810E-13
 -1      2740 2.00925E+01 9.41083E-02-5.69548E-04 2.39437E-01-6.22348E-15-4.85650E-14
 -1      2741 2.01209E+01 1.07408E-01 1.43797E-03 2.66214E-01 2.93653E-14-9.56281E-14
 -1      2742 2.00597E+01 1.08596E-01-3.09275E-04 2.42183E-01 7.69229E-15-1.00117E-13
 -1      2743 2.01327E+01 1.19317E-01-5.58810E-04 2.98268E-01 2.92551E-14-9.24188E-14
 -1      2744 2.01672E+01 1.32032E-01 1.60037E-03 3.31456E-01 6.68921E-14-1.13448E-13
 -1      2745 2.00835E+01 1.39455E-01-3.82333E-04 3.00881E-01 3.34992E-14 1.83525E-14
 -1      2746 2.01825E+01 1.42572E-01-4.96248E-04 3.70505E-01 6.57277E-14-8.63537E-14
 -1      2747 2.02242E+01 1.52960E-01 1.70941E-03 4.09421E-01 5.31519E-14-1.21552E-13
 -1      2748 2.01133E+01 1.68672E-01-4.90783E-04 3.74026E-01 4.38732E-14-2.91602E-14
 -1      2749 2.02448E+01 1.60029E-01-3.37837E-04 4.54668E-01 2.67690E-14-8.39294E-14
 -1      2750 2.02953E+01 1.65324E-01 1.71731E-03 4.97616E-01-1.15735E-14-8.60931E-14
 -1      2751 2.01516E+01 1.92075E-01-6.60788E-04 4.60790E-01 4.55951E-14-1.25723E-13
 -1      2752 2.03236E+01 1.65716E-01-1.90848E-05 5.47153E-01-1.84635E-14-1.27946E-13
 -1      2753 2.03843E+01 1.61823E-01 1.55912E-03 5.90927E-01 2.54769E-15-8.58582E-14
 -1      2754 2.02020E+01 2.03115E-01-9.36084E-04 5.58578E-01-2.77031E-14-1.75782E-14
 -1      2755 2.04245E+01 1.50972E-01 5.47628E-04 6.41195E-01-6.04673E-14-4.28793E-14
 -1      2756 2.04970E+01 1.32255E-01 1.14878E-03 6.80479E-01-3.23601E-14-4.02658E-14
 -1      2757 2.02704E+01 1.92184E-01-1.38292E-03 6.62127E-01-2.09780E-15-4.19948E-14
 -1      2758 2.05550E+01 1.04171E-01 1.46895E-03 7.25567E-01-1.28384E-14-1.18925E-13
 -1      2759 2.06413E+01 6.35703E-02 3.74397E-04 7.52294E-01 1.87483E-14-9.70970E-14
 -1      2760 2.03653E+01 1.46162E-01-2.08991E-03 7.62323E-01-3.71959E-14-8.19660E-14
 -1      2761 2.07253E+01 1.12878E-02 2.84929E-03 7.83080E-01 2.36641E-15-1.99494E-13
 -1      2762 2.08271E+01-5.87638E-02-9.06500E-04 7.85905E-01-6.35278E-14-1.96002E-13
 -1      2763 2.04996E+01 4.87431E-02-3.15172E-03 8.44710E-01 5.24850E-15-8.56884E-14
 -1      2764 2.09480E+01-1.41644E-01 4.72779E-03 7.89128E-01-6.69695E-14-1.66987E-13
 -1      2765 2.10662E+01-2.46721E-01-2.85390E-03 7.53409E-01-3.58187E-14-8.84673E-14
 -1      2766 2.06905E+01-1.17379E-01-4.61760E-03 8.87688E-01-3.40512E-14-1.33448E-13
 -1      2767 2.12357E+01-3.62492E-01 6.96041E-03 7.10999E-01-6.56000E-14-9.59635E-14
 -1      2768 2.13683E+01-5.00999E-01-5.56473E-03 6.20027E-01-1.27044E-14-1.18155E-13
 -1      2769 2.09593E+01-3.64681E-01-6.36729E-03 8.60696E-01-6.04822E-14-3.13401E-14
 -1      2770 2.15944E+01-6.41352E-01 8.98368E-03 5.09742E-01 9.52162E-14-1.14716E-13
 -1      2771 2.17332E+01-7.95778E-01-8.83958E-03 3.48625E-01 2.88121E-14-1.55039E-14
 -1      2772 2.13264E+01-6.88693E-01-7.87375E-03 7.23440E-01 6.33670E-14-1.80967E-13
 -1      2773 2.20104E+01-9.32228E-01 9.50077E-03 1.48606E-01 2.83720E-14 3.32898E-14
 -1      2774 2.21370E+01-1.05792E+00-1.16237E-02-8.70500E-02 1.15432E-13 4.95929E-14
 -1      2775 2.17989E+01-1.04748E+00-7.96220E-03 4.29433E-01 1.08699E-13-9.68667E-14
 -1      2776 2.24315E+01-1.13263E+00 6.45997E-03-3.84743E-01 9.15775E-14 1.43522E-13
 -1      2777 2.25159E+01-1.15140E+00-1.11070E-02-6.73580E-01 6.73090E-14 1.51667E-13
 -1      2778 2.23489E+01-1.33518E+00-4.77240E-03-5.85352E-02 1.33736E-13 1.10151E-13
 -1      2779 2.27530E+01-1.07952E+00-1.69780E-03-1.03496E+00 8.81057E-14 1.98251E-13
 -1      2780 2.27630E+01-8.98933E-01-4.10459E-03-1.31002E+00 1.04861E-13 1.28341E-13
 -1      2781 2.28848E+01-1.36740E+00 3.50438E-03-7.28282E-01 6.47181E-14 3.96735E-13
 -1      2782 2.28422E+01-6.06230E-01-1.60605E-02-1.62680E+00 4.85942E-14 2.10214E-13
 -1      2783 2.27664E+01-1.81688E-01 8.21703E-03-1.77098E+00-6.16274E-14 2.41276E-13
 -1      2784 2.32461E+01-9.26395E-01 1.43609E-02-1.45179E+00 8.87802E-14 2.80137E-13
 -1      2785 2.26367E+01 3.12959E-01-2.98266E-02-1.85894E+00-1.50073E-13 3.15756E-13
 -1      2786 2.25076E+01 8.72371E-01 1.66476E-02-1.74832E+00-3.07679E-14 3.69779E-13
 -1      2787 2.32700E+01 6.47201E-02 1.12263E-02-1.92781E+00-3.92984E-14 3.55321E-13
 -1      2788 2.22651E+01 1.38513E+00-2.84292E-02-1.46082E+00-2.50360E-14 2.06884E-13
 -1      2789 2.21570E+01 1.80516E+00 1.21174E-02-1.06456E+00-4.00097E-14 2.06886E-13
 -1      2790 2.29732E+01 1.35822E+00-4.31604E-03-1.77388E+00-1.22860E-13 6.03736E-14
 -1      2791 2.20257E+01 2.03576E+00-8.58934E-03-4.60763E-01-1.10047E-13 1.23532E-13
 -1      2792 2.20071E+01 2.04491E+00-8.20596E-03 6.88278E-02-2.15065E-13 1.24230E-14
 -1      2793 2.26428E+01 2.32390E+00-1.91289E-02-8.52811E-01-1.75187E-13 4.91528E-14
 -1      2794 2.21180E+01 1.83174E+00 1.24511E-02 6.81775E-01-1.29725E-13-4.98629E-14
 -1      2795 2.21923E+01 1.41981E+00-2.82525E-02 1.08915E+00-5.28106E-14 3.43753E-14
 -1      2796 2.26225E+01 2.34817E+00-1.86861E-02 4.41429E-01-1.70425E-13-1.74415E-13
 -1      2797 2.24285E+01 9.07158E-01 1.86563E-02 1.39396E+00-6.78667E-14-2.85345E-14
 -1      2798 2.25287E+01 3.36042E-01-3.09993E-02 1.51596E+00-1.81198E-13-2.48759E-15
 -1      2799 2.29285E+01 1.41133E+00-1.21593E-03 1.39493E+00-1.19703E-13-2.54336E-13
 -1      2800 2.26676E+01-1.79717E-01 9.60934E-03 1.43525E+00-1.84066E-13 7.19667E-14
 -1      2801 2.27171E+01-6.24508E-01-1.86719E-02 1.28802E+00-1.47436E-13 3.12429E-14
 -1      2802 2.32225E+01 8.04425E-02 1.04290E-02 1.57888E+00-1.64378E-13-1.45955E-13
 -1      2803 2.26411E+01-9.29802E-01-3.07486E-03 9.62311E-01-2.45758E-13 6.53280E-14
 -1      2804 2.26040E+01-1.12109E+00-2.89728E-03 6.78351E-01-2.87275E-13 3.42936E-14
 -1      2805 2.32068E+01-9.57358E-01 1.35063E-02 1.10043E+00-1.92813E-13-1.18034E-13
 -1      2806 2.23630E+01-1.19594E+00-1.07163E-02 3.01537E-01-2.69098E-13 6.19986E-14
 -1      2807 2.22488E+01-1.17126E+00 6.11304E-03 2.23854E-03 1.45519E-14 1.15470E-13
 -1      2808 2.28417E+01-1.41774E+00 4.30203E-03 3.50185E-01-2.34392E-13 7.51916E-14
 -1      2809 2.19392E+01-1.07996E+00-1.21331E-02-3.08166E-01 8.67966E-14 6.94488E-14
 -1      2810 2.17805E+01-9.26683E-01 1.02324E-02-5.45111E-01 3.13992E-14 4.55681E-14
 -1      2811 2.22859E+01-1.37068E+00-4.57736E-03-3.50219E-01 3.06997E-14-4.35505E-14
 -1      2812 2.14802E+01-7.53896E-01-1.00245E-02-7.43785E-01 9.64884E-14 5.44074E-14
 -1      2813 2.13067E+01-5.49764E-01 1.02101E-02-8.88868E-01 1.15285E-13-9.76173E-14
 -1      2814 2.17016E+01-1.01684E+00-7.52826E-03-8.48842E-01-1.53217E-14-1.19922E-13
 -1      2815 2.10513E+01-3.50292E-01-6.70761E-03-9.73017E-01 1.25098E-13-1.12847E-13
 -1      2816 2.08840E+01-1.48427E-01 7.17350E-03-1.01859E+00 2.21032E-13-7.54694E-14
 -1      2817 2.11841E+01-5.34934E-01-5.00240E-03-1.11503E+00 1.42144E-13-8.92655E-14
 -1      2818 1.98538E+01 4.96111E-02 6.30589E-05-1.42799E-01 1.40603E-13-2.70438E-13
 -1      2819 1.98677E+01 8.13129E-02 3.16571E-03-1.14368E-01 1.47661E-13-2.22659E-13
 -1      2820 2.01093E+01 9.30630E-01 4.91841E-04 2.17776E+00-3.60647E-13-3.75223E-13
 -1      2821 2.05101E+01 6.67837E-01 7.62106E-03 2.04336E+00-3.43416E-13-5.32072E-15
 -1      2822 2.07168E+01 4.84412E-01 3.35795E-03 2.22172E+00-3.08680E-13-1.20140E-13
 -1      2823 1.98906E+01 1.18769E-01-2.45576E-04-6.97758E-02 1.82120E-13-2.14271E-13
 -1      2824 1.99264E+01 1.70266E-01 5.20375E-03-1.42492E-02 2.23114E-13-2.00667E-13
 -1      2825 1.99910E+01 1.35572E-01-2.34722E-03-7.14465E-02 1.97511E-13-2.83746E-13
 -1      2826 1.98430E+01-1.65224E-02 2.91400E-04-1.84863E-01 1.17674E-13-1.98934E-13
 -1      2827 1.98342E+01-5.90798E-03 8.79910E-04-1.83858E-01 1.41085E-13-2.20565E-13
 -1      2828 1.98552E+01-2.86914E-02 3.26601E-04-1.78907E-01 1.60878E-13-2.22427E-13
 -1      2829 1.98417E+01-2.37371E-02 2.93656E-04-1.83728E-01 1.46714E-13-1.92812E-13
 -1      2830 1.99212E+01-2.22356E-02-8.86555E-04-1.88637E-01 1.40651E-13-2.43829E-13
 -1      2831 1.98731E+01-3.26523E-02 3.53649E-04-1.65539E-01 1.43003E-13-2.47020E-13
 -1      2832 1.98573E+01-3.15804E-02-7.25179E-05-1.73050E-01 1.64747E-13-2.32079E-13
 -1      2833 1.99222E+01-3.58343E-02-5.99112E-04-1.83267E-01 1.68338E-13-2.54226E-13
 -1      2834 1.98940E+01-3.08853E-02 3.88658E-04-1.49812E-01 1.25195E-13-2.57130E-13
 -1      2835 1.98773E+01-3.25319E-02-2.88356E-04-1.57816E-01 1.20748E-13-2.47136E-13
 -1      2836 1.99293E+01-3.95908E-02-4.03762E-04-1.70563E-01 1.50915E-13-2.33564E-13
 -1      2837 1.99165E+01-2.49795E-02 4.42358E-04-1.35351E-01 6.58850E-14-1.88250E-13
 -1      2838 1.98996E+01-2.86107E-02-4.04344E-04-1.42269E-01 1.25571E-13-2.17298E-13
 -1      2839 1.99401E+01-3.64267E-02-2.81490E-04-1.55750E-01 1.17643E-13-2.00167E-13
 -1      2840 1.99402E+01-1.58749E-02 5.23168E-04-1.24858E-01-1.98938E-14-1.88094E-13
 -1      2841 1.99230E+01-2.10737E-02-4.57294E-04-1.29495E-01-5.08098E-15-1.66418E-13
 -1      2842 1.99534E+01-2.81977E-02-2.15911E-04-1.42623E-01 2.77406E-14-1.10998E-13
 -1      2843 1.99652E+01-4.01900E-03 6.38762E-04-1.20491E-01 8.86533E-15-1.21162E-13
 -1      2844 1.99475E+01-1.06107E-02-4.74188E-04-1.21870E-01 1.86747E-15-1.47195E-13
 -1      2845 1.99686E+01-1.59751E-02-1.93473E-04-1.34056E-01-2.41959E-14-1.45748E-13
 -1      2846 1.99923E+01 1.05288E-02 7.96935E-04-1.24159E-01 7.91072E-14-1.81873E-13
 -1      2847 1.99733E+01 2.52562E-03-4.75210E-04-1.21382E-01 4.95695E-14-1.27276E-13
 -1      2848 1.99856E+01-2.33429E-04-2.03136E-04-1.32380E-01 3.33835E-14-1.47031E-13
 -1      2849 2.00227E+01 2.80249E-02 1.00571E-03-1.37742E-01 9.18846E-14-1.00159E-13
 -1      2850 2.00015E+01 1.84338E-02-4.76106E-04-1.29892E-01 8.03962E-14-1.07636E-13
 -1      2851 2.00047E+01 1.90251E-02-2.35429E-04-1.39682E-01 6.62263E-14-9.77921E-14
 -1      2852 2.00581E+01 4.89846E-02 1.27318E-03-1.63276E-01 2.97995E-14-1.19248E-13
 -1      2853 2.00332E+01 3.74996E-02-4.89831E-04-1.49332E-01 9.58386E-14-8.57990E-14
 -1      2854 2.00265E+01 4.21808E-02-2.81485E-04-1.58029E-01 9.08071E-14 9.79360E-16
 -1      2855 2.01002E+01 7.41267E-02 1.60682E-03-2.03076E-01 3.01728E-14-1.80015E-13
 -1      2856 2.00702E+01 6.03415E-02-5.27868E-04-1.81857E-01 2.10038E-14-1.52012E-13
 -1      2857 2.00515E+01 6.99220E-02-3.31625E-04-1.89643E-01 3.05902E-14-3.43753E-14
 -1      2858 2.01510E+01 1.04303E-01 2.01230E-03-2.59823E-01 6.28024E-14-2.09738E-13
 -1      2859 2.01143E+01 8.77508E-02-6.01139E-04-2.29952E-01 4.12484E-14-2.21665E-13
 -1      2860 2.00808E+01 1.03168E-01-3.74209E-04-2.37017E-01 5.23187E-14-6.64618E-14
 -1      2861 2.02128E+01 1.40376E-01 2.49126E-03-3.36578E-01 1.04120E-13-2.56003E-13
 -1      2862 2.01673E+01 1.20602E-01-7.20119E-04-2.96485E-01 1.04880E-13-1.95709E-13
 -1      2863 2.01148E+01 1.42961E-01-3.94711E-04-3.02973E-01 1.13993E-13-2.09235E-13
 -1      2864 2.02877E+01 1.82990E-01 3.03772E-03-4.36695E-01 1.32757E-13-2.57260E-13
 -1      2865 2.02314E+01 1.59688E-01-8.93554E-04-3.84682E-01 1.09644E-13-2.60490E-13
 -1      2866 2.01543E+01 1.90286E-01-3.75749E-04-3.90653E-01 1.49839E-13-1.46683E-13
 -1      2867 2.03776E+01 2.32124E-01 3.63280E-03-5.63563E-01 5.48857E-14-2.69210E-13
 -1      2868 2.03084E+01 2.05402E-01-1.12451E-03-4.97977E-01 1.30980E-13-2.57893E-13
 -1      2869 2.01992E+01 2.45716E-01-2.99570E-04-5.03393E-01 1.10283E-13-8.65261E-14
 -1      2870 2.04842E+01 2.86236E-01 4.23750E-03-7.20064E-01 1.45740E-14-3.44602E-13
 -1      2871 2.04001E+01 2.57124E-01-1.40141E-03-6.39658E-01 2.02915E-14-2.75071E-13
 -1      2872 2.02493E+01 3.08758E-01-1.56039E-04-6.44449E-01 7.68321E-14-7.03905E-14
 -1      2873 2.06094E+01 3.40724E-01 4.78423E-03-9.07553E-01-8.52414E-14-3.86942E-13
 -1      2874 2.05083E+01 3.12071E-01-1.68028E-03-8.12160E-01-1.73394E-14-3.72190E-13
 -1      2875 2.03039E+01 3.76634E-01 3.82680E-05-8.16472E-01 4.99373E-15-8.08289E-14
 -1      2876 2.07559E+01 3.85261E-01 5.16838E-03-1.12410E+00-5.97608E-14-3.59376E-13
 -1      2877 2.06355E+01 3.63274E-01-1.85206E-03-1.01581E+00-7.38350E-14-3.96734E-13
 -1      2878 2.03626E+01 4.42126E-01 2.00494E-04-1.02065E+00-8.95598E-14-1.25941E-13
 -1      2879 2.09301E+01 3.99587E-01 5.24114E-03-1.36159E+00 5.64283E-14-3.28411E-13
 -1      2880 2.07869E+01 3.96205E-01-1.68674E-03-1.24667E+00 4.29221E-14-3.48773E-13
 -1      2881 2.04273E+01 4.90001E-01 1.08504E-04-1.25531E+00-4.00636E-14-2.81156E-13
 -1      2882 2.11467E+01 3.47670E-01 4.80031E-03-1.60122E+00-1.02287E-13-1.54997E-13
 -1      2883 2.09745E+01 3.83740E-01-7.43400E-04-1.49303E+00-3.43623E-14-2.21865E-13
 -1      2884 2.05061E+01 4.91550E-01-7.15820E-04-1.51385E+00-6.15145E-14-2.56387E-13
 -1      2885 2.14383E+01 1.71815E-01 3.56397E-03-1.80672E+00-6.60458E-14-2.06248E-13
 -1      2886 2.12246E+01 2.79963E-01 1.77290E-03-1.72980E+00-6.95030E-14-9.19900E-14
 -1      2887 2.06216E+01 3.97457E-01-3.14297E-03-1.78133E+00-1.16224E-13-1.09452E-13
 -1      2888 2.18666E+01-2.07430E-01 8.46764E-04-1.91443E+00 3.28643E-14-1.31289E-13
 -1      2889 2.15905E+01 1.60436E-02 7.18866E-03-1.90949E+00-2.21001E-15-1.27059E-13
 -1      2890 2.08247E+01 1.31479E-01-8.44508E-03-2.02860E+00-4.76331E-14-9.14624E-14
 -1      2891 2.25312E+01-8.64372E-01-4.48310E-03-1.81760E+00-3.78204E-14-8.25037E-14
 -1      2892 2.21658E+01-4.90896E-01 1.71497E-02-1.94550E+00 6.57196E-14-3.76845E-14
 -1      2893 2.12156E+01-4.07479E-01-1.78913E-02-2.19916E+00-1.27014E-14 1.48885E-13
 -1      2894 2.35418E+01-1.78312E+00-1.52286E-02-1.35966E+00-2.45767E-13-2.34938E-14
 -1      2895 2.30734E+01-1.28525E+00 3.00005E-02-1.69440E+00-1.50754E-13-4.57035E-14
 -1      2896 2.19571E+01-1.29234E+00-3.02177E-02-2.17604E+00-1.26706E-13 1.53577E-13
 -1      2897 2.49509E+01-2.66044E+00-2.55493E-02-3.56801E-01-2.80019E-13 1.91592E-13
 -1      2898 2.44175E+01-2.24601E+00 4.16038E-02-9.53529E-01-3.80668E-13 2.87149E-14
 -1      2899 2.32330E+01-2.47485E+00-4.94667E-02-1.76758E+00-3.36689E-13 6.29496E-14
 -1      2900 2.65127E+01-2.75917E+00 4.03571E-03 1.22002E+00-8.21999E-14 4.45245E-13
 -1      2901 2.61326E+01-2.88427E+00 1.99687E-02 4.49673E-01-9.83224E-14 3.58078E-13
 -1      2902 2.51731E+01-3.45532E+00-6.48801E-02-6.95013E-01-3.59333E-13-6.18923E-14
 -1      2903 2.87232E+01 1.01480E-01-9.39720E-02 2.77555E+00 1.73611E-13 5.48978E-13
 -1      2904 2.84679E+01-1.55559E+00-8.73622E-02 2.23661E+00 1.73472E-17 4.51694E-13
 -1      2905 2.77377E+01 4.97420E+00-2.10709E-01-2.77347E-02 3.08864E-13 1.11959E-13
 -1      2906 2.78578E+01 4.69413E+00-1.62246E-01 1.27565E+00 4.51889E-13 3.37980E-13
 -1      2907 2.75919E+01-5.62658E-01-9.35688E-02-2.60001E+00-4.17721E-14 7.48984E-14
 -1      2908 2.75732E+01 1.15363E+00-5.46791E-02-2.60512E+00 1.27121E-13 1.43649E-13
 -1      2909 2.65936E+01-2.53545E+00-1.92769E-02-1.09885E+00-2.36876E-14-3.26787E-14
 -1      2910 2.68974E+01-1.81837E+00-4.76629E-02-1.77285E+00 3.80945E-15-8.21392E-15
 -1      2911 2.80724E+01-1.66181E+00-1.04727E-01-1.84181E+00 6.16868E-15 8.45712E-14
 -1      2912 2.50910E+01-2.60503E+00 5.43039E-02 5.76381E-01 1.72565E-13-1.00243E-13
 -1      2913 2.55499E+01-2.77372E+00-3.55474E-02-1.43972E-01 1.06228E-13-3.13551E-15
 -1      2914 2.62136E+01-3.20086E+00-2.31261E-02-6.71053E-02 8.94996E-14-1.64293E-13
 -1      2915 2.34688E+01-1.78363E+00 3.29996E-02 1.75954E+00 2.94713E-13-5.13230E-13
 -1      2916 2.40298E+01-2.27898E+00-1.98646E-02 1.28468E+00 2.87532E-13-3.14440E-13
 -1      2917 2.42861E+01-3.04997E+00-6.43009E-02 1.52795E+00 3.98400E-13-4.39353E-13
 -1      2918 2.23163E+01-8.73967E-01 2.37264E-02 2.26303E+00 1.33589E-14-2.19963E-13
 -1      2919 2.27713E+01-1.33765E+00-1.07393E-02 2.02963E+00 3.41289E-14-4.89033E-13
 -1      2920 2.25478E+01-1.86304E+00-4.72149E-02 2.32738E+00 2.40271E-13-4.56994E-13
 -1      2921 2.15503E+01-1.82625E-01 1.96613E-02 2.37128E+00 4.75555E-14-1.83120E-13
 -1      2922 2.18765E+01-5.21628E-01-7.14834E-03 2.32341E+00 1.66769E-13-1.38715E-13
 -1      2923 2.15605E+01-8.28935E-01-2.63089E-02 2.60909E+00 5.70602E-14-2.56404E-13
 -1      2924 2.09443E+01 2.76286E-01 1.44039E-02 2.29217E+00-2.94996E-13-1.21269E-13
 -1      2925 2.11862E+01 3.29258E-02-2.20119E-03 2.37913E+00-1.62239E-13-2.14217E-13
 -1      2926 2.08136E+01-1.12422E-01-3.12883E-02 2.63282E+00-4.45271E-14-2.90640E-13
 -1      2927 2.03019E+01 4.25239E-01-2.35574E-02 2.51475E+00-3.17933E-13-3.95165E-13
 -1      2928 2.27845E+01-5.59821E+00-3.60123E-02 4.80178E+00 1.99299E-13-2.58129E-13
 -1      2929 1.94954E+01-5.44115E+00 1.03393E-01 6.08201E+00 2.21823E-13-6.32966E-14
 -1      2930 1.86341E+01 1.89375E+00 3.65976E-03-7.83683E-01 2.50633E-13-3.38983E-13
 -1      2931 1.84781E+01 1.97702E+00-1.42159E-02-4.04079E-01 4.11808E-13-3.45154E-13
 -1      2932 1.86028E+01-5.23696E+00 1.15897E-01-6.45914E+00 3.11667E-13 1.20903E-13
 -1      2933 2.14621E+01-5.74228E+00-6.21423E-02-5.84045E+00 2.57808E-13 9.66076E-14
 -1      2934 1.82054E+01-4.55544E+00 1.10610E-01-6.19097E+00 2.28428E-13 8.15251E-14
 -1      2935 1.85288E+01 1.98082E+00-1.39743E-02 9.76867E-01 2.58997E-13 3.45229E-13
 -1      2936 1.87196E+01 1.87661E+00 3.42678E-03 1.33748E+00 1.20434E-13 4.30936E-13
 -1      2937 1.91086E+01 1.52264E+00 1.01206E-02-1.42246E+00 1.11592E-13 2.88044E-13
 -1      2938 1.88449E+01 1.67508E+00-1.76974E-02-1.16100E+00 6.98055E-14 6.79036E-15
 -1      2939 1.84600E+01 1.54000E+00 8.41278E-03-1.12517E+00 9.22434E-14-2.98446E-13
 -1      2940 1.84081E+01 2.06447E+00-6.02378E-03 8.19532E-02 2.46306E-13-1.87199E-13
 -1      2941 1.84244E+01 2.05433E+00-5.70812E-03 5.00450E-01 2.31035E-13 1.69401E-13
 -1      2942 1.81379E+01 1.84215E+00 1.30331E-02 7.97488E-01 1.62479E-13 2.43895E-13
 -1      2943 1.80993E+01 1.82805E+00 1.42917E-02-2.17477E-01 3.32688E-13-2.01681E-13
 -1      2944 1.96517E+01 1.07823E+00 1.16873E-02-1.73286E+00 1.12786E-13-1.32998E-13
 -1      2945 1.93750E+01 1.25808E+00-1.50255E-02-1.62021E+00 5.46470E-14-4.03369E-14
 -1      2946 1.90700E+01 1.08862E+00-3.57794E-04-1.71769E+00 1.06039E-13 4.44241E-15
 -1      2947 2.01275E+01 6.63534E-01 9.95850E-03-1.74266E+00 2.14685E-13-2.66079E-13
 -1      2948 1.99007E+01 8.40661E-01-8.62740E-03-1.75900E+00 1.76719E-13-6.16999E-14
 -1      2949 1.97246E+01 6.23406E-01-7.01450E-03-1.93395E+00 6.76060E-14-2.28376E-14
 -1      2950 2.04458E+01 3.60388E-01 8.89381E-03-1.53378E+00 4.15116E-13 2.14032E-13
 -1      2951 2.03027E+01 5.00930E-01-2.03931E-03-1.63934E+00 3.60309E-13 5.30765E-14
 -1      2952 2.02656E+01 2.56741E-01-7.67709E-03-1.83530E+00 3.22519E-13 5.71999E-14
 -1      2953 1.65975E+01-4.74928E+00 5.94166E-02 6.54274E+00 8.39329E-14-3.59157E-14
 -1      2954 1.36995E+01-3.70305E+00 1.34099E-01 6.17551E+00-7.41907E-14 2.05475E-13
 -1      2955 1.88497E+01-4.53032E+00 9.47522E-02 5.72550E+00 1.75304E-13 9.79911E-14
 -1      2956 6.69524E+00-9.61468E-01 2.09103E-01 1.11105E+00-1.40384E-13 7.25253E-13
 -1      2957 6.74096E+00-8.43636E-01 1.90704E-01-9.51765E-01-1.02751E-13 6.41986E-13
 -1      2958 2.91457E+01 8.78653E-01-5.64848E-02 1.43721E+00-3.04715E-13-5.20431E-13
 -1      2959 2.89225E+01 3.04298E+00-2.16925E-01 1.77248E+00-2.61485E-13-2.20449E-13
 -1      2960 2.03079E+01 1.58910E+00-1.18690E-02-1.23675E+00-4.86225E-13-2.93658E-13
 -1      2961 2.03272E+01 1.23183E+00 1.30109E-02-9.68282E-01-4.25631E-13-2.37744E-13
 -1      2962 2.02450E+01 9.48123E-01-5.12278E-03-7.22664E-01-3.69447E-13-2.27083E-13
 -1      2963 2.01598E+01 2.04858E+00 1.07690E-03-1.14061E+00-3.83522E-13-4.36119E-13
 -1      2964 2.91313E+01 5.39936E+00-1.98072E-01-1.60661E+00-5.75123E-13 3.07934E-13
 -1      2965 2.90878E+01 3.78740E+00-1.06023E-01-1.98388E+00-4.69125E-13 3.59685E-13
 -1      2966 9.75813E+00-2.72453E+00 1.98662E-01-4.96863E+00-2.10207E-13-3.84914E-13
 -1      2967 1.29770E+01-3.66171E+00 2.19895E-02-5.90163E+00-2.55601E-13 1.74305E-14
 -1      2968 2.80307E+01 4.70675E+00-1.45525E-01-1.10474E+00 1.25872E-13-9.96286E-14
 -1      2969 1.99600E+01 2.31069E-01-7.67332E-04 6.38758E-02 2.51557E-13-1.98438E-13
 -1      2970 2.00256E+01 3.14856E-01 7.81957E-03 1.61646E-01 2.99607E-13-1.85461E-13
 -1      2971 2.00556E+01 2.65761E-01-2.72581E-03 6.18138E-02 2.60169E-13-2.56977E-13
 -1      2972 3.07330E+01 4.93442E+00-7.94312E-02 1.97102E+00 7.10931E-13 6.05072E-14
 -1      2973 3.25101E+01 6.25365E+00-1.17061E-01 1.30126E+00 7.21589E-13-1.52503E-13
 -1      2974 1.98405E+01 7.63163E-03 2.19842E-04-1.76243E-01 1.42317E-13-2.81786E-13
 -1      2975 1.98403E+01 2.66347E-02 1.78657E-03-1.64871E-01 1.38746E-13-2.82199E-13
 -1      2976 1.99507E+01 5.46805E-02-1.78697E-03-1.45126E-01 1.48886E-13-3.17765E-13
 -1      2977 1.99292E+01 5.65879E-03-1.28254E-03-1.79357E-01 1.24381E-13-2.66537E-13
 -1      2978 2.00690E+01 4.15237E-01-1.54438E-03 2.89031E-01 3.48012E-13-1.94677E-13
 -1      2979 2.01703E+01 5.53505E-01 1.04331E-02 4.51668E-01 3.84040E-13-1.68069E-13
 -1      2980 2.02530E+01 8.21226E-01 6.10502E-04 6.18360E-01 4.36094E-13-2.57561E-13
 -1      2981 2.01454E+01 4.76797E-01-2.12976E-03 2.81718E-01 3.44594E-13-2.52008E-13
 -1      2982 2.90992E+01 1.27952E+00-2.08700E-01-1.66505E+00-3.03479E-13 4.09395E-13
 -1      2983 2.87692E+01-7.02323E-01-1.29477E-02-9.48330E-01-9.55902E-14 3.12320E-13
 -1      2984 2.95749E+01 3.79489E+00-1.93700E-01-2.15480E+00 1.11272E-13-5.99673E-13
 -1      2985 3.01252E+01 1.98567E+00-1.39116E-01-2.32460E+00-2.11775E-14-4.66072E-13
 -1      2986 1.99246E+01 2.59538E+00-7.88797E-03 7.95129E-01 3.60475E-13-6.10320E-13
 -1      2987 1.98810E+01 2.68753E+00-6.11619E-03 6.46018E-01 2.89076E-13-6.30350E-13
 -1      2988 1.99999E+01 2.38777E+00 4.33464E-03 5.17251E-01 2.44427E-13-5.79959E-13
 -1      2989 2.00808E+01 2.19010E+00 5.59793E-03 7.46518E-01 3.56609E-13-5.44268E-13
 -1      2990 1.69156E+01-4.55496E+00 1.64333E-01-5.87122E+00-1.45495E-13 1.30063E-13
 -1      2991 1.99195E+01-5.18868E+00 2.20224E-03-5.31039E+00-1.36058E-13-6.65440E-14
 -1      2992 1.98767E+01 2.69654E+00-6.05532E-03-6.35382E-01-1.89007E-13-6.67914E-13
 -1      2993 1.99184E+01 2.60430E+00-8.68810E-03-7.85443E-01-2.50390E-13-6.46432E-13
 -1      2994 3.00999E+01 5.12074E-01-2.02981E-01-2.11589E+00-1.21084E-13-4.43728E-13
 -1      2995 2.97545E+01-1.09056E+00-3.14160E-02-1.47454E+00-1.91069E-13-3.52135E-13
 -1      2996 6.68273E+00-1.17329E+00 1.43673E-01 2.79263E+00 8.98656E-14-3.42226E-13
 -1      2997 5.99411E+00-9.34690E-01 1.70281E-01 8.78055E-01-6.97862E-14-6.17256E-13
 -1      2998 2.06337E+01 1.10555E-01 4.91078E-03-9.88610E-01 2.14129E-13 8.20330E-14
 -1      2999 2.05814E+01 1.77692E-01-1.48038E-03-1.12491E+00 1.41043E-13 1.20718E-14
 -1      3000 2.07376E+01-1.47313E-02-3.08154E-03-1.01174E+00 3.13557E-13-1.35894E-13
 -1      3001 2.40496E+01-5.27846E+00-1.14149E-01 4.09423E+00 3.19120E-13 3.71043E-13
 -1      3002 2.12955E+01-5.24049E+00 1.20196E-01 5.42351E+00 4.43062E-13-1.46206E-13
 -1      3003 2.77985E+01-3.07505E+00-1.70631E-01 6.44063E-01 1.35112E-13 2.75349E-13
 -1      3004 2.65807E+01-4.15025E+00 7.43668E-02 2.06519E+00 2.30552E-13 3.12653E-13
 -1      3005 2.89075E+01 6.95914E+00-1.94984E-01-1.98109E-01-3.68372E-13 1.14730E-13
 -1      3006 2.91539E+01 6.60619E+00-1.67260E-01-1.03013E+00-5.59885E-13 1.98341E-13
 -1      3007 2.85047E+01 5.31127E+00-1.24081E-01 1.50017E+00-2.51632E-13-2.02449E-13
 -1      3008 2.85658E+01 6.35473E+00-2.02768E-01 6.64798E-01-2.63123E-13-6.92467E-14
 -1      3009 2.83007E+01-2.83728E+00 1.77617E-02-5.66659E-01-1.53454E-13-6.39266E-13
 -1      3010 2.87375E+01-1.49557E+00-1.74155E-01 4.08058E-01-2.20129E-13-5.30659E-13
 -1      3011 1.78945E+01-4.94741E+00-1.89470E-02 6.48703E+00 6.02129E-13-4.49814E-13
 -1      3012 1.50384E+01-4.15465E+00 1.75317E-01 6.57333E+00 5.84699E-13-3.82333E-13
 -1      3013 2.87003E+01-3.87871E+00-1.45089E-01 4.31305E-01-8.44047E-14-4.36845E-13
 -1      3014 2.64154E+01-4.95107E+00 3.80849E-02 2.23847E+00 1.68802E-13-5.43121E-13
 -1      3015 2.83732E+01-2.72089E+00-8.75571E-02 1.05033E+00-1.43219E-14 2.89491E-13
 -1      3016 1.99752E+01 2.48449E+00-6.33468E-03-9.01633E-01-2.78485E-13-6.00703E-13
 -1      3017 2.00275E+01 2.33450E+00-1.64239E-02-1.04558E+00-3.52405E-13-5.55376E-13
 -1      3018 2.00783E+01 2.20316E+00 7.47277E-03-7.32241E-01-2.48690E-13-5.80681E-13
 -1      3019 1.99338E+01 2.53926E+00 3.58766E-03 3.43034E-03 1.42972E-14-6.57405E-13
 -1      3020 1.97960E+01 2.87071E+00-5.09806E-03-6.15917E-02-1.36307E-15-7.04182E-13
 -1      3021 1.98026E+01 2.85416E+00-6.01801E-03-2.16632E-01-5.92441E-14-7.09786E-13
 -1      3022 2.79636E+01 2.18859E+00-9.08236E-02-2.10926E+00-3.28890E-13 4.05592E-13
 -1      3023 2.34402E+01-5.25627E+00 5.59607E-02-4.47170E+00 2.03199E-13-2.60902E-13
 -1      3024 8.65432E+00-8.24850E-01 1.62843E-01-2.15597E+00 1.45856E-14 4.05426E-13
 -1      3025 1.15245E+01-1.81603E+00 8.64626E-02-4.95074E+00 1.98647E-13 2.41016E-13
 -1      3026 1.23687E+01-2.85455E+00 1.39334E-01-5.86504E+00 1.59844E-13 2.52812E-13
 -1      3027 1.46135E+01-2.89856E+00 9.15525E-02-5.79751E+00 9.38000E-14 1.25983E-13
 -1      3028 2.09105E+01-4.44845E+00 6.92209E-02-4.44872E+00-1.71578E-13-7.02632E-14
 -1      3029 2.24011E+01-5.17784E+00 1.10090E-01-4.30800E+00-1.81910E-13-1.52946E-13
 -1      3030 2.39859E+01-5.10303E+00-8.36043E-02-2.95930E+00-3.29722E-13-2.25693E-13
 -1      3031 2.70224E+01-3.81879E+00-2.40523E-02-1.27269E+00-1.20501E-13-4.71657E-13
 -1      3032 2.08192E+01-1.20996E-01-3.17387E-03-1.17849E+00 2.04990E-13-1.44700E-13
 -1      3033 2.74880E+01 2.90658E+00-1.16014E-01 2.62267E+00 3.70148E-13 6.46958E-13
 -1      3034 2.75005E+01 1.17298E+00-2.42780E-01 3.11110E+00 3.50470E-13 8.07061E-13
 -1      3035 2.81580E+01 3.41993E+00-1.65183E-01-2.08747E+00 1.09412E-13-1.25545E-13
 -1      3036 3.00958E+01 6.17446E+00-8.61435E-02 8.92486E-01 5.43593E-13-3.07580E-13
 -1      3037 2.01450E+01-4.74477E+00 8.06276E-02 5.42889E+00 6.22877E-13-1.70957E-13
 -1      3038 1.97818E+01 1.13218E+00-1.12440E-02 2.11675E+00-3.71095E-13-2.78181E-13
 -1      3039 2.80753E+01-4.71233E-01-4.56354E-02 1.30144E+00-1.63466E-13-3.76699E-13
 -1      3040 2.75230E+01 3.60721E+00-1.04264E-01 1.73787E+00-2.22100E-13-2.76112E-13
 -1      3041 1.25729E+01-2.82563E+00 1.35795E-01 5.67710E+00-1.42150E-13 4.26437E-13
 -1      3042 1.15041E+01-1.73897E+00 1.04931E-01 4.74191E+00-7.63833E-14 4.90968E-13
 -1      3043 1.50412E+01-2.74923E+00 1.03229E-01 5.47929E+00-4.04815E-14 4.04704E-13
 -1      3044 2.05287E+01 2.77128E-01-9.69131E-04-1.27453E+00 3.12733E-13-3.27835E-14
 -1      3045 2.72202E+01 5.96798E+00-1.29843E-01 2.74013E-01-2.35451E-13-1.66187E-14
 -1      3046 2.02654E+01 1.02552E+00-8.32490E-04-6.71755E-01-3.52074E-13-2.82455E-13
 -1      3047 8.61062E+00-8.71900E-01 1.67397E-01 2.23927E+00-1.46577E-13 4.90885E-13
 -1      3048 2.76866E+01-1.92834E+00-3.35001E-02-5.83559E-01 3.86288E-14 2.54852E-13
 -1      3049 8.41063E+00-1.24668E+00 1.79781E-01 3.74703E+00 1.76255E-13-2.81997E-13
 -1      3050 9.00401E+00-4.29108E-01 1.26501E-01 2.76300E+00 1.91555E-13-3.03202E-13
 -1      3051 1.02542E+01-1.50291E+00 3.88780E-02 4.59382E+00 3.59338E-13-3.32012E-13
 -1      3052 9.72628E+00-1.64875E+00 1.81753E-01-4.04812E+00-2.96430E-13-5.45619E-13
 -1      3053 1.39117E+01-3.22460E+00 1.40348E-01 6.09695E+00 4.61575E-13-3.82930E-13
 -1      3054 1.56543E+01-3.37214E+00 1.41387E-01-5.37900E+00-2.57377E-13 1.50574E-14
 -1      3055 2.07491E+01-3.58528E-02 7.95863E-03-1.32348E+00 1.25714E-13-1.56721E-13
 -1      3056 2.05502E+01 2.05971E-01-2.58290E-03-1.43568E+00 3.26716E-13 5.53600E-14
 -1      3057 2.06241E+01-2.15696E-02-6.12837E-03-1.60546E+00 2.32302E-13 8.08306E-14
 -1      3058 2.08714E+01-2.25111E-01-3.28744E-03-1.32951E+00 1.28822E-13-1.68304E-13
 -1      3059 2.02902E+01 1.58766E+00-1.13069E-03 1.16692E+00 5.33135E-13-2.97639E-13
 -1      3060 6.78488E+00-6.61302E-01 1.81182E-01-2.75923E-01-1.45111E-13-7.69773E-13
 -1      3061 7.85105E+00-4.50066E-01 1.04038E-01-1.58735E+00-2.47580E-13-8.57092E-13
 -1      3062 8.20552E+00-8.38633E-02 1.29978E-01 5.13301E-01-1.44450E-14-4.81365E-13
 -1      3063 3.02235E+01 2.80767E+00-2.39948E-01 2.66371E+00 7.64416E-13 4.53054E-13
 -1      3064 2.95125E+01 4.07023E+00-1.51815E-01 2.38978E+00 5.61801E-13 2.77056E-13
 -1      3065 1.89516E+01 1.68674E+00-2.00870E-02 1.68295E+00-3.88067E-14 2.55972E-13
 -1      3066 1.92712E+01 1.51794E+00 1.34270E-02 1.92714E+00-1.49286E-13 1.96839E-13
 -1      3067 1.85860E+01 1.59635E+00 8.79735E-03 1.65575E+00 9.25325E-14 4.49882E-13
 -1      3068 1.98197E+01 2.82081E+00-5.20842E-03-3.51043E-01-9.65831E-14-6.95152E-13
 -1      3069 1.98427E+01 2.76956E+00-6.88829E-03-5.05384E-01-1.57859E-13-6.77900E-13
 -1      3070 1.99982E+01 2.39523E+00 5.51981E-03-5.05100E-01-1.71286E-13-6.34890E-13
 -1      3071 1.99499E+01 2.50570E+00 4.51545E-03-2.56001E-01-8.23494E-14-6.61263E-13
 -1      3072 2.76330E+01 5.37899E+00-1.14280E-01-1.48161E+00-5.21916E-13 1.41769E-13
 -1      3073 2.51266E+01-4.60787E+00 1.27503E-02 2.71359E+00 4.07646E-13 3.14138E-13
 -1      3074 2.02802E+01 1.36624E+00 2.30910E-03 9.20950E-01 4.78192E-13-3.23250E-13
 -1      3075 3.05663E+01 1.16236E+00-2.65146E-02 2.54083E+00 3.61461E-13 3.35815E-13
 -1      3076 2.02401E+01 1.47487E+00-8.01381E-03 8.02054E-01 4.11636E-13-3.83909E-13
 -1      3077 2.02009E+01 1.66938E+00-4.53761E-04 7.47192E-01 3.70327E-13-4.45471E-13
 -1      3078 2.21546E+01-4.88358E+00 8.65788E-02-4.72568E+00 1.55473E-13-9.95948E-14
 -1      3079 2.43412E+01-5.01608E+00-7.75928E-02-3.38742E+00-3.63598E-15-3.01226E-13
 -1      3080 2.02194E+01 4.20125E-01 2.26059E-03-1.22427E-01-2.32069E-13-2.68448E-13
 -1      3081 2.01822E+01 3.15826E-01-2.11762E-03-3.60177E-02-2.00914E-13-2.89707E-13
 -1      3082 2.01677E+01 2.31577E-01 2.99309E-03 2.48993E-02-1.91350E-13-2.72115E-13
 -1      3083 2.01379E+01 1.61530E-01-1.30210E-03 7.60299E-02-2.00663E-13-2.93183E-13
 -1      3084 2.02393E+01 3.31172E-01-9.95229E-04-2.72873E-02-1.96203E-13-3.13785E-13
 -1      3085 2.01213E+01 1.07926E-01 2.22076E-03 1.12081E-01-1.81046E-13-2.77655E-13
 -1      3086 2.01003E+01 6.32933E-02-6.05966E-04 1.39562E-01-1.60277E-13-2.71212E-13
 -1      3087 2.01982E+01 1.68298E-01-1.07400E-03 7.55618E-02-1.79697E-13-2.93247E-13
 -1      3088 2.00841E+01 2.99397E-02 1.44816E-03 1.57650E-01-1.23312E-13-2.36999E-13
 -1      3089 2.00708E+01 2.97573E-03-1.54995E-04 1.69469E-01-1.13425E-13-2.42901E-13
 -1      3090 2.01595E+01 6.31963E-02-9.89895E-04 1.34071E-01-1.16967E-13-2.64417E-13
 -1      3091 2.00565E+01-1.63834E-02 8.56572E-04 1.75676E-01-1.29026E-13-1.95009E-13
 -1      3092 2.00490E+01-3.10580E-02 1.30519E-04 1.77719E-01-1.32162E-13-2.00188E-13
 -1      3093 2.01258E+01-1.13141E-03-8.56199E-04 1.61787E-01-9.40822E-14-1.80915E-13
 -1      3094 2.00368E+01-4.06686E-02 4.22734E-04 1.76716E-01-1.39877E-13-2.09489E-13
 -1      3095 2.00335E+01-4.67420E-02 3.10286E-04 1.73280E-01-9.53684E-14-1.70049E-13
 -1      3096 2.00979E+01-3.68670E-02-7.09275E-04 1.69590E-01-1.32262E-13-1.31874E-13
 -1      3097 2.00235E+01-4.95055E-02 1.13781E-04 1.68558E-01-9.92549E-14-1.80699E-13
 -1      3098 2.00233E+01-4.95069E-02 4.25655E-04 1.62758E-01-8.46801E-14-1.72970E-13
 -1      3099 2.00755E+01-5.24781E-02-5.71829E-04 1.65812E-01-1.07326E-13-1.39387E-13
 -1      3100 2.00152E+01-4.73967E-02-1.03915E-04 1.56890E-01-7.30500E-14-1.47776E-13
 -1      3101 2.00171E+01-4.30299E-02 5.05025E-04 1.50989E-01-4.78484E-14-1.43910E-13
 -1      3102 2.00579E+01-5.38178E-02-4.51889E-04 1.56676E-01-5.44999E-14-9.94838E-14
 -1      3103 2.00106E+01-3.73536E-02-2.59812E-04 1.45879E-01-4.69925E-14-1.44582E-13
 -1      3104 2.00142E+01-2.97209E-02 5.68552E-04 1.41551E-01-2.40053E-14-1.09441E-13
 -1      3105 2.00444E+01-4.48584E-02-3.50251E-04 1.46791E-01-1.39958E-14-7.41371E-14
 -1      3106 2.00088E+01-2.13010E-02-3.77764E-04 1.38638E-01 1.59431E-14-1.32127E-13
 -1      3107 2.00137E+01-1.10681E-02 6.30472E-04 1.37167E-01 2.24641E-14-7.56450E-14
 -1      3108 2.00341E+01-2.81939E-02-2.64831E-04 1.39603E-01-3.65367E-14-1.34605E-13
 -1      3109 2.00091E+01-3.83018E-04-4.75967E-04 1.37594E-01-4.81696E-14-1.06724E-13
 -1      3110 2.00152E+01 1.20851E-02 7.00570E-04 1.40018E-01-1.26331E-13-1.12746E-13
 -1      3111 2.00261E+01-5.41635E-03-1.92574E-04 1.37777E-01-6.96832E-14-1.66070E-13
 -1      3112 2.00111E+01 2.47800E-02-5.67397E-04 1.44753E-01-1.44133E-13-9.82521E-14
 -1      3113 2.00183E+01 3.92958E-02 7.85142E-04 1.51964E-01-1.38134E-13-9.82196E-14
 -1      3114 2.00196E+01 2.25743E-02-1.30211E-04 1.43483E-01-1.27634E-13-1.98754E-13
 -1      3115 2.00143E+01 5.38512E-02-6.59961E-04 1.61879E-01-1.50157E-13-5.75075E-14
 -1      3116 2.00229E+01 7.02782E-02 8.87367E-04 1.74677E-01-1.65525E-13-8.93940E-14
 -1      3117 2.00140E+01 5.52858E-02-7.55377E-05 1.58604E-01-1.29058E-13-1.06198E-13
 -1      3118 2.00187E+01 8.65233E-02-7.56010E-04 1.90593E-01-1.43561E-13-6.98439E-14
 -1      3119 2.00290E+01 1.04631E-01 1.00748E-03 2.09692E-01-9.84548E-14-7.44749E-14
 -1      3120 2.00085E+01 9.23455E-02-2.83572E-05 1.84862E-01-1.00930E-13-2.73330E-14
 -1      3121 2.00243E+01 1.22221E-01-8.51245E-04 2.32374E-01 8.81736E-16-5.81940E-14
 -1      3122 2.00366E+01 1.41510E-01 1.14273E-03 2.58363E-01 8.27169E-14-2.15377E-16
 -1      3123 2.00027E+01 1.33173E-01 8.06165E-06 2.23869E-01-3.19924E-14 2.77469E-14
 -1      3124 2.00315E+01 1.59735E-01-9.32750E-04 2.88480E-01 2.77184E-14 4.61046E-14
 -1      3125 2.00466E+01 1.79208E-01 1.28747E-03 3.21712E-01 3.55924E-14 4.46295E-14
 -1      3126 1.99963E+01 1.76581E-01 2.46344E-05 2.77089E-01 5.15667E-14 3.33156E-14
 -1      3127 2.00415E+01 1.96745E-01-9.75935E-04 3.59740E-01 4.74265E-14 3.25663E-14
 -1      3128 2.00602E+01 2.14623E-01 1.43320E-03 4.00165E-01 7.28774E-14-3.44965E-14
 -1      3129 1.99895E+01 2.20276E-01 2.93586E-06 3.45717E-01 4.95081E-14-1.40815E-14
 -1      3130 2.00561E+01 2.29233E-01-9.40180E-04 4.46225E-01 6.49057E-14-1.87047E-14
 -1      3131 2.00798E+01 2.42601E-01 1.56868E-03 4.93137E-01 5.24308E-14-3.12977E-14
 -1      3132 1.99837E+01 2.60223E-01-8.99125E-05 4.30444E-01 7.79374E-14-9.11587E-16
 -1      3133 2.00788E+01 2.50753E-01-7.63003E-04 5.46760E-01-2.77046E-14 4.27861E-14
 -1      3134 2.01097E+01 2.55153E-01 1.67906E-03 5.98438E-01-8.06958E-16 9.81054E-14
 -1      3135 1.99814E+01 2.89873E-01-3.08236E-04 5.31113E-01 9.05479E-14 6.78512E-14
 -1      3136 2.01155E+01 2.51642E-01-3.52815E-04 6.58227E-01-3.76087E-14 5.29721E-14
 -1      3137 2.01570E+01 2.40678E-01 1.74169E-03 7.11471E-01-5.75708E-14 4.33365E-14
 -1      3138 1.99877E+01 2.99276E-01-7.36478E-04 6.46209E-01-3.74972E-14 1.14816E-13
 -1      3139 2.01760E+01 2.18306E-01 4.18826E-04 7.74601E-01-9.09149E-14-6.40606E-14
 -1      3140 2.02330E+01 1.83410E-01 1.71313E-03 8.24128E-01-9.81670E-14-1.00380E-13
 -1      3141 2.00116E+01 2.74207E-01-1.49802E-03 7.72127E-01-1.00116E-13-6.67370E-14
 -1      3142 2.02748E+01 1.33001E-01 1.72142E-03 8.85587E-01-2.52515E-14-1.30778E-13
 -1      3143 2.03545E+01 6.37137E-02 1.49901E-03 9.23261E-01 2.79360E-15-1.31470E-13
 -1      3144 2.00676E+01 1.95637E-01-2.75917E-03 9.02058E-01-3.34626E-14-1.61187E-13
 -1      3145 2.04337E+01-2.50724E-02 3.75578E-03 9.74636E-01-5.37954E-14-8.30980E-14
 -1      3146 2.05450E+01-1.39651E-01 8.92195E-04 9.88539E-01-5.60162E-14-9.59190E-14
 -1      3147 2.01778E+01 4.02244E-02-4.71392E-03 1.02416E+00 4.31727E-14-1.47338E-13
 -1      3148 2.06816E+01-2.75808E-01 6.68101E-03 1.01608E+00-6.13643E-14-6.23696E-14
 -1      3149 2.08342E+01-4.43146E-01-4.93225E-04 9.89568E-01-5.60356E-14-3.75750E-14
 -1      3150 2.03742E+01-2.16665E-01-7.52239E-03 1.11851E+00-3.74985E-14-1.68957E-13
 -1      3151 2.10521E+01-6.28638E-01 1.04941E-02 9.71429E-01-2.60225E-14-4.98876E-14
 -1      3152 2.12519E+01-8.44589E-01-3.19517E-03 8.82849E-01 1.13372E-13-2.80855E-14
 -1      3153 2.06984E+01-5.92821E-01-1.11230E-02 1.15209E+00-5.63795E-14 6.84825E-15
 -1      3154 2.15729E+01-1.06363E+00 1.45531E-02 7.86398E-01 9.59181E-14-4.93711E-14
 -1      3155 2.18143E+01-1.29765E+00-7.65242E-03 6.11671E-01 1.61319E-13 1.30051E-14
 -1      3156 2.11963E+01-1.08091E+00-1.47630E-02 1.07215E+00 1.05866E-13 1.45779E-13
 -1      3157 2.22422E+01-1.49984E+00 1.66792E-02 3.95483E-01 2.68115E-13 5.40726E-14
 -1      3158 2.24965E+01-1.67422E+00-1.32308E-02 1.18634E-01 2.46017E-13 1.78600E-13
 -1      3159 2.18994E+01-1.61457E+00-1.66451E-02 8.02280E-01 2.69628E-13 7.20599E-14
 -1      3160 2.29865E+01-1.75579E+00 1.25787E-02-2.50186E-01 1.50301E-13 2.23823E-13
 -1      3161 2.31981E+01-1.72749E+00-1.40615E-02-6.12158E-01 2.74957E-14 2.09026E-13
 -1      3162 2.27856E+01-2.01933E+00-1.39672E-02 2.54716E-01 2.16663E-13 1.46791E-14
 -1      3163 2.36207E+01-1.54239E+00-3.50862E-03-1.09370E+00-3.01668E-15 2.52325E-13
 -1      3164 2.37322E+01-1.14994E+00-4.42211E-03-1.44964E+00 6.48672E-14 2.75087E-13
 -1      3165 2.37076E+01-1.96525E+00-3.82716E-03-5.99452E-01 3.59518E-14 1.11522E-13
 -1      3166 2.38871E+01-5.49765E-01-3.31351E-02-1.87528E+00-4.15171E-14 1.82223E-13
 -1      3167 2.38558E+01 2.40905E-01 4.36886E-03-2.00931E+00-9.38659E-14 2.13984E-13
 -1      3168 2.43895E+01-1.07104E+00 1.41395E-02-1.60402E+00-3.39190E-14 1.48760E-13
 -1      3169 2.37026E+01 1.13613E+00-5.57512E-02-2.07869E+00-2.08750E-13 1.89666E-13
 -1      3170 2.35533E+01 2.03954E+00-1.52254E-04-1.81114E+00-2.05922E-13 1.64011E-13
 -1      3171 2.45228E+01 6.49477E-01-1.88989E-02-2.14544E+00-2.36162E-13-1.41571E-14
 -1      3172 2.33343E+01 2.77042E+00-4.53887E-02-1.26829E+00-2.53141E-13 9.38594E-14
 -1      3173 2.32340E+01 3.19394E+00-1.96464E-02-6.51501E-01-3.44759E-13-5.43493E-14
 -1      3174 2.42034E+01 2.77158E+00-4.32448E-02-1.68774E+00-2.87395E-13-8.05432E-15
 -1      3175 2.32384E+01 3.21411E+00-1.80340E-02 2.21885E-01-2.60961E-13-1.61786E-13
 -1      3176 2.32942E+01 2.82487E+00-5.06410E-02 8.43898E-01-1.10124E-13-2.59928E-13
 -1      3177 2.39798E+01 3.78456E+00-5.16772E-02-2.13081E-01-3.54824E-13 2.75240E-14
 -1      3178 2.35479E+01 2.09773E+00-6.35045E-04 1.43870E+00-2.77556E-15-2.79790E-13
 -1      3179 2.36869E+01 1.19295E+00-5.86200E-02 1.69678E+00-5.61929E-14-2.15825E-13
 -1      3180 2.42139E+01 2.90275E+00-3.66983E-02 1.32402E+00-9.06220E-15-1.60452E-13
 -1      3181 2.38476E+01 2.95179E-01 2.80820E-03 1.68946E+00-8.16829E-14-3.25048E-14
 -1      3182 2.39012E+01-5.49749E-01-3.72168E-02 1.56264E+00-7.96559E-14 7.32574E-15
 -1      3183 2.45705E+01 8.28016E-01-1.02201E-02 1.82172E+00 8.33118E-14-8.39849E-14
 -1      3184 2.37819E+01-1.17977E+00-2.29925E-03 1.10213E+00-2.44742E-13-8.21860E-14
 -1      3185 2.36555E+01-1.59347E+00-7.34473E-03 7.43531E-01-2.70207E-13-1.56188E-13
 -1      3186 2.44882E+01-1.18156E+00-3.49809E-03 1.24339E+00-2.31342E-13-2.01561E-13
 -1      3187 2.32709E+01-1.79448E+00-1.06661E-02 2.48740E-01-2.14340E-13-1.30235E-13
 -1      3188 2.30461E+01-1.83293E+00 1.09453E-02-1.31981E-01-1.20145E-13-7.12089E-14
 -1      3189 2.38584E+01-2.00140E+00 6.94856E-03 2.57248E-01-1.73251E-13-2.42656E-13
 -1      3190 2.25613E+01-1.74014E+00-1.41114E-02-5.26732E-01-1.15052E-13-9.73950E-15
 -1      3191 2.22948E+01-1.53944E+00 1.68148E-02-8.15945E-01-7.75924E-14-1.66596E-13
 -1      3192 2.29622E+01-2.09988E+00-1.24405E-02-6.53386E-01-7.45190E-14-2.61249E-13
 -1      3193 2.18612E+01-1.29761E+00-8.83713E-03-1.04502E+00-2.88525E-14-9.21062E-14
 -1      3194 2.15971E+01-1.00977E+00 1.31756E-02-1.21624E+00 6.27497E-14 6.54717E-15
 -1      3195 2.20761E+01-1.63825E+00-1.61747E-02-1.23618E+00-2.30068E-15-1.52814E-13
 -1      3196 2.13089E+01-7.58267E-01-5.03421E-03-1.27830E+00 9.99377E-14 6.27119E-14
 -1      3197 2.10832E+01-4.66516E-01 9.25316E-03-1.34558E+00 1.86183E-13 6.14631E-14
 -1      3198 2.09554E+01-4.10140E-01-2.22917E-03-1.50208E+00 1.87507E-14-1.22353E-13
 -1      3199 2.14097E+01-1.00245E+00-8.48240E-03-1.47666E+00 1.78049E-13 1.22042E-13
 -1      3200 2.00729E+01 1.50762E-01-1.12481E-03-7.54840E-02 1.93320E-13-3.01068E-13
 -1      3201 2.01053E+01 2.15916E-01 3.69349E-03-2.19616E-02 2.00578E-13-2.59216E-13
 -1      3202 2.84709E+01-2.31514E+00-4.84452E-02-1.16005E+00-2.60503E-14-1.75276E-13
 -1      3203 1.99859E+01-4.15779E-02 3.20750E-04-1.78298E-01 1.36705E-13-2.19962E-13
 -1      3204 1.99847E+01-3.56379E-02 4.14259E-04-1.82244E-01 1.64290E-13-2.32017E-13
 -1      3205 1.99939E+01-2.65491E-02 1.67303E-04-1.83301E-01 1.42133E-13-2.54500E-13
 -1      3206 1.99972E+01-1.28499E-02 8.95175E-04-1.81518E-01 1.02392E-13-2.42424E-13
 -1      3207 2.00512E+01-3.24544E-02-7.65897E-04-1.78327E-01 1.27300E-13-1.87999E-13
 -1      3208 1.99851E+01-4.02669E-02 4.95331E-04-1.53424E-01 5.21815E-14-1.65956E-13
 -1      3209 1.99789E+01-4.36874E-02-1.37481E-04-1.60118E-01 1.16596E-13-2.28938E-13
 -1      3210 1.99898E+01-2.93358E-02 5.62824E-04-1.42289E-01-3.98755E-14-8.57902E-14
 -1      3211 1.99821E+01-3.57169E-02-2.88357E-04-1.47492E-01-3.87692E-15-1.14004E-13
 -1      3212 2.00182E+01-4.33887E-02-3.44203E-04-1.52169E-01-5.59157E-15-1.74706E-13
 -1      3213 1.99968E+01-1.34534E-02 6.37720E-04-1.36112E-01-2.39601E-14-1.10147E-13
 -1      3214 1.99880E+01-2.22772E-02-3.96675E-04-1.38489E-01-2.64666E-14-5.39858E-14
 -1      3215 2.00149E+01-2.92713E-02-2.65937E-04-1.43191E-01-4.25051E-14-1.14025E-13
 -1      3216 2.00060E+01 6.87743E-03 7.30651E-04-1.37245E-01 3.57663E-14-8.14373E-14
 -1      3217 1.99959E+01-4.20936E-03-4.85497E-04-1.35668E-01 2.35824E-14-8.72163E-14
 -1      3218 2.00141E+01-9.29661E-03-2.06388E-04-1.39583E-01-8.93839E-15-7.42433E-14
 -1      3219 2.00170E+01 3.17053E-02 8.49567E-04-1.47810E-01 5.72157E-14-5.38676E-14
 -1      3220 2.00056E+01 1.82649E-02-5.73845E-04-1.41230E-01 4.56021E-14-5.67063E-14
 -1      3221 2.00150E+01 1.60539E-02-1.56748E-04-1.43719E-01 2.83105E-14-2.17709E-14
 -1      3222 2.00299E+01 6.15208E-02 1.00019E-03-1.69915E-01 1.07318E-14 1.98046E-15
 -1      3223 2.00168E+01 4.54205E-02-6.78055E-04-1.57258E-01 4.61266E-14-4.33894E-14
 -1      3224 2.00169E+01 4.69228E-02-1.07742E-04-1.57757E-01 1.15632E-14-6.71113E-15
 -1      3225 2.00447E+01 9.71552E-02 1.18576E-03-2.05806E-01 3.37247E-14-6.32935E-14
 -1      3226 2.00294E+01 7.79247E-02-8.12683E-04-1.85903E-01 6.82352E-14-1.20065E-14
 -1      3227 2.00191E+01 8.39465E-02-4.78703E-05-1.83831E-01 6.25814E-14-5.69303E-14
 -1      3228 2.00610E+01 1.39675E-01 1.40679E-03-2.57953E-01 8.64307E-14-1.28939E-13
 -1      3229 2.00431E+01 1.16736E-01-9.91562E-04-2.29504E-01 5.96063E-14-7.29468E-14
 -1      3230 2.00206E+01 1.28128E-01 3.69863E-05-2.24176E-01 7.58817E-14-1.36653E-13
 -1      3231 2.00783E+01 1.90235E-01 1.66061E-03-3.29089E-01 1.08243E-13-1.13915E-13
 -1      3232 2.00576E+01 1.62985E-01-1.22800E-03-2.90652E-01 8.36429E-14-8.69917E-14
 -1      3233 2.00201E+01 1.80696E-01 1.64373E-04-2.81204E-01 7.67465E-14-1.38329E-13
 -1      3234 2.00956E+01 2.49838E-01 1.94118E-03-4.22162E-01 8.28085E-14-4.95850E-14
 -1      3235 2.00719E+01 2.17789E-01-1.53419E-03-3.72189E-01 1.20062E-13-3.74413E-14
 -1      3236 2.00157E+01 2.42910E-01 3.55406E-04-3.57497E-01 9.83986E-14-8.05048E-15
 -1      3237 2.01112E+01 3.18894E-01 2.24040E-03-5.40195E-01 1.03681E-13 3.35046E-14
 -1      3238 2.00845E+01 2.81926E-01-1.91900E-03-4.77136E-01 8.28934E-14-5.06475E-14
 -1      3239 2.00046E+01 3.15730E-01 6.33225E-04-4.55758E-01 7.71204E-14 4.68369E-14
 -1      3240 2.01226E+01 3.96435E-01 2.55277E-03-6.86030E-01 1.82198E-14 9.57177E-14
 -1      3241 2.00932E+01 3.55252E-01-2.38310E-03-6.08517E-01 7.63402E-14 8.98098E-14
 -1      3242 1.99832E+01 3.99241E-01 1.01773E-03-5.78681E-01 5.55503E-14 1.70476E-13
 -1      3243 2.01268E+01 4.78710E-01 2.88704E-03-8.61923E-01 4.08224E-15 3.96591E-14
 -1      3244 2.00951E+01 4.35640E-01-2.90936E-03-7.69081E-01 4.49014E-14 8.15269E-14
 -1      3245 1.99468E+01 4.91643E-01 1.51291E-03-7.28798E-01 3.39558E-14 2.66638E-13
 -1      3246 2.01215E+01 5.56779E-01 3.28940E-03-1.06899E+00-9.43906E-14 3.09958E-14
 -1      3247 2.00873E+01 5.17138E-01-3.44555E-03-9.60908E-01-1.20719E-14 2.08568E-14
 -1      3248 1.98901E+01 5.87509E-01 2.08017E-03-9.08341E-01 2.26991E-14 1.70016E-13
 -1      3249 2.01075E+01 6.12621E-01 3.88271E-03-1.30654E+00-5.25418E-14-2.18949E-14
 -1      3250 2.00686E+01 5.86882E-01-3.87354E-03-1.18492E+00-7.97953E-14-4.19920E-14
 -1      3251 1.98084E+01 6.74895E-01 2.58705E-03-1.11930E+00 1.28412E-14 3.95004E-14
 -1      3252 2.00943E+01 6.13277E-01 4.91867E-03-1.57126E+00-1.11187E-13-6.95022E-14
 -1      3253 2.00430E+01 6.20275E-01-3.95099E-03-1.44035E+00-3.18846E-14-7.24876E-14
 -1      3254 1.97005E+01 7.30780E-01 2.71689E-03-1.36387E+00-5.63283E-14 9.89815E-14
 -1      3255 2.01097E+01 5.03103E-01 6.81920E-03-1.85602E+00-1.64836E-13-3.35621E-14
 -1      3256 2.00279E+01 5.74155E-01-3.18282E-03-1.72400E+00-1.44737E-13-5.62917E-14
 -1      3257 1.95745E+01 7.14390E-01 1.83039E-03-1.64558E+00-1.01711E-13 4.56053E-14
 -1      3258 2.02178E+01 1.96518E-01 1.04765E-02-2.14656E+00-7.39964E-14 6.27612E-15
 -1      3259 2.00674E+01 3.78832E-01-4.50508E-04-2.02845E+00-9.97902E-14-2.63256E-14
 -1      3260 1.94597E+01 5.58381E-01-1.13825E-03-1.97072E+00-1.48936E-13 6.48864E-14
 -1      3261 2.05435E+01-4.22195E-01 1.72621E-02-2.41078E+00-1.13287E-13 1.22808E-13
 -1      3262 2.02552E+01-6.72184E-02 6.76777E-03-2.33692E+00-1.05570E-13 5.94490E-14
 -1      3263 1.94254E+01 1.61350E-01-7.34259E-03-2.34729E+00-1.38031E-13-1.06313E-14
 -1      3264 2.13017E+01-1.47537E+00 2.39797E-02-2.55919E+00-1.91183E-13 1.54514E-13
 -1      3265 2.07775E+01-9.01997E-01 2.12406E-02-2.60159E+00-7.72982E-14 1.69345E-13
 -1      3266 1.96195E+01-6.10305E-01-1.34663E-02-2.79114E+00-1.90604E-13 9.29222E-14
 -1      3267 2.27345E+01-2.90221E+00 2.34932E-02-2.37839E+00-3.01864E-13 8.52911E-14
 -1      3268 2.18999E+01-2.14945E+00 5.02807E-02-2.64660E+00-2.20815E-13 2.02842E-13
 -1      3269 2.03555E+01-1.93407E+00-2.18921E-02-3.24103E+00-1.94062E-13 8.29770E-14
 -1      3270 2.49354E+01-4.22728E+00 2.81224E-02-1.73729E+00-3.57939E-13-1.03856E-13
 -1      3271 2.37556E+01-3.70728E+00 8.23279E-02-2.35339E+00-3.99524E-13-8.23777E-14
 -1      3272 2.72887E+01 1.98292E+00-1.51808E-01-2.59570E+00 1.50768E-13 7.46625E-14
 -1      3273 2.87641E+01 1.34468E+00-7.53304E-02-2.68929E+00 1.82077E-14-2.60222E-13
 -1      3274 2.15820E+01-1.55257E+00 4.30866E-02 2.98229E+00 2.07706E-14-1.40163E-13
 -1      3275 2.23083E+01-2.17812E+00 3.31065E-02 2.74622E+00 2.15474E-13-2.80106E-13
 -1      3276 2.07389E+01-4.64916E-01 2.85030E-02 2.90989E+00-4.68158E-14-1.18922E-13
 -1      3277 2.11043E+01-9.79328E-01 9.47479E-03 2.90164E+00 8.99072E-14-1.50612E-13
 -1      3278 2.03965E+01-1.36822E+00-3.73401E-02 3.39421E+00-3.75073E-14 1.43931E-13
 -1      3279 2.50414E+01-5.44341E+00 3.37058E-02 3.47101E+00 2.62818E-13-5.94448E-13
 -1      3280 2.29237E+01-5.13525E+00-1.57268E-02 4.21039E+00 2.82580E-13-3.50869E-13
 -1      3281 1.91199E+01 6.83238E-01 1.96295E-02-2.05159E+00 6.78107E-14 5.09872E-14
 -1      3282 1.86614E+01 8.73266E-01-2.08795E-02-1.85602E+00 1.97239E-13 4.40362E-14
 -1      3283 9.69958E+00-3.23562E-02 9.69266E-02-1.18906E+00 9.89781E-14 5.67532E-13
 -1      3284 1.04233E+01-6.78131E-01 1.61181E-01-3.46586E+00 2.03795E-14 2.68688E-13
 -1      3285 2.05512E+01-1.28410E-01 1.06493E-02-1.88675E+00 2.87090E-13 1.91602E-13
 -1      3286 2.02841E+01-3.58063E-03-3.94675E-03-2.01317E+00 3.08673E-13-8.33858E-14
 -1      3287 1.82376E+01 1.21693E+00 1.57551E-02-1.52201E+00 2.29822E-13-2.89949E-13
 -1      3288 1.78645E+01 1.37132E+00-2.05799E-02-1.12500E+00 3.69657E-13-5.55058E-13
 -1      3289 1.81798E+01 7.70570E-01 2.10480E-03-1.92331E+00 3.28296E-13-1.50689E-13
 -1      3290 2.05371E+01-4.44827E+00 5.06089E-02 5.17772E+00 2.57308E-13 3.55480E-14
 -1      3291 1.81728E+01-3.50248E+00 1.13963E-01 5.41861E+00 1.06748E-13 1.81334E-13
 -1      3292 2.02145E+01 1.77832E+00 7.14495E-03-9.19199E-01-3.52196E-13-4.39224E-13
 -1      3293 1.01870E+01-7.50709E-01 1.60964E-01 3.37153E+00-4.79963E-14 4.17430E-13
 -1      3294 9.58068E+00-1.12405E-01 7.28306E-02 1.40088E+00 2.10595E-15 5.59608E-13
 -1      3295 1.23805E+01-8.91657E-01 1.21094E-01 3.79372E+00 7.34829E-15 5.16309E-13
 -1      3296 1.99576E+01 1.89939E-01 1.56111E-02-2.13192E+00 2.44704E-13 6.72806E-14
 -1      3297 1.95532E+01 3.70861E-01-1.31062E-02-2.12427E+00 1.06639E-13 1.94857E-13
 -1      3298 1.92327E+01 1.67818E-01-1.08994E-02-2.31710E+00 2.31131E-13 9.41714E-14
 -1      3299 2.01622E+01-2.84595E-01-1.24865E-02-2.22882E+00 2.14357E-13 7.09614E-14
 -1      3300 9.51144E+00-7.29101E-01 1.91198E-01-3.01918E+00-4.11095E-13-7.47763E-13
 -1      3301 1.16057E+01-1.51998E+00 9.92886E-04-4.29396E+00-3.82860E-13-3.32429E-13
 -1      3302 1.00997E+01-1.26977E-01 1.34260E-01-2.06624E+00-3.21201E-13-6.59472E-13
 -1      3303 1.79778E+01-3.93991E+00 6.33516E-02-5.80065E+00 1.27898E-13 3.25989E-14
 -1      3304 2.02466E+01-4.70926E+00 2.53652E-03-5.52309E+00 2.23578E-13 1.69486E-13
 -1      3305 2.18221E+01-4.39281E+00 6.08200E-02-4.43948E+00 2.73392E-14-2.24458E-14
 -1      3306 2.21351E+01-3.06554E+00 5.14549E-02 3.38918E+00 3.34414E-13-3.17092E-13
 -1      3307 2.31234E+01-3.80043E+00 2.10505E-02 3.00870E+00 3.96211E-13-3.36951E-13
 -1      3308 2.01241E+01 2.93561E-01-1.98875E-03 4.54460E-02 2.43994E-13-2.77780E-13
 -1      3309 2.01693E+01 3.94420E-01 4.34998E-03 1.35929E-01 2.90042E-13-2.57527E-13
 -1      3310 2.01901E+01 3.16031E-01-1.49914E-03 3.73858E-02 2.30801E-13-2.49394E-13
 -1      3311 2.67314E+01 2.79679E+00-1.67671E-01-2.23312E+00-4.25299E-13 2.91593E-13
 -1      3312 2.71496E+01 1.11046E+00-7.81359E-04-2.22951E+00-1.82368E-13 3.73396E-13
 -1      3313 2.60489E+01-4.28400E+00 6.09474E-02-1.78236E+00-1.31744E-13-3.87038E-13
 -1      3314 2.66621E+01-3.27836E+00-1.14393E-01-3.44891E-01-1.89475E-13-3.52784E-13
 -1      3315 1.99835E+01-4.50479E-02 4.21092E-04-1.66663E-01 1.49063E-13-2.35204E-13
 -1      3316 1.99793E+01-4.45538E-02 8.46603E-05-1.73138E-01 1.52552E-13-1.92159E-13
 -1      3317 2.00352E+01-4.79460E-02-5.88311E-04-1.74018E-01 1.33825E-13-1.85765E-13
 -1      3318 2.00246E+01-5.03759E-02-4.48749E-04-1.63665E-01 9.20214E-14-1.59619E-13
 -1      3319 1.56597E+01-3.12374E+00 3.15954E-02 5.72429E+00 4.81760E-13-3.00961E-13
 -1      3320 1.27823E+01-2.07799E+00 1.79229E-01 5.42077E+00 3.90840E-13-3.45335E-13
 -1      3321 2.70553E+01-1.39672E+00 2.28661E-02 1.17089E+00-1.80821E-13-5.34392E-13
 -1      3322 2.68169E+01 1.71536E-01-1.50348E-01 1.75855E+00-1.82590E-13-5.67640E-13
 -1      3323 2.62577E+01-4.25326E+00 1.16071E-01-1.11147E+00-2.95588E-13-7.28220E-14
 -1      3324 2.73789E+01-4.34724E+00-5.30978E-02-3.19120E-01-1.71564E-13-1.66880E-14
 -1      3325 2.62541E+01 5.27512E+00-1.40899E-01-1.05430E+00-3.67734E-13-5.05707E-14
 -1      3326 2.63600E+01 4.45196E+00-8.16185E-02-1.83189E+00-4.71456E-13 1.26392E-13
 -1      3327 2.69429E+01-1.24928E+00-1.68631E-01-1.42515E+00-1.60302E-13 4.35964E-13
 -1      3328 2.67761E+01-2.64752E+00 7.04869E-02-3.02644E-01 1.94744E-13 2.18436E-13
 -1      3329 2.15212E+01-4.77676E+00-5.88516E-02 4.57690E+00 6.06792E-13 6.49064E-14
 -1      3330 1.90012E+01-4.03104E+00 8.36820E-02 5.34493E+00 6.25090E-13-2.22981E-13
 -1      3331 2.02894E+01 9.89427E-01-7.75451E-04 6.91099E-01 4.36304E-13-2.84822E-13
 -1      3332 2.02687E+01 1.31099E+00 4.57305E-03 7.74359E-01 4.22825E-13-3.28386E-13
 -1      3333 2.02835E+01 1.13052E+00 5.35548E-03 5.98374E-01 3.64141E-13-3.27904E-13
 -1      3334 2.02317E+01 7.75455E-01-3.85131E-03 4.84008E-01 3.99807E-13-2.84440E-13
 -1      3335 2.54049E+01-4.25536E+00-1.37164E-01 1.55936E+00 3.71727E-13 1.14485E-13
 -1      3336 2.39350E+01-4.54501E+00 1.08343E-01 3.12573E+00 4.20913E-13 2.26354E-13
 -1      3337 2.02802E+01 1.26067E+00-4.93116E-03-6.83368E-01-3.04991E-13-3.92189E-13
 -1      3338 2.02639E+01 9.06400E-01-4.72853E-04-4.14133E-01-2.75300E-13-3.56695E-13
 -1      3339 2.02162E+01 1.57079E+00 1.12383E-03-6.36661E-01-2.60344E-13-4.64608E-13
 -1      3340 2.02733E+01 7.03995E-01-2.91895E-04-3.28967E-01-2.42656E-13-3.15766E-13
 -1      3341 2.02368E+01 5.52697E-01-2.68043E-03-1.97777E-01-2.22404E-13-2.87084E-13
 -1      3342 2.02851E+01 5.78124E-01 7.65556E-04-1.73504E-01-2.13557E-13-3.09005E-13
 -1      3343 2.03026E+01 9.28743E-01 2.93841E-03-3.43377E-01-2.09056E-13-3.76342E-13
 -1      3344 2.67208E+01 2.31754E+00-4.83034E-02 2.06365E+00-9.55902E-14-2.72060E-13
 -1      3345 2.60503E+01 3.98626E+00-1.36631E-01 1.56710E+00-6.42542E-14-5.42622E-14
 -1      3346 1.46847E+01-2.12528E+00 1.69444E-01-4.90118E+00-3.27030E-13-3.62904E-14
 -1      3347 1.75284E+01-3.28406E+00 2.70387E-02-4.96158E+00-2.36387E-13-2.19547E-14
 -1      3348 2.00470E+01 2.15967E+00-4.31209E-03 2.92988E-01 1.41603E-13-5.92045E-13
 -1      3349 2.00337E+01 2.19802E+00-3.50480E-03 1.70787E-01 7.39863E-14-6.21084E-13
 -1      3350 1.95260E+01 1.05661E+00 7.87297E-03 2.24913E+00-2.40325E-13-3.81073E-15
 -1      3351 2.63969E+01-4.64582E+00 4.51337E-02 1.72181E+00 2.35416E-13-6.57446E-13
 -1      3352 2.00282E+01 2.21620E+00-3.49155E-03 6.61336E-02 3.39607E-14-6.20146E-13
 -1      3353 2.00248E+01 2.21089E+00-5.81098E-03-6.00265E-02-2.25498E-14-6.17180E-13
 -1      3354 2.01404E+01 1.92152E+00 4.84348E-03 1.02053E-01 5.38522E-14-5.73637E-13
 -1      3355 2.47069E+01-4.36705E+00-3.87088E-03-2.35908E+00-1.23949E-13-2.36318E-13
 -1      3356 2.62776E+01-2.14381E-01-4.31998E-02-1.89321E+00-1.68143E-13 3.68108E-13
 -1      3357 1.23911E+01-9.52945E-01 1.15893E-01-3.84946E+00-7.65152E-14 2.51105E-13
 -1      3358 2.26897E+01-4.24505E+00 3.45652E-02 3.38395E+00 4.87832E-13 2.94903E-17
 -1      3359 2.76531E+01 4.05739E+00-2.43013E-01 1.89710E+00 4.32362E-13 3.83339E-13
 -1      3360 2.01762E+01 4.88381E-01-2.06393E-03 2.22416E-01 3.13227E-13-2.83913E-13
 -1      3361 2.02324E+01 6.34451E-01 4.13336E-03 3.63607E-01 3.51129E-13-2.78926E-13
 -1      3362 2.02564E+01 7.76429E-01-4.81361E-03 4.20780E-01 3.57152E-13-2.80051E-13
 -1      3363 2.02292E+01 5.23856E-01-1.31717E-03 2.01188E-01 3.05838E-13-2.63866E-13
 -1      3364 1.57524E+01-2.43553E+00 2.78669E-02-5.23417E+00 1.06512E-13 5.00433E-14
 -1      3365 1.69829E+01-3.27814E+00 9.42100E-02-5.71253E+00 1.17073E-13-3.34524E-14
 -1      3366 1.89181E+01-3.42119E+00 1.57755E-02-5.11343E+00 1.31201E-13 7.20708E-14
 -1      3367 1.77093E+01-3.33355E+00 8.18546E-02 5.37575E+00 5.20972E-13-2.38476E-13
 -1      3368 1.62745E+01-2.30339E+00 4.06274E-02 4.93000E+00 4.41827E-13-1.47223E-13
 -1      3369 1.91945E+01-3.40930E+00-1.23173E-02 4.59812E+00 5.08611E-13-7.38264E-14
 -1      3370 2.00738E+01 1.55721E-03-9.79391E-04-1.69915E-01 9.51670E-14-2.52159E-13
 -1      3371 2.00094E+01 4.99208E-03-7.84433E-05-1.74747E-01 6.49287E-14-2.41362E-13
 -1      3372 2.00196E+01 2.98642E-02 1.57509E-03-1.62765E-01 8.51627E-14-2.74929E-13
 -1      3373 2.16968E+01-3.66019E+00-2.57163E-02-3.50086E+00-2.61822E-13 6.21413E-14
 -1      3374 2.01562E+01 1.78747E+00-3.16424E-03-4.85166E-01-1.77956E-13-5.50740E-13
 -1      3375 2.01856E+01 1.66351E+00-8.33648E-03-5.76603E-01-2.23739E-13-5.37032E-13
 -1      3376 2.02907E+01 1.24099E+00 6.35317E-03-3.87096E-01-2.05624E-13-4.90019E-13
 -1      3377 1.14670E+01 3.58624E-01 6.89199E-02 1.05053E+00 1.88872E-14 6.25812E-13
 -1      3378 1.04477E+01 3.31112E-01 1.66658E-01-1.94640E-02 2.93298E-15 7.37257E-13
 -1      3379 1.15248E+01 3.35221E-01 3.40562E-02-1.25310E+00 1.67949E-13 5.66464E-13
 -1      3380 2.03979E+01-1.14264E-01 1.28682E-02 2.80816E+00-1.93924E-14-9.03857E-14
 -1      3381 1.96968E+01-2.78116E-01-3.05226E-02 3.07957E+00-1.40966E-14-7.65234E-14
 -1      3382 2.00994E+01 2.20947E-01 3.12341E-02 2.77380E+00-5.41111E-14-1.11256E-13
 -1      3383 2.23377E+01-4.60061E+00-3.47712E-02 4.09746E+00 2.71221E-13-3.51198E-13
 -1      3384 1.85775E+01-2.87653E+00 3.13569E-02 4.89330E+00 1.32831E-13 4.14592E-13
 -1      3385 1.69850E+01-2.98864E+00 6.63052E-02 5.40909E+00-4.61922E-14 4.64968E-13
 -1      3386 1.56788E+01-2.05025E+00 5.57569E-02 4.94142E+00-1.89085E-15 4.03975E-13
 -1      3387 1.95221E+01 8.16128E-01 1.67674E-02 2.45960E+00-3.23816E-13 3.31750E-15
 -1      3388 1.96924E+01 5.36412E-01 1.15472E-02 2.60041E+00-8.37485E-14 1.42496E-14
 -1      3389 1.87756E+01 1.10865E+00-2.64569E-02 2.26538E+00-4.46084E-15 3.65666E-13
 -1      3390 1.75143E+01 1.68483E+00-1.11936E-02 6.02403E-01 1.97065E-13 3.25348E-13
 -1      3391 1.76927E+01 1.63764E+00 2.43076E-03 1.11027E+00 1.80809E-13 3.49483E-13
 -1      3392 1.40920E+01-1.39483E+00 9.13121E-02-4.18024E+00-3.49602E-13-1.64778E-13
 -1      3393 1.76095E+01 1.60383E+00 2.70322E-03-5.63041E-01 2.93081E-13-3.19283E-13
 -1      3394 1.74831E+01 1.66925E+00-1.05737E-02-4.01800E-02 2.37585E-13 6.30753E-14
 -1      3395 1.70505E+01 1.54214E+00 1.75334E-02 2.72568E-01 2.81631E-13 2.11594E-13
 -1      3396 1.73361E+01 1.30824E+00 1.43404E-02-9.96494E-01 3.34162E-13-4.35973E-13
 -1      3397 2.04219E+01-2.77462E+00-1.65591E-03 4.14463E+00 6.87991E-15-3.01842E-16
 -1      3398 1.79773E+01 1.48596E+00-1.80928E-02 1.58352E+00 1.51754E-13 5.90102E-13
 -1      3399 1.83753E+01 1.35547E+00 1.19837E-02 1.93694E+00-7.55038E-16 6.02257E-13
 -1      3400 1.82549E+01 1.09352E+00 3.55770E-03 2.21283E+00-4.90773E-14 5.13062E-13
 -1      3401 1.74279E+01 1.41139E+00 7.87391E-03 1.43505E+00 4.43757E-14 4.04442E-13
 -1      3402 1.25371E+01-1.32493E+00 1.19673E-01 4.57392E+00 3.66332E-13-3.22478E-13
 -1      3403 2.01342E+01 1.85904E+00-6.69006E-03-4.10926E-01-1.49775E-13-5.67851E-13
 -1      3404 2.02736E+01 1.41698E+00 6.53664E-03-2.83378E-01-1.39084E-13-5.23931E-13
 -1      3405 2.01153E+01 1.93860E+00-2.31566E-03-3.02688E-01-1.08440E-13-5.75855E-13
 -1      3406 2.00547E+01 1.01552E-01 2.50215E-03-1.14714E-01 1.69909E-13-2.86694E-13
 -1      3407 2.01437E+01 1.61085E-01-1.39731E-03-7.57758E-02 1.74596E-13-2.73397E-13
 -1      3408 2.00350E+01 6.03914E-02-4.80341E-04-1.43129E-01 1.27252E-13-2.73898E-13
 -1      3409 2.56642E+01 3.07442E+00-8.63246E-02-1.99277E+00-3.44870E-13 9.39734E-14
 -1      3410 2.61224E+01-2.36324E+00-2.64086E-02 4.31454E-01-1.72833E-13-6.19664E-13
 -1      3411 8.98672E+00 6.74009E-02 1.87917E-01 1.69900E+00 1.10540E-13-3.09655E-13
 -1      3412 9.38478E+00 2.62713E-01 1.20639E-01 5.85563E-01 1.69031E-14-3.52329E-13
 -1      3413 1.00059E+01-1.94383E-01 3.93208E-02 2.61901E+00 2.02166E-13-1.86420E-13
 -1      3414 2.02521E+01 1.46183E+00 6.36265E-03 5.87371E-01 3.36224E-13-4.37090E-13
 -1      3415 2.01598E+01 1.80051E+00-6.99179E-03 6.86479E-01 3.54297E-13-5.06744E-13
 -1      3416 2.01249E+01 1.93015E+00-2.48746E-03 5.90773E-01 2.95657E-13-5.06488E-13
 -1      3417 2.61155E+01-3.95762E+00-8.17727E-02 8.92234E-01 2.01030E-13-3.07561E-13
 -1      3418 2.54748E+01-4.13003E+00 1.04076E-01 1.84568E+00 4.00601E-13-5.26156E-13
 -1      3419 2.74478E+01-3.53765E+00 3.58254E-03-2.25413E-01-3.99854E-15-5.10217E-14
 -1      3420 2.00922E+01 2.02397E+00-5.43335E-03 5.05442E-01 2.60526E-13-5.03762E-13
 -1      3421 2.00672E+01 2.10425E+00-3.05870E-03 3.91914E-01 1.89130E-13-5.47770E-13
 -1      3422 2.01632E+01 1.84662E+00 5.24830E-03 2.91824E-01 1.50457E-13-5.20140E-13
 -1      3423 2.02036E+01 1.69507E+00 5.79051E-03 4.60555E-01 2.46005E-13-4.60896E-13
 -1      3424 2.58563E+01 1.03148E+00-3.12462E-02 1.91780E+00-3.08503E-14-4.22468E-13
 -1      3425 2.55329E+01-3.28185E+00-1.58545E-02 4.37253E-01 3.06711E-13 1.67259E-13
 -1      3426 2.59717E+01 5.23972E+00-1.17433E-01 5.27139E-01-2.38101E-13-1.87528E-14
 -1      3427 2.62728E+01 5.65675E+00-1.37226E-01-3.95201E-01-3.14998E-13-9.31755E-14
 -1      3428 2.08605E+01-3.49016E-01 8.83072E-03-1.64665E+00-1.31911E-14-1.22928E-13
 -1      3429 2.06879E+01-2.31873E-01-1.19104E-03-1.77251E+00 1.57397E-13 1.00624E-13
 -1      3430 2.07293E+01-5.31708E-01-7.15015E-03-1.95684E+00 5.26548E-14 2.87461E-14
 -1      3431 2.10534E+01-6.62965E-01-2.02659E-03-1.67061E+00 6.89524E-14-4.04167E-14
 -1      3432 2.52104E+01 4.68245E+00-9.50708E-02-7.35770E-01-2.80817E-13-1.54723E-13
 -1      3433 2.10905E+01-3.74941E+00 8.89217E-02-4.38374E+00 1.98031E-13 5.22325E-14
 -1      3434 2.23280E+01-4.13171E+00-2.16417E-02-3.75829E+00 8.65800E-14-6.78901E-14
 -1      3435 1.91043E+01-3.42996E+00 9.69950E-02-4.60636E+00-2.13871E-13-2.96985E-14
 -1      3436 2.09238E+01-3.60370E+00 5.77036E-02-3.81409E+00-2.31398E-13-1.91999E-14
 -1      3437 2.01844E+01-2.56274E+00 1.04428E-01-3.78587E+00-2.38653E-13-1.18560E-14
 -1      3438 1.78272E+01-2.36790E+00 4.81293E-02-4.32775E+00-2.74232E-13-1.17267E-13
 -1      3439 2.45659E+01 4.38781E+00-6.86407E-02-5.66681E-01-2.95236E-13-5.41407E-14
 -1      3440 2.46110E+01 3.99611E+00-6.21942E-02-1.30500E+00-3.92658E-13-1.45705E-13
 -1      3441 2.02685E+01 2.37558E-01 2.00294E-03 3.88216E-02-1.60291E-13-2.95055E-13
 -1      3442 2.02442E+01 1.62955E-01-1.27571E-03 7.98844E-02-1.43709E-13-2.74103E-13
 -1      3443 2.02294E+01 1.04780E-01 1.59276E-03 1.06277E-01-1.24574E-13-2.38704E-13
 -1      3444 2.02081E+01 5.69298E-02-6.30275E-04 1.28561E-01-6.89625E-14-2.00868E-13
 -1      3445 2.02860E+01 1.61040E-01-4.68454E-04 7.64756E-02-1.03700E-13-2.03282E-13
 -1      3446 2.01906E+01 2.08415E-02 1.09903E-03 1.41427E-01-6.41525E-14-2.14709E-13
 -1      3447 2.01730E+01-7.72464E-03-1.82211E-04 1.51042E-01-9.27239E-14-1.99926E-13
 -1      3448 2.02484E+01 5.23839E-02-5.93586E-04 1.18797E-01-8.38844E-14-1.91383E-13
 -1      3449 2.01551E+01-2.80995E-02 6.88290E-04 1.54974E-01-1.11441E-13-2.12601E-13
 -1      3450 2.01412E+01-4.29090E-02 1.14761E-04 1.56670E-01-1.18009E-13-1.87793E-13
 -1      3451 2.02099E+01-1.33672E-02-6.20819E-04 1.38329E-01-1.06170E-13-2.80983E-13
 -1      3452 2.01242E+01-5.20997E-02 3.64132E-04 1.55309E-01-1.08385E-13-1.71574E-13
 -1      3453 2.01136E+01-5.70912E-02 3.05857E-04 1.52692E-01-7.07686E-14-1.68201E-13
 -1      3454 2.01735E+01-4.82579E-02-5.86529E-04 1.43222E-01-9.39037E-14-1.87009E-13
 -1      3455 2.00979E+01-5.82883E-02 1.14324E-04 1.48828E-01-5.91201E-14-1.38189E-13
 -1      3456 2.00900E+01-5.62195E-02 4.26094E-04 1.44588E-01-5.33345E-14-1.35956E-13
 -1      3457 2.01405E+01-6.09837E-02-5.16195E-04 1.39915E-01-6.18734E-14-1.54544E-13
 -1      3458 2.00758E+01-5.16178E-02-8.02621E-05 1.40321E-01-3.83682E-14-1.41774E-13
 -1      3459 2.00700E+01-4.43532E-02 5.02711E-04 1.36460E-01-9.23444E-15-1.52364E-13
 -1      3460 2.01112E+01-5.77012E-02-4.26960E-04 1.33329E-01-4.21015E-14-1.95107E-13
 -1      3461 2.00571E+01-3.53990E-02-2.38921E-04 1.33377E-01-4.24693E-14-1.50253E-13
 -1      3462 2.00530E+01-2.41297E-02 5.56179E-04 1.31418E-01-6.49646E-14-1.78133E-13
 -1      3463 2.00853E+01-4.26044E-02-3.26172E-04 1.27183E-01-2.45042E-14-2.41972E-13
 -1      3464 2.00409E+01-1.17154E-02-3.78225E-04 1.30761E-01-9.56443E-14-1.62077E-13
 -1      3465 2.00380E+01 2.85531E-03 6.01084E-04 1.31906E-01-1.19427E-13-1.79180E-13
 -1      3466 2.00620E+01-1.84066E-02-2.19447E-04 1.24337E-01-5.84438E-14-1.61782E-13
 -1      3467 2.00261E+01 1.82230E-02-5.11272E-04 1.34705E-01-1.18947E-13-1.79007E-13
 -1      3468 2.00240E+01 3.57174E-02 6.48072E-04 1.39964E-01-1.18230E-13-1.11541E-13
 -1      3469 2.00401E+01 1.32686E-02-1.07517E-04 1.27085E-01-1.08347E-13-1.33322E-13
 -1      3470 2.00117E+01 5.37672E-02-6.47786E-04 1.47131E-01-1.04887E-13-8.85503E-14
 -1      3471 2.00100E+01 7.39787E-02 7.04721E-04 1.57401E-01-8.49733E-14-7.56696E-14
 -1      3472 2.00183E+01 5.15216E-02 9.04945E-06 1.37381E-01-7.36553E-14-1.50878E-13
 -1      3473 1.99964E+01 9.45212E-02-7.93249E-04 1.69809E-01-6.96670E-14-5.16732E-14
 -1      3474 1.99948E+01 1.17248E-01 7.76650E-04 1.85923E-01-5.95935E-14-4.50696E-14
 -1      3475 1.99951E+01 9.58400E-02 1.29051E-04 1.57013E-01-6.41659E-14-9.62169E-14
 -1      3476 1.99792E+01 1.40002E-01-9.48133E-04 2.04442E-01-1.67026E-14 8.74002E-15
 -1      3477 1.99776E+01 1.64855E-01 8.68482E-04 2.27177E-01 4.52612E-14-2.48041E-14
 -1      3478 1.99691E+01 1.45735E-01 2.49128E-04 1.87721E-01-2.01536E-14-5.72833E-14
 -1      3479 1.99593E+01 1.89240E-01-1.10668E-03 2.52692E-01 4.88334E-14 4.45845E-14
 -1      3480 1.99576E+01 2.15405E-01 9.85217E-04 2.82736E-01 5.12334E-14-1.22748E-14
 -1      3481 1.99387E+01 2.00324E-01 3.61205E-04 2.31262E-01 1.00449E-13-3.72023E-14
 -1      3482 1.99362E+01 2.40281E-01-1.25475E-03 3.16129E-01 5.85935E-14 3.18787E-14
 -1      3483 1.99348E+01 2.66225E-01 1.13408E-03 3.54009E-01 6.88332E-14-8.83550E-15
 -1      3484 1.99030E+01 2.57823E-01 4.49137E-04 2.89424E-01 5.18215E-14-7.13187E-14
 -1      3485 1.99104E+01 2.89572E-01-1.36671E-03 3.96124E-01 8.12537E-14 1.01424E-14
 -1      3486 1.99102E+01 3.12675E-01 1.32684E-03 4.42080E-01 1.29187E-13 7.73982E-14
 -1      3487 1.98613E+01 3.14919E-01 4.84020E-04 3.63999E-01 8.31795E-14 3.87211E-14
 -1      3488 1.98837E+01 3.31188E-01-1.40060E-03 4.93648E-01 1.57247E-13 1.14347E-13
 -1      3489 1.98865E+01 3.47299E-01 1.58234E-03 5.47462E-01 1.08838E-13 1.25679E-13
 -1      3490 1.98144E+01 3.65993E-01 4.17578E-04 4.56712E-01 1.52785E-13 1.32794E-13
 -1      3491 1.98602E+01 3.55927E-01-1.29066E-03 6.08986E-01-4.50421E-14 5.45364E-14
 -1      3492 1.98695E+01 3.58870E-01 1.92726E-03 6.69729E-01-8.00167E-14 3.17216E-14
 -1      3493 1.97652E+01 4.02191E-01 1.72890E-04 5.69107E-01-4.11282E-15 3.91847E-14
 -1      3494 1.98480E+01 3.50335E-01-9.35196E-04 7.41298E-01-1.23602E-13-4.22782E-14
 -1      3495 1.98695E+01 3.31418E-01 2.39078E-03 8.06962E-01-1.14924E-13-3.79018E-14
 -1      3496 1.97198E+01 4.10357E-01-3.68511E-04 7.02349E-01-1.06446E-13 2.30626E-14
 -1      3497 1.98609E+01 2.95832E-01-1.76171E-04 8.87888E-01-5.42388E-14-5.95568E-14
 -1      3498 1.99036E+01 2.43541E-01 2.98162E-03 9.54799E-01 4.12296E-14-1.34677E-14
 -1      3499 1.96896E+01 3.71957E-01-1.38415E-03 8.56840E-01-1.23830E-13 2.64499E-14
 -1      3500 1.99208E+01 1.68387E-01 1.23251E-03 1.04285E+00 4.39459E-14-2.24441E-13
 -1      3501 1.99980E+01 6.86109E-02 3.62982E-03 1.10463E+00-1.26128E-14-1.93788E-13
 -1      3502 1.96940E+01 2.62240E-01-3.13230E-03 1.03134E+00-7.25836E-14-7.97140E-14
 -1      3503 2.00617E+01-6.03226E-02 3.67006E-03 1.19434E+00-2.32270E-14-2.08346E-13
 -1      3504 2.01910E+01-2.22708E-01 4.04823E-03 1.24008E+00-2.99641E-14-2.32770E-13
 -1      3505 1.97638E+01 5.02685E-02-5.96540E-03 1.22084E+00-4.28382E-14-3.24059E-13
 -1      3506 2.03316E+01-4.18292E-01 7.59535E-03 1.31932E+00 4.32121E-14-9.13212E-14
 -1      3507 2.05340E+01-6.54793E-01 3.56533E-03 1.33052E+00 1.35726E-13 6.62369E-14
 -1      3508 1.99458E+01-2.98381E-01-1.02940E-02 1.41184E+00 1.17721E-13-1.80321E-13
 -1      3509 2.07929E+01-9.21127E-01 1.36580E-02 1.37389E+00 6.75545E-14 4.96089E-14
 -1      3510 2.10858E+01-1.22869E+00 1.00582E-03 1.32049E+00 1.52772E-13 3.75951E-14
 -1      3511 2.03069E+01-8.13422E-01-1.63566E-02 1.57253E+00 1.34100E-13-6.19648E-14
 -1      3512 2.15108E+01-1.54429E+00 2.17679E-02 1.27898E+00 1.43826E-13-5.21146E-14
 -1      3513 2.18956E+01-1.88083E+00-4.62647E-03 1.11806E+00 2.13072E-13-1.26061E-13
 -1      3514 2.09332E+01-1.49506E+00-2.28871E-02 1.63480E+00 5.54816E-14-1.54451E-13
 -1      3515 2.25152E+01-2.17022E+00 2.82914E-02 9.15785E-01 2.53140E-13-2.61904E-13
 -1      3516 2.29514E+01-2.41813E+00-1.57175E-02 6.04374E-01 1.09011E-13-2.46389E-13
 -1      3517 2.19028E+01-2.26054E+00-2.95404E-02 1.46895E+00 1.05875E-13-4.50420E-13
 -1      3518 2.37419E+01-2.50156E+00 2.90730E-02 1.40655E-01 1.64280E-13-1.15269E-13
 -1      3519 2.41014E+01-2.42608E+00-1.79999E-02-3.03660E-01 1.59754E-13-8.66468E-14
 -1      3520 2.32490E+01-2.87230E+00-3.86325E-02 9.01060E-01 2.59480E-13-3.13099E-13
 -1      3521 2.51356E+01-1.94793E+00-1.29455E-02-1.11036E+00-6.72260E-14 2.10948E-13
 -1      3522 2.53891E+01-1.04351E+00 1.11857E-03-1.65096E+00-9.01362E-14 9.94023E-14
 -1      3523 2.52089E+01 4.59327E-01-8.61097E-02-2.17957E+00-1.96017E-13 1.05785E-13
 -1      3524 2.52413E+01 1.83268E+00-1.76316E-02-2.31996E+00-3.19786E-13 9.28355E-14
 -1      3525 2.45206E+01 4.38284E+00-7.42376E-02 3.08516E-01-3.28917E-13 2.03631E-14
 -1      3526 2.47271E+01 3.34121E+00-4.14371E-02 1.27650E+00-6.51007E-14 1.17957E-14
 -1      3527 2.48643E+01 2.24114E+00-1.06945E-01 1.87583E+00 1.39652E-13-7.41369E-14
 -1      3528 2.43919E+01-2.50276E+00 2.56893E-03 3.63126E-02-2.86786E-13-2.62914E-13
 -1      3529 2.39805E+01-2.68150E+00 3.05036E-03-4.90076E-01-4.99037E-14-2.76826E-13
 -1      3530 2.32287E+01-2.53342E+00-1.48796E-02-9.70270E-01-2.86433E-14-2.66918E-13
 -1      3531 2.27967E+01-2.28212E+00 2.60293E-02-1.31473E+00 2.63053E-14-2.14283E-13
 -1      3532 2.36190E+01-2.95558E+00-1.41819E-02-1.25469E+00-2.51552E-14-2.71665E-13
 -1      3533 2.21815E+01-1.94686E+00-6.97153E-03-1.55004E+00 1.75422E-13-1.53496E-13
 -1      3534 2.17855E+01-1.55625E+00 1.65084E-02-1.71531E+00 2.30354E-13 6.70087E-14
 -1      3535 2.23010E+01-2.36225E+00-2.71511E-02-1.88732E+00 1.93926E-13-1.04971E-13
 -1      3536 2.01030E+01-3.81216E-02 1.24007E-04-1.67519E-01 1.12316E-13-1.58056E-13
 -1      3537 2.01140E+01-2.33362E-02 7.65070E-04-1.65781E-01 9.33468E-14-1.98994E-13
 -1      3538 2.00392E+01-2.66296E-02 5.81481E-04-1.37410E-01-5.84701E-14-1.24251E-13
 -1      3539 2.00396E+01-3.65450E-02-2.50545E-04-1.40268E-01-5.37654E-14-1.20908E-13
 -1      3540 2.00497E+01-4.41892E-02 5.21610E-04-1.44178E-01-3.28531E-14-6.87271E-14
 -1      3541 2.00519E+01-5.02557E-02-8.67599E-05-1.48905E-01 1.84669E-14-7.34116E-14
 -1      3542 2.00702E+01-4.38755E-02-3.37135E-04-1.37303E-01-7.42055E-15 5.29102E-15
 -1      3543 2.00239E+01 2.80968E-02 6.95194E-04-1.42919E-01-9.12510E-16-7.56372E-14
 -1      3544 2.00221E+01 1.16908E-02-5.27554E-04-1.38297E-01 1.54196E-14-9.79197E-14
 -1      3545 2.00169E+01 6.50517E-02 7.63232E-04-1.59483E-01 1.00793E-14-5.17414E-14
 -1      3546 2.00147E+01 4.52725E-02-6.76119E-04-1.49505E-01 1.49436E-14-4.87431E-14
 -1      3547 2.00217E+01 4.30405E-02-9.64965E-06-1.43116E-01-1.89331E-14-5.60059E-14
 -1      3548 2.00087E+01 1.09220E-01 8.41767E-04-1.87948E-01 1.12297E-13-8.16228E-14
 -1      3549 2.00063E+01 8.56329E-02-8.51391E-04-1.71552E-01 7.27743E-14-4.11901E-14
 -1      3550 2.00049E+01 8.69123E-02 1.32713E-04-1.61960E-01 5.09707E-14-4.88648E-14
 -1      3551 1.99973E+01 1.61701E-01 9.28302E-04-2.30385E-01 1.00809E-13-1.75030E-13
 -1      3552 1.99954E+01 1.33708E-01-1.06728E-03-2.06463E-01 1.24391E-13-1.20311E-13
 -1      3553 1.99846E+01 1.39214E-01 3.11677E-04-1.92437E-01 1.09431E-13-9.61444E-14
 -1      3554 1.99805E+01 2.23783E-01 1.01661E-03-2.88958E-01 6.70343E-14-1.20476E-13
 -1      3555 1.99798E+01 1.90713E-01-1.33720E-03-2.56338E-01 8.90001E-14-1.73460E-13
 -1      3556 1.99582E+01 2.01160E-01 5.45020E-04-2.36404E-01 9.68268E-14-1.48372E-13
 -1      3557 1.99550E+01 2.96697E-01 1.09750E-03-3.65896E-01 1.44537E-14-5.60386E-14
 -1      3558 1.99568E+01 2.57942E-01-1.67447E-03-3.23368E-01 2.79470E-14-1.36285E-13
 -1      3559 1.99222E+01 2.74100E-01 8.55096E-04-2.95715E-01 3.94255E-14-2.39640E-13
 -1      3560 1.99167E+01 3.81242E-01 1.16162E-03-4.63414E-01 4.50082E-14-6.04531E-14
 -1      3561 1.99224E+01 3.36470E-01-2.09254E-03-4.09783E-01 5.07034E-14-8.35369E-14
 -1      3562 1.98721E+01 3.59215E-01 1.26865E-03-3.72173E-01 5.05347E-14-1.19365E-13
 -1      3563 1.98600E+01 4.77145E-01 1.20643E-03-5.83600E-01-6.00663E-15 1.67066E-13
 -1      3564 1.98720E+01 4.26658E-01-2.60507E-03-5.17766E-01-3.24317E-15 2.99149E-14
 -1      3565 1.98022E+01 4.57064E-01 1.81521E-03-4.67455E-01-3.48253E-15-5.08259E-14
 -1      3566 1.97784E+01 5.82006E-01 1.25111E-03-7.28348E-01-7.87955E-15 1.48519E-13
 -1      3567 1.97991E+01 5.27330E-01-3.22641E-03-6.49379E-01 2.45701E-15 1.46882E-13
 -1      3568 1.97054E+01 5.66847E-01 2.52255E-03-5.83069E-01-3.72362E-14-2.10465E-15
 -1      3569 1.96644E+01 6.89535E-01 1.36511E-03-8.99472E-01 6.05682E-14 9.04009E-14
 -1      3570 1.96964E+01 6.34392E-01-3.97278E-03-8.06612E-01 8.90187E-14 1.56795E-13
 -1      3571 1.95729E+01 6.85227E-01 3.40671E-03-7.20483E-01 1.90698E-14-2.42750E-14
 -1      3572 1.95111E+01 7.86741E-01 1.71638E-03-1.09929E+00-2.17883E-14-7.99987E-15
 -1      3573 1.95558E+01 7.38588E-01-4.86475E-03-9.91767E-01 2.86487E-14 5.15579E-14
 -1      3574 1.93942E+01 8.04456E-01 4.45198E-03-8.81684E-01 9.33917E-14-4.08760E-14
 -1      3575 1.93150E+01 8.49592E-01 2.64460E-03-1.33210E+00-5.66943E-14 7.85767E-14
 -1      3576 1.93706E+01 8.21964E-01-5.92739E-03-1.20856E+00-7.47131E-14 9.05230E-14
 -1      3577 1.91587E+01 9.09481E-01 5.57190E-03-1.07062E+00-5.75260E-14 1.26237E-14
 -1      3578 1.90825E+01 8.36728E-01 4.76399E-03-1.60707E+00-2.07612E-13 1.38172E-13
 -1      3579 1.91389E+01 8.52597E-01-7.16656E-03-1.46447E+00-1.05434E-13 1.13780E-13
 -1      3580 1.88569E+01 9.73609E-01 6.53903E-03-1.29623E+00-1.04244E-13 3.94774E-14
 -1      3581 1.88412E+01 6.81221E-01 9.36803E-03-1.94249E+00-6.06402E-14-1.27123E-17
 -1      3582 1.88721E+01 7.77293E-01-8.40936E-03-1.77481E+00-1.21914E-13 6.01335E-14
 -1      3583 1.84853E+01 9.52278E-01 6.90180E-03-1.57788E+00-1.15387E-13 1.46688E-14
 -1      3584 1.86484E+01 2.74329E-01 1.38831E-02-2.37152E+00-1.35010E-13-7.67506E-14
 -1      3585 1.86099E+01 5.10532E-01-8.80967E-03-2.16826E+00-4.87502E-14-1.80536E-14
 -1      3586 1.80539E+01 7.74246E-01 5.98546E-03-1.95399E+00-4.03356E-14-4.84231E-14
 -1      3587 1.86246E+01-5.42216E-01 5.57939E-03-2.93238E+00-2.17420E-13-1.82217E-13
 -1      3588 1.84455E+01-6.61067E-02-4.03243E-03-2.66461E+00-2.07738E-13-1.70188E-13
 -1      3589 1.76455E+01 3.20351E-01 1.28592E-02-2.49781E+00-9.96048E-14-2.30726E-13
 -1      3590 2.03088E+01 1.12017E+00 1.12395E-03-2.91119E-01-1.53543E-13-5.06490E-13
 -1      3591 2.03062E+01 1.00785E+00-4.36714E-03-3.25037E-01-1.94192E-13-4.53384E-13
 -1      3592 2.03191E+01 8.22662E-01 7.70128E-04-2.41283E-01-1.82310E-13-4.10601E-13
 -1      3593 1.91587E+01-6.24808E-01 3.78567E-02 3.45068E+00 3.61777E-14 1.31295E-13
 -1      3594 1.94385E+01-1.35970E+00 8.99010E-03 3.69655E+00 5.83075E-14 1.32835E-13
 -1      3595 1.35086E+01-3.24494E-01 1.61440E-01-3.37450E+00-4.42707E-13-3.16545E-13
 -1      3596 1.55288E+01-1.29770E+00-1.36761E-02-4.07628E+00-3.78019E-13-9.10799E-14
 -1      3597 2.30403E+01-3.96073E+00-7.74535E-02 2.50217E+00 3.92773E-13 1.39645E-14
 -1      3598 2.16411E+01-3.69182E+00 1.03305E-01 3.64423E+00 5.47928E-13-1.23450E-13
 -1      3599 1.86429E+01-2.02308E+00 4.11124E-03 4.27541E+00 6.14708E-14 2.08937E-13
 -1      3600 1.02598E+01 4.00316E-01 1.16728E-01-1.03780E+00-1.24702E-13-5.64118E-13
 -1      3601 1.12830E+01-5.98226E-02-2.67206E-04-2.42654E+00-2.62836E-13-5.41095E-13
 -1      3602 1.40390E+01-1.08122E+00 7.64099E-02 4.32397E+00 2.84633E-14 4.58952E-13
 -1      3603 1.25809E+01-2.46989E-01 1.58737E-02 3.12080E+00 7.62515E-14 6.10109E-13
 -1      3604 2.02361E+01 3.20982E-01-2.04139E-03 1.66390E-02 2.00943E-13-2.65997E-13
 -1      3605 2.02656E+01 4.30397E-01 2.87767E-03 9.07551E-02 2.25093E-13-2.49292E-13
 -1      3606 1.31207E+01-3.42411E-01 3.70811E-02-3.18382E+00 1.01516E-14 8.01581E-14
 -1      3607 1.43511E+01-1.22240E+00 1.01456E-01-4.50263E+00 7.82707E-15-3.82958E-14
 -1      3608 2.00652E+01 2.10564E+00-2.08134E-03-1.31619E-01-2.89691E-14-6.03523E-13
 -1      3609 2.00727E+01 2.06233E+00-6.09583E-03-2.50564E-01-8.97500E-14-5.94524E-13
 -1      3610 2.02337E+01 1.60218E+00 5.73061E-03-1.77381E-01-6.80493E-14-5.27456E-13
 -1      3611 2.01710E+01 1.82811E+00 5.31335E-03-6.46705E-02-1.05611E-14-5.76253E-13
 -1      3612 2.47392E+01 3.06685E+00-7.54984E-02-1.85705E+00-3.42608E-13 3.06075E-14
 -1      3613 1.82129E+01 3.56158E-01 3.36651E-02-2.39968E+00 4.61722E-13-2.19740E-13
 -1      3614 1.75117E+01 5.91428E-01-2.66306E-02-2.06823E+00 4.38834E-13-2.95237E-13
 -1      3615 2.02996E+01 4.37767E-01 1.01508E-03-7.38893E-02-1.97913E-13-3.30304E-13
 -1      3616 2.02769E+01 3.27897E-01-1.87272E-03-6.23025E-03-1.79335E-13-3.21219E-13
 -1      3617 2.03176E+01 3.28317E-01-2.97249E-04 1.66817E-03-1.60859E-13-2.92217E-13
 -1      3618 2.00309E+01-2.38593E-03 6.36430E-04-1.36243E-01-1.72934E-14-1.23691E-13
 -1      3619 2.00301E+01-1.56123E-02-3.91348E-04-1.35923E-01-5.09660E-14-1.48714E-13
 -1      3620 2.00528E+01-2.23692E-02-2.36666E-04-1.32812E-01-3.05658E-14-1.69955E-13
 -1      3621 2.00371E+01 6.72882E-03-1.29126E-04-1.34044E-01-7.75872E-15-1.43288E-13
 -1      3622 2.51721E+01-3.51292E+00 1.00355E-02-8.50670E-01-9.48078E-14-4.33237E-13
 -1      3623 2.53611E+01-2.23263E+00-1.63612E-02 4.63811E-01-1.89002E-13-4.59608E-13
 -1      3624 2.53172E+01 4.47912E+00-9.01950E-02 9.58370E-01-2.10582E-13 8.56953E-15
 -1      3625 2.50534E+01-2.68273E+00-4.90468E-02-2.88025E-01 1.48935E-13-1.81248E-14
 -1      3626 2.44347E+01-3.50858E+00 7.14991E-02 1.17077E+00 3.23149E-13-2.68448E-14
 -1      3627 2.35294E+01-4.08271E+00 5.99477E-02-2.96657E+00-3.17346E-14-2.21267E-13
 -1      3628 2.45944E+01-3.82378E+00-2.56943E-02-1.65443E+00-7.88562E-14-3.58054E-13
 -1      3629 2.39385E+01-3.46675E+00-2.66943E-02-1.59483E+00-3.34502E-14-4.06791E-13
 -1      3630 2.26121E+01-3.70524E+00-1.71420E-02-3.08120E+00 9.01844E-14-1.21121E-13
 -1      3631 1.39344E+01-1.19825E+00 2.12192E-02 4.32807E+00 2.82739E-13-2.48565E-13
 -1      3632 1.22491E+01-3.37970E-01 1.61240E-01 3.63263E+00 1.85900E-13-2.86632E-13
 -1      3633 2.02065E+01 1.63914E+00-2.89620E-03 1.31100E-01 9.06508E-14-5.29246E-13
 -1      3634 2.02003E+01 1.65392E+00-4.04632E-03 4.03148E-02 3.41551E-14-5.51591E-13
 -1      3635 2.02621E+01 5.34890E-01-2.28824E-03 1.59631E-01 2.56570E-13-2.76256E-13
 -1      3636 2.02812E+01 6.51602E-01-2.73108E-04 2.55483E-01 2.97502E-13-3.04031E-13
 -1      3637 2.03022E+01 5.47771E-01-1.11311E-04 1.32910E-01 2.22425E-13-2.94824E-13
 -1      3638 2.02137E+01 1.60590E+00-2.04971E-03 2.01851E-01 1.13623E-13-5.01146E-13
 -1      3639 2.02873E+01 1.38622E+00 4.92633E-03 1.34675E-01 1.07261E-13-4.73714E-13
 -1      3640 2.02241E+01 1.54650E+00-4.32480E-03 2.85602E-01 1.73301E-13-4.76913E-13
 -1      3641 1.68089E+01 5.44218E-01 8.42073E-03-2.08176E+00 4.65219E-13-3.37343E-13
 -1      3642 1.69256E+01 1.02164E+00 2.02453E-02-1.51823E+00 4.66206E-13-3.56663E-13
 -1      3643 1.64890E+01 1.20002E+00-1.65159E-02-9.28444E-01 3.62257E-13-3.91170E-13
 -1      3644 2.32333E+01-3.32611E+00-1.83176E-03 1.63759E+00 2.64100E-13-8.60956E-14
 -1      3645 2.52942E+01 7.38592E-01-2.29197E-02 1.82232E+00 7.56235E-14-3.25684E-13
 -1      3646 2.52966E+01-5.05933E-01-2.50531E-02 1.68717E+00-3.88231E-14-3.29925E-13
 -1      3647 2.51107E+01-1.49273E+00-3.17216E-02 1.13084E+00-2.79722E-13-3.72837E-13
 -1      3648 2.01750E+01-8.46212E-03-7.17530E-04-1.50485E-01 7.38503E-14-1.97833E-13
 -1      3649 2.01302E+01-3.38069E-03-1.74282E-04-1.60974E-01 1.02993E-13-2.38837E-13
 -1      3650 2.01459E+01 2.44945E-02 1.25508E-03-1.50507E-01 9.75772E-14-2.16020E-13
 -1      3651 2.00881E+01-4.75268E-02 3.96263E-04-1.66212E-01 1.25159E-13-1.12869E-13
 -1      3652 2.01425E+01-4.37612E-02-6.29032E-04-1.56417E-01 7.76313E-14-1.32475E-13
 -1      3653 2.00808E+01-5.30227E-02 3.18264E-04-1.63153E-01 8.12879E-14-1.18950E-13
 -1      3654 2.15190E+01-1.26747E+00 1.49293E-03-1.68849E+00 2.09687E-13 6.25709E-14
 -1      3655 2.12463E+01-9.32359E-01 8.49245E-03-1.72667E+00 2.13449E-13 1.16116E-13
 -1      3656 2.10931E+01-8.96493E-01 2.93361E-03-1.89268E+00 1.24093E-13 6.79977E-14
 -1      3657 2.15085E+01-1.54928E+00-6.04091E-03-2.00076E+00 3.07895E-13 1.42868E-13
 -1      3658 2.02525E+01-3.13898E+00 3.30963E-02 3.80025E+00 4.28227E-13-1.16539E-13
 -1      3659 2.00904E+01-5.64986E-02-4.32102E-04-1.45001E-01 5.56777E-14-2.43333E-15
 -1      3660 2.00633E+01-5.37824E-02 4.41239E-04-1.53885E-01 6.50615E-14-7.00245E-14
 -1      3661 2.00677E+01-5.49360E-02 1.21606E-04-1.58852E-01 9.58447E-14-7.84168E-14
 -1      3662 1.75897E+01-8.16264E-01 2.87034E-02-3.33970E+00-2.95767E-13-1.75646E-13
 -1      3663 1.63987E+01-1.78188E-01 5.46737E-02-3.11987E+00-2.84072E-13-2.57283E-13
 -1      3664 2.03027E+01 1.18165E+00-3.83983E-03-2.53420E-01-1.33243E-13-4.86537E-13
 -1      3665 2.03405E+01 9.84112E-01 1.75013E-03-1.98345E-01-1.32968E-13-4.69736E-13
 -1      3666 2.02996E+01 1.25621E+00-9.40340E-05-1.99738E-01-9.08994E-14-4.87486E-13
 -1      3667 1.79328E+01-1.59544E+00 3.78704E-02-3.67362E+00-3.08698E-13-1.81261E-13
 -1      3668 2.01044E+01 6.21149E-02-1.20485E-03-1.39741E-01 1.05517E-13-2.59503E-13
 -1      3669 1.60171E+01-1.27480E+00 1.01482E-01 4.22511E+00 1.73975E-13 5.01776E-13
 -1      3670 1.25906E+01 4.17822E-01 1.29664E-01 2.07248E+00 1.32613E-13 5.91596E-13
 -1      3671 1.27231E+01 6.70959E-01 2.18026E-02 7.92867E-01 4.46006E-14 8.33153E-13
 -1      3672 1.37809E+01 1.30035E-01-1.23515E-02 2.74158E+00 1.51498E-13 5.75956E-13
 -1      3673 1.86493E+01 2.28298E-01 8.08703E-03 2.99165E+00 5.36474E-14 2.28611E-14
 -1      3674 1.89433E+01-1.93041E-01 1.56531E-02 3.18316E+00 4.83086E-14 6.30767E-14
 -1      3675 1.78297E+01-2.78460E-01-2.91699E-02 3.44905E+00 1.04288E-13 1.07449E-13
 -1      3676 1.32174E+01 1.35096E-01 6.16078E-02-2.53095E+00-2.88526E-13-3.02938E-13
 -1      3677 1.55884E+01-1.47541E+00 8.20877E-02 4.43309E+00 3.27412E-13-2.29254E-13
 -1      3678 1.49844E+01-6.93896E-01 2.23922E-02 3.65947E+00 1.66579E-13-1.56493E-13
 -1      3679 1.69979E+01-1.83401E+00-2.01628E-02 4.16773E+00 3.53557E-13-1.51677E-13
 -1      3680 1.04039E+01 5.57821E-01 1.00692E-01-1.80717E-01-1.56160E-14-3.73319E-13
 -1      3681 1.15795E+01 6.75522E-01 2.40976E-02-5.93508E-01-4.21625E-15-3.69586E-13
 -1      3682 1.08208E+01 5.65930E-01 3.06285E-02 9.51008E-01 1.05535E-13-1.95191E-13
 -1      3683 1.66494E+01 1.25890E+00-1.83058E-02 1.38824E+00-6.52607E-14 4.17401E-13
 -1      3684 1.70957E+01 1.17453E+00 1.87015E-02 1.84663E+00-1.37245E-13 6.60979E-13
 -1      3685 1.18711E+01 1.99259E-02 8.81065E-02 2.72480E+00 4.59771E-14-1.94157E-13
 -1      3686 1.95880E+01-3.20776E-01 2.74047E-02-2.59910E+00 3.56616E-13 2.24104E-13
 -1      3687 1.89103E+01-1.00576E-01-2.08753E-02-2.56018E+00 4.00667E-13-2.82623E-14
 -1      3688 1.83777E+01-2.66458E-01-1.22975E-02-2.80131E+00 5.63249E-13-2.78680E-13
 -1      3689 1.63772E+01-1.64845E+00 6.42054E-02-4.41522E+00 1.55577E-13-1.99927E-13
 -1      3690 1.97808E+01-3.26066E+00-1.32077E-02-4.47507E+00 2.21191E-13 3.67970E-14
 -1      3691 2.02780E+01 1.14090E+00-5.18156E-03 4.94460E-01 3.33902E-13-3.90056E-13
 -1      3692 2.02675E+01 1.28629E+00 1.44539E-04 4.55442E-01 2.89110E-13-4.32077E-13
 -1      3693 2.02255E+01 2.34258E-01 2.53297E-03-3.54490E-02 1.86851E-13-2.56614E-13
 -1      3694 2.02832E+01 3.28400E-01-6.23830E-04 7.82673E-03 1.91237E-13-2.35270E-13
 -1      3695 2.01990E+01 1.61743E-01-1.27998E-03-8.06678E-02 1.46740E-13-2.39192E-13
 -1      3696 1.29555E+01 2.75117E-01 1.10712E-01-2.30660E+00 1.34042E-13 2.96638E-13
 -1      3697 1.45175E+01-9.87150E-02 2.79252E-02-2.93125E+00 2.40271E-13-1.40818E-13
 -1      3698 1.29902E+01 5.32704E-01 2.01486E-02-1.25707E+00 1.28491E-14 4.52426E-13
 -1      3699 2.03239E+01 6.82057E-01-9.94210E-04-1.91944E-01-1.88700E-13-3.65641E-13
 -1      3700 2.03048E+01 5.39165E-01-1.06084E-03-1.16085E-01-1.97785E-13-3.42831E-13
 -1      3701 2.03392E+01 5.39773E-01 6.99443E-04-9.20848E-02-1.84590E-13-3.34075E-13
 -1      3702 2.03427E+01 7.77633E-01 1.25650E-03-1.83085E-01-1.62069E-13-4.05765E-13
 -1      3703 2.09135E+01-8.11385E-01 4.71556E-03-2.02590E+00 1.37942E-13 1.28401E-13
 -1      3704 1.62908E+01 1.37508E+00-5.30158E-03-9.39757E-02 1.96388E-13 1.55552E-13
 -1      3705 1.63382E+01 1.41445E+00 3.55441E-03 5.84571E-01 5.68020E-14 4.42610E-13
 -1      3706 1.59512E+01 1.21151E+00 2.25933E-02 1.06577E+00-2.03864E-13 5.93637E-13
 -1      3707 1.57894E+01 1.14041E+00 1.33190E-02-6.57038E-01 3.16865E-13 6.44697E-14
 -1      3708 2.09664E+01-1.17034E+00-6.79855E-03-2.22031E+00 3.08380E-13-1.50257E-14
 -1      3709 2.06286E+01-7.32686E-01 1.14044E-02-2.27100E+00 2.08105E-13 9.18536E-15
 -1      3710 2.01802E+01-5.79729E-01-4.64733E-03-2.42059E+00 1.93861E-13 1.00191E-13
 -1      3711 2.12409E+01-1.48079E+00 1.37649E-02-2.26204E+00 3.83021E-13-8.64332E-14
 -1      3712 2.03010E+01 8.67708E-02 1.04642E-03 9.35996E-02-9.95658E-14-2.09968E-13
 -1      3713 2.02796E+01 3.98948E-02-4.92747E-04 1.09603E-01-1.17189E-13-2.42801E-13
 -1      3714 2.02601E+01 4.56212E-03 7.57266E-04 1.17130E-01-7.68472E-14-2.56228E-13
 -1      3715 2.02398E+01-2.26076E-02-1.13856E-04 1.23881E-01-7.17336E-14-2.35840E-13
 -1      3716 2.03040E+01 3.18361E-02-3.61161E-04 9.56721E-02-1.04519E-13-2.43276E-13
 -1      3717 2.02188E+01-4.15452E-02 4.93395E-04 1.25525E-01-6.13215E-14-1.72088E-13
 -1      3718 2.02005E+01-5.44082E-02 1.41313E-04 1.26596E-01-6.54311E-14-1.44788E-13
 -1      3719 2.02611E+01-2.90026E-02-4.76708E-04 1.07114E-01-4.33117E-14-2.18953E-13
 -1      3720 2.01797E+01-6.15064E-02 2.70015E-04 1.24949E-01-7.22590E-14-1.28312E-13
 -1      3721 2.01637E+01-6.40126E-02 3.02762E-04 1.23108E-01-4.06606E-14-1.38198E-13
 -1      3722 2.02183E+01-5.86145E-02-4.98410E-04 1.09221E-01-4.83351E-14-1.40078E-13
 -1      3723 2.01437E+01-6.25158E-02 8.08978E-05 1.20173E-01-3.64910E-14-1.47716E-13
 -1      3724 2.01299E+01-5.74474E-02 3.98226E-04 1.17530E-01-1.59415E-14-1.49307E-13
 -1      3725 2.01775E+01-6.55003E-02-4.56524E-04 1.06477E-01-4.97219E-14-1.06000E-13
 -1      3726 2.01110E+01-4.95960E-02-8.38900E-05 1.14834E-01-1.82596E-14-1.87232E-13
 -1      3727 2.00989E+01-3.88124E-02 4.51738E-04 1.12992E-01-4.02290E-14-1.66127E-13
 -1      3728 2.01394E+01-5.56977E-02-3.69868E-04 1.02362E-01-3.80492E-14-1.73408E-13
 -1      3729 2.00808E+01-2.60435E-02-2.36697E-04 1.11724E-01-2.27572E-14-1.28753E-13
 -1      3730 2.00700E+01-1.07029E-02 4.80559E-04 1.11944E-01-2.75614E-15-1.09137E-13
 -1      3731 2.01037E+01-3.32930E-02-2.57446E-04 9.95498E-02 1.75642E-15-1.59005E-13
 -1      3732 2.00520E+01 6.11433E-03-3.86938E-04 1.13082E-01-7.40090E-14-8.74977E-14
 -1      3733 2.00418E+01 2.53516E-02 4.98444E-04 1.16400E-01-1.25459E-13-7.19228E-14
 -1      3734 2.00695E+01-8.34449E-04-1.21873E-04 1.00187E-01-1.94668E-14-1.43011E-13
 -1      3735 2.00232E+01 4.57462E-02-5.44531E-04 1.20795E-01-1.09155E-13-7.13883E-14
 -1      3736 2.00128E+01 6.85430E-02 5.15914E-04 1.28123E-01-8.08226E-14-1.13832E-13
 -1      3737 2.00351E+01 4.01935E-02 3.32448E-05 1.06077E-01-1.04531E-13-5.43886E-14
 -1      3738 1.99924E+01 9.22661E-02-7.16894E-04 1.36592E-01-2.95880E-14-1.26981E-13
 -1      3739 1.99811E+01 1.18427E-01 5.41847E-04 1.48791E-01-3.47397E-14-1.13010E-13
 -1      3740 1.99987E+01 8.90166E-02 2.04661E-04 1.18858E-01-6.62379E-14-8.28985E-14
 -1      3741 1.99578E+01 1.45264E-01-9.08439E-04 1.62183E-01-1.47145E-14-8.08301E-14
 -1      3742 1.99449E+01 1.74535E-01 5.84794E-04 1.80107E-01 5.12757E-14-7.68740E-16
 -1      3743 1.99580E+01 1.45185E-01 3.89796E-04 1.40163E-01 7.49849E-15-7.57156E-14
 -1      3744 1.99174E+01 2.04096E-01-1.12046E-03 1.99356E-01 9.80780E-14 8.80717E-15
 -1      3745 1.99023E+01 2.35932E-01 6.55021E-04 2.23881E-01 1.07860E-13-1.63723E-14
 -1      3746 1.99107E+01 2.08151E-01 5.83600E-04 1.71741E-01 6.85619E-14 1.30151E-14
 -1      3747 1.98694E+01 2.67396E-01-1.35005E-03 2.50051E-01 6.39306E-14-6.34601E-14
 -1      3748 1.98516E+01 3.00682E-01 7.67084E-04 2.82076E-01 5.88394E-14-1.04126E-14
 -1      3749 1.98543E+01 2.76786E-01 7.75826E-04 2.15560E-01 6.40334E-14-1.62696E-14
 -1      3750 1.98124E+01 3.32489E-01-1.58858E-03 3.16400E-01 8.83267E-14 1.63085E-14
 -1      3751 1.97921E+01 3.65194E-01 9.43263E-04 3.56844E-01 1.25440E-13 3.75031E-14
 -1      3752 1.97867E+01 3.48803E-01 9.47565E-04 2.73917E-01 9.60754E-14-3.50435E-14
 -1      3753 1.97461E+01 3.94659E-01-1.81940E-03 4.00780E-01 1.16770E-13 3.29103E-14
 -1      3754 1.97241E+01 4.23416E-01 1.21805E-03 4.50557E-01 8.50654E-14-5.12783E-15
 -1      3755 1.97064E+01 4.20054E-01 1.06651E-03 3.49558E-01 9.84339E-14-7.54598E-14
 -1      3756 1.96718E+01 4.46271E-01-2.01374E-03 5.05847E-01 1.18450E-14-4.59855E-14
 -1      3757 1.96504E+01 4.65878E-01 1.64343E-03 5.65833E-01-3.71334E-14-1.00443E-13
 -1      3758 1.96133E+01 4.83678E-01 1.08011E-03 4.45847E-01-1.46840E-15-1.86611E-13
 -1      3759 1.95936E+01 4.75744E-01-2.12248E-03 6.34583E-01-5.46434E-14-5.50920E-14
 -1      3760 1.95774E+01 4.78602E-01 2.29328E-03 7.05552E-01-7.94435E-14-3.73703E-14
 -1      3761 1.95093E+01 5.29086E-01 9.05022E-04 5.66978E-01-2.50318E-14-2.25520E-13
 -1      3762 1.95203E+01 4.66418E-01-2.05894E-03 7.90284E-01-7.68122E-14-9.23491E-15
 -1      3763 1.95169E+01 4.41948E-01 3.26253E-03 8.72728E-01-4.70208E-14 8.15117E-14
 -1      3764 1.94002E+01 5.40790E-01 4.09237E-04 7.18246E-01-5.68865E-14-1.17716E-13
 -1      3765 1.94677E+01 3.95450E-01-1.66135E-03 9.76323E-01-1.55470E-13 6.73784E-14
 -1      3766 1.94899E+01 3.29560E-01 4.65004E-03 1.06996E+00-1.72504E-13-4.14599E-14
 -1      3767 1.92972E+01 4.97089E-01-6.19497E-04 9.06246E-01-7.83384E-14-4.94539E-14
 -1      3768 1.94627E+01 2.32974E-01-6.08514E-04 1.19517E+00-9.68052E-14-1.05984E-13
 -1      3769 1.95298E+01 1.07756E-01 6.48274E-03 1.29767E+00-8.53762E-15-1.58390E-13
 -1      3770 1.92208E+01 3.68627E-01-2.52749E-03 1.13870E+00-1.84155E-13 2.07135E-14
 -1      3771 1.95489E+01-5.77793E-02 1.76754E-03 1.44512E+00 7.12822E-14-2.28824E-13
 -1      3772 1.96888E+01-2.63100E-01 8.55554E-03 1.54909E+00 1.60293E-13-1.69528E-13
 -1      3773 1.92057E+01 1.16637E-01-5.90636E-03 1.42275E+00 1.54693E-14-6.80048E-14
 -1      3774 1.97941E+01-5.17161E-01 6.39112E-03 1.71301E+00 1.60936E-13-2.46422E-13
 -1      3775 2.00437E+01-8.22404E-01 1.01810E-02 1.79975E+00 1.19407E-13-1.61380E-13
 -1      3776 1.93096E+01-3.05600E-01-1.14330E-02 1.75941E+00 1.24927E-13-2.33096E-13
 -1      3777 2.03007E+01-1.18007E+00 1.53371E-02 1.95634E+00 3.28286E-14-1.34806E-13
 -1      3778 2.07020E+01-1.58884E+00 1.09493E-02 1.98121E+00-1.76074E-15-1.82275E-13
 -1      3779 1.96278E+01-9.51330E-01-1.93415E-02 2.13179E+00 1.05564E-13-2.94448E-13
 -1      3780 2.12047E+01-2.03987E+00 3.01781E-02 2.07564E+00 2.12661E-14-1.50555E-13
 -1      3781 2.18022E+01-2.50041E+00 1.21757E-02 1.94991E+00 1.48805E-13-2.40334E-13
 -1      3782 2.03024E+01-1.83811E+00-2.33199E-02 2.46782E+00 2.64485E-14-1.53776E-13
 -1      3783 2.24883E+01-2.95262E+00 5.02808E-02 1.98492E+00 2.85037E-13-1.24124E-13
 -1      3784 2.07997E+01-2.89023E+00-2.19706E-02 3.11356E+00 3.10870E-13-8.72913E-14
 -1      3785 1.90546E+01-2.34651E+00 7.68361E-02 3.94127E+00 3.17480E-13-1.09454E-13
 -1      3786 2.21941E+01-2.68624E+00-1.34748E-02-2.35436E+00 1.96871E-13-1.40111E-13
 -1      3787 2.16366E+01-2.14079E+00 1.64054E-02-2.47634E+00 3.27809E-13-4.69516E-14
 -1      3788 1.99618E+01 1.68358E-01 5.40065E-04-1.86618E-01 1.19690E-13-1.81993E-13
 -1      3789 1.99722E+01 1.37034E-01-9.61788E-04-1.68679E-01 1.05484E-13-1.39183E-13
 -1      3790 2.00890E+01-4.13633E-02 4.86493E-04-1.24930E-01 1.68344E-14-2.74543E-14
 -1      3791 2.00981E+01-5.08035E-02-7.83528E-05-1.27563E-01 3.63973E-14 1.65776E-14
 -1      3792 2.01626E+01 5.93171E-02-6.27866E-04-1.35479E-01 7.12681E-14-2.14260E-13
 -1      3793 2.01836E+01 1.05660E-01 1.85695E-03-1.11072E-01 8.67540E-14-2.23968E-13
 -1      3794 2.02111E+01 5.67011E-02-7.28525E-04-1.27651E-01 8.29941E-14-1.82111E-13
 -1      3795 1.99935E+01 1.09153E-01 5.51105E-04-1.55983E-01 4.75438E-14-1.18617E-13
 -1      3796 2.00017E+01 8.26816E-02-7.46060E-04-1.44013E-01 3.30776E-14-1.39962E-13
 -1      3797 1.99719E+01 1.36321E-01 4.38430E-04-1.49153E-01 8.86744E-14-2.31696E-13
 -1      3798 2.00196E+01 5.92381E-02 5.49901E-04-1.36142E-01-1.19759E-14-1.17437E-13
 -1      3799 2.00267E+01 3.71004E-02-5.62281E-04-1.29275E-01-1.15500E-14-1.44155E-13
 -1      3800 2.00079E+01 7.92477E-02 2.05730E-04-1.29050E-01 3.93603E-14-1.94951E-13
 -1      3801 1.99210E+01 2.38076E-01 5.08259E-04-2.29561E-01 5.56062E-14-2.02297E-13
 -1      3802 1.99352E+01 2.01259E-01-1.22052E-03-2.04812E-01 9.13167E-14-1.62009E-13
 -1      3803 1.99279E+01 2.03747E-01 7.29017E-04-1.78961E-01 8.84388E-14-2.41087E-13
 -1      3804 1.98668E+01 3.19569E-01 4.42907E-04-2.86212E-01 4.79068E-14-2.02839E-13
 -1      3805 1.98868E+01 2.76635E-01-1.53338E-03-2.53860E-01 5.78642E-14-2.04414E-13
 -1      3806 1.98717E+01 2.82753E-01 1.09774E-03-2.19580E-01 6.80884E-14-1.73029E-13
 -1      3807 1.97935E+01 4.13808E-01 3.28776E-04-3.57781E-01 5.98104E-14-1.45546E-13
 -1      3808 1.98219E+01 3.64329E-01-1.91294E-03-3.17128E-01 7.67253E-14-1.68955E-13
 -1      3809 1.97980E+01 3.74504E-01 1.57053E-03-2.71877E-01 5.72897E-14-2.04311E-13
 -1      3810 1.96942E+01 5.20978E-01 1.52678E-04-4.45192E-01-8.48644E-14 5.67377E-15
 -1      3811 1.97343E+01 4.64989E-01-2.37579E-03-3.95681E-01-1.03874E-14-6.42059E-14
 -1      3812 1.97002E+01 4.79726E-01 2.17981E-03-3.36380E-01-2.03213E-14-7.31281E-14
 -1      3813 1.95601E+01 6.39744E-01-8.70007E-05-5.49066E-01-4.40015E-14-9.16848E-15
 -1      3814 1.96160E+01 5.78146E-01-2.94813E-03-4.90288E-01-6.97816E-14-1.45519E-14
 -1      3815 1.95702E+01 5.98176E-01 2.96564E-03-4.13193E-01-7.17473E-14-8.26867E-16
 -1      3816 1.93804E+01 7.66131E-01-3.62187E-04-6.69941E-01 8.98558E-14-6.23455E-14
 -1      3817 1.94569E+01 7.01288E-01-3.67704E-03-6.01507E-01 3.78812E-14-1.55838E-15
 -1      3818 1.93976E+01 7.27895E-01 3.97751E-03-5.02037E-01 6.42661E-15 6.27544E-14
 -1      3819 1.91426E+01 8.91853E-01-5.83433E-04-8.09054E-01 3.27922E-14-5.55140E-14
 -1      3820 1.92450E+01 8.28477E-01-4.65199E-03-7.30150E-01 9.15651E-14-7.40975E-14
 -1      3821 1.91695E+01 8.64166E-01 5.27822E-03-6.02644E-01 7.88541E-14-7.93062E-14
 -1      3822 1.88322E+01 1.00186E+00-5.50138E-04-9.70229E-01-7.24673E-14-5.15397E-14
 -1      3823 1.89654E+01 9.48295E-01-6.04171E-03-8.78570E-01-8.25446E-15-3.13537E-14
 -1      3824 1.88700E+01 9.98077E-01 6.95217E-03-7.15888E-01 1.02015E-14-3.51834E-14
 -1      3825 1.84345E+01 1.07078E+00 1.14238E-04-1.16367E+00-8.56626E-14-1.14090E-13
 -1      3826 1.86010E+01 1.04085E+00-8.14572E-03-1.05344E+00-1.04428E-13-6.12281E-14
 -1      3827 1.84788E+01 1.11456E+00 9.12277E-03-8.46303E-01-8.07634E-14-1.37116E-13
 -1      3828 1.79364E+01 1.05812E+00 2.25653E-03-1.41247E+00-1.08492E-13-1.77554E-13
 -1      3829 1.81331E+01 1.07349E+00-1.14366E-02-1.27086E+00-1.03687E-13-4.27395E-14
 -1      3830 1.79702E+01 1.18959E+00 1.20020E-02-1.00688E+00-1.30777E-13-1.56269E-13
 -1      3831 1.73239E+01 8.95097E-01 4.23769E-03-1.76589E+00-1.11930E-13-1.33379E-14
 -1      3832 1.75425E+01 9.93882E-01-1.66168E-02-1.56563E+00-1.38198E-13-2.70188E-14
 -1      3833 1.73099E+01 1.18733E+00 1.63489E-02-1.22771E+00-1.48400E-13-6.70679E-14
 -1      3834 1.65400E+01 4.39399E-01-1.79505E-02-2.33317E+00-1.76029E-14-1.47325E-13
 -1      3835 1.68013E+01 7.35182E-01-2.21246E-02-1.99422E+00 5.56820E-14 1.55251E-14
 -1      3836 1.64733E+01 1.04828E+00 2.98412E-02-1.57094E+00-4.89261E-14-1.79249E-14
 -1      3837 1.90510E+01 5.18410E-01-1.81596E-02 2.70534E+00-6.55457E-14 1.36820E-13
 -1      3838 1.36624E+01 6.87835E-02-2.94038E-04 2.85131E+00 1.55321E-13-1.03320E-13
 -1      3839 1.21045E+01 4.89818E-01 9.15877E-02 1.97748E+00 9.18154E-14-2.48260E-13
 -1      3840 1.27496E+01 7.04634E-01 2.51862E-02 1.34077E+00 2.25011E-14-1.89106E-13
 -1      3841 1.43002E+01 1.81306E-01-3.87197E-02-2.55979E+00-2.83953E-13-6.84522E-14
 -1      3842 1.57414E+01 3.52305E-01 3.35998E-03-2.41939E+00-1.28987E-13-1.30048E-13
 -1      3843 1.51216E+01 9.43651E-01 7.59585E-02-1.80868E+00-3.25376E-14 9.28597E-15
 -1      3844 1.30275E+01 7.73424E-01 1.21880E-01-1.65731E+00-1.22192E-13-3.34281E-13
 -1      3845 2.02724E+01 9.55977E-01 2.01777E-03 4.64294E-01 3.51153E-13-3.21882E-13
 -1      3846 2.02868E+01 8.22550E-01 2.28568E-03 3.36980E-01 3.18767E-13-3.40225E-13
 -1      3847 2.03057E+01 8.33374E-01 1.67051E-04 2.87619E-01 2.59435E-13-3.48673E-13
 -1      3848 1.64892E+01-1.06861E+00 5.85805E-04-3.89106E+00 1.78125E-13-3.10519E-13
 -1      3849 1.80282E+01-2.03021E+00 6.46624E-02-4.51818E+00 2.22392E-13-1.17552E-13
 -1      3850 2.32991E+01-3.14957E+00 3.67444E-02-1.98127E+00 5.44105E-14-2.56983E-13
 -1      3851 2.03581E+01 4.17082E-01 5.09022E-04-3.00869E-02-1.39966E-13-2.97233E-13
 -1      3852 2.03440E+01 3.08159E-01-1.39585E-03 1.80896E-02-1.00875E-13-2.68497E-13
 -1      3853 1.69917E+01 6.84016E-01 1.76121E-03 2.45915E+00-1.88487E-13 4.91352E-13
 -1      3854 1.76423E+01 8.15951E-01-1.10143E-02 2.42877E+00-1.63912E-13 5.07806E-13
 -1      3855 1.98217E+01-2.54625E+00 1.76906E-02-3.95919E+00 3.34335E-13-7.06067E-14
 -1      3856 2.03040E+01 1.33830E+00 4.64393E-03 1.79231E-02 4.00506E-14-5.16768E-13
 -1      3857 2.02267E+01 1.58379E+00 5.01655E-04-1.55695E-02 1.72417E-14-5.54365E-13
 -1      3858 2.02487E+01 1.47212E+00-4.60486E-03-7.65513E-02-1.12117E-14-5.26817E-13
 -1      3859 2.03368E+01 2.18343E-01 1.25169E-03 4.73456E-02-8.92377E-14-2.32705E-13
 -1      3860 2.03163E+01 1.44663E-01-1.01821E-03 7.70073E-02-7.40559E-14-2.32291E-13
 -1      3861 2.03717E+01 2.96032E-01 1.05833E-04 2.15251E-02-7.96372E-14-2.57113E-13
 -1      3862 2.02522E+01 1.38082E+00-5.29449E-03 4.13985E-01 2.46654E-13-4.28817E-13
 -1      3863 2.02393E+01 1.48223E+00-1.06423E-03 3.45834E-01 1.90802E-13-4.25301E-13
 -1      3864 2.02999E+01 1.28408E+00 5.09753E-03 2.51163E-01 1.75296E-13-4.18137E-13
 -1      3865 2.03090E+01 1.11433E+00 4.58140E-03 3.35657E-01 2.38859E-13-3.80464E-13
 -1      3866 1.82961E+01 6.10717E-01 1.25618E-02 2.73967E+00-9.22877E-14 3.11657E-13
 -1      3867 1.67255E+01 1.25489E-01 4.08378E-02-2.73973E+00 4.44711E-13-3.89517E-13
 -1      3868 1.58459E+01 4.66358E-01-9.87636E-03-2.15923E+00 4.36517E-13-2.16106E-13
 -1      3869 2.00654E+01-1.59385E-02 5.20890E-04-1.22395E-01-1.21498E-14-1.11198E-13
 -1      3870 2.00731E+01-2.99582E-02-2.43313E-04-1.22940E-01 2.60096E-14-3.21879E-14
 -1      3871 2.00981E+01-3.72193E-02-2.80666E-04-1.13411E-01 5.05871E-14 1.91852E-14
 -1      3872 2.23793E+01-3.10638E+00-7.39493E-03-2.67456E+00 1.47005E-13-6.42186E-14
 -1      3873 2.14090E+01-2.91498E+00-9.88787E-03 2.73328E+00 2.55857E-13-2.45186E-14
 -1      3874 2.02567E+01-2.23596E+00 1.43634E-02 2.92475E+00 1.96436E-13-9.32631E-14
 -1      3875 2.03289E+01 5.58631E-01-1.99026E-03 1.04891E-01 1.72912E-13-2.97231E-13
 -1      3876 2.03337E+01 6.92893E-01 3.18393E-03 1.75061E-01 2.00658E-13-3.09459E-13
 -1      3877 2.16342E+01-2.93154E+00 6.78473E-02-3.37970E+00 3.67672E-13 8.17055E-14
 -1      3878 2.10054E+01-1.73645E+00 1.61068E-02-2.74400E+00 3.52822E-13 2.74138E-14
 -1      3879 2.02124E+01-1.66733E-02-1.51972E-04-1.37737E-01 7.03805E-14-1.66770E-13
 -1      3880 2.02314E+01 1.11513E-02 9.09058E-04-1.29866E-01 7.19218E-14-1.72684E-13
 -1      3881 2.01143E+01-5.77840E-02-5.29573E-04-1.52754E-01 8.08736E-14-4.96907E-14
 -1      3882 2.01294E+01-5.70001E-02-4.13516E-04-1.17579E-01-6.02067E-15-6.82589E-14
 -1      3883 2.01149E+01-5.73725E-02 4.31581E-04-1.30905E-01-7.16637E-15-2.70311E-14
 -1      3884 2.01260E+01-6.12072E-02 1.06670E-04-1.34247E-01 2.23273E-14-8.53271E-14
 -1      3885 2.02487E+01 1.63307E-01-7.23226E-04-7.86870E-02 1.11714E-13-1.66633E-13
 -1      3886 2.01767E+01-4.99769E-02 1.39845E-04-1.41444E-01 5.28259E-14-1.35471E-13
 -1      3887 2.01929E+01-3.62797E-02 5.82932E-04-1.40227E-01 6.16157E-14-1.79758E-13
 -1      3888 2.02405E+01-2.29658E-02-5.73851E-04-1.22779E-01 5.82095E-14-1.86898E-13
 -1      3889 2.03616E+01 9.03869E-01 7.38747E-04-1.39612E-01-9.29848E-14-4.27427E-13
 -1      3890 2.03535E+01 8.34505E-01-1.84640E-03-1.67049E-01-1.27660E-13-4.41443E-13
 -1      3891 2.03622E+01 7.07197E-01 3.32902E-04-1.21669E-01-1.39713E-13-3.92512E-13
 -1      3892 1.67128E+01-1.57004E+00-3.78143E-02-3.90614E+00-3.29778E-13-2.11824E-13
 -1      3893 1.48359E+01-1.71976E-01 5.53324E-02 3.12572E+00 1.07242E-13-1.19731E-13
 -1      3894 1.47134E+01 2.06845E-01-1.11256E-02 2.54373E+00 1.58558E-13-1.84967E-13
 -1      3895 1.59797E+01-5.17378E-01 7.17108E-03 3.22645E+00 1.60703E-13-1.48779E-13
 -1      3896 1.81096E+01-1.65724E+00 2.83506E-02 3.61631E+00 2.24099E-13-1.76857E-13
 -1      3897 1.99044E+01-8.88569E-01-1.98579E-02-2.71101E+00 4.13845E-13 9.85141E-14
 -1      3898 1.28715E+01 8.42576E-01 2.66881E-02-8.71098E-01-4.68575E-14-2.21247E-13
 -1      3899 1.50989E+01 8.57059E-01 1.74244E-02 1.83636E+00-1.00636E-13 6.99290E-13
 -1      3900 1.58038E+01 5.11529E-01 3.69995E-02 2.56447E+00-3.17420E-14 4.52784E-13
 -1      3901 2.03251E+01 1.14387E+00-3.36492E-03 1.35808E-01 1.29236E-13-4.43196E-13
 -1      3902 2.03224E+01 1.17764E+00-2.73402E-03 7.73123E-02 9.08089E-14-4.55656E-13
 -1      3903 2.03429E+01 1.35294E-01-1.41975E-04 6.92661E-02-1.04575E-13-2.57346E-13
 -1      3904 2.02643E+01 1.43637E+00 5.65907E-04-1.22597E-01-3.26107E-14-4.90782E-13
 -1      3905 2.02855E+01 1.31074E+00-4.49164E-03-1.66897E-01-6.28736E-14-4.87032E-13
 -1      3906 2.03387E+01 1.11298E+00 2.65097E-03-1.37297E-01-7.35936E-14-4.56189E-13
 -1      3907 2.03285E+01 1.21866E+00 3.94549E-03-6.92508E-02-3.15658E-14-4.81144E-13
 -1      3908 2.03235E+01 8.44873E-01-2.66719E-03 2.45440E-01 2.23623E-13-3.44296E-13
 -1      3909 1.87937E+01-9.66576E-01 4.93239E-02-3.37064E+00 4.46334E-13-1.02654E-13
 -1      3910 1.76837E+01-5.91445E-01-7.28657E-03-3.23192E+00 5.03738E-13-3.86099E-13
 -1      3911 1.45428E+01 1.02625E+00-3.42257E-03 8.77228E-01 5.46915E-15 6.93468E-13
 -1      3912 2.03136E+01 3.16225E-01-1.65465E-03-9.44024E-03 1.37060E-13-1.98762E-13
 -1      3913 2.03324E+01 4.26581E-01 1.85695E-03 4.67568E-02 1.46056E-13-2.56652E-13
 -1      3914 2.03560E+01 5.53881E-01 1.61732E-04 8.23686E-02 1.35722E-13-2.78932E-13
 -1      3915 1.97728E+01-2.10334E+00-2.60078E-02-3.58000E+00 3.12503E-13-6.28473E-14
 -1      3916 2.03858E+01 9.26835E-01 2.94264E-03 4.66815E-02 9.22215E-14-4.13247E-13
 -1      3917 2.03378E+01 1.13072E+00-2.04988E-04 4.00360E-02 7.34871E-14-4.61615E-13
 -1      3918 2.03510E+01 1.05045E+00-4.07069E-03-4.41738E-03 2.79394E-14-4.75082E-13
 -1      3919 2.00428E+01 1.76842E-02 5.40157E-04-1.25510E-01-8.84861E-15-1.21650E-13
 -1      3920 2.00499E+01-4.10940E-04-3.98152E-04-1.22840E-01-2.22933E-14-1.31485E-13
 -1      3921 2.00686E+01-7.34543E-03-1.42057E-04-1.12717E-01-7.03477E-15-6.43576E-14
 -1      3922 2.03316E+01 9.42399E-01 2.19440E-04 2.22119E-01 1.70034E-13-3.45944E-13
 -1      3923 2.03662E+01 6.02023E-01-8.16152E-04-9.50016E-02-1.30939E-13-3.60009E-13
 -1      3924 2.03600E+01 4.99355E-01-3.96237E-04-5.35621E-02-1.52077E-13-3.37584E-13
 -1      3925 2.03849E+01 4.80691E-01 5.32840E-04-3.55849E-02-8.70443E-14-3.07330E-13
 -1      3926 2.03840E+01 6.63787E-01 8.88408E-04-8.48852E-02-9.14520E-14-3.69782E-13
 -1      3927 1.48964E+01 1.92744E-01 1.29650E-03-2.53122E+00 3.49443E-13-1.53492E-13
 -1      3928 1.54167E+01-3.15309E-01 4.46585E-02-3.31309E+00 2.59889E-13-1.77042E-13
 -1      3929 1.68808E+01-7.16477E-01 1.82250E-02-3.45543E+00 3.26100E-13-2.24917E-13
 -1      3930 2.00392E+01 3.15313E-02 1.58108E-05-1.17381E-01-2.74255E-14-1.05574E-13
 -1      3931 2.02261E+01-1.56571E+00-5.24753E-03-3.02060E+00 4.20736E-13 1.19080E-13
 -1      3932 2.02988E+01-1.57665E-02 4.66774E-04 8.52689E-02-3.99057E-14-2.37950E-13
 -1      3933 2.02764E+01-3.90203E-02-3.18216E-06 8.93315E-02-2.83925E-15-2.07336E-13
 -1      3934 2.02528E+01-5.44505E-02 3.26623E-04 8.92511E-02-2.58818E-14-1.89721E-13
 -1      3935 2.02313E+01-6.36933E-02 1.79660E-04 8.98025E-02-2.97932E-14-1.77050E-13
 -1      3936 2.02841E+01-4.50223E-02-4.04921E-04 6.94113E-02-1.82321E-15-1.77227E-13
 -1      3937 2.02077E+01-6.73468E-02 1.88691E-04 8.81648E-02-5.67445E-14-1.56526E-13
 -1      3938 2.01877E+01-6.63030E-02 2.91489E-04 8.71065E-02-5.82555E-14-1.46924E-13
 -1      3939 2.02365E+01-6.60379E-02-4.42305E-04 6.96784E-02-6.57358E-14-2.01814E-13
 -1      3940 2.01648E+01-6.13142E-02 5.45260E-05 8.51542E-02-1.76255E-14-1.54937E-13
 -1      3941 2.01464E+01-5.26453E-02 3.45365E-04 8.39400E-02-1.40511E-14-1.27909E-13
 -1      3942 2.01903E+01-6.50951E-02-4.12653E-04 6.77932E-02-7.60553E-15-1.34158E-13
 -1      3943 2.01241E+01-4.10721E-02-8.39165E-05 8.25659E-02-3.15231E-14-1.37907E-13
 -1      3944 2.01069E+01-2.64509E-02 3.59883E-04 8.23718E-02-2.08405E-15-1.62355E-13
 -1      3945 2.01460E+01-4.77400E-02-3.23881E-04 6.58674E-02-7.91787E-15-9.70421E-14
 -1      3946 2.00848E+01-9.63013E-03-2.28386E-04 8.23862E-02 1.78214E-15-2.08323E-13
 -1      3947 2.00681E+01 9.90388E-03 3.50944E-04 8.41506E-02-2.32506E-14-1.73654E-13
 -1      3948 2.01031E+01-1.75317E-02-1.85753E-04 6.54715E-02-4.06902E-14-1.86630E-13
 -1      3949 2.00454E+01 3.12158E-02-3.86557E-04 8.62133E-02-3.61228E-14-1.35333E-13
 -1      3950 2.00283E+01 5.51253E-02 3.31676E-04 9.07530E-02-7.49516E-14-1.07320E-13
 -1      3951 2.00602E+01 2.32415E-02-1.12988E-05 6.80481E-02 1.05274E-15-1.94707E-13
 -1      3952 2.00038E+01 8.05600E-02-5.66077E-04 9.55111E-02-8.70425E-14-8.48213E-14
 -1      3953 1.99853E+01 1.08606E-01 3.11772E-04 1.03604E-01-4.52908E-14-1.00125E-13
 -1      3954 2.00153E+01 7.34019E-02 1.90689E-04 7.48280E-02-5.69522E-14-1.39097E-13
 -1      3955 1.99575E+01 1.37979E-01-7.72660E-04 1.11759E-01 2.92202E-15 1.56260E-14
 -1      3956 1.99364E+01 1.70015E-01 3.00671E-04 1.24209E-01 6.82251E-14 7.41645E-14
 -1      3957 1.99657E+01 1.32434E-01 4.18962E-04 8.70996E-02 3.80159E-14-1.78192E-14
 -1      3958 1.99038E+01 2.03120E-01-1.01243E-03 1.36579E-01 7.77779E-14 6.64092E-14
 -1      3959 1.98789E+01 2.38877E-01 3.09686E-04 1.54272E-01 8.84839E-14 6.88973E-14
 -1      3960 1.99085E+01 2.00048E-01 6.72564E-04 1.06312E-01 5.98112E-14 7.41597E-14
 -1      3961 1.98396E+01 2.75250E-01-1.29098E-03 1.71865E-01 5.57043E-14 4.63643E-15
 -1      3962 1.98099E+01 3.14082E-01 3.54438E-04 1.95825E-01 7.38730E-14-5.99442E-14
 -1      3963 1.98403E+01 2.75741E-01 9.48618E-04 1.34214E-01 2.84418E-14 2.04600E-14
 -1      3964 1.97621E+01 3.52720E-01-1.61326E-03 2.19926E-01 5.07159E-14-1.02303E-13
 -1      3965 1.97267E+01 3.93302E-01 4.58156E-04 2.51383E-01 7.06012E-14-1.55089E-13
 -1      3966 1.97576E+01 3.58288E-01 1.24029E-03 1.73027E-01 5.83643E-14-1.00954E-13
 -1      3967 1.96688E+01 4.32330E-01-1.98353E-03 2.83669E-01 7.56307E-14-1.45742E-13
 -1      3968 1.96273E+01 4.72290E-01 6.56165E-04 3.24138E-01 1.10825E-14-2.34867E-13
 -1      3969 1.96570E+01 4.45144E-01 1.53431E-03 2.25659E-01 6.33603E-14-2.61313E-13
 -1      3970 1.95578E+01 5.08549E-01-2.40533E-03 3.66835E-01-5.08916E-14-1.90983E-13
 -1      3971 1.95109E+01 5.44043E-01 1.00210E-03 4.18234E-01-6.72517E-14-2.09984E-13
 -1      3972 1.95355E+01 5.31733E-01 1.80780E-03 2.96005E-01-1.54746E-14-2.27244E-13
 -1      3973 1.94289E+01 5.72615E-01-2.88036E-03 4.74337E-01 4.21929E-15-2.15939E-13
 -1      3974 1.93787E+01 5.97820E-01 1.57633E-03 5.39145E-01-3.12494E-14-1.86258E-13
 -1      3975 1.93911E+01 6.10610E-01 2.02344E-03 3.89359E-01-3.44339E-14-1.63177E-13
 -1      3976 1.92845E+01 6.11474E-01-3.40418E-03 6.12718E-01-9.70125E-14-1.23017E-13
 -1      3977 1.92354E+01 6.18011E-01 2.49628E-03 6.94169E-01-5.00115E-14-1.44250E-13
 -1      3978 1.92231E+01 6.70480E-01 2.12021E-03 5.13007E-01-1.23853E-14-1.96811E-13
 -1      3979 1.91309E+01 6.06566E-01-3.95308E-03 7.90743E-01-8.40746E-14-2.11005E-13
 -1      3980 1.90912E+01 5.82824E-01 3.92538E-03 8.92977E-01-9.26846E-14-1.07765E-13
 -1      3981 1.90338E+01 6.95049E-01 1.99216E-03 6.77034E-01-8.38466E-14-1.46829E-13
 -1      3982 1.89812E+01 5.32445E-01-4.44149E-03 1.01998E+00-1.07049E-13-1.13775E-13
 -1      3983 1.89653E+01 4.62792E-01 6.13262E-03 1.14793E+00-7.52364E-14 1.82378E-14
 -1      3984 1.88295E+01 6.61546E-01 1.44260E-03 8.95373E-01-7.88906E-14-1.31683E-13
 -1      3985 1.88598E+01 3.55163E-01-4.54866E-03 1.31533E+00-8.44210E-14 1.87060E-14
 -1      3986 1.88909E+01 2.18051E-01 9.19946E-03 1.47382E+00 3.36225E-16-5.37065E-14
 -1      3987 1.86239E+01 5.38880E-01 7.87598E-05 1.18697E+00-7.67175E-14-2.28954E-14
 -1      3988 1.88125E+01 2.92480E-02-3.02917E-03 1.69189E+00 9.10540E-14-1.80520E-13
 -1      3989 1.89272E+01-2.02807E-01 1.34720E-02 1.88192E+00 1.54749E-13-2.17253E-13
 -1      3990 1.84441E+01 2.79857E-01-3.48161E-03 1.57782E+00 1.85413E-14-1.57245E-13
 -1      3991 1.89140E+01-4.99989E-01 1.11327E-03 2.15851E+00 1.25502E-13-2.31851E-13
 -1      3992 1.91586E+01-8.64826E-01 1.62841E-02 2.37535E+00 2.44022E-14-2.79710E-13
 -1      3993 1.83434E+01-1.71242E-01-9.25617E-03 2.09001E+00 1.17376E-13-1.98067E-13
 -1      3994 1.93889E+01-1.24832E+00 1.25151E-02 2.59907E+00 2.70003E-14-3.10115E-13
 -1      3995 1.98169E+01-1.76662E+00 1.19157E-02 2.78835E+00 1.23330E-13-1.48952E-13
 -1      3996 1.91924E+01-1.77166E+00-3.02924E-02 3.11362E+00 1.85803E-13-2.38615E-13
 -1      3997 1.85111E+01-8.56972E-01-2.49340E-02 2.64360E+00 8.85687E-14-2.30522E-13
 -1      3998 2.01441E+01-6.15639E-02 3.27356E-04-1.37618E-01 5.89986E-14-1.05101E-13
 -1      3999 2.01576E+01-5.79723E-02 3.28411E-04-1.39869E-01 5.87153E-14-1.38317E-13
 -1      4000 2.02007E+01-5.48620E-02-5.63143E-04-1.25874E-01 5.58715E-14-2.29689E-13
 -1      4001 2.01635E+01-6.42092E-02-4.97283E-04-1.22738E-01 1.83854E-14-1.65290E-13
 -1      4002 2.02840E+01 1.52712E-01-1.15943E-03-8.07309E-02 8.71720E-14-1.78047E-13
 -1      4003 2.03056E+01 2.27233E-01 1.69636E-03-4.64223E-02 1.32822E-13-1.90468E-13
 -1      4004 2.03454E+01 3.11671E-01-6.16120E-05-1.45195E-02 1.18249E-13-2.07011E-13
 -1      4005 1.99515E+01 1.60481E-01 2.23104E-04-1.34434E-01 8.97854E-14-2.17629E-13
 -1      4006 1.99707E+01 1.27657E-01-7.58324E-04-1.22665E-01 9.77821E-14-1.86589E-13
 -1      4007 1.99966E+01 9.80621E-02 3.05173E-04-1.15419E-01 7.51252E-14-1.84107E-13
 -1      4008 2.00128E+01 7.03222E-02-5.61188E-04-1.07831E-01 5.36688E-14-1.36143E-13
 -1      4009 1.99785E+01 1.21445E-01 4.28561E-04-1.00247E-01 7.97261E-14-1.21549E-13
 -1      4010 1.97338E+01 4.17064E-01-3.02297E-04-2.42574E-01 3.57757E-14-1.24623E-13
 -1      4011 1.97759E+01 3.65962E-01-1.56056E-03-2.15769E-01 9.53879E-14-1.45642E-13
 -1      4012 1.96135E+01 5.28261E-01-6.36514E-04-2.96345E-01-1.28186E-13-1.46783E-14
 -1      4013 1.96698E+01 4.70607E-01-1.92553E-03-2.64330E-01-3.19515E-14-1.34274E-13
 -1      4014 1.96644E+01 4.70443E-01 2.17640E-03-2.04607E-01-3.75284E-14-7.15064E-14
 -1      4015 1.94554E+01 6.51700E-01-1.09130E-03-3.58004E-01-2.29809E-14-8.92800E-14
 -1      4016 1.95307E+01 5.88129E-01-2.36540E-03-3.21134E-01-7.95074E-14-6.69931E-14
 -1      4017 1.95230E+01 5.89519E-01 2.92294E-03-2.44580E-01-4.55547E-14-1.27118E-13
 -1      4018 1.92480E+01 7.84635E-01-1.68886E-03-4.26061E-01 3.84523E-15-1.04792E-13
 -1      4019 1.93483E+01 7.16808E-01-2.92010E-03-3.84934E-01-4.90753E-14-8.37525E-14
 -1      4020 1.93394E+01 7.19951E-01 3.87832E-03-2.87259E-01-2.32062E-14-1.84097E-13
 -1      4021 1.89767E+01 9.21543E-01-2.44089E-03-4.98787E-01 1.09677E-14-1.63915E-14
 -1      4022 1.91093E+01 8.52609E-01-3.67238E-03-4.53963E-01 5.18187E-14-4.86416E-15
 -1      4023 1.91009E+01 8.58276E-01 5.12170E-03-3.29759E-01-1.96539E-14-3.75748E-14
 -1      4024 1.86228E+01 1.05300E+00-3.33591E-03-5.75313E-01 4.06657E-15-2.86409E-14
 -1      4025 1.87968E+01 9.88145E-01-4.78865E-03-5.26566E-01 9.27272E-15-1.31477E-14
 -1      4026 1.87916E+01 9.98421E-01 6.78400E-03-3.68642E-01 1.25240E-14 1.28257E-14
 -1      4027 1.81612E+01 1.16436E+00-4.29186E-03-6.58035E-01-1.13570E-13 4.29566E-14
 -1      4028 1.83879E+01 1.11143E+00-6.58248E-03-6.02796E-01-4.71484E-14 4.03713E-14
 -1      4029 1.83896E+01 1.13110E+00 9.10526E-03-4.00879E-01-1.01851E-13-2.33348E-14
 -1      4030 1.75566E+01 1.23365E+00-5.24153E-03-7.57378E-01-1.85090E-13 3.22420E-14
 -1      4031 1.78507E+01 1.20430E+00-9.57658E-03-6.87833E-01-1.57366E-13-5.07867E-16
 -1      4032 1.78637E+01 1.24341E+00 1.25597E-02-4.26061E-01-9.94000E-14 1.36180E-13
 -1      4033 1.67556E+01 1.22772E+00-6.37281E-03-8.99435E-01-1.19158E-13-1.92009E-14
 -1      4034 1.71386E+01 1.23946E+00-1.45374E-02-7.96839E-01-1.29341E-13-2.63612E-14
 -1      4035 1.71672E+01 1.31688E+00 1.81389E-02-4.50935E-01-1.47742E-13 1.87170E-14
 -1      4036 1.56149E+01 1.08048E+00-2.32172E-02-1.14941E+00-3.81068E-14-8.48401E-14
 -1      4037 1.61671E+01 1.18729E+00-2.20037E-02-9.63488E-01-9.50587E-14-1.34613E-13
 -1      4038 1.62307E+01 1.33338E+00 3.12230E-02-4.86397E-01-4.49092E-14-1.03215E-13
 -1      4039 2.03428E+01 5.82348E-02 6.18336E-04 7.22883E-02-1.20636E-13-2.63391E-13
 -1      4040 2.03207E+01 1.57840E-02-2.89144E-04 8.22599E-02-9.71904E-14-2.63080E-13
 -1      4041 2.03310E+01 5.84104E-03-2.74903E-04 6.44208E-02-4.84063E-14-2.20671E-13
 -1      4042 1.52428E+01 7.11674E-01 4.97652E-02-1.80070E+00 3.18020E-13-1.87084E-13
 -1      4043 1.39523E+01 9.65107E-01-3.28499E-02-8.19222E-01-1.07960E-13-1.82375E-13
 -1      4044 1.49440E+01 1.05593E+00 4.00412E-03-9.49714E-01-6.05358E-14-1.41939E-13
 -1      4045 1.49872E+01 1.31714E+00 6.39446E-02-2.72548E-01-1.03584E-13-5.73025E-14
 -1      4046 2.02812E+01 4.02237E-02-4.41943E-04-1.08088E-01 7.01738E-14-2.15133E-13
 -1      4047 2.02498E+01 4.67014E-02-5.78227E-04-1.20104E-01 6.95715E-14-1.95902E-13
 -1      4048 2.02709E+01 9.41344E-02 1.34054E-03-1.01616E-01 8.12858E-14-2.01825E-13
 -1      4049 1.38939E+01 8.86715E-01 1.25908E-02 1.06560E+00 7.56391E-14-1.53861E-13
 -1      4050 1.31344E+01 1.12890E+00 8.92331E-02 1.30122E-01-8.73390E-15-1.16882E-13
 -1      4051 1.57966E+01 8.80934E-03 3.78419E-02 3.00874E+00 7.55992E-14 3.72691E-13
 -1      4052 2.03793E+01 1.79904E-01 6.62568E-04 4.52183E-02-7.91765E-14-2.66590E-13
 -1      4053 2.03602E+01 1.11821E-01-6.73854E-04 6.41325E-02-1.01187E-13-2.48681E-13
 -1      4054 2.03732E+01 9.74580E-02 1.55169E-05 5.14199E-02-9.75263E-14-2.71189E-13
 -1      4055 1.76958E+01-1.10792E+00 2.82288E-02 3.32680E+00 1.77096E-13-1.95638E-13
 -1      4056 2.00354E+01 4.55258E-02 3.60849E-04-1.03693E-01 1.88699E-14-1.82211E-13
 -1      4057 2.00500E+01 2.25192E-02-3.88122E-04-9.96730E-02-7.05233E-15-1.15671E-13
 -1      4058 2.00244E+01 6.30011E-02 1.74973E-04-8.93753E-02 2.91051E-14-2.08092E-13
 -1      4059 1.33247E+01 9.39967E-01 9.20511E-02-1.90877E-01-8.17046E-14 8.53793E-13
 -1      4060 1.41712E+01 7.54710E-01 9.35303E-03-1.13811E+00 4.86807E-15 3.33398E-13
 -1      4061 1.39496E+01 8.90219E-01 1.98497E-02 6.85143E-01 1.60871E-13 9.05154E-13
 -1      4062 2.03313E+01 1.01444E+00-3.91919E-03 2.08734E-01 1.69638E-13-3.82524E-13
 -1      4063 2.03321E+01 1.08537E+00-7.39730E-04 1.63540E-01 1.25571E-13-4.30593E-13
 -1      4064 2.03736E+01 9.17143E-01 2.50216E-03 1.02153E-01 1.21840E-13-4.39568E-13
 -1      4065 2.03673E+01 7.80690E-01 2.60075E-03 1.32821E-01 1.40136E-13-3.50957E-13
 -1      4066 2.03996E+01 3.65903E-01 1.45806E-04-4.98401E-04-4.34783E-14-3.02746E-13
 -1      4067 2.03888E+01 2.63758E-01-8.99634E-04 2.99684E-02-5.69857E-14-3.02759E-13
 -1      4068 2.04042E+01 2.42455E-01 2.04250E-04 2.66412E-02-4.33633E-14-2.91147E-13
 -1      4069 1.98255E+01 3.18989E-01-6.30806E-05-1.97577E-01 5.67513E-14-1.92501E-13
 -1      4070 1.98571E+01 2.74418E-01-1.25095E-03-1.76042E-01 4.18786E-14-2.25017E-13
 -1      4071 1.97733E+01 3.64247E-01 1.58638E-03-1.69356E-01 3.93278E-14-1.86259E-13
 -1      4072 1.98961E+01 2.33758E-01 1.05333E-04-1.61614E-01 8.27922E-14-2.12747E-13
 -1      4073 1.99203E+01 1.95330E-01-9.86029E-04-1.45153E-01 9.02600E-14-2.45912E-13
 -1      4074 1.99244E+01 1.90511E-01 7.36832E-04-1.16974E-01 1.13305E-13-1.97263E-13
 -1      4075 1.98578E+01 2.71131E-01 1.11574E-03-1.39990E-01 5.66090E-14-2.09572E-13
 -1      4076 2.01056E+01-3.15186E-02 3.99617E-04-9.76127E-02 5.01829E-14-9.51263E-14
 -1      4077 2.01206E+01-4.47994E-02-6.19600E-05-9.84381E-02 3.35178E-14-8.96299E-14
 -1      4078 1.51577E+01 9.78559E-01-1.11894E-02-8.71891E-01 3.04316E-13 2.23902E-13
 -1      4079 2.01412E+01-5.48528E-02 3.65955E-04-1.00274E-01-2.57950E-14-8.64268E-14
 -1      4080 2.01579E+01-6.21409E-02 1.83983E-04-1.01808E-01-3.20411E-14-1.16609E-13
 -1      4081 2.01445E+01-5.13608E-02-5.32148E-04-8.38985E-02 1.00018E-17-1.59309E-13
 -1      4082 2.03960E+01 7.95776E-01 9.76566E-04 5.38826E-02 9.56691E-14-4.29057E-13
 -1      4083 2.04057E+01 7.41175E-01-1.93713E-03 2.43895E-02 8.28147E-14-4.15408E-13
 -1      4084 2.03587E+01 9.54164E-01-2.24799E-03-1.23689E-01-6.62281E-14-4.39829E-13
 -1      4085 2.03799E+01 8.20950E-01 5.22957E-04-9.55077E-02-6.58704E-14-4.26598E-13
 -1      4086 2.03563E+01 1.01577E+00-5.22481E-04-9.49537E-02-4.11007E-14-4.41240E-13
 -1      4087 2.03177E+01 1.46289E-01-3.49899E-04-7.52560E-02 9.22026E-14-2.08875E-13
 -1      4088 1.80845E+01-7.44284E-01 2.06873E-02 2.78915E+00 1.31774E-13-1.02349E-13
 -1      4089 1.68098E+01-6.65477E-01 1.87439E-03 3.19615E+00 1.02061E-13-1.52529E-13
 -1      4090 1.64435E+01-1.84386E-01-1.56516E-02 2.74562E+00 4.40021E-14-1.79315E-13
 -1      4091 1.78124E+01-3.72943E-01 3.30857E-03 2.52560E+00 6.47689E-14-6.33714E-14
 -1      4092 2.04039E+01 5.20706E-01-4.95634E-04-3.61326E-02-6.32521E-14-3.78220E-13
 -1      4093 2.04017E+01 4.40182E-01-5.19909E-05-1.28528E-02-4.80174E-14-3.46712E-13
 -1      4094 2.04177E+01 4.07733E-01 3.89157E-04-3.93430E-03-1.22925E-14-3.58752E-13
 -1      4095 1.63870E+01-5.19212E-01 8.17301E-02 3.82061E+00 1.21330E-13 3.13680E-13
 -1      4096 1.77770E+01-1.33361E+00 6.73801E-02 4.25709E+00 1.39133E-14 3.39761E-13
 -1      4097 2.03043E+01 2.54677E-02-4.02113E-04-9.65263E-02 5.26104E-14-2.55123E-13
 -1      4098 2.03261E+01 7.01138E-02 9.55529E-04-8.41732E-02 7.76811E-14-2.63138E-13
 -1      4099 1.52710E+01 5.42037E-01 2.54456E-02 1.96152E+00 4.48760E-14-2.57530E-13
 -1      4100 1.44361E+01 8.45690E-01 5.72116E-02 1.62755E+00 1.34354E-13-1.68796E-13
 -1      4101 1.43910E+01 1.03731E+00-5.00943E-02 5.94427E-01 1.09582E-14-1.16166E-13
 -1      4102 1.49843E+01 1.15416E+00 6.90094E-03-1.77670E-02 5.00234E-14 6.55133E-13
 -1      4103 2.03954E+01 7.33733E-01-1.05900E-03 7.32318E-02 9.93547E-14-4.37765E-13
 -1      4104 2.02834E+01-7.54075E-03 5.69611E-04-1.01492E-01 4.38598E-14-2.48293E-13
 -1      4105 2.03204E+01 1.62835E-02-4.39649E-04-8.02736E-02 4.80101E-14-2.76901E-13
 -1      4106 2.02622E+01-3.27665E-02-9.19070E-05-1.06800E-01 6.59517E-14-2.57731E-13
 -1      4107 2.03780E+01 4.68506E-01-1.83754E-04 3.02256E-02 1.11219E-13-3.14778E-13
 -1      4108 2.03775E+01 6.06632E-01-1.10847E-03 8.63684E-02 1.16093E-13-3.33063E-13
 -1      4109 2.03876E+01 6.84075E-01 1.00808E-03 8.08006E-02 1.12289E-13-3.80973E-13
 -1      4110 2.03591E+01 1.03137E+00-3.66098E-04-3.21290E-02-1.09702E-14-4.74578E-13
 -1      4111 2.03622E+01 9.85064E-01-2.51264E-03-6.60365E-02-2.99974E-14-4.41174E-13
 -1      4112 2.04012E+01 8.53474E-01 3.49618E-03-7.44290E-03 2.04469E-14-4.32494E-13
 -1      4113 2.00709E+01 2.29664E-03 3.93177E-04-9.81830E-02-7.39726E-15-1.16381E-13
 -1      4114 2.00851E+01-1.60294E-02-2.33610E-04-9.70166E-02 2.77355E-14-8.99090E-14
 -1      4115 2.01052E+01-2.38505E-02-2.11407E-04-8.21737E-02 3.46967E-14-1.53506E-13
 -1      4116 2.00657E+01 1.45680E-02-3.53273E-05-8.36572E-02 2.27351E-14-1.93524E-13
 -1      4117 2.02613E+01-6.44315E-02 2.14577E-04 4.81222E-02-6.51350E-14-1.61846E-13
 -1      4118 2.02375E+01-6.89841E-02 2.28637E-04 4.84850E-02-6.83025E-14-1.74734E-13
 -1      4119 2.02123E+01-6.82710E-02 1.43365E-04 4.73300E-02-2.66096E-14-1.59981E-13
 -1      4120 2.01900E+01-6.31528E-02 3.97153E-04 4.72720E-02 2.82051E-14-1.26451E-13
 -1      4121 2.02317E+01-6.89955E-02-5.57292E-04 2.66245E-02-2.12403E-14-1.36641E-13
 -1      4122 2.01651E+01-5.44235E-02 4.67434E-05 4.57244E-02 3.05815E-14-1.56107E-13
 -1      4123 2.01435E+01-4.18175E-02 3.47215E-04 4.58968E-02-3.52162E-14-1.49835E-13
 -1      4124 2.01833E+01-5.98568E-02-5.96633E-04 2.55916E-02 7.43240E-15-2.31004E-13
 -1      4125 2.01192E+01-2.65311E-02-5.20286E-05 4.52021E-02-8.93137E-14-1.46148E-13
 -1      4126 2.00981E+01-8.05435E-03 3.04201E-04 4.62390E-02-4.11603E-14-1.69050E-13
 -1      4127 2.01353E+01-3.43997E-02-4.76453E-04 2.55597E-02-3.44707E-14-1.62793E-13
 -1      4128 2.00734E+01 1.25397E-02-2.13821E-04 4.65133E-02 2.91152E-14-2.05205E-13
 -1      4129 2.00519E+01 3.61339E-02 2.43789E-04 4.89988E-02 1.92907E-14-1.75748E-13
 -1      4130 2.00882E+01 3.43640E-03-1.55480E-04 2.64748E-02-1.63686E-14-2.03824E-13
 -1      4131 2.00257E+01 6.15280E-02-4.01936E-04 5.06387E-02 1.49129E-17-1.48406E-13
 -1      4132 2.00027E+01 8.98995E-02 1.80130E-04 5.51606E-02 1.01135E-14-5.52369E-14
 -1      4133 2.00396E+01 5.20882E-02 2.44267E-04 2.90308E-02 3.51369E-14-2.02025E-13
 -1      4134 1.99734E+01 1.19863E-01-6.27247E-04 5.86096E-02 6.21137E-14 2.77112E-15
 -1      4135 1.99475E+01 1.52925E-01 1.20681E-04 6.57967E-02 9.17073E-14 2.24112E-14
 -1      4136 1.99868E+01 1.10806E-01 7.10634E-04 3.40190E-02 9.48321E-14-6.08511E-14
 -1      4137 1.99132E+01 1.87365E-01-8.99079E-04 7.16224E-02 4.33025E-14 6.63683E-14
 -1      4138 1.98829E+01 2.25083E-01 7.51189E-05 8.22046E-02 2.51887E-14 4.31883E-14
 -1      4139 1.99266E+01 1.79409E-01 1.24834E-03 4.23670E-02 9.11086E-14-2.74265E-14
 -1      4140 1.98416E+01 2.63831E-01-1.22898E-03 9.11781E-02-2.89753E-14 5.91705E-14
 -1      4141 1.98053E+01 3.05997E-01 5.72764E-05 1.06064E-01 5.18647E-15-5.41484E-14
 -1      4142 1.98552E+01 2.57867E-01 1.86630E-03 5.53081E-02 2.13296E-14-6.82086E-14
 -1      4143 1.97545E+01 3.48567E-01-1.63181E-03 1.19257E-01-2.14945E-14-6.81266E-14
 -1      4144 1.97105E+01 3.94547E-01 8.81059E-05 1.39629E-01-2.99717E-15-1.58441E-13
 -1      4145 1.97683E+01 3.45859E-01 2.57461E-03 7.45594E-02-4.93666E-14-2.05578E-13
 -1      4146 1.96477E+01 4.39845E-01-2.12728E-03 1.58544E-01 4.74440E-14-2.18488E-13
 -1      4147 1.95946E+01 4.88281E-01 1.99609E-04 1.85989E-01 4.31286E-14-2.76932E-13
 -1      4148 1.96611E+01 4.42272E-01 3.38403E-03 1.02555E-01-3.64774E-14-2.38069E-13
 -1      4149 1.95168E+01 5.34266E-01-2.74265E-03 2.12733E-01 8.64568E-14-2.48035E-13
 -1      4150 1.94536E+01 5.82735E-01 4.40340E-04 2.49422E-01 9.09131E-15-1.91845E-13
 -1      4151 1.95287E+01 5.44637E-01 4.30745E-03 1.42764E-01 7.55617E-14-3.23923E-13
 -1      4152 1.93578E+01 6.26028E-01-3.51742E-03 2.86951E-01-8.57136E-14-1.33922E-13
 -1      4153 1.92842E+01 6.70651E-01 8.83568E-04 3.35896E-01-1.34587E-14-1.50429E-13
 -1      4154 1.93656E+01 6.48482E-01 5.36430E-03 2.00125E-01 1.15581E-14-2.26799E-13
 -1      4155 1.91674E+01 7.06076E-01-4.51101E-03 3.88353E-01 2.99725E-14-2.50475E-13
 -1      4156 1.90842E+01 7.41088E-01 1.63953E-03 4.53764E-01-2.12746E-14-2.10993E-13
 -1      4157 1.91667E+01 7.46616E-01 6.58791E-03 2.81667E-01-8.04370E-14-1.67623E-13
 -1      4158 1.89429E+01 7.61146E-01-5.81529E-03 5.26968E-01-6.76451E-14-1.64949E-13
 -1      4159 1.88532E+01 7.78406E-01 2.87298E-03 6.14752E-01-1.04731E-13-1.78390E-13
 -1      4160 1.89264E+01 8.28349E-01 8.03142E-03 3.97371E-01-6.70947E-14-2.37677E-13
 -1      4161 1.86840E+01 7.72636E-01-7.57223E-03 7.16919E-01-1.27514E-13-1.66462E-13
 -1      4162 1.85940E+01 7.61002E-01 4.83327E-03 8.35309E-01-1.29530E-13-1.38770E-13
 -1      4163 1.86398E+01 8.78565E-01 9.74940E-03 5.61456E-01-1.03242E-13-2.87003E-13
 -1      4164 1.83931E+01 7.14972E-01-9.98743E-03 9.78075E-01-8.41382E-14-1.66561E-13
 -1      4165 1.83138E+01 6.58936E-01 7.55383E-03 1.13857E+00-1.68181E-14-1.25831E-13
 -1      4166 1.83014E+01 8.76288E-01 1.16537E-02 7.94256E-01-6.36391E-14-2.31944E-13
 -1      4167 1.80784E+01 5.59125E-01-1.15821E-02 1.33782E+00-9.83308E-14-6.27215E-14
 -1      4168 1.80241E+01 4.30568E-01 9.58412E-03 1.55895E+00 2.92151E-14-1.21376E-13
 -1      4169 1.79076E+01 7.90737E-01 1.29821E-02 1.12356E+00 7.65013E-16-1.80677E-13
 -1      4170 1.77788E+01 2.47165E-01-8.52447E-03 1.83965E+00 1.77429E-13-1.30469E-13
 -1      4171 1.77734E+01 1.34885E-02 1.55288E-02 2.13226E+00 1.33499E-13-9.30957E-14
 -1      4172 1.74374E+01 5.62113E-01-5.79750E-03 1.56641E+00 5.18442E-14-6.17545E-14
 -1      4173 1.92338E+01 7.53496E-01-2.87111E-03-1.99952E-01-1.30501E-14-5.50658E-14
 -1      4174 1.93417E+01 6.88511E-01-1.98439E-03-1.84477E-01 3.45994E-14-2.61351E-14
 -1      4175 1.99609E+01 1.40792E-01-4.73412E-05-7.98410E-02 6.30575E-14-1.59628E-13
 -1      4176 1.99857E+01 1.08213E-01-4.88633E-04-7.34706E-02 5.83761E-14-1.71779E-13
 -1      4177 2.00597E+01 2.65247E-02 2.20772E-04-6.55448E-02 4.22022E-14-1.84874E-13
 -1      4178 2.00797E+01 4.11333E-03-1.52345E-04-6.35015E-02 4.29012E-14-1.78548E-13
 -1      4179 1.94401E+01 6.24411E-01-1.99882E-03-1.78888E-01 1.45144E-14-4.12506E-14
 -1      4180 1.95228E+01 5.63140E-01-1.66772E-03-1.62558E-01-8.92613E-14-6.59551E-14
 -1      4181 1.93697E+01 6.75401E-01 5.21664E-03-9.61378E-02 3.30344E-14 9.26955E-15
 -1      4182 1.96004E+01 5.04099E-01-1.35280E-03-1.55022E-01-5.68189E-14-8.41448E-14
 -1      4183 1.96636E+01 4.48124E-01-1.38611E-03-1.39413E-01 2.09729E-14-6.56977E-14
 -1      4184 1.95434E+01 5.51654E-01 4.06891E-03-9.25176E-02-4.97884E-14-4.63637E-14
 -1      4185 1.89683E+01 8.86633E-01-4.05518E-03-2.13782E-01-2.37177E-14-7.76554E-14
 -1      4186 1.91089E+01 8.20716E-01-2.36679E-03-2.01268E-01-2.67169E-14-8.73735E-14
 -1      4187 1.91483E+01 8.05376E-01 6.59990E-03-9.02675E-02 1.18704E-15-2.47655E-14
 -1      4188 1.86264E+01 1.01631E+00-5.68457E-03-2.14796E-01-3.58555E-14 2.10058E-14
 -1      4189 1.88098E+01 9.53749E-01-2.88764E-03-2.07683E-01-6.25783E-15-2.46785E-14
 -1      4190 1.88665E+01 9.35787E-01 8.31322E-03-6.83773E-02-5.20863E-14-8.91641E-14
 -1      4191 1.81843E+01 1.13174E+00-7.98139E-03-1.96751E-01-1.17129E-13 8.93469E-15
 -1      4192 1.84244E+01 1.07857E+00-3.69575E-03-1.97267E-01-4.45680E-14 7.78787E-14
 -1      4193 1.85076E+01 1.05819E+00 1.05247E-02-2.17129E-02-5.77174E-14 1.42537E-13
 -1      4194 1.76061E+01 1.21864E+00-1.13172E-02-1.53953E-01-1.11227E-13 1.02047E-13
 -1      4195 1.79240E+01 1.18280E+00-5.04997E-03-1.62861E-01-1.03256E-13 8.50478E-14
 -1      4196 1.80478E+01 1.16134E+00 1.35417E-02 6.12344E-02-9.23860E-14 1.28541E-13
 -1      4197 1.68384E+01 1.26151E+00-1.42236E-02-8.34336E-02-2.53499E-14-4.95439E-14
 -1      4198 1.72630E+01 1.25215E+00-7.05178E-03-9.80779E-02-6.42435E-14 1.22196E-13
 -1      4199 1.74504E+01 1.23165E+00 1.79380E-02 1.96013E-01-6.19949E-14 9.25818E-14
 -1      4200 1.57882E+01 1.22236E+00-1.90156E-02 1.09653E-02-8.76469E-14-2.65816E-14
 -1      4201 1.63696E+01 1.25362E+00-1.26054E-02-9.29459E-03 9.68193E-16-2.82966E-14
 -1      4202 1.66425E+01 1.25803E+00 2.33704E-02 3.97533E-01-5.63872E-15 8.26858E-14
 -1      4203 2.03579E+01 2.44958E-02 2.70434E-04 4.18208E-02-4.04203E-14-2.51300E-13
 -1      4204 2.03347E+01-1.07826E-02-7.21002E-05 4.69714E-02 2.21147E-14-2.14877E-13
 -1      4205 2.03603E+01 1.14692E-01-4.60384E-05-6.24611E-02 7.93496E-14-2.54428E-13
 -1      4206 2.03410E+01 1.26719E-01-8.72525E-04-7.24035E-02 7.46843E-14-2.51352E-13
 -1      4207 2.03600E+01 1.98674E-01 1.04482E-03-4.85355E-02 9.01613E-14-2.48386E-13
 -1      4208 2.03655E+01 2.67303E-01-1.05309E-03-3.35925E-02 9.28732E-14-2.77870E-13
 -1      4209 2.03779E+01 3.68710E-01-1.21174E-04 5.30597E-03 9.63235E-14-3.02256E-13
 -1      4210 2.03989E+01 4.23299E-01 8.25174E-04 1.24098E-02 7.63086E-14-3.78618E-13
 -1      4211 2.03873E+01 2.46728E-01-8.63509E-04-3.20040E-02 8.14773E-14-3.00621E-13
 -1      4212 2.04281E+01 5.86599E-01 2.21316E-04 1.62124E-02 7.68947E-14-3.89428E-13
 -1      4213 2.04139E+01 7.05803E-01-2.89717E-04 5.50814E-03 7.17795E-14-3.88286E-13
 -1      4214 2.03107E+01-3.63530E-02 2.71819E-04 4.70161E-02 2.11286E-14-2.20386E-13
 -1      4215 2.02865E+01-5.39664E-02 1.05810E-04 4.90752E-02-1.62461E-14-2.10799E-13
 -1      4216 2.03322E+01-2.07594E-02-3.20505E-04 2.60564E-02 2.01056E-14-2.78571E-13
 -1      4217 2.00133E+01 7.85687E-02 1.05967E-04-7.07551E-02 1.14421E-14-1.41868E-13
 -1      4218 2.00348E+01 5.11306E-02-3.13772E-04-6.67247E-02 5.42160E-15-1.81489E-13
 -1      4219 2.00488E+01 4.12477E-02 1.05056E-05-4.66953E-02 1.99739E-14-1.72805E-13
 -1      4220 2.03983E+01 1.30157E-01 4.31707E-04 3.04762E-02-8.67500E-14-3.14854E-13
 -1      4221 2.03785E+01 7.05195E-02-3.44803E-04 4.02595E-02-9.21473E-14-2.99558E-13
 -1      4222 2.03784E+01 5.37736E-02-4.47978E-05 2.25366E-02-3.11421E-14-2.85243E-13
 -1      4223 1.51988E+01 1.16942E+00 4.48929E-03 2.62110E-01-6.47217E-14-9.58400E-14
 -1      4224 2.01033E+01-1.54379E-02 3.02049E-04-6.36575E-02 1.97540E-16-1.87841E-13
 -1      4225 2.01231E+01-3.25289E-02 1.55817E-05-6.31602E-02 2.42683E-14-1.92460E-13
 -1      4226 2.00955E+01-5.23247E-03-3.64207E-04-4.51239E-02 1.94142E-14-2.18140E-13
 -1      4227 1.97248E+01 3.95093E-01-8.73408E-04-1.31537E-01-2.89019E-14-7.33889E-14
 -1      4228 1.97735E+01 3.45109E-01-1.12910E-03-1.17691E-01 2.91816E-15-1.51018E-13
 -1      4229 1.96797E+01 4.37652E-01 3.10148E-03-8.40860E-02-2.99499E-14-8.99592E-14
 -1      4230 2.04109E+01 5.74203E-01 4.88771E-04 3.27799E-02 8.81975E-14-4.24488E-13
 -1      4231 2.03923E+01 7.09549E-01-8.33809E-04-7.64427E-02-7.10765E-14-4.12724E-13
 -1      4232 2.03990E+01 6.11278E-01 1.31894E-04-5.16409E-02-7.41685E-14-3.86080E-13
 -1      4233 2.04150E+01 5.68030E-01 4.52588E-04-3.09096E-02-5.46589E-14-4.12817E-13
 -1      4234 2.03956E+01 7.66725E-01 8.75443E-04-6.32117E-02-5.55218E-14-4.33559E-13
 -1      4235 2.04229E+01 2.94551E-01-9.77880E-05 9.62424E-03 8.10758E-15-3.42366E-13
 -1      4236 2.04109E+01 2.03938E-01-5.80878E-04 2.52486E-02-4.37964E-14-3.26178E-13
 -1      4237 2.04143E+01 1.79130E-01 5.98122E-04 1.55555E-02-4.75833E-14-3.58134E-13
 -1      4238 2.03735E+01 9.03819E-02-5.32829E-04-5.34744E-02 5.83202E-14-2.85133E-13
 -1      4239 2.03922E+01 1.55680E-01 9.07190E-04-3.97228E-02 5.89393E-14-3.04153E-13
 -1      4240 2.01468E+01-4.67153E-02 3.70171E-04-6.43071E-02 3.01230E-14-2.04127E-13
 -1      4241 2.01682E+01-5.79588E-02 3.57053E-04-6.50983E-02-2.77445E-14-2.14190E-13
 -1      4242 2.01414E+01-4.05154E-02-6.02646E-04-4.50798E-02 6.55278E-15-2.07200E-13
 -1      4243 2.02402E+01-4.93292E-02 5.88121E-04-1.06712E-01 6.23690E-14-2.53309E-13
 -1      4244 2.02760E+01-3.95922E-02-9.16920E-04-8.82336E-02 5.88675E-14-2.68561E-13
 -1      4245 2.02200E+01-6.01817E-02 2.65372E-04-1.07888E-01 5.52068E-14-2.54945E-13
 -1      4246 1.99288E+01 1.75744E-01-6.81189E-04-8.41810E-02 1.35363E-13-2.23645E-13
 -1      4247 1.99408E+01 1.65862E-01 9.75215E-04-5.62893E-02 1.42045E-13-3.18557E-13
 -1      4248 1.98988E+01 2.13790E-01-2.49277E-04-9.31031E-02 1.57739E-13-2.30134E-13
 -1      4249 2.04148E+01 4.58616E-01-9.65184E-04 1.71472E-02 6.78965E-14-4.10093E-13
 -1      4250 2.04235E+01 5.15144E-01 1.12805E-03 1.51956E-02 5.70891E-14-4.05561E-13
 -1      4251 2.04159E+01 3.64253E-01 1.17942E-03-5.64074E-03 5.95547E-14-3.88738E-13
 -1      4252 2.04292E+01 4.28083E-01-3.32144E-04-5.39282E-03-1.38576E-14-3.24755E-13
 -1      4253 2.04276E+01 3.57635E-01 1.68298E-04 6.22320E-03 8.46545E-15-3.30515E-13
 -1      4254 2.04316E+01 3.13725E-01-8.94873E-04 3.98718E-03 1.32052E-14-3.41366E-13
 -1      4255 1.99983E+01 9.82413E-02 4.56971E-04-5.03532E-02 5.95481E-14-1.98443E-13
 -1      4256 2.01866E+01-6.67211E-02-8.99758E-04-8.73931E-02-5.17639E-14-1.63355E-13
 -1      4257 2.01794E+01-6.57891E-02 3.71679E-04-1.04706E-01-3.69385E-14-1.77976E-13
 -1      4258 2.01977E+01-6.53550E-02 3.42622E-04-1.05782E-01 2.02155E-15-2.36029E-13
 -1      4259 1.56086E+01 1.16589E+00 3.73000E-02 8.04050E-01-4.19092E-14 7.63613E-14
 -1      4260 2.04153E+01 6.76848E-01-1.81106E-03-1.26682E-02 2.69338E-14-3.96577E-13
 -1      4261 1.71852E+01 7.83689E-02 1.16533E-03 2.26874E+00 1.15409E-13-1.02996E-13
 -1      4262 1.59238E+01 3.72536E-01 1.45281E-02 2.21038E+00 7.43238E-14-3.23008E-13
 -1      4263 1.54608E+01 8.14237E-01-3.29976E-02 1.41494E+00 7.72420E-14-2.20751E-13
 -1      4264 1.60988E+01 9.80662E-01-1.65009E-03 1.07772E+00 4.17071E-14-6.16662E-14
 -1      4265 1.66892E+01 2.31609E-01 1.70380E-02 2.19237E+00 3.20438E-14-2.43649E-13
 -1      4266 2.04350E+01 4.72712E-01 9.70300E-04 2.31377E-03 4.42974E-14-3.91035E-13
 -1      4267 2.02823E+01-5.85933E-02-4.48860E-04 2.70958E-02-1.16394E-14-2.38114E-13
 -1      4268 2.03327E+01 2.51959E-03 6.70830E-06-6.39923E-02 5.04859E-14-2.66969E-13
 -1      4269 2.03540E+01 4.05999E-02 4.27026E-04-5.76554E-02 6.38594E-14-2.67695E-13
 -1      4270 2.03804E+01 7.69306E-02-3.09992E-06-3.82073E-02 5.43631E-14-2.77776E-13
 -1      4271 2.03921E+01 8.51063E-01 1.58096E-03-5.62028E-02-3.10030E-14-4.33647E-13
 -1      4272 1.98220E+01 2.98348E-01-5.16566E-04-1.10505E-01 4.55182E-14-2.45425E-13
 -1      4273 1.98598E+01 2.54455E-01-8.94280E-04-9.90054E-02 8.80764E-14-2.00947E-13
 -1      4274 1.98720E+01 2.44635E-01 1.57718E-03-6.43693E-02 8.61541E-14-2.74742E-13
 -1      4275 1.97869E+01 3.35145E-01 2.27927E-03-7.40269E-02-4.08294E-14-1.84162E-13
 -1      4276 2.02483E+01-6.96959E-02 2.17594E-04 4.39444E-03-2.43898E-14-2.10453E-13
 -1      4277 2.02244E+01-6.92275E-02 5.32536E-04 4.97877E-03-1.52470E-14-1.84533E-13
 -1      4278 2.01896E+01-6.11902E-02 1.96393E-04-1.00059E-02-2.73821E-14-2.15972E-13
 -1      4279 2.01659E+01-5.08590E-02 4.52928E-04-9.20896E-03-7.28957E-15-2.24077E-13
 -1      4280 2.01424E+01-3.71943E-02 2.93271E-04-9.55450E-03-6.57919E-15-2.08735E-13
 -1      4281 2.01182E+01-2.06864E-02 3.05113E-04-8.99295E-03 4.07964E-15-1.92644E-13
 -1      4282 2.00944E+01-9.67928E-04 1.29111E-04-9.58016E-03 4.37432E-16-1.96924E-13
 -1      4283 2.00697E+01 2.11537E-02 1.02082E-04-8.73697E-03 9.78303E-15-2.15195E-13
 -1      4284 2.00446E+01 4.60511E-02-1.55818E-04-9.85090E-03 5.13437E-15-2.28624E-13
 -1      4285 2.00184E+01 7.34216E-02-1.38849E-04-8.38098E-03 6.02006E-14-2.12534E-13
 -1      4286 1.99905E+01 1.03278E-01-5.07606E-04-1.01308E-02 1.15360E-13-2.33456E-13
 -1      4287 1.99613E+01 1.35836E-01-4.06582E-04-7.70681E-03 1.16946E-13-2.06117E-13
 -1      4288 1.99287E+01 1.70713E-01-9.26799E-04-1.00294E-02 1.14817E-13-2.04186E-13
 -1      4289 1.98947E+01 2.08581E-01-7.01136E-04-6.21696E-03 9.84002E-14-2.06240E-13
 -1      4290 1.98550E+01 2.48641E-01-1.42417E-03-8.84960E-03 2.75838E-14-1.88262E-13
 -1      4291 1.98142E+01 2.91931E-01-1.02296E-03-3.03105E-03-1.92108E-14-1.94044E-13
 -1      4292 1.97646E+01 3.37243E-01-2.01608E-03-5.43531E-03-6.66798E-14-1.68558E-13
 -1      4293 1.97147E+01 3.85847E-01-1.37028E-03 3.28734E-03-8.62261E-14-2.45463E-13
 -1      4294 1.96520E+01 4.36162E-01-2.72465E-03 2.03805E-03-8.35831E-14-1.43567E-13
 -1      4295 1.95903E+01 4.89505E-01-1.73823E-03 1.49748E-02 1.83236E-15-1.64451E-13
 -1      4296 1.95106E+01 5.43999E-01-3.58048E-03 1.63431E-02 4.66428E-14-2.05681E-13
 -1      4297 1.94346E+01 6.00766E-01-2.11919E-03 3.53960E-02 6.23896E-14-2.31736E-13
 -1      4298 1.93331E+01 6.57750E-01-4.62883E-03 4.15618E-02 4.65016E-14-2.00302E-13
 -1      4299 1.92399E+01 7.15582E-01-2.50486E-03 6.94712E-02-1.79875E-14-1.56226E-13
 -1      4300 1.91110E+01 7.72174E-01-5.94140E-03 8.35443E-02-5.59923E-14-1.25414E-13
 -1      4301 1.89977E+01 8.27359E-01-2.89000E-03 1.24227E-01-7.55911E-14-1.65364E-13
 -1      4302 1.88338E+01 8.79157E-01-7.63613E-03 1.50497E-01-8.50792E-14-1.15642E-13
 -1      4303 1.86974E+01 9.26323E-01-3.27477E-03 2.09524E-01-4.59536E-14-1.39109E-13
 -1      4304 1.84885E+01 9.67087E-01-9.90327E-03 2.53800E-01-6.42595E-14-5.78756E-14
 -1      4305 1.83258E+01 9.98923E-01-3.64795E-03 3.39073E-01-8.30150E-14-6.13223E-14
 -1      4306 1.80573E+01 1.02031E+00-1.30008E-02 4.09325E-01-8.14702E-14-7.40090E-14
 -1      4307 1.78651E+01 1.02720E+00-3.83633E-03 5.32045E-01-3.91165E-14-6.99964E-14
 -1      4308 1.75150E+01 1.01953E+00-1.67302E-02 6.40743E-01 1.80088E-14-1.30530E-13
 -1      4309 1.72932E+01 9.84029E-01-4.02582E-03 8.19724E-01 4.67794E-14-7.21201E-14
 -1      4310 2.04268E+01 2.16412E-01 1.45039E-03 1.65125E-03-2.10393E-14-4.13491E-13
 -1      4311 2.04106E+01 1.35255E-01-7.34643E-04 5.00490E-03-5.91460E-14-3.68645E-13
 -1      4312 1.68556E+01 9.35496E-01-1.68285E-02 9.78342E-01-2.86438E-14-2.31056E-14
 -1      4313 2.04264E+01 2.72100E-01-1.43122E-03-7.54737E-03-8.63381E-15-4.08408E-13
 -1      4314 2.04318E+01 3.42693E-01-1.37793E-04-2.66902E-03 7.44550E-15-3.92419E-13
 -1      4315 1.67135E+01 5.32136E-01 7.03283E-04 1.77844E+00 1.17755E-13-1.91664E-13
 -1      4316 2.03486E+01-8.21811E-03 2.19826E-04 3.83973E-03 2.47127E-14-2.93470E-13
 -1      4317 2.03245E+01-3.51159E-02 2.99350E-04 6.25659E-03 1.83964E-14-2.93807E-13
 -1      4318 2.03934E+01 7.61272E-02 2.42475E-04 2.39031E-03-1.26011E-14-3.29442E-13
 -1      4319 2.03712E+01 2.78219E-02-1.48101E-04 5.74782E-03 3.38545E-14-3.00233E-13
 -1      4320 2.03580E+01 1.16925E-02-3.38195E-04-1.52332E-02 4.09992E-14-2.86335E-13
 -1      4321 2.03995E+01 1.09741E-01-2.10813E-04-1.19557E-02-8.19860E-16-3.64627E-13
 -1      4322 2.02989E+01-5.35728E-02 1.75171E-04 4.15887E-03 9.08616E-15-2.50399E-13
 -1      4323 2.02738E+01-6.44110E-02 3.52206E-04 5.70980E-03-1.19877E-14-2.15769E-13
 -1      4324 2.02594E+01-6.75615E-02-8.91623E-04-1.74546E-02-1.90833E-14-2.76963E-13
 -1      4325 2.04055E+01 7.38854E-01 3.03145E-04-3.87478E-02-4.92549E-14-4.40302E-13
 -1      4326 2.01989E+01-6.41522E-02-7.03317E-04-3.09314E-02-5.29259E-14-2.76397E-13
 -1      4327 2.02040E+01-6.64808E-02 2.64575E-04-5.19050E-02-7.52741E-14-2.16583E-13
 -1      4328 2.02300E+01-6.45697E-02-1.16048E-03-8.95771E-02-2.34235E-14-2.47126E-13
 -1      4329 2.04158E+01 6.65257E-01-3.05971E-04-2.08533E-02-5.45474E-15-3.88682E-13
 -1      4330 2.04184E+01 5.86256E-01-8.99952E-04-2.77161E-02-4.04769E-14-3.87932E-13
 -1      4331 2.04247E+01 5.02129E-01 3.61349E-04-1.14797E-02-1.46848E-14-3.79213E-13
 -1      4332 2.04337E+01 5.39904E-01 2.31635E-03-5.01103E-03 4.02696E-14-3.52070E-13
 -1      4333 2.04076E+01 2.80130E-01-6.19060E-04-2.19532E-02 4.45921E-14-3.48976E-13
 -1      4334 1.70225E+01 7.12961E-01 1.76682E-02 1.48679E+00 3.97045E-14-1.29498E-13
 -1      4335 2.02271E+01-6.85074E-02 6.37225E-04-5.21316E-02-8.29815E-14-2.42500E-13
 -1      4336 2.04167E+01 2.54658E-01-3.99281E-04-1.73863E-02 3.15562E-14-3.65911E-13
 -1      4337 2.03100E+01-4.45641E-02-9.51192E-04-1.76107E-02 3.61851E-14-2.37251E-13
 -1      4338 2.03012E+01-4.12737E-02 3.72503E-04-5.31083E-02 4.48948E-14-2.49901E-13
 -1      4339 2.03239E+01-1.89379E-02 7.40966E-04-5.06008E-02 4.23577E-14-2.59740E-13
 -1      4340 2.03718E+01 3.84812E-02 3.33776E-04-2.97284E-02 5.22126E-14-2.81123E-13
 -1      4341 2.03920E+01 8.81521E-02-4.85929E-04-2.36850E-02 3.52991E-14-3.10248E-13
 -1      4342 2.04113E+01 1.53517E-01 1.27150E-03-2.14303E-02-6.22071E-15-3.34289E-13
 -1      4343 2.02529E+01-6.50343E-02 5.85948E-04-5.30822E-02-3.89139E-14-2.52104E-13
 -1      4344 2.02761E+01-5.71770E-02 8.29371E-04-5.24907E-02 1.79383E-14-2.66042E-13
 -1      4345 2.04352E+01 4.56249E-01-6.85254E-04 3.42494E-04 5.71231E-14-3.51666E-13
 -1      4346 2.04323E+01 4.47504E-01-5.40862E-04-2.77705E-03 1.74301E-14-2.94589E-13
 -1      4347 2.03494E+01-8.37719E-04-4.84677E-04-3.10645E-02 5.79289E-14-2.42870E-13
 -1      4348 2.04319E+01 2.68555E-01 7.46235E-04-1.39744E-03-7.97619E-15-3.83706E-13
 -3
    1PSTEP                         3           1           1          
  100CL  101 1.000000000        4348                     0    1           1
 -4  TOSTRAIN    6    1
 -5  EXX         1    4    1    1
 -5  EYY         1    4    2    2
 -5  EZZ         1    4    3    3
 -5  EXY         1    4    1    2
 -5  EYZ         1    4    2    3
 -5  EZX         1    4    3    1
 -1         1 7.98128E-05 2.38272E-05-4.15506E-05 9.30474E-05-1.49569E-17-1.76407E-17
 -1         2 3.87207E-05-1.17895E-04 2.14921E-05-6.82572E-07 1.84422E-18 1.18746E-18
 -1         3 9.49955E-05-2.88336E-05-2.81281E-05-3.02383E-07-2.79370E-18-3.25214E-18
 -1         4 9.51334E-05-2.86768E-05-2.83493E-05 9.81535E-08 1.21336E-18 2.23324E-19
 -1         5 1.43344E-04-2.14783E-05-4.25268E-05 3.85316E-05-3.52366E-19 2.64996E-17
 -1         6 1.45406E-04 2.57560E-10-4.41857E-05-5.35273E-05-1.50941E-18 2.65591E-17
 -1         7 9.06038E-05-5.10851E-07-3.90665E-05-2.92547E-05-2.09641E-19 5.67835E-18
 -1         8 8.51219E-05 8.64998E-08-3.63377E-05-2.02753E-05-3.16976E-19-9.50440E-19
 -1         9 8.28144E-05 7.59728E-08-3.53505E-05-1.56438E-05-2.72758E-19-4.61837E-18
 -1        10 8.17708E-05 3.97215E-08-3.48814E-05-1.20818E-05-2.22101E-19-6.45361E-18
 -1        11 8.12535E-05 1.93271E-08-3.46533E-05-9.01791E-06-1.65654E-19-7.33538E-18
 -1        12 8.09861E-05 9.09299E-09-3.45393E-05-6.28729E-06-9.31836E-20-7.74497E-18
 -1        13 8.08457E-05 4.50770E-09-3.44822E-05-3.68716E-06-5.81872E-20-7.94090E-18
 -1        14 8.07870E-05 2.66246E-09-3.44588E-05-1.18395E-06-7.21632E-21-7.99604E-18
 -1        15 8.07889E-05 2.66478E-09-3.44595E-05 1.28977E-06 4.61815E-20-7.92180E-18
 -1        16 8.08519E-05 4.46924E-09-3.44844E-05 3.79781E-06 7.47498E-20-7.88994E-18
 -1        17 8.09977E-05 8.36694E-09-3.45432E-05 6.40963E-06 9.39925E-20-7.57678E-18
 -1        18 8.12714E-05 1.81479E-08-3.46585E-05 9.15933E-06 1.68983E-19-7.00615E-18
 -1        19 8.17967E-05 3.81934E-08-3.48898E-05 1.22618E-05 2.49385E-19-5.96123E-18
 -1        20 8.28340E-05 8.15553E-08-3.53627E-05 1.58745E-05 3.08320E-19-3.93746E-18
 -1        21 8.50869E-05 1.69547E-07-3.63761E-05 2.04857E-05 3.77591E-19 1.65784E-20
 -1        22 9.16413E-05-9.94717E-08-3.87382E-05 2.80014E-05 6.45863E-20 8.14907E-18
 -1        23 1.12972E-04-3.81254E-05-3.53961E-05-4.40305E-06-1.04455E-18 2.11850E-17
 -1        24 9.28021E-05-2.76963E-05-2.89985E-05 3.91304E-07-2.24788E-19 1.64348E-17
 -1        25 8.91173E-05-2.68515E-05-2.69286E-05 3.76057E-07-1.19193E-19 1.17303E-17
 -1        26 8.80131E-05-2.64877E-05-2.63908E-05 2.03852E-07-1.90682E-20 8.43258E-18
 -1        27 8.80367E-05-2.64650E-05-2.63823E-05 1.39729E-07-1.18849E-19 6.05214E-18
 -1        28 8.85681E-05-2.66008E-05-2.65511E-05 1.00818E-07-6.87695E-20 4.52502E-18
 -1        29 8.93204E-05-2.68127E-05-2.67828E-05 7.50505E-08 1.06692E-19 3.27934E-18
 -1        30 9.01419E-05-2.70515E-05-2.70319E-05 5.66326E-08-6.52279E-20 2.16359E-18
 -1        31 9.09480E-05-2.72889E-05-2.72751E-05 4.27599E-08-8.12674E-20 6.42749E-19
 -1        32 9.16925E-05-2.75097E-05-2.74995E-05 3.19840E-08-1.73177E-19-2.21956E-19
 -1        33 9.23529E-05-2.77063E-05-2.76987E-05 2.34920E-08 2.94381E-19-1.12845E-18
 -1        34 9.29226E-05-2.78764E-05-2.78706E-05 1.67779E-08-1.24871E-19-1.40637E-18
 -1        35 9.34049E-05-2.80208E-05-2.80164E-05 1.14943E-08 1.79412E-19-1.78266E-18
 -1        36 9.38107E-05-2.81426E-05-2.81393E-05 7.39036E-09 1.53410E-20-1.75993E-18
 -1        37 9.41554E-05-2.82463E-05-2.82438E-05 4.28603E-09-1.73504E-19-2.39375E-18
 -1        38 9.44582E-05-2.83377E-05-2.83358E-05 2.06437E-09-8.97751E-20-3.23720E-18
 -1        39 9.47416E-05-2.84233E-05-2.84221E-05 6.71263E-10-1.77308E-19-4.49615E-18
 -1        40 9.50310E-05-2.85109E-05-2.85103E-05 1.19330E-10 1.48705E-19-4.23943E-18
 -1        41 9.53550E-05-2.86090E-05-2.86090E-05 4.93180E-10-6.68217E-21-4.60827E-18
 -1        42 9.57457E-05-2.87271E-05-2.87280E-05 1.95339E-09 5.98874E-20-5.79959E-18
 -1        43 9.62383E-05-2.88757E-05-2.88777E-05 4.73519E-09-2.47111E-19-5.79011E-18
 -1        44 9.68705E-05-2.90661E-05-2.90696E-05 9.13467E-09 5.42145E-20-5.63273E-18
 -1        45 9.76805E-05-2.93095E-05-2.93148E-05 1.54696E-08-4.37471E-20-5.17831E-18
 -1        46 9.87027E-05-2.96161E-05-2.96234E-05 2.39930E-08 3.17098E-20-5.94342E-18
 -1        47 9.99606E-05-2.99926E-05-3.00020E-05 3.47258E-08-5.71458E-20-4.58780E-18
 -1        48 1.01455E-04-3.04390E-05-3.04498E-05 4.71584E-08-3.44262E-21-5.54226E-18
 -1        49 1.03149E-04-3.09436E-05-3.09537E-05 5.97712E-08 4.57621E-19-5.68737E-18
 -1        50 1.04939E-04-3.14760E-05-3.14814E-05 6.93530E-08-1.89118E-19-4.72164E-18
 -1        51 1.06636E-04-3.19792E-05-3.19735E-05 7.02362E-08 1.37372E-19-3.05238E-18
 -1        52 1.07937E-04-3.23637E-05-3.23380E-05 5.38964E-08-7.43276E-20-1.37237E-18
 -1        53 1.08427E-04-3.25065E-05-3.24524E-05 9.94082E-09-6.44126E-20-2.70579E-18
 -1        54 1.07627E-04-3.22661E-05-3.21810E-05-6.98784E-08-2.12633E-19-3.42608E-18
 -1        55 1.05127E-04-3.15207E-05-3.14164E-05-1.83360E-07 9.62499E-20-2.91167E-18
 -1        56 1.00807E-04-3.02339E-05-3.01427E-05-3.07330E-07-3.31528E-19-3.00286E-18
 -1        57 9.50904E-05-2.85304E-05-2.84991E-05-3.93328E-07 5.48152E-19-2.64916E-18
 -1        58 8.90684E-05-2.67336E-05-2.68006E-05-3.82887E-07-1.40952E-21-2.43585E-18
 -1        59 8.42890E-05-2.53057E-05-2.54690E-05-2.45527E-07-1.20840E-19-2.34354E-18
 -1        60 8.21687E-05-2.46713E-05-2.48763E-05-1.46536E-08-4.68829E-20-3.11019E-18
 -1        61 8.32990E-05-2.50083E-05-2.51746E-05 2.18567E-07 1.05687E-18-1.66641E-18
 -1        62 8.71183E-05-2.61482E-05-2.62178E-05 3.60469E-07-1.94523E-19-1.80523E-18
 -1        63 9.22049E-05-2.76647E-05-2.76321E-05 3.72706E-07-2.40006E-19-3.16216E-18
 -1        64 9.69683E-05-2.90831E-05-2.89852E-05 2.82662E-07-4.04079E-19-6.92435E-18
 -1        65 1.00269E-04-3.00653E-05-2.99506E-05 1.49288E-07-2.35498E-19-6.57748E-18
 -1        66 1.01668E-04-3.04824E-05-3.03860E-05 2.39229E-08-6.41958E-20-5.19960E-18
 -1        67 1.01331E-04-3.03842E-05-3.03236E-05-6.60294E-08 9.76982E-19-3.54323E-18
 -1        68 9.97955E-05-2.99301E-05-2.99113E-05-1.12291E-07-2.33945E-20 3.63304E-19
 -1        69 9.77659E-05-2.93273E-05-2.93529E-05-1.12784E-07-1.97488E-19-1.05419E-18
 -1        70 9.59860E-05-2.87924E-05-2.88566E-05-4.99074E-08 3.54913E-19-1.47089E-18
 -1        71 9.51071E-05-2.85070E-05-2.85594E-05 5.59311E-08 1.34595E-20-1.38249E-18
 -1        72 1.02176E-04-3.05867E-05-3.41493E-05-1.92876E-06 3.72297E-19 2.39866E-17
 -1        73 9.25588E-05-2.75125E-05-2.89069E-05-3.33175E-07 2.53885E-19 1.78041E-17
 -1        74 8.91040E-05-2.67007E-05-2.69716E-05-1.25901E-07 1.14220E-19 1.33621E-17
 -1        75 8.80420E-05-2.64381E-05-2.64346E-05-9.55666E-08 2.58858E-20 1.02364E-17
 -1        76 8.80715E-05-2.64451E-05-2.64089E-05-7.65425E-08 8.48791E-20 8.05783E-18
 -1        77 8.86022E-05-2.65952E-05-2.65682E-05-6.24350E-08 8.40990E-20 6.25322E-18
 -1        78 8.93514E-05-2.68139E-05-2.67951E-05-5.15990E-08 1.06419E-20 5.36575E-18
 -1        79 9.01690E-05-2.70558E-05-2.70411E-05-4.26348E-08 8.21675E-20 4.58558E-18
 -1        80 9.09710E-05-2.72945E-05-2.72820E-05-3.48789E-08-1.32625E-19 4.01813E-18
 -1        81 9.17110E-05-2.75154E-05-2.75045E-05-2.80640E-08 2.31513E-19 3.15027E-18
 -1        82 9.23669E-05-2.77115E-05-2.77020E-05-2.20666E-08 4.24718E-20 1.82519E-18
 -1        83 9.29317E-05-2.78806E-05-2.78724E-05-1.68035E-08 1.48601E-19-7.81520E-20
 -1        84 9.34089E-05-2.80235E-05-2.80167E-05-1.21949E-08-8.30745E-21-9.64633E-19
 -1        85 9.38090E-05-2.81435E-05-2.81379E-05-8.15528E-09 1.38903E-20-8.05324E-19
 -1        86 9.41473E-05-2.82451E-05-2.82407E-05-4.59437E-09 5.76457E-20-1.17167E-18
 -1        87 9.44431E-05-2.83341E-05-2.83307E-05-1.42338E-09-2.10874E-19-8.41352E-19
 -1        88 9.47192E-05-2.84172E-05-2.84150E-05 1.43705E-09 1.19838E-19-6.90199E-19
 -1        89 9.50022E-05-2.85026E-05-2.85016E-05 4.04685E-09 8.56298E-20-2.60402E-18
 -1        90 9.53237E-05-2.85995E-05-2.86000E-05 6.43290E-09-1.19795E-19-2.31385E-18
 -1        91 9.57212E-05-2.87194E-05-2.87216E-05 8.56882E-09 1.40890E-19-1.65150E-18
 -1        92 9.62402E-05-2.88759E-05-2.88803E-05 1.03431E-08-2.62752E-19-6.93759E-19
 -1        93 9.69367E-05-2.90856E-05-2.90932E-05 1.15061E-08 6.90344E-21-7.24767E-20
 -1        94 9.78797E-05-2.93692E-05-2.93810E-05 1.15817E-08 3.92902E-19-3.09259E-18
 -1        95 9.91535E-05-2.97519E-05-2.97696E-05 9.72141E-09-1.62955E-21-4.50510E-18
 -1        96 1.00860E-04-3.02636E-05-3.02896E-05 4.47691E-09-2.48985E-19-6.34527E-19
 -1        97 1.03116E-04-3.09390E-05-3.09762E-05-6.52368E-09-4.45234E-20 4.65018E-19
 -1        98 1.06046E-04-3.18145E-05-3.18659E-05-2.69449E-08 1.93457E-19-1.45657E-19
 -1        99 1.09758E-04-3.29213E-05-3.29880E-05-6.18988E-08 2.40858E-19-2.25902E-18
 -1       100 1.14288E-04-3.42697E-05-3.43460E-05-1.17079E-07 9.08004E-20-3.80198E-18
 -1       101 1.19498E-04-3.58201E-05-3.58843E-05-1.94967E-07 1.32553E-19-3.00510E-18
 -1       102 1.24905E-04-3.74337E-05-3.74347E-05-2.84834E-07-9.25814E-20-2.89451E-18
 -1       103 1.29453E-04-3.88075E-05-3.86579E-05-3.43750E-07-4.99187E-20-1.19626E-18
 -1       104 1.31356E-04-3.94243E-05-3.90279E-05-2.76143E-07 3.25353E-19-1.39217E-18
 -1       105 1.28357E-04-3.86072E-05-3.79645E-05 4.68074E-08 7.48499E-20-2.64724E-18
 -1       106 1.18895E-04-3.58371E-05-3.51970E-05 6.54081E-07-4.24939E-19-1.38448E-18
 -1       107 1.04216E-04-3.13906E-05-3.12565E-05 1.27222E-06 4.83119E-20-2.95911E-18
 -1       108 8.97797E-05-2.68626E-05-2.76195E-05 1.34139E-06-6.11372E-19-4.30187E-18
 -1       109 8.31450E-05-2.46752E-05-2.60111E-05 5.60617E-07 9.57038E-19-3.82091E-18
 -1       110 8.81462E-05-2.61732E-05-2.72201E-05-5.68349E-07-3.48354E-19-6.94212E-18
 -1       111 1.01306E-04-3.02876E-05-3.04893E-05-1.21863E-06 6.58966E-19-6.52051E-18
 -1       112 1.15044E-04-3.45662E-05-3.40937E-05-1.12818E-06-9.25764E-19-6.76959E-18
 -1       113 1.23619E-04-3.71941E-05-3.65345E-05-6.51036E-07 3.27522E-19-2.66185E-18
 -1       114 1.25575E-04-3.77640E-05-3.72469E-05-1.84078E-07-2.49754E-19-1.74627E-18
 -1       115 1.22371E-04-3.67652E-05-3.64810E-05 1.16096E-07 2.78230E-19-4.79352E-18
 -1       116 1.16293E-04-3.49143E-05-3.48159E-05 2.59491E-07 1.11469E-19-6.89886E-18
 -1       117 1.09288E-04-3.27992E-05-3.28196E-05 3.09733E-07 1.18816E-19-8.94487E-18
 -1       118 1.02731E-04-3.08231E-05-3.09326E-05 3.13159E-07 2.10212E-19-9.91046E-18
 -1       119 9.76909E-05-2.92979E-05-2.94821E-05 2.52850E-07 1.04421E-19-9.30559E-18
 -1       120 9.51756E-05-2.84556E-05-2.86472E-05 6.19277E-09 1.26739E-18-5.76139E-18
 -1       121 9.52164E-05-2.84542E-05-2.86668E-05-6.62923E-08-4.24516E-18 1.70351E-18
 -1       122 9.44352E-05-2.59307E-05-2.95078E-05 1.81457E-07-1.29583E-19-6.87659E-19
 -1       123 9.30130E-05-2.11686E-05-3.08597E-05 2.94514E-07 1.63128E-18 7.67860E-19
 -1       124 9.13319E-05-1.55317E-05-3.24677E-05 3.09131E-07-1.97404E-18 6.49406E-19
 -1       125 8.97464E-05-1.02054E-05-3.40005E-05 2.57548E-07-9.18462E-19-1.44062E-18
 -1       126 8.85626E-05-6.21304E-06-3.51560E-05 1.66226E-07-2.34263E-18 4.88415E-19
 -1       127 8.79342E-05-4.10351E-06-3.57737E-05 4.42582E-08-9.59544E-19-1.34793E-18
 -1       128 8.79700E-05-4.22504E-06-3.57518E-05-7.53425E-08-3.00008E-18-5.73469E-19
 -1       129 8.86116E-05-6.38533E-06-3.51416E-05-1.65792E-07 8.76269E-19 2.33214E-18
 -1       130 8.96930E-05-1.00241E-05-3.40978E-05-2.11458E-07 3.06860E-18-3.92921E-19
 -1       131 9.09942E-05-1.44001E-05-3.28286E-05-2.12800E-07-7.22630E-18-9.04008E-19
 -1       132 9.22848E-05-1.87421E-05-3.15564E-05-1.83078E-07-1.09169E-17 1.14218E-18
 -1       133 9.34527E-05-2.26599E-05-3.03997E-05-1.37538E-07-2.27991E-18 9.35679E-19
 -1       134 9.43715E-05-2.57471E-05-2.94871E-05-9.41005E-08 2.52439E-18-2.12196E-19
 -1       135 9.49863E-05-2.77657E-05-2.88770E-05-4.84268E-08 2.70087E-18-1.04196E-18
 -1       136 9.52015E-05-2.85791E-05-2.85642E-05 1.39926E-07 2.87877E-19 3.06470E-19
 -1       137 2.85701E-05-9.62904E-05 1.74004E-05-2.54916E-05 1.46992E-17 2.72978E-18
 -1       138 8.64499E-06-4.10293E-05 5.07778E-06-2.28881E-05 7.45304E-18 2.43098E-18
 -1       139 1.13240E-05 1.28414E-05-1.44429E-05 2.11640E-05 7.96380E-18 6.48277E-18
 -1       140 6.49185E-05 2.56337E-05-3.72680E-05 8.21848E-05 7.87952E-18 1.03346E-17
 -1       141 1.57938E-04-6.90902E-06-5.77531E-05 1.16553E-04 6.29494E-18 1.05007E-17
 -1       142 2.57260E-04-6.01962E-05-7.31089E-05 9.94235E-05 3.00104E-18 7.82108E-18
 -1       143 3.16854E-04-9.62999E-05-8.08341E-05 3.33209E-05 5.10496E-19 3.37892E-18
 -1       144 3.03497E-04-8.83082E-05-7.90833E-05-5.37179E-05 1.49763E-18-5.75157E-18
 -1       145 2.20889E-04-4.14791E-05-6.72468E-05-1.07362E-04 4.36794E-18-1.10224E-17
 -1       146 1.19113E-04 7.72300E-06-4.97591E-05-1.05251E-04 7.43356E-18-1.25217E-17
 -1       147 3.44016E-05 2.39187E-05-2.63702E-05-5.35907E-05 1.23455E-17-1.25412E-17
 -1       148 5.15394E-06-6.03390E-06-5.90484E-06 1.29545E-06 1.50979E-17-9.68265E-18
 -1       149 1.48829E-05-6.18452E-05 1.02982E-05 2.77510E-05 1.23082E-17-5.00258E-18
 -1       150 3.34581E-05-1.06892E-04 1.97468E-05 1.85573E-05 8.63984E-18-2.47168E-19
 -1       151 3.62414E-05-1.10882E-04 2.02423E-05-9.55239E-06 9.49736E-19-7.05856E-19
 -1       152 1.99166E-05-7.30000E-05 1.27621E-05-2.60590E-05-9.88530E-18-2.71490E-18
 -1       153 5.33641E-06-1.49634E-05-2.33903E-06-7.22895E-06-1.50488E-17-7.66438E-18
 -1       154 1.95840E-05 2.42834E-05-2.08776E-05 4.00530E-05-1.67098E-17-1.54452E-17
 -1       155 1.71841E-04-1.52754E-05-5.96907E-05 1.14186E-04-7.28787E-18-1.50357E-17
 -1       156 2.63135E-04-6.64167E-05-7.34627E-05 8.65303E-05-2.81660E-18-1.02245E-17
 -1       157 3.08872E-04-9.49862E-05-7.92761E-05 1.98973E-05-3.70498E-19-6.51125E-18
 -1       158 2.92186E-04-8.39349E-05-7.72623E-05-5.81491E-05-1.18405E-18 3.19755E-18
 -1       159 2.17395E-04-3.93005E-05-6.68946E-05-1.08572E-04-4.52559E-18 1.13197E-17
 -1       160 1.23117E-04 8.35954E-06-5.09219E-05-1.09580E-04-9.22461E-18 1.43513E-17
 -1       161 4.39380E-05 2.96859E-05-3.10604E-05-6.81902E-05-1.31222E-17 1.43229E-17
 -1       162 7.61862E-06 8.06982E-06-1.11140E-05-1.34051E-05-1.12321E-17 7.06171E-18
 -1       163 1.04550E-05-4.52979E-05 6.26894E-06 2.28279E-05-1.55630E-17 6.89104E-18
 -1       164 2.92646E-05-9.64204E-05 1.73870E-05 2.36837E-05-1.12569E-17 1.91292E-18
 -1       165 9.48648E-05-1.23455E-05-3.55683E-05-2.23522E-05-3.76578E-18 2.08608E-18
 -1       166 8.92471E-05-8.45563E-06-3.47867E-05-1.73955E-05-3.60006E-18-2.03415E-18
 -1       167 8.65493E-05-6.50651E-06-3.44158E-05-1.35868E-05-2.96199E-18-4.38631E-18
 -1       168 8.51891E-05-5.51375E-06-3.42306E-05-1.03756E-05-2.27430E-18-5.63890E-18
 -1       169 8.44501E-05-4.94668E-06-3.41418E-05-7.55033E-06-1.63562E-18-6.28248E-18
 -1       170 8.40243E-05-4.60142E-06-3.41000E-05-4.90538E-06-9.56736E-19-6.55915E-18
 -1       171 8.38068E-05-4.41706E-06-3.40823E-05-2.39585E-06-3.37347E-19-6.65056E-18
 -1       172 8.37424E-05-4.36113E-06-3.40776E-05 5.15648E-08 1.82611E-19-6.70515E-18
 -1       173 8.38162E-05-4.42511E-06-3.40830E-05 2.50090E-06 7.76440E-19-6.62654E-18
 -1       174 8.40455E-05-4.62006E-06-3.41015E-05 5.01675E-06 1.30447E-18-6.42950E-18
 -1       175 8.44772E-05-4.97281E-06-3.41430E-05 7.62679E-06 1.90421E-18-6.00828E-18
 -1       176 8.52516E-05-5.57479E-06-3.42321E-05 1.05164E-05 2.64639E-18-5.25698E-18
 -1       177 8.66461E-05-6.60848E-06-3.44181E-05 1.37874E-05 3.32407E-18-3.92458E-18
 -1       178 8.93898E-05-8.59957E-06-3.47914E-05 1.76268E-05 3.81383E-18-1.32161E-18
 -1       179 9.57767E-05-1.36128E-05-3.54246E-05 2.18971E-05 3.71380E-18 3.50823E-18
 -1       180 1.05602E-04-2.61010E-05-3.52622E-05 1.86655E-05 2.84737E-18 9.99086E-18
 -1       181 1.03395E-04-2.73004E-05-3.26097E-05-1.21294E-05-3.23537E-18 6.84315E-18
 -1       182 9.71038E-05-2.82881E-05-2.95277E-05-4.73211E-06-2.79862E-18 5.19417E-18
 -1       183 9.35033E-05-2.76363E-05-2.81807E-05-1.77041E-06-2.09001E-18 3.66696E-18
 -1       184 9.19656E-05-2.74036E-05-2.76341E-05-4.25428E-07-1.43581E-18 2.51185E-18
 -1       185 9.13874E-05-2.73280E-05-2.74359E-05 2.39570E-07-9.80226E-19 1.76833E-18
 -1       186 9.13435E-05-2.73664E-05-2.74101E-05 5.65224E-07-8.00826E-19 1.23513E-18
 -1       187 9.15848E-05-2.74684E-05-2.74744E-05 7.03497E-07-6.15351E-19 7.43044E-19
 -1       188 9.19663E-05-2.75999E-05-2.75838E-05 7.34109E-07-7.69008E-19 3.19849E-19
 -1       189 9.24015E-05-2.77396E-05-2.77117E-05 7.03385E-07-8.04912E-19 2.88616E-19
 -1       190 9.28395E-05-2.78749E-05-2.78420E-05 6.40252E-07-5.30957E-19-2.36555E-19
 -1       191 9.32521E-05-2.79992E-05-2.79659E-05 5.63584E-07-5.14681E-19-1.18255E-18
 -1       192 9.36262E-05-2.81096E-05-2.80791E-05 4.85994E-07-2.53887E-19-1.57846E-18
 -1       193 9.39590E-05-2.82060E-05-2.81803E-05 4.16082E-07-9.48966E-20-1.76642E-18
 -1       194 9.42547E-05-2.82901E-05-2.82709E-05 3.59900E-07-4.46496E-19-1.72378E-18
 -1       195 9.45230E-05-2.83650E-05-2.83535E-05 3.21981E-07-6.76916E-19-1.79724E-18
 -1       196 9.47772E-05-2.84349E-05-2.84323E-05 3.06063E-07-6.15717E-19-1.91106E-18
 -1       197 9.50340E-05-2.85048E-05-2.85121E-05 3.15579E-07-4.47773E-20-1.99518E-18
 -1       198 9.53130E-05-2.85804E-05-2.85989E-05 3.53927E-07-6.27514E-20-2.55867E-18
 -1       199 9.56365E-05-2.86685E-05-2.86995E-05 4.24493E-07-5.64979E-19-2.67788E-18
 -1       200 9.60290E-05-2.87764E-05-2.88210E-05 5.30370E-07 5.36797E-20-2.75214E-18
 -1       201 9.65165E-05-2.89124E-05-2.89713E-05 6.73670E-07-2.71964E-19-2.14042E-18
 -1       202 9.71254E-05-2.90851E-05-2.91580E-05 8.54273E-07-2.71683E-19-2.56863E-18
 -1       203 9.78797E-05-2.93031E-05-2.93878E-05 1.06782E-06-2.83764E-20-2.68614E-18
 -1       204 9.87972E-05-2.95741E-05-2.96651E-05 1.30272E-06 4.05087E-19-2.19880E-18
 -1       205 9.98829E-05-2.99034E-05-2.99899E-05 1.53607E-06-1.97385E-19-1.98155E-18
 -1       206 1.01120E-04-3.02912E-05-3.03551E-05 1.72854E-06-1.55081E-19-1.43212E-18
 -1       207 1.02458E-04-3.07294E-05-3.07428E-05 1.81933E-06 5.71864E-19-2.11007E-18
 -1       208 1.03800E-04-3.11957E-05-3.11203E-05 1.72339E-06 5.78586E-19-1.53789E-18
 -1       209 1.04986E-04-3.16473E-05-3.14381E-05 1.33625E-06 5.82636E-19-1.95517E-18
 -1       210 1.05795E-04-3.20135E-05-3.16301E-05 5.54553E-07-7.16158E-19-1.97454E-18
 -1       211 1.05950E-04-3.21901E-05-3.16219E-05-6.77844E-07-3.73477E-19-1.79561E-18
 -1       212 1.05173E-04-3.20464E-05-3.13495E-05-2.29483E-06 2.95337E-20-1.23584E-18
 -1       213 1.03284E-04-3.14574E-05-3.07882E-05-4.02425E-06 2.74194E-19-1.81645E-18
 -1       214 1.00339E-04-3.03754E-05-2.99839E-05-5.35809E-06 2.53729E-19 4.45817E-20
 -1       215 9.67679E-05-2.89270E-05-2.90688E-05-5.66974E-06-2.32923E-19-1.61120E-18
 -1       216 9.33875E-05-2.74684E-05-2.82417E-05-4.52233E-06-2.65560E-19-1.39548E-18
 -1       217 9.11658E-05-2.64917E-05-2.77068E-05-2.03231E-06-9.43869E-19-2.48890E-18
 -1       218 9.07837E-05-2.63715E-05-2.75946E-05 1.02036E-06 6.50951E-19-1.81025E-18
 -1       219 9.22538E-05-2.71176E-05-2.79063E-05 3.53933E-06 1.75164E-19-2.30626E-18
 -1       220 9.49061E-05-2.83655E-05-2.85117E-05 4.71103E-06-1.70524E-18-2.98998E-18
 -1       221 9.77569E-05-2.96128E-05-2.92042E-05 4.38450E-06-1.60744E-18-3.93787E-18
 -1       222 9.99629E-05-3.04838E-05-2.97817E-05 2.99308E-06 1.18588E-18-3.24284E-18
 -1       223 1.01079E-04-3.08384E-05-3.01115E-05 1.19600E-06 5.75293E-19-6.95758E-19
 -1       224 1.01067E-04-3.07237E-05-3.01558E-05-4.40033E-07 1.06895E-18-6.32275E-19
 -1       225 1.00168E-04-3.02782E-05-2.99593E-05-1.56755E-06 2.22597E-18-1.44457E-18
 -1       226 9.87621E-05-2.96601E-05-2.96186E-05-2.03700E-06-2.10275E-19-1.82322E-18
 -1       227 9.72524E-05-2.90096E-05-2.92474E-05-1.82790E-06 8.53631E-19-1.07848E-18
 -1       228 9.59656E-05-2.84620E-05-2.89287E-05-1.03923E-06 2.25814E-20-2.37558E-19
 -1       229 9.94979E-05-2.85536E-05-3.05863E-05 7.21325E-06 2.90797E-18 8.51552E-18
 -1       230 9.44124E-05-2.77895E-05-2.85233E-05 2.74564E-06 2.17698E-18 6.41537E-18
 -1       231 9.20910E-05-2.73994E-05-2.76799E-05 9.31815E-07 1.63601E-18 4.70827E-18
 -1       232 9.11409E-05-2.72364E-05-2.73606E-05 7.00819E-08 1.23191E-18 3.40526E-18
 -1       233 9.09274E-05-2.72288E-05-2.72859E-05-3.57393E-07 8.80265E-19 2.51253E-18
 -1       234 9.11088E-05-2.73141E-05-2.73339E-05-5.57760E-07 4.13480E-19 1.87623E-18
 -1       235 9.14900E-05-2.74464E-05-2.74437E-05-6.30428E-07 3.71977E-19 1.60682E-18
 -1       236 9.19565E-05-2.75966E-05-2.75809E-05-6.29557E-07 3.83446E-19 1.35294E-18
 -1       237 9.24406E-05-2.77471E-05-2.77248E-05-5.87674E-07 7.84583E-19 2.50247E-19
 -1       238 9.29038E-05-2.78881E-05-2.78634E-05-5.25486E-07 5.93295E-19 1.25171E-20
 -1       239 9.33265E-05-2.80147E-05-2.79906E-05-4.56618E-07 8.24143E-19 4.75827E-20
 -1       240 9.37016E-05-2.81255E-05-2.81040E-05-3.90229E-07 2.09157E-19-4.71705E-19
 -1       241 9.40308E-05-2.82216E-05-2.82040E-05-3.32639E-07 3.55915E-19-9.27230E-19
 -1       242 9.43222E-05-2.83055E-05-2.82929E-05-2.88455E-07 1.20430E-19-1.40133E-18
 -1       243 9.45884E-05-2.83812E-05-2.83744E-05-2.61408E-07-1.38971E-19-1.31322E-18
 -1       244 9.48461E-05-2.84536E-05-2.84537E-05-2.55010E-07-2.01761E-20-1.82737E-18
 -1       245 9.51159E-05-2.85287E-05-2.85369E-05-2.73098E-07 8.24255E-19-1.21295E-18
 -1       246 9.54227E-05-2.86138E-05-2.86316E-05-3.20303E-07-9.54737E-20-1.66420E-18
 -1       247 9.57963E-05-2.87175E-05-2.87470E-05-4.02481E-07-4.67332E-19-1.24991E-18
 -1       248 9.62727E-05-2.88501E-05-2.88940E-05-5.27079E-07-3.50879E-19-1.00129E-18
 -1       249 9.68950E-05-2.90241E-05-2.90858E-05-7.03426E-07 2.43650E-20-1.93471E-18
 -1       250 9.77151E-05-2.92544E-05-2.93381E-05-9.42818E-07 1.33302E-18-1.64820E-18
 -1       251 9.87942E-05-2.95591E-05-2.96697E-05-1.25813E-06 2.67719E-19-2.42057E-18
 -1       252 1.00203E-04-2.99593E-05-3.01018E-05-1.66238E-06-1.68233E-18-2.46775E-18
 -1       253 1.02018E-04-3.04790E-05-3.06574E-05-2.16513E-06-9.43499E-20-1.18131E-18
 -1       254 1.04315E-04-3.11445E-05-3.13580E-05-2.76469E-06 2.65331E-19-8.97191E-19
 -1       255 1.07153E-04-3.19812E-05-3.22176E-05-3.43277E-06 1.19706E-18-7.22273E-19
 -1       256 1.10535E-04-3.30079E-05-3.32307E-05-4.08709E-06 4.81891E-20-1.10566E-18
 -1       257 1.14362E-04-3.42247E-05-3.43528E-05-4.54859E-06-4.23833E-19-1.05415E-18
 -1       258 1.18340E-04-3.55895E-05-3.54730E-05-4.49032E-06-8.70459E-20-7.32730E-19
 -1       259 1.21880E-04-3.69722E-05-3.63905E-05-3.41717E-06-9.57369E-19-5.94200E-19
 -1       260 1.24036E-04-3.80794E-05-3.68216E-05-7.80151E-07 8.50156E-19 2.01881E-19
 -1       261 1.23595E-04-3.83677E-05-3.64866E-05 3.59889E-06 9.37361E-20 3.63476E-19
 -1       262 1.19570E-04-3.71095E-05-3.53001E-05 8.71706E-06-2.93841E-19 4.90631E-19
 -1       263 1.12279E-04-3.39802E-05-3.35708E-05 1.18729E-05 1.11179E-18-5.41254E-19
 -1       264 1.04307E-04-2.99481E-05-3.19821E-05 9.82919E-06-1.52294E-19-1.96940E-18
 -1       265 1.00020E-04-2.75705E-05-3.12211E-05 2.20376E-06 3.69306E-19-1.95494E-18
 -1       266 1.02124E-04-2.87165E-05-3.15796E-05-6.54061E-06 6.52679E-19-1.65171E-19
 -1       267 1.08857E-04-3.23271E-05-3.28132E-05-1.08562E-05 2.86130E-19 5.87272E-19
 -1       268 1.15804E-04-3.57068E-05-3.42816E-05-9.27718E-06-3.92798E-19 2.58954E-19
 -1       269 1.19705E-04-3.72504E-05-3.52939E-05-4.44130E-06-1.13304E-18-1.95440E-18
 -1       270 1.19831E-04-3.70213E-05-3.54729E-05 4.89246E-07-6.01651E-19-1.45840E-18
 -1       271 1.17015E-04-3.57174E-05-3.48464E-05 3.90078E-06 2.20520E-18-2.03553E-18
 -1       272 1.12534E-04-3.39806E-05-3.36772E-05 5.56575E-06 9.25831E-19-2.64649E-18
 -1       273 1.07506E-04-3.22003E-05-3.22833E-05 5.86352E-06 1.34019E-18-2.97007E-18
 -1       274 1.02754E-04-3.05765E-05-3.09426E-05 5.19180E-06 2.07846E-19-2.45451E-18
 -1       275 9.88755E-05-2.92094E-05-2.98650E-05 3.73231E-06-2.65280E-19-2.01125E-18
 -1       276 9.62305E-05-2.82739E-05-2.91223E-05 1.62983E-06-1.12951E-18-1.04090E-18
 -1       277 9.53769E-05-2.65488E-05-2.94907E-05 2.95060E-06-7.61301E-19 3.14476E-18
 -1       278 9.41449E-05-2.35306E-05-3.02609E-05 4.79885E-06 8.51596E-19 6.65513E-19
 -1       279 9.26863E-05-1.98513E-05-3.12157E-05 5.59146E-06-1.05338E-19-1.79552E-18
 -1       280 9.12629E-05-1.61076E-05-3.22149E-05 5.27310E-06-1.28092E-18 1.14121E-18
 -1       281 9.00859E-05-1.29701E-05-3.30607E-05 4.02732E-06-9.94574E-19-1.67311E-18
 -1       282 8.93186E-05-1.08761E-05-3.36328E-05 2.08539E-06-1.04071E-18-1.56400E-19
 -1       283 8.91161E-05-1.02309E-05-3.38235E-05-1.30016E-07 2.65411E-19-5.12432E-19
 -1       284 8.94821E-05-1.10687E-05-3.36200E-05-2.16183E-06 1.80464E-18 1.72619E-18
 -1       285 9.02962E-05-1.31330E-05-3.30808E-05-3.64207E-06-2.30438E-19 3.23452E-19
 -1       286 9.13609E-05-1.59723E-05-3.23156E-05-4.39143E-06-7.08470E-19-4.30240E-18
 -1       287 9.24532E-05-1.90317E-05-3.14674E-05-4.44254E-06-3.36102E-19-1.63132E-18
 -1       288 9.34617E-05-2.19975E-05-3.06244E-05-3.96162E-06 5.71702E-19 4.35761E-18
 -1       289 9.42825E-05-2.45201E-05-2.98923E-05-3.14632E-06-2.31172E-19 2.22204E-18
 -1       290 9.49065E-05-2.64551E-05-2.93299E-05-2.12380E-06-3.74599E-19-1.63295E-19
 -1       291 9.54798E-05-2.75882E-05-2.90877E-05-1.71951E-06-3.37075E-19-1.11028E-18
 -1       292 1.28748E-05-5.06117E-05 1.27846E-05 6.14404E-06 1.16933E-18 6.42909E-18
 -1       293 2.60713E-05-4.78270E-05 6.13584E-06 1.91651E-05 5.21793E-18-1.70825E-18
 -1       294 5.27455E-05-3.93701E-05-7.77161E-06 3.31944E-05 3.12280E-18 2.64910E-18
 -1       295 9.91458E-05-3.82370E-05-2.64605E-05 4.35636E-05 1.71545E-18 2.16163E-18
 -1       296 1.42701E-04-3.49478E-05-4.50507E-05 4.41121E-05 1.28760E-18 1.68348E-18
 -1       297 1.83711E-04-3.52410E-05-6.08091E-05 3.84013E-05 1.90742E-18 2.31896E-18
 -1       298 2.11734E-04-3.76978E-05-7.07540E-05 2.13254E-05 3.13360E-18 2.27418E-18
 -1       299 2.11524E-04-3.42550E-05-7.25644E-05-8.52877E-07 5.23615E-18-2.41156E-18
 -1       300 1.95169E-04-3.43459E-05-6.63269E-05-1.71596E-05 3.91710E-18-4.79802E-18
 -1       301 1.67941E-04-3.53177E-05-5.47633E-05-3.97482E-05 4.24893E-18-6.29896E-18
 -1       302 1.26631E-04-4.01078E-05-3.67878E-05-3.94736E-05 4.71628E-18-4.67816E-18
 -1       303 7.76074E-05-3.80713E-05-1.80513E-05-3.91630E-05 5.86295E-18-4.14072E-18
 -1       304 4.03009E-05-4.18388E-05-1.85176E-06-2.62336E-05 5.74860E-18-5.40950E-18
 -1       305 1.93277E-05-4.54840E-05 8.52107E-06-1.58036E-05 4.02224E-18-3.92367E-18
 -1       306 1.15804E-05-5.19809E-05 1.37164E-05 4.44158E-07 7.35966E-19-4.27053E-18
 -1       307 1.60480E-05-4.90561E-05 1.08070E-05 1.26574E-05-1.76098E-18-5.66496E-18
 -1       308 3.43546E-05-4.14282E-05 6.96138E-07 2.77205E-05-3.90419E-18-4.84290E-18
 -1       309 6.26178E-05-3.34624E-05-1.38102E-05 3.87382E-05-5.68698E-18-7.39174E-18
 -1       310 1.01555E-04-2.91096E-05-3.09363E-05 4.73111E-05-6.72057E-18-7.40667E-18
 -1       311 1.44756E-04-2.95363E-05-4.78715E-05 4.74357E-05-7.31572E-18-6.10414E-18
 -1       312 1.79949E-04-3.19547E-05-6.11373E-05 3.10362E-05-4.74116E-18-4.85604E-18
 -1       313 2.08193E-04-3.62451E-05-7.02691E-05 1.70242E-05-2.71601E-18-4.25909E-18
 -1       314 2.09126E-04-3.43319E-05-7.15649E-05-5.91189E-06-3.69423E-18-2.81980E-18
 -1       315 1.91849E-04-3.20250E-05-6.58347E-05-2.42703E-05-4.38551E-18-2.58112E-18
 -1       316 1.64586E-04-3.19131E-05-5.48308E-05-4.12100E-05-4.36029E-18 5.63277E-19
 -1       317 1.23750E-04-2.94807E-05-3.95073E-05-4.89426E-05-5.24546E-18 4.17587E-18
 -1       318 8.24790E-05-3.21973E-05-2.21495E-05-4.40742E-05-3.62297E-18 6.71528E-18
 -1       319 4.78928E-05-3.91027E-05-5.80475E-06-3.27730E-05-5.98683E-18 9.58471E-19
 -1       320 2.49544E-05-4.74459E-05 6.55459E-06-2.01803E-05-3.00464E-18 3.73309E-18
 -1       321 1.34668E-05-5.25242E-05 1.31188E-05-7.32177E-06-1.70614E-18 5.16785E-18
 -1       322 9.16479E-05-1.43946E-05-3.31716E-05-1.30700E-05-3.78148E-18-2.01581E-18
 -1       323 9.57052E-05-1.91090E-05-3.28899E-05-1.46341E-05-4.08150E-18 3.76685E-19
 -1       324 8.80086E-05-1.03790E-05-3.33231E-05-8.15785E-06-2.31351E-18-4.42508E-18
 -1       325 8.71941E-05-9.45681E-06-3.33641E-05-5.71984E-06-1.58229E-18-4.93814E-18
 -1       326 8.67362E-05-8.92777E-06-3.33915E-05-3.36803E-06-8.02429E-19-5.03620E-18
 -1       327 8.65315E-05-8.68775E-06-3.34051E-05-1.07238E-06-8.50519E-20-5.13266E-18
 -1       328 8.65395E-05-8.69691E-06-3.34047E-05 1.20435E-06 5.64646E-19-5.20262E-18
 -1       329 8.67626E-05-8.95772E-06-3.33901E-05 3.50165E-06 1.32228E-18-5.08545E-18
 -1       330 8.72334E-05-9.50137E-06-3.33624E-05 5.81751E-06 2.03940E-18-4.78749E-18
 -1       331 8.80704E-05-1.04520E-05-3.33204E-05 8.25759E-06 2.83593E-18-4.15265E-18
 -1       332 8.94831E-05-1.20340E-05-3.32591E-05 1.07669E-05 3.52099E-18-3.23485E-18
 -1       333 9.19009E-05-1.47222E-05-3.31578E-05 1.31725E-05 4.10653E-18-1.70962E-18
 -1       334 9.58024E-05-1.94567E-05-3.28274E-05 1.43791E-05 4.27429E-18 1.31502E-18
 -1       335 9.87887E-05-2.44435E-05-3.19504E-05 1.19008E-05 3.85681E-18 4.12532E-18
 -1       336 9.63869E-05-2.68115E-05-2.97886E-05 5.74419E-06 3.07955E-18 3.01909E-18
 -1       337 9.64298E-05-2.60245E-05-3.01300E-05-6.35001E-06-3.12481E-18 8.96077E-19
 -1       338 9.49242E-05-2.70405E-05-2.90690E-05-2.84058E-06-2.43086E-18 6.02695E-19
 -1       339 9.39373E-05-2.74237E-05-2.84915E-05-9.25995E-07-1.68740E-18 3.41145E-19
 -1       340 9.34165E-05-2.76365E-05-2.81846E-05 1.32475E-07-1.25667E-18-9.17521E-20
 -1       341 9.32234E-05-2.77896E-05-2.80402E-05 6.96562E-07-8.67782E-19-4.21093E-19
 -1       342 9.32392E-05-2.79183E-05-2.79937E-05 9.64199E-07-7.92583E-19-5.52407E-19
 -1       343 9.33777E-05-2.80321E-05-2.80052E-05 1.05310E-06-9.11821E-19-7.45513E-19
 -1       344 9.35801E-05-2.81321E-05-2.80495E-05 1.03668E-06-7.76915E-19-9.72358E-19
 -1       345 9.38081E-05-2.82181E-05-2.81106E-05 9.62866E-07-9.10514E-19-9.01057E-19
 -1       346 9.40391E-05-2.82905E-05-2.81786E-05 8.63784E-07-8.25591E-19-1.15188E-18
 -1       347 9.42608E-05-2.83502E-05-2.82480E-05 7.61379E-07-4.99922E-19-1.65448E-18
 -1       348 9.44691E-05-2.83988E-05-2.83164E-05 6.70980E-07-7.08227E-20-1.77530E-18
 -1       349 9.46652E-05-2.84385E-05-2.83832E-05 6.03687E-07-5.71364E-19-1.57693E-18
 -1       350 9.48546E-05-2.84719E-05-2.84499E-05 5.68044E-07-5.92653E-19-1.22958E-18
 -1       351 9.50461E-05-2.85020E-05-2.85188E-05 5.71182E-07-7.13350E-19-1.16517E-18
 -1       352 9.52511E-05-2.85324E-05-2.85933E-05 6.19546E-07-3.18681E-19-1.30722E-18
 -1       353 9.54832E-05-2.85672E-05-2.86775E-05 7.19184E-07-3.65903E-19-1.03267E-18
 -1       354 9.57581E-05-2.86116E-05-2.87760E-05 8.75579E-07-2.83057E-19-1.15138E-18
 -1       355 9.60931E-05-2.86717E-05-2.88934E-05 1.09288E-06 1.47396E-19-1.46300E-18
 -1       356 9.65066E-05-2.87556E-05-2.90344E-05 1.37237E-06 1.07428E-19-1.54461E-18
 -1       357 9.70175E-05-2.88732E-05-2.92027E-05 1.70997E-06 3.73968E-20-4.36176E-19
 -1       358 9.76434E-05-2.90377E-05-2.94004E-05 2.09244E-06 3.05666E-19-3.35422E-19
 -1       359 9.83989E-05-2.92652E-05-2.96269E-05 2.49209E-06 4.22138E-19-5.97148E-19
 -1       360 9.92924E-05-2.95752E-05-2.98776E-05 2.86014E-06 6.11232E-19-1.26329E-18
 -1       361 1.00322E-04-2.99897E-05-3.01423E-05 3.11928E-06-3.68987E-20-6.16551E-19
 -1       362 1.01467E-04-3.05284E-05-3.04043E-05 3.15775E-06 4.42085E-20-1.13636E-18
 -1       363 1.02681E-04-3.11985E-05-3.06405E-05 2.82968E-06 7.36352E-20-1.76176E-18
 -1       364 1.03877E-04-3.19751E-05-3.08235E-05 1.97065E-06-4.00314E-21-1.87065E-18
 -1       365 1.04905E-04-3.27684E-05-3.09273E-05 4.41575E-07-3.73808E-19-1.41941E-18
 -1       366 1.05542E-04-3.33871E-05-3.09364E-05-1.78512E-06-2.54634E-19-7.65897E-19
 -1       367 1.05494E-04-3.35259E-05-3.08550E-05-4.49752E-06 9.10797E-19 3.21666E-19
 -1       368 1.04484E-04-3.28368E-05-3.07123E-05-7.12033E-06 5.65972E-19 2.52728E-19
 -1       369 1.02438E-04-3.11413E-05-3.05540E-05-8.72015E-06-9.43624E-19 1.58590E-19
 -1       370 9.97329E-05-2.87322E-05-3.04191E-05-8.30678E-06-7.74249E-19-6.13035E-19
 -1       371 9.72683E-05-2.64893E-05-3.03189E-05-5.45858E-06-6.56591E-19-4.22889E-19
 -1       372 9.60940E-05-2.54982E-05-3.02385E-05-8.78700E-07 4.15896E-19 2.09739E-18
 -1       373 9.67077E-05-2.62851E-05-3.01659E-05 3.73442E-06 1.75857E-19 1.15153E-19
 -1       374 9.86577E-05-2.83781E-05-3.01100E-05 6.64629E-06-9.39342E-19-2.29801E-19
 -1       375 1.00895E-04-3.06926E-05-3.00851E-05 7.08125E-06-1.60525E-18 1.25735E-18
 -1       376 1.02476E-04-3.22960E-05-3.00837E-05 5.42748E-06-5.05824E-19 1.87829E-18
 -1       377 1.02989E-04-3.28472E-05-3.00721E-05 2.70858E-06 1.05041E-18-1.99519E-19
 -1       378 1.02498E-04-3.24954E-05-3.00137E-05-6.54727E-08 1.32396E-18 5.43348E-19
 -1       379 1.01301E-04-3.15785E-05-2.98905E-05-2.21706E-06 1.52192E-18 7.29091E-19
 -1       380 9.97241E-05-3.04063E-05-2.97125E-05-3.42272E-06 1.93978E-19 3.71816E-19
 -1       381 9.80459E-05-2.91904E-05-2.95098E-05-3.60947E-06 6.37564E-19 8.07148E-19
 -1       382 9.66618E-05-2.82574E-05-2.93092E-05-2.92653E-06 7.76986E-19 5.42895E-19
 -1       383 9.43659E-05-2.73400E-05-2.86872E-05 2.47211E-06 2.40763E-18 2.25929E-18
 -1       384 9.31582E-05-2.74596E-05-2.81347E-05 7.47660E-07 1.75443E-18 1.46344E-18
 -1       385 9.26025E-05-2.75366E-05-2.78755E-05-1.72805E-07 1.32131E-18 9.36263E-19
 -1       386 9.24587E-05-2.76285E-05-2.77802E-05-6.47935E-07 7.40765E-19 3.39249E-19
 -1       387 9.25592E-05-2.77371E-05-2.77793E-05-8.65504E-07 5.12050E-19-7.93039E-20
 -1       388 9.27927E-05-2.78525E-05-2.78311E-05-9.30704E-07 6.42550E-19-3.30564E-19
 -1       389 9.30881E-05-2.79657E-05-2.79098E-05-9.07281E-07 1.24305E-18-4.60804E-19
 -1       390 9.34012E-05-2.80708E-05-2.79993E-05-8.35957E-07 7.54883E-19-5.03582E-19
 -1       391 9.37064E-05-2.81645E-05-2.80901E-05-7.43657E-07 7.48105E-19-5.89223E-19
 -1       392 9.39910E-05-2.82458E-05-2.81772E-05-6.48609E-07 7.42777E-19-5.79234E-19
 -1       393 9.42512E-05-2.83155E-05-2.82587E-05-5.63476E-07 9.47600E-19-1.27385E-18
 -1       394 9.44898E-05-2.83755E-05-2.83351E-05-4.97473E-07 2.42761E-19-1.37059E-18
 -1       395 9.47144E-05-2.84285E-05-2.84084E-05-4.57910E-07 2.59761E-20-1.38893E-18
 -1       396 9.49366E-05-2.84780E-05-2.84822E-05-4.51376E-07-6.24802E-20-1.53336E-18
 -1       397 9.51716E-05-2.85280E-05-2.85610E-05-4.84683E-07 7.12378E-19-1.39980E-18
 -1       398 9.54378E-05-2.85836E-05-2.86509E-05-5.65663E-07 4.31543E-19-1.32454E-18
 -1       399 9.57579E-05-2.86503E-05-2.87590E-05-7.03832E-07-7.96931E-19-1.76902E-18
 -1       400 9.61586E-05-2.87348E-05-2.88939E-05-9.10938E-07 2.31667E-19-2.20574E-18
 -1       401 9.66714E-05-2.88452E-05-2.90656E-05-1.20130E-06 1.54892E-19-2.63952E-18
 -1       402 9.73332E-05-2.89911E-05-2.92859E-05-1.59178E-06 1.19360E-18-2.43322E-18
 -1       403 9.81866E-05-2.91844E-05-2.95678E-05-2.10097E-06 6.17040E-19-2.45777E-18
 -1       404 9.92793E-05-2.94400E-05-2.99256E-05-2.74675E-06-1.58758E-18-1.89776E-18
 -1       405 1.00662E-04-2.97781E-05-3.03727E-05-3.54076E-06-5.96336E-19-2.26105E-18
 -1       406 1.02388E-04-3.02261E-05-3.09201E-05-4.47711E-06 2.74161E-19-1.83479E-18
 -1       407 1.04503E-04-3.08250E-05-3.15706E-05-5.51137E-06 9.41028E-19-1.30829E-18
 -1       408 1.07037E-04-3.16358E-05-3.23124E-05-6.52461E-06 3.38580E-19-3.96013E-20
 -1       409 1.09993E-04-3.27475E-05-3.31087E-05-7.26918E-06-3.69820E-19-1.41746E-19
 -1       410 1.13314E-04-3.42691E-05-3.38888E-05-7.30442E-06-2.94423E-19 4.30594E-19
 -1       411 1.16833E-04-3.62704E-05-3.45496E-05-5.96721E-06-7.36275E-19-8.29366E-19
 -1       412 1.20158E-04-3.86053E-05-3.49825E-05-2.49187E-06 2.41093E-19 6.43944E-20
 -1       413 1.22479E-04-4.05555E-05-3.51461E-05 3.50005E-06 1.52334E-20 1.64539E-18
 -1       414 1.22481E-04-4.05678E-05-3.51374E-05 1.09482E-05 1.83402E-19 1.77871E-18
 -1       415 1.19022E-04-3.69918E-05-3.51979E-05 1.62900E-05 1.59990E-18 2.61881E-18
 -1       416 1.12880E-04-3.02974E-05-3.54820E-05 1.46872E-05 1.03904E-18 1.16056E-18
 -1       417 1.08400E-04-2.53582E-05-3.57139E-05 4.44721E-06-5.60802E-19-1.13119E-19
 -1       418 1.09554E-04-2.68624E-05-3.55447E-05-8.37023E-06 1.99820E-19-3.96253E-20
 -1       419 1.14861E-04-3.31626E-05-3.50647E-05-1.50024E-05-5.65970E-19 3.70048E-20
 -1       420 1.19411E-04-3.86253E-05-3.46516E-05-1.27898E-05-1.17082E-19 9.65465E-19
 -1       421 1.20384E-04-4.02339E-05-3.43839E-05-5.72465E-06-7.68540E-19 9.72764E-19
 -1       422 1.18250E-04-3.88773E-05-3.40527E-05 1.46877E-06-4.84784E-19-8.60135E-19
 -1       423 1.14423E-04-3.63321E-05-3.34999E-05 6.46002E-06 1.73601E-18-1.50389E-18
 -1       424 1.10054E-04-3.37699E-05-3.27129E-05 8.91190E-06 1.31008E-18-9.98885E-19
 -1       425 1.05778E-04-3.15931E-05-3.17988E-05 9.36406E-06 1.25917E-18-4.48567E-19
 -1       426 1.01920E-04-2.98014E-05-3.09033E-05 8.39761E-06-3.03701E-19 9.84550E-19
 -1       427 9.86299E-05-2.82691E-05-3.01456E-05 6.36212E-06-1.82099E-18 3.68395E-18
 -1       428 9.68242E-05-2.72985E-05-2.97873E-05 4.80146E-06-1.79135E-18 4.74566E-18
 -1       429 9.22836E-05-1.99704E-05-3.09938E-05 9.14443E-06-1.08324E-18-2.85451E-19
 -1       430 9.43944E-05-2.30900E-05-3.05486E-05 8.89300E-06-8.87956E-19-1.75524E-18
 -1       431 9.57932E-05-2.52952E-05-3.01989E-05 7.23013E-06-1.14891E-18 2.49856E-18
 -1       432 9.04156E-05-1.71585E-05-3.14061E-05 7.82336E-06-1.65107E-18-1.84099E-18
 -1       433 8.90102E-05-1.50056E-05-3.17317E-05 5.10022E-06 4.53679E-19 1.24909E-18
 -1       434 8.84010E-05-1.39897E-05-3.19081E-05 1.54655E-06 1.79645E-18-6.40512E-19
 -1       435 8.86982E-05-1.42875E-05-3.19070E-05-2.08645E-06 3.22220E-19 1.76631E-19
 -1       436 8.97621E-05-1.57590E-05-3.17289E-05-5.06720E-06-1.16395E-18 2.40751E-19
 -1       437 9.12561E-05-1.80059E-05-3.14011E-05-6.91678E-06-1.24019E-20-1.23986E-18
 -1       438 9.27710E-05-2.04941E-05-3.09782E-05-7.52539E-06 1.87464E-18-2.48442E-18
 -1       439 9.40808E-05-2.29011E-05-3.05028E-05-7.10900E-06 2.25248E-18 2.55138E-18
 -1       440 9.50487E-05-2.49385E-05-3.00399E-05-6.00140E-06 7.60147E-19 2.42298E-18
 -1       441 9.56870E-05-2.65169E-05-2.96336E-05-4.54227E-06-3.83665E-19-7.67421E-19
 -1       442 5.76059E-05-4.41969E-05-6.03386E-06 4.22025E-05 1.78470E-18-2.74703E-19
 -1       443 1.20036E-05-2.61233E-05 5.66054E-06-1.76308E-06-8.88048E-19 7.05070E-18
 -1       444 2.73497E-05-2.90809E-05 7.90416E-07 2.81103E-05-5.86253E-19 1.57559E-18
 -1       445 9.84155E-05-5.53841E-05-1.86756E-05 4.19488E-05 9.73770E-19-5.56924E-20
 -1       446 1.39814E-04-5.81003E-05-3.49888E-05 2.42481E-05 4.31087E-19-8.46609E-19
 -1       447 8.93409E-05-1.18600E-05-3.32798E-05-1.06862E-05-3.09231E-18-3.57381E-18
 -1       448 1.63609E-04-2.75699E-05-5.81293E-05-2.45134E-06 1.73854E-19-1.99201E-18
 -1       449 1.65579E-04-1.65712E-05-6.35701E-05-5.16637E-07 4.88992E-18-2.17748E-18
 -1       450 1.59700E-04-1.70713E-05-6.11345E-05 6.42390E-06 5.28337E-18-7.46448E-20
 -1       451 1.62937E-04-3.63005E-05-5.41147E-05 1.49667E-06 3.70450E-18-3.70143E-18
 -1       452 1.52509E-04-5.16106E-05-4.31252E-05-1.01596E-05 1.72668E-18-4.29499E-18
 -1       453 1.24998E-04-6.14654E-05-2.73230E-05-2.96191E-05 5.95147E-19-2.12743E-18
 -1       454 8.25930E-05-5.14862E-05-1.35136E-05-4.18171E-05 1.09892E-18-3.88666E-19
 -1       455 4.61172E-05-3.83434E-05-3.50652E-06-3.70744E-05 1.45880E-18-3.11549E-18
 -1       456 1.51676E-05-2.58240E-05 4.31933E-06-1.29837E-05 2.91168E-21-5.67607E-18
 -1       457 1.28096E-05-2.60541E-05 5.25681E-06 1.23991E-05-9.29619E-19-5.42154E-18
 -1       458 3.42195E-05-3.18481E-05-1.05562E-06 3.58471E-05 1.23339E-18-4.75429E-18
 -1       459 6.98821E-05-4.56223E-05-1.05960E-05 4.48341E-05 3.53319E-19-5.05718E-18
 -1       460 1.09861E-04-5.44539E-05-2.37638E-05 3.91078E-05-1.79147E-19-2.93042E-18
 -1       461 1.39032E-04-5.23107E-05-3.71534E-05 2.19154E-05-2.46704E-18-9.88699E-19
 -1       462 1.52073E-04-4.02516E-05-4.79689E-05 8.34154E-06-3.86144E-18-2.21880E-18
 -1       463 1.60454E-04-2.11190E-05-5.94535E-05-2.49177E-07-3.92579E-18-2.66911E-18
 -1       464 1.63084E-04-1.41226E-05-6.35013E-05-6.90608E-07-4.05718E-18-1.14686E-18
 -1       465 1.56462E-04-1.46457E-05-6.08005E-05 1.34388E-06-3.41852E-18 9.11090E-20
 -1       466 1.55973E-04-3.06325E-05-5.37275E-05-1.81540E-06-2.80876E-18-2.61490E-18
 -1       467 1.48465E-04-4.67516E-05-4.35177E-05-1.74464E-05-2.81116E-18-2.78092E-18
 -1       468 1.27447E-04-5.61549E-05-3.05268E-05-3.22318E-05-9.61806E-19 2.39922E-19
 -1       469 9.02461E-05-5.19071E-05-1.65946E-05-4.46544E-05-2.00726E-18 2.51905E-18
 -1       470 5.23064E-05-4.20319E-05-4.69703E-06-4.24558E-05-2.42040E-19 3.35981E-18
 -1       471 2.60890E-05-2.75931E-05 7.72024E-07-2.84096E-05-4.97155E-19 1.99275E-18
 -1       472 1.59215E-04-4.45662E-05-4.89749E-05 8.49329E-06-7.35132E-19-1.32402E-18
 -1       473 3.68361E-05-2.61776E-05-4.15968E-06-3.04425E-05-2.39181E-19-3.65971E-18
 -1       474 9.58167E-05-2.51478E-05-3.02725E-05 6.02201E-06 3.17614E-18-7.16818E-20
 -1       475 8.95461E-05-1.34054E-05-3.26512E-05-3.92656E-06-1.10200E-18-4.42881E-18
 -1       476 9.02509E-05-1.43678E-05-3.25421E-05-5.88836E-06-1.73139E-18-4.16657E-18
 -1       477 8.90485E-05-1.27242E-05-3.27282E-05 5.54499E-08 1.77973E-19-4.64011E-18
 -1       478 8.91834E-05-1.29079E-05-3.27075E-05 2.04641E-06 8.48116E-19-4.61281E-18
 -1       479 8.95776E-05-1.34455E-05-3.26472E-05 4.00034E-06 1.66534E-18-4.35097E-18
 -1       480 9.03000E-05-1.44317E-05-3.25360E-05 5.95553E-06 2.46981E-18-3.99012E-18
 -1       481 9.14454E-05-1.60092E-05-3.23529E-05 7.78380E-06 3.04807E-18-3.23892E-18
 -1       482 9.32321E-05-1.84796E-05-3.20570E-05 9.29958E-06 3.56629E-18-2.33121E-18
 -1       483 9.51090E-05-2.65774E-05-2.93527E-05 2.87869E-06 2.50153E-18-4.32472E-19
 -1       484 9.54611E-05-2.44140E-05-3.04357E-05-5.82010E-06-2.76649E-18-9.50479E-19
 -1       485 1.48411E-04-5.63993E-05-3.96582E-05 7.48570E-07-1.19538E-18-3.09024E-18
 -1       486 9.53138E-05-2.62880E-05-2.95810E-05-2.90943E-06-2.11437E-18-8.16745E-19
 -1       487 9.49117E-05-2.71586E-05-2.90329E-05-1.03713E-06-1.66704E-18-8.82949E-19
 -1       488 9.46379E-05-2.76924E-05-2.86891E-05 8.62207E-08-1.32007E-18-9.48748E-19
 -1       489 9.44811E-05-2.80176E-05-2.84837E-05 7.21480E-07-1.02803E-18-1.24368E-18
 -1       490 9.44262E-05-2.82275E-05-2.83708E-05 1.04144E-06-1.03893E-18-1.47280E-18
 -1       491 9.44429E-05-2.83661E-05-2.83188E-05 1.16134E-06-8.69908E-19-1.74937E-18
 -1       492 9.45044E-05-2.84570E-05-2.83063E-05 1.16016E-06-6.90001E-19-1.62459E-18
 -1       493 9.45909E-05-2.85141E-05-2.83190E-05 1.09222E-06-8.46226E-19-1.38986E-18
 -1       494 9.46891E-05-2.85464E-05-2.83472E-05 9.95244E-07-8.18300E-19-1.24261E-18
 -1       495 9.47913E-05-2.85601E-05-2.83851E-05 8.95768E-07-4.33539E-19-1.09284E-18
 -1       496 9.48941E-05-2.85596E-05-2.84293E-05 8.12827E-07-1.45022E-19-1.61320E-18
 -1       497 9.49977E-05-2.85483E-05-2.84784E-05 7.60599E-07-4.88865E-19-1.07746E-18
 -1       498 9.51044E-05-2.85286E-05-2.85325E-05 7.50285E-07-4.58008E-19-8.32956E-19
 -1       499 9.52190E-05-2.85028E-05-2.85925E-05 7.91379E-07-6.20802E-19-3.62316E-19
 -1       500 9.53479E-05-2.84732E-05-2.86603E-05 8.92402E-07-1.31577E-19-5.94144E-19
 -1       501 9.54992E-05-2.84429E-05-2.87380E-05 1.06109E-06-7.49339E-19-1.12615E-18
 -1       502 9.56828E-05-2.84164E-05-2.88279E-05 1.30393E-06-2.91097E-19-6.48647E-19
 -1       503 9.59107E-05-2.84009E-05-2.89321E-05 1.62499E-06 2.16930E-19-1.11443E-18
 -1       504 9.61969E-05-2.84074E-05-2.90518E-05 2.02375E-06 5.63044E-19-9.92892E-19
 -1       505 9.65588E-05-2.84531E-05-2.91872E-05 2.49174E-06 3.31455E-19-5.67832E-19
 -1       506 9.70177E-05-2.85632E-05-2.93367E-05 3.00777E-06-1.43165E-19-7.47138E-19
 -1       507 9.75999E-05-2.87735E-05-2.94963E-05 3.53153E-06-2.87590E-19-8.32760E-19
 -1       508 9.83384E-05-2.91322E-05-2.96594E-05 3.99580E-06 7.29170E-20-1.00907E-18
 -1       509 9.92718E-05-2.96983E-05-2.98176E-05 4.29795E-06 1.58113E-19-1.43383E-18
 -1       510 1.00441E-04-3.05324E-05-2.99622E-05 4.29338E-06-6.74782E-19-1.62429E-18
 -1       511 1.01873E-04-3.16736E-05-3.00884E-05 3.79590E-06 1.61428E-20-1.08559E-18
 -1       512 1.03550E-04-3.30909E-05-3.02016E-05 2.59594E-06 1.40147E-19-8.14050E-19
 -1       513 1.05351E-04-3.46076E-05-3.03252E-05 5.15547E-07-1.31595E-19 2.09952E-19
 -1       514 1.06976E-04-3.58141E-05-3.05048E-05-2.47335E-06 8.26249E-19 3.10157E-19
 -1       515 1.07908E-04-3.60474E-05-3.08014E-05-6.05121E-06 6.67140E-19-3.21009E-19
 -1       516 1.07542E-04-3.45933E-05-3.12647E-05-9.33545E-06 3.15902E-19 2.16342E-19
 -1       517 1.05599E-04-3.12211E-05-3.18766E-05-1.08803E-05-1.04974E-18 1.24950E-18
 -1       518 1.02697E-04-2.68815E-05-3.24946E-05-9.28235E-06-1.47883E-19 2.65149E-18
 -1       519 1.00393E-04-2.36773E-05-3.28808E-05-4.35167E-06 2.25954E-19 1.99509E-18
 -1       520 1.00192E-04-2.35650E-05-3.28425E-05 2.09175E-06-8.49169E-19 2.60485E-19
 -1       521 1.02151E-04-2.66195E-05-3.23718E-05 7.13616E-06-4.34127E-19 1.24994E-18
 -1       522 1.04822E-04-3.09531E-05-3.16585E-05 8.84350E-06-8.11535E-19 1.26766E-18
 -1       523 1.06585E-04-3.43856E-05-3.09448E-05 7.28043E-06-9.93073E-19 1.26203E-18
 -1       524 1.06729E-04-3.58381E-05-3.03859E-05 3.88460E-06-1.78987E-18 5.88548E-19
 -1       525 1.05499E-04-3.54748E-05-3.00171E-05 1.79267E-07 8.13439E-19 1.29650E-18
 -1       526 1.03487E-04-3.39706E-05-2.97986E-05-2.83395E-06 5.82348E-19 2.57269E-19
 -1       527 1.01221E-04-3.19801E-05-2.96781E-05-4.71640E-06 1.24529E-18-2.25412E-19
 -1       528 9.90287E-05-2.99265E-05-2.96148E-05-5.36650E-06 7.71991E-19-3.17894E-20
 -1       529 9.41375E-05-2.76850E-05-2.84761E-05-1.14341E-07 1.42818E-18-9.10495E-19
 -1       530 9.39608E-05-2.79310E-05-2.82972E-05-7.24179E-07 8.97587E-19-1.12716E-18
 -1       531 9.39308E-05-2.81013E-05-2.82123E-05-1.02332E-06 7.76367E-19-1.43185E-18
 -1       532 9.39952E-05-2.82259E-05-2.81870E-05-1.12948E-06 9.43809E-19-1.40577E-18
 -1       533 9.41140E-05-2.83187E-05-2.81984E-05-1.12004E-06 8.93847E-19-1.14611E-18
 -1       534 9.42592E-05-2.83874E-05-2.82313E-05-1.04713E-06 8.83309E-19-1.31474E-18
 -1       535 9.44135E-05-2.84371E-05-2.82761E-05-9.46460E-07 7.84341E-19-1.64573E-18
 -1       536 9.45673E-05-2.84714E-05-2.83273E-05-8.42922E-07 9.50820E-19-1.80041E-18
 -1       537 9.47169E-05-2.84934E-05-2.83819E-05-7.54349E-07 3.44627E-19-1.41322E-18
 -1       538 9.48630E-05-2.85056E-05-2.84391E-05-6.94211E-07 3.71639E-20-1.13414E-18
 -1       539 9.50099E-05-2.85101E-05-2.85000E-05-6.73620E-07 7.12400E-20-8.02061E-19
 -1       540 9.51643E-05-2.85087E-05-2.85665E-05-7.02882E-07 4.29999E-19-1.19792E-18
 -1       541 9.53354E-05-2.85029E-05-2.86421E-05-7.92721E-07 7.61752E-19-9.52878E-19
 -1       542 9.55344E-05-2.84943E-05-2.87308E-05-9.55259E-07-1.63073E-20-1.27318E-18
 -1       543 9.57747E-05-2.84840E-05-2.88378E-05-1.20476E-06-8.89274E-20-1.88850E-18
 -1       544 9.60712E-05-2.84737E-05-2.89689E-05-1.55809E-06 4.49696E-19-1.67233E-18
 -1       545 9.64408E-05-2.84652E-05-2.91305E-05-2.03477E-06 5.09199E-19-2.44857E-18
 -1       546 9.69018E-05-2.84620E-05-2.93289E-05-2.65631E-06 9.31365E-19-2.08275E-18
 -1       547 9.74743E-05-2.84706E-05-2.95699E-05-3.44417E-06-1.82229E-19-2.51875E-18
 -1       548 9.81807E-05-2.85046E-05-2.98574E-05-4.41535E-06-1.68395E-19-3.86061E-18
 -1       549 9.90482E-05-2.85914E-05-3.01916E-05-5.57384E-06-5.59590E-19-3.61559E-18
 -1       550 1.00116E-04-2.87857E-05-3.05658E-05-6.89513E-06-1.80230E-19-2.51244E-18
 -1       551 1.01448E-04-2.91907E-05-3.09639E-05-8.29998E-06 1.82290E-19-2.14443E-18
 -1       552 1.03160E-04-2.99891E-05-3.13583E-05-9.61319E-06-6.19098E-19-1.07164E-18
 -1       553 1.05460E-04-3.14710E-05-3.17132E-05-1.05037E-05-3.38150E-19-1.12522E-18
 -1       554 1.08665E-04-3.40151E-05-3.20036E-05-1.04083E-05 4.64237E-19-1.17491E-18
 -1       555 1.13135E-04-3.79053E-05-3.22623E-05-8.48783E-06-5.30765E-19-1.66439E-18
 -1       556 1.18956E-04-4.28304E-05-3.26582E-05-3.72400E-06-1.44624E-18 1.58623E-19
 -1       557 1.25161E-04-4.68749E-05-3.36065E-05 4.54338E-06-6.78635E-19 3.51265E-18
 -1       558 1.28741E-04-4.62508E-05-3.54000E-05 1.46172E-05-1.19597E-19 4.03755E-18
 -1       559 1.25887E-04-3.61218E-05-3.88124E-05 2.08015E-05 1.72860E-18 5.52285E-18
 -1       560 1.19661E-04-2.28115E-05-4.19676E-05 1.37693E-05 1.73644E-18 4.41259E-18
 -1       561 1.17805E-04-1.91520E-05-4.27205E-05-3.24313E-06 4.56736E-19 2.16737E-18
 -1       562 1.22540E-04-2.90328E-05-4.03886E-05-1.61467E-05 8.52750E-19 2.33012E-18
 -1       563 1.27357E-04-4.18478E-05-3.68022E-05-1.60421E-05-8.87102E-19 8.49349E-21
 -1       564 1.26082E-04-4.69480E-05-3.39864E-05-7.23693E-06 3.37473E-20 3.32285E-19
 -1       565 1.20432E-04-4.48303E-05-3.24145E-05 2.40224E-06 1.19596E-18-6.13847E-19
 -1       566 1.13821E-04-3.99268E-05-3.16877E-05 9.12232E-06 1.14022E-18-3.02437E-18
 -1       567 1.08150E-04-3.51300E-05-3.13085E-05 1.24707E-05 1.44932E-18-7.01516E-19
 -1       568 1.03899E-04-3.15482E-05-3.10068E-05 1.33374E-05-5.06054E-19-5.84815E-19
 -1       569 1.00655E-04-2.89441E-05-3.07280E-05 1.24902E-05-1.42047E-18 2.47003E-18
 -1       570 9.80284E-05-2.69470E-05-3.04546E-05 1.04486E-05-2.17176E-18 3.27153E-18
 -1       571 8.81954E-05-1.77667E-05-3.01905E-05 8.59478E-06 3.96258E-19 1.35106E-18
 -1       572 8.65545E-05-1.61993E-05-3.01605E-05 4.28250E-06 2.12086E-18 1.81946E-18
 -1       573 9.39831E-05-2.32471E-05-3.03174E-05 1.21394E-05-1.37918E-18-2.32697E-18
 -1       574 9.08864E-05-2.03319E-05-3.02326E-05 1.13112E-05-1.86447E-18-1.62318E-19
 -1       575 8.64069E-05-1.60540E-05-3.01594E-05-7.01807E-07 2.12646E-18-2.03366E-18
 -1       576 8.77346E-05-1.73492E-05-3.01725E-05-5.23163E-06 8.70588E-19-5.58877E-19
 -1       577 9.00343E-05-1.96447E-05-3.01727E-05-8.39457E-06 4.93777E-19 6.97146E-19
 -1       578 9.25282E-05-2.22285E-05-3.01315E-05-9.80408E-06 1.24164E-18-1.03841E-18
 -1       579 9.46917E-05-2.46137E-05-3.00331E-05-9.67447E-06 2.17528E-18-1.45419E-18
 -1       580 9.61816E-05-2.64520E-05-2.98800E-05-8.46821E-06 2.17578E-18 1.45803E-18
 -1       581 9.69959E-05-2.76724E-05-2.97116E-05-6.67186E-06-7.09219E-19 5.96211E-19
 -1       582 2.56471E-05-1.68102E-05-3.19394E-06 1.18252E-05-1.90372E-18 4.85064E-18
 -1       583 9.03922E-05-5.22781E-05-1.60714E-05 4.30639E-05 5.64918E-19-4.18911E-19
 -1       584 9.45157E-05-2.72927E-05-2.88012E-05 9.89510E-07 1.89747E-18-7.73701E-19
 -1       585 2.68328E-05-1.60274E-05-4.03702E-06-1.33958E-05-6.15647E-19 4.11129E-18
 -1       586 5.74715E-05-3.41904E-05-9.46455E-06 3.92765E-05-1.14101E-18 9.35866E-19
 -1       587 9.45928E-05-2.07018E-05-3.16863E-05-9.57249E-06-3.48764E-18-1.52891E-18
 -1       588 5.61106E-05-3.31059E-05-9.31289E-06-4.04446E-05 6.37445E-19 1.96490E-18
 -1       589 1.30113E-04-6.04707E-05-2.98740E-05 2.19922E-05 1.17947E-18 1.89489E-18
 -1       590 1.42386E-04-6.22036E-05-3.46567E-05-7.13714E-06-3.30581E-19-2.31325E-18
 -1       591 1.44421E-04-2.66312E-05-5.10077E-05 1.59173E-05 5.14234E-18 1.71953E-18
 -1       592 8.91645E-05-1.28832E-05-3.27104E-05-1.93637E-06-4.68708E-19-4.63865E-18
 -1       593 1.33991E-04-1.15092E-05-5.31274E-05 1.65386E-06 3.25303E-18-1.64155E-18
 -1       594 1.10759E-04-5.88549E-05-2.20197E-05-3.27211E-05-7.78053E-19-7.83505E-19
 -1       595 1.38164E-04-1.70881E-05-5.25131E-05-9.85901E-06 1.32719E-18-4.89855E-18
 -1       596 1.49210E-04-4.69367E-05-4.41172E-05 1.18270E-05 9.57227E-19 5.69683E-19
 -1       597 2.25182E-05-1.40844E-05-2.95822E-06 1.07387E-07-1.10720E-18-5.49131E-18
 -1       598 7.55441E-05-4.40736E-05-1.30596E-05-4.08075E-05-7.66671E-19 5.87576E-19
 -1       599 1.37512E-04-1.97223E-05-5.10413E-05 1.00024E-05-1.85506E-18-1.33847E-18
 -1       600 3.06589E-05-1.83933E-05-4.64148E-06 2.39677E-05 9.83167E-19-2.54279E-18
 -1       601 6.47607E-05-3.85861E-05-1.08370E-05 4.34588E-05 3.21873E-18-2.62522E-18
 -1       602 9.93789E-05-5.40631E-05-1.92075E-05 4.09143E-05 3.04350E-18-2.91176E-18
 -1       603 1.42224E-04-5.08446E-05-3.94581E-05 1.34158E-06-1.80259E-19 2.08487E-18
 -1       604 1.41693E-04-2.92368E-05-4.86649E-05-1.01667E-05-2.23633E-18 2.51865E-18
 -1       605 1.38153E-04-1.16931E-05-5.47667E-05-7.37298E-06-3.98508E-18 2.07049E-18
 -1       606 1.35240E-04-7.41416E-06-5.53858E-05 1.34857E-06-2.86943E-18-1.00254E-19
 -1       607 1.44092E-04-4.37108E-05-4.34275E-05 3.94039E-06-2.11636E-18-4.06316E-18
 -1       608 1.41279E-04-5.78777E-05-3.58675E-05-1.11960E-05-8.43010E-19-5.17505E-18
 -1       609 1.17472E-04-6.10349E-05-2.41239E-05-3.47850E-05 1.30380E-18 1.31012E-19
 -1       610 8.53421E-05-4.92416E-05-1.51291E-05-4.49132E-05 1.59253E-18 3.45960E-19
 -1       611 1.49255E-04-3.84345E-05-4.79597E-05-1.13975E-05-7.04837E-19-3.21544E-18
 -1       612 9.61570E-05-2.31895E-05-3.12753E-05 9.58661E-06 3.85970E-18 5.67337E-19
 -1       613 1.27838E-04-6.42821E-05-2.71950E-05 2.57256E-05 6.22490E-19-2.15525E-18
 -1       614 9.13583E-05-1.58625E-05-3.23775E-05-7.79255E-06-2.42162E-18-3.47600E-18
 -1       615 4.74129E-05-2.13317E-05-1.06161E-05-2.82037E-05 8.74323E-19 1.40814E-18
 -1       616 4.60611E-05-2.12067E-05-1.00637E-05 2.67231E-05-1.46367E-18 2.62474E-18
 -1       617 5.33810E-05-2.62162E-05-1.11552E-05 3.50839E-05 2.75265E-18-2.76540E-18
 -1       618 1.29481E-04-6.18316E-05-2.89754E-05-1.47760E-05-1.68714E-18-1.82125E-18
 -1       619 3.53806E-05-1.55349E-05-7.87403E-06-1.65647E-05-1.84865E-18-5.92764E-18
 -1       620 9.76582E-05-2.86321E-05-2.95808E-05-5.13667E-06 1.99997E-19 1.31616E-18
 -1       621 9.15612E-05-1.68550E-05-3.20225E-05 2.44178E-06 1.08350E-18-3.79466E-18
 -1       622 9.13028E-05-1.64540E-05-3.20837E-05 8.36818E-07 4.23863E-19-4.12964E-18
 -1       623 9.28946E-05-1.90017E-05-3.16740E-05 5.26933E-06 2.48262E-18-3.22044E-18
 -1       624 9.39892E-05-2.09345E-05-3.13170E-05 6.14559E-06 2.90614E-18-2.36816E-18
 -1       625 9.52705E-05-2.40948E-05-3.04938E-05 5.15384E-06 2.95474E-18-1.56128E-18
 -1       626 8.00995E-05-4.07300E-05-1.65025E-05-3.97436E-05 8.67203E-19-2.41563E-19
 -1       627 1.30550E-04-6.10853E-05-2.97814E-05-1.79009E-05 3.40362E-19-3.41679E-18
 -1       628 9.54239E-05-2.57022E-05-2.98738E-05-2.44885E-06-1.88214E-18-1.63319E-18
 -1       629 9.54755E-05-2.69419E-05-2.93702E-05-8.78232E-07-1.48140E-18-1.34368E-18
 -1       630 9.54182E-05-2.77046E-05-2.90199E-05 1.28918E-07-1.20052E-18-1.49704E-18
 -1       631 9.53437E-05-2.81754E-05-2.87864E-05 7.19076E-07-1.14599E-18-1.65830E-18
 -1       632 9.52796E-05-2.84628E-05-2.86358E-05 1.02479E-06-1.06628E-18-1.52745E-18
 -1       633 9.52351E-05-2.86312E-05-2.85446E-05 1.14440E-06-7.09327E-19-1.52666E-18
 -1       634 9.52086E-05-2.87196E-05-2.84954E-05 1.14949E-06-7.73391E-19-1.81751E-18
 -1       635 9.51964E-05-2.87532E-05-2.84758E-05 1.09189E-06-6.73415E-19-1.41916E-18
 -1       636 9.51944E-05-2.87486E-05-2.84769E-05 1.00887E-06-5.29950E-19-1.36407E-18
 -1       637 9.51998E-05-2.87166E-05-2.84929E-05 9.27416E-07-4.27378E-19-1.10376E-18
 -1       638 9.52105E-05-2.86642E-05-2.85199E-05 8.67401E-07-6.24839E-20-8.77792E-19
 -1       639 9.52256E-05-2.85954E-05-2.85558E-05 8.44068E-07-4.70038E-20-6.84309E-20
 -1       640 9.52449E-05-2.85128E-05-2.85995E-05 8.69806E-07-6.49206E-19 1.15111E-19
 -1       641 9.52694E-05-2.84178E-05-2.86507E-05 9.55341E-07-8.15657E-19 1.33099E-20
 -1       642 9.53010E-05-2.83118E-05-2.87095E-05 1.11037E-06-1.03631E-18-6.51244E-19
 -1       643 9.53428E-05-2.81976E-05-2.87764E-05 1.34363E-06-3.20625E-19-9.22290E-19
 -1       644 9.54004E-05-2.80808E-05-2.88511E-05 1.66227E-06 2.53085E-19-5.13178E-20
 -1       645 9.54824E-05-2.79714E-05-2.89330E-05 2.07054E-06 2.40241E-19 4.92205E-20
 -1       646 9.56027E-05-2.78874E-05-2.90205E-05 2.56747E-06 3.48154E-19-5.74373E-19
 -1       647 9.57829E-05-2.78576E-05-2.91105E-05 3.14345E-06-4.64021E-20-3.63243E-19
 -1       648 9.60564E-05-2.79260E-05-2.91985E-05 3.77547E-06 1.43645E-19-1.98984E-19
 -1       649 9.64732E-05-2.81563E-05-2.92785E-05 4.42076E-06-2.31852E-19-2.43083E-20
 -1       650 9.71055E-05-2.86344E-05-2.93447E-05 5.00848E-06-1.21402E-19-3.48155E-19
 -1       651 9.80509E-05-2.94655E-05-2.93940E-05 5.42946E-06-1.15991E-19-8.36979E-19
 -1       652 9.94283E-05-3.07583E-05-2.94308E-05 5.52433E-06-2.94841E-19-2.89989E-19
 -1       653 1.01355E-04-3.25827E-05-2.94752E-05 5.07308E-06-3.60325E-19-6.37702E-19
 -1       654 1.03884E-04-3.48840E-05-2.95738E-05 3.79731E-06 7.56720E-19-8.63766E-19
 -1       655 1.06888E-04-3.73402E-05-2.98099E-05 1.40563E-06 9.84546E-19 8.75906E-20
 -1       656 1.09887E-04-3.91914E-05-3.03025E-05-2.25140E-06 7.59735E-19 1.93346E-18
 -1       657 1.11938E-04-3.91994E-05-3.11743E-05-6.82565E-06 2.60154E-19 2.08533E-18
 -1       658 1.11877E-04-3.60968E-05-3.24850E-05-1.10298E-05 2.84046E-19 1.89130E-18
 -1       659 1.09240E-04-2.98196E-05-3.40712E-05-1.24384E-05-7.30530E-19 1.94092E-18
 -1       660 1.05464E-04-2.28721E-05-3.54408E-05-8.98119E-06-7.52513E-19 5.94860E-19
 -1       661 1.03539E-04-1.96475E-05-3.59964E-05-1.29951E-06-1.56497E-18-5.92250E-19
 -1       662 1.05198E-04-2.25807E-05-3.54487E-05 6.52109E-06-4.68280E-19-1.41743E-18
 -1       663 1.08918E-04-2.95239E-05-3.40549E-05 1.02030E-05-9.17404E-19-1.37078E-18
 -1       664 1.11693E-04-3.60879E-05-3.24170E-05 8.90403E-06-8.88990E-19-5.11270E-19
 -1       665 1.11829E-04-3.93761E-05-3.10510E-05 4.58403E-06-1.78288E-18-4.38855E-19
 -1       666 1.09736E-04-3.93887E-05-3.01538E-05-1.93111E-07-6.39227E-19 7.04591E-19
 -1       667 1.06543E-04-3.73000E-05-2.96792E-05-4.00797E-06-1.43787E-19-8.71212E-19
 -1       668 1.03202E-04-3.43362E-05-2.95161E-05-6.36844E-06 3.76736E-19-4.75685E-19
 -1       669 1.00230E-04-3.12935E-05-2.95449E-05-7.31172E-06 1.37455E-18-4.55878E-19
 -1       670 9.49817E-05-2.81128E-05-2.86579E-05-7.32184E-07 1.07454E-18-1.93355E-18
 -1       671 9.49330E-05-2.54193E-05-2.97917E-05 1.49034E-05-3.07391E-18-2.39369E-18
 -1       672 9.50921E-05-2.77080E-05-2.88783E-05-1.21475E-07 1.33481E-18-1.66617E-18
 -1       673 9.49013E-05-2.85194E-05-2.84495E-05-1.16351E-06 6.51944E-19-1.41126E-18
 -1       674 9.49121E-05-2.86085E-05-2.84160E-05-1.16457E-06 1.08951E-18-1.59778E-18
 -1       675 9.49423E-05-2.86526E-05-2.84101E-05-1.10077E-06 9.85199E-19-1.32973E-18
 -1       676 9.49842E-05-2.86647E-05-2.84228E-05-1.00996E-06 8.57369E-19-1.60034E-18
 -1       677 9.50329E-05-2.86536E-05-2.84484E-05-9.19313E-07 4.94866E-19-9.04163E-19
 -1       678 9.50859E-05-2.86245E-05-2.84835E-05-8.48912E-07-2.21049E-19-6.80868E-19
 -1       679 9.51424E-05-2.85806E-05-2.85265E-05-8.14437E-07 4.91768E-21-8.45271E-19
 -1       680 9.52034E-05-2.85231E-05-2.85772E-05-8.29235E-07 3.74771E-19-8.16094E-19
 -1       681 9.52704E-05-2.84516E-05-2.86365E-05-9.05906E-07 5.40484E-19-3.64516E-19
 -1       682 9.53457E-05-2.83644E-05-2.87061E-05-1.05754E-06 3.92968E-19 1.50782E-19
 -1       683 9.54319E-05-2.82588E-05-2.87882E-05-1.29861E-06 1.95497E-19-2.99947E-19
 -1       684 9.55309E-05-2.81311E-05-2.88852E-05-1.64554E-06 4.18266E-19-9.38917E-19
 -1       685 9.56441E-05-2.79770E-05-2.89996E-05-2.11686E-06 9.19375E-19-1.01405E-18
 -1       686 9.57718E-05-2.77929E-05-2.91330E-05-2.73285E-06 7.24142E-19-8.80950E-19
 -1       687 9.59127E-05-2.75775E-05-2.92855E-05-3.51441E-06 7.76641E-19-4.79045E-19
 -1       688 9.60659E-05-2.73359E-05-2.94545E-05-4.48067E-06 2.71530E-19-5.20434E-19
 -1       689 9.62339E-05-2.70876E-05-2.96326E-05-5.64489E-06-2.70671E-19-7.34504E-19
 -1       690 9.64328E-05-2.68811E-05-2.98062E-05-7.00774E-06-6.79424E-19-1.11659E-18
 -1       691 9.67121E-05-2.68183E-05-2.99528E-05-8.54691E-06 8.61701E-20-1.73235E-18
 -1       692 9.71925E-05-2.70940E-05-3.00409E-05-1.02012E-05-8.49565E-19-8.60669E-19
 -1       693 9.81298E-05-2.80471E-05-3.00350E-05-1.18443E-05-5.99023E-19-7.59811E-19
 -1       694 1.00006E-04-3.02099E-05-2.99129E-05-1.32373E-05-1.16901E-19 2.52392E-19
 -1       695 1.03632E-04-3.42882E-05-2.97152E-05-1.38964E-05-3.85053E-20 8.72533E-19
 -1       696 1.09924E-04-4.07283E-05-2.96534E-05-1.28764E-05-1.39965E-18 8.60403E-19
 -1       697 1.19695E-04-4.90750E-05-3.02583E-05-8.54401E-06-2.84873E-18-3.66665E-19
 -1       698 1.31276E-04-5.57381E-05-3.23312E-05 7.82832E-07-1.38270E-18 1.00346E-18
 -1       699 1.37784E-04-4.11910E-05-4.17841E-05-1.65084E-05-3.14779E-19-8.49733E-19
 -1       700 1.34084E-04-5.25414E-05-3.50289E-05-6.36529E-06 2.83888E-21 4.41582E-20
 -1       701 1.25659E-04-5.25772E-05-3.13343E-05 5.62501E-06 2.18987E-18-1.62976E-18
 -1       702 1.14818E-04-4.48965E-05-3.00177E-05 1.27424E-05 2.86447E-18-2.99443E-18
 -1       703 1.06697E-04-3.74284E-05-2.96852E-05 1.58156E-05 1.57561E-19-2.36867E-18
 -1       704 1.01613E-04-3.20470E-05-2.98159E-05 1.63206E-05 3.89345E-19-1.35715E-18
 -1       705 9.76594E-05-2.84317E-05-2.96677E-05 1.61986E-05-1.14334E-18-2.25025E-18
 -1       706 1.08264E-04-5.52692E-05-2.26321E-05 3.31183E-05 1.78663E-18-4.73200E-19
 -1       707 8.40963E-05-1.77796E-05-2.84247E-05-4.44900E-06 2.14308E-18-3.07218E-18
 -1       708 1.05814E-04-5.47788E-05-2.16748E-05-3.63056E-05 2.10046E-18 9.31941E-19
 -1       709 8.44680E-05-1.77607E-05-2.85923E-05 7.96505E-06 1.39117E-18 2.73384E-18
 -1       710 8.72761E-05-2.04370E-05-2.86482E-05-9.27966E-06 4.78069E-19 3.44508E-19
 -1       711 8.29903E-05-1.67573E-05-2.83891E-05 1.82338E-06 1.03868E-18 6.95238E-19
 -1       712 9.12384E-05-2.36856E-05-2.89545E-05-1.17569E-05 6.96617E-20-2.19672E-19
 -1       713 9.48738E-05-2.66351E-05-2.92469E-05-1.20032E-05 1.30840E-18-1.04400E-18
 -1       714 9.73934E-05-2.86605E-05-2.94554E-05-1.06123E-05 2.42689E-18 1.98718E-18
 -1       715 8.26316E-05-4.08375E-05-1.75279E-05 3.73171E-05 5.54807E-20 1.43350E-18
 -1       716 3.93561E-05-1.23420E-05-1.09375E-05 1.38645E-06-2.71932E-19 4.47869E-18
 -1       717 1.31028E-04-3.23413E-05-4.26867E-05 1.27857E-05-1.37092E-18-2.51280E-18
 -1       718 9.46118E-05-2.22122E-05-3.10264E-05-6.01644E-06-2.43441E-18-2.07232E-18
 -1       719 1.25510E-04-1.89404E-05-4.61613E-05-1.34055E-05-3.40375E-18 2.03828E-18
 -1       720 6.14707E-05-2.84639E-05-1.36680E-05-3.21669E-05-2.05268E-18-6.68759E-19
 -1       721 9.52312E-05-2.70416E-05-2.92219E-05 9.31156E-07 1.82517E-18-1.52212E-18
 -1       722 1.34712E-04-1.57982E-05-5.14129E-05 9.65118E-06 3.42318E-18-9.15007E-19
 -1       723 9.49206E-05-2.83650E-05-2.85239E-05-1.04438E-06 7.85977E-19-1.93901E-18
 -1       724 9.53377E-05-2.59446E-05-2.97364E-05 2.60922E-06 2.38473E-18-1.64836E-18
 -1       725 1.33701E-04-3.97513E-05-4.05793E-05-1.16414E-05-1.19768E-18 2.57874E-18
 -1       726 1.32838E-04-2.93096E-05-4.48909E-05-1.70718E-05 5.00332E-19-2.23707E-18
 -1       727 9.20838E-05-1.76807E-05-3.18929E-05 3.95249E-06 1.91468E-18-3.44108E-18
 -1       728 9.59041E-05-4.77397E-05-2.03244E-05-3.29895E-05-9.24007E-19 1.73787E-19
 -1       729 9.20672E-05-1.76639E-05-3.18937E-05-3.87050E-06-1.27179E-18-3.80846E-18
 -1       730 3.65740E-05-1.24539E-05-9.75394E-06 1.07460E-05 5.47971E-19-2.56857E-18
 -1       731 9.85072E-05-2.93827E-05-2.96201E-05-7.21978E-06 1.72739E-18-9.25857E-19
 -1       732 1.16733E-04-5.77812E-05-2.51864E-05 2.75056E-05 3.20777E-18 1.81472E-18
 -1       733 1.33682E-04-5.64699E-05-3.32071E-05 5.22850E-06 2.00269E-18 9.92034E-19
 -1       734 1.21877E-04-8.72911E-06-4.90810E-05-4.47645E-06-2.49832E-18 3.61723E-19
 -1       735 1.20139E-04-1.23922E-05-4.66871E-05 7.61315E-06-1.06710E-18-3.72006E-19
 -1       736 1.36151E-04-5.13402E-05-3.65487E-05 2.56778E-06-1.14601E-18-2.33125E-18
 -1       737 8.77739E-05-4.44206E-05-1.82479E-05 3.87442E-05 3.87872E-18-2.46745E-18
 -1       738 1.37047E-04-5.99504E-05-3.31649E-05 3.79724E-06 4.79050E-19-2.23240E-18
 -1       739 9.28500E-05-1.89511E-05-3.16836E-05-5.19977E-06-1.82345E-18-3.30762E-18
 -1       740 9.12947E-05-1.64473E-05-3.20834E-05-7.92546E-07-2.19258E-19-4.10729E-18
 -1       741 6.77350E-05-2.91631E-05-1.61927E-05-3.27462E-05 4.06470E-19 1.33228E-18
 -1       742 1.15492E-04-5.47404E-05-2.59120E-05-2.16813E-05-1.87822E-18-5.44775E-19
 -1       743 1.35162E-04-3.01224E-05-4.57476E-05 1.80903E-05 3.43821E-18 3.97646E-18
 -1       744 6.83374E-05-2.85757E-05-1.66691E-05 3.13150E-05-3.08545E-19 2.67872E-18
 -1       745 5.03414E-05-1.78257E-05-1.35535E-05 2.27030E-05 1.88009E-18-1.51219E-18
 -1       746 9.91038E-05-3.03185E-05-2.94754E-05-9.18570E-06 3.91649E-19-9.28217E-19
 -1       747 4.15701E-05-1.17764E-05-1.22923E-05-3.71797E-06-8.90003E-19-3.91329E-18
 -1       748 8.79584E-05-2.03083E-05-2.90015E-05 1.24722E-05-1.53797E-19 2.21061E-18
 -1       749 9.15506E-05-1.68423E-05-3.20226E-05-2.37276E-06-8.22980E-19-3.99944E-18
 -1       750 9.46750E-05-2.27673E-05-3.08146E-05 3.91116E-06 2.23685E-18-2.36528E-18
 -1       751 1.17631E-04-5.56385E-05-2.65094E-05-2.30862E-05-1.70942E-19-9.50175E-19
 -1       752 9.58734E-05-2.68796E-05-2.95689E-05-5.94718E-07-1.35300E-18-1.97612E-18
 -1       753 9.59651E-05-2.77729E-05-2.92256E-05 2.15045E-07-1.15944E-18-1.91579E-18
 -1       754 9.59541E-05-2.83299E-05-2.89819E-05 6.96376E-07-9.92084E-19-1.75726E-18
 -1       755 9.58930E-05-2.86642E-05-2.88124E-05 9.47571E-07-4.49941E-19-1.41802E-18
 -1       756 9.58112E-05-2.88467E-05-2.86991E-05 1.04528E-06-6.97914E-19-8.97171E-19
 -1       757 9.57237E-05-2.89252E-05-2.86280E-05 1.04852E-06-7.94216E-19-8.21976E-19
 -1       758 9.56379E-05-2.89318E-05-2.85884E-05 1.00172E-06-4.85660E-19-8.18788E-19
 -1       759 9.55567E-05-2.88881E-05-2.85723E-05 9.37780E-07-2.68523E-19-4.42421E-19
 -1       760 9.54805E-05-2.88081E-05-2.85739E-05 8.81093E-07-1.34285E-19-5.37991E-19
 -1       761 9.54082E-05-2.87000E-05-2.85892E-05 8.50150E-07-1.62412E-19-9.51271E-19
 -1       762 9.53374E-05-2.85684E-05-2.86153E-05 8.59598E-07-6.74318E-19-1.32831E-18
 -1       763 9.52652E-05-2.84151E-05-2.86500E-05 9.21766E-07-9.00628E-19-8.44651E-19
 -1       764 9.51888E-05-2.82409E-05-2.86920E-05 1.04770E-06-7.08006E-19-4.07563E-19
 -1       765 9.51059E-05-2.80466E-05-2.87397E-05 1.24770E-06-5.48948E-19 8.49635E-20
 -1       766 9.50156E-05-2.78355E-05-2.87914E-05 1.53140E-06 3.57165E-19 2.11042E-19
 -1       767 9.49201E-05-2.76150E-05-2.88450E-05 1.90725E-06 2.50120E-19 2.49045E-19
 -1       768 9.48268E-05-2.74003E-05-2.88970E-05 2.38144E-06 4.09768E-19-1.45559E-19
 -1       769 9.47515E-05-2.72179E-05-2.89429E-05 2.95618E-06 6.67430E-19 2.62217E-19
 -1       770 9.47237E-05-2.71111E-05-2.89767E-05 3.62706E-06 1.24151E-19 8.11308E-19
 -1       771 9.47929E-05-2.71460E-05-2.89914E-05 4.37936E-06-5.22943E-19 1.83631E-19
 -1       772 9.50378E-05-2.74171E-05-2.89802E-05 5.18264E-06-6.80973E-19-6.91073E-19
 -1       773 9.55763E-05-2.80521E-05-2.89389E-05 5.98217E-06 4.28088E-19-1.12360E-18
 -1       774 9.65738E-05-2.92084E-05-2.88709E-05 6.68460E-06-1.52299E-19-6.71426E-19
 -1       775 9.82434E-05-3.10533E-05-2.87961E-05 7.13375E-06-5.05215E-19-6.66815E-19
 -1       776 1.00819E-04-3.37058E-05-2.87636E-05 7.07277E-06 2.06332E-19 7.13185E-19
 -1       777 1.04468E-04-3.71065E-05-2.88706E-05 6.09999E-06 1.03908E-18 6.73322E-19
 -1       778 1.09098E-04-4.07770E-05-2.92837E-05 3.67012E-06 2.15985E-18 3.79712E-19
 -1       779 1.14004E-04-4.34556E-05-3.02416E-05-7.40627E-07 4.92379E-19 2.57763E-19
 -1       780 1.17565E-04-4.30581E-05-3.19411E-05-6.81452E-06 1.08591E-19 1.22932E-18
 -1       781 1.17387E-04-3.68794E-05-3.45720E-05-1.25139E-05-6.04543E-19-3.63153E-20
 -1       782 1.13454E-04-2.60118E-05-3.75912E-05-1.36273E-05-1.77915E-18 3.98555E-19
 -1       783 1.09039E-04-1.66852E-05-3.97575E-05-6.85803E-06-2.32047E-18-4.10136E-19
 -1       784 1.08811E-04-1.62990E-05-3.98119E-05 4.28195E-06-1.46708E-18-2.13932E-19
 -1       785 1.13510E-04-2.56382E-05-3.78309E-05 1.14094E-05 9.58835E-19-8.42100E-19
 -1       786 1.17751E-04-3.67160E-05-3.47659E-05 1.07063E-05-1.09512E-19-2.87865E-19
 -1       787 1.18153E-04-4.34904E-05-3.20219E-05 4.62566E-06-2.31721E-18-1.64449E-18
 -1       788 1.14962E-04-4.41571E-05-3.03505E-05-1.56338E-06-3.96408E-19-1.82691E-18
 -1       789 1.10051E-04-4.13686E-05-2.94409E-05-6.28745E-06-3.50347E-19-1.53540E-18
 -1       790 1.05233E-04-3.72039E-05-2.91568E-05-8.81791E-06 6.06785E-19 8.45074E-20
 -1       791 1.01803E-04-3.35453E-05-2.92517E-05-9.40458E-06 9.22671E-19 6.63151E-19
 -1       792 9.57330E-05-2.77483E-05-2.91363E-05-1.92747E-07 1.22664E-18-1.70884E-18
 -1       793 9.55094E-05-2.88400E-05-2.85727E-05-1.10208E-06 9.26359E-19-1.06079E-18
 -1       794 9.55697E-05-2.87567E-05-2.86342E-05-1.09932E-06 7.07448E-19-1.50017E-18
 -1       795 9.54109E-05-2.88330E-05-2.85334E-05-9.76411E-07 3.09800E-19-1.03913E-18
 -1       796 9.53720E-05-2.87742E-05-2.85419E-05-9.08956E-07-3.41744E-19-8.84681E-19
 -1       797 9.53376E-05-2.86895E-05-2.85635E-05-8.66715E-07-2.72594E-19-5.38182E-19
 -1       798 9.53055E-05-2.85817E-05-2.85959E-05-8.65496E-07 1.74304E-19-2.63826E-19
 -1       799 9.52725E-05-2.84507E-05-2.86379E-05-9.19034E-07 1.73305E-19-1.08472E-19
 -1       800 9.52346E-05-2.82933E-05-2.86891E-05-1.04040E-06 2.46592E-20-1.38844E-19
 -1       801 9.51866E-05-2.81044E-05-2.87494E-05-1.24300E-06 6.13816E-19-5.36417E-19
 -1       802 9.51212E-05-2.78770E-05-2.88189E-05-1.54117E-06 5.25329E-19-1.12931E-18
 -1       803 9.50288E-05-2.76025E-05-2.88969E-05-1.95039E-06 4.64938E-19-4.03105E-19
 -1       804 9.48967E-05-2.72720E-05-2.89818E-05-2.48715E-06 4.56045E-19 3.42453E-19
 -1       805 9.47085E-05-2.68778E-05-2.90701E-05-3.16834E-06 4.39778E-19 3.38554E-19
 -1       806 9.44449E-05-2.64164E-05-2.91547E-05-4.01033E-06 2.26966E-19 1.66465E-18
 -1       807 9.40856E-05-2.58952E-05-2.92241E-05-5.02798E-06 3.34675E-19 1.45225E-18
 -1       808 9.36164E-05-2.53435E-05-2.92593E-05-6.23407E-06 3.50740E-20 8.68784E-19
 -1       809 9.30432E-05-2.48323E-05-2.92326E-05-7.64062E-06-2.50543E-19 4.51733E-19
 -1       810 9.24210E-05-2.45064E-05-2.91056E-05-9.26357E-06-2.34622E-19 4.24278E-19
 -1       811 9.19053E-05-2.46332E-05-2.88303E-05-1.11321E-05-1.17373E-18 4.68137E-19
 -1       812 9.18416E-05-2.56703E-05-2.83575E-05-1.32946E-05-5.02837E-19 1.81387E-19
 -1       813 9.28575E-05-2.83090E-05-2.76579E-05-1.58121E-05-1.24078E-18 1.60811E-19
 -1       814 9.62944E-05-3.37760E-05-2.68010E-05-1.87938E-05-1.12102E-18 5.24469E-19
 -1       815 1.03918E-04-4.27744E-05-2.60651E-05-2.12508E-05-1.36687E-18 7.50286E-19
 -1       816 1.02667E-04-3.93790E-05-2.70454E-05 2.17593E-05-3.28688E-19 1.58991E-19
 -1       817 9.65648E-05-3.17890E-05-2.77629E-05 1.99734E-05-3.11932E-19 1.62793E-19
 -1       818 1.26546E-04-5.98895E-05-2.83809E-05 1.78711E-05 1.97150E-18-4.30736E-18
 -1       819 8.84384E-05-2.45105E-05-2.73981E-05-1.38193E-05 1.61904E-18 4.60574E-20
 -1       820 5.36536E-05-1.60333E-05-1.57750E-05-1.51395E-05 2.22498E-19 2.48183E-18
 -1       821 9.85342E-05-3.14074E-05-2.87655E-05-1.28798E-05 1.10905E-18 3.67981E-19
 -1       822 8.24866E-05-2.00763E-05-2.67448E-05-9.64756E-06 2.55289E-18-2.65615E-18
 -1       823 1.00370E-04-4.61041E-05-2.31471E-05 3.05294E-05 1.20172E-18 1.81225E-19
 -1       824 5.25992E-05-1.59459E-05-1.53725E-05 1.53012E-05 4.33946E-19 3.01819E-18
 -1       825 9.43374E-05-2.86909E-05-2.81373E-05-1.45638E-05 1.15526E-18 1.63741E-18
 -1       826 5.53315E-05-1.91143E-05-1.51982E-05-2.11433E-05-2.74258E-18-3.21176E-18
 -1       827 1.01561E-04-4.81593E-05-2.27346E-05-3.17613E-05 8.41448E-19 7.67875E-19
 -1       828 9.56933E-05-2.69123E-05-2.94780E-05 6.96726E-07 1.64833E-18-1.53520E-18
 -1       829 1.21998E-04-2.92719E-05-3.99813E-05-1.50543E-05-1.64479E-18 1.56644E-18
 -1       830 1.28786E-04-5.53886E-05-3.15582E-05-5.78409E-06-1.08581E-18-2.28083E-18
 -1       831 9.54564E-05-2.88590E-05-2.85418E-05-1.04942E-06 7.29114E-19-1.04560E-18
 -1       832 7.22565E-05-3.05961E-05-1.75419E-05 3.23108E-05 2.56087E-18-1.66120E-18
 -1       833 1.25481E-04-4.10396E-05-3.62990E-05 1.05009E-05-8.78161E-19-3.87544E-18
 -1       834 1.13796E-04-1.50306E-05-4.26415E-05-9.14020E-06-2.29353E-18-6.05655E-19
 -1       835 1.28042E-04-4.72589E-05-3.47397E-05-7.29086E-06-2.36603E-19 1.94454E-18
 -1       836 1.04031E-04-4.90416E-05-2.34739E-05 2.81760E-05 3.85569E-18-2.80844E-19
 -1       837 9.52059E-05-2.44741E-05-3.03135E-05 3.43022E-06 2.40072E-18-1.76582E-18
 -1       838 1.22573E-04-5.53168E-05-2.88510E-05 1.27296E-05 2.44703E-18 8.62088E-19
 -1       839 9.50368E-05-2.36624E-05-3.05876E-05-2.64491E-06-1.44774E-18-2.62083E-18
 -1       840 9.56623E-05-2.55619E-05-3.00424E-05-1.56492E-06-1.22469E-18-2.12418E-18
 -1       841 1.17355E-04-2.31159E-05-4.06454E-05 1.20419E-05 3.73700E-19-3.83878E-19
 -1       842 8.17387E-05-3.39488E-05-2.03015E-05-2.89587E-05-1.84005E-18-1.01128E-19
 -1       843 9.32144E-05-1.97840E-05-3.14715E-05 1.23478E-06 6.06529E-19-3.43538E-18
 -1       844 9.31169E-05-1.96037E-05-3.15069E-05 2.36927E-08 4.63742E-20-3.62344E-18
 -1       845 9.55483E-05-2.59345E-05-2.98362E-05 1.84444E-06 2.05564E-18-1.80184E-18
 -1       846 8.91613E-05-3.88472E-05-2.14470E-05-3.15643E-05 1.04811E-18-1.88968E-19
 -1       847 8.96284E-05-3.83543E-05-2.18804E-05 2.86352E-05 2.69229E-18-5.60193E-19
 -1       848 9.56346E-05-2.85801E-05-2.87377E-05-9.93207E-07 4.23525E-19-1.49192E-18
 -1       849 9.46636E-05-2.26533E-05-3.08610E-05-2.12857E-06-1.00541E-18-3.24474E-18
 -1       850 5.59492E-05-1.38793E-05-1.78101E-05-1.25772E-06-1.94364E-19 4.85564E-18
 -1       851 9.24652E-05-2.70168E-05-2.80510E-05 1.80818E-05 7.19767E-20-3.72974E-19
 -1       852 8.68480E-05-3.58360E-05-2.16263E-05 2.98723E-05 3.71424E-19 3.46532E-18
 -1       853 8.81058E-05-2.26151E-05-2.80730E-05 1.55508E-05-5.39945E-19 2.07177E-18
 -1       854 7.91101E-05-1.71112E-05-2.65747E-05 5.79021E-06 1.07964E-18 2.14207E-18
 -1       855 7.88081E-05-1.71681E-05-2.64197E-05-2.46414E-06 1.70127E-18-1.14118E-18
 -1       856 8.27058E-05-1.92341E-05-2.71960E-05 1.17060E-05-2.47907E-19 4.31324E-18
 -1       857 9.43711E-05-2.19607E-05-3.10337E-05-1.37303E-06-5.62093E-19-3.21880E-18
 -1       858 9.56959E-05-2.82665E-05-2.88983E-05-7.19447E-07 8.60015E-19-1.63208E-18
 -1       859 4.71160E-05-1.28682E-05-1.43205E-05 1.04326E-05 7.01582E-19-1.24614E-18
 -1       860 9.40289E-05-2.13547E-05-3.11469E-05 3.31243E-06 1.83999E-18-2.93135E-18
 -1       861 9.35283E-05-2.03684E-05-3.13555E-05 2.36667E-06 1.24375E-18-2.93762E-18
 -1       862 1.12689E-04-1.17682E-05-4.35989E-05-4.80675E-07-1.72596E-18-5.52252E-19
 -1       863 1.00475E-04-3.27770E-05-2.90174E-05-1.13144E-05 2.44196E-20-4.48280E-19
 -1       864 1.08460E-04-4.80555E-05-2.58054E-05-2.34117E-05 1.94528E-18-5.96745E-20
 -1       865 9.49670E-05-3.97680E-05-2.33649E-05-2.50658E-05-1.57451E-18-6.43229E-19
 -1       866 9.63717E-05-2.79199E-05-2.93367E-05 2.89399E-07-7.87728E-19-1.55338E-18
 -1       867 9.63909E-05-2.85043E-05-2.90943E-05 6.39540E-07-5.11976E-19-1.12385E-18
 -1       868 9.63240E-05-2.88473E-05-2.89186E-05 8.19424E-07-5.42352E-19-1.57393E-18
 -1       869 9.62105E-05-2.90207E-05-2.87956E-05 8.85681E-07-6.39707E-19-1.47710E-18
 -1       870 9.60744E-05-2.90758E-05-2.87137E-05 8.83378E-07-5.29691E-19-1.08390E-18
 -1       871 9.59297E-05-2.90479E-05-2.86636E-05 8.47294E-07-3.05420E-19-1.04327E-18
 -1       872 9.57833E-05-2.89611E-05-2.86381E-05 8.03741E-07-7.18932E-20-1.32832E-18
 -1       873 9.56370E-05-2.88304E-05-2.86314E-05 7.72660E-07-3.39932E-19-1.15631E-18
 -1       874 9.54889E-05-2.86642E-05-2.86391E-05 7.69675E-07-4.66743E-19-8.63889E-19
 -1       875 9.53349E-05-2.84664E-05-2.86579E-05 8.07678E-07-6.94731E-19-7.77245E-19
 -1       876 9.51691E-05-2.82379E-05-2.86848E-05 8.98063E-07-3.92910E-19-8.41017E-19
 -1       877 9.49848E-05-2.79785E-05-2.87170E-05 1.05163E-06-4.03844E-19-5.90062E-19
 -1       878 9.47756E-05-2.76887E-05-2.87515E-05 1.27916E-06 3.89913E-19-1.63363E-19
 -1       879 9.45369E-05-2.73723E-05-2.87849E-05 1.59163E-06 4.78599E-19-2.90883E-19
 -1       880 9.42680E-05-2.70392E-05-2.88123E-05 2.00018E-06 3.39286E-19 9.98546E-20
 -1       881 9.39750E-05-2.67097E-05-2.88280E-05 2.51581E-06 7.53551E-19 6.72670E-19
 -1       882 9.36758E-05-2.64191E-05-2.88243E-05 3.14884E-06 7.73885E-19 6.74149E-19
 -1       883 9.34064E-05-2.62243E-05-2.87923E-05 3.90798E-06-5.51465E-19 9.87676E-20
 -1       884 9.32299E-05-2.62111E-05-2.87223E-05 4.79880E-06-9.74456E-19 5.77166E-20
 -1       885 9.32491E-05-2.65026E-05-2.86056E-05 5.82037E-06-4.46075E-19 5.54388E-19
 -1       886 9.36226E-05-2.72663E-05-2.84384E-05 6.95739E-06-4.28275E-19-1.53366E-18
 -1       887 9.45831E-05-2.87164E-05-2.82285E-05 8.16111E-06 9.23708E-20-1.82089E-18
 -1       888 9.64533E-05-3.10996E-05-2.80089E-05 9.30814E-06 1.22312E-18-6.12929E-19
 -1       889 9.96395E-05-3.46380E-05-2.78572E-05 1.01191E-05 4.59581E-19-3.62445E-19
 -1       890 1.04549E-04-3.93571E-05-2.79343E-05 1.00093E-05 2.11877E-19-1.64510E-18
 -1       891 1.11291E-04-4.46780E-05-2.85480E-05 7.96491E-06 1.27151E-18-2.85364E-18
 -1       892 1.19118E-04-4.87849E-05-3.01220E-05 2.80310E-06 1.59582E-18-1.52963E-18
 -1       893 1.20996E-04-5.01630E-05-3.03632E-05-4.71242E-06-7.53471E-19-2.16486E-18
 -1       894 1.13249E-04-4.59073E-05-2.88615E-05-1.03662E-05 2.32391E-19-1.42393E-18
 -1       895 1.06448E-04-4.01035E-05-2.84296E-05-1.26635E-05 2.18432E-18 2.65988E-19
 -1       896 9.60459E-05-2.89497E-05-2.87555E-05-9.66453E-07 4.58796E-19-1.10566E-18
 -1       897 9.55826E-05-2.88253E-05-2.86103E-05-8.30179E-07-1.49625E-19-5.72016E-19
 -1       898 9.56974E-05-2.89351E-05-2.86124E-05-8.71460E-07 8.93173E-20 2.81669E-19
 -1       899 9.53473E-05-2.85036E-05-2.86473E-05-8.46505E-07-2.15723E-20-7.45616E-19
 -1       900 9.52144E-05-2.82912E-05-2.86813E-05-9.30494E-07-3.22341E-21-3.22217E-19
 -1       901 9.50589E-05-2.80381E-05-2.87232E-05-1.08077E-06 5.50518E-19-3.10945E-19
 -1       902 9.48678E-05-2.77356E-05-2.87709E-05-1.30879E-06 7.36058E-19-8.18064E-19
 -1       903 9.46247E-05-2.73731E-05-2.88221E-05-1.62608E-06 4.47250E-19-1.25340E-18
 -1       904 9.43089E-05-2.69386E-05-2.88730E-05-2.04405E-06 1.64222E-19-1.01475E-18
 -1       905 9.38946E-05-2.64202E-05-2.89176E-05-2.57355E-06 3.05692E-19-8.18296E-19
 -1       906 9.33509E-05-2.58084E-05-2.89467E-05-3.22443E-06-3.93215E-19 1.54003E-19
 -1       907 9.26415E-05-2.50998E-05-2.89464E-05-4.00556E-06-2.18158E-19-8.49975E-20
 -1       908 9.17273E-05-2.43044E-05-2.88954E-05-4.92646E-06 7.29925E-19-1.88194E-19
 -1       909 9.05718E-05-2.34569E-05-2.87634E-05-6.00289E-06 6.98818E-20-1.14007E-19
 -1       910 8.91526E-05-2.26350E-05-2.85074E-05-7.26955E-06-5.69288E-19 3.49070E-19
 -1       911 8.74835E-05-2.19885E-05-2.80695E-05-8.80532E-06-8.92718E-19 4.50039E-19
 -1       912 8.56549E-05-2.17825E-05-2.73747E-05-1.07756E-05-3.83738E-19-3.90576E-19
 -1       913 8.38965E-05-2.24716E-05-2.63299E-05-1.35245E-05-1.52761E-19-4.64936E-19
 -1       914 8.30599E-05-2.49688E-05-2.48523E-05-1.76221E-05-1.07599E-18-2.15639E-18
 -1       915 9.55353E-05-2.47179E-05-3.03505E-05-1.41658E-06-9.75659E-19-2.92625E-18
 -1       916 8.68529E-05-2.89376E-05-2.46901E-05 2.35887E-05 4.31484E-19 9.52356E-19
 -1       917 7.15142E-05-2.32088E-05-2.06341E-05-2.16626E-05-2.70951E-18-1.33608E-18
 -1       918 1.10554E-04-4.83330E-05-2.66167E-05 1.75776E-05 2.41388E-18-3.54429E-19
 -1       919 5.40553E-05-1.39726E-05-1.69726E-05-9.20373E-06-5.55729E-19-3.22495E-18
 -1       920 6.86031E-05-2.23774E-05-1.96778E-05 2.25969E-05 1.01660E-18 3.44410E-18
 -1       921 9.60637E-05-2.69565E-05-2.96176E-05 4.00395E-07 1.21696E-18-1.68422E-18
 -1       922 7.20424E-05-2.43360E-05-2.02909E-05-2.33290E-05 6.23731E-19-1.76505E-18
 -1       923 9.37318E-05-2.07171E-05-3.12912E-05-7.96826E-07-1.96939E-19-3.38295E-18
 -1       924 8.32360E-05-2.42282E-05-2.52649E-05-1.61576E-05 3.41120E-18-2.81768E-18
 -1       925 9.62004E-05-2.69830E-05-2.96648E-05-2.99415E-07-1.18236E-18-2.00642E-18
 -1       926 9.54675E-05-2.86808E-05-2.86229E-05-8.17172E-07-2.79130E-19-1.14691E-18
 -1       927 1.17348E-04-5.12259E-05-2.83206E-05-1.43863E-05-1.92617E-19-1.75303E-18
 -1       928 6.55182E-05-2.10617E-05-1.88301E-05 2.19143E-05 5.89806E-19-8.30635E-19
 -1       929 9.45595E-05-2.22866E-05-3.09743E-05 4.30570E-07 4.29972E-19-3.12864E-18
 -1       930 9.57500E-05-2.58349E-05-2.99616E-05 1.29069E-06 1.51906E-18-1.94357E-18
 -1       931 9.46968E-05-2.26167E-05-3.08921E-05 1.22411E-06 8.52752E-19-2.85533E-18
 -1       932 7.52030E-05-1.85039E-05-2.42827E-05-9.24448E-06 3.03641E-18-1.94638E-18
 -1       933 9.61442E-05-2.87717E-05-2.88740E-05-8.88009E-07 5.22385E-19-1.19081E-18
 -1       934 9.59321E-05-2.90154E-05-2.86786E-05-9.65297E-07 4.41607E-19-4.56710E-19
 -1       935 1.03074E-04-3.61699E-05-2.86695E-05-1.21384E-05 1.48230E-18 8.64032E-19
 -1       936 9.58143E-05-2.90031E-05-2.86333E-05-9.23890E-07 5.53720E-19-1.29516E-19
 -1       937 9.53758E-05-2.40874E-05-3.05524E-05-1.03201E-06-6.21754E-19-2.79627E-18
 -1       938 6.38460E-05-1.61056E-05-2.03434E-05 1.10597E-05 8.30097E-19 4.46969E-18
 -1       939 8.39400E-05-2.39260E-05-2.57397E-05 1.89535E-05-2.59077E-19 1.44886E-18
 -1       940 7.92626E-05-2.82499E-05-2.17938E-05 2.32777E-05 1.23846E-18-1.12202E-18
 -1       941 5.47117E-05-1.27084E-05-1.78588E-05 1.42101E-06 2.55929E-19-1.05068E-18
 -1       942 7.64421E-05-1.84320E-05-2.48016E-05 1.14898E-05-1.44994E-18 3.84431E-18
 -1       943 9.25193E-05-3.04601E-05-2.65829E-05-1.79824E-05 3.16624E-18 3.39542E-19
 -1       944 9.52543E-05-2.42365E-05-3.04380E-05 2.26075E-06 1.77002E-18-2.41943E-18
 -1       945 9.61983E-05-2.78613E-05-2.92874E-05-2.75270E-07 1.05190E-18-1.19663E-18
 -1       946 6.67883E-05-1.82084E-05-2.07055E-05-1.33889E-05 1.01338E-18-9.98539E-20
 -1       947 9.59688E-05-2.60019E-05-2.99863E-05-8.29986E-07-1.07410E-18-2.24827E-18
 -1       948 7.22921E-05-1.60585E-05-2.40766E-05 1.26083E-06-1.93377E-19 3.22766E-18
 -1       949 9.98598E-05-3.46702E-05-2.79414E-05-1.53724E-05 2.15852E-18-3.28168E-19
 -1       950 9.66925E-05-2.86957E-05-2.91415E-05 5.33694E-07-8.04190E-19-1.52432E-18
 -1       951 9.66052E-05-2.90111E-05-2.89689E-05 6.42965E-07-4.02716E-19-1.53222E-18
 -1       952 9.64585E-05-2.91524E-05-2.88455E-05 6.78420E-07-1.80061E-19-1.03675E-18
 -1       953 9.62805E-05-2.91708E-05-2.87613E-05 6.71380E-07-2.82899E-19-7.13909E-19
 -1       954 9.60873E-05-2.91016E-05-2.87081E-05 6.46276E-07-2.29041E-19-8.40529E-19
 -1       955 9.58869E-05-2.89689E-05-2.86791E-05 6.21782E-07-2.17414E-19-1.00372E-18
 -1       956 9.56804E-05-2.87866E-05-2.86687E-05 6.12557E-07 1.71230E-19-9.24574E-19
 -1       957 9.54644E-05-2.85622E-05-2.86724E-05 6.30591E-07-4.71633E-19-5.92008E-19
 -1       958 9.52320E-05-2.82981E-05-2.86860E-05 6.86307E-07-6.74906E-19-2.44064E-19
 -1       959 9.49740E-05-2.79937E-05-2.87059E-05 7.89663E-07-2.12363E-19-6.62451E-19
 -1       960 9.46796E-05-2.76475E-05-2.87281E-05 9.50979E-07 3.21008E-19 6.26834E-20
 -1       961 9.43383E-05-2.72593E-05-2.87482E-05 1.18163E-06 5.76919E-19 2.18649E-19
 -1       962 9.39413E-05-2.68332E-05-2.87606E-05 1.49466E-06 4.03382E-19-2.59076E-19
 -1       963 9.34838E-05-2.63809E-05-2.87585E-05 1.90552E-06 7.58247E-19-1.78594E-19
 -1       964 9.29691E-05-2.59259E-05-2.87329E-05 2.43287E-06 2.58662E-19-9.01992E-19
 -1       965 9.24129E-05-2.55093E-05-2.86731E-05 3.09980E-06-1.38811E-19-1.41606E-18
 -1       966 9.18508E-05-2.51967E-05-2.85662E-05 3.93534E-06-4.54356E-19-8.51026E-19
 -1       967 9.13482E-05-2.50859E-05-2.83983E-05 4.97617E-06-1.62128E-19-5.85913E-19
 -1       968 9.10150E-05-2.53179E-05-2.81561E-05 6.26739E-06-1.15398E-18-1.90430E-20
 -1       969 9.10280E-05-2.60897E-05-2.78311E-05 7.85921E-06-5.64828E-19 1.94149E-19
 -1       970 9.16672E-05-2.76702E-05-2.74275E-05 9.78697E-06 6.14845E-19-9.19153E-19
 -1       971 9.33594E-05-3.04063E-05-2.69805E-05 1.20221E-05 1.10570E-18-1.70300E-18
 -1       972 9.67448E-05-3.47112E-05-2.65742E-05 1.43558E-05-8.43484E-20-1.62488E-18
 -1       973 1.02595E-04-4.08668E-05-2.64366E-05 1.61268E-05 6.86394E-19-2.48978E-19
 -1       974 9.71096E-05-3.87158E-05-2.49638E-05 2.04445E-05 1.41023E-18-9.63285E-19
 -1       975 1.05434E-04-4.23975E-05-2.69792E-05-1.86819E-05 2.05717E-18 3.68580E-19
 -1       976 9.47668E-05-2.77074E-05-2.87398E-05-1.00232E-06 6.14747E-19-1.52955E-18
 -1       977 9.58536E-05-2.89701E-05-2.86643E-05-7.12020E-07 1.47359E-19-3.75211E-20
 -1       978 9.62064E-05-2.84327E-05-2.90460E-05-6.78730E-07 3.98684E-19-1.04350E-18
 -1       979 9.50443E-05-2.80579E-05-2.87084E-05-8.49383E-07 3.97795E-19-1.37025E-18
 -1       980 9.52780E-05-2.83532E-05-2.86820E-05-7.52776E-07 3.57660E-20-9.48923E-19
 -1       981 9.44257E-05-2.72907E-05-2.87722E-05-1.21901E-06 4.51796E-19-1.30446E-18
 -1       982 9.39968E-05-2.67951E-05-2.88007E-05-1.50567E-06 4.97410E-19-1.03831E-18
 -1       983 9.34503E-05-2.62073E-05-2.88184E-05-1.86676E-06 3.15672E-19-1.23278E-18
 -1       984 9.27503E-05-2.55150E-05-2.88151E-05-2.30428E-06-7.27852E-19 1.99056E-19
 -1       985 9.18539E-05-2.47095E-05-2.87762E-05-2.81750E-06-3.17782E-19 1.42413E-19
 -1       986 9.07101E-05-2.37887E-05-2.86807E-05-3.40385E-06 5.94870E-19-1.89682E-19
 -1       987 8.92590E-05-2.27629E-05-2.84984E-05-4.06309E-06 2.33248E-19-4.04607E-19
 -1       988 8.74302E-05-2.16610E-05-2.81870E-05-4.80749E-06-8.19180E-21-3.67445E-19
 -1       989 8.51409E-05-2.05401E-05-2.76865E-05-5.68345E-06-8.15658E-19-1.13278E-18
 -1       990 8.22902E-05-1.94973E-05-2.69120E-05-6.80911E-06-8.00708E-19-6.87657E-19
 -1       991 7.87458E-05-1.86927E-05-2.57389E-05-8.46431E-06-1.08386E-18-2.26993E-19
 -1       992 7.42569E-05-1.82996E-05-2.39467E-05-1.11878E-05 3.70913E-19-8.51446E-20
 -1       993 6.49212E-05-1.71283E-05-2.03981E-05 1.36639E-05 1.06932E-18-1.15016E-18
 -1       994 6.58937E-05-1.62857E-05-2.11452E-05-1.11506E-05-7.61533E-19-5.86981E-19
 -1       995 8.80943E-05-3.26863E-05-2.36942E-05-2.45558E-05 1.88275E-18-1.54279E-18
 -1       996 9.64933E-05-2.72313E-05-2.96838E-05-6.58451E-08-4.70722E-19-1.70140E-18
 -1       997 9.49601E-05-2.30639E-05-3.08121E-05-1.82968E-07 9.31537E-21-3.20181E-18
 -1       998 9.66780E-05-2.81371E-05-2.93747E-05 3.12112E-07-5.07850E-19-1.63609E-18
 -1       999 9.49578E-05-2.32841E-05-3.07174E-05 1.86852E-06 1.22415E-18-2.34915E-18
 -1      1000 7.49834E-05-2.25221E-05-2.24125E-05-1.78916E-05 2.37258E-18-1.07917E-18
 -1      1001 9.56724E-05-2.88070E-05-2.86566E-05-6.94157E-07 2.42052E-19-4.14092E-20
 -1      1002 9.59417E-05-2.57611E-05-3.00766E-05 8.66619E-07 9.50952E-19-1.91934E-18
 -1      1003 9.64912E-05-2.89451E-05-2.89484E-05-7.33583E-07 3.72867E-19-1.18834E-18
 -1      1004 9.60303E-05-2.90841E-05-2.86912E-05-7.44192E-07-1.76167E-19-7.17971E-19
 -1      1005 9.63607E-05-2.91014E-05-2.88254E-05-7.80371E-07 3.47273E-19-1.32825E-18
 -1      1006 9.59468E-05-2.54728E-05-3.02028E-05-6.76134E-07-5.90336E-19-2.50834E-18
 -1      1007 7.47932E-05-2.25532E-05-2.23627E-05 1.72618E-05 4.64748E-19-1.30406E-18
 -1      1008 9.56126E-05-2.44815E-05-3.04841E-05 4.90652E-07 7.21645E-19-2.64206E-18
 -1      1009 9.51488E-05-2.34987E-05-3.07075E-05-6.66306E-07-2.85262E-19-2.81373E-18
 -1      1010 9.63501E-05-2.71154E-05-2.96716E-05 1.55838E-07 7.34611E-19-1.43869E-18
 -1      1011 9.58766E-05-2.49962E-05-3.03767E-05 9.49532E-08 4.22150E-19-2.59270E-18
 -1      1012 9.54834E-05-2.86014E-05-2.86637E-05-7.04174E-07-2.05513E-19-4.86629E-19
 -1      1013 9.62836E-05-2.64477E-05-2.99295E-05-3.59592E-07-5.75151E-19-2.15429E-18
 -1      1014 9.67533E-05-2.91451E-05-2.89749E-05 4.22213E-07 1.24925E-19-1.17613E-18
 -1      1015 9.65728E-05-2.92368E-05-2.88583E-05 4.34747E-07-2.42568E-19-1.09768E-18
 -1      1016 9.63594E-05-2.92094E-05-2.87786E-05 4.26677E-07-4.13975E-19-1.10822E-18
 -1      1017 9.61280E-05-2.90959E-05-2.87281E-05 4.12821E-07 1.87961E-19-5.67192E-19
 -1      1018 9.58851E-05-2.89176E-05-2.87004E-05 4.03562E-07-3.30393E-19-8.40883E-19
 -1      1019 9.56296E-05-2.86862E-05-2.86900E-05 4.08725E-07 6.57281E-21-1.38879E-18
 -1      1020 9.53558E-05-2.84073E-05-2.86923E-05 4.36088E-07-1.68764E-19-1.04070E-18
 -1      1021 9.50535E-05-2.80807E-05-2.87027E-05 4.93340E-07-1.72503E-19-5.05657E-19
 -1      1022 9.47095E-05-2.77040E-05-2.87167E-05 5.88788E-07 3.98999E-19 5.16195E-19
 -1      1023 9.43089E-05-2.72739E-05-2.87294E-05 7.32136E-07 3.06676E-19 6.21823E-19
 -1      1024 9.38364E-05-2.67890E-05-2.87348E-05 9.35432E-07 3.15542E-19-2.42057E-19
 -1      1025 9.32779E-05-2.62524E-05-2.87254E-05 1.21423E-06 4.04349E-19-1.21114E-18
 -1      1026 9.26225E-05-2.56754E-05-2.86919E-05 1.58916E-06 2.79872E-19-1.70274E-18
 -1      1027 9.18658E-05-2.50817E-05-2.86221E-05 2.08802E-06-5.93970E-19-1.05360E-18
 -1      1028 9.10141E-05-2.45126E-05-2.85011E-05 2.74890E-06 2.58988E-19-1.31528E-18
 -1      1029 9.00897E-05-2.40327E-05-2.83107E-05 3.62440E-06-3.27341E-19-8.74371E-19
 -1      1030 8.91395E-05-2.37386E-05-2.80296E-05 4.78747E-06-6.22918E-19-9.59618E-19
 -1      1031 8.82478E-05-2.37691E-05-2.76348E-05 6.33831E-06-5.70593E-19-5.34511E-19
 -1      1032 8.75544E-05-2.43196E-05-2.71027E-05 8.41544E-06-4.81457E-19-2.61805E-19
 -1      1033 8.73418E-05-2.57067E-05-2.64159E-05 1.11836E-05 9.28591E-19-1.37418E-18
 -1      1034 8.79954E-05-2.83170E-05-2.55770E-05 1.47900E-05 3.63137E-19-1.13605E-18
 -1      1035 9.13091E-05-3.26967E-05-2.51341E-05 1.79435E-05 8.68345E-19-1.58485E-18
 -1      1036 9.62021E-05-2.91360E-05-2.87426E-05-7.74651E-07 3.68143E-19-1.30355E-18
 -1      1037 9.65286E-05-2.80291E-05-2.93568E-05-3.19040E-07 6.67292E-19-1.23954E-18
 -1      1038 9.47941E-05-2.77766E-05-2.87218E-05-6.64446E-07 4.91382E-19-8.58377E-19
 -1      1039 9.51215E-05-2.81489E-05-2.87026E-05-5.79782E-07 3.77156E-19-8.80354E-19
 -1      1040 9.33197E-05-2.62102E-05-2.87614E-05-1.15040E-06 1.94155E-19-5.51755E-19
 -1      1041 9.25650E-05-2.54981E-05-2.87432E-05-1.38521E-06-6.63025E-19-6.32270E-19
 -1      1042 9.16146E-05-2.46739E-05-2.86891E-05-1.64414E-06 6.12661E-20-8.97228E-19
 -1      1043 9.04187E-05-2.37331E-05-2.85799E-05-1.91187E-06-2.68509E-19-1.06611E-18
 -1      1044 8.89159E-05-2.26776E-05-2.83884E-05-2.16811E-06 5.35347E-20 4.69128E-20
 -1      1045 8.70275E-05-2.15172E-05-2.80766E-05-2.39097E-06-7.62318E-20-9.70029E-20
 -1      1046 8.46446E-05-2.02682E-05-2.75910E-05-2.56571E-06-6.83436E-19 4.05466E-19
 -1      1047 8.16020E-05-1.89481E-05-2.68533E-05-2.70513E-06-9.47192E-19 8.43867E-19
 -1      1048 7.76648E-05-1.75905E-05-2.57451E-05-2.87752E-06-3.89878E-19-4.29923E-19
 -1      1049 7.22659E-05-1.60619E-05-2.40574E-05-3.23524E-06-6.37440E-19-7.55552E-19
 -1      1050 9.68733E-05-2.88864E-05-2.91372E-05 3.71347E-07-6.71166E-19-1.65683E-18
 -1      1051 6.55937E-05-1.44770E-05-2.18675E-05 1.25752E-07-3.13442E-19-8.15491E-19
 -1      1052 9.65680E-05-2.86179E-05-2.91215E-05-5.95636E-07 4.81496E-19-1.41543E-18
 -1      1053 9.68900E-05-2.83945E-05-2.93552E-05 2.58048E-07-4.97747E-19-1.68525E-18
 -1      1054 9.54043E-05-2.84638E-05-2.86888E-05-5.29495E-07 1.25837E-19-1.34195E-18
 -1      1055 6.69003E-05-1.55072E-05-2.19500E-05-1.21110E-06 2.66422E-19 5.03342E-18
 -1      1056 9.58024E-05-2.50658E-05-3.03152E-05 7.65061E-07 7.89101E-19-2.48517E-18
 -1      1057 9.67423E-05-2.75785E-05-2.96416E-05 6.09506E-08-2.77842E-20-2.05761E-18
 -1      1058 9.39203E-05-2.68194E-05-2.87577E-05-9.49427E-07 2.03310E-19-1.48622E-18
 -1      1059 9.44019E-05-2.73374E-05-2.87420E-05-7.87098E-07 6.87834E-19-1.26422E-18
 -1      1060 9.58947E-05-2.89419E-05-2.86940E-05-5.10480E-07 3.32862E-19-1.08222E-18
 -1      1061 9.61227E-05-2.91052E-05-2.87221E-05-5.28597E-07-3.23566E-19-9.27298E-19
 -1      1062 9.63506E-05-2.62091E-05-3.00603E-05 1.83574E-07 4.92775E-19-2.62228E-18
 -1      1063 9.58078E-05-2.49599E-05-3.03632E-05-5.07879E-07-2.63890E-19-2.69062E-18
 -1      1064 8.25695E-05-2.60433E-05-2.42056E-05 1.66628E-05 2.48731E-19-5.45253E-19
 -1      1065 9.65545E-05-2.68859E-05-2.98575E-05-9.30377E-08-2.05421E-19-2.47782E-18
 -1      1066 9.68035E-05-2.88105E-05-2.91398E-05-4.57941E-07 4.15458E-19-1.64997E-18
 -1      1067 6.94830E-05-1.64156E-05-2.27274E-05 6.93385E-06 1.61099E-19-7.83142E-19
 -1      1068 9.66976E-05-2.90902E-05-2.89749E-05-5.31054E-07 3.14383E-19-1.74896E-18
 -1      1069 9.64063E-05-2.66700E-05-2.98866E-05 2.25385E-07 5.70230E-19-2.38387E-18
 -1      1070 9.59789E-05-2.52505E-05-3.03121E-05-1.87335E-07-7.73379E-20-2.68583E-18
 -1      1071 9.56584E-05-2.87277E-05-2.86846E-05-5.08515E-07 1.25811E-19-1.05324E-18
 -1      1072 9.65688E-05-2.92689E-05-2.88428E-05 1.67836E-07-3.11381E-19-1.06287E-18
 -1      1073 9.63320E-05-2.91948E-05-2.87731E-05 1.62359E-07 4.48677E-21-9.98303E-19
 -1      1074 9.60749E-05-2.90372E-05-2.87304E-05 1.58704E-07-1.15380E-20-1.35994E-18
 -1      1075 9.58020E-05-2.88173E-05-2.87076E-05 1.60599E-07-3.19135E-19-1.03240E-18
 -1      1076 9.55103E-05-2.85432E-05-2.87001E-05 1.70105E-07 1.17141E-19-1.33383E-18
 -1      1077 9.51907E-05-2.82164E-05-2.87032E-05 1.92223E-07 4.17184E-19-8.95643E-19
 -1      1078 9.48293E-05-2.78345E-05-2.87119E-05 2.31999E-07 7.37311E-19-1.82964E-19
 -1      1079 9.44092E-05-2.73926E-05-2.87213E-05 2.95897E-07 3.51333E-19-2.58809E-19
 -1      1080 9.39109E-05-2.68849E-05-2.87252E-05 3.92778E-07-1.53259E-19-6.27563E-19
 -1      1081 9.33135E-05-2.63080E-05-2.87164E-05 5.35139E-07-6.02843E-19-1.30062E-18
 -1      1082 9.25957E-05-2.56625E-05-2.86853E-05 7.40783E-07 2.59574E-19-1.83487E-18
 -1      1083 9.17371E-05-2.49567E-05-2.86197E-05 1.03511E-06 5.58858E-19-1.83816E-18
 -1      1084 9.07202E-05-2.42100E-05-2.85037E-05 1.45429E-06-4.94577E-19-9.32099E-19
 -1      1085 8.95315E-05-2.34562E-05-2.83169E-05 2.04975E-06-3.77347E-19-1.58992E-18
 -1      1086 8.81632E-05-2.27482E-05-2.80334E-05 2.89467E-06-4.82212E-19-1.63795E-18
 -1      1087 8.66151E-05-2.21625E-05-2.76205E-05 4.09351E-06-7.18482E-19-1.46456E-18
 -1      1088 8.48989E-05-2.18085E-05-2.70370E-05 5.79789E-06 4.36613E-20-1.59282E-18
 -1      1089 8.31280E-05-2.18527E-05-2.62600E-05 8.18362E-06-2.84134E-19-5.61892E-19
 -1      1090 8.12475E-05-2.25857E-05-2.51493E-05 1.15437E-05 1.06847E-18-5.99876E-19
 -1      1091 9.06423E-05-2.40150E-05-2.85551E-05-5.92719E-07 9.25562E-20 3.50181E-20
 -1      1092 9.49112E-05-2.79152E-05-2.87126E-05-3.26462E-07 6.15953E-19-1.63893E-18
 -1      1093 9.55651E-05-2.86012E-05-2.86988E-05-2.80563E-07 2.57989E-19-1.16866E-18
 -1      1094 9.17699E-05-2.49021E-05-2.86580E-05-5.92571E-07-1.31011E-20-2.53581E-19
 -1      1095 9.26818E-05-2.56886E-05-2.87116E-05-5.50244E-07-1.90253E-19-1.83580E-19
 -1      1096 8.92511E-05-2.30328E-05-2.83800E-05-5.16400E-07-2.38399E-19-5.43500E-19
 -1      1097 8.75361E-05-2.19685E-05-2.81016E-05-3.16713E-07-3.29818E-19 5.95552E-20
 -1      1098 8.54155E-05-2.08407E-05-2.76768E-05 6.83804E-08-4.81058E-19 9.65298E-19
 -1      1099 8.27666E-05-1.96684E-05-2.70448E-05 7.20405E-07-5.90517E-19 6.96627E-19
 -1      1100 7.93758E-05-1.84392E-05-2.61157E-05 1.75964E-06 6.47122E-20 3.35954E-19
 -1      1101 7.49839E-05-1.71987E-05-2.47547E-05 3.19195E-06-3.50319E-19 6.92660E-19
 -1      1102 9.69354E-05-2.90525E-05-2.90928E-05 1.53922E-07 1.33364E-19-1.65469E-18
 -1      1103 9.67978E-05-2.82805E-05-2.93656E-05-2.96284E-07 4.68338E-19-1.68927E-18
 -1      1104 9.66647E-05-2.75962E-05-2.96010E-05-8.82065E-08 4.64403E-19-2.21988E-18
 -1      1105 9.65373E-05-2.66054E-05-2.99696E-05 5.52901E-09 4.06116E-19-2.28053E-18
 -1      1106 9.67790E-05-2.92366E-05-2.89468E-05 1.67220E-07 8.87281E-20-1.75448E-18
 -1      1107 9.52584E-05-2.82867E-05-2.87022E-05-2.96606E-07 4.71276E-20-1.02268E-18
 -1      1108 9.70032E-05-2.86591E-05-2.92901E-05 1.24046E-07-4.97648E-19-2.02305E-18
 -1      1109 9.58456E-05-2.88622E-05-2.87072E-05-2.76268E-07-1.03955E-20-1.38137E-18
 -1      1110 9.34188E-05-2.63757E-05-2.87329E-05-4.89653E-07-4.69093E-19-7.67078E-19
 -1      1111 9.62491E-05-2.60299E-05-3.00944E-05-2.79232E-07-4.14369E-19-2.67111E-18
 -1      1112 9.69117E-05-2.79655E-05-2.95483E-05 5.57742E-08 1.69597E-20-2.28795E-18
 -1      1113 9.69645E-05-2.85237E-05-2.93303E-05-2.02287E-07 2.48030E-19-1.90344E-18
 -1      1114 9.61089E-05-2.90676E-05-2.87318E-05-2.79025E-07-6.86824E-20-1.53495E-18
 -1      1115 9.65405E-05-2.92092E-05-2.88562E-05-5.52903E-07 2.55970E-19-1.59227E-18
 -1      1116 9.45047E-05-2.74794E-05-2.87252E-05-3.70424E-07 1.00620E-18-2.00507E-18
 -1      1117 9.67304E-05-2.73113E-05-2.97517E-05-4.05229E-09 1.86745E-19-2.58200E-18
 -1      1118 9.67857E-05-2.74162E-05-2.97336E-05 1.19935E-08 1.15053E-19-1.88210E-18
 -1      1119 9.63410E-05-2.92011E-05-2.87744E-05-5.47451E-07-4.27504E-19-1.39989E-18
 -1      1120 7.60311E-05-1.98037E-05-2.40903E-05 1.03118E-05 6.57059E-19-1.83021E-18
 -1      1121 9.69240E-05-2.89679E-05-2.91233E-05-2.70128E-07 4.01625E-19-1.56944E-18
 -1      1122 9.40162E-05-2.69696E-05-2.87343E-05-4.26524E-07 9.13801E-20-1.55956E-18
 -1      1123 9.64671E-05-2.92476E-05-2.88081E-05-1.04855E-07-3.77801E-19-1.62579E-18
 -1      1124 9.70115E-05-2.83823E-05-2.94109E-05-5.30468E-08-2.89246E-19-2.54586E-18
 -1      1125 9.68861E-05-2.91730E-05-2.90201E-05-1.03291E-07 2.52808E-19-1.61593E-18
 -1      1126 9.69912E-05-2.88854E-05-2.91885E-05-8.86214E-08 2.62999E-19-2.03859E-18
 -1      1127 9.66965E-05-2.92737E-05-2.88953E-05-1.07316E-07 5.64563E-20-1.50080E-18
 -1      1128 9.65386E-05-2.67023E-05-2.99285E-05-6.08507E-08 7.34091E-20-2.07214E-18
 -1      1129 1.16853E-04 2.57560E-10-4.18544E-05-4.14669E-05-3.98953E-19 1.58366E-17
 -1      1130 8.86472E-05 7.19099E-11-3.72499E-05-2.41708E-05-2.45640E-19 3.03984E-18
 -1      1131 8.40756E-05 4.14503E-11-3.57658E-05-1.78821E-05-1.75812E-19-2.62417E-18
 -1      1132 8.23328E-05 3.20293E-11-3.50722E-05-1.38397E-05-1.29808E-19-5.39829E-18
 -1      1133 8.15309E-05 2.73289E-11-3.47383E-05-1.05373E-05-9.39148E-20-6.75750E-18
 -1      1134 8.11306E-05 2.46162E-11-3.45736E-05-7.64416E-06-5.91401E-20-7.38467E-18
 -1      1135 8.09233E-05 2.29627E-11-3.44909E-05-4.98205E-06-3.61015E-20-7.70104E-18
 -1      1136 8.08223E-05 2.20682E-11-3.44521E-05-2.43310E-06-1.46196E-20-7.82445E-18
 -1      1137 8.07935E-05 2.17968E-11-3.44412E-05 5.27950E-08 5.77620E-21-7.81149E-18
 -1      1138 8.08264E-05 2.21101E-11-3.44535E-05 2.54107E-06 1.96952E-20-7.77045E-18
 -1      1139 8.09320E-05 2.30589E-11-3.44939E-05 5.09793E-06 3.50857E-20-7.61024E-18
 -1      1140 8.11465E-05 2.47734E-11-3.45780E-05 7.77577E-06 6.68759E-20-7.13728E-18
 -1      1141 8.15537E-05 2.76438E-11-3.47448E-05 1.06970E-05 1.04622E-19-6.32712E-18
 -1      1142 8.23567E-05 3.24996E-11-3.50821E-05 1.40466E-05 1.37563E-19-4.80123E-18
 -1      1143 8.40710E-05 4.19207E-11-3.57857E-05 1.81329E-05 1.93124E-19-1.78507E-18
 -1      1144 8.83452E-05 6.67360E-11-3.73202E-05 2.40131E-05 2.23087E-19 4.12587E-18
 -1      1145 1.06617E-04 1.63914E-10-4.06332E-05 3.61937E-05 4.85773E-19 1.65592E-17
 -1      1146 1.30220E-04-2.57558E-05-4.02728E-05-2.61067E-05-1.75961E-18 2.40214E-17
 -1      1147 9.74522E-05-2.88612E-05-3.15763E-05-6.80636E-07-5.65633E-19 1.99621E-17
 -1      1148 9.01526E-05-2.70245E-05-2.78909E-05 3.87107E-07-1.98166E-19 1.40810E-17
 -1      1149 8.82394E-05-2.65693E-05-2.66406E-05 2.50746E-07-1.09565E-19 1.01180E-17
 -1      1150 8.78767E-05-2.64415E-05-2.63831E-05 1.65590E-07-1.18035E-19 7.30317E-18
 -1      1151 8.82308E-05-2.65166E-05-2.64667E-05 1.17912E-07-1.51891E-19 5.36744E-18
 -1      1152 8.89122E-05-2.66995E-05-2.66677E-05 8.72747E-08-4.36483E-20 3.95944E-18
 -1      1153 8.97211E-05-2.69297E-05-2.69085E-05 6.59513E-08 1.41502E-20 2.81600E-18
 -1      1154 9.05474E-05-2.71704E-05-2.71549E-05 5.01377E-08-1.05106E-19 1.39478E-18
 -1      1155 9.13295E-05-2.74009E-05-2.73887E-05 3.79370E-08-9.06077E-20 2.22644E-19
 -1      1156 9.20351E-05-2.76102E-05-2.76005E-05 2.83238E-08 2.58526E-20-8.44594E-19
 -1      1157 9.26510E-05-2.77937E-05-2.77859E-05 2.06933E-08 1.33614E-19-1.11230E-18
 -1      1158 9.31762E-05-2.79509E-05-2.79446E-05 1.46480E-08-5.40063E-20-1.72072E-18
 -1      1159 9.36184E-05-2.80836E-05-2.80788E-05 9.90540E-09 4.76249E-22-1.65736E-18
 -1      1160 9.39909E-05-2.81959E-05-2.81922E-05 6.26044E-09-3.30626E-20-1.94646E-18
 -1      1161 9.43114E-05-2.82928E-05-2.82902E-05 3.57156E-09-9.29722E-20-2.91006E-18
 -1      1162 9.46006E-05-2.83806E-05-2.83791E-05 1.75799E-09-1.18669E-19-3.74228E-18
 -1      1163 9.48827E-05-2.84664E-05-2.84660E-05 8.02263E-10 1.16941E-20-4.57745E-18
 -1      1164 9.51845E-05-2.85584E-05-2.85591E-05 7.54732E-10-3.54486E-20-4.32658E-18
 -1      1165 9.55364E-05-2.86654E-05-2.86676E-05 1.73770E-09 1.26623E-20-5.26506E-18
 -1      1166 9.59721E-05-2.87978E-05-2.88016E-05 3.94559E-09-4.70149E-20-5.88655E-18
 -1      1167 9.65285E-05-2.89662E-05-2.89719E-05 7.63550E-09-5.99245E-20-5.70858E-18
 -1      1168 9.72438E-05-2.91822E-05-2.91900E-05 1.30981E-08 9.89800E-20-5.31971E-18
 -1      1169 9.81553E-05-2.94565E-05-2.94665E-05 2.05913E-08-2.03701E-19-5.49429E-18
 -1      1170 9.92936E-05-2.97980E-05-2.98098E-05 3.02105E-08 8.31494E-20-5.37515E-18
 -1      1171 1.00673E-04-3.02104E-05-3.02231E-05 4.16540E-08-1.29972E-19-4.84099E-18
 -1      1172 1.02279E-04-3.06886E-05-3.06996E-05 5.38389E-08 2.55945E-19-6.11882E-18
 -1      1173 1.04044E-04-3.12120E-05-3.12171E-05 6.43371E-08 1.62122E-19-4.96590E-18
 -1      1174 1.05827E-04-3.17375E-05-3.17299E-05 6.86872E-08-8.25485E-21-4.11544E-18
 -1      1175 1.07382E-04-3.21917E-05-3.21627E-05 5.98658E-08 2.49585E-20-2.19102E-18
 -1      1176 1.08348E-04-3.24668E-05-3.24080E-05 2.86331E-08-4.22044E-20-1.90793E-18
 -1      1177 1.08262E-04-3.24275E-05-3.23356E-05-3.39793E-08-1.19399E-19-3.08556E-18
 -1      1178 1.06654E-04-3.19372E-05-3.18218E-05-1.30645E-07 1.74204E-20-3.58726E-18
 -1      1179 1.03220E-04-3.09118E-05-3.08013E-05-2.48599E-07 2.03784E-20-2.34782E-18
 -1      1180 9.80840E-05-2.93941E-05-2.93330E-05-3.52394E-07-9.20487E-21-3.83229E-18
 -1      1181 9.20086E-05-2.76131E-05-2.76441E-05-3.89156E-07 1.11185E-19-2.14569E-18
 -1      1182 8.63755E-05-2.59716E-05-2.61085E-05-3.14752E-07 1.52380E-19-2.77059E-18
 -1      1183 8.27680E-05-2.49232E-05-2.51322E-05-1.30538E-07 3.02252E-20-2.60349E-18
 -1      1184 8.22705E-05-2.47745E-05-2.49848E-05 1.01478E-07 3.35643E-19-2.49856E-18
 -1      1185 8.49011E-05-2.55304E-05-2.56695E-05 2.89123E-07 6.70612E-20-1.33995E-18
 -1      1186 8.95901E-05-2.68879E-05-2.69191E-05 3.66672E-07 8.72866E-20-2.26624E-18
 -1      1187 9.47282E-05-2.83867E-05-2.83214E-05 3.28791E-07-3.13470E-19-5.13461E-18
 -1      1188 9.88830E-05-2.96098E-05-2.94909E-05 2.18383E-07-2.68440E-19-7.67928E-18
 -1      1189 1.01254E-04-3.03179E-05-3.01926E-05 9.00338E-08 4.68217E-20-5.11112E-18
 -1      1190 1.01729E-04-3.04719E-05-3.03740E-05-1.72496E-08 3.03557E-19-4.77832E-18
 -1      1191 1.00695E-04-3.01809E-05-3.01282E-05-8.55649E-08 2.33857E-19-6.28975E-19
 -1      1192 9.88017E-05-2.96334E-05-2.96332E-05-1.09738E-07-3.09603E-20-8.07686E-19
 -1      1193 9.67891E-05-2.90484E-05-2.90962E-05-8.33303E-08-1.50994E-19-8.20193E-19
 -1      1194 9.54177E-05-2.86707E-05-2.86935E-05 9.42010E-09 2.48863E-19-2.25918E-18
 -1      1195 9.50681E-05-2.85123E-05-2.84593E-05 5.86441E-08 3.35335E-19-5.29621E-19
 -1      1196 1.31054E-04-3.77383E-05-3.86584E-05 1.21748E-05-3.11973E-19 2.68700E-17
 -1      1197 9.65542E-05-2.81880E-05-3.13289E-05 8.01560E-07 1.94394E-19 2.11666E-17
 -1      1198 9.03664E-05-2.69270E-05-2.78719E-05 1.20213E-07 1.42831E-19 1.56947E-17
 -1      1199 8.83249E-05-2.64964E-05-2.66768E-05 9.04276E-09 9.30777E-20 1.19341E-17
 -1      1200 8.79166E-05-2.64038E-05-2.64100E-05-2.52381E-08 3.74994E-20 9.23472E-18
 -1      1201 8.82529E-05-2.64993E-05-2.64823E-05-3.42350E-08 1.06047E-19 7.18146E-18
 -1      1202 8.89252E-05-2.66927E-05-2.66779E-05-3.53725E-08 4.25862E-20 5.95796E-18
 -1      1203 8.97289E-05-2.69282E-05-2.69158E-05-3.35879E-08 3.61645E-20 5.13246E-18
 -1      1204 9.05519E-05-2.71717E-05-2.71602E-05-3.04325E-08 1.40879E-21 4.25866E-18
 -1      1205 9.13317E-05-2.74035E-05-2.73925E-05-2.66044E-08 8.74808E-20 3.70349E-18
 -1      1206 9.20353E-05-2.76132E-05-2.76030E-05-2.25092E-08 7.51394E-20 2.47096E-18
 -1      1207 9.26492E-05-2.77965E-05-2.77872E-05-1.83965E-08 1.35810E-19 9.72261E-19
 -1      1208 9.31721E-05-2.79529E-05-2.79448E-05-1.44090E-08 1.46529E-19-6.25481E-19
 -1      1209 9.36115E-05-2.80846E-05-2.80776E-05-1.06125E-08-9.01146E-20-8.84167E-19
 -1      1210 9.39804E-05-2.81954E-05-2.81896E-05-7.01597E-09 3.77078E-20-1.00900E-18
 -1      1211 9.42964E-05-2.82905E-05-2.82859E-05-3.58893E-09 8.17435E-21-1.17522E-18
 -1      1212 9.45804E-05-2.83763E-05-2.83730E-05-2.74731E-10-1.01819E-19-6.99914E-19
 -1      1213 9.48572E-05-2.84602E-05-2.84583E-05 2.99703E-09 2.23182E-19-1.68963E-18
 -1      1214 9.51557E-05-2.85509E-05-2.85506E-05 6.29807E-09 7.53257E-20-2.64261E-18
 -1      1215 9.55101E-05-2.86587E-05-2.86602E-05 9.68594E-09 3.33323E-20-1.96491E-18
 -1      1216 9.59615E-05-2.87961E-05-2.87999E-05 1.31814E-08-6.87240E-20-1.34066E-18
 -1      1217 9.65603E-05-2.89782E-05-2.89850E-05 1.67306E-08-5.74642E-20 8.92470E-20
 -1      1218 9.73683E-05-2.92236E-05-2.92344E-05 2.01395E-08 5.21016E-20-1.32551E-18
 -1      1219 9.84615E-05-2.95549E-05-2.95712E-05 2.29568E-08 1.48384E-19-4.24886E-18
 -1      1220 9.99325E-05-2.99998E-05-3.00237E-05 2.42733E-08 4.78392E-20-3.14572E-18
 -1      1221 1.01890E-04-3.05905E-05-3.06247E-05 2.23921E-08-1.26240E-19 5.65560E-19
 -1      1222 1.04457E-04-3.13622E-05-3.14100E-05 1.43392E-08 1.01925E-19-9.98440E-20
 -1      1223 1.07754E-04-3.23489E-05-3.24125E-05-4.72476E-09 1.01255E-19-1.24362E-18
 -1      1224 1.11860E-04-3.35715E-05-3.36496E-05-4.18110E-08 1.74267E-19-3.01380E-18
 -1      1225 1.16747E-04-3.50167E-05-3.50973E-05-1.04922E-07 1.20529E-19-3.78690E-18
 -1      1226 1.22135E-04-3.65980E-05-3.66476E-05-1.97693E-07 9.01852E-20-3.04082E-18
 -1      1227 1.27297E-04-3.81006E-05-3.80525E-05-3.05696E-07 7.87228E-20-2.24488E-18
 -1      1228 1.30835E-04-3.91248E-05-3.88839E-05-3.73216E-07-9.41398E-20-6.21259E-19
 -1      1229 1.30670E-04-3.90860E-05-3.85826E-05-2.88449E-07 1.01512E-19-2.49377E-18
 -1      1230 1.24680E-04-3.73855E-05-3.66968E-05 6.57018E-08-2.69383E-19-2.11356E-18
 -1      1231 1.12391E-04-3.38503E-05-3.33177E-05 6.54624E-07-2.67775E-20-1.72117E-18
 -1      1232 9.70294E-05-2.93133E-05-2.94382E-05 1.14265E-06-4.15112E-20-4.23813E-18
 -1      1233 8.55032E-05-2.57223E-05-2.67124E-05 1.06538E-06-2.13479E-19-3.37733E-18
 -1      1234 8.42550E-05-2.51260E-05-2.64711E-05 3.43764E-07 4.22034E-19-5.67597E-18
 -1      1235 9.37484E-05-2.78997E-05-2.87506E-05-5.25708E-07 1.68004E-19-7.11381E-18
 -1      1236 1.07983E-04-3.22763E-05-3.22656E-05-9.75740E-07 2.43452E-19-6.84636E-18
 -1      1237 1.19704E-04-3.59227E-05-3.53485E-05-8.93845E-07-2.81963E-19-4.14496E-18
 -1      1238 1.25142E-04-3.76098E-05-3.69466E-05-5.39734E-07-3.71232E-19-2.59451E-18
 -1      1239 1.24443E-04-3.73953E-05-3.69143E-05-1.81356E-07 7.21004E-20-2.44102E-18
 -1      1240 1.19643E-04-3.59320E-05-3.56836E-05 6.76740E-08 2.13032E-19-6.32802E-18
 -1      1241 1.12947E-04-3.39087E-05-3.38376E-05 2.06615E-07 1.46971E-19-8.40966E-18
 -1      1242 1.06027E-04-3.18335E-05-3.18812E-05 2.74771E-07 2.39666E-19-9.50133E-18
 -1      1243 1.00071E-04-3.00584E-05-3.01939E-05 2.92040E-07 4.42059E-19-1.02116E-17
 -1      1244 9.61118E-05-2.88784E-05-2.90342E-05 2.04021E-07 4.40990E-19-7.30050E-18
 -1      1245 9.49656E-05-2.84769E-05-2.83939E-05-9.96926E-08-2.50285E-19-4.13687E-18
 -1      1246 9.53415E-05-2.88452E-05-2.84027E-05-8.38647E-08-4.28039E-18-3.49150E-19
 -1      1247 9.48904E-05-2.76088E-05-2.90534E-05 2.45611E-08-3.01763E-18 1.59480E-21
 -1      1248 9.37668E-05-2.37762E-05-3.01635E-05 2.39076E-07 2.20880E-18 2.38402E-19
 -1      1249 9.21817E-05-1.83903E-05-3.16597E-05 3.01202E-07-4.85879E-19-1.13286E-19
 -1      1250 9.05198E-05-1.27357E-05-3.32447E-05 2.82974E-07-9.45871E-19-2.86286E-19
 -1      1251 8.91149E-05-7.94584E-06-3.45978E-05 2.08935E-07-2.33479E-18 8.18644E-20
 -1      1252 8.81952E-05-4.81569E-06-3.54913E-05 1.05524E-07-1.63586E-18-1.11181E-18
 -1      1253 8.78980E-05-3.81494E-06-3.57894E-05-1.47158E-08-1.34186E-18-1.10415E-18
 -1      1254 8.82445E-05-5.01672E-06-3.54683E-05-1.19392E-07-1.60830E-18 1.21410E-19
 -1      1255 8.91205E-05-8.02191E-06-3.46328E-05-1.87580E-07 2.91136E-18 1.18885E-18
 -1      1256 9.03289E-05-1.21483E-05-3.34668E-05-2.11453E-07-1.57297E-18-1.55691E-18
 -1      1257 9.16426E-05-1.66086E-05-3.21890E-05-1.96966E-07-1.07534E-17 8.65019E-19
 -1      1258 9.28840E-05-2.08078E-05-3.09692E-05-1.61339E-07-7.48065E-18 3.77764E-19
 -1      1259 9.39390E-05-2.43529E-05-2.99316E-05-1.14666E-07 9.03043E-19 7.39119E-20
 -1      1260 9.47312E-05-2.69804E-05-2.91665E-05-7.68666E-08 2.97326E-18-4.55618E-19
 -1      1261 9.51023E-05-2.83479E-05-2.87059E-05 7.12284E-08 1.73156E-18-8.43805E-19
 -1      1262 9.52968E-05-2.87405E-05-2.84628E-05 5.66581E-08 6.98207E-19 8.61942E-19
 -1      1263 3.64748E-05-1.14628E-04 1.97262E-05-1.46870E-05 1.05062E-17 1.96705E-18
 -1      1264 1.96847E-05-7.36382E-05 1.14649E-05-2.84887E-05 1.22227E-17 3.16642E-18
 -1      1265 7.82601E-06-1.39918E-05-4.48600E-06-4.86421E-06 6.56112E-18 4.59346E-18
 -1      1266 3.49377E-05 2.27979E-05-2.58228E-05 5.15719E-05 8.89893E-18 8.37038E-18
 -1      1267 1.10901E-04 1.25380E-05-4.76399E-05 1.03203E-04 7.10661E-18 1.09945E-17
 -1      1268 2.12240E-04-3.33892E-05-6.56407E-05 1.13456E-04 4.50537E-18 9.75951E-18
 -1      1269 2.96862E-04-8.13905E-05-7.71994E-05 7.03329E-05 1.76299E-18 6.09186E-18
 -1      1270 3.22785E-04-9.71270E-05-8.03474E-05-1.09670E-05 5.90170E-19-9.76205E-19
 -1      1271 2.70378E-04-6.63331E-05-7.34518E-05-8.54279E-05 2.90469E-18-8.87691E-18
 -1      1272 1.73373E-04-1.56298E-05-5.86427E-05-1.12443E-04 6.32056E-18-1.23294E-17
 -1      1273 7.43096E-05 1.97721E-05-3.81301E-05-8.16210E-05 1.00670E-17-1.27512E-17
 -1      1274 1.66232E-05 1.12525E-05-1.60040E-05-2.39869E-05 1.44013E-17-1.15756E-17
 -1      1275 8.94436E-06-3.59137E-05 2.35254E-06 1.91756E-05 1.45537E-17-7.89604E-18
 -1      1276 2.58566E-05-9.03384E-05 1.53360E-05 2.65380E-05 1.03889E-17-2.75021E-18
 -1      1277 3.81417E-05-1.16865E-04 2.02068E-05 4.90736E-06 5.90678E-18-8.46768E-19
 -1      1278 3.05830E-05-9.85903E-05 1.67459E-05-2.05470E-05-4.93481E-18-1.24810E-18
 -1      1279 1.21499E-05-4.65192E-05 5.41515E-06-2.06966E-05-1.27089E-17-5.45405E-18
 -1      1280 9.97639E-06 5.91120E-06-1.15422E-05 1.38555E-05-1.67899E-17-1.17153E-17
 -1      1281 4.71685E-05 2.74619E-05-3.12222E-05 6.74584E-05-1.69390E-17-1.81536E-17
 -1      1282 1.26645E-04 6.77758E-06-5.07022E-05 1.08110E-04-1.10047E-17-1.65527E-17
 -1      1283 2.22607E-04-4.08483E-05-6.68101E-05 1.05067E-04-5.04620E-18-1.23421E-17
 -1      1284 2.95716E-04-8.40208E-05-7.65782E-05 5.61486E-05-1.36216E-18-8.96711E-18
 -1      1285 3.11048E-04-9.32516E-05-7.85421E-05-2.00962E-05-7.80541E-19-1.52932E-18
 -1      1286 2.62488E-04-6.31313E-05-7.23325E-05-8.78747E-05-2.44496E-18 7.16336E-18
 -1      1287 1.73381E-04-1.39865E-05-5.90331E-05-1.14118E-04-7.19893E-18 1.36084E-17
 -1      1288 8.23417E-05 2.23865E-05-4.10514E-05-9.18998E-05-1.20541E-17 1.49959E-17
 -1      1289 2.30068E-05 2.15701E-05-2.10518E-05-3.99168E-05-1.22278E-17 1.15654E-17
 -1      1290 7.40209E-06-1.91548E-05-2.27250E-06 8.37338E-06-1.38049E-17 6.77372E-18
 -1      1291 2.07201E-05-7.54800E-05 1.20204E-05 2.68906E-05-1.39921E-17 5.23763E-18
 -1      1292 3.68108E-05-1.14645E-04 1.96472E-05 1.32185E-05-6.24729E-18 1.14654E-18
 -1      1293 1.04440E-04-2.20186E-05-3.78911E-05-1.72768E-05-6.48404E-19 1.31667E-17
 -1      1294 9.03155E-05-6.68026E-06-3.60158E-05-2.04754E-05-1.94447E-18 3.87253E-19
 -1      1295 9.26518E-05-6.73892E-06-3.72209E-05-2.57630E-05-2.44665E-18 3.36378E-18
 -1      1296 8.59020E-05-4.09638E-06-3.51289E-05-1.64380E-05-1.99074E-18-3.82165E-18
 -1      1297 8.71530E-05-4.08894E-06-3.55980E-05-1.88583E-05-2.24781E-18-1.99201E-18
 -1      1298 9.21296E-05-1.04618E-05-3.50921E-05-1.90396E-05-3.44899E-18 3.63059E-19
 -1      1299 8.40944E-05-3.19056E-06-3.46860E-05-1.28204E-05-1.66793E-18-5.98754E-18
 -1      1300 8.47061E-05-3.16131E-06-3.49103E-05-1.46354E-05-1.84666E-18-5.00983E-18
 -1      1301 8.78647E-05-7.39527E-06-3.45727E-05-1.54164E-05-3.11641E-18-3.10641E-18
 -1      1302 8.31838E-05-2.72737E-06-3.44697E-05-9.69121E-06-1.25984E-18-7.04970E-18
 -1      1303 8.34963E-05-2.70896E-06-3.45787E-05-1.12384E-05-1.42353E-18-6.56091E-18
 -1      1304 8.58648E-05-5.98231E-06-3.43045E-05-1.19590E-05-2.51447E-18-4.95858E-18
 -1      1305 8.26949E-05-2.45810E-06-3.43637E-05-6.91886E-06-8.72662E-19-7.58441E-18
 -1      1306 8.28632E-05-2.44965E-06-3.44179E-05-8.29043E-06-1.02073E-18-7.33216E-18
 -1      1307 8.48205E-05-5.21747E-06-3.41724E-05-8.94926E-06-1.86947E-18-5.89053E-18
 -1      1308 8.24208E-05-2.29282E-06-3.43115E-05-4.29725E-06-4.98593E-19-7.80943E-18
 -1      1309 8.25114E-05-2.28888E-06-3.43385E-05-5.59920E-06-6.16895E-19-7.70801E-18
 -1      1310 8.42371E-05-4.76332E-06-3.41095E-05-6.21992E-06-1.25077E-18-6.39608E-18
 -1      1311 8.22889E-05-2.20343E-06-3.42895E-05-1.79077E-06-1.45203E-19-7.91118E-18
 -1      1312 8.23277E-05-2.20186E-06-3.43004E-05-3.04258E-06-2.62360E-19-7.85859E-18
 -1      1313 8.39158E-05-4.49976E-06-3.40811E-05-3.64648E-06-6.18132E-19-6.52116E-18
 -1      1314 8.22628E-05-2.17581E-06-3.42868E-05 6.70517E-07 1.65944E-19-7.87365E-18
 -1      1315 8.22615E-05-2.17587E-06-3.42865E-05-5.66077E-07 4.16858E-20-7.91980E-18
 -1      1316 8.37748E-05-4.38006E-06-3.40705E-05-1.17088E-06-8.41272E-20-6.65559E-18
 -1      1317 8.23358E-05-2.20595E-06-3.43019E-05 3.15043E-06 5.12243E-19-7.80698E-18
 -1      1318 8.22943E-05-2.20759E-06-3.42902E-05 1.89615E-06 4.07569E-19-7.86184E-18
 -1      1319 8.37795E-05-4.38407E-06-3.40708E-05 1.27476E-06 4.54791E-19-6.62476E-18
 -1      1320 8.25282E-05-2.29885E-06-3.43412E-05 5.71589E-06 7.96396E-19-7.54937E-18
 -1      1321 8.24341E-05-2.30223E-06-3.43134E-05 4.40817E-06 6.98263E-19-7.71447E-18
 -1      1322 8.39307E-05-4.51280E-06-3.40822E-05 3.75436E-06 9.93899E-19-6.46587E-18
 -1      1323 8.28865E-05-2.46435E-06-3.44210E-05 8.39850E-06 1.17744E-18-7.03408E-18
 -1      1324 8.27144E-05-2.47306E-06-3.43663E-05 7.01834E-06 1.02403E-18-7.34714E-18
 -1      1325 8.42621E-05-4.78562E-06-3.41109E-05 6.31391E-06 1.52780E-18-6.17169E-18
 -1      1326 8.35432E-05-2.74138E-06-3.45840E-05 1.13993E-05 1.62494E-18-6.12270E-18
 -1      1327 8.32226E-05-2.75850E-06-3.44735E-05 9.83411E-06 1.46375E-18-6.68167E-18
 -1      1328 8.48635E-05-5.25837E-06-3.41736E-05 9.05774E-06 2.19234E-18-5.56728E-18
 -1      1329 8.47628E-05-3.20324E-06-3.49181E-05 1.48481E-05 2.06245E-18-4.41624E-18
 -1      1330 8.41511E-05-3.24001E-06-3.46917E-05 1.30078E-05 1.86755E-18-5.47584E-18
 -1      1331 8.59451E-05-6.06296E-06-3.43059E-05 1.21267E-05 2.83859E-18-4.53928E-18
 -1      1332 8.72521E-05-4.08997E-06-3.56196E-05 1.90951E-05 2.41013E-18-1.12827E-18
 -1      1333 8.59693E-05-4.15389E-06-3.51364E-05 1.66973E-05 2.13701E-18-3.11380E-18
 -1      1334 8.79885E-05-7.51682E-06-3.45748E-05 1.56545E-05 3.39456E-18-2.51090E-18
 -1      1335 9.34650E-05-6.79173E-06-3.71164E-05 2.50992E-05 2.10032E-18 5.25520E-18
 -1      1336 9.01311E-05-6.43731E-06-3.60385E-05 2.11524E-05 2.05453E-18 1.34594E-18
 -1      1337 9.23597E-05-1.06974E-05-3.50774E-05 1.96801E-05 3.61839E-18 1.18653E-18
 -1      1338 1.23627E-04-2.49235E-05-3.90149E-05 2.83683E-05 1.06451E-18 1.74434E-17
 -1      1339 1.00081E-04-1.44236E-05-3.73540E-05 2.40527E-05 1.09479E-18 8.94213E-18
 -1      1340 1.01678E-04-1.93419E-05-3.54022E-05 2.14015E-05 3.47619E-18 6.96790E-18
 -1      1341 1.02604E-04-2.78050E-05-3.47578E-05 7.33036E-06 1.87051E-18 1.67035E-17
 -1      1342 1.05147E-04-3.02301E-05-3.35251E-05-7.96097E-06-2.00704E-18 1.38248E-17
 -1      1343 9.82590E-05-2.78423E-05-3.07616E-05-4.98958E-06-1.83817E-18 1.15214E-17
 -1      1344 9.55003E-05-2.78483E-05-2.92538E-05-2.49034E-06-1.45330E-18 1.05189E-17
 -1      1345 9.32675E-05-2.75573E-05-2.82143E-05-2.04353E-06-1.42818E-18 8.40236E-18
 -1      1346 9.94825E-05-2.80509E-05-3.09822E-05-7.88876E-06-3.21174E-18 6.13702E-18
 -1      1347 9.15777E-05-2.71997E-05-2.75798E-05-8.39083E-07-1.12863E-18 7.52827E-18
 -1      1348 9.08600E-05-2.71041E-05-2.72772E-05-7.29247E-07-1.02549E-18 5.98537E-18
 -1      1349 9.47153E-05-2.77697E-05-2.88154E-05-3.12187E-06-2.50396E-18 4.55125E-18
 -1      1350 9.01087E-05-2.69207E-05-2.70338E-05-1.75988E-07-7.55811E-19 5.36130E-18
 -1      1351 9.00343E-05-2.69467E-05-2.69985E-05-1.17862E-07-7.58773E-19 4.21178E-18
 -1      1352 9.25149E-05-2.74981E-05-2.78942E-05-1.05637E-06-1.79942E-18 3.17738E-18
 -1      1353 8.97736E-05-2.68789E-05-2.69239E-05 1.52491E-07-5.61733E-19 3.77160E-18
 -1      1354 8.99864E-05-2.69685E-05-2.69850E-05 1.81181E-07-4.83785E-19 3.09591E-18
 -1      1355 9.15538E-05-2.73539E-05-2.75268E-05-7.38396E-08-1.24130E-18 2.14906E-18
 -1      1356 8.99891E-05-2.69714E-05-2.69911E-05 3.12125E-07-4.48613E-19 2.76433E-18
 -1      1357 9.03294E-05-2.70905E-05-2.70895E-05 3.23773E-07-3.35648E-19 2.15289E-18
 -1      1358 9.12984E-05-2.73412E-05-2.74181E-05 4.13443E-07-9.14782E-19 1.59307E-18
 -1      1359 9.04701E-05-2.71319E-05-2.71363E-05 3.78054E-07-2.23157E-19 1.90331E-18
 -1      1360 9.08554E-05-2.72593E-05-2.72476E-05 3.79649E-07-3.61365E-19 1.37598E-18
 -1      1361 9.14290E-05-2.74144E-05-2.74395E-05 6.41126E-07-6.83594E-19 1.00290E-18
 -1      1362 9.10622E-05-2.73193E-05-2.73136E-05 3.90054E-07-4.52765E-19 1.16138E-18
 -1      1363 9.14468E-05-2.74430E-05-2.74251E-05 3.85824E-07-4.46312E-19 4.88162E-19
 -1      1364 9.17592E-05-2.75325E-05-2.75277E-05 7.23043E-07-7.36774E-19 5.34983E-19
 -1      1365 9.16771E-05-2.75094E-05-2.74977E-05 3.71373E-07-4.47235E-19 3.83150E-19
 -1      1366 9.20360E-05-2.76228E-05-2.76021E-05 3.64024E-07-4.50443E-19 2.87164E-20
 -1      1367 9.21788E-05-2.76687E-05-2.76472E-05 7.21367E-07-8.41682E-19 2.58060E-19
 -1      1368 9.22649E-05-2.76886E-05-2.76740E-05 3.36567E-07-4.42520E-19-2.17244E-19
 -1      1369 9.25856E-05-2.77887E-05-2.77677E-05 3.27901E-07-1.66143E-19-7.80726E-19
 -1      1370 9.26218E-05-2.78066E-05-2.77768E-05 6.73335E-07-6.91938E-19 6.63304E-20
 -1      1371 9.27996E-05-2.78500E-05-2.78347E-05 2.95155E-07-5.45726E-20-1.16968E-18
 -1      1372 9.30778E-05-2.79359E-05-2.79163E-05 2.86388E-07-2.76381E-19-1.39579E-18
 -1      1373 9.30506E-05-2.79367E-05-2.79042E-05 6.02661E-07-4.41541E-19-7.56439E-19
 -1      1374 9.32707E-05-2.79910E-05-2.79766E-05 2.53500E-07-3.06320E-19-1.46771E-18
 -1      1375 9.35076E-05-2.80634E-05-2.80463E-05 2.45454E-07-1.10145E-19-1.65448E-18
 -1      1376 9.34453E-05-2.80541E-05-2.80228E-05 5.24984E-07-4.75814E-19-1.40774E-18
 -1      1377 9.36783E-05-2.81121E-05-2.80996E-05 2.15928E-07 1.09537E-19-1.79749E-18
 -1      1378 9.38786E-05-2.81726E-05-2.81588E-05 2.09170E-07-4.02396E-20-1.76170E-18
 -1      1379 9.37987E-05-2.81576E-05-2.81300E-05 4.50836E-07-9.66064E-20-1.65854E-18
 -1      1380 9.40296E-05-2.82156E-05-2.82059E-05 1.85470E-07-8.02444E-20-1.86629E-18
 -1      1381 9.42008E-05-2.82667E-05-2.82567E-05 1.80412E-07-3.30455E-19-2.13507E-18
 -1      1382 9.41119E-05-2.82479E-05-2.82259E-05 3.87494E-07-2.56150E-19-1.74648E-18
 -1      1383 9.43371E-05-2.83054E-05-2.82992E-05 1.64383E-07-3.45942E-19-2.27184E-18
 -1      1384 9.44883E-05-2.83501E-05-2.83443E-05 1.61353E-07-3.27075E-19-2.64449E-18
 -1      1385 9.43921E-05-2.83275E-05-2.83124E-05 3.40213E-07-6.67991E-19-1.82542E-18
 -1      1386 9.46171E-05-2.83865E-05-2.83844E-05 1.54522E-07-3.80176E-19-2.63640E-18
 -1      1387 9.47593E-05-2.84281E-05-2.84269E-05 1.53821E-07-4.23136E-19-3.17176E-18
 -1      1388 9.46509E-05-2.83999E-05-2.83929E-05 3.13103E-07-6.21013E-19-1.84933E-18
 -1      1389 9.48890E-05-2.84647E-05-2.84673E-05 1.57598E-07-1.87683E-19-3.20676E-18
 -1      1390 9.50347E-05-2.85071E-05-2.85110E-05 1.59533E-07 8.59902E-20-3.29589E-18
 -1      1391 9.49035E-05-2.84698E-05-2.84720E-05 3.09733E-07-4.30532E-19-1.83128E-18
 -1      1392 9.51755E-05-2.85469E-05-2.85549E-05 1.75321E-07 2.47116E-20-3.31703E-18
 -1      1393 9.53386E-05-2.85943E-05-2.86038E-05 1.80221E-07-1.75154E-19-3.51024E-18
 -1      1394 9.51681E-05-2.85425E-05-2.85551E-05 3.33512E-07 3.94094E-20-2.37978E-18
 -1      1395 9.55019E-05-2.86405E-05-2.86546E-05 2.09427E-07-2.85543E-19-3.70909E-18
 -1      1396 9.56982E-05-2.86978E-05-2.87135E-05 2.17635E-07-2.77954E-19-4.19362E-18
 -1      1397 9.54657E-05-2.86243E-05-2.86486E-05 3.87838E-07-4.44405E-19-2.77599E-18
 -1      1398 9.58965E-05-2.87540E-05-2.87751E-05 2.61550E-07 3.52917E-20-4.25272E-18
 -1      1399 9.61431E-05-2.88266E-05-2.88489E-05 2.73384E-07-1.89025E-19-4.35707E-18
 -1      1400 9.58197E-05-2.87223E-05-2.87594E-05 4.75973E-07-1.98045E-19-2.61220E-18
 -1      1401 9.63900E-05-2.88969E-05-2.89255E-05 3.32897E-07-3.57848E-19-3.95261E-18
 -1      1402 9.67052E-05-2.89904E-05-2.90195E-05 3.48565E-07-1.19603E-19-3.94588E-18
 -1      1403 9.62556E-05-2.88443E-05-2.88950E-05 6.00564E-07-2.01143E-19-2.64660E-18
 -1      1404 9.70141E-05-2.90788E-05-2.91153E-05 4.23637E-07-4.71600E-20-4.05264E-18
 -1      1405 9.74164E-05-2.91993E-05-2.92349E-05 4.43088E-07-8.04003E-20-4.03681E-18
 -1      1406 9.67999E-05-2.89988E-05-2.90633E-05 7.62677E-07-1.62436E-19-2.33909E-18
 -1      1407 9.77997E-05-2.93098E-05-2.93535E-05 5.31910E-07-7.88378E-20-4.37470E-18
 -1      1408 9.83052E-05-2.94627E-05-2.95033E-05 5.54595E-07-4.50036E-20-4.49496E-18
 -1      1409 9.74783E-05-2.91943E-05-2.92714E-05 9.60185E-07-2.34645E-19-2.78127E-18
 -1      1410 9.87722E-05-2.95983E-05-2.96473E-05 6.52334E-07 2.12194E-19-4.12817E-18
 -1      1411 9.93917E-05-2.97878E-05-2.98302E-05 6.76851E-07 2.37126E-19-3.40765E-18
 -1      1412 9.83127E-05-2.94391E-05-2.95248E-05 1.18527E-06 1.92669E-19-2.46709E-18
 -1      1413 9.99449E-05-2.99502E-05-2.99999E-05 7.73919E-07-2.43405E-19-3.24187E-18
 -1      1414 1.00678E-04-3.01770E-05-3.02153E-05 7.97518E-07-1.74894E-19-3.60644E-18
 -1      1415 9.93155E-05-2.97398E-05-2.98260E-05 1.42089E-06 6.67675E-20-2.36839E-18
 -1      1416 1.01308E-04-3.03650E-05-3.04074E-05 8.77440E-07-6.57245E-20-3.82598E-18
 -1      1417 1.02134E-04-3.06245E-05-3.06488E-05 8.95408E-07 2.80638E-19-3.96951E-18
 -1      1418 1.00483E-04-3.00990E-05-3.01714E-05 1.63616E-06-2.12337E-19-1.59936E-18
 -1      1419 1.02816E-04-3.08322E-05-3.08539E-05 9.32659E-07 4.25009E-19-3.77908E-18
 -1      1420 1.03684E-04-3.11102E-05-3.11056E-05 9.37697E-07 3.16502E-20-3.48109E-18
 -1      1421 1.01782E-04-3.05127E-05-3.05486E-05 1.78122E-06 3.70261E-19-1.90069E-18
 -1      1422 1.04366E-04-3.13249E-05-3.13066E-05 8.96574E-07 2.79154E-19-3.04606E-18
 -1      1423 1.05182E-04-3.15939E-05-3.15405E-05 8.78511E-07 4.87663E-19-2.38017E-18
 -1      1424 1.03143E-04-3.09656E-05-3.09325E-05 1.78313E-06 5.89164E-19-2.18175E-18
 -1      1425 1.05782E-04-3.17934E-05-3.17105E-05 7.15168E-07 2.95452E-19-2.39367E-18
 -1      1426 1.06399E-04-3.20079E-05-3.18834E-05 6.61709E-07 1.57758E-19-1.62471E-18
 -1      1427 1.04437E-04-3.14248E-05-3.12821E-05 1.54664E-06 4.65137E-19-1.62582E-18
 -1      1428 1.06800E-04-3.21586E-05-3.19858E-05 3.32904E-07-1.59351E-19-1.74297E-18
 -1      1429 1.07020E-04-3.22539E-05-3.20408E-05 2.32601E-07-3.82237E-19-2.11263E-18
 -1      1430 1.05473E-04-3.18328E-05-3.15393E-05 9.66304E-07 5.41274E-20-2.29818E-18
 -1      1431 1.07080E-04-3.23104E-05-3.20336E-05-2.84765E-07-1.27505E-19-2.27019E-18
 -1      1432 1.06677E-04-3.22083E-05-3.19085E-05-4.35990E-07-3.01530E-19-2.34029E-18
 -1      1433 1.05996E-04-3.21015E-05-3.16337E-05-4.06133E-08-6.58115E-19-1.51674E-18
 -1      1434 1.06254E-04-3.21185E-05-3.17537E-05-1.11325E-06-1.69910E-19-2.17334E-18
 -1      1435 1.05042E-04-3.17464E-05-3.14002E-05-1.30181E-06 2.61892E-19-1.88621E-18
 -1      1436 1.05717E-04-3.21130E-05-3.14952E-05-1.47349E-06-3.64906E-19-1.67390E-18
 -1      1437 1.04045E-04-3.14660E-05-3.10811E-05-2.02371E-06 1.24315E-19-2.22709E-18
 -1      1438 1.01978E-04-3.07932E-05-3.04935E-05-2.20832E-06-1.77467E-19-2.13770E-18
 -1      1439 1.04388E-04-3.17406E-05-3.10784E-05-3.16712E-06 4.19116E-19-1.43886E-18
 -1      1440 1.00441E-04-3.03136E-05-3.00330E-05-2.76159E-06-2.59308E-19-1.57805E-18
 -1      1441 9.77291E-05-2.93972E-05-2.92770E-05-2.87349E-06 5.63388E-19-1.38810E-18
 -1      1442 1.01929E-04-3.09011E-05-3.03931E-05-4.73047E-06-1.66104E-19-9.73764E-19
 -1      1443 9.58789E-05-2.87797E-05-2.87492E-05-2.99750E-06 6.63308E-20-2.07552E-18
 -1      1444 9.30393E-05-2.77939E-05-2.79695E-05-2.96403E-06-2.78910E-19-1.75812E-18
 -1      1445 9.85772E-05-2.96391E-05-2.95278E-05-5.58525E-06 2.94091E-19-1.01558E-18
 -1      1446 9.12960E-05-2.71854E-05-2.74901E-05-2.47976E-06 1.02094E-19-1.81442E-18
 -1      1447 8.90494E-05-2.63929E-05-2.68791E-05-2.27076E-06-1.01545E-19-1.90876E-18
 -1      1448 9.49744E-05-2.81984E-05-2.86492E-05-5.17920E-06-2.82396E-19-1.17409E-18
 -1      1449 8.79075E-05-2.59874E-05-2.65701E-05-1.22958E-06-3.57077E-19-2.35638E-18
 -1      1450 8.69065E-05-2.56374E-05-2.62965E-05-8.96520E-07-3.32288E-19-2.68366E-18
 -1      1451 9.20597E-05-2.69976E-05-2.79616E-05-3.33533E-06-4.72605E-19-2.03890E-18
 -1      1452 8.67116E-05-2.55791E-05-2.62374E-05 3.77289E-07 3.95194E-20-2.27876E-18
 -1      1453 8.72272E-05-2.57779E-05-2.63697E-05 7.12807E-07 8.19458E-19-1.95286E-18
 -1      1454 9.07110E-05-2.64575E-05-2.76353E-05-5.07388E-07-4.73922E-19-2.24621E-18
 -1      1455 8.79854E-05-2.60703E-05-2.65614E-05 1.76570E-06 6.26374E-19-2.03017E-18
 -1      1456 8.97597E-05-2.67181E-05-2.70336E-05 1.97934E-06-4.73723E-19-2.10477E-18
 -1      1457 9.12998E-05-2.67630E-05-2.77377E-05 2.33619E-06 8.76196E-19-2.35181E-18
 -1      1458 9.11307E-05-2.72202E-05-2.73970E-05 2.47336E-06-7.18557E-19-2.31129E-18
 -1      1459 9.35082E-05-2.80670E-05-2.80396E-05 2.50833E-06-9.20745E-19-3.39147E-18
 -1      1460 9.34750E-05-2.77432E-05-2.82029E-05 4.20898E-06-8.82519E-19-2.00370E-18
 -1      1461 9.49896E-05-2.85812E-05-2.84511E-05 2.37794E-06-9.97782E-19-3.81218E-18
 -1      1462 9.72310E-05-2.93563E-05-2.90673E-05 2.26138E-06-9.19737E-19-5.20682E-18
 -1      1463 9.63564E-05-2.89770E-05-2.88594E-05 4.62099E-06-1.80080E-18-4.00363E-18
 -1      1464 9.83885E-05-2.97287E-05-2.94086E-05 1.68395E-06 1.35175E-19-5.04943E-18
 -1      1465 9.99555E-05-3.02486E-05-2.98485E-05 1.49009E-06 3.22088E-19-5.19779E-18
 -1      1466 9.89811E-05-3.00321E-05-2.95001E-05 3.72917E-06-3.92653E-19-3.71226E-18
 -1      1467 1.00556E-04-3.04137E-05-3.00446E-05 7.39682E-07 1.09046E-19-3.22860E-18
 -1      1468 1.01232E-04-3.06176E-05-3.02418E-05 5.42416E-07 2.47433E-19-2.97420E-18
 -1      1469 1.00683E-04-3.06482E-05-2.99562E-05 2.10081E-06 1.17311E-18-1.76240E-18
 -1      1470 1.01250E-04-3.05854E-05-3.02736E-05-1.43119E-07 2.55950E-19-3.40219E-18
 -1      1471 1.01105E-04-3.05101E-05-3.02415E-05-2.95254E-07 1.06144E-18-2.61067E-18
 -1      1472 1.01224E-04-3.07739E-05-3.01427E-05 3.60486E-07 4.76800E-19-8.07222E-19
 -1      1473 1.00662E-04-3.03325E-05-3.01362E-05-7.68919E-07 1.94100E-18-2.15944E-18
 -1      1474 9.99455E-05-3.00690E-05-2.99425E-05-8.53436E-07 1.09060E-18-2.33536E-19
 -1      1475 1.00724E-04-3.04987E-05-3.00639E-05-1.03341E-06 2.03349E-18-1.10567E-18
 -1      1476 9.92390E-05-2.98129E-05-2.97560E-05-1.05121E-06-1.92418E-19-8.65648E-19
 -1      1477 9.82830E-05-2.94727E-05-2.94941E-05-1.06186E-06-9.27807E-20-1.34619E-18
 -1      1478 9.95119E-05-2.99705E-05-2.97917E-05-1.83593E-06 6.18314E-19-1.49897E-18
 -1      1479 9.75257E-05-2.92032E-05-2.92913E-05-9.74375E-07 1.79297E-19-5.84334E-19
 -1      1480 9.66782E-05-2.89024E-05-2.90564E-05-9.10464E-07 4.03535E-19-6.68144E-19
 -1      1481 9.79973E-05-2.93414E-05-2.94318E-05-1.96505E-06 3.24736E-19-1.77414E-18
 -1      1482 9.60447E-05-2.86690E-05-2.88886E-05-5.67470E-07 1.06453E-19-1.01086E-18
 -1      1483 9.56034E-05-2.85408E-05-2.87412E-05-4.52462E-07 1.43001E-19-6.56818E-19
 -1      1484 9.65663E-05-2.87433E-05-2.90854E-05-1.46055E-06 5.70018E-19-7.58038E-19
 -1      1485 9.52078E-05-2.85237E-05-2.85715E-05 3.21051E-08 1.64536E-19 1.71243E-20
 -1      1486 9.54649E-05-2.84031E-05-2.87491E-05-4.25041E-07 3.95614E-19-7.20077E-20
 -1      1487 9.65756E-05-2.83631E-05-2.97720E-05 2.99678E-06 1.67236E-18 1.29863E-17
 -1      1488 1.02536E-04-2.93983E-05-3.21556E-05 4.46394E-06 1.44827E-18 1.56807E-17
 -1      1489 1.02325E-04-2.67177E-05-3.27055E-05 1.27851E-05 2.89373E-18 9.98419E-18
 -1      1490 9.20271E-05-2.74282E-05-2.77607E-05 1.15302E-06 1.19028E-18 9.75845E-18
 -1      1491 9.39749E-05-2.75837E-05-2.86752E-05 1.47496E-06 1.18276E-18 1.17387E-17
 -1      1492 9.64844E-05-2.80295E-05-2.95330E-05 4.86963E-06 2.48805E-18 7.65203E-18
 -1      1493 9.01921E-05-2.70027E-05-2.70611E-05 3.32916E-07 8.35247E-19 7.37538E-18
 -1      1494 9.08083E-05-2.70207E-05-2.73341E-05 4.95749E-07 8.77559E-19 8.85083E-18
 -1      1495 9.30379E-05-2.75775E-05-2.80974E-05 1.85387E-06 1.93412E-18 5.73032E-18
 -1      1496 8.96721E-05-2.68838E-05-2.68846E-05-5.37108E-08 6.83251E-19 5.63650E-18
 -1      1497 8.97109E-05-2.68219E-05-2.69132E-05 3.53356E-08 5.77728E-19 6.66632E-18
 -1      1498 9.14826E-05-2.73058E-05-2.75130E-05 5.20227E-07 1.35581E-18 4.15266E-18
 -1      1499 8.98006E-05-2.69352E-05-2.69254E-05-2.40688E-07 5.17474E-19 4.23925E-18
 -1      1500 8.95740E-05-2.68283E-05-2.68609E-05-1.90539E-07 4.89320E-19 5.16788E-18
 -1      1501 9.09483E-05-2.72241E-05-2.73161E-05-1.29137E-07 1.08540E-18 3.06193E-18
 -1      1502 9.02492E-05-2.70764E-05-2.70624E-05-3.23540E-07 2.92127E-19 3.57472E-18
 -1      1503 8.99045E-05-2.69499E-05-2.69616E-05-2.95977E-07 2.75866E-19 4.03635E-18
 -1      1504 9.09628E-05-2.72662E-05-2.73043E-05-4.47342E-07 6.74723E-19 2.28446E-18
 -1      1505 9.08387E-05-2.72572E-05-2.72404E-05-3.47784E-07 2.33066E-19 3.09121E-18
 -1      1506 9.04539E-05-2.71277E-05-2.71276E-05-3.34198E-07 2.04516E-19 3.39208E-18
 -1      1507 9.12637E-05-2.73771E-05-2.73848E-05-5.87045E-07 4.10799E-19 1.75022E-18
 -1      1508 9.14670E-05-2.74478E-05-2.74295E-05-3.38498E-07 1.37411E-19 2.61863E-18
 -1      1509 9.10852E-05-2.73251E-05-2.73175E-05-3.33672E-07 2.02154E-19 2.84732E-18
 -1      1510 9.17005E-05-2.75197E-05-2.75096E-05-6.25199E-07 3.39768E-19 1.54809E-18
 -1      1511 9.20755E-05-2.76312E-05-2.76130E-05-3.10914E-07 4.98224E-19 1.83346E-18
 -1      1512 9.17207E-05-2.75205E-05-2.75085E-05-3.11457E-07 2.71512E-19 2.24609E-18
 -1      1513 9.21844E-05-2.76709E-05-2.76510E-05-6.05403E-07 5.74815E-19 8.62299E-19
 -1      1514 9.26330E-05-2.77983E-05-2.77813E-05-2.74795E-07 3.56799E-19 9.82376E-19
 -1      1515 9.23171E-05-2.77019E-05-2.76880E-05-2.78415E-07 4.31289E-19 1.54636E-18
 -1      1516 9.26639E-05-2.78172E-05-2.77929E-05-5.54462E-07 7.72597E-19 1.37871E-19
 -1      1517 9.31259E-05-2.79455E-05-2.79304E-05-2.36574E-07 5.39207E-19-4.83371E-20
 -1      1518 9.28526E-05-2.78635E-05-2.78494E-05-2.41685E-07 4.40886E-19 7.62477E-19
 -1      1519 9.31107E-05-2.79513E-05-2.79262E-05-4.89668E-07 6.59010E-19 4.21846E-20
 -1      1520 9.35519E-05-2.80722E-05-2.80595E-05-2.00568E-07 1.34563E-19-6.57103E-19
 -1      1521 9.33200E-05-2.80035E-05-2.79905E-05-2.06044E-07 1.95689E-19-3.29324E-19
 -1      1522 9.35119E-05-2.80702E-05-2.80468E-05-4.22496E-07 5.85213E-19-1.16825E-19
 -1      1523 9.39169E-05-2.81803E-05-2.81703E-05-1.69753E-07 1.00832E-19-8.60215E-19
 -1      1524 9.37216E-05-2.81230E-05-2.81120E-05-1.74769E-07 1.74124E-20-8.68622E-19
 -1      1525 9.38654E-05-2.81738E-05-2.81537E-05-3.60741E-07 2.24879E-19-6.31983E-19
 -1      1526 9.42326E-05-2.82733E-05-2.82664E-05-1.46306E-07 4.54755E-20-1.28394E-18
 -1      1527 9.40663E-05-2.82248E-05-2.82165E-05-1.50215E-07 8.78449E-20-1.23723E-18
 -1      1528 9.41761E-05-2.82639E-05-2.82482E-05-3.09896E-07 2.75642E-19-1.30876E-18
 -1      1529 9.45147E-05-2.83561E-05-2.83524E-05-1.32017E-07-2.22408E-19-1.05948E-18
 -1      1530 9.43682E-05-2.83133E-05-2.83082E-05-1.34254E-07-1.12979E-20-1.16542E-18
 -1      1531 9.44545E-05-2.83436E-05-2.83335E-05-2.74146E-07-5.27100E-21-1.27580E-18
 -1      1532 9.47831E-05-2.84344E-05-2.84344E-05-1.28612E-07 3.53710E-20-1.23588E-18
 -1      1533 9.46450E-05-2.83937E-05-2.83926E-05-1.28615E-07-1.05037E-19-1.24193E-18
 -1      1534 9.47153E-05-2.84176E-05-2.84138E-05-2.57111E-07-9.03403E-20-1.60500E-18
 -1      1535 9.50615E-05-2.85155E-05-2.85195E-05-1.38031E-07 3.57640E-19-1.80663E-18
 -1      1536 9.49187E-05-2.84726E-05-2.84761E-05-1.35164E-07 5.00069E-19-1.19923E-18
 -1      1537 9.49772E-05-2.84913E-05-2.84950E-05-2.62447E-07 4.45856E-19-1.76026E-18
 -1      1538 9.53780E-05-2.86075E-05-2.86163E-05-1.62666E-07-2.29056E-19-2.03124E-18
 -1      1539 9.52149E-05-2.85576E-05-2.85666E-05-1.56151E-07-2.73251E-20-2.06247E-18
 -1      1540 9.52629E-05-2.85712E-05-2.85838E-05-2.94357E-07 4.36161E-19-1.16631E-18
 -1      1541 9.57666E-05-2.87206E-05-2.87350E-05-2.05587E-07-4.66153E-20-1.43804E-18
 -1      1542 9.55645E-05-2.86575E-05-2.86734E-05-1.94427E-07-2.38606E-19-1.75572E-18
 -1      1543 9.55995E-05-2.86655E-05-2.86886E-05-3.58039E-07-3.68544E-19-1.63234E-18
 -1      1544 9.62681E-05-2.88667E-05-2.88880E-05-2.70740E-07-3.19509E-19-1.00926E-18
 -1      1545 9.60043E-05-2.87834E-05-2.88078E-05-2.53642E-07-7.26327E-20-1.22254E-18
 -1      1546 9.60197E-05-2.87834E-05-2.88194E-05-4.60079E-07-3.63873E-19-8.18387E-19
 -1      1547 9.69323E-05-2.90607E-05-2.90903E-05-3.63111E-07 1.67985E-19-9.94339E-19
 -1      1548 9.65791E-05-2.89482E-05-2.89832E-05-3.38409E-07-1.62226E-19-1.14716E-18
 -1      1549 9.65628E-05-2.89364E-05-2.89883E-05-6.08791E-07-2.20897E-19-1.57015E-18
 -1      1550 9.78198E-05-2.93205E-05-2.93604E-05-4.88787E-07 9.91209E-19-2.20809E-18
 -1      1551 9.73431E-05-2.91677E-05-2.92162E-05-4.54371E-07 7.09423E-19-9.25533E-19
 -1      1552 9.72760E-05-2.91381E-05-2.92097E-05-8.14405E-07 6.71007E-19-1.56454E-18
 -1      1553 9.90035E-05-2.96678E-05-2.97203E-05-6.54773E-07-6.83111E-20-3.20204E-18
 -1      1554 9.83617E-05-2.94614E-05-2.95266E-05-6.08073E-07 3.15514E-19-2.68479E-18
 -1      1555 9.82154E-05-2.94051E-05-2.95008E-05-1.08894E-06 9.05639E-19-2.03851E-18
 -1      1556 1.00570E-04-3.01285E-05-3.01959E-05-8.68252E-07-1.10195E-18-1.64153E-18
 -1      1557 9.97130E-05-2.98524E-05-2.99380E-05-8.06351E-07-8.80203E-19-3.28274E-18
 -1      1558 9.94468E-05-2.97567E-05-2.98816E-05-1.44533E-06-6.24904E-19-2.62549E-18
 -1      1559 1.02615E-04-3.07322E-05-3.08161E-05-1.13466E-06-9.41447E-20-3.03866E-19
 -1      1560 1.01487E-04-3.03679E-05-3.04774E-05-1.05475E-06-1.80431E-19-6.49803E-19
 -1      1561 1.01044E-04-3.02157E-05-3.03741E-05-1.89503E-06-9.49216E-19-1.61266E-18
 -1      1562 1.05238E-04-3.15103E-05-3.16097E-05-1.45347E-06 3.04316E-19-5.63595E-19
 -1      1563 1.03780E-04-3.10386E-05-3.11735E-05-1.35395E-06-1.09816E-20-4.34892E-19
 -1      1564 1.03084E-04-3.08071E-05-3.10005E-05-2.44250E-06 2.74955E-20-1.14619E-18
 -1      1565 1.08518E-04-3.24905E-05-3.25979E-05-1.80968E-06 7.57186E-19-1.55364E-18
 -1      1566 1.06682E-04-3.18955E-05-3.20515E-05-1.69270E-06 6.82968E-19-4.39233E-19
 -1      1567 1.05637E-04-3.15566E-05-3.17790E-05-3.07399E-06 7.92684E-19-7.16706E-19
 -1      1568 1.12471E-04-3.36855E-05-3.37796E-05-2.15849E-06 4.20274E-20-2.37311E-18
 -1      1569 1.10247E-04-3.29638E-05-3.31236E-05-2.03485E-06 1.03139E-19-1.71461E-18
 -1      1570 1.08740E-04-3.24862E-05-3.27143E-05-3.73668E-06 4.41787E-19-1.08397E-18
 -1      1571 1.16965E-04-3.50703E-05-3.51050E-05-2.40105E-06-2.63670E-19-1.74568E-18
 -1      1572 1.14435E-04-3.42485E-05-3.43691E-05-2.29853E-06-2.07478E-19-2.22928E-18
 -1      1573 1.12356E-04-3.36053E-05-3.37822E-05-4.30415E-06-3.45753E-20-1.14285E-18
 -1      1574 1.21598E-04-3.65439E-05-3.64360E-05-2.35508E-06-1.93099E-19-1.81472E-18
 -1      1575 1.19013E-04-3.57070E-05-3.57038E-05-2.32972E-06 3.33172E-20-1.74960E-18
 -1      1576 1.16303E-04-3.48930E-05-3.49067E-05-4.52918E-06-2.69538E-19-1.02947E-18
 -1      1577 1.25536E-04-3.78730E-05-3.75064E-05-1.74297E-06-4.31170E-19-1.04773E-18
 -1      1578 1.23421E-04-3.72022E-05-3.69406E-05-1.88659E-06-5.52146E-19-2.07163E-18
 -1      1579 1.20159E-04-3.62646E-05-3.59343E-05-4.00536E-06-4.95389E-19-9.48267E-19
 -1      1580 1.27422E-04-3.86353E-05-3.79178E-05-2.58343E-07 6.12286E-19-7.30712E-19
 -1      1581 1.26632E-04-3.84334E-05-3.77627E-05-6.81392E-07 1.89894E-19-4.68237E-19
 -1      1582 1.23168E-04-3.75129E-05-3.66237E-05-2.20564E-06-1.26671E-19 2.58424E-19
 -1      1583 1.25577E-04-3.82288E-05-3.72450E-05 2.18583E-06 8.12490E-20-1.44387E-18
 -1      1584 1.27148E-04-3.88760E-05-3.77586E-05 1.43418E-06 3.09855E-19-9.98414E-19
 -1      1585 1.24225E-04-3.82330E-05-3.66904E-05 1.26075E-06 6.91708E-19 2.57703E-19
 -1      1586 1.18847E-04-3.61110E-05-3.53040E-05 4.99892E-06-2.59801E-19-4.96361E-19
 -1      1587 1.23423E-04-3.78505E-05-3.65873E-05 4.08672E-06-1.62074E-19-7.54124E-19
 -1      1588 1.22141E-04-3.78006E-05-3.59405E-05 6.03968E-06-4.67615E-19 5.28284E-19
 -1      1589 1.08112E-04-3.23992E-05-3.24911E-05 6.64029E-06 6.90115E-19-1.56585E-18
 -1      1590 1.14987E-04-3.49460E-05-3.42753E-05 6.04347E-06 4.07555E-19-8.25963E-19
 -1      1591 1.16434E-04-3.56689E-05-3.44747E-05 1.03052E-05 4.52673E-19-1.13344E-19
 -1      1592 9.73354E-05-2.84625E-05-2.98583E-05 5.33678E-06-1.63319E-19-3.10946E-18
 -1      1593 1.03900E-04-3.07651E-05-3.14659E-05 5.60906E-06 9.53177E-20-2.24188E-18
 -1      1594 1.08475E-04-3.20943E-05-3.27885E-05 1.10267E-05 6.57906E-19-1.02015E-18
 -1      1595 9.21859E-05-2.65744E-05-2.86185E-05 9.76512E-07 5.94644E-19-2.86257E-18
 -1      1596 9.50004E-05-2.72875E-05-2.92933E-05 2.14787E-06-4.49933E-19-2.89569E-18
 -1      1597 1.01883E-04-2.87568E-05-3.15881E-05 6.20562E-06-1.73642E-20-2.31049E-18
 -1      1598 9.56728E-05-2.79832E-05-2.93512E-05-3.87498E-06 1.28061E-19-3.60884E-18
 -1      1599 9.31401E-05-2.66555E-05-2.87710E-05-2.53821E-06 1.08322E-18-2.48167E-18
 -1      1600 1.00514E-04-2.79819E-05-3.13753E-05-2.14366E-06 8.22575E-19-1.38452E-18
 -1      1601 1.05264E-04-3.15829E-05-3.15844E-05-6.15063E-06 3.41411E-19-3.19067E-18
 -1      1602 9.91193E-05-2.91409E-05-3.01055E-05-5.47238E-06-8.91105E-20-3.30893E-18
 -1      1603 1.05000E-04-3.03495E-05-3.21703E-05-8.81006E-06 1.62657E-19 2.76662E-19
 -1      1604 1.15264E-04-3.50832E-05-3.41311E-05-5.13814E-06-5.55568E-19-3.35626E-18
 -1      1605 1.08990E-04-3.29244E-05-3.25278E-05-5.28968E-06 5.09265E-19-3.12788E-18
 -1      1606 1.12104E-04-3.39612E-05-3.35271E-05-1.01671E-05 3.12714E-19 2.58795E-19
 -1      1607 1.21350E-04-3.69964E-05-3.58798E-05-2.39586E-06-3.50248E-19-2.39345E-18
 -1      1608 1.17513E-04-3.59065E-05-3.48187E-05-2.98733E-06-1.31209E-18-4.06131E-18
 -1      1609 1.17771E-04-3.65147E-05-3.47783E-05-6.88392E-06-9.77291E-19-9.95793E-19
 -1      1610 1.22409E-04-3.71536E-05-3.63475E-05 3.07884E-07-3.17770E-19-1.75811E-18
 -1      1611 1.21634E-04-3.71438E-05-3.60748E-05-3.03356E-07-2.33887E-19-2.28328E-18
 -1      1612 1.19918E-04-3.71947E-05-3.53841E-05-1.95865E-06-8.06097E-19-1.80949E-18
 -1      1613 1.19493E-04-3.60674E-05-3.56673E-05 2.12579E-06 1.13352E-18-3.14051E-18
 -1      1614 1.21103E-04-3.67805E-05-3.60647E-05 1.69316E-06 1.03662E-18-1.93072E-18
 -1      1615 1.18610E-04-3.64188E-05-3.51665E-05 2.21682E-06 6.44579E-19-1.85876E-18
 -1      1616 1.14315E-04-3.43491E-05-3.42600E-05 2.97933E-06 3.69439E-19-4.62202E-18
 -1      1617 1.17254E-04-3.53989E-05-3.50622E-05 2.74941E-06 7.60725E-19-4.24070E-18
 -1      1618 1.14935E-04-3.48798E-05-3.42712E-05 4.74519E-06 1.82256E-18-2.45327E-18
 -1      1619 1.08383E-04-3.24611E-05-3.25698E-05 3.10230E-06 7.40180E-19-5.75977E-18
 -1      1620 1.11742E-04-3.35679E-05-3.35159E-05 3.03144E-06 8.68981E-19-5.13720E-18
 -1      1621 1.10126E-04-3.31074E-05-3.29888E-05 5.72124E-06 9.72266E-19-3.06809E-18
 -1      1622 1.02801E-04-3.07074E-05-3.09563E-05 2.71578E-06-8.16527E-20-6.19830E-18
 -1      1623 1.05925E-04-3.16888E-05-3.18428E-05 2.76698E-06 1.76630E-19-5.38472E-18
 -1      1624 1.05169E-04-3.13972E-05-3.16176E-05 5.54021E-06 8.18704E-19-2.17327E-18
 -1      1625 9.84043E-05-2.93143E-05-2.96838E-05 1.90512E-06-2.52006E-19-5.91335E-18
 -1      1626 1.00780E-04-3.00203E-05-3.03615E-05 2.08421E-06 8.84521E-20-5.82327E-18
 -1      1627 1.00773E-04-2.98969E-05-3.04003E-05 4.49620E-06-1.05111E-19-2.62138E-18
 -1      1628 9.58651E-05-2.85094E-05-2.88831E-05 7.61258E-07-1.50913E-19-4.09402E-18
 -1      1629 9.70374E-05-2.87918E-05-2.92801E-05 1.03953E-06-4.04958E-19-5.21353E-18
 -1      1630 9.74272E-05-2.87163E-05-2.94899E-05 2.71456E-06-6.87404E-19-1.65133E-18
 -1      1631 9.52885E-05-2.83982E-05-2.86677E-05 8.33024E-08-1.76418E-18-1.66803E-18
 -1      1632 9.48026E-05-2.60966E-05-2.94826E-05 1.63104E-06-8.07024E-19 5.82759E-19
 -1      1633 9.52352E-05-2.73999E-05-2.90732E-05 1.32040E-06-1.78131E-18 1.98119E-18
 -1      1634 9.35012E-05-2.22935E-05-3.05340E-05 2.56882E-06 1.35621E-18 4.68604E-19
 -1      1635 9.42827E-05-2.45750E-05-2.98993E-05 2.42265E-06 9.52449E-19 4.68889E-19
 -1      1636 9.47669E-05-2.51737E-05-2.98674E-05 3.91171E-06-2.91687E-19 2.09810E-18
 -1      1637 9.19714E-05-1.77383E-05-3.18147E-05 2.92221E-06-1.17690E-18-9.78313E-19
 -1      1638 9.28768E-05-2.04233E-05-3.10635E-05 2.90022E-06 3.86750E-19-5.41459E-19
 -1      1639 9.33985E-05-2.17459E-05-3.07320E-05 5.25331E-06 6.71710E-19-1.29295E-18
 -1      1640 9.04929E-05-1.32777E-05-3.30838E-05 2.70259E-06-9.22260E-19-3.22898E-19
 -1      1641 9.13413E-05-1.58168E-05-3.23678E-05 2.79178E-06-1.43350E-18 1.52907E-18
 -1      1642 9.19768E-05-1.79446E-05-3.17176E-05 5.48706E-06-5.42253E-19 3.38917E-19
 -1      1643 8.93358E-05-9.76047E-06-3.40910E-05 2.00900E-06-1.35615E-18-1.56182E-19
 -1      1644 8.99677E-05-1.16670E-05-3.35508E-05 2.18150E-06-8.30992E-19-1.64813E-18
 -1      1645 9.06799E-05-1.44099E-05-3.26450E-05 4.69223E-06-1.53462E-18-9.26661E-19
 -1      1646 8.86585E-05-7.66921E-06-3.46959E-05 9.70662E-07-1.20300E-18-7.73282E-19
 -1      1647 8.89887E-05-8.68044E-06-3.44068E-05 1.19902E-06-1.77178E-18 2.30922E-19
 -1      1648 8.97119E-05-1.17235E-05-3.33591E-05 3.08338E-06-1.19535E-18-6.21352E-19
 -1      1649 8.85882E-05-7.38383E-06-3.47907E-05-1.83702E-07-1.23414E-18-5.19145E-19
 -1      1650 8.85605E-05-7.33404E-06-3.48002E-05 4.71666E-08-6.08823E-19-8.28081E-19
 -1      1651 8.92291E-05-1.03255E-05-3.37421E-05 9.80186E-07-4.61006E-19-5.16326E-19
 -1      1652 8.90941E-05-8.83226E-06-3.43923E-05-1.21746E-06 1.54877E-18 1.85429E-18
 -1      1653 8.87420E-05-7.80928E-06-3.46774E-05-1.03078E-06-6.55696E-19 5.71244E-19
 -1      1654 8.93085E-05-1.04375E-05-3.37348E-05-1.16636E-06 7.12555E-19 4.24092E-19
 -1      1655 9.00333E-05-1.16216E-05-3.36062E-05-1.94768E-06 1.20326E-18 6.17143E-20
 -1      1656 8.94505E-05-9.88745E-06-3.40953E-05-1.83526E-06 4.57795E-19 1.75267E-18
 -1      1657 8.98933E-05-1.19416E-05-3.33603E-05-2.93753E-06 1.11585E-18 1.19672E-18
 -1      1658 9.12008E-05-1.51718E-05-3.25904E-05-2.29377E-06-3.47502E-18-2.92747E-18
 -1      1659 9.05098E-05-1.30760E-05-3.31871E-05-2.26178E-06 5.87920E-19-2.07130E-18
 -1      1660 9.08265E-05-1.44660E-05-3.27036E-05-4.05637E-06-7.64725E-19-2.23728E-18
 -1      1661 9.23769E-05-1.88293E-05-3.15294E-05-2.28439E-06-5.37371E-18 2.24250E-19
 -1      1662 9.17002E-05-1.67399E-05-3.21293E-05-2.31639E-06-3.42855E-18-1.73444E-18
 -1      1663 9.19033E-05-1.74891E-05-3.18927E-05-4.44893E-06-3.69538E-19-4.22145E-18
 -1      1664 9.34535E-05-2.22479E-05-3.05263E-05-2.01001E-06-1.33154E-18 2.59372E-18
 -1      1665 9.28487E-05-2.03524E-05-3.10740E-05-2.08444E-06-4.61552E-18 2.66788E-18
 -1      1666 9.29514E-05-2.05581E-05-3.10433E-05-4.22537E-06-5.59012E-19 2.39315E-18
 -1      1667 9.43179E-05-2.50409E-05-2.96997E-05-1.57632E-06 5.92592E-19 8.01909E-19
 -1      1668 9.38439E-05-2.35413E-05-3.01340E-05-1.66904E-06-1.14998E-18 1.77101E-18
 -1      1669 9.38674E-05-2.33398E-05-3.02535E-05-3.56638E-06-1.69479E-19 3.14215E-18
 -1      1670 9.49287E-05-2.70077E-05-2.91073E-05-1.06325E-06 8.11937E-19-2.09267E-19
 -1      1671 9.45980E-05-2.60158E-05-2.94006E-05-1.15573E-06 1.12141E-18 1.66892E-20
 -1      1672 9.45937E-05-2.55855E-05-2.96041E-05-2.64983E-06-2.75648E-19 4.29082E-19
 -1      1673 9.53118E-05-2.80292E-05-2.88198E-05-7.10991E-07-1.03689E-19-9.67232E-19
 -1      1674 9.51733E-05-2.75599E-05-2.89826E-05-9.05142E-07 1.32167E-18-1.33282E-18
 -1      1675 9.51923E-05-2.70841E-05-2.92085E-05-1.90960E-06-1.35288E-19-4.38373E-19
 -1      1676 9.57295E-05-2.80662E-05-2.90087E-05-1.38315E-06-2.59652E-19-8.81167E-19
 -1      1677 2.18910E-05-7.19941E-05 1.51872E-05-7.20356E-06 7.45093E-18 4.27074E-18
 -1      1678 2.50858E-05-8.09472E-05 1.71340E-05 1.16090E-06 1.88910E-18 3.83642E-18
 -1      1679 1.98574E-05-4.47969E-05 5.77679E-06-1.18566E-06 6.73899E-18 3.91753E-19
 -1      1680 2.52518E-05-6.79577E-05 1.16578E-05-3.66245E-06 9.51049E-18 5.62695E-19
 -1      1681 3.36238E-05-1.39093E-05-1.08638E-05 2.56688E-05 5.11438E-18 4.48419E-18
 -1      1682 2.83964E-05-3.71105E-05-1.52668E-06 6.64482E-06 4.84418E-18 2.35899E-18
 -1      1683 8.20398E-05-6.71910E-06-3.15428E-05 5.98043E-05 4.75863E-18 5.76491E-18
 -1      1684 5.54660E-05-1.29442E-05-2.07495E-05 3.55761E-05 4.75355E-18 3.86078E-18
 -1      1685 1.47177E-04-1.91208E-05-5.11686E-05 7.77905E-05 3.86332E-18 5.81319E-18
 -1      1686 1.04846E-04-7.04291E-06-4.14427E-05 6.46654E-05 4.45624E-18 5.94448E-18
 -1      1687 2.15352E-04-4.50473E-05-6.68100E-05 6.88164E-05 2.75085E-18 4.83148E-18
 -1      1688 1.71378E-04-2.41620E-05-5.94901E-05 7.70349E-05 4.03442E-18 6.20282E-18
 -1      1689 2.59041E-04-6.54955E-05-7.57308E-05 2.93129E-05 2.05151E-18 2.77361E-18
 -1      1690 2.33242E-04-5.10684E-05-7.20546E-05 5.77187E-05 2.94709E-18 4.86282E-18
 -1      1691 2.53969E-04-6.19641E-05-7.59126E-05-2.35259E-05 3.15753E-18-4.04755E-18
 -1      1692 2.60044E-04-6.48855E-05-7.67461E-05 1.31376E-05 2.75222E-18 1.38702E-20
 -1      1693 2.07750E-04-4.09467E-05-6.69926E-05-5.95177E-05 3.85495E-18-7.73002E-18
 -1      1694 2.42569E-04-5.87039E-05-7.25577E-05-3.65775E-05 3.00993E-18-4.97378E-18
 -1      1695 1.43690E-04-1.62139E-05-5.24818E-05-7.29383E-05 5.74966E-18-9.50710E-18
 -1      1696 1.89120E-04-3.56427E-05-6.08348E-05-7.26065E-05 4.67880E-18-8.45678E-18
 -1      1697 8.21785E-05-1.02511E-05-3.19389E-05-4.91016E-05 8.01971E-18-8.28822E-18
 -1      1698 1.21251E-04-1.56532E-05-4.29665E-05-6.87969E-05 5.88264E-18-8.29415E-18
 -1      1699 4.00411E-05-2.05639E-05-1.21919E-05-2.14901E-05 1.02186E-17-7.10322E-18
 -1      1700 5.64893E-05-7.30372E-06-2.19200E-05-4.40212E-05 9.36480E-18-8.07053E-18
 -1      1701 2.52375E-05-4.80284E-05 4.07299E-06-9.79112E-08 8.92095E-18-5.34584E-18
 -1      1702 2.47816E-05-2.43253E-05-3.67120E-06-1.19920E-05 1.03541E-17-7.26119E-18
 -1      1703 2.45130E-05-7.20898E-05 1.41287E-05 2.18528E-06 6.07873E-18-2.20123E-18
 -1      1704 1.93355E-05-5.37743E-05 9.65273E-06 4.40714E-06 7.76306E-18-4.18710E-18
 -1      1705 2.37309E-05-7.88180E-05 1.69961E-05-2.64855E-06 1.07679E-18-2.64168E-18
 -1      1706 2.27910E-05-7.70535E-05 1.67493E-05 7.44845E-06 4.30886E-18-1.89566E-18
 -1      1707 1.96748E-05-6.04273E-05 1.19098E-05-4.98897E-06-5.65649E-18-3.66056E-18
 -1      1708 2.48487E-05-7.65991E-05 1.54796E-05 3.81858E-07-6.34004E-19-2.91083E-18
 -1      1709 2.24771E-05-2.91469E-05-6.13678E-07 1.03467E-05-9.15812E-18-5.80239E-18
 -1      1710 2.50206E-05-5.34767E-05 6.56228E-06 1.54945E-06-7.19554E-18-3.88936E-18
 -1      1711 4.23665E-05-4.95307E-06-1.71165E-05 3.77229E-05-1.10470E-17-1.09327E-17
 -1      1712 3.24261E-05-2.20777E-05-8.27769E-06 1.78517E-05-1.03863E-17-7.83633E-18
 -1      1713 8.94164E-05-1.66804E-06-3.60072E-05 6.77386E-05-1.11690E-17-1.24819E-17
 -1      1714 6.01614E-05-2.70357E-06-2.61391E-05 4.59783E-05-1.13536E-17-1.17492E-17
 -1      1715 1.54357E-04-2.02566E-05-5.36038E-05 7.91669E-05-7.24086E-18-1.09055E-17
 -1      1716 1.12710E-04-5.17599E-06-4.49451E-05 7.11721E-05-1.03914E-17-1.17306E-17
 -1      1717 2.16403E-04-4.69642E-05-6.71532E-05 5.82189E-05-3.97039E-18-7.12863E-18
 -1      1718 1.76925E-04-2.73090E-05-6.06439E-05 7.08731E-05-5.73950E-18-9.48507E-18
 -1      1719 2.53890E-04-6.42313E-05-7.47381E-05 2.02491E-05-1.44377E-18-5.63679E-18
 -1      1720 2.33795E-04-5.28515E-05-7.19634E-05 4.92221E-05-2.47154E-18-7.27347E-18
 -1      1721 2.47649E-04-5.99549E-05-7.44774E-05-2.88451E-05-2.73825E-18-7.58094E-20
 -1      1722 2.55177E-04-6.42433E-05-7.54367E-05 4.58858E-06-2.33612E-18-4.47045E-18
 -1      1723 2.04196E-04-3.85550E-05-6.65464E-05-6.39254E-05-3.90456E-18 3.94209E-18
 -1      1724 2.36447E-04-5.57913E-05-7.14546E-05-4.21287E-05-2.61807E-18 4.47233E-19
 -1      1725 1.44619E-04-1.49568E-05-5.30892E-05-7.51799E-05-6.47980E-18 7.60805E-18
 -1      1726 1.85938E-04-3.32738E-05-6.06699E-05-7.36339E-05-4.74762E-18 5.78015E-18
 -1      1727 8.40890E-05-1.44324E-06-3.55235E-05-6.02605E-05-9.01243E-18 9.49439E-18
 -1      1728 1.20819E-04-9.11058E-06-4.50055E-05-7.68795E-05-7.42086E-18 8.90740E-18
 -1      1729 4.42371E-05-1.13071E-05-1.68521E-05-3.11960E-05-7.11677E-18 6.83556E-18
 -1      1730 6.33839E-05-1.23166E-06-2.63581E-05-5.37945E-05-7.85962E-18 9.72563E-18
 -1      1731 2.73124E-05-3.92348E-05 5.66709E-08-6.51610E-06-1.03321E-17 3.68502E-18
 -1      1732 2.98236E-05-1.63850E-05-8.23811E-06-2.21714E-05-8.73122E-18 3.22804E-18
 -1      1733 2.51741E-05-6.80320E-05 1.18629E-05 2.17472E-06-7.36326E-18 3.37156E-18
 -1      1734 2.00080E-05-4.66009E-05 6.56885E-06 5.66417E-07-8.78288E-18 5.11004E-18
 -1      1735 2.54380E-05-8.20527E-05 1.72928E-05-2.39307E-06-4.93503E-19 3.25239E-18
 -1      1736 2.23549E-05-7.29148E-05 1.53364E-05 6.04451E-06-6.30531E-18 3.08299E-18
 -1      1737 1.21742E-04-3.63773E-05-3.57343E-05 4.38267E-05 1.68221E-18 2.31325E-18
 -1      1738 7.58944E-05-3.87658E-05-1.71340E-05 3.92970E-05 2.33527E-18 2.83248E-18
 -1      1739 9.55258E-05-2.81674E-05-2.89062E-05 7.55056E-07-2.49587E-18 3.50036E-19
 -1      1740 9.57998E-05-2.74543E-05-2.93143E-05 2.26509E-06-8.82166E-19 2.23800E-18
 -1      1741 1.88663E-05-5.22039E-05 9.68568E-06 1.21664E-05 3.78878E-18 2.59298E-18
 -1      1742 3.86536E-05-4.54238E-05-6.28129E-07 2.54415E-05 4.26735E-18 4.61474E-19
 -1      1743 1.29044E-05-5.51808E-05 1.31747E-05-6.16036E-07-2.54163E-19 6.14184E-18
 -1      1744 1.65304E-04-3.42534E-05-5.30304E-05 4.22402E-05 1.78279E-18 2.02187E-18
 -1      1745 2.01725E-04-3.56297E-05-6.59710E-05 3.08503E-05 2.49705E-18 2.46995E-18
 -1      1746 2.17196E-04-3.56765E-05-7.19387E-05 1.02871E-05 4.29700E-18 3.75236E-19
 -1      1747 2.07704E-04-3.31633E-05-6.96749E-05-9.33152E-06 4.65656E-18-3.75490E-18
 -1      1748 1.86472E-04-3.48093E-05-6.08376E-05-2.98476E-05 3.95903E-18-5.54552E-18
 -1      1749 1.47923E-04-3.66796E-05-4.57143E-05-3.95538E-05 4.49774E-18-6.24941E-18
 -1      1750 1.03115E-04-3.90719E-05-2.75156E-05-4.05107E-05 5.43541E-18-4.39060E-18
 -1      1751 5.82377E-05-4.04385E-05-9.86109E-06-3.26526E-05 6.24941E-18-5.17961E-18
 -1      1752 2.92374E-05-4.67071E-05 3.66858E-06-1.97459E-05 5.02629E-18-4.88145E-18
 -1      1753 1.46302E-05-5.13018E-05 1.13745E-05-7.14836E-06 2.51611E-18-3.89169E-18
 -1      1754 1.34137E-05-5.36800E-05 1.24701E-05 6.29223E-06 1.20702E-20-5.44049E-18
 -1      1755 2.44341E-05-4.72056E-05 5.90935E-06 1.98666E-05-3.49062E-18-5.24038E-18
 -1      1756 4.80646E-05-3.89006E-05-6.39681E-06 3.24323E-05-4.79421E-18-6.38896E-18
 -1      1757 8.20121E-05-3.12571E-05-2.23364E-05 4.31169E-05-6.36122E-18-7.84818E-18
 -1      1758 1.24293E-04-2.84697E-05-3.94618E-05 4.82361E-05-7.49370E-18-6.98633E-18
 -1      1759 1.65851E-04-3.02351E-05-5.47249E-05 4.09182E-05-5.95252E-18-5.71493E-18
 -1      1760 1.97362E-04-3.30758E-05-6.58419E-05 2.48941E-05-3.84511E-18-4.35502E-18
 -1      1761 2.13716E-04-3.50854E-05-7.11335E-05 5.73196E-06-3.31995E-18-3.78497E-18
 -1      1762 2.04739E-04-3.23163E-05-6.88982E-05-1.58295E-05-4.13606E-18-2.50955E-18
 -1      1763 1.82050E-04-3.13117E-05-6.05111E-05-3.37402E-05-4.03325E-18-1.10707E-18
 -1      1764 1.46481E-04-2.98996E-05-4.73013E-05-4.66455E-05-4.84333E-18 2.59531E-18
 -1      1765 1.03591E-04-3.03978E-05-3.08331E-05-4.68729E-05-4.62056E-18 6.42644E-18
 -1      1766 6.48128E-05-3.61300E-05-1.38904E-05-3.82051E-05-5.34139E-18 4.11404E-18
 -1      1767 3.58570E-05-4.52123E-05 5.24496E-07-2.57528E-05-4.11743E-18 2.73057E-18
 -1      1768 1.84674E-05-5.26088E-05 9.99585E-06-1.33796E-05-3.11115E-18 4.38467E-18
 -1      1769 1.06050E-04-2.31697E-05-3.56033E-05-1.68552E-05-2.43296E-18 1.08147E-17
 -1      1770 8.91526E-05-1.05879E-05-3.37957E-05-1.33327E-05-3.28301E-18-2.73721E-18
 -1      1771 9.04807E-05-1.16311E-05-3.39351E-05-1.51416E-05-3.75885E-18-1.65124E-18
 -1      1772 9.24868E-05-1.38744E-05-3.38531E-05-1.60055E-05-3.72362E-18-2.49928E-19
 -1      1773 9.42037E-05-1.58205E-05-3.40970E-05-1.76662E-05-3.92340E-18 1.69290E-18
 -1      1774 9.34151E-05-1.63467E-05-3.30439E-05-1.37747E-05-3.91594E-18-7.56983E-19
 -1      1775 8.62131E-05-7.67593E-06-3.37296E-05-7.86871E-06-1.98462E-18-4.83260E-18
 -1      1776 8.66151E-05-7.97353E-06-3.37634E-05-9.25827E-06-2.32281E-18-4.51128E-18
 -1      1777 8.55986E-05-7.03910E-06-3.37276E-05-5.32356E-06-1.26784E-18-5.21755E-18
 -1      1778 8.58322E-05-7.21757E-06-3.37423E-05-6.62877E-06-1.65562E-18-5.05827E-18
 -1      1779 8.75972E-05-9.87016E-06-3.33432E-05-6.93367E-06-1.93860E-18-4.69958E-18
 -1      1780 8.52653E-05-6.68084E-06-3.37314E-05-2.89049E-06-5.62432E-19-5.26587E-18
 -1      1781 8.53855E-05-6.77544E-06-3.37371E-05-4.13099E-06-8.88216E-19-5.24209E-18
 -1      1782 8.69637E-05-9.15907E-06-3.33773E-05-4.54051E-06-1.15215E-18-5.01162E-18
 -1      1783 8.51347E-05-6.53257E-06-3.37350E-05-5.17440E-07 5.79852E-20-5.35380E-18
 -1      1784 8.51703E-05-6.56117E-06-3.37364E-05-1.72782E-06-2.14809E-19-5.33612E-18
 -1      1785 8.66330E-05-8.78038E-06-3.33978E-05-2.21842E-06-4.43831E-19-5.11038E-18
 -1      1786 8.51796E-05-6.56978E-06-3.37365E-05 1.84661E-06 6.69013E-19-5.35140E-18
 -1      1787 8.51381E-05-6.53697E-06-3.37349E-05 6.35327E-07 3.84012E-19-5.39180E-18
 -1      1788 8.65347E-05-8.66656E-06-3.34044E-05 6.59407E-08 2.36883E-19-5.19725E-18
 -1      1789 8.54098E-05-6.79979E-06-3.37372E-05 4.25385E-06 1.33720E-18-5.20376E-18
 -1      1790 8.52823E-05-6.69924E-06-3.37313E-05 3.01038E-06 1.04355E-18-5.29636E-18
 -1      1791 8.66497E-05-8.79942E-06-3.33969E-05 2.35115E-06 8.99803E-19-5.16887E-18
 -1      1792 8.58654E-05-7.25258E-06-3.37422E-05 6.71633E-06 2.01018E-18-4.82753E-18
 -1      1793 8.56281E-05-7.07057E-06-3.37276E-05 5.42855E-06 1.65523E-18-5.05481E-18
 -1      1794 8.69970E-05-9.19616E-06-3.33757E-05 4.65581E-06 1.64889E-18-4.96688E-18
 -1      1795 8.66768E-05-8.04159E-06-3.37624E-05 9.37885E-06 2.80383E-18-4.18702E-18
 -1      1796 8.62569E-05-7.72532E-06-3.37289E-05 7.95769E-06 2.36902E-18-4.57123E-18
 -1      1797 8.76475E-05-9.92809E-06-3.33410E-05 7.03225E-06 2.40543E-18-4.47282E-18
 -1      1798 8.80874E-05-9.38852E-06-3.38172E-05 1.22581E-05 3.46722E-18-3.11446E-18
 -1      1799 8.73482E-05-8.83094E-06-3.37454E-05 1.06650E-05 3.03439E-18-3.75038E-18
 -1      1800 8.87667E-05-1.11620E-05-3.32899E-05 9.50718E-06 3.11388E-18-3.70771E-18
 -1      1801 9.06298E-05-1.18400E-05-3.39269E-05 1.53064E-05 4.01504E-18-1.08913E-18
 -1      1802 8.92501E-05-1.07409E-05-3.37873E-05 1.35168E-05 3.64187E-18-2.29985E-18
 -1      1803 9.06621E-05-1.32236E-05-3.32066E-05 1.19794E-05 3.75690E-18-2.42823E-18
 -1      1804 9.58734E-05-1.70338E-05-3.39923E-05 1.76937E-05 3.99918E-18 2.71823E-18
 -1      1805 9.28543E-05-1.43427E-05-3.38262E-05 1.61972E-05 3.93969E-18 4.40166E-19
 -1      1806 9.39680E-05-1.68869E-05-3.30235E-05 1.38982E-05 4.13514E-18-1.96194E-19
 -1      1807 1.01922E-04-2.50936E-05-3.33584E-05 1.44250E-05 3.44753E-18 7.47030E-18
 -1      1808 9.80737E-05-1.96158E-05-3.36244E-05 1.69671E-05 3.71216E-18 4.32982E-18
 -1      1809 9.73264E-05-2.18535E-05-3.24268E-05 1.32517E-05 4.08082E-18 2.69314E-18
 -1      1810 9.87488E-05-2.61344E-05-3.13414E-05 9.43744E-06 3.47728E-18 6.39125E-18
 -1      1811 1.00153E-04-1.95620E-05-3.42172E-05-1.88721E-05-3.32017E-18 4.98458E-18
 -1      1812 9.53063E-05-2.72843E-05-2.91839E-05 4.06951E-06 2.66860E-18 4.76604E-18
 -1      1813 9.77376E-05-2.73897E-05-3.01932E-05 6.40346E-06 2.91853E-18 5.78424E-18
 -1      1814 9.75728E-05-2.56138E-05-3.08316E-05 8.76295E-06 3.42193E-18 3.65913E-18
 -1      1815 9.98121E-05-2.25407E-05-3.28353E-05-1.44708E-05-3.58046E-18 3.57734E-18
 -1      1816 9.69535E-05-2.69759E-05-2.98757E-05-5.70621E-06-2.85911E-18 3.02802E-18
 -1      1817 9.51457E-05-2.70328E-05-2.91647E-05-3.89851E-06-2.54748E-18 2.24740E-18
 -1      1818 9.43311E-05-2.72385E-05-2.86570E-05-2.42516E-06-2.20774E-18 2.11361E-18
 -1      1819 9.35566E-05-2.73171E-05-2.83519E-05-1.57601E-06-1.86267E-18 1.53411E-18
 -1      1820 9.55044E-05-2.65545E-05-2.95736E-05-4.47401E-06-2.82968E-18 7.96828E-19
 -1      1821 9.30275E-05-2.73631E-05-2.80830E-05-7.47796E-07-1.53292E-18 1.42201E-18
 -1      1822 9.27249E-05-2.74267E-05-2.79605E-05-3.09354E-07-1.27781E-18 1.05000E-18
 -1      1823 9.42913E-05-2.72233E-05-2.87654E-05-1.83742E-06-2.11643E-18 5.06615E-19
 -1      1824 9.24485E-05-2.74546E-05-2.78238E-05 1.45571E-07-1.12677E-18 9.61320E-19
 -1      1825 9.24154E-05-2.75304E-05-2.77933E-05 3.69181E-07-9.38848E-19 6.36014E-19
 -1      1826 9.35863E-05-2.75246E-05-2.83286E-05-3.70642E-07-1.52511E-18 1.87935E-19
 -1      1827 9.23108E-05-2.75615E-05-2.77346E-05 6.08114E-07-8.73664E-19 5.17754E-19
 -1      1828 9.24234E-05-2.76459E-05-2.77532E-05 7.11335E-07-7.35430E-19 1.91859E-19
 -1      1829 9.32633E-05-2.77095E-05-2.81066E-05 4.30329E-07-1.04946E-18-2.61340E-19
 -1      1830 9.24273E-05-2.76833E-05-2.77409E-05 8.21652E-07-7.12867E-19 1.52966E-19
 -1      1831 9.26125E-05-2.77691E-05-2.77849E-05 8.54778E-07-6.67580E-19-7.23374E-20
 -1      1832 9.31970E-05-2.78516E-05-2.80134E-05 8.39936E-07-9.16178E-19-5.00619E-19
 -1      1833 9.26798E-05-2.78099E-05-2.77994E-05 8.87931E-07-8.66482E-19-1.81014E-19
 -1      1834 9.28936E-05-2.78915E-05-2.78551E-05 8.80336E-07-8.36214E-19-1.94264E-19
 -1      1835 9.32889E-05-2.79736E-05-2.79974E-05 1.01444E-06-8.72735E-19-5.67491E-19
 -1      1836 9.29940E-05-2.79323E-05-2.78841E-05 8.68341E-07-8.12251E-19-1.66078E-19
 -1      1837 9.32104E-05-2.80064E-05-2.79429E-05 8.38477E-07-5.94882E-19-4.70263E-19
 -1      1838 9.34689E-05-2.80810E-05-2.80262E-05 1.04823E-06-8.66162E-19-8.84374E-19
 -1      1839 9.33243E-05-2.80448E-05-2.79788E-05 8.02192E-07-6.30079E-19-5.60531E-19
 -1      1840 9.35289E-05-2.81097E-05-2.80359E-05 7.62147E-07-6.48722E-19-8.51107E-19
 -1      1841 9.36900E-05-2.81743E-05-2.80795E-05 1.00147E-06-8.78999E-19-1.07203E-18
 -1      1842 9.36446E-05-2.81444E-05-2.80740E-05 7.15526E-07-7.47795E-19-1.10806E-18
 -1      1843 9.38306E-05-2.81999E-05-2.81270E-05 6.73416E-07-4.48892E-19-1.48324E-18
 -1      1844 9.39230E-05-2.82538E-05-2.81444E-05 9.13904E-07-8.55558E-19-9.50136E-19
 -1      1845 9.39420E-05-2.82303E-05-2.81647E-05 6.25975E-07-2.69304E-19-1.66889E-18
 -1      1846 9.41077E-05-2.82771E-05-2.82128E-05 5.87359E-07-3.25047E-19-1.69302E-18
 -1      1847 9.41510E-05-2.83200E-05-2.82133E-05 8.12380E-07-6.61227E-19-1.42656E-18
 -1      1848 9.42126E-05-2.83035E-05-2.82491E-05 5.45735E-07-1.65655E-19-1.81535E-18
 -1      1849 9.43602E-05-2.83429E-05-2.82926E-05 5.14540E-07-2.06953E-19-1.62709E-18
 -1      1850 9.43665E-05-2.83742E-05-2.82822E-05 7.15420E-07-3.51923E-19-1.82428E-18
 -1      1851 9.44591E-05-2.83660E-05-2.83276E-05 4.83536E-07-5.11133E-19-1.48302E-18
 -1      1852 9.45931E-05-2.83998E-05-2.83677E-05 4.62695E-07-6.95377E-19-1.45475E-18
 -1      1853 9.45682E-05-2.84184E-05-2.83498E-05 6.36156E-07-2.37773E-19-1.64090E-18
 -1      1854 9.46888E-05-2.84206E-05-2.84021E-05 4.46014E-07-7.50481E-19-1.24962E-18
 -1      1855 9.48160E-05-2.84510E-05-2.84407E-05 4.37915E-07-4.93373E-19-1.36694E-18
 -1      1856 9.47599E-05-2.84550E-05-2.84165E-05 5.84353E-07-7.39874E-19-1.44978E-18
 -1      1857 9.49128E-05-2.84711E-05-2.84759E-05 4.38668E-07-5.86687E-19-1.46033E-18
 -1      1858 9.50415E-05-2.85007E-05-2.85153E-05 4.45454E-07-2.86460E-19-1.46908E-18
 -1      1859 9.49487E-05-2.84868E-05-2.84841E-05 5.67807E-07-5.81525E-19-1.24258E-18
 -1      1860 9.51452E-05-2.85217E-05-2.85532E-05 4.66473E-07-2.16809E-19-1.75521E-18
 -1      1861 9.52850E-05-2.85535E-05-2.85962E-05 4.90208E-07-1.31611E-19-2.04084E-18
 -1      1862 9.51449E-05-2.85171E-05-2.85557E-05 5.93286E-07-5.37471E-19-1.19052E-18
 -1      1863 9.54024E-05-2.85773E-05-2.86389E-05 5.34180E-07-1.60271E-19-1.90668E-18
 -1      1864 9.55645E-05-2.86147E-05-2.86887E-05 5.76866E-07-4.53374E-19-1.82396E-18
 -1      1865 9.53610E-05-2.85497E-05-2.86349E-05 6.67032E-07-3.16451E-19-1.36555E-18
 -1      1866 9.57033E-05-2.86439E-05-2.87388E-05 6.46248E-07-3.95725E-19-1.84967E-18
 -1      1867 9.58999E-05-2.86908E-05-2.87987E-05 7.09657E-07 5.58587E-20-1.81087E-18
 -1      1868 9.56118E-05-2.85894E-05-2.87260E-05 7.94831E-07-5.15844E-19-1.09822E-18
 -1      1869 9.60689E-05-2.87281E-05-2.88587E-05 8.06338E-07 1.08200E-19-1.94364E-18
 -1      1870 9.63128E-05-2.87889E-05-2.89324E-05 8.91610E-07-1.86447E-20-1.68245E-18
 -1      1871 9.59140E-05-2.86417E-05-2.88338E-05 9.81545E-07-6.09791E-20-1.23302E-18
 -1      1872 9.65212E-05-2.88378E-05-2.90050E-05 1.01622E-06-1.51913E-19-1.45184E-18
 -1      1873 9.68256E-05-2.89176E-05-2.90959E-05 1.12314E-06-1.59842E-19-1.80576E-18
 -1      1874 9.62856E-05-2.87137E-05-2.89628E-05 1.22998E-06 1.50223E-19-1.54802E-18
 -1      1875 9.70824E-05-2.89823E-05-2.91832E-05 1.27392E-06-3.37690E-19-1.25707E-18
 -1      1876 9.74593E-05-2.90865E-05-2.92944E-05 1.39974E-06-2.82118E-20-1.07081E-18
 -1      1877 9.67454E-05-2.88146E-05-2.91173E-05 1.53888E-06 4.65368E-20-1.06785E-18
 -1      1878 9.77732E-05-2.91719E-05-2.93977E-05 1.57082E-06 2.62324E-19-1.22166E-18
 -1      1879 9.82312E-05-2.93062E-05-2.95311E-05 1.70858E-06 4.97524E-19-1.31523E-18
 -1      1880 9.73122E-05-2.89559E-05-2.93003E-05 1.89977E-06 1.83972E-19-3.23060E-19
 -1      1881 9.86092E-05-2.94182E-05-2.96504E-05 1.88757E-06 3.58584E-19-1.30316E-18
 -1      1882 9.91508E-05-2.95879E-05-2.98057E-05 2.02379E-06 2.39432E-19-1.19965E-18
 -1      1883 9.80026E-05-2.91521E-05-2.95125E-05 2.29246E-06 3.57319E-19-7.62824E-19
 -1      1884 9.95963E-05-2.97331E-05-2.99389E-05 2.18870E-06 1.46671E-19-1.27585E-18
 -1      1885 1.00213E-04-2.99420E-05-3.01123E-05 2.30059E-06 9.95975E-20-7.31421E-19
 -1      1886 9.88288E-05-2.94211E-05-2.97514E-05 2.67907E-06 3.62481E-19-9.15551E-19
 -1      1887 1.00724E-04-3.01272E-05-3.02541E-05 2.41641E-06-2.51902E-19-4.74378E-19
 -1      1888 1.01392E-04-3.03755E-05-3.04369E-05 2.46913E-06 3.31383E-19-6.47526E-19
 -1      1889 9.97948E-05-2.97836E-05-3.00097E-05 2.99688E-06 3.59777E-19-1.00648E-18
 -1      1890 1.01958E-04-3.06062E-05-3.05786E-05 2.48501E-06 3.47757E-19-1.38209E-18
 -1      1891 1.02627E-04-3.08871E-05-3.07554E-05 2.43032E-06 3.31356E-19-1.39185E-18
 -1      1892 1.00890E-04-3.02604E-05-3.02738E-05 3.15158E-06 1.55881E-20-8.78725E-19
 -1      1893 1.03223E-04-3.11636E-05-3.08839E-05 2.27969E-06 1.52628E-19-1.58703E-18
 -1      1894 1.03816E-04-3.14576E-05-3.10317E-05 2.05885E-06 3.21924E-19-1.80175E-18
 -1      1895 1.02083E-04-3.08648E-05-3.05239E-05 3.01417E-06 7.17000E-20-1.76560E-18
 -1      1896 1.04399E-04-3.17681E-05-3.11310E-05 1.66654E-06 4.20537E-19-2.23812E-18
 -1      1897 1.04803E-04-3.20355E-05-3.12202E-05 1.22186E-06-3.41526E-19-2.16664E-18
 -1      1898 1.03305E-04-3.15879E-05-3.07345E-05 2.42837E-06-2.48485E-21-1.74798E-18
 -1      1899 1.05301E-04-3.23447E-05-3.12734E-05 5.24527E-07-6.27585E-19-1.89166E-18
 -1      1900 1.05380E-04-3.25175E-05-3.12717E-05-1.75201E-07-2.90582E-19-1.63511E-18
 -1      1901 1.04438E-04-3.23721E-05-3.08788E-05 1.23961E-06-7.01069E-20-1.76626E-18
 -1      1902 1.05684E-04-3.27537E-05-3.12662E-05-1.18897E-06-3.95174E-19-1.48832E-18
 -1      1903 1.05298E-04-3.27344E-05-3.11474E-05-2.10723E-06-1.25669E-19-1.24598E-18
 -1      1904 1.05294E-04-3.30766E-05-3.09356E-05-6.40575E-07-3.92997E-19-7.61122E-19
 -1      1905 1.05270E-04-3.27849E-05-3.10801E-05-3.33792E-06 2.47228E-19-8.62877E-19
 -1      1906 1.04327E-04-3.24652E-05-3.08369E-05-4.32359E-06 7.75488E-19-7.75419E-19
 -1      1907 1.05608E-04-3.34527E-05-3.08990E-05-3.12710E-06 3.35720E-19-5.77349E-19
 -1      1908 1.03835E-04-3.22025E-05-3.07196E-05-5.50561E-06 4.89939E-19-8.05542E-19
 -1      1909 1.02364E-04-3.15181E-05-3.03757E-05-6.27430E-06 3.80133E-19 2.19004E-19
 -1      1910 1.05084E-04-3.31736E-05-3.07858E-05-5.83171E-06 7.28710E-19 4.17863E-19
 -1      1911 1.01375E-04-3.08776E-05-3.02339E-05-6.98270E-06-2.36177E-19-1.22634E-19
 -1      1912 9.95895E-05-2.98928E-05-2.98480E-05-7.17784E-06-2.56085E-19-8.35909E-19
 -1      1913 1.03532E-04-3.19783E-05-3.06340E-05-7.99560E-06-2.20832E-19 1.70540E-19
 -1      1914 9.82859E-05-2.89847E-05-2.97125E-05-6.97103E-06-2.87791E-19-9.33715E-19
 -1      1915 9.65959E-05-2.79531E-05-2.93672E-05-6.33637E-06-5.60167E-19-9.07556E-19
 -1      1916 1.01095E-04-2.99294E-05-3.04863E-05-8.63296E-06-6.22345E-19 1.08882E-19
 -1      1917 9.54088E-05-2.71066E-05-2.92620E-05-5.03587E-06-7.07001E-19-9.64102E-19
 -1      1918 9.42983E-05-2.64086E-05-2.90381E-05-3.62934E-06-1.04890E-18-1.20727E-18
 -1      1919 9.84286E-05-2.76159E-05-3.03681E-05-7.00073E-06-7.75657E-19-7.22883E-19
 -1      1920 9.37300E-05-2.60293E-05-2.89748E-05-1.55798E-06-3.16062E-19-3.57625E-19
 -1      1921 9.35392E-05-2.59651E-05-2.89217E-05 1.74346E-07 7.59802E-19 3.37897E-19
 -1      1922 9.65475E-05-2.60122E-05-3.02775E-05-3.22037E-06-1.66329E-19 5.17529E-19
 -1      1923 9.38277E-05-2.62495E-05-2.89026E-05 2.26008E-06 6.59098E-19-3.37316E-19
 -1      1924 9.45628E-05-2.68281E-05-2.90206E-05 3.68394E-06 3.26677E-19-1.21037E-18
 -1      1925 9.62658E-05-2.59107E-05-3.02010E-05 1.47592E-06 3.06824E-19 1.94147E-18
 -1      1926 9.54921E-05-2.75998E-05-2.90423E-05 5.01186E-06-2.74597E-19-9.17803E-19
 -1      1927 9.68187E-05-2.85300E-05-2.92818E-05 5.66123E-06-1.24785E-18-1.19318E-18
 -1      1928 9.76079E-05-2.73375E-05-3.01371E-05 5.30838E-06-2.95661E-19-5.10485E-19
 -1      1929 9.78864E-05-2.93836E-05-2.93326E-05 5.87713E-06-2.01179E-18-1.11340E-18
 -1      1930 9.93126E-05-3.02759E-05-2.96120E-05 5.67406E-06-1.52153E-18-9.89255E-19
 -1      1931 9.97846E-05-2.95281E-05-3.00973E-05 6.98694E-06-1.53224E-18-2.94179E-20
 -1      1932 1.00067E-04-3.08634E-05-2.96689E-05 4.94110E-06-1.05028E-18-1.03785E-18
 -1      1933 1.01170E-04-3.14470E-05-2.99049E-05 4.14100E-06 5.05229E-19-4.85270E-19
 -1      1934 1.01757E-04-3.14829E-05-3.00852E-05 6.33309E-06-7.60341E-19 1.60491E-18
 -1      1935 1.01413E-04-3.16403E-05-2.99391E-05 2.91453E-06 1.87574E-18-1.23731E-18
 -1      1936 1.01971E-04-3.18380E-05-3.00735E-05 1.89351E-06 1.56719E-18-3.89819E-19
 -1      1937 1.02827E-04-3.25628E-05-3.00797E-05 4.09141E-06 2.66405E-19 7.36913E-19
 -1      1938 1.01732E-04-3.16923E-05-3.00634E-05 6.33062E-07 6.04209E-19 7.97985E-20
 -1      1939 1.01725E-04-3.15644E-05-3.00768E-05-2.91116E-07 1.21803E-18 1.26478E-18
 -1      1940 1.02831E-04-3.26666E-05-3.00454E-05 1.30352E-06 1.30981E-18-4.07452E-19
 -1      1941 1.01144E-04-3.12046E-05-3.00164E-05-1.27340E-06 1.48193E-18 1.01415E-18
 -1      1942 1.00694E-04-3.08643E-05-2.99258E-05-1.90766E-06 1.75461E-18-2.49137E-19
 -1      1943 1.01961E-04-3.20353E-05-2.99544E-05-1.18132E-06 1.38103E-18 1.06378E-18
 -1      1944 9.99293E-05-3.04063E-05-2.98261E-05-2.46080E-06 8.21357E-19-1.16348E-18
 -1      1945 9.92236E-05-2.99657E-05-2.96723E-05-2.72350E-06 8.58713E-20-8.64298E-19
 -1      1946 1.00543E-04-3.09932E-05-2.98030E-05-2.86793E-06 9.13418E-19-6.49866E-20
 -1      1947 9.84093E-05-2.94911E-05-2.95539E-05-2.81566E-06 3.67007E-19-1.07363E-18
 -1      1948 9.76461E-05-2.90422E-05-2.93858E-05-2.70189E-06 1.17538E-18-5.29614E-19
 -1      1949 9.88930E-05-2.98081E-05-2.96103E-05-3.56371E-06 2.66398E-19 5.18056E-19
 -1      1950 9.69618E-05-2.86714E-05-2.92748E-05-2.37394E-06 1.12386E-18-5.89426E-19
 -1      1951 9.63221E-05-2.83174E-05-2.91232E-05-1.96556E-06 5.56803E-19-6.48584E-20
 -1      1952 9.60911E-05-2.79629E-05-2.92001E-05-2.35262E-06 1.52374E-19 5.84188E-20
 -1      1953 9.73282E-05-2.86948E-05-2.94125E-05-3.29699E-06 9.35919E-19 6.50134E-19
 -1      1954 9.32050E-05-2.73608E-05-2.81911E-05 1.60833E-06 2.06513E-18 3.49094E-18
 -1      1955 9.44007E-05-2.74664E-05-2.86280E-05 2.67911E-06 2.27639E-18 4.35746E-18
 -1      1956 9.52251E-05-2.70458E-05-2.92251E-05 4.05745E-06 2.78040E-18 2.70739E-18
 -1      1957 9.21509E-05-2.73468E-05-2.77486E-05 3.52315E-07 1.52347E-18 2.44032E-18
 -1      1958 9.26465E-05-2.73794E-05-2.79214E-05 9.00013E-07 1.66123E-18 3.08268E-18
 -1      1959 9.36191E-05-2.73666E-05-2.84008E-05 1.58945E-06 2.05899E-18 1.95062E-18
 -1      1960 9.17728E-05-2.73836E-05-2.75797E-05-3.00026E-07 1.05997E-18 1.73053E-18
 -1      1961 9.18894E-05-2.73573E-05-2.76271E-05-8.05813E-09 1.28582E-18 2.19247E-18
 -1      1962 9.27859E-05-2.74812E-05-2.79977E-05 2.77756E-07 1.57975E-18 1.25840E-18
 -1      1963 9.17932E-05-2.74731E-05-2.75556E-05-6.24652E-07 5.04168E-19 1.09275E-18
 -1      1964 9.17072E-05-2.74118E-05-2.75398E-05-4.72437E-07 7.73995E-19 1.44639E-18
 -1      1965 9.24695E-05-2.75734E-05-2.78227E-05-4.14504E-07 1.07615E-18 6.30793E-19
 -1      1966 9.20337E-05-2.75939E-05-2.76100E-05-7.61435E-07 4.39822E-19 7.56529E-19
 -1      1967 9.18450E-05-2.75159E-05-2.75620E-05-6.90758E-07 3.76907E-19 8.96905E-19
 -1      1968 9.24701E-05-2.76777E-05-2.77764E-05-7.58259E-07 6.02607E-19 2.13730E-19
 -1      1969 9.23827E-05-2.77267E-05-2.77046E-05-7.88167E-07 5.26068E-19 4.65976E-19
 -1      1970 9.21498E-05-2.76442E-05-2.76419E-05-7.66312E-07 4.36829E-19 7.28218E-19
 -1      1971 9.26517E-05-2.77918E-05-2.78031E-05-8.98324E-07 5.87911E-19-1.61630E-19
 -1      1972 9.27713E-05-2.78584E-05-2.78160E-05-7.51953E-07 1.01137E-18-2.54555E-19
 -1      1973 9.25286E-05-2.77787E-05-2.77489E-05-7.58856E-07 8.35485E-19 4.38577E-19
 -1      1974 9.29258E-05-2.79074E-05-2.78692E-05-9.18520E-07 9.71129E-19-4.56805E-19
 -1      1975 9.31583E-05-2.79812E-05-2.79302E-05-6.82906E-07 6.31735E-19-3.49196E-19
 -1      1976 9.29256E-05-2.79082E-05-2.78649E-05-7.05552E-07 8.20483E-19-3.25719E-19
 -1      1977 9.32364E-05-2.80173E-05-2.79538E-05-8.70773E-07 9.90915E-19-3.59204E-19
 -1      1978 9.35212E-05-2.80910E-05-2.80394E-05-6.00931E-07 8.27004E-19-1.42440E-19
 -1      1979 9.33085E-05-2.80266E-05-2.79789E-05-6.30578E-07 6.20009E-19-3.05363E-19
 -1      1980 9.35496E-05-2.81171E-05-2.80443E-05-7.88757E-07 7.70913E-19-5.26605E-19
 -1      1981 9.38502E-05-2.81867E-05-2.81398E-05-5.19480E-07 4.83098E-19-4.11471E-19
 -1      1982 9.36612E-05-2.81312E-05-2.80855E-05-5.50111E-07 7.44549E-19-1.19605E-19
 -1      1983 9.38468E-05-2.82049E-05-2.81335E-05-6.94960E-07 7.54057E-19-6.08796E-19
 -1      1984 9.41443E-05-2.82693E-05-2.82308E-05-4.47888E-07 7.80519E-19-1.16325E-18
 -1      1985 9.39782E-05-2.82218E-05-2.81825E-05-4.75229E-07 5.38731E-19-9.01567E-19
 -1      1986 9.41204E-05-2.82806E-05-2.82179E-05-6.04770E-07 8.64610E-19-8.44898E-19
 -1      1987 9.44089E-05-2.83408E-05-2.83136E-05-3.92971E-07 1.75775E-19-1.40847E-18
 -1      1988 9.42617E-05-2.82999E-05-2.82703E-05-4.13814E-07 3.62979E-19-1.16276E-18
 -1      1989 9.43700E-05-2.83455E-05-2.82969E-05-5.29084E-07 5.57066E-19-1.29725E-18
 -1      1990 9.46541E-05-2.84048E-05-2.83912E-05-3.60200E-07-1.83505E-19-1.42362E-18
 -1      1991 9.45195E-05-2.83683E-05-2.83511E-05-3.71889E-07-1.82598E-20-1.21522E-18
 -1      1992 9.46011E-05-2.84020E-05-2.83717E-05-4.76127E-07 1.77503E-19-1.47109E-18
 -1      1993 9.48942E-05-2.84654E-05-2.84679E-05-3.54610E-07-7.72266E-20-1.72671E-18
 -1      1994 9.47637E-05-2.84308E-05-2.84285E-05-3.54644E-07-1.08108E-19-1.49057E-18
 -1      1995 9.48233E-05-2.84532E-05-2.84451E-05-4.52815E-07-6.03198E-20-1.62224E-18
 -1      1996 9.51471E-05-2.85277E-05-2.85491E-05-3.81546E-07 7.69930E-19-1.40913E-18
 -1      1997 9.50103E-05-2.84919E-05-2.85074E-05-3.67232E-07 3.15757E-19-1.53797E-18
 -1      1998 9.50501E-05-2.85029E-05-2.85212E-05-4.65811E-07 4.29392E-19-1.34150E-18
 -1      1999 9.54345E-05-2.85977E-05-2.86416E-05-4.47293E-07 1.99611E-19-1.50844E-18
 -1      2000 9.52790E-05-2.85570E-05-2.85938E-05-4.15449E-07 6.09032E-19-1.18665E-18
 -1      2001 9.52983E-05-2.85556E-05-2.86053E-05-5.22401E-07 5.28724E-19-1.40308E-18
 -1      2002 9.57828E-05-2.86826E-05-2.87536E-05-5.59615E-07-7.67100E-19-1.74612E-18
 -1      2003 9.55934E-05-2.86328E-05-2.86953E-05-5.06297E-07-3.83631E-19-1.73988E-18
 -1      2004 9.55883E-05-2.86165E-05-2.87040E-05-6.31215E-07-8.91519E-20-1.38635E-18
 -1      2005 9.62235E-05-2.87911E-05-2.88947E-05-7.28213E-07-1.67777E-19-1.49510E-18
 -1      2006 9.59820E-05-2.87267E-05-2.88205E-05-6.48473E-07-3.41298E-19-1.64080E-18
 -1      2007 9.59448E-05-2.86920E-05-2.88251E-05-8.02837E-07-4.17595E-19-2.15831E-18
 -1      2008 9.67940E-05-2.89332E-05-2.90767E-05-9.65039E-07 1.12257E-19-2.64847E-18
 -1      2009 9.64787E-05-2.88481E-05-2.89802E-05-8.52727E-07 2.05654E-20-2.07630E-18
 -1      2010 9.63968E-05-2.87893E-05-2.89780E-05-1.05025E-06 3.09136E-19-2.46819E-18
 -1      2011 9.75389E-05-2.91216E-05-2.93132E-05-1.28430E-06 1.24148E-18-2.32808E-18
 -1      2012 9.71237E-05-2.90080E-05-2.91867E-05-1.13200E-06 6.48094E-19-2.17242E-18
 -1      2013 9.69785E-05-2.89172E-05-2.91734E-05-1.38901E-06 5.91839E-19-2.40780E-18
 -1      2014 9.85101E-05-2.93712E-05-2.96201E-05-1.70183E-06 5.24942E-19-2.88638E-18
 -1      2015 9.79642E-05-2.92197E-05-2.94547E-05-1.50107E-06 9.50694E-19-2.38366E-18
 -1      2016 9.77296E-05-2.90867E-05-2.94238E-05-1.83684E-06 1.03464E-18-2.66131E-18
 -1      2017 9.97669E-05-2.97004E-05-3.00151E-05-2.23308E-06-1.59691E-18-2.69768E-18
 -1      2018 9.90550E-05-2.94996E-05-2.98007E-05-1.97521E-06-6.96210E-19-2.73098E-18
 -1      2019 9.86952E-05-2.93112E-05-2.97429E-05-2.41205E-06-5.31824E-19-2.18692E-18
 -1      2020 1.01373E-04-3.01315E-05-3.05163E-05-2.88839E-06-3.90520E-19-1.61226E-18
 -1      2021 1.00457E-04-2.98679E-05-3.02423E-05-2.56677E-06-1.14715E-18-2.20630E-18
 -1      2022 9.99254E-05-2.96082E-05-3.01446E-05-3.12968E-06-1.15874E-18-1.84350E-18
 -1      2023 1.03391E-04-3.06920E-05-3.11397E-05-3.66319E-06 2.97400E-19-1.25295E-18
 -1      2024 1.02234E-04-3.03500E-05-3.07966E-05-3.27796E-06 1.61383E-19-1.35727E-18
 -1      2025 1.01473E-04-3.00018E-05-3.06411E-05-3.99328E-06-5.08352E-20-2.08930E-18
 -1      2026 1.05871E-04-3.14155E-05-3.18936E-05-4.51937E-06 1.13575E-18-5.25822E-19
 -1      2027 1.04446E-04-3.09782E-05-3.14759E-05-4.08676E-06 5.77008E-19-9.92900E-19
 -1      2028 1.03388E-04-3.05263E-05-3.12397E-05-4.97906E-06 4.60634E-19-1.89033E-18
 -1      2029 1.08826E-04-3.23424E-05-3.27688E-05-5.35289E-06 9.58702E-20-3.45705E-19
 -1      2030 1.07135E-04-3.17936E-05-3.22814E-05-4.92192E-06 6.64573E-19-3.38148E-19
 -1      2031 1.05712E-04-3.12329E-05-3.19361E-05-6.00785E-06 7.04217E-19-5.32148E-19
 -1      2032 1.12199E-04-3.35165E-05-3.37243E-05-5.94452E-06-4.67054E-19-7.12732E-19
 -1      2033 1.10299E-04-3.28473E-05-3.31912E-05-5.62300E-06-2.03864E-19-6.78371E-19
 -1      2034 1.08466E-04-3.21963E-05-3.27066E-05-6.90049E-06-9.45285E-20-1.51807E-19
 -1      2035 1.15807E-04-3.49679E-05-3.46694E-05-5.90187E-06-1.00201E-19-3.26677E-19
 -1      2036 1.13850E-04-3.41919E-05-3.41458E-05-5.88795E-06-2.14084E-19-5.73057E-19
 -1      2037 1.11626E-04-3.35151E-05-3.34980E-05-7.31817E-06-2.65382E-19 4.66467E-19
 -1      2038 1.19266E-04-3.66571E-05-3.54533E-05-4.63688E-06-1.00515E-18-7.27423E-19
 -1      2039 1.17549E-04-3.58449E-05-3.50341E-05-5.23316E-06-5.31910E-19-5.43822E-19
 -1      2040 1.15085E-04-3.52767E-05-3.42234E-05-6.71249E-06-4.55432E-19-3.86644E-19
 -1      2041 1.21920E-04-3.83459E-05-3.58838E-05-1.49038E-06 4.55770E-19 1.98653E-19
 -1      2042 1.20908E-04-3.76874E-05-3.56947E-05-3.04057E-06-4.26428E-19 1.74224E-19
 -1      2043 1.18565E-04-3.74423E-05-3.47762E-05-4.36277E-06-3.30866E-19-5.67830E-19
 -1      2044 1.22809E-04-3.93878E-05-3.58065E-05 3.79321E-06-2.78528E-20 1.57841E-18
 -1      2045 1.23070E-04-3.92599E-05-3.59571E-05 1.15280E-06 5.75877E-19 1.11317E-18
 -1      2046 1.21463E-04-3.95758E-05-3.50794E-05 3.38839E-07 3.40745E-19 7.07211E-19
 -1      2047 1.20831E-04-3.86431E-05-3.52325E-05 1.01042E-05-1.67951E-19 1.14304E-18
 -1      2048 1.22817E-04-3.95490E-05-3.57314E-05 6.95210E-06-1.87710E-19 1.56409E-18
 -1      2049 1.22681E-04-4.05253E-05-3.51608E-05 7.12783E-06-8.47562E-20 1.80831E-18
 -1      2050 1.15619E-04-3.52358E-05-3.44295E-05 1.42429E-05 1.08912E-18 9.82823E-19
 -1      2051 1.19148E-04-3.73423E-05-3.51144E-05 1.21977E-05 4.09362E-19 1.09667E-18
 -1      2052 1.20943E-04-3.87175E-05-3.51826E-05 1.37716E-05 7.62965E-19 2.13934E-18
 -1      2053 1.08718E-04-3.00011E-05-3.37885E-05 1.21662E-05 3.24255E-19-6.74066E-19
 -1      2054 1.12620E-04-3.25504E-05-3.43816E-05 1.32148E-05 1.20014E-18 4.00858E-19
 -1      2055 1.16098E-04-3.36493E-05-3.53557E-05 1.59404E-05 1.63649E-18 2.24641E-18
 -1      2056 1.04334E-04-2.65882E-05-3.35047E-05 3.07487E-06-3.90165E-20-1.29155E-18
 -1      2057 1.06514E-04-2.78146E-05-3.37824E-05 7.37130E-06-4.28969E-19-1.92509E-18
 -1      2058 1.10662E-04-2.79418E-05-3.56046E-05 9.91437E-06 3.99138E-19 2.28891E-19
 -1      2059 1.05877E-04-2.80623E-05-3.35638E-05-7.66571E-06 3.95617E-19 4.62956E-19
 -1      2060 1.04927E-04-2.69481E-05-3.34453E-05-2.81997E-06 1.40713E-19-5.50148E-19
 -1      2061 1.08912E-04-2.61838E-05-3.56275E-05-2.08959E-06-4.69680E-19-3.61898E-19
 -1      2062 1.11861E-04-3.29589E-05-3.39107E-05-1.30110E-05-2.67954E-19 4.42786E-19
 -1      2063 1.08577E-04-3.05207E-05-3.34691E-05-1.06838E-05-2.16814E-19 2.93338E-19
 -1      2064 1.12192E-04-3.00124E-05-3.53008E-05-1.21142E-05-6.13569E-20 4.87282E-19
 -1      2065 1.17656E-04-3.72402E-05-3.44245E-05-1.10309E-05-5.31265E-19 1.08926E-18
 -1      2066 1.14188E-04-3.52495E-05-3.38724E-05-1.18503E-05 1.83048E-19 1.06594E-18
 -1      2067 1.17149E-04-3.58125E-05-3.48514E-05-1.41947E-05-4.04273E-19 4.45500E-19
 -1      2068 1.20141E-04-3.87321E-05-3.47993E-05-5.03047E-06-9.85655E-19-2.77906E-19
 -1      2069 1.18135E-04-3.79855E-05-3.44168E-05-7.51636E-06-7.28528E-19 5.46363E-19
 -1      2070 1.19899E-04-3.93651E-05-3.45138E-05-9.28124E-06-5.96563E-20 8.23740E-19
 -1      2071 1.19127E-04-3.79072E-05-3.47374E-05 1.05413E-06-3.91700E-19-1.32630E-18
 -1      2072 1.18990E-04-3.81859E-05-3.46996E-05-1.48493E-06-9.74233E-19-1.17237E-18
 -1      2073 1.19315E-04-3.95315E-05-3.42189E-05-2.02351E-06-1.01052E-18-9.94403E-20
 -1      2074 1.15762E-04-3.59776E-05-3.41634E-05 5.25289E-06 1.76712E-18-2.20252E-18
 -1      2075 1.17114E-04-3.68049E-05-3.44734E-05 3.46896E-06 3.66554E-19-1.48556E-18
 -1      2076 1.16350E-04-3.76181E-05-3.37803E-05 4.08104E-06 8.38536E-19-1.05582E-18
 -1      2077 1.11297E-04-3.38319E-05-3.31975E-05 7.29131E-06 1.15707E-18-2.01338E-18
 -1      2078 1.13505E-04-3.48350E-05-3.37482E-05 6.38523E-06 2.22344E-18-1.57842E-18
 -1      2079 1.12261E-04-3.50719E-05-3.31110E-05 7.76721E-06 1.66712E-18-1.50872E-18
 -1      2080 1.06624E-04-3.18563E-05-3.20512E-05 7.63644E-06 1.38887E-18-1.95381E-18
 -1      2081 1.09124E-04-3.28427E-05-3.27016E-05 7.43841E-06 7.49359E-19-1.14288E-18
 -1      2082 1.07932E-04-3.27003E-05-3.22584E-05 9.18681E-06 8.05452E-19-2.19448E-19
 -1      2083 1.02320E-04-3.01483E-05-3.09372E-05 6.78579E-06 6.73656E-20-8.89398E-19
 -1      2084 1.04692E-04-3.10350E-05-3.15593E-05 7.11321E-06 4.68247E-19-1.02205E-18
 -1      2085 1.03843E-04-3.07141E-05-3.13502E-05 8.91150E-06 8.50252E-19-6.28558E-20
 -1      2086 9.87665E-05-2.87060E-05-3.00204E-05 5.00387E-06-1.00791E-18 6.79011E-19
 -1      2087 1.00693E-04-2.94493E-05-3.05183E-05 5.78774E-06-7.04341E-19 7.07405E-20
 -1      2088 1.00243E-04-2.90442E-05-3.05212E-05 7.41872E-06-1.32112E-18 1.66344E-18
 -1      2089 9.65375E-05-2.77389E-05-2.94642E-05 3.14445E-06-1.39369E-18 2.20112E-18
 -1      2090 9.79101E-05-2.82839E-05-2.98260E-05 4.26859E-06-8.75849E-19 1.78686E-18
 -1      2091 9.77038E-05-2.78171E-05-2.99640E-05 5.58312E-06-1.86182E-18 4.57110E-18
 -1      2092 9.60989E-05-2.69344E-05-2.96488E-05 3.86722E-06-1.24126E-18 4.05269E-18
 -1      2093 9.16763E-05-1.80600E-05-3.15771E-05 7.16602E-06-5.65265E-19 3.55734E-19
 -1      2094 9.25923E-05-1.99266E-05-3.11303E-05 7.35413E-06-3.62305E-19-7.12577E-19
 -1      2095 9.34472E-05-2.14650E-05-3.08606E-05 7.24896E-06-3.58854E-19-2.22609E-18
 -1      2096 9.43728E-05-2.33065E-05-3.04349E-05 6.78861E-06-4.12929E-21-3.97343E-19
 -1      2097 9.33387E-05-2.15316E-05-3.07734E-05 9.11806E-06-1.16137E-18-1.32768E-18
 -1      2098 9.49046E-05-2.43662E-05-3.02300E-05 6.00690E-06-2.43654E-20 1.67243E-18
 -1      2099 9.56748E-05-2.59272E-05-2.98690E-05 5.00422E-06-1.03834E-18 2.78684E-18
 -1      2100 9.63420E-05-2.63045E-05-2.99986E-05 5.99274E-06-1.70601E-18 3.51208E-18
 -1      2101 9.50373E-05-2.41687E-05-3.03752E-05 8.07784E-06-7.95913E-19 5.85738E-19
 -1      2102 9.01754E-05-1.51234E-05-3.22070E-05 5.84838E-06-1.70868E-18-1.75679E-18
 -1      2103 9.09321E-05-1.66872E-05-3.18281E-05 6.56656E-06-1.58081E-18-1.09863E-19
 -1      2104 9.13465E-05-1.85093E-05-3.12024E-05 8.55495E-06-1.37879E-18-7.37587E-19
 -1      2105 8.91254E-05-1.30269E-05-3.26617E-05 3.49903E-06-6.14173E-20-7.06611E-20
 -1      2106 8.96102E-05-1.40662E-05-3.24051E-05 4.62564E-06-9.21416E-19 1.17307E-19
 -1      2107 8.97199E-05-1.59683E-05-3.15745E-05 6.51764E-06-8.93979E-19-2.94000E-19
 -1      2108 8.87671E-05-1.22074E-05-3.28545E-05 6.17424E-07 1.26780E-18-4.20611E-19
 -1      2109 8.88781E-05-1.25276E-05-3.27677E-05 1.90458E-06 5.03796E-19-4.18884E-20
 -1      2110 8.87158E-05-1.43452E-05-3.18274E-05 3.34623E-06 1.28672E-18-1.00095E-19
 -1      2111 8.91409E-05-1.27668E-05-3.27625E-05-2.19324E-06 6.12909E-19 9.26065E-19
 -1      2112 8.88793E-05-1.23500E-05-3.28526E-05-1.01123E-06 6.29089E-19-1.08870E-19
 -1      2113 8.85603E-05-1.39806E-05-3.19156E-05-2.85523E-07 1.51011E-18-7.65073E-19
 -1      2114 9.01040E-05-1.45110E-05-3.24130E-05-4.39188E-06-6.25732E-19-8.81113E-20
 -1      2115 8.95602E-05-1.34844E-05-3.26550E-05-3.53045E-06 5.99092E-19 1.24512E-18
 -1      2116 8.92369E-05-1.48925E-05-3.18252E-05-3.62362E-06-6.13370E-19 1.15147E-18
 -1      2117 9.13841E-05-1.70226E-05-3.18726E-05-5.66002E-06-4.62814E-19-2.15829E-18
 -1      2118 9.07015E-05-1.56105E-05-3.22191E-05-5.22443E-06-3.07597E-19-2.19477E-19
 -1      2119 9.05096E-05-1.68004E-05-3.15703E-05-6.05331E-06-5.12083E-19-8.68050E-19
 -1      2120 9.26729E-05-1.97666E-05-3.12399E-05-5.96639E-06 7.74082E-19-2.11154E-18
 -1      2121 9.19994E-05-1.82430E-05-3.16274E-05-5.93535E-06 3.43674E-19-2.82297E-18
 -1      2122 9.20127E-05-1.92235E-05-3.11926E-05-7.27582E-06 5.87634E-19-1.97017E-18
 -1      2123 9.38111E-05-2.24295E-05-3.05809E-05-5.50454E-06 1.59587E-18 4.18716E-18
 -1      2124 9.32184E-05-2.09535E-05-3.09691E-05-5.78298E-06 9.89247E-19 1.46362E-18
 -1      2125 9.34208E-05-2.17150E-05-3.07409E-05-7.35914E-06 2.33480E-18-4.11520E-19
 -1      2126 9.46866E-05-2.46977E-05-2.99811E-05-4.53572E-06 4.38330E-19 2.36524E-18
 -1      2127 9.42254E-05-2.34377E-05-3.03215E-05-5.00792E-06 8.36371E-19 3.19983E-18
 -1      2128 9.45586E-05-2.39646E-05-3.02696E-05-6.57942E-06 1.59966E-18 2.69513E-18
 -1      2129 9.53142E-05-2.64751E-05-2.94934E-05-3.30915E-06-3.71346E-19-7.94332E-19
 -1      2130 9.49638E-05-2.54856E-05-2.97574E-05-3.88094E-06 1.50838E-19 8.62093E-19
 -1      2131 9.53646E-05-2.57868E-05-2.98342E-05-5.27990E-06 2.03390E-19 8.91917E-19
 -1      2132 5.60956E-05-4.20751E-05-6.73404E-06 3.85449E-05 2.71008E-18 1.10850E-18
 -1      2133 4.10773E-05-4.44515E-05-2.00533E-07 3.06346E-05 3.33138E-18-1.24059E-18
 -1      2134 1.21999E-05-3.71330E-05 9.16896E-06 3.33515E-06 4.78044E-19 7.10703E-18
 -1      2135 1.26276E-05-3.81698E-05 9.31446E-06-5.81838E-06-1.48570E-18 6.35063E-18
 -1      2136 2.75197E-05-3.81059E-05 3.51472E-06 2.55694E-05 2.44962E-18-1.28961E-19
 -1      2137 1.94240E-05-3.79043E-05 6.62003E-06 1.63366E-05 7.90282E-19 3.76464E-18
 -1      2138 9.77829E-05-4.61682E-05-2.23168E-05 4.28954E-05 1.40607E-18 9.51006E-19
 -1      2139 7.55759E-05-4.72290E-05-1.34765E-05 3.75432E-05 2.28021E-18 1.50221E-18
 -1      2140 1.40588E-04-4.64754E-05-3.97140E-05 3.40784E-05 8.10611E-19 1.68983E-19
 -1      2141 1.20039E-04-4.88869E-05-3.10408E-05 3.32757E-05 1.47384E-18 9.81711E-19
 -1      2142 8.72462E-05-8.72296E-06-3.37485E-05-1.05435E-05-2.66455E-18-4.08672E-18
 -1      2143 8.79537E-05-9.24311E-06-3.38206E-05-1.20992E-05-3.09142E-18-3.45865E-18
 -1      2144 9.04890E-05-1.30528E-05-3.32352E-05-1.18809E-05-3.31062E-18-2.81567E-18
 -1      2145 8.86861E-05-1.10572E-05-3.32944E-05-9.41842E-06-2.63916E-18-3.98495E-18
 -1      2146 1.84687E-04-3.17589E-05-6.41391E-05 1.04818E-05 1.70465E-18-1.38913E-19
 -1      2147 1.73437E-04-3.27756E-05-5.95612E-05 1.56094E-05 5.02926E-19-2.28699E-19
 -1      2148 1.86423E-04-2.53111E-05-6.79846E-05 1.00041E-06 5.32445E-18-1.66891E-18
 -1      2149 1.87451E-04-2.73273E-05-6.71246E-05 7.99385E-06 3.85951E-18-2.09641E-19
 -1      2150 1.76779E-04-2.62076E-05-6.37904E-05-3.02362E-06 4.25380E-18-2.53220E-18
 -1      2151 1.83871E-04-2.53903E-05-6.66471E-05 5.21184E-07 4.94879E-18-1.39951E-18
 -1      2152 1.66146E-04-3.73724E-05-5.45206E-05-1.71997E-05 3.50661E-18-5.08897E-18
 -1      2153 1.76614E-04-3.47296E-05-5.99828E-05-8.87141E-06 3.79725E-18-4.47403E-18
 -1      2154 1.39008E-04-4.59997E-05-4.01843E-05-2.41377E-05 3.09696E-18-4.38128E-18
 -1      2155 1.59074E-04-4.32851E-05-4.86090E-05-2.48330E-05 2.95572E-18-5.23170E-18
 -1      2156 1.59143E-04-4.36942E-05-4.86586E-05-4.25974E-06 3.02391E-18-4.35883E-18
 -1      2157 1.02119E-04-5.04469E-05-2.30088E-05-3.42952E-05 2.82358E-18-2.78039E-18
 -1      2158 1.24654E-04-5.04408E-05-3.16909E-05-3.47871E-05 2.86975E-18-2.99299E-18
 -1      2159 6.12880E-05-4.61192E-05-7.97437E-06-3.42385E-05 3.28225E-18-3.41503E-18
 -1      2160 8.03076E-05-4.50474E-05-1.55359E-05-4.05944E-05 3.42879E-18-1.98375E-18
 -1      2161 3.19137E-05-4.01298E-05 2.27714E-06-2.66056E-05 2.48901E-18-3.42286E-18
 -1      2162 4.42566E-05-4.05258E-05-2.56727E-06-3.29988E-05 3.54144E-18-4.03844E-18
 -1      2163 6.42945E-05-4.57006E-05-8.36680E-06-3.95584E-05 1.68390E-18-2.41690E-18
 -1      2164 1.31131E-05-3.84647E-05 8.98949E-06-4.79190E-06 4.17640E-19-5.18342E-18
 -1      2165 1.73544E-05-3.55680E-05 6.46512E-06-1.51065E-05 2.12944E-18-4.68621E-18
 -1      2166 1.45700E-05-3.66935E-05 8.00850E-06 1.37960E-05-1.26716E-18-5.61244E-18
 -1      2167 1.20719E-05-3.80147E-05 9.38748E-06 5.12138E-06 4.30928E-20-4.74593E-18
 -1      2168 3.48072E-05-3.64865E-05-1.77748E-08 3.30304E-05-1.27987E-18-4.60617E-18
 -1      2169 2.45565E-05-3.88877E-05 4.65396E-06 2.36908E-05-3.65918E-19-5.12031E-18
 -1      2170 6.68468E-05-3.97095E-05-1.20700E-05 4.22034E-05-2.91972E-18-6.02886E-18
 -1      2171 5.13839E-05-4.24320E-05-5.16417E-06 3.59899E-05-1.41624E-18-5.00623E-18
 -1      2172 1.05907E-04-4.23418E-05-2.70688E-05 4.28307E-05-3.43938E-18-4.83995E-18
 -1      2173 8.67147E-05-4.44027E-05-1.90992E-05 3.92201E-05-2.61818E-18-5.10380E-18
 -1      2174 1.40805E-04-4.09830E-05-4.21653E-05 3.38235E-05-5.26304E-18-2.97224E-18
 -1      2175 1.21353E-04-4.23623E-05-3.43374E-05 3.40614E-05-4.03865E-18-3.91287E-18
 -1      2176 1.63569E-04-3.52165E-05-5.42722E-05 2.02197E-05-4.39007E-18-3.63589E-18
 -1      2177 1.48792E-04-3.66194E-05-4.79640E-05 2.60757E-05-5.27934E-18-3.76040E-18
 -1      2178 1.46835E-04-4.60299E-05-4.25363E-05 1.51453E-05-3.44907E-18-1.78512E-18
 -1      2179 1.82405E-04-2.80792E-05-6.46298E-05 9.57031E-06-3.46098E-18-3.49655E-18
 -1      2180 1.69471E-04-2.71454E-05-6.03799E-05 1.36687E-05-4.05856E-18-4.10345E-18
 -1      2181 1.84178E-04-2.41108E-05-6.74655E-05-1.68356E-06-3.66342E-18-1.96337E-18
 -1      2182 1.84360E-04-2.55056E-05-6.67856E-05 6.28012E-06-3.40846E-18-2.77276E-18
 -1      2183 1.63350E-04-1.69282E-05-6.15272E-05-3.38364E-07-3.90694E-18-2.09196E-18
 -1      2184 1.72950E-04-2.38559E-05-6.33079E-05-9.25185E-06-4.19832E-18-1.34297E-18
 -1      2185 1.80720E-04-2.38020E-05-6.59863E-05-3.99692E-06-3.22847E-18-7.77576E-19
 -1      2186 1.60463E-04-3.26769E-05-5.43631E-05-1.94481E-05-3.48406E-18-1.19516E-18
 -1      2187 1.71398E-04-3.06009E-05-5.94968E-05-1.37164E-05-3.68904E-18-2.29461E-18
 -1      2188 1.36437E-04-3.94081E-05-4.16847E-05-3.22328E-05-3.65516E-18 1.89312E-19
 -1      2189 1.54562E-04-3.85882E-05-4.89160E-05-2.93089E-05-3.52789E-18-1.40015E-18
 -1      2190 1.05904E-04-4.53246E-05-2.66463E-05-3.81534E-05-2.22389E-18 3.90482E-18
 -1      2191 1.25302E-04-4.31954E-05-3.46888E-05-4.00227E-05-3.25091E-18 1.53440E-18
 -1      2192 6.86358E-05-4.50251E-05-1.14418E-05-3.85854E-05-4.12124E-18 2.13198E-18
 -1      2193 8.64908E-05-4.21070E-05-1.91747E-05-4.43625E-05-3.21110E-18 4.47212E-18
 -1      2194 3.78419E-05-4.32551E-05 7.36626E-07-3.10757E-05-9.94417E-19 3.49740E-18
 -1      2195 5.07822E-05-4.04823E-05-5.11793E-06-3.84209E-05-2.98410E-18 2.23881E-18
 -1      2196 1.91401E-05-3.80569E-05 6.74597E-06-1.72030E-05-8.28398E-19 3.16494E-18
 -1      2197 2.61088E-05-3.69839E-05 3.75257E-06-2.61523E-05-1.79486E-18 2.20398E-18
 -1      2198 1.69523E-04-3.91612E-05-5.46209E-05 2.34697E-05 5.01331E-19 5.12455E-19
 -1      2199 1.50918E-04-4.07173E-05-4.72247E-05 2.53145E-05 2.66074E-19-2.54110E-20
 -1      2200 1.20665E-04-5.75168E-05-2.69090E-05 3.41095E-05 7.25907E-19 1.80842E-19
 -1      2201 9.71843E-05-2.43126E-05-3.13039E-05-1.00060E-05-3.41688E-18 2.72522E-18
 -1      2202 1.50738E-04-5.14791E-05-4.20199E-05 1.60854E-05-2.36216E-19-1.67289E-18
 -1      2203 1.63787E-04-3.60468E-05-5.37580E-05 3.32316E-06-5.42525E-19-1.69152E-18
 -1      2204 9.63429E-05-2.31027E-05-3.14542E-05-1.03905E-05-3.65444E-18 7.72891E-19
 -1      2205 4.19520E-05-3.80528E-05-2.33988E-06 3.50870E-05 5.72594E-19 2.92226E-19
 -1      2206 1.85875E-05-2.84461E-05 3.55564E-06 1.34135E-05-2.43098E-19 4.76964E-18
 -1      2207 9.55985E-05-2.70464E-05-2.93666E-05-3.08239E-06-2.77576E-19-5.60739E-19
 -1      2208 7.80677E-05-5.04401E-05-1.21935E-05 4.23839E-05 1.50941E-18 4.12029E-19
 -1      2209 1.82809E-05-2.76605E-05 3.39240E-06-1.53760E-05-7.44436E-19 4.38763E-18
 -1      2210 3.86215E-05-3.63926E-05-1.61917E-06-3.51768E-05-5.40619E-19 2.80008E-18
 -1      2211 7.12089E-05-4.77586E-05-1.05036E-05-4.38441E-05-1.63520E-18 2.93674E-18
 -1      2212 1.09873E-04-5.44293E-05-2.36423E-05-3.93911E-05-1.32984E-18 2.13452E-18
 -1      2213 1.39026E-04-5.14985E-05-3.69935E-05-2.46191E-05-2.25946E-18-9.83829E-19
 -1      2214 1.54416E-04-3.86502E-05-4.88224E-05-1.01664E-05-2.94047E-18-3.00654E-18
 -1      2215 1.61851E-04-1.38138E-05-6.24172E-05 1.35161E-07-3.89635E-18-1.79571E-19
 -1      2216 1.58541E-04-3.06482E-05-5.40261E-05 4.26622E-06-3.98931E-18-2.63470E-18
 -1      2217 1.25756E-04-5.38079E-05-3.05097E-05 3.09174E-05-1.37601E-18-1.75759E-18
 -1      2218 9.03624E-05-5.04049E-05-1.72151E-05 4.27460E-05-7.03037E-20-4.17354E-18
 -1      2219 5.15895E-05-4.00639E-05-5.45130E-06 4.04020E-05 7.16590E-19-4.96478E-18
 -1      2220 2.27858E-05-2.95658E-05 2.27485E-06 2.44248E-05 2.01170E-19-5.34266E-18
 -1      2221 2.87346E-05-3.44359E-05 1.76816E-06-2.41591E-05 1.89735E-18-3.63081E-18
 -1      2222 4.06103E-05-3.26868E-05-3.75064E-06-3.37621E-05 4.43845E-19-3.22825E-18
 -1      2223 2.60741E-05-2.54083E-05-3.12357E-08-2.23740E-05 2.83544E-19-4.49012E-18
 -1      2224 1.39728E-04-5.73452E-05-3.51648E-05-2.00101E-05 1.02364E-18-2.90024E-18
 -1      2225 1.64185E-04-2.65074E-05-5.80796E-05 4.05529E-06 4.70590E-18-1.41349E-18
 -1      2226 1.66751E-04-2.13389E-05-6.09959E-05-1.70510E-06 2.56736E-18-2.01149E-18
 -1      2227 1.64874E-04-1.60702E-05-6.26712E-05 2.92669E-06 5.25796E-18-9.67232E-19
 -1      2228 1.04562E-04-5.65870E-05-2.04412E-05-3.67468E-05 9.50371E-19-1.11152E-18
 -1      2229 1.33321E-05-2.72578E-05 5.09619E-06-3.90048E-07-5.49354E-19-5.46421E-18
 -1      2230 1.58334E-04-2.23366E-05-5.74866E-05-1.54129E-07-2.86043E-18-1.44758E-18
 -1      2231 9.52083E-05-2.63752E-05-2.94867E-05 4.20109E-06 2.77109E-18 1.03641E-18
 -1      2232 9.61838E-05-2.58608E-05-3.00649E-05 6.00603E-06 3.07106E-18 1.46259E-18
 -1      2233 8.81419E-05-1.11871E-05-3.30200E-05-3.66356E-06-9.29465E-19-4.75440E-18
 -1      2234 8.83747E-05-1.14571E-05-3.30019E-05-4.80546E-06-1.36525E-18-4.73241E-18
 -1      2235 8.87247E-05-1.19394E-05-3.29529E-05-5.82450E-06-1.61956E-18-4.58833E-18
 -1      2236 8.91318E-05-1.24131E-05-3.29240E-05-6.99725E-06-2.06462E-18-4.32559E-18
 -1      2237 8.98957E-05-1.38277E-05-3.26000E-05-4.90862E-06-1.40120E-18-4.32076E-18
 -1      2238 8.77961E-05-1.07278E-05-3.30633E-05 6.16538E-07 3.99781E-19-4.95709E-18
 -1      2239 8.77921E-05-1.07234E-05-3.30636E-05-4.95097E-07 2.62919E-20-4.91959E-18
 -1      2240 8.79767E-05-1.09530E-05-3.30445E-05 2.75976E-06 1.10755E-18-4.86462E-18
 -1      2241 8.78622E-05-1.08200E-05-3.30540E-05 1.63961E-06 6.89255E-19-4.93332E-18
 -1      2242 8.91138E-05-1.27744E-05-3.27201E-05 1.05084E-06 5.15079E-19-4.65929E-18
 -1      2243 8.84096E-05-1.14997E-05-3.29989E-05 4.89074E-06 1.88728E-18-4.65541E-18
 -1      2244 8.81709E-05-1.12232E-05-3.30172E-05 3.76681E-06 1.46628E-18-4.76139E-18
 -1      2245 8.93794E-05-1.31307E-05-3.26798E-05 3.02332E-06 1.22404E-18-4.46469E-18
 -1      2246 8.91867E-05-1.24812E-05-3.29196E-05 7.07967E-06 2.67904E-18-4.09683E-18
 -1      2247 8.87700E-05-1.19953E-05-3.29490E-05 5.90736E-06 2.20699E-18-4.44131E-18
 -1      2248 8.99351E-05-1.38781E-05-3.25949E-05 4.97939E-06 2.04275E-18-4.18344E-18
 -1      2249 9.04535E-05-1.40887E-05-3.27921E-05 9.22882E-06 3.34376E-18-3.28857E-18
 -1      2250 8.97743E-05-1.32784E-05-3.28377E-05 8.04981E-06 2.89786E-18-3.73898E-18
 -1      2251 9.08677E-05-1.51363E-05-3.24494E-05 6.87669E-06 2.73405E-18-3.62562E-18
 -1      2252 9.24486E-05-1.66592E-05-3.25816E-05 1.11133E-05 3.89832E-18-2.08223E-18
 -1      2253 9.13713E-05-1.53200E-05-3.26539E-05 1.00331E-05 3.49313E-18-2.77643E-18
 -1      2254 9.22879E-05-1.70887E-05-3.22077E-05 8.52244E-06 3.27203E-18-2.74265E-18
 -1      2255 9.42265E-05-2.71150E-05-2.87454E-05 1.77171E-06 2.09929E-18 4.69958E-19
 -1      2256 9.48281E-05-2.68917E-05-2.90442E-05 2.74421E-06 2.41728E-18 8.98106E-19
 -1      2257 9.53332E-05-2.58465E-05-2.97880E-05 4.36830E-06 2.90758E-18-1.99827E-19
 -1      2258 9.58891E-05-2.50772E-05-3.03024E-05-6.20019E-06-2.90489E-18-6.55574E-20
 -1      2259 9.52396E-05-2.58509E-05-2.97579E-05-4.25905E-06-2.61102E-18-2.11748E-19
 -1      2260 1.52614E-04-5.07893E-05-4.40136E-05 5.32944E-06-7.53383E-19-1.79571E-18
 -1      2261 1.44223E-04-5.69323E-05-3.75010E-05 1.15627E-05-4.57610E-19-2.45767E-18
 -1      2262 9.51559E-05-2.65448E-05-2.93418E-05-2.97340E-06-2.30377E-18-5.15598E-20
 -1      2263 9.46547E-05-2.68943E-05-2.90387E-05-1.88993E-06-1.91088E-18-2.69655E-19
 -1      2264 9.53522E-05-2.54477E-05-2.99937E-05-4.28006E-06-2.52770E-18-8.51772E-19
 -1      2265 9.44661E-05-2.72355E-05-2.87743E-05-1.03461E-06-1.64626E-18-2.28301E-19
 -1      2266 9.42053E-05-2.74483E-05-2.86075E-05-4.32891E-07-1.46607E-18-5.03634E-19
 -1      2267 9.50141E-05-2.66882E-05-2.92971E-05-1.92510E-06-1.88586E-18-8.86279E-19
 -1      2268 9.40566E-05-2.76293E-05-2.84461E-05 7.45086E-08-1.31901E-18-4.97930E-19
 -1      2269 9.39575E-05-2.77725E-05-2.83623E-05 4.04004E-07-9.96310E-19-7.58102E-19
 -1      2270 9.47210E-05-2.74258E-05-2.88534E-05-4.49323E-07-1.56789E-18-8.41898E-19
 -1      2271 9.38725E-05-2.78817E-05-2.82690E-05 6.86484E-07-8.79740E-19-9.32672E-19
 -1      2272 9.38773E-05-2.79879E-05-2.82361E-05 8.50769E-07-8.37885E-19-9.72768E-19
 -1      2273 9.45195E-05-2.78538E-05-2.85813E-05 4.20196E-07-1.18313E-18-1.18468E-18
 -1      2274 9.38458E-05-2.80593E-05-2.81876E-05 9.88761E-07-9.61651E-19-9.99023E-19
 -1      2275 9.39125E-05-2.81422E-05-2.81854E-05 1.05192E-06-9.76317E-19-1.16407E-18
 -1      2276 9.44261E-05-2.81213E-05-2.84239E-05 8.91987E-07-1.01137E-18-1.16154E-18
 -1      2277 9.39184E-05-2.81909E-05-2.81661E-05 1.09886E-06-9.07374E-19-1.20085E-18
 -1      2278 9.40175E-05-2.82564E-05-2.81819E-05 1.10152E-06-8.01439E-19-1.43227E-18
 -1      2279 9.44165E-05-2.82958E-05-2.83426E-05 1.10792E-06-1.00075E-18-1.65673E-18
 -1      2280 9.40469E-05-2.82900E-05-2.81810E-05 1.09385E-06-7.25569E-19-1.34338E-18
 -1      2281 9.41595E-05-2.83415E-05-2.82065E-05 1.06271E-06-8.72579E-19-1.30676E-18
 -1      2282 9.44623E-05-2.84108E-05-2.83111E-05 1.16456E-06-7.46679E-19-1.76062E-18
 -1      2283 9.42020E-05-2.83641E-05-2.82170E-05 1.02541E-06-8.55742E-19-1.16366E-18
 -1      2284 9.43164E-05-2.84039E-05-2.82472E-05 9.78490E-07-7.24269E-19-1.19900E-18
 -1      2285 9.45409E-05-2.84850E-05-2.83118E-05 1.12811E-06-8.59884E-19-1.48591E-18
 -1      2286 9.43653E-05-2.84182E-05-2.82646E-05 9.28865E-07-8.61466E-19-1.08395E-18
 -1      2287 9.44754E-05-2.84482E-05-2.82963E-05 8.78539E-07-6.56530E-19-1.26219E-18
 -1      2288 9.46361E-05-2.85298E-05-2.83325E-05 1.04433E-06-7.69501E-19-1.37893E-18
 -1      2289 9.45266E-05-2.84562E-05-2.83177E-05 8.28733E-07-4.80383E-19-1.29227E-18
 -1      2290 9.46303E-05-2.84782E-05-2.83497E-05 7.83678E-07-2.43375E-19-1.44747E-18
 -1      2291 9.47379E-05-2.85529E-05-2.83658E-05 9.45163E-07-7.04513E-19-1.07281E-18
 -1      2292 9.46820E-05-2.84812E-05-2.83737E-05 7.42386E-07-7.11064E-20-1.72197E-18
 -1      2293 9.47798E-05-2.84969E-05-2.84056E-05 7.08898E-07-3.31398E-19-1.57253E-18
 -1      2294 9.48412E-05-2.85596E-05-2.84069E-05 8.53268E-07-2.49522E-19-1.51538E-18
 -1      2295 9.48320E-05-2.84961E-05-2.84315E-05 6.82598E-07-6.20778E-19-1.43460E-18
 -1      2296 9.49266E-05-2.85072E-05-2.84637E-05 6.65506E-07-4.96752E-19-1.21100E-18
 -1      2297 9.49445E-05-2.85538E-05-2.84536E-05 7.85157E-07-3.94382E-19-1.36061E-18
 -1      2298 9.49806E-05-2.85036E-05-2.84917E-05 6.59334E-07-4.40273E-19-1.07729E-18
 -1      2299 9.50763E-05-2.85118E-05-2.85253E-05 6.62630E-07-5.65166E-19-1.04276E-18
 -1      2300 9.50492E-05-2.85383E-05-2.85052E-05 7.53453E-07-4.65522E-19-9.55467E-19
 -1      2301 9.51344E-05-2.85063E-05-2.85562E-05 6.80971E-07-7.06574E-19-8.06016E-19
 -1      2302 9.52369E-05-2.85136E-05-2.85927E-05 7.08208E-07-4.06279E-19-7.18049E-19
 -1      2303 9.51590E-05-2.85156E-05-2.85622E-05 7.68463E-07-5.36916E-19-6.27153E-19
 -1      2304 9.53022E-05-2.85072E-05-2.86275E-05 7.55034E-07-1.95245E-19-9.38154E-19
 -1      2305 9.54183E-05-2.85157E-05-2.86688E-05 8.09490E-07-9.58176E-20-8.85368E-19
 -1      2306 9.52795E-05-2.84880E-05-2.86260E-05 8.39173E-07-5.17531E-19-5.46866E-19
 -1      2307 9.54949E-05-2.85099E-05-2.87086E-05 8.88443E-07-4.81456E-19-8.92869E-19
 -1      2308 9.56324E-05-2.85223E-05-2.87568E-05 9.73032E-07-5.54184E-19-8.47984E-19
 -1      2309 9.54183E-05-2.84580E-05-2.86987E-05 9.73718E-07-2.86064E-19-1.08378E-18
 -1      2310 9.57252E-05-2.85190E-05-2.88031E-05 1.08721E-06-2.65502E-19-9.21784E-19
 -1      2311 9.58927E-05-2.85390E-05-2.88603E-05 1.20409E-06-2.32996E-20-1.02031E-18
 -1      2312 9.55842E-05-2.84297E-05-2.87824E-05 1.17924E-06-6.63104E-19-9.22403E-19
 -1      2313 9.60076E-05-2.85413E-05-2.89143E-05 1.35546E-06 2.77273E-19-1.28292E-18
 -1      2314 9.62143E-05-2.85733E-05-2.89826E-05 1.50522E-06 3.19466E-19-1.44936E-18
 -1      2315 9.57884E-05-2.84087E-05-2.88793E-05 1.46110E-06 1.82929E-20-7.32271E-19
 -1      2316 9.63584E-05-2.85859E-05-2.90452E-05 1.69359E-06 4.28784E-19-1.52233E-18
 -1      2317 9.66138E-05-2.86363E-05-2.91261E-05 1.87399E-06 4.55456E-19-9.54581E-19
 -1      2318 9.60439E-05-2.84042E-05-2.89912E-05 1.82117E-06 3.33811E-19-1.18496E-18
 -1      2319 9.67954E-05-2.86661E-05-2.91976E-05 2.09535E-06 2.47440E-19-8.39762E-19
 -1      2320 9.71083E-05-2.87432E-05-2.92920E-05 2.29932E-06 2.63787E-19-2.47776E-19
 -1      2321 9.63666E-05-2.84304E-05-2.91188E-05 2.25514E-06 4.91991E-19-7.28181E-19
 -1      2322 9.73380E-05-2.88006E-05-2.93719E-05 2.54352E-06 2.19116E-20-3.12983E-19
 -1      2323 9.77159E-05-2.89154E-05-2.94792E-05 2.75654E-06 2.67032E-19-5.24372E-19
 -1      2324 9.67757E-05-2.85083E-05-2.92614E-05 2.74842E-06 7.81053E-20-4.40674E-19
 -1      2325 9.80064E-05-2.90150E-05-2.95655E-05 3.00412E-06-3.86996E-21-9.22759E-19
 -1      2326 9.84538E-05-2.91812E-05-2.96834E-05 3.20083E-06 2.87285E-19-1.14328E-18
 -1      2327 9.72953E-05-2.86684E-05-2.94161E-05 3.27059E-06-2.59059E-19-1.04528E-18
 -1      2328 9.88212E-05-2.93425E-05-2.97729E-05 3.41912E-06 5.32911E-19-1.37370E-18
 -1      2329 9.93371E-05-2.95761E-05-2.98963E-05 3.55967E-06 2.02130E-19-1.30224E-18
 -1      2330 9.79548E-05-2.89529E-05-2.95778E-05 3.76823E-06-9.24257E-20-6.37581E-19
 -1      2331 9.98003E-05-2.98232E-05-2.99846E-05 3.69854E-06 1.72484E-19-1.61004E-18
 -1      2332 1.00375E-04-3.01397E-05-3.01057E-05 3.72570E-06 2.09511E-19-1.18468E-18
 -1      2333 9.87899E-05-2.94152E-05-2.97388E-05 4.15683E-06 1.25598E-19-1.52959E-18
 -1      2334 1.00954E-04-3.04975E-05-3.01875E-05 3.71431E-06-3.64596E-19-1.51507E-18
 -1      2335 1.01565E-04-3.09055E-05-3.02959E-05 3.55368E-06-2.69417E-19-1.63960E-18
 -1      2336 9.98402E-05-3.01152E-05-2.98904E-05 4.31299E-06-3.15753E-19-1.54458E-18
 -1      2337 1.02273E-04-3.13898E-05-3.03673E-05 3.30089E-06 2.40135E-19-1.49724E-18
 -1      2338 1.02875E-04-3.18778E-05-3.04517E-05 2.86851E-06 5.73724E-20-1.21975E-18
 -1      2339 1.01140E-04-3.11030E-05-3.00258E-05 4.07113E-06-3.17067E-19-1.52807E-18
 -1      2340 1.03703E-04-3.24762E-05-3.05127E-05 2.27266E-06-2.17104E-19-1.27426E-18
 -1      2341 1.04222E-04-3.29907E-05-3.05634E-05 1.49636E-06-1.27518E-19-8.69272E-19
 -1      2342 1.02697E-04-3.23830E-05-3.01449E-05 3.23214E-06-6.60785E-20-9.35869E-19
 -1      2343 1.05110E-04-3.36305E-05-3.06219E-05 4.74008E-07-1.90338E-19-7.27852E-19
 -1      2344 1.05430E-04-3.40498E-05-3.06357E-05-6.64508E-07-1.22424E-19 1.85119E-20
 -1      2345 1.04444E-04-3.38515E-05-3.02618E-05 1.59886E-06 2.47787E-19-4.79842E-19
 -1      2346 1.06232E-04-3.45637E-05-3.07096E-05-2.11856E-06 4.30587E-19-4.85291E-19
 -1      2347 1.06204E-04-3.46844E-05-3.06937E-05-3.51983E-06 1.17573E-18 7.00464E-19
 -1      2348 1.06175E-04-3.52147E-05-3.04113E-05-9.38733E-07 1.54148E-19 2.64947E-19
 -1      2349 1.06667E-04-3.48030E-05-3.08088E-05-5.23658E-06 9.07013E-19 3.60503E-19
 -1      2350 1.06151E-04-3.43816E-05-3.07814E-05-6.61584E-06 7.58313E-19-1.42946E-19
 -1      2351 1.07484E-04-3.59343E-05-3.06477E-05-4.24655E-06 5.75575E-19 7.67797E-20
 -1      2352 1.05982E-04-3.38172E-05-3.09602E-05-8.15708E-06 4.12790E-19 1.64055E-19
 -1      2353 1.04943E-04-3.27100E-05-3.09433E-05-9.03600E-06-4.59994E-19 2.96571E-19
 -1      2354 1.07800E-04-3.53174E-05-3.10279E-05-7.73361E-06 6.34614E-19-4.34634E-19
 -1      2355 1.04006E-04-3.13721E-05-3.11805E-05-9.71418E-06-1.13574E-18 6.56732E-19
 -1      2356 1.02639E-04-2.97541E-05-3.11838E-05-9.55777E-06-1.00670E-18 1.22439E-19
 -1      2357 1.06654E-04-3.28955E-05-3.15694E-05-1.02305E-05-3.60939E-19 1.01033E-18
 -1      2358 1.01235E-04-2.80266E-05-3.14237E-05-8.73715E-06-9.13790E-19 6.47555E-19
 -1      2359 9.99937E-05-2.64957E-05-3.14325E-05-7.29013E-06-4.86928E-19 1.11347E-18
 -1      2360 1.04195E-04-2.90418E-05-3.21921E-05-1.02605E-05-5.27735E-19 1.95242E-18
 -1      2361 9.88782E-05-2.52188E-05-3.15799E-05-4.92095E-06 6.36664E-20 1.08775E-18
 -1      2362 9.82882E-05-2.45437E-05-3.15649E-05-2.53464E-06 1.23501E-19 1.69449E-18
 -1      2363 1.01524E-04-2.52851E-05-3.27010E-05-6.96032E-06-6.90249E-20 2.38553E-18
 -1      2364 9.81885E-05-2.44953E-05-3.15425E-05 5.27608E-07-2.70528E-19 1.07977E-18
 -1      2365 9.84981E-05-2.50555E-05-3.14873E-05 2.93291E-06-2.83955E-19 1.72520E-19
 -1      2366 1.00234E-04-2.36373E-05-3.28777E-05-1.13380E-06-3.31273E-19 7.23181E-19
 -1      2367 9.94423E-05-2.62645E-05-3.12919E-05 5.35259E-06-1.48634E-19 2.33991E-19
 -1      2368 1.00426E-04-2.77203E-05-3.12103E-05 6.83644E-06-6.64117E-19 5.04014E-19
 -1      2369 1.01146E-04-2.50989E-05-3.26207E-05 4.75388E-06-7.24236E-19 9.19869E-19
 -1      2370 1.01714E-04-2.94378E-05-3.09177E-05 7.70469E-06-7.20590E-19 1.22198E-19
 -1      2371 1.02848E-04-3.10211E-05-3.08393E-05 7.87399E-06-7.65253E-19 1.06209E-18
 -1      2372 1.03528E-04-2.87771E-05-3.20216E-05 8.17262E-06-7.71926E-19 9.58574E-19
 -1      2373 1.03693E-04-3.23757E-05-3.05467E-05 7.18857E-06-1.12795E-18 1.20307E-18
 -1      2374 1.04500E-04-3.34477E-05-3.04884E-05 6.28131E-06-6.36433E-19 1.48765E-18
 -1      2375 1.05788E-04-3.26572E-05-3.13009E-05 8.19137E-06-8.13534E-19 1.41315E-18
 -1      2376 1.04556E-04-3.40046E-05-3.02571E-05 4.68610E-06-1.13294E-18 1.38113E-18
 -1      2377 1.04826E-04-3.43577E-05-3.02130E-05 3.25855E-06-7.98717E-19 3.32200E-19
 -1      2378 1.06733E-04-3.51081E-05-3.06594E-05 5.62594E-06-1.31642E-18 8.45026E-19
 -1      2379 1.04213E-04-3.41808E-05-3.00556E-05 1.47980E-06 4.01231E-19 4.21079E-19
 -1      2380 1.03973E-04-3.39386E-05-3.00087E-05 4.98425E-08 1.51855E-18 1.07199E-19
 -1      2381 1.06156E-04-3.56594E-05-3.01951E-05 2.01456E-06-6.55618E-19 9.28901E-19
 -1      2382 1.02979E-04-3.32994E-05-2.99078E-05-1.41881E-06 8.83194E-19-3.68890E-19
 -1      2383 1.02379E-04-3.26990E-05-2.98453E-05-2.51315E-06 1.11384E-18 9.38982E-20
 -1      2384 1.04501E-04-3.47269E-05-2.99026E-05-1.37515E-06 5.96379E-19 7.37632E-19
 -1      2385 1.01262E-04-3.18630E-05-2.97798E-05-3.44371E-06 1.79982E-18 2.30916E-19
 -1      2386 1.00466E-04-3.11105E-05-2.97010E-05-4.04728E-06 1.18959E-18 6.71204E-19
 -1      2387 1.02341E-04-3.29788E-05-2.97349E-05-3.83158E-06 1.16408E-18-1.40753E-19
 -1      2388 9.93813E-05-3.02468E-05-2.96546E-05-4.39111E-06 8.22069E-20 1.02358E-18
 -1      2389 9.85310E-05-2.94950E-05-2.95684E-05-4.46386E-06 8.49525E-20 8.14771E-19
 -1      2390 1.00106E-04-3.09601E-05-2.96431E-05-5.10372E-06 7.74128E-19 4.24745E-20
 -1      2391 9.33284E-05-2.76882E-05-2.81242E-05-4.02758E-07 1.11044E-18-3.27425E-19
 -1      2392 9.34076E-05-2.75836E-05-2.81858E-05-1.17277E-07 1.40048E-18 3.10416E-20
 -1      2393 9.32758E-05-2.78520E-05-2.80340E-05-8.09465E-07 6.56022E-19-6.96843E-19
 -1      2394 9.32317E-05-2.77614E-05-2.80456E-05-6.70059E-07 8.57659E-19-4.21392E-19
 -1      2395 9.40027E-05-2.78058E-05-2.83813E-05-4.35386E-07 1.22853E-18-9.93769E-19
 -1      2396 9.33688E-05-2.79868E-05-2.80177E-05-9.86612E-07 6.91890E-19-8.62560E-19
 -1      2397 9.32566E-05-2.79065E-05-2.80007E-05-9.35061E-07 6.38587E-19-7.20211E-19
 -1      2398 9.39153E-05-2.80144E-05-2.82513E-05-8.83848E-07 7.85844E-19-1.27721E-18
 -1      2399 9.35434E-05-2.81006E-05-2.80449E-05-1.02447E-06 1.08497E-18-9.83465E-19
 -1      2400 9.33990E-05-2.80304E-05-2.80125E-05-1.02503E-06 7.90802E-19-8.91428E-19
 -1      2401 9.39440E-05-2.81624E-05-2.81975E-05-1.08265E-06 8.59342E-19-1.44949E-18
 -1      2402 9.37563E-05-2.81963E-05-2.80958E-05-9.81736E-07 8.45250E-19-8.57751E-19
 -1      2403 9.36020E-05-2.81362E-05-2.80565E-05-1.01134E-06 1.14002E-18-7.69699E-19
 -1      2404 9.40434E-05-2.82714E-05-2.81914E-05-1.12842E-06 9.87242E-19-1.16720E-18
 -1      2405 9.39800E-05-2.82755E-05-2.81582E-05-8.97652E-07 7.15297E-19-9.23351E-19
 -1      2406 9.38290E-05-2.82252E-05-2.81169E-05-9.40904E-07 8.40512E-19-8.07579E-19
 -1      2407 9.41805E-05-2.83524E-05-2.82141E-05-1.08548E-06 9.04267E-19-1.22728E-18
 -1      2408 9.41990E-05-2.83397E-05-2.82247E-05-7.98985E-07 7.39280E-19-1.17657E-18
 -1      2409 9.40577E-05-2.82985E-05-2.81842E-05-8.45379E-07 6.74893E-19-1.07017E-18
 -1      2410 9.43334E-05-2.84118E-05-2.82533E-05-9.97450E-07 8.46487E-19-1.57310E-18
 -1      2411 9.44063E-05-2.83910E-05-2.82915E-05-7.04371E-07 9.84218E-19-1.52969E-18
 -1      2412 9.42768E-05-2.83577E-05-2.82529E-05-7.46546E-07 8.86784E-19-1.46876E-18
 -1      2413 9.44892E-05-2.84539E-05-2.83015E-05-8.94468E-07 8.81937E-19-1.77173E-18
 -1      2414 9.46012E-05-2.84315E-05-2.83575E-05-6.27245E-07 3.25227E-19-1.39025E-18
 -1      2415 9.44822E-05-2.84047E-05-2.83208E-05-6.59805E-07 7.12260E-19-1.41697E-18
 -1      2416 9.46415E-05-2.84821E-05-2.83544E-05-7.97765E-07 7.25400E-19-1.50471E-18
 -1      2417 9.47877E-05-2.84638E-05-2.84232E-05-5.77947E-07 1.26526E-19-1.10889E-18
 -1      2418 9.46755E-05-2.84418E-05-2.83875E-05-5.96603E-07 1.96701E-19-1.25865E-18
 -1      2419 9.47892E-05-2.84993E-05-2.84104E-05-7.22899E-07 1.36470E-19-1.40414E-18
 -1      2420 9.49737E-05-2.84905E-05-2.84908E-05-5.65312E-07-1.35433E-19-1.24263E-18
 -1      2421 9.48626E-05-2.84716E-05-2.84545E-05-5.66223E-07 1.29615E-19-1.10307E-18
 -1      2422 9.49348E-05-2.85076E-05-2.84693E-05-6.82089E-07 1.12375E-19-8.48583E-19
 -1      2423 9.51700E-05-2.85145E-05-2.85638E-05-5.97912E-07 5.25552E-19-1.22693E-18
 -1      2424 9.50525E-05-2.84967E-05-2.85248E-05-5.77158E-07 1.79219E-19-1.23700E-18
 -1      2425 9.50840E-05-2.85092E-05-2.85329E-05-6.85987E-07 2.25280E-19-1.17030E-18
 -1      2426 9.53905E-05-2.85391E-05-2.86467E-05-6.85061E-07 6.61953E-19-1.14547E-18
 -1      2427 9.52575E-05-2.85200E-05-2.86022E-05-6.38211E-07 8.80459E-19-9.78956E-19
 -1      2428 9.52449E-05-2.85057E-05-2.86038E-05-7.45063E-07 6.17242E-19-8.66297E-19
 -1      2429 9.56522E-05-2.85676E-05-2.87452E-05-8.37630E-07-3.58925E-19-1.32310E-18
 -1      2430 9.54925E-05-2.85448E-05-2.86918E-05-7.59383E-07 2.82989E-19-1.21773E-18
 -1      2431 9.54278E-05-2.84985E-05-2.86857E-05-8.70705E-07 2.53321E-19-1.35904E-18
 -1      2432 9.59750E-05-2.86040E-05-2.88662E-05-1.06869E-06 1.24147E-19-2.13684E-18
 -1      2433 9.57754E-05-2.85745E-05-2.87998E-05-9.52588E-07-5.91659E-19-1.83847E-18
 -1      2434 9.56448E-05-2.84890E-05-2.87834E-05-1.07608E-06-1.42118E-19-1.57666E-18
 -1      2435 9.63821E-05-2.86532E-05-2.90174E-05-1.39389E-06 2.31852E-19-2.30444E-18
 -1      2436 9.61271E-05-2.86133E-05-2.89333E-05-1.23216E-06 4.99334E-19-2.01483E-18
 -1      2437 9.59102E-05-2.84787E-05-2.89022E-05-1.37674E-06 2.45059E-19-1.65262E-18
 -1      2438 9.69003E-05-2.87210E-05-2.92079E-05-1.83145E-06 7.36843E-19-2.32322E-18
 -1      2439 9.65716E-05-2.86662E-05-2.91007E-05-1.61507E-06 3.38852E-19-2.28334E-18
 -1      2440 9.62400E-05-2.84693E-05-2.90482E-05-1.79088E-06 5.22090E-19-2.06955E-18
 -1      2441 9.75599E-05-2.88151E-05-2.94473E-05-2.40139E-06 7.86056E-19-2.00997E-18
 -1      2442 9.71367E-05-2.87395E-05-2.93110E-05-2.12056E-06 1.05561E-18-2.04537E-18
 -1      2443 9.66520E-05-2.84636E-05-2.92279E-05-2.33908E-06 7.29004E-19-2.37782E-18
 -1      2444 9.83943E-05-2.89468E-05-2.97453E-05-3.12320E-06-8.03404E-19-2.03871E-18
 -1      2445 9.78533E-05-2.88421E-05-2.95738E-05-2.76872E-06 3.90826E-20-2.16676E-18
 -1      2446 9.71656E-05-2.84664E-05-2.94474E-05-3.04294E-06 3.25628E-19-2.18897E-18
 -1      2447 9.94402E-05-2.91333E-05-3.01106E-05-4.01077E-06-3.46623E-19-3.27223E-18
 -1      2448 9.87559E-05-2.89877E-05-2.98980E-05-3.57708E-06-8.11596E-19-2.60134E-18
 -1      2449 9.78023E-05-2.84879E-05-2.97116E-05-3.92193E-06-2.48431E-19-3.20432E-18
 -1      2450 1.00737E-04-2.94036E-05-3.05482E-05-5.06229E-06-1.16255E-19-2.79436E-18
 -1      2451 9.98832E-05-2.91989E-05-3.02904E-05-4.55346E-06-4.07003E-19-3.06775E-18
 -1      2452 9.85872E-05-2.85484E-05-3.00226E-05-4.98707E-06-2.74207E-19-3.72480E-18
 -1      2453 1.02326E-04-2.98079E-05-3.10563E-05-6.24179E-06 3.74251E-19-2.20085E-18
 -1      2454 1.01279E-04-2.95148E-05-3.07532E-05-5.68245E-06 4.64545E-21-2.19083E-18
 -1      2455 9.95535E-05-2.86889E-05-3.03772E-05-6.22893E-06-5.01139E-19-2.93327E-18
 -1      2456 1.04257E-04-3.04322E-05-3.16206E-05-7.44792E-06 1.66225E-19-1.22475E-18
 -1      2457 1.02998E-04-3.00043E-05-3.12795E-05-6.90146E-06 5.57138E-19-1.79428E-18
 -1      2458 1.00752E-04-2.89881E-05-3.07644E-05-7.59711E-06 1.70891E-19-2.27247E-18
 -1      2459 1.06590E-04-3.14177E-05-3.22098E-05-8.46627E-06-5.87798E-19-8.22201E-19
 -1      2460 1.05112E-04-3.07851E-05-3.18491E-05-8.06153E-06-1.54321E-19-6.50877E-19
 -1      2461 1.02271E-04-2.95885E-05-3.11619E-05-8.96659E-06-1.92244E-19-1.78338E-18
 -1      2462 1.09403E-04-3.29686E-05-3.27726E-05-8.90785E-06-5.08716E-19 5.42630E-22
 -1      2463 1.07724E-04-3.20419E-05-3.24250E-05-8.86955E-06-2.44293E-19-5.48140E-19
 -1      2464 1.04265E-04-3.07260E-05-3.15376E-05-1.00875E-05-6.24597E-19-8.77849E-19
 -1      2465 1.12773E-04-3.53048E-05-3.32497E-05-8.15701E-06 5.68405E-20-6.92688E-19
 -1      2466 1.10966E-04-3.40165E-05-3.29582E-05-8.81847E-06-8.26122E-20-2.62660E-19
 -1      2467 1.06991E-04-3.27367E-05-3.18595E-05-1.05168E-05 4.95142E-20-1.22891E-18
 -1      2468 1.16677E-04-3.84677E-05-3.36110E-05-5.41309E-06-1.83091E-19-1.15585E-18
 -1      2469 1.14933E-04-3.68957E-05-3.34119E-05-7.15492E-06-3.67851E-19-1.30452E-18
 -1      2470 1.10785E-04-3.59525E-05-3.21288E-05-9.55421E-06 8.41938E-20-1.10346E-18
 -1      2471 1.20717E-04-4.18565E-05-3.39298E-05 1.71836E-08-5.59545E-19 8.67600E-19
 -1      2472 1.19473E-04-4.04825E-05-3.38141E-05-2.99976E-06-2.20864E-19 2.21618E-20
 -1      2473 1.15887E-04-4.03734E-05-3.24429E-05-6.26727E-06-1.06342E-18-1.17688E-18
 -1      2474 1.23730E-04-4.35775E-05-3.44641E-05 7.91671E-06-2.75689E-19 2.37791E-18
 -1      2475 1.23682E-04-4.35392E-05-3.43428E-05 4.09598E-06-5.61907E-19 2.43617E-18
 -1      2476 1.21913E-04-4.48949E-05-3.30917E-05 2.10792E-07-1.18693E-18 2.06640E-18
 -1      2477 1.23719E-04-4.07381E-05-3.55625E-05 1.53443E-05 1.01443E-18 3.42597E-18
 -1      2478 1.25368E-04-4.32370E-05-3.53037E-05 1.25885E-05 2.23279E-19 2.85160E-18
 -1      2479 1.26716E-04-4.62795E-05-3.45807E-05 9.68446E-06-3.10648E-19 3.98624E-18
 -1      2480 1.19577E-04-3.24618E-05-3.73275E-05 1.73018E-05 1.43392E-18 3.22164E-18
 -1      2481 1.22785E-04-3.73817E-05-3.68776E-05 1.79590E-05 2.19126E-18 4.29125E-18
 -1      2482 1.27886E-04-4.16851E-05-3.69959E-05 1.83289E-05 7.85927E-19 4.92256E-18
 -1      2483 1.14197E-04-2.38017E-05-3.89226E-05 8.89588E-06 7.70800E-19 2.50090E-18
 -1      2484 1.16802E-04-2.74562E-05-3.86188E-05 1.40149E-05 1.02676E-18 2.82713E-18
 -1      2485 1.23865E-04-2.96787E-05-4.05020E-05 1.78415E-05 1.40438E-18 4.28165E-18
 -1      2486 1.13939E-04-2.35815E-05-3.90450E-05-5.77436E-06 2.39763E-19 4.94353E-19
 -1      2487 1.13410E-04-2.23219E-05-3.92213E-05 5.81016E-07-2.96462E-20 1.30430E-18
 -1      2488 1.19152E-04-2.06014E-05-4.25181E-05 5.22231E-06 1.46706E-18 2.71595E-18
 -1      2489 1.18881E-04-3.19607E-05-3.75634E-05-1.53665E-05 1.66760E-21 1.07025E-18
 -1      2490 1.15960E-04-2.72446E-05-3.80934E-05-1.22911E-05 5.20184E-19 8.08786E-19
 -1      2491 1.20454E-04-2.38797E-05-4.16572E-05-1.02646E-05 2.62157E-19 2.30793E-18
 -1      2492 1.23236E-04-4.05965E-05-3.55857E-05-1.41848E-05-8.88452E-19 2.34317E-19
 -1      2493 1.20823E-04-3.67533E-05-3.60608E-05-1.55855E-05-9.32689E-19-1.67875E-19
 -1      2494 1.25421E-04-3.55863E-05-3.86382E-05-1.67673E-05 2.87462E-20 1.41796E-18
 -1      2495 1.23025E-04-4.34873E-05-3.41144E-05-6.45791E-06-2.27915E-19 7.01677E-19
 -1      2496 1.22507E-04-4.24420E-05-3.44029E-05-1.00799E-05 4.09416E-19 8.75951E-20
 -1      2497 1.26862E-04-4.44858E-05-3.53531E-05-1.18066E-05-2.94092E-19-3.44345E-19
 -1      2498 1.19207E-04-4.16017E-05-3.32144E-05 1.83319E-06 6.01129E-19-8.58064E-19
 -1      2499 1.20287E-04-4.25384E-05-3.34288E-05-1.70909E-06 2.33318E-19 2.12944E-19
 -1      2500 1.23216E-04-4.59077E-05-3.31581E-05-2.26885E-06 3.77859E-19 3.21967E-19
 -1      2501 1.14045E-04-3.78674E-05-3.26056E-05 7.69008E-06 1.57628E-18-1.77447E-18
 -1      2502 1.15995E-04-3.95361E-05-3.28620E-05 5.27947E-06 5.92407E-19-1.30131E-18
 -1      2503 1.17003E-04-4.24153E-05-3.20244E-05 5.91467E-06 1.18974E-18-2.39473E-18
 -1      2504 1.09098E-04-3.42744E-05-3.20382E-05 1.06264E-05 1.47296E-18-1.20255E-18
 -1      2505 1.11307E-04-3.58889E-05-3.23811E-05 9.45875E-06 2.00548E-18-6.23492E-19
 -1      2506 1.10836E-04-3.74993E-05-3.14883E-05 1.09352E-05 1.15972E-18-1.65565E-18
 -1      2507 1.04855E-04-3.14509E-05-3.14363E-05 1.12977E-05 2.61361E-19-4.40993E-19
 -1      2508 1.07001E-04-3.27835E-05-3.18340E-05 1.11097E-05 1.41845E-19-2.63378E-19
 -1      2509 1.05904E-04-3.33174E-05-3.11539E-05 1.29829E-05 5.22639E-19-9.97055E-19
 -1      2510 1.01307E-04-2.92964E-05-3.08417E-05 1.03793E-05-7.29685E-19 2.63616E-18
 -1      2511 1.03249E-04-3.03707E-05-3.12342E-05 1.09105E-05 1.14200E-19 1.29769E-18
 -1      2512 1.02165E-04-3.02290E-05-3.08641E-05 1.29729E-05-1.01428E-18 9.02408E-19
 -1      2513 9.83648E-05-2.75482E-05-3.03241E-05 8.35035E-06-2.26113E-18 3.82234E-18
 -1      2514 1.00045E-04-2.84699E-05-3.06601E-05 9.40758E-06-1.21606E-18 3.05615E-18
 -1      2515 9.92604E-05-2.79406E-05-3.05950E-05 1.14999E-05-1.34931E-18 3.22420E-18
 -1      2516 9.72623E-05-2.68555E-05-3.01591E-05 6.80992E-06-1.80356E-18 3.80665E-18
 -1      2517 8.85109E-05-1.64314E-05-3.09439E-05 6.77723E-06 5.78570E-19 1.46274E-18
 -1      2518 8.94132E-05-1.75003E-05-3.08150E-05 8.21883E-06-3.45809E-19-9.69168E-19
 -1      2519 8.74508E-05-1.51562E-05-3.10251E-05 2.84228E-06 2.10712E-18 1.45974E-19
 -1      2520 8.78396E-05-1.56621E-05-3.09540E-05 4.73355E-06 1.56435E-18 1.63855E-18
 -1      2521 8.73783E-05-1.68850E-05-3.01751E-05 6.49691E-06 1.04449E-18 2.21914E-18
 -1      2522 9.29738E-05-2.15765E-05-3.06324E-05 1.05859E-05-1.54209E-18-1.31616E-18
 -1      2523 9.43357E-05-2.31928E-05-3.04548E-05 1.04931E-05-1.34829E-18-1.91955E-18
 -1      2524 9.05487E-05-1.87759E-05-3.08051E-05 9.51177E-06-2.12166E-18-1.08819E-18
 -1      2525 9.17327E-05-2.01735E-05-3.06412E-05 1.01695E-05-1.88702E-18-1.12864E-19
 -1      2526 9.22972E-05-2.17210E-05-3.02623E-05 1.17516E-05-1.24611E-18-1.82921E-18
 -1      2527 8.95695E-05-1.90080E-05-3.02194E-05 1.00675E-05-8.37618E-19 3.75290E-19
 -1      2528 8.75955E-05-1.52338E-05-3.10330E-05-1.44458E-06 1.46788E-18-1.16177E-18
 -1      2529 8.73918E-05-1.50854E-05-3.10319E-05 4.91938E-07 1.75420E-18-1.29788E-18
 -1      2530 8.64908E-05-1.60094E-05-3.01603E-05 1.79559E-06 2.01132E-18-4.86189E-19
 -1      2531 8.88421E-05-1.66036E-05-3.09583E-05-5.16679E-06-3.81238E-19 5.99071E-19
 -1      2532 8.81413E-05-1.58706E-05-3.10292E-05-3.58267E-06 3.59971E-19 4.14292E-19
 -1      2533 8.70790E-05-1.65969E-05-3.01670E-05-3.01476E-06 1.87920E-18-1.31839E-18
 -1      2534 9.07547E-05-1.88531E-05-3.07996E-05-7.64329E-06 5.03805E-19-6.57435E-19
 -1      2535 8.97890E-05-1.77326E-05-3.09344E-05-6.66980E-06-2.68772E-19 4.04025E-19
 -1      2536 8.88855E-05-1.84310E-05-3.01741E-05-6.89375E-06 7.56043E-19 5.69990E-19
 -1      2537 9.27460E-05-2.13678E-05-3.05696E-05-8.63476E-06 1.64016E-18-1.75957E-18
 -1      2538 9.17855E-05-2.01247E-05-3.07488E-05-8.32246E-06 7.25973E-19-1.98888E-18
 -1      2539 9.12811E-05-2.09195E-05-3.01542E-05-9.17897E-06 5.49551E-19-1.35099E-18
 -1      2540 9.44552E-05-2.37481E-05-3.02825E-05-8.35706E-06 2.26136E-18 7.05411E-20
 -1      2541 9.36485E-05-2.25446E-05-3.04888E-05-8.58932E-06 2.45949E-18-1.99806E-18
 -1      2542 9.36047E-05-2.34404E-05-3.00841E-05-9.80258E-06 1.78487E-18-1.02952E-18
 -1      2543 9.56487E-05-2.56706E-05-2.99760E-05-7.19822E-06 1.25582E-18 2.38696E-18
 -1      2544 9.50761E-05-2.46498E-05-3.01809E-05-7.78240E-06 1.78032E-18 2.06549E-18
 -1      2545 9.54361E-05-2.55705E-05-2.99604E-05-9.09610E-06 2.12715E-18 1.96294E-19
 -1      2546 9.63542E-05-2.70545E-05-2.96840E-05-5.59092E-06-6.80434E-19-1.69705E-19
 -1      2547 9.59994E-05-2.62683E-05-2.98679E-05-6.33904E-06-3.13058E-19 1.77769E-18
 -1      2548 9.66181E-05-2.70910E-05-2.97963E-05-7.56772E-06 7.76768E-19 8.04208E-19
 -1      2549 2.58966E-05-2.26472E-05-1.14677E-06 1.96761E-05-1.43339E-18 3.76591E-18
 -1      2550 1.90682E-05-2.14871E-05 1.14519E-06 4.71823E-06-1.61317E-18 5.50614E-18
 -1      2551 9.37055E-05-5.39478E-05-1.72136E-05 4.28461E-05 8.92561E-19 7.40360E-20
 -1      2552 7.41404E-05-4.77574E-05-1.12675E-05 4.20827E-05 7.42424E-19-1.18373E-19
 -1      2553 9.36130E-05-2.74694E-05-2.83357E-05 3.77374E-07 1.54893E-18 6.62638E-20
 -1      2554 9.38967E-05-2.73340E-05-2.84831E-05 9.10745E-07 1.76513E-18 3.69811E-19
 -1      2555 9.42598E-05-2.74874E-05-2.86304E-05 4.11917E-07 1.68523E-18-9.02777E-19
 -1      2556 9.61957E-05-2.74755E-05-2.94583E-05-3.72251E-06 8.15300E-20 2.10412E-19
 -1      2557 1.98746E-05-2.10568E-05 6.32541E-07-7.21961E-06-6.48033E-19 5.25923E-18
 -1      2558 2.60184E-05-2.14439E-05-1.64740E-06-2.05155E-05-5.03985E-19 3.25430E-18
 -1      2559 2.67163E-05-1.71745E-05-3.48789E-06-1.00874E-06-1.03923E-18 4.48927E-18
 -1      2560 5.75474E-05-3.92759E-05-7.65769E-06 4.14371E-05 4.19917E-19-3.12132E-19
 -1      2561 4.23509E-05-3.10160E-05-4.51738E-06 3.38105E-05-1.04227E-18 4.17164E-19
 -1      2562 9.50671E-05-2.00225E-05-3.22110E-05-1.17538E-05-3.71349E-18-7.10237E-19
 -1      2563 9.54759E-05-2.33650E-05-3.09262E-05-7.96832E-06-3.31802E-18-4.02104E-19
 -1      2564 9.50675E-05-2.25737E-05-3.10495E-05-7.64843E-06-3.07846E-18-1.16467E-18
 -1      2565 9.32096E-05-1.76185E-05-3.24148E-05-1.14155E-05-3.65594E-18-1.69888E-18
 -1      2566 4.10272E-05-2.97571E-05-4.41234E-06-3.47509E-05-2.44157E-19 1.95432E-18
 -1      2567 5.44007E-05-3.75909E-05-6.96307E-06-4.21967E-05 1.71736E-19 3.07685E-18
 -1      2568 1.33387E-04-5.64662E-05-3.32666E-05 2.24613E-05-5.86994E-19 4.94455E-19
 -1      2569 1.20662E-04-5.74088E-05-2.70388E-05 2.97348E-05 6.98167E-19-5.11184E-19
 -1      2570 1.34294E-04-6.11991E-05-3.13772E-05-1.84000E-05 1.88888E-19-2.16057E-18
 -1      2571 1.46771E-04-5.68957E-05-3.86896E-05-9.69766E-06 6.37604E-19-3.53721E-18
 -1      2572 1.53826E-04-3.12468E-05-5.26591E-05 1.01013E-05 4.16041E-18-4.99749E-19
 -1      2573 1.50758E-04-2.15930E-05-5.58627E-05 1.06612E-05 5.35812E-18 7.10237E-19
 -1      2574 8.78487E-05-1.08028E-05-3.30555E-05-1.51852E-06-2.60156E-19-4.92159E-18
 -1      2575 8.79541E-05-1.09254E-05-3.30467E-05-2.63792E-06-6.53226E-19-4.89420E-18
 -1      2576 8.93533E-05-1.30983E-05-3.26833E-05-2.93223E-06-7.53292E-19-4.51892E-18
 -1      2577 8.91045E-05-1.27622E-05-3.27215E-05-9.40880E-07-1.68241E-19-4.64916E-18
 -1      2578 1.45693E-04-1.38586E-05-5.71745E-05 4.63655E-06 4.19832E-18-1.56950E-18
 -1      2579 1.49204E-04-1.40867E-05-5.82915E-05-3.74021E-07 3.92346E-18-1.96623E-18
 -1      2580 9.76042E-05-5.53858E-05-1.80117E-05-3.66521E-05 2.85874E-20-2.82433E-20
 -1      2581 1.16396E-04-6.00740E-05-2.43938E-05-3.11244E-05 9.65618E-20-1.70042E-18
 -1      2582 1.50495E-04-1.69305E-05-5.78254E-05-4.14285E-06 3.27209E-18-3.92642E-18
 -1      2583 1.50428E-04-2.18306E-05-5.54959E-05-7.17666E-06 1.15175E-18-3.53192E-18
 -1      2584 1.37407E-04-1.41018E-05-5.29822E-05-4.26349E-06 2.42908E-18-3.16737E-18
 -1      2585 1.50920E-04-4.87187E-05-4.39630E-05 1.14788E-06 1.45361E-18-2.10657E-18
 -1      2586 1.54569E-04-4.14830E-05-4.90133E-05 5.25605E-06 2.45947E-18-1.67564E-18
 -1      2587 1.74044E-05-1.96285E-05 1.12249E-06 6.65662E-06-1.09558E-18-5.32911E-18
 -1      2588 1.85722E-05-1.95775E-05 6.84976E-07-6.83318E-06-6.89379E-19-5.75686E-18
 -1      2589 6.15295E-05-4.12655E-05-8.44568E-06-3.82565E-05 5.03138E-19-1.80259E-18
 -1      2590 7.84327E-05-4.78703E-05-1.31773E-05-4.14826E-05 2.96462E-19 3.18590E-19
 -1      2591 1.46671E-04-2.50012E-05-5.24329E-05 5.05630E-06-2.23617E-18-1.89735E-18
 -1      2592 1.46166E-04-1.73878E-05-5.57119E-05 4.79624E-06-2.44200E-18-1.13428E-18
 -1      2593 3.17540E-05-2.47636E-05-2.77872E-06 2.97633E-05 1.51238E-18-3.67210E-18
 -1      2594 2.19472E-05-2.19552E-05 1.81039E-07 1.78097E-05 4.02658E-19-4.32453E-18
 -1      2595 2.60814E-05-1.66244E-05-3.53725E-06 1.22406E-05-1.31767E-19-3.56961E-18
 -1      2596 6.69893E-05-4.22812E-05-1.05563E-05 4.46874E-05 1.73917E-18-3.92727E-18
 -1      2597 4.94786E-05-3.46499E-05-6.11636E-06 3.98301E-05 1.96956E-18-3.90736E-18
 -1      2598 1.03531E-04-5.42983E-05-2.12699E-05 4.03200E-05 1.53292E-18-2.84714E-18
 -1      2599 8.54414E-05-4.97642E-05-1.51828E-05 4.24008E-05 2.02441E-18-3.66776E-18
 -1      2600 1.46255E-04-4.58960E-05-4.34537E-05 5.48263E-06-2.18259E-18 3.71424E-19
 -1      2601 1.40698E-04-5.13505E-05-3.84369E-05 1.08665E-05-1.38718E-18 5.96311E-19
 -1      2602 1.50095E-04-2.53255E-05-5.38568E-05-4.50810E-06-2.96483E-18-4.89162E-20
 -1      2603 1.47117E-04-3.45298E-05-4.85250E-05-1.67109E-06-2.62728E-18 2.17264E-19
 -1      2604 1.49760E-04-1.30609E-05-5.89625E-05-3.22023E-06-4.01917E-18 5.66983E-19
 -1      2605 1.48474E-04-1.61748E-05-5.70607E-05-4.73809E-06-4.06449E-18-7.85623E-20
 -1      2606 1.45126E-04-1.08964E-05-5.80518E-05 1.98822E-06-3.58803E-18 1.35102E-19
 -1      2607 1.48746E-04-1.08113E-05-5.93858E-05-7.00862E-07-3.73457E-18-4.55413E-19
 -1      2608 1.37599E-04-9.16852E-06-5.52641E-05-3.12066E-06-3.32037E-18 9.95184E-19
 -1      2609 1.46628E-04-4.54278E-05-4.35707E-05-5.85920E-06-2.47887E-18-3.66977E-18
 -1      2610 1.48810E-04-3.73675E-05-4.83357E-05 5.73197E-07-2.47260E-18-3.27759E-18
 -1      2611 1.34766E-04-5.67854E-05-3.34260E-05-2.08642E-05-1.01898E-18-2.63427E-18
 -1      2612 1.43860E-04-5.24956E-05-3.94379E-05-1.47237E-05-2.25152E-18-3.98444E-18
 -1      2613 1.43455E-04-5.08767E-05-3.96642E-05-3.57380E-06-1.42141E-18-4.86472E-18
 -1      2614 1.04712E-04-5.65104E-05-2.06069E-05-3.91932E-05 1.28961E-19 1.68507E-18
 -1      2615 1.21262E-04-5.87068E-05-2.70772E-05-3.39520E-05 2.09005E-19 1.11702E-19
 -1      2616 6.91798E-05-4.51810E-05-1.02022E-05-4.36443E-05 6.26804E-19 1.95178E-18
 -1      2617 8.73670E-05-5.07515E-05-1.56700E-05-4.52579E-05 5.50571E-21 9.66518E-19
 -1      2618 7.06340E-05-4.16704E-05-1.20704E-05-4.28190E-05 9.26654E-19 1.82260E-18
 -1      2619 1.55320E-04-3.31565E-05-5.28411E-05-6.28249E-06-6.03511E-20-2.49642E-18
 -1      2620 1.54158E-04-4.14100E-05-4.85167E-05-2.66278E-06-6.97108E-19-1.93801E-18
 -1      2621 9.63287E-05-2.50938E-05-3.05551E-05 7.59817E-06 3.44656E-18 1.73263E-18
 -1      2622 9.74509E-05-2.37775E-05-3.15958E-05 1.06976E-05 3.75521E-18 2.22095E-18
 -1      2623 9.58857E-05-2.13022E-05-3.20202E-05 1.18998E-05 4.07087E-18 9.25860E-19
 -1      2624 9.58740E-05-2.41604E-05-3.07677E-05 7.69030E-06 3.56486E-18 3.26002E-19
 -1      2625 1.32657E-04-6.18733E-05-3.06866E-05 2.56056E-05 2.01170E-19-6.19393E-19
 -1      2626 1.14722E-04-6.00702E-05-2.32980E-05 3.33486E-05 3.18061E-19-5.89217E-19
 -1      2627 1.48010E-04-3.63403E-05-4.79810E-05 1.46388E-05 3.00485E-18 9.49524E-19
 -1      2628 9.08030E-05-1.50427E-05-3.24575E-05-6.81873E-06-2.04542E-18-3.84655E-18
 -1      2629 8.97007E-05-1.31884E-05-3.28439E-05-7.96175E-06-2.30276E-18-3.97094E-18
 -1      2630 9.03326E-05-1.39121E-05-3.28164E-05-9.17585E-06-2.82665E-18-3.55571E-18
 -1      2631 9.47265E-05-2.69378E-05-2.90648E-05 1.89186E-06 2.23421E-18-5.42495E-19
 -1      2632 9.42425E-05-1.90810E-05-3.22573E-05 1.16091E-05 3.95622E-18-5.95941E-19
 -1      2633 1.39684E-04-6.20140E-05-3.32752E-05 1.34531E-05-7.26331E-20-3.17436E-18
 -1      2634 3.83154E-05-2.45744E-05-5.37884E-06-2.83448E-05-7.86682E-20 1.77835E-18
 -1      2635 5.14908E-05-2.72444E-05-9.96961E-06-3.37345E-05 9.14266E-19 1.42556E-18
 -1      2636 3.69884E-05-1.86640E-05-7.35954E-06-2.13839E-05-2.40240E-19 2.50849E-18
 -1      2637 1.30703E-04-6.03273E-05-3.00257E-05-2.33942E-05 2.00747E-19-2.71146E-18
 -1      2638 9.68815E-05-2.61289E-05-3.03131E-05 8.85541E-06-2.17658E-18 2.73624E-18
 -1      2639 1.10207E-04-5.85562E-05-2.17903E-05 3.53873E-05 7.44542E-19-6.48840E-19
 -1      2640 9.60542E-05-2.50339E-05-3.04479E-05 9.67192E-06-1.76051E-18 5.79328E-19
 -1      2641 1.37106E-04-1.32609E-05-5.33757E-05 5.97537E-06-2.41426E-18-1.73599E-18
 -1      2642 5.14277E-05-2.77034E-05-9.74255E-06 3.24282E-05-1.19823E-18 2.53390E-18
 -1      2643 3.82061E-05-2.52654E-05-5.04792E-06 2.74776E-05-1.68856E-18 2.33739E-18
 -1      2644 3.55367E-05-1.88009E-05-6.66998E-06 2.00056E-05-2.00112E-18 3.38792E-18
 -1      2645 7.36961E-05-4.37755E-05-1.25120E-05 4.13536E-05-3.44107E-19-4.38340E-20
 -1      2646 1.42176E-04-3.19719E-05-4.74489E-05 7.27387E-06-2.29059E-18-2.21669E-18
 -1      2647 1.40766E-04-2.01940E-05-5.18667E-05-9.02658E-06-3.11136E-18 2.11621E-18
 -1      2648 9.47134E-05-2.06031E-05-3.17172E-05 9.67645E-06 3.70068E-18-9.01150E-19
 -1      2649 9.20541E-05-1.62356E-05-3.25333E-05-1.04014E-05-3.23582E-18-2.52158E-18
 -1      2650 1.43132E-04-4.03618E-05-4.41640E-05-4.93873E-06-1.18775E-18 2.41087E-18
 -1      2651 1.37271E-04-5.62070E-05-3.46946E-05 1.17434E-05 4.07423E-19 1.86601E-18
 -1      2652 1.15732E-04-5.79123E-05-2.45532E-05 3.21205E-05 1.89513E-18-5.60101E-19
 -1      2653 4.49957E-05-2.88514E-05-6.47155E-06 3.54220E-05 2.36576E-18-4.05284E-18
 -1      2654 4.22013E-05-2.21251E-05-7.97382E-06 3.00948E-05 1.80312E-18-3.02243E-18
 -1      2655 5.81508E-05-3.24421E-05-1.09190E-05 3.91179E-05 3.25907E-18-2.30711E-18
 -1      2656 5.60328E-05-3.52976E-05-8.44043E-06-3.65690E-05-4.43634E-19-2.13283E-18
 -1      2657 1.47353E-04-5.55597E-05-3.93771E-05 1.45683E-06 3.32275E-19-8.53597E-19
 -1      2658 1.28286E-04-6.23913E-05-2.82171E-05-2.17205E-05-5.53007E-19-2.32532E-18
 -1      2659 1.35562E-04-6.22986E-05-3.16980E-05-1.01057E-05-8.58362E-19-1.88634E-18
 -1      2660 1.20994E-04-6.04339E-05-2.56512E-05-2.44152E-05-1.12105E-18-1.63798E-18
 -1      2661 2.62483E-05-2.03432E-05-2.12931E-06-1.49632E-05-9.20195E-19-5.73950E-18
 -1      2662 3.51549E-05-2.05941E-05-5.97582E-06-2.27713E-05-1.16255E-18-4.73258E-18
 -1      2663 2.90911E-05-1.49668E-05-5.43764E-06-8.76077E-06-1.19358E-18-6.07026E-18
 -1      2664 9.40571E-05-5.20965E-05-1.75374E-05-3.71292E-05-7.47295E-19 3.09008E-19
 -1      2665 1.49583E-04-4.70218E-05-4.38801E-05-6.01453E-06-1.12629E-18-2.97711E-18
 -1      2666 1.45175E-04-2.73936E-05-5.07009E-05-1.08610E-05 3.98741E-19-4.12780E-18
 -1      2667 8.26435E-05-4.68409E-05-1.49537E-05 4.27144E-05 3.24943E-18-2.84121E-18
 -1      2668 9.71549E-05-2.83852E-05-2.94528E-05-4.01963E-06 4.33596E-19 5.94050E-19
 -1      2669 9.66663E-05-2.75734E-05-2.96003E-05-4.90046E-06-1.08967E-19 9.47461E-20
 -1      2670 9.73351E-05-2.82056E-05-2.96441E-05-5.90337E-06-5.39265E-20 7.03047E-19
 -1      2671 9.78608E-05-2.89658E-05-2.95434E-05-4.35122E-06 1.06187E-19 1.31585E-18
 -1      2672 9.61197E-05-2.51598E-05-3.03958E-05 1.13810E-05-1.82391E-18 5.40215E-20
 -1      2673 1.01907E-04-5.55161E-05-1.95671E-05-4.03689E-05 1.44123E-18 6.93667E-19
 -1      2674 9.83365E-05-2.92660E-05-2.95986E-05-5.26416E-06 4.23116E-19 7.53052E-19
 -1      2675 9.05669E-05-1.51793E-05-3.23312E-05 3.19801E-06 1.39385E-18-4.01751E-18
 -1      2676 9.03771E-05-1.49075E-05-3.23642E-05 2.26327E-06 9.19723E-19-4.18204E-18
 -1      2677 9.02426E-05-1.47046E-05-3.23932E-05 1.42221E-06 6.82627E-19-4.40355E-18
 -1      2678 9.01766E-05-1.46123E-05-3.24044E-05 4.64295E-07 2.91949E-19-4.33038E-18
 -1      2679 9.14303E-05-1.66018E-05-3.20565E-05 1.64180E-06 7.47970E-19-4.03933E-18
 -1      2680 9.21442E-05-1.75546E-05-3.20049E-05 6.48023E-06 2.78446E-18-3.25394E-18
 -1      2681 9.16210E-05-1.67606E-05-3.21053E-05 5.64046E-06 2.50664E-18-3.61950E-18
 -1      2682 9.35626E-05-1.97791E-05-3.16641E-05 7.60311E-06 3.22369E-18-2.41056E-18
 -1      2683 9.27731E-05-1.85240E-05-3.18380E-05 7.02445E-06 2.95419E-18-2.76319E-18
 -1      2684 9.34384E-05-1.98703E-05-3.15064E-05 5.74104E-06 2.66255E-18-2.72797E-18
 -1      2685 9.52136E-05-2.54086E-05-2.99288E-05 3.98504E-06 2.72545E-18-9.94389E-19
 -1      2686 9.55507E-05-2.45586E-05-3.03928E-05 5.61788E-06 3.01755E-18-8.45969E-19
 -1      2687 9.28810E-05-1.80093E-05-3.20738E-05-8.84099E-06-2.93346E-18-2.45236E-18
 -1      2688 9.47046E-05-2.19074E-05-3.12055E-05 7.84910E-06 3.37533E-18-1.20791E-18
 -1      2689 6.80888E-05-3.66975E-05-1.29938E-05-3.99311E-05 1.03052E-18 9.21784E-19
 -1      2690 8.20359E-05-4.47750E-05-1.57155E-05-4.25768E-05 1.25679E-18-9.84676E-20
 -1      2691 1.24750E-04-6.05989E-05-2.71530E-05-2.56589E-05 1.03889E-18-2.38652E-18
 -1      2692 1.34860E-04-5.97996E-05-3.26205E-05-1.50857E-05-1.58819E-21-4.35735E-18
 -1      2693 9.53975E-05-2.59343E-05-2.97309E-05-2.70427E-06-1.91160E-18-1.20820E-18
 -1      2694 9.51947E-05-2.64948E-05-2.94544E-05-1.72247E-06-1.75277E-18-1.32984E-18
 -1      2695 9.52131E-05-2.70063E-05-2.92079E-05-9.88619E-07-1.57267E-18-1.08001E-18
 -1      2696 9.50801E-05-2.73610E-05-2.90281E-05-3.84149E-07-1.35042E-18-1.18228E-18
 -1      2697 9.54244E-05-2.63274E-05-2.96151E-05-1.63688E-06-1.73249E-18-1.44914E-18
 -1      2698 9.50463E-05-2.76665E-05-2.88609E-05 8.16365E-08-1.23423E-18-1.20017E-18
 -1      2699 9.49681E-05-2.78900E-05-2.87506E-05 4.32349E-07-1.15530E-18-1.32441E-18
 -1      2700 9.54161E-05-2.73279E-05-2.91880E-05-3.52342E-07-1.33866E-18-1.39992E-18
 -1      2701 9.49264E-05-2.80747E-05-2.86404E-05 7.01968E-07-1.07633E-18-1.31370E-18
 -1      2702 9.48980E-05-2.82205E-05-2.85770E-05 8.85558E-07-9.87767E-19-1.46992E-18
 -1      2703 9.53552E-05-2.79401E-05-2.88989E-05 4.38891E-07-1.19470E-18-1.56570E-18
 -1      2704 9.48631E-05-2.83311E-05-2.85076E-05 1.02057E-06-1.05873E-18-1.57045E-18
 -1      2705 9.48703E-05-2.84267E-05-2.84757E-05 1.09692E-06-9.48494E-19-1.62200E-18
 -1      2706 9.52914E-05-2.83187E-05-2.87080E-05 8.81636E-07-1.14138E-18-1.63371E-18
 -1      2707 9.48462E-05-2.84901E-05-2.84351E-05 1.14459E-06-6.80097E-19-1.68209E-18
 -1      2708 9.48758E-05-2.85514E-05-2.84240E-05 1.15505E-06-5.71294E-19-1.61695E-18
 -1      2709 9.52423E-05-2.85465E-05-2.85880E-05 1.09076E-06-8.55674E-19-1.45371E-18
 -1      2710 9.48614E-05-2.85836E-05-2.84035E-05 1.14960E-06-6.50734E-19-1.73996E-18
 -1      2711 9.49037E-05-2.86207E-05-2.84059E-05 1.12290E-06-8.27673E-19-1.66858E-18
 -1      2712 9.52110E-05-2.86750E-05-2.85185E-05 1.15054E-06-7.39912E-19-1.56532E-18
 -1      2713 9.48970E-05-2.86316E-05-2.83994E-05 1.08894E-06-8.67391E-19-1.45396E-18
 -1      2714 9.49453E-05-2.86512E-05-2.84104E-05 1.04518E-06-7.12818E-19-1.48304E-18
 -1      2715 9.51948E-05-2.87360E-05-2.84845E-05 1.12245E-06-7.47495E-19-1.64752E-18
 -1      2716 9.49440E-05-2.86474E-05-2.84135E-05 1.00036E-06-6.50036E-19-1.28969E-18
 -1      2717 9.49945E-05-2.86539E-05-2.84301E-05 9.53754E-07-4.31573E-19-1.19411E-18
 -1      2718 9.51900E-05-2.87506E-05-2.84755E-05 1.05081E-06-6.25921E-19-1.42113E-18
 -1      2719 9.49972E-05-2.86397E-05-2.84401E-05 9.10789E-07-4.16787E-19-1.13320E-18
 -1      2720 9.50482E-05-2.86364E-05-2.84604E-05 8.71570E-07-2.75836E-19-1.26513E-18
 -1      2721 9.51932E-05-2.87324E-05-2.84843E-05 9.67612E-07-4.75900E-19-1.38186E-18
 -1      2722 9.50537E-05-2.86144E-05-2.84755E-05 8.39832E-07-1.82830E-19-1.33000E-18
 -1      2723 9.51051E-05-2.86035E-05-2.84987E-05 8.15622E-07-2.75866E-19-1.18182E-18
 -1      2724 9.52021E-05-2.86902E-05-2.85059E-05 8.96154E-07-3.04603E-19-8.67477E-19
 -1      2725 9.51129E-05-2.85752E-05-2.85178E-05 8.02303E-07-2.59901E-19-5.65220E-19
 -1      2726 9.51660E-05-2.85585E-05-2.85438E-05 7.99105E-07-3.15446E-19-3.95312E-19
 -1      2727 9.52155E-05-2.86297E-05-2.85375E-05 8.53910E-07 1.36190E-20-5.41016E-19
 -1      2728 9.51762E-05-2.85248E-05-2.85666E-05 8.10072E-07-4.53316E-19-2.28785E-19
 -1      2729 9.52332E-05-2.85035E-05-2.85957E-05 8.32931E-07-4.22588E-19 5.01478E-21
 -1      2730 9.52328E-05-2.85540E-05-2.85773E-05 8.54632E-07-4.74597E-19 9.65951E-20
 -1      2731 9.52460E-05-2.84650E-05-2.86222E-05 8.73303E-07-6.35571E-19-9.92104E-20
 -1      2732 9.53103E-05-2.84405E-05-2.86552E-05 9.26697E-07-5.12792E-19-2.22059E-19
 -1      2733 9.52547E-05-2.84652E-05-2.86247E-05 9.09840E-07-6.38399E-19 8.96377E-20
 -1      2734 9.53266E-05-2.83978E-05-2.86857E-05 1.00114E-06-5.71980E-19-4.57715E-19
 -1      2735 9.54021E-05-2.83718E-05-2.87234E-05 1.08908E-06-8.87661E-19-1.10868E-18
 -1      2736 9.52824E-05-2.83647E-05-2.86798E-05 1.02973E-06-1.03727E-18-2.42850E-19
 -1      2737 9.54236E-05-2.83260E-05-2.87581E-05 1.20184E-06-6.26209E-19-1.06063E-18
 -1      2738 9.55153E-05-2.83011E-05-2.88016E-05 1.32766E-06-2.62184E-19-7.98695E-19
 -1      2739 9.53186E-05-2.82547E-05-2.87426E-05 1.22353E-06-6.60692E-19-8.65491E-19
 -1      2740 9.55447E-05-2.82546E-05-2.88407E-05 1.48223E-06-3.85264E-20-3.00640E-19
 -1      2741 9.56585E-05-2.82348E-05-2.88908E-05 1.64799E-06 1.81785E-19-5.91983E-19
 -1      2742 9.53678E-05-2.81392E-05-2.88134E-05 1.49923E-06 4.76190E-20-6.19770E-19
 -1      2743 9.57002E-05-2.81920E-05-2.89341E-05 1.84642E-06 1.81103E-19-5.72117E-19
 -1      2744 9.58432E-05-2.81838E-05-2.89912E-05 2.05187E-06 4.14094E-19-7.02296E-19
 -1      2745 9.54370E-05-2.80261E-05-2.88917E-05 1.86260E-06 2.07376E-19 1.13610E-19
 -1      2746 9.59039E-05-2.81524E-05-2.90381E-05 2.29360E-06 4.06886E-19-5.34571E-19
 -1      2747 9.60850E-05-2.81658E-05-2.91022E-05 2.53451E-06 3.29035E-19-7.52467E-19
 -1      2748 9.55373E-05-2.79294E-05-2.89766E-05 2.31540E-06 2.71596E-19-1.80515E-19
 -1      2749 9.61756E-05-2.81586E-05-2.91513E-05 2.81461E-06 1.65713E-19-5.19563E-19
 -1      2750 9.64054E-05-2.82084E-05-2.92212E-05 3.08048E-06-7.16454E-20-5.32957E-19
 -1      2751 9.56864E-05-2.78724E-05-2.90655E-05 2.85251E-06 2.82255E-19-7.78284E-19
 -1      2752 9.65425E-05-2.82446E-05-2.92706E-05 3.38714E-06-1.14298E-19-7.92048E-19
 -1      2753 9.68347E-05-2.83521E-05-2.93442E-05 3.65812E-06 1.57714E-20-5.31503E-19
 -1      2754 9.59112E-05-2.78915E-05-2.91546E-05 3.45786E-06-1.71496E-19-1.08818E-19
 -1      2755 9.70431E-05-2.84597E-05-2.93909E-05 3.96930E-06-3.74321E-19-2.65443E-19
 -1      2756 9.74144E-05-2.86534E-05-2.94650E-05 4.21249E-06-2.00325E-19-2.49265E-19
 -1      2757 9.62530E-05-2.80405E-05-2.92388E-05 4.09888E-06-1.29863E-20-2.59968E-19
 -1      2758 9.77301E-05-2.88703E-05-2.95061E-05 4.49161E-06-7.94759E-20-7.36201E-19
 -1      2759 9.82004E-05-2.91854E-05-2.95766E-05 4.65705E-06 1.16061E-19-6.01077E-19
 -1      2760 9.67719E-05-2.83943E-05-2.93121E-05 4.71915E-06-2.30260E-19-5.07409E-19
 -1      2761 9.86719E-05-2.95580E-05-2.96102E-05 4.84764E-06 1.46493E-20-1.23496E-18
 -1      2762 9.92619E-05-3.00315E-05-2.96734E-05 4.86512E-06-3.93268E-19-1.21335E-18
 -1      2763 9.75519E-05-2.90485E-05-2.93697E-05 5.22916E-06 3.24905E-20-5.30452E-19
 -1      2764 9.99482E-05-3.06070E-05-2.97009E-05 4.88508E-06-4.14573E-19-1.03373E-18
 -1      2765 1.00672E-04-3.12654E-05-2.97557E-05 4.66396E-06-2.21735E-19-5.47654E-19
 -1      2766 9.87004E-05-3.01102E-05-2.94121E-05 5.49521E-06-2.10793E-19-8.26108E-19
 -1      2767 1.01630E-04-3.20728E-05-2.97857E-05 4.40142E-06-4.06095E-19-5.94060E-19
 -1      2768 1.02477E-04-3.29039E-05-2.98369E-05 3.83826E-06-7.86463E-20-7.31437E-19
 -1      2769 1.00336E-04-3.16694E-05-2.94512E-05 5.32812E-06-3.74414E-19-1.94009E-19
 -1      2770 1.03734E-04-3.39160E-05-2.98901E-05 3.15555E-06 5.89433E-19-7.10146E-19
 -1      2771 1.04641E-04-3.48243E-05-2.99527E-05 2.15816E-06 1.78360E-19-9.59782E-20
 -1      2772 1.02549E-04-3.37345E-05-2.95199E-05 4.47844E-06 3.92272E-19-1.12027E-18
 -1      2773 1.06130E-04-3.58962E-05-3.00665E-05 9.19939E-07 1.75636E-19 2.06077E-19
 -1      2774 1.06942E-04-3.66454E-05-3.01683E-05-5.38881E-07 7.14581E-19 3.07004E-19
 -1      2775 1.05312E-04-3.61180E-05-2.96828E-05 2.65839E-06 6.72902E-19-5.99652E-19
 -1      2776 1.08425E-04-3.74476E-05-3.03961E-05-2.38174E-06 5.66908E-19 8.88472E-19
 -1      2777 1.08879E-04-3.76326E-05-3.05736E-05-4.16978E-06 4.16676E-19 9.38893E-19
 -1      2778 1.08338E-04-3.82782E-05-3.00423E-05-3.62361E-07 8.27888E-19 6.81890E-19
 -1      2779 1.09892E-04-3.76425E-05-3.09702E-05-6.40692E-06 5.45416E-19 1.22727E-18
 -1      2780 1.09685E-04-3.67933E-05-3.12539E-05-8.10967E-06 6.49138E-19 7.94492E-19
 -1      2781 1.10924E-04-3.92090E-05-3.07225E-05-4.50841E-06 4.00635E-19 2.45598E-18
 -1      2782 1.09661E-04-3.54956E-05-3.18421E-05-1.00706E-05 3.00819E-19 1.30133E-18
 -1      2783 1.08659E-04-3.34003E-05-3.22247E-05-1.09632E-05-3.81501E-19 1.49361E-18
 -1      2784 1.11999E-04-3.76406E-05-3.18169E-05-8.98730E-06 5.49591E-19 1.73418E-18
 -1      2785 1.07390E-04-3.08053E-05-3.29273E-05-1.15077E-05-9.29022E-19 1.95468E-18
 -1      2786 1.05909E-04-2.80233E-05-3.33206E-05-1.08229E-05-1.90463E-19 2.28910E-18
 -1      2787 1.10701E-04-3.29507E-05-3.32818E-05-1.19341E-05-2.43271E-19 2.19960E-18
 -1      2788 1.04086E-04-2.51708E-05-3.39214E-05-9.04319E-06-1.54981E-19 1.28070E-18
 -1      2789 1.02914E-04-2.30742E-05-3.41740E-05-6.59015E-06-2.47684E-19 1.28072E-18
 -1      2790 1.07462E-04-2.63450E-05-3.47798E-05-1.09812E-05-7.60556E-19 3.73740E-19
 -1      2791 1.01989E-04-2.17590E-05-3.44145E-05-2.85234E-06-6.81243E-19 7.64724E-19
 -1      2792 1.01886E-04-2.16892E-05-3.43990E-05 4.26077E-07-1.33135E-18 7.69013E-20
 -1      2793 1.04530E-04-2.12534E-05-3.57578E-05-5.27931E-06-1.08450E-18 3.04279E-19
 -1      2794 1.02689E-04-2.28924E-05-3.41547E-05 4.22051E-06-8.03053E-19-3.08676E-19
 -1      2795 1.03690E-04-2.49020E-05-3.38661E-05 6.74233E-06-3.26920E-19 2.12797E-19
 -1      2796 1.04399E-04-2.11094E-05-3.57614E-05 2.73266E-06-1.05501E-18-1.07971E-18
 -1      2797 1.05480E-04-2.77475E-05-3.32478E-05 8.62929E-06-4.20122E-19-1.76646E-19
 -1      2798 1.06844E-04-3.05393E-05-3.28115E-05 9.38451E-06-1.12170E-18-1.54004E-20
 -1      2799 1.07169E-04-2.60326E-05-3.47769E-05 8.63529E-06-7.41021E-19-1.57447E-18
 -1      2800 1.08184E-04-3.32518E-05-3.20798E-05 8.88487E-06-1.13945E-18 4.45508E-19
 -1      2801 1.09095E-04-3.54002E-05-3.16497E-05 7.97343E-06-9.12700E-19 1.93407E-19
 -1      2802 1.10454E-04-3.28069E-05-3.32403E-05 9.77404E-06-1.01757E-18-9.03536E-19
 -1      2803 1.09148E-04-3.67677E-05-3.10308E-05 5.95716E-06-1.52136E-18 4.04409E-19
 -1      2804 1.09244E-04-3.76258E-05-3.07036E-05 4.19931E-06-1.77837E-18 2.12294E-19
 -1      2805 1.11857E-04-3.77307E-05-3.17206E-05 6.81218E-06-1.19361E-18-7.30692E-19
 -1      2806 1.08214E-04-3.76268E-05-3.02897E-05 1.86666E-06-1.66584E-18 3.83801E-19
 -1      2807 1.07611E-04-3.73701E-05-3.00817E-05 1.38576E-08 9.00831E-20 7.14816E-19
 -1      2808 1.10789E-04-3.93884E-05-3.05852E-05 2.16781E-06-1.45100E-18 4.65473E-19
 -1      2809 1.06032E-04-3.64670E-05-2.98566E-05-1.90769E-06 5.37311E-19 4.29921E-19
 -1      2810 1.05026E-04-3.55424E-05-2.97425E-05-3.37449E-06 1.94375E-19 2.82090E-19
 -1      2811 1.08088E-04-3.83576E-05-2.99007E-05-2.16802E-06 1.90046E-19-2.69598E-19
 -1      2812 1.03378E-04-3.42617E-05-2.96568E-05-4.60439E-06 5.97307E-19 3.36808E-19
 -1      2813 1.02231E-04-3.30706E-05-2.96041E-05-5.50252E-06 7.13669E-19-6.04297E-19
 -1      2814 1.04804E-04-3.58337E-05-2.95856E-05-5.25474E-06-9.48494E-20-7.42377E-19
 -1      2815 1.00754E-04-3.17318E-05-2.96048E-05-6.02344E-06 7.74418E-19-6.98575E-19
 -1      2816 9.96493E-05-3.05513E-05-2.95881E-05-6.30553E-06 1.36829E-18-4.67192E-19
 -1      2817 1.01648E-04-3.28031E-05-2.95226E-05-6.90255E-06 8.79937E-19-5.52596E-19
 -1      2818 9.44709E-05-2.81264E-05-2.84331E-05-8.83997E-07 8.70397E-19-1.67414E-18
 -1      2819 9.44876E-05-2.79998E-05-2.84836E-05-7.07995E-07 9.14090E-19-1.37836E-18
 -1      2820 9.44282E-05-2.42967E-05-3.00547E-05 1.34814E-05-2.23258E-18-2.32281E-18
 -1      2821 9.67020E-05-2.61308E-05-3.02178E-05 1.26494E-05-2.12591E-18-3.29387E-20
 -1      2822 9.79546E-05-2.72935E-05-3.02715E-05 1.37535E-05-1.91088E-18-7.43719E-19
 -1      2823 9.45479E-05-2.78493E-05-2.85860E-05-4.31945E-07 1.12741E-18-1.32644E-18
 -1      2824 9.46368E-05-2.76629E-05-2.86847E-05-8.82092E-08 1.38118E-18-1.24222E-18
 -1      2825 9.50051E-05-2.79097E-05-2.87635E-05-4.42288E-07 1.22269E-18-1.75653E-18
 -1      2826 9.45136E-05-2.84262E-05-2.83221E-05-1.14439E-06 7.28459E-19-1.23150E-18
 -1      2827 9.44557E-05-2.83639E-05-2.83219E-05-1.13817E-06 8.73386E-19-1.36540E-18
 -1      2828 9.45892E-05-2.85017E-05-2.83221E-05-1.10752E-06 9.95913E-19-1.37693E-18
 -1      2829 9.45177E-05-2.84587E-05-2.83100E-05-1.13736E-06 9.08227E-19-1.19360E-18
 -1      2830 9.48957E-05-2.85634E-05-2.84313E-05-1.16776E-06 8.70695E-19-1.50942E-18
 -1      2831 9.46799E-05-2.85461E-05-2.83418E-05-1.02477E-06 8.85259E-19-1.52917E-18
 -1      2832 9.46036E-05-2.85178E-05-2.83228E-05-1.07126E-06 1.01987E-18-1.43668E-18
 -1      2833 9.49199E-05-2.86301E-05-2.84120E-05-1.13451E-06 1.04209E-18-1.57378E-18
 -1      2834 9.47769E-05-2.85676E-05-2.83740E-05-9.27410E-07 7.75017E-19-1.59176E-18
 -1      2835 9.47006E-05-2.85506E-05-2.83510E-05-9.76958E-07 7.47489E-19-1.52989E-18
 -1      2836 9.49584E-05-2.86583E-05-2.84157E-05-1.05586E-06 9.34237E-19-1.44587E-18
 -1      2837 9.48756E-05-2.85718E-05-2.84144E-05-8.37889E-07 4.07859E-19-1.16536E-18
 -1      2838 9.48013E-05-2.85636E-05-2.83890E-05-8.80710E-07 7.77345E-19-1.34518E-18
 -1      2839 9.50052E-05-2.86589E-05-2.84351E-05-9.64165E-07 7.28268E-19-1.23913E-18
 -1      2840 9.49752E-05-2.85623E-05-2.84608E-05-7.72928E-07-1.23152E-19-1.16439E-18
 -1      2841 9.49024E-05-2.85612E-05-2.84336E-05-8.01637E-07-3.14537E-20-1.03020E-18
 -1      2842 9.50568E-05-2.86388E-05-2.84656E-05-8.82906E-07 1.71727E-19-6.87133E-19
 -1      2843 9.50771E-05-2.85417E-05-2.85129E-05-7.45897E-07 5.48806E-20-7.50053E-19
 -1      2844 9.50039E-05-2.85463E-05-2.84835E-05-7.54432E-07 1.15606E-20-9.11206E-19
 -1      2845 9.51118E-05-2.86024E-05-2.85047E-05-8.29870E-07-1.49784E-19-9.02251E-19
 -1      2846 9.51852E-05-2.85114E-05-2.85717E-05-7.68602E-07 4.89711E-19-1.12588E-18
 -1      2847 9.51082E-05-2.85206E-05-2.85392E-05-7.51413E-07 3.06859E-19-7.87900E-19
 -1      2848 9.51703E-05-2.85517E-05-2.85515E-05-8.19495E-07 2.06660E-19-9.10190E-19
 -1      2849 9.53049E-05-2.84719E-05-2.86392E-05-8.52691E-07 5.68810E-19-6.20032E-19
 -1      2850 9.52195E-05-2.84851E-05-2.86022E-05-8.04096E-07 4.97691E-19-6.66318E-19
 -1      2851 9.52338E-05-2.84872E-05-2.86065E-05-8.64697E-07 4.09972E-19-6.05380E-19
 -1      2852 9.54429E-05-2.84230E-05-2.87183E-05-1.01075E-06 1.84473E-19-7.38200E-19
 -1      2853 9.53436E-05-2.84397E-05-2.86748E-05-9.24439E-07 5.93287E-19-5.31136E-19
 -1      2854 9.53042E-05-2.84080E-05-2.86708E-05-9.78276E-07 5.62139E-19 6.06272E-21
 -1      2855 9.56069E-05-2.83638E-05-2.88128E-05-1.25714E-06 1.86784E-19-1.11438E-18
 -1      2856 9.54871E-05-2.83837E-05-2.87605E-05-1.12578E-06 1.30024E-19-9.41025E-19
 -1      2857 9.53841E-05-2.83116E-05-2.87465E-05-1.17398E-06 1.89368E-19-2.12799E-19
 -1      2858 9.58054E-05-2.82934E-05-2.89266E-05-1.60843E-06 3.88777E-19-1.29838E-18
 -1      2859 9.56577E-05-2.83159E-05-2.88629E-05-1.42351E-06 2.55347E-19-1.37221E-18
 -1      2860 9.54758E-05-2.81950E-05-2.88360E-05-1.46725E-06 3.23878E-19-4.11430E-19
 -1      2861 9.60475E-05-2.82106E-05-2.90642E-05-2.08358E-06 6.44554E-19-1.58478E-18
 -1      2862 9.58636E-05-2.82351E-05-2.89862E-05-1.83538E-06 6.49257E-19-1.21153E-18
 -1      2863 9.55813E-05-2.80542E-05-2.89416E-05-1.87555E-06 7.05668E-19-1.29526E-18
 -1      2864 9.63424E-05-2.81154E-05-2.92294E-05-2.70335E-06 8.21827E-19-1.59256E-18
 -1      2865 9.61131E-05-2.81403E-05-2.91344E-05-2.38136E-06 6.78747E-19-1.61256E-18
 -1      2866 9.57015E-05-2.78852E-05-2.90655E-05-2.41833E-06 9.27577E-19-9.08036E-19
 -1      2867 9.66993E-05-2.80107E-05-2.94251E-05-3.48873E-06 3.39769E-19-1.66654E-18
 -1      2868 9.64147E-05-2.80323E-05-2.93108E-05-3.08272E-06 8.10828E-19-1.59648E-18
 -1      2869 9.58362E-05-2.76855E-05-2.92085E-05-3.11625E-06 6.82707E-19-5.35638E-19
 -1      2870 9.71289E-05-2.79062E-05-2.96519E-05-4.45754E-06 9.02202E-20-2.13325E-18
 -1      2871 9.67779E-05-2.79166E-05-2.95169E-05-3.95979E-06 1.25615E-19-1.70282E-18
 -1      2872 9.59845E-05-2.74571E-05-2.93694E-05-3.98944E-06 4.75628E-19-4.35751E-19
 -1      2873 9.76464E-05-2.78263E-05-2.99060E-05-5.61819E-06-5.27684E-19-2.39535E-18
 -1      2874 9.72150E-05-2.78091E-05-2.97513E-05-5.02766E-06-1.07339E-19-2.30403E-18
 -1      2875 9.61471E-05-2.72121E-05-2.95434E-05-5.05435E-06 3.09132E-20-5.00369E-19
 -1      2876 9.82801E-05-2.78242E-05-3.01771E-05-6.95871E-06-3.69947E-19-2.22471E-18
 -1      2877 9.77479E-05-2.77467E-05-3.00071E-05-6.28834E-06-4.57075E-19-2.45597E-18
 -1      2878 9.63329E-05-2.69843E-05-2.97201E-05-6.31828E-06-5.54418E-19-7.79636E-19
 -1      2879 9.90888E-05-2.80048E-05-3.04460E-05-8.42888E-06 3.49318E-19-2.03302E-18
 -1      2880 9.84218E-05-2.78065E-05-3.02696E-05-7.71746E-06 2.65709E-19-2.15907E-18
 -1      2881 9.65725E-05-2.68486E-05-2.98813E-05-7.77097E-06-2.48013E-19-1.74049E-18
 -1      2882 1.00195E-04-2.85609E-05-3.06834E-05-9.91230E-06-6.33206E-19-9.59507E-19
 -1      2883 9.93314E-05-2.81352E-05-3.05153E-05-9.24255E-06-2.12719E-19-1.37345E-18
 -1      2884 9.69468E-05-2.69527E-05-3.00000E-05-9.37144E-06-3.80804E-19-1.58716E-18
 -1      2885 1.01837E-04-2.98130E-05-3.08546E-05-1.11844E-05-4.08855E-19-1.27677E-18
 -1      2886 1.00667E-04-2.89903E-05-3.07124E-05-1.07083E-05-4.30257E-19-5.69462E-19
 -1      2887 9.76349E-05-2.75623E-05-3.00422E-05-1.10273E-05-7.19480E-19-6.77560E-19
 -1      2888 1.04422E-04-3.22270E-05-3.09377E-05-1.18512E-05 2.03447E-19-8.12741E-19
 -1      2889 1.02779E-04-3.07774E-05-3.08322E-05-1.18206E-05-1.36803E-20-7.86554E-19
 -1      2890 9.89893E-05-2.91114E-05-2.99776E-05-1.25580E-05-2.94871E-19-5.66197E-19
 -1      2891 1.08532E-04-3.62970E-05-3.09739E-05-1.12518E-05-2.34122E-19-5.10734E-19
 -1      2892 1.06228E-04-3.40276E-05-3.08825E-05-1.20436E-05 4.06836E-19-2.33286E-19
 -1      2893 1.01634E-04-3.22228E-05-2.98111E-05-1.36139E-05-7.86301E-20 9.21668E-19
 -1      2894 1.14673E-04-4.21005E-05-3.11564E-05-8.41692E-06-1.52143E-18-1.45443E-19
 -1      2895 1.11667E-04-3.91251E-05-3.09831E-05-1.04891E-05-9.33241E-19-2.82926E-19
 -1      2896 1.06447E-04-3.74781E-05-2.96650E-05-1.34707E-05-7.84364E-19 9.50715E-19
 -1      2897 1.22651E-04-4.82764E-05-3.19651E-05-2.20877E-06-1.73345E-18 1.18606E-18
 -1      2898 1.19423E-04-4.56368E-05-3.14755E-05-5.90280E-06-2.35651E-18 1.77758E-19
 -1      2899 1.14240E-04-4.49044E-05-2.98901E-05-1.09422E-05-2.08427E-18 3.89675E-19
 -1      2900 1.30187E-04-5.10199E-05-3.39144E-05 7.55252E-06-5.08868E-19 2.75627E-18
 -1      2901 1.28533E-04-5.10955E-05-3.31169E-05 2.78369E-06-6.08666E-19 2.21669E-18
 -1      2902 1.24901E-04-5.23228E-05-3.13344E-05-4.30246E-06-2.22445E-18-3.83130E-19
 -1      2903 1.36766E-04-4.04157E-05-4.16256E-05 1.71820E-05 1.07488E-18 3.39846E-18
 -1      2904 1.37909E-04-4.79512E-05-3.88622E-05 1.38457E-05 7.94093E-23 2.79627E-18
 -1      2905 1.25279E-04-1.56376E-05-4.77346E-05-1.71691E-07 1.91197E-18 6.93085E-19
 -1      2906 1.26182E-04-1.72120E-05-4.72753E-05 7.89690E-06 2.79711E-18 2.09228E-18
 -1      2907 1.32327E-04-4.19626E-05-3.90587E-05-1.60953E-05-2.58636E-19 4.63645E-19
 -1      2908 1.29731E-04-3.38187E-05-4.12987E-05-1.61270E-05 7.86894E-19 8.89252E-19
 -1      2909 1.30286E-04-5.00369E-05-3.44606E-05-6.80239E-06-1.46656E-19-2.02309E-19
 -1      2910 1.30749E-04-4.70156E-05-3.60541E-05-1.09748E-05 2.35846E-20-5.08087E-20
 -1      2911 1.36202E-04-4.78672E-05-3.82281E-05-1.14017E-05 3.81694E-20 5.23466E-19
 -1      2912 1.23125E-04-4.83267E-05-3.18642E-05 3.56807E-06 1.06825E-18-6.20548E-19
 -1      2913 1.25679E-04-4.96573E-05-3.27067E-05-8.91253E-07 6.57615E-19-1.93990E-20
 -1      2914 1.29432E-04-5.26571E-05-3.29854E-05-4.15414E-07 5.54072E-19-1.01705E-18
 -1      2915 1.14257E-04-4.20676E-05-3.08217E-05 1.08924E-05 1.82440E-18-3.17714E-18
 -1      2916 1.17711E-04-4.51521E-05-3.11671E-05 7.95276E-06 1.77995E-18-1.94655E-18
 -1      2917 1.20097E-04-4.91262E-05-3.06435E-05 9.45874E-06 2.46628E-18-2.71982E-18
 -1      2918 1.07483E-04-3.60761E-05-3.05189E-05 1.40092E-05 8.26994E-20-1.36167E-18
 -1      2919 1.10361E-04-3.88849E-05-3.06706E-05 1.25644E-05 2.11272E-19-3.02735E-18
 -1      2920 1.10100E-04-4.10154E-05-2.97745E-05 1.44076E-05 1.48739E-18-2.82901E-18
 -1      2921 1.02853E-04-3.16838E-05-3.04316E-05 1.46793E-05 2.94392E-19-1.13360E-18
 -1      2922 1.04929E-04-3.37259E-05-3.05410E-05 1.43830E-05 1.03238E-18-8.58716E-19
 -1      2923 1.03891E-04-3.47104E-05-2.97418E-05 1.61515E-05 3.53229E-19-1.58726E-18
 -1      2924 9.93197E-05-2.86254E-05-3.02466E-05 1.41896E-05-1.82616E-18-7.50714E-19
 -1      2925 1.00843E-04-3.01060E-05-3.03235E-05 1.47279E-05-1.00433E-18-1.32610E-18
 -1      2926 9.93176E-05-3.02243E-05-2.97221E-05 1.62984E-05-2.75646E-19-1.79920E-18
 -1      2927 9.61020E-05-2.69441E-05-2.97224E-05 1.55675E-05-1.96816E-18-2.44626E-18
 -1      2928 1.16546E-04-5.91559E-05-2.47233E-05 2.97253E-05 1.23381E-18-1.59798E-18
 -1      2929 1.00461E-04-5.39085E-05-1.95852E-05 3.76506E-05 1.37293E-18-3.91832E-19
 -1      2930 8.60233E-05-1.76075E-05-2.93081E-05-4.85137E-06 1.55153E-18-2.09847E-18
 -1      2931 8.51869E-05-1.69626E-05-2.92893E-05-2.50144E-06 2.54929E-18-2.13667E-18
 -1      2932 9.59004E-05-5.16788E-05-1.85421E-05-3.99851E-05 1.92933E-18 7.48407E-19
 -1      2933 1.10492E-04-5.79155E-05-2.27528E-05-3.61552E-05 1.59592E-18 5.98032E-19
 -1      2934 9.30422E-05-4.78583E-05-1.89733E-05-3.83250E-05 1.41412E-18 5.04673E-19
 -1      2935 8.54225E-05-1.70172E-05-2.93660E-05 6.04727E-06 1.60332E-18 2.13714E-18
 -1      2936 8.64552E-05-1.78110E-05-2.94068E-05 8.27967E-06 7.45542E-19 2.66770E-18
 -1      2937 8.88036E-05-2.00618E-05-2.94250E-05-8.80571E-06 6.90810E-19 1.78313E-18
 -1      2938 8.73698E-05-1.89194E-05-2.93985E-05-7.18711E-06 4.32128E-19 4.20365E-20
 -1      2939 8.56926E-05-1.90500E-05-2.85313E-05-6.96533E-06 5.71030E-19-1.84752E-18
 -1      2940 8.47169E-05-1.64579E-05-2.92752E-05 5.07329E-07 1.52475E-18-1.15885E-18
 -1      2941 8.48085E-05-1.65298E-05-2.92825E-05 3.09803E-06 1.43021E-18 1.04867E-18
 -1      2942 8.37205E-05-1.71577E-05-2.84808E-05 4.93683E-06 1.00583E-18 1.50983E-18
 -1      2943 8.35553E-05-1.71716E-05-2.83996E-05-1.34629E-06 2.05950E-18-1.24850E-18
 -1      2944 9.20224E-05-2.29561E-05-2.95585E-05-1.07272E-05 6.98203E-19-8.23322E-19
 -1      2945 9.04860E-05-2.16662E-05-2.95473E-05-1.00299E-05 3.38292E-19-2.49705E-19
 -1      2946 8.92547E-05-2.20584E-05-2.87997E-05-1.06333E-05 6.56432E-19 2.74976E-20
 -1      2947 9.48832E-05-2.56081E-05-2.96541E-05-1.07879E-05 1.32900E-18-1.64715E-18
 -1      2948 9.35767E-05-2.44141E-05-2.96716E-05-1.08891E-05 1.09398E-18-3.81952E-19
 -1      2949 9.30461E-05-2.51994E-05-2.91020E-05-1.19721E-05 4.18514E-19-1.41374E-19
 -1      2950 9.68336E-05-2.75049E-05-2.96808E-05-9.49480E-06 2.56977E-18 1.32496E-18
 -1      2951 9.59670E-05-2.66156E-05-2.97292E-05-1.01483E-05 2.23048E-18 3.28568E-19
 -1      2952 9.61469E-05-2.77173E-05-2.93541E-05-1.13614E-05 1.99655E-18 3.54094E-19
 -1      2953 8.57357E-05-4.64113E-05-1.66431E-05 4.05026E-05 5.19231E-19-2.22240E-19
 -1      2954 7.03343E-05-3.73959E-05-1.36421E-05 3.82293E-05-4.59409E-19 1.27182E-18
 -1      2955 9.60969E-05-4.86364E-05-2.00050E-05 3.54436E-05 1.08505E-18 6.06581E-19
 -1      2956 3.29569E-05-1.44418E-05-7.19538E-06 6.87790E-06-8.69109E-19 4.48970E-18
 -1      2957 3.30326E-05-1.39197E-05-7.51664E-06-5.89188E-06-6.36016E-19 3.97428E-18
 -1      2958 1.37614E-04-3.73719E-05-4.31609E-05 8.89700E-06-1.88624E-18-3.22148E-18
 -1      2959 1.33689E-04-2.65176E-05-4.66979E-05 1.09725E-05-1.61879E-18-1.36468E-18
 -1      2960 9.44512E-05-2.14272E-05-3.13380E-05-7.65608E-06-3.00996E-18-1.81788E-18
 -1      2961 9.50179E-05-2.31916E-05-3.07367E-05-5.99413E-06-2.63486E-18-1.47175E-18
 -1      2962 9.50577E-05-2.43993E-05-3.03003E-05-4.47363E-06-2.28705E-18-1.40575E-18
 -1      2963 9.30711E-05-1.90461E-05-3.17212E-05-7.06095E-06-2.37418E-18-2.69978E-18
 -1      2964 1.31290E-04-1.56219E-05-5.02727E-05-9.94568E-06-3.56029E-18 1.90630E-18
 -1      2965 1.33254E-04-2.33673E-05-4.74694E-05-1.22812E-05-2.90405E-18 2.22664E-18
 -1      2966 5.00757E-05-2.71980E-05-9.10198E-06-3.07582E-05-1.30125E-18-2.38228E-18
 -1      2967 6.69948E-05-3.60067E-05-1.32028E-05-3.65339E-05-1.58215E-18 1.07785E-19
 -1      2968 1.26964E-04-1.74229E-05-4.74608E-05-6.83887E-06 7.79059E-19-6.16746E-19
 -1      2969 9.47185E-05-2.74128E-05-2.88480E-05 3.95422E-07 1.55726E-18-1.22843E-18
 -1      2970 9.48990E-05-2.71199E-05-2.90206E-05 1.00067E-06 1.85471E-18-1.14809E-18
 -1      2971 9.51270E-05-2.73814E-05-2.90435E-05 3.82657E-07 1.61057E-18-1.59081E-18
 -1      2972 1.39412E-04-2.02935E-05-5.13316E-05 1.22016E-05 4.40076E-18 3.74494E-19
 -1      2973 1.46043E-04-1.64965E-05-5.59342E-05 8.05543E-06 4.46683E-18-9.44018E-19
 -1      2974 9.44675E-05-2.83076E-05-2.83535E-05-1.09103E-06 8.81007E-19-1.74439E-18
 -1      2975 9.44370E-05-2.82190E-05-2.83728E-05-1.02063E-06 8.58903E-19-1.74694E-18
 -1      2976 9.49280E-05-2.82381E-05-2.85877E-05-8.98396E-07 9.21676E-19-1.96712E-18
 -1      2977 9.48947E-05-2.84415E-05-2.84845E-05-1.11030E-06 7.69978E-19-1.64999E-18
 -1      2978 9.49759E-05-2.66905E-05-2.92706E-05 1.78924E-06 2.15436E-18-1.20514E-18
 -1      2979 9.52433E-05-2.61938E-05-2.95557E-05 2.79604E-06 2.37739E-18-1.04042E-18
 -1      2980 9.52689E-05-2.50231E-05-3.01031E-05 3.82794E-06 2.69963E-18-1.59442E-18
 -1      2981 9.52522E-05-2.65056E-05-2.94704E-05 1.74397E-06 2.13320E-18-1.56005E-18
 -1      2982 1.37038E-04-3.51792E-05-4.43920E-05-1.03075E-05-1.87882E-18 2.53411E-18
 -1      2983 1.38018E-04-4.44247E-05-4.01571E-05-5.87062E-06-5.91758E-19 1.93335E-18
 -1      2984 1.35688E-04-2.39023E-05-4.85935E-05-1.33392E-05 6.88638E-19-3.71223E-18
 -1      2985 1.40815E-04-3.33817E-05-4.65351E-05-1.43904E-05-1.31184E-19-2.88499E-18
 -1      2986 9.11827E-05-1.60935E-05-3.22090E-05 4.92223E-06 2.23151E-18-3.77817E-18
 -1      2987 9.08410E-05-1.55950E-05-3.22699E-05 3.99916E-06 1.78952E-18-3.90216E-18
 -1      2988 9.18203E-05-1.72071E-05-3.19618E-05 3.20203E-06 1.51312E-18-3.59022E-18
 -1      2989 9.24863E-05-1.82658E-05-3.17890E-05 4.62130E-06 2.20758E-18-3.36928E-18
 -1      2990 8.68226E-05-4.60901E-05-1.68755E-05-3.63457E-05-9.00608E-19 8.05317E-19
 -1      2991 1.02264E-04-5.31676E-05-2.10336E-05-3.28739E-05-8.42163E-19-4.11976E-19
 -1      2992 9.08075E-05-1.55460E-05-3.22764E-05-3.93332E-06-1.17004E-18-4.13471E-18
 -1      2993 9.11416E-05-1.60410E-05-3.22167E-05-4.86227E-06-1.55004E-18-4.00172E-18
 -1      2994 1.42891E-04-4.02715E-05-4.46980E-05-1.30983E-05-7.49624E-19-2.74693E-18
 -1      2995 1.43291E-04-4.76547E-05-4.10981E-05-9.12812E-06-1.18267E-18-2.17984E-18
 -1      2996 3.32934E-05-1.53391E-05-7.18648E-06 1.72877E-05 5.56289E-19-2.11843E-18
 -1      2997 2.96354E-05-1.32572E-05-6.41688E-06 5.43558E-06-4.32027E-19-3.82075E-18
 -1      2998 9.80908E-05-2.89573E-05-2.96113E-05-6.11997E-06 1.32556E-18 5.07823E-19
 -1      2999 9.77549E-05-2.85537E-05-2.96629E-05-6.96373E-06 8.73123E-19 7.47298E-20
 -1      3000 9.87760E-05-2.96909E-05-2.96188E-05-6.26315E-06 1.94107E-18-8.41251E-19
 -1      3001 1.22226E-04-5.93291E-05-2.73595E-05 2.53452E-05 1.97549E-18 2.29686E-18
 -1      3002 1.08722E-04-5.55485E-05-2.23633E-05 3.35741E-05 2.74269E-18-9.05081E-19
 -1      3003 1.37011E-04-5.41116E-05-3.61318E-05 3.98706E-06 8.36379E-19 1.70444E-18
 -1      3004 1.32398E-04-5.78418E-05-3.16894E-05 1.27845E-05 1.42722E-18 1.93536E-18
 -1      3005 1.27992E-04-7.87913E-06-5.21665E-05-1.22639E-06-2.28021E-18 7.10207E-19
 -1      3006 1.29629E-04-9.95141E-06-5.18823E-05-6.37700E-06-3.46606E-18 1.22777E-18
 -1      3007 1.28326E-04-1.52519E-05-4.88993E-05 9.28676E-06-1.55791E-18-1.25334E-18
 -1      3008 1.27239E-04-1.02580E-05-5.08520E-05 4.11541E-06-1.62863E-18-4.28705E-19
 -1      3009 1.38793E-04-5.39658E-05-3.62918E-05-3.50789E-06-9.49974E-19-3.95744E-18
 -1      3010 1.39230E-04-4.79265E-05-3.97463E-05 2.52608E-06-1.36280E-18-3.28479E-18
 -1      3011 9.23069E-05-4.90956E-05-1.85861E-05 4.01578E-05 3.72769E-18-2.78451E-18
 -1      3012 7.72964E-05-4.15180E-05-1.47134E-05 4.06920E-05 3.61958E-18-2.36682E-18
 -1      3013 1.42417E-04-5.92633E-05-3.61504E-05 2.66999E-06-5.22461E-19-2.70426E-18
 -1      3014 1.32806E-04-6.13672E-05-3.04820E-05 1.38572E-05 1.04492E-18-3.36209E-18
 -1      3015 1.39123E-04-5.33647E-05-3.70631E-05 6.50206E-06-8.86208E-20 1.79216E-18
 -1      3016 9.15798E-05-1.66960E-05-3.21154E-05-5.58154E-06-1.72396E-18-3.71864E-18
 -1      3017 9.20573E-05-1.74705E-05-3.20239E-05-6.47266E-06-2.18155E-18-3.43805E-18
 -1      3018 9.24530E-05-1.82028E-05-3.17951E-05-4.53292E-06-1.53951E-18-3.59469E-18
 -1      3019 9.12904E-05-1.63903E-05-3.20873E-05 2.12354E-08 8.85063E-20-4.06965E-18
 -1      3020 9.01727E-05-1.46026E-05-3.24052E-05-3.81282E-07-8.43807E-21-4.35922E-18
 -1      3021 9.02293E-05-1.46896E-05-3.23954E-05-1.34105E-06-3.66749E-19-4.39391E-18
 -1      3022 1.30163E-04-2.93964E-05-4.35071E-05-1.30574E-05-2.03606E-18 2.51061E-18
 -1      3023 1.19049E-04-5.85959E-05-2.57106E-05-2.76819E-05 1.25795E-18-1.61511E-18
 -1      3024 4.21568E-05-1.65238E-05-1.04095E-05-1.33465E-05 9.02884E-20 2.50976E-18
 -1      3025 5.73493E-05-2.52348E-05-1.34575E-05-3.06474E-05 1.22973E-18 1.49215E-18
 -1      3026 6.27774E-05-3.14617E-05-1.29281E-05-3.63074E-05 9.89652E-19 1.56511E-18
 -1      3027 7.35979E-05-3.48098E-05-1.62996E-05-3.58893E-05 5.80641E-19 7.79906E-19
 -1      3028 1.05830E-04-5.11542E-05-2.31876E-05-2.75397E-05-1.06213E-18-4.34951E-19
 -1      3029 1.13912E-04-5.68153E-05-2.40805E-05-2.66686E-05-1.12608E-18-9.46834E-19
 -1      3030 1.21628E-04-5.84462E-05-2.73736E-05-1.83195E-05-2.04116E-18-1.39713E-18
 -1      3031 1.34168E-04-5.67538E-05-3.32626E-05-7.87854E-06-7.45971E-19-2.91972E-18
 -1      3032 9.93165E-05-3.03134E-05-2.95840E-05-7.29538E-06 1.26898E-18-8.95763E-19
 -1      3033 1.26909E-04-2.52620E-05-4.39733E-05 1.62356E-05 2.29165E-18 4.00493E-18
 -1      3034 1.29626E-04-3.33540E-05-4.21182E-05 1.92592E-05 2.16989E-18 4.99610E-18
 -1      3035 1.29436E-04-2.37044E-05-4.58979E-05-1.29224E-05 6.77097E-19-7.77259E-19
 -1      3036 1.34616E-04-1.34687E-05-5.22248E-05 5.52491E-06 3.36463E-18-1.90405E-18
 -1      3037 1.02591E-04-5.14878E-05-2.16163E-05 3.36074E-05 3.85580E-18-1.05831E-18
 -1      3038 9.25976E-05-2.28523E-05-2.99306E-05 1.31037E-05-2.29725E-18-1.72208E-18
 -1      3039 1.34430E-04-4.22863E-05-3.96517E-05 8.05652E-06-1.01194E-18-2.33188E-18
 -1      3040 1.26058E-04-2.19924E-05-4.49682E-05 1.07583E-05-1.37505E-18-1.70926E-18
 -1      3041 6.37135E-05-3.16106E-05-1.32780E-05 3.51440E-05-8.80067E-19 2.63999E-18
 -1      3042 5.71160E-05-2.48652E-05-1.34506E-05 2.93547E-05-4.72803E-19 3.03926E-18
 -1      3043 7.54047E-05-3.47264E-05-1.70684E-05 3.39194E-05-2.50510E-19 2.50526E-18
 -1      3044 9.73611E-05-2.80056E-05-2.97272E-05-7.88996E-06 1.93597E-18-2.02945E-19
 -1      3045 1.21280E-04-1.02815E-05-4.80299E-05 1.69627E-06-1.45732E-18-1.02915E-19
 -1      3046 9.50379E-05-2.40659E-05-3.04195E-05-4.15848E-06-2.17950E-18-1.74853E-18
 -1      3047 4.20094E-05-1.66919E-05-1.02582E-05 1.38622E-05-9.07384E-19 3.03873E-18
 -1      3048 1.34643E-04-4.86870E-05-3.69570E-05-3.61251E-06 2.39115E-19 1.57739E-18
 -1      3049 4.15748E-05-1.82086E-05-9.37813E-06 2.31959E-05 1.09108E-18-1.74584E-18
 -1      3050 4.33086E-05-1.50870E-05-1.16475E-05 1.71043E-05 1.18582E-18-1.87713E-18
 -1      3051 5.09208E-05-2.18611E-05-1.23166E-05 2.84379E-05 2.22441E-18-2.05522E-18
 -1      3052 4.84113E-05-2.20055E-05-1.06738E-05-2.50598E-05-1.83510E-18-3.37776E-18
 -1      3053 7.06522E-05-3.54296E-05-1.45989E-05 3.77430E-05 2.85747E-18-2.37053E-18
 -1      3054 7.91595E-05-3.86230E-05-1.68726E-05-3.32986E-05-1.59337E-18 9.32795E-20
 -1      3055 9.88452E-05-2.98237E-05-2.95525E-05-8.19295E-06 7.78228E-19-9.70177E-19
 -1      3056 9.75677E-05-2.83730E-05-2.96640E-05-8.88754E-06 2.02253E-18 3.42704E-19
 -1      3057 9.82496E-05-2.95570E-05-2.94614E-05-9.93857E-06 1.43806E-18 5.00380E-19
 -1      3058 9.97139E-05-3.08835E-05-2.95103E-05-8.23032E-06 7.97472E-19-1.04188E-18
 -1      3059 9.43534E-05-2.14240E-05-3.12594E-05 7.22380E-06 3.30036E-18-1.84252E-18
 -1      3060 3.29949E-05-1.31006E-05-7.88520E-06-1.70809E-06-8.98292E-19-4.76541E-18
 -1      3061 3.78803E-05-1.35076E-05-1.00774E-05-9.82647E-06-1.53260E-18-5.30603E-18
 -1      3062 3.90080E-05-1.23072E-05-1.09834E-05 3.17758E-06-8.94149E-20-2.97976E-18
 -1      3063 1.40253E-04-2.94637E-05-4.83300E-05 1.64896E-05 4.73237E-18 2.80474E-18
 -1      3064 1.34938E-04-2.25618E-05-4.86982E-05 1.47939E-05 3.47771E-18 1.71503E-18
 -1      3065 8.78646E-05-1.90129E-05-2.95790E-05 1.04182E-05-2.40231E-19 1.58459E-18
 -1      3066 8.95798E-05-2.03211E-05-2.96348E-05 1.19299E-05-9.24152E-19 1.21853E-18
 -1      3067 8.62116E-05-1.89623E-05-2.87900E-05 1.02499E-05 5.72820E-19 2.78499E-18
 -1      3068 9.03571E-05-1.48739E-05-3.23684E-05-2.17312E-06-5.97896E-19-4.30332E-18
 -1      3069 9.05426E-05-1.51486E-05-3.23361E-05-3.12857E-06-9.77223E-19-4.19653E-18
 -1      3070 9.17997E-05-1.71708E-05-3.19643E-05-3.12681E-06-1.06034E-18-3.93027E-18
 -1      3071 9.14134E-05-1.65744E-05-3.20579E-05-1.58477E-06-5.09782E-19-4.09353E-18
 -1      3072 1.24065E-04-1.36983E-05-4.77042E-05-9.17185E-06-3.23101E-18 8.77526E-19
 -1      3073 1.26215E-04-5.78556E-05-2.92518E-05 1.67984E-05 2.52358E-18 1.94468E-18
 -1      3074 9.46171E-05-2.24690E-05-3.09124E-05 5.70112E-06 2.96023E-18-2.00107E-18
 -1      3075 1.43931E-04-3.80931E-05-4.54529E-05 1.57290E-05 2.23765E-18 2.07883E-18
 -1      3076 9.42859E-05-2.18798E-05-3.10595E-05 4.96510E-06 2.54823E-18-2.37658E-18
 -1      3077 9.38106E-05-2.09084E-05-3.12454E-05 4.62547E-06 2.29250E-18-2.75768E-18
 -1      3078 1.12351E-04-5.50283E-05-2.42607E-05-2.92542E-05 9.62441E-19-6.16534E-19
 -1      3079 1.23187E-04-5.85484E-05-2.79768E-05-2.09698E-05-2.25523E-20-1.86474E-18
 -1      3080 9.56796E-05-2.68875E-05-2.94743E-05-7.57884E-07-1.43662E-18-1.66182E-18
 -1      3081 9.56575E-05-2.73248E-05-2.92930E-05-2.22967E-07-1.24375E-18-1.79342E-18
 -1      3082 9.57016E-05-2.77125E-05-2.91276E-05 1.54138E-07-1.18455E-18-1.68452E-18
 -1      3083 9.56661E-05-2.79974E-05-2.90054E-05 4.70661E-07-1.24220E-18-1.81494E-18
 -1      3084 9.59061E-05-2.73349E-05-2.93912E-05-1.68921E-07-1.21459E-18-1.94248E-18
 -1      3085 9.56582E-05-2.82339E-05-2.88883E-05 6.93836E-07-1.12076E-18-1.71882E-18
 -1      3086 9.56262E-05-2.84125E-05-2.88080E-05 8.63953E-07-9.92194E-19-1.67893E-18
 -1      3087 9.59430E-05-2.80516E-05-2.91001E-05 4.67763E-07-1.11241E-18-1.81534E-18
 -1      3088 9.55940E-05-2.85511E-05-2.87275E-05 9.75929E-07-7.63363E-19-1.46714E-18
 -1      3089 9.55713E-05-2.86582E-05-2.86776E-05 1.04910E-06-7.02157E-19-1.50367E-18
 -1      3090 9.59089E-05-2.84970E-05-2.88943E-05 8.29961E-07-7.24081E-19-1.63687E-18
 -1      3091 9.55292E-05-2.87313E-05-2.86246E-05 1.08752E-06-7.98731E-19-1.20720E-18
 -1      3092 9.55154E-05-2.87894E-05-2.85964E-05 1.10017E-06-8.18147E-19-1.23926E-18
 -1      3093 9.58400E-05-2.87553E-05-2.87536E-05 1.00154E-06-5.82414E-19-1.11995E-18
 -1      3094 9.54708E-05-2.88183E-05-2.85639E-05 1.09396E-06-8.65907E-19-1.29684E-18
 -1      3095 9.54641E-05-2.88424E-05-2.85511E-05 1.07269E-06-5.90376E-19-1.05268E-18
 -1      3096 9.57578E-05-2.88858E-05-2.86619E-05 1.04984E-06-8.18766E-19-8.16363E-19
 -1      3097 9.54207E-05-2.88409E-05-2.85338E-05 1.04345E-06-6.14435E-19-1.11861E-18
 -1      3098 9.54191E-05-2.88411E-05-2.85320E-05 1.00755E-06-5.24210E-19-1.07077E-18
 -1      3099 9.56732E-05-2.89283E-05-2.86070E-05 1.02646E-06-6.64399E-19-8.62874E-19
 -1      3100 9.53783E-05-2.88187E-05-2.85259E-05 9.71223E-07-4.52214E-19-9.14803E-19
 -1      3101 9.53804E-05-2.88015E-05-2.85320E-05 9.34695E-07-2.96204E-19-8.90869E-19
 -1      3102 9.55914E-05-2.89098E-05-2.85794E-05 9.69901E-07-3.37380E-19-6.15852E-19
 -1      3103 9.53423E-05-2.87641E-05-2.85344E-05 9.03058E-07-2.90906E-19-8.95029E-19
 -1      3104 9.53472E-05-2.87340E-05-2.85465E-05 8.76269E-07-1.48604E-19-6.77492E-19
 -1      3105 9.55141E-05-2.88480E-05-2.85724E-05 9.08704E-07-8.66405E-20-4.58944E-19
 -1      3106 9.53110E-05-2.86849E-05-2.85554E-05 8.58236E-07 9.86954E-20-8.17926E-19
 -1      3107 9.53182E-05-2.86446E-05-2.85722E-05 8.49128E-07 1.39063E-19-4.68278E-19
 -1      3108 9.54409E-05-2.87540E-05-2.85811E-05 8.64208E-07-2.26180E-19-8.33272E-19
 -1      3109 9.52829E-05-2.85856E-05-2.85862E-05 8.51775E-07-2.98193E-19-6.60673E-19
 -1      3110 9.52922E-05-2.85366E-05-2.86071E-05 8.66776E-07-7.82049E-19-6.97950E-19
 -1      3111 9.53702E-05-2.86342E-05-2.86018E-05 8.52905E-07-4.31372E-19-1.02805E-18
 -1      3112 9.52563E-05-2.84685E-05-2.86254E-05 8.96091E-07-8.92249E-19-6.08227E-19
 -1      3113 9.52682E-05-2.84116E-05-2.86500E-05 9.40728E-07-8.55112E-19-6.08026E-19
 -1      3114 9.52994E-05-2.84917E-05-2.86323E-05 8.88229E-07-7.90113E-19-1.23038E-18
 -1      3115 9.52303E-05-2.83345E-05-2.86720E-05 1.00211E-06-9.29545E-19-3.55999E-19
 -1      3116 9.52457E-05-2.82708E-05-2.87004E-05 1.08134E-06-1.02468E-18-5.53391E-19
 -1      3117 9.52257E-05-2.83280E-05-2.86707E-05 9.81835E-07-7.98931E-19-6.57415E-19
 -1      3118 9.52045E-05-2.81850E-05-2.87253E-05 1.17986E-06-8.88709E-19-4.32367E-19
 -1      3119 9.52251E-05-2.81160E-05-2.87575E-05 1.29810E-06-6.09482E-19-4.61035E-19
 -1      3120 9.51466E-05-2.81438E-05-2.87156E-05 1.14439E-06-6.24807E-19-1.69204E-19
 -1      3121 9.51803E-05-2.80229E-05-2.87848E-05 1.43851E-06 5.45837E-21-3.60249E-19
 -1      3122 9.52087E-05-2.79515E-05-2.88205E-05 1.59939E-06 5.12057E-19-1.33336E-21
 -1      3123 9.50605E-05-2.79411E-05-2.87654E-05 1.38586E-06-1.98049E-19 1.71766E-19
 -1      3124 9.51614E-05-2.78545E-05-2.88491E-05 1.78583E-06 1.71590E-19 2.85409E-19
 -1      3125 9.52021E-05-2.77865E-05-2.88879E-05 1.99155E-06 2.20334E-19 2.76278E-19
 -1      3126 9.49680E-05-2.77252E-05-2.88182E-05 1.71532E-06 3.19222E-19 2.06239E-19
 -1      3127 9.51559E-05-2.76924E-05-2.89164E-05 2.22696E-06 2.93593E-19 2.01601E-19
 -1      3128 9.52160E-05-2.76374E-05-2.89572E-05 2.47721E-06 4.51146E-19-2.13550E-19
 -1      3129 9.48736E-05-2.75076E-05-2.88712E-05 2.14015E-06 3.06479E-19-8.71714E-20
 -1      3130 9.51789E-05-2.75586E-05-2.89835E-05 2.76235E-06 4.01797E-19-1.15791E-19
 -1      3131 9.52692E-05-2.75324E-05-2.90245E-05 3.05275E-06 3.24572E-19-1.93748E-19
 -1      3132 9.47889E-05-2.73089E-05-2.89203E-05 2.66465E-06 4.82470E-19-5.64313E-21
 -1      3133 9.52561E-05-2.74888E-05-2.90458E-05 3.38471E-06-1.71505E-19 2.64866E-19
 -1      3134 9.53936E-05-2.75155E-05-2.90847E-05 3.70461E-06-4.99545E-21 6.07319E-19
 -1      3135 9.47359E-05-2.71641E-05-2.89604E-05 3.28784E-06 5.60535E-19 4.20031E-19
 -1      3136 9.54293E-05-2.75377E-05-2.90977E-05 4.07474E-06-2.32816E-19 3.27923E-19
 -1      3137 9.56396E-05-2.76522E-05-2.91313E-05 4.40434E-06-3.56390E-19 2.68274E-19
 -1      3138 9.47532E-05-2.71277E-05-2.89850E-05 4.00034E-06-2.32126E-19 7.10763E-19
 -1      3139 9.57635E-05-2.77838E-05-2.91327E-05 4.79515E-06-5.62807E-19-3.96566E-19
 -1      3140 9.60831E-05-2.80333E-05-2.91581E-05 5.10174E-06-6.07700E-19-6.21400E-19
 -1      3141 9.49039E-05-2.72802E-05-2.89869E-05 4.77984E-06-6.19766E-19-4.13134E-19
 -1      3142 9.63543E-05-2.83332E-05-2.91458E-05 5.48220E-06-1.56319E-19-8.09580E-19
 -1      3143 9.68329E-05-2.87766E-05-2.91617E-05 5.71542E-06 1.72936E-20-8.13864E-19
 -1      3144 9.52843E-05-2.77324E-05-2.89606E-05 5.58417E-06-2.07149E-19-9.97827E-19
 -1      3145 9.73340E-05-2.93158E-05-2.91374E-05 6.03346E-06-3.33019E-19-5.14416E-19
 -1      3146 9.80317E-05-3.00163E-05-2.91463E-05 6.11953E-06-3.46767E-19-5.93784E-19
 -1      3147 9.60339E-05-2.86271E-05-2.89053E-05 6.34006E-06 2.67259E-19-9.12091E-19
 -1      3148 9.88684E-05-3.08681E-05-2.91194E-05 6.29004E-06-3.79874E-19-3.86098E-19
 -1      3149 9.98440E-05-3.18726E-05-2.91324E-05 6.12590E-06-3.46887E-19-2.32607E-19
 -1      3150 9.73401E-05-3.01269E-05-2.88322E-05 6.92410E-06-2.32133E-19-1.04592E-18
 -1      3151 1.01131E-04-3.30829E-05-2.91263E-05 6.01361E-06-1.61091E-19-3.08828E-19
 -1      3152 1.02410E-04-3.43771E-05-2.91685E-05 5.46525E-06 7.01830E-19-1.73863E-19
 -1      3153 9.94264E-05-3.23762E-05-2.87752E-05 7.13200E-06-3.49015E-19 4.23947E-20
 -1      3154 1.04227E-04-3.59042E-05-2.92297E-05 4.86818E-06 5.93780E-19-3.05630E-19
 -1      3155 1.05742E-04-3.73317E-05-2.93460E-05 3.78654E-06 9.98639E-19 8.05045E-20
 -1      3156 1.02500E-04-3.54065E-05-2.88065E-05 6.63714E-06 6.55360E-19 9.02441E-19
 -1      3157 1.08034E-04-3.89405E-05-2.95525E-05 2.44823E-06 1.65976E-18 3.34734E-19
 -1      3158 1.09537E-04-4.00914E-05-2.98091E-05 7.34400E-07 1.52296E-18 1.10562E-18
 -1      3159 1.06613E-04-3.89496E-05-2.90576E-05 4.96650E-06 1.66913E-18 4.46084E-19
 -1      3160 1.11950E-04-4.12167E-05-3.02697E-05-1.54877E-06 9.30436E-19 1.38557E-18
 -1      3161 1.12955E-04-4.13463E-05-3.07393E-05-3.78955E-06 1.70207E-19 1.29397E-18
 -1      3162 1.11408E-04-4.21468E-05-2.97326E-05 1.57681E-06 1.34125E-18 9.08712E-20
 -1      3163 1.14688E-04-4.10835E-05-3.15571E-05-6.77052E-06-1.86744E-20 1.56201E-18
 -1      3164 1.14660E-04-3.93728E-05-3.22815E-05-8.97396E-06 4.01560E-19 1.70292E-18
 -1      3165 1.15706E-04-4.32209E-05-3.10787E-05-3.71089E-06 2.22560E-19 6.90373E-19
 -1      3166 1.14581E-04-3.66950E-05-3.34968E-05-1.16089E-05-2.57018E-19 1.12804E-18
 -1      3167 1.13249E-04-3.29388E-05-3.44031E-05-1.24386E-05-5.81065E-19 1.32467E-18
 -1      3168 1.17650E-04-3.99626E-05-3.32448E-05-9.92967E-06-2.09965E-19 9.20897E-19
 -1      3169 1.11326E-04-2.83711E-05-3.57494E-05-1.28681E-05-1.29225E-18 1.17412E-18
 -1      3170 1.09245E-04-2.39353E-05-3.65619E-05-1.12118E-05-1.27473E-18 1.01529E-18
 -1      3171 1.15874E-04-3.19128E-05-3.60504E-05-1.32813E-05-1.46194E-18-8.76547E-20
 -1      3172 1.07223E-04-2.00774E-05-3.75085E-05-7.85133E-06-1.56706E-18 5.81034E-19
 -1      3173 1.06104E-04-1.79542E-05-3.78478E-05-4.03310E-06-2.13423E-18-3.36451E-19
 -1      3174 1.11356E-04-2.13164E-05-3.87415E-05-1.04479E-05-1.77914E-18-4.98426E-20
 -1      3175 1.06093E-04-1.78666E-05-3.78751E-05 1.37357E-06-1.61546E-18-1.00152E-18
 -1      3176 1.06961E-04-1.97532E-05-3.75540E-05 5.22413E-06-6.81729E-19-1.60908E-18
 -1      3177 1.08857E-04-1.61613E-05-3.99095E-05-1.31908E-06-2.19652E-18 1.70386E-19
 -1      3178 1.09137E-04-2.36498E-05-3.66397E-05 8.90622E-06-1.71921E-20-1.73204E-18
 -1      3179 1.11174E-04-2.80739E-05-3.58218E-05 1.05039E-05-3.47866E-19-1.33606E-18
 -1      3180 1.11210E-04-2.07162E-05-3.89128E-05 8.19629E-06-5.60630E-20-9.93265E-19
 -1      3181 1.13135E-04-3.26665E-05-3.44764E-05 1.04585E-05-5.05679E-19-2.01223E-19
 -1      3182 1.14654E-04-3.67093E-05-3.35365E-05 9.67352E-06-4.93102E-19 4.53427E-20
 -1      3183 1.15834E-04-3.11432E-05-3.63323E-05 1.12773E-05 5.15737E-19-5.19919E-19
 -1      3184 1.14936E-04-3.95888E-05-3.22997E-05 6.82270E-06-1.51506E-18-5.08771E-19
 -1      3185 1.14932E-04-4.13710E-05-3.15522E-05 4.60281E-06-1.67271E-18-9.66880E-19
 -1      3186 1.18303E-04-4.06046E-05-3.33119E-05 7.69720E-06-1.43212E-18-1.24777E-18
 -1      3187 1.13393E-04-4.17741E-05-3.07314E-05 1.53982E-06-1.32687E-18-8.06219E-19
 -1      3188 1.12346E-04-4.16669E-05-3.02524E-05-8.17024E-07-7.43753E-19-4.40818E-19
 -1      3189 1.16461E-04-4.36239E-05-3.11913E-05 1.59248E-06-1.07251E-18-1.50216E-18
 -1      3190 1.09941E-04-4.04967E-05-2.98117E-05-3.26072E-06-7.12228E-19-6.02957E-20
 -1      3191 1.08341E-04-3.92044E-05-2.95704E-05-5.05109E-06-4.80336E-19-1.03131E-18
 -1      3192 1.12362E-04-4.27849E-05-2.98626E-05-4.04477E-06-4.61310E-19-1.61726E-18
 -1      3193 1.05967E-04-3.73967E-05-2.94186E-05-6.46914E-06-1.78612E-19-5.70182E-19
 -1      3194 1.04267E-04-3.56802E-05-2.93478E-05-7.52911E-06 3.88450E-19 4.05302E-20
 -1      3195 1.07488E-04-3.93154E-05-2.92739E-05-7.65251E-06-1.42453E-20-9.45993E-19
 -1      3196 1.02561E-04-3.40449E-05-2.93820E-05-7.91330E-06 6.18662E-19 3.88217E-19
 -1      3197 1.01050E-04-3.23536E-05-2.94084E-05-8.32976E-06 1.15256E-18 3.80486E-19
 -1      3198 1.00377E-04-3.18862E-05-2.93610E-05-9.29859E-06 1.16076E-19-7.57426E-19
 -1      3199 1.03395E-04-3.53467E-05-2.91935E-05-9.14120E-06 1.10221E-18 7.55500E-19
 -1      3200 9.53714E-05-2.79560E-05-2.88963E-05-4.67282E-07 1.19674E-18-1.86376E-18
 -1      3201 9.54259E-05-2.76990E-05-2.90127E-05-1.35953E-07 1.24167E-18-1.60467E-18
 -1      3202 1.38952E-04-5.16280E-05-3.75961E-05-7.18123E-06-1.61267E-19-1.08505E-18
 -1      3203 9.52299E-05-2.87497E-05-2.84904E-05-1.10375E-06 8.46272E-19-1.36167E-18
 -1      3204 9.52155E-05-2.87199E-05-2.84967E-05-1.12818E-06 1.01704E-18-1.43630E-18
 -1      3205 9.52466E-05-2.86893E-05-2.85240E-05-1.13472E-06 8.79873E-19-1.57548E-18
 -1      3206 9.52420E-05-2.86299E-05-2.85449E-05-1.12368E-06 6.33853E-19-1.50072E-18
 -1      3207 9.55294E-05-2.87980E-05-2.86019E-05-1.10393E-06 7.88050E-19-1.16380E-18
 -1      3208 9.52240E-05-2.87426E-05-2.84903E-05-9.49766E-07 3.23028E-19-1.02735E-18
 -1      3209 9.52002E-05-2.87491E-05-2.84795E-05-9.91205E-07 7.21784E-19-1.41723E-18
 -1      3210 9.52305E-05-2.86973E-05-2.85122E-05-8.80838E-07-2.46848E-19-5.31082E-19
 -1      3211 9.52045E-05-2.87156E-05-2.84963E-05-9.13043E-07-2.40000E-20-7.05740E-19
 -1      3212 9.53870E-05-2.88035E-05-2.85370E-05-9.41998E-07-3.46144E-20-1.08151E-18
 -1      3213 9.52413E-05-2.86319E-05-2.85446E-05-8.42601E-07-1.48324E-19-6.81861E-19
 -1      3214 9.52134E-05-2.86598E-05-2.85244E-05-8.57314E-07-1.63841E-19-3.34198E-19
 -1      3215 9.53513E-05-2.87317E-05-2.85522E-05-8.86421E-07-2.63127E-19-7.05870E-19
 -1      3216 9.52556E-05-2.85482E-05-2.85863E-05-8.49610E-07 2.21410E-19-5.04136E-19
 -1      3217 9.52255E-05-2.85850E-05-2.85619E-05-8.39851E-07 1.45987E-19-5.39911E-19
 -1      3218 9.53188E-05-2.86355E-05-2.85793E-05-8.64083E-07-5.53329E-20-4.59602E-19
 -1      3219 9.52726E-05-2.84460E-05-2.86370E-05-9.15012E-07 3.54193E-19-3.33466E-19
 -1      3220 9.52395E-05-2.84916E-05-2.86082E-05-8.74278E-07 2.82298E-19-3.51039E-19
 -1      3221 9.52867E-05-2.85162E-05-2.86165E-05-8.89690E-07 1.75255E-19-1.34772E-19
 -1      3222 9.52913E-05-2.83227E-05-2.86973E-05-1.05186E-06 6.64348E-20 1.22600E-20
 -1      3223 9.52541E-05-2.83781E-05-2.86635E-05-9.73499E-07 2.85546E-19-2.68601E-19
 -1      3224 9.52517E-05-2.83720E-05-2.86631E-05-9.76593E-07 7.15815E-20-4.15451E-20
 -1      3225 9.53103E-05-2.81743E-05-2.87684E-05-1.27404E-06 2.08772E-19-3.91817E-19
 -1      3226 9.52678E-05-2.82412E-05-2.87286E-05-1.15083E-06 4.22409E-19-7.43258E-20
 -1      3227 9.52093E-05-2.81989E-05-2.87189E-05-1.13800E-06 3.87409E-19-3.52426E-19
 -1      3228 9.53269E-05-2.79954E-05-2.88514E-05-1.59685E-06 5.35047E-19-7.98193E-19
 -1      3229 9.52782E-05-2.80758E-05-2.88045E-05-1.42074E-06 3.68991E-19-4.51576E-19
 -1      3230 9.51533E-05-2.79908E-05-2.87838E-05-1.38776E-06 4.69744E-19-8.45945E-19
 -1      3231 9.53369E-05-2.77798E-05-2.89472E-05-2.03722E-06 6.70077E-19-7.05190E-19
 -1      3232 9.52813E-05-2.78758E-05-2.88924E-05-1.79927E-06 5.17789E-19-5.38520E-19
 -1      3233 9.50756E-05-2.77400E-05-2.88575E-05-1.74078E-06 4.75097E-19-8.56323E-19
 -1      3234 9.53338E-05-2.75211E-05-2.90557E-05-2.61338E-06 5.12624E-19-3.06954E-19
 -1      3235 9.52715E-05-2.76348E-05-2.89926E-05-2.30403E-06 7.43238E-19-2.31780E-19
 -1      3236 9.49652E-05-2.74376E-05-2.89391E-05-2.21308E-06 6.09134E-19-4.98363E-20
 -1      3237 9.53089E-05-2.72150E-05-2.91752E-05-3.34406E-06 6.41838E-19 2.07410E-19
 -1      3238 9.52403E-05-2.73469E-05-2.91040E-05-2.95370E-06 5.13150E-19-3.13532E-19
 -1      3239 9.48079E-05-2.70754E-05-2.90260E-05-2.82136E-06 4.77412E-19 2.89943E-19
 -1      3240 9.52518E-05-2.68624E-05-2.93007E-05-4.24685E-06 1.12789E-19 5.92538E-19
 -1      3241 9.51776E-05-2.70094E-05-2.92234E-05-3.76701E-06 4.72582E-19 5.55966E-19
 -1      3242 9.45861E-05-2.66477E-05-2.91129E-05-3.58231E-06 3.43882E-19 1.05533E-18
 -1      3243 9.51539E-05-2.64771E-05-2.94227E-05-5.33571E-06 2.52712E-20 2.45509E-19
 -1      3244 9.50727E-05-2.66286E-05-2.93435E-05-4.76098E-06 2.77961E-19 5.04690E-19
 -1      3245 9.42801E-05-2.61564E-05-2.91905E-05-4.51161E-06 2.10202E-19 1.65062E-18
 -1      3246 9.50166E-05-2.60984E-05-2.95248E-05-6.61757E-06-5.84323E-19 1.91879E-19
 -1      3247 9.49200E-05-2.62287E-05-2.94513E-05-5.94848E-06-7.47305E-20 1.29114E-19
 -1      3248 9.38725E-05-2.56197E-05-2.92438E-05-5.62306E-06 1.40518E-19 1.05248E-18
 -1      3249 9.48695E-05-2.58134E-05-2.95817E-05-8.08812E-06-3.25259E-19-1.35540E-19
 -1      3250 9.47317E-05-2.58691E-05-2.95262E-05-7.33522E-06-4.93971E-19-2.59950E-19
 -1      3251 9.33580E-05-2.50876E-05-2.92496E-05-6.92898E-06 7.94933E-20 2.44527E-19
 -1      3252 9.48038E-05-2.57927E-05-2.95588E-05-9.72686E-06-6.88302E-19-4.30251E-19
 -1      3253 9.45623E-05-2.56735E-05-2.95378E-05-8.91643E-06-1.97381E-19-4.48732E-19
 -1      3254 9.27638E-05-2.46675E-05-2.91745E-05-8.44299E-06-3.48698E-19 6.12742E-19
 -1      3255 9.50319E-05-2.63421E-05-2.94144E-05-1.14897E-05-1.02041E-18-2.07766E-19
 -1      3256 9.45551E-05-2.58726E-05-2.94466E-05-1.06724E-05-8.95993E-19-3.48472E-19
 -1      3257 9.21886E-05-2.45643E-05-2.89754E-05-1.01869E-05-6.29640E-19 2.82318E-19
 -1      3258 9.59796E-05-2.79618E-05-2.91135E-05-1.32883E-05-4.58073E-19 3.88514E-20
 -1      3259 9.50186E-05-2.68631E-05-2.92111E-05-1.25570E-05-6.17749E-19-1.62967E-19
 -1      3260 9.18691E-05-2.51390E-05-2.86027E-05-1.21997E-05-9.21982E-19 4.01678E-19
 -1      3261 9.84048E-05-3.13830E-05-2.86625E-05-1.49239E-05-7.01299E-19 7.60244E-19
 -1      3262 9.65395E-05-2.92657E-05-2.88077E-05-1.44667E-05-6.53530E-19 3.68018E-19
 -1      3263 9.22817E-05-2.69717E-05-2.80160E-05-1.45308E-05-8.54478E-19-6.58121E-20
 -1      3264 1.03510E-04-3.74908E-05-2.82091E-05-1.58426E-05-1.18351E-18 9.56505E-19
 -1      3265 1.00199E-04-3.40077E-05-2.82924E-05-1.61051E-05-4.78504E-19 1.04833E-18
 -1      3266 9.43175E-05-3.09149E-05-2.72202E-05-1.72785E-05-1.17993E-18 5.75248E-19
 -1      3267 1.12372E-04-4.63314E-05-2.82199E-05-1.47234E-05-1.86866E-18 5.27986E-19
 -1      3268 1.07284E-04-4.15929E-05-2.79755E-05-1.63837E-05-1.36696E-18 1.25568E-18
 -1      3269 9.97251E-05-3.82578E-05-2.64205E-05-2.00635E-05-1.20134E-18 5.13659E-19
 -1      3270 1.24739E-04-5.57921E-05-2.94491E-05-1.07547E-05-2.21579E-18-6.42924E-19
 -1      3271 1.18300E-04-5.17079E-05-2.82484E-05-1.45686E-05-2.47325E-18-5.09967E-19
 -1      3272 1.27330E-04-2.93245E-05-4.25395E-05-1.60686E-05 9.33219E-19 4.62162E-19
 -1      3273 1.35159E-04-3.45807E-05-4.33713E-05-1.66480E-05 1.12655E-19-1.61084E-18
 -1      3274 1.04928E-04-3.82861E-05-2.84082E-05 1.84618E-05 1.28574E-19-8.67679E-19
 -1      3275 1.09294E-04-4.22883E-05-2.85997E-05 1.70004E-05 1.33390E-18-1.73398E-18
 -1      3276 9.93801E-05-3.18816E-05-2.88271E-05 1.80136E-05-2.89813E-19-7.36184E-19
 -1      3277 1.01882E-04-3.48259E-05-2.87048E-05 1.79625E-05 5.56567E-19-9.32358E-19
 -1      3278 9.91342E-05-3.55998E-05-2.73611E-05 2.10117E-05-2.32193E-19 8.90999E-19
 -1      3279 1.26973E-04-6.17425E-05-2.78366E-05 2.14872E-05 1.62710E-18-3.67999E-18
 -1      3280 1.16519E-04-5.71792E-05-2.54869E-05 2.60643E-05 1.74939E-18-2.17206E-18
 -1      3281 9.00433E-05-2.40887E-05-2.81968E-05-1.27003E-05 4.19778E-19 3.15632E-19
 -1      3282 8.76460E-05-2.24709E-05-2.80061E-05-1.14896E-05 1.22100E-18 2.72602E-19
 -1      3283 4.60962E-05-1.41491E-05-1.33488E-05-7.36084E-06 6.12722E-19 3.51349E-18
 -1      3284 5.03731E-05-1.83498E-05-1.31541E-05-2.14553E-05 1.26155E-19 1.66336E-18
 -1      3285 9.80310E-05-2.99855E-05-2.91247E-05-1.16799E-05 1.77723E-18 1.18611E-18
 -1      3286 9.66016E-05-2.89887E-05-2.89909E-05-1.24625E-05 1.91083E-18-5.16198E-19
 -1      3287 8.50847E-05-2.02813E-05-2.77171E-05-9.42194E-06 1.42271E-18-1.79492E-18
 -1      3288 8.31394E-05-1.89612E-05-2.75778E-05-6.96426E-06 2.28835E-18-3.43607E-18
 -1      3289 8.54666E-05-2.23047E-05-2.70619E-05-1.19062E-05 2.03231E-18-9.32838E-19
 -1      3290 1.04078E-04-5.05932E-05-2.27430E-05 3.20526E-05 1.59269E-18 2.20017E-19
 -1      3291 9.13777E-05-4.28024E-05-2.04149E-05 3.35438E-05 6.60845E-19 1.12248E-18
 -1      3292 9.37090E-05-2.04199E-05-3.13843E-05-5.69028E-06-2.18026E-18-2.71900E-18
 -1      3293 4.93522E-05-1.83577E-05-1.27140E-05 2.08714E-05-2.97150E-19 2.58430E-18
 -1      3294 4.56788E-05-1.43260E-05-1.31793E-05 8.67214E-06 1.30496E-20 3.46458E-18
 -1      3295 6.00556E-05-2.21054E-05-1.58360E-05 2.34849E-05 4.54751E-20 3.19612E-18
 -1      3296 9.47428E-05-2.76288E-05-2.87079E-05-1.31976E-05 1.51483E-18 4.16499E-19
 -1      3297 9.25992E-05-2.61484E-05-2.85253E-05-1.31502E-05 6.60143E-19 1.20625E-18
 -1      3298 9.13599E-05-2.66605E-05-2.77669E-05-1.43439E-05 1.43081E-18 5.82968E-19
 -1      3299 9.64351E-05-3.01406E-05-2.84561E-05-1.37975E-05 1.32697E-18 4.39284E-19
 -1      3300 4.60610E-05-1.73328E-05-1.16357E-05-1.86902E-05-2.54486E-18-4.62904E-18
 -1      3301 5.74352E-05-2.38190E-05-1.44034E-05-2.65817E-05-2.37005E-18-2.05787E-18
 -1      3302 4.80833E-05-1.52246E-05-1.36074E-05-1.27910E-05-1.98838E-18-4.08238E-18
 -1      3303 9.11466E-05-4.45346E-05-1.97525E-05-3.59088E-05 7.91870E-19 2.01806E-19
 -1      3304 1.03136E-04-5.13525E-05-2.21842E-05-3.41906E-05 1.38416E-18 1.04926E-18
 -1      3305 1.10103E-04-5.21795E-05-2.46094E-05-2.74825E-05 1.69248E-19-1.38948E-19
 -1      3306 1.09711E-04-4.62929E-05-2.69972E-05 2.09806E-05 2.07020E-18-1.96293E-18
 -1      3307 1.15511E-04-5.11609E-05-2.75041E-05 1.86253E-05 2.45269E-18-2.08586E-18
 -1      3308 9.54123E-05-2.73479E-05-2.91775E-05 2.81332E-07 1.51044E-18-1.71959E-18
 -1      3309 9.54747E-05-2.69413E-05-2.93561E-05 8.41464E-07 1.79550E-18-1.59421E-18
 -1      3310 9.56939E-05-2.73359E-05-2.93016E-05 2.31436E-07 1.42877E-18-1.54387E-18
 -1      3311 1.23536E-04-2.46301E-05-4.29815E-05-1.38241E-05-2.63284E-18 1.80508E-18
 -1      3312 1.27698E-04-3.34961E-05-4.03752E-05-1.38018E-05-1.12888E-18 2.31150E-18
 -1      3313 1.30075E-04-5.76997E-05-3.08024E-05-1.10337E-05-8.15574E-19-2.39594E-18
 -1      3314 1.31809E-04-5.35365E-05-3.39500E-05-2.13504E-06-1.17295E-18-2.18386E-18
 -1      3315 9.52232E-05-2.87629E-05-2.84815E-05-1.03172E-06 9.22772E-19-1.45603E-18
 -1      3316 9.52028E-05-2.87541E-05-2.84777E-05-1.07180E-06 9.44367E-19-1.18956E-18
 -1      3317 9.54752E-05-2.88492E-05-2.85561E-05-1.07725E-06 8.28439E-19-1.14997E-18
 -1      3318 9.54279E-05-2.88458E-05-2.85367E-05-1.01317E-06 5.69656E-19-9.88121E-19
 -1      3319 7.89871E-05-3.72910E-05-1.77580E-05 3.54361E-05 2.98240E-18-1.86321E-18
 -1      3320 6.35806E-05-2.84117E-05-1.44384E-05 3.35572E-05 2.41944E-18-2.13791E-18
 -1      3321 1.30798E-04-4.53342E-05-3.65463E-05 7.24835E-06-1.11935E-18-3.30809E-18
 -1      3322 1.27669E-04-3.72783E-05-3.92709E-05 1.08862E-05-1.13029E-18-3.51397E-18
 -1      3323 1.30947E-04-5.79305E-05-3.08822E-05-6.88055E-06-1.82983E-18-4.50794E-19
 -1      3324 1.36662E-04-5.97379E-05-3.31552E-05-1.97551E-06-1.06213E-18-1.03550E-19
 -1      3325 1.17685E-04-1.21850E-05-4.57127E-05-6.52661E-06-2.27651E-18-3.13051E-19
 -1      3326 1.19281E-04-1.63407E-05-4.44058E-05-1.13403E-05-2.91866E-18 7.82447E-19
 -1      3327 1.30325E-04-4.41980E-05-3.75082E-05-8.82236E-06-9.92299E-19 2.69881E-18
 -1      3328 1.31187E-04-5.09595E-05-3.41337E-05-1.87351E-06 1.20551E-18 1.35224E-18
 -1      3329 1.09390E-04-5.34069E-05-2.42008E-05 2.83332E-05 3.75633E-18 4.01824E-19
 -1      3330 9.61208E-05-4.64595E-05-2.09874E-05 3.30876E-05 3.86956E-18-1.38035E-18
 -1      3331 9.52039E-05-2.42722E-05-3.04020E-05 4.27823E-06 2.70093E-18-1.76318E-18
 -1      3332 9.46381E-05-2.27189E-05-3.08063E-05 4.79365E-06 2.61749E-18-2.03287E-18
 -1      3333 9.49654E-05-2.36006E-05-3.05659E-05 3.70422E-06 2.25420E-18-2.02988E-18
 -1      3334 9.52393E-05-2.52043E-05-3.00286E-05 2.99624E-06 2.47500E-18-1.76082E-18
 -1      3335 1.27251E-04-5.63605E-05-3.08668E-05 9.65319E-06 2.30118E-18 7.08728E-19
 -1      3336 1.20314E-04-5.59905E-05-2.71840E-05 1.93498E-05 2.60563E-18 1.40123E-18
 -1      3337 9.47783E-05-2.29614E-05-3.07961E-05-4.23037E-06-1.88804E-18-2.42784E-18
 -1      3338 9.52006E-05-2.46316E-05-3.02455E-05-2.56368E-06-1.70424E-18-2.20811E-18
 -1      3339 9.40218E-05-2.14019E-05-3.11189E-05-3.94123E-06-1.61165E-18-2.87615E-18
 -1      3340 9.55344E-05-2.56091E-05-2.99690E-05-2.03646E-06-1.50216E-18-1.95474E-18
 -1      3341 9.55800E-05-2.62740E-05-2.97121E-05-1.22434E-06-1.37679E-18-1.77719E-18
 -1      3342 9.57685E-05-2.62268E-05-2.98009E-05-1.07407E-06-1.32202E-18-1.91289E-18
 -1      3343 9.53479E-05-2.45853E-05-3.03165E-05-2.12567E-06-1.29416E-18-2.32974E-18
 -1      3344 1.24000E-04-2.70676E-05-4.17134E-05 1.27750E-05-5.91758E-19-1.68422E-18
 -1      3345 1.18550E-04-1.80373E-05-4.35600E-05 9.70108E-06-3.97682E-19-3.35954E-19
 -1      3346 7.27210E-05-3.13405E-05-1.71351E-05-3.03406E-05-2.02446E-18-2.24570E-19
 -1      3347 8.81215E-05-4.07176E-05-2.02203E-05-3.07145E-05-1.46336E-18-1.36002E-19
 -1      3348 9.23827E-05-1.83482E-05-3.17443E-05 1.81373E-06 8.76587E-19-3.66504E-18
 -1      3349 9.22633E-05-1.81477E-05-3.17762E-05 1.05725E-06 4.58010E-19-3.84481E-18
 -1      3350 9.14605E-05-2.28741E-05-2.93663E-05 1.39232E-05-1.48773E-18-2.35902E-20
 -1      3351 1.32272E-04-5.98973E-05-3.08580E-05 1.06589E-05 1.45737E-18-4.06999E-18
 -1      3352 9.22114E-05-1.80534E-05-3.17943E-05 4.09399E-07 2.10233E-19-3.83900E-18
 -1      3353 9.22062E-05-1.80706E-05-3.17930E-05-3.71592E-07-1.39594E-19-3.82063E-18
 -1      3354 9.31549E-05-1.96289E-05-3.14940E-05 6.31754E-07 3.33371E-19-3.55109E-18
 -1      3355 1.23896E-04-5.60855E-05-2.90753E-05-1.46038E-05-7.67332E-19-1.46291E-18
 -1      3356 1.25499E-04-3.84986E-05-3.74389E-05-1.17199E-05-1.04084E-18 2.27884E-18
 -1      3357 6.02009E-05-2.24049E-05-1.57883E-05-2.38300E-05-4.73650E-19 1.55462E-18
 -1      3358 1.14061E-04-5.26777E-05-2.61849E-05 2.09483E-05 3.01991E-18 1.85288E-22
 -1      3359 1.26232E-04-1.98364E-05-4.64579E-05 1.17439E-05 2.67662E-18 2.37302E-18
 -1      3360 9.53823E-05-2.64945E-05-2.95306E-05 1.37686E-06 1.93902E-18-1.75756E-18
 -1      3361 9.54324E-05-2.58881E-05-2.97901E-05 2.25090E-06 2.17366E-18-1.72669E-18
 -1      3362 9.53567E-05-2.52336E-05-3.00698E-05 2.60483E-06 2.21094E-18-1.73365E-18
 -1      3363 9.55833E-05-2.64025E-05-2.96536E-05 1.24545E-06 1.89328E-18-1.63346E-18
 -1      3364 7.84507E-05-3.41409E-05-1.88913E-05-3.24020E-05 6.59362E-19 3.09855E-19
 -1      3365 8.54195E-05-4.00061E-05-1.91296E-05-3.53633E-05 7.24848E-19-2.07152E-19
 -1      3366 9.49511E-05-4.33398E-05-2.20633E-05-3.16546E-05 8.12225E-19 4.46175E-19
 -1      3367 8.89752E-05-4.12900E-05-2.01470E-05 3.32785E-05 3.22508E-18-1.47627E-18
 -1      3368 8.07303E-05-3.42759E-05-1.97653E-05 3.05190E-05 2.73510E-18-9.11355E-19
 -1      3369 9.62904E-05-4.36379E-05-2.26089E-05 2.84646E-05 3.14853E-18-4.57080E-19
 -1      3370 9.55889E-05-2.86681E-05-2.86838E-05-1.05186E-06 5.89129E-19-1.56098E-18
 -1      3371 9.52760E-05-2.85610E-05-2.85924E-05-1.08176E-06 4.01940E-19-1.49415E-18
 -1      3372 9.52863E-05-2.84594E-05-2.86345E-05-1.00759E-06 5.27198E-19-1.70194E-18
 -1      3373 1.08584E-04-4.83882E-05-2.58890E-05-2.16720E-05-1.62077E-18 3.84672E-19
 -1      3374 9.34328E-05-2.02783E-05-3.13631E-05-3.00341E-06-1.10163E-18-3.40935E-18
 -1      3375 9.37573E-05-2.09032E-05-3.12527E-05-3.56945E-06-1.38505E-18-3.32448E-18
 -1      3376 9.48406E-05-2.30864E-05-3.07294E-05-2.39631E-06-1.27291E-18-3.03345E-18
 -1      3377 5.39942E-05-1.47722E-05-1.65656E-05 6.50330E-06 1.16921E-19 3.87412E-18
 -1      3378 4.90397E-05-1.35866E-05-1.46046E-05-1.20491E-07 1.81550E-20 4.56424E-18
 -1      3379 5.43526E-05-1.49164E-05-1.67808E-05-7.75729E-06 1.03969E-18 3.50677E-18
 -1      3380 9.72777E-05-2.97024E-05-2.89153E-05 1.73838E-05-1.20047E-19-5.59533E-19
 -1      3381 9.42354E-05-2.94191E-05-2.78864E-05 1.90640E-05-8.72651E-20-4.73720E-19
 -1      3382 9.53512E-05-2.77059E-05-2.88804E-05 1.71711E-05-3.34974E-19-6.88728E-19
 -1      3383 1.12992E-04-5.37690E-05-2.55043E-05 2.53652E-05 1.67903E-18-2.17409E-18
 -1      3384 9.25286E-05-4.02818E-05-2.22806E-05 3.02918E-05 8.22257E-19 2.56656E-18
 -1      3385 8.50556E-05-3.85906E-05-1.96790E-05 3.34849E-05-2.85874E-19 2.87838E-18
 -1      3386 7.75102E-05-3.22410E-05-1.92038E-05 3.05897E-05-1.16996E-20 2.50086E-18
 -1      3387 9.17727E-05-2.40264E-05-2.89748E-05 1.52261E-05-2.00458E-18 2.05372E-20
 -1      3388 9.29906E-05-2.55942E-05-2.88433E-05 1.60978E-05-5.18444E-19 8.82138E-20
 -1      3389 8.78616E-05-2.15052E-05-2.85320E-05 1.40238E-05-2.76171E-20 2.26364E-18
 -1      3390 8.10106E-05-1.69815E-05-2.74807E-05 3.72916E-06 1.21993E-18 2.01406E-18
 -1      3391 8.19078E-05-1.74804E-05-2.76031E-05 6.87308E-06 1.11929E-18 2.16347E-18
 -1      3392 6.89671E-05-2.69040E-05-1.77040E-05-2.58777E-05-2.16414E-18-1.01999E-18
 -1      3393 8.15598E-05-1.75230E-05-2.74348E-05-3.48549E-06 1.81431E-18-1.97651E-18
 -1      3394 8.08834E-05-1.70120E-05-2.74109E-05-2.48733E-07 1.47076E-18 3.90466E-19
 -1      3395 7.89648E-05-1.70394E-05-2.64774E-05 1.68732E-06 1.74343E-18 1.30987E-18
 -1      3396 8.06634E-05-1.85566E-05-2.65665E-05-6.16877E-06 2.06862E-18-2.69888E-18
 -1      3397 1.01213E-04-4.23842E-05-2.52182E-05 2.56572E-05 4.26031E-20-1.86612E-21
 -1      3398 8.35094E-05-1.85801E-05-2.78909E-05 9.80277E-06 9.39431E-19 3.65301E-18
 -1      3399 8.55480E-05-1.98130E-05-2.81298E-05 1.19906E-05-4.67357E-21 3.72826E-18
 -1      3400 8.53608E-05-2.08763E-05-2.76237E-05 1.36985E-05-3.03812E-19 3.17610E-18
 -1      3401 8.09627E-05-1.81874E-05-2.68759E-05 8.88367E-06 2.74708E-19 2.50369E-18
 -1      3402 6.14224E-05-2.43903E-05-1.54475E-05 2.83148E-05 2.26767E-18-1.99624E-18
 -1      3403 9.32310E-05-1.99010E-05-3.14508E-05-2.54383E-06-9.27181E-19-3.51527E-18
 -1      3404 9.45072E-05-2.22241E-05-3.09554E-05-1.75424E-06-8.60994E-19-3.24339E-18
 -1      3405 9.30211E-05-1.95014E-05-3.15166E-05-1.87378E-06-6.71293E-19-3.56481E-18
 -1      3406 9.53500E-05-2.81696E-05-2.87827E-05-7.10137E-07 1.05182E-18-1.77477E-18
 -1      3407 9.56941E-05-2.80076E-05-2.90134E-05-4.69088E-07 1.08083E-18-1.69246E-18
 -1      3408 9.53191E-05-2.83331E-05-2.87100E-05-8.86037E-07 7.87752E-19-1.69556E-18
 -1      3409 1.17942E-04-2.18997E-05-4.14662E-05-1.23362E-05-2.13495E-18 5.81753E-19
 -1      3410 1.27806E-04-4.85335E-05-3.40674E-05 2.67090E-06-1.06993E-18-3.83600E-18
 -1      3411 4.24292E-05-1.27857E-05-1.20396E-05 1.05176E-05 6.84323E-19-1.91694E-18
 -1      3412 4.41418E-05-1.23282E-05-1.32077E-05 3.62491E-06 1.04648E-19-2.18100E-18
 -1      3413 4.78689E-05-1.52760E-05-1.38293E-05 1.62129E-05 1.25152E-18-1.15398E-18
 -1      3414 9.43414E-05-2.19796E-05-3.09897E-05 3.63611E-06 2.08139E-18-2.70579E-18
 -1      3415 9.34368E-05-2.02158E-05-3.14051E-05 4.24963E-06 2.19327E-18-3.13698E-18
 -1      3416 9.30793E-05-1.95552E-05-3.15191E-05 3.65716E-06 1.83026E-18-3.13541E-18
 -1      3417 1.30130E-04-5.60368E-05-3.20435E-05 5.52335E-06 1.24448E-18-1.90397E-18
 -1      3418 1.27060E-04-5.62080E-05-2.99969E-05 1.14257E-05 2.47993E-18-3.25721E-18
 -1      3419 1.35752E-04-5.60622E-05-3.41403E-05-1.39541E-06-2.47294E-20-3.15837E-19
 -1      3420 9.27934E-05-1.90574E-05-3.16204E-05 3.12893E-06 1.61278E-18-3.11853E-18
 -1      3421 9.25565E-05-1.86429E-05-3.16881E-05 2.42613E-06 1.17081E-18-3.39096E-18
 -1      3422 9.33698E-05-2.00187E-05-3.14176E-05 1.80653E-06 9.31399E-19-3.21991E-18
 -1      3423 9.37779E-05-2.07988E-05-3.12563E-05 2.85105E-06 1.52289E-18-2.85317E-18
 -1      3424 1.21696E-04-3.19811E-05-3.85599E-05 1.18721E-05-1.90900E-19-2.61527E-18
 -1      3425 1.26296E-04-5.20808E-05-3.18627E-05 2.70681E-06 1.89869E-18 1.03537E-18
 -1      3426 1.16357E-04-1.19837E-05-4.51470E-05 3.26324E-06-1.47384E-18-1.16103E-19
 -1      3427 1.17224E-04-1.03996E-05-4.62671E-05-2.44648E-06-1.94987E-18-5.76816E-19
 -1      3428 9.98219E-05-3.14754E-05-2.92601E-05-1.01935E-05-8.16609E-20-7.60981E-19
 -1      3429 9.88467E-05-3.06566E-05-2.92285E-05-1.09727E-05 9.74364E-19 6.22908E-19
 -1      3430 9.94810E-05-3.21351E-05-2.88878E-05-1.21138E-05 3.25959E-19 1.77955E-19
 -1      3431 1.01204E-04-3.32304E-05-2.91389E-05-1.03419E-05 4.26849E-19-2.50199E-19
 -1      3432 1.13496E-04-1.35817E-05-4.31568E-05-4.55476E-06-1.73827E-18-9.57822E-19
 -1      3433 1.05660E-04-4.81107E-05-2.43496E-05-2.71374E-05 1.22589E-18 3.23352E-19
 -1      3434 1.12257E-04-5.15410E-05-2.60977E-05-2.32656E-05 5.35967E-19-4.20274E-19
 -1      3435 9.57344E-05-4.37636E-05-2.19301E-05-2.85155E-05-1.32402E-18-1.83859E-19
 -1      3436 1.04703E-04-4.71340E-05-2.44681E-05-2.36110E-05-1.43247E-18-1.18876E-19
 -1      3437 9.96279E-05-4.11875E-05-2.46765E-05-2.34363E-05-1.47737E-18-7.33941E-20
 -1      3438 8.82052E-05-3.68118E-05-2.18555E-05-2.67908E-05-1.69760E-18-7.25960E-19
 -1      3439 1.10810E-04-1.41017E-05-4.16893E-05-3.50802E-06-1.82758E-18-3.35160E-19
 -1      3440 1.11576E-04-1.60407E-05-4.11635E-05-8.07856E-06-2.43088E-18-9.01984E-19
 -1      3441 9.61743E-05-2.78266E-05-2.92848E-05 2.40325E-07-9.92280E-19-1.82653E-18
 -1      3442 9.61702E-05-2.81426E-05-2.91592E-05 4.94522E-07-8.89626E-19-1.69683E-18
 -1      3443 9.61787E-05-2.84025E-05-2.90413E-05 6.57908E-07-7.71174E-19-1.47769E-18
 -1      3444 9.61486E-05-2.85967E-05-2.89530E-05 7.95855E-07-4.26910E-19-1.24347E-18
 -1      3445 9.63708E-05-2.82125E-05-2.92123E-05 4.73420E-07-6.41950E-19-1.25841E-18
 -1      3446 9.61142E-05-2.87460E-05-2.88682E-05 8.75500E-07-3.97134E-19-1.32915E-18
 -1      3447 9.60733E-05-2.88551E-05-2.88084E-05 9.35025E-07-5.74005E-19-1.23764E-18
 -1      3448 9.63469E-05-2.86760E-05-2.90039E-05 7.35413E-07-5.19284E-19-1.18475E-18
 -1      3449 9.60158E-05-2.89278E-05-2.87496E-05 9.59365E-07-6.89871E-19-1.31610E-18
 -1      3450 9.59718E-05-2.89777E-05-2.87114E-05 9.69864E-07-7.30534E-19-1.16253E-18
 -1      3451 9.62575E-05-2.89340E-05-2.88551E-05 8.56322E-07-6.57242E-19-1.73942E-18
 -1      3452 9.59033E-05-2.89974E-05-2.86726E-05 9.61436E-07-6.70953E-19-1.06213E-18
 -1      3453 9.58600E-05-2.90060E-05-2.86506E-05 9.45239E-07-4.38091E-19-1.04125E-18
 -1      3454 9.61339E-05-2.90482E-05-2.87531E-05 8.86611E-07-5.81309E-19-1.15767E-18
 -1      3455 9.57872E-05-2.89890E-05-2.86274E-05 9.21316E-07-3.65982E-19-8.55456E-19
 -1      3456 9.57462E-05-2.89683E-05-2.86176E-05 8.95071E-07-3.30166E-19-8.41630E-19
 -1      3457 9.59950E-05-2.90618E-05-2.86875E-05 8.66143E-07-3.83026E-19-9.56702E-19
 -1      3458 9.56727E-05-2.89254E-05-2.86063E-05 8.68652E-07-2.37517E-19-8.77647E-19
 -1      3459 9.56342E-05-2.88834E-05-2.86057E-05 8.44756E-07-5.71656E-20-9.43203E-19
 -1      3460 9.58508E-05-2.90045E-05-2.86499E-05 8.25370E-07-2.60628E-19-1.20781E-18
 -1      3461 9.55609E-05-2.88212E-05-2.86036E-05 8.25669E-07-2.62905E-19-9.30139E-19
 -1      3462 9.55242E-05-2.87629E-05-2.86100E-05 8.13538E-07-4.02162E-19-1.10273E-18
 -1      3463 9.57057E-05-2.88957E-05-2.86340E-05 7.87322E-07-1.51692E-19-1.49792E-18
 -1      3464 9.54501E-05-2.86851E-05-2.86149E-05 8.09475E-07-5.92084E-19-1.00333E-18
 -1      3465 9.54142E-05-2.86130E-05-2.86270E-05 8.16563E-07-7.39312E-19-1.10921E-18
 -1      3466 9.55598E-05-2.87473E-05-2.86347E-05 7.69703E-07-3.61795E-19-1.00151E-18
 -1      3467 9.53372E-05-2.85212E-05-2.86372E-05 8.33888E-07-7.36340E-19-1.10814E-18
 -1      3468 9.53006E-05-2.84366E-05-2.86537E-05 8.66441E-07-7.31902E-19-6.90493E-19
 -1      3469 9.54101E-05-2.85653E-05-2.86481E-05 7.86714E-07-6.70718E-19-8.25327E-19
 -1      3470 9.52177E-05-2.83311E-05-2.86680E-05 9.10813E-07-6.49303E-19-5.48169E-19
 -1      3471 9.51790E-05-2.82344E-05-2.86880E-05 9.74388E-07-5.26025E-19-4.68431E-19
 -1      3472 9.52514E-05-2.83522E-05-2.86711E-05 8.50451E-07-4.55961E-19-9.34008E-19
 -1      3473 9.50869E-05-2.81150E-05-2.87050E-05 1.05120E-06-4.31272E-19-3.19882E-19
 -1      3474 9.50449E-05-2.80068E-05-2.87278E-05 1.15095E-06-3.68912E-19-2.79002E-19
 -1      3475 9.50777E-05-2.81082E-05-2.87007E-05 9.71983E-07-3.97218E-19-5.95628E-19
 -1      3476 9.49404E-05-2.78737E-05-2.87462E-05 1.26559E-06-1.03397E-19 5.41050E-20
 -1      3477 9.48947E-05-2.77556E-05-2.87708E-05 1.40634E-06 2.80189E-19-1.53549E-19
 -1      3478 9.48823E-05-2.78336E-05-2.87343E-05 1.16208E-06-1.24760E-19-3.54611E-19
 -1      3479 9.47755E-05-2.76106E-05-2.87889E-05 1.56428E-06 3.02302E-19 2.75999E-19
 -1      3480 9.47272E-05-2.74866E-05-2.88139E-05 1.75027E-06 3.17159E-19-7.59870E-20
 -1      3481 9.46597E-05-2.75305E-05-2.87684E-05 1.43162E-06 6.21824E-19-2.30300E-19
 -1      3482 9.45930E-05-2.73343E-05-2.88296E-05 1.95699E-06 3.62722E-19 1.97344E-19
 -1      3483 9.45458E-05-2.72122E-05-2.88533E-05 2.19148E-06 4.26110E-19-5.46959E-20
 -1      3484 9.44071E-05-2.72057E-05-2.87990E-05 1.79167E-06 3.20800E-19-4.41496E-19
 -1      3485 9.43998E-05-2.70626E-05-2.88636E-05 2.45220E-06 5.02999E-19 6.27866E-20
 -1      3486 9.43619E-05-2.69561E-05-2.88835E-05 2.73669E-06 7.99728E-19 4.79132E-19
 -1      3487 9.41270E-05-2.68743E-05-2.88208E-05 2.25333E-06 5.14921E-19 2.39702E-19
 -1      3488 9.42130E-05-2.68262E-05-2.88850E-05 3.05592E-06 9.73436E-19 7.07860E-19
 -1      3489 9.41993E-05-2.67578E-05-2.88979E-05 3.38905E-06 6.73762E-19 7.78011E-19
 -1      3490 9.38309E-05-2.65641E-05-2.88272E-05 2.82727E-06 9.45810E-19 8.22060E-19
 -1      3491 9.40658E-05-2.66750E-05-2.88863E-05 3.76991E-06-2.78832E-19 3.37606E-19
 -1      3492 9.41014E-05-2.66789E-05-2.88885E-05 4.14594E-06-4.95341E-19 1.96372E-19
 -1      3493 9.35451E-05-2.63210E-05-2.88097E-05 3.52304E-06-2.54604E-20 2.42572E-19
 -1      3494 9.40153E-05-2.66847E-05-2.88593E-05 4.58899E-06-7.65157E-19-2.61722E-19
 -1      3495 9.41400E-05-2.68103E-05-2.88471E-05 4.99548E-06-7.11436E-19-2.34630E-19
 -1      3496 9.33180E-05-2.62165E-05-2.87591E-05 4.34788E-06-6.58949E-19 1.42768E-19
 -1      3497 9.41531E-05-2.69637E-05-2.87961E-05 5.49645E-06-3.35764E-19-3.68685E-19
 -1      3498 9.44267E-05-2.72782E-05-2.87674E-05 5.91066E-06 2.55231E-19-8.33710E-20
 -1      3499 9.32305E-05-2.63548E-05-2.86659E-05 5.30425E-06-7.66568E-19 1.63737E-19
 -1      3500 9.46188E-05-2.76582E-05-2.86930E-05 6.45575E-06 2.72046E-19-1.38940E-18
 -1      3501 9.51252E-05-2.82470E-05-2.86492E-05 6.83820E-06-7.80792E-20-1.19964E-18
 -1      3502 9.34106E-05-2.68810E-05-2.85238E-05 6.38447E-06-4.49327E-19-4.93467E-19
 -1      3503 9.56129E-05-2.89521E-05-2.85559E-05 7.39356E-06-1.43785E-19-1.28976E-18
 -1      3504 9.64602E-05-2.99106E-05-2.85069E-05 7.67671E-06-1.85492E-19-1.44096E-18
 -1      3505 9.40500E-05-2.79861E-05-2.83342E-05 7.55761E-06-2.65189E-19-2.00608E-18
 -1      3506 9.74039E-05-3.10479E-05-2.84114E-05 8.16722E-06 2.67505E-19-5.65321E-19
 -1      3507 9.87111E-05-3.24574E-05-2.83818E-05 8.23653E-06 8.40207E-19 4.10035E-19
 -1      3508 9.54210E-05-2.99002E-05-2.81168E-05 8.73997E-06 7.28747E-19-1.11627E-18
 -1      3509 1.00310E-04-3.41100E-05-2.83232E-05 8.50504E-06 4.18194E-19 3.07102E-19
 -1      3510 1.02162E-04-3.59749E-05-2.83625E-05 8.17448E-06 9.45734E-19 2.32731E-19
 -1      3511 9.78848E-05-3.28599E-05-2.79257E-05 9.73473E-06 8.30143E-19-3.83595E-19
 -1      3512 1.04607E-04-3.81145E-05-2.84199E-05 7.91750E-06 8.90351E-19-3.22615E-19
 -1      3513 1.06958E-04-4.02292E-05-2.86146E-05 6.92130E-06 1.31901E-18-7.80380E-19
 -1      3514 1.01851E-04-3.69913E-05-2.78778E-05 1.01202E-05 3.43460E-19-9.56128E-19
 -1      3515 1.10275E-04-4.25394E-05-2.89295E-05 5.66915E-06 1.56705E-18-1.62131E-18
 -1      3516 1.12769E-04-4.42801E-05-2.94080E-05 3.74136E-06 6.74832E-19-1.52526E-18
 -1      3517 1.07570E-04-4.20120E-05-2.82010E-05 9.09348E-06 6.55412E-19-2.78832E-18
 -1      3518 1.16589E-04-4.58708E-05-3.02049E-05 8.70720E-07 1.01696E-18-7.13562E-19
 -1      3519 1.18260E-04-4.59576E-05-3.10504E-05-1.87980E-06 9.88964E-19-5.36377E-19
 -1      3520 1.14868E-04-4.68353E-05-2.92936E-05 5.57799E-06 1.60631E-18-1.93823E-18
 -1      3521 1.22495E-04-4.51654E-05-3.31869E-05-6.87366E-06-4.16155E-19 1.30586E-18
 -1      3522 1.22389E-04-4.12408E-05-3.47740E-05-1.02202E-05-5.57983E-19 6.15350E-19
 -1      3523 1.19509E-04-3.37024E-05-3.70789E-05-1.34926E-05-1.21344E-18 6.54869E-19
 -1      3524 1.17604E-04-2.73068E-05-3.87611E-05-1.43617E-05-1.97967E-18 5.74685E-19
 -1      3525 1.10610E-04-1.40527E-05-4.16441E-05 1.90986E-06-2.03621E-18 1.26064E-19
 -1      3526 1.13034E-04-1.93546E-05-4.02948E-05 7.90215E-06-4.03029E-19 7.30202E-20
 -1      3527 1.15353E-04-2.46956E-05-3.92313E-05 1.16123E-05 8.64556E-19-4.58907E-19
 -1      3528 1.19724E-04-4.67671E-05-3.12579E-05 2.24792E-07-1.77535E-18-1.62757E-18
 -1      3529 1.18019E-04-4.70312E-05-3.04126E-05-3.03380E-06-3.08929E-19-1.71369E-18
 -1      3530 1.14253E-04-4.52265E-05-2.96356E-05-6.00643E-06-1.77314E-19-1.65234E-18
 -1      3531 1.11779E-04-4.34711E-05-2.91826E-05-8.13878E-06 1.62839E-19-1.32652E-18
 -1      3532 1.16714E-04-4.77954E-05-2.95867E-05-7.76716E-06-1.55732E-19-1.68174E-18
 -1      3533 1.08417E-04-4.09486E-05-2.89398E-05-9.59551E-06 1.08594E-18-9.50215E-19
 -1      3534 1.05940E-04-3.85564E-05-2.88203E-05-1.06186E-05 1.42600E-18 4.14818E-19
 -1      3535 1.09609E-04-4.30686E-05-2.86132E-05-1.16834E-05 1.20049E-18-6.49823E-19
 -1      3536 9.57827E-05-2.89002E-05-2.86635E-05-1.03702E-06 6.95292E-19-9.78443E-19
 -1      3537 9.58132E-05-2.88465E-05-2.86973E-05-1.02626E-06 5.77861E-19-1.23187E-18
 -1      3538 9.54618E-05-2.87550E-05-2.85866E-05-8.50635E-07-3.61958E-19-7.69175E-19
 -1      3539 9.54795E-05-2.88017E-05-2.85771E-05-8.68323E-07-3.32833E-19-7.48476E-19
 -1      3540 9.55370E-05-2.88536E-05-2.85768E-05-8.92533E-07-2.03376E-19-4.25453E-19
 -1      3541 9.55570E-05-2.88847E-05-2.85741E-05-9.21794E-07 1.14319E-19-4.54453E-19
 -1      3542 9.56355E-05-2.88801E-05-2.86106E-05-8.49970E-07-4.59367E-20 3.27540E-20
 -1      3543 9.53106E-05-2.84727E-05-2.86423E-05-8.84737E-07-5.64887E-21-4.68230E-19
 -1      3544 9.53276E-05-2.85466E-05-2.86223E-05-8.56125E-07 9.54545E-20-6.06169E-19
 -1      3545 9.52247E-05-2.82869E-05-2.86849E-05-9.87276E-07 6.23956E-20-3.20304E-19
 -1      3546 9.52442E-05-2.83758E-05-2.86603E-05-9.25504E-07 9.25082E-20-3.01743E-19
 -1      3547 9.52799E-05-2.83974E-05-2.86640E-05-8.85959E-07-1.17205E-19-3.46703E-19
 -1      3548 9.51222E-05-2.80650E-05-2.87359E-05-1.16349E-06 6.95174E-19-5.05284E-19
 -1      3549 9.51470E-05-2.81714E-05-2.87068E-05-1.06199E-06 4.50507E-19-2.54986E-19
 -1      3550 9.51372E-05-2.81648E-05-2.87020E-05-1.00261E-06 3.15533E-19-3.02496E-19
 -1      3551 9.49931E-05-2.77990E-05-2.87942E-05-1.42619E-06 6.24058E-19-1.08352E-18
 -1      3552 9.50268E-05-2.79267E-05-2.87610E-05-1.27810E-06 7.70040E-19-7.44785E-19
 -1      3553 9.49656E-05-2.78870E-05-2.87469E-05-1.19127E-06 6.77429E-19-5.95180E-19
 -1      3554 9.48242E-05-2.74794E-05-2.88584E-05-1.78879E-06 4.14974E-19-7.45804E-19
 -1      3555 9.48716E-05-2.76326E-05-2.88215E-05-1.58685E-06 5.50953E-19-1.07380E-18
 -1      3556 9.47509E-05-2.75546E-05-2.87965E-05-1.46345E-06 5.99404E-19-9.18492E-19
 -1      3557 9.45985E-05-2.70959E-05-2.89258E-05-2.26507E-06 8.94754E-20-3.46906E-19
 -1      3558 9.46662E-05-2.72790E-05-2.88861E-05-2.00180E-06 1.73005E-19-8.43667E-19
 -1      3559 9.44746E-05-2.71562E-05-2.88477E-05-1.83062E-06 2.44063E-19-1.48349E-18
 -1      3560 9.42949E-05-2.66386E-05-2.89915E-05-2.86875E-06 2.78622E-19-3.74234E-19
 -1      3561 9.43911E-05-2.68554E-05-2.89513E-05-2.53675E-06 3.13878E-19-5.17133E-19
 -1      3562 9.41139E-05-2.66799E-05-2.88958E-05-2.30393E-06 3.12834E-19-7.38923E-19
 -1      3563 9.38880E-05-2.61010E-05-2.90473E-05-3.61276E-06-3.71837E-20 1.03422E-18
 -1      3564 9.40226E-05-2.63531E-05-2.90104E-05-3.20522E-06-2.00770E-20 1.85188E-19
 -1      3565 9.36408E-05-2.61150E-05-2.89332E-05-2.89377E-06-2.15584E-20-3.14636E-19
 -1      3566 9.33496E-05-2.54852E-05-2.90803E-05-4.50882E-06-4.87783E-20 9.19402E-19
 -1      3567 9.35326E-05-2.57687E-05-2.90531E-05-4.01997E-06 1.52101E-20 9.09266E-19
 -1      3568 9.30221E-05-2.54550E-05-2.89484E-05-3.60947E-06-2.30510E-19-1.30285E-20
 -1      3569 9.26529E-05-2.48104E-05-2.90705E-05-5.56816E-06 3.74946E-19 5.59625E-19
 -1      3570 9.28917E-05-2.51111E-05-2.90629E-05-4.99331E-06 5.51068E-19 9.70637E-19
 -1      3571 9.22203E-05-2.47031E-05-2.89239E-05-4.46013E-06 1.18051E-19-1.50274E-19
 -1      3572 9.17834E-05-2.41290E-05-2.89887E-05-6.80512E-06-1.34880E-19-4.95227E-20
 -1      3573 9.20749E-05-2.44129E-05-2.90152E-05-6.13951E-06 1.77349E-19 3.19168E-19
 -1      3574 9.11978E-05-2.38816E-05-2.88340E-05-5.45805E-06 5.78139E-19-2.53042E-19
 -1      3575 9.07588E-05-2.35510E-05-2.87940E-05-8.24633E-06-3.50966E-19 4.86427E-19
 -1      3576 9.10752E-05-2.37497E-05-2.88747E-05-7.48156E-06-4.62509E-19 5.60381E-19
 -1      3577 8.99245E-05-2.30466E-05-2.86422E-05-6.62767E-06-3.56112E-19 7.81475E-20
 -1      3578 8.96670E-05-2.32831E-05-2.84334E-05-9.94854E-06-1.28522E-18 8.55350E-19
 -1      3579 8.99301E-05-2.32711E-05-2.85935E-05-9.06575E-06-6.52685E-19 7.04352E-19
 -1      3580 8.83944E-05-2.23115E-05-2.82981E-05-8.02429E-06-6.45318E-19 2.44383E-19
 -1      3581 8.87336E-05-2.36855E-05-2.78446E-05-1.20249E-05-3.75392E-19-7.77550E-23
 -1      3582 8.87685E-05-2.32467E-05-2.81105E-05-1.09869E-05-7.54706E-19 3.72255E-19
 -1      3583 8.66548E-05-2.18827E-05-2.77350E-05-9.76784E-06-7.14299E-19 9.08062E-20
 -1      3584 8.83900E-05-2.53540E-05-2.69663E-05-1.46808E-05-8.35773E-19-4.75121E-19
 -1      3585 8.79020E-05-2.41419E-05-2.73569E-05-1.34226E-05-3.01787E-19-1.11760E-19
 -1      3586 8.48565E-05-2.21130E-05-2.68689E-05-1.20962E-05-2.49697E-19-2.99762E-19
 -1      3587 8.94550E-05-2.91965E-05-2.58054E-05-1.81528E-05-1.34593E-18-1.12800E-18
 -1      3588 8.79360E-05-2.66598E-05-2.62755E-05-1.64952E-05-1.28600E-18-1.05354E-18
 -1      3589 8.35502E-05-2.37007E-05-2.56043E-05-1.54626E-05-6.16605E-19-1.42830E-18
 -1      3590 9.51066E-05-2.36800E-05-3.06074E-05-1.80217E-06-9.50505E-19-3.13542E-18
 -1      3591 9.52624E-05-2.42032E-05-3.04694E-05-2.01213E-06-1.20214E-18-2.80666E-18
 -1      3592 9.55815E-05-2.51110E-05-3.01989E-05-1.49366E-06-1.12859E-18-2.54181E-18
 -1      3593 9.20703E-05-3.03989E-05-2.62967E-05 2.13614E-05 2.23956E-19 8.12774E-19
 -1      3594 9.44937E-05-3.42568E-05-2.57840E-05 2.28834E-05 3.60968E-19 8.22323E-19
 -1      3595 6.45595E-05-2.10738E-05-1.80657E-05-2.08898E-05-2.74057E-18-1.95953E-18
 -1      3596 7.58203E-05-2.83441E-05-2.03953E-05-2.52341E-05-2.34011E-18-5.63753E-19
 -1      3597 1.15484E-04-5.16646E-05-2.76253E-05 1.54896E-05 2.43146E-18 8.64569E-20
 -1      3598 1.08179E-04-4.86435E-05-2.51498E-05 2.25595E-05 3.39196E-18-7.64219E-19
 -1      3599 9.16598E-05-3.62723E-05-2.37230E-05 2.64668E-05 3.80520E-19 1.29345E-18
 -1      3600 4.81175E-05-1.29173E-05-1.46729E-05-6.42449E-06-7.71968E-19-3.49216E-18
 -1      3601 5.38146E-05-1.64031E-05-1.60344E-05-1.50215E-05-1.62708E-18-3.34938E-18
 -1      3602 6.82878E-05-2.53135E-05-1.81473E-05 2.67674E-05 1.76183E-19 2.84111E-18
 -1      3603 6.02390E-05-1.91715E-05-1.75442E-05 1.93192E-05 4.72036E-19 3.77681E-18
 -1      3604 9.59069E-05-2.73774E-05-2.93770E-05 1.03003E-07 1.24393E-18-1.64665E-18
 -1      3605 9.58839E-05-2.69055E-05-2.95520E-05 5.61817E-07 1.39343E-18-1.54324E-18
 -1      3606 6.29156E-05-2.04273E-05-1.80781E-05-1.97094E-05 6.28128E-20 4.96150E-19
 -1      3607 6.99400E-05-2.64675E-05-1.82722E-05-2.78734E-05 4.84397E-20-2.36957E-19
 -1      3608 9.25434E-05-1.86347E-05-3.16825E-05-8.14787E-07-1.79332E-19-3.73609E-18
 -1      3609 9.26467E-05-1.88460E-05-3.16505E-05-1.55111E-06-5.55595E-19-3.68039E-18
 -1      3610 9.40539E-05-2.12840E-05-3.11668E-05-1.09807E-06-4.21258E-19-3.26521E-18
 -1      3611 9.34331E-05-2.01180E-05-3.14020E-05-4.00341E-07-6.53780E-20-3.56728E-18
 -1      3612 1.13533E-04-2.06299E-05-4.00825E-05-1.14960E-05-2.12097E-18 1.89444E-19
 -1      3613 8.61713E-05-2.43706E-05-2.63669E-05-1.48552E-05 2.85828E-18-1.36030E-18
 -1      3614 8.25822E-05-2.21623E-05-2.59884E-05-1.28033E-05 2.71659E-18-1.82766E-18
 -1      3615 9.60380E-05-2.69163E-05-2.96200E-05-4.57410E-07-1.22517E-18-2.04474E-18
 -1      3616 9.60908E-05-2.74029E-05-2.94443E-05-3.85682E-08-1.11017E-18-1.98850E-18
 -1      3617 9.62818E-05-2.74613E-05-2.94956E-05 1.03268E-08-9.95792E-19-1.80897E-18
 -1      3618 9.53877E-05-2.86278E-05-2.86091E-05-8.43411E-07-1.07055E-19-7.65709E-19
 -1      3619 9.54042E-05-2.86882E-05-2.85940E-05-8.41428E-07-3.15503E-19-9.20608E-19
 -1      3620 9.55217E-05-2.87530E-05-2.86160E-05-8.22168E-07-1.89217E-19-1.05210E-18
 -1      3621 9.54053E-05-2.85922E-05-2.86346E-05-8.29795E-07-4.80302E-20-8.87020E-19
 -1      3622 1.24871E-04-5.27026E-05-3.08939E-05-5.26605E-06-5.86901E-19-2.68195E-18
 -1      3623 1.23980E-04-4.68384E-05-3.31186E-05 2.87121E-06-1.17000E-18-2.84518E-18
 -1      3624 1.14288E-04-1.47094E-05-4.29957E-05 5.93277E-06-1.30364E-18 5.30190E-20
 -1      3625 1.23205E-04-4.84955E-05-3.21917E-05-1.78301E-06 9.22002E-19-1.12199E-19
 -1      3626 1.21266E-04-5.17164E-05-2.95540E-05 7.24765E-06 2.00047E-18-1.66204E-19
 -1      3627 1.17792E-04-5.31406E-05-2.74956E-05-1.83645E-05-1.96445E-19-1.36975E-18
 -1      3628 1.22616E-04-5.33067E-05-2.97947E-05-1.02417E-05-4.88152E-19-2.21654E-18
 -1      3629 1.18983E-04-5.06680E-05-2.93725E-05-9.87274E-06-2.07070E-19-2.51823E-18
 -1      3630 1.12994E-04-4.99224E-05-2.70914E-05-1.90741E-05 5.58287E-19-7.49796E-19
 -1      3631 6.80357E-05-2.56425E-05-1.80934E-05 2.67928E-05 1.75027E-18-1.53874E-18
 -1      3632 5.85813E-05-1.93384E-05-1.62480E-05 2.24877E-05 1.15080E-18-1.77422E-18
 -1      3633 9.38839E-05-2.10568E-05-3.12218E-05 8.11571E-07 5.61171E-19-3.27628E-18
 -1      3634 9.38349E-05-2.09760E-05-3.12396E-05 2.49568E-07 2.11436E-19-3.41461E-18
 -1      3635 9.57253E-05-2.63955E-05-2.97209E-05 9.88192E-07 1.58829E-18-1.71016E-18
 -1      3636 9.56468E-05-2.58699E-05-2.99053E-05 1.58156E-06 1.84168E-18-1.88209E-18
 -1      3637 9.58949E-05-2.63946E-05-2.97862E-05 8.22776E-07 1.37691E-18-1.82510E-18
 -1      3638 9.39647E-05-2.12267E-05-3.11807E-05 1.24956E-06 7.03383E-19-3.10233E-18
 -1      3639 9.46188E-05-2.23878E-05-3.09387E-05 8.33699E-07 6.63999E-19-2.93251E-18
 -1      3640 9.41020E-05-2.15211E-05-3.11214E-05 1.76801E-06 1.07282E-18-2.95232E-18
 -1      3641 7.92529E-05-2.14332E-05-2.47501E-05-1.28871E-05 2.87993E-18-2.08831E-18
 -1      3642 7.91099E-05-1.93434E-05-2.55426E-05-9.39854E-06 2.88604E-18-2.20791E-18
 -1      3643 7.68284E-05-1.78178E-05-2.53487E-05-5.74751E-06 2.24254E-18-2.42153E-18
 -1      3644 1.15389E-04-4.90264E-05-2.84475E-05 1.01375E-05 1.63490E-18-5.32966E-19
 -1      3645 1.19426E-04-3.25847E-05-3.72988E-05 1.12810E-05 4.68197E-19-2.01612E-18
 -1      3646 1.21218E-04-3.85114E-05-3.55345E-05 1.04444E-05-2.40346E-19-2.04241E-18
 -1      3647 1.21753E-04-4.29354E-05-3.38910E-05 7.00046E-06-1.73162E-18-2.30803E-18
 -1      3648 9.60843E-05-2.88606E-05-2.88127E-05-9.31575E-07 4.57168E-19-1.22468E-18
 -1      3649 9.58632E-05-2.87733E-05-2.87534E-05-9.96506E-07 6.37575E-19-1.47851E-18
 -1      3650 9.58959E-05-2.86649E-05-2.88088E-05-9.31712E-07 6.04049E-19-1.33726E-18
 -1      3651 9.57251E-05-2.89242E-05-2.86276E-05-1.02893E-06 7.74793E-19-6.98715E-19
 -1      3652 9.59800E-05-2.89825E-05-2.87155E-05-9.68293E-07 4.80575E-19-8.20083E-19
 -1      3653 9.56982E-05-2.89398E-05-2.86096E-05-1.00999E-06 5.03211E-19-7.36355E-19
 -1      3654 1.04280E-04-3.67792E-05-2.89237E-05-1.04526E-05 1.29806E-18 3.87346E-19
 -1      3655 1.02493E-04-3.48038E-05-2.89795E-05-1.06889E-05 1.32135E-18 7.18811E-19
 -1      3656 1.01720E-04-3.44062E-05-2.88384E-05-1.17166E-05 7.68196E-19 4.20939E-19
 -1      3657 1.04643E-04-3.80954E-05-2.85420E-05-1.23856E-05 1.90601E-18 8.84418E-19
 -1      3658 1.00877E-04-4.39269E-05-2.42903E-05 2.35254E-05 2.65095E-18-7.21447E-19
 -1      3659 9.57500E-05-2.89690E-05-2.86219E-05-8.97623E-07 3.44672E-19-1.50634E-20
 -1      3660 9.56157E-05-2.89186E-05-2.85829E-05-9.52620E-07 4.02762E-19-4.33485E-19
 -1      3661 9.56388E-05-2.89299E-05-2.85891E-05-9.83372E-07 5.93324E-19-4.85437E-19
 -1      3662 8.48858E-05-2.90562E-05-2.38254E-05-2.06744E-05-1.83095E-18-1.08731E-18
 -1      3663 7.82655E-05-2.43533E-05-2.29118E-05-1.93135E-05-1.75855E-18-1.59270E-18
 -1      3664 9.49972E-05-2.33715E-05-3.07103E-05-1.56879E-06-8.24836E-19-3.01189E-18
 -1      3665 9.54514E-05-2.43742E-05-3.04555E-05-1.22785E-06-8.23133E-19-2.90789E-18
 -1      3666 9.48705E-05-2.30174E-05-3.07945E-05-1.23647E-06-5.62711E-19-3.01777E-18
 -1      3667 8.76196E-05-3.32698E-05-2.31588E-05-2.27414E-05-1.91101E-18-1.12211E-18
 -1      3668 9.56484E-05-2.84231E-05-2.88151E-05-8.65064E-07 6.53197E-19-1.60645E-18
 -1      3669 7.79481E-05-2.90970E-05-2.05772E-05 2.61554E-05 1.07699E-18 3.10626E-18
 -1      3670 5.91730E-05-1.61822E-05-1.79660E-05 1.28296E-05 8.20927E-19 3.66236E-18
 -1      3671 5.95964E-05-1.50119E-05-1.90305E-05 4.90823E-06 2.76093E-19 5.15764E-18
 -1      3672 6.54552E-05-1.90501E-05-1.99316E-05 1.69717E-05 9.37851E-19 3.56543E-18
 -1      3673 8.84684E-05-2.55663E-05-2.69295E-05 1.85198E-05 3.32101E-19 1.41517E-19
 -1      3674 9.04595E-05-2.80034E-05-2.67115E-05 1.97053E-05 2.99059E-19 3.90479E-19
 -1      3675 8.53426E-05-2.67553E-05-2.52120E-05 2.13512E-05 6.45598E-19 6.65152E-19
 -1      3676 6.26589E-05-1.83267E-05-1.87816E-05-1.56678E-05-1.78610E-18-1.87530E-18
 -1      3677 7.62209E-05-2.94122E-05-1.97705E-05 2.74430E-05 2.02683E-18-1.41920E-18
 -1      3678 7.23138E-05-2.47426E-05-2.03084E-05 2.26539E-05 1.03116E-18-9.68794E-19
 -1      3679 8.35914E-05-3.29873E-05-2.17588E-05 2.58002E-05 2.18869E-18-9.38962E-19
 -1      3680 4.86018E-05-1.23503E-05-1.51802E-05-1.11872E-06-9.66676E-20-2.31108E-18
 -1      3681 5.41411E-05-1.33598E-05-1.73924E-05-3.67410E-06-2.60992E-20-2.28784E-18
 -1      3682 5.06753E-05-1.28071E-05-1.61209E-05 5.88719E-06 6.53314E-19-1.20840E-18
 -1      3683 7.75104E-05-1.77639E-05-2.56704E-05 8.59386E-06-4.03992E-19 2.58391E-18
 -1      3684 7.97035E-05-1.88562E-05-2.60113E-05 1.14315E-05-8.49607E-19 4.09177E-18
 -1      3685 5.63745E-05-1.69896E-05-1.65676E-05 1.68678E-05 2.84603E-19-1.20189E-18
 -1      3686 9.36953E-05-2.95495E-05-2.73941E-05-1.60897E-05 2.20762E-18 1.38731E-18
 -1      3687 9.02228E-05-2.74639E-05-2.69705E-05-1.58487E-05 2.48033E-18-1.74957E-19
 -1      3688 8.79112E-05-2.75052E-05-2.59318E-05-1.73414E-05 3.48678E-18-1.72517E-18
 -1      3689 8.02498E-05-3.13375E-05-2.07353E-05-2.73323E-05 9.63076E-19-1.23762E-18
 -1      3690 9.88714E-05-4.37664E-05-2.36631E-05-2.77028E-05 1.36928E-18 2.27799E-19
 -1      3691 9.49394E-05-2.35283E-05-3.06231E-05 3.06095E-06 2.06701E-18-2.41463E-18
 -1      3692 9.46744E-05-2.28287E-05-3.07905E-05 2.81940E-06 1.78973E-18-2.67476E-18
 -1      3693 9.59736E-05-2.77817E-05-2.92162E-05-2.19446E-07 1.15669E-18-1.58856E-18
 -1      3694 9.61184E-05-2.74113E-05-2.94481E-05 4.84512E-08 1.18385E-18-1.45643E-18
 -1      3695 9.59563E-05-2.80836E-05-2.90928E-05-4.99372E-07 9.08389E-19-1.48071E-18
 -1      3696 6.11415E-05-1.73559E-05-1.83736E-05-1.42789E-05 8.29775E-19 1.83629E-18
 -1      3697 6.92319E-05-2.12492E-05-2.04652E-05-1.81459E-05 1.48739E-18-8.71729E-19
 -1      3698 6.10681E-05-1.60495E-05-1.92224E-05-7.78188E-06 7.95483E-20 2.80077E-18
 -1      3699 9.58075E-05-2.57848E-05-3.00132E-05-1.18822E-06-1.16815E-18-2.26349E-18
 -1      3700 9.59207E-05-2.64379E-05-2.97821E-05-7.18623E-07-1.22438E-18-2.12229E-18
 -1      3701 9.60810E-05-2.64866E-05-2.98237E-05-5.70049E-07-1.14270E-18-2.06809E-18
 -1      3702 9.57571E-05-2.53597E-05-3.01659E-05-1.13338E-06-1.00328E-18-2.51188E-18
 -1      3703 1.00741E-04-3.37469E-05-2.86949E-05-1.25413E-05 8.53932E-19 7.94865E-19
 -1      3704 7.56184E-05-1.67170E-05-2.52622E-05-5.81755E-07 1.21573E-18 9.62941E-19
 -1      3705 7.57754E-05-1.66099E-05-2.53440E-05 3.61877E-06 3.51631E-19 2.73997E-18
 -1      3706 7.41951E-05-1.70506E-05-2.44106E-05 6.59760E-06-1.26201E-18 3.67490E-18
 -1      3707 7.35392E-05-1.71447E-05-2.41220E-05-4.06738E-06 1.96155E-18 3.99101E-19
 -1      3708 1.01522E-04-3.55153E-05-2.83124E-05-1.37448E-05 1.90903E-18-9.30156E-20
 -1      3709 9.92619E-05-3.29747E-05-2.83685E-05-1.40586E-05 1.28827E-18 5.68620E-20
 -1      3710 9.69309E-05-3.15828E-05-2.80228E-05-1.49846E-05 1.20009E-18 6.20228E-19
 -1      3711 1.03243E-04-3.74152E-05-2.81632E-05-1.40031E-05 2.37108E-18-5.35061E-19
 -1      3712 9.65460E-05-2.85897E-05-2.91204E-05 5.79426E-07-6.16359E-19-1.29980E-18
 -1      3713 9.65131E-05-2.87801E-05-2.90301E-05 6.78495E-07-7.25458E-19-1.50305E-18
 -1      3714 9.64690E-05-2.89223E-05-2.89459E-05 7.25087E-07-4.75721E-19-1.58618E-18
 -1      3715 9.64124E-05-2.90215E-05-2.88822E-05 7.66880E-07-4.44065E-19-1.45996E-18
 -1      3716 9.66406E-05-2.88536E-05-2.90529E-05 5.92256E-07-6.47025E-19-1.50599E-18
 -1      3717 9.63387E-05-2.90826E-05-2.88223E-05 7.77059E-07-3.79609E-19-1.06530E-18
 -1      3718 9.62706E-05-2.91172E-05-2.87795E-05 7.83690E-07-4.05050E-19-8.96307E-19
 -1      3719 9.65237E-05-2.90819E-05-2.89053E-05 6.63087E-07-2.68120E-19-1.35542E-18
 -1      3720 9.61812E-05-2.91214E-05-2.87390E-05 7.73495E-07-4.47317E-19-7.94315E-19
 -1      3721 9.61086E-05-2.91105E-05-2.87124E-05 7.62095E-07-2.51708E-19-8.55510E-19
 -1      3722 9.63619E-05-2.91617E-05-2.88019E-05 6.76132E-07-2.99217E-19-8.67149E-19
 -1      3723 9.60117E-05-2.90746E-05-2.86871E-05 7.43926E-07-2.25897E-19-9.14434E-19
 -1      3724 9.59381E-05-2.90311E-05-2.86730E-05 7.27567E-07-9.86855E-20-9.24279E-19
 -1      3725 9.61774E-05-2.91362E-05-2.87335E-05 6.59141E-07-3.07802E-19-6.56189E-19
 -1      3726 9.58376E-05-2.89660E-05-2.86595E-05 7.10876E-07-1.13036E-19-1.15905E-18
 -1      3727 9.57640E-05-2.88982E-05-2.86552E-05 6.99472E-07-2.49036E-19-1.02841E-18
 -1      3728 9.59819E-05-2.90352E-05-2.86927E-05 6.33672E-07-2.35543E-19-1.07348E-18
 -1      3729 9.56605E-05-2.88106E-05-2.86508E-05 6.91626E-07-1.40878E-19-7.97040E-19
 -1      3730 9.55859E-05-2.87231E-05-2.86538E-05 6.92989E-07-1.70618E-20-6.75611E-19
 -1      3731 9.57799E-05-2.88778E-05-2.86732E-05 6.16261E-07 1.08731E-20-9.84316E-19
 -1      3732 9.54777E-05-2.86161E-05-2.86563E-05 7.00030E-07-4.58151E-19-5.41652E-19
 -1      3733 9.54002E-05-2.85111E-05-2.86650E-05 7.20574E-07-7.76651E-19-4.45236E-19
 -1      3734 9.55702E-05-2.86745E-05-2.86700E-05 6.20207E-07-1.20509E-19-8.85308E-19
 -1      3735 9.52838E-05-2.83859E-05-2.86725E-05 7.47777E-07-6.75724E-19-4.41927E-19
 -1      3736 9.52003E-05-2.82640E-05-2.86851E-05 7.93144E-07-5.00330E-19-7.04675E-19
 -1      3737 9.53478E-05-2.84302E-05-2.86788E-05 6.56666E-07-6.47099E-19-3.36691E-19
 -1      3738 9.50710E-05-2.81202E-05-2.86958E-05 8.45568E-07-1.83164E-19-7.86071E-19
 -1      3739 9.49782E-05-2.79813E-05-2.87111E-05 9.21085E-07-2.15055E-19-6.99587E-19
 -1      3740 9.51044E-05-2.81460E-05-2.86958E-05 7.35786E-07-4.10044E-19-5.13181E-19
 -1      3741 9.48308E-05-2.78181E-05-2.87230E-05 1.00399E-06-9.10897E-20-5.00377E-19
 -1      3742 9.47255E-05-2.76624E-05-2.87393E-05 1.11495E-06 3.17421E-19-4.75896E-21
 -1      3743 9.48302E-05-2.78206E-05-2.87170E-05 8.67678E-07 4.64192E-20-4.68716E-19
 -1      3744 9.45547E-05-2.74799E-05-2.87503E-05 1.23411E-06 6.07149E-19 5.45205E-20
 -1      3745 9.44346E-05-2.73092E-05-2.87657E-05 1.38593E-06 6.67704E-19-1.01352E-19
 -1      3746 9.45145E-05-2.74534E-05-2.87384E-05 1.06316E-06 4.24431E-19 8.05696E-20
 -1      3747 9.42360E-05-2.71096E-05-2.87732E-05 1.54793E-06 3.95761E-19-3.92848E-19
 -1      3748 9.41008E-05-2.69287E-05-2.87853E-05 1.74619E-06 3.64244E-19-6.44590E-20
 -1      3749 9.41476E-05-2.70463E-05-2.87549E-05 1.33442E-06 3.96398E-19-1.00717E-19
 -1      3750 9.38721E-05-2.67179E-05-2.87860E-05 1.95867E-06 5.46784E-19 1.00957E-19
 -1      3751 9.37249E-05-2.65367E-05-2.87916E-05 2.20904E-06 7.76534E-19 2.32162E-19
 -1      3752 9.37225E-05-2.66070E-05-2.87604E-05 1.69568E-06 5.94752E-19-2.16936E-19
 -1      3753 9.34679E-05-2.63268E-05-2.87812E-05 2.48102E-06 7.22862E-19 2.03730E-19
 -1      3754 9.33177E-05-2.61628E-05-2.87764E-05 2.78916E-06 5.26595E-19-3.17437E-20
 -1      3755 9.32383E-05-2.61532E-05-2.87470E-05 2.16393E-06 6.09352E-19-4.67132E-19
 -1      3756 9.30405E-05-2.59746E-05-2.87497E-05 3.13143E-06 7.33262E-20-2.84672E-19
 -1      3757 9.29056E-05-2.58559E-05-2.87298E-05 3.50278E-06-2.29873E-19-6.21789E-19
 -1      3758 9.27040E-05-2.57173E-05-2.87048E-05 2.76000E-06-9.09009E-21-1.15521E-18
 -1      3759 9.26263E-05-2.57224E-05-2.86806E-05 3.92837E-06-3.38269E-19-3.41046E-19
 -1      3760 9.25385E-05-2.56919E-05-2.86405E-05 4.36770E-06-4.91793E-19-2.31339E-19
 -1      3761 9.21444E-05-2.53523E-05-2.86220E-05 3.50987E-06-1.54959E-19-1.39608E-18
 -1      3762 9.22905E-05-2.56622E-05-2.85623E-05 4.89224E-06-4.75504E-19-5.71683E-20
 -1      3763 9.23018E-05-2.57815E-05-2.84972E-05 5.40260E-06-2.91082E-19 5.04596E-19
 -1      3764 9.16087E-05-2.51399E-05-2.84851E-05 4.44629E-06-3.52155E-19-7.28720E-19
 -1      3765 9.21409E-05-2.59256E-05-2.83839E-05 6.04391E-06-9.62431E-19 4.17105E-19
 -1      3766 9.23316E-05-2.62800E-05-2.82914E-05 6.62357E-06-1.06788E-18-2.56657E-19
 -1      3767 9.11822E-05-2.51995E-05-2.82805E-05 5.61010E-06-4.84952E-19-3.06143E-19
 -1      3768 9.23475E-05-2.66936E-05-2.81396E-05 7.39865E-06-5.99270E-19-6.56091E-19
 -1      3769 9.28357E-05-2.73958E-05-2.80227E-05 8.03318E-06-5.28523E-20-9.80508E-19
 -1      3770 9.10045E-05-2.56993E-05-2.79969E-05 7.04908E-06-1.14001E-18 1.28226E-19
 -1      3771 9.31700E-05-2.82046E-05-2.78360E-05 8.94598E-06 4.41271E-19-1.41653E-18
 -1      3772 9.41198E-05-2.93919E-05-2.77103E-05 9.58958E-06 9.92287E-19-1.04946E-18
 -1      3773 9.12977E-05-2.68729E-05-2.76315E-05 8.80752E-06 9.57617E-20-4.20982E-19
 -1      3774 9.49871E-05-3.07490E-05-2.75080E-05 1.06043E-05 9.96269E-19-1.52547E-18
 -1      3775 9.66067E-05-3.25647E-05-2.74106E-05 1.11413E-05 7.39184E-19-9.99019E-19
 -1      3776 9.24032E-05-2.90240E-05-2.72030E-05 1.08916E-05 7.73358E-19-1.44298E-18
 -1      3777 9.83338E-05-3.46423E-05-2.72421E-05 1.21106E-05 2.03227E-19-8.34515E-19
 -1      3778 1.00835E-04-3.71558E-05-2.72523E-05 1.22646E-05-1.08940E-20-1.12837E-18
 -1      3779 9.48526E-05-3.25423E-05-2.67728E-05 1.31968E-05 6.53494E-19-1.82278E-18
 -1      3780 1.03846E-04-4.00492E-05-2.72346E-05 1.28492E-05 1.31648E-19-9.32010E-19
 -1      3781 1.07374E-04-4.30700E-05-2.75160E-05 1.20709E-05 9.21162E-19-1.48778E-18
 -1      3782 9.93371E-05-3.77230E-05-2.64886E-05 1.52770E-05 1.63732E-19-9.51939E-19
 -1      3783 1.11233E-04-4.62580E-05-2.76687E-05 1.22876E-05 1.76452E-18-7.68394E-19
 -1      3784 1.03207E-04-4.34455E-05-2.56896E-05 1.92744E-05 1.92445E-18-5.40361E-19
 -1      3785 9.39787E-05-3.85045E-05-2.35028E-05 2.43983E-05 1.96535E-18-6.77573E-19
 -1      3786 1.09543E-04-4.44782E-05-2.79325E-05-1.45746E-05 1.21873E-18-8.67347E-19
 -1      3787 1.06066E-04-4.11271E-05-2.77731E-05-1.53297E-05 2.02929E-18-2.90655E-19
 -1      3788 9.48148E-05-2.77159E-05-2.87548E-05-1.15526E-06 7.40937E-19-1.12662E-18
 -1      3789 9.49113E-05-2.78778E-05-2.87321E-05-1.04420E-06 6.52996E-19-8.61608E-19
 -1      3790 9.57202E-05-2.88962E-05-2.86371E-05-7.73376E-07 1.04213E-19-1.69955E-19
 -1      3791 9.57780E-05-2.89534E-05-2.86394E-05-7.89677E-07 2.25316E-19 1.02623E-19
 -1      3792 9.59284E-05-2.85203E-05-2.88914E-05-8.38679E-07 4.41184E-19-1.32637E-18
 -1      3793 9.59589E-05-2.83332E-05-2.89758E-05-6.87591E-07 5.37048E-19-1.38647E-18
 -1      3794 9.61633E-05-2.86019E-05-2.89575E-05-7.90221E-07 5.13773E-19-1.12736E-18
 -1      3795 9.50503E-05-2.80431E-05-2.87154E-05-9.65607E-07 2.94319E-19-7.34293E-19
 -1      3796 9.51289E-05-2.81790E-05-2.86955E-05-8.91511E-07 2.04766E-19-8.66429E-19
 -1      3797 9.49091E-05-2.78828E-05-2.87240E-05-9.23326E-07 5.48937E-19-1.43431E-18
 -1      3798 9.52460E-05-2.83181E-05-2.86814E-05-8.42786E-07-7.41367E-20-7.26989E-19
 -1      3799 9.53131E-05-2.84321E-05-2.86653E-05-8.00273E-07-7.14999E-20-8.92388E-19
 -1      3800 9.51623E-05-2.82057E-05-2.86950E-05-7.98883E-07 2.43659E-19-1.20684E-18
 -1      3801 9.45210E-05-2.73256E-05-2.87962E-05-1.42109E-06 3.44229E-19-1.25232E-18
 -1      3802 9.46439E-05-2.75188E-05-2.87722E-05-1.26788E-06 5.65294E-19-1.00291E-18
 -1      3803 9.46028E-05-2.74993E-05-2.87561E-05-1.10785E-06 5.47478E-19-1.49244E-18
 -1      3804 9.41465E-05-2.68600E-05-2.88355E-05-1.77179E-06 2.96566E-19-1.25567E-18
 -1      3805 9.43060E-05-2.70902E-05-2.88122E-05-1.57152E-06 3.58207E-19-1.26542E-18
 -1      3806 9.42216E-05-2.70433E-05-2.87868E-05-1.35930E-06 4.21499E-19-1.07113E-18
 -1      3807 9.36632E-05-2.63064E-05-2.88660E-05-2.21483E-06 3.70255E-19-9.01000E-19
 -1      3808 9.38724E-05-2.65794E-05-2.88466E-05-1.96317E-06 4.74966E-19-1.04591E-18
 -1      3809 9.37389E-05-2.65017E-05-2.88104E-05-1.68305E-06 3.54650E-19-1.26478E-18
 -1      3810 9.30375E-05-2.56540E-05-2.88781E-05-2.75595E-06-5.25352E-19 3.51233E-20
 -1      3811 9.33120E-05-2.59743E-05-2.88675E-05-2.44945E-06-6.43032E-20-3.97465E-19
 -1      3812 9.31222E-05-2.58619E-05-2.88181E-05-2.08235E-06-1.25799E-19-4.52698E-19
 -1      3813 9.22295E-05-2.48965E-05-2.88573E-05-3.39898E-06-2.72390E-19-5.67576E-20
 -1      3814 9.25877E-05-2.52655E-05-2.88628E-05-3.03512E-06-4.31982E-19-9.00833E-20
 -1      3815 9.23326E-05-2.51132E-05-2.87978E-05-2.55786E-06-4.44150E-19-5.11859E-21
 -1      3816 9.11938E-05-2.40376E-05-2.87825E-05-4.14725E-06 5.56250E-19-3.85949E-19
 -1      3817 9.16555E-05-2.44509E-05-2.88150E-05-3.72361E-06 2.34503E-19-9.64782E-21
 -1      3818 9.13239E-05-2.42503E-05-2.87317E-05-3.10785E-06 3.97836E-20 3.88480E-19
 -1      3819 8.98819E-05-2.30988E-05-2.86234E-05-5.00843E-06 2.02999E-19-3.43659E-19
 -1      3820 9.04658E-05-2.35410E-05-2.86985E-05-4.51998E-06 5.66831E-19-4.58699E-19
 -1      3821 9.00414E-05-2.32775E-05-2.85944E-05-3.73066E-06 4.88145E-19-4.90944E-19
 -1      3822 8.82469E-05-2.21317E-05-2.83371E-05-6.00618E-06-4.48607E-19-3.19055E-19
 -1      3823 8.89651E-05-2.25690E-05-2.84768E-05-5.43877E-06-5.10985E-20-1.94094E-19
 -1      3824 8.84214E-05-2.22143E-05-2.83499E-05-4.43169E-06 6.31519E-20-2.17802E-19
 -1      3825 8.62537E-05-2.12363E-05-2.78642E-05-7.20369E-06-5.30293E-19-7.06274E-19
 -1      3826 8.71010E-05-2.16048E-05-2.80986E-05-6.52128E-06-6.46462E-19-3.79030E-19
 -1      3827 8.63891E-05-2.11039E-05-2.79471E-05-5.23902E-06-4.99963E-19-8.48817E-19
 -1      3828 8.38967E-05-2.05880E-05-2.71243E-05-8.74385E-06-6.71618E-19-1.09915E-18
 -1      3829 8.48309E-05-2.07762E-05-2.74924E-05-7.86726E-06-6.41871E-19-2.64578E-19
 -1      3830 8.38559E-05-2.00242E-05-2.73140E-05-6.23308E-06-8.09571E-19-9.67379E-19
 -1      3831 8.12101E-05-2.04922E-05-2.60070E-05-1.09317E-05-6.92903E-19-8.25675E-20
 -1      3832 8.21394E-05-2.03041E-05-2.65596E-05-9.69200E-06-8.55511E-19-1.67259E-19
 -1      3833 8.07086E-05-1.90978E-05-2.63468E-05-7.60008E-06-9.18669E-19-4.15182E-19
 -1      3834 7.81600E-05-2.15106E-05-2.43418E-05-1.44435E-05-1.08984E-19-9.12011E-19
 -1      3835 7.89876E-05-2.04694E-05-2.51575E-05-1.23452E-05 3.44696E-19 9.61052E-20
 -1      3836 7.69042E-05-1.85841E-05-2.48887E-05-9.72486E-06-3.02885E-19-1.10968E-19
 -1      3837 9.00044E-05-2.47212E-05-2.80428E-05 1.67473E-05-4.05761E-19 8.46978E-19
 -1      3838 6.49612E-05-1.91897E-05-1.96174E-05 1.76509E-05 9.61516E-19-6.39589E-19
 -1      3839 5.68101E-05-1.50906E-05-1.75558E-05 1.22415E-05 5.68399E-19-1.53684E-18
 -1      3840 5.96698E-05-1.48943E-05-1.91004E-05 8.30000E-06 1.39297E-19-1.17065E-18
 -1      3841 6.78926E-05-1.95102E-05-2.08723E-05-1.58463E-05-1.75779E-18-4.23755E-19
 -1      3842 7.44510E-05-2.08149E-05-2.29750E-05-1.49772E-05-7.98487E-19-8.05065E-19
 -1      3843 7.05509E-05-1.72172E-05-2.25886E-05-1.11966E-05-2.01432E-19 5.74791E-20
 -1      3844 6.07568E-05-1.51019E-05-1.91353E-05-1.02596E-05-7.56410E-19-2.06933E-18
 -1      3845 9.51665E-05-2.44111E-05-3.03166E-05 2.87420E-06 2.17380E-18-1.99260E-18
 -1      3846 9.54255E-05-2.50675E-05-3.01453E-05 2.08606E-06 1.97332E-18-2.10616E-18
 -1      3847 9.55028E-05-2.50399E-05-3.01978E-05 1.78050E-06 1.60602E-18-2.15845E-18
 -1      3848 8.00457E-05-2.86455E-05-2.20266E-05-2.40875E-05 1.10266E-18-1.92226E-18
 -1      3849 8.86565E-05-3.55146E-05-2.25464E-05-2.79697E-05 1.37672E-18-7.27694E-19
 -1      3850 1.15395E-04-4.83348E-05-2.86100E-05-1.22650E-05 3.36828E-19-1.59085E-18
 -1      3851 9.63469E-05-2.70977E-05-2.96764E-05-1.86252E-07-8.66457E-19-1.84001E-18
 -1      3852 9.64377E-05-2.75934E-05-2.95097E-05 1.11983E-07-6.24466E-19-1.66212E-18
 -1      3853 7.99331E-05-2.10191E-05-2.52426E-05 1.52233E-05-1.16682E-18 3.04170E-18
 -1      3854 8.28613E-05-2.13021E-05-2.64214E-05 1.50352E-05-1.01470E-18 3.14354E-18
 -1      3855 9.80014E-05-4.04670E-05-2.45950E-05-2.45093E-05 2.06970E-18-4.37082E-19
 -1      3856 9.47671E-05-2.26394E-05-3.08954E-05 1.10952E-07 2.47932E-19-3.19904E-18
 -1      3857 9.40542E-05-2.13541E-05-3.11554E-05-9.63824E-08 1.06734E-19-3.43179E-18
 -1      3858 9.43260E-05-2.19101E-05-3.10517E-05-4.73889E-07-6.94056E-20-3.26125E-18
 -1      3859 9.65282E-05-2.80146E-05-2.93585E-05 2.93092E-07-5.52424E-19-1.44055E-18
 -1      3860 9.65391E-05-2.83330E-05-2.92348E-05 4.76712E-07-4.58441E-19-1.43799E-18
 -1      3861 9.65848E-05-2.76928E-05-2.95248E-05 1.33251E-07-4.92993E-19-1.59165E-18
 -1      3862 9.44738E-05-2.23487E-05-3.09295E-05 2.56277E-06 1.52690E-18-2.65458E-18
 -1      3863 9.42616E-05-2.18535E-05-3.10358E-05 2.14088E-06 1.18116E-18-2.63281E-18
 -1      3864 9.48247E-05-2.28925E-05-3.08100E-05 1.55482E-06 1.08517E-18-2.58847E-18
 -1      3865 9.51111E-05-2.37131E-05-3.05829E-05 2.07788E-06 1.47865E-18-2.35525E-18
 -1      3866 8.62340E-05-2.32471E-05-2.69499E-05 1.69599E-05-5.71306E-19 1.92930E-18
 -1      3867 7.94078E-05-2.33544E-05-2.38784E-05-1.69602E-05 2.75298E-18-2.41130E-18
 -1      3868 7.48045E-05-2.04021E-05-2.33502E-05-1.33667E-05 2.70224E-18-1.33780E-18
 -1      3869 9.55714E-05-2.87415E-05-2.86396E-05-7.57682E-07-7.52130E-20-6.88369E-19
 -1      3870 9.56295E-05-2.88182E-05-2.86343E-05-7.61060E-07 1.61012E-19-1.99259E-19
 -1      3871 9.57588E-05-2.88884E-05-2.86597E-05-7.02067E-07 3.13158E-19 1.18765E-19
 -1      3872 1.11016E-04-4.67522E-05-2.75680E-05-1.65568E-05 9.10034E-19-3.97550E-19
 -1      3873 1.06126E-04-4.44510E-05-2.64671E-05 1.69203E-05 1.58387E-18-1.51784E-19
 -1      3874 9.96342E-05-3.96061E-05-2.56755E-05 1.81056E-05 1.21602E-18-5.77326E-19
 -1      3875 9.60091E-05-2.63783E-05-2.98488E-05 6.49326E-07 1.07041E-18-1.84000E-18
 -1      3876 9.58326E-05-2.57531E-05-3.00228E-05 1.08371E-06 1.24217E-18-1.91570E-18
 -1      3877 1.07111E-04-4.49626E-05-2.63950E-05-2.09219E-05 2.27607E-18 5.05798E-19
 -1      3878 1.02483E-04-3.82995E-05-2.74504E-05-1.69866E-05 2.18414E-18 1.69704E-19
 -1      3879 9.62735E-05-2.89540E-05-2.88517E-05-8.52657E-07 4.35689E-19-1.03238E-18
 -1      3880 9.63226E-05-2.88501E-05-2.89135E-05-8.03932E-07 4.45231E-19-1.06899E-18
 -1      3881 9.58658E-05-2.90092E-05-2.86547E-05-9.45617E-07 5.00646E-19-3.07609E-19
 -1      3882 9.59363E-05-2.90271E-05-2.86768E-05-7.27871E-07-3.72708E-20-4.22555E-19
 -1      3883 9.58667E-05-2.90094E-05-2.86516E-05-8.10362E-07-4.43633E-20-1.67335E-19
 -1      3884 9.59255E-05-2.90431E-05-2.86635E-05-8.31054E-07 1.38217E-19-5.28215E-19
 -1      3885 9.61900E-05-2.81480E-05-2.91634E-05-4.87110E-07 6.91566E-19-1.03154E-18
 -1      3886 9.61506E-05-2.90620E-05-2.87518E-05-8.75603E-07 3.27018E-19-8.38632E-19
 -1      3887 9.62078E-05-2.90206E-05-2.87924E-05-8.68073E-07 3.81431E-19-1.11279E-18
 -1      3888 9.64171E-05-2.90236E-05-2.88850E-05-7.60063E-07 3.60344E-19-1.15699E-18
 -1      3889 9.56676E-05-2.47849E-05-3.03757E-05-8.64265E-07-5.75620E-19-2.64598E-18
 -1      3890 9.57320E-05-2.51000E-05-3.02774E-05-1.03411E-06-7.90276E-19-2.73274E-18
 -1      3891 9.59521E-05-2.57217E-05-3.00976E-05-7.53192E-07-8.64892E-19-2.42983E-18
 -1      3892 8.18815E-05-3.12977E-05-2.18125E-05-2.41809E-05-2.04148E-18-1.31126E-18
 -1      3893 7.08139E-05-2.20922E-05-2.06850E-05 1.93497E-05 6.63882E-19-7.41194E-19
 -1      3894 6.97840E-05-2.00182E-05-2.13676E-05 1.57469E-05 9.81552E-19-1.14502E-18
 -1      3895 7.68226E-05-2.53021E-05-2.20549E-05 1.99733E-05 9.94830E-19-9.21029E-19
 -1      3896 8.85631E-05-3.38030E-05-2.33684E-05 2.23867E-05 1.38729E-18-1.09483E-18
 -1      3897 9.60805E-05-3.26377E-05-2.72600E-05-1.67825E-05 2.56189E-18 6.09852E-19
 -1      3898 6.00513E-05-1.44138E-05-1.94645E-05-5.39251E-06-2.90069E-19-1.36960E-18
 -1      3899 7.06501E-05-1.75135E-05-2.27112E-05 1.13679E-05-6.22986E-19 4.32893E-18
 -1      3900 7.44727E-05-2.01939E-05-2.31314E-05 1.58753E-05-1.96505E-19 2.80295E-18
 -1      3901 9.51567E-05-2.35840E-05-3.06859E-05 8.40716E-07 8.00034E-19-2.74360E-18
 -1      3902 9.50951E-05-2.34203E-05-3.07274E-05 4.78600E-07 5.62150E-19-2.82073E-18
 -1      3903 9.66781E-05-2.84169E-05-2.92553E-05 4.28790E-07-6.47372E-19-1.59310E-18
 -1      3904 9.44437E-05-2.21099E-05-3.09982E-05-7.58932E-07-2.01876E-19-3.03817E-18
 -1      3905 9.47316E-05-2.27313E-05-3.08732E-05-1.03317E-06-3.89217E-19-3.01496E-18
 -1      3906 9.52570E-05-2.37591E-05-3.06326E-05-8.49931E-07-4.55580E-19-2.82403E-18
 -1      3907 9.50560E-05-2.32432E-05-3.07629E-05-4.28695E-07-1.95407E-19-2.97851E-18
 -1      3908 9.55755E-05-2.50066E-05-3.02533E-05 1.51939E-06 1.38433E-18-2.13136E-18
 -1      3909 9.08042E-05-3.15214E-05-2.52324E-05-2.08658E-05 2.76302E-18-6.35482E-19
 -1      3910 8.50633E-05-2.80684E-05-2.44522E-05-2.00071E-05 3.11838E-18-2.39013E-18
 -1      3911 6.77901E-05-1.58836E-05-2.22578E-05 5.43046E-06 3.38623E-20 4.29288E-18
 -1      3912 9.62821E-05-2.75113E-05-2.94791E-05-5.84396E-08 8.48466E-19-1.23043E-18
 -1      3913 9.62087E-05-2.70175E-05-2.96468E-05 2.89447E-07 9.04158E-19-1.58880E-18
 -1      3914 9.61418E-05-2.64427E-05-2.98705E-05 5.09901E-07 8.40187E-19-1.72672E-18
 -1      3915 9.71983E-05-3.82257E-05-2.53660E-05-2.21619E-05 1.93456E-18-3.89059E-19
 -1      3916 9.57470E-05-2.47133E-05-3.04326E-05 2.88980E-07 5.70895E-19-2.55819E-18
 -1      3917 9.52316E-05-2.36693E-05-3.06703E-05 2.47842E-07 4.54920E-19-2.85762E-18
 -1      3918 9.54148E-05-2.40649E-05-3.05929E-05-2.73457E-08 1.72958E-19-2.94098E-18
 -1      3919 9.54160E-05-2.85492E-05-2.86553E-05-7.76967E-07-5.47771E-20-7.53072E-19
 -1      3920 9.54767E-05-2.86441E-05-2.86440E-05-7.60440E-07-1.38006E-19-8.13954E-19
 -1      3921 9.55755E-05-2.87042E-05-2.86596E-05-6.97772E-07-4.35486E-20-3.98404E-19
 -1      3922 9.54706E-05-2.45579E-05-3.03904E-05 1.37503E-06 1.05259E-18-2.14156E-18
 -1      3923 9.61231E-05-2.62266E-05-2.99585E-05-5.88105E-07-8.10576E-19-2.22863E-18
 -1      3924 9.62394E-05-2.67072E-05-2.98009E-05-3.31575E-07-9.41429E-19-2.08981E-18
 -1      3925 9.63836E-05-2.68331E-05-2.98055E-05-2.20288E-07-5.38846E-19-1.90252E-18
 -1      3926 9.61169E-05-2.59603E-05-3.00640E-05-5.25480E-07-5.66132E-19-2.28913E-18
 -1      3927 7.06582E-05-2.03646E-05-2.15498E-05-1.56695E-05 2.16321E-18-9.50199E-19
 -1      3928 7.37997E-05-2.35892E-05-2.13608E-05-2.05096E-05 1.60884E-18-1.09597E-18
 -1      3929 8.13823E-05-2.75533E-05-2.30051E-05-2.13908E-05 2.01871E-18-1.39234E-18
 -1      3930 9.53799E-05-2.84774E-05-2.86725E-05-7.26646E-07-1.69777E-19-6.53554E-19
 -1      3931 9.85591E-05-3.63427E-05-2.66827E-05-1.86990E-05 2.60456E-18 7.37157E-19
 -1      3932 9.66830E-05-2.90741E-05-2.89736E-05 5.27855E-07-2.47035E-19-1.47303E-18
 -1      3933 9.66098E-05-2.91520E-05-2.89105E-05 5.53005E-07-1.75762E-20-1.28351E-18
 -1      3934 9.65194E-05-2.91924E-05-2.88533E-05 5.52507E-07-1.60221E-19-1.17447E-18
 -1      3935 9.64303E-05-2.92054E-05-2.88100E-05 5.55920E-07-1.84434E-19-1.09602E-18
 -1      3936 9.66558E-05-2.91911E-05-2.89149E-05 4.29689E-07-1.12865E-20-1.09712E-18
 -1      3937 9.63232E-05-2.91891E-05-2.87711E-05 5.45782E-07-3.51275E-19-9.68970E-19
 -1      3938 9.62264E-05-2.91558E-05-2.87435E-05 5.39231E-07-3.60629E-19-9.09528E-19
 -1      3939 9.64592E-05-2.92231E-05-2.88170E-05 4.31343E-07-4.06936E-19-1.24933E-18
 -1      3940 9.61104E-05-2.90989E-05-2.87190E-05 5.27145E-07-1.09110E-19-9.59131E-19
 -1      3941 9.60099E-05-2.90317E-05-2.87037E-05 5.19629E-07-8.69830E-20-7.91819E-19
 -1      3942 9.62377E-05-2.91526E-05-2.87522E-05 4.19672E-07-4.70819E-20-8.30501E-19
 -1      3943 9.58879E-05-2.89442E-05-2.86905E-05 5.11123E-07-1.95143E-19-8.53708E-19
 -1      3944 9.57843E-05-2.88506E-05-2.86846E-05 5.09921E-07-1.29013E-20-1.00505E-18
 -1      3945 9.60020E-05-2.90069E-05-2.87134E-05 4.07750E-07-4.90155E-20-6.00737E-19
 -1      3946 9.56562E-05-2.87382E-05-2.86800E-05 5.10010E-07 1.10323E-20-1.28962E-18
 -1      3947 9.55477E-05-2.86220E-05-2.86812E-05 5.20933E-07-1.43932E-19-1.07500E-18
 -1      3948 9.57544E-05-2.88019E-05-2.86946E-05 4.05300E-07-2.51892E-19-1.15533E-18
 -1      3949 9.54104E-05-2.84871E-05-2.86828E-05 5.33701E-07-2.23617E-19-8.37778E-19
 -1      3950 9.52936E-05-2.83498E-05-2.86890E-05 5.61804E-07-4.63986E-19-6.64364E-19
 -1      3951 9.54917E-05-2.85468E-05-2.86907E-05 4.21250E-07 6.51698E-21-1.20533E-18
 -1      3952 9.51420E-05-2.81925E-05-2.86947E-05 5.91259E-07-5.38835E-19-5.25084E-19
 -1      3953 9.50123E-05-2.80337E-05-2.87040E-05 6.41359E-07-2.80372E-19-6.19822E-19
 -1      3954 9.52059E-05-2.82440E-05-2.86973E-05 4.63221E-07-3.52561E-19-8.61075E-19
 -1      3955 9.48399E-05-2.78526E-05-2.87115E-05 6.91843E-07 1.80887E-20 9.67321E-20
 -1      3956 9.46919E-05-2.76714E-05-2.87220E-05 7.68914E-07 4.22346E-19 4.59113E-19
 -1      3957 9.48851E-05-2.78924E-05-2.87097E-05 5.39188E-07 2.35337E-19-1.10309E-19
 -1      3958 9.44911E-05-2.74653E-05-2.87290E-05 8.45491E-07 4.81482E-19 4.11105E-19
 -1      3959 9.43197E-05-2.72614E-05-2.87382E-05 9.55017E-07 5.47757E-19 4.26507E-19
 -1      3960 9.45156E-05-2.74891E-05-2.87233E-05 6.58119E-07 3.70260E-19 4.59084E-19
 -1      3961 9.40829E-05-2.70297E-05-2.87417E-05 1.06392E-06 3.44836E-19 2.87016E-20
 -1      3962 9.38836E-05-2.68047E-05-2.87468E-05 1.21225E-06 4.57309E-19-3.71083E-19
 -1      3963 9.40821E-05-2.70315E-05-2.87326E-05 8.30847E-07 1.76068E-19 1.26657E-19
 -1      3964 9.36038E-05-2.65497E-05-2.87432E-05 1.36145E-06 3.13956E-19-6.33303E-19
 -1      3965 9.33742E-05-2.63088E-05-2.87407E-05 1.55618E-06 4.37055E-19-9.60077E-19
 -1      3966 9.35700E-05-2.65207E-05-2.87310E-05 1.07112E-06 3.61303E-19-6.24956E-19
 -1      3967 9.30461E-05-2.60367E-05-2.87253E-05 1.75605E-06 4.68190E-19-9.02214E-19
 -1      3968 9.27878E-05-2.57910E-05-2.87106E-05 2.00657E-06 6.86057E-20-1.45394E-18
 -1      3969 9.29666E-05-2.59639E-05-2.87100E-05 1.39694E-06 3.92231E-19-1.61765E-18
 -1      3970 9.24093E-05-2.55146E-05-2.86777E-05 2.27089E-06-3.15043E-19-1.18227E-18
 -1      3971 9.21303E-05-2.52834E-05-2.86451E-05 2.58907E-06-4.16320E-19-1.29990E-18
 -1      3972 9.22642E-05-2.53784E-05-2.86589E-05 1.83241E-06-9.57952E-20-1.40675E-18
 -1      3973 9.17048E-05-2.50248E-05-2.85874E-05 2.93637E-06 2.61194E-20-1.33676E-18
 -1      3974 9.14230E-05-2.48393E-05-2.85303E-05 3.33756E-06-1.93449E-19-1.15302E-18
 -1      3975 9.14634E-05-2.47968E-05-2.85642E-05 2.41032E-06-2.13163E-19-1.01014E-18
 -1      3976 9.09622E-05-2.46326E-05-2.84390E-05 3.79302E-06-6.00554E-19-7.61533E-19
 -1      3977 9.07105E-05-2.45397E-05-2.83501E-05 4.29724E-06-3.09595E-19-8.92974E-19
 -1      3978 9.05779E-05-2.42719E-05-2.84093E-05 3.17576E-06-7.66711E-20-1.21836E-18
 -1      3979 9.02385E-05-2.44358E-05-2.82152E-05 4.89508E-06-5.20462E-19-1.30622E-18
 -1      3980 9.00722E-05-2.45034E-05-2.80870E-05 5.52795E-06-5.73762E-19-6.67116E-19
 -1      3981 8.96413E-05-2.38842E-05-2.81746E-05 4.19116E-06-5.19051E-19-9.08943E-19
 -1      3982 8.96325E-05-2.45742E-05-2.78978E-05 6.31418E-06-6.62687E-19-7.04324E-19
 -1      3983 8.96411E-05-2.48983E-05-2.77252E-05 7.10622E-06-4.65749E-19 1.12901E-19
 -1      3984 8.87174E-05-2.37512E-05-2.78376E-05 5.54278E-06-4.88370E-19-8.15181E-19
 -1      3985 8.93078E-05-2.52448E-05-2.74716E-05 8.14250E-06-5.22606E-19 1.15799E-19
 -1      3986 8.96321E-05-2.59618E-05-2.72547E-05 9.12366E-06 2.08077E-21-3.32469E-19
 -1      3987 8.79151E-05-2.40395E-05-2.73750E-05 7.34789E-06-4.74918E-19-1.41734E-19
 -1      3988 8.95460E-05-2.67314E-05-2.69312E-05 1.04736E-05 5.63666E-19-1.11751E-18
 -1      3989 9.04001E-05-2.80239E-05-2.66850E-05 1.16500E-05 9.57971E-19-1.34490E-18
 -1      3990 8.74344E-05-2.50111E-05-2.67651E-05 9.76746E-06 1.14779E-19-9.73422E-19
 -1      3991 9.07791E-05-2.94024E-05-2.63004E-05 1.33622E-05 7.76915E-19-1.43527E-18
 -1      3992 9.24438E-05-3.15110E-05-2.60565E-05 1.47045E-05 1.51061E-19-1.73154E-18
 -1      3993 8.76072E-05-2.70070E-05-2.60043E-05 1.29382E-05 7.26613E-19-1.22613E-18
 -1      3994 9.40935E-05-3.36607E-05-2.58555E-05 1.60895E-05 1.67145E-19-1.91976E-18
 -1      3995 9.68730E-05-3.67394E-05-2.57294E-05 1.72612E-05 7.63461E-19-9.22088E-19
 -1      3996 9.39668E-05-3.58110E-05-2.50311E-05 1.92748E-05 1.15020E-18-1.47714E-18
 -1      3997 8.94080E-05-3.04896E-05-2.53389E-05 1.63651E-05 5.48280E-19-1.42704E-18
 -1      3998 9.60116E-05-2.90709E-05-2.86877E-05-8.51920E-07 3.65229E-19-6.50625E-19
 -1      3999 9.60708E-05-2.90731E-05-2.87122E-05-8.65855E-07 3.63476E-19-8.56246E-19
 -1      4000 9.62731E-05-2.91186E-05-2.87825E-05-7.79218E-07 3.45871E-19-1.42188E-18
 -1      4001 9.61092E-05-2.91101E-05-2.87157E-05-7.59805E-07 1.13814E-19-1.02323E-18
 -1      4002 9.63737E-05-2.82482E-05-2.92008E-05-4.99763E-07 5.39636E-19-1.10219E-18
 -1      4003 9.63663E-05-2.79284E-05-2.93245E-05-2.87376E-07 8.22232E-19-1.17909E-18
 -1      4004 9.64377E-05-2.75806E-05-2.95104E-05-8.98826E-08 7.32020E-19-1.28149E-18
 -1      4005 9.47776E-05-2.77383E-05-2.87303E-05-8.32213E-07 5.55814E-19-1.34723E-18
 -1      4006 9.49173E-05-2.79206E-05-2.87156E-05-7.59357E-07 6.05317E-19-1.15508E-18
 -1      4007 9.50815E-05-2.81001E-05-2.87052E-05-7.14499E-07 4.65061E-19-1.13971E-18
 -1      4008 9.51992E-05-2.82540E-05-2.86928E-05-6.67523E-07 3.32235E-19-8.42791E-19
 -1      4009 9.49614E-05-2.79630E-05-2.87121E-05-6.20574E-07 4.93542E-19-7.52446E-19
 -1      4010 9.33750E-05-2.62047E-05-2.87884E-05-1.50165E-06 2.21469E-19-7.71473E-19
 -1      4011 9.36502E-05-2.65063E-05-2.87815E-05-1.33571E-06 5.90496E-19-9.01595E-19
 -1      4012 9.26438E-05-2.55028E-05-2.87770E-05-1.83452E-06-7.93530E-19-9.08655E-20
 -1      4013 9.29963E-05-2.58560E-05-2.87812E-05-1.63633E-06-1.97795E-19-8.31219E-19
 -1      4014 9.29646E-05-2.58548E-05-2.87536E-05-1.26662E-06-2.32319E-19-4.42659E-19
 -1      4015 9.17153E-05-2.46885E-05-2.87296E-05-2.21622E-06-1.42263E-19-5.52686E-19
 -1      4016 9.21668E-05-2.50971E-05-2.87525E-05-1.98797E-06-4.92189E-19-4.14719E-19
 -1      4017 9.21204E-05-2.50870E-05-2.87183E-05-1.51407E-06-2.82005E-19-7.86919E-19
 -1      4018 9.05386E-05-2.37584E-05-2.86261E-05-2.63752E-06 2.38040E-20-6.48713E-19
 -1      4019 9.11148E-05-2.42229E-05-2.86783E-05-2.38293E-06-3.03800E-19-5.18468E-19
 -1      4020 9.10581E-05-2.42048E-05-2.86377E-05-1.77827E-06-1.43657E-19-1.13965E-18
 -1      4021 8.90523E-05-2.27178E-05-2.84377E-05-3.08773E-06 6.78958E-20-1.01471E-19
 -1      4022 8.97838E-05-2.32337E-05-2.85345E-05-2.81024E-06 3.20782E-19-3.01112E-20
 -1      4023 8.97233E-05-2.32073E-05-2.84887E-05-2.04136E-06-1.21666E-19-2.32606E-19
 -1      4024 8.71804E-05-2.15849E-05-2.81242E-05-3.56146E-06 2.51748E-20-1.77301E-19
 -1      4025 8.81036E-05-2.21402E-05-2.82870E-05-3.25969E-06 5.74028E-20-8.13904E-20
 -1      4026 8.80477E-05-2.21004E-05-2.82391E-05-2.28207E-06 7.75294E-20 7.93969E-20
 -1      4027 8.48247E-05-2.03939E-05-2.76284E-05-4.07355E-06-7.03053E-19 2.65921E-19
 -1      4028 8.59832E-05-2.09665E-05-2.78876E-05-3.73159E-06-2.91872E-19 2.49917E-19
 -1      4029 8.59407E-05-2.08977E-05-2.78433E-05-2.48163E-06-6.30508E-19-1.44455E-19
 -1      4030 8.18478E-05-1.91988E-05-2.68681E-05-4.68853E-06-1.14580E-18 1.99592E-19
 -1      4031 8.32966E-05-1.97526E-05-2.72670E-05-4.25801E-06-9.74171E-19-3.14535E-21
 -1      4032 8.32709E-05-1.96165E-05-2.72360E-05-2.63752E-06-6.15335E-19 8.43019E-19
 -1      4033 7.80438E-05-1.80812E-05-2.57208E-05-5.56793E-06-7.37642E-19-1.18868E-19
 -1      4034 7.98627E-05-1.85608E-05-2.63237E-05-4.93281E-06-8.00678E-19-1.63190E-19
 -1      4035 7.98416E-05-1.82797E-05-2.63195E-05-2.79150E-06-9.14594E-19 1.15868E-19
 -1      4036 7.28463E-05-1.71287E-05-2.39611E-05-7.11539E-06-2.35895E-19-5.25200E-19
 -1      4037 7.53213E-05-1.74106E-05-2.48967E-05-5.96445E-06-5.88462E-19-8.33327E-19
 -1      4038 7.53394E-05-1.68818E-05-2.49428E-05-3.01103E-06-2.78010E-19-6.38954E-19
 -1      4039 9.67862E-05-2.87847E-05-2.91413E-05 4.47499E-07-7.46792E-19-1.63051E-18
 -1      4040 9.67430E-05-2.89540E-05-2.90535E-05 5.09228E-07-6.01655E-19-1.62859E-18
 -1      4041 9.68064E-05-2.90161E-05-2.90540E-05 3.98796E-07-2.99658E-19-1.36606E-18
 -1      4042 7.14971E-05-1.84576E-05-2.25552E-05-1.11472E-05 1.96869E-18-1.15814E-18
 -1      4043 6.51078E-05-1.52892E-05-2.14670E-05-5.07137E-06-6.68322E-19-1.12898E-18
 -1      4044 6.96477E-05-1.63261E-05-2.28380E-05-5.87918E-06-3.74753E-19-8.78658E-19
 -1      4045 6.93944E-05-1.52295E-05-2.29873E-05-1.68720E-06-6.41234E-19-3.54722E-19
 -1      4046 9.65201E-05-2.87809E-05-2.90326E-05-6.69117E-07 4.34409E-19-1.33177E-18
 -1      4047 9.63616E-05-2.87050E-05-2.89977E-05-7.43501E-07 4.30681E-19-1.21273E-18
 -1      4048 9.63918E-05-2.85121E-05-2.90866E-05-6.29049E-07 5.03198E-19-1.24939E-18
 -1      4049 6.48768E-05-1.56440E-05-2.10552E-05 6.59655E-06 4.68237E-19-9.52475E-19
 -1      4050 6.08045E-05-1.35152E-05-1.99512E-05 8.05517E-07-5.40645E-20-7.23538E-19
 -1      4051 7.51550E-05-2.25786E-05-2.23989E-05 1.86255E-05 4.67986E-19 2.30711E-18
 -1      4052 9.67863E-05-2.82575E-05-2.93671E-05 2.79923E-07-4.90140E-19-1.65032E-18
 -1      4053 9.67944E-05-2.85525E-05-2.92489E-05 3.97011E-07-6.26394E-19-1.53946E-18
 -1      4054 9.68758E-05-2.86405E-05-2.92437E-05 3.18314E-07-6.03734E-19-1.67879E-18
 -1      4055 8.58080E-05-3.05958E-05-2.35625E-05 2.05945E-05 1.09632E-18-1.21109E-18
 -1      4056 9.53409E-05-2.84057E-05-2.86853E-05-6.41907E-07 1.16813E-19-1.12798E-18
 -1      4057 9.54444E-05-2.85350E-05-2.86768E-05-6.17023E-07-4.36573E-20-7.16056E-19
 -1      4058 9.52639E-05-2.83065E-05-2.86954E-05-5.53275E-07 1.80174E-19-1.28819E-18
 -1      4059 6.19765E-05-1.46907E-05-1.99397E-05-1.18162E-06-5.05778E-19 5.28541E-18
 -1      4060 6.63905E-05-1.66641E-05-2.12782E-05-7.04542E-06 3.01433E-20 2.06385E-18
 -1      4061 6.51263E-05-1.57171E-05-2.11052E-05 4.24136E-06 9.95886E-19 5.60335E-18
 -1      4062 9.53720E-05-2.42084E-05-3.05125E-05 1.29216E-06 1.05014E-18-2.36801E-18
 -1      4063 9.52699E-05-2.38763E-05-3.05998E-05 1.01239E-06 7.77345E-19-2.66557E-18
 -1      4064 9.57036E-05-2.47414E-05-3.04035E-05 6.32378E-07 7.54251E-19-2.72113E-18
 -1      4065 9.58684E-05-2.53824E-05-3.01991E-05 8.22224E-07 8.67508E-19-2.17259E-18
 -1      4066 9.66181E-05-2.74001E-05-2.96643E-05-3.08534E-09-2.69151E-19-1.87414E-18
 -1      4067 9.67140E-05-2.78696E-05-2.95079E-05 1.85519E-07-3.52768E-19-1.87422E-18
 -1      4068 9.68164E-05-2.79947E-05-2.94943E-05 1.64922E-07-2.68440E-19-1.80234E-18
 -1      4069 9.39516E-05-2.68031E-05-2.87781E-05-1.22310E-06 3.51318E-19-1.19167E-18
 -1      4070 9.41676E-05-2.70588E-05-2.87653E-05-1.08978E-06 2.59248E-19-1.39296E-18
 -1      4071 9.36358E-05-2.65153E-05-2.87603E-05-1.04839E-06 2.43457E-19-1.15303E-18
 -1      4072 9.44091E-05-2.73100E-05-2.87564E-05-1.00047E-06 5.12523E-19-1.31700E-18
 -1      4073 9.45809E-05-2.75260E-05-2.87413E-05-8.98565E-07 5.58753E-19-1.52231E-18
 -1      4074 9.46049E-05-2.75573E-05-2.87321E-05-7.24126E-07 7.01410E-19-1.22115E-18
 -1      4075 9.41719E-05-2.70787E-05-2.87503E-05-8.66608E-07 3.50437E-19-1.29735E-18
 -1      4076 9.57852E-05-2.88729E-05-2.86753E-05-6.04269E-07 3.10656E-19-5.88877E-19
 -1      4077 9.58764E-05-2.89569E-05-2.86800E-05-6.09379E-07 2.07491E-19-5.54852E-19
 -1      4078 7.07974E-05-1.69780E-05-2.31050E-05-5.39742E-06 1.88387E-18 1.38606E-18
 -1      4079 9.59881E-05-2.90348E-05-2.86930E-05-6.20742E-07-1.59683E-19-5.35023E-19
 -1      4080 9.60787E-05-2.90932E-05-2.87074E-05-6.30240E-07-1.98350E-19-7.21868E-19
 -1      4081 9.60001E-05-2.90216E-05-2.87070E-05-5.19371E-07 6.19093E-23-9.86200E-19
 -1      4082 9.59855E-05-2.53491E-05-3.02693E-05 3.33559E-07 5.92237E-19-2.65606E-18
 -1      4083 9.61142E-05-2.56189E-05-3.02191E-05 1.50982E-07 5.12662E-19-2.57157E-18
 -1      4084 9.55865E-05-2.45371E-05-3.04577E-05-7.65693E-07-4.09984E-19-2.72275E-18
 -1      4085 9.58734E-05-2.52056E-05-3.02844E-05-5.91238E-07-4.07769E-19-2.64084E-18
 -1      4086 9.54844E-05-2.42427E-05-3.05340E-05-5.87808E-07-2.54433E-19-2.73149E-18
 -1      4087 9.65424E-05-2.83282E-05-2.92359E-05-4.65871E-07 5.70778E-19-1.29304E-18
 -1      4088 8.71503E-05-2.94087E-05-2.46732E-05 1.72662E-05 8.15749E-19-6.33584E-19
 -1      4089 8.09946E-05-2.71856E-05-2.30544E-05 1.97857E-05 6.31804E-19-9.44223E-19
 -1      4090 7.85880E-05-2.43463E-05-2.33018E-05 1.69967E-05 2.72392E-19-1.11005E-18
 -1      4091 8.53489E-05-2.72269E-05-2.48977E-05 1.56347E-05 4.00946E-19-3.92302E-19
 -1      4092 9.64183E-05-2.66682E-05-2.98947E-05-2.23678E-07-3.91561E-19-2.34136E-18
 -1      4093 9.65222E-05-2.70491E-05-2.97744E-05-7.95649E-08-2.97251E-19-2.14631E-18
 -1      4094 9.66439E-05-2.72271E-05-2.97487E-05-2.43552E-08-7.60964E-20-2.22085E-18
 -1      4095 7.86583E-05-2.59992E-05-2.22791E-05 2.36514E-05 7.51087E-19 1.94182E-18
 -1      4096 8.64612E-05-3.18425E-05-2.31697E-05 2.63534E-05 8.61327E-20 2.10329E-18
 -1      4097 9.66515E-05-2.88843E-05-2.90445E-05-5.97544E-07 3.25684E-19-1.57933E-18
 -1      4098 9.66895E-05-2.87048E-05-2.91329E-05-5.21072E-07 4.80883E-19-1.62895E-18
 -1      4099 7.19082E-05-1.92709E-05-2.24688E-05 1.21427E-05 2.77802E-19-1.59425E-18
 -1      4100 6.74533E-05-1.66776E-05-2.15586E-05 1.00753E-05 8.31722E-19-1.04495E-18
 -1      4101 6.71185E-05-1.55475E-05-2.22791E-05 3.67979E-06 6.78375E-20-7.19118E-19
 -1      4102 6.96952E-05-1.59200E-05-2.30221E-05-1.09986E-07 3.09677E-19 4.05559E-18
 -1      4103 9.60743E-05-2.56408E-05-3.01895E-05 4.53340E-07 6.15053E-19-2.70998E-18
 -1      4104 9.65977E-05-2.90131E-05-2.89628E-05-6.28285E-07 2.71513E-19-1.53705E-18
 -1      4105 9.67413E-05-2.89510E-05-2.90545E-05-4.96932E-07 2.97205E-19-1.71415E-18
 -1      4106 9.65335E-05-2.91019E-05-2.88996E-05-6.61143E-07 4.08272E-19-1.59547E-18
 -1      4107 9.63693E-05-2.68803E-05-2.97817E-05 1.87111E-07 6.88498E-19-1.94863E-18
 -1      4108 9.61709E-05-2.62205E-05-2.99827E-05 5.34661E-07 7.18673E-19-2.06182E-18
 -1      4109 9.61049E-05-2.58690E-05-3.00975E-05 5.00194E-07 6.95124E-19-2.35841E-18
 -1      4110 9.54754E-05-2.41727E-05-3.05596E-05-1.98894E-07-6.79108E-20-2.93786E-18
 -1      4111 9.55590E-05-2.43944E-05-3.05080E-05-4.08798E-07-1.85698E-19-2.73108E-18
 -1      4112 9.59245E-05-2.50855E-05-3.03472E-05-4.60751E-08 1.26576E-19-2.67735E-18
 -1      4113 9.55717E-05-2.86623E-05-2.86741E-05-6.07800E-07-4.57926E-20-7.20454E-19
 -1      4114 9.56668E-05-2.87691E-05-2.86713E-05-6.00579E-07 1.71696E-19-5.56579E-19
 -1      4115 9.57734E-05-2.88350E-05-2.86886E-05-5.08694E-07 2.14789E-19-9.50278E-19
 -1      4116 9.55300E-05-2.85958E-05-2.86862E-05-5.17878E-07 1.40741E-19-1.19801E-18
 -1      4117 9.65740E-05-2.92518E-05-2.88516E-05 2.97899E-07-4.03217E-19-1.00190E-18
 -1      4118 9.64674E-05-2.92396E-05-2.88111E-05 3.00145E-07-4.22825E-19-1.08169E-18
 -1      4119 9.63463E-05-2.92000E-05-2.87765E-05 2.92995E-07-1.64726E-19-9.90361E-19
 -1      4120 9.62323E-05-2.91441E-05-2.87507E-05 2.92636E-07 1.74603E-19-7.82792E-19
 -1      4121 9.64406E-05-2.92301E-05-2.88065E-05 1.64818E-07-1.31488E-19-8.45871E-19
 -1      4122 9.61020E-05-2.90665E-05-2.87293E-05 2.83056E-07 1.89314E-19-9.66378E-19
 -1      4123 9.59808E-05-2.89761E-05-2.87151E-05 2.84123E-07-2.18005E-19-9.27552E-19
 -1      4124 9.61974E-05-2.91175E-05-2.87506E-05 1.58424E-07 4.60101E-20-1.43002E-18
 -1      4125 9.58437E-05-2.88680E-05-2.87041E-05 2.79823E-07-5.52895E-19-9.04724E-19
 -1      4126 9.57161E-05-2.87503E-05-2.86986E-05 2.86242E-07-2.54802E-19-1.04650E-18
 -1      4127 9.59322E-05-2.89278E-05-2.87178E-05 1.58227E-07-2.13390E-19-1.00777E-18
 -1      4128 9.55700E-05-2.86163E-05-2.86952E-05 2.87940E-07 1.80237E-19-1.27032E-18
 -1      4129 9.54333E-05-2.84739E-05-2.86960E-05 3.03326E-07 1.19418E-19-1.08796E-18
 -1      4130 9.56533E-05-2.86808E-05-2.87030E-05 1.63891E-07-1.01329E-19-1.26177E-18
 -1      4131 9.52730E-05-2.83145E-05-2.86979E-05 3.13477E-07 9.22823E-23-9.18703E-19
 -1      4132 9.51222E-05-2.81474E-05-2.87028E-05 3.41471E-07 6.26072E-20-3.41943E-19
 -1      4133 9.53517E-05-2.83802E-05-2.87012E-05 1.79714E-07 2.17514E-19-1.25063E-18
 -1      4134 9.49409E-05-2.79617E-05-2.87076E-05 3.62822E-07 3.84513E-19 1.71546E-20
 -1      4135 9.47694E-05-2.77684E-05-2.87143E-05 4.07313E-07 5.67712E-19 1.38736E-19
 -1      4136 9.50158E-05-2.80259E-05-2.87074E-05 2.10594E-07 5.87056E-19-3.76697E-19
 -1      4137 9.45585E-05-2.75540E-05-2.87194E-05 4.43377E-07 2.68063E-19 4.10852E-19
 -1      4138 9.43590E-05-2.73325E-05-2.87254E-05 5.08886E-07 1.55930E-19 2.67356E-19
 -1      4139 9.46305E-05-2.76140E-05-2.87169E-05 2.62272E-07 5.64006E-19-1.69783E-19
 -1      4140 9.41088E-05-2.70871E-05-2.87279E-05 5.64436E-07-1.79371E-19 3.66293E-19
 -1      4141 9.38737E-05-2.68362E-05-2.87301E-05 6.56585E-07 3.21067E-20-3.35205E-19
 -1      4142 9.41776E-05-2.71393E-05-2.87241E-05 3.42383E-07 1.32040E-19-4.22244E-19
 -1      4143 9.35735E-05-2.65586E-05-2.87265E-05 7.38257E-07-1.33061E-19-4.21736E-19
 -1      4144 9.32959E-05-2.62792E-05-2.87211E-05 8.64369E-07-1.85539E-20-9.80827E-19
 -1      4145 9.36370E-05-2.65972E-05-2.87223E-05 4.61558E-07-3.05603E-19-1.27262E-18
 -1      4146 9.29350E-05-2.59705E-05-2.87066E-05 9.81460E-07 2.93701E-19-1.35254E-18
 -1      4147 9.26097E-05-2.56674E-05-2.86889E-05 1.15136E-06 2.66986E-19-1.71434E-18
 -1      4148 9.29878E-05-2.59861E-05-2.87030E-05 6.34865E-07-2.25813E-19-1.47376E-18
 -1      4149 9.21777E-05-2.53331E-05-2.86574E-05 1.31692E-06 5.35208E-19-1.53546E-18
 -1      4150 9.18029E-05-2.50165E-05-2.86212E-05 1.54404E-06 5.62797E-20-1.18762E-18
 -1      4151 9.22095E-05-2.53107E-05-2.86556E-05 8.83774E-07 4.67763E-19-2.00524E-18
 -1      4152 9.12909E-05-2.46679E-05-2.85651E-05 1.77636E-06-5.30608E-19-8.29044E-19
 -1      4153 9.08700E-05-2.43565E-05-2.85027E-05 2.07936E-06-8.33157E-20-9.31228E-19
 -1      4154 9.12832E-05-2.45848E-05-2.85660E-05 1.23887E-06 7.15503E-20-1.40399E-18
 -1      4155 9.02709E-05-2.40132E-05-2.84121E-05 2.40409E-06 1.85544E-19-1.55056E-18
 -1      4156 8.98160E-05-2.37365E-05-2.83140E-05 2.80902E-06-1.31700E-19-1.30615E-18
 -1      4157 9.01938E-05-2.38350E-05-2.84162E-05 1.74365E-06-4.97942E-19-1.03767E-18
 -1      4158 8.91254E-05-2.34285E-05-2.81764E-05 3.26218E-06-4.18756E-19-1.02111E-18
 -1      4159 8.86611E-05-2.32306E-05-2.80315E-05 3.80561E-06-6.48334E-19-1.10432E-18
 -1      4160 8.89311E-05-2.31047E-05-2.81829E-05 2.45992E-06-4.15348E-19-1.47134E-18
 -1      4161 8.78783E-05-2.30013E-05-2.78312E-05 4.43807E-06-7.89371E-19-1.03048E-18
 -1      4162 8.74487E-05-2.29459E-05-2.76270E-05 5.17096E-06-8.01851E-19-8.59056E-19
 -1      4163 8.74918E-05-2.24585E-05-2.78369E-05 3.47568E-06-6.39115E-19-1.77668E-18
 -1      4164 8.65789E-05-2.28569E-05-2.73448E-05 6.05475E-06-5.20856E-19-1.03109E-18
 -1      4165 8.62566E-05-2.30356E-05-2.70680E-05 7.04831E-06-1.04112E-19-7.78955E-19
 -1      4166 8.58812E-05-2.19888E-05-2.73413E-05 4.91682E-06-3.93956E-19-1.43584E-18
 -1      4167 8.53052E-05-2.31472E-05-2.66801E-05 8.28176E-06-6.08715E-19-3.88277E-19
 -1      4168 8.52005E-05-2.37121E-05-2.63182E-05 9.65067E-06 1.80855E-19-7.51375E-19
 -1      4169 8.41262E-05-2.18354E-05-2.66501E-05 6.95535E-06 4.73644E-21-1.11847E-18
 -1      4170 8.43198E-05-2.42091E-05-2.57919E-05 1.13883E-05 1.09837E-18-8.07663E-19
 -1      4171 8.45937E-05-2.53485E-05-2.53359E-05 1.31997E-05 8.26425E-19-5.76307E-19
 -1      4172 8.22405E-05-2.22255E-05-2.57412E-05 9.69683E-06 3.20941E-19-3.82289E-19
 -1      4173 9.05172E-05-2.38847E-05-2.85670E-05-1.23780E-06-8.07868E-20-3.40883E-19
 -1      4174 9.11225E-05-2.43495E-05-2.86240E-05-1.14200E-06 2.14187E-19-1.61789E-19
 -1      4175 9.48510E-05-2.78451E-05-2.87170E-05-4.94254E-07 3.90356E-19-9.88172E-19
 -1      4176 9.50161E-05-2.80350E-05-2.87079E-05-4.54818E-07 3.61376E-19-1.06339E-18
 -1      4177 9.54840E-05-2.85307E-05-2.86935E-05-4.05753E-07 2.61252E-19-1.14446E-18
 -1      4178 9.56119E-05-2.86655E-05-2.86919E-05-3.93104E-07 2.65579E-19-1.10530E-18
 -1      4179 9.16830E-05-2.47954E-05-2.86732E-05-1.10740E-06 8.98510E-20-2.55361E-19
 -1      4180 9.21635E-05-2.52057E-05-2.87021E-05-1.00631E-06-5.52570E-19-4.08293E-19
 -1      4181 9.12642E-05-2.44622E-05-2.86110E-05-5.95139E-07 2.04498E-19 5.73832E-20
 -1      4182 9.26168E-05-2.55981E-05-2.87271E-05-9.59659E-07-3.51736E-19-5.20897E-19
 -1      4183 9.29982E-05-2.59550E-05-2.87377E-05-8.63035E-07 1.29833E-19-4.06700E-19
 -1      4184 9.22701E-05-2.52981E-05-2.86879E-05-5.72728E-07-3.08214E-19-2.87013E-19
 -1      4185 8.90643E-05-2.28697E-05-2.83835E-05-1.32341E-06-1.46823E-19-4.80723E-19
 -1      4186 8.98258E-05-2.33869E-05-2.84822E-05-1.24594E-06-1.65390E-19-5.40883E-19
 -1      4187 9.00224E-05-2.35290E-05-2.84738E-05-5.58799E-07 7.34805E-21-1.53310E-19
 -1      4188 8.72535E-05-2.17615E-05-2.80881E-05-1.32969E-06-2.21963E-19 1.30036E-19
 -1      4189 8.82121E-05-2.23254E-05-2.82474E-05-1.28566E-06-3.87393E-20-1.52772E-19
 -1      4190 8.84919E-05-2.25079E-05-2.82494E-05-4.23288E-07-3.22438E-19-5.51968E-19
 -1      4191 8.49866E-05-2.05770E-05-2.76324E-05-1.21798E-06-7.25083E-19 5.53103E-20
 -1      4192 8.61998E-05-2.11793E-05-2.78790E-05-1.22118E-06-2.75897E-19 4.82107E-19
 -1      4193 8.66048E-05-2.14155E-05-2.79010E-05-1.34413E-07-3.57297E-19 8.82376E-19
 -1      4194 8.21140E-05-1.93324E-05-2.69464E-05-9.53045E-07-6.88548E-19 6.31718E-19
 -1      4195 8.36699E-05-1.99661E-05-2.73195E-05-1.00819E-06-6.39204E-19 5.26487E-19
 -1      4196 8.42634E-05-2.02717E-05-2.73771E-05 3.79070E-07-5.71914E-19 7.95733E-19
 -1      4197 7.84012E-05-1.80274E-05-2.59248E-05-5.16494E-07-1.56929E-19-3.06700E-19
 -1      4198 8.04259E-05-1.86887E-05-2.64838E-05-6.07149E-07-3.97697E-19 7.56453E-19
 -1      4199 8.13122E-05-1.90898E-05-2.66033E-05 1.21342E-06-3.83775E-19 5.73125E-19
 -1      4200 7.34627E-05-1.67066E-05-2.43913E-05 6.78806E-08-5.42578E-19-1.64553E-19
 -1      4201 7.61774E-05-1.73975E-05-2.52360E-05-5.75379E-08 5.99210E-21-1.75169E-19
 -1      4202 7.74197E-05-1.78178E-05-2.54610E-05 2.46092E-06-3.49037E-20 5.11862E-19
 -1      4203 9.69072E-05-2.89665E-05-2.91165E-05 2.58890E-07-2.50221E-19-1.55567E-18
 -1      4204 9.68475E-05-2.91008E-05-2.90345E-05 2.90775E-07 1.36901E-19-1.33019E-18
 -1      4205 9.67900E-05-2.85399E-05-2.92502E-05-3.86664E-07 4.91212E-19-1.57503E-18
 -1      4206 9.66821E-05-2.84539E-05-2.92438E-05-4.48212E-07 4.62332E-19-1.55599E-18
 -1      4207 9.66669E-05-2.81411E-05-2.93645E-05-3.00458E-07 5.58141E-19-1.53763E-18
 -1      4208 9.65984E-05-2.78192E-05-2.94805E-05-2.07953E-07 5.74930E-19-1.72015E-18
 -1      4209 9.65112E-05-2.73554E-05-2.96386E-05 3.28465E-08 5.96288E-19-1.87111E-18
 -1      4210 9.65318E-05-2.71268E-05-2.97421E-05 7.68226E-08 4.72386E-19-2.34383E-18
 -1      4211 9.67312E-05-2.79486E-05-2.94813E-05-1.98120E-07 5.04383E-19-1.86098E-18
 -1      4212 9.64384E-05-2.63900E-05-3.00199E-05 1.00363E-07 4.76015E-19-2.41074E-18
 -1      4213 9.62009E-05-2.58013E-05-3.01723E-05 3.40980E-08 4.44349E-19-2.40368E-18
 -1      4214 9.67694E-05-2.91889E-05-2.89621E-05 2.91052E-07 1.30796E-19-1.36429E-18
 -1      4215 9.66793E-05-2.92378E-05-2.89031E-05 3.03799E-07-1.00571E-19-1.30495E-18
 -1      4216 9.68500E-05-2.91444E-05-2.90178E-05 1.61301E-07 1.24464E-19-1.72449E-18
 -1      4217 9.51889E-05-2.82164E-05-2.87021E-05-4.38008E-07 7.08324E-20-8.78231E-19
 -1      4218 9.53314E-05-2.83773E-05-2.86957E-05-4.13057E-07 3.35623E-20-1.12350E-18
 -1      4219 9.54114E-05-2.84447E-05-2.87000E-05-2.89066E-07 1.23648E-19-1.06974E-18
 -1      4220 9.69484E-05-2.85213E-05-2.93244E-05 1.88662E-07-5.37024E-19-1.94910E-18
 -1      4221 9.69401E-05-2.87758E-05-2.92145E-05 2.49226E-07-5.70436E-19-1.85441E-18
 -1      4222 9.69632E-05-2.88559E-05-2.91890E-05 1.39513E-07-1.92784E-19-1.76579E-18
 -1      4223 7.06980E-05-1.61503E-05-2.33617E-05 1.62259E-06-4.00660E-19-5.93290E-19
 -1      4224 9.57516E-05-2.87929E-05-2.86955E-05-3.94071E-07 1.22281E-21-1.16283E-18
 -1      4225 9.58708E-05-2.89022E-05-2.87007E-05-3.90992E-07 1.50233E-19-1.19142E-18
 -1      4226 9.57010E-05-2.87323E-05-2.87022E-05-2.79339E-07 1.20183E-19-1.35039E-18
 -1      4227 9.33646E-05-2.62957E-05-2.87469E-05-8.14277E-07-1.78916E-19-4.54313E-19
 -1      4228 9.36679E-05-2.66028E-05-2.87462E-05-7.28563E-07 1.80646E-20-9.34875E-19
 -1      4229 9.30833E-05-2.60343E-05-2.87243E-05-5.20533E-07-1.85404E-19-5.56891E-19
 -1      4230 9.63738E-05-2.64248E-05-2.99764E-05 2.02923E-07 5.45984E-19-2.62778E-18
 -1      4231 9.60938E-05-2.57519E-05-3.01495E-05-4.73217E-07-4.39997E-19-2.55496E-18
 -1      4232 9.62645E-05-2.62307E-05-3.00140E-05-3.19682E-07-4.59138E-19-2.39002E-18
 -1      4233 9.64022E-05-2.64600E-05-2.99736E-05-1.91345E-07-3.38365E-19-2.55554E-18
 -1      4234 9.60252E-05-2.54867E-05-3.02277E-05-3.91311E-07-3.43706E-19-2.68393E-18
 -1      4235 9.68314E-05-2.77729E-05-2.95969E-05 5.95786E-08 5.01898E-20-2.11941E-18
 -1      4236 9.69044E-05-2.81865E-05-2.94526E-05 1.56301E-07-2.71121E-19-2.01920E-18
 -1      4237 9.69544E-05-2.83112E-05-2.94164E-05 9.62961E-08-2.94563E-19-2.21702E-18
 -1      4238 9.68884E-05-2.86739E-05-2.92367E-05-3.31032E-07 3.61030E-19-1.76511E-18
 -1      4239 9.68821E-05-2.83917E-05-2.93498E-05-2.45903E-07 3.64862E-19-1.88285E-18
 -1      4240 9.60033E-05-2.90041E-05-2.87126E-05-3.98092E-07 1.86476E-19-1.26365E-18
 -1      4241 9.61215E-05-2.90883E-05-2.87273E-05-4.02989E-07-1.71752E-19-1.32594E-18
 -1      4242 9.59703E-05-2.89655E-05-2.87184E-05-2.79065E-07 4.05648E-20-1.28267E-18
 -1      4243 9.64517E-05-2.91504E-05-2.88414E-05-6.60599E-07 3.86094E-19-1.56811E-18
 -1      4244 9.66103E-05-2.91530E-05-2.89135E-05-5.46208E-07 3.64418E-19-1.66252E-18
 -1      4245 9.63712E-05-2.91726E-05-2.87984E-05-6.67878E-07 3.41757E-19-1.57823E-18
 -1      4246 9.46489E-05-2.76318E-05-2.87240E-05-5.21120E-07 8.37962E-19-1.38447E-18
 -1      4247 9.47177E-05-2.76984E-05-2.87191E-05-3.48457E-07 8.79326E-19-1.97202E-18
 -1      4248 9.44510E-05-2.74084E-05-2.87334E-05-5.76353E-07 9.76481E-19-1.42464E-18
 -1      4249 9.65597E-05-2.69788E-05-2.98238E-05 1.06149E-07 4.20312E-19-2.53867E-18
 -1      4250 9.65171E-05-2.67249E-05-2.99069E-05 9.40678E-08 3.53409E-19-2.51062E-18
 -1      4251 9.66966E-05-2.74327E-05-2.96803E-05-3.49189E-08 3.68672E-19-2.40648E-18
 -1      4252 9.66709E-05-2.71456E-05-2.97977E-05-3.33841E-08-8.57849E-20-2.01039E-18
 -1      4253 9.67629E-05-2.74794E-05-2.96923E-05 3.85246E-08 5.24052E-20-2.04604E-18
 -1      4254 9.68464E-05-2.76928E-05-2.96404E-05 2.46825E-08 8.17466E-20-2.11322E-18
 -1      4255 9.50891E-05-2.81019E-05-2.87072E-05-3.11710E-07 3.68631E-19-1.22846E-18
 -1      4256 9.62234E-05-2.91545E-05-2.87470E-05-5.41005E-07-3.20443E-19-1.01124E-18
 -1      4257 9.61860E-05-2.91416E-05-2.87320E-05-6.48180E-07-2.28667E-19-1.10176E-18
 -1      4258 9.62726E-05-2.91656E-05-2.87589E-05-6.54839E-07 1.25144E-20-1.46113E-18
 -1      4259 7.26078E-05-1.67994E-05-2.37859E-05 4.97745E-06-2.59444E-19 4.72711E-19
 -1      4260 9.62513E-05-2.59390E-05-3.01403E-05-7.84224E-08 1.66733E-19-2.45500E-18
 -1      4261 8.17208E-05-2.41788E-05-2.46567E-05 1.40446E-05 7.14433E-19-6.37593E-19
 -1      4262 7.52748E-05-2.09951E-05-2.32113E-05 1.36833E-05 4.60101E-19-1.99958E-18
 -1      4263 7.25070E-05-1.81625E-05-2.34072E-05 8.75917E-06 4.78167E-19-1.36656E-18
 -1      4264 7.52624E-05-1.83261E-05-2.44071E-05 6.67158E-06 2.58186E-19-3.81739E-19
 -1      4265 7.91173E-05-2.27632E-05-2.40915E-05 1.35718E-05 1.98369E-19-1.50831E-18
 -1      4266 9.66329E-05-2.69432E-05-2.98636E-05 1.43233E-08 2.74222E-19-2.42070E-18
 -1      4267 9.66669E-05-2.92532E-05-2.88932E-05 1.67736E-07-7.20533E-20-1.47404E-18
 -1      4268 9.68186E-05-2.90347E-05-2.90502E-05-3.96143E-07 3.12532E-19-1.65267E-18
 -1      4269 9.68651E-05-2.88844E-05-2.91331E-05-3.56915E-07 3.95320E-19-1.65716E-18
 -1      4270 9.69398E-05-2.87486E-05-2.92248E-05-2.36521E-07 3.36534E-19-1.71957E-18
 -1      4271 9.58874E-05-2.50812E-05-3.03399E-05-3.47922E-07-1.91923E-19-2.68448E-18
 -1      4272 9.39649E-05-2.68957E-05-2.87458E-05-6.84080E-07 2.81779E-19-1.51930E-18
 -1      4273 9.42081E-05-2.71581E-05-2.87389E-05-6.12891E-07 5.45235E-19-1.24395E-18
 -1      4274 9.42766E-05-2.72258E-05-2.87305E-05-3.98477E-07 5.33335E-19-1.70078E-18
 -1      4275 9.37413E-05-2.66743E-05-2.87349E-05-4.58261E-07-2.52753E-19-1.14005E-18
 -1      4276 9.65198E-05-2.92584E-05-2.88256E-05 2.72037E-08-1.50985E-19-1.30281E-18
 -1      4277 9.64046E-05-2.92224E-05-2.87905E-05 3.08210E-08-9.43859E-20-1.14235E-18
 -1      4278 9.62282E-05-2.91340E-05-2.87540E-05-6.19412E-08-1.69508E-19-1.33697E-18
 -1      4279 9.61000E-05-2.90512E-05-2.87336E-05-5.70078E-08-4.51259E-20-1.38714E-18
 -1      4280 9.59689E-05-2.89524E-05-2.87203E-05-5.91469E-08-4.07283E-20-1.29217E-18
 -1      4281 9.58299E-05-2.88392E-05-2.87092E-05-5.56706E-08 2.52549E-20-1.19256E-18
 -1      4282 9.56887E-05-2.87111E-05-2.87043E-05-5.93058E-08 2.70790E-21-1.21905E-18
 -1      4283 9.55396E-05-2.85704E-05-2.87007E-05-5.40860E-08 6.05616E-20-1.33216E-18
 -1      4284 9.53849E-05-2.84156E-05-2.87017E-05-6.09818E-08 3.17842E-20-1.41529E-18
 -1      4285 9.52210E-05-2.82479E-05-2.87033E-05-5.18823E-08 3.72671E-19-1.31569E-18
 -1      4286 9.50460E-05-2.80653E-05-2.87078E-05-6.27144E-08 7.14132E-19-1.44520E-18
 -1      4287 9.48604E-05-2.78687E-05-2.87122E-05-4.77088E-08 7.23950E-19-1.27596E-18
 -1      4288 9.46559E-05-2.76553E-05-2.87178E-05-6.20866E-08 7.10769E-19-1.26401E-18
 -1      4289 9.44398E-05-2.74268E-05-2.87223E-05-3.84860E-08 6.09144E-19-1.27672E-18
 -1      4290 9.41945E-05-2.71783E-05-2.87263E-05-5.47832E-08 1.70757E-19-1.16543E-18
 -1      4291 9.39377E-05-2.69144E-05-2.87279E-05-1.87636E-08-1.18924E-19-1.20122E-18
 -1      4292 9.36385E-05-2.66264E-05-2.87266E-05-3.36472E-08-4.12780E-19-1.04345E-18
 -1      4293 9.33301E-05-2.63245E-05-2.87215E-05 2.03502E-08-5.33781E-19-1.51953E-18
 -1      4294 9.29616E-05-2.59934E-05-2.87103E-05 1.26165E-08-5.17419E-19-8.88750E-19
 -1      4295 9.25904E-05-2.56527E-05-2.86937E-05 9.27011E-08 1.13428E-20-1.01803E-18
 -1      4296 9.21355E-05-2.52767E-05-2.86665E-05 1.01171E-07 2.88741E-19-1.27326E-18
 -1      4297 9.16904E-05-2.48998E-05-2.86320E-05 2.19118E-07 3.86221E-19-1.43456E-18
 -1      4298 9.11294E-05-2.44800E-05-2.85804E-05 2.57287E-07 2.87867E-19-1.23996E-18
 -1      4299 9.06001E-05-2.40745E-05-2.85198E-05 4.30060E-07-1.11351E-19-9.67111E-19
 -1      4300 8.99099E-05-2.36159E-05-2.84328E-05 5.17179E-07-3.46619E-19-7.76370E-19
 -1      4301 8.92875E-05-2.31957E-05-2.83353E-05 7.69027E-07-4.67945E-19-1.02368E-18
 -1      4302 8.84396E-05-2.27080E-05-2.81977E-05 9.31651E-07-5.26681E-19-7.15877E-19
 -1      4303 8.77167E-05-2.22949E-05-2.80495E-05 1.29705E-06-2.84475E-19-8.61148E-19
 -1      4304 8.66729E-05-2.17928E-05-2.78408E-05 1.57114E-06-3.97796E-19-3.58278E-19
 -1      4305 8.58437E-05-2.14177E-05-2.76240E-05 2.09903E-06-5.13903E-19-3.79615E-19
 -1      4306 8.45480E-05-2.09189E-05-2.73156E-05 2.53392E-06-5.04339E-19-4.58151E-19
 -1      4307 8.36100E-05-2.06247E-05-2.70073E-05 3.29361E-06-2.42148E-19-4.33310E-19
 -1      4308 8.19720E-05-2.01426E-05-2.65575E-05 3.96650E-06 1.11482E-19-8.08044E-19
 -1      4309 8.09484E-05-2.00129E-05-2.61294E-05 5.07448E-06 2.89588E-19-4.46459E-19
 -1      4310 9.69594E-05-2.81527E-05-2.94834E-05 1.02220E-08-1.30244E-19-2.55971E-18
 -1      4311 9.70009E-05-2.85128E-05-2.93547E-05 3.09827E-08-3.66142E-19-2.28209E-18
 -1      4312 7.89525E-05-1.96007E-05-2.54960E-05 6.05640E-06-1.77318E-19-1.43034E-19
 -1      4313 9.68817E-05-2.78827E-05-2.95760E-05-4.67218E-08-5.34473E-20-2.52824E-18
 -1      4314 9.68050E-05-2.75562E-05-2.96785E-05-1.65225E-08 4.60912E-20-2.42926E-18
 -1      4315 7.88267E-05-2.13434E-05-2.46332E-05 1.10094E-05 7.28955E-19-1.18649E-18
 -1      4316 9.69093E-05-2.91088E-05-2.90566E-05 2.37697E-08 1.52984E-19-1.81672E-18
 -1      4317 9.68330E-05-2.92026E-05-2.89834E-05 3.87313E-08 1.13883E-19-1.81881E-18
 -1      4318 9.70021E-05-2.87712E-05-2.92410E-05 1.47972E-08-7.80065E-20-2.03940E-18
 -1      4319 9.69662E-05-2.89690E-05-2.91422E-05 3.55818E-08 2.09576E-19-1.85859E-18
 -1      4320 9.69266E-05-2.90267E-05-2.91012E-05-9.43008E-08 2.53804E-19-1.77255E-18
 -1      4321 9.69840E-05-2.86193E-05-2.92999E-05-7.40116E-08-5.07532E-21-2.25721E-18
 -1      4322 9.67375E-05-2.92537E-05-2.89210E-05 2.57454E-08 5.62477E-20-1.55009E-18
 -1      4323 9.66335E-05-2.92698E-05-2.88689E-05 3.53463E-08-7.42098E-20-1.33571E-18
 -1      4324 9.65711E-05-2.92624E-05-2.88497E-05-1.08053E-07-1.18135E-19-1.71453E-18
 -1      4325 9.61133E-05-2.56328E-05-3.02048E-05-2.39867E-07-3.04911E-19-2.72568E-18
 -1      4326 9.62781E-05-2.91601E-05-2.87673E-05-1.91480E-07-3.27636E-19-1.71103E-18
 -1      4327 9.63041E-05-2.91798E-05-2.87666E-05-3.21317E-07-4.65982E-19-1.34075E-18
 -1      4328 9.64271E-05-2.92058E-05-2.88132E-05-5.54525E-07-1.45002E-19-1.52983E-18
 -1      4329 9.62681E-05-2.59971E-05-3.01172E-05-1.29092E-07-3.37675E-20-2.40613E-18
 -1      4330 9.63943E-05-2.63762E-05-3.00109E-05-1.71576E-07-2.50571E-19-2.40149E-18
 -1      4331 9.65426E-05-2.67876E-05-2.98938E-05-7.10650E-08-9.09061E-20-2.34751E-18
 -1      4332 9.65289E-05-2.66234E-05-2.99513E-05-3.10206E-08 2.49288E-19-2.17948E-18
 -1      4333 9.67796E-05-2.78188E-05-2.95568E-05-1.35901E-07 2.76046E-19-2.16033E-18
 -1      4334 8.00158E-05-2.09480E-05-2.52522E-05 9.20393E-06 2.45793E-19-8.01657E-19
 -1      4335 9.64167E-05-2.92231E-05-2.87950E-05-3.22720E-07-5.13695E-19-1.50119E-18
 -1      4336 9.68592E-05-2.79535E-05-2.95324E-05-1.07629E-07 1.95348E-19-2.26516E-18
 -1      4337 9.67795E-05-2.92252E-05-2.89552E-05-1.09019E-07 2.24003E-19-1.46870E-18
 -1      4338 9.67307E-05-2.91987E-05-2.89409E-05-3.28766E-07 2.77920E-19-1.54701E-18
 -1      4339 9.68063E-05-2.91253E-05-2.90035E-05-3.13243E-07 2.62214E-19-1.60791E-18
 -1      4340 9.69530E-05-2.89198E-05-2.91559E-05-1.84033E-07 3.23221E-19-1.74028E-18
 -1      4341 9.69797E-05-2.87110E-05-2.92597E-05-1.46621E-07 2.18518E-19-1.92058E-18
 -1      4342 9.69756E-05-2.84298E-05-2.93723E-05-1.32664E-07-3.85092E-20-2.06941E-18
 -1      4343 9.65346E-05-2.92433E-05-2.88371E-05-3.28604E-07-2.40895E-19-1.56065E-18
 -1      4344 9.66334E-05-2.92393E-05-2.88802E-05-3.24942E-07 1.11047E-19-1.64692E-18
 -1      4345 9.66595E-05-2.70195E-05-2.98481E-05 2.12020E-09 3.53619E-19-2.17698E-18
 -1      4346 9.66583E-05-2.70573E-05-2.98309E-05-1.71913E-08 1.07900E-19-1.82365E-18
 -1      4347 9.69036E-05-2.90738E-05-2.90716E-05-1.92304E-07 3.58608E-19-1.50348E-18
 -1      4348 9.69102E-05-2.79107E-05-2.95686E-05-8.65080E-09-4.93766E-20-2.37532E-18
 -3
    1PSTEP                         4           1           1          
  100CL  101 1.000000000        4348                     0    1           1
 -4  ERROR       1    1
 -5  STR(%)      1    1    0    0
 -1         1 1.56622E+01
 -1         2 2.41639E+01
 -1         3 1.65109E-01
 -1         4 8.97522E-02
 -1         5 1.40404E+01
 -1         6 1.31446E+01
 -1         7 1.31446E+01
 -1         8 3.66348E+00
 -1         9 1.82326E+00
 -1        10 1.29183E+00
 -1        11 1.04559E+00
 -1        12 8.99089E-01
 -1        13 8.08892E-01
 -1        14 7.54209E-01
 -1        15 7.56102E-01
 -1        16 8.13166E-01
 -1        17 9.00725E-01
 -1        18 1.05235E+00
 -1        19 1.30743E+00
 -1        20 1.83530E+00
 -1        21 3.50537E+00
 -1        22 8.64227E+00
 -1        23 1.31446E+01
 -1        24 4.31884E+00
 -1        25 3.34199E+00
 -1        26 2.11259E+00
 -1        27 1.36456E+00
 -1        28 1.01540E+00
 -1        29 7.76947E-01
 -1        30 5.97796E-01
 -1        31 4.58542E-01
 -1        32 3.51818E-01
 -1        33 2.74408E-01
 -1        34 2.12863E-01
 -1        35 1.65168E-01
 -1        36 1.29373E-01
 -1        37 1.03670E-01
 -1        38 8.64101E-02
 -1        39 7.71891E-02
 -1        40 8.27053E-02
 -1        41 1.01418E-01
 -1        42 1.28173E-01
 -1        43 1.63069E-01
 -1        44 2.05467E-01
 -1        45 2.53468E-01
 -1        46 3.03241E-01
 -1        47 3.48250E-01
 -1        48 4.34166E-01
 -1        49 5.46138E-01
 -1        50 6.74756E-01
 -1        51 7.74950E-01
 -1        52 8.03354E-01
 -1        53 8.40155E-01
 -1        54 8.78253E-01
 -1        55 1.00190E+00
 -1        56 1.30284E+00
 -1        57 1.99498E+00
 -1        58 2.77775E+00
 -1        59 3.05979E+00
 -1        60 3.05979E+00
 -1        61 2.97808E+00
 -1        62 2.77880E+00
 -1        63 2.05331E+00
 -1        64 1.22011E+00
 -1        65 8.23835E-01
 -1        66 5.18240E-01
 -1        67 4.75437E-01
 -1        68 4.87780E-01
 -1        69 4.87780E-01
 -1        70 4.45331E-01
 -1        71 3.84269E-01
 -1        72 1.40404E+01
 -1        73 3.39532E+00
 -1        74 2.41399E+00
 -1        75 1.66697E+00
 -1        76 1.14609E+00
 -1        77 9.06476E-01
 -1        78 7.32187E-01
 -1        79 5.89329E-01
 -1        80 4.70661E-01
 -1        81 3.72449E-01
 -1        82 2.99123E-01
 -1        83 2.39336E-01
 -1        84 1.91025E-01
 -1        85 1.53572E-01
 -1        86 1.26194E-01
 -1        87 1.08102E-01
 -1        88 1.03815E-01
 -1        89 1.17079E-01
 -1        90 1.38944E-01
 -1        91 1.69284E-01
 -1        92 2.07799E-01
 -1        93 2.53667E-01
 -1        94 3.25807E-01
 -1        95 4.24441E-01
 -1        96 5.42164E-01
 -1        97 6.74858E-01
 -1        98 8.11386E-01
 -1        99 9.29299E-01
 -1       100 9.90027E-01
 -1       101 1.21327E+00
 -1       102 1.59440E+00
 -1       103 1.85958E+00
 -1       104 2.15552E+00
 -1       105 2.39034E+00
 -1       106 2.72176E+00
 -1       107 3.66946E+00
 -1       108 5.39600E+00
 -1       109 6.02894E+00
 -1       110 6.02894E+00
 -1       111 5.40948E+00
 -1       112 2.96820E+00
 -1       113 1.67101E+00
 -1       114 2.10841E+00
 -1       115 2.17698E+00
 -1       116 2.17698E+00
 -1       117 1.84580E+00
 -1       118 1.40625E+00
 -1       119 1.22997E+00
 -1       120 7.09512E-01
 -1       121 3.46357E-01
 -1       122 3.46357E-01
 -1       123 2.40939E-01
 -1       124 9.35901E-02
 -1       125 2.18569E-01
 -1       126 3.03488E-01
 -1       127 3.12690E-01
 -1       128 3.12690E-01
 -1       129 2.52031E-01
 -1       130 1.43009E-01
 -1       131 7.55436E-02
 -1       132 1.27018E-01
 -1       133 1.49557E-01
 -1       134 1.50721E-01
 -1       135 2.12266E-01
 -1       136 2.18952E-01
 -1       137 2.44198E+01
 -1       138 4.91008E+01
 -1       139 4.91008E+01
 -1       140 2.14626E+01
 -1       141 1.19796E+01
 -1       142 1.23166E+01
 -1       143 1.26221E+01
 -1       144 1.34365E+01
 -1       145 1.34365E+01
 -1       146 1.43734E+01
 -1       147 3.42078E+01
 -1       148 3.42078E+01
 -1       149 2.67589E+01
 -1       150 2.53933E+01
 -1       151 2.40009E+01
 -1       152 2.44488E+01
 -1       153 4.09971E+01
 -1       154 4.09971E+01
 -1       155 1.24861E+01
 -1       156 1.24861E+01
 -1       157 1.20256E+01
 -1       158 1.27794E+01
 -1       159 1.27794E+01
 -1       160 1.19880E+01
 -1       161 2.43715E+01
 -1       162 3.19179E+01
 -1       163 3.19179E+01
 -1       164 2.40354E+01
 -1       165 6.07787E+00
 -1       166 2.29763E+00
 -1       167 1.50817E+00
 -1       168 1.15736E+00
 -1       169 9.72959E-01
 -1       170 8.64061E-01
 -1       171 7.96240E-01
 -1       172 7.56102E-01
 -1       173 7.99594E-01
 -1       174 8.67237E-01
 -1       175 9.80853E-01
 -1       176 1.17220E+00
 -1       177 1.52718E+00
 -1       178 2.26043E+00
 -1       179 3.93116E+00
 -1       180 1.40404E+01
 -1       181 4.31884E+00
 -1       182 3.34199E+00
 -1       183 2.11259E+00
 -1       184 1.44887E+00
 -1       185 1.02768E+00
 -1       186 7.76947E-01
 -1       187 5.97796E-01
 -1       188 4.71017E-01
 -1       189 3.71989E-01
 -1       190 2.94246E-01
 -1       191 2.38620E-01
 -1       192 1.91755E-01
 -1       193 1.53436E-01
 -1       194 1.22943E-01
 -1       195 9.92829E-02
 -1       196 8.13026E-02
 -1       197 7.71891E-02
 -1       198 8.60926E-02
 -1       199 1.05778E-01
 -1       200 1.31629E-01
 -1       201 1.63229E-01
 -1       202 2.05467E-01
 -1       203 2.53468E-01
 -1       204 3.22293E-01
 -1       205 3.97238E-01
 -1       206 4.65107E-01
 -1       207 5.53318E-01
 -1       208 6.74756E-01
 -1       209 7.74950E-01
 -1       210 8.03354E-01
 -1       211 8.40155E-01
 -1       212 8.78253E-01
 -1       213 1.00190E+00
 -1       214 1.32219E+00
 -1       215 1.99498E+00
 -1       216 2.77775E+00
 -1       217 3.05979E+00
 -1       218 2.97808E+00
 -1       219 2.77880E+00
 -1       220 2.05331E+00
 -1       221 1.41451E+00
 -1       222 9.46698E-01
 -1       223 5.51085E-01
 -1       224 4.75437E-01
 -1       225 4.60666E-01
 -1       226 4.87780E-01
 -1       227 4.45331E-01
 -1       228 3.84269E-01
 -1       229 3.39532E+00
 -1       230 2.41399E+00
 -1       231 1.66697E+00
 -1       232 1.14609E+00
 -1       233 9.06476E-01
 -1       234 7.32187E-01
 -1       235 5.89329E-01
 -1       236 4.70661E-01
 -1       237 3.72449E-01
 -1       238 2.99123E-01
 -1       239 2.39336E-01
 -1       240 1.92726E-01
 -1       241 1.56436E-01
 -1       242 1.28635E-01
 -1       243 1.08772E-01
 -1       244 9.93169E-02
 -1       245 1.04981E-01
 -1       246 1.18875E-01
 -1       247 1.38944E-01
 -1       248 1.70614E-01
 -1       249 2.23296E-01
 -1       250 2.89994E-01
 -1       251 3.71436E-01
 -1       252 4.67263E-01
 -1       253 5.75135E-01
 -1       254 6.83689E-01
 -1       255 8.11386E-01
 -1       256 9.29299E-01
 -1       257 1.08842E+00
 -1       258 1.33416E+00
 -1       259 1.59440E+00
 -1       260 1.85958E+00
 -1       261 2.15552E+00
 -1       262 2.39034E+00
 -1       263 2.72176E+00
 -1       264 3.66946E+00
 -1       265 5.39600E+00
 -1       266 6.02894E+00
 -1       267 5.40948E+00
 -1       268 2.96820E+00
 -1       269 1.66148E+00
 -1       270 1.67101E+00
 -1       271 2.10841E+00
 -1       272 2.17698E+00
 -1       273 1.84580E+00
 -1       274 1.40625E+00
 -1       275 1.22997E+00
 -1       276 7.60101E-01
 -1       277 4.08439E-01
 -1       278 4.08439E-01
 -1       279 3.67898E-01
 -1       280 3.47747E-01
 -1       281 5.46445E-01
 -1       282 6.03711E-01
 -1       283 6.03711E-01
 -1       284 5.79645E-01
 -1       285 4.23907E-01
 -1       286 2.25216E-01
 -1       287 2.29002E-01
 -1       288 2.70097E-01
 -1       289 2.70097E-01
 -1       290 2.69717E-01
 -1       291 2.79213E-01
 -1       292 2.85658E+01
 -1       293 3.15409E+01
 -1       294 4.91008E+01
 -1       295 2.42989E+01
 -1       296 1.12351E+01
 -1       297 1.19796E+01
 -1       298 1.23166E+01
 -1       299 1.26221E+01
 -1       300 1.34365E+01
 -1       301 1.17991E+01
 -1       302 1.43734E+01
 -1       303 3.42078E+01
 -1       304 3.36711E+01
 -1       305 2.57325E+01
 -1       306 2.62930E+01
 -1       307 2.62930E+01
 -1       308 3.61394E+01
 -1       309 4.09971E+01
 -1       310 1.56622E+01
 -1       311 1.08811E+01
 -1       312 1.24861E+01
 -1       313 1.19590E+01
 -1       314 1.20256E+01
 -1       315 1.27794E+01
 -1       316 1.18823E+01
 -1       317 1.19880E+01
 -1       318 2.66793E+01
 -1       319 3.19613E+01
 -1       320 3.19613E+01
 -1       321 2.85658E+01
 -1       322 1.04577E+00
 -1       323 2.47973E+00
 -1       324 7.90943E-01
 -1       325 6.93721E-01
 -1       326 6.31727E-01
 -1       327 5.87769E-01
 -1       328 5.90901E-01
 -1       329 6.34500E-01
 -1       330 7.01098E-01
 -1       331 7.96172E-01
 -1       332 9.31519E-01
 -1       333 1.15960E+00
 -1       334 1.32865E+00
 -1       335 2.20132E+00
 -1       336 1.91496E+00
 -1       337 1.73027E+00
 -1       338 1.26908E+00
 -1       339 9.08713E-01
 -1       340 6.58339E-01
 -1       341 5.40622E-01
 -1       342 4.44173E-01
 -1       343 3.59526E-01
 -1       344 2.94365E-01
 -1       345 2.40071E-01
 -1       346 1.93689E-01
 -1       347 1.56761E-01
 -1       348 1.27646E-01
 -1       349 1.02854E-01
 -1       350 8.18942E-02
 -1       351 7.02933E-02
 -1       352 7.24591E-02
 -1       353 8.60926E-02
 -1       354 1.05778E-01
 -1       355 1.31629E-01
 -1       356 1.76086E-01
 -1       357 2.32896E-01
 -1       358 2.96117E-01
 -1       359 3.61426E-01
 -1       360 4.21112E-01
 -1       361 4.77264E-01
 -1       362 5.37303E-01
 -1       363 5.87453E-01
 -1       364 5.79838E-01
 -1       365 4.77618E-01
 -1       366 4.15535E-01
 -1       367 5.40529E-01
 -1       368 9.85952E-01
 -1       369 1.38472E+00
 -1       370 1.77444E+00
 -1       371 2.00506E+00
 -1       372 1.92603E+00
 -1       373 1.96059E+00
 -1       374 1.78951E+00
 -1       375 1.45246E+00
 -1       376 1.11670E+00
 -1       377 8.31706E-01
 -1       378 6.13649E-01
 -1       379 4.76462E-01
 -1       380 4.47643E-01
 -1       381 3.72536E-01
 -1       382 3.84587E-01
 -1       383 1.13129E+00
 -1       384 8.92750E-01
 -1       385 7.05601E-01
 -1       386 5.47183E-01
 -1       387 4.39888E-01
 -1       388 3.74035E-01
 -1       389 3.11103E-01
 -1       390 2.55940E-01
 -1       391 2.11466E-01
 -1       392 1.72685E-01
 -1       393 1.41568E-01
 -1       394 1.17811E-01
 -1       395 1.00284E-01
 -1       396 8.86969E-02
 -1       397 8.77504E-02
 -1       398 9.34277E-02
 -1       399 1.11927E-01
 -1       400 1.43807E-01
 -1       401 1.89685E-01
 -1       402 2.73910E-01
 -1       403 3.84325E-01
 -1       404 5.25406E-01
 -1       405 6.99417E-01
 -1       406 9.03423E-01
 -1       407 1.12456E+00
 -1       408 1.33375E+00
 -1       409 1.50340E+00
 -1       410 1.62169E+00
 -1       411 1.65048E+00
 -1       412 1.57698E+00
 -1       413 1.38377E+00
 -1       414 1.36044E+00
 -1       415 2.41296E+00
 -1       416 2.97969E+00
 -1       417 3.77329E+00
 -1       418 3.70990E+00
 -1       419 3.13255E+00
 -1       420 2.13113E+00
 -1       421 1.46939E+00
 -1       422 1.32535E+00
 -1       423 1.39527E+00
 -1       424 1.52498E+00
 -1       425 1.40028E+00
 -1       426 1.20976E+00
 -1       427 1.02588E+00
 -1       428 7.60101E-01
 -1       429 4.73384E-01
 -1       430 7.69305E-01
 -1       431 7.69305E-01
 -1       432 7.47937E-01
 -1       433 9.01686E-01
 -1       434 9.01686E-01
 -1       435 8.92074E-01
 -1       436 7.91288E-01
 -1       437 5.18042E-01
 -1       438 3.54954E-01
 -1       439 3.66899E-01
 -1       440 3.66899E-01
 -1       441 3.84587E-01
 -1       442 3.15409E+01
 -1       443 2.92744E+01
 -1       444 2.91897E+01
 -1       445 1.78822E+01
 -1       446 1.04707E+01
 -1       447 9.19614E-01
 -1       448 1.01875E+01
 -1       449 1.03851E+01
 -1       450 1.07131E+01
 -1       451 8.22420E+00
 -1       452 7.71631E+00
 -1       453 1.24208E+01
 -1       454 2.20656E+01
 -1       455 1.88519E+01
 -1       456 3.58312E+01
 -1       457 3.58312E+01
 -1       458 2.27267E+01
 -1       459 2.43924E+01
 -1       460 1.42174E+01
 -1       461 7.75248E+00
 -1       462 7.93365E+00
 -1       463 9.94057E+00
 -1       464 9.99667E+00
 -1       465 1.07738E+01
 -1       466 9.01873E+00
 -1       467 6.68222E+00
 -1       468 1.06266E+01
 -1       469 1.86033E+01
 -1       470 3.19613E+01
 -1       471 2.92744E+01
 -1       472 7.35053E+00
 -1       473 2.10286E+01
 -1       474 1.04899E+00
 -1       475 4.86275E-01
 -1       476 5.09038E-01
 -1       477 4.31616E-01
 -1       478 4.57556E-01
 -1       479 4.87007E-01
 -1       480 5.10934E-01
 -1       481 5.10934E-01
 -1       482 6.08066E-01
 -1       483 8.92750E-01
 -1       484 8.03543E-01
 -1       485 5.94501E+00
 -1       486 7.06356E-01
 -1       487 5.90604E-01
 -1       488 4.78681E-01
 -1       489 3.80299E-01
 -1       490 3.25860E-01
 -1       491 2.76547E-01
 -1       492 2.30054E-01
 -1       493 1.90651E-01
 -1       494 1.57207E-01
 -1       495 1.27801E-01
 -1       496 1.02854E-01
 -1       497 8.18942E-02
 -1       498 6.57623E-02
 -1       499 5.62335E-02
 -1       500 6.50907E-02
 -1       501 7.79029E-02
 -1       502 1.10780E-01
 -1       503 1.54641E-01
 -1       504 2.06032E-01
 -1       505 2.64289E-01
 -1       506 3.27062E-01
 -1       507 3.89592E-01
 -1       508 4.44493E-01
 -1       509 4.93479E-01
 -1       510 5.43432E-01
 -1       511 5.79948E-01
 -1       512 5.71930E-01
 -1       513 6.44498E-01
 -1       514 7.45954E-01
 -1       515 9.25296E-01
 -1       516 1.14663E+00
 -1       517 1.37386E+00
 -1       518 1.65592E+00
 -1       519 1.73800E+00
 -1       520 1.72890E+00
 -1       521 1.71939E+00
 -1       522 1.44991E+00
 -1       523 1.30148E+00
 -1       524 1.15401E+00
 -1       525 8.61346E-01
 -1       526 7.00311E-01
 -1       527 5.80641E-01
 -1       528 4.47643E-01
 -1       529 5.47183E-01
 -1       530 4.39888E-01
 -1       531 3.74035E-01
 -1       532 3.11103E-01
 -1       533 2.55940E-01
 -1       534 2.11710E-01
 -1       535 1.73301E-01
 -1       536 1.40554E-01
 -1       537 1.13330E-01
 -1       538 9.15798E-02
 -1       539 7.49775E-02
 -1       540 6.50563E-02
 -1       541 7.18672E-02
 -1       542 8.83416E-02
 -1       543 1.18114E-01
 -1       544 1.74955E-01
 -1       545 2.49037E-01
 -1       546 3.44713E-01
 -1       547 4.66331E-01
 -1       548 6.17412E-01
 -1       549 7.99079E-01
 -1       550 1.00737E+00
 -1       551 1.22922E+00
 -1       552 1.43753E+00
 -1       553 1.58674E+00
 -1       554 1.83122E+00
 -1       555 2.11943E+00
 -1       556 2.35749E+00
 -1       557 2.75346E+00
 -1       558 4.26028E+00
 -1       559 5.09911E+00
 -1       560 5.74827E+00
 -1       561 6.94128E+00
 -1       562 4.47465E+00
 -1       563 2.57445E+00
 -1       564 2.58813E+00
 -1       565 2.45027E+00
 -1       566 1.76405E+00
 -1       567 1.45705E+00
 -1       568 1.44916E+00
 -1       569 1.28193E+00
 -1       570 9.46241E-01
 -1       571 1.23695E+00
 -1       572 1.24540E+00
 -1       573 9.43919E-01
 -1       574 1.20235E+00
 -1       575 1.25009E+00
 -1       576 1.25009E+00
 -1       577 9.29801E-01
 -1       578 6.77760E-01
 -1       579 5.39058E-01
 -1       580 5.44253E-01
 -1       581 3.45848E-01
 -1       582 2.91897E+01
 -1       583 1.40213E+01
 -1       584 7.05601E-01
 -1       585 2.92744E+01
 -1       586 2.13425E+01
 -1       587 8.74425E-01
 -1       588 2.18175E+01
 -1       589 8.19494E+00
 -1       590 6.21112E+00
 -1       591 5.86341E+00
 -1       592 4.57803E-01
 -1       593 8.83848E+00
 -1       594 1.04474E+01
 -1       595 7.94812E+00
 -1       596 5.09911E+00
 -1       597 3.58312E+01
 -1       598 1.77674E+01
 -1       599 6.36697E+00
 -1       600 2.27267E+01
 -1       601 1.79613E+01
 -1       602 1.10390E+01
 -1       603 4.50985E+00
 -1       604 5.71234E+00
 -1       605 7.62216E+00
 -1       606 8.23047E+00
 -1       607 4.12332E+00
 -1       608 6.64828E+00
 -1       609 8.91206E+00
 -1       610 1.44255E+01
 -1       611 5.03913E+00
 -1       612 1.32856E+00
 -1       613 9.94032E+00
 -1       614 7.24972E-01
 -1       615 1.72500E+01
 -1       616 1.83325E+01
 -1       617 1.58480E+01
 -1       618 6.59864E+00
 -1       619 2.19689E+01
 -1       620 3.84587E-01
 -1       621 3.58651E-01
 -1       622 3.43239E-01
 -1       623 3.61938E-01
 -1       624 3.37808E-01
 -1       625 5.44237E-01
 -1       626 1.02362E+01
 -1       627 6.40164E+00
 -1       628 3.99811E-01
 -1       629 3.86174E-01
 -1       630 3.45125E-01
 -1       631 2.95639E-01
 -1       632 2.46080E-01
 -1       633 2.14470E-01
 -1       634 1.81714E-01
 -1       635 1.50119E-01
 -1       636 1.23414E-01
 -1       637 1.00053E-01
 -1       638 7.95482E-02
 -1       639 6.13306E-02
 -1       640 4.45338E-02
 -1       641 4.23366E-02
 -1       642 5.41541E-02
 -1       643 8.63631E-02
 -1       644 1.24701E-01
 -1       645 1.70253E-01
 -1       646 2.23659E-01
 -1       647 2.84767E-01
 -1       648 3.52142E-01
 -1       649 4.22603E-01
 -1       650 4.90001E-01
 -1       651 5.59582E-01
 -1       652 6.54696E-01
 -1       653 7.48307E-01
 -1       654 8.08038E-01
 -1       655 9.96901E-01
 -1       656 1.21905E+00
 -1       657 1.31164E+00
 -1       658 1.55346E+00
 -1       659 1.65592E+00
 -1       660 2.22549E+00
 -1       661 2.21633E+00
 -1       662 2.38126E+00
 -1       663 1.71939E+00
 -1       664 1.61208E+00
 -1       665 1.45331E+00
 -1       666 1.19890E+00
 -1       667 1.00773E+00
 -1       668 7.00311E-01
 -1       669 5.80641E-01
 -1       670 3.30088E-01
 -1       671 1.82413E+00
 -1       672 3.98448E-01
 -1       673 2.37113E-01
 -1       674 2.00614E-01
 -1       675 1.66874E-01
 -1       676 1.37268E-01
 -1       677 1.12034E-01
 -1       678 9.02277E-02
 -1       679 7.21866E-02
 -1       680 5.65442E-02
 -1       681 5.20101E-02
 -1       682 6.21599E-02
 -1       683 9.45216E-02
 -1       684 1.41785E-01
 -1       685 2.02008E-01
 -1       686 2.78805E-01
 -1       687 3.76265E-01
 -1       688 4.98925E-01
 -1       689 6.51662E-01
 -1       690 8.39476E-01
 -1       691 1.06698E+00
 -1       692 1.33714E+00
 -1       693 1.64859E+00
 -1       694 1.98917E+00
 -1       695 2.37433E+00
 -1       696 2.91183E+00
 -1       697 4.09173E+00
 -1       698 5.07074E+00
 -1       699 2.68994E+00
 -1       700 2.58813E+00
 -1       701 6.12471E+00
 -1       702 3.40958E+00
 -1       703 2.25595E+00
 -1       704 2.16950E+00
 -1       705 2.52509E+00
 -1       706 7.01469E+00
 -1       707 1.82897E+00
 -1       708 7.30555E+00
 -1       709 1.83716E+00
 -1       710 1.56807E+00
 -1       711 1.83716E+00
 -1       712 1.14038E+00
 -1       713 9.49369E-01
 -1       714 7.67094E-01
 -1       715 1.05994E+01
 -1       716 1.21586E+01
 -1       717 3.50040E+00
 -1       718 4.68187E-01
 -1       719 4.67460E+00
 -1       720 1.48233E+01
 -1       721 4.65817E-01
 -1       722 5.74827E+00
 -1       723 2.75280E-01
 -1       724 5.16778E-01
 -1       725 2.61097E+00
 -1       726 4.47465E+00
 -1       727 3.61938E-01
 -1       728 1.07780E+01
 -1       729 3.65456E-01
 -1       730 1.46112E+01
 -1       731 5.44253E-01
 -1       732 7.43352E+00
 -1       733 5.36700E+00
 -1       734 5.94855E+00
 -1       735 5.57844E+00
 -1       736 3.47442E+00
 -1       737 1.20210E+01
 -1       738 4.59410E+00
 -1       739 4.68187E-01
 -1       740 3.64865E-01
 -1       741 9.82345E+00
 -1       742 6.02869E+00
 -1       743 5.09911E+00
 -1       744 1.08249E+01
 -1       745 1.07834E+01
 -1       746 5.89157E-01
 -1       747 1.40796E+01
 -1       748 1.82413E+00
 -1       749 4.04389E-01
 -1       750 2.40645E-01
 -1       751 4.29384E+00
 -1       752 2.57001E-01
 -1       753 2.50550E-01
 -1       754 2.28328E-01
 -1       755 1.99781E-01
 -1       756 1.72855E-01
 -1       757 1.51174E-01
 -1       758 1.27995E-01
 -1       759 1.05028E-01
 -1       760 8.30532E-02
 -1       761 6.21813E-02
 -1       762 4.20284E-02
 -1       763 2.98142E-02
 -1       764 3.55130E-02
 -1       765 6.08322E-02
 -1       766 9.31455E-02
 -1       767 1.32157E-01
 -1       768 1.77274E-01
 -1       769 2.32777E-01
 -1       770 3.02801E-01
 -1       771 3.84370E-01
 -1       772 4.75452E-01
 -1       773 5.73592E-01
 -1       774 6.80171E-01
 -1       775 8.31685E-01
 -1       776 1.03203E+00
 -1       777 1.22328E+00
 -1       778 1.43155E+00
 -1       779 1.93986E+00
 -1       780 2.64040E+00
 -1       781 1.88357E+00
 -1       782 2.33236E+00
 -1       783 2.46199E+00
 -1       784 3.77387E+00
 -1       785 2.38126E+00
 -1       786 1.78747E+00
 -1       787 2.21470E+00
 -1       788 1.78356E+00
 -1       789 1.40653E+00
 -1       790 1.00773E+00
 -1       791 6.53743E-01
 -1       792 2.88233E-01
 -1       793 1.64143E-01
 -1       794 1.90205E-01
 -1       795 1.12139E-01
 -1       796 8.83984E-02
 -1       797 6.71496E-02
 -1       798 4.91868E-02
 -1       799 3.12245E-02
 -1       800 3.46296E-02
 -1       801 6.42055E-02
 -1       802 1.00385E-01
 -1       803 1.45178E-01
 -1       804 2.08123E-01
 -1       805 2.93673E-01
 -1       806 4.04309E-01
 -1       807 5.45640E-01
 -1       808 7.22945E-01
 -1       809 9.39445E-01
 -1       810 1.19808E+00
 -1       811 1.53134E+00
 -1       812 2.02328E+00
 -1       813 2.97696E+00
 -1       814 6.50595E+00
 -1       815 8.09123E+00
 -1       816 4.00005E+00
 -1       817 2.99641E+00
 -1       818 6.12471E+00
 -1       819 1.89141E+00
 -1       820 9.73665E+00
 -1       821 1.22606E+00
 -1       822 2.52646E+00
 -1       823 6.12471E+00
 -1       824 9.18074E+00
 -1       825 1.58292E+00
 -1       826 1.07390E+01
 -1       827 6.26124E+00
 -1       828 3.07203E-01
 -1       829 2.54463E+00
 -1       830 3.63005E+00
 -1       831 1.37596E-01
 -1       832 9.29177E+00
 -1       833 2.39550E+00
 -1       834 3.89294E+00
 -1       835 3.25456E+00
 -1       836 5.66377E+00
 -1       837 2.81981E-01
 -1       838 4.85474E+00
 -1       839 2.72295E-01
 -1       840 2.38549E-01
 -1       841 3.50040E+00
 -1       842 9.53214E+00
 -1       843 2.88877E-01
 -1       844 3.64865E-01
 -1       845 2.73585E-01
 -1       846 6.98087E+00
 -1       847 5.60759E+00
 -1       848 2.19059E-01
 -1       849 3.58003E-01
 -1       850 8.34551E+00
 -1       851 2.52509E+00
 -1       852 6.21858E+00
 -1       853 2.52509E+00
 -1       854 2.55415E+00
 -1       855 2.55415E+00
 -1       856 2.24799E+00
 -1       857 4.04389E-01
 -1       858 2.55815E-01
 -1       859 8.96874E+00
 -1       860 2.80231E-01
 -1       861 2.88877E-01
 -1       862 3.77387E+00
 -1       863 9.03627E-01
 -1       864 5.04813E+00
 -1       865 8.09123E+00
 -1       866 1.83562E-01
 -1       867 1.76192E-01
 -1       868 1.60183E-01
 -1       869 1.39920E-01
 -1       870 1.23357E-01
 -1       871 1.05988E-01
 -1       872 8.78451E-02
 -1       873 6.97912E-02
 -1       874 5.20755E-02
 -1       875 4.44510E-02
 -1       876 4.70763E-02
 -1       877 5.98338E-02
 -1       878 9.15832E-02
 -1       879 1.29905E-01
 -1       880 1.75730E-01
 -1       881 2.29494E-01
 -1       882 2.90714E-01
 -1       883 3.57331E-01
 -1       884 4.40328E-01
 -1       885 5.44460E-01
 -1       886 7.02353E-01
 -1       887 9.06420E-01
 -1       888 1.12849E+00
 -1       889 1.43870E+00
 -1       890 1.88098E+00
 -1       891 2.26977E+00
 -1       892 2.98810E+00
 -1       893 2.84668E+00
 -1       894 2.55379E+00
 -1       895 1.40653E+00
 -1       896 1.52874E-01
 -1       897 7.53993E-02
 -1       898 9.52202E-02
 -1       899 3.91394E-02
 -1       900 4.19409E-02
 -1       901 5.65039E-02
 -1       902 9.05866E-02
 -1       903 1.36599E-01
 -1       904 1.95928E-01
 -1       905 2.72662E-01
 -1       906 3.71925E-01
 -1       907 5.00279E-01
 -1       908 6.66363E-01
 -1       909 8.81869E-01
 -1       910 1.16287E+00
 -1       911 1.53134E+00
 -1       912 2.01590E+00
 -1       913 2.87055E+00
 -1       914 5.90307E+00
 -1       915 1.24395E-01
 -1       916 8.05383E+00
 -1       917 8.09123E+00
 -1       918 5.39630E+00
 -1       919 7.98434E+00
 -1       920 8.05383E+00
 -1       921 2.09120E-01
 -1       922 7.32591E+00
 -1       923 4.04389E-01
 -1       924 2.93921E+00
 -1       925 1.73399E-01
 -1       926 5.61831E-02
 -1       927 2.84668E+00
 -1       928 8.96874E+00
 -1       929 2.65506E-01
 -1       930 1.67689E-01
 -1       931 2.16733E-01
 -1       932 3.64907E+00
 -1       933 1.76787E-01
 -1       934 1.35208E-01
 -1       935 1.24086E+00
 -1       936 1.15429E-01
 -1       937 1.52811E-01
 -1       938 8.05383E+00
 -1       939 5.87499E+00
 -1       940 4.96223E+00
 -1       941 8.25436E+00
 -1       942 5.49391E+00
 -1       943 2.80583E+00
 -1       944 1.67188E-01
 -1       945 2.10830E-01
 -1       946 5.83844E+00
 -1       947 1.35611E-01
 -1       948 4.74265E+00
 -1       949 2.80583E+00
 -1       950 1.35921E-01
 -1       951 1.26740E-01
 -1       952 1.12842E-01
 -1       953 9.81481E-02
 -1       954 8.50356E-02
 -1       955 7.10406E-02
 -1       956 5.69392E-02
 -1       957 5.42410E-02
 -1       958 5.69258E-02
 -1       959 6.28111E-02
 -1       960 8.15694E-02
 -1       961 1.16001E-01
 -1       962 1.58661E-01
 -1       963 2.11119E-01
 -1       964 2.74877E-01
 -1       965 3.51135E-01
 -1       966 4.40328E-01
 -1       967 5.41147E-01
 -1       968 6.80818E-01
 -1       969 8.75314E-01
 -1       970 1.22528E+00
 -1       971 1.69891E+00
 -1       972 2.15377E+00
 -1       973 3.00765E+00
 -1       974 4.96223E+00
 -1       975 4.42374E+00
 -1       976 7.92834E-02
 -1       977 7.80844E-02
 -1       978 1.97786E-01
 -1       979 5.89206E-02
 -1       980 5.29890E-02
 -1       981 1.17401E-01
 -1       982 1.66034E-01
 -1       983 2.28295E-01
 -1       984 3.08209E-01
 -1       985 4.11274E-01
 -1       986 5.45569E-01
 -1       987 7.23959E-01
 -1       988 9.68407E-01
 -1       989 1.31774E+00
 -1       990 1.84647E+00
 -1       991 2.57949E+00
 -1       992 4.33100E+00
 -1       993 8.25436E+00
 -1       994 6.39557E+00
 -1       995 4.96185E+00
 -1       996 1.23821E-01
 -1       997 2.65506E-01
 -1       998 1.36857E-01
 -1       999 2.05402E-01
 -1      1000 3.91371E+00
 -1      1001 6.20519E-02
 -1      1002 1.22933E-01
 -1      1003 1.40849E-01
 -1      1004 9.40485E-02
 -1      1005 1.24404E-01
 -1      1006 8.23716E-02
 -1      1007 3.54338E+00
 -1      1008 1.84141E-01
 -1      1009 2.08404E-01
 -1      1010 1.42630E-01
 -1      1011 1.84141E-01
 -1      1012 5.05999E-02
 -1      1013 9.91526E-02
 -1      1014 9.79914E-02
 -1      1015 8.82339E-02
 -1      1016 7.63408E-02
 -1      1017 6.55522E-02
 -1      1018 6.06248E-02
 -1      1019 5.99881E-02
 -1      1020 6.21168E-02
 -1      1021 6.77646E-02
 -1      1022 7.92876E-02
 -1      1023 9.81218E-02
 -1      1024 1.29798E-01
 -1      1025 1.75490E-01
 -1      1026 2.34010E-01
 -1      1027 3.08832E-01
 -1      1028 4.04394E-01
 -1      1029 5.26258E-01
 -1      1030 6.80818E-01
 -1      1031 8.75314E-01
 -1      1032 1.16226E+00
 -1      1033 1.58694E+00
 -1      1034 2.01700E+00
 -1      1035 3.35848E+00
 -1      1036 1.08974E-01
 -1      1037 1.52256E-01
 -1      1038 7.24712E-02
 -1      1039 6.30752E-02
 -1      1040 1.72939E-01
 -1      1041 2.29818E-01
 -1      1042 3.01504E-01
 -1      1043 3.92576E-01
 -1      1044 5.10583E-01
 -1      1045 6.69373E-01
 -1      1046 8.96914E-01
 -1      1047 1.24472E+00
 -1      1048 1.81031E+00
 -1      1049 2.91460E+00
 -1      1050 1.03592E-01
 -1      1051 4.69172E+00
 -1      1052 1.52861E-01
 -1      1053 1.02380E-01
 -1      1054 5.85215E-02
 -1      1055 4.56174E+00
 -1      1056 1.54566E-01
 -1      1057 9.07814E-02
 -1      1058 1.27754E-01
 -1      1059 9.19176E-02
 -1      1060 6.03008E-02
 -1      1061 9.89204E-02
 -1      1062 9.13209E-02
 -1      1063 1.18081E-01
 -1      1064 2.82167E+00
 -1      1065 7.40539E-02
 -1      1066 1.17441E-01
 -1      1067 3.19312E+00
 -1      1068 1.22587E-01
 -1      1069 8.46112E-02
 -1      1070 1.41710E-01
 -1      1071 5.72801E-02
 -1      1072 6.89802E-02
 -1      1073 9.29156E-02
 -1      1074 6.43038E-02
 -1      1075 6.06248E-02
 -1      1076 6.21168E-02
 -1      1077 6.77646E-02
 -1      1078 7.92876E-02
 -1      1079 9.81218E-02
 -1      1080 1.29973E-01
 -1      1081 1.74684E-01
 -1      1082 2.35720E-01
 -1      1083 3.19534E-01
 -1      1084 4.36031E-01
 -1      1085 6.00846E-01
 -1      1086 8.39315E-01
 -1      1087 1.19327E+00
 -1      1088 1.73266E+00
 -1      1089 2.84049E+00
 -1      1090 1.78551E+00
 -1      1091 3.29344E-01
 -1      1092 7.24712E-02
 -1      1093 5.85215E-02
 -1      1094 2.52886E-01
 -1      1095 1.94177E-01
 -1      1096 4.36031E-01
 -1      1097 6.00846E-01
 -1      1098 8.39315E-01
 -1      1099 1.25516E+00
 -1      1100 2.03545E+00
 -1      1101 2.84049E+00
 -1      1102 7.61292E-02
 -1      1103 1.15338E-01
 -1      1104 1.03120E-01
 -1      1105 8.29402E-02
 -1      1106 7.24584E-02
 -1      1107 6.30752E-02
 -1      1108 7.46712E-02
 -1      1109 6.13827E-02
 -1      1110 1.49243E-01
 -1      1111 6.49330E-02
 -1      1112 6.66184E-02
 -1      1113 8.85513E-02
 -1      1114 9.29156E-02
 -1      1115 1.22587E-01
 -1      1116 9.01063E-02
 -1      1117 9.23443E-02
 -1      1118 5.28979E-02
 -1      1119 1.14625E-01
 -1      1120 2.84049E+00
 -1      1121 9.15740E-02
 -1      1122 1.15260E-01
 -1      1123 9.89204E-02
 -1      1124 5.82082E-02
 -1      1125 1.22587E-01
 -1      1126 6.91967E-02
 -1      1127 1.14625E-01
 -1      1128 7.09390E-02
 -1      1129 1.31446E+01
 -1      1130 8.40405E+00
 -1      1131 2.74337E+00
 -1      1132 1.55755E+00
 -1      1133 1.16871E+00
 -1      1134 9.72342E-01
 -1      1135 8.53991E-01
 -1      1136 7.81551E-01
 -1      1137 7.55156E-01
 -1      1138 7.84634E-01
 -1      1139 8.56946E-01
 -1      1140 9.76540E-01
 -1      1141 1.17989E+00
 -1      1142 1.57137E+00
 -1      1143 2.67034E+00
 -1      1144 6.07382E+00
 -1      1145 1.13413E+01
 -1      1146 1.31446E+01
 -1      1147 8.73173E+00
 -1      1148 3.83042E+00
 -1      1149 2.72729E+00
 -1      1150 1.73858E+00
 -1      1151 1.18998E+00
 -1      1152 8.96175E-01
 -1      1153 6.87371E-01
 -1      1154 5.28169E-01
 -1      1155 4.05180E-01
 -1      1156 3.13113E-01
 -1      1157 2.43636E-01
 -1      1158 1.89015E-01
 -1      1159 1.47270E-01
 -1      1160 1.16522E-01
 -1      1161 9.50402E-02
 -1      1162 8.17996E-02
 -1      1163 7.99472E-02
 -1      1164 9.20617E-02
 -1      1165 1.14796E-01
 -1      1166 1.45621E-01
 -1      1167 1.84268E-01
 -1      1168 2.29468E-01
 -1      1169 2.78355E-01
 -1      1170 3.25746E-01
 -1      1171 3.91208E-01
 -1      1172 4.90152E-01
 -1      1173 6.10447E-01
 -1      1174 7.24853E-01
 -1      1175 7.89152E-01
 -1      1176 8.21755E-01
 -1      1177 8.59204E-01
 -1      1178 9.40078E-01
 -1      1179 1.15237E+00
 -1      1180 1.64891E+00
 -1      1181 2.38637E+00
 -1      1182 2.91877E+00
 -1      1183 3.05979E+00
 -1      1184 3.01893E+00
 -1      1185 2.87844E+00
 -1      1186 2.41606E+00
 -1      1187 1.63671E+00
 -1      1188 1.02197E+00
 -1      1189 6.71037E-01
 -1      1190 4.96838E-01
 -1      1191 4.81608E-01
 -1      1192 4.87780E-01
 -1      1193 4.66555E-01
 -1      1194 4.14800E-01
 -1      1195 2.37011E-01
 -1      1196 1.40404E+01
 -1      1197 8.71784E+00
 -1      1198 2.90466E+00
 -1      1199 2.04048E+00
 -1      1200 1.40653E+00
 -1      1201 1.02628E+00
 -1      1202 8.19332E-01
 -1      1203 6.60758E-01
 -1      1204 5.29995E-01
 -1      1205 4.21555E-01
 -1      1206 3.35786E-01
 -1      1207 2.69229E-01
 -1      1208 2.15180E-01
 -1      1209 1.72298E-01
 -1      1210 1.39883E-01
 -1      1211 1.17148E-01
 -1      1212 1.05959E-01
 -1      1213 1.10447E-01
 -1      1214 1.28012E-01
 -1      1215 1.54114E-01
 -1      1216 1.88541E-01
 -1      1217 2.30733E-01
 -1      1218 2.89737E-01
 -1      1219 3.75124E-01
 -1      1220 4.83303E-01
 -1      1221 6.08511E-01
 -1      1222 7.43122E-01
 -1      1223 8.70342E-01
 -1      1224 9.59663E-01
 -1      1225 1.10165E+00
 -1      1226 1.40384E+00
 -1      1227 1.72699E+00
 -1      1228 2.00755E+00
 -1      1229 2.27293E+00
 -1      1230 2.55605E+00
 -1      1231 3.19561E+00
 -1      1232 4.53273E+00
 -1      1233 5.71247E+00
 -1      1234 6.02894E+00
 -1      1235 5.71921E+00
 -1      1236 4.18884E+00
 -1      1237 2.31960E+00
 -1      1238 1.88971E+00
 -1      1239 2.14269E+00
 -1      1240 2.17698E+00
 -1      1241 2.01139E+00
 -1      1242 1.62602E+00
 -1      1243 1.31811E+00
 -1      1244 9.69739E-01
 -1      1245 4.37310E-01
 -1      1246 2.55733E-01
 -1      1247 3.46357E-01
 -1      1248 2.93648E-01
 -1      1249 1.67265E-01
 -1      1250 1.56080E-01
 -1      1251 2.61028E-01
 -1      1252 3.08089E-01
 -1      1253 3.12690E-01
 -1      1254 2.82361E-01
 -1      1255 1.97520E-01
 -1      1256 1.09276E-01
 -1      1257 1.01281E-01
 -1      1258 1.38288E-01
 -1      1259 1.50139E-01
 -1      1260 1.81493E-01
 -1      1261 2.15609E-01
 -1      1262 1.54352E-01
 -1      1263 2.42918E+01
 -1      1264 3.67603E+01
 -1      1265 4.91008E+01
 -1      1266 3.52817E+01
 -1      1267 1.67211E+01
 -1      1268 1.21481E+01
 -1      1269 1.24693E+01
 -1      1270 1.30293E+01
 -1      1271 1.34365E+01
 -1      1272 1.39050E+01
 -1      1273 2.42906E+01
 -1      1274 3.42078E+01
 -1      1275 3.04834E+01
 -1      1276 2.60761E+01
 -1      1277 2.46971E+01
 -1      1278 2.42248E+01
 -1      1279 3.27230E+01
 -1      1280 4.09971E+01
 -1      1281 2.83297E+01
 -1      1282 1.40742E+01
 -1      1283 1.24861E+01
 -1      1284 1.22559E+01
 -1      1285 1.24025E+01
 -1      1286 1.27794E+01
 -1      1287 1.23837E+01
 -1      1288 1.81798E+01
 -1      1289 2.81447E+01
 -1      1290 3.19179E+01
 -1      1291 2.79766E+01
 -1      1292 2.40996E+01
 -1      1293 1.31446E+01
 -1      1294 4.87068E+00
 -1      1295 9.61125E+00
 -1      1296 2.06045E+00
 -1      1297 2.98056E+00
 -1      1298 4.18775E+00
 -1      1299 1.40000E+00
 -1      1300 1.66571E+00
 -1      1301 1.90290E+00
 -1      1302 1.10148E+00
 -1      1303 1.22460E+00
 -1      1304 1.33277E+00
 -1      1305 9.36024E-01
 -1      1306 1.00928E+00
 -1      1307 1.06516E+00
 -1      1308 8.36477E-01
 -1      1309 8.81575E-01
 -1      1310 9.18510E-01
 -1      1311 7.75225E-01
 -1      1312 8.02566E-01
 -1      1313 8.30151E-01
 -1      1314 7.56102E-01
 -1      1315 7.55156E-01
 -1      1316 7.76171E-01
 -1      1317 8.06380E-01
 -1      1318 7.77848E-01
 -1      1319 7.77848E-01
 -1      1320 8.83981E-01
 -1      1321 8.40202E-01
 -1      1322 8.33416E-01
 -1      1323 1.01660E+00
 -1      1324 9.40789E-01
 -1      1325 9.24045E-01
 -1      1326 1.23982E+00
 -1      1327 1.11228E+00
 -1      1328 1.07653E+00
 -1      1329 1.68124E+00
 -1      1330 1.41731E+00
 -1      1331 1.34969E+00
 -1      1332 2.88290E+00
 -1      1333 2.04787E+00
 -1      1334 1.89381E+00
 -1      1335 6.28671E+00
 -1      1336 3.71826E+00
 -1      1337 3.09579E+00
 -1      1338 1.40404E+01
 -1      1339 1.13413E+01
 -1      1340 8.98576E+00
 -1      1341 1.40404E+01
 -1      1342 8.73173E+00
 -1      1343 4.31884E+00
 -1      1344 3.83042E+00
 -1      1345 3.34199E+00
 -1      1346 3.83042E+00
 -1      1347 2.72729E+00
 -1      1348 2.11259E+00
 -1      1349 2.72729E+00
 -1      1350 1.78073E+00
 -1      1351 1.40671E+00
 -1      1352 1.78073E+00
 -1      1353 1.19612E+00
 -1      1354 1.02154E+00
 -1      1355 1.23828E+00
 -1      1356 8.96175E-01
 -1      1357 7.76947E-01
 -1      1358 9.02314E-01
 -1      1359 6.87371E-01
 -1      1360 5.97796E-01
 -1      1361 6.87371E-01
 -1      1362 5.34406E-01
 -1      1363 4.64779E-01
 -1      1364 5.34406E-01
 -1      1365 4.15266E-01
 -1      1366 3.61904E-01
 -1      1367 4.21503E-01
 -1      1368 3.23032E-01
 -1      1369 2.84327E-01
 -1      1370 3.33118E-01
 -1      1371 2.56514E-01
 -1      1372 2.25741E-01
 -1      1373 2.66433E-01
 -1      1374 2.02309E-01
 -1      1375 1.78461E-01
 -1      1376 2.15187E-01
 -1      1377 1.59302E-01
 -1      1378 1.41404E-01
 -1      1379 1.72595E-01
 -1      1380 1.26158E-01
 -1      1381 1.13307E-01
 -1      1382 1.38189E-01
 -1      1383 1.01477E-01
 -1      1384 9.28465E-02
 -1      1385 1.11113E-01
 -1      1386 8.38563E-02
 -1      1387 7.92459E-02
 -1      1388 9.02928E-02
 -1      1389 7.71891E-02
 -1      1390 7.99472E-02
 -1      1391 7.92459E-02
 -1      1392 8.43989E-02
 -1      1393 9.37554E-02
 -1      1394 8.16409E-02
 -1      1395 1.03598E-01
 -1      1396 1.16975E-01
 -1      1397 9.59354E-02
 -1      1398 1.29901E-01
 -1      1399 1.47349E-01
 -1      1400 1.18703E-01
 -1      1401 1.63149E-01
 -1      1402 1.84348E-01
 -1      1403 1.47429E-01
 -1      1404 2.05467E-01
 -1      1405 2.29468E-01
 -1      1406 1.84348E-01
 -1      1407 2.53468E-01
 -1      1408 2.78355E-01
 -1      1409 2.29468E-01
 -1      1410 3.12767E-01
 -1      1411 3.35272E-01
 -1      1412 2.87881E-01
 -1      1413 3.72744E-01
 -1      1414 4.15702E-01
 -1      1415 3.59766E-01
 -1      1416 4.49636E-01
 -1      1417 5.05622E-01
 -1      1418 4.31172E-01
 -1      1419 5.49728E-01
 -1      1420 6.14037E-01
 -1      1421 5.09212E-01
 -1      1422 6.74756E-01
 -1      1423 7.24853E-01
 -1      1424 6.14037E-01
 -1      1425 7.74950E-01
 -1      1426 7.89152E-01
 -1      1427 7.24853E-01
 -1      1428 8.03354E-01
 -1      1429 8.21755E-01
 -1      1430 7.89152E-01
 -1      1431 8.40155E-01
 -1      1432 8.59204E-01
 -1      1433 8.21755E-01
 -1      1434 8.78253E-01
 -1      1435 9.40078E-01
 -1      1436 8.59204E-01
 -1      1437 1.00190E+00
 -1      1438 1.15237E+00
 -1      1439 9.40078E-01
 -1      1440 1.31251E+00
 -1      1441 1.65858E+00
 -1      1442 1.16204E+00
 -1      1443 1.99498E+00
 -1      1444 2.38637E+00
 -1      1445 1.65858E+00
 -1      1446 2.77775E+00
 -1      1447 2.91877E+00
 -1      1448 2.38637E+00
 -1      1449 3.05979E+00
 -1      1450 3.05979E+00
 -1      1451 2.91877E+00
 -1      1452 3.01893E+00
 -1      1453 2.97808E+00
 -1      1454 3.01893E+00
 -1      1455 2.87844E+00
 -1      1456 2.77880E+00
 -1      1457 2.87844E+00
 -1      1458 2.41606E+00
 -1      1459 2.05331E+00
 -1      1460 2.41606E+00
 -1      1461 1.73391E+00
 -1      1462 1.31731E+00
 -1      1463 1.73391E+00
 -1      1464 1.08341E+00
 -1      1465 8.85267E-01
 -1      1466 1.18060E+00
 -1      1467 6.87460E-01
 -1      1468 5.34662E-01
 -1      1469 7.48891E-01
 -1      1470 4.96838E-01
 -1      1471 4.75437E-01
 -1      1472 5.13261E-01
 -1      1473 4.68052E-01
 -1      1474 4.74223E-01
 -1      1475 4.68052E-01
 -1      1476 4.87780E-01
 -1      1477 4.87780E-01
 -1      1478 4.74223E-01
 -1      1479 4.66555E-01
 -1      1480 4.45331E-01
 -1      1481 4.66555E-01
 -1      1482 4.14800E-01
 -1      1483 3.84269E-01
 -1      1484 4.14800E-01
 -1      1485 3.01611E-01
 -1      1486 3.01611E-01
 -1      1487 3.39532E+00
 -1      1488 8.71784E+00
 -1      1489 8.71784E+00
 -1      1490 2.41399E+00
 -1      1491 2.90466E+00
 -1      1492 2.90466E+00
 -1      1493 1.66697E+00
 -1      1494 2.04048E+00
 -1      1495 2.04048E+00
 -1      1496 1.14609E+00
 -1      1497 1.40653E+00
 -1      1498 1.40653E+00
 -1      1499 9.06476E-01
 -1      1500 1.02628E+00
 -1      1501 1.02628E+00
 -1      1502 7.32187E-01
 -1      1503 8.19332E-01
 -1      1504 8.19332E-01
 -1      1505 5.89329E-01
 -1      1506 6.60758E-01
 -1      1507 6.60758E-01
 -1      1508 4.70661E-01
 -1      1509 5.29995E-01
 -1      1510 5.29995E-01
 -1      1511 3.72449E-01
 -1      1512 4.21555E-01
 -1      1513 4.21555E-01
 -1      1514 2.99123E-01
 -1      1515 3.35786E-01
 -1      1516 3.35786E-01
 -1      1517 2.39336E-01
 -1      1518 2.69229E-01
 -1      1519 2.69229E-01
 -1      1520 1.91875E-01
 -1      1521 2.16031E-01
 -1      1522 2.16031E-01
 -1      1523 1.55004E-01
 -1      1524 1.73731E-01
 -1      1525 1.74581E-01
 -1      1526 1.27415E-01
 -1      1527 1.41104E-01
 -1      1528 1.42536E-01
 -1      1529 1.08437E-01
 -1      1530 1.17483E-01
 -1      1531 1.18703E-01
 -1      1532 1.01566E-01
 -1      1533 1.03710E-01
 -1      1534 1.04044E-01
 -1      1535 1.11030E-01
 -1      1536 1.04398E-01
 -1      1537 1.02149E-01
 -1      1538 1.28910E-01
 -1      1539 1.17977E-01
 -1      1540 1.11928E-01
 -1      1541 1.54114E-01
 -1      1542 1.38944E-01
 -1      1543 1.28910E-01
 -1      1544 1.89206E-01
 -1      1545 1.69949E-01
 -1      1546 1.54779E-01
 -1      1547 2.38482E-01
 -1      1548 2.15548E-01
 -1      1549 1.96955E-01
 -1      1550 3.07901E-01
 -1      1551 2.71831E-01
 -1      1552 2.56645E-01
 -1      1553 3.97938E-01
 -1      1554 3.48622E-01
 -1      1555 3.30715E-01
 -1      1556 5.04713E-01
 -1      1557 4.45852E-01
 -1      1558 4.19349E-01
 -1      1559 6.24996E-01
 -1      1560 5.58650E-01
 -1      1561 5.21199E-01
 -1      1562 7.47537E-01
 -1      1563 6.79273E-01
 -1      1564 6.29412E-01
 -1      1565 8.70342E-01
 -1      1566 8.11386E-01
 -1      1567 7.47537E-01
 -1      1568 9.59663E-01
 -1      1569 9.29299E-01
 -1      1570 8.70342E-01
 -1      1571 1.15085E+00
 -1      1572 1.03923E+00
 -1      1573 1.00886E+00
 -1      1574 1.46428E+00
 -1      1575 1.27372E+00
 -1      1576 1.21129E+00
 -1      1577 1.72699E+00
 -1      1578 1.59440E+00
 -1      1579 1.46428E+00
 -1      1580 2.00755E+00
 -1      1581 1.85958E+00
 -1      1582 1.72699E+00
 -1      1583 2.27293E+00
 -1      1584 2.15552E+00
 -1      1585 2.00755E+00
 -1      1586 2.55605E+00
 -1      1587 2.39034E+00
 -1      1588 2.27293E+00
 -1      1589 3.19561E+00
 -1      1590 2.72176E+00
 -1      1591 2.55605E+00
 -1      1592 4.53273E+00
 -1      1593 3.66946E+00
 -1      1594 3.19561E+00
 -1      1595 5.71247E+00
 -1      1596 5.39600E+00
 -1      1597 4.53273E+00
 -1      1598 6.02894E+00
 -1      1599 6.02894E+00
 -1      1600 5.71247E+00
 -1      1601 5.40948E+00
 -1      1602 5.71921E+00
 -1      1603 5.71921E+00
 -1      1604 2.96820E+00
 -1      1605 4.18884E+00
 -1      1606 4.18884E+00
 -1      1607 1.66624E+00
 -1      1608 2.31484E+00
 -1      1609 2.31484E+00
 -1      1610 1.88971E+00
 -1      1611 1.67101E+00
 -1      1612 1.66624E+00
 -1      1613 2.14269E+00
 -1      1614 2.10841E+00
 -1      1615 1.88971E+00
 -1      1616 2.17698E+00
 -1      1617 2.17698E+00
 -1      1618 2.14269E+00
 -1      1619 1.84580E+00
 -1      1620 2.01139E+00
 -1      1621 2.01139E+00
 -1      1622 1.40625E+00
 -1      1623 1.62602E+00
 -1      1624 1.62602E+00
 -1      1625 1.22997E+00
 -1      1626 1.31811E+00
 -1      1627 1.31811E+00
 -1      1628 7.34806E-01
 -1      1629 9.95034E-01
 -1      1630 9.95034E-01
 -1      1631 5.27934E-01
 -1      1632 3.77398E-01
 -1      1633 3.77398E-01
 -1      1634 3.24689E-01
 -1      1635 3.77398E-01
 -1      1636 4.08439E-01
 -1      1637 2.30744E-01
 -1      1638 3.04418E-01
 -1      1639 3.88169E-01
 -1      1640 2.83158E-01
 -1      1641 2.20669E-01
 -1      1642 3.57822E-01
 -1      1643 4.24966E-01
 -1      1644 3.82507E-01
 -1      1645 4.47096E-01
 -1      1646 4.58201E-01
 -1      1647 4.53599E-01
 -1      1648 5.75078E-01
 -1      1649 4.58201E-01
 -1      1650 4.58201E-01
 -1      1651 6.03711E-01
 -1      1652 4.15838E-01
 -1      1653 4.46168E-01
 -1      1654 5.91678E-01
 -1      1655 2.83458E-01
 -1      1656 3.37969E-01
 -1      1657 5.01776E-01
 -1      1658 1.50380E-01
 -1      1659 1.84113E-01
 -1      1660 3.24561E-01
 -1      1661 1.78010E-01
 -1      1662 1.52273E-01
 -1      1663 2.27109E-01
 -1      1664 2.09827E-01
 -1      1665 1.98557E-01
 -1      1666 2.49549E-01
 -1      1667 2.10409E-01
 -1      1668 2.09827E-01
 -1      1669 2.70097E-01
 -1      1670 2.40991E-01
 -1      1671 2.10219E-01
 -1      1672 2.69907E-01
 -1      1673 2.49083E-01
 -1      1674 2.45739E-01
 -1      1675 2.74465E-01
 -1      1676 3.31741E-01
 -1      1677 2.64928E+01
 -1      1678 2.63648E+01
 -1      1679 4.03208E+01
 -1      1680 2.79803E+01
 -1      1681 4.91008E+01
 -1      1682 4.91008E+01
 -1      1683 2.28807E+01
 -1      1684 3.66998E+01
 -1      1685 1.16074E+01
 -1      1686 1.63488E+01
 -1      1687 1.21481E+01
 -1      1688 1.19796E+01
 -1      1689 1.24693E+01
 -1      1690 1.23166E+01
 -1      1691 1.30293E+01
 -1      1692 1.26221E+01
 -1      1693 1.34365E+01
 -1      1694 1.34365E+01
 -1      1695 1.30862E+01
 -1      1696 1.26178E+01
 -1      1697 2.42906E+01
 -1      1698 1.43734E+01
 -1      1699 3.42078E+01
 -1      1700 3.42078E+01
 -1      1701 3.02150E+01
 -1      1702 3.39395E+01
 -1      1703 2.55629E+01
 -1      1704 2.62457E+01
 -1      1705 2.51469E+01
 -1      1706 2.58431E+01
 -1      1707 2.53709E+01
 -1      1708 2.51469E+01
 -1      1709 3.85683E+01
 -1      1710 3.02941E+01
 -1      1711 4.09971E+01
 -1      1712 4.09971E+01
 -1      1713 1.56622E+01
 -1      1714 2.83297E+01
 -1      1715 1.16836E+01
 -1      1716 1.32717E+01
 -1      1717 1.24861E+01
 -1      1718 1.24861E+01
 -1      1719 1.19923E+01
 -1      1720 1.22226E+01
 -1      1721 1.24025E+01
 -1      1722 1.20256E+01
 -1      1723 1.27794E+01
 -1      1724 1.27794E+01
 -1      1725 1.19351E+01
 -1      1726 1.23308E+01
 -1      1727 1.81798E+01
 -1      1728 1.19880E+01
 -1      1729 2.92986E+01
 -1      1730 2.55254E+01
 -1      1731 3.19396E+01
 -1      1732 3.19396E+01
 -1      1733 2.79984E+01
 -1      1734 3.19396E+01
 -1      1735 2.63648E+01
 -1      1736 2.63006E+01
 -1      1737 1.77670E+01
 -1      1738 3.66998E+01
 -1      1739 5.53229E-01
 -1      1740 5.84270E-01
 -1      1741 3.00533E+01
 -1      1742 4.03208E+01
 -1      1743 2.85658E+01
 -1      1744 1.16074E+01
 -1      1745 1.21481E+01
 -1      1746 1.24693E+01
 -1      1747 1.30293E+01
 -1      1748 1.26178E+01
 -1      1749 1.30862E+01
 -1      1750 2.42906E+01
 -1      1751 3.39395E+01
 -1      1752 2.97018E+01
 -1      1753 2.60128E+01
 -1      1754 2.62930E+01
 -1      1755 3.12162E+01
 -1      1756 3.85683E+01
 -1      1757 2.83297E+01
 -1      1758 1.32717E+01
 -1      1759 1.16836E+01
 -1      1760 1.22226E+01
 -1      1761 1.19923E+01
 -1      1762 1.24025E+01
 -1      1763 1.23308E+01
 -1      1764 1.19351E+01
 -1      1765 1.93337E+01
 -1      1766 2.93203E+01
 -1      1767 3.19613E+01
 -1      1768 3.02636E+01
 -1      1769 9.61125E+00
 -1      1770 1.27697E+00
 -1      1771 1.67170E+00
 -1      1772 2.38868E+00
 -1      1773 4.27880E+00
 -1      1774 1.76275E+00
 -1      1775 8.81951E-01
 -1      1776 9.74153E-01
 -1      1777 7.78891E-01
 -1      1778 8.33340E-01
 -1      1779 7.42332E-01
 -1      1780 7.13983E-01
 -1      1781 7.47894E-01
 -1      1782 6.62724E-01
 -1      1783 6.71935E-01
 -1      1784 6.92004E-01
 -1      1785 6.09748E-01
 -1      1786 6.95248E-01
 -1      1787 6.73501E-01
 -1      1788 5.89335E-01
 -1      1789 7.50868E-01
 -1      1790 7.17047E-01
 -1      1791 6.12700E-01
 -1      1792 8.40975E-01
 -1      1793 7.84168E-01
 -1      1794 6.67799E-01
 -1      1795 9.84187E-01
 -1      1796 8.88512E-01
 -1      1797 7.48635E-01
 -1      1798 1.22935E+00
 -1      1799 1.05186E+00
 -1      1800 8.63846E-01
 -1      1801 1.71002E+00
 -1      1802 1.34339E+00
 -1      1803 1.04556E+00
 -1      1804 2.62991E+00
 -1      1805 1.79454E+00
 -1      1806 1.24413E+00
 -1      1807 8.12084E+00
 -1      1808 3.06624E+00
 -1      1809 1.76499E+00
 -1      1810 2.79832E+00
 -1      1811 5.19836E+00
 -1      1812 2.16448E+00
 -1      1813 2.65514E+00
 -1      1814 2.05814E+00
 -1      1815 3.39928E+00
 -1      1816 2.53613E+00
 -1      1817 1.92143E+00
 -1      1818 1.69084E+00
 -1      1819 1.35897E+00
 -1      1820 1.49968E+00
 -1      1821 1.17879E+00
 -1      1822 9.68197E-01
 -1      1823 1.08889E+00
 -1      1824 8.43010E-01
 -1      1825 7.17643E-01
 -1      1826 7.83526E-01
 -1      1827 6.58785E-01
 -1      1828 5.69209E-01
 -1      1829 5.99481E-01
 -1      1830 5.20984E-01
 -1      1831 4.57595E-01
 -1      1832 4.92397E-01
 -1      1833 4.15271E-01
 -1      1834 3.65758E-01
 -1      1835 4.01849E-01
 -1      1836 3.33177E-01
 -1      1837 2.94306E-01
 -1      1838 3.26945E-01
 -1      1839 2.67159E-01
 -1      1840 2.39345E-01
 -1      1841 2.67218E-01
 -1      1842 2.16154E-01
 -1      1843 1.92722E-01
 -1      1844 2.16880E-01
 -1      1845 1.74258E-01
 -1      1846 1.55098E-01
 -1      1847 1.75225E-01
 -1      1848 1.40541E-01
 -1      1849 1.25295E-01
 -1      1850 1.42204E-01
 -1      1851 1.12898E-01
 -1      1852 1.01068E-01
 -1      1853 1.15250E-01
 -1      1854 9.05886E-02
 -1      1855 8.15984E-02
 -1      1856 9.23741E-02
 -1      1857 7.57979E-02
 -1      1858 7.37412E-02
 -1      1859 7.60937E-02
 -1      1860 7.48241E-02
 -1      1861 7.92759E-02
 -1      1862 7.13762E-02
 -1      1863 8.60926E-02
 -1      1864 9.59354E-02
 -1      1865 7.92759E-02
 -1      1866 1.05778E-01
 -1      1867 1.18703E-01
 -1      1868 9.59354E-02
 -1      1869 1.31629E-01
 -1      1870 1.47429E-01
 -1      1871 1.18703E-01
 -1      1872 1.69657E-01
 -1      1873 1.90777E-01
 -1      1874 1.53857E-01
 -1      1875 2.19182E-01
 -1      1876 2.43182E-01
 -1      1877 2.04491E-01
 -1      1878 2.74792E-01
 -1      1879 3.09205E-01
 -1      1880 2.64506E-01
 -1      1881 3.41860E-01
 -1      1882 3.79332E-01
 -1      1883 3.28772E-01
 -1      1884 4.09175E-01
 -1      1885 4.43109E-01
 -1      1886 3.91269E-01
 -1      1887 4.71185E-01
 -1      1888 5.15291E-01
 -1      1889 4.49188E-01
 -1      1890 5.45311E-01
 -1      1891 6.06030E-01
 -1      1892 5.07284E-01
 -1      1893 6.31104E-01
 -1      1894 6.81201E-01
 -1      1895 5.62378E-01
 -1      1896 6.77394E-01
 -1      1897 6.91596E-01
 -1      1898 5.83645E-01
 -1      1899 6.40486E-01
 -1      1900 6.58887E-01
 -1      1901 5.28728E-01
 -1      1902 6.27845E-01
 -1      1903 6.46894E-01
 -1      1904 4.46577E-01
 -1      1905 7.09391E-01
 -1      1906 7.71216E-01
 -1      1907 4.78032E-01
 -1      1908 9.93928E-01
 -1      1909 1.15407E+00
 -1      1910 7.63240E-01
 -1      1911 1.35345E+00
 -1      1912 1.68985E+00
 -1      1913 1.18534E+00
 -1      1914 1.88471E+00
 -1      1915 2.27609E+00
 -1      1916 1.57958E+00
 -1      1917 2.39140E+00
 -1      1918 2.53242E+00
 -1      1919 1.88975E+00
 -1      1920 2.49291E+00
 -1      1921 2.45205E+00
 -1      1922 1.96554E+00
 -1      1923 2.46933E+00
 -1      1924 2.36970E+00
 -1      1925 1.94331E+00
 -1      1926 2.28416E+00
 -1      1927 1.92141E+00
 -1      1928 1.87505E+00
 -1      1929 1.75289E+00
 -1      1930 1.43349E+00
 -1      1931 1.62099E+00
 -1      1932 1.26560E+00
 -1      1933 1.03170E+00
 -1      1934 1.28458E+00
 -1      1935 8.89202E-01
 -1      1936 6.91395E-01
 -1      1937 9.74201E-01
 -1      1938 5.82367E-01
 -1      1939 5.44543E-01
 -1      1940 7.22677E-01
 -1      1941 4.75949E-01
 -1      1942 4.68564E-01
 -1      1943 5.45055E-01
 -1      1944 4.54154E-01
 -1      1945 4.67711E-01
 -1      1946 4.62052E-01
 -1      1947 4.30158E-01
 -1      1948 4.08933E-01
 -1      1949 4.10089E-01
 -1      1950 4.14959E-01
 -1      1951 3.84428E-01
 -1      1952 3.31900E-01
 -1      1953 3.78561E-01
 -1      1954 1.39913E+00
 -1      1955 1.77264E+00
 -1      1956 1.52312E+00
 -1      1957 1.01942E+00
 -1      1958 1.27986E+00
 -1      1959 1.01202E+00
 -1      1960 8.06038E-01
 -1      1961 9.25843E-01
 -1      1962 7.99175E-01
 -1      1963 6.39685E-01
 -1      1964 7.26829E-01
 -1      1965 6.26392E-01
 -1      1966 5.14608E-01
 -1      1967 5.86037E-01
 -1      1968 4.93535E-01
 -1      1969 4.22348E-01
 -1      1970 4.81682E-01
 -1      1971 4.06961E-01
 -1      1972 3.41776E-01
 -1      1973 3.90882E-01
 -1      1974 3.42569E-01
 -1      1975 2.77531E-01
 -1      1976 3.14194E-01
 -1      1977 2.83521E-01
 -1      1978 2.25401E-01
 -1      1979 2.55294E-01
 -1      1980 2.33703E-01
 -1      1981 1.82705E-01
 -1      1982 2.06010E-01
 -1      1983 1.92075E-01
 -1      1984 1.49002E-01
 -1      1985 1.67147E-01
 -1      1986 1.57126E-01
 -1      1987 1.23223E-01
 -1      1988 1.37124E-01
 -1      1989 1.29689E-01
 -1      1990 1.04528E-01
 -1      1991 1.14460E-01
 -1      1992 1.09048E-01
 -1      1993 9.40069E-02
 -1      1994 9.87343E-02
 -1      1995 9.44906E-02
 -1      1996 9.63657E-02
 -1      1997 9.35336E-02
 -1      1998 8.82237E-02
 -1      1999 1.06151E-01
 -1      2000 9.92043E-02
 -1      2001 9.05890E-02
 -1      2002 1.25436E-01
 -1      2003 1.15401E-01
 -1      2004 1.02677E-01
 -1      2005 1.57211E-01
 -1      2006 1.41376E-01
 -1      2007 1.27867E-01
 -1      2008 2.06491E-01
 -1      2009 1.80150E-01
 -1      2010 1.66746E-01
 -1      2011 2.81952E-01
 -1      2012 2.48603E-01
 -1      2013 2.31798E-01
 -1      2014 3.77881E-01
 -1      2015 3.37160E-01
 -1      2016 3.29118E-01
 -1      2017 4.96334E-01
 -1      2018 4.48421E-01
 -1      2019 4.54866E-01
 -1      2020 6.37276E-01
 -1      2021 5.83340E-01
 -1      2022 6.12411E-01
 -1      2023 7.93556E-01
 -1      2024 7.39279E-01
 -1      2025 8.01420E-01
 -1      2026 9.67972E-01
 -1      2027 9.04124E-01
 -1      2028 1.01399E+00
 -1      2029 1.13152E+00
 -1      2030 1.07257E+00
 -1      2031 1.22915E+00
 -1      2032 1.29591E+00
 -1      2033 1.21635E+00
 -1      2034 1.41857E+00
 -1      2035 1.47793E+00
 -1      2036 1.35506E+00
 -1      2037 1.56254E+00
 -1      2038 1.62244E+00
 -1      2039 1.49232E+00
 -1      2040 1.63608E+00
 -1      2041 1.71828E+00
 -1      2042 1.58569E+00
 -1      2043 1.61373E+00
 -1      2044 1.76965E+00
 -1      2045 1.62168E+00
 -1      2046 1.48038E+00
 -1      2047 1.87539E+00
 -1      2048 1.75798E+00
 -1      2049 1.37211E+00
 -1      2050 2.56736E+00
 -1      2051 2.40165E+00
 -1      2052 1.88670E+00
 -1      2053 3.32457E+00
 -1      2054 2.85072E+00
 -1      2055 2.69632E+00
 -1      2056 4.58464E+00
 -1      2057 3.72137E+00
 -1      2058 3.37649E+00
 -1      2059 4.86942E+00
 -1      2060 4.55295E+00
 -1      2061 3.74159E+00
 -1      2062 4.27102E+00
 -1      2063 4.58075E+00
 -1      2064 3.42123E+00
 -1      2065 2.54967E+00
 -1      2066 3.77031E+00
 -1      2067 2.63184E+00
 -1      2068 1.56544E+00
 -1      2069 2.21880E+00
 -1      2070 1.80026E+00
 -1      2071 1.49818E+00
 -1      2072 1.49341E+00
 -1      2073 1.39737E+00
 -1      2074 1.75184E+00
 -1      2075 1.53314E+00
 -1      2076 1.36031E+00
 -1      2077 1.85098E+00
 -1      2078 1.81669E+00
 -1      2079 1.46013E+00
 -1      2080 1.62304E+00
 -1      2081 1.78863E+00
 -1      2082 1.46263E+00
 -1      2083 1.30800E+00
 -1      2084 1.52778E+00
 -1      2085 1.30502E+00
 -1      2086 1.12792E+00
 -1      2087 1.21606E+00
 -1      2088 1.11782E+00
 -1      2089 7.60101E-01
 -1      2090 9.95034E-01
 -1      2091 8.92990E-01
 -1      2092 5.84270E-01
 -1      2093 4.10565E-01
 -1      2094 4.20641E-01
 -1      2095 5.68601E-01
 -1      2096 5.88872E-01
 -1      2097 6.21344E-01
 -1      2098 5.88872E-01
 -1      2099 5.88872E-01
 -1      2100 7.64703E-01
 -1      2101 7.69305E-01
 -1      2102 6.47191E-01
 -1      2103 5.47842E-01
 -1      2104 6.10661E-01
 -1      2105 7.52699E-01
 -1      2106 7.24065E-01
 -1      2107 8.24812E-01
 -1      2108 7.52699E-01
 -1      2109 7.52699E-01
 -1      2110 9.01686E-01
 -1      2111 7.35859E-01
 -1      2112 7.47892E-01
 -1      2113 8.96880E-01
 -1      2114 6.07598E-01
 -1      2115 6.85467E-01
 -1      2116 8.41681E-01
 -1      2117 3.71629E-01
 -1      2118 4.70975E-01
 -1      2119 6.54665E-01
 -1      2120 2.91978E-01
 -1      2121 2.90085E-01
 -1      2122 4.36498E-01
 -1      2123 3.18498E-01
 -1      2124 2.97951E-01
 -1      2125 3.60927E-01
 -1      2126 3.18498E-01
 -1      2127 3.18498E-01
 -1      2128 3.66899E-01
 -1      2129 3.27152E-01
 -1      2130 3.27342E-01
 -1      2131 3.75743E-01
 -1      2132 4.03208E+01
 -1      2133 3.15409E+01
 -1      2134 2.89201E+01
 -1      2135 2.89201E+01
 -1      2136 3.03653E+01
 -1      2137 2.88778E+01
 -1      2138 2.10905E+01
 -1      2139 3.34915E+01
 -1      2140 1.08529E+01
 -1      2141 1.73848E+01
 -1      2142 1.03849E+00
 -1      2143 1.21389E+00
 -1      2144 9.82691E-01
 -1      2145 8.55279E-01
 -1      2146 1.12520E+01
 -1      2147 1.10836E+01
 -1      2148 1.15036E+01
 -1      2149 1.13508E+01
 -1      2150 1.20748E+01
 -1      2151 1.16676E+01
 -1      2152 1.00116E+01
 -1      2153 1.08304E+01
 -1      2154 1.10449E+01
 -1      2155 9.75770E+00
 -1      2156 7.97026E+00
 -1      2157 2.33143E+01
 -1      2158 1.33971E+01
 -1      2159 2.78684E+01
 -1      2160 2.81367E+01
 -1      2161 2.22922E+01
 -1      2162 2.62615E+01
 -1      2163 2.04588E+01
 -1      2164 3.10621E+01
 -1      2165 3.07819E+01
 -1      2166 3.10621E+01
 -1      2167 3.10621E+01
 -1      2168 2.94331E+01
 -1      2169 2.45099E+01
 -1      2170 3.26947E+01
 -1      2171 3.02659E+01
 -1      2172 1.49398E+01
 -1      2173 2.76072E+01
 -1      2174 9.31679E+00
 -1      2175 1.17073E+01
 -1      2176 1.02099E+01
 -1      2177 9.40738E+00
 -1      2178 7.84307E+00
 -1      2179 1.09498E+01
 -1      2180 1.12134E+01
 -1      2181 1.10111E+01
 -1      2182 1.09779E+01
 -1      2183 9.96862E+00
 -1      2184 1.17766E+01
 -1      2185 1.13997E+01
 -1      2186 1.04505E+01
 -1      2187 1.08990E+01
 -1      2188 9.33512E+00
 -1      2189 9.28224E+00
 -1      2190 1.86530E+01
 -1      2191 1.13073E+01
 -1      2192 2.52823E+01
 -1      2193 2.26413E+01
 -1      2194 3.19613E+01
 -1      2195 3.19613E+01
 -1      2196 2.89201E+01
 -1      2197 3.06179E+01
 -1      2198 9.66509E+00
 -1      2199 9.29282E+00
 -1      2200 1.41764E+01
 -1      2201 2.91086E+00
 -1      2202 8.91063E+00
 -1      2203 8.76901E+00
 -1      2204 2.10500E+00
 -1      2205 3.03653E+01
 -1      2206 2.92320E+01
 -1      2207 3.31900E-01
 -1      2208 2.47115E+01
 -1      2209 2.92744E+01
 -1      2210 3.06179E+01
 -1      2211 2.52823E+01
 -1      2212 1.46150E+01
 -1      2213 8.65443E+00
 -1      2214 7.85048E+00
 -1      2215 1.03853E+01
 -1      2216 8.93711E+00
 -1      2217 1.09849E+01
 -1      2218 1.93049E+01
 -1      2219 2.35596E+01
 -1      2220 2.92790E+01
 -1      2221 2.33806E+01
 -1      2222 1.99403E+01
 -1      2223 2.84299E+01
 -1      2224 1.00685E+01
 -1      2225 9.46867E+00
 -1      2226 1.02863E+01
 -1      2227 1.05491E+01
 -1      2228 1.72432E+01
 -1      2229 3.58312E+01
 -1      2230 9.89629E+00
 -1      2231 1.09014E+00
 -1      2232 1.48197E+00
 -1      2233 5.59001E-01
 -1      2234 5.89998E-01
 -1      2235 6.01380E-01
 -1      2236 6.49991E-01
 -1      2237 4.97657E-01
 -1      2238 5.11259E-01
 -1      2239 5.09693E-01
 -1      2240 5.46028E-01
 -1      2241 5.24229E-01
 -1      2242 4.44586E-01
 -1      2243 5.94053E-01
 -1      2244 5.60753E-01
 -1      2245 4.72282E-01
 -1      2246 6.53553E-01
 -1      2247 6.06016E-01
 -1      2248 4.98970E-01
 -1      2249 7.21226E-01
 -1      2250 6.53553E-01
 -1      2251 5.10934E-01
 -1      2252 8.83834E-01
 -1      2253 7.69793E-01
 -1      2254 5.59500E-01
 -1      2255 8.92750E-01
 -1      2256 1.01202E+00
 -1      2257 9.70868E-01
 -1      2258 1.26691E+00
 -1      2259 1.03631E+00
 -1      2260 6.64777E+00
 -1      2261 8.20787E+00
 -1      2262 9.87716E-01
 -1      2263 8.07535E-01
 -1      2264 7.54950E-01
 -1      2265 7.49659E-01
 -1      2266 6.24471E-01
 -1      2267 6.48480E-01
 -1      2268 5.68510E-01
 -1      2269 5.09651E-01
 -1      2270 5.34642E-01
 -1      2271 4.60460E-01
 -1      2272 4.12236E-01
 -1      2273 4.29490E-01
 -1      2274 3.85016E-01
 -1      2275 3.42693E-01
 -1      2276 3.53079E-01
 -1      2277 3.18036E-01
 -1      2278 2.85456E-01
 -1      2279 3.01203E-01
 -1      2280 2.62209E-01
 -1      2281 2.35062E-01
 -1      2282 2.53300E-01
 -1      2283 2.15361E-01
 -1      2284 1.92170E-01
 -1      2285 2.10352E-01
 -1      2286 1.75448E-01
 -1      2287 1.56984E-01
 -1      2288 1.73929E-01
 -1      2289 1.42281E-01
 -1      2290 1.27723E-01
 -1      2291 1.42504E-01
 -1      2292 1.15250E-01
 -1      2293 1.02854E-01
 -1      2294 1.15327E-01
 -1      2295 9.23741E-02
 -1      2296 8.18942E-02
 -1      2297 9.23741E-02
 -1      2298 7.38283E-02
 -1      2299 6.80278E-02
 -1      2300 7.38283E-02
 -1      2301 6.32634E-02
 -1      2302 6.43463E-02
 -1      2303 6.09979E-02
 -1      2304 6.87749E-02
 -1      2305 7.55917E-02
 -1      2306 6.06621E-02
 -1      2307 8.19978E-02
 -1      2308 9.18405E-02
 -1      2309 7.14968E-02
 -1      2310 1.08279E-01
 -1      2311 1.21205E-01
 -1      2312 9.43417E-02
 -1      2313 1.43135E-01
 -1      2314 1.65363E-01
 -1      2315 1.32711E-01
 -1      2316 1.91059E-01
 -1      2317 2.19464E-01
 -1      2318 1.80336E-01
 -1      2319 2.48593E-01
 -1      2320 2.80203E-01
 -1      2321 2.35160E-01
 -1      2322 3.11589E-01
 -1      2323 3.44244E-01
 -1      2324 2.95675E-01
 -1      2325 3.75509E-01
 -1      2326 4.05352E-01
 -1      2327 3.58327E-01
 -1      2328 4.32803E-01
 -1      2329 4.60879E-01
 -1      2330 4.17043E-01
 -1      2331 4.85371E-01
 -1      2332 5.15391E-01
 -1      2333 4.68986E-01
 -1      2334 5.40368E-01
 -1      2335 5.65443E-01
 -1      2336 5.18456E-01
 -1      2337 5.83700E-01
 -1      2338 5.79893E-01
 -1      2339 5.61690E-01
 -1      2340 5.75884E-01
 -1      2341 5.24774E-01
 -1      2342 5.75939E-01
 -1      2343 5.61058E-01
 -1      2344 5.30016E-01
 -1      2345 6.08214E-01
 -1      2346 5.80744E-01
 -1      2347 6.43241E-01
 -1      2348 6.95226E-01
 -1      2349 7.32912E-01
 -1      2350 9.55624E-01
 -1      2351 8.35625E-01
 -1      2352 1.06629E+00
 -1      2353 1.26568E+00
 -1      2354 1.03596E+00
 -1      2355 1.37929E+00
 -1      2356 1.57415E+00
 -1      2357 1.26025E+00
 -1      2358 1.71518E+00
 -1      2359 1.83049E+00
 -1      2360 1.51489E+00
 -1      2361 1.87153E+00
 -1      2362 1.83201E+00
 -1      2363 1.69696E+00
 -1      2364 1.82746E+00
 -1      2365 1.84474E+00
 -1      2366 1.73345E+00
 -1      2367 1.83999E+00
 -1      2368 1.75445E+00
 -1      2369 1.72415E+00
 -1      2370 1.61971E+00
 -1      2371 1.45119E+00
 -1      2372 1.58465E+00
 -1      2373 1.37697E+00
 -1      2374 1.20909E+00
 -1      2375 1.37570E+00
 -1      2376 1.13535E+00
 -1      2377 9.92860E-01
 -1      2378 1.22775E+00
 -1      2379 8.46526E-01
 -1      2380 7.37498E-01
 -1      2381 1.00768E+00
 -1      2382 6.56980E-01
 -1      2383 5.88387E-01
 -1      2384 7.80829E-01
 -1      2385 5.28551E-01
 -1      2386 5.14142E-01
 -1      2387 6.40476E-01
 -1      2388 4.47643E-01
 -1      2389 4.10089E-01
 -1      2390 5.14142E-01
 -1      2391 5.47183E-01
 -1      2392 6.26392E-01
 -1      2393 4.39888E-01
 -1      2394 4.93535E-01
 -1      2395 4.93535E-01
 -1      2396 3.74035E-01
 -1      2397 4.06961E-01
 -1      2398 4.06961E-01
 -1      2399 3.11103E-01
 -1      2400 3.42569E-01
 -1      2401 3.42569E-01
 -1      2402 2.55940E-01
 -1      2403 2.83521E-01
 -1      2404 2.83521E-01
 -1      2405 2.11588E-01
 -1      2406 2.33825E-01
 -1      2407 2.33825E-01
 -1      2408 1.72993E-01
 -1      2409 1.92383E-01
 -1      2410 1.92506E-01
 -1      2411 1.41061E-01
 -1      2412 1.56619E-01
 -1      2413 1.56927E-01
 -1      2414 1.15571E-01
 -1      2415 1.27449E-01
 -1      2416 1.26942E-01
 -1      2417 9.59321E-02
 -1      2418 1.04695E-01
 -1      2419 1.02455E-01
 -1      2420 8.18372E-02
 -1      2421 8.76309E-02
 -1      2422 8.32787E-02
 -1      2423 7.64034E-02
 -1      2424 7.68766E-02
 -1      2425 7.00169E-02
 -1      2426 8.26475E-02
 -1      2427 7.98088E-02
 -1      2428 6.84618E-02
 -1      2429 1.00134E-01
 -1      2430 9.08846E-02
 -1      2431 8.01044E-02
 -1      2432 1.30961E-01
 -1      2433 1.15021E-01
 -1      2434 1.03228E-01
 -1      2435 1.82320E-01
 -1      2436 1.59381E-01
 -1      2437 1.46535E-01
 -1      2438 2.61474E-01
 -1      2439 2.19361E-01
 -1      2440 2.11996E-01
 -1      2441 3.64519E-01
 -1      2442 3.09312E-01
 -1      2443 2.96875E-01
 -1      2444 4.95868E-01
 -1      2445 4.25328E-01
 -1      2446 4.05522E-01
 -1      2447 6.58414E-01
 -1      2448 5.71409E-01
 -1      2449 5.41871E-01
 -1      2450 8.51251E-01
 -1      2451 7.49248E-01
 -1      2452 7.08245E-01
 -1      2453 1.06597E+00
 -1      2454 9.55398E-01
 -1      2455 9.03226E-01
 -1      2456 1.28149E+00
 -1      2457 1.17689E+00
 -1      2458 1.11830E+00
 -1      2459 1.47046E+00
 -1      2460 1.38564E+00
 -1      2461 1.33338E+00
 -1      2462 1.60422E+00
 -1      2463 1.54507E+00
 -1      2464 1.51214E+00
 -1      2465 1.74085E+00
 -1      2466 1.72645E+00
 -1      2467 1.70898E+00
 -1      2468 1.84821E+00
 -1      2469 1.88496E+00
 -1      2470 1.97533E+00
 -1      2471 1.87063E+00
 -1      2472 1.96723E+00
 -1      2473 2.23846E+00
 -1      2474 2.05695E+00
 -1      2475 2.06862E+00
 -1      2476 2.55547E+00
 -1      2477 3.33662E+00
 -1      2478 2.81036E+00
 -1      2479 3.50687E+00
 -1      2480 4.03940E+00
 -1      2481 3.75604E+00
 -1      2482 4.67970E+00
 -1      2483 4.76078E+00
 -1      2484 4.36398E+00
 -1      2485 5.42369E+00
 -1      2486 5.32559E+00
 -1      2487 5.35728E+00
 -1      2488 6.34478E+00
 -1      2489 3.80360E+00
 -1      2490 4.09228E+00
 -1      2491 5.70797E+00
 -1      2492 2.35279E+00
 -1      2493 2.85350E+00
 -1      2494 3.52455E+00
 -1      2495 2.02876E+00
 -1      2496 2.35963E+00
 -1      2497 2.58129E+00
 -1      2498 1.88781E+00
 -1      2499 1.95983E+00
 -1      2500 2.51920E+00
 -1      2501 1.57966E+00
 -1      2502 1.54470E+00
 -1      2503 2.10716E+00
 -1      2504 1.49102E+00
 -1      2505 1.42616E+00
 -1      2506 1.61055E+00
 -1      2507 1.42472E+00
 -1      2508 1.48707E+00
 -1      2509 1.45311E+00
 -1      2510 1.24584E+00
 -1      2511 1.34111E+00
 -1      2512 1.36555E+00
 -1      2513 9.86060E-01
 -1      2514 1.07800E+00
 -1      2515 1.11409E+00
 -1      2516 8.97592E-01
 -1      2517 1.06932E+00
 -1      2518 9.92445E-01
 -1      2519 1.07354E+00
 -1      2520 1.07354E+00
 -1      2521 1.24118E+00
 -1      2522 7.08651E-01
 -1      2523 8.56612E-01
 -1      2524 9.75144E-01
 -1      2525 8.37867E-01
 -1      2526 1.07313E+00
 -1      2527 1.21965E+00
 -1      2528 1.07108E+00
 -1      2529 1.07589E+00
 -1      2530 1.24774E+00
 -1      2531 1.02069E+00
 -1      2532 1.07108E+00
 -1      2533 1.25009E+00
 -1      2534 7.23922E-01
 -1      2535 8.60545E-01
 -1      2536 1.08994E+00
 -1      2537 5.16357E-01
 -1      2538 5.97901E-01
 -1      2539 8.03781E-01
 -1      2540 4.52979E-01
 -1      2541 4.47006E-01
 -1      2542 6.08409E-01
 -1      2543 4.55576E-01
 -1      2544 4.55576E-01
 -1      2545 5.41656E-01
 -1      2546 3.65217E-01
 -1      2547 3.56374E-01
 -1      2548 4.45050E-01
 -1      2549 2.91897E+01
 -1      2550 2.92320E+01
 -1      2551 1.59517E+01
 -1      2552 2.27811E+01
 -1      2553 7.05601E-01
 -1      2554 7.99175E-01
 -1      2555 6.26392E-01
 -1      2556 3.84587E-01
 -1      2557 2.92744E+01
 -1      2558 2.92744E+01
 -1      2559 2.92320E+01
 -1      2560 2.64417E+01
 -1      2561 2.52661E+01
 -1      2562 1.67708E+00
 -1      2563 1.30235E+00
 -1      2564 8.38984E-01
 -1      2565 9.60096E-01
 -1      2566 2.55459E+01
 -1      2567 2.68894E+01
 -1      2568 7.97371E+00
 -1      2569 1.12062E+01
 -1      2570 9.31595E+00
 -1      2571 6.96371E+00
 -1      2572 7.04380E+00
 -1      2573 8.28827E+00
 -1      2574 5.22786E-01
 -1      2575 5.44765E-01
 -1      2576 4.72039E-01
 -1      2577 4.44709E-01
 -1      2578 9.77581E+00
 -1      2579 9.61178E+00
 -1      2580 1.62565E+01
 -1      2581 1.14341E+01
 -1      2582 9.16660E+00
 -1      2583 9.06780E+00
 -1      2584 8.39330E+00
 -1      2585 6.40771E+00
 -1      2586 6.66166E+00
 -1      2587 3.58312E+01
 -1      2588 3.58312E+01
 -1      2589 1.83097E+01
 -1      2590 1.99165E+01
 -1      2591 7.69285E+00
 -1      2592 8.57041E+00
 -1      2593 2.27267E+01
 -1      2594 2.92790E+01
 -1      2595 2.92790E+01
 -1      2596 2.11768E+01
 -1      2597 2.03440E+01
 -1      2598 1.26282E+01
 -1      2599 1.77157E+01
 -1      2600 6.22175E+00
 -1      2601 6.13116E+00
 -1      2602 7.82645E+00
 -1      2603 6.82300E+00
 -1      2604 8.80942E+00
 -1      2605 8.78136E+00
 -1      2606 9.50216E+00
 -1      2607 9.11357E+00
 -1      2608 7.92631E+00
 -1      2609 5.40277E+00
 -1      2610 6.57102E+00
 -1      2611 8.63746E+00
 -1      2612 6.66525E+00
 -1      2613 5.38580E+00
 -1      2614 1.37577E+01
 -1      2615 9.76935E+00
 -1      2616 2.31934E+01
 -1      2617 1.65144E+01
 -1      2618 1.81215E+01
 -1      2619 7.61331E+00
 -1      2620 6.19483E+00
 -1      2621 1.62176E+00
 -1      2622 1.76494E+00
 -1      2623 1.32861E+00
 -1      2624 1.18877E+00
 -1      2625 1.02055E+01
 -1      2626 1.39112E+01
 -1      2627 5.48126E+00
 -1      2628 6.17005E-01
 -1      2629 7.57958E-01
 -1      2630 8.22293E-01
 -1      2631 7.99175E-01
 -1      2632 1.24408E+00
 -1      2633 7.94266E+00
 -1      2634 2.32622E+01
 -1      2635 1.95338E+01
 -1      2636 2.32622E+01
 -1      2637 7.78017E+00
 -1      2638 8.57773E-01
 -1      2639 1.19808E+01
 -1      2640 8.57773E-01
 -1      2641 7.29872E+00
 -1      2642 1.98375E+01
 -1      2643 2.37611E+01
 -1      2644 2.37611E+01
 -1      2645 1.76819E+01
 -1      2646 5.24514E+00
 -1      2647 6.66725E+00
 -1      2648 9.68312E-01
 -1      2649 8.97020E-01
 -1      2650 5.11110E+00
 -1      2651 6.35240E+00
 -1      2652 9.61698E+00
 -1      2653 1.92873E+01
 -1      2654 1.92873E+01
 -1      2655 1.69046E+01
 -1      2656 1.93980E+01
 -1      2657 5.65512E+00
 -1      2658 9.50970E+00
 -1      2659 6.40488E+00
 -1      2660 8.52301E+00
 -1      2661 2.89001E+01
 -1      2662 2.14988E+01
 -1      2663 2.89001E+01
 -1      2664 1.41074E+01
 -1      2665 5.49207E+00
 -1      2666 6.49362E+00
 -1      2667 1.45001E+01
 -1      2668 3.84587E-01
 -1      2669 3.84587E-01
 -1      2670 3.65217E-01
 -1      2671 3.78561E-01
 -1      2672 9.45080E-01
 -1      2673 1.16688E+01
 -1      2674 4.16115E-01
 -1      2675 4.22829E-01
 -1      2676 4.08104E-01
 -1      2677 4.00398E-01
 -1      2678 3.87428E-01
 -1      2679 3.50945E-01
 -1      2680 4.36436E-01
 -1      2681 4.36436E-01
 -1      2682 4.72937E-01
 -1      2683 4.24371E-01
 -1      2684 3.49873E-01
 -1      2685 7.18494E-01
 -1      2686 7.96612E-01
 -1      2687 7.99699E-01
 -1      2688 8.28526E-01
 -1      2689 1.60269E+01
 -1      2690 1.23308E+01
 -1      2691 7.65685E+00
 -1      2692 6.52496E+00
 -1      2693 5.53084E-01
 -1      2694 4.95207E-01
 -1      2695 4.88389E-01
 -1      2696 4.32427E-01
 -1      2697 3.92992E-01
 -1      2698 4.11903E-01
 -1      2699 3.62712E-01
 -1      2700 3.65650E-01
 -1      2701 3.37969E-01
 -1      2702 3.10749E-01
 -1      2703 3.20382E-01
 -1      2704 2.85970E-01
 -1      2705 2.61313E-01
 -1      2706 2.70859E-01
 -1      2707 2.45508E-01
 -1      2708 2.22262E-01
 -1      2709 2.30275E-01
 -1      2710 2.05884E-01
 -1      2711 1.86182E-01
 -1      2712 1.98092E-01
 -1      2713 1.70385E-01
 -1      2714 1.53663E-01
 -1      2715 1.65917E-01
 -1      2716 1.40310E-01
 -1      2717 1.25607E-01
 -1      2718 1.36766E-01
 -1      2719 1.13927E-01
 -1      2720 1.01453E-01
 -1      2721 1.11733E-01
 -1      2722 9.12011E-02
 -1      2723 8.07212E-02
 -1      2724 8.98005E-02
 -1      2725 7.16124E-02
 -1      2726 6.35465E-02
 -1      2727 7.04394E-02
 -1      2728 5.51481E-02
 -1      2729 5.03837E-02
 -1      2730 5.29322E-02
 -1      2731 4.92851E-02
 -1      2732 5.37137E-02
 -1      2733 4.34352E-02
 -1      2734 5.96224E-02
 -1      2735 6.60285E-02
 -1      2736 4.82454E-02
 -1      2737 8.21330E-02
 -1      2738 9.85718E-02
 -1      2739 7.02586E-02
 -1      2740 1.17741E-01
 -1      2741 1.39671E-01
 -1      2742 1.05532E-01
 -1      2743 1.62447E-01
 -1      2744 1.88142E-01
 -1      2745 1.47477E-01
 -1      2746 2.14845E-01
 -1      2747 2.43974E-01
 -1      2748 1.96956E-01
 -1      2749 2.74528E-01
 -1      2750 3.05914E-01
 -1      2751 2.54213E-01
 -1      2752 3.39602E-01
 -1      2753 3.70867E-01
 -1      2754 3.18454E-01
 -1      2755 4.06098E-01
 -1      2756 4.33548E-01
 -1      2757 3.87372E-01
 -1      2758 4.67247E-01
 -1      2759 4.91740E-01
 -1      2760 4.56302E-01
 -1      2761 5.26530E-01
 -1      2762 5.51507E-01
 -1      2763 5.24791E-01
 -1      2764 5.99064E-01
 -1      2765 6.17322E-01
 -1      2766 6.07139E-01
 -1      2767 6.64128E-01
 -1      2768 6.60119E-01
 -1      2769 7.01502E-01
 -1      2770 6.89984E-01
 -1      2771 7.26268E-01
 -1      2772 7.78173E-01
 -1      2773 8.20700E-01
 -1      2774 8.71428E-01
 -1      2775 9.02469E-01
 -1      2776 9.82503E-01
 -1      2777 1.07217E+00
 -1      2778 1.10798E+00
 -1      2779 1.11847E+00
 -1      2780 1.22914E+00
 -1      2781 1.26535E+00
 -1      2782 1.35004E+00
 -1      2783 1.46366E+00
 -1      2784 1.43255E+00
 -1      2785 1.51489E+00
 -1      2786 1.65592E+00
 -1      2787 1.60469E+00
 -1      2788 1.94071E+00
 -1      2789 1.98174E+00
 -1      2790 1.94071E+00
 -1      2791 1.97717E+00
 -1      2792 1.97262E+00
 -1      2793 2.22091E+00
 -1      2794 2.05508E+00
 -1      2795 2.05033E+00
 -1      2796 2.29880E+00
 -1      2797 1.71939E+00
 -1      2798 1.58465E+00
 -1      2799 2.05033E+00
 -1      2800 1.53100E+00
 -1      2801 1.45678E+00
 -1      2802 1.66574E+00
 -1      2803 1.37740E+00
 -1      2804 1.30366E+00
 -1      2805 1.53270E+00
 -1      2806 1.17646E+00
 -1      2807 1.03012E+00
 -1      2808 1.32611E+00
 -1      2809 9.34541E-01
 -1      2810 8.54023E-01
 -1      2811 1.10332E+00
 -1      2812 7.00311E-01
 -1      2813 6.40476E-01
 -1      2814 8.54023E-01
 -1      2815 5.80641E-01
 -1      2816 5.14142E-01
 -1      2817 6.40476E-01
 -1      2818 3.52061E-01
 -1      2819 3.84988E-01
 -1      2820 1.38402E+00
 -1      2821 1.38518E+00
 -1      2822 1.55303E+00
 -1      2823 4.19168E-01
 -1      2824 4.72816E-01
 -1      2825 3.64268E-01
 -1      2826 2.46526E-01
 -1      2827 2.74108E-01
 -1      2828 2.06162E-01
 -1      2829 2.28277E-01
 -1      2830 2.18863E-01
 -1      2831 1.70088E-01
 -1      2832 1.89292E-01
 -1      2833 1.83744E-01
 -1      2834 1.38911E-01
 -1      2835 1.55284E-01
 -1      2836 1.52071E-01
 -1      2837 1.12682E-01
 -1      2838 1.26294E-01
 -1      2839 1.24651E-01
 -1      2840 9.09038E-02
 -1      2841 1.01779E-01
 -1      2842 1.01131E-01
 -1      2843 7.35820E-02
 -1      2844 8.18832E-02
 -1      2845 8.12071E-02
 -1      2846 6.08003E-02
 -1      2847 6.57609E-02
 -1      2848 6.43654E-02
 -1      2849 6.19387E-02
 -1      2850 5.85332E-02
 -1      2851 5.42771E-02
 -1      2852 7.52508E-02
 -1      2853 6.70136E-02
 -1      2854 5.70850E-02
 -1      2855 1.06318E-01
 -1      2856 9.14316E-02
 -1      2857 7.83408E-02
 -1      2858 1.58370E-01
 -1      2859 1.29950E-01
 -1      2860 1.18153E-01
 -1      2861 2.25523E-01
 -1      2862 1.88482E-01
 -1      2863 1.71897E-01
 -1      2864 3.11759E-01
 -1      2865 2.63921E-01
 -1      2866 2.40406E-01
 -1      2867 4.21298E-01
 -1      2868 3.60489E-01
 -1      2869 3.27535E-01
 -1      2870 5.58168E-01
 -1      2871 4.82628E-01
 -1      2872 4.37595E-01
 -1      2873 7.25371E-01
 -1      2874 6.34537E-01
 -1      2875 5.75294E-01
 -1      2876 9.23424E-01
 -1      2877 8.19277E-01
 -1      2878 7.45569E-01
 -1      2879 1.14810E+00
 -1      2880 1.03718E+00
 -1      2881 9.53228E-01
 -1      2882 1.38734E+00
 -1      2883 1.28318E+00
 -1      2884 1.20206E+00
 -1      2885 1.61767E+00
 -1      2886 1.54306E+00
 -1      2887 1.49287E+00
 -1      2888 1.91019E+00
 -1      2889 1.78795E+00
 -1      2890 1.81888E+00
 -1      2891 2.24688E+00
 -1      2892 2.10277E+00
 -1      2893 2.18175E+00
 -1      2894 2.63466E+00
 -1      2895 2.51563E+00
 -1      2896 2.64308E+00
 -1      2897 3.42259E+00
 -1      2898 3.22461E+00
 -1      2899 3.50178E+00
 -1      2900 4.66551E+00
 -1      2901 3.91210E+00
 -1      2902 4.58124E+00
 -1      2903 5.09911E+00
 -1      2904 4.67970E+00
 -1      2905 7.88988E+00
 -1      2906 7.29338E+00
 -1      2907 2.63219E+00
 -1      2908 3.58230E+00
 -1      2909 2.58813E+00
 -1      2910 2.58129E+00
 -1      2911 2.63903E+00
 -1      2912 4.28749E+00
 -1      2913 4.35642E+00
 -1      2914 4.35642E+00
 -1      2915 2.58682E+00
 -1      2916 2.92993E+00
 -1      2917 4.76714E+00
 -1      2918 1.85650E+00
 -1      2919 2.01000E+00
 -1      2920 2.83277E+00
 -1      2921 1.80933E+00
 -1      2922 1.81327E+00
 -1      2923 2.21272E+00
 -1      2924 1.90351E+00
 -1      2925 1.98713E+00
 -1      2926 2.34730E+00
 -1      2927 2.17461E+00
 -1      2928 8.47750E+00
 -1      2929 1.05180E+01
 -1      2930 1.53953E+00
 -1      2931 1.53953E+00
 -1      2932 1.08655E+01
 -1      2933 8.10880E+00
 -1      2934 8.77086E+00
 -1      2935 1.54128E+00
 -1      2936 1.53706E+00
 -1      2937 1.24894E+00
 -1      2938 1.40908E+00
 -1      2939 1.69852E+00
 -1      2940 1.54362E+00
 -1      2941 1.54128E+00
 -1      2942 1.83716E+00
 -1      2943 1.83306E+00
 -1      2944 9.09071E-01
 -1      2945 1.03509E+00
 -1      2946 1.35423E+00
 -1      2947 7.44214E-01
 -1      2948 8.13565E-01
 -1      2949 1.04488E+00
 -1      2950 6.55674E-01
 -1      2951 6.53076E-01
 -1      2952 8.58232E-01
 -1      2953 1.23103E+01
 -1      2954 1.59709E+01
 -1      2955 8.80702E+00
 -1      2956 2.06742E+01
 -1      2957 2.07165E+01
 -1      2958 3.81186E+00
 -1      2959 4.93369E+00
 -1      2960 6.71306E-01
 -1      2961 6.35865E-01
 -1      2962 5.87272E-01
 -1      2963 5.96580E-01
 -1      2964 6.14838E+00
 -1      2965 5.19347E+00
 -1      2966 1.79260E+01
 -1      2967 1.62954E+01
 -1      2968 7.44470E+00
 -1      2969 5.06500E-01
 -1      2970 5.85708E-01
 -1      2971 4.32132E-01
 -1      2972 5.80584E+00
 -1      2973 8.23070E+00
 -1      2974 2.93191E-01
 -1      2975 3.24658E-01
 -1      2976 3.02684E-01
 -1      2977 2.56197E-01
 -1      2978 6.11189E-01
 -1      2979 7.04764E-01
 -1      2980 5.30508E-01
 -1      2981 4.91297E-01
 -1      2982 4.16165E+00
 -1      2983 3.56041E+00
 -1      2984 6.21139E+00
 -1      2985 4.75689E+00
 -1      2986 4.36436E-01
 -1      2987 4.24473E-01
 -1      2988 3.60295E-01
 -1      2989 3.61938E-01
 -1      2990 1.42727E+01
 -1      2991 1.06127E+01
 -1      2992 4.25866E-01
 -1      2993 4.37247E-01
 -1      2994 3.86453E+00
 -1      2995 4.31747E+00
 -1      2996 1.86689E+01
 -1      2997 2.52212E+01
 -1      2998 4.64420E-01
 -1      2999 4.45050E-01
 -1      3000 4.95948E-01
 -1      3001 7.81423E+00
 -1      3002 9.23627E+00
 -1      3003 4.93843E+00
 -1      3004 6.78097E+00
 -1      3005 7.08951E+00
 -1      3006 6.78535E+00
 -1      3007 5.97270E+00
 -1      3008 6.90445E+00
 -1      3009 5.06135E+00
 -1      3010 3.79887E+00
 -1      3011 1.15300E+01
 -1      3012 1.49911E+01
 -1      3013 5.26956E+00
 -1      3014 7.26721E+00
 -1      3015 5.08493E+00
 -1      3016 4.88613E-01
 -1      3017 5.96580E-01
 -1      3018 4.16821E-01
 -1      3019 3.54052E-01
 -1      3020 3.98241E-01
 -1      3021 4.11334E-01
 -1      3022 3.64278E+00
 -1      3023 6.85360E+00
 -1      3024 1.47043E+01
 -1      3025 1.35367E+01
 -1      3026 1.58205E+01
 -1      3027 1.00298E+01
 -1      3028 8.40337E+00
 -1      3029 8.23803E+00
 -1      3030 6.31366E+00
 -1      3031 4.93803E+00
 -1      3032 5.62447E-01
 -1      3033 5.42369E+00
 -1      3034 5.09911E+00
 -1      3035 6.21139E+00
 -1      3036 7.29338E+00
 -1      3037 9.72725E+00
 -1      3038 1.51324E+00
 -1      3039 3.48741E+00
 -1      3040 4.53942E+00
 -1      3041 1.60837E+01
 -1      3042 1.45787E+01
 -1      3043 1.07121E+01
 -1      3044 5.44253E-01
 -1      3045 5.76349E+00
 -1      3046 4.33999E-01
 -1      3047 1.52456E+01
 -1      3048 3.98898E+00
 -1      3049 1.67550E+01
 -1      3050 1.26973E+01
 -1      3051 1.33157E+01
 -1      3052 1.83961E+01
 -1      3053 1.39345E+01
 -1      3054 1.28007E+01
 -1      3055 5.66705E-01
 -1      3056 5.66705E-01
 -1      3057 6.78126E-01
 -1      3058 5.84899E-01
 -1      3059 5.76152E-01
 -1      3060 2.49554E+01
 -1      3061 1.80243E+01
 -1      3062 1.43454E+01
 -1      3063 5.48126E+00
 -1      3064 5.42369E+00
 -1      3065 1.53054E+00
 -1      3066 1.51324E+00
 -1      3067 1.83064E+00
 -1      3068 4.31096E-01
 -1      3069 4.45332E-01
 -1      3070 3.84922E-01
 -1      3071 3.84627E-01
 -1      3072 5.31157E+00
 -1      3073 6.40026E+00
 -1      3074 4.41023E-01
 -1      3075 5.09911E+00
 -1      3076 2.89227E-01
 -1      3077 3.01292E-01
 -1      3078 5.79969E+00
 -1      3079 5.34774E+00
 -1      3080 3.21588E-01
 -1      3081 3.01063E-01
 -1      3082 2.97838E-01
 -1      3083 2.73095E-01
 -1      3084 2.53776E-01
 -1      3085 2.61983E-01
 -1      3086 2.37204E-01
 -1      3087 2.39439E-01
 -1      3088 2.22931E-01
 -1      3089 2.07126E-01
 -1      3090 2.14055E-01
 -1      3091 1.93662E-01
 -1      3092 1.77284E-01
 -1      3093 1.86318E-01
 -1      3094 1.66444E-01
 -1      3095 1.50646E-01
 -1      3096 1.62014E-01
 -1      3097 1.39057E-01
 -1      3098 1.25704E-01
 -1      3099 1.39584E-01
 -1      3100 1.14221E-01
 -1      3101 1.02540E-01
 -1      3102 1.16511E-01
 -1      3103 9.15530E-02
 -1      3104 8.13007E-02
 -1      3105 9.40405E-02
 -1      3106 7.08648E-02
 -1      3107 6.17560E-02
 -1      3108 7.26172E-02
 -1      3109 5.16795E-02
 -1      3110 4.32811E-02
 -1      3111 5.21049E-02
 -1      3112 3.71740E-02
 -1      3113 3.60754E-02
 -1      3114 3.59213E-02
 -1      3115 3.89248E-02
 -1      3116 4.48336E-02
 -1      3117 3.26636E-02
 -1      3118 5.74932E-02
 -1      3119 7.35977E-02
 -1      3120 4.81726E-02
 -1      3121 8.97543E-02
 -1      3122 1.08923E-01
 -1      3123 7.69888E-02
 -1      3124 1.28429E-01
 -1      3125 1.51205E-01
 -1      3126 1.12651E-01
 -1      3127 1.73763E-01
 -1      3128 2.00466E-01
 -1      3129 1.54715E-01
 -1      3130 2.28218E-01
 -1      3131 2.58772E-01
 -1      3132 2.05025E-01
 -1      3133 2.93784E-01
 -1      3134 3.27471E-01
 -1      3135 2.67789E-01
 -1      3136 3.68256E-01
 -1      3137 4.03486E-01
 -1      3138 3.43585E-01
 -1      3139 4.49027E-01
 -1      3140 4.82726E-01
 -1      3141 4.29911E-01
 -1      3142 5.31796E-01
 -1      3143 5.66587E-01
 -1      3144 5.24522E-01
 -1      3145 6.19877E-01
 -1      3146 6.67434E-01
 -1      3147 6.26882E-01
 -1      3148 7.43191E-01
 -1      3149 7.89996E-01
 -1      3150 7.55928E-01
 -1      3151 8.90166E-01
 -1      3152 9.20031E-01
 -1      3153 9.31855E-01
 -1      3154 1.01566E+00
 -1      3155 1.11009E+00
 -1      3156 1.12765E+00
 -1      3157 1.21423E+00
 -1      3158 1.32530E+00
 -1      3159 1.32741E+00
 -1      3160 1.57946E+00
 -1      3161 1.62575E+00
 -1      3162 1.68571E+00
 -1      3163 1.97602E+00
 -1      3164 2.09693E+00
 -1      3165 2.29013E+00
 -1      3166 1.71852E+00
 -1      3167 1.76975E+00
 -1      3168 2.26199E+00
 -1      3169 1.99414E+00
 -1      3170 2.27893E+00
 -1      3171 2.10797E+00
 -1      3172 2.34374E+00
 -1      3173 2.33916E+00
 -1      3174 2.39718E+00
 -1      3175 2.99510E+00
 -1      3176 3.07757E+00
 -1      3177 3.11793E+00
 -1      3178 2.38126E+00
 -1      3179 2.05033E+00
 -1      3180 3.07757E+00
 -1      3181 1.75343E+00
 -1      3182 1.69977E+00
 -1      3183 2.08437E+00
 -1      3184 1.91339E+00
 -1      3185 1.83401E+00
 -1      3186 2.00109E+00
 -1      3187 1.61844E+00
 -1      3188 1.49123E+00
 -1      3189 1.99913E+00
 -1      3190 1.30272E+00
 -1      3191 1.20713E+00
 -1      3192 1.59505E+00
 -1      3193 1.00773E+00
 -1      3194 8.54023E-01
 -1      3195 1.20713E+00
 -1      3196 6.77027E-01
 -1      3197 6.17192E-01
 -1      3198 6.21450E-01
 -1      3199 8.30739E-01
 -1      3200 3.09160E-01
 -1      3201 3.43341E-01
 -1      3202 3.64202E+00
 -1      3203 1.65509E-01
 -1      3204 1.82378E-01
 -1      3205 1.95409E-01
 -1      3206 2.13659E-01
 -1      3207 1.77174E-01
 -1      3208 1.12086E-01
 -1      3209 1.24703E-01
 -1      3210 8.93131E-02
 -1      3211 1.00216E-01
 -1      3212 1.00269E-01
 -1      3213 6.96681E-02
 -1      3214 7.86887E-02
 -1      3215 7.77740E-02
 -1      3216 5.28655E-02
 -1      3217 6.06867E-02
 -1      3218 5.81682E-02
 -1      3219 4.16173E-02
 -1      3220 4.38843E-02
 -1      3221 4.02057E-02
 -1      3222 4.83948E-02
 -1      3223 4.33199E-02
 -1      3224 3.29271E-02
 -1      3225 7.93635E-02
 -1      3226 6.31827E-02
 -1      3227 4.94176E-02
 -1      3228 1.21085E-01
 -1      3229 9.74532E-02
 -1      3230 8.22952E-02
 -1      3231 1.73593E-01
 -1      3232 1.43481E-01
 -1      3233 1.22781E-01
 -1      3234 2.43464E-01
 -1      3235 2.05066E-01
 -1      3236 1.76650E-01
 -1      3237 3.34969E-01
 -1      3238 2.86239E-01
 -1      3239 2.50898E-01
 -1      3240 4.51617E-01
 -1      3241 3.90287E-01
 -1      3242 3.48991E-01
 -1      3243 5.98651E-01
 -1      3244 5.22283E-01
 -1      3245 4.74974E-01
 -1      3246 7.81210E-01
 -1      3247 6.87304E-01
 -1      3248 6.34293E-01
 -1      3249 1.00321E+00
 -1      3250 8.89460E-01
 -1      3251 8.31195E-01
 -1      3252 1.26761E+00
 -1      3253 1.13253E+00
 -1      3254 1.06876E+00
 -1      3255 1.58997E+00
 -1      3256 1.43424E+00
 -1      3257 1.36471E+00
 -1      3258 2.00623E+00
 -1      3259 1.83594E+00
 -1      3260 1.77731E+00
 -1      3261 2.67564E+00
 -1      3262 2.48306E+00
 -1      3263 2.50012E+00
 -1      3264 4.70889E+00
 -1      3265 4.44014E+00
 -1      3266 4.74145E+00
 -1      3267 6.09148E+00
 -1      3268 5.50153E+00
 -1      3269 7.29859E+00
 -1      3270 5.54972E+00
 -1      3271 5.06021E+00
 -1      3272 4.47465E+00
 -1      3273 3.58230E+00
 -1      3274 3.12800E+00
 -1      3275 3.70481E+00
 -1      3276 2.58295E+00
 -1      3277 2.62618E+00
 -1      3278 3.49823E+00
 -1      3279 8.03251E+00
 -1      3280 6.56970E+00
 -1      3281 1.51590E+00
 -1      3282 1.72974E+00
 -1      3283 1.09476E+01
 -1      3284 1.34933E+01
 -1      3285 9.96579E-01
 -1      3286 1.08772E+00
 -1      3287 2.04727E+00
 -1      3288 2.17772E+00
 -1      3289 2.20894E+00
 -1      3290 6.56970E+00
 -1      3291 8.36203E+00
 -1      3292 4.68187E-01
 -1      3293 1.37566E+01
 -1      3294 1.06697E+01
 -1      3295 1.00028E+01
 -1      3296 1.26615E+00
 -1      3297 1.36165E+00
 -1      3298 1.73717E+00
 -1      3299 1.40449E+00
 -1      3300 1.63540E+01
 -1      3301 1.27812E+01
 -1      3302 1.24093E+01
 -1      3303 8.24871E+00
 -1      3304 6.78340E+00
 -1      3305 5.27754E+00
 -1      3306 4.76714E+00
 -1      3307 6.12471E+00
 -1      3308 3.52826E-01
 -1      3309 3.86510E-01
 -1      3310 2.97718E-01
 -1      3311 3.60961E+00
 -1      3312 2.57780E+00
 -1      3313 5.01585E+00
 -1      3314 3.55224E+00
 -1      3315 1.37432E-01
 -1      3316 1.52235E-01
 -1      3317 1.50870E-01
 -1      3318 1.24868E-01
 -1      3319 1.06564E+01
 -1      3320 1.25699E+01
 -1      3321 2.93496E+00
 -1      3322 2.94795E+00
 -1      3323 5.83469E+00
 -1      3324 5.64093E+00
 -1      3325 4.92074E+00
 -1      3326 4.28377E+00
 -1      3327 2.93276E+00
 -1      3328 4.31078E+00
 -1      3329 6.54865E+00
 -1      3330 8.84238E+00
 -1      3331 4.13109E-01
 -1      3332 3.09895E-01
 -1      3333 2.61313E-01
 -1      3334 3.99379E-01
 -1      3335 5.11087E+00
 -1      3336 6.14413E+00
 -1      3337 3.70241E-01
 -1      3338 3.36053E-01
 -1      3339 3.70241E-01
 -1      3340 3.19180E-01
 -1      3341 3.12362E-01
 -1      3342 2.47775E-01
 -1      3343 2.55422E-01
 -1      3344 3.50040E+00
 -1      3345 4.53942E+00
 -1      3346 1.21777E+01
 -1      3347 1.01551E+01
 -1      3348 3.23764E-01
 -1      3349 3.16058E-01
 -1      3350 1.82413E+00
 -1      3351 5.35940E+00
 -1      3352 3.54052E-01
 -1      3353 3.64865E-01
 -1      3354 3.26871E-01
 -1      3355 3.96194E+00
 -1      3356 2.89960E+00
 -1      3357 9.78005E+00
 -1      3358 5.25926E+00
 -1      3359 5.74827E+00
 -1      3360 3.69701E-01
 -1      3361 3.95181E-01
 -1      3362 2.77783E-01
 -1      3363 2.90394E-01
 -1      3364 8.40216E+00
 -1      3365 8.60852E+00
 -1      3366 6.62106E+00
 -1      3367 8.81429E+00
 -1      3368 7.44968E+00
 -1      3369 5.63568E+00
 -1      3370 2.04632E-01
 -1      3371 2.28086E-01
 -1      3372 2.47170E-01
 -1      3373 7.05996E+00
 -1      3374 3.61729E-01
 -1      3375 4.13095E-01
 -1      3376 3.15149E-01
 -1      3377 8.76312E+00
 -1      3378 1.02520E+01
 -1      3379 9.04108E+00
 -1      3380 2.34730E+00
 -1      3381 2.76075E+00
 -1      3382 2.52509E+00
 -1      3383 6.12471E+00
 -1      3384 6.17164E+00
 -1      3385 8.40897E+00
 -1      3386 8.52173E+00
 -1      3387 2.17461E+00
 -1      3388 2.52509E+00
 -1      3389 2.17461E+00
 -1      3390 2.19565E+00
 -1      3391 2.19565E+00
 -1      3392 1.01356E+01
 -1      3393 2.19156E+00
 -1      3394 2.19565E+00
 -1      3395 2.55415E+00
 -1      3396 2.54031E+00
 -1      3397 5.06238E+00
 -1      3398 2.04257E+00
 -1      3399 2.03606E+00
 -1      3400 2.38654E+00
 -1      3401 2.40107E+00
 -1      3402 1.00376E+01
 -1      3403 3.84922E-01
 -1      3404 3.81196E-01
 -1      3405 4.04389E-01
 -1      3406 2.92951E-01
 -1      3407 2.72024E-01
 -1      3408 2.65548E-01
 -1      3409 3.21878E+00
 -1      3410 3.01277E+00
 -1      3411 1.17900E+01
 -1      3412 1.15242E+01
 -1      3413 9.87605E+00
 -1      3414 2.60438E-01
 -1      3415 3.21085E-01
 -1      3416 3.21085E-01
 -1      3417 5.35940E+00
 -1      3418 6.12471E+00
 -1      3419 3.59111E+00
 -1      3420 3.25408E-01
 -1      3421 3.23764E-01
 -1      3422 2.88877E-01
 -1      3423 2.84554E-01
 -1      3424 2.94795E+00
 -1      3425 4.05465E+00
 -1      3426 4.67616E+00
 -1      3427 4.86121E+00
 -1      3428 7.46392E-01
 -1      3429 8.35361E-01
 -1      3430 1.06485E+00
 -1      3431 7.78685E-01
 -1      3432 3.83340E+00
 -1      3433 5.65469E+00
 -1      3434 4.67098E+00
 -1      3435 9.43464E+00
 -1      3436 7.05996E+00
 -1      3437 8.09123E+00
 -1      3438 8.81168E+00
 -1      3439 3.11793E+00
 -1      3440 3.17746E+00
 -1      3441 2.17056E-01
 -1      3442 2.05945E-01
 -1      3443 2.02260E-01
 -1      3444 1.87987E-01
 -1      3445 1.79877E-01
 -1      3446 1.79982E-01
 -1      3447 1.66519E-01
 -1      3448 1.68187E-01
 -1      3449 1.56388E-01
 -1      3450 1.45547E-01
 -1      3451 1.50052E-01
 -1      3452 1.37265E-01
 -1      3453 1.25676E-01
 -1      3454 1.31639E-01
 -1      3455 1.16991E-01
 -1      3456 1.05508E-01
 -1      3457 1.14672E-01
 -1      3458 9.64365E-02
 -1      3459 8.54491E-02
 -1      3460 9.69164E-02
 -1      3461 7.64222E-02
 -1      3462 6.59863E-02
 -1      3463 7.88181E-02
 -1      3464 5.71284E-02
 -1      3465 4.70520E-02
 -1      3466 6.09334E-02
 -1      3467 4.32397E-02
 -1      3468 3.71326E-02
 -1      3469 4.82632E-02
 -1      3470 3.84452E-02
 -1      3471 4.12946E-02
 -1      3472 4.57636E-02
 -1      3473 4.76734E-02
 -1      3474 6.03330E-02
 -1      3475 5.34550E-02
 -1      3476 7.62077E-02
 -1      3477 9.23644E-02
 -1      3478 7.57085E-02
 -1      3479 1.11525E-01
 -1      3480 1.31031E-01
 -1      3481 1.10744E-01
 -1      3482 1.53943E-01
 -1      3483 1.76502E-01
 -1      3484 1.52818E-01
 -1      3485 2.03384E-01
 -1      3486 2.31135E-01
 -1      3487 2.02612E-01
 -1      3488 2.61745E-01
 -1      3489 2.96757E-01
 -1      3490 2.60104E-01
 -1      3491 3.30066E-01
 -1      3492 3.70850E-01
 -1      3493 3.24022E-01
 -1      3494 4.12349E-01
 -1      3495 4.57890E-01
 -1      3496 3.98829E-01
 -1      3497 5.09956E-01
 -1      3498 5.59026E-01
 -1      3499 4.92394E-01
 -1      3500 6.37973E-01
 -1      3501 6.91262E-01
 -1      3502 6.23406E-01
 -1      3503 7.93296E-01
 -1      3504 8.69053E-01
 -1      3505 8.04387E-01
 -1      3506 9.80089E-01
 -1      3507 1.08026E+00
 -1      3508 1.01746E+00
 -1      3509 1.23536E+00
 -1      3510 1.33099E+00
 -1      3511 1.28360E+00
 -1      3512 1.55213E+00
 -1      3513 1.65626E+00
 -1      3514 1.65984E+00
 -1      3515 1.85066E+00
 -1      3516 2.10481E+00
 -1      3517 2.07537E+00
 -1      3518 2.46398E+00
 -1      3519 2.81425E+00
 -1      3520 2.62893E+00
 -1      3521 2.94748E+00
 -1      3522 2.56907E+00
 -1      3523 2.21410E+00
 -1      3524 2.43850E+00
 -1      3525 3.77387E+00
 -1      3526 3.63714E+00
 -1      3527 2.94083E+00
 -1      3528 2.53069E+00
 -1      3529 2.31512E+00
 -1      3530 2.16867E+00
 -1      3531 1.98016E+00
 -1      3532 2.70023E+00
 -1      3533 1.40653E+00
 -1      3534 1.20713E+00
 -1      3535 1.98016E+00
 -1      3536 1.58508E-01
 -1      3537 1.71539E-01
 -1      3538 7.12745E-02
 -1      3539 8.18988E-02
 -1      3540 9.18093E-02
 -1      3541 1.03679E-01
 -1      3542 8.53097E-02
 -1      3543 3.51819E-02
 -1      3544 4.41631E-02
 -1      3545 3.82853E-02
 -1      3546 3.65827E-02
 -1      3547 4.05401E-02
 -1      3548 6.03547E-02
 -1      3549 4.55668E-02
 -1      3550 4.92224E-02
 -1      3551 9.54857E-02
 -1      3552 7.73960E-02
 -1      3553 7.35452E-02
 -1      3554 1.40888E-01
 -1      3555 1.18492E-01
 -1      3556 1.13593E-01
 -1      3557 2.02026E-01
 -1      3558 1.70553E-01
 -1      3559 1.66264E-01
 -1      3560 2.83168E-01
 -1      3561 2.40393E-01
 -1      3562 2.34295E-01
 -1      3563 3.88117E-01
 -1      3564 3.32799E-01
 -1      3565 3.22294E-01
 -1      3566 5.22960E-01
 -1      3567 4.52294E-01
 -1      3568 4.36102E-01
 -1      3569 6.94654E-01
 -1      3570 6.06001E-01
 -1      3571 5.83321E-01
 -1      3572 9.10657E-01
 -1      3573 8.02407E-01
 -1      3574 7.74116E-01
 -1      3575 1.18048E+00
 -1      3576 1.05116E+00
 -1      3577 1.02237E+00
 -1      3578 1.53134E+00
 -1      3579 1.36471E+00
 -1      3580 1.34711E+00
 -1      3581 2.01959E+00
 -1      3582 1.77362E+00
 -1      3583 1.77362E+00
 -1      3584 2.92375E+00
 -1      3585 2.44692E+00
 -1      3586 2.44323E+00
 -1      3587 6.20451E+00
 -1      3588 4.44001E+00
 -1      3589 4.38681E+00
 -1      3590 2.41199E-01
 -1      3591 1.98345E-01
 -1      3592 1.81472E-01
 -1      3593 5.52512E+00
 -1      3594 6.02694E+00
 -1      3595 9.41512E+00
 -1      3596 8.81168E+00
 -1      3597 5.12552E+00
 -1      3598 5.53004E+00
 -1      3599 7.08927E+00
 -1      3600 1.10320E+01
 -1      3601 9.36168E+00
 -1      3602 9.43935E+00
 -1      3603 8.61728E+00
 -1      3604 2.48676E-01
 -1      3605 2.58161E-01
 -1      3606 8.53128E+00
 -1      3607 8.57468E+00
 -1      3608 3.84627E-01
 -1      3609 4.04389E-01
 -1      3610 4.04389E-01
 -1      3611 3.84627E-01
 -1      3612 3.11265E+00
 -1      3613 2.41531E+00
 -1      3614 2.73284E+00
 -1      3615 2.15200E-01
 -1      3616 2.11975E-01
 -1      3617 1.78480E-01
 -1      3618 5.26849E-02
 -1      3619 6.16664E-02
 -1      3620 6.57912E-02
 -1      3621 4.76612E-02
 -1      3622 3.23836E+00
 -1      3623 2.62109E+00
 -1      3624 4.67616E+00
 -1      3625 3.12133E+00
 -1      3626 3.92142E+00
 -1      3627 3.57026E+00
 -1      3628 3.23836E+00
 -1      3629 2.84668E+00
 -1      3630 3.94741E+00
 -1      3631 9.13026E+00
 -1      3632 9.87605E+00
 -1      3633 2.77191E-01
 -1      3634 3.15185E-01
 -1      3635 2.37446E-01
 -1      3636 2.20637E-01
 -1      3637 1.88405E-01
 -1      3638 2.52805E-01
 -1      3639 2.41120E-01
 -1      3640 2.52805E-01
 -1      3641 3.29414E+00
 -1      3642 3.08777E+00
 -1      3643 3.10161E+00
 -1      3644 4.19220E+00
 -1      3645 2.38838E+00
 -1      3646 2.09148E+00
 -1      3647 2.30510E+00
 -1      3648 1.64831E-01
 -1      3649 1.83496E-01
 -1      3650 1.97923E-01
 -1      3651 1.49675E-01
 -1      3652 1.44041E-01
 -1      3653 1.36402E-01
 -1      3654 1.12430E+00
 -1      3655 9.47302E-01
 -1      3656 1.07224E+00
 -1      3657 1.32370E+00
 -1      3658 5.50194E+00
 -1      3659 1.05325E-01
 -1      3660 1.13784E-01
 -1      3661 1.26513E-01
 -1      3662 7.29859E+00
 -1      3663 6.99715E+00
 -1      3664 2.55407E-01
 -1      3665 1.38603E-01
 -1      3666 2.78600E-01
 -1      3667 8.09123E+00
 -1      3668 2.37437E-01
 -1      3669 7.13621E+00
 -1      3670 8.61728E+00
 -1      3671 8.19967E+00
 -1      3672 8.05383E+00
 -1      3673 4.20004E+00
 -1      3674 4.43570E+00
 -1      3675 6.96441E+00
 -1      3676 8.03778E+00
 -1      3677 7.12700E+00
 -1      3678 6.96548E+00
 -1      3679 5.28491E+00
 -1      3680 1.11670E+01
 -1      3681 8.11935E+00
 -1      3682 8.61155E+00
 -1      3683 4.02403E+00
 -1      3684 3.87095E+00
 -1      3685 8.96874E+00
 -1      3686 2.19438E+00
 -1      3687 2.34862E+00
 -1      3688 2.87252E+00
 -1      3689 7.15339E+00
 -1      3690 6.01450E+00
 -1      3691 2.03917E-01
 -1      3692 2.23709E-01
 -1      3693 2.49531E-01
 -1      3694 2.09975E-01
 -1      3695 2.33322E-01
 -1      3696 7.78755E+00
 -1      3697 6.58217E+00
 -1      3698 7.09198E+00
 -1      3699 1.87080E-01
 -1      3700 1.96306E-01
 -1      3701 1.54505E-01
 -1      3702 1.30003E-01
 -1      3703 1.23346E+00
 -1      3704 3.64840E+00
 -1      3705 3.64840E+00
 -1      3706 5.11828E+00
 -1      3707 4.19586E+00
 -1      3708 2.02334E+00
 -1      3709 2.01595E+00
 -1      3710 2.19438E+00
 -1      3711 2.10618E+00
 -1      3712 1.56056E-01
 -1      3713 1.48052E-01
 -1      3714 1.43461E-01
 -1      3715 1.33330E-01
 -1      3716 1.31330E-01
 -1      3717 1.26381E-01
 -1      3718 1.18100E-01
 -1      3719 1.19791E-01
 -1      3720 1.10753E-01
 -1      3721 1.02068E-01
 -1      3722 1.05495E-01
 -1      3723 9.55116E-02
 -1      3724 8.64403E-02
 -1      3725 9.15918E-02
 -1      3726 7.94428E-02
 -1      3727 7.04159E-02
 -1      3728 7.80381E-02
 -1      3729 6.33652E-02
 -1      3730 5.45074E-02
 -1      3731 6.39899E-02
 -1      3732 5.31583E-02
 -1      3733 4.93460E-02
 -1      3734 5.55901E-02
 -1      3735 5.06884E-02
 -1      3736 5.20010E-02
 -1      3737 5.55834E-02
 -1      3738 5.49437E-02
 -1      3739 6.13225E-02
 -1      3740 5.98685E-02
 -1      3741 7.07016E-02
 -1      3742 8.65763E-02
 -1      3743 7.21903E-02
 -1      3744 1.03792E-01
 -1      3745 1.22953E-01
 -1      3746 9.87853E-02
 -1      3747 1.44283E-01
 -1      3748 1.67195E-01
 -1      3749 1.37331E-01
 -1      3750 1.93425E-01
 -1      3751 2.20307E-01
 -1      3752 1.84890E-01
 -1      3753 2.52186E-01
 -1      3754 2.82795E-01
 -1      3755 2.42998E-01
 -1      3756 3.20925E-01
 -1      3757 3.54233E-01
 -1      3758 3.13006E-01
 -1      3759 3.98829E-01
 -1      3760 4.40328E-01
 -1      3761 3.95732E-01
 -1      3762 4.90738E-01
 -1      3763 5.42804E-01
 -1      3764 4.90738E-01
 -1      3765 6.12639E-01
 -1      3766 6.91585E-01
 -1      3767 6.10983E-01
 -1      3768 7.88833E-01
 -1      3769 8.90867E-01
 -1      3770 7.78066E-01
 -1      3771 1.06585E+00
 -1      3772 1.17688E+00
 -1      3773 1.05029E+00
 -1      3774 1.41370E+00
 -1      3775 1.56881E+00
 -1      3776 1.46209E+00
 -1      3777 1.79624E+00
 -1      3778 2.01737E+00
 -1      3779 1.92634E+00
 -1      3780 2.44432E+00
 -1      3781 2.63871E+00
 -1      3782 2.58071E+00
 -1      3783 3.83303E+00
 -1      3784 5.17927E+00
 -1      3785 5.28491E+00
 -1      3786 3.48877E+00
 -1      3787 2.91514E+00
 -1      3788 8.49350E-02
 -1      3789 6.78936E-02
 -1      3790 7.67418E-02
 -1      3791 8.66523E-02
 -1      3792 2.08423E-01
 -1      3793 2.26801E-01
 -1      3794 1.87287E-01
 -1      3795 5.77123E-02
 -1      3796 5.04308E-02
 -1      3797 6.91020E-02
 -1      3798 4.74650E-02
 -1      3799 4.60642E-02
 -1      3800 5.59548E-02
 -1      3801 1.27000E-01
 -1      3802 1.03994E-01
 -1      3803 9.83423E-02
 -1      3804 1.80981E-01
 -1      3805 1.51316E-01
 -1      3806 1.41718E-01
 -1      3807 2.50479E-01
 -1      3808 2.12112E-01
 -1      3809 1.97165E-01
 -1      3810 3.40067E-01
 -1      3811 2.90435E-01
 -1      3812 2.68252E-01
 -1      3813 4.55776E-01
 -1      3814 3.91599E-01
 -1      3815 3.59741E-01
 -1      3816 6.05966E-01
 -1      3817 5.22924E-01
 -1      3818 4.78421E-01
 -1      3819 8.02914E-01
 -1      3820 6.95161E-01
 -1      3821 6.34764E-01
 -1      3822 1.06564E+00
 -1      3823 9.25138E-01
 -1      3824 8.46183E-01
 -1      3825 1.42454E+00
 -1      3826 1.24031E+00
 -1      3827 1.14307E+00
 -1      3828 1.93119E+00
 -1      3829 1.68891E+00
 -1      3830 1.58210E+00
 -1      3831 2.72502E+00
 -1      3832 2.29770E+00
 -1      3833 2.21298E+00
 -1      3834 5.11704E+00
 -1      3835 3.60078E+00
 -1      3836 3.45525E+00
 -1      3837 2.52509E+00
 -1      3838 8.61155E+00
 -1      3839 8.61155E+00
 -1      3840 8.25436E+00
 -1      3841 7.24340E+00
 -1      3842 6.14932E+00
 -1      3843 5.36329E+00
 -1      3844 7.18995E+00
 -1      3845 2.57115E-01
 -1      3846 2.20386E-01
 -1      3847 1.67439E-01
 -1      3848 6.14388E+00
 -1      3849 5.97136E+00
 -1      3850 2.70023E+00
 -1      3851 1.48610E-01
 -1      3852 1.53692E-01
 -1      3853 5.68445E+00
 -1      3854 4.06149E+00
 -1      3855 5.00499E+00
 -1      3856 2.65506E-01
 -1      3857 3.15185E-01
 -1      3858 3.34947E-01
 -1      3859 1.60209E-01
 -1      3860 1.56524E-01
 -1      3861 1.30339E-01
 -1      3862 2.42817E-01
 -1      3863 2.47140E-01
 -1      3864 2.11068E-01
 -1      3865 1.86295E-01
 -1      3866 4.20004E+00
 -1      3867 3.42646E+00
 -1      3868 3.78139E+00
 -1      3869 5.91175E-02
 -1      3870 6.87256E-02
 -1      3871 7.00682E-02
 -1      3872 3.63521E+00
 -1      3873 4.20198E+00
 -1      3874 3.98494E+00
 -1      3875 1.66026E-01
 -1      3876 1.45311E-01
 -1      3877 4.73594E+00
 -1      3878 3.61479E+00
 -1      3879 1.46862E-01
 -1      3880 1.58818E-01
 -1      3881 1.25319E-01
 -1      3882 8.60664E-02
 -1      3883 9.46344E-02
 -1      3884 1.04739E-01
 -1      3885 2.04308E-01
 -1      3886 1.29806E-01
 -1      3887 1.38639E-01
 -1      3888 1.32626E-01
 -1      3889 1.17592E-01
 -1      3890 1.03383E-01
 -1      3891 1.08992E-01
 -1      3892 8.09123E+00
 -1      3893 6.25606E+00
 -1      3894 5.89887E+00
 -1      3895 4.25280E+00
 -1      3896 4.96223E+00
 -1      3897 2.80583E+00
 -1      3898 7.32497E+00
 -1      3899 6.77387E+00
 -1      3900 6.96441E+00
 -1      3901 2.00437E-01
 -1      3902 2.24823E-01
 -1      3903 1.36389E-01
 -1      3904 3.06397E-01
 -1      3905 3.06397E-01
 -1      3906 1.80608E-01
 -1      3907 2.36955E-01
 -1      3908 1.45060E-01
 -1      3909 3.88384E+00
 -1      3910 3.95053E+00
 -1      3911 6.39824E+00
 -1      3912 1.76730E-01
 -1      3913 1.75875E-01
 -1      3914 1.32781E-01
 -1      3915 4.69279E+00
 -1      3916 1.84141E-01
 -1      3917 2.24823E-01
 -1      3918 2.24823E-01
 -1      3919 4.48696E-02
 -1      3920 5.33915E-02
 -1      3921 5.63259E-02
 -1      3922 1.64168E-01
 -1      3923 1.17382E-01
 -1      3924 1.36276E-01
 -1      3925 1.11487E-01
 -1      3926 9.07621E-02
 -1      3927 4.87608E+00
 -1      3928 5.61981E+00
 -1      3929 4.43778E+00
 -1      3930 5.17945E-02
 -1      3931 3.61479E+00
 -1      3932 1.12366E-01
 -1      3933 1.05417E-01
 -1      3934 1.00538E-01
 -1      3935 9.31910E-02
 -1      3936 9.31126E-02
 -1      3937 8.72445E-02
 -1      3938 8.06882E-02
 -1      3939 8.22874E-02
 -1      3940 7.52939E-02
 -1      3941 6.82964E-02
 -1      3942 7.09465E-02
 -1      3943 6.58327E-02
 -1      3944 5.87820E-02
 -1      3945 6.30885E-02
 -1      3946 5.84637E-02
 -1      3947 5.71146E-02
 -1      3948 6.03064E-02
 -1      3949 5.81789E-02
 -1      3950 5.95213E-02
 -1      3951 6.10525E-02
 -1      3952 6.23452E-02
 -1      3953 6.52878E-02
 -1      3954 6.49407E-02
 -1      3955 7.10494E-02
 -1      3956 8.04285E-02
 -1      3957 7.35261E-02
 -1      3958 8.98456E-02
 -1      3959 1.07062E-01
 -1      3960 8.87047E-02
 -1      3961 1.22900E-01
 -1      3962 1.44230E-01
 -1      3963 1.13960E-01
 -1      3964 1.67075E-01
 -1      3965 1.93304E-01
 -1      3966 1.52644E-01
 -1      3967 2.22565E-01
 -1      3968 2.54444E-01
 -1      3969 2.04750E-01
 -1      3970 2.91855E-01
 -1      3971 3.29984E-01
 -1      3972 2.71421E-01
 -1      3973 3.77765E-01
 -1      3974 4.22361E-01
 -1      3975 3.56613E-01
 -1      3976 4.83293E-01
 -1      3977 5.33702E-01
 -1      3978 4.65326E-01
 -1      3979 6.10983E-01
 -1      3980 6.80818E-01
 -1      3981 6.03538E-01
 -1      3982 7.78066E-01
 -1      3983 8.75314E-01
 -1      3984 7.78066E-01
 -1      3985 1.01879E+00
 -1      3986 1.19377E+00
 -1      3987 1.01879E+00
 -1      3988 1.40611E+00
 -1      3989 1.64293E+00
 -1      3990 1.37460E+00
 -1      3991 1.85796E+00
 -1      3992 2.08538E+00
 -1      3993 1.80197E+00
 -1      3994 2.75612E+00
 -1      3995 3.18307E+00
 -1      3996 4.16035E+00
 -1      3997 2.68774E+00
 -1      3998 1.12202E-01
 -1      3999 1.22091E-01
 -1      4000 1.16689E-01
 -1      4001 1.01511E-01
 -1      4002 1.75021E-01
 -1      4003 1.81543E-01
 -1      4004 1.47443E-01
 -1      4005 7.58773E-02
 -1      4006 6.56959E-02
 -1      4007 6.09979E-02
 -1      4008 5.80321E-02
 -1      4009 6.77732E-02
 -1      4010 2.00617E-01
 -1      4011 1.69486E-01
 -1      4012 2.69013E-01
 -1      4013 2.29056E-01
 -1      4014 2.01378E-01
 -1      4015 3.56389E-01
 -1      4016 3.04857E-01
 -1      4017 2.65661E-01
 -1      4018 4.69072E-01
 -1      4019 4.01925E-01
 -1      4020 3.47040E-01
 -1      4021 6.17271E-01
 -1      4022 5.28076E-01
 -1      4023 4.51580E-01
 -1      4024 8.18890E-01
 -1      4025 6.96666E-01
 -1      4026 5.89978E-01
 -1      4027 1.10733E+00
 -1      4028 9.32660E-01
 -1      4029 7.83143E-01
 -1      4030 1.54559E+00
 -1      4031 1.28123E+00
 -1      4032 1.07082E+00
 -1      4033 2.19490E+00
 -1      4034 1.82839E+00
 -1      4035 1.52752E+00
 -1      4036 3.62280E+00
 -1      4037 2.74705E+00
 -1      4038 2.36246E+00
 -1      4039 1.19757E-01
 -1      4040 1.15166E-01
 -1      4041 1.00792E-01
 -1      4042 4.74376E+00
 -1      4043 5.54365E+00
 -1      4044 4.51136E+00
 -1      4045 3.80316E+00
 -1      4046 1.46855E-01
 -1      4047 1.64824E-01
 -1      4048 1.75323E-01
 -1      4049 6.47304E+00
 -1      4050 6.47304E+00
 -1      4051 8.05383E+00
 -1      4052 1.19619E-01
 -1      4053 1.19151E-01
 -1      4054 1.02986E-01
 -1      4055 4.16035E+00
 -1      4056 5.57553E-02
 -1      4057 5.45607E-02
 -1      4058 6.07984E-02
 -1      4059 6.45362E+00
 -1      4060 5.20009E+00
 -1      4061 6.30778E+00
 -1      4062 1.79984E-01
 -1      4063 1.85650E-01
 -1      4064 1.69353E-01
 -1      4065 1.38749E-01
 -1      4066 1.07301E-01
 -1      4067 1.13819E-01
 -1      4068 9.65808E-02
 -1      4069 1.46894E-01
 -1      4070 1.22577E-01
 -1      4071 1.50346E-01
 -1      4072 1.04659E-01
 -1      4073 8.56005E-02
 -1      4074 8.21944E-02
 -1      4075 1.09836E-01
 -1      4076 6.11764E-02
 -1      4077 6.91926E-02
 -1      4078 4.10540E+00
 -1      4079 8.85024E-02
 -1      4080 9.64845E-02
 -1      4081 7.96106E-02
 -1      4082 1.37731E-01
 -1      4083 1.37731E-01
 -1      4084 1.35446E-01
 -1      4085 1.00226E-01
 -1      4086 1.63242E-01
 -1      4087 1.52558E-01
 -1      4088 3.09008E+00
 -1      4089 3.89195E+00
 -1      4090 3.18252E+00
 -1      4091 2.41934E+00
 -1      4092 8.66032E-02
 -1      4093 9.89376E-02
 -1      4094 8.24177E-02
 -1      4095 8.05383E+00
 -1      4096 7.13621E+00
 -1      4097 1.29145E-01
 -1      4098 1.35151E-01
 -1      4099 3.36825E+00
 -1      4100 5.72374E+00
 -1      4101 3.94242E+00
 -1      4102 4.65219E+00
 -1      4103 1.22943E-01
 -1      4104 1.31718E-01
 -1      4105 1.20014E-01
 -1      4106 1.23495E-01
 -1      4107 1.13620E-01
 -1      4108 1.03772E-01
 -1      4109 1.19589E-01
 -1      4110 2.03608E-01
 -1      4111 1.75057E-01
 -1      4112 1.62925E-01
 -1      4113 5.39400E-02
 -1      4114 5.96660E-02
 -1      4115 5.87905E-02
 -1      4116 5.79008E-02
 -1      4117 7.86071E-02
 -1      4118 7.26605E-02
 -1      4119 8.46282E-02
 -1      4120 7.92339E-02
 -1      4121 8.09479E-02
 -1      4122 6.49280E-02
 -1      4123 6.24643E-02
 -1      4124 7.86097E-02
 -1      4125 6.06248E-02
 -1      4126 6.03064E-02
 -1      4127 6.24643E-02
 -1      4128 6.10525E-02
 -1      4129 6.21168E-02
 -1      4130 6.13708E-02
 -1      4131 6.49407E-02
 -1      4132 6.77646E-02
 -1      4133 6.49407E-02
 -1      4134 7.35261E-02
 -1      4135 7.92876E-02
 -1      4136 7.35261E-02
 -1      4137 8.87047E-02
 -1      4138 9.81218E-02
 -1      4139 8.87047E-02
 -1      4140 1.14047E-01
 -1      4141 1.29886E-01
 -1      4142 1.14047E-01
 -1      4143 1.52241E-01
 -1      4144 1.75087E-01
 -1      4145 1.52329E-01
 -1      4146 2.05605E-01
 -1      4147 2.34865E-01
 -1      4148 2.05202E-01
 -1      4149 2.76772E-01
 -1      4150 3.14183E-01
 -1      4151 2.77627E-01
 -1      4152 3.72432E-01
 -1      4153 4.20213E-01
 -1      4154 3.77783E-01
 -1      4155 5.02620E-01
 -1      4156 5.63552E-01
 -1      4157 5.18439E-01
 -1      4158 6.82786E-01
 -1      4159 7.60066E-01
 -1      4160 7.20080E-01
 -1      4161 9.37046E-01
 -1      4162 1.03429E+00
 -1      4163 1.01629E+00
 -1      4164 1.30399E+00
 -1      4165 1.44746E+00
 -1      4166 1.46297E+00
 -1      4167 2.00137E+00
 -1      4168 2.21372E+00
 -1      4169 2.28657E+00
 -1      4170 1.68623E+00
 -1      4171 1.90126E+00
 -1      4172 2.31300E+00
 -1      4173 3.60960E-01
 -1      4174 3.15424E-01
 -1      4175 7.24712E-02
 -1      4176 6.77732E-02
 -1      4177 5.85215E-02
 -1      4178 5.79008E-02
 -1      4179 2.77195E-01
 -1      4180 2.41352E-01
 -1      4181 2.91115E-01
 -1      4182 2.11997E-01
 -1      4183 1.83558E-01
 -1      4184 2.23531E-01
 -1      4185 4.73307E-01
 -1      4186 4.14304E-01
 -1      4187 3.82687E-01
 -1      4188 6.35109E-01
 -1      4189 5.55715E-01
 -1      4190 5.18439E-01
 -1      4191 8.68115E-01
 -1      4192 7.54344E-01
 -1      4193 7.20080E-01
 -1      4194 1.24994E+00
 -1      4195 1.07604E+00
 -1      4196 1.04724E+00
 -1      4197 1.92288E+00
 -1      4198 1.64008E+00
 -1      4199 1.64531E+00
 -1      4200 2.87755E+00
 -1      4201 2.32540E+00
 -1      4202 2.43797E+00
 -1      4203 8.98607E-02
 -1      4204 8.70603E-02
 -1      4205 1.16389E-01
 -1      4206 1.34099E-01
 -1      4207 1.33797E-01
 -1      4208 1.27688E-01
 -1      4209 1.22875E-01
 -1      4210 9.38656E-02
 -1      4211 1.09229E-01
 -1      4212 8.71305E-02
 -1      4213 1.33540E-01
 -1      4214 8.52249E-02
 -1      4215 8.03461E-02
 -1      4216 7.42938E-02
 -1      4217 6.30752E-02
 -1      4218 6.07984E-02
 -1      4219 6.07984E-02
 -1      4220 8.85257E-02
 -1      4221 8.91317E-02
 -1      4222 7.54002E-02
 -1      4223 3.05386E+00
 -1      4224 5.93314E-02
 -1      4225 6.08418E-02
 -1      4226 5.99521E-02
 -1      4227 1.61091E-01
 -1      4228 1.38498E-01
 -1      4229 1.71710E-01
 -1      4230 8.79660E-02
 -1      4231 7.36523E-02
 -1      4232 8.20428E-02
 -1      4233 6.94935E-02
 -1      4234 9.15068E-02
 -1      4235 7.86999E-02
 -1      4236 8.44993E-02
 -1      4237 7.06448E-02
 -1      4238 1.02996E-01
 -1      4239 1.01945E-01
 -1      4240 7.66082E-02
 -1      4241 9.59180E-02
 -1      4242 7.71492E-02
 -1      4243 1.23495E-01
 -1      4244 1.22587E-01
 -1      4245 1.15780E-01
 -1      4246 8.12887E-02
 -1      4247 8.12887E-02
 -1      4248 9.10120E-02
 -1      4249 8.84777E-02
 -1      4250 9.18326E-02
 -1      4251 9.77321E-02
 -1      4252 6.34759E-02
 -1      4253 7.18396E-02
 -1      4254 5.97581E-02
 -1      4255 6.77732E-02
 -1      4256 1.06773E-01
 -1      4257 1.04337E-01
 -1      4258 1.11799E-01
 -1      4259 3.01680E+00
 -1      4260 1.12325E-01
 -1      4261 2.30359E+00
 -1      4262 3.19193E+00
 -1      4263 3.01680E+00
 -1      4264 2.84049E+00
 -1      4265 2.83108E+00
 -1      4266 8.76422E-02
 -1      4267 7.07193E-02
 -1      4268 1.07080E-01
 -1      4269 1.04507E-01
 -1      4270 9.00627E-02
 -1      4271 1.29895E-01
 -1      4272 1.21507E-01
 -1      4273 1.03589E-01
 -1      4274 1.02683E-01
 -1      4275 1.32252E-01
 -1      4276 8.39503E-02
 -1      4277 9.59180E-02
 -1      4278 9.29156E-02
 -1      4279 7.86097E-02
 -1      4280 6.28432E-02
 -1      4281 6.10037E-02
 -1      4282 5.95732E-02
 -1      4283 6.03192E-02
 -1      4284 6.25960E-02
 -1      4285 6.54199E-02
 -1      4286 7.01179E-02
 -1      4287 7.58794E-02
 -1      4288 8.46970E-02
 -1      4289 9.41140E-02
 -1      4290 1.06691E-01
 -1      4291 1.22617E-01
 -1      4292 1.39608E-01
 -1      4293 1.61964E-01
 -1      4294 1.84431E-01
 -1      4295 2.14948E-01
 -1      4296 2.44303E-01
 -1      4297 2.86210E-01
 -1      4298 3.24439E-01
 -1      4299 3.82687E-01
 -1      4300 4.36031E-01
 -1      4301 5.18439E-01
 -1      4302 6.00846E-01
 -1      4303 7.20080E-01
 -1      4304 8.39315E-01
 -1      4305 1.01629E+00
 -1      4306 1.22422E+00
 -1      4307 1.49391E+00
 -1      4308 1.88405E+00
 -1      4309 2.43797E+00
 -1      4310 6.24133E-02
 -1      4311 6.64397E-02
 -1      4312 2.84049E+00
 -1      4313 7.52762E-02
 -1      4314 7.05742E-02
 -1      4315 2.31300E+00
 -1      4316 9.93578E-02
 -1      4317 9.75224E-02
 -1      4318 7.19339E-02
 -1      4319 7.26629E-02
 -1      4320 9.58916E-02
 -1      4321 6.37024E-02
 -1      4322 9.35417E-02
 -1      4323 9.18026E-02
 -1      4324 1.06773E-01
 -1      4325 1.03321E-01
 -1      4326 9.59180E-02
 -1      4327 9.89204E-02
 -1      4328 1.18606E-01
 -1      4329 1.06324E-01
 -1      4330 6.79360E-02
 -1      4331 7.24964E-02
 -1      4332 7.69396E-02
 -1      4333 1.03841E-01
 -1      4334 2.84049E+00
 -1      4335 1.06773E-01
 -1      4336 9.04478E-02
 -1      4337 1.18606E-01
 -1      4338 1.22587E-01
 -1      4339 1.22587E-01
 -1      4340 8.03853E-02
 -1      4341 7.88740E-02
 -1      4342 7.33798E-02
 -1      4343 1.14625E-01
 -1      4344 1.18606E-01
 -1      4345 6.79190E-02
 -1      4346 6.19184E-02
 -1      4347 1.07080E-01
 -1      4348 5.55530E-02
 -3
 9999
