    1C
    1UUSER                                                              
    1UDATE              27.october.2022                                 
    1UTIME              01:13:59                                        
    1UHOST                                                              
    1UPGM               CalculiX                                        
    1UVERSION           Version 2.17                             
    1UCOMPILETIME       Thu Jul 23 21:43:50 CEST 2020                    
    1UDIR                                                               
    1UDBN                                                               
    1UMAT    1SOLIDMATERIAL                                             
    2C                          4364                                     1
 -1         1 8.33606E+01 3.14132E+01 0.00000E+00
 -1         2 9.70980E+01 2.95137E+01 0.00000E+00
 -1         3 1.50000E+02 0.00000E+00 0.00000E+00
 -1         4 1.50000E+02 5.00000E+01 0.00000E+00
 -1         5 0.00000E+00 0.00000E+00 0.00000E+00
 -1         6 0.00000E+00 5.00000E+01 0.00000E+00
 -1         7 0.00000E+00 4.70500E+01 0.00000E+00
 -1         8 0.00000E+00 4.41000E+01 0.00000E+00
 -1         9 0.00000E+00 4.11500E+01 0.00000E+00
 -1        10 0.00000E+00 3.82000E+01 0.00000E+00
 -1        11 0.00000E+00 3.52500E+01 0.00000E+00
 -1        12 0.00000E+00 3.23500E+01 0.00000E+00
 -1        13 0.00000E+00 2.94000E+01 0.00000E+00
 -1        14 0.00000E+00 2.64500E+01 0.00000E+00
 -1        15 0.00000E+00 2.35000E+01 0.00000E+00
 -1        16 0.00000E+00 2.05500E+01 0.00000E+00
 -1        17 0.00000E+00 1.76000E+01 0.00000E+00
 -1        18 0.00000E+00 1.47000E+01 0.00000E+00
 -1        19 0.00000E+00 1.17500E+01 0.00000E+00
 -1        20 0.00000E+00 8.80000E+00 0.00000E+00
 -1        21 0.00000E+00 5.85000E+00 0.00000E+00
 -1        22 0.00000E+00 2.90000E+00 0.00000E+00
 -1        23 3.15000E+00 5.00000E+01 0.00000E+00
 -1        24 6.15000E+00 5.00000E+01 0.00000E+00
 -1        25 9.15000E+00 5.00000E+01 0.00000E+00
 -1        26 1.21500E+01 5.00000E+01 0.00000E+00
 -1        27 1.51500E+01 5.00000E+01 0.00000E+00
 -1        28 1.81500E+01 5.00000E+01 0.00000E+00
 -1        29 2.11500E+01 5.00000E+01 0.00000E+00
 -1        30 2.41500E+01 5.00000E+01 0.00000E+00
 -1        31 2.71500E+01 5.00000E+01 0.00000E+00
 -1        32 3.01500E+01 5.00000E+01 0.00000E+00
 -1        33 3.31500E+01 5.00000E+01 0.00000E+00
 -1        34 3.61500E+01 5.00000E+01 0.00000E+00
 -1        35 3.91500E+01 5.00000E+01 0.00000E+00
 -1        36 4.21500E+01 5.00000E+01 0.00000E+00
 -1        37 4.51500E+01 5.00000E+01 0.00000E+00
 -1        38 4.81500E+01 5.00000E+01 0.00000E+00
 -1        39 5.11500E+01 5.00000E+01 0.00000E+00
 -1        40 5.41500E+01 5.00000E+01 0.00000E+00
 -1        41 5.71500E+01 5.00000E+01 0.00000E+00
 -1        42 6.01500E+01 5.00000E+01 0.00000E+00
 -1        43 6.31500E+01 5.00000E+01 0.00000E+00
 -1        44 6.61500E+01 5.00000E+01 0.00000E+00
 -1        45 6.91500E+01 5.00000E+01 0.00000E+00
 -1        46 7.21500E+01 5.00000E+01 0.00000E+00
 -1        47 7.51500E+01 5.00000E+01 0.00000E+00
 -1        48 7.81500E+01 5.00000E+01 0.00000E+00
 -1        49 8.11500E+01 5.00000E+01 0.00000E+00
 -1        50 8.41500E+01 5.00000E+01 0.00000E+00
 -1        51 8.71500E+01 5.00000E+01 0.00000E+00
 -1        52 9.01500E+01 5.00000E+01 0.00000E+00
 -1        53 9.31500E+01 5.00000E+01 0.00000E+00
 -1        54 9.61500E+01 5.00000E+01 0.00000E+00
 -1        55 9.91500E+01 5.00000E+01 0.00000E+00
 -1        56 1.02150E+02 5.00000E+01 0.00000E+00
 -1        57 1.05150E+02 5.00000E+01 0.00000E+00
 -1        58 1.08150E+02 5.00000E+01 0.00000E+00
 -1        59 1.11150E+02 5.00000E+01 0.00000E+00
 -1        60 1.14150E+02 5.00000E+01 0.00000E+00
 -1        61 1.17150E+02 5.00000E+01 0.00000E+00
 -1        62 1.20150E+02 5.00000E+01 0.00000E+00
 -1        63 1.23150E+02 5.00000E+01 0.00000E+00
 -1        64 1.26150E+02 5.00000E+01 0.00000E+00
 -1        65 1.29150E+02 5.00000E+01 0.00000E+00
 -1        66 1.32150E+02 5.00000E+01 0.00000E+00
 -1        67 1.35150E+02 5.00000E+01 0.00000E+00
 -1        68 1.38150E+02 5.00000E+01 0.00000E+00
 -1        69 1.41150E+02 5.00000E+01 0.00000E+00
 -1        70 1.44150E+02 5.00000E+01 0.00000E+00
 -1        71 1.47150E+02 5.00000E+01 0.00000E+00
 -1        72 3.15000E+00 0.00000E+00 0.00000E+00
 -1        73 6.15000E+00 0.00000E+00 0.00000E+00
 -1        74 9.15000E+00 0.00000E+00 0.00000E+00
 -1        75 1.21500E+01 0.00000E+00 0.00000E+00
 -1        76 1.51500E+01 0.00000E+00 0.00000E+00
 -1        77 1.81500E+01 0.00000E+00 0.00000E+00
 -1        78 2.11500E+01 0.00000E+00 0.00000E+00
 -1        79 2.41500E+01 0.00000E+00 0.00000E+00
 -1        80 2.71500E+01 0.00000E+00 0.00000E+00
 -1        81 3.01500E+01 0.00000E+00 0.00000E+00
 -1        82 3.31500E+01 0.00000E+00 0.00000E+00
 -1        83 3.61500E+01 0.00000E+00 0.00000E+00
 -1        84 3.91500E+01 0.00000E+00 0.00000E+00
 -1        85 4.21500E+01 0.00000E+00 0.00000E+00
 -1        86 4.51500E+01 0.00000E+00 0.00000E+00
 -1        87 4.81500E+01 0.00000E+00 0.00000E+00
 -1        88 5.11500E+01 0.00000E+00 0.00000E+00
 -1        89 5.41500E+01 0.00000E+00 0.00000E+00
 -1        90 5.71500E+01 0.00000E+00 0.00000E+00
 -1        91 6.01500E+01 0.00000E+00 0.00000E+00
 -1        92 6.31500E+01 0.00000E+00 0.00000E+00
 -1        93 6.61500E+01 0.00000E+00 0.00000E+00
 -1        94 6.91500E+01 0.00000E+00 0.00000E+00
 -1        95 7.21500E+01 0.00000E+00 0.00000E+00
 -1        96 7.51500E+01 0.00000E+00 0.00000E+00
 -1        97 7.81500E+01 0.00000E+00 0.00000E+00
 -1        98 8.11500E+01 0.00000E+00 0.00000E+00
 -1        99 8.41500E+01 0.00000E+00 0.00000E+00
 -1       100 8.71500E+01 0.00000E+00 0.00000E+00
 -1       101 9.01500E+01 0.00000E+00 0.00000E+00
 -1       102 9.31500E+01 0.00000E+00 0.00000E+00
 -1       103 9.61500E+01 0.00000E+00 0.00000E+00
 -1       104 9.91500E+01 0.00000E+00 0.00000E+00
 -1       105 1.02150E+02 0.00000E+00 0.00000E+00
 -1       106 1.05150E+02 0.00000E+00 0.00000E+00
 -1       107 1.08150E+02 0.00000E+00 0.00000E+00
 -1       108 1.11150E+02 0.00000E+00 0.00000E+00
 -1       109 1.14150E+02 0.00000E+00 0.00000E+00
 -1       110 1.17150E+02 0.00000E+00 0.00000E+00
 -1       111 1.20150E+02 0.00000E+00 0.00000E+00
 -1       112 1.23150E+02 0.00000E+00 0.00000E+00
 -1       113 1.26150E+02 0.00000E+00 0.00000E+00
 -1       114 1.29150E+02 0.00000E+00 0.00000E+00
 -1       115 1.32150E+02 0.00000E+00 0.00000E+00
 -1       116 1.35150E+02 0.00000E+00 0.00000E+00
 -1       117 1.38150E+02 0.00000E+00 0.00000E+00
 -1       118 1.41150E+02 0.00000E+00 0.00000E+00
 -1       119 1.44150E+02 0.00000E+00 0.00000E+00
 -1       120 1.47150E+02 0.00000E+00 0.00000E+00
 -1       121 1.50000E+02 2.95000E+00 0.00000E+00
 -1       122 1.50000E+02 5.90000E+00 0.00000E+00
 -1       123 1.50000E+02 8.85000E+00 0.00000E+00
 -1       124 1.50000E+02 1.18000E+01 0.00000E+00
 -1       125 1.50000E+02 1.47500E+01 0.00000E+00
 -1       126 1.50000E+02 1.76500E+01 0.00000E+00
 -1       127 1.50000E+02 2.06000E+01 0.00000E+00
 -1       128 1.50000E+02 2.35500E+01 0.00000E+00
 -1       129 1.50000E+02 2.65000E+01 0.00000E+00
 -1       130 1.50000E+02 2.94500E+01 0.00000E+00
 -1       131 1.50000E+02 3.24000E+01 0.00000E+00
 -1       132 1.50000E+02 3.53000E+01 0.00000E+00
 -1       133 1.50000E+02 3.82500E+01 0.00000E+00
 -1       134 1.50000E+02 4.12000E+01 0.00000E+00
 -1       135 1.50000E+02 4.41500E+01 0.00000E+00
 -1       136 1.50000E+02 4.71000E+01 0.00000E+00
 -1       137 9.69581E+01 2.81214E+01 0.00000E+00
 -1       138 9.64983E+01 2.66790E+01 0.00000E+00
 -1       139 9.57395E+01 2.53697E+01 0.00000E+00
 -1       140 9.46978E+01 2.42372E+01 0.00000E+00
 -1       141 9.34885E+01 2.33897E+01 0.00000E+00
 -1       142 9.21573E+01 2.28235E+01 0.00000E+00
 -1       143 9.07188E+01 2.25413E+01 0.00000E+00
 -1       144 8.92849E+01 2.25611E+01 0.00000E+00
 -1       145 8.77823E+01 2.29079E+01 0.00000E+00
 -1       146 8.64435E+01 2.35434E+01 0.00000E+00
 -1       147 8.52702E+01 2.44450E+01 0.00000E+00
 -1       148 8.42779E+01 2.56245E+01 0.00000E+00
 -1       149 8.35757E+01 2.69722E+01 0.00000E+00
 -1       150 8.31865E+01 2.84039E+01 0.00000E+00
 -1       151 8.31077E+01 2.98820E+01 0.00000E+00
 -1       152 8.38685E+01 3.27064E+01 0.00000E+00
 -1       153 8.46384E+01 3.38947E+01 0.00000E+00
 -1       154 8.56397E+01 3.49103E+01 0.00000E+00
 -1       155 8.68631E+01 3.57214E+01 0.00000E+00
 -1       156 8.81556E+01 3.62388E+01 0.00000E+00
 -1       157 8.96160E+01 3.64971E+01 0.00000E+00
 -1       158 9.10491E+01 3.64488E+01 0.00000E+00
 -1       159 9.24087E+01 3.61214E+01 0.00000E+00
 -1       160 9.37240E+01 3.55014E+01 0.00000E+00
 -1       161 9.48273E+01 3.46745E+01 0.00000E+00
 -1       162 9.57630E+01 3.36256E+01 0.00000E+00
 -1       163 9.65119E+01 3.23175E+01 0.00000E+00
 -1       164 9.69405E+01 3.09903E+01 0.00000E+00
 -1       165 2.59800E+00 4.55750E+01 0.00000E+00
 -1       166 2.59800E+00 4.26250E+01 0.00000E+00
 -1       167 2.59800E+00 3.96750E+01 0.00000E+00
 -1       168 2.59800E+00 3.67250E+01 0.00000E+00
 -1       169 2.59800E+00 3.38250E+01 0.00000E+00
 -1       170 2.59800E+00 3.08750E+01 0.00000E+00
 -1       171 2.59800E+00 2.79250E+01 0.00000E+00
 -1       172 2.59800E+00 2.49750E+01 0.00000E+00
 -1       173 2.59800E+00 2.20250E+01 0.00000E+00
 -1       174 2.59800E+00 1.90750E+01 0.00000E+00
 -1       175 2.59800E+00 1.61750E+01 0.00000E+00
 -1       176 2.59800E+00 1.32250E+01 0.00000E+00
 -1       177 2.59800E+00 1.02750E+01 0.00000E+00
 -1       178 2.59800E+00 7.32500E+00 0.00000E+00
 -1       179 2.59800E+00 4.37500E+00 0.00000E+00
 -1       180 2.87400E+00 2.18750E+00 0.00000E+00
 -1       181 4.65000E+00 4.74020E+01 0.00000E+00
 -1       182 7.65000E+00 4.74020E+01 0.00000E+00
 -1       183 1.06500E+01 4.74020E+01 0.00000E+00
 -1       184 1.36500E+01 4.74020E+01 0.00000E+00
 -1       185 1.66500E+01 4.74020E+01 0.00000E+00
 -1       186 1.96500E+01 4.74020E+01 0.00000E+00
 -1       187 2.26500E+01 4.74020E+01 0.00000E+00
 -1       188 2.56500E+01 4.74020E+01 0.00000E+00
 -1       189 2.86500E+01 4.74020E+01 0.00000E+00
 -1       190 3.16500E+01 4.74020E+01 0.00000E+00
 -1       191 3.46500E+01 4.74020E+01 0.00000E+00
 -1       192 3.76500E+01 4.74020E+01 0.00000E+00
 -1       193 4.06500E+01 4.74020E+01 0.00000E+00
 -1       194 4.36500E+01 4.74020E+01 0.00000E+00
 -1       195 4.66500E+01 4.74020E+01 0.00000E+00
 -1       196 4.96500E+01 4.74020E+01 0.00000E+00
 -1       197 5.26500E+01 4.74020E+01 0.00000E+00
 -1       198 5.56500E+01 4.74020E+01 0.00000E+00
 -1       199 5.86500E+01 4.74020E+01 0.00000E+00
 -1       200 6.16500E+01 4.74020E+01 0.00000E+00
 -1       201 6.46500E+01 4.74020E+01 0.00000E+00
 -1       202 6.76500E+01 4.74020E+01 0.00000E+00
 -1       203 7.06500E+01 4.74020E+01 0.00000E+00
 -1       204 7.36500E+01 4.74020E+01 0.00000E+00
 -1       205 7.66500E+01 4.74020E+01 0.00000E+00
 -1       206 7.96500E+01 4.74020E+01 0.00000E+00
 -1       207 8.26500E+01 4.74020E+01 0.00000E+00
 -1       208 8.56500E+01 4.74020E+01 0.00000E+00
 -1       209 8.86500E+01 4.74020E+01 0.00000E+00
 -1       210 9.16500E+01 4.74020E+01 0.00000E+00
 -1       211 9.46500E+01 4.74020E+01 0.00000E+00
 -1       212 9.76500E+01 4.74020E+01 0.00000E+00
 -1       213 1.00650E+02 4.74020E+01 0.00000E+00
 -1       214 1.03650E+02 4.74020E+01 0.00000E+00
 -1       215 1.06650E+02 4.74020E+01 0.00000E+00
 -1       216 1.09650E+02 4.74020E+01 0.00000E+00
 -1       217 1.12650E+02 4.74020E+01 0.00000E+00
 -1       218 1.15650E+02 4.74020E+01 0.00000E+00
 -1       219 1.18650E+02 4.74020E+01 0.00000E+00
 -1       220 1.21650E+02 4.74020E+01 0.00000E+00
 -1       221 1.24650E+02 4.74020E+01 0.00000E+00
 -1       222 1.27650E+02 4.74020E+01 0.00000E+00
 -1       223 1.30650E+02 4.74020E+01 0.00000E+00
 -1       224 1.33650E+02 4.74020E+01 0.00000E+00
 -1       225 1.36650E+02 4.74020E+01 0.00000E+00
 -1       226 1.39650E+02 4.74020E+01 0.00000E+00
 -1       227 1.42650E+02 4.74020E+01 0.00000E+00
 -1       228 1.45650E+02 4.74020E+01 0.00000E+00
 -1       229 5.87400E+00 2.18750E+00 0.00000E+00
 -1       230 8.87400E+00 2.18750E+00 0.00000E+00
 -1       231 1.18740E+01 2.18750E+00 0.00000E+00
 -1       232 1.48740E+01 2.18750E+00 0.00000E+00
 -1       233 1.78740E+01 2.18750E+00 0.00000E+00
 -1       234 2.08740E+01 2.18750E+00 0.00000E+00
 -1       235 2.38740E+01 2.18750E+00 0.00000E+00
 -1       236 2.68740E+01 2.18750E+00 0.00000E+00
 -1       237 2.98740E+01 2.18750E+00 0.00000E+00
 -1       238 3.28740E+01 2.18750E+00 0.00000E+00
 -1       239 3.58740E+01 2.18750E+00 0.00000E+00
 -1       240 3.88740E+01 2.18750E+00 0.00000E+00
 -1       241 4.18740E+01 2.18750E+00 0.00000E+00
 -1       242 4.48740E+01 2.18750E+00 0.00000E+00
 -1       243 4.78740E+01 2.18750E+00 0.00000E+00
 -1       244 5.08740E+01 2.18750E+00 0.00000E+00
 -1       245 5.38740E+01 2.18750E+00 0.00000E+00
 -1       246 5.68740E+01 2.18750E+00 0.00000E+00
 -1       247 5.98740E+01 2.18750E+00 0.00000E+00
 -1       248 6.28740E+01 2.18750E+00 0.00000E+00
 -1       249 6.58740E+01 2.18750E+00 0.00000E+00
 -1       250 6.88740E+01 2.18750E+00 0.00000E+00
 -1       251 7.18740E+01 2.18750E+00 0.00000E+00
 -1       252 7.48740E+01 2.18750E+00 0.00000E+00
 -1       253 7.78740E+01 2.18750E+00 0.00000E+00
 -1       254 8.08740E+01 2.18750E+00 0.00000E+00
 -1       255 8.38740E+01 2.18750E+00 0.00000E+00
 -1       256 8.68740E+01 2.18750E+00 0.00000E+00
 -1       257 8.98740E+01 2.18750E+00 0.00000E+00
 -1       258 9.28740E+01 2.18750E+00 0.00000E+00
 -1       259 9.58740E+01 2.18750E+00 0.00000E+00
 -1       260 9.88740E+01 2.18750E+00 0.00000E+00
 -1       261 1.01874E+02 2.18750E+00 0.00000E+00
 -1       262 1.04874E+02 2.18750E+00 0.00000E+00
 -1       263 1.07874E+02 2.18750E+00 0.00000E+00
 -1       264 1.10874E+02 2.18750E+00 0.00000E+00
 -1       265 1.13874E+02 2.18750E+00 0.00000E+00
 -1       266 1.16874E+02 2.18750E+00 0.00000E+00
 -1       267 1.19874E+02 2.18750E+00 0.00000E+00
 -1       268 1.22874E+02 2.18750E+00 0.00000E+00
 -1       269 1.25874E+02 2.18750E+00 0.00000E+00
 -1       270 1.28874E+02 2.18750E+00 0.00000E+00
 -1       271 1.31874E+02 2.18750E+00 0.00000E+00
 -1       272 1.34874E+02 2.18750E+00 0.00000E+00
 -1       273 1.37874E+02 2.18750E+00 0.00000E+00
 -1       274 1.40874E+02 2.18750E+00 0.00000E+00
 -1       275 1.43874E+02 2.18750E+00 0.00000E+00
 -1       276 1.46874E+02 2.18750E+00 0.00000E+00
 -1       277 1.47402E+02 4.42500E+00 0.00000E+00
 -1       278 1.47402E+02 7.37500E+00 0.00000E+00
 -1       279 1.47402E+02 1.03250E+01 0.00000E+00
 -1       280 1.47402E+02 1.32750E+01 0.00000E+00
 -1       281 1.47402E+02 1.61750E+01 0.00000E+00
 -1       282 1.47402E+02 1.91250E+01 0.00000E+00
 -1       283 1.47402E+02 2.20750E+01 0.00000E+00
 -1       284 1.47402E+02 2.50250E+01 0.00000E+00
 -1       285 1.47402E+02 2.79750E+01 0.00000E+00
 -1       286 1.47402E+02 3.09250E+01 0.00000E+00
 -1       287 1.47402E+02 3.38250E+01 0.00000E+00
 -1       288 1.47402E+02 3.67750E+01 0.00000E+00
 -1       289 1.47402E+02 3.97250E+01 0.00000E+00
 -1       290 1.47402E+02 4.26750E+01 0.00000E+00
 -1       291 1.46526E+02 4.50385E+01 0.00000E+00
 -1       292 9.82344E+01 2.86964E+01 0.00000E+00
 -1       293 9.80430E+01 2.69811E+01 0.00000E+00
 -1       294 9.74579E+01 2.52484E+01 0.00000E+00
 -1       295 9.61726E+01 2.39259E+01 0.00000E+00
 -1       296 9.47890E+01 2.28206E+01 0.00000E+00
 -1       297 9.32974E+01 2.19909E+01 0.00000E+00
 -1       298 9.16875E+01 2.14105E+01 0.00000E+00
 -1       299 8.99839E+01 2.12552E+01 0.00000E+00
 -1       300 8.82233E+01 2.13899E+01 0.00000E+00
 -1       301 8.65570E+01 2.20547E+01 0.00000E+00
 -1       302 8.51182E+01 2.30328E+01 0.00000E+00
 -1       303 8.37181E+01 2.41464E+01 0.00000E+00
 -1       304 8.28516E+01 2.57381E+01 0.00000E+00
 -1       305 8.22112E+01 2.73700E+01 0.00000E+00
 -1       306 8.19364E+01 2.90784E+01 0.00000E+00
 -1       307 8.19553E+01 3.08589E+01 0.00000E+00
 -1       308 8.24860E+01 3.25030E+01 0.00000E+00
 -1       309 8.32360E+01 3.39598E+01 0.00000E+00
 -1       310 8.42757E+01 3.52537E+01 0.00000E+00
 -1       311 8.54889E+01 3.64661E+01 0.00000E+00
 -1       312 8.70588E+01 3.71057E+01 0.00000E+00
 -1       313 8.86601E+01 3.76444E+01 0.00000E+00
 -1       314 9.03734E+01 3.76847E+01 0.00000E+00
 -1       315 9.20128E+01 3.74638E+01 0.00000E+00
 -1       316 9.36547E+01 3.70596E+01 0.00000E+00
 -1       317 9.50028E+01 3.60581E+01 0.00000E+00
 -1       318 9.61999E+01 3.49572E+01 0.00000E+00
 -1       319 9.74805E+01 3.37405E+01 0.00000E+00
 -1       320 9.78800E+01 3.20265E+01 0.00000E+00
 -1       321 9.83914E+01 3.03984E+01 0.00000E+00
 -1       322 5.19600E+00 4.11500E+01 0.00000E+00
 -1       323 5.19600E+00 4.41000E+01 0.00000E+00
 -1       324 5.19600E+00 3.52750E+01 0.00000E+00
 -1       325 5.19600E+00 3.23250E+01 0.00000E+00
 -1       326 5.19600E+00 2.93750E+01 0.00000E+00
 -1       327 5.19600E+00 2.64250E+01 0.00000E+00
 -1       328 5.19600E+00 2.34750E+01 0.00000E+00
 -1       329 5.19600E+00 2.05250E+01 0.00000E+00
 -1       330 5.19600E+00 1.76250E+01 0.00000E+00
 -1       331 5.19600E+00 1.46750E+01 0.00000E+00
 -1       332 5.19600E+00 1.17250E+01 0.00000E+00
 -1       333 5.19600E+00 8.77500E+00 0.00000E+00
 -1       334 5.19600E+00 5.82500E+00 0.00000E+00
 -1       335 5.53500E+00 4.00625E+00 0.00000E+00
 -1       336 8.53500E+00 4.00625E+00 0.00000E+00
 -1       337 9.15000E+00 4.48040E+01 0.00000E+00
 -1       338 1.21500E+01 4.48040E+01 0.00000E+00
 -1       339 1.51500E+01 4.48040E+01 0.00000E+00
 -1       340 1.81500E+01 4.48040E+01 0.00000E+00
 -1       341 2.11500E+01 4.48040E+01 0.00000E+00
 -1       342 2.41500E+01 4.48040E+01 0.00000E+00
 -1       343 2.71500E+01 4.48040E+01 0.00000E+00
 -1       344 3.01500E+01 4.48040E+01 0.00000E+00
 -1       345 3.31500E+01 4.48040E+01 0.00000E+00
 -1       346 3.61500E+01 4.48040E+01 0.00000E+00
 -1       347 3.91500E+01 4.48040E+01 0.00000E+00
 -1       348 4.21500E+01 4.48040E+01 0.00000E+00
 -1       349 4.51500E+01 4.48040E+01 0.00000E+00
 -1       350 4.81500E+01 4.48040E+01 0.00000E+00
 -1       351 5.11500E+01 4.48040E+01 0.00000E+00
 -1       352 5.41500E+01 4.48040E+01 0.00000E+00
 -1       353 5.71500E+01 4.48040E+01 0.00000E+00
 -1       354 6.01500E+01 4.48040E+01 0.00000E+00
 -1       355 6.31500E+01 4.48040E+01 0.00000E+00
 -1       356 6.61500E+01 4.48040E+01 0.00000E+00
 -1       357 6.91500E+01 4.48040E+01 0.00000E+00
 -1       358 7.21500E+01 4.48040E+01 0.00000E+00
 -1       359 7.51500E+01 4.48040E+01 0.00000E+00
 -1       360 7.81500E+01 4.48040E+01 0.00000E+00
 -1       361 8.11500E+01 4.48040E+01 0.00000E+00
 -1       362 8.41500E+01 4.48040E+01 0.00000E+00
 -1       363 8.71500E+01 4.48040E+01 0.00000E+00
 -1       364 9.01500E+01 4.48040E+01 0.00000E+00
 -1       365 9.31500E+01 4.48040E+01 0.00000E+00
 -1       366 9.61500E+01 4.48040E+01 0.00000E+00
 -1       367 9.91500E+01 4.48040E+01 0.00000E+00
 -1       368 1.02150E+02 4.48040E+01 0.00000E+00
 -1       369 1.05150E+02 4.48040E+01 0.00000E+00
 -1       370 1.08150E+02 4.48040E+01 0.00000E+00
 -1       371 1.11150E+02 4.48040E+01 0.00000E+00
 -1       372 1.14150E+02 4.48040E+01 0.00000E+00
 -1       373 1.17150E+02 4.48040E+01 0.00000E+00
 -1       374 1.20150E+02 4.48040E+01 0.00000E+00
 -1       375 1.23150E+02 4.48040E+01 0.00000E+00
 -1       376 1.26150E+02 4.48040E+01 0.00000E+00
 -1       377 1.29150E+02 4.48040E+01 0.00000E+00
 -1       378 1.32150E+02 4.48040E+01 0.00000E+00
 -1       379 1.35150E+02 4.48040E+01 0.00000E+00
 -1       380 1.38150E+02 4.48040E+01 0.00000E+00
 -1       381 1.41150E+02 4.48040E+01 0.00000E+00
 -1       382 1.43838E+02 4.49212E+01 0.00000E+00
 -1       383 1.15350E+01 4.00625E+00 0.00000E+00
 -1       384 1.45350E+01 4.00625E+00 0.00000E+00
 -1       385 1.75350E+01 4.00625E+00 0.00000E+00
 -1       386 2.05350E+01 4.00625E+00 0.00000E+00
 -1       387 2.35350E+01 4.00625E+00 0.00000E+00
 -1       388 2.65350E+01 4.00625E+00 0.00000E+00
 -1       389 2.95350E+01 4.00625E+00 0.00000E+00
 -1       390 3.25350E+01 4.00625E+00 0.00000E+00
 -1       391 3.55350E+01 4.00625E+00 0.00000E+00
 -1       392 3.85350E+01 4.00625E+00 0.00000E+00
 -1       393 4.15350E+01 4.00625E+00 0.00000E+00
 -1       394 4.45350E+01 4.00625E+00 0.00000E+00
 -1       395 4.75350E+01 4.00625E+00 0.00000E+00
 -1       396 5.05350E+01 4.00625E+00 0.00000E+00
 -1       397 5.35350E+01 4.00625E+00 0.00000E+00
 -1       398 5.65350E+01 4.00625E+00 0.00000E+00
 -1       399 5.95350E+01 4.00625E+00 0.00000E+00
 -1       400 6.25350E+01 4.00625E+00 0.00000E+00
 -1       401 6.55350E+01 4.00625E+00 0.00000E+00
 -1       402 6.85350E+01 4.00625E+00 0.00000E+00
 -1       403 7.15350E+01 4.00625E+00 0.00000E+00
 -1       404 7.45350E+01 4.00625E+00 0.00000E+00
 -1       405 7.75350E+01 4.00625E+00 0.00000E+00
 -1       406 8.05350E+01 4.00625E+00 0.00000E+00
 -1       407 8.35350E+01 4.00625E+00 0.00000E+00
 -1       408 8.65350E+01 4.00625E+00 0.00000E+00
 -1       409 8.95350E+01 4.00625E+00 0.00000E+00
 -1       410 9.25350E+01 4.00625E+00 0.00000E+00
 -1       411 9.55350E+01 4.00625E+00 0.00000E+00
 -1       412 9.85350E+01 4.00625E+00 0.00000E+00
 -1       413 1.01535E+02 4.00625E+00 0.00000E+00
 -1       414 1.04535E+02 4.00625E+00 0.00000E+00
 -1       415 1.07535E+02 4.00625E+00 0.00000E+00
 -1       416 1.10535E+02 4.00625E+00 0.00000E+00
 -1       417 1.13535E+02 4.00625E+00 0.00000E+00
 -1       418 1.16535E+02 4.00625E+00 0.00000E+00
 -1       419 1.19535E+02 4.00625E+00 0.00000E+00
 -1       420 1.22535E+02 4.00625E+00 0.00000E+00
 -1       421 1.25535E+02 4.00625E+00 0.00000E+00
 -1       422 1.28535E+02 4.00625E+00 0.00000E+00
 -1       423 1.31535E+02 4.00625E+00 0.00000E+00
 -1       424 1.34535E+02 4.00625E+00 0.00000E+00
 -1       425 1.37535E+02 4.00625E+00 0.00000E+00
 -1       426 1.40535E+02 4.00625E+00 0.00000E+00
 -1       427 1.43535E+02 4.00625E+00 0.00000E+00
 -1       428 1.45469E+02 4.21562E+00 0.00000E+00
 -1       429 1.44804E+02 1.18000E+01 0.00000E+00
 -1       430 1.44804E+02 8.85000E+00 0.00000E+00
 -1       431 1.45136E+02 6.53281E+00 0.00000E+00
 -1       432 1.44804E+02 1.47000E+01 0.00000E+00
 -1       433 1.44804E+02 1.76500E+01 0.00000E+00
 -1       434 1.44804E+02 2.06000E+01 0.00000E+00
 -1       435 1.44804E+02 2.35500E+01 0.00000E+00
 -1       436 1.44804E+02 2.65000E+01 0.00000E+00
 -1       437 1.44804E+02 2.94500E+01 0.00000E+00
 -1       438 1.44804E+02 3.23500E+01 0.00000E+00
 -1       439 1.44804E+02 3.53000E+01 0.00000E+00
 -1       440 1.44804E+02 3.82500E+01 0.00000E+00
 -1       441 1.44804E+02 4.12000E+01 0.00000E+00
 -1       442 9.90579E+01 2.56732E+01 0.00000E+00
 -1       443 9.98539E+01 2.94052E+01 0.00000E+00
 -1       444 9.96625E+01 2.76899E+01 0.00000E+00
 -1       445 9.78049E+01 2.36254E+01 0.00000E+00
 -1       446 9.63421E+01 2.22951E+01 0.00000E+00
 -1       447 5.19600E+00 3.82125E+01 0.00000E+00
 -1       448 9.30173E+01 2.02449E+01 0.00000E+00
 -1       449 9.09534E+01 2.00420E+01 0.00000E+00
 -1       450 8.89984E+01 1.99466E+01 0.00000E+00
 -1       451 8.69098E+01 2.05184E+01 0.00000E+00
 -1       452 8.51089E+01 2.14718E+01 0.00000E+00
 -1       453 8.36113E+01 2.25751E+01 0.00000E+00
 -1       454 8.19256E+01 2.42023E+01 0.00000E+00
 -1       455 8.13248E+01 2.60806E+01 0.00000E+00
 -1       456 8.06286E+01 2.79918E+01 0.00000E+00
 -1       457 8.03984E+01 2.99850E+01 0.00000E+00
 -1       458 8.06682E+01 3.21821E+01 0.00000E+00
 -1       459 8.14182E+01 3.36389E+01 0.00000E+00
 -1       460 8.25495E+01 3.55761E+01 0.00000E+00
 -1       461 8.37627E+01 3.67885E+01 0.00000E+00
 -1       462 8.57531E+01 3.80638E+01 0.00000E+00
 -1       463 8.74462E+01 3.86036E+01 0.00000E+00
 -1       464 8.94823E+01 3.91279E+01 0.00000E+00
 -1       465 9.13662E+01 3.88588E+01 0.00000E+00
 -1       466 9.31635E+01 3.86017E+01 0.00000E+00
 -1       467 9.52016E+01 3.77339E+01 0.00000E+00
 -1       468 9.64787E+01 3.64617E+01 0.00000E+00
 -1       469 9.77330E+01 3.52885E+01 0.00000E+00
 -1       470 9.91058E+01 3.32157E+01 0.00000E+00
 -1       471 9.96172E+01 3.15877E+01 0.00000E+00
 -1       472 9.46733E+01 2.12730E+01 0.00000E+00
 -1       473 9.94049E+01 2.40502E+01 0.00000E+00
 -1       474 9.93583E+01 3.47638E+01 0.00000E+00
 -1       475 1.00350E+01 6.60425E+00 0.00000E+00
 -1       476 7.79400E+00 3.08500E+01 0.00000E+00
 -1       477 7.79400E+00 3.38000E+01 0.00000E+00
 -1       478 7.79400E+00 2.49500E+01 0.00000E+00
 -1       479 7.79400E+00 2.20000E+01 0.00000E+00
 -1       480 7.79400E+00 1.91000E+01 0.00000E+00
 -1       481 7.79400E+00 1.61500E+01 0.00000E+00
 -1       482 7.79400E+00 1.32000E+01 0.00000E+00
 -1       483 7.79400E+00 1.02500E+01 0.00000E+00
 -1       484 1.30350E+01 6.60425E+00 0.00000E+00
 -1       485 1.06500E+01 4.22060E+01 0.00000E+00
 -1       486 9.49268E+01 1.90171E+01 0.00000E+00
 -1       487 1.36500E+01 4.22060E+01 0.00000E+00
 -1       488 1.66500E+01 4.22060E+01 0.00000E+00
 -1       489 1.96500E+01 4.22060E+01 0.00000E+00
 -1       490 2.26500E+01 4.22060E+01 0.00000E+00
 -1       491 2.56500E+01 4.22060E+01 0.00000E+00
 -1       492 2.86500E+01 4.22060E+01 0.00000E+00
 -1       493 3.16500E+01 4.22060E+01 0.00000E+00
 -1       494 3.46500E+01 4.22060E+01 0.00000E+00
 -1       495 3.76500E+01 4.22060E+01 0.00000E+00
 -1       496 4.06500E+01 4.22060E+01 0.00000E+00
 -1       497 4.36500E+01 4.22060E+01 0.00000E+00
 -1       498 4.66500E+01 4.22060E+01 0.00000E+00
 -1       499 4.96500E+01 4.22060E+01 0.00000E+00
 -1       500 5.26500E+01 4.22060E+01 0.00000E+00
 -1       501 5.56500E+01 4.22060E+01 0.00000E+00
 -1       502 5.86500E+01 4.22060E+01 0.00000E+00
 -1       503 6.16500E+01 4.22060E+01 0.00000E+00
 -1       504 6.46500E+01 4.22060E+01 0.00000E+00
 -1       505 6.76500E+01 4.22060E+01 0.00000E+00
 -1       506 7.06500E+01 4.22060E+01 0.00000E+00
 -1       507 7.36500E+01 4.22060E+01 0.00000E+00
 -1       508 7.66500E+01 4.22060E+01 0.00000E+00
 -1       509 7.96500E+01 4.22060E+01 0.00000E+00
 -1       510 8.26500E+01 4.22060E+01 0.00000E+00
 -1       511 8.56500E+01 4.22060E+01 0.00000E+00
 -1       512 8.86500E+01 4.22060E+01 0.00000E+00
 -1       513 9.16500E+01 4.22060E+01 0.00000E+00
 -1       514 9.46500E+01 4.22060E+01 0.00000E+00
 -1       515 9.76500E+01 4.22060E+01 0.00000E+00
 -1       516 1.00650E+02 4.22060E+01 0.00000E+00
 -1       517 1.03650E+02 4.22060E+01 0.00000E+00
 -1       518 1.06650E+02 4.22060E+01 0.00000E+00
 -1       519 1.09650E+02 4.22060E+01 0.00000E+00
 -1       520 1.12650E+02 4.22060E+01 0.00000E+00
 -1       521 1.15650E+02 4.22060E+01 0.00000E+00
 -1       522 1.18650E+02 4.22060E+01 0.00000E+00
 -1       523 1.21650E+02 4.22060E+01 0.00000E+00
 -1       524 1.24650E+02 4.22060E+01 0.00000E+00
 -1       525 1.27650E+02 4.22060E+01 0.00000E+00
 -1       526 1.30650E+02 4.22060E+01 0.00000E+00
 -1       527 1.33650E+02 4.22060E+01 0.00000E+00
 -1       528 1.36650E+02 4.22060E+01 0.00000E+00
 -1       529 1.39650E+02 4.22060E+01 0.00000E+00
 -1       530 1.90350E+01 6.60425E+00 0.00000E+00
 -1       531 2.20350E+01 6.60425E+00 0.00000E+00
 -1       532 2.50350E+01 6.60425E+00 0.00000E+00
 -1       533 2.80350E+01 6.60425E+00 0.00000E+00
 -1       534 3.10350E+01 6.60425E+00 0.00000E+00
 -1       535 3.40350E+01 6.60425E+00 0.00000E+00
 -1       536 3.70350E+01 6.60425E+00 0.00000E+00
 -1       537 4.00350E+01 6.60425E+00 0.00000E+00
 -1       538 4.30350E+01 6.60425E+00 0.00000E+00
 -1       539 4.60350E+01 6.60425E+00 0.00000E+00
 -1       540 4.90350E+01 6.60425E+00 0.00000E+00
 -1       541 5.20350E+01 6.60425E+00 0.00000E+00
 -1       542 5.50350E+01 6.60425E+00 0.00000E+00
 -1       543 5.80350E+01 6.60425E+00 0.00000E+00
 -1       544 6.10350E+01 6.60425E+00 0.00000E+00
 -1       545 6.40350E+01 6.60425E+00 0.00000E+00
 -1       546 6.70350E+01 6.60425E+00 0.00000E+00
 -1       547 7.00350E+01 6.60425E+00 0.00000E+00
 -1       548 7.30350E+01 6.60425E+00 0.00000E+00
 -1       549 7.60350E+01 6.60425E+00 0.00000E+00
 -1       550 7.90350E+01 6.60425E+00 0.00000E+00
 -1       551 8.20350E+01 6.60425E+00 0.00000E+00
 -1       552 8.50350E+01 6.60425E+00 0.00000E+00
 -1       553 8.80350E+01 6.60425E+00 0.00000E+00
 -1       554 9.10350E+01 6.60425E+00 0.00000E+00
 -1       555 9.40350E+01 6.60425E+00 0.00000E+00
 -1       556 9.70350E+01 6.60425E+00 0.00000E+00
 -1       557 1.00035E+02 6.60425E+00 0.00000E+00
 -1       558 1.03035E+02 6.60425E+00 0.00000E+00
 -1       559 1.06035E+02 6.60425E+00 0.00000E+00
 -1       560 1.09035E+02 6.60425E+00 0.00000E+00
 -1       561 1.12035E+02 6.60425E+00 0.00000E+00
 -1       562 1.15035E+02 6.60425E+00 0.00000E+00
 -1       563 1.18035E+02 6.60425E+00 0.00000E+00
 -1       564 1.21035E+02 6.60425E+00 0.00000E+00
 -1       565 1.24035E+02 6.60425E+00 0.00000E+00
 -1       566 1.27035E+02 6.60425E+00 0.00000E+00
 -1       567 1.30035E+02 6.60425E+00 0.00000E+00
 -1       568 1.33035E+02 6.60425E+00 0.00000E+00
 -1       569 1.36035E+02 6.60425E+00 0.00000E+00
 -1       570 1.39035E+02 6.60425E+00 0.00000E+00
 -1       571 1.42035E+02 6.60425E+00 0.00000E+00
 -1       572 1.42206E+02 1.61750E+01 0.00000E+00
 -1       573 1.42206E+02 1.91250E+01 0.00000E+00
 -1       574 1.42206E+02 1.03250E+01 0.00000E+00
 -1       575 1.42206E+02 1.32500E+01 0.00000E+00
 -1       576 1.42206E+02 2.20750E+01 0.00000E+00
 -1       577 1.42206E+02 2.50250E+01 0.00000E+00
 -1       578 1.42206E+02 2.79750E+01 0.00000E+00
 -1       579 1.42206E+02 3.08750E+01 0.00000E+00
 -1       580 1.42206E+02 3.38250E+01 0.00000E+00
 -1       581 1.42206E+02 3.67750E+01 0.00000E+00
 -1       582 1.42206E+02 3.97250E+01 0.00000E+00
 -1       583 1.01441E+02 3.06813E+01 0.00000E+00
 -1       584 1.60350E+01 6.60425E+00 0.00000E+00
 -1       585 1.01296E+02 2.83760E+01 0.00000E+00
 -1       586 9.81711E+01 2.17534E+01 0.00000E+00
 -1       587 1.00843E+02 2.62371E+01 0.00000E+00
 -1       588 7.88310E+01 3.12926E+01 0.00000E+00
 -1       589 7.79400E+00 2.79000E+01 0.00000E+00
 -1       590 9.00513E+01 1.84486E+01 0.00000E+00
 -1       591 8.61550E+01 3.97283E+01 0.00000E+00
 -1       592 9.21368E+01 1.86033E+01 0.00000E+00
 -1       593 8.75676E+01 1.88207E+01 0.00000E+00
 -1       594 8.51285E+01 1.93312E+01 0.00000E+00
 -1       595 8.34919E+01 2.08450E+01 0.00000E+00
 -1       596 8.17518E+01 2.23356E+01 0.00000E+00
 -1       597 7.99916E+01 2.46189E+01 0.00000E+00
 -1       598 7.92955E+01 2.65301E+01 0.00000E+00
 -1       599 7.89762E+01 2.88109E+01 0.00000E+00
 -1       600 7.96672E+01 3.36188E+01 0.00000E+00
 -1       601 8.05751E+01 3.54302E+01 0.00000E+00
 -1       602 8.20622E+01 3.72770E+01 0.00000E+00
 -1       603 8.38778E+01 3.87997E+01 0.00000E+00
 -1       604 8.81912E+01 4.02526E+01 0.00000E+00
 -1       605 9.06312E+01 4.04424E+01 0.00000E+00
 -1       606 9.24286E+01 4.01853E+01 0.00000E+00
 -1       607 9.48217E+01 3.96687E+01 0.00000E+00
 -1       608 9.71689E+01 3.84316E+01 0.00000E+00
 -1       609 9.84231E+01 3.72584E+01 0.00000E+00
 -1       610 1.01318E+02 3.30162E+01 0.00000E+00
 -1       611 7.92300E+00 4.16780E+01 0.00000E+00
 -1       612 7.61550E+00 6.21462E+00 0.00000E+00
 -1       613 9.65490E+01 2.03853E+01 0.00000E+00
 -1       614 7.79400E+00 3.67375E+01 0.00000E+00
 -1       615 9.97711E+01 2.21782E+01 0.00000E+00
 -1       616 1.41678E+02 4.22645E+01 0.00000E+00
 -1       617 1.01190E+02 2.46141E+01 0.00000E+00
 -1       618 7.98179E+01 2.27521E+01 0.00000E+00
 -1       619 1.03920E+01 2.05500E+01 0.00000E+00
 -1       620 1.03920E+01 2.35000E+01 0.00000E+00
 -1       621 1.03920E+01 1.46750E+01 0.00000E+00
 -1       622 1.03920E+01 1.17250E+01 0.00000E+00
 -1       623 1.15350E+01 9.20225E+00 0.00000E+00
 -1       624 1.03075E+02 2.68811E+01 0.00000E+00
 -1       625 1.45350E+01 9.20225E+00 0.00000E+00
 -1       626 9.12086E+01 1.69826E+01 0.00000E+00
 -1       627 1.51500E+01 3.96080E+01 0.00000E+00
 -1       628 1.81500E+01 3.96080E+01 0.00000E+00
 -1       629 2.11500E+01 3.96080E+01 0.00000E+00
 -1       630 2.41500E+01 3.96080E+01 0.00000E+00
 -1       631 2.71500E+01 3.96080E+01 0.00000E+00
 -1       632 3.01500E+01 3.96080E+01 0.00000E+00
 -1       633 3.31500E+01 3.96080E+01 0.00000E+00
 -1       634 3.61500E+01 3.96080E+01 0.00000E+00
 -1       635 3.91500E+01 3.96080E+01 0.00000E+00
 -1       636 4.21500E+01 3.96080E+01 0.00000E+00
 -1       637 4.51500E+01 3.96080E+01 0.00000E+00
 -1       638 4.81500E+01 3.96080E+01 0.00000E+00
 -1       639 5.11500E+01 3.96080E+01 0.00000E+00
 -1       640 5.41500E+01 3.96080E+01 0.00000E+00
 -1       641 5.71500E+01 3.96080E+01 0.00000E+00
 -1       642 6.01500E+01 3.96080E+01 0.00000E+00
 -1       643 6.31500E+01 3.96080E+01 0.00000E+00
 -1       644 6.61500E+01 3.96080E+01 0.00000E+00
 -1       645 6.91500E+01 3.96080E+01 0.00000E+00
 -1       646 7.21500E+01 3.96080E+01 0.00000E+00
 -1       647 7.51500E+01 3.96080E+01 0.00000E+00
 -1       648 7.81500E+01 3.96080E+01 0.00000E+00
 -1       649 9.91500E+01 3.96080E+01 0.00000E+00
 -1       650 1.02150E+02 3.96080E+01 0.00000E+00
 -1       651 1.05150E+02 3.96080E+01 0.00000E+00
 -1       652 1.08150E+02 3.96080E+01 0.00000E+00
 -1       653 1.11150E+02 3.96080E+01 0.00000E+00
 -1       654 1.14150E+02 3.96080E+01 0.00000E+00
 -1       655 1.17150E+02 3.96080E+01 0.00000E+00
 -1       656 1.20150E+02 3.96080E+01 0.00000E+00
 -1       657 1.23150E+02 3.96080E+01 0.00000E+00
 -1       658 1.26150E+02 3.96080E+01 0.00000E+00
 -1       659 1.29150E+02 3.96080E+01 0.00000E+00
 -1       660 1.32150E+02 3.96080E+01 0.00000E+00
 -1       661 1.35150E+02 3.96080E+01 0.00000E+00
 -1       662 1.38150E+02 3.96080E+01 0.00000E+00
 -1       663 2.35350E+01 9.20225E+00 0.00000E+00
 -1       664 2.05350E+01 9.20225E+00 0.00000E+00
 -1       665 2.95350E+01 9.20225E+00 0.00000E+00
 -1       666 3.25350E+01 9.20225E+00 0.00000E+00
 -1       667 3.55350E+01 9.20225E+00 0.00000E+00
 -1       668 3.85350E+01 9.20225E+00 0.00000E+00
 -1       669 4.15350E+01 9.20225E+00 0.00000E+00
 -1       670 4.45350E+01 9.20225E+00 0.00000E+00
 -1       671 4.75350E+01 9.20225E+00 0.00000E+00
 -1       672 5.05350E+01 9.20225E+00 0.00000E+00
 -1       673 5.35350E+01 9.20225E+00 0.00000E+00
 -1       674 5.65350E+01 9.20225E+00 0.00000E+00
 -1       675 5.95350E+01 9.20225E+00 0.00000E+00
 -1       676 6.25350E+01 9.20225E+00 0.00000E+00
 -1       677 6.55350E+01 9.20225E+00 0.00000E+00
 -1       678 6.85350E+01 9.20225E+00 0.00000E+00
 -1       679 7.15350E+01 9.20225E+00 0.00000E+00
 -1       680 7.45350E+01 9.20225E+00 0.00000E+00
 -1       681 7.75350E+01 9.20225E+00 0.00000E+00
 -1       682 8.05350E+01 9.20225E+00 0.00000E+00
 -1       683 8.35350E+01 9.20225E+00 0.00000E+00
 -1       684 8.65350E+01 9.20225E+00 0.00000E+00
 -1       685 8.95350E+01 9.20225E+00 0.00000E+00
 -1       686 9.25350E+01 9.20225E+00 0.00000E+00
 -1       687 9.55350E+01 9.20225E+00 0.00000E+00
 -1       688 9.85350E+01 9.20225E+00 0.00000E+00
 -1       689 1.01535E+02 9.20225E+00 0.00000E+00
 -1       690 1.04535E+02 9.20225E+00 0.00000E+00
 -1       691 1.07535E+02 9.20225E+00 0.00000E+00
 -1       692 1.10535E+02 9.20225E+00 0.00000E+00
 -1       693 1.13535E+02 9.20225E+00 0.00000E+00
 -1       694 1.16535E+02 9.20225E+00 0.00000E+00
 -1       695 1.19535E+02 9.20225E+00 0.00000E+00
 -1       696 1.22535E+02 9.20225E+00 0.00000E+00
 -1       697 1.25535E+02 9.20225E+00 0.00000E+00
 -1       698 1.28535E+02 9.20225E+00 0.00000E+00
 -1       699 1.31535E+02 9.20225E+00 0.00000E+00
 -1       700 1.34535E+02 9.20225E+00 0.00000E+00
 -1       701 1.37535E+02 9.20225E+00 0.00000E+00
 -1       702 1.39870E+02 9.76363E+00 0.00000E+00
 -1       703 1.39608E+02 2.35500E+01 0.00000E+00
 -1       704 1.40178E+02 3.96665E+01 0.00000E+00
 -1       705 1.39608E+02 1.76500E+01 0.00000E+00
 -1       706 1.39608E+02 2.65000E+01 0.00000E+00
 -1       707 1.39608E+02 2.06000E+01 0.00000E+00
 -1       708 1.39608E+02 2.94000E+01 0.00000E+00
 -1       709 1.39608E+02 3.23500E+01 0.00000E+00
 -1       710 1.39608E+02 3.53000E+01 0.00000E+00
 -1       711 1.75350E+01 9.20225E+00 0.00000E+00
 -1       712 1.01424E+02 3.51074E+01 0.00000E+00
 -1       713 8.18678E+01 3.93524E+01 0.00000E+00
 -1       714 8.41451E+01 4.02810E+01 0.00000E+00
 -1       715 2.65350E+01 9.20225E+00 0.00000E+00
 -1       716 1.21500E+01 3.96080E+01 0.00000E+00
 -1       717 1.03920E+01 1.76125E+01 0.00000E+00
 -1       718 1.03920E+01 3.23250E+01 0.00000E+00
 -1       719 1.03247E+02 2.94109E+01 0.00000E+00
 -1       720 8.85305E+01 1.67727E+01 0.00000E+00
 -1       721 7.77140E+01 3.30076E+01 0.00000E+00
 -1       722 8.59623E+01 1.72332E+01 0.00000E+00
 -1       723 8.31456E+01 1.88290E+01 0.00000E+00
 -1       724 8.14055E+01 2.03196E+01 0.00000E+00
 -1       725 7.78746E+01 2.49301E+01 0.00000E+00
 -1       726 7.99828E+01 3.74293E+01 0.00000E+00
 -1       727 9.37834E+01 1.71137E+01 0.00000E+00
 -1       728 7.74373E+01 2.74327E+01 0.00000E+00
 -1       729 7.85879E+01 3.52930E+01 0.00000E+00
 -1       730 7.70241E+01 2.99418E+01 0.00000E+00
 -1       731 1.03092E+02 3.19391E+01 0.00000E+00
 -1       732 1.03920E+01 3.52625E+01 0.00000E+00
 -1       733 1.03920E+01 2.64500E+01 0.00000E+00
 -1       734 9.67896E+01 1.84542E+01 0.00000E+00
 -1       735 9.94542E+01 2.01462E+01 0.00000E+00
 -1       736 1.39608E+02 1.47250E+01 0.00000E+00
 -1       737 1.03422E+02 2.52581E+01 0.00000E+00
 -1       738 1.05210E+01 3.87342E+01 0.00000E+00
 -1       739 1.39739E+02 1.22443E+01 0.00000E+00
 -1       740 7.94716E+01 2.07362E+01 0.00000E+00
 -1       741 1.01556E+02 2.27421E+01 0.00000E+00
 -1       742 7.77008E+01 2.30634E+01 0.00000E+00
 -1       743 7.59071E+01 3.16567E+01 0.00000E+00
 -1       744 1.03198E+02 3.40303E+01 0.00000E+00
 -1       745 1.03920E+01 2.93875E+01 0.00000E+00
 -1       746 9.56462E+01 1.65507E+01 0.00000E+00
 -1       747 8.39794E+01 1.67310E+01 0.00000E+00
 -1       748 1.00497E+02 3.66131E+01 0.00000E+00
 -1       749 1.05207E+02 2.80066E+01 0.00000E+00
 -1       750 1.29900E+01 1.32000E+01 0.00000E+00
 -1       751 9.00036E+01 1.51678E+01 0.00000E+00
 -1       752 1.96500E+01 3.70100E+01 0.00000E+00
 -1       753 2.26500E+01 3.70100E+01 0.00000E+00
 -1       754 2.56500E+01 3.70100E+01 0.00000E+00
 -1       755 2.86500E+01 3.70100E+01 0.00000E+00
 -1       756 3.16500E+01 3.70100E+01 0.00000E+00
 -1       757 3.46500E+01 3.70100E+01 0.00000E+00
 -1       758 3.76500E+01 3.70100E+01 0.00000E+00
 -1       759 4.06500E+01 3.70100E+01 0.00000E+00
 -1       760 4.36500E+01 3.70100E+01 0.00000E+00
 -1       761 4.66500E+01 3.70100E+01 0.00000E+00
 -1       762 4.96500E+01 3.70100E+01 0.00000E+00
 -1       763 5.26500E+01 3.70100E+01 0.00000E+00
 -1       764 5.56500E+01 3.70100E+01 0.00000E+00
 -1       765 5.86500E+01 3.70100E+01 0.00000E+00
 -1       766 6.16500E+01 3.70100E+01 0.00000E+00
 -1       767 6.46500E+01 3.70100E+01 0.00000E+00
 -1       768 6.76500E+01 3.70100E+01 0.00000E+00
 -1       769 7.06500E+01 3.70100E+01 0.00000E+00
 -1       770 7.36500E+01 3.70100E+01 0.00000E+00
 -1       771 7.68164E+01 3.72196E+01 0.00000E+00
 -1       772 1.36500E+01 3.70100E+01 0.00000E+00
 -1       773 1.03650E+02 3.73902E+01 0.00000E+00
 -1       774 1.06650E+02 3.73902E+01 0.00000E+00
 -1       775 1.09650E+02 3.73902E+01 0.00000E+00
 -1       776 1.12650E+02 3.73902E+01 0.00000E+00
 -1       777 1.15650E+02 3.73902E+01 0.00000E+00
 -1       778 1.18650E+02 3.73902E+01 0.00000E+00
 -1       779 1.21650E+02 3.73902E+01 0.00000E+00
 -1       780 1.24650E+02 3.73902E+01 0.00000E+00
 -1       781 1.27650E+02 3.73902E+01 0.00000E+00
 -1       782 1.30650E+02 3.73902E+01 0.00000E+00
 -1       783 1.33650E+02 3.73902E+01 0.00000E+00
 -1       784 1.36650E+02 3.73902E+01 0.00000E+00
 -1       785 7.59664E+01 2.58862E+01 0.00000E+00
 -1       786 3.40350E+01 1.18003E+01 0.00000E+00
 -1       787 3.10350E+01 1.18003E+01 0.00000E+00
 -1       788 4.00350E+01 1.18003E+01 0.00000E+00
 -1       789 4.30350E+01 1.18003E+01 0.00000E+00
 -1       790 4.60350E+01 1.18003E+01 0.00000E+00
 -1       791 4.90350E+01 1.18003E+01 0.00000E+00
 -1       792 5.20350E+01 1.18003E+01 0.00000E+00
 -1       793 5.50350E+01 1.18003E+01 0.00000E+00
 -1       794 5.80350E+01 1.18003E+01 0.00000E+00
 -1       795 6.10350E+01 1.18003E+01 0.00000E+00
 -1       796 6.40350E+01 1.18003E+01 0.00000E+00
 -1       797 6.70350E+01 1.18003E+01 0.00000E+00
 -1       798 7.00350E+01 1.18003E+01 0.00000E+00
 -1       799 7.30350E+01 1.18003E+01 0.00000E+00
 -1       800 7.60350E+01 1.18003E+01 0.00000E+00
 -1       801 7.90350E+01 1.18003E+01 0.00000E+00
 -1       802 8.20350E+01 1.18003E+01 0.00000E+00
 -1       803 8.50350E+01 1.18003E+01 0.00000E+00
 -1       804 8.80350E+01 1.18003E+01 0.00000E+00
 -1       805 9.10350E+01 1.18003E+01 0.00000E+00
 -1       806 9.40350E+01 1.18003E+01 0.00000E+00
 -1       807 9.70350E+01 1.18003E+01 0.00000E+00
 -1       808 1.00035E+02 1.18003E+01 0.00000E+00
 -1       809 1.03035E+02 1.18003E+01 0.00000E+00
 -1       810 1.06035E+02 1.18003E+01 0.00000E+00
 -1       811 1.09035E+02 1.18003E+01 0.00000E+00
 -1       812 1.12035E+02 1.18003E+01 0.00000E+00
 -1       813 1.15035E+02 1.18003E+01 0.00000E+00
 -1       814 1.18035E+02 1.18003E+01 0.00000E+00
 -1       815 1.21035E+02 1.18003E+01 0.00000E+00
 -1       816 1.24035E+02 1.18003E+01 0.00000E+00
 -1       817 1.27035E+02 1.18003E+01 0.00000E+00
 -1       818 1.30035E+02 1.18003E+01 0.00000E+00
 -1       819 1.33035E+02 1.18003E+01 0.00000E+00
 -1       820 1.36035E+02 1.18003E+01 0.00000E+00
 -1       821 1.37887E+02 1.20223E+01 0.00000E+00
 -1       822 1.29900E+01 2.20250E+01 0.00000E+00
 -1       823 1.37010E+02 3.38250E+01 0.00000E+00
 -1       824 1.37010E+02 2.50250E+01 0.00000E+00
 -1       825 1.01239E+02 2.07101E+01 0.00000E+00
 -1       826 1.37010E+02 3.08750E+01 0.00000E+00
 -1       827 3.70350E+01 1.18003E+01 0.00000E+00
 -1       828 1.05216E+02 3.08010E+01 0.00000E+00
 -1       829 8.68846E+01 1.49849E+01 0.00000E+00
 -1       830 2.20350E+01 1.18003E+01 0.00000E+00
 -1       831 1.37625E+01 1.12011E+01 0.00000E+00
 -1       832 1.66500E+01 3.70100E+01 0.00000E+00
 -1       833 1.20210E+01 3.61362E+01 0.00000E+00
 -1       834 7.59425E+01 3.49342E+01 0.00000E+00
 -1       835 8.08327E+01 1.78900E+01 0.00000E+00
 -1       836 7.55384E+01 2.84086E+01 0.00000E+00
 -1       837 9.99695E+01 3.85734E+01 0.00000E+00
 -1       838 9.26087E+01 1.48332E+01 0.00000E+00
 -1       839 1.37010E+02 2.79500E+01 0.00000E+00
 -1       840 9.92210E+01 1.75694E+01 0.00000E+00
 -1       841 1.29900E+01 2.49750E+01 0.00000E+00
 -1       842 1.29900E+01 1.61375E+01 0.00000E+00
 -1       843 1.67625E+01 1.12011E+01 0.00000E+00
 -1       844 1.29900E+01 1.90812E+01 0.00000E+00
 -1       845 2.50350E+01 1.18003E+01 0.00000E+00
 -1       846 1.01006E+02 1.81333E+01 0.00000E+00
 -1       847 1.05554E+02 2.63836E+01 0.00000E+00
 -1       848 1.20210E+01 3.31987E+01 0.00000E+00
 -1       849 7.57926E+01 2.40195E+01 0.00000E+00
 -1       850 1.05322E+02 3.28922E+01 0.00000E+00
 -1       851 1.03788E+02 2.33861E+01 0.00000E+00
 -1       852 2.80350E+01 1.18003E+01 0.00000E+00
 -1       853 1.37010E+02 1.91250E+01 0.00000E+00
 -1       854 1.37010E+02 2.20750E+01 0.00000E+00
 -1       855 1.93988E+01 1.15007E+01 0.00000E+00
 -1       856 1.20210E+01 3.02612E+01 0.00000E+00
 -1       857 1.37010E+02 1.62000E+01 0.00000E+00
 -1       858 9.80776E+01 1.56659E+01 0.00000E+00
 -1       859 7.44214E+01 3.01235E+01 0.00000E+00
 -1       860 1.81500E+01 3.44120E+01 0.00000E+00
 -1       861 4.75350E+01 1.43982E+01 0.00000E+00
 -1       862 2.41500E+01 3.44120E+01 0.00000E+00
 -1       863 2.71500E+01 3.44120E+01 0.00000E+00
 -1       864 3.01500E+01 3.44120E+01 0.00000E+00
 -1       865 3.31500E+01 3.44120E+01 0.00000E+00
 -1       866 3.61500E+01 3.44120E+01 0.00000E+00
 -1       867 3.91500E+01 3.44120E+01 0.00000E+00
 -1       868 4.21500E+01 3.44120E+01 0.00000E+00
 -1       869 4.51500E+01 3.44120E+01 0.00000E+00
 -1       870 4.81500E+01 3.44120E+01 0.00000E+00
 -1       871 5.11500E+01 3.44120E+01 0.00000E+00
 -1       872 5.41500E+01 3.44120E+01 0.00000E+00
 -1       873 5.71500E+01 3.44120E+01 0.00000E+00
 -1       874 6.01500E+01 3.44120E+01 0.00000E+00
 -1       875 6.31500E+01 3.44120E+01 0.00000E+00
 -1       876 6.61500E+01 3.44120E+01 0.00000E+00
 -1       877 6.91500E+01 3.44120E+01 0.00000E+00
 -1       878 7.21500E+01 3.44120E+01 0.00000E+00
 -1       879 1.08150E+02 3.47922E+01 0.00000E+00
 -1       880 1.11150E+02 3.47922E+01 0.00000E+00
 -1       881 1.14150E+02 3.47922E+01 0.00000E+00
 -1       882 1.17150E+02 3.47922E+01 0.00000E+00
 -1       883 1.20150E+02 3.47922E+01 0.00000E+00
 -1       884 1.23150E+02 3.47922E+01 0.00000E+00
 -1       885 1.26150E+02 3.47922E+01 0.00000E+00
 -1       886 1.29150E+02 3.47922E+01 0.00000E+00
 -1       887 1.32150E+02 3.47922E+01 0.00000E+00
 -1       888 1.34580E+02 3.43086E+01 0.00000E+00
 -1       889 4.45350E+01 1.43982E+01 0.00000E+00
 -1       890 4.15350E+01 1.43982E+01 0.00000E+00
 -1       891 5.05350E+01 1.43982E+01 0.00000E+00
 -1       892 5.35350E+01 1.43982E+01 0.00000E+00
 -1       893 5.65350E+01 1.43982E+01 0.00000E+00
 -1       894 5.95350E+01 1.43982E+01 0.00000E+00
 -1       895 6.25350E+01 1.43982E+01 0.00000E+00
 -1       896 6.55350E+01 1.43982E+01 0.00000E+00
 -1       897 6.85350E+01 1.43982E+01 0.00000E+00
 -1       898 7.15350E+01 1.43982E+01 0.00000E+00
 -1       899 7.45350E+01 1.43982E+01 0.00000E+00
 -1       900 7.75350E+01 1.43982E+01 0.00000E+00
 -1       901 8.05350E+01 1.43982E+01 0.00000E+00
 -1       902 1.01535E+02 1.43982E+01 0.00000E+00
 -1       903 1.04535E+02 1.43982E+01 0.00000E+00
 -1       904 1.07535E+02 1.43982E+01 0.00000E+00
 -1       905 1.10535E+02 1.43982E+01 0.00000E+00
 -1       906 1.13535E+02 1.43982E+01 0.00000E+00
 -1       907 1.16535E+02 1.43982E+01 0.00000E+00
 -1       908 1.19535E+02 1.43982E+01 0.00000E+00
 -1       909 1.22535E+02 1.43982E+01 0.00000E+00
 -1       910 1.25535E+02 1.43982E+01 0.00000E+00
 -1       911 1.28535E+02 1.43982E+01 0.00000E+00
 -1       912 1.31535E+02 1.43982E+01 0.00000E+00
 -1       913 1.34535E+02 1.43982E+01 0.00000E+00
 -1       914 7.70879E+01 2.07598E+01 0.00000E+00
 -1       915 1.03471E+02 2.13541E+01 0.00000E+00
 -1       916 1.43355E+01 3.51044E+01 0.00000E+00
 -1       917 7.40422E+01 3.33158E+01 0.00000E+00
 -1       918 1.34580E+02 3.13586E+01 0.00000E+00
 -1       919 7.38962E+01 2.68324E+01 0.00000E+00
 -1       920 1.25055E+01 2.76181E+01 0.00000E+00
 -1       921 3.25350E+01 1.43982E+01 0.00000E+00
 -1       922 1.59900E+01 1.32000E+01 0.00000E+00
 -1       923 8.17554E+01 1.55438E+01 0.00000E+00
 -1       924 2.11500E+01 3.44120E+01 0.00000E+00
 -1       925 7.84490E+01 1.79136E+01 0.00000E+00
 -1       926 1.07429E+02 2.93964E+01 0.00000E+00
 -1       927 1.37449E+02 1.41111E+01 0.00000E+00
 -1       928 3.85350E+01 1.43982E+01 0.00000E+00
 -1       929 2.95350E+01 1.43982E+01 0.00000E+00
 -1       930 9.98622E+01 1.62298E+01 0.00000E+00
 -1       931 1.05920E+02 2.45116E+01 0.00000E+00
 -1       932 1.34412E+02 1.76625E+01 0.00000E+00
 -1       933 7.37225E+01 2.49657E+01 0.00000E+00
 -1       934 3.55350E+01 1.43982E+01 0.00000E+00
 -1       935 1.07535E+02 3.14876E+01 0.00000E+00
 -1       936 1.46190E+01 3.17300E+01 0.00000E+00
 -1       937 9.85350E+01 1.43982E+01 0.00000E+00
 -1       938 7.51797E+01 2.17158E+01 0.00000E+00
 -1       939 1.34412E+02 2.35500E+01 0.00000E+00
 -1       940 2.04235E+01 1.42319E+01 0.00000E+00
 -1       941 1.34580E+02 2.84336E+01 0.00000E+00
 -1       942 7.27792E+01 2.85474E+01 0.00000E+00
 -1       943 1.03238E+02 1.87773E+01 0.00000E+00
 -1       944 1.07776E+02 2.77734E+01 0.00000E+00
 -1       945 1.34412E+02 2.06063E+01 0.00000E+00
 -1       946 1.55880E+01 2.05531E+01 0.00000E+00
 -1       947 1.34496E+02 2.59918E+01 0.00000E+00
 -1       948 1.55880E+01 2.35031E+01 0.00000E+00
 -1       949 2.34235E+01 1.42319E+01 0.00000E+00
 -1       950 1.55880E+01 1.76094E+01 0.00000E+00
 -1       951 7.18630E+01 3.14384E+01 0.00000E+00
 -1       952 2.86500E+01 3.18140E+01 0.00000E+00
 -1       953 3.16500E+01 3.18140E+01 0.00000E+00
 -1       954 3.46500E+01 3.18140E+01 0.00000E+00
 -1       955 3.76500E+01 3.18140E+01 0.00000E+00
 -1       956 4.06500E+01 3.18140E+01 0.00000E+00
 -1       957 4.36500E+01 3.18140E+01 0.00000E+00
 -1       958 4.66500E+01 3.18140E+01 0.00000E+00
 -1       959 4.96500E+01 3.18140E+01 0.00000E+00
 -1       960 5.26500E+01 3.18140E+01 0.00000E+00
 -1       961 5.56500E+01 3.18140E+01 0.00000E+00
 -1       962 5.86500E+01 3.18140E+01 0.00000E+00
 -1       963 6.16500E+01 3.18140E+01 0.00000E+00
 -1       964 6.46500E+01 3.18140E+01 0.00000E+00
 -1       965 6.76500E+01 3.18140E+01 0.00000E+00
 -1       966 1.09650E+02 3.21942E+01 0.00000E+00
 -1       967 1.12650E+02 3.21942E+01 0.00000E+00
 -1       968 1.15650E+02 3.21942E+01 0.00000E+00
 -1       969 1.18650E+02 3.21942E+01 0.00000E+00
 -1       970 1.21650E+02 3.21942E+01 0.00000E+00
 -1       971 1.24650E+02 3.21942E+01 0.00000E+00
 -1       972 1.27650E+02 3.21942E+01 0.00000E+00
 -1       973 1.30650E+02 3.21942E+01 0.00000E+00
 -1       974 1.32615E+02 3.17764E+01 0.00000E+00
 -1       975 1.51035E+01 2.90869E+01 0.00000E+00
 -1       976 4.60350E+01 1.69963E+01 0.00000E+00
 -1       977 1.96500E+01 3.18140E+01 0.00000E+00
 -1       978 4.30350E+01 1.69963E+01 0.00000E+00
 -1       979 5.50350E+01 1.69963E+01 0.00000E+00
 -1       980 5.80350E+01 1.69963E+01 0.00000E+00
 -1       981 6.10350E+01 1.69963E+01 0.00000E+00
 -1       982 6.40350E+01 1.69963E+01 0.00000E+00
 -1       983 6.70350E+01 1.69963E+01 0.00000E+00
 -1       984 7.00350E+01 1.69963E+01 0.00000E+00
 -1       985 7.30350E+01 1.69963E+01 0.00000E+00
 -1       986 2.65350E+01 1.43982E+01 0.00000E+00
 -1       987 1.12035E+02 1.69963E+01 0.00000E+00
 -1       988 1.15035E+02 1.69963E+01 0.00000E+00
 -1       989 1.18035E+02 1.69963E+01 0.00000E+00
 -1       990 1.21035E+02 1.69963E+01 0.00000E+00
 -1       991 1.24035E+02 1.69963E+01 0.00000E+00
 -1       992 1.27035E+02 1.69963E+01 0.00000E+00
 -1       993 1.30035E+02 1.69963E+01 0.00000E+00
 -1       994 1.06238E+02 1.87773E+01 0.00000E+00
 -1       995 1.05603E+02 2.24795E+01 0.00000E+00
 -1       996 1.82068E+01 1.37159E+01 0.00000E+00
 -1       997 2.56500E+01 3.18140E+01 0.00000E+00
 -1       998 7.54247E+01 1.82158E+01 0.00000E+00
 -1       999 2.26500E+01 3.18140E+01 0.00000E+00
 -1      1000 5.20350E+01 1.69963E+01 0.00000E+00
 -1      1001 4.90350E+01 1.69963E+01 0.00000E+00
 -1      1002 1.73768E+01 3.04504E+01 0.00000E+00
 -1      1003 1.09137E+02 1.78868E+01 0.00000E+00
 -1      1004 4.00350E+01 1.69963E+01 0.00000E+00
 -1      1005 3.10350E+01 1.69963E+01 0.00000E+00
 -1      1006 1.32615E+02 2.88514E+01 0.00000E+00
 -1      1007 1.08142E+02 2.59014E+01 0.00000E+00
 -1      1008 7.31096E+01 2.26620E+01 0.00000E+00
 -1      1009 1.09544E+02 3.01030E+01 0.00000E+00
 -1      1010 3.40350E+01 1.69963E+01 0.00000E+00
 -1      1011 7.14342E+01 2.61201E+01 0.00000E+00
 -1      1012 1.81860E+01 1.90812E+01 0.00000E+00
 -1      1013 1.30035E+02 1.99400E+01 0.00000E+00
 -1      1014 1.81860E+01 2.20313E+01 0.00000E+00
 -1      1015 1.87262E+01 1.65043E+01 0.00000E+00
 -1      1016 1.53457E+01 2.62950E+01 0.00000E+00
 -1      1017 1.09891E+02 2.84800E+01 0.00000E+00
 -1      1018 1.30035E+02 2.28838E+01 0.00000E+00
 -1      1019 1.30119E+02 2.53255E+01 0.00000E+00
 -1      1020 2.19235E+01 1.68299E+01 0.00000E+00
 -1      1021 2.11500E+01 2.92160E+01 0.00000E+00
 -1      1022 1.08502E+02 2.15890E+01 0.00000E+00
 -1      1023 3.31500E+01 2.92160E+01 0.00000E+00
 -1      1024 3.61500E+01 2.92160E+01 0.00000E+00
 -1      1025 3.91500E+01 2.92160E+01 0.00000E+00
 -1      1026 4.21500E+01 2.92160E+01 0.00000E+00
 -1      1027 4.51500E+01 2.92160E+01 0.00000E+00
 -1      1028 4.81500E+01 2.92160E+01 0.00000E+00
 -1      1029 5.11500E+01 2.92160E+01 0.00000E+00
 -1      1030 5.41500E+01 2.92160E+01 0.00000E+00
 -1      1031 5.71500E+01 2.92160E+01 0.00000E+00
 -1      1032 6.01500E+01 2.92160E+01 0.00000E+00
 -1      1033 6.31500E+01 2.92160E+01 0.00000E+00
 -1      1034 6.61500E+01 2.92160E+01 0.00000E+00
 -1      1035 1.14150E+02 2.95962E+01 0.00000E+00
 -1      1036 1.17150E+02 2.95962E+01 0.00000E+00
 -1      1037 1.20150E+02 2.95962E+01 0.00000E+00
 -1      1038 1.23150E+02 2.95962E+01 0.00000E+00
 -1      1039 1.26150E+02 2.95962E+01 0.00000E+00
 -1      1040 1.29150E+02 2.95962E+01 0.00000E+00
 -1      1041 1.30883E+02 2.92238E+01 0.00000E+00
 -1      1042 3.70350E+01 1.69963E+01 0.00000E+00
 -1      1043 2.80350E+01 1.69963E+01 0.00000E+00
 -1      1044 5.95350E+01 1.95942E+01 0.00000E+00
 -1      1045 5.65350E+01 1.95942E+01 0.00000E+00
 -1      1046 6.55350E+01 1.95942E+01 0.00000E+00
 -1      1047 6.85350E+01 1.95942E+01 0.00000E+00
 -1      1048 7.15350E+01 1.95942E+01 0.00000E+00
 -1      1049 1.19535E+02 1.95942E+01 0.00000E+00
 -1      1050 1.16535E+02 1.95942E+01 0.00000E+00
 -1      1051 1.08322E+02 2.37452E+01 0.00000E+00
 -1      1052 1.13535E+02 1.95942E+01 0.00000E+00
 -1      1053 1.22535E+02 1.95942E+01 0.00000E+00
 -1      1054 1.25535E+02 1.95942E+01 0.00000E+00
 -1      1055 1.27785E+02 1.97671E+01 0.00000E+00
 -1      1056 6.94646E+01 2.88817E+01 0.00000E+00
 -1      1057 2.13833E+01 1.94068E+01 0.00000E+00
 -1      1058 1.11270E+02 3.03371E+01 0.00000E+00
 -1      1059 6.25350E+01 1.95942E+01 0.00000E+00
 -1      1060 2.71500E+01 2.92160E+01 0.00000E+00
 -1      1061 4.45350E+01 1.95942E+01 0.00000E+00
 -1      1062 2.41500E+01 2.92160E+01 0.00000E+00
 -1      1063 5.35350E+01 1.95942E+01 0.00000E+00
 -1      1064 3.01500E+01 2.92160E+01 0.00000E+00
 -1      1065 7.08213E+01 2.38165E+01 0.00000E+00
 -1      1066 2.49793E+01 1.69131E+01 0.00000E+00
 -1      1067 4.15350E+01 1.95942E+01 0.00000E+00
 -1      1068 2.44390E+01 1.94900E+01 0.00000E+00
 -1      1069 1.27785E+02 2.27109E+01 0.00000E+00
 -1      1070 1.10257E+02 2.66080E+01 0.00000E+00
 -1      1071 2.95350E+01 1.95942E+01 0.00000E+00
 -1      1072 5.05350E+01 1.95942E+01 0.00000E+00
 -1      1073 6.85074E+01 2.61158E+01 0.00000E+00
 -1      1074 1.76190E+01 2.76586E+01 0.00000E+00
 -1      1075 1.27869E+02 2.51527E+01 0.00000E+00
 -1      1076 1.79438E+01 2.48231E+01 0.00000E+00
 -1      1077 1.11018E+02 2.05916E+01 0.00000E+00
 -1      1078 3.25350E+01 1.95942E+01 0.00000E+00
 -1      1079 4.75350E+01 1.95942E+01 0.00000E+00
 -1      1080 1.31942E+02 2.73020E+01 0.00000E+00
 -1      1081 1.15650E+02 2.69982E+01 0.00000E+00
 -1      1082 3.76500E+01 2.66180E+01 0.00000E+00
 -1      1083 4.06500E+01 2.66180E+01 0.00000E+00
 -1      1084 4.36500E+01 2.66180E+01 0.00000E+00
 -1      1085 4.66500E+01 2.66180E+01 0.00000E+00
 -1      1086 4.96500E+01 2.66180E+01 0.00000E+00
 -1      1087 5.26500E+01 2.66180E+01 0.00000E+00
 -1      1088 5.56500E+01 2.66180E+01 0.00000E+00
 -1      1089 5.86500E+01 2.66180E+01 0.00000E+00
 -1      1090 6.16500E+01 2.66180E+01 0.00000E+00
 -1      1091 6.46500E+01 2.66180E+01 0.00000E+00
 -1      1092 3.46500E+01 2.66180E+01 0.00000E+00
 -1      1093 1.15035E+02 2.21922E+01 0.00000E+00
 -1      1094 5.80350E+01 2.21922E+01 0.00000E+00
 -1      1095 1.18650E+02 2.69982E+01 0.00000E+00
 -1      1096 1.21650E+02 2.69982E+01 0.00000E+00
 -1      1097 1.24650E+02 2.69982E+01 0.00000E+00
 -1      1098 3.16500E+01 2.66180E+01 0.00000E+00
 -1      1099 1.24035E+02 2.21922E+01 0.00000E+00
 -1      1100 1.21035E+02 2.21922E+01 0.00000E+00
 -1      1101 1.12770E+02 2.77391E+01 0.00000E+00
 -1      1102 2.26500E+01 2.66180E+01 0.00000E+00
 -1      1103 2.86500E+01 2.66180E+01 0.00000E+00
 -1      1104 2.56500E+01 2.66180E+01 0.00000E+00
 -1      1105 5.50350E+01 2.21922E+01 0.00000E+00
 -1      1106 2.14330E+01 2.27272E+01 0.00000E+00
 -1      1107 2.69870E+01 1.95421E+01 0.00000E+00
 -1      1108 1.18035E+02 2.21922E+01 0.00000E+00
 -1      1109 6.70212E+01 2.28550E+01 0.00000E+00
 -1      1110 6.35925E+01 2.31061E+01 0.00000E+00
 -1      1111 3.55350E+01 1.95942E+01 0.00000E+00
 -1      1112 1.12518E+02 2.31896E+01 0.00000E+00
 -1      1113 4.30350E+01 2.21922E+01 0.00000E+00
 -1      1114 3.85350E+01 1.95942E+01 0.00000E+00
 -1      1115 3.10350E+01 2.21922E+01 0.00000E+00
 -1      1116 5.20350E+01 2.21922E+01 0.00000E+00
 -1      1117 4.60350E+01 2.21922E+01 0.00000E+00
 -1      1118 1.10420E+02 2.34674E+01 0.00000E+00
 -1      1119 6.08138E+01 2.26492E+01 0.00000E+00
 -1      1120 2.84870E+01 2.21401E+01 0.00000E+00
 -1      1121 1.24342E+02 2.45952E+01 0.00000E+00
 -1      1122 2.48398E+01 2.28765E+01 0.00000E+00
 -1      1123 4.21500E+01 2.40200E+01 0.00000E+00
 -1      1124 5.11500E+01 2.40200E+01 0.00000E+00
 -1      1125 1.20150E+02 2.44002E+01 0.00000E+00
 -1      1126 1.13035E+02 2.52328E+01 0.00000E+00
 -1      1127 3.61500E+01 2.40200E+01 0.00000E+00
 -1      1128 4.90350E+01 2.21922E+01 0.00000E+00
 -1      1129 3.31500E+01 2.40200E+01 0.00000E+00
 -1      1130 4.00350E+01 2.21922E+01 0.00000E+00
 -1      1131 3.91500E+01 2.40200E+01 0.00000E+00
 -1      1132 1.16593E+02 2.48165E+01 0.00000E+00
 -1      1133 0.00000E+00 4.85250E+01 0.00000E+00
 -1      1134 0.00000E+00 4.55750E+01 0.00000E+00
 -1      1135 0.00000E+00 4.26250E+01 0.00000E+00
 -1      1136 0.00000E+00 3.96750E+01 0.00000E+00
 -1      1137 0.00000E+00 3.67250E+01 0.00000E+00
 -1      1138 0.00000E+00 3.38000E+01 0.00000E+00
 -1      1139 0.00000E+00 3.08750E+01 0.00000E+00
 -1      1140 0.00000E+00 2.79250E+01 0.00000E+00
 -1      1141 0.00000E+00 2.49750E+01 0.00000E+00
 -1      1142 0.00000E+00 2.20250E+01 0.00000E+00
 -1      1143 0.00000E+00 1.90750E+01 0.00000E+00
 -1      1144 0.00000E+00 1.61500E+01 0.00000E+00
 -1      1145 0.00000E+00 1.32250E+01 0.00000E+00
 -1      1146 0.00000E+00 1.02750E+01 0.00000E+00
 -1      1147 0.00000E+00 7.32500E+00 0.00000E+00
 -1      1148 0.00000E+00 4.37500E+00 0.00000E+00
 -1      1149 0.00000E+00 1.45000E+00 0.00000E+00
 -1      1150 1.57500E+00 5.00000E+01 0.00000E+00
 -1      1151 4.65000E+00 5.00000E+01 0.00000E+00
 -1      1152 7.65000E+00 5.00000E+01 0.00000E+00
 -1      1153 1.06500E+01 5.00000E+01 0.00000E+00
 -1      1154 1.36500E+01 5.00000E+01 0.00000E+00
 -1      1155 1.66500E+01 5.00000E+01 0.00000E+00
 -1      1156 1.96500E+01 5.00000E+01 0.00000E+00
 -1      1157 2.26500E+01 5.00000E+01 0.00000E+00
 -1      1158 2.56500E+01 5.00000E+01 0.00000E+00
 -1      1159 2.86500E+01 5.00000E+01 0.00000E+00
 -1      1160 3.16500E+01 5.00000E+01 0.00000E+00
 -1      1161 3.46500E+01 5.00000E+01 0.00000E+00
 -1      1162 3.76500E+01 5.00000E+01 0.00000E+00
 -1      1163 4.06500E+01 5.00000E+01 0.00000E+00
 -1      1164 4.36500E+01 5.00000E+01 0.00000E+00
 -1      1165 4.66500E+01 5.00000E+01 0.00000E+00
 -1      1166 4.96500E+01 5.00000E+01 0.00000E+00
 -1      1167 5.26500E+01 5.00000E+01 0.00000E+00
 -1      1168 5.56500E+01 5.00000E+01 0.00000E+00
 -1      1169 5.86500E+01 5.00000E+01 0.00000E+00
 -1      1170 6.16500E+01 5.00000E+01 0.00000E+00
 -1      1171 6.46500E+01 5.00000E+01 0.00000E+00
 -1      1172 6.76500E+01 5.00000E+01 0.00000E+00
 -1      1173 7.06500E+01 5.00000E+01 0.00000E+00
 -1      1174 7.36500E+01 5.00000E+01 0.00000E+00
 -1      1175 7.66500E+01 5.00000E+01 0.00000E+00
 -1      1176 7.96500E+01 5.00000E+01 0.00000E+00
 -1      1177 8.26500E+01 5.00000E+01 0.00000E+00
 -1      1178 8.56500E+01 5.00000E+01 0.00000E+00
 -1      1179 8.86500E+01 5.00000E+01 0.00000E+00
 -1      1180 9.16500E+01 5.00000E+01 0.00000E+00
 -1      1181 9.46500E+01 5.00000E+01 0.00000E+00
 -1      1182 9.76500E+01 5.00000E+01 0.00000E+00
 -1      1183 1.00650E+02 5.00000E+01 0.00000E+00
 -1      1184 1.03650E+02 5.00000E+01 0.00000E+00
 -1      1185 1.06650E+02 5.00000E+01 0.00000E+00
 -1      1186 1.09650E+02 5.00000E+01 0.00000E+00
 -1      1187 1.12650E+02 5.00000E+01 0.00000E+00
 -1      1188 1.15650E+02 5.00000E+01 0.00000E+00
 -1      1189 1.18650E+02 5.00000E+01 0.00000E+00
 -1      1190 1.21650E+02 5.00000E+01 0.00000E+00
 -1      1191 1.24650E+02 5.00000E+01 0.00000E+00
 -1      1192 1.27650E+02 5.00000E+01 0.00000E+00
 -1      1193 1.30650E+02 5.00000E+01 0.00000E+00
 -1      1194 1.33650E+02 5.00000E+01 0.00000E+00
 -1      1195 1.36650E+02 5.00000E+01 0.00000E+00
 -1      1196 1.39650E+02 5.00000E+01 0.00000E+00
 -1      1197 1.42650E+02 5.00000E+01 0.00000E+00
 -1      1198 1.45650E+02 5.00000E+01 0.00000E+00
 -1      1199 1.48575E+02 5.00000E+01 0.00000E+00
 -1      1200 1.57500E+00 0.00000E+00 0.00000E+00
 -1      1201 4.65000E+00 0.00000E+00 0.00000E+00
 -1      1202 7.65000E+00 0.00000E+00 0.00000E+00
 -1      1203 1.06500E+01 0.00000E+00 0.00000E+00
 -1      1204 1.36500E+01 0.00000E+00 0.00000E+00
 -1      1205 1.66500E+01 0.00000E+00 0.00000E+00
 -1      1206 1.96500E+01 0.00000E+00 0.00000E+00
 -1      1207 2.26500E+01 0.00000E+00 0.00000E+00
 -1      1208 2.56500E+01 0.00000E+00 0.00000E+00
 -1      1209 2.86500E+01 0.00000E+00 0.00000E+00
 -1      1210 3.16500E+01 0.00000E+00 0.00000E+00
 -1      1211 3.46500E+01 0.00000E+00 0.00000E+00
 -1      1212 3.76500E+01 0.00000E+00 0.00000E+00
 -1      1213 4.06500E+01 0.00000E+00 0.00000E+00
 -1      1214 4.36500E+01 0.00000E+00 0.00000E+00
 -1      1215 4.66500E+01 0.00000E+00 0.00000E+00
 -1      1216 4.96500E+01 0.00000E+00 0.00000E+00
 -1      1217 5.26500E+01 0.00000E+00 0.00000E+00
 -1      1218 5.56500E+01 0.00000E+00 0.00000E+00
 -1      1219 5.86500E+01 0.00000E+00 0.00000E+00
 -1      1220 6.16500E+01 0.00000E+00 0.00000E+00
 -1      1221 6.46500E+01 0.00000E+00 0.00000E+00
 -1      1222 6.76500E+01 0.00000E+00 0.00000E+00
 -1      1223 7.06500E+01 0.00000E+00 0.00000E+00
 -1      1224 7.36500E+01 0.00000E+00 0.00000E+00
 -1      1225 7.66500E+01 0.00000E+00 0.00000E+00
 -1      1226 7.96500E+01 0.00000E+00 0.00000E+00
 -1      1227 8.26500E+01 0.00000E+00 0.00000E+00
 -1      1228 8.56500E+01 0.00000E+00 0.00000E+00
 -1      1229 8.86500E+01 0.00000E+00 0.00000E+00
 -1      1230 9.16500E+01 0.00000E+00 0.00000E+00
 -1      1231 9.46500E+01 0.00000E+00 0.00000E+00
 -1      1232 9.76500E+01 0.00000E+00 0.00000E+00
 -1      1233 1.00650E+02 0.00000E+00 0.00000E+00
 -1      1234 1.03650E+02 0.00000E+00 0.00000E+00
 -1      1235 1.06650E+02 0.00000E+00 0.00000E+00
 -1      1236 1.09650E+02 0.00000E+00 0.00000E+00
 -1      1237 1.12650E+02 0.00000E+00 0.00000E+00
 -1      1238 1.15650E+02 0.00000E+00 0.00000E+00
 -1      1239 1.18650E+02 0.00000E+00 0.00000E+00
 -1      1240 1.21650E+02 0.00000E+00 0.00000E+00
 -1      1241 1.24650E+02 0.00000E+00 0.00000E+00
 -1      1242 1.27650E+02 0.00000E+00 0.00000E+00
 -1      1243 1.30650E+02 0.00000E+00 0.00000E+00
 -1      1244 1.33650E+02 0.00000E+00 0.00000E+00
 -1      1245 1.36650E+02 0.00000E+00 0.00000E+00
 -1      1246 1.39650E+02 0.00000E+00 0.00000E+00
 -1      1247 1.42650E+02 0.00000E+00 0.00000E+00
 -1      1248 1.45650E+02 0.00000E+00 0.00000E+00
 -1      1249 1.48575E+02 0.00000E+00 0.00000E+00
 -1      1250 1.50000E+02 1.47500E+00 0.00000E+00
 -1      1251 1.50000E+02 4.42500E+00 0.00000E+00
 -1      1252 1.50000E+02 7.37500E+00 0.00000E+00
 -1      1253 1.50000E+02 1.03250E+01 0.00000E+00
 -1      1254 1.50000E+02 1.32750E+01 0.00000E+00
 -1      1255 1.50000E+02 1.62000E+01 0.00000E+00
 -1      1256 1.50000E+02 1.91250E+01 0.00000E+00
 -1      1257 1.50000E+02 2.20750E+01 0.00000E+00
 -1      1258 1.50000E+02 2.50250E+01 0.00000E+00
 -1      1259 1.50000E+02 2.79750E+01 0.00000E+00
 -1      1260 1.50000E+02 3.09250E+01 0.00000E+00
 -1      1261 1.50000E+02 3.38500E+01 0.00000E+00
 -1      1262 1.50000E+02 3.67750E+01 0.00000E+00
 -1      1263 1.50000E+02 3.97250E+01 0.00000E+00
 -1      1264 1.50000E+02 4.26750E+01 0.00000E+00
 -1      1265 1.50000E+02 4.56250E+01 0.00000E+00
 -1      1266 1.50000E+02 4.85500E+01 0.00000E+00
 -1      1267 9.70629E+01 2.88140E+01 0.00000E+00
 -1      1268 9.67673E+01 2.73877E+01 0.00000E+00
 -1      1269 9.61544E+01 2.60038E+01 0.00000E+00
 -1      1270 9.52499E+01 2.47747E+01 0.00000E+00
 -1      1271 9.41156E+01 2.37815E+01 0.00000E+00
 -1      1272 9.28376E+01 2.30721E+01 0.00000E+00
 -1      1273 9.14454E+01 2.26446E+01 0.00000E+00
 -1      1274 9.00013E+01 2.25144E+01 0.00000E+00
 -1      1275 8.85240E+01 2.26930E+01 0.00000E+00
 -1      1276 8.70960E+01 2.31901E+01 0.00000E+00
 -1      1277 8.58330E+01 2.39631E+01 0.00000E+00
 -1      1278 8.47415E+01 2.50073E+01 0.00000E+00
 -1      1279 8.38901E+01 2.62792E+01 0.00000E+00
 -1      1280 8.33431E+01 2.76777E+01 0.00000E+00
 -1      1281 8.31079E+01 2.91409E+01 0.00000E+00
 -1      1282 8.31916E+01 3.06547E+01 0.00000E+00
 -1      1283 8.35824E+01 3.20724E+01 0.00000E+00
 -1      1284 8.42233E+01 3.33201E+01 0.00000E+00
 -1      1285 8.51131E+01 3.44281E+01 0.00000E+00
 -1      1286 8.62301E+01 3.53480E+01 0.00000E+00
 -1      1287 8.74964E+01 3.60123E+01 0.00000E+00
 -1      1288 8.88790E+01 3.64068E+01 0.00000E+00
 -1      1289 9.03338E+01 3.65098E+01 0.00000E+00
 -1      1290 9.17371E+01 3.63191E+01 0.00000E+00
 -1      1291 9.30825E+01 3.58456E+01 0.00000E+00
 -1      1292 9.42961E+01 3.51152E+01 0.00000E+00
 -1      1293 9.53215E+01 3.41736E+01 0.00000E+00
 -1      1294 9.61728E+01 3.29918E+01 0.00000E+00
 -1      1295 9.67593E+01 3.16646E+01 0.00000E+00
 -1      1296 9.70585E+01 3.02562E+01 0.00000E+00
 -1      1297 1.57500E+00 4.85250E+01 0.00000E+00
 -1      1298 1.29900E+00 4.48375E+01 0.00000E+00
 -1      1299 1.29900E+00 4.63125E+01 0.00000E+00
 -1      1300 1.29900E+00 4.18875E+01 0.00000E+00
 -1      1301 1.29900E+00 4.33625E+01 0.00000E+00
 -1      1302 2.59800E+00 4.41000E+01 0.00000E+00
 -1      1303 1.29900E+00 3.89375E+01 0.00000E+00
 -1      1304 1.29900E+00 4.04125E+01 0.00000E+00
 -1      1305 2.59800E+00 4.11500E+01 0.00000E+00
 -1      1306 1.29900E+00 3.59875E+01 0.00000E+00
 -1      1307 1.29900E+00 3.74625E+01 0.00000E+00
 -1      1308 2.59800E+00 3.82000E+01 0.00000E+00
 -1      1309 1.29900E+00 3.30875E+01 0.00000E+00
 -1      1310 1.29900E+00 3.45375E+01 0.00000E+00
 -1      1311 2.59800E+00 3.52750E+01 0.00000E+00
 -1      1312 1.29900E+00 3.01375E+01 0.00000E+00
 -1      1313 1.29900E+00 3.16125E+01 0.00000E+00
 -1      1314 2.59800E+00 3.23500E+01 0.00000E+00
 -1      1315 1.29900E+00 2.71875E+01 0.00000E+00
 -1      1316 1.29900E+00 2.86625E+01 0.00000E+00
 -1      1317 2.59800E+00 2.94000E+01 0.00000E+00
 -1      1318 1.29900E+00 2.42375E+01 0.00000E+00
 -1      1319 1.29900E+00 2.57125E+01 0.00000E+00
 -1      1320 2.59800E+00 2.64500E+01 0.00000E+00
 -1      1321 1.29900E+00 2.12875E+01 0.00000E+00
 -1      1322 1.29900E+00 2.27625E+01 0.00000E+00
 -1      1323 2.59800E+00 2.35000E+01 0.00000E+00
 -1      1324 1.29900E+00 1.83375E+01 0.00000E+00
 -1      1325 1.29900E+00 1.98125E+01 0.00000E+00
 -1      1326 2.59800E+00 2.05500E+01 0.00000E+00
 -1      1327 1.29900E+00 1.54375E+01 0.00000E+00
 -1      1328 1.29900E+00 1.68875E+01 0.00000E+00
 -1      1329 2.59800E+00 1.76250E+01 0.00000E+00
 -1      1330 1.29900E+00 1.24875E+01 0.00000E+00
 -1      1331 1.29900E+00 1.39625E+01 0.00000E+00
 -1      1332 2.59800E+00 1.47000E+01 0.00000E+00
 -1      1333 1.29900E+00 9.53750E+00 0.00000E+00
 -1      1334 1.29900E+00 1.10125E+01 0.00000E+00
 -1      1335 2.59800E+00 1.17500E+01 0.00000E+00
 -1      1336 1.29900E+00 6.58750E+00 0.00000E+00
 -1      1337 1.29900E+00 8.06250E+00 0.00000E+00
 -1      1338 2.59800E+00 8.80000E+00 0.00000E+00
 -1      1339 1.29900E+00 3.63750E+00 0.00000E+00
 -1      1340 1.29900E+00 5.11250E+00 0.00000E+00
 -1      1341 2.59800E+00 5.85000E+00 0.00000E+00
 -1      1342 1.43700E+00 1.09375E+00 0.00000E+00
 -1      1343 1.43700E+00 2.54375E+00 0.00000E+00
 -1      1344 2.73600E+00 3.28125E+00 0.00000E+00
 -1      1345 3.01200E+00 1.09375E+00 0.00000E+00
 -1      1346 3.90000E+00 4.87010E+01 0.00000E+00
 -1      1347 5.40000E+00 4.87010E+01 0.00000E+00
 -1      1348 6.90000E+00 4.87010E+01 0.00000E+00
 -1      1349 8.40000E+00 4.87010E+01 0.00000E+00
 -1      1350 6.15000E+00 4.74020E+01 0.00000E+00
 -1      1351 9.90000E+00 4.87010E+01 0.00000E+00
 -1      1352 1.14000E+01 4.87010E+01 0.00000E+00
 -1      1353 9.15000E+00 4.74020E+01 0.00000E+00
 -1      1354 1.29000E+01 4.87010E+01 0.00000E+00
 -1      1355 1.44000E+01 4.87010E+01 0.00000E+00
 -1      1356 1.21500E+01 4.74020E+01 0.00000E+00
 -1      1357 1.59000E+01 4.87010E+01 0.00000E+00
 -1      1358 1.74000E+01 4.87010E+01 0.00000E+00
 -1      1359 1.51500E+01 4.74020E+01 0.00000E+00
 -1      1360 1.89000E+01 4.87010E+01 0.00000E+00
 -1      1361 2.04000E+01 4.87010E+01 0.00000E+00
 -1      1362 1.81500E+01 4.74020E+01 0.00000E+00
 -1      1363 2.19000E+01 4.87010E+01 0.00000E+00
 -1      1364 2.34000E+01 4.87010E+01 0.00000E+00
 -1      1365 2.11500E+01 4.74020E+01 0.00000E+00
 -1      1366 2.49000E+01 4.87010E+01 0.00000E+00
 -1      1367 2.64000E+01 4.87010E+01 0.00000E+00
 -1      1368 2.41500E+01 4.74020E+01 0.00000E+00
 -1      1369 2.79000E+01 4.87010E+01 0.00000E+00
 -1      1370 2.94000E+01 4.87010E+01 0.00000E+00
 -1      1371 2.71500E+01 4.74020E+01 0.00000E+00
 -1      1372 3.09000E+01 4.87010E+01 0.00000E+00
 -1      1373 3.24000E+01 4.87010E+01 0.00000E+00
 -1      1374 3.01500E+01 4.74020E+01 0.00000E+00
 -1      1375 3.39000E+01 4.87010E+01 0.00000E+00
 -1      1376 3.54000E+01 4.87010E+01 0.00000E+00
 -1      1377 3.31500E+01 4.74020E+01 0.00000E+00
 -1      1378 3.69000E+01 4.87010E+01 0.00000E+00
 -1      1379 3.84000E+01 4.87010E+01 0.00000E+00
 -1      1380 3.61500E+01 4.74020E+01 0.00000E+00
 -1      1381 3.99000E+01 4.87010E+01 0.00000E+00
 -1      1382 4.14000E+01 4.87010E+01 0.00000E+00
 -1      1383 3.91500E+01 4.74020E+01 0.00000E+00
 -1      1384 4.29000E+01 4.87010E+01 0.00000E+00
 -1      1385 4.44000E+01 4.87010E+01 0.00000E+00
 -1      1386 4.21500E+01 4.74020E+01 0.00000E+00
 -1      1387 4.59000E+01 4.87010E+01 0.00000E+00
 -1      1388 4.74000E+01 4.87010E+01 0.00000E+00
 -1      1389 4.51500E+01 4.74020E+01 0.00000E+00
 -1      1390 4.89000E+01 4.87010E+01 0.00000E+00
 -1      1391 5.04000E+01 4.87010E+01 0.00000E+00
 -1      1392 4.81500E+01 4.74020E+01 0.00000E+00
 -1      1393 5.19000E+01 4.87010E+01 0.00000E+00
 -1      1394 5.34000E+01 4.87010E+01 0.00000E+00
 -1      1395 5.11500E+01 4.74020E+01 0.00000E+00
 -1      1396 5.49000E+01 4.87010E+01 0.00000E+00
 -1      1397 5.64000E+01 4.87010E+01 0.00000E+00
 -1      1398 5.41500E+01 4.74020E+01 0.00000E+00
 -1      1399 5.79000E+01 4.87010E+01 0.00000E+00
 -1      1400 5.94000E+01 4.87010E+01 0.00000E+00
 -1      1401 5.71500E+01 4.74020E+01 0.00000E+00
 -1      1402 6.09000E+01 4.87010E+01 0.00000E+00
 -1      1403 6.24000E+01 4.87010E+01 0.00000E+00
 -1      1404 6.01500E+01 4.74020E+01 0.00000E+00
 -1      1405 6.39000E+01 4.87010E+01 0.00000E+00
 -1      1406 6.54000E+01 4.87010E+01 0.00000E+00
 -1      1407 6.31500E+01 4.74020E+01 0.00000E+00
 -1      1408 6.69000E+01 4.87010E+01 0.00000E+00
 -1      1409 6.84000E+01 4.87010E+01 0.00000E+00
 -1      1410 6.61500E+01 4.74020E+01 0.00000E+00
 -1      1411 6.99000E+01 4.87010E+01 0.00000E+00
 -1      1412 7.14000E+01 4.87010E+01 0.00000E+00
 -1      1413 6.91500E+01 4.74020E+01 0.00000E+00
 -1      1414 7.29000E+01 4.87010E+01 0.00000E+00
 -1      1415 7.44000E+01 4.87010E+01 0.00000E+00
 -1      1416 7.21500E+01 4.74020E+01 0.00000E+00
 -1      1417 7.59000E+01 4.87010E+01 0.00000E+00
 -1      1418 7.74000E+01 4.87010E+01 0.00000E+00
 -1      1419 7.51500E+01 4.74020E+01 0.00000E+00
 -1      1420 7.89000E+01 4.87010E+01 0.00000E+00
 -1      1421 8.04000E+01 4.87010E+01 0.00000E+00
 -1      1422 7.81500E+01 4.74020E+01 0.00000E+00
 -1      1423 8.19000E+01 4.87010E+01 0.00000E+00
 -1      1424 8.34000E+01 4.87010E+01 0.00000E+00
 -1      1425 8.11500E+01 4.74020E+01 0.00000E+00
 -1      1426 8.49000E+01 4.87010E+01 0.00000E+00
 -1      1427 8.64000E+01 4.87010E+01 0.00000E+00
 -1      1428 8.41500E+01 4.74020E+01 0.00000E+00
 -1      1429 8.79000E+01 4.87010E+01 0.00000E+00
 -1      1430 8.94000E+01 4.87010E+01 0.00000E+00
 -1      1431 8.71500E+01 4.74020E+01 0.00000E+00
 -1      1432 9.09000E+01 4.87010E+01 0.00000E+00
 -1      1433 9.24000E+01 4.87010E+01 0.00000E+00
 -1      1434 9.01500E+01 4.74020E+01 0.00000E+00
 -1      1435 9.39000E+01 4.87010E+01 0.00000E+00
 -1      1436 9.54000E+01 4.87010E+01 0.00000E+00
 -1      1437 9.31500E+01 4.74020E+01 0.00000E+00
 -1      1438 9.69000E+01 4.87010E+01 0.00000E+00
 -1      1439 9.84000E+01 4.87010E+01 0.00000E+00
 -1      1440 9.61500E+01 4.74020E+01 0.00000E+00
 -1      1441 9.99000E+01 4.87010E+01 0.00000E+00
 -1      1442 1.01400E+02 4.87010E+01 0.00000E+00
 -1      1443 9.91500E+01 4.74020E+01 0.00000E+00
 -1      1444 1.02900E+02 4.87010E+01 0.00000E+00
 -1      1445 1.04400E+02 4.87010E+01 0.00000E+00
 -1      1446 1.02150E+02 4.74020E+01 0.00000E+00
 -1      1447 1.05900E+02 4.87010E+01 0.00000E+00
 -1      1448 1.07400E+02 4.87010E+01 0.00000E+00
 -1      1449 1.05150E+02 4.74020E+01 0.00000E+00
 -1      1450 1.08900E+02 4.87010E+01 0.00000E+00
 -1      1451 1.10400E+02 4.87010E+01 0.00000E+00
 -1      1452 1.08150E+02 4.74020E+01 0.00000E+00
 -1      1453 1.11900E+02 4.87010E+01 0.00000E+00
 -1      1454 1.13400E+02 4.87010E+01 0.00000E+00
 -1      1455 1.11150E+02 4.74020E+01 0.00000E+00
 -1      1456 1.14900E+02 4.87010E+01 0.00000E+00
 -1      1457 1.16400E+02 4.87010E+01 0.00000E+00
 -1      1458 1.14150E+02 4.74020E+01 0.00000E+00
 -1      1459 1.17900E+02 4.87010E+01 0.00000E+00
 -1      1460 1.19400E+02 4.87010E+01 0.00000E+00
 -1      1461 1.17150E+02 4.74020E+01 0.00000E+00
 -1      1462 1.20900E+02 4.87010E+01 0.00000E+00
 -1      1463 1.22400E+02 4.87010E+01 0.00000E+00
 -1      1464 1.20150E+02 4.74020E+01 0.00000E+00
 -1      1465 1.23900E+02 4.87010E+01 0.00000E+00
 -1      1466 1.25400E+02 4.87010E+01 0.00000E+00
 -1      1467 1.23150E+02 4.74020E+01 0.00000E+00
 -1      1468 1.26900E+02 4.87010E+01 0.00000E+00
 -1      1469 1.28400E+02 4.87010E+01 0.00000E+00
 -1      1470 1.26150E+02 4.74020E+01 0.00000E+00
 -1      1471 1.29900E+02 4.87010E+01 0.00000E+00
 -1      1472 1.31400E+02 4.87010E+01 0.00000E+00
 -1      1473 1.29150E+02 4.74020E+01 0.00000E+00
 -1      1474 1.32900E+02 4.87010E+01 0.00000E+00
 -1      1475 1.34400E+02 4.87010E+01 0.00000E+00
 -1      1476 1.32150E+02 4.74020E+01 0.00000E+00
 -1      1477 1.35900E+02 4.87010E+01 0.00000E+00
 -1      1478 1.37400E+02 4.87010E+01 0.00000E+00
 -1      1479 1.35150E+02 4.74020E+01 0.00000E+00
 -1      1480 1.38900E+02 4.87010E+01 0.00000E+00
 -1      1481 1.40400E+02 4.87010E+01 0.00000E+00
 -1      1482 1.38150E+02 4.74020E+01 0.00000E+00
 -1      1483 1.41900E+02 4.87010E+01 0.00000E+00
 -1      1484 1.43400E+02 4.87010E+01 0.00000E+00
 -1      1485 1.41150E+02 4.74020E+01 0.00000E+00
 -1      1486 1.44900E+02 4.87010E+01 0.00000E+00
 -1      1487 1.46400E+02 4.87010E+01 0.00000E+00
 -1      1488 1.44150E+02 4.74020E+01 0.00000E+00
 -1      1489 1.48575E+02 4.85500E+01 0.00000E+00
 -1      1490 1.47825E+02 4.72510E+01 0.00000E+00
 -1      1491 6.01200E+00 1.09375E+00 0.00000E+00
 -1      1492 4.51200E+00 1.09375E+00 0.00000E+00
 -1      1493 4.37400E+00 2.18750E+00 0.00000E+00
 -1      1494 9.01200E+00 1.09375E+00 0.00000E+00
 -1      1495 7.51200E+00 1.09375E+00 0.00000E+00
 -1      1496 7.37400E+00 2.18750E+00 0.00000E+00
 -1      1497 1.20120E+01 1.09375E+00 0.00000E+00
 -1      1498 1.05120E+01 1.09375E+00 0.00000E+00
 -1      1499 1.03740E+01 2.18750E+00 0.00000E+00
 -1      1500 1.50120E+01 1.09375E+00 0.00000E+00
 -1      1501 1.35120E+01 1.09375E+00 0.00000E+00
 -1      1502 1.33740E+01 2.18750E+00 0.00000E+00
 -1      1503 1.80120E+01 1.09375E+00 0.00000E+00
 -1      1504 1.65120E+01 1.09375E+00 0.00000E+00
 -1      1505 1.63740E+01 2.18750E+00 0.00000E+00
 -1      1506 2.10120E+01 1.09375E+00 0.00000E+00
 -1      1507 1.95120E+01 1.09375E+00 0.00000E+00
 -1      1508 1.93740E+01 2.18750E+00 0.00000E+00
 -1      1509 2.40120E+01 1.09375E+00 0.00000E+00
 -1      1510 2.25120E+01 1.09375E+00 0.00000E+00
 -1      1511 2.23740E+01 2.18750E+00 0.00000E+00
 -1      1512 2.70120E+01 1.09375E+00 0.00000E+00
 -1      1513 2.55120E+01 1.09375E+00 0.00000E+00
 -1      1514 2.53740E+01 2.18750E+00 0.00000E+00
 -1      1515 3.00120E+01 1.09375E+00 0.00000E+00
 -1      1516 2.85120E+01 1.09375E+00 0.00000E+00
 -1      1517 2.83740E+01 2.18750E+00 0.00000E+00
 -1      1518 3.30120E+01 1.09375E+00 0.00000E+00
 -1      1519 3.15120E+01 1.09375E+00 0.00000E+00
 -1      1520 3.13740E+01 2.18750E+00 0.00000E+00
 -1      1521 3.60120E+01 1.09375E+00 0.00000E+00
 -1      1522 3.45120E+01 1.09375E+00 0.00000E+00
 -1      1523 3.43740E+01 2.18750E+00 0.00000E+00
 -1      1524 3.90120E+01 1.09375E+00 0.00000E+00
 -1      1525 3.75120E+01 1.09375E+00 0.00000E+00
 -1      1526 3.73740E+01 2.18750E+00 0.00000E+00
 -1      1527 4.20120E+01 1.09375E+00 0.00000E+00
 -1      1528 4.05120E+01 1.09375E+00 0.00000E+00
 -1      1529 4.03740E+01 2.18750E+00 0.00000E+00
 -1      1530 4.50120E+01 1.09375E+00 0.00000E+00
 -1      1531 4.35120E+01 1.09375E+00 0.00000E+00
 -1      1532 4.33740E+01 2.18750E+00 0.00000E+00
 -1      1533 4.80120E+01 1.09375E+00 0.00000E+00
 -1      1534 4.65120E+01 1.09375E+00 0.00000E+00
 -1      1535 4.63740E+01 2.18750E+00 0.00000E+00
 -1      1536 5.10120E+01 1.09375E+00 0.00000E+00
 -1      1537 4.95120E+01 1.09375E+00 0.00000E+00
 -1      1538 4.93740E+01 2.18750E+00 0.00000E+00
 -1      1539 5.40120E+01 1.09375E+00 0.00000E+00
 -1      1540 5.25120E+01 1.09375E+00 0.00000E+00
 -1      1541 5.23740E+01 2.18750E+00 0.00000E+00
 -1      1542 5.70120E+01 1.09375E+00 0.00000E+00
 -1      1543 5.55120E+01 1.09375E+00 0.00000E+00
 -1      1544 5.53740E+01 2.18750E+00 0.00000E+00
 -1      1545 6.00120E+01 1.09375E+00 0.00000E+00
 -1      1546 5.85120E+01 1.09375E+00 0.00000E+00
 -1      1547 5.83740E+01 2.18750E+00 0.00000E+00
 -1      1548 6.30120E+01 1.09375E+00 0.00000E+00
 -1      1549 6.15120E+01 1.09375E+00 0.00000E+00
 -1      1550 6.13740E+01 2.18750E+00 0.00000E+00
 -1      1551 6.60120E+01 1.09375E+00 0.00000E+00
 -1      1552 6.45120E+01 1.09375E+00 0.00000E+00
 -1      1553 6.43740E+01 2.18750E+00 0.00000E+00
 -1      1554 6.90120E+01 1.09375E+00 0.00000E+00
 -1      1555 6.75120E+01 1.09375E+00 0.00000E+00
 -1      1556 6.73740E+01 2.18750E+00 0.00000E+00
 -1      1557 7.20120E+01 1.09375E+00 0.00000E+00
 -1      1558 7.05120E+01 1.09375E+00 0.00000E+00
 -1      1559 7.03740E+01 2.18750E+00 0.00000E+00
 -1      1560 7.50120E+01 1.09375E+00 0.00000E+00
 -1      1561 7.35120E+01 1.09375E+00 0.00000E+00
 -1      1562 7.33740E+01 2.18750E+00 0.00000E+00
 -1      1563 7.80120E+01 1.09375E+00 0.00000E+00
 -1      1564 7.65120E+01 1.09375E+00 0.00000E+00
 -1      1565 7.63740E+01 2.18750E+00 0.00000E+00
 -1      1566 8.10120E+01 1.09375E+00 0.00000E+00
 -1      1567 7.95120E+01 1.09375E+00 0.00000E+00
 -1      1568 7.93740E+01 2.18750E+00 0.00000E+00
 -1      1569 8.40120E+01 1.09375E+00 0.00000E+00
 -1      1570 8.25120E+01 1.09375E+00 0.00000E+00
 -1      1571 8.23740E+01 2.18750E+00 0.00000E+00
 -1      1572 8.70120E+01 1.09375E+00 0.00000E+00
 -1      1573 8.55120E+01 1.09375E+00 0.00000E+00
 -1      1574 8.53740E+01 2.18750E+00 0.00000E+00
 -1      1575 9.00120E+01 1.09375E+00 0.00000E+00
 -1      1576 8.85120E+01 1.09375E+00 0.00000E+00
 -1      1577 8.83740E+01 2.18750E+00 0.00000E+00
 -1      1578 9.30120E+01 1.09375E+00 0.00000E+00
 -1      1579 9.15120E+01 1.09375E+00 0.00000E+00
 -1      1580 9.13740E+01 2.18750E+00 0.00000E+00
 -1      1581 9.60120E+01 1.09375E+00 0.00000E+00
 -1      1582 9.45120E+01 1.09375E+00 0.00000E+00
 -1      1583 9.43740E+01 2.18750E+00 0.00000E+00
 -1      1584 9.90120E+01 1.09375E+00 0.00000E+00
 -1      1585 9.75120E+01 1.09375E+00 0.00000E+00
 -1      1586 9.73740E+01 2.18750E+00 0.00000E+00
 -1      1587 1.02012E+02 1.09375E+00 0.00000E+00
 -1      1588 1.00512E+02 1.09375E+00 0.00000E+00
 -1      1589 1.00374E+02 2.18750E+00 0.00000E+00
 -1      1590 1.05012E+02 1.09375E+00 0.00000E+00
 -1      1591 1.03512E+02 1.09375E+00 0.00000E+00
 -1      1592 1.03374E+02 2.18750E+00 0.00000E+00
 -1      1593 1.08012E+02 1.09375E+00 0.00000E+00
 -1      1594 1.06512E+02 1.09375E+00 0.00000E+00
 -1      1595 1.06374E+02 2.18750E+00 0.00000E+00
 -1      1596 1.11012E+02 1.09375E+00 0.00000E+00
 -1      1597 1.09512E+02 1.09375E+00 0.00000E+00
 -1      1598 1.09374E+02 2.18750E+00 0.00000E+00
 -1      1599 1.14012E+02 1.09375E+00 0.00000E+00
 -1      1600 1.12512E+02 1.09375E+00 0.00000E+00
 -1      1601 1.12374E+02 2.18750E+00 0.00000E+00
 -1      1602 1.17012E+02 1.09375E+00 0.00000E+00
 -1      1603 1.15512E+02 1.09375E+00 0.00000E+00
 -1      1604 1.15374E+02 2.18750E+00 0.00000E+00
 -1      1605 1.20012E+02 1.09375E+00 0.00000E+00
 -1      1606 1.18512E+02 1.09375E+00 0.00000E+00
 -1      1607 1.18374E+02 2.18750E+00 0.00000E+00
 -1      1608 1.23012E+02 1.09375E+00 0.00000E+00
 -1      1609 1.21512E+02 1.09375E+00 0.00000E+00
 -1      1610 1.21374E+02 2.18750E+00 0.00000E+00
 -1      1611 1.26012E+02 1.09375E+00 0.00000E+00
 -1      1612 1.24512E+02 1.09375E+00 0.00000E+00
 -1      1613 1.24374E+02 2.18750E+00 0.00000E+00
 -1      1614 1.29012E+02 1.09375E+00 0.00000E+00
 -1      1615 1.27512E+02 1.09375E+00 0.00000E+00
 -1      1616 1.27374E+02 2.18750E+00 0.00000E+00
 -1      1617 1.32012E+02 1.09375E+00 0.00000E+00
 -1      1618 1.30512E+02 1.09375E+00 0.00000E+00
 -1      1619 1.30374E+02 2.18750E+00 0.00000E+00
 -1      1620 1.35012E+02 1.09375E+00 0.00000E+00
 -1      1621 1.33512E+02 1.09375E+00 0.00000E+00
 -1      1622 1.33374E+02 2.18750E+00 0.00000E+00
 -1      1623 1.38012E+02 1.09375E+00 0.00000E+00
 -1      1624 1.36512E+02 1.09375E+00 0.00000E+00
 -1      1625 1.36374E+02 2.18750E+00 0.00000E+00
 -1      1626 1.41012E+02 1.09375E+00 0.00000E+00
 -1      1627 1.39512E+02 1.09375E+00 0.00000E+00
 -1      1628 1.39374E+02 2.18750E+00 0.00000E+00
 -1      1629 1.44012E+02 1.09375E+00 0.00000E+00
 -1      1630 1.42512E+02 1.09375E+00 0.00000E+00
 -1      1631 1.42374E+02 2.18750E+00 0.00000E+00
 -1      1632 1.47012E+02 1.09375E+00 0.00000E+00
 -1      1633 1.45512E+02 1.09375E+00 0.00000E+00
 -1      1634 1.45374E+02 2.18750E+00 0.00000E+00
 -1      1635 1.48575E+02 1.47500E+00 0.00000E+00
 -1      1636 1.48701E+02 5.16250E+00 0.00000E+00
 -1      1637 1.48701E+02 3.68750E+00 0.00000E+00
 -1      1638 1.48701E+02 8.11250E+00 0.00000E+00
 -1      1639 1.48701E+02 6.63750E+00 0.00000E+00
 -1      1640 1.47402E+02 5.90000E+00 0.00000E+00
 -1      1641 1.48701E+02 1.10625E+01 0.00000E+00
 -1      1642 1.48701E+02 9.58750E+00 0.00000E+00
 -1      1643 1.47402E+02 8.85000E+00 0.00000E+00
 -1      1644 1.48701E+02 1.40125E+01 0.00000E+00
 -1      1645 1.48701E+02 1.25375E+01 0.00000E+00
 -1      1646 1.47402E+02 1.18000E+01 0.00000E+00
 -1      1647 1.48701E+02 1.69125E+01 0.00000E+00
 -1      1648 1.48701E+02 1.54625E+01 0.00000E+00
 -1      1649 1.47402E+02 1.47250E+01 0.00000E+00
 -1      1650 1.48701E+02 1.98625E+01 0.00000E+00
 -1      1651 1.48701E+02 1.83875E+01 0.00000E+00
 -1      1652 1.47402E+02 1.76500E+01 0.00000E+00
 -1      1653 1.48701E+02 2.28125E+01 0.00000E+00
 -1      1654 1.48701E+02 2.13375E+01 0.00000E+00
 -1      1655 1.47402E+02 2.06000E+01 0.00000E+00
 -1      1656 1.48701E+02 2.57625E+01 0.00000E+00
 -1      1657 1.48701E+02 2.42875E+01 0.00000E+00
 -1      1658 1.47402E+02 2.35500E+01 0.00000E+00
 -1      1659 1.48701E+02 2.87125E+01 0.00000E+00
 -1      1660 1.48701E+02 2.72375E+01 0.00000E+00
 -1      1661 1.47402E+02 2.65000E+01 0.00000E+00
 -1      1662 1.48701E+02 3.16625E+01 0.00000E+00
 -1      1663 1.48701E+02 3.01875E+01 0.00000E+00
 -1      1664 1.47402E+02 2.94500E+01 0.00000E+00
 -1      1665 1.48701E+02 3.45625E+01 0.00000E+00
 -1      1666 1.48701E+02 3.31125E+01 0.00000E+00
 -1      1667 1.47402E+02 3.23750E+01 0.00000E+00
 -1      1668 1.48701E+02 3.75125E+01 0.00000E+00
 -1      1669 1.48701E+02 3.60375E+01 0.00000E+00
 -1      1670 1.47402E+02 3.53000E+01 0.00000E+00
 -1      1671 1.48701E+02 4.04625E+01 0.00000E+00
 -1      1672 1.48701E+02 3.89875E+01 0.00000E+00
 -1      1673 1.47402E+02 3.82500E+01 0.00000E+00
 -1      1674 1.48701E+02 4.34125E+01 0.00000E+00
 -1      1675 1.48701E+02 4.19375E+01 0.00000E+00
 -1      1676 1.47402E+02 4.12000E+01 0.00000E+00
 -1      1677 1.48263E+02 4.60692E+01 0.00000E+00
 -1      1678 1.48263E+02 4.45942E+01 0.00000E+00
 -1      1679 1.46964E+02 4.38568E+01 0.00000E+00
 -1      1680 1.46088E+02 4.62202E+01 0.00000E+00
 -1      1681 9.75962E+01 2.84089E+01 0.00000E+00
 -1      1682 9.76662E+01 2.91050E+01 0.00000E+00
 -1      1683 9.72707E+01 2.68301E+01 0.00000E+00
 -1      1684 9.75006E+01 2.75512E+01 0.00000E+00
 -1      1685 9.65987E+01 2.53091E+01 0.00000E+00
 -1      1686 9.69781E+01 2.59637E+01 0.00000E+00
 -1      1687 9.54352E+01 2.40816E+01 0.00000E+00
 -1      1688 9.59561E+01 2.46478E+01 0.00000E+00
 -1      1689 9.41388E+01 2.31051E+01 0.00000E+00
 -1      1690 9.47434E+01 2.35289E+01 0.00000E+00
 -1      1691 9.27273E+01 2.24072E+01 0.00000E+00
 -1      1692 9.33930E+01 2.26903E+01 0.00000E+00
 -1      1693 9.12032E+01 2.19759E+01 0.00000E+00
 -1      1694 9.19224E+01 2.21170E+01 0.00000E+00
 -1      1695 8.96344E+01 2.19081E+01 0.00000E+00
 -1      1696 9.03514E+01 2.18982E+01 0.00000E+00
 -1      1697 8.80028E+01 2.21489E+01 0.00000E+00
 -1      1698 8.87541E+01 2.19755E+01 0.00000E+00
 -1      1699 8.65003E+01 2.27990E+01 0.00000E+00
 -1      1700 8.71697E+01 2.24813E+01 0.00000E+00
 -1      1701 8.51942E+01 2.37389E+01 0.00000E+00
 -1      1702 8.57808E+01 2.32881E+01 0.00000E+00
 -1      1703 8.39980E+01 2.48854E+01 0.00000E+00
 -1      1704 8.44941E+01 2.42957E+01 0.00000E+00
 -1      1705 8.32136E+01 2.63551E+01 0.00000E+00
 -1      1706 8.35647E+01 2.56813E+01 0.00000E+00
 -1      1707 8.26988E+01 2.78870E+01 0.00000E+00
 -1      1708 8.28934E+01 2.71711E+01 0.00000E+00
 -1      1709 8.25221E+01 2.94802E+01 0.00000E+00
 -1      1710 8.25615E+01 2.87411E+01 0.00000E+00
 -1      1711 8.26580E+01 3.11361E+01 0.00000E+00
 -1      1712 8.25315E+01 3.03704E+01 0.00000E+00
 -1      1713 8.31773E+01 3.26047E+01 0.00000E+00
 -1      1714 8.29233E+01 3.19581E+01 0.00000E+00
 -1      1715 8.39372E+01 3.39273E+01 0.00000E+00
 -1      1716 8.35522E+01 3.33331E+01 0.00000E+00
 -1      1717 8.49577E+01 3.50820E+01 0.00000E+00
 -1      1718 8.44571E+01 3.45742E+01 0.00000E+00
 -1      1719 8.61760E+01 3.60937E+01 0.00000E+00
 -1      1720 8.55643E+01 3.56882E+01 0.00000E+00
 -1      1721 8.76072E+01 3.66723E+01 0.00000E+00
 -1      1722 8.69609E+01 3.64136E+01 0.00000E+00
 -1      1723 8.91381E+01 3.70707E+01 0.00000E+00
 -1      1724 8.84078E+01 3.69416E+01 0.00000E+00
 -1      1725 9.07113E+01 3.70668E+01 0.00000E+00
 -1      1726 8.99947E+01 3.70909E+01 0.00000E+00
 -1      1727 9.22107E+01 3.67926E+01 0.00000E+00
 -1      1728 9.15309E+01 3.69563E+01 0.00000E+00
 -1      1729 9.36893E+01 3.62805E+01 0.00000E+00
 -1      1730 9.30317E+01 3.65905E+01 0.00000E+00
 -1      1731 9.49150E+01 3.53663E+01 0.00000E+00
 -1      1732 9.43634E+01 3.57798E+01 0.00000E+00
 -1      1733 9.59814E+01 3.42914E+01 0.00000E+00
 -1      1734 9.55136E+01 3.48158E+01 0.00000E+00
 -1      1735 9.69962E+01 3.30290E+01 0.00000E+00
 -1      1736 9.66217E+01 3.36831E+01 0.00000E+00
 -1      1737 9.74102E+01 3.15084E+01 0.00000E+00
 -1      1738 9.71959E+01 3.21720E+01 0.00000E+00
 -1      1739 9.77447E+01 2.99561E+01 0.00000E+00
 -1      1740 9.76660E+01 3.06944E+01 0.00000E+00
 -1      1741 9.54808E+01 2.33733E+01 0.00000E+00
 -1      1742 9.68153E+01 2.45872E+01 0.00000E+00
 -1      1743 1.48437E+02 2.56875E+00 0.00000E+00
 -1      1744 1.47138E+02 3.30625E+00 0.00000E+00
 -1      1745 9.81387E+01 2.78387E+01 0.00000E+00
 -1      1746 9.77505E+01 2.61148E+01 0.00000E+00
 -1      1747 9.83129E+01 2.95474E+01 0.00000E+00
 -1      1748 9.40432E+01 2.24057E+01 0.00000E+00
 -1      1749 9.24925E+01 2.17007E+01 0.00000E+00
 -1      1750 9.08357E+01 2.13328E+01 0.00000E+00
 -1      1751 8.91036E+01 2.13225E+01 0.00000E+00
 -1      1752 8.73902E+01 2.17223E+01 0.00000E+00
 -1      1753 8.58376E+01 2.25438E+01 0.00000E+00
 -1      1754 8.44181E+01 2.35896E+01 0.00000E+00
 -1      1755 8.32848E+01 2.49422E+01 0.00000E+00
 -1      1756 8.25314E+01 2.65541E+01 0.00000E+00
 -1      1757 8.20738E+01 2.82242E+01 0.00000E+00
 -1      1758 8.19459E+01 2.99686E+01 0.00000E+00
 -1      1759 8.22207E+01 3.16809E+01 0.00000E+00
 -1      1760 8.28610E+01 3.32314E+01 0.00000E+00
 -1      1761 8.37558E+01 3.46068E+01 0.00000E+00
 -1      1762 8.48823E+01 3.58599E+01 0.00000E+00
 -1      1763 8.62738E+01 3.67859E+01 0.00000E+00
 -1      1764 8.78594E+01 3.73750E+01 0.00000E+00
 -1      1765 8.95167E+01 3.76645E+01 0.00000E+00
 -1      1766 9.11931E+01 3.75742E+01 0.00000E+00
 -1      1767 9.28337E+01 3.72617E+01 0.00000E+00
 -1      1768 9.43287E+01 3.65589E+01 0.00000E+00
 -1      1769 9.56013E+01 3.55076E+01 0.00000E+00
 -1      1770 9.68402E+01 3.43488E+01 0.00000E+00
 -1      1771 9.76802E+01 3.28835E+01 0.00000E+00
 -1      1772 9.81357E+01 3.12124E+01 0.00000E+00
 -1      1773 2.87400E+00 4.77875E+01 0.00000E+00
 -1      1774 3.89700E+00 4.04125E+01 0.00000E+00
 -1      1775 3.89700E+00 4.18875E+01 0.00000E+00
 -1      1776 3.89700E+00 4.33625E+01 0.00000E+00
 -1      1777 3.89700E+00 4.48375E+01 0.00000E+00
 -1      1778 5.19600E+00 4.26250E+01 0.00000E+00
 -1      1779 3.89700E+00 3.45500E+01 0.00000E+00
 -1      1780 3.89700E+00 3.60000E+01 0.00000E+00
 -1      1781 3.89700E+00 3.16000E+01 0.00000E+00
 -1      1782 3.89700E+00 3.30750E+01 0.00000E+00
 -1      1783 5.19600E+00 3.38000E+01 0.00000E+00
 -1      1784 3.89700E+00 2.86500E+01 0.00000E+00
 -1      1785 3.89700E+00 3.01250E+01 0.00000E+00
 -1      1786 5.19600E+00 3.08500E+01 0.00000E+00
 -1      1787 3.89700E+00 2.57000E+01 0.00000E+00
 -1      1788 3.89700E+00 2.71750E+01 0.00000E+00
 -1      1789 5.19600E+00 2.79000E+01 0.00000E+00
 -1      1790 3.89700E+00 2.27500E+01 0.00000E+00
 -1      1791 3.89700E+00 2.42250E+01 0.00000E+00
 -1      1792 5.19600E+00 2.49500E+01 0.00000E+00
 -1      1793 3.89700E+00 1.98000E+01 0.00000E+00
 -1      1794 3.89700E+00 2.12750E+01 0.00000E+00
 -1      1795 5.19600E+00 2.20000E+01 0.00000E+00
 -1      1796 3.89700E+00 1.69000E+01 0.00000E+00
 -1      1797 3.89700E+00 1.83500E+01 0.00000E+00
 -1      1798 5.19600E+00 1.90750E+01 0.00000E+00
 -1      1799 3.89700E+00 1.39500E+01 0.00000E+00
 -1      1800 3.89700E+00 1.54250E+01 0.00000E+00
 -1      1801 5.19600E+00 1.61500E+01 0.00000E+00
 -1      1802 3.89700E+00 1.10000E+01 0.00000E+00
 -1      1803 3.89700E+00 1.24750E+01 0.00000E+00
 -1      1804 5.19600E+00 1.32000E+01 0.00000E+00
 -1      1805 3.89700E+00 8.05000E+00 0.00000E+00
 -1      1806 3.89700E+00 9.52500E+00 0.00000E+00
 -1      1807 5.19600E+00 1.02500E+01 0.00000E+00
 -1      1808 3.89700E+00 5.10000E+00 0.00000E+00
 -1      1809 3.89700E+00 6.57500E+00 0.00000E+00
 -1      1810 5.19600E+00 7.30000E+00 0.00000E+00
 -1      1811 4.20450E+00 3.09687E+00 0.00000E+00
 -1      1812 4.06650E+00 4.19063E+00 0.00000E+00
 -1      1813 5.36550E+00 4.91563E+00 0.00000E+00
 -1      1814 5.70450E+00 3.09687E+00 0.00000E+00
 -1      1815 3.62400E+00 4.64885E+01 0.00000E+00
 -1      1816 8.70450E+00 3.09687E+00 0.00000E+00
 -1      1817 7.20450E+00 3.09687E+00 0.00000E+00
 -1      1818 7.03500E+00 4.00625E+00 0.00000E+00
 -1      1819 4.92300E+00 4.57510E+01 0.00000E+00
 -1      1820 8.40000E+00 4.61030E+01 0.00000E+00
 -1      1821 9.90000E+00 4.61030E+01 0.00000E+00
 -1      1822 1.14000E+01 4.61030E+01 0.00000E+00
 -1      1823 1.29000E+01 4.61030E+01 0.00000E+00
 -1      1824 1.06500E+01 4.48040E+01 0.00000E+00
 -1      1825 1.44000E+01 4.61030E+01 0.00000E+00
 -1      1826 1.59000E+01 4.61030E+01 0.00000E+00
 -1      1827 1.36500E+01 4.48040E+01 0.00000E+00
 -1      1828 1.74000E+01 4.61030E+01 0.00000E+00
 -1      1829 1.89000E+01 4.61030E+01 0.00000E+00
 -1      1830 1.66500E+01 4.48040E+01 0.00000E+00
 -1      1831 2.04000E+01 4.61030E+01 0.00000E+00
 -1      1832 2.19000E+01 4.61030E+01 0.00000E+00
 -1      1833 1.96500E+01 4.48040E+01 0.00000E+00
 -1      1834 2.34000E+01 4.61030E+01 0.00000E+00
 -1      1835 2.49000E+01 4.61030E+01 0.00000E+00
 -1      1836 2.26500E+01 4.48040E+01 0.00000E+00
 -1      1837 2.64000E+01 4.61030E+01 0.00000E+00
 -1      1838 2.79000E+01 4.61030E+01 0.00000E+00
 -1      1839 2.56500E+01 4.48040E+01 0.00000E+00
 -1      1840 2.94000E+01 4.61030E+01 0.00000E+00
 -1      1841 3.09000E+01 4.61030E+01 0.00000E+00
 -1      1842 2.86500E+01 4.48040E+01 0.00000E+00
 -1      1843 3.24000E+01 4.61030E+01 0.00000E+00
 -1      1844 3.39000E+01 4.61030E+01 0.00000E+00
 -1      1845 3.16500E+01 4.48040E+01 0.00000E+00
 -1      1846 3.54000E+01 4.61030E+01 0.00000E+00
 -1      1847 3.69000E+01 4.61030E+01 0.00000E+00
 -1      1848 3.46500E+01 4.48040E+01 0.00000E+00
 -1      1849 3.84000E+01 4.61030E+01 0.00000E+00
 -1      1850 3.99000E+01 4.61030E+01 0.00000E+00
 -1      1851 3.76500E+01 4.48040E+01 0.00000E+00
 -1      1852 4.14000E+01 4.61030E+01 0.00000E+00
 -1      1853 4.29000E+01 4.61030E+01 0.00000E+00
 -1      1854 4.06500E+01 4.48040E+01 0.00000E+00
 -1      1855 4.44000E+01 4.61030E+01 0.00000E+00
 -1      1856 4.59000E+01 4.61030E+01 0.00000E+00
 -1      1857 4.36500E+01 4.48040E+01 0.00000E+00
 -1      1858 4.74000E+01 4.61030E+01 0.00000E+00
 -1      1859 4.89000E+01 4.61030E+01 0.00000E+00
 -1      1860 4.66500E+01 4.48040E+01 0.00000E+00
 -1      1861 5.04000E+01 4.61030E+01 0.00000E+00
 -1      1862 5.19000E+01 4.61030E+01 0.00000E+00
 -1      1863 4.96500E+01 4.48040E+01 0.00000E+00
 -1      1864 5.34000E+01 4.61030E+01 0.00000E+00
 -1      1865 5.49000E+01 4.61030E+01 0.00000E+00
 -1      1866 5.26500E+01 4.48040E+01 0.00000E+00
 -1      1867 5.64000E+01 4.61030E+01 0.00000E+00
 -1      1868 5.79000E+01 4.61030E+01 0.00000E+00
 -1      1869 5.56500E+01 4.48040E+01 0.00000E+00
 -1      1870 5.94000E+01 4.61030E+01 0.00000E+00
 -1      1871 6.09000E+01 4.61030E+01 0.00000E+00
 -1      1872 5.86500E+01 4.48040E+01 0.00000E+00
 -1      1873 6.24000E+01 4.61030E+01 0.00000E+00
 -1      1874 6.39000E+01 4.61030E+01 0.00000E+00
 -1      1875 6.16500E+01 4.48040E+01 0.00000E+00
 -1      1876 6.54000E+01 4.61030E+01 0.00000E+00
 -1      1877 6.69000E+01 4.61030E+01 0.00000E+00
 -1      1878 6.46500E+01 4.48040E+01 0.00000E+00
 -1      1879 6.84000E+01 4.61030E+01 0.00000E+00
 -1      1880 6.99000E+01 4.61030E+01 0.00000E+00
 -1      1881 6.76500E+01 4.48040E+01 0.00000E+00
 -1      1882 7.14000E+01 4.61030E+01 0.00000E+00
 -1      1883 7.29000E+01 4.61030E+01 0.00000E+00
 -1      1884 7.06500E+01 4.48040E+01 0.00000E+00
 -1      1885 7.44000E+01 4.61030E+01 0.00000E+00
 -1      1886 7.59000E+01 4.61030E+01 0.00000E+00
 -1      1887 7.36500E+01 4.48040E+01 0.00000E+00
 -1      1888 7.74000E+01 4.61030E+01 0.00000E+00
 -1      1889 7.89000E+01 4.61030E+01 0.00000E+00
 -1      1890 7.66500E+01 4.48040E+01 0.00000E+00
 -1      1891 8.04000E+01 4.61030E+01 0.00000E+00
 -1      1892 8.19000E+01 4.61030E+01 0.00000E+00
 -1      1893 7.96500E+01 4.48040E+01 0.00000E+00
 -1      1894 8.34000E+01 4.61030E+01 0.00000E+00
 -1      1895 8.49000E+01 4.61030E+01 0.00000E+00
 -1      1896 8.26500E+01 4.48040E+01 0.00000E+00
 -1      1897 8.64000E+01 4.61030E+01 0.00000E+00
 -1      1898 8.79000E+01 4.61030E+01 0.00000E+00
 -1      1899 8.56500E+01 4.48040E+01 0.00000E+00
 -1      1900 8.94000E+01 4.61030E+01 0.00000E+00
 -1      1901 9.09000E+01 4.61030E+01 0.00000E+00
 -1      1902 8.86500E+01 4.48040E+01 0.00000E+00
 -1      1903 9.24000E+01 4.61030E+01 0.00000E+00
 -1      1904 9.39000E+01 4.61030E+01 0.00000E+00
 -1      1905 9.16500E+01 4.48040E+01 0.00000E+00
 -1      1906 9.54000E+01 4.61030E+01 0.00000E+00
 -1      1907 9.69000E+01 4.61030E+01 0.00000E+00
 -1      1908 9.46500E+01 4.48040E+01 0.00000E+00
 -1      1909 9.84000E+01 4.61030E+01 0.00000E+00
 -1      1910 9.99000E+01 4.61030E+01 0.00000E+00
 -1      1911 9.76500E+01 4.48040E+01 0.00000E+00
 -1      1912 1.01400E+02 4.61030E+01 0.00000E+00
 -1      1913 1.02900E+02 4.61030E+01 0.00000E+00
 -1      1914 1.00650E+02 4.48040E+01 0.00000E+00
 -1      1915 1.04400E+02 4.61030E+01 0.00000E+00
 -1      1916 1.05900E+02 4.61030E+01 0.00000E+00
 -1      1917 1.03650E+02 4.48040E+01 0.00000E+00
 -1      1918 1.07400E+02 4.61030E+01 0.00000E+00
 -1      1919 1.08900E+02 4.61030E+01 0.00000E+00
 -1      1920 1.06650E+02 4.48040E+01 0.00000E+00
 -1      1921 1.10400E+02 4.61030E+01 0.00000E+00
 -1      1922 1.11900E+02 4.61030E+01 0.00000E+00
 -1      1923 1.09650E+02 4.48040E+01 0.00000E+00
 -1      1924 1.13400E+02 4.61030E+01 0.00000E+00
 -1      1925 1.14900E+02 4.61030E+01 0.00000E+00
 -1      1926 1.12650E+02 4.48040E+01 0.00000E+00
 -1      1927 1.16400E+02 4.61030E+01 0.00000E+00
 -1      1928 1.17900E+02 4.61030E+01 0.00000E+00
 -1      1929 1.15650E+02 4.48040E+01 0.00000E+00
 -1      1930 1.19400E+02 4.61030E+01 0.00000E+00
 -1      1931 1.20900E+02 4.61030E+01 0.00000E+00
 -1      1932 1.18650E+02 4.48040E+01 0.00000E+00
 -1      1933 1.22400E+02 4.61030E+01 0.00000E+00
 -1      1934 1.23900E+02 4.61030E+01 0.00000E+00
 -1      1935 1.21650E+02 4.48040E+01 0.00000E+00
 -1      1936 1.25400E+02 4.61030E+01 0.00000E+00
 -1      1937 1.26900E+02 4.61030E+01 0.00000E+00
 -1      1938 1.24650E+02 4.48040E+01 0.00000E+00
 -1      1939 1.28400E+02 4.61030E+01 0.00000E+00
 -1      1940 1.29900E+02 4.61030E+01 0.00000E+00
 -1      1941 1.27650E+02 4.48040E+01 0.00000E+00
 -1      1942 1.31400E+02 4.61030E+01 0.00000E+00
 -1      1943 1.32900E+02 4.61030E+01 0.00000E+00
 -1      1944 1.30650E+02 4.48040E+01 0.00000E+00
 -1      1945 1.34400E+02 4.61030E+01 0.00000E+00
 -1      1946 1.35900E+02 4.61030E+01 0.00000E+00
 -1      1947 1.33650E+02 4.48040E+01 0.00000E+00
 -1      1948 1.37400E+02 4.61030E+01 0.00000E+00
 -1      1949 1.38900E+02 4.61030E+01 0.00000E+00
 -1      1950 1.36650E+02 4.48040E+01 0.00000E+00
 -1      1951 1.40400E+02 4.61030E+01 0.00000E+00
 -1      1952 1.41900E+02 4.61030E+01 0.00000E+00
 -1      1953 1.39650E+02 4.48040E+01 0.00000E+00
 -1      1954 1.43244E+02 4.61616E+01 0.00000E+00
 -1      1955 1.44744E+02 4.61616E+01 0.00000E+00
 -1      1956 1.45182E+02 4.49799E+01 0.00000E+00
 -1      1957 1.42494E+02 4.48626E+01 0.00000E+00
 -1      1958 1.17045E+01 3.09687E+00 0.00000E+00
 -1      1959 1.02045E+01 3.09687E+00 0.00000E+00
 -1      1960 1.00350E+01 4.00625E+00 0.00000E+00
 -1      1961 1.47045E+01 3.09687E+00 0.00000E+00
 -1      1962 1.32045E+01 3.09687E+00 0.00000E+00
 -1      1963 1.30350E+01 4.00625E+00 0.00000E+00
 -1      1964 1.77045E+01 3.09687E+00 0.00000E+00
 -1      1965 1.62045E+01 3.09687E+00 0.00000E+00
 -1      1966 1.60350E+01 4.00625E+00 0.00000E+00
 -1      1967 2.07045E+01 3.09687E+00 0.00000E+00
 -1      1968 1.92045E+01 3.09687E+00 0.00000E+00
 -1      1969 1.90350E+01 4.00625E+00 0.00000E+00
 -1      1970 2.37045E+01 3.09687E+00 0.00000E+00
 -1      1971 2.22045E+01 3.09687E+00 0.00000E+00
 -1      1972 2.20350E+01 4.00625E+00 0.00000E+00
 -1      1973 2.67045E+01 3.09687E+00 0.00000E+00
 -1      1974 2.52045E+01 3.09687E+00 0.00000E+00
 -1      1975 2.50350E+01 4.00625E+00 0.00000E+00
 -1      1976 2.97045E+01 3.09687E+00 0.00000E+00
 -1      1977 2.82045E+01 3.09687E+00 0.00000E+00
 -1      1978 2.80350E+01 4.00625E+00 0.00000E+00
 -1      1979 3.27045E+01 3.09687E+00 0.00000E+00
 -1      1980 3.12045E+01 3.09687E+00 0.00000E+00
 -1      1981 3.10350E+01 4.00625E+00 0.00000E+00
 -1      1982 3.57045E+01 3.09687E+00 0.00000E+00
 -1      1983 3.42045E+01 3.09687E+00 0.00000E+00
 -1      1984 3.40350E+01 4.00625E+00 0.00000E+00
 -1      1985 3.87045E+01 3.09687E+00 0.00000E+00
 -1      1986 3.72045E+01 3.09687E+00 0.00000E+00
 -1      1987 3.70350E+01 4.00625E+00 0.00000E+00
 -1      1988 4.17045E+01 3.09687E+00 0.00000E+00
 -1      1989 4.02045E+01 3.09687E+00 0.00000E+00
 -1      1990 4.00350E+01 4.00625E+00 0.00000E+00
 -1      1991 4.47045E+01 3.09687E+00 0.00000E+00
 -1      1992 4.32045E+01 3.09687E+00 0.00000E+00
 -1      1993 4.30350E+01 4.00625E+00 0.00000E+00
 -1      1994 4.77045E+01 3.09687E+00 0.00000E+00
 -1      1995 4.62045E+01 3.09687E+00 0.00000E+00
 -1      1996 4.60350E+01 4.00625E+00 0.00000E+00
 -1      1997 5.07045E+01 3.09687E+00 0.00000E+00
 -1      1998 4.92045E+01 3.09687E+00 0.00000E+00
 -1      1999 4.90350E+01 4.00625E+00 0.00000E+00
 -1      2000 5.37045E+01 3.09687E+00 0.00000E+00
 -1      2001 5.22045E+01 3.09687E+00 0.00000E+00
 -1      2002 5.20350E+01 4.00625E+00 0.00000E+00
 -1      2003 5.67045E+01 3.09687E+00 0.00000E+00
 -1      2004 5.52045E+01 3.09687E+00 0.00000E+00
 -1      2005 5.50350E+01 4.00625E+00 0.00000E+00
 -1      2006 5.97045E+01 3.09687E+00 0.00000E+00
 -1      2007 5.82045E+01 3.09687E+00 0.00000E+00
 -1      2008 5.80350E+01 4.00625E+00 0.00000E+00
 -1      2009 6.27045E+01 3.09687E+00 0.00000E+00
 -1      2010 6.12045E+01 3.09687E+00 0.00000E+00
 -1      2011 6.10350E+01 4.00625E+00 0.00000E+00
 -1      2012 6.57045E+01 3.09687E+00 0.00000E+00
 -1      2013 6.42045E+01 3.09687E+00 0.00000E+00
 -1      2014 6.40350E+01 4.00625E+00 0.00000E+00
 -1      2015 6.87045E+01 3.09687E+00 0.00000E+00
 -1      2016 6.72045E+01 3.09687E+00 0.00000E+00
 -1      2017 6.70350E+01 4.00625E+00 0.00000E+00
 -1      2018 7.17045E+01 3.09687E+00 0.00000E+00
 -1      2019 7.02045E+01 3.09687E+00 0.00000E+00
 -1      2020 7.00350E+01 4.00625E+00 0.00000E+00
 -1      2021 7.47045E+01 3.09687E+00 0.00000E+00
 -1      2022 7.32045E+01 3.09687E+00 0.00000E+00
 -1      2023 7.30350E+01 4.00625E+00 0.00000E+00
 -1      2024 7.77045E+01 3.09687E+00 0.00000E+00
 -1      2025 7.62045E+01 3.09687E+00 0.00000E+00
 -1      2026 7.60350E+01 4.00625E+00 0.00000E+00
 -1      2027 8.07045E+01 3.09687E+00 0.00000E+00
 -1      2028 7.92045E+01 3.09687E+00 0.00000E+00
 -1      2029 7.90350E+01 4.00625E+00 0.00000E+00
 -1      2030 8.37045E+01 3.09687E+00 0.00000E+00
 -1      2031 8.22045E+01 3.09687E+00 0.00000E+00
 -1      2032 8.20350E+01 4.00625E+00 0.00000E+00
 -1      2033 8.67045E+01 3.09687E+00 0.00000E+00
 -1      2034 8.52045E+01 3.09687E+00 0.00000E+00
 -1      2035 8.50350E+01 4.00625E+00 0.00000E+00
 -1      2036 8.97045E+01 3.09687E+00 0.00000E+00
 -1      2037 8.82045E+01 3.09687E+00 0.00000E+00
 -1      2038 8.80350E+01 4.00625E+00 0.00000E+00
 -1      2039 9.27045E+01 3.09687E+00 0.00000E+00
 -1      2040 9.12045E+01 3.09687E+00 0.00000E+00
 -1      2041 9.10350E+01 4.00625E+00 0.00000E+00
 -1      2042 9.57045E+01 3.09687E+00 0.00000E+00
 -1      2043 9.42045E+01 3.09687E+00 0.00000E+00
 -1      2044 9.40350E+01 4.00625E+00 0.00000E+00
 -1      2045 9.87045E+01 3.09687E+00 0.00000E+00
 -1      2046 9.72045E+01 3.09687E+00 0.00000E+00
 -1      2047 9.70350E+01 4.00625E+00 0.00000E+00
 -1      2048 1.01704E+02 3.09687E+00 0.00000E+00
 -1      2049 1.00204E+02 3.09687E+00 0.00000E+00
 -1      2050 1.00035E+02 4.00625E+00 0.00000E+00
 -1      2051 1.04704E+02 3.09687E+00 0.00000E+00
 -1      2052 1.03204E+02 3.09687E+00 0.00000E+00
 -1      2053 1.03035E+02 4.00625E+00 0.00000E+00
 -1      2054 1.07704E+02 3.09687E+00 0.00000E+00
 -1      2055 1.06204E+02 3.09687E+00 0.00000E+00
 -1      2056 1.06035E+02 4.00625E+00 0.00000E+00
 -1      2057 1.10704E+02 3.09687E+00 0.00000E+00
 -1      2058 1.09204E+02 3.09687E+00 0.00000E+00
 -1      2059 1.09035E+02 4.00625E+00 0.00000E+00
 -1      2060 1.13704E+02 3.09687E+00 0.00000E+00
 -1      2061 1.12204E+02 3.09687E+00 0.00000E+00
 -1      2062 1.12035E+02 4.00625E+00 0.00000E+00
 -1      2063 1.16704E+02 3.09687E+00 0.00000E+00
 -1      2064 1.15204E+02 3.09687E+00 0.00000E+00
 -1      2065 1.15035E+02 4.00625E+00 0.00000E+00
 -1      2066 1.19704E+02 3.09687E+00 0.00000E+00
 -1      2067 1.18204E+02 3.09687E+00 0.00000E+00
 -1      2068 1.18035E+02 4.00625E+00 0.00000E+00
 -1      2069 1.22704E+02 3.09687E+00 0.00000E+00
 -1      2070 1.21204E+02 3.09687E+00 0.00000E+00
 -1      2071 1.21035E+02 4.00625E+00 0.00000E+00
 -1      2072 1.25704E+02 3.09687E+00 0.00000E+00
 -1      2073 1.24204E+02 3.09687E+00 0.00000E+00
 -1      2074 1.24035E+02 4.00625E+00 0.00000E+00
 -1      2075 1.28704E+02 3.09687E+00 0.00000E+00
 -1      2076 1.27204E+02 3.09687E+00 0.00000E+00
 -1      2077 1.27035E+02 4.00625E+00 0.00000E+00
 -1      2078 1.31704E+02 3.09687E+00 0.00000E+00
 -1      2079 1.30204E+02 3.09687E+00 0.00000E+00
 -1      2080 1.30035E+02 4.00625E+00 0.00000E+00
 -1      2081 1.34704E+02 3.09687E+00 0.00000E+00
 -1      2082 1.33204E+02 3.09687E+00 0.00000E+00
 -1      2083 1.33035E+02 4.00625E+00 0.00000E+00
 -1      2084 1.37704E+02 3.09687E+00 0.00000E+00
 -1      2085 1.36204E+02 3.09687E+00 0.00000E+00
 -1      2086 1.36035E+02 4.00625E+00 0.00000E+00
 -1      2087 1.40704E+02 3.09687E+00 0.00000E+00
 -1      2088 1.39204E+02 3.09687E+00 0.00000E+00
 -1      2089 1.39035E+02 4.00625E+00 0.00000E+00
 -1      2090 1.43704E+02 3.09687E+00 0.00000E+00
 -1      2091 1.42204E+02 3.09687E+00 0.00000E+00
 -1      2092 1.42035E+02 4.00625E+00 0.00000E+00
 -1      2093 1.46171E+02 3.20156E+00 0.00000E+00
 -1      2094 1.44671E+02 3.20156E+00 0.00000E+00
 -1      2095 1.44502E+02 4.11094E+00 0.00000E+00
 -1      2096 1.46435E+02 4.32031E+00 0.00000E+00
 -1      2097 1.46103E+02 1.25375E+01 0.00000E+00
 -1      2098 1.46103E+02 1.10625E+01 0.00000E+00
 -1      2099 1.46103E+02 9.58750E+00 0.00000E+00
 -1      2100 1.46103E+02 8.11250E+00 0.00000E+00
 -1      2101 1.44804E+02 1.03250E+01 0.00000E+00
 -1      2102 1.46269E+02 6.95391E+00 0.00000E+00
 -1      2103 1.46269E+02 5.47891E+00 0.00000E+00
 -1      2104 1.45302E+02 5.37422E+00 0.00000E+00
 -1      2105 1.44970E+02 7.69141E+00 0.00000E+00
 -1      2106 1.46103E+02 1.54375E+01 0.00000E+00
 -1      2107 1.46103E+02 1.39875E+01 0.00000E+00
 -1      2108 1.44804E+02 1.32500E+01 0.00000E+00
 -1      2109 1.46103E+02 1.83875E+01 0.00000E+00
 -1      2110 1.46103E+02 1.69125E+01 0.00000E+00
 -1      2111 1.44804E+02 1.61750E+01 0.00000E+00
 -1      2112 1.46103E+02 2.13375E+01 0.00000E+00
 -1      2113 1.46103E+02 1.98625E+01 0.00000E+00
 -1      2114 1.44804E+02 1.91250E+01 0.00000E+00
 -1      2115 1.46103E+02 2.42875E+01 0.00000E+00
 -1      2116 1.46103E+02 2.28125E+01 0.00000E+00
 -1      2117 1.44804E+02 2.20750E+01 0.00000E+00
 -1      2118 1.46103E+02 2.72375E+01 0.00000E+00
 -1      2119 1.46103E+02 2.57625E+01 0.00000E+00
 -1      2120 1.44804E+02 2.50250E+01 0.00000E+00
 -1      2121 1.46103E+02 3.01875E+01 0.00000E+00
 -1      2122 1.46103E+02 2.87125E+01 0.00000E+00
 -1      2123 1.44804E+02 2.79750E+01 0.00000E+00
 -1      2124 1.46103E+02 3.30875E+01 0.00000E+00
 -1      2125 1.46103E+02 3.16375E+01 0.00000E+00
 -1      2126 1.44804E+02 3.09000E+01 0.00000E+00
 -1      2127 1.46103E+02 3.60375E+01 0.00000E+00
 -1      2128 1.46103E+02 3.45625E+01 0.00000E+00
 -1      2129 1.44804E+02 3.38250E+01 0.00000E+00
 -1      2130 1.46103E+02 3.89875E+01 0.00000E+00
 -1      2131 1.46103E+02 3.75125E+01 0.00000E+00
 -1      2132 1.44804E+02 3.67750E+01 0.00000E+00
 -1      2133 1.46103E+02 4.19375E+01 0.00000E+00
 -1      2134 1.46103E+02 4.04625E+01 0.00000E+00
 -1      2135 1.44804E+02 3.97250E+01 0.00000E+00
 -1      2136 9.82579E+01 2.54608E+01 0.00000E+00
 -1      2137 9.85504E+01 2.63272E+01 0.00000E+00
 -1      2138 9.90441E+01 2.90508E+01 0.00000E+00
 -1      2139 9.91227E+01 2.99018E+01 0.00000E+00
 -1      2140 9.88528E+01 2.73355E+01 0.00000E+00
 -1      2141 9.89485E+01 2.81931E+01 0.00000E+00
 -1      2142 9.97582E+01 2.85476E+01 0.00000E+00
 -1      2143 9.69888E+01 2.37757E+01 0.00000E+00
 -1      2144 9.76314E+01 2.44369E+01 0.00000E+00
 -1      2145 9.55656E+01 2.25578E+01 0.00000E+00
 -1      2146 9.62574E+01 2.31105E+01 0.00000E+00
 -1      2147 3.89700E+00 3.74688E+01 0.00000E+00
 -1      2148 3.89700E+00 3.89437E+01 0.00000E+00
 -1      2149 5.19600E+00 3.96813E+01 0.00000E+00
 -1      2150 5.19600E+00 3.67438E+01 0.00000E+00
 -1      2151 9.23524E+01 2.08277E+01 0.00000E+00
 -1      2152 9.31574E+01 2.11179E+01 0.00000E+00
 -1      2153 9.04687E+01 2.06486E+01 0.00000E+00
 -1      2154 9.13205E+01 2.07262E+01 0.00000E+00
 -1      2155 8.86108E+01 2.06682E+01 0.00000E+00
 -1      2156 8.94911E+01 2.06009E+01 0.00000E+00
 -1      2157 8.67334E+01 2.12865E+01 0.00000E+00
 -1      2158 8.75666E+01 2.09541E+01 0.00000E+00
 -1      2159 8.51135E+01 2.22523E+01 0.00000E+00
 -1      2160 8.58330E+01 2.17632E+01 0.00000E+00
 -1      2161 8.36647E+01 2.33607E+01 0.00000E+00
 -1      2162 8.43647E+01 2.28040E+01 0.00000E+00
 -1      2163 8.23886E+01 2.49702E+01 0.00000E+00
 -1      2164 8.28218E+01 2.41743E+01 0.00000E+00
 -1      2165 8.17680E+01 2.67253E+01 0.00000E+00
 -1      2166 8.20882E+01 2.59093E+01 0.00000E+00
 -1      2167 8.12825E+01 2.85351E+01 0.00000E+00
 -1      2168 8.14199E+01 2.76809E+01 0.00000E+00
 -1      2169 8.11769E+01 3.04220E+01 0.00000E+00
 -1      2170 8.11674E+01 2.95317E+01 0.00000E+00
 -1      2171 8.15771E+01 3.23425E+01 0.00000E+00
 -1      2172 8.13118E+01 3.15205E+01 0.00000E+00
 -1      2173 8.23271E+01 3.37994E+01 0.00000E+00
 -1      2174 8.19521E+01 3.30710E+01 0.00000E+00
 -1      2175 8.10432E+01 3.29105E+01 0.00000E+00
 -1      2176 8.34126E+01 3.54149E+01 0.00000E+00
 -1      2177 8.28927E+01 3.47680E+01 0.00000E+00
 -1      2178 8.46258E+01 3.66273E+01 0.00000E+00
 -1      2179 8.40192E+01 3.60211E+01 0.00000E+00
 -1      2180 8.31561E+01 3.61823E+01 0.00000E+00
 -1      2181 8.64059E+01 3.75848E+01 0.00000E+00
 -1      2182 8.56210E+01 3.72649E+01 0.00000E+00
 -1      2183 8.80531E+01 3.81240E+01 0.00000E+00
 -1      2184 8.72524E+01 3.78546E+01 0.00000E+00
 -1      2185 8.99279E+01 3.84063E+01 0.00000E+00
 -1      2186 8.90712E+01 3.83861E+01 0.00000E+00
 -1      2187 9.16895E+01 3.81613E+01 0.00000E+00
 -1      2188 9.08698E+01 3.82718E+01 0.00000E+00
 -1      2189 9.34091E+01 3.78307E+01 0.00000E+00
 -1      2190 9.25882E+01 3.80327E+01 0.00000E+00
 -1      2191 9.51022E+01 3.68960E+01 0.00000E+00
 -1      2192 9.44282E+01 3.73968E+01 0.00000E+00
 -1      2193 9.63393E+01 3.57094E+01 0.00000E+00
 -1      2194 9.57407E+01 3.62599E+01 0.00000E+00
 -1      2195 9.76067E+01 3.45145E+01 0.00000E+00
 -1      2196 9.69664E+01 3.51228E+01 0.00000E+00
 -1      2197 9.84929E+01 3.26211E+01 0.00000E+00
 -1      2198 9.82931E+01 3.34781E+01 0.00000E+00
 -1      2199 9.90043E+01 3.09930E+01 0.00000E+00
 -1      2200 9.87486E+01 3.18071E+01 0.00000E+00
 -1      2201 9.93615E+01 3.24017E+01 0.00000E+00
 -1      2202 9.39853E+01 2.16319E+01 0.00000E+00
 -1      2203 9.47311E+01 2.20468E+01 0.00000E+00
 -1      2204 9.55077E+01 2.17841E+01 0.00000E+00
 -1      2205 6.42300E+00 4.57510E+01 0.00000E+00
 -1      2206 9.38453E+01 2.07589E+01 0.00000E+00
 -1      2207 7.17300E+00 4.44520E+01 0.00000E+00
 -1      2208 9.93602E+01 2.66816E+01 0.00000E+00
 -1      2209 9.86049E+01 2.38378E+01 0.00000E+00
 -1      2210 9.84314E+01 2.46493E+01 0.00000E+00
 -1      2211 9.92314E+01 2.48617E+01 0.00000E+00
 -1      2212 1.45665E+02 4.31193E+01 0.00000E+00
 -1      2213 9.97356E+01 3.04964E+01 0.00000E+00
 -1      2214 9.70735E+01 2.29603E+01 0.00000E+00
 -1      2215 9.84194E+01 3.42521E+01 0.00000E+00
 -1      2216 9.85456E+01 3.50261E+01 0.00000E+00
 -1      2217 9.92320E+01 3.39897E+01 0.00000E+00
 -1      2218 9.71059E+01 3.58751E+01 0.00000E+00
 -1      2219 9.58402E+01 3.70978E+01 0.00000E+00
 -1      2220 9.41826E+01 3.81678E+01 0.00000E+00
 -1      2221 9.22649E+01 3.87303E+01 0.00000E+00
 -1      2222 9.04242E+01 3.89933E+01 0.00000E+00
 -1      2223 8.84642E+01 3.88657E+01 0.00000E+00
 -1      2224 8.47579E+01 3.74262E+01 0.00000E+00
 -1      2225 8.19838E+01 3.46075E+01 0.00000E+00
 -1      2226 8.05333E+01 3.10836E+01 0.00000E+00
 -1      2227 8.05135E+01 2.89884E+01 0.00000E+00
 -1      2228 8.09767E+01 2.70362E+01 0.00000E+00
 -1      2229 8.16252E+01 2.51415E+01 0.00000E+00
 -1      2230 8.27684E+01 2.33887E+01 0.00000E+00
 -1      2231 8.43601E+01 2.20235E+01 0.00000E+00
 -1      2232 8.60094E+01 2.09951E+01 0.00000E+00
 -1      2233 8.79541E+01 2.02325E+01 0.00000E+00
 -1      2234 9.19854E+01 2.01434E+01 0.00000E+00
 -1      2235 8.99759E+01 1.99943E+01 0.00000E+00
 -1      2236 8.65996E+01 3.83337E+01 0.00000E+00
 -1      2237 1.07850E+01 5.30525E+00 0.00000E+00
 -1      2238 9.28500E+00 5.30525E+00 0.00000E+00
 -1      2239 6.49500E+00 3.01125E+01 0.00000E+00
 -1      2240 6.49500E+00 3.15875E+01 0.00000E+00
 -1      2241 6.49500E+00 3.30625E+01 0.00000E+00
 -1      2242 6.49500E+00 3.45375E+01 0.00000E+00
 -1      2243 7.79400E+00 3.23250E+01 0.00000E+00
 -1      2244 6.49500E+00 2.42125E+01 0.00000E+00
 -1      2245 6.49500E+00 2.56875E+01 0.00000E+00
 -1      2246 6.49500E+00 2.12625E+01 0.00000E+00
 -1      2247 6.49500E+00 2.27375E+01 0.00000E+00
 -1      2248 7.79400E+00 2.34750E+01 0.00000E+00
 -1      2249 6.49500E+00 1.83625E+01 0.00000E+00
 -1      2250 6.49500E+00 1.98125E+01 0.00000E+00
 -1      2251 7.79400E+00 2.05500E+01 0.00000E+00
 -1      2252 6.49500E+00 1.54125E+01 0.00000E+00
 -1      2253 6.49500E+00 1.68875E+01 0.00000E+00
 -1      2254 7.79400E+00 1.76250E+01 0.00000E+00
 -1      2255 6.49500E+00 1.24625E+01 0.00000E+00
 -1      2256 6.49500E+00 1.39375E+01 0.00000E+00
 -1      2257 7.79400E+00 1.46750E+01 0.00000E+00
 -1      2258 6.49500E+00 9.51250E+00 0.00000E+00
 -1      2259 6.49500E+00 1.09875E+01 0.00000E+00
 -1      2260 7.79400E+00 1.17250E+01 0.00000E+00
 -1      2261 1.37850E+01 5.30525E+00 0.00000E+00
 -1      2262 1.22850E+01 5.30525E+00 0.00000E+00
 -1      2263 1.15350E+01 6.60425E+00 0.00000E+00
 -1      2264 9.90000E+00 4.35050E+01 0.00000E+00
 -1      2265 1.14000E+01 4.35050E+01 0.00000E+00
 -1      2266 9.39721E+01 1.96310E+01 0.00000E+00
 -1      2267 9.48000E+01 2.01451E+01 0.00000E+00
 -1      2268 1.29000E+01 4.35050E+01 0.00000E+00
 -1      2269 1.44000E+01 4.35050E+01 0.00000E+00
 -1      2270 1.21500E+01 4.22060E+01 0.00000E+00
 -1      2271 1.59000E+01 4.35050E+01 0.00000E+00
 -1      2272 1.74000E+01 4.35050E+01 0.00000E+00
 -1      2273 1.51500E+01 4.22060E+01 0.00000E+00
 -1      2274 1.89000E+01 4.35050E+01 0.00000E+00
 -1      2275 2.04000E+01 4.35050E+01 0.00000E+00
 -1      2276 1.81500E+01 4.22060E+01 0.00000E+00
 -1      2277 2.19000E+01 4.35050E+01 0.00000E+00
 -1      2278 2.34000E+01 4.35050E+01 0.00000E+00
 -1      2279 2.11500E+01 4.22060E+01 0.00000E+00
 -1      2280 2.49000E+01 4.35050E+01 0.00000E+00
 -1      2281 2.64000E+01 4.35050E+01 0.00000E+00
 -1      2282 2.41500E+01 4.22060E+01 0.00000E+00
 -1      2283 2.79000E+01 4.35050E+01 0.00000E+00
 -1      2284 2.94000E+01 4.35050E+01 0.00000E+00
 -1      2285 2.71500E+01 4.22060E+01 0.00000E+00
 -1      2286 3.09000E+01 4.35050E+01 0.00000E+00
 -1      2287 3.24000E+01 4.35050E+01 0.00000E+00
 -1      2288 3.01500E+01 4.22060E+01 0.00000E+00
 -1      2289 3.39000E+01 4.35050E+01 0.00000E+00
 -1      2290 3.54000E+01 4.35050E+01 0.00000E+00
 -1      2291 3.31500E+01 4.22060E+01 0.00000E+00
 -1      2292 3.69000E+01 4.35050E+01 0.00000E+00
 -1      2293 3.84000E+01 4.35050E+01 0.00000E+00
 -1      2294 3.61500E+01 4.22060E+01 0.00000E+00
 -1      2295 3.99000E+01 4.35050E+01 0.00000E+00
 -1      2296 4.14000E+01 4.35050E+01 0.00000E+00
 -1      2297 3.91500E+01 4.22060E+01 0.00000E+00
 -1      2298 4.29000E+01 4.35050E+01 0.00000E+00
 -1      2299 4.44000E+01 4.35050E+01 0.00000E+00
 -1      2300 4.21500E+01 4.22060E+01 0.00000E+00
 -1      2301 4.59000E+01 4.35050E+01 0.00000E+00
 -1      2302 4.74000E+01 4.35050E+01 0.00000E+00
 -1      2303 4.51500E+01 4.22060E+01 0.00000E+00
 -1      2304 4.89000E+01 4.35050E+01 0.00000E+00
 -1      2305 5.04000E+01 4.35050E+01 0.00000E+00
 -1      2306 4.81500E+01 4.22060E+01 0.00000E+00
 -1      2307 5.19000E+01 4.35050E+01 0.00000E+00
 -1      2308 5.34000E+01 4.35050E+01 0.00000E+00
 -1      2309 5.11500E+01 4.22060E+01 0.00000E+00
 -1      2310 5.49000E+01 4.35050E+01 0.00000E+00
 -1      2311 5.64000E+01 4.35050E+01 0.00000E+00
 -1      2312 5.41500E+01 4.22060E+01 0.00000E+00
 -1      2313 5.79000E+01 4.35050E+01 0.00000E+00
 -1      2314 5.94000E+01 4.35050E+01 0.00000E+00
 -1      2315 5.71500E+01 4.22060E+01 0.00000E+00
 -1      2316 6.09000E+01 4.35050E+01 0.00000E+00
 -1      2317 6.24000E+01 4.35050E+01 0.00000E+00
 -1      2318 6.01500E+01 4.22060E+01 0.00000E+00
 -1      2319 6.39000E+01 4.35050E+01 0.00000E+00
 -1      2320 6.54000E+01 4.35050E+01 0.00000E+00
 -1      2321 6.31500E+01 4.22060E+01 0.00000E+00
 -1      2322 6.69000E+01 4.35050E+01 0.00000E+00
 -1      2323 6.84000E+01 4.35050E+01 0.00000E+00
 -1      2324 6.61500E+01 4.22060E+01 0.00000E+00
 -1      2325 6.99000E+01 4.35050E+01 0.00000E+00
 -1      2326 7.14000E+01 4.35050E+01 0.00000E+00
 -1      2327 6.91500E+01 4.22060E+01 0.00000E+00
 -1      2328 7.29000E+01 4.35050E+01 0.00000E+00
 -1      2329 7.44000E+01 4.35050E+01 0.00000E+00
 -1      2330 7.21500E+01 4.22060E+01 0.00000E+00
 -1      2331 7.59000E+01 4.35050E+01 0.00000E+00
 -1      2332 7.74000E+01 4.35050E+01 0.00000E+00
 -1      2333 7.51500E+01 4.22060E+01 0.00000E+00
 -1      2334 7.89000E+01 4.35050E+01 0.00000E+00
 -1      2335 8.04000E+01 4.35050E+01 0.00000E+00
 -1      2336 7.81500E+01 4.22060E+01 0.00000E+00
 -1      2337 8.19000E+01 4.35050E+01 0.00000E+00
 -1      2338 8.34000E+01 4.35050E+01 0.00000E+00
 -1      2339 8.11500E+01 4.22060E+01 0.00000E+00
 -1      2340 8.49000E+01 4.35050E+01 0.00000E+00
 -1      2341 8.64000E+01 4.35050E+01 0.00000E+00
 -1      2342 8.41500E+01 4.22060E+01 0.00000E+00
 -1      2343 8.79000E+01 4.35050E+01 0.00000E+00
 -1      2344 8.94000E+01 4.35050E+01 0.00000E+00
 -1      2345 8.71500E+01 4.22060E+01 0.00000E+00
 -1      2346 9.09000E+01 4.35050E+01 0.00000E+00
 -1      2347 9.24000E+01 4.35050E+01 0.00000E+00
 -1      2348 9.01500E+01 4.22060E+01 0.00000E+00
 -1      2349 9.39000E+01 4.35050E+01 0.00000E+00
 -1      2350 9.54000E+01 4.35050E+01 0.00000E+00
 -1      2351 9.31500E+01 4.22060E+01 0.00000E+00
 -1      2352 9.69000E+01 4.35050E+01 0.00000E+00
 -1      2353 9.84000E+01 4.35050E+01 0.00000E+00
 -1      2354 9.61500E+01 4.22060E+01 0.00000E+00
 -1      2355 9.99000E+01 4.35050E+01 0.00000E+00
 -1      2356 1.01400E+02 4.35050E+01 0.00000E+00
 -1      2357 9.91500E+01 4.22060E+01 0.00000E+00
 -1      2358 1.02900E+02 4.35050E+01 0.00000E+00
 -1      2359 1.04400E+02 4.35050E+01 0.00000E+00
 -1      2360 1.02150E+02 4.22060E+01 0.00000E+00
 -1      2361 1.05900E+02 4.35050E+01 0.00000E+00
 -1      2362 1.07400E+02 4.35050E+01 0.00000E+00
 -1      2363 1.05150E+02 4.22060E+01 0.00000E+00
 -1      2364 1.08900E+02 4.35050E+01 0.00000E+00
 -1      2365 1.10400E+02 4.35050E+01 0.00000E+00
 -1      2366 1.08150E+02 4.22060E+01 0.00000E+00
 -1      2367 1.11900E+02 4.35050E+01 0.00000E+00
 -1      2368 1.13400E+02 4.35050E+01 0.00000E+00
 -1      2369 1.11150E+02 4.22060E+01 0.00000E+00
 -1      2370 1.14900E+02 4.35050E+01 0.00000E+00
 -1      2371 1.16400E+02 4.35050E+01 0.00000E+00
 -1      2372 1.14150E+02 4.22060E+01 0.00000E+00
 -1      2373 1.17900E+02 4.35050E+01 0.00000E+00
 -1      2374 1.19400E+02 4.35050E+01 0.00000E+00
 -1      2375 1.17150E+02 4.22060E+01 0.00000E+00
 -1      2376 1.20900E+02 4.35050E+01 0.00000E+00
 -1      2377 1.22400E+02 4.35050E+01 0.00000E+00
 -1      2378 1.20150E+02 4.22060E+01 0.00000E+00
 -1      2379 1.23900E+02 4.35050E+01 0.00000E+00
 -1      2380 1.25400E+02 4.35050E+01 0.00000E+00
 -1      2381 1.23150E+02 4.22060E+01 0.00000E+00
 -1      2382 1.26900E+02 4.35050E+01 0.00000E+00
 -1      2383 1.28400E+02 4.35050E+01 0.00000E+00
 -1      2384 1.26150E+02 4.22060E+01 0.00000E+00
 -1      2385 1.29900E+02 4.35050E+01 0.00000E+00
 -1      2386 1.31400E+02 4.35050E+01 0.00000E+00
 -1      2387 1.29150E+02 4.22060E+01 0.00000E+00
 -1      2388 1.32900E+02 4.35050E+01 0.00000E+00
 -1      2389 1.34400E+02 4.35050E+01 0.00000E+00
 -1      2390 1.32150E+02 4.22060E+01 0.00000E+00
 -1      2391 1.35900E+02 4.35050E+01 0.00000E+00
 -1      2392 1.37400E+02 4.35050E+01 0.00000E+00
 -1      2393 1.35150E+02 4.22060E+01 0.00000E+00
 -1      2394 1.38900E+02 4.35050E+01 0.00000E+00
 -1      2395 1.40400E+02 4.35050E+01 0.00000E+00
 -1      2396 1.38150E+02 4.22060E+01 0.00000E+00
 -1      2397 1.97850E+01 5.30525E+00 0.00000E+00
 -1      2398 1.82850E+01 5.30525E+00 0.00000E+00
 -1      2399 2.27850E+01 5.30525E+00 0.00000E+00
 -1      2400 2.12850E+01 5.30525E+00 0.00000E+00
 -1      2401 2.05350E+01 6.60425E+00 0.00000E+00
 -1      2402 2.57850E+01 5.30525E+00 0.00000E+00
 -1      2403 2.42850E+01 5.30525E+00 0.00000E+00
 -1      2404 2.35350E+01 6.60425E+00 0.00000E+00
 -1      2405 2.87850E+01 5.30525E+00 0.00000E+00
 -1      2406 2.72850E+01 5.30525E+00 0.00000E+00
 -1      2407 2.65350E+01 6.60425E+00 0.00000E+00
 -1      2408 3.17850E+01 5.30525E+00 0.00000E+00
 -1      2409 3.02850E+01 5.30525E+00 0.00000E+00
 -1      2410 2.95350E+01 6.60425E+00 0.00000E+00
 -1      2411 3.47850E+01 5.30525E+00 0.00000E+00
 -1      2412 3.32850E+01 5.30525E+00 0.00000E+00
 -1      2413 3.25350E+01 6.60425E+00 0.00000E+00
 -1      2414 3.77850E+01 5.30525E+00 0.00000E+00
 -1      2415 3.62850E+01 5.30525E+00 0.00000E+00
 -1      2416 3.55350E+01 6.60425E+00 0.00000E+00
 -1      2417 4.07850E+01 5.30525E+00 0.00000E+00
 -1      2418 3.92850E+01 5.30525E+00 0.00000E+00
 -1      2419 3.85350E+01 6.60425E+00 0.00000E+00
 -1      2420 4.37850E+01 5.30525E+00 0.00000E+00
 -1      2421 4.22850E+01 5.30525E+00 0.00000E+00
 -1      2422 4.15350E+01 6.60425E+00 0.00000E+00
 -1      2423 4.67850E+01 5.30525E+00 0.00000E+00
 -1      2424 4.52850E+01 5.30525E+00 0.00000E+00
 -1      2425 4.45350E+01 6.60425E+00 0.00000E+00
 -1      2426 4.97850E+01 5.30525E+00 0.00000E+00
 -1      2427 4.82850E+01 5.30525E+00 0.00000E+00
 -1      2428 4.75350E+01 6.60425E+00 0.00000E+00
 -1      2429 5.27850E+01 5.30525E+00 0.00000E+00
 -1      2430 5.12850E+01 5.30525E+00 0.00000E+00
 -1      2431 5.05350E+01 6.60425E+00 0.00000E+00
 -1      2432 5.57850E+01 5.30525E+00 0.00000E+00
 -1      2433 5.42850E+01 5.30525E+00 0.00000E+00
 -1      2434 5.35350E+01 6.60425E+00 0.00000E+00
 -1      2435 5.87850E+01 5.30525E+00 0.00000E+00
 -1      2436 5.72850E+01 5.30525E+00 0.00000E+00
 -1      2437 5.65350E+01 6.60425E+00 0.00000E+00
 -1      2438 6.17850E+01 5.30525E+00 0.00000E+00
 -1      2439 6.02850E+01 5.30525E+00 0.00000E+00
 -1      2440 5.95350E+01 6.60425E+00 0.00000E+00
 -1      2441 6.47850E+01 5.30525E+00 0.00000E+00
 -1      2442 6.32850E+01 5.30525E+00 0.00000E+00
 -1      2443 6.25350E+01 6.60425E+00 0.00000E+00
 -1      2444 6.77850E+01 5.30525E+00 0.00000E+00
 -1      2445 6.62850E+01 5.30525E+00 0.00000E+00
 -1      2446 6.55350E+01 6.60425E+00 0.00000E+00
 -1      2447 7.07850E+01 5.30525E+00 0.00000E+00
 -1      2448 6.92850E+01 5.30525E+00 0.00000E+00
 -1      2449 6.85350E+01 6.60425E+00 0.00000E+00
 -1      2450 7.37850E+01 5.30525E+00 0.00000E+00
 -1      2451 7.22850E+01 5.30525E+00 0.00000E+00
 -1      2452 7.15350E+01 6.60425E+00 0.00000E+00
 -1      2453 7.67850E+01 5.30525E+00 0.00000E+00
 -1      2454 7.52850E+01 5.30525E+00 0.00000E+00
 -1      2455 7.45350E+01 6.60425E+00 0.00000E+00
 -1      2456 7.97850E+01 5.30525E+00 0.00000E+00
 -1      2457 7.82850E+01 5.30525E+00 0.00000E+00
 -1      2458 7.75350E+01 6.60425E+00 0.00000E+00
 -1      2459 8.27850E+01 5.30525E+00 0.00000E+00
 -1      2460 8.12850E+01 5.30525E+00 0.00000E+00
 -1      2461 8.05350E+01 6.60425E+00 0.00000E+00
 -1      2462 8.57850E+01 5.30525E+00 0.00000E+00
 -1      2463 8.42850E+01 5.30525E+00 0.00000E+00
 -1      2464 8.35350E+01 6.60425E+00 0.00000E+00
 -1      2465 8.87850E+01 5.30525E+00 0.00000E+00
 -1      2466 8.72850E+01 5.30525E+00 0.00000E+00
 -1      2467 8.65350E+01 6.60425E+00 0.00000E+00
 -1      2468 9.17850E+01 5.30525E+00 0.00000E+00
 -1      2469 9.02850E+01 5.30525E+00 0.00000E+00
 -1      2470 8.95350E+01 6.60425E+00 0.00000E+00
 -1      2471 9.47850E+01 5.30525E+00 0.00000E+00
 -1      2472 9.32850E+01 5.30525E+00 0.00000E+00
 -1      2473 9.25350E+01 6.60425E+00 0.00000E+00
 -1      2474 9.77850E+01 5.30525E+00 0.00000E+00
 -1      2475 9.62850E+01 5.30525E+00 0.00000E+00
 -1      2476 9.55350E+01 6.60425E+00 0.00000E+00
 -1      2477 1.00785E+02 5.30525E+00 0.00000E+00
 -1      2478 9.92850E+01 5.30525E+00 0.00000E+00
 -1      2479 9.85350E+01 6.60425E+00 0.00000E+00
 -1      2480 1.03785E+02 5.30525E+00 0.00000E+00
 -1      2481 1.02285E+02 5.30525E+00 0.00000E+00
 -1      2482 1.01535E+02 6.60425E+00 0.00000E+00
 -1      2483 1.06785E+02 5.30525E+00 0.00000E+00
 -1      2484 1.05285E+02 5.30525E+00 0.00000E+00
 -1      2485 1.04535E+02 6.60425E+00 0.00000E+00
 -1      2486 1.09785E+02 5.30525E+00 0.00000E+00
 -1      2487 1.08285E+02 5.30525E+00 0.00000E+00
 -1      2488 1.07535E+02 6.60425E+00 0.00000E+00
 -1      2489 1.12785E+02 5.30525E+00 0.00000E+00
 -1      2490 1.11285E+02 5.30525E+00 0.00000E+00
 -1      2491 1.10535E+02 6.60425E+00 0.00000E+00
 -1      2492 1.15785E+02 5.30525E+00 0.00000E+00
 -1      2493 1.14285E+02 5.30525E+00 0.00000E+00
 -1      2494 1.13535E+02 6.60425E+00 0.00000E+00
 -1      2495 1.18785E+02 5.30525E+00 0.00000E+00
 -1      2496 1.17285E+02 5.30525E+00 0.00000E+00
 -1      2497 1.16535E+02 6.60425E+00 0.00000E+00
 -1      2498 1.21785E+02 5.30525E+00 0.00000E+00
 -1      2499 1.20285E+02 5.30525E+00 0.00000E+00
 -1      2500 1.19535E+02 6.60425E+00 0.00000E+00
 -1      2501 1.24785E+02 5.30525E+00 0.00000E+00
 -1      2502 1.23285E+02 5.30525E+00 0.00000E+00
 -1      2503 1.22535E+02 6.60425E+00 0.00000E+00
 -1      2504 1.27785E+02 5.30525E+00 0.00000E+00
 -1      2505 1.26285E+02 5.30525E+00 0.00000E+00
 -1      2506 1.25535E+02 6.60425E+00 0.00000E+00
 -1      2507 1.30785E+02 5.30525E+00 0.00000E+00
 -1      2508 1.29285E+02 5.30525E+00 0.00000E+00
 -1      2509 1.28535E+02 6.60425E+00 0.00000E+00
 -1      2510 1.33785E+02 5.30525E+00 0.00000E+00
 -1      2511 1.32285E+02 5.30525E+00 0.00000E+00
 -1      2512 1.31535E+02 6.60425E+00 0.00000E+00
 -1      2513 1.36785E+02 5.30525E+00 0.00000E+00
 -1      2514 1.35285E+02 5.30525E+00 0.00000E+00
 -1      2515 1.34535E+02 6.60425E+00 0.00000E+00
 -1      2516 1.39785E+02 5.30525E+00 0.00000E+00
 -1      2517 1.38285E+02 5.30525E+00 0.00000E+00
 -1      2518 1.37535E+02 6.60425E+00 0.00000E+00
 -1      2519 1.42785E+02 5.30525E+00 0.00000E+00
 -1      2520 1.41285E+02 5.30525E+00 0.00000E+00
 -1      2521 1.40535E+02 6.60425E+00 0.00000E+00
 -1      2522 1.44336E+02 5.26953E+00 0.00000E+00
 -1      2523 1.43505E+02 1.69125E+01 0.00000E+00
 -1      2524 1.43505E+02 1.54375E+01 0.00000E+00
 -1      2525 1.43505E+02 1.98625E+01 0.00000E+00
 -1      2526 1.43505E+02 1.83875E+01 0.00000E+00
 -1      2527 1.42206E+02 1.76500E+01 0.00000E+00
 -1      2528 1.43505E+02 1.10625E+01 0.00000E+00
 -1      2529 1.43505E+02 9.58750E+00 0.00000E+00
 -1      2530 1.43505E+02 1.39750E+01 0.00000E+00
 -1      2531 1.43505E+02 1.25250E+01 0.00000E+00
 -1      2532 1.42206E+02 1.17875E+01 0.00000E+00
 -1      2533 1.42206E+02 1.47125E+01 0.00000E+00
 -1      2534 1.43505E+02 2.28125E+01 0.00000E+00
 -1      2535 1.43505E+02 2.13375E+01 0.00000E+00
 -1      2536 1.42206E+02 2.06000E+01 0.00000E+00
 -1      2537 1.43505E+02 2.57625E+01 0.00000E+00
 -1      2538 1.43505E+02 2.42875E+01 0.00000E+00
 -1      2539 1.42206E+02 2.35500E+01 0.00000E+00
 -1      2540 1.43505E+02 2.87125E+01 0.00000E+00
 -1      2541 1.43505E+02 2.72375E+01 0.00000E+00
 -1      2542 1.42206E+02 2.65000E+01 0.00000E+00
 -1      2543 1.43505E+02 3.16125E+01 0.00000E+00
 -1      2544 1.43505E+02 3.01625E+01 0.00000E+00
 -1      2545 1.42206E+02 2.94250E+01 0.00000E+00
 -1      2546 1.43505E+02 3.45625E+01 0.00000E+00
 -1      2547 1.43505E+02 3.30875E+01 0.00000E+00
 -1      2548 1.42206E+02 3.23500E+01 0.00000E+00
 -1      2549 1.43505E+02 3.75125E+01 0.00000E+00
 -1      2550 1.43505E+02 3.60375E+01 0.00000E+00
 -1      2551 1.42206E+02 3.53000E+01 0.00000E+00
 -1      2552 1.43505E+02 4.04625E+01 0.00000E+00
 -1      2553 1.43505E+02 3.89875E+01 0.00000E+00
 -1      2554 1.42206E+02 3.82500E+01 0.00000E+00
 -1      2555 1.44321E+02 4.30606E+01 0.00000E+00
 -1      2556 1.00647E+02 3.00433E+01 0.00000E+00
 -1      2557 1.00529E+02 3.11345E+01 0.00000E+00
 -1      2558 1.67850E+01 5.30525E+00 0.00000E+00
 -1      2559 1.52850E+01 5.30525E+00 0.00000E+00
 -1      2560 1.75350E+01 6.60425E+00 0.00000E+00
 -1      2561 1.00479E+02 2.80329E+01 0.00000E+00
 -1      2562 1.00575E+02 2.88906E+01 0.00000E+00
 -1      2563 9.72566E+01 2.20243E+01 0.00000E+00
 -1      2564 9.79880E+01 2.26894E+01 0.00000E+00
 -1      2565 9.99502E+01 2.59552E+01 0.00000E+00
 -1      2566 1.00253E+02 2.69635E+01 0.00000E+00
 -1      2567 7.97496E+01 3.17374E+01 0.00000E+00
 -1      2568 7.96147E+01 3.06388E+01 0.00000E+00
 -1      2569 6.49500E+00 2.71625E+01 0.00000E+00
 -1      2570 6.49500E+00 2.86375E+01 0.00000E+00
 -1      2571 7.79400E+00 2.93750E+01 0.00000E+00
 -1      2572 7.79400E+00 2.64250E+01 0.00000E+00
 -1      2573 8.95248E+01 1.91976E+01 0.00000E+00
 -1      2574 9.05024E+01 1.92453E+01 0.00000E+00
 -1      2575 8.68006E+01 3.91659E+01 0.00000E+00
 -1      2576 8.59541E+01 3.88961E+01 0.00000E+00
 -1      2577 9.15451E+01 1.93226E+01 0.00000E+00
 -1      2578 9.25771E+01 1.94241E+01 0.00000E+00
 -1      2579 8.72387E+01 1.96695E+01 0.00000E+00
 -1      2580 8.82830E+01 1.93836E+01 0.00000E+00
 -1      2581 8.51187E+01 2.04015E+01 0.00000E+00
 -1      2582 8.60192E+01 1.99248E+01 0.00000E+00
 -1      2583 8.35516E+01 2.17101E+01 0.00000E+00
 -1      2584 8.43004E+01 2.11584E+01 0.00000E+00
 -1      2585 8.18387E+01 2.32690E+01 0.00000E+00
 -1      2586 8.26816E+01 2.24554E+01 0.00000E+00
 -1      2587 8.06582E+01 2.53497E+01 0.00000E+00
 -1      2588 8.09586E+01 2.44106E+01 0.00000E+00
 -1      2589 7.99620E+01 2.72610E+01 0.00000E+00
 -1      2590 8.03101E+01 2.63053E+01 0.00000E+00
 -1      2591 7.96435E+01 2.55745E+01 0.00000E+00
 -1      2592 7.96873E+01 2.93980E+01 0.00000E+00
 -1      2593 7.98024E+01 2.84013E+01 0.00000E+00
 -1      2594 8.05427E+01 3.36289E+01 0.00000E+00
 -1      2595 8.01677E+01 3.29004E+01 0.00000E+00
 -1      2596 8.15623E+01 3.55032E+01 0.00000E+00
 -1      2597 8.09966E+01 3.45346E+01 0.00000E+00
 -1      2598 8.29124E+01 3.70327E+01 0.00000E+00
 -1      2599 8.23058E+01 3.64265E+01 0.00000E+00
 -1      2600 8.48154E+01 3.84318E+01 0.00000E+00
 -1      2601 8.38202E+01 3.77941E+01 0.00000E+00
 -1      2602 8.88368E+01 3.96902E+01 0.00000E+00
 -1      2603 8.78187E+01 3.94281E+01 0.00000E+00
 -1      2604 8.71731E+01 3.99905E+01 0.00000E+00
 -1      2605 9.09987E+01 3.96506E+01 0.00000E+00
 -1      2606 9.00568E+01 3.97851E+01 0.00000E+00
 -1      2607 9.27961E+01 3.93935E+01 0.00000E+00
 -1      2608 9.18974E+01 3.95220E+01 0.00000E+00
 -1      2609 9.15299E+01 4.03138E+01 0.00000E+00
 -1      2610 9.50117E+01 3.87013E+01 0.00000E+00
 -1      2611 9.39926E+01 3.91352E+01 0.00000E+00
 -1      2612 9.68238E+01 3.74467E+01 0.00000E+00
 -1      2613 9.61853E+01 3.80827E+01 0.00000E+00
 -1      2614 9.80780E+01 3.62735E+01 0.00000E+00
 -1      2615 9.74509E+01 3.68601E+01 0.00000E+00
 -1      2616 9.77960E+01 3.78450E+01 0.00000E+00
 -1      2617 1.00467E+02 3.23019E+01 0.00000E+00
 -1      2618 1.00212E+02 3.31160E+01 0.00000E+00
 -1      2619 6.55950E+00 4.28890E+01 0.00000E+00
 -1      2620 8.53650E+00 4.32410E+01 0.00000E+00
 -1      2621 9.28650E+00 4.19420E+01 0.00000E+00
 -1      2622 6.55950E+00 4.14140E+01 0.00000E+00
 -1      2623 8.07525E+00 5.11044E+00 0.00000E+00
 -1      2624 6.57525E+00 5.11044E+00 0.00000E+00
 -1      2625 6.40575E+00 6.01981E+00 0.00000E+00
 -1      2626 8.82525E+00 6.40944E+00 0.00000E+00
 -1      2627 9.56111E+01 2.08291E+01 0.00000E+00
 -1      2628 9.64455E+01 2.13402E+01 0.00000E+00
 -1      2629 9.73600E+01 2.10693E+01 0.00000E+00
 -1      2630 9.57379E+01 1.97012E+01 0.00000E+00
 -1      2631 9.10940E+01 1.85259E+01 0.00000E+00
 -1      2632 7.79400E+00 3.52687E+01 0.00000E+00
 -1      2633 6.49500E+00 3.60062E+01 0.00000E+00
 -1      2634 6.49500E+00 3.74750E+01 0.00000E+00
 -1      2635 1.45350E+01 6.60425E+00 0.00000E+00
 -1      2636 6.40575E+00 7.49481E+00 0.00000E+00
 -1      2637 6.55950E+00 3.99453E+01 0.00000E+00
 -1      2638 9.88907E+01 3.60111E+01 0.00000E+00
 -1      2639 1.00338E+02 3.38900E+01 0.00000E+00
 -1      2640 9.36251E+01 3.99270E+01 0.00000E+00
 -1      2641 1.01379E+02 3.18488E+01 0.00000E+00
 -1      2642 9.87880E+01 2.29018E+01 0.00000E+00
 -1      2643 9.95880E+01 2.31142E+01 0.00000E+00
 -1      2644 9.89711E+01 2.19658E+01 0.00000E+00
 -1      2645 1.43586E+02 6.56853E+00 0.00000E+00
 -1      2646 1.43419E+02 7.72713E+00 0.00000E+00
 -1      2647 8.94112E+01 4.03475E+01 0.00000E+00
 -1      2648 1.42758E+02 4.35929E+01 0.00000E+00
 -1      2649 1.43241E+02 4.17323E+01 0.00000E+00
 -1      2650 1.41942E+02 4.09948E+01 0.00000E+00
 -1      2651 1.41414E+02 4.35342E+01 0.00000E+00
 -1      2652 1.00297E+02 2.43322E+01 0.00000E+00
 -1      2653 1.00124E+02 2.51437E+01 0.00000E+00
 -1      2654 1.01016E+02 2.54256E+01 0.00000E+00
 -1      2655 8.50164E+01 3.92640E+01 0.00000E+00
 -1      2656 1.01368E+02 2.95287E+01 0.00000E+00
 -1      2657 7.70475E+00 8.23231E+00 0.00000E+00
 -1      2658 1.01069E+02 2.73066E+01 0.00000E+00
 -1      2659 8.29700E+01 3.80383E+01 0.00000E+00
 -1      2660 7.89036E+01 3.00517E+01 0.00000E+00
 -1      2661 8.13186E+01 3.63536E+01 0.00000E+00
 -1      2662 8.01212E+01 3.45245E+01 0.00000E+00
 -1      2663 7.91358E+01 2.76705E+01 0.00000E+00
 -1      2664 8.08717E+01 2.34772E+01 0.00000E+00
 -1      2665 8.07848E+01 2.25439E+01 0.00000E+00
 -1      2666 7.99047E+01 2.36855E+01 0.00000E+00
 -1      2667 8.26219E+01 2.15903E+01 0.00000E+00
 -1      2668 8.43102E+01 2.00881E+01 0.00000E+00
 -1      2669 8.63480E+01 1.90759E+01 0.00000E+00
 -1      2670 7.92491E+01 3.24557E+01 0.00000E+00
 -1      2671 9.35318E+01 1.88102E+01 0.00000E+00
 -1      2672 8.88094E+01 1.86346E+01 0.00000E+00
 -1      2673 9.59953E+01 3.90502E+01 0.00000E+00
 -1      2674 1.42120E+02 8.46463E+00 0.00000E+00
 -1      2675 1.40664E+02 4.22352E+01 0.00000E+00
 -1      2676 9.09300E+00 1.98250E+01 0.00000E+00
 -1      2677 9.09300E+00 2.12750E+01 0.00000E+00
 -1      2678 9.09300E+00 2.27500E+01 0.00000E+00
 -1      2679 9.09300E+00 2.42250E+01 0.00000E+00
 -1      2680 1.03920E+01 2.20250E+01 0.00000E+00
 -1      2681 9.09300E+00 1.39375E+01 0.00000E+00
 -1      2682 9.09300E+00 1.54125E+01 0.00000E+00
 -1      2683 9.09300E+00 1.09875E+01 0.00000E+00
 -1      2684 9.09300E+00 1.24625E+01 0.00000E+00
 -1      2685 1.03920E+01 1.32000E+01 0.00000E+00
 -1      2686 1.22850E+01 7.90325E+00 0.00000E+00
 -1      2687 1.07850E+01 7.90325E+00 0.00000E+00
 -1      2688 1.01959E+02 2.65591E+01 0.00000E+00
 -1      2689 1.02186E+02 2.76286E+01 0.00000E+00
 -1      2690 1.52850E+01 7.90325E+00 0.00000E+00
 -1      2691 1.37850E+01 7.90325E+00 0.00000E+00
 -1      2692 1.30350E+01 9.20225E+00 0.00000E+00
 -1      2693 8.91450E+00 8.42712E+00 0.00000E+00
 -1      2694 9.06299E+01 1.77156E+01 0.00000E+00
 -1      2695 9.16727E+01 1.77930E+01 0.00000E+00
 -1      2696 1.44000E+01 4.09070E+01 0.00000E+00
 -1      2697 1.59000E+01 4.09070E+01 0.00000E+00
 -1      2698 1.74000E+01 4.09070E+01 0.00000E+00
 -1      2699 1.89000E+01 4.09070E+01 0.00000E+00
 -1      2700 1.66500E+01 3.96080E+01 0.00000E+00
 -1      2701 2.04000E+01 4.09070E+01 0.00000E+00
 -1      2702 2.19000E+01 4.09070E+01 0.00000E+00
 -1      2703 1.96500E+01 3.96080E+01 0.00000E+00
 -1      2704 2.34000E+01 4.09070E+01 0.00000E+00
 -1      2705 2.49000E+01 4.09070E+01 0.00000E+00
 -1      2706 2.26500E+01 3.96080E+01 0.00000E+00
 -1      2707 2.64000E+01 4.09070E+01 0.00000E+00
 -1      2708 2.79000E+01 4.09070E+01 0.00000E+00
 -1      2709 2.56500E+01 3.96080E+01 0.00000E+00
 -1      2710 2.94000E+01 4.09070E+01 0.00000E+00
 -1      2711 3.09000E+01 4.09070E+01 0.00000E+00
 -1      2712 2.86500E+01 3.96080E+01 0.00000E+00
 -1      2713 3.24000E+01 4.09070E+01 0.00000E+00
 -1      2714 3.39000E+01 4.09070E+01 0.00000E+00
 -1      2715 3.16500E+01 3.96080E+01 0.00000E+00
 -1      2716 3.54000E+01 4.09070E+01 0.00000E+00
 -1      2717 3.69000E+01 4.09070E+01 0.00000E+00
 -1      2718 3.46500E+01 3.96080E+01 0.00000E+00
 -1      2719 3.84000E+01 4.09070E+01 0.00000E+00
 -1      2720 3.99000E+01 4.09070E+01 0.00000E+00
 -1      2721 3.76500E+01 3.96080E+01 0.00000E+00
 -1      2722 4.14000E+01 4.09070E+01 0.00000E+00
 -1      2723 4.29000E+01 4.09070E+01 0.00000E+00
 -1      2724 4.06500E+01 3.96080E+01 0.00000E+00
 -1      2725 4.44000E+01 4.09070E+01 0.00000E+00
 -1      2726 4.59000E+01 4.09070E+01 0.00000E+00
 -1      2727 4.36500E+01 3.96080E+01 0.00000E+00
 -1      2728 4.74000E+01 4.09070E+01 0.00000E+00
 -1      2729 4.89000E+01 4.09070E+01 0.00000E+00
 -1      2730 4.66500E+01 3.96080E+01 0.00000E+00
 -1      2731 5.04000E+01 4.09070E+01 0.00000E+00
 -1      2732 5.19000E+01 4.09070E+01 0.00000E+00
 -1      2733 4.96500E+01 3.96080E+01 0.00000E+00
 -1      2734 5.34000E+01 4.09070E+01 0.00000E+00
 -1      2735 5.49000E+01 4.09070E+01 0.00000E+00
 -1      2736 5.26500E+01 3.96080E+01 0.00000E+00
 -1      2737 5.64000E+01 4.09070E+01 0.00000E+00
 -1      2738 5.79000E+01 4.09070E+01 0.00000E+00
 -1      2739 5.56500E+01 3.96080E+01 0.00000E+00
 -1      2740 5.94000E+01 4.09070E+01 0.00000E+00
 -1      2741 6.09000E+01 4.09070E+01 0.00000E+00
 -1      2742 5.86500E+01 3.96080E+01 0.00000E+00
 -1      2743 6.24000E+01 4.09070E+01 0.00000E+00
 -1      2744 6.39000E+01 4.09070E+01 0.00000E+00
 -1      2745 6.16500E+01 3.96080E+01 0.00000E+00
 -1      2746 6.54000E+01 4.09070E+01 0.00000E+00
 -1      2747 6.69000E+01 4.09070E+01 0.00000E+00
 -1      2748 6.46500E+01 3.96080E+01 0.00000E+00
 -1      2749 6.84000E+01 4.09070E+01 0.00000E+00
 -1      2750 6.99000E+01 4.09070E+01 0.00000E+00
 -1      2751 6.76500E+01 3.96080E+01 0.00000E+00
 -1      2752 7.14000E+01 4.09070E+01 0.00000E+00
 -1      2753 7.29000E+01 4.09070E+01 0.00000E+00
 -1      2754 7.06500E+01 3.96080E+01 0.00000E+00
 -1      2755 7.44000E+01 4.09070E+01 0.00000E+00
 -1      2756 7.59000E+01 4.09070E+01 0.00000E+00
 -1      2757 7.36500E+01 3.96080E+01 0.00000E+00
 -1      2758 7.74000E+01 4.09070E+01 0.00000E+00
 -1      2759 7.89000E+01 4.09070E+01 0.00000E+00
 -1      2760 7.66500E+01 3.96080E+01 0.00000E+00
 -1      2761 8.96406E+01 4.13242E+01 0.00000E+00
 -1      2762 9.11406E+01 4.13242E+01 0.00000E+00
 -1      2763 9.47358E+01 4.09374E+01 0.00000E+00
 -1      2764 9.62358E+01 4.09374E+01 0.00000E+00
 -1      2765 9.84000E+01 4.09070E+01 0.00000E+00
 -1      2766 9.99000E+01 4.09070E+01 0.00000E+00
 -1      2767 1.01400E+02 4.09070E+01 0.00000E+00
 -1      2768 1.02900E+02 4.09070E+01 0.00000E+00
 -1      2769 1.00650E+02 3.96080E+01 0.00000E+00
 -1      2770 1.04400E+02 4.09070E+01 0.00000E+00
 -1      2771 1.05900E+02 4.09070E+01 0.00000E+00
 -1      2772 1.03650E+02 3.96080E+01 0.00000E+00
 -1      2773 1.07400E+02 4.09070E+01 0.00000E+00
 -1      2774 1.08900E+02 4.09070E+01 0.00000E+00
 -1      2775 1.06650E+02 3.96080E+01 0.00000E+00
 -1      2776 1.10400E+02 4.09070E+01 0.00000E+00
 -1      2777 1.11900E+02 4.09070E+01 0.00000E+00
 -1      2778 1.09650E+02 3.96080E+01 0.00000E+00
 -1      2779 1.13400E+02 4.09070E+01 0.00000E+00
 -1      2780 1.14900E+02 4.09070E+01 0.00000E+00
 -1      2781 1.12650E+02 3.96080E+01 0.00000E+00
 -1      2782 1.16400E+02 4.09070E+01 0.00000E+00
 -1      2783 1.17900E+02 4.09070E+01 0.00000E+00
 -1      2784 1.15650E+02 3.96080E+01 0.00000E+00
 -1      2785 1.19400E+02 4.09070E+01 0.00000E+00
 -1      2786 1.20900E+02 4.09070E+01 0.00000E+00
 -1      2787 1.18650E+02 3.96080E+01 0.00000E+00
 -1      2788 1.22400E+02 4.09070E+01 0.00000E+00
 -1      2789 1.23900E+02 4.09070E+01 0.00000E+00
 -1      2790 1.21650E+02 3.96080E+01 0.00000E+00
 -1      2791 1.25400E+02 4.09070E+01 0.00000E+00
 -1      2792 1.26900E+02 4.09070E+01 0.00000E+00
 -1      2793 1.24650E+02 3.96080E+01 0.00000E+00
 -1      2794 1.28400E+02 4.09070E+01 0.00000E+00
 -1      2795 1.29900E+02 4.09070E+01 0.00000E+00
 -1      2796 1.27650E+02 3.96080E+01 0.00000E+00
 -1      2797 1.31400E+02 4.09070E+01 0.00000E+00
 -1      2798 1.32900E+02 4.09070E+01 0.00000E+00
 -1      2799 1.30650E+02 3.96080E+01 0.00000E+00
 -1      2800 1.34400E+02 4.09070E+01 0.00000E+00
 -1      2801 1.35900E+02 4.09070E+01 0.00000E+00
 -1      2802 1.33650E+02 3.96080E+01 0.00000E+00
 -1      2803 1.37400E+02 4.09070E+01 0.00000E+00
 -1      2804 1.38900E+02 4.09070E+01 0.00000E+00
 -1      2805 1.36650E+02 3.96080E+01 0.00000E+00
 -1      2806 2.42850E+01 7.90325E+00 0.00000E+00
 -1      2807 2.27850E+01 7.90325E+00 0.00000E+00
 -1      2808 2.12850E+01 7.90325E+00 0.00000E+00
 -1      2809 1.97850E+01 7.90325E+00 0.00000E+00
 -1      2810 2.20350E+01 9.20225E+00 0.00000E+00
 -1      2811 3.02850E+01 7.90325E+00 0.00000E+00
 -1      2812 2.87850E+01 7.90325E+00 0.00000E+00
 -1      2813 3.32850E+01 7.90325E+00 0.00000E+00
 -1      2814 3.17850E+01 7.90325E+00 0.00000E+00
 -1      2815 3.10350E+01 9.20225E+00 0.00000E+00
 -1      2816 3.62850E+01 7.90325E+00 0.00000E+00
 -1      2817 3.47850E+01 7.90325E+00 0.00000E+00
 -1      2818 3.40350E+01 9.20225E+00 0.00000E+00
 -1      2819 3.92850E+01 7.90325E+00 0.00000E+00
 -1      2820 3.77850E+01 7.90325E+00 0.00000E+00
 -1      2821 3.70350E+01 9.20225E+00 0.00000E+00
 -1      2822 4.22850E+01 7.90325E+00 0.00000E+00
 -1      2823 4.07850E+01 7.90325E+00 0.00000E+00
 -1      2824 4.00350E+01 9.20225E+00 0.00000E+00
 -1      2825 4.52850E+01 7.90325E+00 0.00000E+00
 -1      2826 4.37850E+01 7.90325E+00 0.00000E+00
 -1      2827 4.30350E+01 9.20225E+00 0.00000E+00
 -1      2828 4.82850E+01 7.90325E+00 0.00000E+00
 -1      2829 4.67850E+01 7.90325E+00 0.00000E+00
 -1      2830 4.60350E+01 9.20225E+00 0.00000E+00
 -1      2831 5.12850E+01 7.90325E+00 0.00000E+00
 -1      2832 4.97850E+01 7.90325E+00 0.00000E+00
 -1      2833 4.90350E+01 9.20225E+00 0.00000E+00
 -1      2834 5.42850E+01 7.90325E+00 0.00000E+00
 -1      2835 5.27850E+01 7.90325E+00 0.00000E+00
 -1      2836 5.20350E+01 9.20225E+00 0.00000E+00
 -1      2837 5.72850E+01 7.90325E+00 0.00000E+00
 -1      2838 5.57850E+01 7.90325E+00 0.00000E+00
 -1      2839 5.50350E+01 9.20225E+00 0.00000E+00
 -1      2840 6.02850E+01 7.90325E+00 0.00000E+00
 -1      2841 5.87850E+01 7.90325E+00 0.00000E+00
 -1      2842 5.80350E+01 9.20225E+00 0.00000E+00
 -1      2843 6.32850E+01 7.90325E+00 0.00000E+00
 -1      2844 6.17850E+01 7.90325E+00 0.00000E+00
 -1      2845 6.10350E+01 9.20225E+00 0.00000E+00
 -1      2846 6.62850E+01 7.90325E+00 0.00000E+00
 -1      2847 6.47850E+01 7.90325E+00 0.00000E+00
 -1      2848 6.40350E+01 9.20225E+00 0.00000E+00
 -1      2849 6.92850E+01 7.90325E+00 0.00000E+00
 -1      2850 6.77850E+01 7.90325E+00 0.00000E+00
 -1      2851 6.70350E+01 9.20225E+00 0.00000E+00
 -1      2852 7.22850E+01 7.90325E+00 0.00000E+00
 -1      2853 7.07850E+01 7.90325E+00 0.00000E+00
 -1      2854 7.00350E+01 9.20225E+00 0.00000E+00
 -1      2855 7.52850E+01 7.90325E+00 0.00000E+00
 -1      2856 7.37850E+01 7.90325E+00 0.00000E+00
 -1      2857 7.30350E+01 9.20225E+00 0.00000E+00
 -1      2858 7.82850E+01 7.90325E+00 0.00000E+00
 -1      2859 7.67850E+01 7.90325E+00 0.00000E+00
 -1      2860 7.60350E+01 9.20225E+00 0.00000E+00
 -1      2861 8.12850E+01 7.90325E+00 0.00000E+00
 -1      2862 7.97850E+01 7.90325E+00 0.00000E+00
 -1      2863 7.90350E+01 9.20225E+00 0.00000E+00
 -1      2864 8.42850E+01 7.90325E+00 0.00000E+00
 -1      2865 8.27850E+01 7.90325E+00 0.00000E+00
 -1      2866 8.20350E+01 9.20225E+00 0.00000E+00
 -1      2867 8.72850E+01 7.90325E+00 0.00000E+00
 -1      2868 8.57850E+01 7.90325E+00 0.00000E+00
 -1      2869 8.50350E+01 9.20225E+00 0.00000E+00
 -1      2870 9.02850E+01 7.90325E+00 0.00000E+00
 -1      2871 8.87850E+01 7.90325E+00 0.00000E+00
 -1      2872 8.80350E+01 9.20225E+00 0.00000E+00
 -1      2873 9.32850E+01 7.90325E+00 0.00000E+00
 -1      2874 9.17850E+01 7.90325E+00 0.00000E+00
 -1      2875 9.10350E+01 9.20225E+00 0.00000E+00
 -1      2876 9.62850E+01 7.90325E+00 0.00000E+00
 -1      2877 9.47850E+01 7.90325E+00 0.00000E+00
 -1      2878 9.40350E+01 9.20225E+00 0.00000E+00
 -1      2879 9.92850E+01 7.90325E+00 0.00000E+00
 -1      2880 9.77850E+01 7.90325E+00 0.00000E+00
 -1      2881 9.70350E+01 9.20225E+00 0.00000E+00
 -1      2882 1.02285E+02 7.90325E+00 0.00000E+00
 -1      2883 1.00785E+02 7.90325E+00 0.00000E+00
 -1      2884 1.00035E+02 9.20225E+00 0.00000E+00
 -1      2885 1.05285E+02 7.90325E+00 0.00000E+00
 -1      2886 1.03785E+02 7.90325E+00 0.00000E+00
 -1      2887 1.03035E+02 9.20225E+00 0.00000E+00
 -1      2888 1.08285E+02 7.90325E+00 0.00000E+00
 -1      2889 1.06785E+02 7.90325E+00 0.00000E+00
 -1      2890 1.06035E+02 9.20225E+00 0.00000E+00
 -1      2891 1.11285E+02 7.90325E+00 0.00000E+00
 -1      2892 1.09785E+02 7.90325E+00 0.00000E+00
 -1      2893 1.09035E+02 9.20225E+00 0.00000E+00
 -1      2894 1.14285E+02 7.90325E+00 0.00000E+00
 -1      2895 1.12785E+02 7.90325E+00 0.00000E+00
 -1      2896 1.12035E+02 9.20225E+00 0.00000E+00
 -1      2897 1.17285E+02 7.90325E+00 0.00000E+00
 -1      2898 1.15785E+02 7.90325E+00 0.00000E+00
 -1      2899 1.15035E+02 9.20225E+00 0.00000E+00
 -1      2900 1.20285E+02 7.90325E+00 0.00000E+00
 -1      2901 1.18785E+02 7.90325E+00 0.00000E+00
 -1      2902 1.18035E+02 9.20225E+00 0.00000E+00
 -1      2903 1.23285E+02 7.90325E+00 0.00000E+00
 -1      2904 1.21785E+02 7.90325E+00 0.00000E+00
 -1      2905 1.21035E+02 9.20225E+00 0.00000E+00
 -1      2906 1.26285E+02 7.90325E+00 0.00000E+00
 -1      2907 1.24785E+02 7.90325E+00 0.00000E+00
 -1      2908 1.24035E+02 9.20225E+00 0.00000E+00
 -1      2909 1.29285E+02 7.90325E+00 0.00000E+00
 -1      2910 1.27785E+02 7.90325E+00 0.00000E+00
 -1      2911 1.27035E+02 9.20225E+00 0.00000E+00
 -1      2912 1.32285E+02 7.90325E+00 0.00000E+00
 -1      2913 1.30785E+02 7.90325E+00 0.00000E+00
 -1      2914 1.30035E+02 9.20225E+00 0.00000E+00
 -1      2915 1.35285E+02 7.90325E+00 0.00000E+00
 -1      2916 1.33785E+02 7.90325E+00 0.00000E+00
 -1      2917 1.33035E+02 9.20225E+00 0.00000E+00
 -1      2918 1.38285E+02 7.90325E+00 0.00000E+00
 -1      2919 1.36785E+02 7.90325E+00 0.00000E+00
 -1      2920 1.36035E+02 9.20225E+00 0.00000E+00
 -1      2921 1.40953E+02 8.18394E+00 0.00000E+00
 -1      2922 1.39453E+02 8.18394E+00 0.00000E+00
 -1      2923 1.38703E+02 9.48294E+00 0.00000E+00
 -1      2924 1.41038E+02 1.00443E+01 0.00000E+00
 -1      2925 1.40907E+02 2.42875E+01 0.00000E+00
 -1      2926 1.40907E+02 2.28125E+01 0.00000E+00
 -1      2927 1.39914E+02 4.09362E+01 0.00000E+00
 -1      2928 1.40928E+02 4.09655E+01 0.00000E+00
 -1      2929 1.39164E+02 3.96372E+01 0.00000E+00
 -1      2930 1.40907E+02 1.83875E+01 0.00000E+00
 -1      2931 1.40907E+02 1.69125E+01 0.00000E+00
 -1      2932 1.40907E+02 2.72375E+01 0.00000E+00
 -1      2933 1.40907E+02 2.57625E+01 0.00000E+00
 -1      2934 1.39608E+02 2.50250E+01 0.00000E+00
 -1      2935 1.40907E+02 2.13375E+01 0.00000E+00
 -1      2936 1.40907E+02 1.98625E+01 0.00000E+00
 -1      2937 1.39608E+02 1.91250E+01 0.00000E+00
 -1      2938 1.39608E+02 2.20750E+01 0.00000E+00
 -1      2939 1.40907E+02 3.01375E+01 0.00000E+00
 -1      2940 1.40907E+02 2.86875E+01 0.00000E+00
 -1      2941 1.39608E+02 2.79500E+01 0.00000E+00
 -1      2942 1.40907E+02 3.30875E+01 0.00000E+00
 -1      2943 1.40907E+02 3.16125E+01 0.00000E+00
 -1      2944 1.39608E+02 3.08750E+01 0.00000E+00
 -1      2945 1.40907E+02 3.60375E+01 0.00000E+00
 -1      2946 1.40907E+02 3.45625E+01 0.00000E+00
 -1      2947 1.39608E+02 3.38250E+01 0.00000E+00
 -1      2948 1.82850E+01 7.90325E+00 0.00000E+00
 -1      2949 1.67850E+01 7.90325E+00 0.00000E+00
 -1      2950 1.60350E+01 9.20225E+00 0.00000E+00
 -1      2951 1.90350E+01 9.20225E+00 0.00000E+00
 -1      2952 8.84206E+01 4.12293E+01 0.00000E+00
 -1      2953 9.35393E+01 4.11956E+01 0.00000E+00
 -1      2954 1.01371E+02 3.40618E+01 0.00000E+00
 -1      2955 1.00391E+02 3.49356E+01 0.00000E+00
 -1      2956 8.28728E+01 3.90761E+01 0.00000E+00
 -1      2957 8.19650E+01 3.83147E+01 0.00000E+00
 -1      2958 8.51501E+01 4.00047E+01 0.00000E+00
 -1      2959 8.40114E+01 3.95404E+01 0.00000E+00
 -1      2960 8.30065E+01 3.98167E+01 0.00000E+00
 -1      2961 2.72850E+01 7.90325E+00 0.00000E+00
 -1      2962 2.57850E+01 7.90325E+00 0.00000E+00
 -1      2963 2.50350E+01 9.20225E+00 0.00000E+00
 -1      2964 2.80350E+01 9.20225E+00 0.00000E+00
 -1      2965 1.14000E+01 4.09070E+01 0.00000E+00
 -1      2966 1.29000E+01 4.09070E+01 0.00000E+00
 -1      2967 1.36500E+01 3.96080E+01 0.00000E+00
 -1      2968 9.09300E+00 1.68813E+01 0.00000E+00
 -1      2969 9.09300E+00 1.83563E+01 0.00000E+00
 -1      2970 1.03920E+01 1.90812E+01 0.00000E+00
 -1      2971 1.03920E+01 1.61437E+01 0.00000E+00
 -1      2972 1.41192E+02 3.96958E+01 0.00000E+00
 -1      2973 7.85850E+00 3.92077E+01 0.00000E+00
 -1      2974 9.09300E+00 3.15875E+01 0.00000E+00
 -1      2975 9.09300E+00 3.30625E+01 0.00000E+00
 -1      2976 1.02272E+02 2.88934E+01 0.00000E+00
 -1      2977 1.02344E+02 3.00461E+01 0.00000E+00
 -1      2978 8.80490E+01 1.77967E+01 0.00000E+00
 -1      2979 8.92909E+01 1.76106E+01 0.00000E+00
 -1      2980 7.86906E+01 3.33132E+01 0.00000E+00
 -1      2981 7.82725E+01 3.21501E+01 0.00000E+00
 -1      2982 8.55454E+01 1.82822E+01 0.00000E+00
 -1      2983 8.67649E+01 1.80269E+01 0.00000E+00
 -1      2984 8.33187E+01 1.98370E+01 0.00000E+00
 -1      2985 8.41370E+01 1.90801E+01 0.00000E+00
 -1      2986 8.15787E+01 2.13276E+01 0.00000E+00
 -1      2987 8.24487E+01 2.05823E+01 0.00000E+00
 -1      2988 8.22756E+01 1.95743E+01 0.00000E+00
 -1      2989 7.85850E+01 2.57301E+01 0.00000E+00
 -1      2990 7.89331E+01 2.47745E+01 0.00000E+00
 -1      2991 8.10225E+01 3.73531E+01 0.00000E+00
 -1      2992 8.02790E+01 3.64297E+01 0.00000E+00
 -1      2993 9.29601E+01 1.78585E+01 0.00000E+00
 -1      2994 9.43551E+01 1.80654E+01 0.00000E+00
 -1      2995 7.82067E+01 2.81218E+01 0.00000E+00
 -1      2996 7.83664E+01 2.69814E+01 0.00000E+00
 -1      2997 7.95815E+01 3.53616E+01 0.00000E+00
 -1      2998 7.91276E+01 3.44559E+01 0.00000E+00
 -1      2999 7.79276E+01 3.06172E+01 0.00000E+00
 -1      3000 7.80002E+01 2.93763E+01 0.00000E+00
 -1      3001 1.02266E+02 3.13102E+01 0.00000E+00
 -1      3002 1.02205E+02 3.24777E+01 0.00000E+00
 -1      3003 9.20393E+01 4.11956E+01 0.00000E+00
 -1      3004 9.87865E+01 3.84332E+01 0.00000E+00
 -1      3005 9.81594E+01 3.90198E+01 0.00000E+00
 -1      3006 9.09300E+00 3.45313E+01 0.00000E+00
 -1      3007 9.09300E+00 3.60000E+01 0.00000E+00
 -1      3008 1.03920E+01 3.37938E+01 0.00000E+00
 -1      3009 1.03920E+01 2.49750E+01 0.00000E+00
 -1      3010 9.09300E+00 2.57000E+01 0.00000E+00
 -1      3011 9.09300E+00 2.71750E+01 0.00000E+00
 -1      3012 9.66450E+00 9.72612E+00 0.00000E+00
 -1      3013 1.03161E+02 2.81460E+01 0.00000E+00
 -1      3014 9.58582E+01 1.87356E+01 0.00000E+00
 -1      3015 9.66693E+01 1.94197E+01 0.00000E+00
 -1      3016 8.98695E+01 1.68777E+01 0.00000E+00
 -1      3017 9.74094E+01 4.03188E+01 0.00000E+00
 -1      3018 1.41192E+02 3.82207E+01 0.00000E+00
 -1      3019 9.88127E+01 2.09498E+01 0.00000E+00
 -1      3020 9.96127E+01 2.11622E+01 0.00000E+00
 -1      3021 8.00089E+01 3.94802E+01 0.00000E+00
 -1      3022 8.07589E+01 4.07792E+01 0.00000E+00
 -1      3023 8.22589E+01 4.07792E+01 0.00000E+00
 -1      3024 8.33975E+01 4.12435E+01 0.00000E+00
 -1      3025 8.48975E+01 4.12435E+01 0.00000E+00
 -1      3026 1.39608E+02 1.61875E+01 0.00000E+00
 -1      3027 1.40907E+02 1.54500E+01 0.00000E+00
 -1      3028 1.40907E+02 1.39875E+01 0.00000E+00
 -1      3029 8.69206E+01 4.12293E+01 0.00000E+00
 -1      3030 1.02306E+02 2.49361E+01 0.00000E+00
 -1      3031 1.02132E+02 2.57476E+01 0.00000E+00
 -1      3032 1.03249E+02 2.60696E+01 0.00000E+00
 -1      3033 9.15750E+00 3.77359E+01 0.00000E+00
 -1      3034 9.22200E+00 4.02061E+01 0.00000E+00
 -1      3035 1.05855E+01 4.04701E+01 0.00000E+00
 -1      3036 1.04565E+01 3.69984E+01 0.00000E+00
 -1      3037 1.40973E+02 1.27472E+01 0.00000E+00
 -1      3038 1.40973E+02 1.12847E+01 0.00000E+00
 -1      3039 1.39805E+02 1.10040E+01 0.00000E+00
 -1      3040 1.39674E+02 1.34847E+01 0.00000E+00
 -1      3041 8.06117E+01 2.15359E+01 0.00000E+00
 -1      3042 8.04385E+01 2.05279E+01 0.00000E+00
 -1      3043 7.96447E+01 2.17441E+01 0.00000E+00
 -1      3044 8.72464E+01 1.70030E+01 0.00000E+00
 -1      3045 1.39893E+02 3.74832E+01 0.00000E+00
 -1      3046 1.00480E+02 2.33962E+01 0.00000E+00
 -1      3047 1.01373E+02 2.36781E+01 0.00000E+00
 -1      3048 1.00663E+02 2.24602E+01 0.00000E+00
 -1      3049 7.77877E+01 2.39968E+01 0.00000E+00
 -1      3050 7.88462E+01 2.38411E+01 0.00000E+00
 -1      3051 7.87593E+01 2.29078E+01 0.00000E+00
 -1      3052 1.03170E+02 3.06750E+01 0.00000E+00
 -1      3053 7.73690E+01 3.14747E+01 0.00000E+00
 -1      3054 7.64656E+01 3.07993E+01 0.00000E+00
 -1      3055 7.68105E+01 3.23322E+01 0.00000E+00
 -1      3056 7.92853E+01 3.63611E+01 0.00000E+00
 -1      3057 7.72307E+01 2.86873E+01 0.00000E+00
 -1      3058 9.24960E+01 1.70482E+01 0.00000E+00
 -1      3059 1.02258E+02 3.35233E+01 0.00000E+00
 -1      3060 1.02311E+02 3.45689E+01 0.00000E+00
 -1      3061 1.03145E+02 3.29847E+01 0.00000E+00
 -1      3062 8.09253E+01 3.83909E+01 0.00000E+00
 -1      3063 9.09300E+00 2.86437E+01 0.00000E+00
 -1      3064 9.09300E+00 3.01187E+01 0.00000E+00
 -1      3065 1.03920E+01 3.08563E+01 0.00000E+00
 -1      3066 1.03920E+01 2.79188E+01 0.00000E+00
 -1      3067 1.09635E+01 1.04636E+01 0.00000E+00
 -1      3068 9.52865E+01 1.77839E+01 0.00000E+00
 -1      3069 9.62179E+01 1.75024E+01 0.00000E+00
 -1      3070 9.47148E+01 1.68322E+01 0.00000E+00
 -1      3071 9.80016E+01 2.02657E+01 0.00000E+00
 -1      3072 8.59025E+01 4.09672E+01 0.00000E+00
 -1      3073 8.45540E+01 1.80311E+01 0.00000E+00
 -1      3074 8.49709E+01 1.69821E+01 0.00000E+00
 -1      3075 8.35625E+01 1.77800E+01 0.00000E+00
 -1      3076 7.81509E+01 3.41503E+01 0.00000E+00
 -1      3077 9.99275E+01 3.56884E+01 0.00000E+00
 -1      3078 9.94599E+01 3.69358E+01 0.00000E+00
 -1      3079 1.13355E+01 3.91711E+01 0.00000E+00
 -1      3080 7.76559E+01 2.61814E+01 0.00000E+00
 -1      3081 1.00960E+02 3.58603E+01 0.00000E+00
 -1      3082 1.04141E+02 2.74439E+01 0.00000E+00
 -1      3083 1.04227E+02 2.87087E+01 0.00000E+00
 -1      3084 1.16910E+01 1.24625E+01 0.00000E+00
 -1      3085 1.16910E+01 1.39375E+01 0.00000E+00
 -1      3086 8.92670E+01 1.59703E+01 0.00000E+00
 -1      3087 9.06061E+01 1.60752E+01 0.00000E+00
 -1      3088 7.90664E+01 3.85186E+01 0.00000E+00
 -1      3089 1.89000E+01 3.83090E+01 0.00000E+00
 -1      3090 2.04000E+01 3.83090E+01 0.00000E+00
 -1      3091 2.19000E+01 3.83090E+01 0.00000E+00
 -1      3092 2.34000E+01 3.83090E+01 0.00000E+00
 -1      3093 2.11500E+01 3.70100E+01 0.00000E+00
 -1      3094 2.49000E+01 3.83090E+01 0.00000E+00
 -1      3095 2.64000E+01 3.83090E+01 0.00000E+00
 -1      3096 2.41500E+01 3.70100E+01 0.00000E+00
 -1      3097 2.79000E+01 3.83090E+01 0.00000E+00
 -1      3098 2.94000E+01 3.83090E+01 0.00000E+00
 -1      3099 2.71500E+01 3.70100E+01 0.00000E+00
 -1      3100 3.09000E+01 3.83090E+01 0.00000E+00
 -1      3101 3.24000E+01 3.83090E+01 0.00000E+00
 -1      3102 3.01500E+01 3.70100E+01 0.00000E+00
 -1      3103 3.39000E+01 3.83090E+01 0.00000E+00
 -1      3104 3.54000E+01 3.83090E+01 0.00000E+00
 -1      3105 3.31500E+01 3.70100E+01 0.00000E+00
 -1      3106 3.69000E+01 3.83090E+01 0.00000E+00
 -1      3107 3.84000E+01 3.83090E+01 0.00000E+00
 -1      3108 3.61500E+01 3.70100E+01 0.00000E+00
 -1      3109 3.99000E+01 3.83090E+01 0.00000E+00
 -1      3110 4.14000E+01 3.83090E+01 0.00000E+00
 -1      3111 3.91500E+01 3.70100E+01 0.00000E+00
 -1      3112 4.29000E+01 3.83090E+01 0.00000E+00
 -1      3113 4.44000E+01 3.83090E+01 0.00000E+00
 -1      3114 4.21500E+01 3.70100E+01 0.00000E+00
 -1      3115 4.59000E+01 3.83090E+01 0.00000E+00
 -1      3116 4.74000E+01 3.83090E+01 0.00000E+00
 -1      3117 4.51500E+01 3.70100E+01 0.00000E+00
 -1      3118 4.89000E+01 3.83090E+01 0.00000E+00
 -1      3119 5.04000E+01 3.83090E+01 0.00000E+00
 -1      3120 4.81500E+01 3.70100E+01 0.00000E+00
 -1      3121 5.19000E+01 3.83090E+01 0.00000E+00
 -1      3122 5.34000E+01 3.83090E+01 0.00000E+00
 -1      3123 5.11500E+01 3.70100E+01 0.00000E+00
 -1      3124 5.49000E+01 3.83090E+01 0.00000E+00
 -1      3125 5.64000E+01 3.83090E+01 0.00000E+00
 -1      3126 5.41500E+01 3.70100E+01 0.00000E+00
 -1      3127 5.79000E+01 3.83090E+01 0.00000E+00
 -1      3128 5.94000E+01 3.83090E+01 0.00000E+00
 -1      3129 5.71500E+01 3.70100E+01 0.00000E+00
 -1      3130 6.09000E+01 3.83090E+01 0.00000E+00
 -1      3131 6.24000E+01 3.83090E+01 0.00000E+00
 -1      3132 6.01500E+01 3.70100E+01 0.00000E+00
 -1      3133 6.39000E+01 3.83090E+01 0.00000E+00
 -1      3134 6.54000E+01 3.83090E+01 0.00000E+00
 -1      3135 6.31500E+01 3.70100E+01 0.00000E+00
 -1      3136 6.69000E+01 3.83090E+01 0.00000E+00
 -1      3137 6.84000E+01 3.83090E+01 0.00000E+00
 -1      3138 6.61500E+01 3.70100E+01 0.00000E+00
 -1      3139 6.99000E+01 3.83090E+01 0.00000E+00
 -1      3140 7.14000E+01 3.83090E+01 0.00000E+00
 -1      3141 6.91500E+01 3.70100E+01 0.00000E+00
 -1      3142 7.29000E+01 3.83090E+01 0.00000E+00
 -1      3143 7.44000E+01 3.83090E+01 0.00000E+00
 -1      3144 7.21500E+01 3.70100E+01 0.00000E+00
 -1      3145 7.59832E+01 3.84138E+01 0.00000E+00
 -1      3146 7.74832E+01 3.84138E+01 0.00000E+00
 -1      3147 7.83996E+01 3.73245E+01 0.00000E+00
 -1      3148 7.52332E+01 3.71148E+01 0.00000E+00
 -1      3149 1.29000E+01 3.83090E+01 0.00000E+00
 -1      3150 1.44000E+01 3.83090E+01 0.00000E+00
 -1      3151 1.02900E+02 3.84991E+01 0.00000E+00
 -1      3152 1.04400E+02 3.84991E+01 0.00000E+00
 -1      3153 1.05900E+02 3.84991E+01 0.00000E+00
 -1      3154 1.07400E+02 3.84991E+01 0.00000E+00
 -1      3155 1.05150E+02 3.73902E+01 0.00000E+00
 -1      3156 1.08900E+02 3.84991E+01 0.00000E+00
 -1      3157 1.10400E+02 3.84991E+01 0.00000E+00
 -1      3158 1.08150E+02 3.73902E+01 0.00000E+00
 -1      3159 1.11900E+02 3.84991E+01 0.00000E+00
 -1      3160 1.13400E+02 3.84991E+01 0.00000E+00
 -1      3161 1.11150E+02 3.73902E+01 0.00000E+00
 -1      3162 1.14900E+02 3.84991E+01 0.00000E+00
 -1      3163 1.16400E+02 3.84991E+01 0.00000E+00
 -1      3164 1.14150E+02 3.73902E+01 0.00000E+00
 -1      3165 1.17900E+02 3.84991E+01 0.00000E+00
 -1      3166 1.19400E+02 3.84991E+01 0.00000E+00
 -1      3167 1.17150E+02 3.73902E+01 0.00000E+00
 -1      3168 1.20900E+02 3.84991E+01 0.00000E+00
 -1      3169 1.22400E+02 3.84991E+01 0.00000E+00
 -1      3170 1.20150E+02 3.73902E+01 0.00000E+00
 -1      3171 1.23900E+02 3.84991E+01 0.00000E+00
 -1      3172 1.25400E+02 3.84991E+01 0.00000E+00
 -1      3173 1.23150E+02 3.73902E+01 0.00000E+00
 -1      3174 1.26900E+02 3.84991E+01 0.00000E+00
 -1      3175 1.28400E+02 3.84991E+01 0.00000E+00
 -1      3176 1.26150E+02 3.73902E+01 0.00000E+00
 -1      3177 1.29900E+02 3.84991E+01 0.00000E+00
 -1      3178 1.31400E+02 3.84991E+01 0.00000E+00
 -1      3179 1.29150E+02 3.73902E+01 0.00000E+00
 -1      3180 1.32900E+02 3.84991E+01 0.00000E+00
 -1      3181 1.34400E+02 3.84991E+01 0.00000E+00
 -1      3182 1.32150E+02 3.73902E+01 0.00000E+00
 -1      3183 1.35900E+02 3.84991E+01 0.00000E+00
 -1      3184 1.37400E+02 3.84991E+01 0.00000E+00
 -1      3185 1.35150E+02 3.73902E+01 0.00000E+00
 -1      3186 7.67018E+01 2.66595E+01 0.00000E+00
 -1      3187 7.69205E+01 2.54082E+01 0.00000E+00
 -1      3188 3.47850E+01 1.05013E+01 0.00000E+00
 -1      3189 3.32850E+01 1.05013E+01 0.00000E+00
 -1      3190 3.17850E+01 1.05013E+01 0.00000E+00
 -1      3191 3.02850E+01 1.05013E+01 0.00000E+00
 -1      3192 3.25350E+01 1.18003E+01 0.00000E+00
 -1      3193 4.07850E+01 1.05013E+01 0.00000E+00
 -1      3194 3.92850E+01 1.05013E+01 0.00000E+00
 -1      3195 4.37850E+01 1.05013E+01 0.00000E+00
 -1      3196 4.22850E+01 1.05013E+01 0.00000E+00
 -1      3197 4.15350E+01 1.18003E+01 0.00000E+00
 -1      3198 4.67850E+01 1.05013E+01 0.00000E+00
 -1      3199 4.52850E+01 1.05013E+01 0.00000E+00
 -1      3200 4.45350E+01 1.18003E+01 0.00000E+00
 -1      3201 4.97850E+01 1.05013E+01 0.00000E+00
 -1      3202 4.82850E+01 1.05013E+01 0.00000E+00
 -1      3203 4.75350E+01 1.18003E+01 0.00000E+00
 -1      3204 5.27850E+01 1.05013E+01 0.00000E+00
 -1      3205 5.12850E+01 1.05013E+01 0.00000E+00
 -1      3206 5.05350E+01 1.18003E+01 0.00000E+00
 -1      3207 5.57850E+01 1.05013E+01 0.00000E+00
 -1      3208 5.42850E+01 1.05013E+01 0.00000E+00
 -1      3209 5.35350E+01 1.18003E+01 0.00000E+00
 -1      3210 5.87850E+01 1.05013E+01 0.00000E+00
 -1      3211 5.72850E+01 1.05013E+01 0.00000E+00
 -1      3212 5.65350E+01 1.18003E+01 0.00000E+00
 -1      3213 6.17850E+01 1.05013E+01 0.00000E+00
 -1      3214 6.02850E+01 1.05013E+01 0.00000E+00
 -1      3215 5.95350E+01 1.18003E+01 0.00000E+00
 -1      3216 6.47850E+01 1.05013E+01 0.00000E+00
 -1      3217 6.32850E+01 1.05013E+01 0.00000E+00
 -1      3218 6.25350E+01 1.18003E+01 0.00000E+00
 -1      3219 6.77850E+01 1.05013E+01 0.00000E+00
 -1      3220 6.62850E+01 1.05013E+01 0.00000E+00
 -1      3221 6.55350E+01 1.18003E+01 0.00000E+00
 -1      3222 7.07850E+01 1.05013E+01 0.00000E+00
 -1      3223 6.92850E+01 1.05013E+01 0.00000E+00
 -1      3224 6.85350E+01 1.18003E+01 0.00000E+00
 -1      3225 7.37850E+01 1.05013E+01 0.00000E+00
 -1      3226 7.22850E+01 1.05013E+01 0.00000E+00
 -1      3227 7.15350E+01 1.18003E+01 0.00000E+00
 -1      3228 7.67850E+01 1.05013E+01 0.00000E+00
 -1      3229 7.52850E+01 1.05013E+01 0.00000E+00
 -1      3230 7.45350E+01 1.18003E+01 0.00000E+00
 -1      3231 7.97850E+01 1.05013E+01 0.00000E+00
 -1      3232 7.82850E+01 1.05013E+01 0.00000E+00
 -1      3233 7.75350E+01 1.18003E+01 0.00000E+00
 -1      3234 8.27850E+01 1.05013E+01 0.00000E+00
 -1      3235 8.12850E+01 1.05013E+01 0.00000E+00
 -1      3236 8.05350E+01 1.18003E+01 0.00000E+00
 -1      3237 8.57850E+01 1.05013E+01 0.00000E+00
 -1      3238 8.42850E+01 1.05013E+01 0.00000E+00
 -1      3239 8.35350E+01 1.18003E+01 0.00000E+00
 -1      3240 8.87850E+01 1.05013E+01 0.00000E+00
 -1      3241 8.72850E+01 1.05013E+01 0.00000E+00
 -1      3242 8.65350E+01 1.18003E+01 0.00000E+00
 -1      3243 9.17850E+01 1.05013E+01 0.00000E+00
 -1      3244 9.02850E+01 1.05013E+01 0.00000E+00
 -1      3245 8.95350E+01 1.18003E+01 0.00000E+00
 -1      3246 9.47850E+01 1.05013E+01 0.00000E+00
 -1      3247 9.32850E+01 1.05013E+01 0.00000E+00
 -1      3248 9.25350E+01 1.18003E+01 0.00000E+00
 -1      3249 9.77850E+01 1.05013E+01 0.00000E+00
 -1      3250 9.62850E+01 1.05013E+01 0.00000E+00
 -1      3251 9.55350E+01 1.18003E+01 0.00000E+00
 -1      3252 1.00785E+02 1.05013E+01 0.00000E+00
 -1      3253 9.92850E+01 1.05013E+01 0.00000E+00
 -1      3254 9.85350E+01 1.18003E+01 0.00000E+00
 -1      3255 1.03785E+02 1.05013E+01 0.00000E+00
 -1      3256 1.02285E+02 1.05013E+01 0.00000E+00
 -1      3257 1.01535E+02 1.18003E+01 0.00000E+00
 -1      3258 1.06785E+02 1.05013E+01 0.00000E+00
 -1      3259 1.05285E+02 1.05013E+01 0.00000E+00
 -1      3260 1.04535E+02 1.18003E+01 0.00000E+00
 -1      3261 1.09785E+02 1.05013E+01 0.00000E+00
 -1      3262 1.08285E+02 1.05013E+01 0.00000E+00
 -1      3263 1.07535E+02 1.18003E+01 0.00000E+00
 -1      3264 1.12785E+02 1.05013E+01 0.00000E+00
 -1      3265 1.11285E+02 1.05013E+01 0.00000E+00
 -1      3266 1.10535E+02 1.18003E+01 0.00000E+00
 -1      3267 1.15785E+02 1.05013E+01 0.00000E+00
 -1      3268 1.14285E+02 1.05013E+01 0.00000E+00
 -1      3269 1.13535E+02 1.18003E+01 0.00000E+00
 -1      3270 1.18785E+02 1.05013E+01 0.00000E+00
 -1      3271 1.17285E+02 1.05013E+01 0.00000E+00
 -1      3272 1.16535E+02 1.18003E+01 0.00000E+00
 -1      3273 1.21785E+02 1.05013E+01 0.00000E+00
 -1      3274 1.20285E+02 1.05013E+01 0.00000E+00
 -1      3275 1.19535E+02 1.18003E+01 0.00000E+00
 -1      3276 1.24785E+02 1.05013E+01 0.00000E+00
 -1      3277 1.23285E+02 1.05013E+01 0.00000E+00
 -1      3278 1.22535E+02 1.18003E+01 0.00000E+00
 -1      3279 1.27785E+02 1.05013E+01 0.00000E+00
 -1      3280 1.26285E+02 1.05013E+01 0.00000E+00
 -1      3281 1.25535E+02 1.18003E+01 0.00000E+00
 -1      3282 1.30785E+02 1.05013E+01 0.00000E+00
 -1      3283 1.29285E+02 1.05013E+01 0.00000E+00
 -1      3284 1.28535E+02 1.18003E+01 0.00000E+00
 -1      3285 1.33785E+02 1.05013E+01 0.00000E+00
 -1      3286 1.32285E+02 1.05013E+01 0.00000E+00
 -1      3287 1.31535E+02 1.18003E+01 0.00000E+00
 -1      3288 1.36785E+02 1.05013E+01 0.00000E+00
 -1      3289 1.35285E+02 1.05013E+01 0.00000E+00
 -1      3290 1.34535E+02 1.18003E+01 0.00000E+00
 -1      3291 1.38879E+02 1.08930E+01 0.00000E+00
 -1      3292 1.37711E+02 1.06123E+01 0.00000E+00
 -1      3293 1.36961E+02 1.19113E+01 0.00000E+00
 -1      3294 1.38813E+02 1.21333E+01 0.00000E+00
 -1      3295 1.16910E+01 2.12875E+01 0.00000E+00
 -1      3296 1.16910E+01 2.27625E+01 0.00000E+00
 -1      3297 1.38309E+02 3.45625E+01 0.00000E+00
 -1      3298 1.38309E+02 3.30875E+01 0.00000E+00
 -1      3299 1.38309E+02 2.57625E+01 0.00000E+00
 -1      3300 1.38309E+02 2.42875E+01 0.00000E+00
 -1      3301 1.00347E+02 2.04281E+01 0.00000E+00
 -1      3302 1.00505E+02 2.14441E+01 0.00000E+00
 -1      3303 1.01397E+02 2.17261E+01 0.00000E+00
 -1      3304 1.38309E+02 3.16125E+01 0.00000E+00
 -1      3305 1.38309E+02 3.01375E+01 0.00000E+00
 -1      3306 1.37010E+02 3.23500E+01 0.00000E+00
 -1      3307 3.77850E+01 1.05013E+01 0.00000E+00
 -1      3308 3.62850E+01 1.05013E+01 0.00000E+00
 -1      3309 3.55350E+01 1.18003E+01 0.00000E+00
 -1      3310 3.85350E+01 1.18003E+01 0.00000E+00
 -1      3311 1.04232E+02 3.01059E+01 0.00000E+00
 -1      3312 1.04154E+02 3.13700E+01 0.00000E+00
 -1      3313 8.64235E+01 1.61090E+01 0.00000E+00
 -1      3314 8.77075E+01 1.58788E+01 0.00000E+00
 -1      3315 2.27850E+01 1.05013E+01 0.00000E+00
 -1      3316 2.12850E+01 1.05013E+01 0.00000E+00
 -1      3317 1.26488E+01 1.02017E+01 0.00000E+00
 -1      3318 1.20772E+01 1.14631E+01 0.00000E+00
 -1      3319 1.33763E+01 1.22006E+01 0.00000E+00
 -1      3320 1.41488E+01 1.02017E+01 0.00000E+00
 -1      3321 1.59000E+01 3.83090E+01 0.00000E+00
 -1      3322 1.74000E+01 3.83090E+01 0.00000E+00
 -1      3323 1.81500E+01 3.70100E+01 0.00000E+00
 -1      3324 9.81219E+01 1.93002E+01 0.00000E+00
 -1      3325 1.12710E+01 3.74352E+01 0.00000E+00
 -1      3326 1.20855E+01 3.78721E+01 0.00000E+00
 -1      3327 1.12065E+01 3.56994E+01 0.00000E+00
 -1      3328 7.77021E+01 3.62563E+01 0.00000E+00
 -1      3329 7.72652E+01 3.51136E+01 0.00000E+00
 -1      3330 7.68282E+01 3.39709E+01 0.00000E+00
 -1      3331 7.63794E+01 3.60769E+01 0.00000E+00
 -1      3332 8.11191E+01 1.91048E+01 0.00000E+00
 -1      3333 8.19892E+01 1.83595E+01 0.00000E+00
 -1      3334 7.62813E+01 2.91752E+01 0.00000E+00
 -1      3335 7.64878E+01 2.79207E+01 0.00000E+00
 -1      3336 1.02537E+02 3.62488E+01 0.00000E+00
 -1      3337 1.02073E+02 3.70017E+01 0.00000E+00
 -1      3338 1.00233E+02 3.75933E+01 0.00000E+00
 -1      3339 9.91963E+01 3.79159E+01 0.00000E+00
 -1      3340 9.19086E+01 1.59079E+01 0.00000E+00
 -1      3341 9.31960E+01 1.59734E+01 0.00000E+00
 -1      3342 9.95598E+01 3.90907E+01 0.00000E+00
 -1      3343 1.38309E+02 2.86750E+01 0.00000E+00
 -1      3344 1.38309E+02 2.72250E+01 0.00000E+00
 -1      3345 1.37010E+02 2.64875E+01 0.00000E+00
 -1      3346 1.37010E+02 2.94125E+01 0.00000E+00
 -1      3347 9.80053E+01 1.80118E+01 0.00000E+00
 -1      3348 9.93376E+01 1.88578E+01 0.00000E+00
 -1      3349 1.16910E+01 2.42375E+01 0.00000E+00
 -1      3350 1.16910E+01 2.57125E+01 0.00000E+00
 -1      3351 1.29900E+01 2.35000E+01 0.00000E+00
 -1      3352 1.29900E+01 1.46687E+01 0.00000E+00
 -1      3353 1.16910E+01 1.54063E+01 0.00000E+00
 -1      3354 1.16910E+01 1.68750E+01 0.00000E+00
 -1      3355 9.13061E+01 1.50005E+01 0.00000E+00
 -1      3356 1.56488E+01 1.02017E+01 0.00000E+00
 -1      3357 1.52625E+01 1.12011E+01 0.00000E+00
 -1      3358 1.71488E+01 1.02017E+01 0.00000E+00
 -1      3359 1.28355E+01 3.65731E+01 0.00000E+00
 -1      3360 1.16910E+01 1.83469E+01 0.00000E+00
 -1      3361 1.16910E+01 1.98156E+01 0.00000E+00
 -1      3362 1.29900E+01 2.05531E+01 0.00000E+00
 -1      3363 1.29900E+01 1.76094E+01 0.00000E+00
 -1      3364 2.42850E+01 1.05013E+01 0.00000E+00
 -1      3365 2.35350E+01 1.18003E+01 0.00000E+00
 -1      3366 2.57850E+01 1.05013E+01 0.00000E+00
 -1      3367 1.00230E+02 1.91397E+01 0.00000E+00
 -1      3368 1.01122E+02 1.94217E+01 0.00000E+00
 -1      3369 1.00113E+02 1.78513E+01 0.00000E+00
 -1      3370 7.59248E+01 3.32955E+01 0.00000E+00
 -1      3371 1.01323E+02 3.81106E+01 0.00000E+00
 -1      3372 1.05211E+02 2.94038E+01 0.00000E+00
 -1      3373 1.04488E+02 2.58209E+01 0.00000E+00
 -1      3374 1.04314E+02 2.66324E+01 0.00000E+00
 -1      3375 1.05380E+02 2.71951E+01 0.00000E+00
 -1      3376 1.12065E+01 3.27619E+01 0.00000E+00
 -1      3377 1.12065E+01 3.42306E+01 0.00000E+00
 -1      3378 1.20210E+01 3.46675E+01 0.00000E+00
 -1      3379 7.58795E+01 2.49528E+01 0.00000E+00
 -1      3380 7.68336E+01 2.44748E+01 0.00000E+00
 -1      3381 7.67467E+01 2.35414E+01 0.00000E+00
 -1      3382 7.57524E+01 2.71474E+01 0.00000E+00
 -1      3383 1.05269E+02 3.18466E+01 0.00000E+00
 -1      3384 1.04207E+02 3.24156E+01 0.00000E+00
 -1      3385 1.04260E+02 3.34612E+01 0.00000E+00
 -1      3386 1.02489E+02 2.40001E+01 0.00000E+00
 -1      3387 1.03605E+02 2.43221E+01 0.00000E+00
 -1      3388 1.02672E+02 2.30641E+01 0.00000E+00
 -1      3389 8.24061E+01 1.73105E+01 0.00000E+00
 -1      3390 2.95350E+01 1.18003E+01 0.00000E+00
 -1      3391 2.87850E+01 1.05013E+01 0.00000E+00
 -1      3392 2.72850E+01 1.05013E+01 0.00000E+00
 -1      3393 1.38129E+02 3.63451E+01 0.00000E+00
 -1      3394 1.36830E+02 3.56076E+01 0.00000E+00
 -1      3395 1.38309E+02 1.98625E+01 0.00000E+00
 -1      3396 1.38309E+02 1.83875E+01 0.00000E+00
 -1      3397 7.85862E+01 2.18998E+01 0.00000E+00
 -1      3398 1.38879E+02 3.74540E+01 0.00000E+00
 -1      3399 1.37010E+02 2.35500E+01 0.00000E+00
 -1      3400 1.38309E+02 2.28125E+01 0.00000E+00
 -1      3401 1.38309E+02 2.13375E+01 0.00000E+00
 -1      3402 1.99669E+01 1.03515E+01 0.00000E+00
 -1      3403 1.84669E+01 1.03515E+01 0.00000E+00
 -1      3404 1.80806E+01 1.13509E+01 0.00000E+00
 -1      3405 2.07169E+01 1.16505E+01 0.00000E+00
 -1      3406 1.12065E+01 3.12931E+01 0.00000E+00
 -1      3407 1.20210E+01 3.17300E+01 0.00000E+00
 -1      3408 1.12065E+01 2.98244E+01 0.00000E+00
 -1      3409 1.37010E+02 1.76625E+01 0.00000E+00
 -1      3410 1.38309E+02 1.69250E+01 0.00000E+00
 -1      3411 1.38309E+02 1.54625E+01 0.00000E+00
 -1      3412 8.54320E+01 1.58579E+01 0.00000E+00
 -1      3413 8.84441E+01 1.50764E+01 0.00000E+00
 -1      3414 1.03424E+02 3.57102E+01 0.00000E+00
 -1      3415 9.74336E+01 1.70600E+01 0.00000E+00
 -1      3416 9.86493E+01 1.66176E+01 0.00000E+00
 -1      3417 9.68619E+01 1.61083E+01 0.00000E+00
 -1      3418 7.57227E+01 3.00327E+01 0.00000E+00
 -1      3419 7.49799E+01 2.92661E+01 0.00000E+00
 -1      3420 7.51642E+01 3.08901E+01 0.00000E+00
 -1      3421 8.01521E+01 1.93131E+01 0.00000E+00
 -1      3422 1.51500E+01 3.70100E+01 0.00000E+00
 -1      3423 1.74000E+01 3.57110E+01 0.00000E+00
 -1      3424 1.89000E+01 3.57110E+01 0.00000E+00
 -1      3425 4.82850E+01 1.30992E+01 0.00000E+00
 -1      3426 4.67850E+01 1.30992E+01 0.00000E+00
 -1      3427 2.34000E+01 3.57110E+01 0.00000E+00
 -1      3428 2.49000E+01 3.57110E+01 0.00000E+00
 -1      3429 2.64000E+01 3.57110E+01 0.00000E+00
 -1      3430 2.79000E+01 3.57110E+01 0.00000E+00
 -1      3431 2.56500E+01 3.44120E+01 0.00000E+00
 -1      3432 2.94000E+01 3.57110E+01 0.00000E+00
 -1      3433 3.09000E+01 3.57110E+01 0.00000E+00
 -1      3434 2.86500E+01 3.44120E+01 0.00000E+00
 -1      3435 3.24000E+01 3.57110E+01 0.00000E+00
 -1      3436 3.39000E+01 3.57110E+01 0.00000E+00
 -1      3437 3.16500E+01 3.44120E+01 0.00000E+00
 -1      3438 3.54000E+01 3.57110E+01 0.00000E+00
 -1      3439 3.69000E+01 3.57110E+01 0.00000E+00
 -1      3440 3.46500E+01 3.44120E+01 0.00000E+00
 -1      3441 3.84000E+01 3.57110E+01 0.00000E+00
 -1      3442 3.99000E+01 3.57110E+01 0.00000E+00
 -1      3443 3.76500E+01 3.44120E+01 0.00000E+00
 -1      3444 4.14000E+01 3.57110E+01 0.00000E+00
 -1      3445 4.29000E+01 3.57110E+01 0.00000E+00
 -1      3446 4.06500E+01 3.44120E+01 0.00000E+00
 -1      3447 4.44000E+01 3.57110E+01 0.00000E+00
 -1      3448 4.59000E+01 3.57110E+01 0.00000E+00
 -1      3449 4.36500E+01 3.44120E+01 0.00000E+00
 -1      3450 4.74000E+01 3.57110E+01 0.00000E+00
 -1      3451 4.89000E+01 3.57110E+01 0.00000E+00
 -1      3452 4.66500E+01 3.44120E+01 0.00000E+00
 -1      3453 5.04000E+01 3.57110E+01 0.00000E+00
 -1      3454 5.19000E+01 3.57110E+01 0.00000E+00
 -1      3455 4.96500E+01 3.44120E+01 0.00000E+00
 -1      3456 5.34000E+01 3.57110E+01 0.00000E+00
 -1      3457 5.49000E+01 3.57110E+01 0.00000E+00
 -1      3458 5.26500E+01 3.44120E+01 0.00000E+00
 -1      3459 5.64000E+01 3.57110E+01 0.00000E+00
 -1      3460 5.79000E+01 3.57110E+01 0.00000E+00
 -1      3461 5.56500E+01 3.44120E+01 0.00000E+00
 -1      3462 5.94000E+01 3.57110E+01 0.00000E+00
 -1      3463 6.09000E+01 3.57110E+01 0.00000E+00
 -1      3464 5.86500E+01 3.44120E+01 0.00000E+00
 -1      3465 6.24000E+01 3.57110E+01 0.00000E+00
 -1      3466 6.39000E+01 3.57110E+01 0.00000E+00
 -1      3467 6.16500E+01 3.44120E+01 0.00000E+00
 -1      3468 6.54000E+01 3.57110E+01 0.00000E+00
 -1      3469 6.69000E+01 3.57110E+01 0.00000E+00
 -1      3470 6.46500E+01 3.44120E+01 0.00000E+00
 -1      3471 6.84000E+01 3.57110E+01 0.00000E+00
 -1      3472 6.99000E+01 3.57110E+01 0.00000E+00
 -1      3473 6.76500E+01 3.44120E+01 0.00000E+00
 -1      3474 7.14000E+01 3.57110E+01 0.00000E+00
 -1      3475 7.29000E+01 3.57110E+01 0.00000E+00
 -1      3476 7.06500E+01 3.44120E+01 0.00000E+00
 -1      3477 7.47962E+01 3.59721E+01 0.00000E+00
 -1      3478 1.07400E+02 3.60912E+01 0.00000E+00
 -1      3479 1.08900E+02 3.60912E+01 0.00000E+00
 -1      3480 1.10400E+02 3.60912E+01 0.00000E+00
 -1      3481 1.11900E+02 3.60912E+01 0.00000E+00
 -1      3482 1.09650E+02 3.47922E+01 0.00000E+00
 -1      3483 1.13400E+02 3.60912E+01 0.00000E+00
 -1      3484 1.14900E+02 3.60912E+01 0.00000E+00
 -1      3485 1.12650E+02 3.47922E+01 0.00000E+00
 -1      3486 1.16400E+02 3.60912E+01 0.00000E+00
 -1      3487 1.17900E+02 3.60912E+01 0.00000E+00
 -1      3488 1.15650E+02 3.47922E+01 0.00000E+00
 -1      3489 1.19400E+02 3.60912E+01 0.00000E+00
 -1      3490 1.20900E+02 3.60912E+01 0.00000E+00
 -1      3491 1.18650E+02 3.47922E+01 0.00000E+00
 -1      3492 1.22400E+02 3.60912E+01 0.00000E+00
 -1      3493 1.23900E+02 3.60912E+01 0.00000E+00
 -1      3494 1.21650E+02 3.47922E+01 0.00000E+00
 -1      3495 1.25400E+02 3.60912E+01 0.00000E+00
 -1      3496 1.26900E+02 3.60912E+01 0.00000E+00
 -1      3497 1.24650E+02 3.47922E+01 0.00000E+00
 -1      3498 1.28400E+02 3.60912E+01 0.00000E+00
 -1      3499 1.29900E+02 3.60912E+01 0.00000E+00
 -1      3500 1.27650E+02 3.47922E+01 0.00000E+00
 -1      3501 1.31400E+02 3.60912E+01 0.00000E+00
 -1      3502 1.32900E+02 3.60912E+01 0.00000E+00
 -1      3503 1.30650E+02 3.47922E+01 0.00000E+00
 -1      3504 1.34115E+02 3.58494E+01 0.00000E+00
 -1      3505 1.35615E+02 3.58494E+01 0.00000E+00
 -1      3506 1.35795E+02 3.40668E+01 0.00000E+00
 -1      3507 1.33365E+02 3.45504E+01 0.00000E+00
 -1      3508 1.37010E+02 2.06000E+01 0.00000E+00
 -1      3509 4.52850E+01 1.30992E+01 0.00000E+00
 -1      3510 4.37850E+01 1.30992E+01 0.00000E+00
 -1      3511 4.60350E+01 1.43982E+01 0.00000E+00
 -1      3512 4.22850E+01 1.30992E+01 0.00000E+00
 -1      3513 4.07850E+01 1.30992E+01 0.00000E+00
 -1      3514 4.30350E+01 1.43982E+01 0.00000E+00
 -1      3515 5.12850E+01 1.30992E+01 0.00000E+00
 -1      3516 4.97850E+01 1.30992E+01 0.00000E+00
 -1      3517 4.90350E+01 1.43982E+01 0.00000E+00
 -1      3518 5.42850E+01 1.30992E+01 0.00000E+00
 -1      3519 5.27850E+01 1.30992E+01 0.00000E+00
 -1      3520 5.20350E+01 1.43982E+01 0.00000E+00
 -1      3521 5.72850E+01 1.30992E+01 0.00000E+00
 -1      3522 5.57850E+01 1.30992E+01 0.00000E+00
 -1      3523 5.50350E+01 1.43982E+01 0.00000E+00
 -1      3524 6.02850E+01 1.30992E+01 0.00000E+00
 -1      3525 5.87850E+01 1.30992E+01 0.00000E+00
 -1      3526 5.80350E+01 1.43982E+01 0.00000E+00
 -1      3527 6.32850E+01 1.30992E+01 0.00000E+00
 -1      3528 6.17850E+01 1.30992E+01 0.00000E+00
 -1      3529 6.10350E+01 1.43982E+01 0.00000E+00
 -1      3530 6.62850E+01 1.30992E+01 0.00000E+00
 -1      3531 6.47850E+01 1.30992E+01 0.00000E+00
 -1      3532 6.40350E+01 1.43982E+01 0.00000E+00
 -1      3533 6.92850E+01 1.30992E+01 0.00000E+00
 -1      3534 6.77850E+01 1.30992E+01 0.00000E+00
 -1      3535 6.70350E+01 1.43982E+01 0.00000E+00
 -1      3536 7.22850E+01 1.30992E+01 0.00000E+00
 -1      3537 7.07850E+01 1.30992E+01 0.00000E+00
 -1      3538 7.00350E+01 1.43982E+01 0.00000E+00
 -1      3539 7.52850E+01 1.30992E+01 0.00000E+00
 -1      3540 7.37850E+01 1.30992E+01 0.00000E+00
 -1      3541 7.30350E+01 1.43982E+01 0.00000E+00
 -1      3542 7.82850E+01 1.30992E+01 0.00000E+00
 -1      3543 7.67850E+01 1.30992E+01 0.00000E+00
 -1      3544 7.60350E+01 1.43982E+01 0.00000E+00
 -1      3545 8.12850E+01 1.30992E+01 0.00000E+00
 -1      3546 7.97850E+01 1.30992E+01 0.00000E+00
 -1      3547 7.90350E+01 1.43982E+01 0.00000E+00
 -1      3548 8.74598E+01 1.33926E+01 0.00000E+00
 -1      3549 8.59598E+01 1.33926E+01 0.00000E+00
 -1      3550 9.05193E+01 1.34840E+01 0.00000E+00
 -1      3551 8.90193E+01 1.34840E+01 0.00000E+00
 -1      3552 9.33218E+01 1.33167E+01 0.00000E+00
 -1      3553 9.18218E+01 1.33167E+01 0.00000E+00
 -1      3554 9.63406E+01 1.41755E+01 0.00000E+00
 -1      3555 9.48406E+01 1.41755E+01 0.00000E+00
 -1      3556 1.02285E+02 1.30992E+01 0.00000E+00
 -1      3557 1.00785E+02 1.30992E+01 0.00000E+00
 -1      3558 1.05285E+02 1.30992E+01 0.00000E+00
 -1      3559 1.03785E+02 1.30992E+01 0.00000E+00
 -1      3560 1.03035E+02 1.43982E+01 0.00000E+00
 -1      3561 1.08285E+02 1.30992E+01 0.00000E+00
 -1      3562 1.06785E+02 1.30992E+01 0.00000E+00
 -1      3563 1.06035E+02 1.43982E+01 0.00000E+00
 -1      3564 1.11285E+02 1.30992E+01 0.00000E+00
 -1      3565 1.09785E+02 1.30992E+01 0.00000E+00
 -1      3566 1.09035E+02 1.43982E+01 0.00000E+00
 -1      3567 1.14285E+02 1.30992E+01 0.00000E+00
 -1      3568 1.12785E+02 1.30992E+01 0.00000E+00
 -1      3569 1.12035E+02 1.43982E+01 0.00000E+00
 -1      3570 1.17285E+02 1.30992E+01 0.00000E+00
 -1      3571 1.15785E+02 1.30992E+01 0.00000E+00
 -1      3572 1.15035E+02 1.43982E+01 0.00000E+00
 -1      3573 1.20285E+02 1.30992E+01 0.00000E+00
 -1      3574 1.18785E+02 1.30992E+01 0.00000E+00
 -1      3575 1.18035E+02 1.43982E+01 0.00000E+00
 -1      3576 1.23285E+02 1.30992E+01 0.00000E+00
 -1      3577 1.21785E+02 1.30992E+01 0.00000E+00
 -1      3578 1.21035E+02 1.43982E+01 0.00000E+00
 -1      3579 1.26285E+02 1.30992E+01 0.00000E+00
 -1      3580 1.24785E+02 1.30992E+01 0.00000E+00
 -1      3581 1.24035E+02 1.43982E+01 0.00000E+00
 -1      3582 1.29285E+02 1.30992E+01 0.00000E+00
 -1      3583 1.27785E+02 1.30992E+01 0.00000E+00
 -1      3584 1.27035E+02 1.43982E+01 0.00000E+00
 -1      3585 1.32285E+02 1.30992E+01 0.00000E+00
 -1      3586 1.30785E+02 1.30992E+01 0.00000E+00
 -1      3587 1.30035E+02 1.43982E+01 0.00000E+00
 -1      3588 1.35285E+02 1.30992E+01 0.00000E+00
 -1      3589 1.33785E+02 1.30992E+01 0.00000E+00
 -1      3590 1.33035E+02 1.43982E+01 0.00000E+00
 -1      3591 7.73943E+01 2.19116E+01 0.00000E+00
 -1      3592 7.82797E+01 2.07480E+01 0.00000E+00
 -1      3593 1.02355E+02 2.10321E+01 0.00000E+00
 -1      3594 1.02514E+02 2.20481E+01 0.00000E+00
 -1      3595 1.03630E+02 2.23701E+01 0.00000E+00
 -1      3596 1.31783E+01 3.56203E+01 0.00000E+00
 -1      3597 1.39928E+01 3.60572E+01 0.00000E+00
 -1      3598 1.54928E+01 3.60572E+01 0.00000E+00
 -1      3599 1.31783E+01 3.41516E+01 0.00000E+00
 -1      3600 7.49924E+01 3.41250E+01 0.00000E+00
 -1      3601 7.49747E+01 3.24863E+01 0.00000E+00
 -1      3602 1.35795E+02 3.25918E+01 0.00000E+00
 -1      3603 1.35795E+02 3.11168E+01 0.00000E+00
 -1      3604 1.34580E+02 3.28336E+01 0.00000E+00
 -1      3605 7.47173E+01 2.76205E+01 0.00000E+00
 -1      3606 7.49313E+01 2.63593E+01 0.00000E+00
 -1      3607 1.01060E+02 3.90907E+01 0.00000E+00
 -1      3608 1.14487E+01 2.70341E+01 0.00000E+00
 -1      3609 1.14487E+01 2.85028E+01 0.00000E+00
 -1      3610 1.22633E+01 2.89397E+01 0.00000E+00
 -1      3611 1.27478E+01 2.62966E+01 0.00000E+00
 -1      3612 3.32850E+01 1.30992E+01 0.00000E+00
 -1      3613 3.17850E+01 1.30992E+01 0.00000E+00
 -1      3614 1.48763E+01 1.22006E+01 0.00000E+00
 -1      3615 1.44900E+01 1.32000E+01 0.00000E+00
 -1      3616 1.63762E+01 1.22006E+01 0.00000E+00
 -1      3617 8.12940E+01 1.67169E+01 0.00000E+00
 -1      3618 8.28674E+01 1.61374E+01 0.00000E+00
 -1      3619 9.41274E+01 1.56920E+01 0.00000E+00
 -1      3620 2.04000E+01 3.57110E+01 0.00000E+00
 -1      3621 2.19000E+01 3.57110E+01 0.00000E+00
 -1      3622 2.26500E+01 3.44120E+01 0.00000E+00
 -1      3623 7.89603E+01 1.93249E+01 0.00000E+00
 -1      3624 7.96409E+01 1.79018E+01 0.00000E+00
 -1      3625 7.77685E+01 1.93367E+01 0.00000E+00
 -1      3626 8.45072E+01 1.42656E+01 0.00000E+00
 -1      3627 1.06318E+02 2.87015E+01 0.00000E+00
 -1      3628 1.06323E+02 3.00987E+01 0.00000E+00
 -1      3629 1.38528E+02 1.44181E+01 0.00000E+00
 -1      3630 1.38594E+02 1.31777E+01 0.00000E+00
 -1      3631 1.37668E+02 1.30667E+01 0.00000E+00
 -1      3632 1.37229E+02 1.51556E+01 0.00000E+00
 -1      3633 7.40462E+01 3.46731E+01 0.00000E+00
 -1      3634 8.30072E+01 1.42656E+01 0.00000E+00
 -1      3635 1.44900E+01 1.46687E+01 0.00000E+00
 -1      3636 4.00350E+01 1.43982E+01 0.00000E+00
 -1      3637 3.92850E+01 1.30992E+01 0.00000E+00
 -1      3638 3.77850E+01 1.30992E+01 0.00000E+00
 -1      3639 3.10350E+01 1.43982E+01 0.00000E+00
 -1      3640 3.02850E+01 1.30992E+01 0.00000E+00
 -1      3641 2.87850E+01 1.30992E+01 0.00000E+00
 -1      3642 9.95416E+01 1.68996E+01 0.00000E+00
 -1      3643 1.00434E+02 1.71816E+01 0.00000E+00
 -1      3644 9.89699E+01 1.59479E+01 0.00000E+00
 -1      3645 1.05986E+02 3.51412E+01 0.00000E+00
 -1      3646 1.06736E+02 3.38422E+01 0.00000E+00
 -1      3647 1.04671E+02 2.48849E+01 0.00000E+00
 -1      3648 1.05737E+02 2.54476E+01 0.00000E+00
 -1      3649 1.04854E+02 2.39489E+01 0.00000E+00
 -1      3650 1.35711E+02 1.83937E+01 0.00000E+00
 -1      3651 1.35711E+02 1.69312E+01 0.00000E+00
 -1      3652 7.48444E+01 2.54260E+01 0.00000E+00
 -1      3653 7.47576E+01 2.44926E+01 0.00000E+00
 -1      3654 7.38094E+01 2.58991E+01 0.00000E+00
 -1      3655 3.47850E+01 1.30992E+01 0.00000E+00
 -1      3656 3.40350E+01 1.43982E+01 0.00000E+00
 -1      3657 3.62850E+01 1.30992E+01 0.00000E+00
 -1      3658 1.06376E+02 3.11443E+01 0.00000E+00
 -1      3659 1.06429E+02 3.21899E+01 0.00000E+00
 -1      3660 1.07482E+02 3.04420E+01 0.00000E+00
 -1      3661 1.62428E+01 3.47582E+01 0.00000E+00
 -1      3662 1.33200E+01 3.09956E+01 0.00000E+00
 -1      3663 1.33200E+01 3.24644E+01 0.00000E+00
 -1      3664 1.96500E+01 3.44120E+01 0.00000E+00
 -1      3665 9.92850E+01 1.30992E+01 0.00000E+00
 -1      3666 9.77850E+01 1.30992E+01 0.00000E+00
 -1      3667 7.64403E+01 2.23896E+01 0.00000E+00
 -1      3668 7.61338E+01 2.12378E+01 0.00000E+00
 -1      3669 7.54862E+01 2.28677E+01 0.00000E+00
 -1      3670 1.36742E+02 1.29557E+01 0.00000E+00
 -1      3671 2.65350E+01 1.18003E+01 0.00000E+00
 -1      3672 1.35711E+02 2.42875E+01 0.00000E+00
 -1      3673 1.35711E+02 2.28125E+01 0.00000E+00
 -1      3674 2.12293E+01 1.30161E+01 0.00000E+00
 -1      3675 1.99111E+01 1.28663E+01 0.00000E+00
 -1      3676 1.44773E+01 3.34172E+01 0.00000E+00
 -1      3677 1.34580E+02 2.98961E+01 0.00000E+00
 -1      3678 1.35795E+02 2.96543E+01 0.00000E+00
 -1      3679 1.35795E+02 2.81918E+01 0.00000E+00
 -1      3680 7.41588E+01 2.84780E+01 0.00000E+00
 -1      3681 7.33377E+01 2.76899E+01 0.00000E+00
 -1      3682 7.36003E+01 2.93355E+01 0.00000E+00
 -1      3683 1.02122E+02 1.84553E+01 0.00000E+00
 -1      3684 1.02238E+02 1.97437E+01 0.00000E+00
 -1      3685 1.03355E+02 2.00657E+01 0.00000E+00
 -1      3686 1.06665E+02 2.70785E+01 0.00000E+00
 -1      3687 1.06491E+02 2.78900E+01 0.00000E+00
 -1      3688 1.07603E+02 2.85849E+01 0.00000E+00
 -1      3689 1.04486E+02 3.51412E+01 0.00000E+00
 -1      3690 7.42318E+01 3.17197E+01 0.00000E+00
 -1      3691 1.35992E+02 1.42547E+01 0.00000E+00
 -1      3692 1.35711E+02 2.13406E+01 0.00000E+00
 -1      3693 1.35711E+02 1.98656E+01 0.00000E+00
 -1      3694 1.34412E+02 1.91344E+01 0.00000E+00
 -1      3695 1.34412E+02 2.20781E+01 0.00000E+00
 -1      3696 1.42890E+01 1.98172E+01 0.00000E+00
 -1      3697 1.42890E+01 2.12891E+01 0.00000E+00
 -1      3698 1.35753E+02 2.69709E+01 0.00000E+00
 -1      3699 1.35753E+02 2.55084E+01 0.00000E+00
 -1      3700 1.34454E+02 2.47709E+01 0.00000E+00
 -1      3701 1.34538E+02 2.72127E+01 0.00000E+00
 -1      3702 1.55880E+01 2.20281E+01 0.00000E+00
 -1      3703 1.42890E+01 2.27641E+01 0.00000E+00
 -1      3704 1.42890E+01 2.42391E+01 0.00000E+00
 -1      3705 2.42293E+01 1.30161E+01 0.00000E+00
 -1      3706 2.27293E+01 1.30161E+01 0.00000E+00
 -1      3707 2.19235E+01 1.42319E+01 0.00000E+00
 -1      3708 1.00035E+02 1.43982E+01 0.00000E+00
 -1      3709 1.42890E+01 1.68734E+01 0.00000E+00
 -1      3710 1.42890E+01 1.83453E+01 0.00000E+00
 -1      3711 1.55880E+01 1.90812E+01 0.00000E+00
 -1      3712 7.29526E+01 3.23771E+01 0.00000E+00
 -1      3713 7.31422E+01 3.07809E+01 0.00000E+00
 -1      3714 2.79000E+01 3.31130E+01 0.00000E+00
 -1      3715 2.94000E+01 3.31130E+01 0.00000E+00
 -1      3716 3.09000E+01 3.31130E+01 0.00000E+00
 -1      3717 3.24000E+01 3.31130E+01 0.00000E+00
 -1      3718 3.01500E+01 3.18140E+01 0.00000E+00
 -1      3719 3.39000E+01 3.31130E+01 0.00000E+00
 -1      3720 3.54000E+01 3.31130E+01 0.00000E+00
 -1      3721 3.31500E+01 3.18140E+01 0.00000E+00
 -1      3722 3.69000E+01 3.31130E+01 0.00000E+00
 -1      3723 3.84000E+01 3.31130E+01 0.00000E+00
 -1      3724 3.61500E+01 3.18140E+01 0.00000E+00
 -1      3725 3.99000E+01 3.31130E+01 0.00000E+00
 -1      3726 4.14000E+01 3.31130E+01 0.00000E+00
 -1      3727 3.91500E+01 3.18140E+01 0.00000E+00
 -1      3728 4.29000E+01 3.31130E+01 0.00000E+00
 -1      3729 4.44000E+01 3.31130E+01 0.00000E+00
 -1      3730 4.21500E+01 3.18140E+01 0.00000E+00
 -1      3731 4.59000E+01 3.31130E+01 0.00000E+00
 -1      3732 4.74000E+01 3.31130E+01 0.00000E+00
 -1      3733 4.51500E+01 3.18140E+01 0.00000E+00
 -1      3734 4.89000E+01 3.31130E+01 0.00000E+00
 -1      3735 5.04000E+01 3.31130E+01 0.00000E+00
 -1      3736 4.81500E+01 3.18140E+01 0.00000E+00
 -1      3737 5.19000E+01 3.31130E+01 0.00000E+00
 -1      3738 5.34000E+01 3.31130E+01 0.00000E+00
 -1      3739 5.11500E+01 3.18140E+01 0.00000E+00
 -1      3740 5.49000E+01 3.31130E+01 0.00000E+00
 -1      3741 5.64000E+01 3.31130E+01 0.00000E+00
 -1      3742 5.41500E+01 3.18140E+01 0.00000E+00
 -1      3743 5.79000E+01 3.31130E+01 0.00000E+00
 -1      3744 5.94000E+01 3.31130E+01 0.00000E+00
 -1      3745 5.71500E+01 3.18140E+01 0.00000E+00
 -1      3746 6.09000E+01 3.31130E+01 0.00000E+00
 -1      3747 6.24000E+01 3.31130E+01 0.00000E+00
 -1      3748 6.01500E+01 3.18140E+01 0.00000E+00
 -1      3749 6.39000E+01 3.31130E+01 0.00000E+00
 -1      3750 6.54000E+01 3.31130E+01 0.00000E+00
 -1      3751 6.31500E+01 3.18140E+01 0.00000E+00
 -1      3752 6.69000E+01 3.31130E+01 0.00000E+00
 -1      3753 6.84000E+01 3.31130E+01 0.00000E+00
 -1      3754 6.61500E+01 3.18140E+01 0.00000E+00
 -1      3755 1.08900E+02 3.34932E+01 0.00000E+00
 -1      3756 1.10400E+02 3.34932E+01 0.00000E+00
 -1      3757 1.11900E+02 3.34932E+01 0.00000E+00
 -1      3758 1.13400E+02 3.34932E+01 0.00000E+00
 -1      3759 1.11150E+02 3.21942E+01 0.00000E+00
 -1      3760 1.14900E+02 3.34932E+01 0.00000E+00
 -1      3761 1.16400E+02 3.34932E+01 0.00000E+00
 -1      3762 1.14150E+02 3.21942E+01 0.00000E+00
 -1      3763 1.17900E+02 3.34932E+01 0.00000E+00
 -1      3764 1.19400E+02 3.34932E+01 0.00000E+00
 -1      3765 1.17150E+02 3.21942E+01 0.00000E+00
 -1      3766 1.20900E+02 3.34932E+01 0.00000E+00
 -1      3767 1.22400E+02 3.34932E+01 0.00000E+00
 -1      3768 1.20150E+02 3.21942E+01 0.00000E+00
 -1      3769 1.23900E+02 3.34932E+01 0.00000E+00
 -1      3770 1.25400E+02 3.34932E+01 0.00000E+00
 -1      3771 1.23150E+02 3.21942E+01 0.00000E+00
 -1      3772 1.26900E+02 3.34932E+01 0.00000E+00
 -1      3773 1.28400E+02 3.34932E+01 0.00000E+00
 -1      3774 1.26150E+02 3.21942E+01 0.00000E+00
 -1      3775 1.29900E+02 3.34932E+01 0.00000E+00
 -1      3776 1.31400E+02 3.34932E+01 0.00000E+00
 -1      3777 1.29150E+02 3.21942E+01 0.00000E+00
 -1      3778 1.32383E+02 3.32843E+01 0.00000E+00
 -1      3779 1.33598E+02 3.30425E+01 0.00000E+00
 -1      3780 1.33598E+02 3.15675E+01 0.00000E+00
 -1      3781 1.31633E+02 3.19853E+01 0.00000E+00
 -1      3782 1.35623E+01 2.96741E+01 0.00000E+00
 -1      3783 1.48612E+01 3.04084E+01 0.00000E+00
 -1      3784 1.38045E+01 2.83525E+01 0.00000E+00
 -1      3785 4.67850E+01 1.56973E+01 0.00000E+00
 -1      3786 4.52850E+01 1.56973E+01 0.00000E+00
 -1      3787 1.89000E+01 3.31130E+01 0.00000E+00
 -1      3788 2.04000E+01 3.31130E+01 0.00000E+00
 -1      3789 4.37850E+01 1.56973E+01 0.00000E+00
 -1      3790 4.22850E+01 1.56973E+01 0.00000E+00
 -1      3791 4.45350E+01 1.69963E+01 0.00000E+00
 -1      3792 5.57850E+01 1.56973E+01 0.00000E+00
 -1      3793 5.42850E+01 1.56973E+01 0.00000E+00
 -1      3794 5.87850E+01 1.56973E+01 0.00000E+00
 -1      3795 5.72850E+01 1.56973E+01 0.00000E+00
 -1      3796 5.65350E+01 1.69963E+01 0.00000E+00
 -1      3797 6.17850E+01 1.56973E+01 0.00000E+00
 -1      3798 6.02850E+01 1.56973E+01 0.00000E+00
 -1      3799 5.95350E+01 1.69963E+01 0.00000E+00
 -1      3800 6.47850E+01 1.56973E+01 0.00000E+00
 -1      3801 6.32850E+01 1.56973E+01 0.00000E+00
 -1      3802 6.25350E+01 1.69963E+01 0.00000E+00
 -1      3803 6.77850E+01 1.56973E+01 0.00000E+00
 -1      3804 6.62850E+01 1.56973E+01 0.00000E+00
 -1      3805 6.55350E+01 1.69963E+01 0.00000E+00
 -1      3806 7.07850E+01 1.56973E+01 0.00000E+00
 -1      3807 6.92850E+01 1.56973E+01 0.00000E+00
 -1      3808 6.85350E+01 1.69963E+01 0.00000E+00
 -1      3809 7.37850E+01 1.56973E+01 0.00000E+00
 -1      3810 7.22850E+01 1.56973E+01 0.00000E+00
 -1      3811 7.15350E+01 1.69963E+01 0.00000E+00
 -1      3812 7.94920E+01 1.61559E+01 0.00000E+00
 -1      3813 7.79920E+01 1.61559E+01 0.00000E+00
 -1      3814 1.63845E+01 3.30710E+01 0.00000E+00
 -1      3815 1.35773E+02 1.52991E+01 0.00000E+00
 -1      3816 1.57890E+01 1.54047E+01 0.00000E+00
 -1      3817 2.72850E+01 1.30992E+01 0.00000E+00
 -1      3818 2.57850E+01 1.30992E+01 0.00000E+00
 -1      3819 2.80350E+01 1.43982E+01 0.00000E+00
 -1      3820 1.03887E+02 1.65878E+01 0.00000E+00
 -1      3821 1.02387E+02 1.65878E+01 0.00000E+00
 -1      3822 1.12785E+02 1.56973E+01 0.00000E+00
 -1      3823 1.11285E+02 1.56973E+01 0.00000E+00
 -1      3824 1.15785E+02 1.56973E+01 0.00000E+00
 -1      3825 1.14285E+02 1.56973E+01 0.00000E+00
 -1      3826 1.13535E+02 1.69963E+01 0.00000E+00
 -1      3827 1.18785E+02 1.56973E+01 0.00000E+00
 -1      3828 1.17285E+02 1.56973E+01 0.00000E+00
 -1      3829 1.16535E+02 1.69963E+01 0.00000E+00
 -1      3830 1.21785E+02 1.56973E+01 0.00000E+00
 -1      3831 1.20285E+02 1.56973E+01 0.00000E+00
 -1      3832 1.19535E+02 1.69963E+01 0.00000E+00
 -1      3833 1.24785E+02 1.56973E+01 0.00000E+00
 -1      3834 1.23285E+02 1.56973E+01 0.00000E+00
 -1      3835 1.22535E+02 1.69963E+01 0.00000E+00
 -1      3836 1.27785E+02 1.56973E+01 0.00000E+00
 -1      3837 1.26285E+02 1.56973E+01 0.00000E+00
 -1      3838 1.25535E+02 1.69963E+01 0.00000E+00
 -1      3839 1.30785E+02 1.56973E+01 0.00000E+00
 -1      3840 1.29285E+02 1.56973E+01 0.00000E+00
 -1      3841 1.28535E+02 1.69963E+01 0.00000E+00
 -1      3842 1.06887E+02 1.65878E+01 0.00000E+00
 -1      3843 1.05387E+02 1.65878E+01 0.00000E+00
 -1      3844 1.04738E+02 1.87773E+01 0.00000E+00
 -1      3845 1.04537E+02 2.19168E+01 0.00000E+00
 -1      3846 1.04696E+02 2.29328E+01 0.00000E+00
 -1      3847 1.05762E+02 2.34956E+01 0.00000E+00
 -1      3848 1.34473E+02 1.60304E+01 0.00000E+00
 -1      3849 1.88028E+01 1.26083E+01 0.00000E+00
 -1      3850 1.74846E+01 1.24585E+01 0.00000E+00
 -1      3851 1.70984E+01 1.34580E+01 0.00000E+00
 -1      3852 1.93152E+01 1.39739E+01 0.00000E+00
 -1      3853 7.30961E+01 3.38639E+01 0.00000E+00
 -1      3854 9.75563E+01 1.37331E+01 0.00000E+00
 -1      3855 2.49000E+01 3.31130E+01 0.00000E+00
 -1      3856 2.64000E+01 3.31130E+01 0.00000E+00
 -1      3857 2.71500E+01 3.18140E+01 0.00000E+00
 -1      3858 8.18952E+01 1.36720E+01 0.00000E+00
 -1      3859 7.62563E+01 1.94878E+01 0.00000E+00
 -1      3860 7.69369E+01 1.80647E+01 0.00000E+00
 -1      3861 2.19000E+01 3.31130E+01 0.00000E+00
 -1      3862 2.34000E+01 3.31130E+01 0.00000E+00
 -1      3863 2.41500E+01 3.18140E+01 0.00000E+00
 -1      3864 8.06839E+01 1.61441E+01 0.00000E+00
 -1      3865 5.27850E+01 1.56973E+01 0.00000E+00
 -1      3866 5.12850E+01 1.56973E+01 0.00000E+00
 -1      3867 5.35350E+01 1.69963E+01 0.00000E+00
 -1      3868 4.97850E+01 1.56973E+01 0.00000E+00
 -1      3869 4.82850E+01 1.56973E+01 0.00000E+00
 -1      3870 4.75350E+01 1.69963E+01 0.00000E+00
 -1      3871 5.05350E+01 1.69963E+01 0.00000E+00
 -1      3872 7.64799E+01 1.63070E+01 0.00000E+00
 -1      3873 1.59979E+01 3.10902E+01 0.00000E+00
 -1      3874 1.77634E+01 3.24312E+01 0.00000E+00
 -1      3875 1.85134E+01 3.11322E+01 0.00000E+00
 -1      3876 1.62401E+01 2.97687E+01 0.00000E+00
 -1      3877 1.32973E+02 1.60304E+01 0.00000E+00
 -1      3878 7.20065E+01 3.29252E+01 0.00000E+00
 -1      3879 1.09836E+02 1.61425E+01 0.00000E+00
 -1      3880 1.08336E+02 1.61425E+01 0.00000E+00
 -1      3881 1.07687E+02 1.83320E+01 0.00000E+00
 -1      3882 1.10586E+02 1.74415E+01 0.00000E+00
 -1      3883 1.32223E+02 1.73294E+01 0.00000E+00
 -1      3884 4.07850E+01 1.56973E+01 0.00000E+00
 -1      3885 3.92850E+01 1.56973E+01 0.00000E+00
 -1      3886 4.15350E+01 1.69963E+01 0.00000E+00
 -1      3887 3.17850E+01 1.56973E+01 0.00000E+00
 -1      3888 3.02850E+01 1.56973E+01 0.00000E+00
 -1      3889 1.32615E+02 3.03139E+01 0.00000E+00
 -1      3890 1.33598E+02 3.01050E+01 0.00000E+00
 -1      3891 1.33598E+02 2.86425E+01 0.00000E+00
 -1      3892 1.07843E+02 3.31399E+01 0.00000E+00
 -1      3893 1.08593E+02 3.18409E+01 0.00000E+00
 -1      3894 7.05065E+01 3.29252E+01 0.00000E+00
 -1      3895 1.07031E+02 2.52065E+01 0.00000E+00
 -1      3896 1.06848E+02 2.61425E+01 0.00000E+00
 -1      3897 1.07959E+02 2.68374E+01 0.00000E+00
 -1      3898 7.23211E+01 2.99929E+01 0.00000E+00
 -1      3899 7.34160E+01 2.38139E+01 0.00000E+00
 -1      3900 7.44511E+01 2.33408E+01 0.00000E+00
 -1      3901 7.41447E+01 2.21889E+01 0.00000E+00
 -1      3902 3.70350E+01 1.43982E+01 0.00000E+00
 -1      3903 1.08486E+02 2.97497E+01 0.00000E+00
 -1      3904 1.08540E+02 3.07953E+01 0.00000E+00
 -1      3905 1.09597E+02 3.11486E+01 0.00000E+00
 -1      3906 3.47850E+01 1.56973E+01 0.00000E+00
 -1      3907 3.32850E+01 1.56973E+01 0.00000E+00
 -1      3908 3.25350E+01 1.69963E+01 0.00000E+00
 -1      3909 2.11500E+01 3.18140E+01 0.00000E+00
 -1      3910 7.49799E+01 1.63070E+01 0.00000E+00
 -1      3911 7.42299E+01 1.76060E+01 0.00000E+00
 -1      3912 8.11452E+01 1.49710E+01 0.00000E+00
 -1      3913 2.49793E+01 1.43151E+01 0.00000E+00
 -1      3914 7.26652E+01 2.64763E+01 0.00000E+00
 -1      3915 7.25784E+01 2.55429E+01 0.00000E+00
 -1      3916 1.68870E+01 1.83453E+01 0.00000E+00
 -1      3917 1.68870E+01 1.98172E+01 0.00000E+00
 -1      3918 7.53022E+01 1.99658E+01 0.00000E+00
 -1      3919 1.32223E+02 1.88013E+01 0.00000E+00
 -1      3920 1.30035E+02 1.84681E+01 0.00000E+00
 -1      3921 1.32223E+02 2.02731E+01 0.00000E+00
 -1      3922 1.00699E+02 1.53140E+01 0.00000E+00
 -1      3923 9.91986E+01 1.53140E+01 0.00000E+00
 -1      3924 1.68870E+01 2.12922E+01 0.00000E+00
 -1      3925 1.68870E+01 2.27672E+01 0.00000E+00
 -1      3926 1.81860E+01 2.05562E+01 0.00000E+00
 -1      3927 1.95749E+01 1.53681E+01 0.00000E+00
 -1      3928 1.84665E+01 1.51101E+01 0.00000E+00
 -1      3929 1.41679E+01 2.56350E+01 0.00000E+00
 -1      3930 1.39256E+01 2.69566E+01 0.00000E+00
 -1      3931 1.52246E+01 2.76909E+01 0.00000E+00
 -1      3932 1.54669E+01 2.48991E+01 0.00000E+00
 -1      3933 1.08833E+02 2.81267E+01 0.00000E+00
 -1      3934 1.08660E+02 2.89382E+01 0.00000E+00
 -1      3935 1.09717E+02 2.92915E+01 0.00000E+00
 -1      3936 1.32223E+02 2.32169E+01 0.00000E+00
 -1      3937 1.32223E+02 2.17450E+01 0.00000E+00
 -1      3938 1.30035E+02 2.14119E+01 0.00000E+00
 -1      3939 1.32307E+02 2.56587E+01 0.00000E+00
 -1      3940 1.32266E+02 2.44378E+01 0.00000E+00
 -1      3941 1.30077E+02 2.41046E+01 0.00000E+00
 -1      3942 7.21067E+01 2.73338E+01 0.00000E+00
 -1      3943 1.04855E+02 2.00657E+01 0.00000E+00
 -1      3944 2.26735E+01 1.55309E+01 0.00000E+00
 -1      3945 2.11735E+01 1.55309E+01 0.00000E+00
 -1      3946 2.03249E+01 1.66671E+01 0.00000E+00
 -1      3947 6.97565E+01 3.16262E+01 0.00000E+00
 -1      3948 1.05921E+02 2.06284E+01 0.00000E+00
 -1      3949 2.04000E+01 3.05150E+01 0.00000E+00
 -1      3950 2.19000E+01 3.05150E+01 0.00000E+00
 -1      3951 9.83063E+01 1.50321E+01 0.00000E+00
 -1      3952 1.07370E+02 2.01832E+01 0.00000E+00
 -1      3953 1.07052E+02 2.20343E+01 0.00000E+00
 -1      3954 1.08819E+02 1.97379E+01 0.00000E+00
 -1      3955 3.24000E+01 3.05150E+01 0.00000E+00
 -1      3956 3.39000E+01 3.05150E+01 0.00000E+00
 -1      3957 3.54000E+01 3.05150E+01 0.00000E+00
 -1      3958 3.69000E+01 3.05150E+01 0.00000E+00
 -1      3959 3.46500E+01 2.92160E+01 0.00000E+00
 -1      3960 3.84000E+01 3.05150E+01 0.00000E+00
 -1      3961 3.99000E+01 3.05150E+01 0.00000E+00
 -1      3962 3.76500E+01 2.92160E+01 0.00000E+00
 -1      3963 4.14000E+01 3.05150E+01 0.00000E+00
 -1      3964 4.29000E+01 3.05150E+01 0.00000E+00
 -1      3965 4.06500E+01 2.92160E+01 0.00000E+00
 -1      3966 4.44000E+01 3.05150E+01 0.00000E+00
 -1      3967 4.59000E+01 3.05150E+01 0.00000E+00
 -1      3968 4.36500E+01 2.92160E+01 0.00000E+00
 -1      3969 4.74000E+01 3.05150E+01 0.00000E+00
 -1      3970 4.89000E+01 3.05150E+01 0.00000E+00
 -1      3971 4.66500E+01 2.92160E+01 0.00000E+00
 -1      3972 5.04000E+01 3.05150E+01 0.00000E+00
 -1      3973 5.19000E+01 3.05150E+01 0.00000E+00
 -1      3974 4.96500E+01 2.92160E+01 0.00000E+00
 -1      3975 5.34000E+01 3.05150E+01 0.00000E+00
 -1      3976 5.49000E+01 3.05150E+01 0.00000E+00
 -1      3977 5.26500E+01 2.92160E+01 0.00000E+00
 -1      3978 5.64000E+01 3.05150E+01 0.00000E+00
 -1      3979 5.79000E+01 3.05150E+01 0.00000E+00
 -1      3980 5.56500E+01 2.92160E+01 0.00000E+00
 -1      3981 5.94000E+01 3.05150E+01 0.00000E+00
 -1      3982 6.09000E+01 3.05150E+01 0.00000E+00
 -1      3983 5.86500E+01 2.92160E+01 0.00000E+00
 -1      3984 6.24000E+01 3.05150E+01 0.00000E+00
 -1      3985 6.39000E+01 3.05150E+01 0.00000E+00
 -1      3986 6.16500E+01 2.92160E+01 0.00000E+00
 -1      3987 6.54000E+01 3.05150E+01 0.00000E+00
 -1      3988 6.69000E+01 3.05150E+01 0.00000E+00
 -1      3989 6.46500E+01 2.92160E+01 0.00000E+00
 -1      3990 1.13400E+02 3.08952E+01 0.00000E+00
 -1      3991 1.14900E+02 3.08952E+01 0.00000E+00
 -1      3992 1.16400E+02 3.08952E+01 0.00000E+00
 -1      3993 1.17900E+02 3.08952E+01 0.00000E+00
 -1      3994 1.15650E+02 2.95962E+01 0.00000E+00
 -1      3995 1.19400E+02 3.08952E+01 0.00000E+00
 -1      3996 1.20900E+02 3.08952E+01 0.00000E+00
 -1      3997 1.18650E+02 2.95962E+01 0.00000E+00
 -1      3998 1.22400E+02 3.08952E+01 0.00000E+00
 -1      3999 1.23900E+02 3.08952E+01 0.00000E+00
 -1      4000 1.21650E+02 2.95962E+01 0.00000E+00
 -1      4001 1.25400E+02 3.08952E+01 0.00000E+00
 -1      4002 1.26900E+02 3.08952E+01 0.00000E+00
 -1      4003 1.24650E+02 2.95962E+01 0.00000E+00
 -1      4004 1.28400E+02 3.08952E+01 0.00000E+00
 -1      4005 1.29900E+02 3.08952E+01 0.00000E+00
 -1      4006 1.27650E+02 2.95962E+01 0.00000E+00
 -1      4007 1.30766E+02 3.07090E+01 0.00000E+00
 -1      4008 1.31749E+02 3.05001E+01 0.00000E+00
 -1      4009 1.31749E+02 2.90376E+01 0.00000E+00
 -1      4010 1.30016E+02 2.94100E+01 0.00000E+00
 -1      4011 3.77850E+01 1.56973E+01 0.00000E+00
 -1      4012 3.62850E+01 1.56973E+01 0.00000E+00
 -1      4013 3.55350E+01 1.69963E+01 0.00000E+00
 -1      4014 3.85350E+01 1.69963E+01 0.00000E+00
 -1      4015 1.01270E+02 1.62658E+01 0.00000E+00
 -1      4016 2.95350E+01 1.69963E+01 0.00000E+00
 -1      4017 2.87850E+01 1.56973E+01 0.00000E+00
 -1      4018 2.72850E+01 1.56973E+01 0.00000E+00
 -1      4019 6.02850E+01 1.82952E+01 0.00000E+00
 -1      4020 5.87850E+01 1.82952E+01 0.00000E+00
 -1      4021 5.72850E+01 1.82952E+01 0.00000E+00
 -1      4022 5.57850E+01 1.82952E+01 0.00000E+00
 -1      4023 5.80350E+01 1.95942E+01 0.00000E+00
 -1      4024 6.62850E+01 1.82952E+01 0.00000E+00
 -1      4025 6.47850E+01 1.82952E+01 0.00000E+00
 -1      4026 6.92850E+01 1.82952E+01 0.00000E+00
 -1      4027 6.77850E+01 1.82952E+01 0.00000E+00
 -1      4028 6.70350E+01 1.95942E+01 0.00000E+00
 -1      4029 7.22850E+01 1.82952E+01 0.00000E+00
 -1      4030 7.07850E+01 1.82952E+01 0.00000E+00
 -1      4031 7.00350E+01 1.95942E+01 0.00000E+00
 -1      4032 1.20285E+02 1.82952E+01 0.00000E+00
 -1      4033 1.18785E+02 1.82952E+01 0.00000E+00
 -1      4034 1.71571E+01 1.70568E+01 0.00000E+00
 -1      4035 1.84561E+01 1.77928E+01 0.00000E+00
 -1      4036 1.17285E+02 1.82952E+01 0.00000E+00
 -1      4037 1.15785E+02 1.82952E+01 0.00000E+00
 -1      4038 1.18035E+02 1.95942E+01 0.00000E+00
 -1      4039 1.06963E+02 2.31124E+01 0.00000E+00
 -1      4040 1.07121E+02 2.41284E+01 0.00000E+00
 -1      4041 1.08232E+02 2.48233E+01 0.00000E+00
 -1      4042 1.08412E+02 2.26671E+01 0.00000E+00
 -1      4043 1.14285E+02 1.82952E+01 0.00000E+00
 -1      4044 1.12785E+02 1.82952E+01 0.00000E+00
 -1      4045 1.15035E+02 1.95942E+01 0.00000E+00
 -1      4046 1.23285E+02 1.82952E+01 0.00000E+00
 -1      4047 1.21785E+02 1.82952E+01 0.00000E+00
 -1      4048 1.21035E+02 1.95942E+01 0.00000E+00
 -1      4049 1.26285E+02 1.82952E+01 0.00000E+00
 -1      4050 1.24785E+02 1.82952E+01 0.00000E+00
 -1      4051 1.24035E+02 1.95942E+01 0.00000E+00
 -1      4052 1.28910E+02 1.83817E+01 0.00000E+00
 -1      4053 1.27410E+02 1.83817E+01 0.00000E+00
 -1      4054 1.26660E+02 1.96807E+01 0.00000E+00
 -1      4055 1.28910E+02 1.98536E+01 0.00000E+00
 -1      4056 6.85573E+01 3.03478E+01 0.00000E+00
 -1      4057 7.06638E+01 3.01600E+01 0.00000E+00
 -1      4058 7.11219E+01 2.87145E+01 0.00000E+00
 -1      4059 6.78073E+01 2.90488E+01 0.00000E+00
 -1      4060 1.68974E+01 1.56627E+01 0.00000E+00
 -1      4061 2.00548E+01 1.79556E+01 0.00000E+00
 -1      4062 1.97847E+01 1.92440E+01 0.00000E+00
 -1      4063 2.16534E+01 1.81183E+01 0.00000E+00
 -1      4064 1.10407E+02 3.02200E+01 0.00000E+00
 -1      4065 1.10460E+02 3.12656E+01 0.00000E+00
 -1      4066 1.11960E+02 3.12656E+01 0.00000E+00
 -1      4067 1.10581E+02 2.94085E+01 0.00000E+00
 -1      4068 7.34799E+01 1.89050E+01 0.00000E+00
 -1      4069 7.04494E+01 2.75009E+01 0.00000E+00
 -1      4070 6.32850E+01 1.82952E+01 0.00000E+00
 -1      4071 6.17850E+01 1.82952E+01 0.00000E+00
 -1      4072 6.10350E+01 1.95942E+01 0.00000E+00
 -1      4073 6.40350E+01 1.95942E+01 0.00000E+00
 -1      4074 2.64000E+01 3.05150E+01 0.00000E+00
 -1      4075 2.79000E+01 3.05150E+01 0.00000E+00
 -1      4076 4.52850E+01 1.82952E+01 0.00000E+00
 -1      4077 4.37850E+01 1.82952E+01 0.00000E+00
 -1      4078 2.34000E+01 3.05150E+01 0.00000E+00
 -1      4079 2.49000E+01 3.05150E+01 0.00000E+00
 -1      4080 2.56500E+01 2.92160E+01 0.00000E+00
 -1      4081 5.42850E+01 1.82952E+01 0.00000E+00
 -1      4082 5.27850E+01 1.82952E+01 0.00000E+00
 -1      4083 5.50350E+01 1.95942E+01 0.00000E+00
 -1      4084 2.94000E+01 3.05150E+01 0.00000E+00
 -1      4085 3.09000E+01 3.05150E+01 0.00000E+00
 -1      4086 3.16500E+01 2.92160E+01 0.00000E+00
 -1      4087 7.11278E+01 2.49683E+01 0.00000E+00
 -1      4088 7.22719E+01 2.43911E+01 0.00000E+00
 -1      4089 7.19655E+01 2.32393E+01 0.00000E+00
 -1      4090 2.57571E+01 1.56557E+01 0.00000E+00
 -1      4091 2.42014E+01 1.55725E+01 0.00000E+00
 -1      4092 2.34514E+01 1.68715E+01 0.00000E+00
 -1      4093 2.65071E+01 1.69547E+01 0.00000E+00
 -1      4094 1.12710E+02 2.99666E+01 0.00000E+00
 -1      4095 4.22850E+01 1.82952E+01 0.00000E+00
 -1      4096 4.07850E+01 1.82952E+01 0.00000E+00
 -1      4097 4.30350E+01 1.95942E+01 0.00000E+00
 -1      4098 2.47092E+01 1.82015E+01 0.00000E+00
 -1      4099 2.31813E+01 1.81599E+01 0.00000E+00
 -1      4100 2.29112E+01 1.94484E+01 0.00000E+00
 -1      4101 1.28910E+02 2.27973E+01 0.00000E+00
 -1      4102 1.28910E+02 2.13254E+01 0.00000E+00
 -1      4103 1.27785E+02 2.12390E+01 0.00000E+00
 -1      4104 1.09017E+02 2.71907E+01 0.00000E+00
 -1      4105 1.10074E+02 2.75440E+01 0.00000E+00
 -1      4106 1.09200E+02 2.62547E+01 0.00000E+00
 -1      4107 3.02850E+01 1.82952E+01 0.00000E+00
 -1      4108 2.87850E+01 1.82952E+01 0.00000E+00
 -1      4109 5.20350E+01 1.95942E+01 0.00000E+00
 -1      4110 5.12850E+01 1.82952E+01 0.00000E+00
 -1      4111 4.97850E+01 1.82952E+01 0.00000E+00
 -1      4112 6.89860E+01 2.74987E+01 0.00000E+00
 -1      4113 6.99708E+01 2.61180E+01 0.00000E+00
 -1      4114 1.63612E+01 2.83727E+01 0.00000E+00
 -1      4115 1.74979E+01 2.90545E+01 0.00000E+00
 -1      4116 1.64824E+01 2.69768E+01 0.00000E+00
 -1      4117 2.86500E+01 2.92160E+01 0.00000E+00
 -1      4118 1.92634E+01 2.98332E+01 0.00000E+00
 -1      4119 7.33574E+01 2.06550E+01 0.00000E+00
 -1      4120 1.28994E+02 2.52391E+01 0.00000E+00
 -1      4121 1.28952E+02 2.40182E+01 0.00000E+00
 -1      4122 1.27827E+02 2.39318E+01 0.00000E+00
 -1      4123 1.80649E+01 2.34272E+01 0.00000E+00
 -1      4124 1.67659E+01 2.41631E+01 0.00000E+00
 -1      4125 1.66448E+01 2.55591E+01 0.00000E+00
 -1      4126 2.26500E+01 2.92160E+01 0.00000E+00
 -1      4127 1.11527E+02 1.87939E+01 0.00000E+00
 -1      4128 1.10077E+02 1.92392E+01 0.00000E+00
 -1      4129 1.09760E+02 2.10903E+01 0.00000E+00
 -1      4130 1.12277E+02 2.00929E+01 0.00000E+00
 -1      4131 3.32850E+01 1.82952E+01 0.00000E+00
 -1      4132 3.17850E+01 1.82952E+01 0.00000E+00
 -1      4133 3.10350E+01 1.95942E+01 0.00000E+00
 -1      4134 7.23223E+01 2.11281E+01 0.00000E+00
 -1      4135 4.67850E+01 1.82952E+01 0.00000E+00
 -1      4136 4.60350E+01 1.95942E+01 0.00000E+00
 -1      4137 4.82850E+01 1.82952E+01 0.00000E+00
 -1      4138 6.96644E+01 2.49661E+01 0.00000E+00
 -1      4139 1.33261E+02 2.78678E+01 0.00000E+00
 -1      4140 1.33219E+02 2.66469E+01 0.00000E+00
 -1      4141 1.97847E+01 2.07190E+01 0.00000E+00
 -1      4142 1.32278E+02 2.80767E+01 0.00000E+00
 -1      4143 1.14900E+02 2.82972E+01 0.00000E+00
 -1      4144 1.16400E+02 2.82972E+01 0.00000E+00
 -1      4145 7.11782E+01 2.17054E+01 0.00000E+00
 -1      4146 3.69000E+01 2.79170E+01 0.00000E+00
 -1      4147 3.84000E+01 2.79170E+01 0.00000E+00
 -1      4148 3.99000E+01 2.79170E+01 0.00000E+00
 -1      4149 4.14000E+01 2.79170E+01 0.00000E+00
 -1      4150 3.91500E+01 2.66180E+01 0.00000E+00
 -1      4151 4.29000E+01 2.79170E+01 0.00000E+00
 -1      4152 4.44000E+01 2.79170E+01 0.00000E+00
 -1      4153 4.21500E+01 2.66180E+01 0.00000E+00
 -1      4154 4.59000E+01 2.79170E+01 0.00000E+00
 -1      4155 4.74000E+01 2.79170E+01 0.00000E+00
 -1      4156 4.51500E+01 2.66180E+01 0.00000E+00
 -1      4157 4.89000E+01 2.79170E+01 0.00000E+00
 -1      4158 5.04000E+01 2.79170E+01 0.00000E+00
 -1      4159 4.81500E+01 2.66180E+01 0.00000E+00
 -1      4160 5.19000E+01 2.79170E+01 0.00000E+00
 -1      4161 5.34000E+01 2.79170E+01 0.00000E+00
 -1      4162 5.11500E+01 2.66180E+01 0.00000E+00
 -1      4163 5.49000E+01 2.79170E+01 0.00000E+00
 -1      4164 5.64000E+01 2.79170E+01 0.00000E+00
 -1      4165 5.41500E+01 2.66180E+01 0.00000E+00
 -1      4166 5.79000E+01 2.79170E+01 0.00000E+00
 -1      4167 5.94000E+01 2.79170E+01 0.00000E+00
 -1      4168 5.71500E+01 2.66180E+01 0.00000E+00
 -1      4169 6.09000E+01 2.79170E+01 0.00000E+00
 -1      4170 6.24000E+01 2.79170E+01 0.00000E+00
 -1      4171 6.01500E+01 2.66180E+01 0.00000E+00
 -1      4172 6.39000E+01 2.79170E+01 0.00000E+00
 -1      4173 6.54000E+01 2.79170E+01 0.00000E+00
 -1      4174 6.31500E+01 2.66180E+01 0.00000E+00
 -1      4175 3.39000E+01 2.79170E+01 0.00000E+00
 -1      4176 3.54000E+01 2.79170E+01 0.00000E+00
 -1      4177 3.61500E+01 2.66180E+01 0.00000E+00
 -1      4178 1.15785E+02 2.08932E+01 0.00000E+00
 -1      4179 1.14285E+02 2.08932E+01 0.00000E+00
 -1      4180 5.87850E+01 2.08932E+01 0.00000E+00
 -1      4181 5.72850E+01 2.08932E+01 0.00000E+00
 -1      4182 1.17900E+02 2.82972E+01 0.00000E+00
 -1      4183 1.19400E+02 2.82972E+01 0.00000E+00
 -1      4184 1.17150E+02 2.69982E+01 0.00000E+00
 -1      4185 1.20900E+02 2.82972E+01 0.00000E+00
 -1      4186 1.22400E+02 2.82972E+01 0.00000E+00
 -1      4187 1.20150E+02 2.69982E+01 0.00000E+00
 -1      4188 1.23900E+02 2.82972E+01 0.00000E+00
 -1      4189 1.25400E+02 2.82972E+01 0.00000E+00
 -1      4190 1.23150E+02 2.69982E+01 0.00000E+00
 -1      4191 1.27009E+02 2.73744E+01 0.00000E+00
 -1      4192 1.28510E+02 2.73744E+01 0.00000E+00
 -1      4193 6.73287E+01 2.76659E+01 0.00000E+00
 -1      4194 3.09000E+01 2.79170E+01 0.00000E+00
 -1      4195 3.24000E+01 2.79170E+01 0.00000E+00
 -1      4196 3.31500E+01 2.66180E+01 0.00000E+00
 -1      4197 6.96782E+01 2.17054E+01 0.00000E+00
 -1      4198 1.24785E+02 2.08932E+01 0.00000E+00
 -1      4199 1.23285E+02 2.08932E+01 0.00000E+00
 -1      4200 1.21785E+02 2.08932E+01 0.00000E+00
 -1      4201 1.20285E+02 2.08932E+01 0.00000E+00
 -1      4202 1.22535E+02 2.21922E+01 0.00000E+00
 -1      4203 1.12020E+02 2.90381E+01 0.00000E+00
 -1      4204 1.13460E+02 2.86676E+01 0.00000E+00
 -1      4205 1.11331E+02 2.81095E+01 0.00000E+00
 -1      4206 2.19000E+01 2.79170E+01 0.00000E+00
 -1      4207 2.34000E+01 2.79170E+01 0.00000E+00
 -1      4208 2.79000E+01 2.79170E+01 0.00000E+00
 -1      4209 2.94000E+01 2.79170E+01 0.00000E+00
 -1      4210 3.01500E+01 2.66180E+01 0.00000E+00
 -1      4211 2.49000E+01 2.79170E+01 0.00000E+00
 -1      4212 2.64000E+01 2.79170E+01 0.00000E+00
 -1      4213 2.41500E+01 2.66180E+01 0.00000E+00
 -1      4214 5.57850E+01 2.08932E+01 0.00000E+00
 -1      4215 5.42850E+01 2.08932E+01 0.00000E+00
 -1      4216 5.65350E+01 2.21922E+01 0.00000E+00
 -1      4217 1.31030E+02 2.63138E+01 0.00000E+00
 -1      4218 2.14081E+01 2.10670E+01 0.00000E+00
 -1      4219 1.98095E+01 2.23792E+01 0.00000E+00
 -1      4220 1.93845E+01 2.84373E+01 0.00000E+00
 -1      4221 2.75110E+01 1.82692E+01 0.00000E+00
 -1      4222 2.59831E+01 1.82276E+01 0.00000E+00
 -1      4223 2.57130E+01 1.95161E+01 0.00000E+00
 -1      4224 2.82610E+01 1.95682E+01 0.00000E+00
 -1      4225 1.18785E+02 2.08932E+01 0.00000E+00
 -1      4226 1.17285E+02 2.08932E+01 0.00000E+00
 -1      4227 1.16535E+02 2.21922E+01 0.00000E+00
 -1      4228 1.19535E+02 2.21922E+01 0.00000E+00
 -1      4229 1.31412E+02 2.82629E+01 0.00000E+00
 -1      4230 6.89213E+01 2.33358E+01 0.00000E+00
 -1      4231 6.77781E+01 2.12246E+01 0.00000E+00
 -1      4232 6.62781E+01 2.12246E+01 0.00000E+00
 -1      4233 6.77643E+01 2.44854E+01 0.00000E+00
 -1      4234 6.65787E+01 2.63669E+01 0.00000E+00
 -1      4235 6.58356E+01 2.47365E+01 0.00000E+00
 -1      4236 1.14210E+02 2.73686E+01 0.00000E+00
 -1      4237 6.53068E+01 2.29806E+01 0.00000E+00
 -1      4238 6.45638E+01 2.13502E+01 0.00000E+00
 -1      4239 6.30638E+01 2.13502E+01 0.00000E+00
 -1      4240 6.41212E+01 2.48621E+01 0.00000E+00
 -1      4241 3.47850E+01 1.82952E+01 0.00000E+00
 -1      4242 3.40350E+01 1.95942E+01 0.00000E+00
 -1      4243 3.62850E+01 1.82952E+01 0.00000E+00
 -1      4244 1.13777E+02 2.26909E+01 0.00000E+00
 -1      4245 1.13027E+02 2.13919E+01 0.00000E+00
 -1      4246 1.11768E+02 2.18906E+01 0.00000E+00
 -1      4247 4.37850E+01 2.08932E+01 0.00000E+00
 -1      4248 4.22850E+01 2.08932E+01 0.00000E+00
 -1      4249 1.30501E+02 2.72747E+01 0.00000E+00
 -1      4250 1.77814E+01 2.62408E+01 0.00000E+00
 -1      4251 1.26259E+02 2.60754E+01 0.00000E+00
 -1      4252 1.26660E+02 2.11526E+01 0.00000E+00
 -1      4253 4.90350E+01 1.95942E+01 0.00000E+00
 -1      4254 2.71500E+01 2.66180E+01 0.00000E+00
 -1      4255 1.25910E+02 2.24516E+01 0.00000E+00
 -1      4256 1.11514E+02 2.71735E+01 0.00000E+00
 -1      4257 1.96884E+01 2.37752E+01 0.00000E+00
 -1      4258 2.01345E+01 2.71383E+01 0.00000E+00
 -1      4259 3.92850E+01 1.82952E+01 0.00000E+00
 -1      4260 3.77850E+01 1.82952E+01 0.00000E+00
 -1      4261 3.70350E+01 1.95942E+01 0.00000E+00
 -1      4262 4.00350E+01 1.95942E+01 0.00000E+00
 -1      4263 3.17850E+01 2.08932E+01 0.00000E+00
 -1      4264 3.02850E+01 2.08932E+01 0.00000E+00
 -1      4265 5.35350E+01 2.21922E+01 0.00000E+00
 -1      4266 5.27850E+01 2.08932E+01 0.00000E+00
 -1      4267 5.12850E+01 2.08932E+01 0.00000E+00
 -1      4268 4.67850E+01 2.08932E+01 0.00000E+00
 -1      4269 4.52850E+01 2.08932E+01 0.00000E+00
 -1      4270 4.45350E+01 2.21922E+01 0.00000E+00
 -1      4271 1.10719E+02 2.20295E+01 0.00000E+00
 -1      4272 1.09461E+02 2.25282E+01 0.00000E+00
 -1      4273 1.09371E+02 2.36063E+01 0.00000E+00
 -1      4274 1.11469E+02 2.33285E+01 0.00000E+00
 -1      4275 6.16744E+01 2.11217E+01 0.00000E+00
 -1      4276 6.01744E+01 2.11217E+01 0.00000E+00
 -1      4277 5.94244E+01 2.24207E+01 0.00000E+00
 -1      4278 6.22031E+01 2.28777E+01 0.00000E+00
 -1      4279 2.29360E+01 2.11086E+01 0.00000E+00
 -1      4280 2.97610E+01 2.21662E+01 0.00000E+00
 -1      4281 2.90110E+01 2.08672E+01 0.00000E+00
 -1      4282 2.77370E+01 2.08411E+01 0.00000E+00
 -1      4283 1.26106E+02 2.48739E+01 0.00000E+00
 -1      4284 1.26064E+02 2.36530E+01 0.00000E+00
 -1      4285 1.24189E+02 2.33937E+01 0.00000E+00
 -1      4286 1.24496E+02 2.57967E+01 0.00000E+00
 -1      4287 2.46394E+01 2.11833E+01 0.00000E+00
 -1      4288 2.31364E+01 2.28018E+01 0.00000E+00
 -1      4289 4.14000E+01 2.53190E+01 0.00000E+00
 -1      4290 4.29000E+01 2.53190E+01 0.00000E+00
 -1      4291 4.48425E+01 2.44051E+01 0.00000E+00
 -1      4292 4.63425E+01 2.44051E+01 0.00000E+00
 -1      4293 5.04000E+01 2.53190E+01 0.00000E+00
 -1      4294 5.19000E+01 2.53190E+01 0.00000E+00
 -1      4295 5.38425E+01 2.44051E+01 0.00000E+00
 -1      4296 5.53425E+01 2.44051E+01 0.00000E+00
 -1      4297 5.68425E+01 2.44051E+01 0.00000E+00
 -1      4298 5.83425E+01 2.44051E+01 0.00000E+00
 -1      4299 5.97319E+01 2.46336E+01 0.00000E+00
 -1      4300 6.12319E+01 2.46336E+01 0.00000E+00
 -1      4301 6.26213E+01 2.48621E+01 0.00000E+00
 -1      4302 1.09281E+02 2.46844E+01 0.00000E+00
 -1      4303 1.10339E+02 2.50377E+01 0.00000E+00
 -1      4304 1.19400E+02 2.56992E+01 0.00000E+00
 -1      4305 1.20900E+02 2.56992E+01 0.00000E+00
 -1      4306 1.22996E+02 2.57967E+01 0.00000E+00
 -1      4307 1.11646E+02 2.59204E+01 0.00000E+00
 -1      4308 1.12903E+02 2.64859E+01 0.00000E+00
 -1      4309 1.14343E+02 2.61155E+01 0.00000E+00
 -1      4310 1.11728E+02 2.43501E+01 0.00000E+00
 -1      4311 3.54000E+01 2.53190E+01 0.00000E+00
 -1      4312 3.69000E+01 2.53190E+01 0.00000E+00
 -1      4313 1.22689E+02 2.33937E+01 0.00000E+00
 -1      4314 2.59134E+01 2.12093E+01 0.00000E+00
 -1      4315 2.02969E+01 2.57206E+01 0.00000E+00
 -1      4316 1.29635E+02 2.74609E+01 0.00000E+00
 -1      4317 4.97850E+01 2.08932E+01 0.00000E+00
 -1      4318 4.82850E+01 2.08932E+01 0.00000E+00
 -1      4319 4.75350E+01 2.21922E+01 0.00000E+00
 -1      4320 3.24000E+01 2.53190E+01 0.00000E+00
 -1      4321 3.39000E+01 2.53190E+01 0.00000E+00
 -1      4322 3.46500E+01 2.40200E+01 0.00000E+00
 -1      4323 2.20415E+01 2.46726E+01 0.00000E+00
 -1      4324 4.15350E+01 2.21922E+01 0.00000E+00
 -1      4325 4.07850E+01 2.08932E+01 0.00000E+00
 -1      4326 3.92850E+01 2.08932E+01 0.00000E+00
 -1      4327 2.98425E+01 2.44051E+01 0.00000E+00
 -1      4328 3.13425E+01 2.44051E+01 0.00000E+00
 -1      4329 2.37449E+01 2.47472E+01 0.00000E+00
 -1      4330 2.52449E+01 2.47472E+01 0.00000E+00
 -1      4331 2.70685E+01 2.43791E+01 0.00000E+00
 -1      4332 2.85685E+01 2.43791E+01 0.00000E+00
 -1      4333 3.28425E+01 2.18071E+01 0.00000E+00
 -1      4334 3.20925E+01 2.31061E+01 0.00000E+00
 -1      4335 3.84000E+01 2.53190E+01 0.00000E+00
 -1      4336 3.99000E+01 2.53190E+01 0.00000E+00
 -1      4337 4.06500E+01 2.40200E+01 0.00000E+00
 -1      4338 3.76500E+01 2.40200E+01 0.00000E+00
 -1      4339 1.16121E+02 2.59073E+01 0.00000E+00
 -1      4340 1.17621E+02 2.59073E+01 0.00000E+00
 -1      4341 1.18371E+02 2.46083E+01 0.00000E+00
 -1      4342 1.14814E+02 2.50246E+01 0.00000E+00
 -1      4343 3.43425E+01 2.18071E+01 0.00000E+00
 -1      4344 4.78425E+01 2.44051E+01 0.00000E+00
 -1      4345 4.93425E+01 2.44051E+01 0.00000E+00
 -1      4346 5.05350E+01 2.21922E+01 0.00000E+00
 -1      4347 1.20592E+02 2.32962E+01 0.00000E+00
 -1      4348 1.19092E+02 2.32962E+01 0.00000E+00
 -1      4349 1.12777E+02 2.42112E+01 0.00000E+00
 -1      4350 1.22246E+02 2.44977E+01 0.00000E+00
 -1      4351 2.66634E+01 2.25083E+01 0.00000E+00
 -1      4352 4.25925E+01 2.31061E+01 0.00000E+00
 -1      4353 4.10925E+01 2.31061E+01 0.00000E+00
 -1      4354 1.17314E+02 2.35044E+01 0.00000E+00
 -1      4355 1.15814E+02 2.35044E+01 0.00000E+00
 -1      4356 5.30925E+01 2.31061E+01 0.00000E+00
 -1      4357 1.14035E+02 2.37125E+01 0.00000E+00
 -1      4358 4.40925E+01 2.31061E+01 0.00000E+00
 -1      4359 3.95925E+01 2.31061E+01 0.00000E+00
 -1      4360 3.58425E+01 2.18071E+01 0.00000E+00
 -1      4361 5.00925E+01 2.31061E+01 0.00000E+00
 -1      4362 3.73425E+01 2.18071E+01 0.00000E+00
 -1      4363 5.15925E+01 2.31061E+01 0.00000E+00
 -1      4364 3.80925E+01 2.31061E+01 0.00000E+00
 -3
    3C                          2100                                     1
 -1       165    8    0    1
 -2         6         7        23      1133      1297      1150
 -1       166    8    0    1
 -2         7         8       165      1134      1298      1299
 -1       167    8    0    1
 -2         8         9       166      1135      1300      1301
 -1       168    8    0    1
 -2         8       166       165      1301      1302      1298
 -1       169    8    0    1
 -2         9        10       167      1136      1303      1304
 -1       170    8    0    1
 -2         9       167       166      1304      1305      1300
 -1       171    8    0    1
 -2        10        11       168      1137      1306      1307
 -1       172    8    0    1
 -2        10       168       167      1307      1308      1303
 -1       173    8    0    1
 -2        11        12       169      1138      1309      1310
 -1       174    8    0    1
 -2        11       169       168      1310      1311      1306
 -1       175    8    0    1
 -2        12        13       170      1139      1312      1313
 -1       176    8    0    1
 -2        12       170       169      1313      1314      1309
 -1       177    8    0    1
 -2        13        14       171      1140      1315      1316
 -1       178    8    0    1
 -2        13       171       170      1316      1317      1312
 -1       179    8    0    1
 -2        14        15       172      1141      1318      1319
 -1       180    8    0    1
 -2        14       172       171      1319      1320      1315
 -1       181    8    0    1
 -2        15        16       173      1142      1321      1322
 -1       182    8    0    1
 -2        15       173       172      1322      1323      1318
 -1       183    8    0    1
 -2        16        17       174      1143      1324      1325
 -1       184    8    0    1
 -2        16       174       173      1325      1326      1321
 -1       185    8    0    1
 -2        17        18       175      1144      1327      1328
 -1       186    8    0    1
 -2        17       175       174      1328      1329      1324
 -1       187    8    0    1
 -2        18        19       176      1145      1330      1331
 -1       188    8    0    1
 -2        18       176       175      1331      1332      1327
 -1       189    8    0    1
 -2        19        20       177      1146      1333      1334
 -1       190    8    0    1
 -2        19       177       176      1334      1335      1330
 -1       191    8    0    1
 -2        20        21       178      1147      1336      1337
 -1       192    8    0    1
 -2        20       178       177      1337      1338      1333
 -1       193    8    0    1
 -2        21        22       179      1148      1339      1340
 -1       194    8    0    1
 -2        21       179       178      1340      1341      1336
 -1       195    8    0    1
 -2        22         5       180      1149      1342      1343
 -1       196    8    0    1
 -2       179        22       180      1339      1343      1344
 -1       197    8    0    1
 -2         5        72       180      1200      1345      1342
 -1       198    8    0    1
 -2        24        23       181      1151      1346      1347
 -1       199    8    0    1
 -2        25        24       182      1152      1348      1349
 -1       200    8    0    1
 -2        24       181       182      1347      1350      1348
 -1       201    8    0    1
 -2        26        25       183      1153      1351      1352
 -1       202    8    0    1
 -2        25       182       183      1349      1353      1351
 -1       203    8    0    1
 -2        27        26       184      1154      1354      1355
 -1       204    8    0    1
 -2        26       183       184      1352      1356      1354
 -1       205    8    0    1
 -2        28        27       185      1155      1357      1358
 -1       206    8    0    1
 -2        27       184       185      1355      1359      1357
 -1       207    8    0    1
 -2        29        28       186      1156      1360      1361
 -1       208    8    0    1
 -2        28       185       186      1358      1362      1360
 -1       209    8    0    1
 -2        30        29       187      1157      1363      1364
 -1       210    8    0    1
 -2        29       186       187      1361      1365      1363
 -1       211    8    0    1
 -2        31        30       188      1158      1366      1367
 -1       212    8    0    1
 -2        30       187       188      1364      1368      1366
 -1       213    8    0    1
 -2        32        31       189      1159      1369      1370
 -1       214    8    0    1
 -2        31       188       189      1367      1371      1369
 -1       215    8    0    1
 -2        33        32       190      1160      1372      1373
 -1       216    8    0    1
 -2        32       189       190      1370      1374      1372
 -1       217    8    0    1
 -2        34        33       191      1161      1375      1376
 -1       218    8    0    1
 -2        33       190       191      1373      1377      1375
 -1       219    8    0    1
 -2        35        34       192      1162      1378      1379
 -1       220    8    0    1
 -2        34       191       192      1376      1380      1378
 -1       221    8    0    1
 -2        36        35       193      1163      1381      1382
 -1       222    8    0    1
 -2        35       192       193      1379      1383      1381
 -1       223    8    0    1
 -2        37        36       194      1164      1384      1385
 -1       224    8    0    1
 -2        36       193       194      1382      1386      1384
 -1       225    8    0    1
 -2        38        37       195      1165      1387      1388
 -1       226    8    0    1
 -2        37       194       195      1385      1389      1387
 -1       227    8    0    1
 -2        39        38       196      1166      1390      1391
 -1       228    8    0    1
 -2        38       195       196      1388      1392      1390
 -1       229    8    0    1
 -2        40        39       197      1167      1393      1394
 -1       230    8    0    1
 -2        39       196       197      1391      1395      1393
 -1       231    8    0    1
 -2        41        40       198      1168      1396      1397
 -1       232    8    0    1
 -2        40       197       198      1394      1398      1396
 -1       233    8    0    1
 -2        42        41       199      1169      1399      1400
 -1       234    8    0    1
 -2        41       198       199      1397      1401      1399
 -1       235    8    0    1
 -2        43        42       200      1170      1402      1403
 -1       236    8    0    1
 -2        42       199       200      1400      1404      1402
 -1       237    8    0    1
 -2        44        43       201      1171      1405      1406
 -1       238    8    0    1
 -2        43       200       201      1403      1407      1405
 -1       239    8    0    1
 -2        45        44       202      1172      1408      1409
 -1       240    8    0    1
 -2        44       201       202      1406      1410      1408
 -1       241    8    0    1
 -2        46        45       203      1173      1411      1412
 -1       242    8    0    1
 -2        45       202       203      1409      1413      1411
 -1       243    8    0    1
 -2        47        46       204      1174      1414      1415
 -1       244    8    0    1
 -2        46       203       204      1412      1416      1414
 -1       245    8    0    1
 -2        48        47       205      1175      1417      1418
 -1       246    8    0    1
 -2        47       204       205      1415      1419      1417
 -1       247    8    0    1
 -2        49        48       206      1176      1420      1421
 -1       248    8    0    1
 -2        48       205       206      1418      1422      1420
 -1       249    8    0    1
 -2        50        49       207      1177      1423      1424
 -1       250    8    0    1
 -2        49       206       207      1421      1425      1423
 -1       251    8    0    1
 -2        51        50       208      1178      1426      1427
 -1       252    8    0    1
 -2        50       207       208      1424      1428      1426
 -1       253    8    0    1
 -2        52        51       209      1179      1429      1430
 -1       254    8    0    1
 -2        51       208       209      1427      1431      1429
 -1       255    8    0    1
 -2        53        52       210      1180      1432      1433
 -1       256    8    0    1
 -2        52       209       210      1430      1434      1432
 -1       257    8    0    1
 -2        54        53       211      1181      1435      1436
 -1       258    8    0    1
 -2        53       210       211      1433      1437      1435
 -1       259    8    0    1
 -2        55        54       212      1182      1438      1439
 -1       260    8    0    1
 -2        54       211       212      1436      1440      1438
 -1       261    8    0    1
 -2        56        55       213      1183      1441      1442
 -1       262    8    0    1
 -2        55       212       213      1439      1443      1441
 -1       263    8    0    1
 -2        57        56       214      1184      1444      1445
 -1       264    8    0    1
 -2        56       213       214      1442      1446      1444
 -1       265    8    0    1
 -2        58        57       215      1185      1447      1448
 -1       266    8    0    1
 -2        57       214       215      1445      1449      1447
 -1       267    8    0    1
 -2        59        58       216      1186      1450      1451
 -1       268    8    0    1
 -2        58       215       216      1448      1452      1450
 -1       269    8    0    1
 -2        60        59       217      1187      1453      1454
 -1       270    8    0    1
 -2        59       216       217      1451      1455      1453
 -1       271    8    0    1
 -2        61        60       218      1188      1456      1457
 -1       272    8    0    1
 -2        60       217       218      1454      1458      1456
 -1       273    8    0    1
 -2        62        61       219      1189      1459      1460
 -1       274    8    0    1
 -2        61       218       219      1457      1461      1459
 -1       275    8    0    1
 -2        63        62       220      1190      1462      1463
 -1       276    8    0    1
 -2        62       219       220      1460      1464      1462
 -1       277    8    0    1
 -2        64        63       221      1191      1465      1466
 -1       278    8    0    1
 -2        63       220       221      1463      1467      1465
 -1       279    8    0    1
 -2        65        64       222      1192      1468      1469
 -1       280    8    0    1
 -2        64       221       222      1466      1470      1468
 -1       281    8    0    1
 -2        66        65       223      1193      1471      1472
 -1       282    8    0    1
 -2        65       222       223      1469      1473      1471
 -1       283    8    0    1
 -2        67        66       224      1194      1474      1475
 -1       284    8    0    1
 -2        66       223       224      1472      1476      1474
 -1       285    8    0    1
 -2        68        67       225      1195      1477      1478
 -1       286    8    0    1
 -2        67       224       225      1475      1479      1477
 -1       287    8    0    1
 -2        69        68       226      1196      1480      1481
 -1       288    8    0    1
 -2        68       225       226      1478      1482      1480
 -1       289    8    0    1
 -2        70        69       227      1197      1483      1484
 -1       290    8    0    1
 -2        69       226       227      1481      1485      1483
 -1       291    8    0    1
 -2        71        70       228      1198      1486      1487
 -1       292    8    0    1
 -2        70       227       228      1484      1488      1486
 -1       293    8    0    1
 -2         4        71       136      1199      1489      1266
 -1       294    8    0    1
 -2       136        71       228      1489      1487      1490
 -1       295    8    0    1
 -2        72        73       229      1201      1491      1492
 -1       296    8    0    1
 -2        72       229       180      1492      1493      1345
 -1       297    8    0    1
 -2        73        74       230      1202      1494      1495
 -1       298    8    0    1
 -2        73       230       229      1495      1496      1491
 -1       299    8    0    1
 -2        74        75       231      1203      1497      1498
 -1       300    8    0    1
 -2        74       231       230      1498      1499      1494
 -1       301    8    0    1
 -2        75        76       232      1204      1500      1501
 -1       302    8    0    1
 -2        75       232       231      1501      1502      1497
 -1       303    8    0    1
 -2        76        77       233      1205      1503      1504
 -1       304    8    0    1
 -2        76       233       232      1504      1505      1500
 -1       305    8    0    1
 -2        77        78       234      1206      1506      1507
 -1       306    8    0    1
 -2        77       234       233      1507      1508      1503
 -1       307    8    0    1
 -2        78        79       235      1207      1509      1510
 -1       308    8    0    1
 -2        78       235       234      1510      1511      1506
 -1       309    8    0    1
 -2        79        80       236      1208      1512      1513
 -1       310    8    0    1
 -2        79       236       235      1513      1514      1509
 -1       311    8    0    1
 -2        80        81       237      1209      1515      1516
 -1       312    8    0    1
 -2        80       237       236      1516      1517      1512
 -1       313    8    0    1
 -2        81        82       238      1210      1518      1519
 -1       314    8    0    1
 -2        81       238       237      1519      1520      1515
 -1       315    8    0    1
 -2        82        83       239      1211      1521      1522
 -1       316    8    0    1
 -2        82       239       238      1522      1523      1518
 -1       317    8    0    1
 -2        83        84       240      1212      1524      1525
 -1       318    8    0    1
 -2        83       240       239      1525      1526      1521
 -1       319    8    0    1
 -2        84        85       241      1213      1527      1528
 -1       320    8    0    1
 -2        84       241       240      1528      1529      1524
 -1       321    8    0    1
 -2        85        86       242      1214      1530      1531
 -1       322    8    0    1
 -2        85       242       241      1531      1532      1527
 -1       323    8    0    1
 -2        86        87       243      1215      1533      1534
 -1       324    8    0    1
 -2        86       243       242      1534      1535      1530
 -1       325    8    0    1
 -2        87        88       244      1216      1536      1537
 -1       326    8    0    1
 -2        87       244       243      1537      1538      1533
 -1       327    8    0    1
 -2        88        89       245      1217      1539      1540
 -1       328    8    0    1
 -2        88       245       244      1540      1541      1536
 -1       329    8    0    1
 -2        89        90       246      1218      1542      1543
 -1       330    8    0    1
 -2        89       246       245      1543      1544      1539
 -1       331    8    0    1
 -2        90        91       247      1219      1545      1546
 -1       332    8    0    1
 -2        90       247       246      1546      1547      1542
 -1       333    8    0    1
 -2        91        92       248      1220      1548      1549
 -1       334    8    0    1
 -2        91       248       247      1549      1550      1545
 -1       335    8    0    1
 -2        92        93       249      1221      1551      1552
 -1       336    8    0    1
 -2        92       249       248      1552      1553      1548
 -1       337    8    0    1
 -2        93        94       250      1222      1554      1555
 -1       338    8    0    1
 -2        93       250       249      1555      1556      1551
 -1       339    8    0    1
 -2        94        95       251      1223      1557      1558
 -1       340    8    0    1
 -2        94       251       250      1558      1559      1554
 -1       341    8    0    1
 -2        95        96       252      1224      1560      1561
 -1       342    8    0    1
 -2        95       252       251      1561      1562      1557
 -1       343    8    0    1
 -2        96        97       253      1225      1563      1564
 -1       344    8    0    1
 -2        96       253       252      1564      1565      1560
 -1       345    8    0    1
 -2        97        98       254      1226      1566      1567
 -1       346    8    0    1
 -2        97       254       253      1567      1568      1563
 -1       347    8    0    1
 -2        98        99       255      1227      1569      1570
 -1       348    8    0    1
 -2        98       255       254      1570      1571      1566
 -1       349    8    0    1
 -2        99       100       256      1228      1572      1573
 -1       350    8    0    1
 -2        99       256       255      1573      1574      1569
 -1       351    8    0    1
 -2       100       101       257      1229      1575      1576
 -1       352    8    0    1
 -2       100       257       256      1576      1577      1572
 -1       353    8    0    1
 -2       101       102       258      1230      1578      1579
 -1       354    8    0    1
 -2       101       258       257      1579      1580      1575
 -1       355    8    0    1
 -2       102       103       259      1231      1581      1582
 -1       356    8    0    1
 -2       102       259       258      1582      1583      1578
 -1       357    8    0    1
 -2       103       104       260      1232      1584      1585
 -1       358    8    0    1
 -2       103       260       259      1585      1586      1581
 -1       359    8    0    1
 -2       104       105       261      1233      1587      1588
 -1       360    8    0    1
 -2       104       261       260      1588      1589      1584
 -1       361    8    0    1
 -2       105       106       262      1234      1590      1591
 -1       362    8    0    1
 -2       105       262       261      1591      1592      1587
 -1       363    8    0    1
 -2       106       107       263      1235      1593      1594
 -1       364    8    0    1
 -2       106       263       262      1594      1595      1590
 -1       365    8    0    1
 -2       107       108       264      1236      1596      1597
 -1       366    8    0    1
 -2       107       264       263      1597      1598      1593
 -1       367    8    0    1
 -2       108       109       265      1237      1599      1600
 -1       368    8    0    1
 -2       108       265       264      1600      1601      1596
 -1       369    8    0    1
 -2       109       110       266      1238      1602      1603
 -1       370    8    0    1
 -2       109       266       265      1603      1604      1599
 -1       371    8    0    1
 -2       110       111       267      1239      1605      1606
 -1       372    8    0    1
 -2       110       267       266      1606      1607      1602
 -1       373    8    0    1
 -2       111       112       268      1240      1608      1609
 -1       374    8    0    1
 -2       111       268       267      1609      1610      1605
 -1       375    8    0    1
 -2       112       113       269      1241      1611      1612
 -1       376    8    0    1
 -2       112       269       268      1612      1613      1608
 -1       377    8    0    1
 -2       113       114       270      1242      1614      1615
 -1       378    8    0    1
 -2       113       270       269      1615      1616      1611
 -1       379    8    0    1
 -2       114       115       271      1243      1617      1618
 -1       380    8    0    1
 -2       114       271       270      1618      1619      1614
 -1       381    8    0    1
 -2       115       116       272      1244      1620      1621
 -1       382    8    0    1
 -2       115       272       271      1621      1622      1617
 -1       383    8    0    1
 -2       116       117       273      1245      1623      1624
 -1       384    8    0    1
 -2       116       273       272      1624      1625      1620
 -1       385    8    0    1
 -2       117       118       274      1246      1626      1627
 -1       386    8    0    1
 -2       117       274       273      1627      1628      1623
 -1       387    8    0    1
 -2       118       119       275      1247      1629      1630
 -1       388    8    0    1
 -2       118       275       274      1630      1631      1626
 -1       389    8    0    1
 -2       119       120       276      1248      1632      1633
 -1       390    8    0    1
 -2       119       276       275      1633      1634      1629
 -1       391    8    0    1
 -2       120         3       121      1249      1250      1635
 -1       392    8    0    1
 -2       121       122       277      1251      1636      1637
 -1       393    8    0    1
 -2       122       123       278      1252      1638      1639
 -1       394    8    0    1
 -2       122       278       277      1639      1640      1636
 -1       395    8    0    1
 -2       123       124       279      1253      1641      1642
 -1       396    8    0    1
 -2       123       279       278      1642      1643      1638
 -1       397    8    0    1
 -2       124       125       280      1254      1644      1645
 -1       398    8    0    1
 -2       124       280       279      1645      1646      1641
 -1       399    8    0    1
 -2       125       126       281      1255      1647      1648
 -1       400    8    0    1
 -2       125       281       280      1648      1649      1644
 -1       401    8    0    1
 -2       126       127       282      1256      1650      1651
 -1       402    8    0    1
 -2       126       282       281      1651      1652      1647
 -1       403    8    0    1
 -2       127       128       283      1257      1653      1654
 -1       404    8    0    1
 -2       127       283       282      1654      1655      1650
 -1       405    8    0    1
 -2       128       129       284      1258      1656      1657
 -1       406    8    0    1
 -2       128       284       283      1657      1658      1653
 -1       407    8    0    1
 -2       129       130       285      1259      1659      1660
 -1       408    8    0    1
 -2       129       285       284      1660      1661      1656
 -1       409    8    0    1
 -2       130       131       286      1260      1662      1663
 -1       410    8    0    1
 -2       130       286       285      1663      1664      1659
 -1       411    8    0    1
 -2       131       132       287      1261      1665      1666
 -1       412    8    0    1
 -2       131       287       286      1666      1667      1662
 -1       413    8    0    1
 -2       132       133       288      1262      1668      1669
 -1       414    8    0    1
 -2       132       288       287      1669      1670      1665
 -1       415    8    0    1
 -2       133       134       289      1263      1671      1672
 -1       416    8    0    1
 -2       133       289       288      1672      1673      1668
 -1       417    8    0    1
 -2       134       135       290      1264      1674      1675
 -1       418    8    0    1
 -2       134       290       289      1675      1676      1671
 -1       419    8    0    1
 -2       135       136       291      1265      1677      1678
 -1       420    8    0    1
 -2       290       135       291      1674      1678      1679
 -1       421    8    0    1
 -2       136       228       291      1490      1680      1677
 -1       422    8    0    1
 -2         2       137       292      1267      1681      1682
 -1       423    8    0    1
 -2       137       138       293      1268      1683      1684
 -1       424    8    0    1
 -2       138       139       294      1269      1685      1686
 -1       425    8    0    1
 -2       139       140       295      1270      1687      1688
 -1       426    8    0    1
 -2       140       141       296      1271      1689      1690
 -1       427    8    0    1
 -2       141       142       297      1272      1691      1692
 -1       428    8    0    1
 -2       142       143       298      1273      1693      1694
 -1       429    8    0    1
 -2       143       144       299      1274      1695      1696
 -1       430    8    0    1
 -2       144       145       300      1275      1697      1698
 -1       431    8    0    1
 -2       145       146       301      1276      1699      1700
 -1       432    8    0    1
 -2       146       147       302      1277      1701      1702
 -1       433    8    0    1
 -2       147       148       303      1278      1703      1704
 -1       434    8    0    1
 -2       148       149       304      1279      1705      1706
 -1       435    8    0    1
 -2       149       150       305      1280      1707      1708
 -1       436    8    0    1
 -2       150       151       306      1281      1709      1710
 -1       437    8    0    1
 -2       151         1       307      1282      1711      1712
 -1       438    8    0    1
 -2         1       152       308      1283      1713      1714
 -1       439    8    0    1
 -2       152       153       309      1284      1715      1716
 -1       440    8    0    1
 -2       153       154       310      1285      1717      1718
 -1       441    8    0    1
 -2       154       155       311      1286      1719      1720
 -1       442    8    0    1
 -2       155       156       312      1287      1721      1722
 -1       443    8    0    1
 -2       156       157       313      1288      1723      1724
 -1       444    8    0    1
 -2       157       158       314      1289      1725      1726
 -1       445    8    0    1
 -2       158       159       315      1290      1727      1728
 -1       446    8    0    1
 -2       159       160       316      1291      1729      1730
 -1       447    8    0    1
 -2       160       161       317      1292      1731      1732
 -1       448    8    0    1
 -2       161       162       318      1293      1733      1734
 -1       449    8    0    1
 -2       162       163       319      1294      1735      1736
 -1       450    8    0    1
 -2       163       164       320      1295      1737      1738
 -1       451    8    0    1
 -2       164         2       321      1296      1739      1740
 -1       452    8    0    1
 -2       295       140       296      1687      1690      1741
 -1       453    8    0    1
 -2       294       139       295      1685      1688      1742
 -1       454    8    0    1
 -2       120       121       276      1635      1743      1632
 -1       455    8    0    1
 -2       121       277       276      1637      1744      1743
 -1       456    8    0    1
 -2       292       137       293      1681      1684      1745
 -1       457    8    0    1
 -2       293       138       294      1683      1686      1746
 -1       458    8    0    1
 -2         2       292       321      1682      1747      1739
 -1       459    8    0    1
 -2       141       297       296      1692      1748      1689
 -1       460    8    0    1
 -2       142       298       297      1694      1749      1691
 -1       461    8    0    1
 -2       143       299       298      1696      1750      1693
 -1       462    8    0    1
 -2       144       300       299      1698      1751      1695
 -1       463    8    0    1
 -2       145       301       300      1700      1752      1697
 -1       464    8    0    1
 -2       146       302       301      1702      1753      1699
 -1       465    8    0    1
 -2       147       303       302      1704      1754      1701
 -1       466    8    0    1
 -2       148       304       303      1706      1755      1703
 -1       467    8    0    1
 -2       149       305       304      1708      1756      1705
 -1       468    8    0    1
 -2       150       306       305      1710      1757      1707
 -1       469    8    0    1
 -2       151       307       306      1712      1758      1709
 -1       470    8    0    1
 -2         1       308       307      1714      1759      1711
 -1       471    8    0    1
 -2       152       309       308      1716      1760      1713
 -1       472    8    0    1
 -2       153       310       309      1718      1761      1715
 -1       473    8    0    1
 -2       154       311       310      1720      1762      1717
 -1       474    8    0    1
 -2       155       312       311      1722      1763      1719
 -1       475    8    0    1
 -2       156       313       312      1724      1764      1721
 -1       476    8    0    1
 -2       157       314       313      1726      1765      1723
 -1       477    8    0    1
 -2       158       315       314      1728      1766      1725
 -1       478    8    0    1
 -2       159       316       315      1730      1767      1727
 -1       479    8    0    1
 -2       160       317       316      1732      1768      1729
 -1       480    8    0    1
 -2       161       318       317      1734      1769      1731
 -1       481    8    0    1
 -2       162       319       318      1736      1770      1733
 -1       482    8    0    1
 -2       163       320       319      1738      1771      1735
 -1       483    8    0    1
 -2       164       321       320      1740      1772      1737
 -1       484    8    0    1
 -2        23         7       165      1297      1299      1773
 -1       485    8    0    1
 -2       166       167       322      1305      1774      1775
 -1       486    8    0    1
 -2       165       166       323      1302      1776      1777
 -1       487    8    0    1
 -2       166       322       323      1775      1778      1776
 -1       488    8    0    1
 -2       168       169       324      1311      1779      1780
 -1       489    8    0    1
 -2       169       170       325      1314      1781      1782
 -1       490    8    0    1
 -2       169       325       324      1782      1783      1779
 -1       491    8    0    1
 -2       170       171       326      1317      1784      1785
 -1       492    8    0    1
 -2       170       326       325      1785      1786      1781
 -1       493    8    0    1
 -2       171       172       327      1320      1787      1788
 -1       494    8    0    1
 -2       171       327       326      1788      1789      1784
 -1       495    8    0    1
 -2       172       173       328      1323      1790      1791
 -1       496    8    0    1
 -2       172       328       327      1791      1792      1787
 -1       497    8    0    1
 -2       173       174       329      1326      1793      1794
 -1       498    8    0    1
 -2       173       329       328      1794      1795      1790
 -1       499    8    0    1
 -2       174       175       330      1329      1796      1797
 -1       500    8    0    1
 -2       174       330       329      1797      1798      1793
 -1       501    8    0    1
 -2       175       176       331      1332      1799      1800
 -1       502    8    0    1
 -2       175       331       330      1800      1801      1796
 -1       503    8    0    1
 -2       176       177       332      1335      1802      1803
 -1       504    8    0    1
 -2       176       332       331      1803      1804      1799
 -1       505    8    0    1
 -2       177       178       333      1338      1805      1806
 -1       506    8    0    1
 -2       177       333       332      1806      1807      1802
 -1       507    8    0    1
 -2       178       179       334      1341      1808      1809
 -1       508    8    0    1
 -2       178       334       333      1809      1810      1805
 -1       509    8    0    1
 -2       179       180       335      1344      1811      1812
 -1       510    8    0    1
 -2       334       179       335      1808      1812      1813
 -1       511    8    0    1
 -2       180       229       335      1493      1814      1811
 -1       512    8    0    1
 -2       181        23       165      1346      1773      1815
 -1       513    8    0    1
 -2       229       230       336      1496      1816      1817
 -1       514    8    0    1
 -2       229       336       335      1817      1818      1814
 -1       515    8    0    1
 -2       181       165       323      1815      1777      1819
 -1       516    8    0    1
 -2       183       182       337      1353      1820      1821
 -1       517    8    0    1
 -2       184       183       338      1356      1822      1823
 -1       518    8    0    1
 -2       183       337       338      1821      1824      1822
 -1       519    8    0    1
 -2       185       184       339      1359      1825      1826
 -1       520    8    0    1
 -2       184       338       339      1823      1827      1825
 -1       521    8    0    1
 -2       186       185       340      1362      1828      1829
 -1       522    8    0    1
 -2       185       339       340      1826      1830      1828
 -1       523    8    0    1
 -2       187       186       341      1365      1831      1832
 -1       524    8    0    1
 -2       186       340       341      1829      1833      1831
 -1       525    8    0    1
 -2       188       187       342      1368      1834      1835
 -1       526    8    0    1
 -2       187       341       342      1832      1836      1834
 -1       527    8    0    1
 -2       189       188       343      1371      1837      1838
 -1       528    8    0    1
 -2       188       342       343      1835      1839      1837
 -1       529    8    0    1
 -2       190       189       344      1374      1840      1841
 -1       530    8    0    1
 -2       189       343       344      1838      1842      1840
 -1       531    8    0    1
 -2       191       190       345      1377      1843      1844
 -1       532    8    0    1
 -2       190       344       345      1841      1845      1843
 -1       533    8    0    1
 -2       192       191       346      1380      1846      1847
 -1       534    8    0    1
 -2       191       345       346      1844      1848      1846
 -1       535    8    0    1
 -2       193       192       347      1383      1849      1850
 -1       536    8    0    1
 -2       192       346       347      1847      1851      1849
 -1       537    8    0    1
 -2       194       193       348      1386      1852      1853
 -1       538    8    0    1
 -2       193       347       348      1850      1854      1852
 -1       539    8    0    1
 -2       195       194       349      1389      1855      1856
 -1       540    8    0    1
 -2       194       348       349      1853      1857      1855
 -1       541    8    0    1
 -2       196       195       350      1392      1858      1859
 -1       542    8    0    1
 -2       195       349       350      1856      1860      1858
 -1       543    8    0    1
 -2       197       196       351      1395      1861      1862
 -1       544    8    0    1
 -2       196       350       351      1859      1863      1861
 -1       545    8    0    1
 -2       198       197       352      1398      1864      1865
 -1       546    8    0    1
 -2       197       351       352      1862      1866      1864
 -1       547    8    0    1
 -2       199       198       353      1401      1867      1868
 -1       548    8    0    1
 -2       198       352       353      1865      1869      1867
 -1       549    8    0    1
 -2       200       199       354      1404      1870      1871
 -1       550    8    0    1
 -2       199       353       354      1868      1872      1870
 -1       551    8    0    1
 -2       201       200       355      1407      1873      1874
 -1       552    8    0    1
 -2       200       354       355      1871      1875      1873
 -1       553    8    0    1
 -2       202       201       356      1410      1876      1877
 -1       554    8    0    1
 -2       201       355       356      1874      1878      1876
 -1       555    8    0    1
 -2       203       202       357      1413      1879      1880
 -1       556    8    0    1
 -2       202       356       357      1877      1881      1879
 -1       557    8    0    1
 -2       204       203       358      1416      1882      1883
 -1       558    8    0    1
 -2       203       357       358      1880      1884      1882
 -1       559    8    0    1
 -2       205       204       359      1419      1885      1886
 -1       560    8    0    1
 -2       204       358       359      1883      1887      1885
 -1       561    8    0    1
 -2       206       205       360      1422      1888      1889
 -1       562    8    0    1
 -2       205       359       360      1886      1890      1888
 -1       563    8    0    1
 -2       207       206       361      1425      1891      1892
 -1       564    8    0    1
 -2       206       360       361      1889      1893      1891
 -1       565    8    0    1
 -2       208       207       362      1428      1894      1895
 -1       566    8    0    1
 -2       207       361       362      1892      1896      1894
 -1       567    8    0    1
 -2       209       208       363      1431      1897      1898
 -1       568    8    0    1
 -2       208       362       363      1895      1899      1897
 -1       569    8    0    1
 -2       210       209       364      1434      1900      1901
 -1       570    8    0    1
 -2       209       363       364      1898      1902      1900
 -1       571    8    0    1
 -2       211       210       365      1437      1903      1904
 -1       572    8    0    1
 -2       210       364       365      1901      1905      1903
 -1       573    8    0    1
 -2       212       211       366      1440      1906      1907
 -1       574    8    0    1
 -2       211       365       366      1904      1908      1906
 -1       575    8    0    1
 -2       213       212       367      1443      1909      1910
 -1       576    8    0    1
 -2       212       366       367      1907      1911      1909
 -1       577    8    0    1
 -2       214       213       368      1446      1912      1913
 -1       578    8    0    1
 -2       213       367       368      1910      1914      1912
 -1       579    8    0    1
 -2       215       214       369      1449      1915      1916
 -1       580    8    0    1
 -2       214       368       369      1913      1917      1915
 -1       581    8    0    1
 -2       216       215       370      1452      1918      1919
 -1       582    8    0    1
 -2       215       369       370      1916      1920      1918
 -1       583    8    0    1
 -2       217       216       371      1455      1921      1922
 -1       584    8    0    1
 -2       216       370       371      1919      1923      1921
 -1       585    8    0    1
 -2       218       217       372      1458      1924      1925
 -1       586    8    0    1
 -2       217       371       372      1922      1926      1924
 -1       587    8    0    1
 -2       219       218       373      1461      1927      1928
 -1       588    8    0    1
 -2       218       372       373      1925      1929      1927
 -1       589    8    0    1
 -2       220       219       374      1464      1930      1931
 -1       590    8    0    1
 -2       219       373       374      1928      1932      1930
 -1       591    8    0    1
 -2       221       220       375      1467      1933      1934
 -1       592    8    0    1
 -2       220       374       375      1931      1935      1933
 -1       593    8    0    1
 -2       222       221       376      1470      1936      1937
 -1       594    8    0    1
 -2       221       375       376      1934      1938      1936
 -1       595    8    0    1
 -2       223       222       377      1473      1939      1940
 -1       596    8    0    1
 -2       222       376       377      1937      1941      1939
 -1       597    8    0    1
 -2       224       223       378      1476      1942      1943
 -1       598    8    0    1
 -2       223       377       378      1940      1944      1942
 -1       599    8    0    1
 -2       225       224       379      1479      1945      1946
 -1       600    8    0    1
 -2       224       378       379      1943      1947      1945
 -1       601    8    0    1
 -2       226       225       380      1482      1948      1949
 -1       602    8    0    1
 -2       225       379       380      1946      1950      1948
 -1       603    8    0    1
 -2       227       226       381      1485      1951      1952
 -1       604    8    0    1
 -2       226       380       381      1949      1953      1951
 -1       605    8    0    1
 -2       228       227       382      1488      1954      1955
 -1       606    8    0    1
 -2       291       228       382      1680      1955      1956
 -1       607    8    0    1
 -2       227       381       382      1952      1957      1954
 -1       608    8    0    1
 -2       230       231       383      1499      1958      1959
 -1       609    8    0    1
 -2       230       383       336      1959      1960      1816
 -1       610    8    0    1
 -2       231       232       384      1502      1961      1962
 -1       611    8    0    1
 -2       231       384       383      1962      1963      1958
 -1       612    8    0    1
 -2       232       233       385      1505      1964      1965
 -1       613    8    0    1
 -2       232       385       384      1965      1966      1961
 -1       614    8    0    1
 -2       233       234       386      1508      1967      1968
 -1       615    8    0    1
 -2       233       386       385      1968      1969      1964
 -1       616    8    0    1
 -2       234       235       387      1511      1970      1971
 -1       617    8    0    1
 -2       234       387       386      1971      1972      1967
 -1       618    8    0    1
 -2       235       236       388      1514      1973      1974
 -1       619    8    0    1
 -2       235       388       387      1974      1975      1970
 -1       620    8    0    1
 -2       236       237       389      1517      1976      1977
 -1       621    8    0    1
 -2       236       389       388      1977      1978      1973
 -1       622    8    0    1
 -2       237       238       390      1520      1979      1980
 -1       623    8    0    1
 -2       237       390       389      1980      1981      1976
 -1       624    8    0    1
 -2       238       239       391      1523      1982      1983
 -1       625    8    0    1
 -2       238       391       390      1983      1984      1979
 -1       626    8    0    1
 -2       239       240       392      1526      1985      1986
 -1       627    8    0    1
 -2       239       392       391      1986      1987      1982
 -1       628    8    0    1
 -2       240       241       393      1529      1988      1989
 -1       629    8    0    1
 -2       240       393       392      1989      1990      1985
 -1       630    8    0    1
 -2       241       242       394      1532      1991      1992
 -1       631    8    0    1
 -2       241       394       393      1992      1993      1988
 -1       632    8    0    1
 -2       242       243       395      1535      1994      1995
 -1       633    8    0    1
 -2       242       395       394      1995      1996      1991
 -1       634    8    0    1
 -2       243       244       396      1538      1997      1998
 -1       635    8    0    1
 -2       243       396       395      1998      1999      1994
 -1       636    8    0    1
 -2       244       245       397      1541      2000      2001
 -1       637    8    0    1
 -2       244       397       396      2001      2002      1997
 -1       638    8    0    1
 -2       245       246       398      1544      2003      2004
 -1       639    8    0    1
 -2       245       398       397      2004      2005      2000
 -1       640    8    0    1
 -2       246       247       399      1547      2006      2007
 -1       641    8    0    1
 -2       246       399       398      2007      2008      2003
 -1       642    8    0    1
 -2       247       248       400      1550      2009      2010
 -1       643    8    0    1
 -2       247       400       399      2010      2011      2006
 -1       644    8    0    1
 -2       248       249       401      1553      2012      2013
 -1       645    8    0    1
 -2       248       401       400      2013      2014      2009
 -1       646    8    0    1
 -2       249       250       402      1556      2015      2016
 -1       647    8    0    1
 -2       249       402       401      2016      2017      2012
 -1       648    8    0    1
 -2       250       251       403      1559      2018      2019
 -1       649    8    0    1
 -2       250       403       402      2019      2020      2015
 -1       650    8    0    1
 -2       251       252       404      1562      2021      2022
 -1       651    8    0    1
 -2       251       404       403      2022      2023      2018
 -1       652    8    0    1
 -2       252       253       405      1565      2024      2025
 -1       653    8    0    1
 -2       252       405       404      2025      2026      2021
 -1       654    8    0    1
 -2       253       254       406      1568      2027      2028
 -1       655    8    0    1
 -2       253       406       405      2028      2029      2024
 -1       656    8    0    1
 -2       254       255       407      1571      2030      2031
 -1       657    8    0    1
 -2       254       407       406      2031      2032      2027
 -1       658    8    0    1
 -2       255       256       408      1574      2033      2034
 -1       659    8    0    1
 -2       255       408       407      2034      2035      2030
 -1       660    8    0    1
 -2       256       257       409      1577      2036      2037
 -1       661    8    0    1
 -2       256       409       408      2037      2038      2033
 -1       662    8    0    1
 -2       257       258       410      1580      2039      2040
 -1       663    8    0    1
 -2       257       410       409      2040      2041      2036
 -1       664    8    0    1
 -2       258       259       411      1583      2042      2043
 -1       665    8    0    1
 -2       258       411       410      2043      2044      2039
 -1       666    8    0    1
 -2       259       260       412      1586      2045      2046
 -1       667    8    0    1
 -2       259       412       411      2046      2047      2042
 -1       668    8    0    1
 -2       260       261       413      1589      2048      2049
 -1       669    8    0    1
 -2       260       413       412      2049      2050      2045
 -1       670    8    0    1
 -2       261       262       414      1592      2051      2052
 -1       671    8    0    1
 -2       261       414       413      2052      2053      2048
 -1       672    8    0    1
 -2       262       263       415      1595      2054      2055
 -1       673    8    0    1
 -2       262       415       414      2055      2056      2051
 -1       674    8    0    1
 -2       263       264       416      1598      2057      2058
 -1       675    8    0    1
 -2       263       416       415      2058      2059      2054
 -1       676    8    0    1
 -2       264       265       417      1601      2060      2061
 -1       677    8    0    1
 -2       264       417       416      2061      2062      2057
 -1       678    8    0    1
 -2       265       266       418      1604      2063      2064
 -1       679    8    0    1
 -2       265       418       417      2064      2065      2060
 -1       680    8    0    1
 -2       266       267       419      1607      2066      2067
 -1       681    8    0    1
 -2       266       419       418      2067      2068      2063
 -1       682    8    0    1
 -2       267       268       420      1610      2069      2070
 -1       683    8    0    1
 -2       267       420       419      2070      2071      2066
 -1       684    8    0    1
 -2       268       269       421      1613      2072      2073
 -1       685    8    0    1
 -2       268       421       420      2073      2074      2069
 -1       686    8    0    1
 -2       269       270       422      1616      2075      2076
 -1       687    8    0    1
 -2       269       422       421      2076      2077      2072
 -1       688    8    0    1
 -2       270       271       423      1619      2078      2079
 -1       689    8    0    1
 -2       270       423       422      2079      2080      2075
 -1       690    8    0    1
 -2       271       272       424      1622      2081      2082
 -1       691    8    0    1
 -2       271       424       423      2082      2083      2078
 -1       692    8    0    1
 -2       272       273       425      1625      2084      2085
 -1       693    8    0    1
 -2       272       425       424      2085      2086      2081
 -1       694    8    0    1
 -2       273       274       426      1628      2087      2088
 -1       695    8    0    1
 -2       273       426       425      2088      2089      2084
 -1       696    8    0    1
 -2       274       275       427      1631      2090      2091
 -1       697    8    0    1
 -2       274       427       426      2091      2092      2087
 -1       698    8    0    1
 -2       275       276       428      1634      2093      2094
 -1       699    8    0    1
 -2       427       275       428      2090      2094      2095
 -1       700    8    0    1
 -2       276       277       428      1744      2096      2093
 -1       701    8    0    1
 -2       279       280       429      1646      2097      2098
 -1       702    8    0    1
 -2       278       279       430      1643      2099      2100
 -1       703    8    0    1
 -2       279       429       430      2098      2101      2099
 -1       704    8    0    1
 -2       277       278       431      1640      2102      2103
 -1       705    8    0    1
 -2       428       277       431      2096      2103      2104
 -1       706    8    0    1
 -2       278       430       431      2100      2105      2102
 -1       707    8    0    1
 -2       280       281       432      1649      2106      2107
 -1       708    8    0    1
 -2       280       432       429      2107      2108      2097
 -1       709    8    0    1
 -2       281       282       433      1652      2109      2110
 -1       710    8    0    1
 -2       281       433       432      2110      2111      2106
 -1       711    8    0    1
 -2       282       283       434      1655      2112      2113
 -1       712    8    0    1
 -2       282       434       433      2113      2114      2109
 -1       713    8    0    1
 -2       283       284       435      1658      2115      2116
 -1       714    8    0    1
 -2       283       435       434      2116      2117      2112
 -1       715    8    0    1
 -2       284       285       436      1661      2118      2119
 -1       716    8    0    1
 -2       284       436       435      2119      2120      2115
 -1       717    8    0    1
 -2       285       286       437      1664      2121      2122
 -1       718    8    0    1
 -2       285       437       436      2122      2123      2118
 -1       719    8    0    1
 -2       286       287       438      1667      2124      2125
 -1       720    8    0    1
 -2       286       438       437      2125      2126      2121
 -1       721    8    0    1
 -2       287       288       439      1670      2127      2128
 -1       722    8    0    1
 -2       287       439       438      2128      2129      2124
 -1       723    8    0    1
 -2       288       289       440      1673      2130      2131
 -1       724    8    0    1
 -2       288       440       439      2131      2132      2127
 -1       725    8    0    1
 -2       289       290       441      1676      2133      2134
 -1       726    8    0    1
 -2       289       441       440      2134      2135      2130
 -1       727    8    0    1
 -2       293       294       442      1746      2136      2137
 -1       728    8    0    1
 -2       321       292       443      1747      2138      2139
 -1       729    8    0    1
 -2       292       293       444      1745      2140      2141
 -1       730    8    0    1
 -2       292       444       443      2141      2142      2138
 -1       731    8    0    1
 -2       294       295       445      1742      2143      2144
 -1       732    8    0    1
 -2       295       296       446      1741      2145      2146
 -1       733    8    0    1
 -2       167       168       447      1308      2147      2148
 -1       734    8    0    1
 -2       322       167       447      1774      2148      2149
 -1       735    8    0    1
 -2       168       324       447      1780      2150      2147
 -1       736    8    0    1
 -2       297       298       448      1749      2151      2152
 -1       737    8    0    1
 -2       298       299       449      1750      2153      2154
 -1       738    8    0    1
 -2       299       300       450      1751      2155      2156
 -1       739    8    0    1
 -2       300       301       451      1752      2157      2158
 -1       740    8    0    1
 -2       301       302       452      1753      2159      2160
 -1       741    8    0    1
 -2       302       303       453      1754      2161      2162
 -1       742    8    0    1
 -2       303       304       454      1755      2163      2164
 -1       743    8    0    1
 -2       304       305       455      1756      2165      2166
 -1       744    8    0    1
 -2       305       306       456      1757      2167      2168
 -1       745    8    0    1
 -2       306       307       457      1758      2169      2170
 -1       746    8    0    1
 -2       307       308       458      1759      2171      2172
 -1       747    8    0    1
 -2       308       309       459      1760      2173      2174
 -1       748    8    0    1
 -2       308       459       458      2174      2175      2171
 -1       749    8    0    1
 -2       309       310       460      1761      2176      2177
 -1       750    8    0    1
 -2       310       311       461      1762      2178      2179
 -1       751    8    0    1
 -2       310       461       460      2179      2180      2176
 -1       752    8    0    1
 -2       311       312       462      1763      2181      2182
 -1       753    8    0    1
 -2       312       313       463      1764      2183      2184
 -1       754    8    0    1
 -2       313       314       464      1765      2185      2186
 -1       755    8    0    1
 -2       314       315       465      1766      2187      2188
 -1       756    8    0    1
 -2       315       316       466      1767      2189      2190
 -1       757    8    0    1
 -2       316       317       467      1768      2191      2192
 -1       758    8    0    1
 -2       317       318       468      1769      2193      2194
 -1       759    8    0    1
 -2       318       319       469      1770      2195      2196
 -1       760    8    0    1
 -2       319       320       470      1771      2197      2198
 -1       761    8    0    1
 -2       320       321       471      1772      2199      2200
 -1       762    8    0    1
 -2       320       471       470      2200      2201      2197
 -1       763    8    0    1
 -2       296       297       472      1748      2202      2203
 -1       764    8    0    1
 -2       446       296       472      2145      2203      2204
 -1       765    8    0    1
 -2       181       323       182      1819      2205      1350
 -1       766    8    0    1
 -2       297       448       472      2152      2206      2202
 -1       767    8    0    1
 -2       337       182       323      1820      2205      2207
 -1       768    8    0    1
 -2       444       293       442      2140      2137      2208
 -1       769    8    0    1
 -2       294       445       473      2144      2209      2210
 -1       770    8    0    1
 -2       294       473       442      2210      2211      2136
 -1       771    8    0    1
 -2       441       290       291      2133      1679      2212
 -1       772    8    0    1
 -2       321       443       471      2139      2213      2199
 -1       773    8    0    1
 -2       445       295       446      2143      2146      2214
 -1       774    8    0    1
 -2       469       319       474      2195      2215      2216
 -1       775    8    0    1
 -2       319       470       474      2198      2217      2215
 -1       776    8    0    1
 -2       468       318       469      2193      2196      2218
 -1       777    8    0    1
 -2       467       317       468      2191      2194      2219
 -1       778    8    0    1
 -2       466       316       467      2189      2192      2220
 -1       779    8    0    1
 -2       465       315       466      2187      2190      2221
 -1       780    8    0    1
 -2       464       314       465      2185      2188      2222
 -1       781    8    0    1
 -2       463       313       464      2183      2186      2223
 -1       782    8    0    1
 -2       461       311       462      2178      2182      2224
 -1       783    8    0    1
 -2       459       309       460      2173      2177      2225
 -1       784    8    0    1
 -2       457       307       458      2169      2172      2226
 -1       785    8    0    1
 -2       456       306       457      2167      2170      2227
 -1       786    8    0    1
 -2       455       305       456      2165      2168      2228
 -1       787    8    0    1
 -2       454       304       455      2163      2166      2229
 -1       788    8    0    1
 -2       453       303       454      2161      2164      2230
 -1       789    8    0    1
 -2       452       302       453      2159      2162      2231
 -1       790    8    0    1
 -2       451       301       452      2157      2160      2232
 -1       791    8    0    1
 -2       450       300       451      2155      2158      2233
 -1       792    8    0    1
 -2       448       298       449      2151      2154      2234
 -1       793    8    0    1
 -2       449       299       450      2153      2156      2235
 -1       794    8    0    1
 -2       462       312       463      2181      2184      2236
 -1       795    8    0    1
 -2       336       383       475      1960      2237      2238
 -1       796    8    0    1
 -2       325       326       476      1786      2239      2240
 -1       797    8    0    1
 -2       324       325       477      1783      2241      2242
 -1       798    8    0    1
 -2       325       476       477      2240      2243      2241
 -1       799    8    0    1
 -2       327       328       478      1792      2244      2245
 -1       800    8    0    1
 -2       328       329       479      1795      2246      2247
 -1       801    8    0    1
 -2       328       479       478      2247      2248      2244
 -1       802    8    0    1
 -2       329       330       480      1798      2249      2250
 -1       803    8    0    1
 -2       329       480       479      2250      2251      2246
 -1       804    8    0    1
 -2       330       331       481      1801      2252      2253
 -1       805    8    0    1
 -2       330       481       480      2253      2254      2249
 -1       806    8    0    1
 -2       331       332       482      1804      2255      2256
 -1       807    8    0    1
 -2       331       482       481      2256      2257      2252
 -1       808    8    0    1
 -2       332       333       483      1807      2258      2259
 -1       809    8    0    1
 -2       332       483       482      2259      2260      2255
 -1       810    8    0    1
 -2       383       384       484      1963      2261      2262
 -1       811    8    0    1
 -2       383       484       475      2262      2263      2237
 -1       812    8    0    1
 -2       338       337       485      1824      2264      2265
 -1       813    8    0    1
 -2       472       448       486      2206      2266      2267
 -1       814    8    0    1
 -2       339       338       487      1827      2268      2269
 -1       815    8    0    1
 -2       338       485       487      2265      2270      2268
 -1       816    8    0    1
 -2       340       339       488      1830      2271      2272
 -1       817    8    0    1
 -2       339       487       488      2269      2273      2271
 -1       818    8    0    1
 -2       341       340       489      1833      2274      2275
 -1       819    8    0    1
 -2       340       488       489      2272      2276      2274
 -1       820    8    0    1
 -2       342       341       490      1836      2277      2278
 -1       821    8    0    1
 -2       341       489       490      2275      2279      2277
 -1       822    8    0    1
 -2       343       342       491      1839      2280      2281
 -1       823    8    0    1
 -2       342       490       491      2278      2282      2280
 -1       824    8    0    1
 -2       344       343       492      1842      2283      2284
 -1       825    8    0    1
 -2       343       491       492      2281      2285      2283
 -1       826    8    0    1
 -2       345       344       493      1845      2286      2287
 -1       827    8    0    1
 -2       344       492       493      2284      2288      2286
 -1       828    8    0    1
 -2       346       345       494      1848      2289      2290
 -1       829    8    0    1
 -2       345       493       494      2287      2291      2289
 -1       830    8    0    1
 -2       347       346       495      1851      2292      2293
 -1       831    8    0    1
 -2       346       494       495      2290      2294      2292
 -1       832    8    0    1
 -2       348       347       496      1854      2295      2296
 -1       833    8    0    1
 -2       347       495       496      2293      2297      2295
 -1       834    8    0    1
 -2       349       348       497      1857      2298      2299
 -1       835    8    0    1
 -2       348       496       497      2296      2300      2298
 -1       836    8    0    1
 -2       350       349       498      1860      2301      2302
 -1       837    8    0    1
 -2       349       497       498      2299      2303      2301
 -1       838    8    0    1
 -2       351       350       499      1863      2304      2305
 -1       839    8    0    1
 -2       350       498       499      2302      2306      2304
 -1       840    8    0    1
 -2       352       351       500      1866      2307      2308
 -1       841    8    0    1
 -2       351       499       500      2305      2309      2307
 -1       842    8    0    1
 -2       353       352       501      1869      2310      2311
 -1       843    8    0    1
 -2       352       500       501      2308      2312      2310
 -1       844    8    0    1
 -2       354       353       502      1872      2313      2314
 -1       845    8    0    1
 -2       353       501       502      2311      2315      2313
 -1       846    8    0    1
 -2       355       354       503      1875      2316      2317
 -1       847    8    0    1
 -2       354       502       503      2314      2318      2316
 -1       848    8    0    1
 -2       356       355       504      1878      2319      2320
 -1       849    8    0    1
 -2       355       503       504      2317      2321      2319
 -1       850    8    0    1
 -2       357       356       505      1881      2322      2323
 -1       851    8    0    1
 -2       356       504       505      2320      2324      2322
 -1       852    8    0    1
 -2       358       357       506      1884      2325      2326
 -1       853    8    0    1
 -2       357       505       506      2323      2327      2325
 -1       854    8    0    1
 -2       359       358       507      1887      2328      2329
 -1       855    8    0    1
 -2       358       506       507      2326      2330      2328
 -1       856    8    0    1
 -2       360       359       508      1890      2331      2332
 -1       857    8    0    1
 -2       359       507       508      2329      2333      2331
 -1       858    8    0    1
 -2       361       360       509      1893      2334      2335
 -1       859    8    0    1
 -2       360       508       509      2332      2336      2334
 -1       860    8    0    1
 -2       362       361       510      1896      2337      2338
 -1       861    8    0    1
 -2       361       509       510      2335      2339      2337
 -1       862    8    0    1
 -2       363       362       511      1899      2340      2341
 -1       863    8    0    1
 -2       362       510       511      2338      2342      2340
 -1       864    8    0    1
 -2       364       363       512      1902      2343      2344
 -1       865    8    0    1
 -2       363       511       512      2341      2345      2343
 -1       866    8    0    1
 -2       365       364       513      1905      2346      2347
 -1       867    8    0    1
 -2       364       512       513      2344      2348      2346
 -1       868    8    0    1
 -2       366       365       514      1908      2349      2350
 -1       869    8    0    1
 -2       365       513       514      2347      2351      2349
 -1       870    8    0    1
 -2       367       366       515      1911      2352      2353
 -1       871    8    0    1
 -2       366       514       515      2350      2354      2352
 -1       872    8    0    1
 -2       368       367       516      1914      2355      2356
 -1       873    8    0    1
 -2       367       515       516      2353      2357      2355
 -1       874    8    0    1
 -2       369       368       517      1917      2358      2359
 -1       875    8    0    1
 -2       368       516       517      2356      2360      2358
 -1       876    8    0    1
 -2       370       369       518      1920      2361      2362
 -1       877    8    0    1
 -2       369       517       518      2359      2363      2361
 -1       878    8    0    1
 -2       371       370       519      1923      2364      2365
 -1       879    8    0    1
 -2       370       518       519      2362      2366      2364
 -1       880    8    0    1
 -2       372       371       520      1926      2367      2368
 -1       881    8    0    1
 -2       371       519       520      2365      2369      2367
 -1       882    8    0    1
 -2       373       372       521      1929      2370      2371
 -1       883    8    0    1
 -2       372       520       521      2368      2372      2370
 -1       884    8    0    1
 -2       374       373       522      1932      2373      2374
 -1       885    8    0    1
 -2       373       521       522      2371      2375      2373
 -1       886    8    0    1
 -2       375       374       523      1935      2376      2377
 -1       887    8    0    1
 -2       374       522       523      2374      2378      2376
 -1       888    8    0    1
 -2       376       375       524      1938      2379      2380
 -1       889    8    0    1
 -2       375       523       524      2377      2381      2379
 -1       890    8    0    1
 -2       377       376       525      1941      2382      2383
 -1       891    8    0    1
 -2       376       524       525      2380      2384      2382
 -1       892    8    0    1
 -2       378       377       526      1944      2385      2386
 -1       893    8    0    1
 -2       377       525       526      2383      2387      2385
 -1       894    8    0    1
 -2       379       378       527      1947      2388      2389
 -1       895    8    0    1
 -2       378       526       527      2386      2390      2388
 -1       896    8    0    1
 -2       380       379       528      1950      2391      2392
 -1       897    8    0    1
 -2       379       527       528      2389      2393      2391
 -1       898    8    0    1
 -2       381       380       529      1953      2394      2395
 -1       899    8    0    1
 -2       380       528       529      2392      2396      2394
 -1       900    8    0    1
 -2       385       386       530      1969      2397      2398
 -1       901    8    0    1
 -2       386       387       531      1972      2399      2400
 -1       902    8    0    1
 -2       386       531       530      2400      2401      2397
 -1       903    8    0    1
 -2       387       388       532      1975      2402      2403
 -1       904    8    0    1
 -2       387       532       531      2403      2404      2399
 -1       905    8    0    1
 -2       388       389       533      1978      2405      2406
 -1       906    8    0    1
 -2       388       533       532      2406      2407      2402
 -1       907    8    0    1
 -2       389       390       534      1981      2408      2409
 -1       908    8    0    1
 -2       389       534       533      2409      2410      2405
 -1       909    8    0    1
 -2       390       391       535      1984      2411      2412
 -1       910    8    0    1
 -2       390       535       534      2412      2413      2408
 -1       911    8    0    1
 -2       391       392       536      1987      2414      2415
 -1       912    8    0    1
 -2       391       536       535      2415      2416      2411
 -1       913    8    0    1
 -2       392       393       537      1990      2417      2418
 -1       914    8    0    1
 -2       392       537       536      2418      2419      2414
 -1       915    8    0    1
 -2       393       394       538      1993      2420      2421
 -1       916    8    0    1
 -2       393       538       537      2421      2422      2417
 -1       917    8    0    1
 -2       394       395       539      1996      2423      2424
 -1       918    8    0    1
 -2       394       539       538      2424      2425      2420
 -1       919    8    0    1
 -2       395       396       540      1999      2426      2427
 -1       920    8    0    1
 -2       395       540       539      2427      2428      2423
 -1       921    8    0    1
 -2       396       397       541      2002      2429      2430
 -1       922    8    0    1
 -2       396       541       540      2430      2431      2426
 -1       923    8    0    1
 -2       397       398       542      2005      2432      2433
 -1       924    8    0    1
 -2       397       542       541      2433      2434      2429
 -1       925    8    0    1
 -2       398       399       543      2008      2435      2436
 -1       926    8    0    1
 -2       398       543       542      2436      2437      2432
 -1       927    8    0    1
 -2       399       400       544      2011      2438      2439
 -1       928    8    0    1
 -2       399       544       543      2439      2440      2435
 -1       929    8    0    1
 -2       400       401       545      2014      2441      2442
 -1       930    8    0    1
 -2       400       545       544      2442      2443      2438
 -1       931    8    0    1
 -2       401       402       546      2017      2444      2445
 -1       932    8    0    1
 -2       401       546       545      2445      2446      2441
 -1       933    8    0    1
 -2       402       403       547      2020      2447      2448
 -1       934    8    0    1
 -2       402       547       546      2448      2449      2444
 -1       935    8    0    1
 -2       403       404       548      2023      2450      2451
 -1       936    8    0    1
 -2       403       548       547      2451      2452      2447
 -1       937    8    0    1
 -2       404       405       549      2026      2453      2454
 -1       938    8    0    1
 -2       404       549       548      2454      2455      2450
 -1       939    8    0    1
 -2       405       406       550      2029      2456      2457
 -1       940    8    0    1
 -2       405       550       549      2457      2458      2453
 -1       941    8    0    1
 -2       406       407       551      2032      2459      2460
 -1       942    8    0    1
 -2       406       551       550      2460      2461      2456
 -1       943    8    0    1
 -2       407       408       552      2035      2462      2463
 -1       944    8    0    1
 -2       407       552       551      2463      2464      2459
 -1       945    8    0    1
 -2       408       409       553      2038      2465      2466
 -1       946    8    0    1
 -2       408       553       552      2466      2467      2462
 -1       947    8    0    1
 -2       409       410       554      2041      2468      2469
 -1       948    8    0    1
 -2       409       554       553      2469      2470      2465
 -1       949    8    0    1
 -2       410       411       555      2044      2471      2472
 -1       950    8    0    1
 -2       410       555       554      2472      2473      2468
 -1       951    8    0    1
 -2       411       412       556      2047      2474      2475
 -1       952    8    0    1
 -2       411       556       555      2475      2476      2471
 -1       953    8    0    1
 -2       412       413       557      2050      2477      2478
 -1       954    8    0    1
 -2       412       557       556      2478      2479      2474
 -1       955    8    0    1
 -2       413       414       558      2053      2480      2481
 -1       956    8    0    1
 -2       413       558       557      2481      2482      2477
 -1       957    8    0    1
 -2       414       415       559      2056      2483      2484
 -1       958    8    0    1
 -2       414       559       558      2484      2485      2480
 -1       959    8    0    1
 -2       415       416       560      2059      2486      2487
 -1       960    8    0    1
 -2       415       560       559      2487      2488      2483
 -1       961    8    0    1
 -2       416       417       561      2062      2489      2490
 -1       962    8    0    1
 -2       416       561       560      2490      2491      2486
 -1       963    8    0    1
 -2       417       418       562      2065      2492      2493
 -1       964    8    0    1
 -2       417       562       561      2493      2494      2489
 -1       965    8    0    1
 -2       418       419       563      2068      2495      2496
 -1       966    8    0    1
 -2       418       563       562      2496      2497      2492
 -1       967    8    0    1
 -2       419       420       564      2071      2498      2499
 -1       968    8    0    1
 -2       419       564       563      2499      2500      2495
 -1       969    8    0    1
 -2       420       421       565      2074      2501      2502
 -1       970    8    0    1
 -2       420       565       564      2502      2503      2498
 -1       971    8    0    1
 -2       421       422       566      2077      2504      2505
 -1       972    8    0    1
 -2       421       566       565      2505      2506      2501
 -1       973    8    0    1
 -2       422       423       567      2080      2507      2508
 -1       974    8    0    1
 -2       422       567       566      2508      2509      2504
 -1       975    8    0    1
 -2       423       424       568      2083      2510      2511
 -1       976    8    0    1
 -2       423       568       567      2511      2512      2507
 -1       977    8    0    1
 -2       424       425       569      2086      2513      2514
 -1       978    8    0    1
 -2       424       569       568      2514      2515      2510
 -1       979    8    0    1
 -2       425       426       570      2089      2516      2517
 -1       980    8    0    1
 -2       425       570       569      2517      2518      2513
 -1       981    8    0    1
 -2       426       427       571      2092      2519      2520
 -1       982    8    0    1
 -2       426       571       570      2520      2521      2516
 -1       983    8    0    1
 -2       427       428       431      2095      2104      2522
 -1       984    8    0    1
 -2       432       433       572      2111      2523      2524
 -1       985    8    0    1
 -2       433       434       573      2114      2525      2526
 -1       986    8    0    1
 -2       433       573       572      2526      2527      2523
 -1       987    8    0    1
 -2       430       429       574      2101      2528      2529
 -1       988    8    0    1
 -2       429       432       575      2108      2530      2531
 -1       989    8    0    1
 -2       574       429       575      2528      2531      2532
 -1       990    8    0    1
 -2       432       572       575      2524      2533      2530
 -1       991    8    0    1
 -2       434       435       576      2117      2534      2535
 -1       992    8    0    1
 -2       434       576       573      2535      2536      2525
 -1       993    8    0    1
 -2       435       436       577      2120      2537      2538
 -1       994    8    0    1
 -2       435       577       576      2538      2539      2534
 -1       995    8    0    1
 -2       436       437       578      2123      2540      2541
 -1       996    8    0    1
 -2       436       578       577      2541      2542      2537
 -1       997    8    0    1
 -2       437       438       579      2126      2543      2544
 -1       998    8    0    1
 -2       437       579       578      2544      2545      2540
 -1       999    8    0    1
 -2       438       439       580      2129      2546      2547
 -1      1000    8    0    1
 -2       438       580       579      2547      2548      2543
 -1      1001    8    0    1
 -2       439       440       581      2132      2549      2550
 -1      1002    8    0    1
 -2       439       581       580      2550      2551      2546
 -1      1003    8    0    1
 -2       440       441       582      2135      2552      2553
 -1      1004    8    0    1
 -2       440       582       581      2553      2554      2549
 -1      1005    8    0    1
 -2       441       291       382      2212      1956      2555
 -1      1006    8    0    1
 -2       471       443       583      2213      2556      2557
 -1      1007    8    0    1
 -2       384       385       584      1966      2558      2559
 -1      1008    8    0    1
 -2       385       530       584      2398      2560      2558
 -1      1009    8    0    1
 -2       443       444       585      2142      2561      2562
 -1      1010    8    0    1
 -2       445       446       586      2214      2563      2564
 -1      1011    8    0    1
 -2       444       442       587      2208      2565      2566
 -1      1012    8    0    1
 -2       457       458       588      2226      2567      2568
 -1      1013    8    0    1
 -2       326       327       589      1789      2569      2570
 -1      1014    8    0    1
 -2       476       326       589      2239      2570      2571
 -1      1015    8    0    1
 -2       327       478       589      2245      2572      2569
 -1      1016    8    0    1
 -2       449       450       590      2235      2573      2574
 -1      1017    8    0    1
 -2       462       463       591      2236      2575      2576
 -1      1018    8    0    1
 -2       448       449       592      2234      2577      2578
 -1      1019    8    0    1
 -2       450       451       593      2233      2579      2580
 -1      1020    8    0    1
 -2       451       452       594      2232      2581      2582
 -1      1021    8    0    1
 -2       452       453       595      2231      2583      2584
 -1      1022    8    0    1
 -2       453       454       596      2230      2585      2586
 -1      1023    8    0    1
 -2       454       455       597      2229      2587      2588
 -1      1024    8    0    1
 -2       455       456       598      2228      2589      2590
 -1      1025    8    0    1
 -2       455       598       597      2590      2591      2587
 -1      1026    8    0    1
 -2       456       457       599      2227      2592      2593
 -1      1027    8    0    1
 -2       458       459       600      2175      2594      2595
 -1      1028    8    0    1
 -2       459       460       601      2225      2596      2597
 -1      1029    8    0    1
 -2       460       461       602      2180      2598      2599
 -1      1030    8    0    1
 -2       461       462       603      2224      2600      2601
 -1      1031    8    0    1
 -2       463       464       604      2223      2602      2603
 -1      1032    8    0    1
 -2       463       604       591      2603      2604      2575
 -1      1033    8    0    1
 -2       464       465       605      2222      2605      2606
 -1      1034    8    0    1
 -2       465       466       606      2221      2607      2608
 -1      1035    8    0    1
 -2       465       606       605      2608      2609      2605
 -1      1036    8    0    1
 -2       466       467       607      2220      2610      2611
 -1      1037    8    0    1
 -2       467       468       608      2219      2612      2613
 -1      1038    8    0    1
 -2       468       469       609      2218      2614      2615
 -1      1039    8    0    1
 -2       468       609       608      2615      2616      2612
 -1      1040    8    0    1
 -2       470       471       610      2201      2617      2618
 -1      1041    8    0    1
 -2       337       323       611      2207      2619      2620
 -1      1042    8    0    1
 -2       485       337       611      2264      2620      2621
 -1      1043    8    0    1
 -2       323       322       611      1778      2622      2619
 -1      1044    8    0    1
 -2       335       336       612      1818      2623      2624
 -1      1045    8    0    1
 -2       334       335       612      1813      2624      2625
 -1      1046    8    0    1
 -2       336       475       612      2238      2626      2623
 -1      1047    8    0    1
 -2       446       472       613      2204      2627      2628
 -1      1048    8    0    1
 -2       586       446       613      2563      2628      2629
 -1      1049    8    0    1
 -2       472       486       613      2267      2630      2627
 -1      1050    8    0    1
 -2       449       590       592      2574      2631      2577
 -1      1051    8    0    1
 -2       324       477       614      2242      2632      2633
 -1      1052    8    0    1
 -2       324       614       447      2633      2634      2150
 -1      1053    8    0    1
 -2       484       384       584      2261      2559      2635
 -1      1054    8    0    1
 -2       333       334       612      1810      2625      2636
 -1      1055    8    0    1
 -2       611       322       447      2622      2149      2637
 -1      1056    8    0    1
 -2       609       469       474      2614      2216      2638
 -1      1057    8    0    1
 -2       470       610       474      2618      2639      2217
 -1      1058    8    0    1
 -2       606       466       607      2607      2611      2640
 -1      1059    8    0    1
 -2       471       583       610      2557      2641      2617
 -1      1060    8    0    1
 -2       473       445       615      2209      2642      2643
 -1      1061    8    0    1
 -2       445       586       615      2564      2644      2642
 -1      1062    8    0    1
 -2       427       431       571      2522      2645      2519
 -1      1063    8    0    1
 -2       431       430       571      2105      2646      2645
 -1      1064    8    0    1
 -2       604       464       605      2602      2606      2647
 -1      1065    8    0    1
 -2       441       382       616      2555      2648      2649
 -1      1066    8    0    1
 -2       582       441       616      2552      2649      2650
 -1      1067    8    0    1
 -2       382       381       616      1957      2651      2648
 -1      1068    8    0    1
 -2       442       473       617      2211      2652      2653
 -1      1069    8    0    1
 -2       442       617       587      2653      2654      2565
 -1      1070    8    0    1
 -2       603       462       591      2600      2576      2655
 -1      1071    8    0    1
 -2       583       443       585      2556      2562      2656
 -1      1072    8    0    1
 -2       333       612       483      2636      2657      2258
 -1      1073    8    0    1
 -2       585       444       587      2561      2566      2658
 -1      1074    8    0    1
 -2       602       461       603      2598      2601      2659
 -1      1075    8    0    1
 -2       457       588       599      2568      2660      2592
 -1      1076    8    0    1
 -2       601       460       602      2596      2599      2661
 -1      1077    8    0    1
 -2       600       459       601      2594      2597      2662
 -1      1078    8    0    1
 -2       598       456       599      2589      2593      2663
 -1      1079    8    0    1
 -2       596       454       618      2585      2664      2665
 -1      1080    8    0    1
 -2       454       597       618      2588      2666      2664
 -1      1081    8    0    1
 -2       595       453       596      2583      2586      2667
 -1      1082    8    0    1
 -2       594       452       595      2581      2584      2668
 -1      1083    8    0    1
 -2       593       451       594      2579      2582      2669
 -1      1084    8    0    1
 -2       588       458       600      2567      2595      2670
 -1      1085    8    0    1
 -2       486       448       592      2266      2578      2671
 -1      1086    8    0    1
 -2       590       450       593      2573      2580      2672
 -1      1087    8    0    1
 -2       607       467       608      2610      2613      2673
 -1      1088    8    0    1
 -2       571       430       574      2646      2529      2674
 -1      1089    8    0    1
 -2       616       381       529      2651      2395      2675
 -1      1090    8    0    1
 -2       479       480       619      2251      2676      2677
 -1      1091    8    0    1
 -2       478       479       620      2248      2678      2679
 -1      1092    8    0    1
 -2       479       619       620      2677      2680      2678
 -1      1093    8    0    1
 -2       481       482       621      2257      2681      2682
 -1      1094    8    0    1
 -2       482       483       622      2260      2683      2684
 -1      1095    8    0    1
 -2       482       622       621      2684      2685      2681
 -1      1096    8    0    1
 -2       475       484       623      2263      2686      2687
 -1      1097    8    0    1
 -2       585       587       624      2658      2688      2689
 -1      1098    8    0    1
 -2       484       584       625      2635      2690      2691
 -1      1099    8    0    1
 -2       484       625       623      2691      2692      2686
 -1      1100    8    0    1
 -2       612       475       483      2626      2693      2657
 -1      1101    8    0    1
 -2       592       590       626      2631      2694      2695
 -1      1102    8    0    1
 -2       488       487       627      2273      2696      2697
 -1      1103    8    0    1
 -2       489       488       628      2276      2698      2699
 -1      1104    8    0    1
 -2       488       627       628      2697      2700      2698
 -1      1105    8    0    1
 -2       490       489       629      2279      2701      2702
 -1      1106    8    0    1
 -2       489       628       629      2699      2703      2701
 -1      1107    8    0    1
 -2       491       490       630      2282      2704      2705
 -1      1108    8    0    1
 -2       490       629       630      2702      2706      2704
 -1      1109    8    0    1
 -2       492       491       631      2285      2707      2708
 -1      1110    8    0    1
 -2       491       630       631      2705      2709      2707
 -1      1111    8    0    1
 -2       493       492       632      2288      2710      2711
 -1      1112    8    0    1
 -2       492       631       632      2708      2712      2710
 -1      1113    8    0    1
 -2       494       493       633      2291      2713      2714
 -1      1114    8    0    1
 -2       493       632       633      2711      2715      2713
 -1      1115    8    0    1
 -2       495       494       634      2294      2716      2717
 -1      1116    8    0    1
 -2       494       633       634      2714      2718      2716
 -1      1117    8    0    1
 -2       496       495       635      2297      2719      2720
 -1      1118    8    0    1
 -2       495       634       635      2717      2721      2719
 -1      1119    8    0    1
 -2       497       496       636      2300      2722      2723
 -1      1120    8    0    1
 -2       496       635       636      2720      2724      2722
 -1      1121    8    0    1
 -2       498       497       637      2303      2725      2726
 -1      1122    8    0    1
 -2       497       636       637      2723      2727      2725
 -1      1123    8    0    1
 -2       499       498       638      2306      2728      2729
 -1      1124    8    0    1
 -2       498       637       638      2726      2730      2728
 -1      1125    8    0    1
 -2       500       499       639      2309      2731      2732
 -1      1126    8    0    1
 -2       499       638       639      2729      2733      2731
 -1      1127    8    0    1
 -2       501       500       640      2312      2734      2735
 -1      1128    8    0    1
 -2       500       639       640      2732      2736      2734
 -1      1129    8    0    1
 -2       502       501       641      2315      2737      2738
 -1      1130    8    0    1
 -2       501       640       641      2735      2739      2737
 -1      1131    8    0    1
 -2       503       502       642      2318      2740      2741
 -1      1132    8    0    1
 -2       502       641       642      2738      2742      2740
 -1      1133    8    0    1
 -2       504       503       643      2321      2743      2744
 -1      1134    8    0    1
 -2       503       642       643      2741      2745      2743
 -1      1135    8    0    1
 -2       505       504       644      2324      2746      2747
 -1      1136    8    0    1
 -2       504       643       644      2744      2748      2746
 -1      1137    8    0    1
 -2       506       505       645      2327      2749      2750
 -1      1138    8    0    1
 -2       505       644       645      2747      2751      2749
 -1      1139    8    0    1
 -2       507       506       646      2330      2752      2753
 -1      1140    8    0    1
 -2       506       645       646      2750      2754      2752
 -1      1141    8    0    1
 -2       508       507       647      2333      2755      2756
 -1      1142    8    0    1
 -2       507       646       647      2753      2757      2755
 -1      1143    8    0    1
 -2       509       508       648      2336      2758      2759
 -1      1144    8    0    1
 -2       508       647       648      2756      2760      2758
 -1      1145    8    0    1
 -2       513       512       605      2348      2761      2762
 -1      1146    8    0    1
 -2       515       514       607      2354      2763      2764
 -1      1147    8    0    1
 -2       516       515       649      2357      2765      2766
 -1      1148    8    0    1
 -2       517       516       650      2360      2767      2768
 -1      1149    8    0    1
 -2       516       649       650      2766      2769      2767
 -1      1150    8    0    1
 -2       518       517       651      2363      2770      2771
 -1      1151    8    0    1
 -2       517       650       651      2768      2772      2770
 -1      1152    8    0    1
 -2       519       518       652      2366      2773      2774
 -1      1153    8    0    1
 -2       518       651       652      2771      2775      2773
 -1      1154    8    0    1
 -2       520       519       653      2369      2776      2777
 -1      1155    8    0    1
 -2       519       652       653      2774      2778      2776
 -1      1156    8    0    1
 -2       521       520       654      2372      2779      2780
 -1      1157    8    0    1
 -2       520       653       654      2777      2781      2779
 -1      1158    8    0    1
 -2       522       521       655      2375      2782      2783
 -1      1159    8    0    1
 -2       521       654       655      2780      2784      2782
 -1      1160    8    0    1
 -2       523       522       656      2378      2785      2786
 -1      1161    8    0    1
 -2       522       655       656      2783      2787      2785
 -1      1162    8    0    1
 -2       524       523       657      2381      2788      2789
 -1      1163    8    0    1
 -2       523       656       657      2786      2790      2788
 -1      1164    8    0    1
 -2       525       524       658      2384      2791      2792
 -1      1165    8    0    1
 -2       524       657       658      2789      2793      2791
 -1      1166    8    0    1
 -2       526       525       659      2387      2794      2795
 -1      1167    8    0    1
 -2       525       658       659      2792      2796      2794
 -1      1168    8    0    1
 -2       527       526       660      2390      2797      2798
 -1      1169    8    0    1
 -2       526       659       660      2795      2799      2797
 -1      1170    8    0    1
 -2       528       527       661      2393      2800      2801
 -1      1171    8    0    1
 -2       527       660       661      2798      2802      2800
 -1      1172    8    0    1
 -2       529       528       662      2396      2803      2804
 -1      1173    8    0    1
 -2       528       661       662      2801      2805      2803
 -1      1174    8    0    1
 -2       531       532       663      2404      2806      2807
 -1      1175    8    0    1
 -2       530       531       664      2401      2808      2809
 -1      1176    8    0    1
 -2       531       663       664      2807      2810      2808
 -1      1177    8    0    1
 -2       533       534       665      2410      2811      2812
 -1      1178    8    0    1
 -2       534       535       666      2413      2813      2814
 -1      1179    8    0    1
 -2       534       666       665      2814      2815      2811
 -1      1180    8    0    1
 -2       535       536       667      2416      2816      2817
 -1      1181    8    0    1
 -2       535       667       666      2817      2818      2813
 -1      1182    8    0    1
 -2       536       537       668      2419      2819      2820
 -1      1183    8    0    1
 -2       536       668       667      2820      2821      2816
 -1      1184    8    0    1
 -2       537       538       669      2422      2822      2823
 -1      1185    8    0    1
 -2       537       669       668      2823      2824      2819
 -1      1186    8    0    1
 -2       538       539       670      2425      2825      2826
 -1      1187    8    0    1
 -2       538       670       669      2826      2827      2822
 -1      1188    8    0    1
 -2       539       540       671      2428      2828      2829
 -1      1189    8    0    1
 -2       539       671       670      2829      2830      2825
 -1      1190    8    0    1
 -2       540       541       672      2431      2831      2832
 -1      1191    8    0    1
 -2       540       672       671      2832      2833      2828
 -1      1192    8    0    1
 -2       541       542       673      2434      2834      2835
 -1      1193    8    0    1
 -2       541       673       672      2835      2836      2831
 -1      1194    8    0    1
 -2       542       543       674      2437      2837      2838
 -1      1195    8    0    1
 -2       542       674       673      2838      2839      2834
 -1      1196    8    0    1
 -2       543       544       675      2440      2840      2841
 -1      1197    8    0    1
 -2       543       675       674      2841      2842      2837
 -1      1198    8    0    1
 -2       544       545       676      2443      2843      2844
 -1      1199    8    0    1
 -2       544       676       675      2844      2845      2840
 -1      1200    8    0    1
 -2       545       546       677      2446      2846      2847
 -1      1201    8    0    1
 -2       545       677       676      2847      2848      2843
 -1      1202    8    0    1
 -2       546       547       678      2449      2849      2850
 -1      1203    8    0    1
 -2       546       678       677      2850      2851      2846
 -1      1204    8    0    1
 -2       547       548       679      2452      2852      2853
 -1      1205    8    0    1
 -2       547       679       678      2853      2854      2849
 -1      1206    8    0    1
 -2       548       549       680      2455      2855      2856
 -1      1207    8    0    1
 -2       548       680       679      2856      2857      2852
 -1      1208    8    0    1
 -2       549       550       681      2458      2858      2859
 -1      1209    8    0    1
 -2       549       681       680      2859      2860      2855
 -1      1210    8    0    1
 -2       550       551       682      2461      2861      2862
 -1      1211    8    0    1
 -2       550       682       681      2862      2863      2858
 -1      1212    8    0    1
 -2       551       552       683      2464      2864      2865
 -1      1213    8    0    1
 -2       551       683       682      2865      2866      2861
 -1      1214    8    0    1
 -2       552       553       684      2467      2867      2868
 -1      1215    8    0    1
 -2       552       684       683      2868      2869      2864
 -1      1216    8    0    1
 -2       553       554       685      2470      2870      2871
 -1      1217    8    0    1
 -2       553       685       684      2871      2872      2867
 -1      1218    8    0    1
 -2       554       555       686      2473      2873      2874
 -1      1219    8    0    1
 -2       554       686       685      2874      2875      2870
 -1      1220    8    0    1
 -2       555       556       687      2476      2876      2877
 -1      1221    8    0    1
 -2       555       687       686      2877      2878      2873
 -1      1222    8    0    1
 -2       556       557       688      2479      2879      2880
 -1      1223    8    0    1
 -2       556       688       687      2880      2881      2876
 -1      1224    8    0    1
 -2       557       558       689      2482      2882      2883
 -1      1225    8    0    1
 -2       557       689       688      2883      2884      2879
 -1      1226    8    0    1
 -2       558       559       690      2485      2885      2886
 -1      1227    8    0    1
 -2       558       690       689      2886      2887      2882
 -1      1228    8    0    1
 -2       559       560       691      2488      2888      2889
 -1      1229    8    0    1
 -2       559       691       690      2889      2890      2885
 -1      1230    8    0    1
 -2       560       561       692      2491      2891      2892
 -1      1231    8    0    1
 -2       560       692       691      2892      2893      2888
 -1      1232    8    0    1
 -2       561       562       693      2494      2894      2895
 -1      1233    8    0    1
 -2       561       693       692      2895      2896      2891
 -1      1234    8    0    1
 -2       562       563       694      2497      2897      2898
 -1      1235    8    0    1
 -2       562       694       693      2898      2899      2894
 -1      1236    8    0    1
 -2       563       564       695      2500      2900      2901
 -1      1237    8    0    1
 -2       563       695       694      2901      2902      2897
 -1      1238    8    0    1
 -2       564       565       696      2503      2903      2904
 -1      1239    8    0    1
 -2       564       696       695      2904      2905      2900
 -1      1240    8    0    1
 -2       565       566       697      2506      2906      2907
 -1      1241    8    0    1
 -2       565       697       696      2907      2908      2903
 -1      1242    8    0    1
 -2       566       567       698      2509      2909      2910
 -1      1243    8    0    1
 -2       566       698       697      2910      2911      2906
 -1      1244    8    0    1
 -2       567       568       699      2512      2912      2913
 -1      1245    8    0    1
 -2       567       699       698      2913      2914      2909
 -1      1246    8    0    1
 -2       568       569       700      2515      2915      2916
 -1      1247    8    0    1
 -2       568       700       699      2916      2917      2912
 -1      1248    8    0    1
 -2       569       570       701      2518      2918      2919
 -1      1249    8    0    1
 -2       569       701       700      2919      2920      2915
 -1      1250    8    0    1
 -2       570       571       702      2521      2921      2922
 -1      1251    8    0    1
 -2       701       570       702      2918      2922      2923
 -1      1252    8    0    1
 -2       571       574       702      2674      2924      2921
 -1      1253    8    0    1
 -2       576       577       703      2539      2925      2926
 -1      1254    8    0    1
 -2       616       529       704      2675      2927      2928
 -1      1255    8    0    1
 -2       529       662       704      2804      2929      2927
 -1      1256    8    0    1
 -2       572       573       705      2527      2930      2931
 -1      1257    8    0    1
 -2       577       578       706      2542      2932      2933
 -1      1258    8    0    1
 -2       577       706       703      2933      2934      2925
 -1      1259    8    0    1
 -2       573       576       707      2536      2935      2936
 -1      1260    8    0    1
 -2       705       573       707      2930      2936      2937
 -1      1261    8    0    1
 -2       576       703       707      2926      2938      2935
 -1      1262    8    0    1
 -2       578       579       708      2545      2939      2940
 -1      1263    8    0    1
 -2       578       708       706      2940      2941      2932
 -1      1264    8    0    1
 -2       579       580       709      2548      2942      2943
 -1      1265    8    0    1
 -2       579       709       708      2943      2944      2939
 -1      1266    8    0    1
 -2       580       581       710      2551      2945      2946
 -1      1267    8    0    1
 -2       580       710       709      2946      2947      2942
 -1      1268    8    0    1
 -2       584       530       711      2560      2948      2949
 -1      1269    8    0    1
 -2       625       584       711      2690      2949      2950
 -1      1270    8    0    1
 -2       530       664       711      2809      2951      2948
 -1      1271    8    0    1
 -2       604       605       512      2647      2761      2952
 -1      1272    8    0    1
 -2       606       607       514      2640      2763      2953
 -1      1273    8    0    1
 -2       474       610       712      2639      2954      2955
 -1      1274    8    0    1
 -2       602       603       713      2659      2956      2957
 -1      1275    8    0    1
 -2       603       591       714      2655      2958      2959
 -1      1276    8    0    1
 -2       603       714       713      2959      2960      2956
 -1      1277    8    0    1
 -2       532       533       715      2407      2961      2962
 -1      1278    8    0    1
 -2       663       532       715      2806      2962      2963
 -1      1279    8    0    1
 -2       533       665       715      2812      2964      2961
 -1      1280    8    0    1
 -2       487       485       716      2270      2965      2966
 -1      1281    8    0    1
 -2       487       716       627      2966      2967      2696
 -1      1282    8    0    1
 -2       480       481       717      2254      2968      2969
 -1      1283    8    0    1
 -2       619       480       717      2676      2969      2970
 -1      1284    8    0    1
 -2       481       621       717      2682      2971      2968
 -1      1285    8    0    1
 -2       582       616       704      2650      2928      2972
 -1      1286    8    0    1
 -2       611       447       614      2637      2634      2973
 -1      1287    8    0    1
 -2       477       476       718      2243      2974      2975
 -1      1288    8    0    1
 -2       583       585       719      2656      2976      2977
 -1      1289    8    0    1
 -2       590       593       720      2672      2978      2979
 -1      1290    8    0    1
 -2       588       600       721      2670      2980      2981
 -1      1291    8    0    1
 -2       593       594       722      2669      2982      2983
 -1      1292    8    0    1
 -2       594       595       723      2668      2984      2985
 -1      1293    8    0    1
 -2       595       596       724      2667      2986      2987
 -1      1294    8    0    1
 -2       595       724       723      2987      2988      2984
 -1      1295    8    0    1
 -2       597       598       725      2591      2989      2990
 -1      1296    8    0    1
 -2       601       602       726      2661      2991      2992
 -1      1297    8    0    1
 -2       486       592       727      2671      2993      2994
 -1      1298    8    0    1
 -2       598       599       728      2663      2995      2996
 -1      1299    8    0    1
 -2       600       601       729      2662      2997      2998
 -1      1300    8    0    1
 -2       599       588       730      2660      2999      3000
 -1      1301    8    0    1
 -2       610       583       731      2641      3001      3002
 -1      1302    8    0    1
 -2       605       606       513      2609      3003      2762
 -1      1303    8    0    1
 -2       608       609       649      2616      3004      3005
 -1      1304    8    0    1
 -2       606       514       513      2953      2351      3003
 -1      1305    8    0    1
 -2       614       477       732      2632      3006      3007
 -1      1306    8    0    1
 -2       477       718       732      2975      3008      3006
 -1      1307    8    0    1
 -2       478       620       733      2679      3009      3010
 -1      1308    8    0    1
 -2       478       733       589      3010      3011      2572
 -1      1309    8    0    1
 -2       483       475       623      2693      2687      3012
 -1      1310    8    0    1
 -2       585       624       719      2689      3013      2976
 -1      1311    8    0    1
 -2       613       486       734      2630      3014      3015
 -1      1312    8    0    1
 -2       626       590       720      2694      2979      3016
 -1      1313    8    0    1
 -2       608       649       515      3005      2765      3017
 -1      1314    8    0    1
 -2       582       704       581      2972      3018      2554
 -1      1315    8    0    1
 -2       615       586       735      2644      3019      3020
 -1      1316    8    0    1
 -2       509       648       713      2759      3021      3022
 -1      1317    8    0    1
 -2       510       509       713      2339      3022      3023
 -1      1318    8    0    1
 -2       511       510       714      2342      3024      3025
 -1      1319    8    0    1
 -2       515       607       608      2764      2673      3017
 -1      1320    8    0    1
 -2       572       705       736      2931      3026      3027
 -1      1321    8    0    1
 -2       572       736       575      3027      3028      2533
 -1      1322    8    0    1
 -2       604       512       511      2952      2345      3029
 -1      1323    8    0    1
 -2       587       617       737      2654      3030      3031
 -1      1324    8    0    1
 -2       587       737       624      3031      3032      2688
 -1      1325    8    0    1
 -2       611       614       738      2973      3033      3034
 -1      1326    8    0    1
 -2       485       611       738      2621      3034      3035
 -1      1327    8    0    1
 -2       614       732       738      3007      3036      3033
 -1      1328    8    0    1
 -2       574       575       739      2532      3037      3038
 -1      1329    8    0    1
 -2       702       574       739      2924      3038      3039
 -1      1330    8    0    1
 -2       575       736       739      3028      3040      3037
 -1      1331    8    0    1
 -2       724       596       740      2986      3041      3042
 -1      1332    8    0    1
 -2       596       618       740      2665      3043      3041
 -1      1333    8    0    1
 -2       720       593       722      2978      2983      3044
 -1      1334    8    0    1
 -2       710       581       704      2945      3018      3045
 -1      1335    8    0    1
 -2       617       473       741      2652      3046      3047
 -1      1336    8    0    1
 -2       473       615       741      2643      3048      3046
 -1      1337    8    0    1
 -2       597       725       742      2990      3049      3050
 -1      1338    8    0    1
 -2       597       742       618      3050      3051      2666
 -1      1339    8    0    1
 -2       731       583       719      3001      2977      3052
 -1      1340    8    0    1
 -2       730       588       743      2999      3053      3054
 -1      1341    8    0    1
 -2       588       721       743      2981      3055      3053
 -1      1342    8    0    1
 -2       729       601       726      2997      2992      3056
 -1      1343    8    0    1
 -2       728       599       730      2995      3000      3057
 -1      1344    8    0    1
 -2       727       592       626      2993      2695      3058
 -1      1345    8    0    1
 -2       712       610       744      2954      3059      3060
 -1      1346    8    0    1
 -2       610       731       744      3002      3061      3059
 -1      1347    8    0    1
 -2       602       713       726      2957      3062      2991
 -1      1348    8    0    1
 -2       476       589       745      2571      3063      3064
 -1      1349    8    0    1
 -2       718       476       745      2974      3064      3065
 -1      1350    8    0    1
 -2       589       733       745      3011      3066      3063
 -1      1351    8    0    1
 -2       483       623       622      3012      3067      2683
 -1      1352    8    0    1
 -2       734       486       746      3014      3068      3069
 -1      1353    8    0    1
 -2       486       727       746      2994      3070      3068
 -1      1354    8    0    1
 -2       735       586       613      3019      2629      3071
 -1      1355    8    0    1
 -2       511       714       591      3025      2958      3072
 -1      1356    8    0    1
 -2       510       713       714      3023      2960      3024
 -1      1357    8    0    1
 -2       604       511       591      3029      3072      2604
 -1      1358    8    0    1
 -2       722       594       747      2982      3073      3074
 -1      1359    8    0    1
 -2       594       723       747      2985      3075      3073
 -1      1360    8    0    1
 -2       721       600       729      2980      2998      3076
 -1      1361    8    0    1
 -2       609       474       748      2638      3077      3078
 -1      1362    8    0    1
 -2       485       738       716      3035      3079      2965
 -1      1363    8    0    1
 -2       725       598       728      2989      2996      3080
 -1      1364    8    0    1
 -2       748       474       712      3077      2955      3081
 -1      1365    8    0    1
 -2       719       624       749      3013      3082      3083
 -1      1366    8    0    1
 -2       621       622       750      2685      3084      3085
 -1      1367    8    0    1
 -2       626       720       751      3016      3086      3087
 -1      1368    8    0    1
 -2       713       648       726      3021      3088      3062
 -1      1369    8    0    1
 -2       629       628       752      2703      3089      3090
 -1      1370    8    0    1
 -2       630       629       753      2706      3091      3092
 -1      1371    8    0    1
 -2       629       752       753      3090      3093      3091
 -1      1372    8    0    1
 -2       631       630       754      2709      3094      3095
 -1      1373    8    0    1
 -2       630       753       754      3092      3096      3094
 -1      1374    8    0    1
 -2       632       631       755      2712      3097      3098
 -1      1375    8    0    1
 -2       631       754       755      3095      3099      3097
 -1      1376    8    0    1
 -2       633       632       756      2715      3100      3101
 -1      1377    8    0    1
 -2       632       755       756      3098      3102      3100
 -1      1378    8    0    1
 -2       634       633       757      2718      3103      3104
 -1      1379    8    0    1
 -2       633       756       757      3101      3105      3103
 -1      1380    8    0    1
 -2       635       634       758      2721      3106      3107
 -1      1381    8    0    1
 -2       634       757       758      3104      3108      3106
 -1      1382    8    0    1
 -2       636       635       759      2724      3109      3110
 -1      1383    8    0    1
 -2       635       758       759      3107      3111      3109
 -1      1384    8    0    1
 -2       637       636       760      2727      3112      3113
 -1      1385    8    0    1
 -2       636       759       760      3110      3114      3112
 -1      1386    8    0    1
 -2       638       637       761      2730      3115      3116
 -1      1387    8    0    1
 -2       637       760       761      3113      3117      3115
 -1      1388    8    0    1
 -2       639       638       762      2733      3118      3119
 -1      1389    8    0    1
 -2       638       761       762      3116      3120      3118
 -1      1390    8    0    1
 -2       640       639       763      2736      3121      3122
 -1      1391    8    0    1
 -2       639       762       763      3119      3123      3121
 -1      1392    8    0    1
 -2       641       640       764      2739      3124      3125
 -1      1393    8    0    1
 -2       640       763       764      3122      3126      3124
 -1      1394    8    0    1
 -2       642       641       765      2742      3127      3128
 -1      1395    8    0    1
 -2       641       764       765      3125      3129      3127
 -1      1396    8    0    1
 -2       643       642       766      2745      3130      3131
 -1      1397    8    0    1
 -2       642       765       766      3128      3132      3130
 -1      1398    8    0    1
 -2       644       643       767      2748      3133      3134
 -1      1399    8    0    1
 -2       643       766       767      3131      3135      3133
 -1      1400    8    0    1
 -2       645       644       768      2751      3136      3137
 -1      1401    8    0    1
 -2       644       767       768      3134      3138      3136
 -1      1402    8    0    1
 -2       646       645       769      2754      3139      3140
 -1      1403    8    0    1
 -2       645       768       769      3137      3141      3139
 -1      1404    8    0    1
 -2       647       646       770      2757      3142      3143
 -1      1405    8    0    1
 -2       646       769       770      3140      3144      3142
 -1      1406    8    0    1
 -2       648       647       771      2760      3145      3146
 -1      1407    8    0    1
 -2       726       648       771      3088      3146      3147
 -1      1408    8    0    1
 -2       647       770       771      3143      3148      3145
 -1      1409    8    0    1
 -2       627       716       772      2967      3149      3150
 -1      1410    8    0    1
 -2       651       650       773      2772      3151      3152
 -1      1411    8    0    1
 -2       652       651       774      2775      3153      3154
 -1      1412    8    0    1
 -2       651       773       774      3152      3155      3153
 -1      1413    8    0    1
 -2       653       652       775      2778      3156      3157
 -1      1414    8    0    1
 -2       652       774       775      3154      3158      3156
 -1      1415    8    0    1
 -2       654       653       776      2781      3159      3160
 -1      1416    8    0    1
 -2       653       775       776      3157      3161      3159
 -1      1417    8    0    1
 -2       655       654       777      2784      3162      3163
 -1      1418    8    0    1
 -2       654       776       777      3160      3164      3162
 -1      1419    8    0    1
 -2       656       655       778      2787      3165      3166
 -1      1420    8    0    1
 -2       655       777       778      3163      3167      3165
 -1      1421    8    0    1
 -2       657       656       779      2790      3168      3169
 -1      1422    8    0    1
 -2       656       778       779      3166      3170      3168
 -1      1423    8    0    1
 -2       658       657       780      2793      3171      3172
 -1      1424    8    0    1
 -2       657       779       780      3169      3173      3171
 -1      1425    8    0    1
 -2       659       658       781      2796      3174      3175
 -1      1426    8    0    1
 -2       658       780       781      3172      3176      3174
 -1      1427    8    0    1
 -2       660       659       782      2799      3177      3178
 -1      1428    8    0    1
 -2       659       781       782      3175      3179      3177
 -1      1429    8    0    1
 -2       661       660       783      2802      3180      3181
 -1      1430    8    0    1
 -2       660       782       783      3178      3182      3180
 -1      1431    8    0    1
 -2       662       661       784      2805      3183      3184
 -1      1432    8    0    1
 -2       661       783       784      3181      3185      3183
 -1      1433    8    0    1
 -2       725       728       785      3080      3186      3187
 -1      1434    8    0    1
 -2       666       667       786      2818      3188      3189
 -1      1435    8    0    1
 -2       665       666       787      2815      3190      3191
 -1      1436    8    0    1
 -2       666       786       787      3189      3192      3190
 -1      1437    8    0    1
 -2       668       669       788      2824      3193      3194
 -1      1438    8    0    1
 -2       669       670       789      2827      3195      3196
 -1      1439    8    0    1
 -2       669       789       788      3196      3197      3193
 -1      1440    8    0    1
 -2       670       671       790      2830      3198      3199
 -1      1441    8    0    1
 -2       670       790       789      3199      3200      3195
 -1      1442    8    0    1
 -2       671       672       791      2833      3201      3202
 -1      1443    8    0    1
 -2       671       791       790      3202      3203      3198
 -1      1444    8    0    1
 -2       672       673       792      2836      3204      3205
 -1      1445    8    0    1
 -2       672       792       791      3205      3206      3201
 -1      1446    8    0    1
 -2       673       674       793      2839      3207      3208
 -1      1447    8    0    1
 -2       673       793       792      3208      3209      3204
 -1      1448    8    0    1
 -2       674       675       794      2842      3210      3211
 -1      1449    8    0    1
 -2       674       794       793      3211      3212      3207
 -1      1450    8    0    1
 -2       675       676       795      2845      3213      3214
 -1      1451    8    0    1
 -2       675       795       794      3214      3215      3210
 -1      1452    8    0    1
 -2       676       677       796      2848      3216      3217
 -1      1453    8    0    1
 -2       676       796       795      3217      3218      3213
 -1      1454    8    0    1
 -2       677       678       797      2851      3219      3220
 -1      1455    8    0    1
 -2       677       797       796      3220      3221      3216
 -1      1456    8    0    1
 -2       678       679       798      2854      3222      3223
 -1      1457    8    0    1
 -2       678       798       797      3223      3224      3219
 -1      1458    8    0    1
 -2       679       680       799      2857      3225      3226
 -1      1459    8    0    1
 -2       679       799       798      3226      3227      3222
 -1      1460    8    0    1
 -2       680       681       800      2860      3228      3229
 -1      1461    8    0    1
 -2       680       800       799      3229      3230      3225
 -1      1462    8    0    1
 -2       681       682       801      2863      3231      3232
 -1      1463    8    0    1
 -2       681       801       800      3232      3233      3228
 -1      1464    8    0    1
 -2       682       683       802      2866      3234      3235
 -1      1465    8    0    1
 -2       682       802       801      3235      3236      3231
 -1      1466    8    0    1
 -2       683       684       803      2869      3237      3238
 -1      1467    8    0    1
 -2       683       803       802      3238      3239      3234
 -1      1468    8    0    1
 -2       684       685       804      2872      3240      3241
 -1      1469    8    0    1
 -2       684       804       803      3241      3242      3237
 -1      1470    8    0    1
 -2       685       686       805      2875      3243      3244
 -1      1471    8    0    1
 -2       685       805       804      3244      3245      3240
 -1      1472    8    0    1
 -2       686       687       806      2878      3246      3247
 -1      1473    8    0    1
 -2       686       806       805      3247      3248      3243
 -1      1474    8    0    1
 -2       687       688       807      2881      3249      3250
 -1      1475    8    0    1
 -2       687       807       806      3250      3251      3246
 -1      1476    8    0    1
 -2       688       689       808      2884      3252      3253
 -1      1477    8    0    1
 -2       688       808       807      3253      3254      3249
 -1      1478    8    0    1
 -2       689       690       809      2887      3255      3256
 -1      1479    8    0    1
 -2       689       809       808      3256      3257      3252
 -1      1480    8    0    1
 -2       690       691       810      2890      3258      3259
 -1      1481    8    0    1
 -2       690       810       809      3259      3260      3255
 -1      1482    8    0    1
 -2       691       692       811      2893      3261      3262
 -1      1483    8    0    1
 -2       691       811       810      3262      3263      3258
 -1      1484    8    0    1
 -2       692       693       812      2896      3264      3265
 -1      1485    8    0    1
 -2       692       812       811      3265      3266      3261
 -1      1486    8    0    1
 -2       693       694       813      2899      3267      3268
 -1      1487    8    0    1
 -2       693       813       812      3268      3269      3264
 -1      1488    8    0    1
 -2       694       695       814      2902      3270      3271
 -1      1489    8    0    1
 -2       694       814       813      3271      3272      3267
 -1      1490    8    0    1
 -2       695       696       815      2905      3273      3274
 -1      1491    8    0    1
 -2       695       815       814      3274      3275      3270
 -1      1492    8    0    1
 -2       696       697       816      2908      3276      3277
 -1      1493    8    0    1
 -2       696       816       815      3277      3278      3273
 -1      1494    8    0    1
 -2       697       698       817      2911      3279      3280
 -1      1495    8    0    1
 -2       697       817       816      3280      3281      3276
 -1      1496    8    0    1
 -2       698       699       818      2914      3282      3283
 -1      1497    8    0    1
 -2       698       818       817      3283      3284      3279
 -1      1498    8    0    1
 -2       699       700       819      2917      3285      3286
 -1      1499    8    0    1
 -2       699       819       818      3286      3287      3282
 -1      1500    8    0    1
 -2       700       701       820      2920      3288      3289
 -1      1501    8    0    1
 -2       700       820       819      3289      3290      3285
 -1      1502    8    0    1
 -2       701       702       821      2923      3291      3292
 -1      1503    8    0    1
 -2       820       701       821      3288      3292      3293
 -1      1504    8    0    1
 -2       702       739       821      3039      3294      3291
 -1      1505    8    0    1
 -2       620       619       822      2680      3295      3296
 -1      1506    8    0    1
 -2       709       710       823      2947      3297      3298
 -1      1507    8    0    1
 -2       703       706       824      2934      3299      3300
 -1      1508    8    0    1
 -2       615       735       825      3020      3301      3302
 -1      1509    8    0    1
 -2       615       825       741      3302      3303      3048
 -1      1510    8    0    1
 -2       708       709       826      2944      3304      3305
 -1      1511    8    0    1
 -2       709       823       826      3298      3306      3304
 -1      1512    8    0    1
 -2       667       668       827      2821      3307      3308
 -1      1513    8    0    1
 -2       786       667       827      3188      3308      3309
 -1      1514    8    0    1
 -2       668       788       827      3194      3310      3307
 -1      1515    8    0    1
 -2       731       719       828      3052      3311      3312
 -1      1516    8    0    1
 -2       720       722       829      3044      3313      3314
 -1      1517    8    0    1
 -2       664       663       830      2810      3315      3316
 -1      1518    8    0    1
 -2       622       623       831      3067      3317      3318
 -1      1519    8    0    1
 -2       750       622       831      3084      3318      3319
 -1      1520    8    0    1
 -2       623       625       831      2692      3320      3317
 -1      1521    8    0    1
 -2       628       627       832      2700      3321      3322
 -1      1522    8    0    1
 -2       628       832       752      3322      3323      3089
 -1      1523    8    0    1
 -2       613       734       735      3015      3324      3071
 -1      1524    8    0    1
 -2       716       738       833      3079      3325      3326
 -1      1525    8    0    1
 -2       738       732       833      3036      3327      3325
 -1      1526    8    0    1
 -2       729       726       771      3056      3147      3328
 -1      1527    8    0    1
 -2       721       729       834      3076      3329      3330
 -1      1528    8    0    1
 -2       729       771       834      3328      3331      3329
 -1      1529    8    0    1
 -2       723       724       835      2988      3332      3333
 -1      1530    8    0    1
 -2       728       730       836      3057      3334      3335
 -1      1531    8    0    1
 -2       748       712       773      3081      3336      3337
 -1      1532    8    0    1
 -2       609       748       837      3078      3338      3339
 -1      1533    8    0    1
 -2       727       626       838      3058      3340      3341
 -1      1534    8    0    1
 -2       649       609       837      3004      3339      3342
 -1      1535    8    0    1
 -2       706       708       839      2941      3343      3344
 -1      1536    8    0    1
 -2       824       706       839      3299      3344      3345
 -1      1537    8    0    1
 -2       708       826       839      3305      3346      3343
 -1      1538    8    0    1
 -2       735       734       840      3324      3347      3348
 -1      1539    8    0    1
 -2       733       620       841      3009      3349      3350
 -1      1540    8    0    1
 -2       620       822       841      3296      3351      3349
 -1      1541    8    0    1
 -2       621       750       842      3085      3352      3353
 -1      1542    8    0    1
 -2       621       842       717      3353      3354      2971
 -1      1543    8    0    1
 -2       626       751       838      3087      3355      3340
 -1      1544    8    0    1
 -2       831       625       843      3320      3356      3357
 -1      1545    8    0    1
 -2       625       711       843      2950      3358      3356
 -1      1546    8    0    1
 -2       772       716       833      3149      3326      3359
 -1      1547    8    0    1
 -2       619       717       844      2970      3360      3361
 -1      1548    8    0    1
 -2       822       619       844      3295      3361      3362
 -1      1549    8    0    1
 -2       717       842       844      3354      3363      3360
 -1      1550    8    0    1
 -2       830       663       845      3315      3364      3365
 -1      1551    8    0    1
 -2       663       715       845      2963      3366      3364
 -1      1552    8    0    1
 -2       825       735       846      3301      3367      3368
 -1      1553    8    0    1
 -2       735       840       846      3348      3369      3367
 -1      1554    8    0    1
 -2       721       834       743      3330      3370      3055
 -1      1555    8    0    1
 -2       773       650       748      3151      3371      3337
 -1      1556    8    0    1
 -2       828       719       749      3311      3083      3372
 -1      1557    8    0    1
 -2       624       737       847      3032      3373      3374
 -1      1558    8    0    1
 -2       624       847       749      3374      3375      3082
 -1      1559    8    0    1
 -2       732       718       848      3008      3376      3377
 -1      1560    8    0    1
 -2       732       848       833      3377      3378      3327
 -1      1561    8    0    1
 -2       725       785       849      3187      3379      3380
 -1      1562    8    0    1
 -2       725       849       742      3380      3381      3049
 -1      1563    8    0    1
 -2       785       728       836      3186      3335      3382
 -1      1564    8    0    1
 -2       731       828       850      3312      3383      3384
 -1      1565    8    0    1
 -2       731       850       744      3384      3385      3061
 -1      1566    8    0    1
 -2       737       617       851      3030      3386      3387
 -1      1567    8    0    1
 -2       617       741       851      3047      3388      3386
 -1      1568    8    0    1
 -2       723       835       747      3333      3389      3075
 -1      1569    8    0    1
 -2       665       787       852      3191      3390      3391
 -1      1570    8    0    1
 -2       665       852       715      3391      3392      2964
 -1      1571    8    0    1
 -2       823       710       784      3297      3393      3394
 -1      1572    8    0    1
 -2       705       707       853      2937      3395      3396
 -1      1573    8    0    1
 -2       740       618       742      3043      3051      3397
 -1      1574    8    0    1
 -2       704       662       710      2929      3398      3045
 -1      1575    8    0    1
 -2       703       824       854      3300      3399      3400
 -1      1576    8    0    1
 -2       703       854       707      3400      3401      2938
 -1      1577    8    0    1
 -2       711       664       855      2951      3402      3403
 -1      1578    8    0    1
 -2       843       711       855      3358      3403      3404
 -1      1579    8    0    1
 -2       664       830       855      3316      3405      3402
 -1      1580    8    0    1
 -2       710       662       784      3398      3184      3393
 -1      1581    8    0    1
 -2       848       718       856      3376      3406      3407
 -1      1582    8    0    1
 -2       718       745       856      3065      3408      3406
 -1      1583    8    0    1
 -2       705       853       857      3396      3409      3410
 -1      1584    8    0    1
 -2       705       857       736      3410      3411      3026
 -1      1585    8    0    1
 -2       829       722       747      3313      3074      3412
 -1      1586    8    0    1
 -2       720       829       751      3314      3413      3086
 -1      1587    8    0    1
 -2       773       712       744      3336      3060      3414
 -1      1588    8    0    1
 -2       840       734       858      3347      3415      3416
 -1      1589    8    0    1
 -2       734       746       858      3069      3417      3415
 -1      1590    8    0    1
 -2       836       730       859      3334      3418      3419
 -1      1591    8    0    1
 -2       730       743       859      3054      3420      3418
 -1      1592    8    0    1
 -2       724       740       835      3042      3421      3332
 -1      1593    8    0    1
 -2       832       627       772      3321      3150      3422
 -1      1594    8    0    1
 -2       752       832       860      3323      3423      3424
 -1      1595    8    0    1
 -2       790       791       861      3203      3425      3426
 -1      1596    8    0    1
 -2       754       753       862      3096      3427      3428
 -1      1597    8    0    1
 -2       755       754       863      3099      3429      3430
 -1      1598    8    0    1
 -2       754       862       863      3428      3431      3429
 -1      1599    8    0    1
 -2       756       755       864      3102      3432      3433
 -1      1600    8    0    1
 -2       755       863       864      3430      3434      3432
 -1      1601    8    0    1
 -2       757       756       865      3105      3435      3436
 -1      1602    8    0    1
 -2       756       864       865      3433      3437      3435
 -1      1603    8    0    1
 -2       758       757       866      3108      3438      3439
 -1      1604    8    0    1
 -2       757       865       866      3436      3440      3438
 -1      1605    8    0    1
 -2       759       758       867      3111      3441      3442
 -1      1606    8    0    1
 -2       758       866       867      3439      3443      3441
 -1      1607    8    0    1
 -2       760       759       868      3114      3444      3445
 -1      1608    8    0    1
 -2       759       867       868      3442      3446      3444
 -1      1609    8    0    1
 -2       761       760       869      3117      3447      3448
 -1      1610    8    0    1
 -2       760       868       869      3445      3449      3447
 -1      1611    8    0    1
 -2       762       761       870      3120      3450      3451
 -1      1612    8    0    1
 -2       761       869       870      3448      3452      3450
 -1      1613    8    0    1
 -2       763       762       871      3123      3453      3454
 -1      1614    8    0    1
 -2       762       870       871      3451      3455      3453
 -1      1615    8    0    1
 -2       764       763       872      3126      3456      3457
 -1      1616    8    0    1
 -2       763       871       872      3454      3458      3456
 -1      1617    8    0    1
 -2       765       764       873      3129      3459      3460
 -1      1618    8    0    1
 -2       764       872       873      3457      3461      3459
 -1      1619    8    0    1
 -2       766       765       874      3132      3462      3463
 -1      1620    8    0    1
 -2       765       873       874      3460      3464      3462
 -1      1621    8    0    1
 -2       767       766       875      3135      3465      3466
 -1      1622    8    0    1
 -2       766       874       875      3463      3467      3465
 -1      1623    8    0    1
 -2       768       767       876      3138      3468      3469
 -1      1624    8    0    1
 -2       767       875       876      3466      3470      3468
 -1      1625    8    0    1
 -2       769       768       877      3141      3471      3472
 -1      1626    8    0    1
 -2       768       876       877      3469      3473      3471
 -1      1627    8    0    1
 -2       770       769       878      3144      3474      3475
 -1      1628    8    0    1
 -2       769       877       878      3472      3476      3474
 -1      1629    8    0    1
 -2       771       770       834      3148      3477      3331
 -1      1630    8    0    1
 -2       775       774       879      3158      3478      3479
 -1      1631    8    0    1
 -2       776       775       880      3161      3480      3481
 -1      1632    8    0    1
 -2       775       879       880      3479      3482      3480
 -1      1633    8    0    1
 -2       777       776       881      3164      3483      3484
 -1      1634    8    0    1
 -2       776       880       881      3481      3485      3483
 -1      1635    8    0    1
 -2       778       777       882      3167      3486      3487
 -1      1636    8    0    1
 -2       777       881       882      3484      3488      3486
 -1      1637    8    0    1
 -2       779       778       883      3170      3489      3490
 -1      1638    8    0    1
 -2       778       882       883      3487      3491      3489
 -1      1639    8    0    1
 -2       780       779       884      3173      3492      3493
 -1      1640    8    0    1
 -2       779       883       884      3490      3494      3492
 -1      1641    8    0    1
 -2       781       780       885      3176      3495      3496
 -1      1642    8    0    1
 -2       780       884       885      3493      3497      3495
 -1      1643    8    0    1
 -2       782       781       886      3179      3498      3499
 -1      1644    8    0    1
 -2       781       885       886      3496      3500      3498
 -1      1645    8    0    1
 -2       783       782       887      3182      3501      3502
 -1      1646    8    0    1
 -2       782       886       887      3499      3503      3501
 -1      1647    8    0    1
 -2       784       783       888      3185      3504      3505
 -1      1648    8    0    1
 -2       823       784       888      3394      3505      3506
 -1      1649    8    0    1
 -2       783       887       888      3502      3507      3504
 -1      1650    8    0    1
 -2       853       707       854      3395      3401      3508
 -1      1651    8    0    1
 -2       789       790       889      3200      3509      3510
 -1      1652    8    0    1
 -2       790       861       889      3426      3511      3509
 -1      1653    8    0    1
 -2       788       789       890      3197      3512      3513
 -1      1654    8    0    1
 -2       789       889       890      3510      3514      3512
 -1      1655    8    0    1
 -2       791       792       891      3206      3515      3516
 -1      1656    8    0    1
 -2       791       891       861      3516      3517      3425
 -1      1657    8    0    1
 -2       792       793       892      3209      3518      3519
 -1      1658    8    0    1
 -2       792       892       891      3519      3520      3515
 -1      1659    8    0    1
 -2       793       794       893      3212      3521      3522
 -1      1660    8    0    1
 -2       793       893       892      3522      3523      3518
 -1      1661    8    0    1
 -2       794       795       894      3215      3524      3525
 -1      1662    8    0    1
 -2       794       894       893      3525      3526      3521
 -1      1663    8    0    1
 -2       795       796       895      3218      3527      3528
 -1      1664    8    0    1
 -2       795       895       894      3528      3529      3524
 -1      1665    8    0    1
 -2       796       797       896      3221      3530      3531
 -1      1666    8    0    1
 -2       796       896       895      3531      3532      3527
 -1      1667    8    0    1
 -2       797       798       897      3224      3533      3534
 -1      1668    8    0    1
 -2       797       897       896      3534      3535      3530
 -1      1669    8    0    1
 -2       798       799       898      3227      3536      3537
 -1      1670    8    0    1
 -2       798       898       897      3537      3538      3533
 -1      1671    8    0    1
 -2       799       800       899      3230      3539      3540
 -1      1672    8    0    1
 -2       799       899       898      3540      3541      3536
 -1      1673    8    0    1
 -2       800       801       900      3233      3542      3543
 -1      1674    8    0    1
 -2       800       900       899      3543      3544      3539
 -1      1675    8    0    1
 -2       801       802       901      3236      3545      3546
 -1      1676    8    0    1
 -2       801       901       900      3546      3547      3542
 -1      1677    8    0    1
 -2       803       804       829      3242      3548      3549
 -1      1678    8    0    1
 -2       804       805       751      3245      3550      3551
 -1      1679    8    0    1
 -2       805       806       838      3248      3552      3553
 -1      1680    8    0    1
 -2       806       807       746      3251      3554      3555
 -1      1681    8    0    1
 -2       808       809       902      3257      3556      3557
 -1      1682    8    0    1
 -2       809       810       903      3260      3558      3559
 -1      1683    8    0    1
 -2       809       903       902      3559      3560      3556
 -1      1684    8    0    1
 -2       810       811       904      3263      3561      3562
 -1      1685    8    0    1
 -2       810       904       903      3562      3563      3558
 -1      1686    8    0    1
 -2       811       812       905      3266      3564      3565
 -1      1687    8    0    1
 -2       811       905       904      3565      3566      3561
 -1      1688    8    0    1
 -2       812       813       906      3269      3567      3568
 -1      1689    8    0    1
 -2       812       906       905      3568      3569      3564
 -1      1690    8    0    1
 -2       813       814       907      3272      3570      3571
 -1      1691    8    0    1
 -2       813       907       906      3571      3572      3567
 -1      1692    8    0    1
 -2       814       815       908      3275      3573      3574
 -1      1693    8    0    1
 -2       814       908       907      3574      3575      3570
 -1      1694    8    0    1
 -2       815       816       909      3278      3576      3577
 -1      1695    8    0    1
 -2       815       909       908      3577      3578      3573
 -1      1696    8    0    1
 -2       816       817       910      3281      3579      3580
 -1      1697    8    0    1
 -2       816       910       909      3580      3581      3576
 -1      1698    8    0    1
 -2       817       818       911      3284      3582      3583
 -1      1699    8    0    1
 -2       817       911       910      3583      3584      3579
 -1      1700    8    0    1
 -2       818       819       912      3287      3585      3586
 -1      1701    8    0    1
 -2       818       912       911      3586      3587      3582
 -1      1702    8    0    1
 -2       819       820       913      3290      3588      3589
 -1      1703    8    0    1
 -2       819       913       912      3589      3590      3585
 -1      1704    8    0    1
 -2       740       742       914      3397      3591      3592
 -1      1705    8    0    1
 -2       741       825       915      3303      3593      3594
 -1      1706    8    0    1
 -2       741       915       851      3594      3595      3388
 -1      1707    8    0    1
 -2       772       833       916      3359      3596      3597
 -1      1708    8    0    1
 -2       832       772       916      3422      3597      3598
 -1      1709    8    0    1
 -2       833       848       916      3378      3599      3596
 -1      1710    8    0    1
 -2       743       834       917      3370      3600      3601
 -1      1711    8    0    1
 -2       826       823       918      3306      3602      3603
 -1      1712    8    0    1
 -2       823       888       918      3506      3604      3602
 -1      1713    8    0    1
 -2       785       836       919      3382      3605      3606
 -1      1714    8    0    1
 -2       748       650       837      3371      3607      3338
 -1      1715    8    0    1
 -2       745       733       920      3066      3608      3609
 -1      1716    8    0    1
 -2       856       745       920      3408      3609      3610
 -1      1717    8    0    1
 -2       733       841       920      3350      3611      3608
 -1      1718    8    0    1
 -2       787       786       921      3192      3612      3613
 -1      1719    8    0    1
 -2       750       831       922      3319      3614      3615
 -1      1720    8    0    1
 -2       831       843       922      3357      3616      3614
 -1      1721    8    0    1
 -2       650       649       837      2769      3342      3607
 -1      1722    8    0    1
 -2       747       835       923      3389      3617      3618
 -1      1723    8    0    1
 -2       746       727       838      3070      3341      3619
 -1      1724    8    0    1
 -2       751       805       838      3550      3553      3355
 -1      1725    8    0    1
 -2       753       752       924      3093      3620      3621
 -1      1726    8    0    1
 -2       753       924       862      3621      3622      3427
 -1      1727    8    0    1
 -2       835       740       925      3421      3623      3624
 -1      1728    8    0    1
 -2       740       914       925      3592      3625      3623
 -1      1729    8    0    1
 -2       829       747       803      3412      3626      3549
 -1      1730    8    0    1
 -2       828       749       926      3372      3627      3628
 -1      1731    8    0    1
 -2       751       829       804      3413      3548      3551
 -1      1732    8    0    1
 -2       739       736       927      3040      3629      3630
 -1      1733    8    0    1
 -2       821       739       927      3294      3630      3631
 -1      1734    8    0    1
 -2       736       857       927      3411      3632      3629
 -1      1735    8    0    1
 -2       834       770       878      3477      3475      3633
 -1      1736    8    0    1
 -2       838       806       746      3552      3555      3619
 -1      1737    8    0    1
 -2       803       747       802      3626      3634      3239
 -1      1738    8    0    1
 -2       842       750       922      3352      3615      3635
 -1      1739    8    0    1
 -2       788       890       928      3513      3636      3637
 -1      1740    8    0    1
 -2       788       928       827      3637      3638      3310
 -1      1741    8    0    1
 -2       787       921       929      3613      3639      3640
 -1      1742    8    0    1
 -2       787       929       852      3640      3641      3390
 -1      1743    8    0    1
 -2       846       840       930      3369      3642      3643
 -1      1744    8    0    1
 -2       840       858       930      3416      3644      3642
 -1      1745    8    0    1
 -2       879       774       850      3478      3645      3646
 -1      1746    8    0    1
 -2       847       737       931      3373      3647      3648
 -1      1747    8    0    1
 -2       737       851       931      3387      3649      3647
 -1      1748    8    0    1
 -2       857       853       932      3409      3650      3651
 -1      1749    8    0    1
 -2       849       785       933      3379      3652      3653
 -1      1750    8    0    1
 -2       785       919       933      3606      3654      3652
 -1      1751    8    0    1
 -2       921       786       934      3612      3655      3656
 -1      1752    8    0    1
 -2       786       827       934      3309      3657      3655
 -1      1753    8    0    1
 -2       850       828       935      3383      3658      3659
 -1      1754    8    0    1
 -2       828       926       935      3628      3660      3658
 -1      1755    8    0    1
 -2       832       916       860      3598      3661      3423
 -1      1756    8    0    1
 -2       848       856       936      3407      3662      3663
 -1      1757    8    0    1
 -2       924       752       860      3620      3424      3664
 -1      1758    8    0    1
 -2       807       808       937      3254      3665      3666
 -1      1759    8    0    1
 -2       914       742       938      3591      3667      3668
 -1      1760    8    0    1
 -2       742       849       938      3381      3669      3667
 -1      1761    8    0    1
 -2       820       821       927      3293      3631      3670
 -1      1762    8    0    1
 -2       845       715       852      3366      3392      3671
 -1      1763    8    0    1
 -2       854       824       939      3399      3672      3673
 -1      1764    8    0    1
 -2       855       830       940      3405      3674      3675
 -1      1765    8    0    1
 -2       916       848       936      3599      3663      3676
 -1      1766    8    0    1
 -2       826       918       941      3603      3677      3678
 -1      1767    8    0    1
 -2       826       941       839      3678      3679      3346
 -1      1768    8    0    1
 -2       919       836       942      3605      3680      3681
 -1      1769    8    0    1
 -2       836       859       942      3419      3682      3680
 -1      1770    8    0    1
 -2       825       846       943      3368      3683      3684
 -1      1771    8    0    1
 -2       825       943       915      3684      3685      3593
 -1      1772    8    0    1
 -2       749       847       944      3375      3686      3687
 -1      1773    8    0    1
 -2       749       944       926      3687      3688      3627
 -1      1774    8    0    1
 -2       774       773       850      3155      3689      3645
 -1      1775    8    0    1
 -2       859       743       917      3420      3601      3690
 -1      1776    8    0    1
 -2       820       927       913      3670      3691      3588
 -1      1777    8    0    1
 -2       853       854       945      3508      3692      3693
 -1      1778    8    0    1
 -2       932       853       945      3650      3693      3694
 -1      1779    8    0    1
 -2       854       939       945      3673      3695      3692
 -1      1780    8    0    1
 -2       822       844       946      3362      3696      3697
 -1      1781    8    0    1
 -2       824       839       947      3345      3698      3699
 -1      1782    8    0    1
 -2       939       824       947      3672      3699      3700
 -1      1783    8    0    1
 -2       839       941       947      3679      3701      3698
 -1      1784    8    0    1
 -2       822       946       948      3697      3702      3703
 -1      1785    8    0    1
 -2       822       948       841      3703      3704      3351
 -1      1786    8    0    1
 -2       830       845       949      3365      3705      3706
 -1      1787    8    0    1
 -2       830       949       940      3706      3707      3674
 -1      1788    8    0    1
 -2       937       808       902      3665      3557      3708
 -1      1789    8    0    1
 -2       844       842       950      3363      3709      3710
 -1      1790    8    0    1
 -2       844       950       946      3710      3711      3696
 -1      1791    8    0    1
 -2       859       917       951      3690      3712      3713
 -1      1792    8    0    1
 -2       864       863       952      3434      3714      3715
 -1      1793    8    0    1
 -2       865       864       953      3437      3716      3717
 -1      1794    8    0    1
 -2       864       952       953      3715      3718      3716
 -1      1795    8    0    1
 -2       866       865       954      3440      3719      3720
 -1      1796    8    0    1
 -2       865       953       954      3717      3721      3719
 -1      1797    8    0    1
 -2       867       866       955      3443      3722      3723
 -1      1798    8    0    1
 -2       866       954       955      3720      3724      3722
 -1      1799    8    0    1
 -2       868       867       956      3446      3725      3726
 -1      1800    8    0    1
 -2       867       955       956      3723      3727      3725
 -1      1801    8    0    1
 -2       869       868       957      3449      3728      3729
 -1      1802    8    0    1
 -2       868       956       957      3726      3730      3728
 -1      1803    8    0    1
 -2       870       869       958      3452      3731      3732
 -1      1804    8    0    1
 -2       869       957       958      3729      3733      3731
 -1      1805    8    0    1
 -2       871       870       959      3455      3734      3735
 -1      1806    8    0    1
 -2       870       958       959      3732      3736      3734
 -1      1807    8    0    1
 -2       872       871       960      3458      3737      3738
 -1      1808    8    0    1
 -2       871       959       960      3735      3739      3737
 -1      1809    8    0    1
 -2       873       872       961      3461      3740      3741
 -1      1810    8    0    1
 -2       872       960       961      3738      3742      3740
 -1      1811    8    0    1
 -2       874       873       962      3464      3743      3744
 -1      1812    8    0    1
 -2       873       961       962      3741      3745      3743
 -1      1813    8    0    1
 -2       875       874       963      3467      3746      3747
 -1      1814    8    0    1
 -2       874       962       963      3744      3748      3746
 -1      1815    8    0    1
 -2       876       875       964      3470      3749      3750
 -1      1816    8    0    1
 -2       875       963       964      3747      3751      3749
 -1      1817    8    0    1
 -2       877       876       965      3473      3752      3753
 -1      1818    8    0    1
 -2       876       964       965      3750      3754      3752
 -1      1819    8    0    1
 -2       880       879       966      3482      3755      3756
 -1      1820    8    0    1
 -2       881       880       967      3485      3757      3758
 -1      1821    8    0    1
 -2       880       966       967      3756      3759      3757
 -1      1822    8    0    1
 -2       882       881       968      3488      3760      3761
 -1      1823    8    0    1
 -2       881       967       968      3758      3762      3760
 -1      1824    8    0    1
 -2       883       882       969      3491      3763      3764
 -1      1825    8    0    1
 -2       882       968       969      3761      3765      3763
 -1      1826    8    0    1
 -2       884       883       970      3494      3766      3767
 -1      1827    8    0    1
 -2       883       969       970      3764      3768      3766
 -1      1828    8    0    1
 -2       885       884       971      3497      3769      3770
 -1      1829    8    0    1
 -2       884       970       971      3767      3771      3769
 -1      1830    8    0    1
 -2       886       885       972      3500      3772      3773
 -1      1831    8    0    1
 -2       885       971       972      3770      3774      3772
 -1      1832    8    0    1
 -2       887       886       973      3503      3775      3776
 -1      1833    8    0    1
 -2       886       972       973      3773      3777      3775
 -1      1834    8    0    1
 -2       888       887       974      3507      3778      3779
 -1      1835    8    0    1
 -2       918       888       974      3604      3779      3780
 -1      1836    8    0    1
 -2       887       973       974      3776      3781      3778
 -1      1837    8    0    1
 -2       936       856       975      3662      3782      3783
 -1      1838    8    0    1
 -2       856       920       975      3610      3784      3782
 -1      1839    8    0    1
 -2       889       861       976      3511      3785      3786
 -1      1840    8    0    1
 -2       924       860       977      3664      3787      3788
 -1      1841    8    0    1
 -2       890       889       978      3514      3789      3790
 -1      1842    8    0    1
 -2       889       976       978      3786      3791      3789
 -1      1843    8    0    1
 -2       892       893       979      3523      3792      3793
 -1      1844    8    0    1
 -2       893       894       980      3526      3794      3795
 -1      1845    8    0    1
 -2       893       980       979      3795      3796      3792
 -1      1846    8    0    1
 -2       894       895       981      3529      3797      3798
 -1      1847    8    0    1
 -2       894       981       980      3798      3799      3794
 -1      1848    8    0    1
 -2       895       896       982      3532      3800      3801
 -1      1849    8    0    1
 -2       895       982       981      3801      3802      3797
 -1      1850    8    0    1
 -2       896       897       983      3535      3803      3804
 -1      1851    8    0    1
 -2       896       983       982      3804      3805      3800
 -1      1852    8    0    1
 -2       897       898       984      3538      3806      3807
 -1      1853    8    0    1
 -2       897       984       983      3807      3808      3803
 -1      1854    8    0    1
 -2       898       899       985      3541      3809      3810
 -1      1855    8    0    1
 -2       898       985       984      3810      3811      3806
 -1      1856    8    0    1
 -2       900       901       925      3547      3812      3813
 -1      1857    8    0    1
 -2       860       916       936      3661      3676      3814
 -1      1858    8    0    1
 -2       927       857       913      3632      3815      3691
 -1      1859    8    0    1
 -2       842       922       950      3635      3816      3709
 -1      1860    8    0    1
 -2       845       852       986      3671      3817      3818
 -1      1861    8    0    1
 -2       852       929       986      3641      3819      3817
 -1      1862    8    0    1
 -2       902       903       943      3560      3820      3821
 -1      1863    8    0    1
 -2       905       906       987      3569      3822      3823
 -1      1864    8    0    1
 -2       906       907       988      3572      3824      3825
 -1      1865    8    0    1
 -2       906       988       987      3825      3826      3822
 -1      1866    8    0    1
 -2       907       908       989      3575      3827      3828
 -1      1867    8    0    1
 -2       907       989       988      3828      3829      3824
 -1      1868    8    0    1
 -2       908       909       990      3578      3830      3831
 -1      1869    8    0    1
 -2       908       990       989      3831      3832      3827
 -1      1870    8    0    1
 -2       909       910       991      3581      3833      3834
 -1      1871    8    0    1
 -2       909       991       990      3834      3835      3830
 -1      1872    8    0    1
 -2       910       911       992      3584      3836      3837
 -1      1873    8    0    1
 -2       910       992       991      3837      3838      3833
 -1      1874    8    0    1
 -2       911       912       993      3587      3839      3840
 -1      1875    8    0    1
 -2       911       993       992      3840      3841      3836
 -1      1876    8    0    1
 -2       903       904       994      3563      3842      3843
 -1      1877    8    0    1
 -2       903       994       943      3843      3844      3820
 -1      1878    8    0    1
 -2       851       915       995      3595      3845      3846
 -1      1879    8    0    1
 -2       851       995       931      3846      3847      3649
 -1      1880    8    0    1
 -2       913       857       932      3815      3651      3848
 -1      1881    8    0    1
 -2       843       855       996      3404      3849      3850
 -1      1882    8    0    1
 -2       922       843       996      3616      3850      3851
 -1      1883    8    0    1
 -2       855       940       996      3675      3852      3849
 -1      1884    8    0    1
 -2       834       878       917      3633      3853      3600
 -1      1885    8    0    1
 -2       746       807       858      3554      3854      3417
 -1      1886    8    0    1
 -2       863       862       997      3431      3855      3856
 -1      1887    8    0    1
 -2       863       997       952      3856      3857      3714
 -1      1888    8    0    1
 -2       802       747       923      3634      3618      3858
 -1      1889    8    0    1
 -2       925       914       998      3625      3859      3860
 -1      1890    8    0    1
 -2       862       924       999      3622      3861      3862
 -1      1891    8    0    1
 -2       862       999       997      3862      3863      3855
 -1      1892    8    0    1
 -2       835       925       901      3624      3812      3864
 -1      1893    8    0    1
 -2       773       744       850      3414      3385      3689
 -1      1894    8    0    1
 -2       891       892      1000      3520      3865      3866
 -1      1895    8    0    1
 -2       892       979      1000      3793      3867      3865
 -1      1896    8    0    1
 -2       861       891      1001      3517      3868      3869
 -1      1897    8    0    1
 -2       976       861      1001      3785      3869      3870
 -1      1898    8    0    1
 -2       891      1000      1001      3866      3871      3868
 -1      1899    8    0    1
 -2       900       925       998      3813      3860      3872
 -1      1900    8    0    1
 -2       860       936      1002      3814      3873      3874
 -1      1901    8    0    1
 -2       977       860      1002      3787      3874      3875
 -1      1902    8    0    1
 -2       936       975      1002      3783      3876      3873
 -1      1903    8    0    1
 -2       913       932       912      3848      3877      3590
 -1      1904    8    0    1
 -2       917       878       951      3853      3878      3712
 -1      1905    8    0    1
 -2       904       905      1003      3566      3879      3880
 -1      1906    8    0    1
 -2       994       904      1003      3842      3880      3881
 -1      1907    8    0    1
 -2       905       987      1003      3823      3882      3879
 -1      1908    8    0    1
 -2       912       932       993      3877      3883      3839
 -1      1909    8    0    1
 -2       928       890      1004      3636      3884      3885
 -1      1910    8    0    1
 -2       890       978      1004      3790      3886      3884
 -1      1911    8    0    1
 -2       929       921      1005      3639      3887      3888
 -1      1912    8    0    1
 -2       918       974      1006      3780      3889      3890
 -1      1913    8    0    1
 -2       918      1006       941      3890      3891      3677
 -1      1914    8    0    1
 -2       966       879       935      3755      3892      3893
 -1      1915    8    0    1
 -2       878       877       951      3476      3894      3878
 -1      1916    8    0    1
 -2       847       931      1007      3648      3895      3896
 -1      1917    8    0    1
 -2       847      1007       944      3896      3897      3686
 -1      1918    8    0    1
 -2       859       951       942      3713      3898      3682
 -1      1919    8    0    1
 -2       849       933      1008      3653      3899      3900
 -1      1920    8    0    1
 -2       849      1008       938      3900      3901      3669
 -1      1921    8    0    1
 -2       934       827       928      3657      3638      3902
 -1      1922    8    0    1
 -2       935       926      1009      3660      3903      3904
 -1      1923    8    0    1
 -2       935      1009       966      3904      3905      3893
 -1      1924    8    0    1
 -2       921       934      1010      3656      3906      3907
 -1      1925    8    0    1
 -2       921      1010      1005      3907      3908      3887
 -1      1926    8    0    1
 -2       924       977       999      3788      3909      3861
 -1      1927    8    0    1
 -2       985       899       998      3809      3910      3911
 -1      1928    8    0    1
 -2       899       900       998      3544      3872      3910
 -1      1929    8    0    1
 -2       901       802       923      3545      3858      3912
 -1      1930    8    0    1
 -2       845       986       949      3818      3913      3705
 -1      1931    8    0    1
 -2       933       919      1011      3654      3914      3915
 -1      1932    8    0    1
 -2       946       950      1012      3711      3916      3917
 -1      1933    8    0    1
 -2       914       938       998      3668      3918      3859
 -1      1934    8    0    1
 -2       993       932      1013      3883      3919      3920
 -1      1935    8    0    1
 -2       932       945      1013      3694      3921      3919
 -1      1936    8    0    1
 -2       937       902       930      3708      3922      3923
 -1      1937    8    0    1
 -2       948       946      1014      3702      3924      3925
 -1      1938    8    0    1
 -2       946      1012      1014      3917      3926      3924
 -1      1939    8    0    1
 -2       850       935       879      3659      3892      3646
 -1      1940    8    0    1
 -2       996       940      1015      3852      3927      3928
 -1      1941    8    0    1
 -2       920       841      1016      3611      3929      3930
 -1      1942    8    0    1
 -2       975       920      1016      3784      3930      3931
 -1      1943    8    0    1
 -2       841       948      1016      3704      3932      3929
 -1      1944    8    0    1
 -2       835       901       923      3864      3912      3617
 -1      1945    8    0    1
 -2       926       944      1017      3688      3933      3934
 -1      1946    8    0    1
 -2       926      1017      1009      3934      3935      3903
 -1      1947    8    0    1
 -2       945       939      1018      3695      3936      3937
 -1      1948    8    0    1
 -2       945      1018      1013      3937      3938      3921
 -1      1949    8    0    1
 -2       939       947      1019      3700      3939      3940
 -1      1950    8    0    1
 -2       939      1019      1018      3940      3941      3936
 -1      1951    8    0    1
 -2       919       942      1011      3681      3942      3914
 -1      1952    8    0    1
 -2       915       943       994      3685      3844      3943
 -1      1953    8    0    1
 -2       940       949      1020      3707      3944      3945
 -1      1954    8    0    1
 -2      1015       940      1020      3927      3945      3946
 -1      1955    8    0    1
 -2       951       877       965      3894      3753      3947
 -1      1956    8    0    1
 -2       915       994       995      3943      3948      3845
 -1      1957    8    0    1
 -2       999       977      1021      3909      3949      3950
 -1      1958    8    0    1
 -2       930       858       937      3644      3951      3923
 -1      1959    8    0    1
 -2       995       994      1022      3948      3952      3953
 -1      1960    8    0    1
 -2       994      1003      1022      3881      3954      3952
 -1      1961    8    0    1
 -2       954       953      1023      3721      3955      3956
 -1      1962    8    0    1
 -2       955       954      1024      3724      3957      3958
 -1      1963    8    0    1
 -2       954      1023      1024      3956      3959      3957
 -1      1964    8    0    1
 -2       956       955      1025      3727      3960      3961
 -1      1965    8    0    1
 -2       955      1024      1025      3958      3962      3960
 -1      1966    8    0    1
 -2       957       956      1026      3730      3963      3964
 -1      1967    8    0    1
 -2       956      1025      1026      3961      3965      3963
 -1      1968    8    0    1
 -2       958       957      1027      3733      3966      3967
 -1      1969    8    0    1
 -2       957      1026      1027      3964      3968      3966
 -1      1970    8    0    1
 -2       959       958      1028      3736      3969      3970
 -1      1971    8    0    1
 -2       958      1027      1028      3967      3971      3969
 -1      1972    8    0    1
 -2       960       959      1029      3739      3972      3973
 -1      1973    8    0    1
 -2       959      1028      1029      3970      3974      3972
 -1      1974    8    0    1
 -2       961       960      1030      3742      3975      3976
 -1      1975    8    0    1
 -2       960      1029      1030      3973      3977      3975
 -1      1976    8    0    1
 -2       962       961      1031      3745      3978      3979
 -1      1977    8    0    1
 -2       961      1030      1031      3976      3980      3978
 -1      1978    8    0    1
 -2       963       962      1032      3748      3981      3982
 -1      1979    8    0    1
 -2       962      1031      1032      3979      3983      3981
 -1      1980    8    0    1
 -2       964       963      1033      3751      3984      3985
 -1      1981    8    0    1
 -2       963      1032      1033      3982      3986      3984
 -1      1982    8    0    1
 -2       965       964      1034      3754      3987      3988
 -1      1983    8    0    1
 -2       964      1033      1034      3985      3989      3987
 -1      1984    8    0    1
 -2       968       967      1035      3762      3990      3991
 -1      1985    8    0    1
 -2       969       968      1036      3765      3992      3993
 -1      1986    8    0    1
 -2       968      1035      1036      3991      3994      3992
 -1      1987    8    0    1
 -2       970       969      1037      3768      3995      3996
 -1      1988    8    0    1
 -2       969      1036      1037      3993      3997      3995
 -1      1989    8    0    1
 -2       971       970      1038      3771      3998      3999
 -1      1990    8    0    1
 -2       970      1037      1038      3996      4000      3998
 -1      1991    8    0    1
 -2       972       971      1039      3774      4001      4002
 -1      1992    8    0    1
 -2       971      1038      1039      3999      4003      4001
 -1      1993    8    0    1
 -2       973       972      1040      3777      4004      4005
 -1      1994    8    0    1
 -2       972      1039      1040      4002      4006      4004
 -1      1995    8    0    1
 -2       974       973      1041      3781      4007      4008
 -1      1996    8    0    1
 -2      1006       974      1041      3889      4008      4009
 -1      1997    8    0    1
 -2       973      1040      1041      4005      4010      4007
 -1      1998    8    0    1
 -2       934       928      1042      3902      4011      4012
 -1      1999    8    0    1
 -2      1010       934      1042      3906      4012      4013
 -1      2000    8    0    1
 -2       928      1004      1042      3885      4014      4011
 -1      2001    8    0    1
 -2       846       930       902      3643      3922      4015
 -1      2002    8    0    1
 -2       929      1005      1043      3888      4016      4017
 -1      2003    8    0    1
 -2       929      1043       986      4017      4018      3819
 -1      2004    8    0    1
 -2       980       981      1044      3799      4019      4020
 -1      2005    8    0    1
 -2       979       980      1045      3796      4021      4022
 -1      2006    8    0    1
 -2       980      1044      1045      4020      4023      4021
 -1      2007    8    0    1
 -2       982       983      1046      3805      4024      4025
 -1      2008    8    0    1
 -2       983       984      1047      3808      4026      4027
 -1      2009    8    0    1
 -2       983      1047      1046      4027      4028      4024
 -1      2010    8    0    1
 -2       984       985      1048      3811      4029      4030
 -1      2011    8    0    1
 -2       984      1048      1047      4030      4031      4026
 -1      2012    8    0    1
 -2       989       990      1049      3832      4032      4033
 -1      2013    8    0    1
 -2      1012       950      1015      3916      4034      4035
 -1      2014    8    0    1
 -2       988       989      1050      3829      4036      4037
 -1      2015    8    0    1
 -2       989      1049      1050      4033      4038      4036
 -1      2016    8    0    1
 -2       931       995      1051      3847      4039      4040
 -1      2017    8    0    1
 -2      1007       931      1051      3895      4040      4041
 -1      2018    8    0    1
 -2       995      1022      1051      3953      4042      4039
 -1      2019    8    0    1
 -2       987       988      1052      3826      4043      4044
 -1      2020    8    0    1
 -2       988      1050      1052      4037      4045      4043
 -1      2021    8    0    1
 -2       990       991      1053      3835      4046      4047
 -1      2022    8    0    1
 -2       990      1053      1049      4047      4048      4032
 -1      2023    8    0    1
 -2       991       992      1054      3838      4049      4050
 -1      2024    8    0    1
 -2       991      1054      1053      4050      4051      4046
 -1      2025    8    0    1
 -2       992       993      1055      3841      4052      4053
 -1      2026    8    0    1
 -2      1054       992      1055      4049      4053      4054
 -1      2027    8    0    1
 -2       993      1013      1055      3920      4055      4052
 -1      2028    8    0    1
 -2       951       965      1056      3947      4056      4057
 -1      2029    8    0    1
 -2       942       951      1056      3898      4057      4058
 -1      2030    8    0    1
 -2       965      1034      1056      3988      4059      4056
 -1      2031    8    0    1
 -2       846       902       943      4015      3821      3683
 -1      2032    8    0    1
 -2      1015       950       996      4034      4060      3928
 -1      2033    8    0    1
 -2      1012      1015      1057      4035      4061      4062
 -1      2034    8    0    1
 -2      1015      1020      1057      3946      4063      4061
 -1      2035    8    0    1
 -2       922       996       950      3851      4060      3816
 -1      2036    8    0    1
 -2       966      1009      1058      3905      4064      4065
 -1      2037    8    0    1
 -2       967       966      1058      3759      4065      4066
 -1      2038    8    0    1
 -2      1009      1017      1058      3935      4067      4064
 -1      2039    8    0    1
 -2       985       998      1048      3911      4068      4029
 -1      2040    8    0    1
 -2      1011       942      1056      3942      4058      4069
 -1      2041    8    0    1
 -2       981       982      1059      3802      4070      4071
 -1      2042    8    0    1
 -2      1044       981      1059      4019      4071      4072
 -1      2043    8    0    1
 -2       982      1046      1059      4025      4073      4070
 -1      2044    8    0    1
 -2       952       997      1060      3857      4074      4075
 -1      2045    8    0    1
 -2       978       976      1061      3791      4076      4077
 -1      2046    8    0    1
 -2       997       999      1062      3863      4078      4079
 -1      2047    8    0    1
 -2       997      1062      1060      4079      4080      4074
 -1      2048    8    0    1
 -2      1000       979      1063      3867      4081      4082
 -1      2049    8    0    1
 -2       979      1045      1063      4022      4083      4081
 -1      2050    8    0    1
 -2       953       952      1064      3718      4084      4085
 -1      2051    8    0    1
 -2       953      1064      1023      4085      4086      3955
 -1      2052    8    0    1
 -2       933      1011      1065      3915      4087      4088
 -1      2053    8    0    1
 -2       933      1065      1008      4088      4089      3899
 -1      2054    8    0    1
 -2       949       986      1066      3913      4090      4091
 -1      2055    8    0    1
 -2      1020       949      1066      3944      4091      4092
 -1      2056    8    0    1
 -2       986      1043      1066      4018      4093      4090
 -1      2057    8    0    1
 -2      1035       967      1058      3990      4066      4094
 -1      2058    8    0    1
 -2      1004       978      1067      3886      4095      4096
 -1      2059    8    0    1
 -2       978      1061      1067      4077      4097      4095
 -1      2060    8    0    1
 -2      1020      1066      1068      4092      4098      4099
 -1      2061    8    0    1
 -2      1020      1068      1057      4099      4100      4063
 -1      2062    8    0    1
 -2      1013      1018      1069      3938      4101      4102
 -1      2063    8    0    1
 -2      1013      1069      1055      4102      4103      4055
 -1      2064    8    0    1
 -2      1017       944      1070      3933      4104      4105
 -1      2065    8    0    1
 -2       944      1007      1070      3897      4106      4104
 -1      2066    8    0    1
 -2      1043      1005      1071      4016      4107      4108
 -1      2067    8    0    1
 -2      1000      1063      1072      4082      4109      4110
 -1      2068    8    0    1
 -2      1000      1072      1001      4110      4111      3871
 -1      2069    8    0    1
 -2      1011      1056      1073      4069      4112      4113
 -1      2070    8    0    1
 -2      1002       975      1074      3876      4114      4115
 -1      2071    8    0    1
 -2       975      1016      1074      3931      4116      4114
 -1      2072    8    0    1
 -2       952      1060      1064      4075      4117      4084
 -1      2073    8    0    1
 -2      1021       977      1002      3949      3875      4118
 -1      2074    8    0    1
 -2       998       938      1048      3918      4119      4068
 -1      2075    8    0    1
 -2      1018      1019      1075      3941      4120      4121
 -1      2076    8    0    1
 -2      1018      1075      1069      4121      4122      4101
 -1      2077    8    0    1
 -2       948      1014      1076      3925      4123      4124
 -1      2078    8    0    1
 -2       948      1076      1016      4124      4125      3932
 -1      2079    8    0    1
 -2       999      1021      1062      3950      4126      4078
 -1      2080    8    0    1
 -2      1003       987      1077      3882      4127      4128
 -1      2081    8    0    1
 -2      1022      1003      1077      3954      4128      4129
 -1      2082    8    0    1
 -2       987      1052      1077      4044      4130      4127
 -1      2083    8    0    1
 -2      1005      1010      1078      3908      4131      4132
 -1      2084    8    0    1
 -2      1005      1078      1071      4132      4133      4107
 -1      2085    8    0    1
 -2       938      1008      1048      3901      4134      4119
 -1      2086    8    0    1
 -2      1061       976      1079      4076      4135      4136
 -1      2087    8    0    1
 -2       976      1001      1079      3870      4137      4135
 -1      2088    8    0    1
 -2      1011      1073      1065      4113      4138      4087
 -1      2089    8    0    1
 -2       947       941      1080      3701      4139      4140
 -1      2090    8    0    1
 -2      1014      1012      1057      3926      4062      4141
 -1      2091    8    0    1
 -2       858       807       937      3854      3666      3951
 -1      2092    8    0    1
 -2       941      1006      1080      3891      4142      4139
 -1      2093    8    0    1
 -2      1036      1035      1081      3994      4143      4144
 -1      2094    8    0    1
 -2      1008      1065      1048      4089      4145      4134
 -1      2095    8    0    1
 -2      1025      1024      1082      3962      4146      4147
 -1      2096    8    0    1
 -2      1026      1025      1083      3965      4148      4149
 -1      2097    8    0    1
 -2      1025      1082      1083      4147      4150      4148
 -1      2098    8    0    1
 -2      1027      1026      1084      3968      4151      4152
 -1      2099    8    0    1
 -2      1026      1083      1084      4149      4153      4151
 -1      2100    8    0    1
 -2      1028      1027      1085      3971      4154      4155
 -1      2101    8    0    1
 -2      1027      1084      1085      4152      4156      4154
 -1      2102    8    0    1
 -2      1029      1028      1086      3974      4157      4158
 -1      2103    8    0    1
 -2      1028      1085      1086      4155      4159      4157
 -1      2104    8    0    1
 -2      1030      1029      1087      3977      4160      4161
 -1      2105    8    0    1
 -2      1029      1086      1087      4158      4162      4160
 -1      2106    8    0    1
 -2      1031      1030      1088      3980      4163      4164
 -1      2107    8    0    1
 -2      1030      1087      1088      4161      4165      4163
 -1      2108    8    0    1
 -2      1032      1031      1089      3983      4166      4167
 -1      2109    8    0    1
 -2      1031      1088      1089      4164      4168      4166
 -1      2110    8    0    1
 -2      1033      1032      1090      3986      4169      4170
 -1      2111    8    0    1
 -2      1032      1089      1090      4167      4171      4169
 -1      2112    8    0    1
 -2      1034      1033      1091      3989      4172      4173
 -1      2113    8    0    1
 -2      1033      1090      1091      4170      4174      4172
 -1      2114    8    0    1
 -2      1024      1023      1092      3959      4175      4176
 -1      2115    8    0    1
 -2      1024      1092      1082      4176      4177      4146
 -1      2116    8    0    1
 -2      1052      1050      1093      4045      4178      4179
 -1      2117    8    0    1
 -2      1045      1044      1094      4023      4180      4181
 -1      2118    8    0    1
 -2      1037      1036      1095      3997      4182      4183
 -1      2119    8    0    1
 -2      1036      1081      1095      4144      4184      4182
 -1      2120    8    0    1
 -2      1038      1037      1096      4000      4185      4186
 -1      2121    8    0    1
 -2      1037      1095      1096      4183      4187      4185
 -1      2122    8    0    1
 -2      1039      1038      1097      4003      4188      4189
 -1      2123    8    0    1
 -2      1038      1096      1097      4186      4190      4188
 -1      2124    8    0    1
 -2      1040      1039      1075      4006      4191      4192
 -1      2125    8    0    1
 -2      1073      1056      1034      4112      4059      4193
 -1      2126    8    0    1
 -2      1023      1064      1098      4086      4194      4195
 -1      2127    8    0    1
 -2      1023      1098      1092      4195      4196      4175
 -1      2128    8    0    1
 -2      1047      1048      1065      4031      4145      4197
 -1      2129    8    0    1
 -2      1053      1054      1099      4051      4198      4199
 -1      2130    8    0    1
 -2      1049      1053      1100      4048      4200      4201
 -1      2131    8    0    1
 -2      1053      1099      1100      4199      4202      4200
 -1      2132    8    0    1
 -2      1035      1058      1101      4094      4203      4204
 -1      2133    8    0    1
 -2      1058      1017      1101      4067      4205      4203
 -1      2134    8    0    1
 -2      1062      1021      1102      4126      4206      4207
 -1      2135    8    0    1
 -2      1064      1060      1103      4117      4208      4209
 -1      2136    8    0    1
 -2      1064      1103      1098      4209      4210      4194
 -1      2137    8    0    1
 -2      1060      1062      1104      4080      4211      4212
 -1      2138    8    0    1
 -2      1062      1102      1104      4207      4213      4211
 -1      2139    8    0    1
 -2      1063      1045      1105      4083      4214      4215
 -1      2140    8    0    1
 -2      1045      1094      1105      4181      4216      4214
 -1      2141    8    0    1
 -2      1019       947      1080      3939      4140      4217
 -1      2142    8    0    1
 -2      1014      1057      1106      4141      4218      4219
 -1      2143    8    0    1
 -2      1021      1002      1074      4118      4115      4220
 -1      2144    8    0    1
 -2      1066      1043      1107      4093      4221      4222
 -1      2145    8    0    1
 -2      1068      1066      1107      4098      4222      4223
 -1      2146    8    0    1
 -2      1043      1071      1107      4108      4224      4221
 -1      2147    8    0    1
 -2      1050      1049      1108      4038      4225      4226
 -1      2148    8    0    1
 -2      1093      1050      1108      4178      4226      4227
 -1      2149    8    0    1
 -2      1049      1100      1108      4201      4228      4225
 -1      2150    8    0    1
 -2      1080      1006      1041      4142      4009      4229
 -1      2151    8    0    1
 -2      1047      1065      1109      4197      4230      4231
 -1      2152    8    0    1
 -2      1046      1047      1109      4028      4231      4232
 -1      2153    8    0    1
 -2      1065      1073      1109      4138      4233      4230
 -1      2154    8    0    1
 -2      1073      1034      1091      4193      4173      4234
 -1      2155    8    0    1
 -2      1109      1073      1091      4233      4234      4235
 -1      2156    8    0    1
 -2      1081      1035      1101      4143      4204      4236
 -1      2157    8    0    1
 -2      1046      1109      1110      4232      4237      4238
 -1      2158    8    0    1
 -2      1059      1046      1110      4073      4238      4239
 -1      2159    8    0    1
 -2      1109      1091      1110      4235      4240      4237
 -1      2160    8    0    1
 -2      1078      1010      1111      4131      4241      4242
 -1      2161    8    0    1
 -2      1010      1042      1111      4013      4243      4241
 -1      2162    8    0    1
 -2      1052      1093      1112      4179      4244      4245
 -1      2163    8    0    1
 -2      1052      1112      1077      4245      4246      4130
 -1      2164    8    0    1
 -2      1067      1061      1113      4097      4247      4248
 -1      2165    8    0    1
 -2      1019      1080      1041      4217      4229      4249
 -1      2166    8    0    1
 -2      1016      1076      1074      4125      4250      4116
 -1      2167    8    0    1
 -2      1039      1097      1075      4189      4251      4191
 -1      2168    8    0    1
 -2      1055      1069      1054      4103      4252      4054
 -1      2169    8    0    1
 -2      1001      1072      1079      4111      4253      4137
 -1      2170    8    0    1
 -2      1060      1104      1103      4212      4254      4208
 -1      2171    8    0    1
 -2      1099      1054      1069      4198      4252      4255
 -1      2172    8    0    1
 -2      1101      1017      1070      4205      4105      4256
 -1      2173    8    0    1
 -2      1076      1014      1106      4123      4219      4257
 -1      2174    8    0    1
 -2      1102      1021      1074      4206      4220      4258
 -1      2175    8    0    1
 -2      1042      1004      1114      4014      4259      4260
 -1      2176    8    0    1
 -2      1111      1042      1114      4243      4260      4261
 -1      2177    8    0    1
 -2      1004      1067      1114      4096      4262      4259
 -1      2178    8    0    1
 -2      1071      1078      1115      4133      4263      4264
 -1      2179    8    0    1
 -2      1063      1105      1116      4215      4265      4266
 -1      2180    8    0    1
 -2      1063      1116      1072      4266      4267      4109
 -1      2181    8    0    1
 -2      1061      1079      1117      4136      4268      4269
 -1      2182    8    0    1
 -2      1061      1117      1113      4269      4270      4247
 -1      2183    8    0    1
 -2      1022      1077      1118      4129      4271      4272
 -1      2184    8    0    1
 -2      1051      1022      1118      4042      4272      4273
 -1      2185    8    0    1
 -2      1077      1112      1118      4246      4274      4271
 -1      2186    8    0    1
 -2      1044      1059      1119      4072      4275      4276
 -1      2187    8    0    1
 -2      1094      1044      1119      4180      4276      4277
 -1      2188    8    0    1
 -2      1059      1110      1119      4239      4278      4275
 -1      2189    8    0    1
 -2      1057      1068      1106      4100      4279      4218
 -1      2190    8    0    1
 -2      1071      1115      1120      4264      4280      4281
 -1      2191    8    0    1
 -2      1071      1120      1107      4281      4282      4224
 -1      2192    8    0    1
 -2      1069      1075      1121      4122      4283      4284
 -1      2193    8    0    1
 -2      1099      1069      1121      4255      4284      4285
 -1      2194    8    0    1
 -2      1075      1097      1121      4251      4286      4283
 -1      2195    8    0    1
 -2      1106      1068      1122      4279      4287      4288
 -1      2196    8    0    1
 -2      1084      1083      1123      4153      4289      4290
 -1      2197    8    0    1
 -2      1085      1084      1117      4156      4291      4292
 -1      2198    8    0    1
 -2      1087      1086      1124      4162      4293      4294
 -1      2199    8    0    1
 -2      1088      1087      1105      4165      4295      4296
 -1      2200    8    0    1
 -2      1089      1088      1094      4168      4297      4298
 -1      2201    8    0    1
 -2      1090      1089      1119      4171      4299      4300
 -1      2202    8    0    1
 -2      1091      1090      1110      4174      4301      4240
 -1      2203    8    0    1
 -2      1070      1007      1118      4106      4302      4303
 -1      2204    8    0    1
 -2      1096      1095      1125      4187      4304      4305
 -1      2205    8    0    1
 -2      1097      1096      1121      4190      4306      4286
 -1      2206    8    0    1
 -2      1101      1070      1126      4256      4307      4308
 -1      2207    8    0    1
 -2      1081      1101      1126      4236      4308      4309
 -1      2208    8    0    1
 -2      1070      1118      1126      4303      4310      4307
 -1      2209    8    0    1
 -2      1007      1051      1118      4041      4273      4302
 -1      2210    8    0    1
 -2      1082      1092      1127      4177      4311      4312
 -1      2211    8    0    1
 -2      1100      1099      1121      4202      4285      4313
 -1      2212    8    0    1
 -2      1068      1107      1122      4223      4314      4287
 -1      2213    8    0    1
 -2      1074      1076      1102      4250      4315      4258
 -1      2214    8    0    1
 -2      1075      1019      1040      4120      4316      4192
 -1      2215    8    0    1
 -2      1094      1088      1105      4297      4296      4216
 -1      2216    8    0    1
 -2      1079      1072      1128      4253      4317      4318
 -1      2217    8    0    1
 -2      1079      1128      1117      4318      4319      4268
 -1      2218    8    0    1
 -2      1092      1098      1129      4196      4320      4321
 -1      2219    8    0    1
 -2      1092      1129      1127      4321      4322      4311
 -1      2220    8    0    1
 -2      1076      1106      1102      4257      4323      4315
 -1      2221    8    0    1
 -2      1067      1113      1130      4248      4324      4325
 -1      2222    8    0    1
 -2      1067      1130      1114      4325      4326      4262
 -1      2223    8    0    1
 -2      1098      1103      1115      4210      4327      4328
 -1      2224    8    0    1
 -2      1104      1102      1122      4213      4329      4330
 -1      2225    8    0    1
 -2      1103      1104      1120      4254      4331      4332
 -1      2226    8    0    1
 -2      1115      1078      1129      4263      4333      4334
 -1      2227    8    0    1
 -2      1102      1106      1122      4323      4288      4329
 -1      2228    8    0    1
 -2      1089      1094      1119      4298      4277      4299
 -1      2229    8    0    1
 -2      1098      1115      1129      4328      4334      4320
 -1      2230    8    0    1
 -2      1040      1019      1041      4316      4249      4010
 -1      2231    8    0    1
 -2      1083      1082      1131      4150      4335      4336
 -1      2232    8    0    1
 -2      1123      1083      1131      4289      4336      4337
 -1      2233    8    0    1
 -2      1082      1127      1131      4312      4338      4335
 -1      2234    8    0    1
 -2      1095      1081      1132      4184      4339      4340
 -1      2235    8    0    1
 -2      1125      1095      1132      4304      4340      4341
 -1      2236    8    0    1
 -2      1081      1126      1132      4309      4342      4339
 -1      2237    8    0    1
 -2      1078      1111      1129      4242      4343      4333
 -1      2238    8    0    1
 -2      1085      1117      1128      4292      4319      4344
 -1      2239    8    0    1
 -2      1086      1085      1128      4159      4344      4345
 -1      2240    8    0    1
 -2      1128      1072      1116      4317      4267      4346
 -1      2241    8    0    1
 -2      1090      1119      1110      4300      4278      4301
 -1      2242    8    0    1
 -2      1108      1100      1125      4228      4347      4348
 -1      2243    8    0    1
 -2      1126      1118      1112      4310      4274      4349
 -1      2244    8    0    1
 -2      1100      1121      1125      4313      4350      4347
 -1      2245    8    0    1
 -2      1120      1104      1122      4331      4330      4351
 -1      2246    8    0    1
 -2      1130      1113      1123      4324      4352      4353
 -1      2247    8    0    1
 -2      1093      1108      1132      4227      4354      4355
 -1      2248    8    0    1
 -2      1115      1103      1120      4327      4332      4280
 -1      2249    8    0    1
 -2      1105      1087      1124      4295      4294      4356
 -1      2250    8    0    1
 -2      1107      1120      1122      4282      4351      4314
 -1      2251    8    0    1
 -2      1093      1132      1126      4355      4342      4357
 -1      2252    8    0    1
 -2      1093      1126      1112      4357      4349      4244
 -1      2253    8    0    1
 -2      1084      1123      1117      4290      4358      4291
 -1      2254    8    0    1
 -2      1108      1125      1132      4348      4341      4354
 -1      2255    8    0    1
 -2      1096      1125      1121      4305      4350      4306
 -1      2256    8    0    1
 -2      1130      1123      1131      4353      4337      4359
 -1      2257    8    0    1
 -2      1127      1129      1111      4322      4343      4360
 -1      2258    8    0    1
 -2      1124      1086      1128      4293      4345      4361
 -1      2259    8    0    1
 -2      1111      1114      1127      4261      4362      4360
 -1      2260    8    0    1
 -2      1123      1113      1117      4352      4270      4358
 -1      2261    8    0    1
 -2      1116      1105      1124      4265      4356      4363
 -1      2262    8    0    1
 -2      1127      1114      1130      4362      4326      4364
 -1      2263    8    0    1
 -2      1124      1128      1116      4361      4346      4363
 -1      2264    8    0    1
 -2      1127      1130      1131      4364      4359      4338
 -3
    1PSTEP                         1           1           1          
  100CL  101 1.000000000        4364                     0    1           1
 -4  DISP        4    1
 -5  D1          1    2    1    0
 -5  D2          1    2    2    0
 -5  D3          1    2    3    0
 -5  ALL         1    2    0    0    1ALL
 -1         1 6.93052E-03-5.00373E-04-6.06672E-14
 -1         2 1.12767E-02-4.21487E-04-8.08556E-14
 -1         3 1.46590E-02-5.89910E-04-1.70392E-13
 -1         4 1.57263E-02-1.96134E-03-1.78174E-13
 -1         5 0.00000E+00 0.00000E+00 0.00000E+00
 -1         6 0.00000E+00 0.00000E+00 0.00000E+00
 -1         7 0.00000E+00 0.00000E+00 0.00000E+00
 -1         8 0.00000E+00 0.00000E+00 0.00000E+00
 -1         9 0.00000E+00 0.00000E+00 0.00000E+00
 -1        10 0.00000E+00 0.00000E+00 0.00000E+00
 -1        11 0.00000E+00 0.00000E+00 0.00000E+00
 -1        12 0.00000E+00 0.00000E+00 0.00000E+00
 -1        13 0.00000E+00 0.00000E+00 0.00000E+00
 -1        14 0.00000E+00 0.00000E+00 0.00000E+00
 -1        15 0.00000E+00 0.00000E+00 0.00000E+00
 -1        16 0.00000E+00 0.00000E+00 0.00000E+00
 -1        17 0.00000E+00 0.00000E+00 0.00000E+00
 -1        18 0.00000E+00 0.00000E+00 0.00000E+00
 -1        19 0.00000E+00 0.00000E+00 0.00000E+00
 -1        20 0.00000E+00 0.00000E+00 0.00000E+00
 -1        21 0.00000E+00 0.00000E+00 0.00000E+00
 -1        22 0.00000E+00 0.00000E+00 0.00000E+00
 -1        23 4.10952E-04-2.60542E-04 3.04627E-17
 -1        24 7.02546E-04-4.00572E-04-1.49305E-16
 -1        25 9.72207E-04-4.97605E-04-5.30514E-16
 -1        26 1.23628E-03-5.65837E-04-1.10850E-15
 -1        27 1.49938E-03-6.14369E-04-1.87798E-15
 -1        28 1.76364E-03-6.48538E-04-2.83555E-15
 -1        29 2.03004E-03-6.71995E-04-3.97575E-15
 -1        30 2.29900E-03-6.87365E-04-5.29533E-15
 -1        31 2.57066E-03-6.96590E-04-6.79216E-15
 -1        32 2.84503E-03-7.01114E-04-8.46221E-15
 -1        33 3.12204E-03-7.02007E-04-1.03012E-14
 -1        34 3.40170E-03-7.00061E-04-1.22990E-14
 -1        35 3.68407E-03-6.95869E-04-1.44596E-14
 -1        36 3.96939E-03-6.89897E-04-1.67735E-14
 -1        37 4.25806E-03-6.82561E-04-1.92366E-14
 -1        38 4.55075E-03-6.74322E-04-2.18459E-14
 -1        39 4.84844E-03-6.65789E-04-2.45992E-14
 -1        40 5.15246E-03-6.57876E-04-2.74920E-14
 -1        41 5.46454E-03-6.52000E-04-3.05195E-14
 -1        42 5.78686E-03-6.50359E-04-3.36810E-14
 -1        43 6.12187E-03-6.56287E-04-3.69718E-14
 -1        44 6.47205E-03-6.74666E-04-4.03916E-14
 -1        45 6.83907E-03-7.12222E-04-4.39424E-14
 -1        46 7.22246E-03-7.77332E-04-4.76283E-14
 -1        47 7.61739E-03-8.78504E-04-5.14368E-14
 -1        48 8.01245E-03-1.02038E-03-5.53593E-14
 -1        49 8.38940E-03-1.19675E-03-5.93995E-14
 -1        50 8.72860E-03-1.38314E-03-6.35721E-14
 -1        51 9.02128E-03-1.53719E-03-6.78857E-14
 -1        52 9.28117E-03-1.61504E-03-7.23477E-14
 -1        53 9.54169E-03-1.59799E-03-7.69549E-14
 -1        54 9.83585E-03-1.50597E-03-8.16920E-14
 -1        55 1.01765E-02-1.38321E-03-8.65439E-14
 -1        56 1.05544E-02-1.27164E-03-9.14758E-14
 -1        57 1.09496E-02-1.19500E-03-9.64910E-14
 -1        58 1.13441E-02-1.15898E-03-1.01575E-13
 -1        59 1.17268E-02-1.15867E-03-1.06713E-13
 -1        60 1.20931E-02-1.18552E-03-1.11903E-13
 -1        61 1.24425E-02-1.23116E-03-1.17150E-13
 -1        62 1.27769E-02-1.28891E-03-1.22469E-13
 -1        63 1.30987E-02-1.35390E-03-1.27873E-13
 -1        64 1.34104E-02-1.42280E-03-1.33342E-13
 -1        65 1.37144E-02-1.49343E-03-1.38864E-13
 -1        66 1.40123E-02-1.56435E-03-1.44435E-13
 -1        67 1.43057E-02-1.63464E-03-1.50055E-13
 -1        68 1.45957E-02-1.70373E-03-1.55694E-13
 -1        69 1.48834E-02-1.77123E-03-1.61354E-13
 -1        70 1.51695E-02-1.83700E-03-1.67027E-13
 -1        71 1.54550E-02-1.90119E-03-1.72728E-13
 -1        72 4.13400E-04 2.61243E-04 1.05354E-16
 -1        73 7.02375E-04 4.03270E-04 5.68495E-17
 -1        74 9.72757E-04 4.99368E-04-1.46953E-16
 -1        75 1.23713E-03 5.67539E-04-5.12164E-16
 -1        76 1.50038E-03 6.16126E-04-1.04253E-15
 -1        77 1.76473E-03 6.50399E-04-1.73761E-15
 -1        78 2.03120E-03 6.73991E-04-2.59863E-15
 -1        79 2.30024E-03 6.89530E-04-3.62711E-15
 -1        80 2.57198E-03 6.98967E-04-4.82466E-15
 -1        81 2.84644E-03 7.03767E-04-6.18938E-15
 -1        82 3.12355E-03 7.05037E-04-7.72437E-15
 -1        83 3.40330E-03 7.03620E-04-9.42041E-15
 -1        84 3.68571E-03 7.00184E-04-1.12731E-14
 -1        85 3.97093E-03 6.95296E-04-1.32815E-14
 -1        86 4.25921E-03 6.89505E-04-1.54401E-14
 -1        87 4.55093E-03 6.83418E-04-1.77499E-14
 -1        88 4.84657E-03 6.77791E-04-2.02086E-14
 -1        89 5.14669E-03 6.73607E-04-2.28164E-14
 -1        90 5.45178E-03 6.72151E-04-2.55726E-14
 -1        91 5.76219E-03 6.75046E-04-2.84718E-14
 -1        92 6.07781E-03 6.84214E-04-3.15177E-14
 -1        93 6.39787E-03 7.01704E-04-3.47081E-14
 -1        94 6.72054E-03 7.29297E-04-3.80506E-14
 -1        95 7.04271E-03 7.67835E-04-4.15296E-14
 -1        96 7.35998E-03 8.16273E-04-4.51405E-14
 -1        97 7.66726E-03 8.70666E-04-4.88820E-14
 -1        98 7.95995E-03 9.23565E-04-5.27559E-14
 -1        99 8.23578E-03 9.64508E-04-5.67590E-14
 -1       100 8.49648E-03 9.82106E-04-6.08986E-14
 -1       101 8.74820E-03 9.67376E-04-6.51868E-14
 -1       102 9.00006E-03 9.16956E-04-6.96113E-14
 -1       103 9.26111E-03 8.34424E-04-7.41602E-14
 -1       104 9.53741E-03 7.28885E-04-7.88251E-14
 -1       105 9.83054E-03 6.11733E-04-8.35969E-14
 -1       106 1.01381E-02 4.93341E-04-8.84866E-14
 -1       107 1.04555E-02 3.81032E-04-9.34936E-14
 -1       108 1.07777E-02 2.78632E-04-9.86053E-14
 -1       109 1.11001E-02 1.87089E-04-1.03809E-13
 -1       110 1.14199E-02 1.05490E-04-1.09089E-13
 -1       111 1.17352E-02 3.20035E-05-1.14458E-13
 -1       112 1.20453E-02-3.54571E-05-1.19895E-13
 -1       113 1.23502E-02-9.88454E-05-1.25398E-13
 -1       114 1.26503E-02-1.59811E-04-1.30956E-13
 -1       115 1.29463E-02-2.19659E-04-1.36555E-13
 -1       116 1.32387E-02-2.79380E-04-1.42195E-13
 -1       117 1.35284E-02-3.39702E-04-1.47862E-13
 -1       118 1.38160E-02-4.01132E-04-1.53561E-13
 -1       119 1.41022E-02-4.63963E-04-1.59280E-13
 -1       120 1.43877E-02-5.28176E-04-1.64984E-13
 -1       121 1.47231E-02-6.74327E-04-1.70877E-13
 -1       122 1.47878E-02-7.58733E-04-1.71371E-13
 -1       123 1.48539E-02-8.42495E-04-1.71851E-13
 -1       124 1.49209E-02-9.25001E-04-1.72321E-13
 -1       125 1.49884E-02-1.00591E-03-1.72793E-13
 -1       126 1.50544E-02-1.08383E-03-1.73267E-13
 -1       127 1.51207E-02-1.16168E-03-1.73743E-13
 -1       128 1.51854E-02-1.23852E-03-1.74200E-13
 -1       129 1.52484E-02-1.31495E-03-1.74653E-13
 -1       130 1.53096E-02-1.39165E-03-1.75092E-13
 -1       131 1.53692E-02-1.46926E-03-1.75557E-13
 -1       132 1.54268E-02-1.54695E-03-1.76037E-13
 -1       133 1.54851E-02-1.62767E-03-1.76503E-13
 -1       134 1.55439E-02-1.71011E-03-1.76943E-13
 -1       135 1.56039E-02-1.79391E-03-1.77370E-13
 -1       136 1.56652E-02-1.87832E-03-1.77781E-13
 -1       137 1.12096E-02-2.56454E-04-8.04553E-14
 -1       138 1.10426E-02-8.44865E-05-7.95353E-14
 -1       139 1.07858E-02 7.53863E-05-7.81515E-14
 -1       140 1.04446E-02 2.20338E-04-7.63649E-14
 -1       141 1.00553E-02 3.34362E-04-7.43802E-14
 -1       142 9.63163E-03 4.16830E-04-7.22803E-14
 -1       143 9.17867E-03 4.66609E-04-7.00933E-14
 -1       144 8.72983E-03 4.79567E-04-6.79871E-14
 -1       145 8.26391E-03 4.53357E-04-6.58606E-14
 -1       146 7.85074E-03 3.91081E-04-6.40313E-14
 -1       147 7.49090E-03 2.96275E-04-6.24867E-14
 -1       148 7.18949E-03 1.68611E-04-6.12421E-14
 -1       149 6.97811E-03 1.92218E-05-6.04334E-14
 -1       150 6.86369E-03-1.42880E-04-6.00708E-14
 -1       151 6.84526E-03-3.15261E-04-6.01405E-14
 -1       152 7.09538E-03-6.65751E-04-6.15252E-14
 -1       153 7.34468E-03-8.27457E-04-6.27423E-14
 -1       154 7.67033E-03-9.76115E-04-6.42781E-14
 -1       155 8.06944E-03-1.10588E-03-6.61265E-14
 -1       156 8.49483E-03-1.19767E-03-6.80651E-14
 -1       157 8.97450E-03-1.25358E-03-7.02449E-14
 -1       158 9.44428E-03-1.26125E-03-7.23768E-14
 -1       159 9.88521E-03-1.22513E-03-7.43928E-14
 -1       160 1.03024E-02-1.14663E-03-7.63265E-14
 -1       161 1.06456E-02-1.04148E-03-7.79251E-14
 -1       162 1.09267E-02-9.09945E-04-7.92556E-14
 -1       163 1.11416E-02-7.52657E-04-8.02750E-14
 -1       164 1.12530E-02-5.93855E-04-8.07936E-14
 -1       165 2.40236E-04-1.25471E-04-4.96361E-17
 -1       166 2.25201E-04-9.45947E-05-7.36377E-17
 -1       167 2.19523E-04-7.27569E-05-8.57502E-17
 -1       168 2.16770E-04-5.50857E-05-9.14253E-17
 -1       169 2.15325E-04-3.99441E-05-9.29127E-17
 -1       170 2.14518E-04-2.58938E-05-9.25502E-17
 -1       171 2.14114E-04-1.26304E-05-9.08358E-17
 -1       172 2.13997E-04 2.75384E-07-8.86572E-17
 -1       173 2.14132E-04 1.31932E-05-8.53030E-17
 -1       174 2.14556E-04 2.64952E-05-8.07087E-17
 -1       175 2.15370E-04 4.03707E-05-7.44779E-17
 -1       176 2.16876E-04 5.58908E-05-6.53808E-17
 -1       177 2.19673E-04 7.37940E-05-5.19807E-17
 -1       178 2.25369E-04 9.59898E-05-3.10488E-17
 -1       179 2.39167E-04 1.27544E-04 2.33781E-18
 -1       180 2.97429E-04 1.85390E-04 3.94616E-17
 -1       181 4.68192E-04-2.63351E-04-1.31958E-16
 -1       182 7.66047E-04-3.81668E-04-4.45648E-16
 -1       183 1.04962E-03-4.64126E-04-9.46126E-16
 -1       184 1.32674E-03-5.22282E-04-1.63316E-15
 -1       185 1.60112E-03-5.63113E-04-2.50374E-15
 -1       186 1.87485E-03-5.91248E-04-3.55524E-15
 -1       187 2.14911E-03-6.09921E-04-4.78370E-15
 -1       188 2.42457E-03-6.21472E-04-6.18642E-15
 -1       189 2.70160E-03-6.27622E-04-7.76126E-15
 -1       190 2.98040E-03-6.29633E-04-9.50491E-15
 -1       191 3.26112E-03-6.28426E-04-1.14108E-14
 -1       192 3.54391E-03-6.24666E-04-1.34751E-14
 -1       193 3.82898E-03-6.18844E-04-1.56977E-14
 -1       194 4.11665E-03-6.11351E-04-1.80698E-14
 -1       195 4.40737E-03-6.02558E-04-2.05910E-14
 -1       196 4.70178E-03-5.92921E-04-2.32571E-14
 -1       197 5.00073E-03-5.83104E-04-2.60633E-14
 -1       198 5.30531E-03-5.74155E-04-2.90072E-14
 -1       199 5.61684E-03-5.67756E-04-3.20856E-14
 -1       200 5.93682E-03-5.66555E-04-3.52950E-14
 -1       201 6.26683E-03-5.74597E-04-3.86353E-14
 -1       202 6.60821E-03-5.97784E-04-4.21031E-14
 -1       203 6.96154E-03-6.44122E-04-4.57027E-14
 -1       204 7.32586E-03-7.23160E-04-4.94285E-14
 -1       205 7.69758E-03-8.43517E-04-5.32742E-14
 -1       206 8.06958E-03-1.00712E-03-5.72393E-14
 -1       207 8.43171E-03-1.20028E-03-6.13285E-14
 -1       208 8.77472E-03-1.38689E-03-6.55540E-14
 -1       209 9.09750E-03-1.51526E-03-6.99255E-14
 -1       210 9.41161E-03-1.54541E-03-7.44465E-14
 -1       211 9.73495E-03-1.47815E-03-7.91053E-14
 -1       212 1.00787E-02-1.35444E-03-8.38872E-14
 -1       213 1.04413E-02-1.22573E-03-8.87675E-14
 -1       214 1.08133E-02-1.12739E-03-9.37311E-14
 -1       215 1.11848E-02-1.07238E-03-9.87732E-14
 -1       216 1.15487E-02-1.05838E-03-1.03882E-13
 -1       217 1.19015E-02-1.07666E-03-1.09044E-13
 -1       218 1.22424E-02-1.11767E-03-1.14260E-13
 -1       219 1.25720E-02-1.17344E-03-1.19539E-13
 -1       220 1.28916E-02-1.23812E-03-1.24895E-13
 -1       221 1.32030E-02-1.30766E-03-1.30319E-13
 -1       222 1.35075E-02-1.37943E-03-1.35804E-13
 -1       223 1.38067E-02-1.45172E-03-1.41337E-13
 -1       224 1.41017E-02-1.52347E-03-1.46922E-13
 -1       225 1.43935E-02-1.59400E-03-1.52540E-13
 -1       226 1.46829E-02-1.66290E-03-1.58181E-13
 -1       227 1.49706E-02-1.72993E-03-1.63843E-13
 -1       228 1.52571E-02-1.79506E-03-1.69527E-13
 -1       229 6.03982E-04 3.30720E-04-4.21077E-17
 -1       230 8.92777E-04 4.32001E-04-2.69841E-16
 -1       231 1.17138E-03 5.03248E-04-6.53377E-16
 -1       232 1.44546E-03 5.53629E-04-1.19750E-15
 -1       233 1.71806E-03 5.88917E-04-1.90460E-15
 -1       234 1.99082E-03 6.13032E-04-2.77616E-15
 -1       235 2.26466E-03 6.28783E-04-3.81322E-15
 -1       236 2.54006E-03 6.38231E-04-5.01615E-15
 -1       237 2.81727E-03 6.42909E-04-6.38501E-15
 -1       238 3.09643E-03 6.43962E-04-7.91999E-15
 -1       239 3.37764E-03 6.42250E-04-9.61620E-15
 -1       240 3.66101E-03 6.38440E-04-1.14685E-14
 -1       241 3.94671E-03 6.33087E-04-1.34756E-14
 -1       242 4.23497E-03 6.26714E-04-1.56339E-14
 -1       243 4.52610E-03 6.19899E-04-1.79428E-14
 -1       244 4.82047E-03 6.13363E-04-2.03998E-14
 -1       245 5.11847E-03 6.08060E-04-2.30058E-14
 -1       246 5.42048E-03 6.05260E-04-2.57554E-14
 -1       247 5.72671E-03 6.06606E-04-2.86511E-14
 -1       248 6.03709E-03 6.14093E-04-3.16951E-14
 -1       249 6.35109E-03 6.29928E-04-3.48815E-14
 -1       250 6.66748E-03 6.56156E-04-3.82168E-14
 -1       251 6.98421E-03 6.93998E-04-4.16834E-14
 -1       252 7.29843E-03 7.42859E-04-4.52819E-14
 -1       253 7.60679E-03 7.99181E-04-4.90166E-14
 -1       254 7.90621E-03 8.55627E-04-5.28815E-14
 -1       255 8.19502E-03 9.01360E-04-5.68773E-14
 -1       256 8.47402E-03 9.24073E-04-6.10081E-14
 -1       257 8.74686E-03 9.13578E-04-6.52824E-14
 -1       258 9.01923E-03 8.65536E-04-6.96939E-14
 -1       259 9.29699E-03 7.83217E-04-7.42310E-14
 -1       260 9.58418E-03 6.76146E-04-7.88841E-14
 -1       261 9.88203E-03 5.56544E-04-8.36518E-14
 -1       262 1.01892E-02 4.35609E-04-8.85346E-14
 -1       263 1.05026E-02 3.21226E-04-9.35291E-14
 -1       264 1.08191E-02 2.17460E-04-9.86241E-14
 -1       265 1.11356E-02 1.25262E-04-1.03810E-13
 -1       266 1.14499E-02 4.35897E-05-1.09076E-13
 -1       267 1.17608E-02-2.95615E-05-1.14424E-13
 -1       268 1.20677E-02-9.64371E-05-1.19848E-13
 -1       269 1.23704E-02-1.59118E-04-1.25337E-13
 -1       270 1.26693E-02-2.19343E-04-1.30875E-13
 -1       271 1.29647E-02-2.78475E-04-1.36459E-13
 -1       272 1.32572E-02-3.37538E-04-1.42083E-13
 -1       273 1.35473E-02-3.97279E-04-1.47737E-13
 -1       274 1.38356E-02-4.58223E-04-1.53419E-13
 -1       275 1.41226E-02-5.20686E-04-1.59120E-13
 -1       276 1.44087E-02-5.84698E-04-1.64821E-13
 -1       277 1.45079E-02-6.59870E-04-1.66193E-13
 -1       278 1.45735E-02-7.43431E-04-1.66682E-13
 -1       279 1.46404E-02-8.26079E-04-1.67161E-13
 -1       280 1.47081E-02-9.07567E-04-1.67638E-13
 -1       281 1.47747E-02-9.86453E-04-1.68111E-13
 -1       282 1.48419E-02-1.06554E-03-1.68587E-13
 -1       283 1.49077E-02-1.14371E-03-1.69059E-13
 -1       284 1.49717E-02-1.22134E-03-1.69523E-13
 -1       285 1.50337E-02-1.29890E-03-1.69981E-13
 -1       286 1.50938E-02-1.37688E-03-1.70440E-13
 -1       287 1.51515E-02-1.45437E-03-1.70891E-13
 -1       288 1.52095E-02-1.53435E-03-1.71342E-13
 -1       289 1.52675E-02-1.61564E-03-1.71781E-13
 -1       290 1.53265E-02-1.69817E-03-1.72204E-13
 -1       291 1.52913E-02-1.74648E-03-1.70869E-13
 -1       292 1.12741E-02-3.93776E-04-8.25933E-14
 -1       293 1.11157E-02-2.99386E-04-8.20500E-14
 -1       294 1.08262E-02-1.75264E-04-8.08677E-14
 -1       295 1.04743E-02 1.78346E-05-7.86365E-14
 -1       296 1.00855E-02 2.10747E-04-7.63108E-14
 -1       297 9.69478E-03 3.78310E-04-7.38925E-14
 -1       298 9.31111E-03 5.02282E-04-7.13762E-14
 -1       299 8.94659E-03 5.54952E-04-6.88320E-14
 -1       300 8.57902E-03 5.28305E-04-6.62985E-14
 -1       301 8.19459E-03 4.22602E-04-6.40210E-14
 -1       302 7.81224E-03 2.78894E-04-6.21385E-14
 -1       303 7.45665E-03 1.10636E-04-6.03630E-14
 -1       304 7.13075E-03-2.60253E-05-5.93804E-14
 -1       305 6.91162E-03-1.43843E-04-5.87173E-14
 -1       306 6.81634E-03-2.40726E-04-5.85507E-14
 -1       307 6.85980E-03-3.35960E-04-5.87864E-14
 -1       308 7.03645E-03-4.55408E-04-5.96831E-14
 -1       309 7.30688E-03-5.99428E-04-6.08660E-14
 -1       310 7.65175E-03-7.77915E-04-6.24429E-14
 -1       311 8.05716E-03-9.70666E-04-6.42788E-14
 -1       312 8.43545E-03-1.15906E-03-6.65857E-14
 -1       313 8.82775E-03-1.29359E-03-6.89762E-14
 -1       314 9.20703E-03-1.34121E-03-7.15189E-14
 -1       315 9.57759E-03-1.30004E-03-7.39639E-14
 -1       316 9.94237E-03-1.18389E-03-7.64358E-14
 -1       317 1.03253E-02-1.02577E-03-7.84081E-14
 -1       318 1.06707E-02-8.61554E-04-8.01564E-14
 -1       319 1.09691E-02-6.88192E-04-8.20506E-14
 -1       320 1.11986E-02-5.83628E-04-8.24639E-14
 -1       321 1.13034E-02-4.83778E-04-8.30799E-14
 -1       322 4.55327E-04-1.64644E-04-2.89665E-16
 -1       323 4.74011E-04-2.12803E-04-2.52226E-16
 -1       324 4.40620E-04-9.38908E-05-3.18471E-16
 -1       325 4.37723E-04-6.48081E-05-3.20246E-16
 -1       326 4.36139E-04-3.78367E-05-3.17797E-16
 -1       327 4.35447E-04-1.19907E-05-3.12071E-16
 -1       328 4.35475E-04 1.35168E-05-3.03756E-16
 -1       329 4.36231E-04 3.94193E-05-2.92020E-16
 -1       330 4.37855E-04 6.60411E-05-2.76261E-16
 -1       331 4.40843E-04 9.52914E-05-2.54882E-16
 -1       332 4.46130E-04 1.28187E-04-2.25504E-16
 -1       333 4.55826E-04 1.67151E-04-1.84003E-16
 -1       334 4.75642E-04 2.16863E-04-1.24239E-16
 -1       335 5.31616E-04 2.69731E-04-9.28043E-17
 -1       336 8.23877E-04 3.72947E-04-3.34971E-16
 -1       337 8.62755E-04-3.56796E-04-7.70885E-16
 -1       338 1.14896E-03-4.25033E-04-1.38149E-15
 -1       339 1.43164E-03-4.73465E-04-2.17076E-15
 -1       340 1.71230E-03-5.07191E-04-3.13712E-15
 -1       341 1.99212E-03-5.29938E-04-4.27862E-15
 -1       342 2.27190E-03-5.44448E-04-5.59169E-15
 -1       343 2.55217E-03-5.52744E-04-7.07479E-15
 -1       344 2.83330E-03-5.56312E-04-8.72464E-15
 -1       345 3.11551E-03-5.56236E-04-1.05383E-14
 -1       346 3.39901E-03-5.53292E-04-1.25104E-14
 -1       347 3.68399E-03-5.48038E-04-1.46401E-14
 -1       348 3.97065E-03-5.40881E-04-1.69230E-14
 -1       349 4.25928E-03-5.32166E-04-1.93559E-14
 -1       350 4.55024E-03-5.22257E-04-2.19346E-14
 -1       351 4.84400E-03-5.11647E-04-2.46545E-14
 -1       352 5.14112E-03-5.01105E-04-2.75138E-14
 -1       353 5.44233E-03-4.91876E-04-3.05090E-14
 -1       354 5.74848E-03-4.85948E-04-3.36370E-14
 -1       355 6.06064E-03-4.86424E-04-3.68983E-14
 -1       356 6.38008E-03-4.97962E-04-4.02856E-14
 -1       357 6.70839E-03-5.27224E-04-4.38024E-14
 -1       358 7.04749E-03-5.83034E-04-4.74486E-14
 -1       359 7.39928E-03-6.75622E-04-5.12150E-14
 -1       360 7.76438E-03-8.13635E-04-5.50992E-14
 -1       361 8.13935E-03-9.96970E-04-5.91063E-14
 -1       362 8.51444E-03-1.20469E-03-6.32427E-14
 -1       363 8.87768E-03-1.38616E-03-6.75215E-14
 -1       364 9.22743E-03-1.47684E-03-7.19521E-14
 -1       365 9.57747E-03-1.44612E-03-7.65285E-14
 -1       366 9.94126E-03-1.32660E-03-8.12415E-14
 -1       367 1.03165E-02-1.18297E-03-8.60685E-14
 -1       368 1.06912E-02-1.06494E-03-9.09855E-14
 -1       369 1.10558E-02-9.92419E-04-9.59831E-14
 -1       370 1.14071E-02-9.65058E-04-1.01055E-13
 -1       371 1.17458E-02-9.74043E-04-1.06185E-13
 -1       372 1.20737E-02-1.00914E-03-1.11375E-13
 -1       373 1.23929E-02-1.06157E-03-1.16618E-13
 -1       374 1.27048E-02-1.12470E-03-1.21926E-13
 -1       375 1.30109E-02-1.19391E-03-1.27310E-13
 -1       376 1.33121E-02-1.26610E-03-1.32757E-13
 -1       377 1.36094E-02-1.33925E-03-1.38257E-13
 -1       378 1.39035E-02-1.41211E-03-1.43805E-13
 -1       379 1.41952E-02-1.48389E-03-1.49396E-13
 -1       380 1.44848E-02-1.55409E-03-1.55016E-13
 -1       381 1.47729E-02-1.62242E-03-1.60660E-13
 -1       382 1.50325E-02-1.68526E-03-1.65754E-13
 -1       383 1.10916E-03 4.46785E-04-7.28343E-16
 -1       384 1.38974E-03 4.99162E-04-1.27953E-15
 -1       385 1.66793E-03 5.35835E-04-1.99092E-15
 -1       386 1.94530E-03 5.60867E-04-2.86494E-15
 -1       387 2.22283E-03 5.77196E-04-3.90286E-15
 -1       388 2.50114E-03 5.86985E-04-5.10548E-15
 -1       389 2.78058E-03 5.91837E-04-6.47213E-15
 -1       390 3.06138E-03 5.92941E-04-8.00235E-15
 -1       391 3.34373E-03 5.91185E-04-9.69334E-15
 -1       392 3.62776E-03 5.87245E-04-1.15401E-14
 -1       393 3.91364E-03 5.81673E-04-1.35414E-14
 -1       394 4.20160E-03 5.74976E-04-1.56937E-14
 -1       395 4.49188E-03 5.67704E-04-1.79967E-14
 -1       396 4.78480E-03 5.60538E-04-2.04475E-14
 -1       397 5.08072E-03 5.54388E-04-2.30463E-14
 -1       398 5.37996E-03 5.50481E-04-2.57873E-14
 -1       399 5.68279E-03 5.50423E-04-2.86749E-14
 -1       400 5.98933E-03 5.56212E-04-3.17105E-14
 -1       401 6.29940E-03 5.70123E-04-3.48905E-14
 -1       402 6.61238E-03 5.94391E-04-3.82130E-14
 -1       403 6.92705E-03 6.30590E-04-4.16678E-14
 -1       404 7.24149E-03 6.78662E-04-4.52536E-14
 -1       405 7.55312E-03 7.35686E-04-4.89746E-14
 -1       406 7.85918E-03 7.94813E-04-5.28267E-14
 -1       407 8.15761E-03 8.45166E-04-5.68098E-14
 -1       408 8.44820E-03 8.73611E-04-6.09284E-14
 -1       409 8.73330E-03 8.68511E-04-6.51869E-14
 -1       410 9.01745E-03 8.24132E-04-6.95834E-14
 -1       411 9.30555E-03 7.43149E-04-7.41080E-14
 -1       412 9.60091E-03 6.35441E-04-7.87496E-14
 -1       413 9.90424E-03 5.14105E-04-8.35065E-14
 -1       414 1.02140E-02 3.91186E-04-8.83809E-14
 -1       415 1.05277E-02 2.75106E-04-9.33633E-14
 -1       416 1.08425E-02 1.70148E-04-9.84446E-14
 -1       417 1.11562E-02 7.72685E-05-1.03617E-13
 -1       418 1.14674E-02-4.65949E-06-1.08865E-13
 -1       419 1.17753E-02-7.77507E-05-1.14195E-13
 -1       420 1.20796E-02-1.44355E-04-1.19606E-13
 -1       421 1.23803E-02-2.06636E-04-1.25080E-13
 -1       422 1.26777E-02-2.66396E-04-1.30605E-13
 -1       423 1.29722E-02-3.25039E-04-1.36175E-13
 -1       424 1.32643E-02-3.83617E-04-1.41782E-13
 -1       425 1.35543E-02-4.42893E-04-1.47424E-13
 -1       426 1.38426E-02-5.03404E-04-1.53094E-13
 -1       427 1.41298E-02-5.65485E-04-1.58783E-13
 -1       428 1.43190E-02-6.12354E-04-1.62489E-13
 -1       429 1.44274E-02-8.11083E-04-1.62489E-13
 -1       430 1.43595E-02-7.29091E-04-1.62002E-13
 -1       431 1.43387E-02-6.70985E-04-1.62244E-13
 -1       432 1.44946E-02-8.90554E-04-1.62964E-13
 -1       433 1.45626E-02-9.70281E-04-1.63442E-13
 -1       434 1.46295E-02-1.04905E-03-1.63917E-13
 -1       435 1.46946E-02-1.12714E-03-1.64388E-13
 -1       436 1.47577E-02-1.20493E-03-1.64858E-13
 -1       437 1.48186E-02-1.28284E-03-1.65321E-13
 -1       438 1.48766E-02-1.35994E-03-1.65768E-13
 -1       439 1.49344E-02-1.43927E-03-1.66211E-13
 -1       440 1.49917E-02-1.51975E-03-1.66642E-13
 -1       441 1.50496E-02-1.60147E-03-1.67066E-13
 -1       442 1.09842E-02-3.14584E-04-8.34976E-14
 -1       443 1.13222E-02-4.54642E-04-8.53288E-14
 -1       444 1.12307E-02-4.07241E-04-8.47720E-14
 -1       445 1.05741E-02-1.35150E-04-8.11810E-14
 -1       446 1.01916E-02 6.55027E-05-7.86616E-14
 -1       447 4.45669E-04-1.26348E-04-3.09492E-16
 -1       448 9.44290E-03 4.51677E-04-7.32113E-14
 -1       449 9.09849E-03 5.65808E-04-7.00899E-14
 -1       450 8.77879E-03 5.82654E-04-6.72185E-14
 -1       451 8.41708E-03 4.91898E-04-6.43201E-14
 -1       452 8.04997E-03 3.34111E-04-6.19408E-14
 -1       453 7.70291E-03 1.66480E-04-6.00426E-14
 -1       454 7.29442E-03-2.54811E-05-5.80025E-14
 -1       455 7.01495E-03-1.32737E-04-5.74357E-14
 -1       456 6.83352E-03-2.10801E-04-5.67547E-14
 -1       457 6.80030E-03-2.61078E-04-5.66854E-14
 -1       458 6.93935E-03-3.28798E-04-5.72837E-14
 -1       459 7.14636E-03-4.20352E-04-5.84285E-14
 -1       460 7.53810E-03-6.01685E-04-6.01513E-14
 -1       461 7.87732E-03-7.87358E-04-6.19331E-14
 -1       462 8.35121E-03-1.06527E-03-6.48470E-14
 -1       463 8.68428E-03-1.24282E-03-6.73249E-14
 -1       464 9.05785E-03-1.36689E-03-7.03644E-14
 -1       465 9.37902E-03-1.36424E-03-7.31552E-14
 -1       466 9.69548E-03-1.27409E-03-7.58731E-14
 -1       467 1.01010E-02-1.07827E-03-7.89464E-14
 -1       468 1.04461E-02-9.00976E-04-8.08081E-14
 -1       469 1.07575E-02-7.41677E-04-8.26699E-14
 -1       470 1.11239E-02-5.76230E-04-8.46263E-14
 -1       471 1.12769E-02-5.10624E-04-8.52443E-14
 -1       472 9.80807E-03 2.75907E-04-7.59033E-14
 -1       473 1.07857E-02-2.61311E-04-8.38108E-14
 -1       474 1.09713E-02-6.35788E-04-8.52423E-14
 -1       475 9.30877E-04 3.45306E-04-6.44988E-16
 -1       476 6.66215E-04-7.49353E-05-6.77569E-16
 -1       477 6.70105E-04-1.15620E-04-6.78338E-16
 -1       478 6.63593E-04 1.10928E-06-6.56020E-16
 -1       479 6.64297E-04 3.86675E-05-6.36671E-16
 -1       480 6.66393E-04 7.66287E-05-6.10887E-16
 -1       481 6.70406E-04 1.17463E-04-5.76453E-16
 -1       482 6.77293E-04 1.62025E-04-5.30775E-16
 -1       483 6.89027E-04 2.12347E-04-4.69859E-16
 -1       484 1.21668E-03 4.05219E-04-1.15363E-15
 -1       485 9.76047E-04-3.27856E-04-1.12750E-15
 -1       486 9.63330E-03 3.39366E-04-7.59462E-14
 -1       487 1.26193E-03-3.82100E-04-1.83923E-15
 -1       488 1.54695E-03-4.20997E-04-2.72426E-15
 -1       489 1.83113E-03-4.47901E-04-3.78127E-15
 -1       490 2.11480E-03-4.65633E-04-5.00808E-15
 -1       491 2.39832E-03-4.76400E-04-6.40180E-15
 -1       492 2.68198E-03-4.81869E-04-7.96074E-15
 -1       493 2.96599E-03-4.83278E-04-9.68223E-15
 -1       494 3.25054E-03-4.81526E-04-1.15629E-14
 -1       495 3.53576E-03-4.77255E-04-1.36015E-14
 -1       496 3.82176E-03-4.70925E-04-1.57939E-14
 -1       497 4.10869E-03-4.62891E-04-1.81387E-14
 -1       498 4.39668E-03-4.53477E-04-2.06297E-14
 -1       499 4.68589E-03-4.43075E-04-2.32643E-14
 -1       500 4.97651E-03-4.32250E-04-2.60390E-14
 -1       501 5.26878E-03-4.21896E-04-2.89525E-14
 -1       502 5.56301E-03-4.13427E-04-3.19985E-14
 -1       503 5.85972E-03-4.09035E-04-3.51792E-14
 -1       504 6.15978E-03-4.12016E-04-3.84899E-14
 -1       505 6.46484E-03-4.27171E-04-4.19270E-14
 -1       506 6.77783E-03-4.61256E-04-4.54921E-14
 -1       507 7.10359E-03-5.23417E-04-4.91800E-14
 -1       508 7.44870E-03-6.25160E-04-5.29851E-14
 -1       509 7.81887E-03-7.78133E-04-5.69070E-14
 -1       510 8.21268E-03-9.85056E-04-6.09543E-14
 -1       511 8.61537E-03-1.21621E-03-6.51379E-14
 -1       512 9.00834E-03-1.39010E-03-6.94739E-14
 -1       513 9.39271E-03-1.41930E-03-7.39646E-14
 -1       514 9.78590E-03-1.30565E-03-7.86040E-14
 -1       515 1.01892E-02-1.13836E-03-8.33726E-14
 -1       516 1.05818E-02-9.96967E-04-8.82457E-14
 -1       517 1.09511E-02-9.09651E-04-9.32031E-14
 -1       518 1.12954E-02-8.73311E-04-9.82345E-14
 -1       519 1.16207E-02-8.76060E-04-1.03331E-13
 -1       520 1.19333E-02-9.06438E-04-1.08486E-13
 -1       521 1.22382E-02-9.55366E-04-1.13698E-13
 -1       522 1.25381E-02-1.01613E-03-1.18969E-13
 -1       523 1.28348E-02-1.08395E-03-1.24307E-13
 -1       524 1.31290E-02-1.15554E-03-1.29718E-13
 -1       525 1.34214E-02-1.22869E-03-1.35181E-13
 -1       526 1.37122E-02-1.30198E-03-1.40697E-13
 -1       527 1.40017E-02-1.37448E-03-1.46261E-13
 -1       528 1.42901E-02-1.44561E-03-1.51860E-13
 -1       529 1.45776E-02-1.51503E-03-1.57485E-13
 -1       530 1.78350E-03 4.77892E-04-2.64209E-15
 -1       531 2.06560E-03 4.97803E-04-3.62636E-15
 -1       532 2.34757E-03 5.10252E-04-4.77288E-15
 -1       533 2.62984E-03 5.17067E-04-6.08140E-15
 -1       534 2.91266E-03 5.19614E-04-7.55218E-15
 -1       535 3.19626E-03 5.18909E-04-9.18291E-15
 -1       536 3.48079E-03 5.15706E-04-1.09704E-14
 -1       537 3.76641E-03 5.10592E-04-1.29124E-14
 -1       538 4.05329E-03 5.04057E-04-1.50063E-14
 -1       539 4.34162E-03 4.96588E-04-1.72516E-14
 -1       540 4.63165E-03 4.88747E-04-1.96437E-14
 -1       541 4.92367E-03 4.81268E-04-2.21827E-14
 -1       542 5.21805E-03 4.75150E-04-2.48658E-14
 -1       543 5.51518E-03 4.71745E-04-2.76932E-14
 -1       544 5.81552E-03 4.72816E-04-3.06677E-14
 -1       545 6.11952E-03 4.80530E-04-3.37888E-14
 -1       546 6.42751E-03 4.97318E-04-3.70507E-14
 -1       547 6.73956E-03 5.25505E-04-4.04452E-14
 -1       548 7.05517E-03 5.66589E-04-4.39684E-14
 -1       549 7.37290E-03 6.20079E-04-4.76249E-14
 -1       550 7.69014E-03 6.81953E-04-5.14127E-14
 -1       551 8.00357E-03 7.43319E-04-5.53341E-14
 -1       552 8.31041E-03 7.90510E-04-5.93867E-14
 -1       553 8.61041E-03 8.08073E-04-6.35782E-14
 -1       554 8.90678E-03 7.84391E-04-6.79072E-14
 -1       555 9.20486E-03 7.17378E-04-7.23692E-14
 -1       556 9.50896E-03 6.15574E-04-7.69576E-14
 -1       557 9.82013E-03 4.93720E-04-8.16638E-14
 -1       558 1.01363E-02 3.66678E-04-8.64854E-14
 -1       559 1.04542E-02 2.45251E-04-9.14148E-14
 -1       560 1.07708E-02 1.35156E-04-9.64513E-14
 -1       561 1.10843E-02 3.80079E-05-1.01576E-13
 -1       562 1.13938E-02-4.71312E-05-1.06781E-13
 -1       563 1.16993E-02-1.22416E-04-1.12061E-13
 -1       564 1.20010E-02-1.90332E-04-1.17423E-13
 -1       565 1.22994E-02-2.53214E-04-1.22857E-13
 -1       566 1.25949E-02-3.13025E-04-1.28345E-13
 -1       567 1.28881E-02-3.71311E-04-1.33883E-13
 -1       568 1.31793E-02-4.29233E-04-1.39456E-13
 -1       569 1.34689E-02-4.87636E-04-1.45067E-13
 -1       570 1.37571E-02-5.47121E-04-1.50711E-13
 -1       571 1.40443E-02-6.08107E-04-1.56382E-13
 -1       572 1.42828E-02-8.76170E-04-1.58303E-13
 -1       573 1.43510E-02-9.55197E-04-1.58786E-13
 -1       574 1.41461E-02-7.16007E-04-1.57334E-13
 -1       575 1.42144E-02-7.96699E-04-1.57820E-13
 -1       576 1.44175E-02-1.03332E-03-1.59262E-13
 -1       577 1.44818E-02-1.11089E-03-1.59733E-13
 -1       578 1.45437E-02-1.18830E-03-1.60199E-13
 -1       579 1.46023E-02-1.26469E-03-1.60647E-13
 -1       580 1.46600E-02-1.34312E-03-1.61092E-13
 -1       581 1.47167E-02-1.42265E-03-1.61526E-13
 -1       582 1.47734E-02-1.50351E-03-1.61949E-13
 -1       583 1.13575E-02-4.91855E-04-8.81111E-14
 -1       584 1.50074E-03 4.48090E-04-1.81848E-15
 -1       585 1.13169E-02-4.55451E-04-8.75408E-14
 -1       586 1.03473E-02-6.07646E-05-8.14704E-14
 -1       587 1.11425E-02-3.99729E-04-8.64764E-14
 -1       588 6.81398E-03-2.61568E-04-5.48272E-14
 -1       589 6.64192E-04-3.64144E-05-6.69725E-16
 -1       590 8.93443E-03 6.02023E-04-6.85339E-14
 -1       591 8.56392E-03-1.16992E-03-6.56039E-14
 -1       592 9.22335E-03 5.37677E-04-7.16396E-14
 -1       593 8.58906E-03 5.61663E-04-6.50143E-14
 -1       594 8.22534E-03 4.22425E-04-6.16830E-14
 -1       595 7.88578E-03 2.47686E-04-5.96637E-14
 -1       596 7.50987E-03 6.49100E-05-5.75438E-14
 -1       597 7.09005E-03-1.07093E-04-5.55457E-14
 -1       598 6.88126E-03-1.78773E-04-5.48842E-14
 -1       599 6.76958E-03-2.24269E-04-5.47393E-14
 -1       600 7.03856E-03-3.41390E-04-5.61492E-14
 -1       601 7.32156E-03-4.57646E-04-5.75211E-14
 -1       602 7.72347E-03-6.60628E-04-5.96868E-14
 -1       603 8.14614E-03-9.11782E-04-6.23163E-14
 -1       604 8.89320E-03-1.33281E-03-6.85942E-14
 -1       605 9.25178E-03-1.40128E-03-7.22316E-14
 -1       606 9.51585E-03-1.35620E-03-7.49313E-14
 -1       607 9.89094E-03-1.19781E-03-7.85867E-14
 -1       608 1.03202E-02-9.62850E-04-8.21654E-14
 -1       609 1.05974E-02-8.14945E-04-8.40397E-14
 -1       610 1.12553E-02-5.40819E-04-8.82291E-14
 -1       611 7.12484E-04-2.51428E-04-6.40194E-16
 -1       612 7.03485E-04 2.90491E-04-3.32349E-16
 -1       613 9.97644E-03 1.43534E-04-7.86875E-14
 -1       614 6.76811E-04-1.59729E-04-6.69451E-16
 -1       615 1.05853E-02-1.82937E-04-8.41027E-14
 -1       616 1.47726E-02-1.56249E-03-1.61308E-13
 -1       617 1.09956E-02-3.54450E-04-8.67906E-14
 -1       618 7.25824E-03-2.26279E-05-5.50838E-14
 -1       619 9.00263E-04 7.38358E-05-1.07762E-15
 -1       620 8.98207E-04 2.50894E-05-1.11354E-15
 -1       621 9.12149E-04 1.77661E-04-9.70581E-16
 -1       622 9.24328E-04 2.36133E-04-8.92102E-16
 -1       623 1.04878E-03 3.12999E-04-1.00274E-15
 -1       624 1.13028E-02-4.53785E-04-9.02405E-14
 -1       625 1.33451E-03 3.59966E-04-1.62253E-15
 -1       626 9.06147E-03 5.92584E-04-7.00118E-14
 -1       627 1.38336E-03-3.35358E-04-2.32009E-15
 -1       628 1.66960E-03-3.65335E-04-3.29471E-15
 -1       629 1.95587E-03-3.85842E-04-4.43655E-15
 -1       630 2.24200E-03-3.98964E-04-5.74317E-15
 -1       631 2.52797E-03-4.06400E-04-7.21301E-15
 -1       632 2.81384E-03-4.09470E-04-8.84438E-15
 -1       633 3.09966E-03-4.09161E-04-1.06352E-14
 -1       634 3.38547E-03-4.06193E-04-1.25827E-14
 -1       635 3.67130E-03-4.01087E-04-1.46848E-14
 -1       636 3.95715E-03-3.94228E-04-1.69402E-14
 -1       637 4.24299E-03-3.85939E-04-1.93437E-14
 -1       638 4.52874E-03-3.76556E-04-2.18923E-14
 -1       639 4.81433E-03-3.66518E-04-2.45816E-14
 -1       640 5.09960E-03-3.56472E-04-2.74117E-14
 -1       641 5.38441E-03-3.47400E-04-3.03786E-14
 -1       642 5.66868E-03-3.40774E-04-3.34781E-14
 -1       643 5.95261E-03-3.38732E-04-3.67125E-14
 -1       644 6.23699E-03-3.44306E-04-4.00742E-14
 -1       645 6.52387E-03-3.61746E-04-4.35594E-14
 -1       646 6.81765E-03-3.97153E-04-4.71694E-14
 -1       647 7.12640E-03-4.59857E-04-5.08958E-14
 -1       648 7.46226E-03-5.64842E-04-5.47363E-14
 -1       649 1.05080E-02-9.19420E-04-8.55036E-14
 -1       650 1.08824E-02-8.17036E-04-9.04225E-14
 -1       651 1.12169E-02-7.77832E-04-9.54171E-14
 -1       652 1.15249E-02-7.80062E-04-1.00479E-13
 -1       653 1.18184E-02-8.09159E-04-1.05601E-13
 -1       654 1.21052E-02-8.55863E-04-1.10775E-13
 -1       655 1.23895E-02-9.14133E-04-1.16011E-13
 -1       656 1.26735E-02-9.79745E-04-1.21312E-13
 -1       657 1.29578E-02-1.04967E-03-1.26685E-13
 -1       658 1.32427E-02-1.12175E-03-1.32114E-13
 -1       659 1.35280E-02-1.19451E-03-1.37596E-13
 -1       660 1.38136E-02-1.26694E-03-1.43131E-13
 -1       661 1.40993E-02-1.33838E-03-1.48708E-13
 -1       662 1.43851E-02-1.40840E-03-1.54314E-13
 -1       663 2.19076E-03 4.32140E-04-4.42242E-15
 -1       664 1.90564E-03 4.16984E-04-3.33001E-15
 -1       665 2.76068E-03 4.45345E-04-7.08683E-15
 -1       666 3.04579E-03 4.45992E-04-8.65839E-15
 -1       667 3.33116E-03 4.43871E-04-1.03869E-14
 -1       668 3.61691E-03 4.39605E-04-1.22708E-14
 -1       669 3.90314E-03 4.33685E-04-1.43071E-14
 -1       670 4.18999E-03 4.26542E-04-1.64940E-14
 -1       671 4.47763E-03 4.18628E-04-1.88299E-14
 -1       672 4.76629E-03 4.10500E-04-2.13096E-14
 -1       673 5.05632E-03 4.02904E-04-2.39360E-14
 -1       674 5.34817E-03 3.96871E-04-2.67073E-14
 -1       675 5.64249E-03 3.93802E-04-2.96207E-14
 -1       676 5.94012E-03 3.95538E-04-3.26804E-14
 -1       677 6.24213E-03 4.04370E-04-3.58843E-14
 -1       678 6.54968E-03 4.22946E-04-3.92207E-14
 -1       679 6.86371E-03 4.53935E-04-4.26835E-14
 -1       680 7.18439E-03 4.99260E-04-4.62769E-14
 -1       681 7.51025E-03 5.58620E-04-5.00021E-14
 -1       682 7.83755E-03 6.27110E-04-5.38577E-14
 -1       683 8.16099E-03 6.92853E-04-5.78461E-14
 -1       684 8.47650E-03 7.37366E-04-6.19691E-14
 -1       685 8.78462E-03 7.40813E-04-6.62322E-14
 -1       686 9.09130E-03 6.92377E-04-7.06320E-14
 -1       687 9.40362E-03 5.97231E-04-7.51606E-14
 -1       688 9.72434E-03 4.73026E-04-7.98180E-14
 -1       689 1.00508E-02 3.39739E-04-8.45917E-14
 -1       690 1.03778E-02 2.12004E-04-8.94750E-14
 -1       691 1.07007E-02 9.70814E-05-9.44613E-14
 -1       692 1.10173E-02-3.31079E-06-9.95418E-14
 -1       693 1.13272E-02-9.04998E-05-1.04705E-13
 -1       694 1.16312E-02-1.67032E-04-1.09944E-13
 -1       695 1.19303E-02-2.35653E-04-1.15260E-13
 -1       696 1.22258E-02-2.98845E-04-1.20650E-13
 -1       697 1.25186E-02-3.58658E-04-1.26097E-13
 -1       698 1.28094E-02-4.16694E-04-1.31600E-13
 -1       699 1.30986E-02-4.74150E-04-1.37142E-13
 -1       700 1.33868E-02-5.31895E-04-1.42725E-13
 -1       701 1.36741E-02-5.90555E-04-1.48343E-13
 -1       702 1.39104E-02-6.52824E-04-1.52833E-13
 -1       703 1.42062E-02-1.01757E-03-1.54618E-13
 -1       704 1.45793E-02-1.45638E-03-1.58128E-13
 -1       705 1.40720E-02-8.62465E-04-1.53664E-13
 -1       706 1.42695E-02-1.09418E-03-1.55085E-13
 -1       707 1.41402E-02-9.40471E-04-1.54147E-13
 -1       708 1.43289E-02-1.16951E-03-1.55537E-13
 -1       709 1.43868E-02-1.24668E-03-1.55989E-13
 -1       710 1.44430E-02-1.32491E-03-1.56431E-13
 -1       711 1.62024E-03 3.93721E-04-2.39744E-15
 -1       712 1.11090E-02-6.11894E-04-8.86758E-14
 -1       713 7.91370E-03-7.71172E-04-5.96324E-14
 -1       714 8.30659E-03-1.01385E-03-6.28395E-14
 -1       715 2.47571E-03 4.41100E-04-5.67388E-15
 -1       716 1.09776E-03-2.93649E-04-1.51441E-15
 -1       717 9.04641E-04 1.24179E-04-1.03111E-15
 -1       718 9.04302E-04-1.21766E-04-1.16450E-15
 -1       719 1.14143E-02-4.93070E-04-9.09103E-14
 -1       720 8.73241E-03 6.14051E-04-6.60851E-14
 -1       721 6.87258E-03-2.79122E-04-5.35832E-14
 -1       722 8.40705E-03 5.31899E-04-6.25300E-14
 -1       723 7.97806E-03 3.30488E-04-5.89176E-14
 -1       724 7.65280E-03 1.64730E-04-5.68176E-14
 -1       725 6.91285E-03-1.31707E-04-5.28867E-14
 -1       726 7.48840E-03-5.35045E-04-5.69425E-14
 -1       727 9.38659E-03 4.74199E-04-7.38910E-14
 -1       728 6.75222E-03-1.89784E-04-5.26358E-14
 -1       729 7.12996E-03-3.72953E-04-5.49254E-14
 -1       730 6.70842E-03-2.19949E-04-5.23936E-14
 -1       731 1.13926E-02-5.26210E-04-9.10143E-14
 -1       732 9.11609E-04-1.75058E-04-1.15955E-15
 -1       733 8.98152E-04-2.30574E-05-1.13972E-15
 -1       734 9.85034E-03 2.19510E-04-7.87488E-14
 -1       735 1.03364E-02-5.15872E-05-8.32555E-14
 -1       736 1.40030E-02-7.83924E-04-1.53178E-13
 -1       737 1.12084E-02-4.21135E-04-9.05585E-14
 -1       738 9.38344E-04-2.46460E-04-1.15961E-15
 -1       739 1.39565E-02-7.18884E-04-1.53007E-13
 -1       740 7.38676E-03 7.64292E-05-5.43626E-14
 -1       741 1.08296E-02-2.85593E-04-8.70880E-14
 -1       742 7.03249E-03-6.27731E-05-5.24257E-14
 -1       743 6.70479E-03-2.31432E-04-5.11710E-14
 -1       744 1.13107E-02-5.74357E-04-9.14742E-14
 -1       745 9.00076E-04-7.15419E-05-1.15686E-15
 -1       746 9.60076E-03 3.74832E-04-7.66516E-14
 -1       747 8.16407E-03 4.62084E-04-5.97312E-14
 -1       748 1.08970E-02-6.98814E-04-8.73402E-14
 -1       749 1.14655E-02-4.96966E-04-9.39546E-14
 -1       750 1.16183E-03 2.42623E-04-1.45119E-15
 -1       751 8.89494E-03 6.34029E-04-6.79587E-14
 -1       752 1.79762E-03-3.06563E-04-3.88083E-15
 -1       753 2.08524E-03-3.21315E-04-5.10208E-15
 -1       754 2.37292E-03-3.30361E-04-6.48429E-15
 -1       755 2.66040E-03-3.34965E-04-8.02625E-15
 -1       756 2.94753E-03-3.36128E-04-9.72762E-15
 -1       757 3.23420E-03-3.34607E-04-1.15857E-14
 -1       758 3.52030E-03-3.30961E-04-1.35976E-14
 -1       759 3.80573E-03-3.25605E-04-1.57621E-14
 -1       760 4.09033E-03-3.18876E-04-1.80769E-14
 -1       761 4.37387E-03-3.11088E-04-2.05391E-14
 -1       762 4.65606E-03-3.02609E-04-2.31440E-14
 -1       763 4.93651E-03-2.93935E-04-2.58889E-14
 -1       764 5.21473E-03-2.85773E-04-2.87749E-14
 -1       765 5.49017E-03-2.79123E-04-3.17950E-14
 -1       766 5.76228E-03-2.75352E-04-3.49494E-14
 -1       767 6.03074E-03-2.76256E-04-3.82370E-14
 -1       768 6.29578E-03-2.84131E-04-4.16489E-14
 -1       769 6.55896E-03-3.02002E-04-4.51821E-14
 -1       770 6.82474E-03-3.34868E-04-4.88337E-14
 -1       771 7.13438E-03-4.04737E-04-5.28256E-14
 -1       772 1.22483E-03-2.53835E-04-1.93034E-15
 -1       773 1.11641E-02-6.93609E-04-9.26488E-14
 -1       774 1.14488E-02-6.97606E-04-9.76740E-14
 -1       775 1.17196E-02-7.27706E-04-1.02764E-13
 -1       776 1.19867E-02-7.73051E-04-1.07906E-13
 -1       777 1.22547E-02-8.28782E-04-1.13105E-13
 -1       778 1.25255E-02-8.91611E-04-1.18372E-13
 -1       779 1.27993E-02-9.59054E-04-1.23705E-13
 -1       780 1.30761E-02-1.02920E-03-1.29102E-13
 -1       781 1.33552E-02-1.10061E-03-1.34556E-13
 -1       782 1.36362E-02-1.17223E-03-1.40058E-13
 -1       783 1.39187E-02-1.24334E-03-1.45610E-13
 -1       784 1.42021E-02-1.31342E-03-1.51197E-13
 -1       785 6.73608E-03-1.46548E-04-5.06128E-14
 -1       786 3.17991E-03 3.71552E-04-9.79213E-15
 -1       787 2.89348E-03 3.72382E-04-8.12223E-15
 -1       788 3.75216E-03 3.63511E-04-1.35967E-14
 -1       789 4.03805E-03 3.57174E-04-1.57252E-14
 -1       790 4.32390E-03 3.49778E-04-1.80034E-14
 -1       791 4.60984E-03 3.41714E-04-2.04285E-14
 -1       792 4.89612E-03 3.33486E-04-2.29970E-14
 -1       793 5.18314E-03 3.25784E-04-2.57118E-14
 -1       794 5.47156E-03 3.19581E-04-2.85698E-14
 -1       795 5.76235E-03 3.16227E-04-3.15690E-14
 -1       796 6.05692E-03 3.17558E-04-3.47122E-14
 -1       797 6.35713E-03 3.26004E-04-3.79931E-14
 -1       798 6.66519E-03 3.44647E-04-4.13998E-14
 -1       799 6.98319E-03 3.77078E-04-4.49329E-14
 -1       800 7.31211E-03 4.26619E-04-4.85929E-14
 -1       801 7.65010E-03 4.94217E-04-5.23849E-14
 -1       802 7.99121E-03 5.74253E-04-5.63088E-14
 -1       803 8.32629E-03 6.48424E-04-6.03626E-14
 -1       804 8.65138E-03 6.89351E-04-6.45569E-14
 -1       805 8.96879E-03 6.69994E-04-6.88927E-14
 -1       806 9.29017E-03 5.85336E-04-7.33627E-14
 -1       807 9.62123E-03 4.56176E-04-7.79665E-14
 -1       808 9.96135E-03 3.11420E-04-8.26958E-14
 -1       809 1.03014E-02 1.73981E-04-8.75355E-14
 -1       810 1.06342E-02 5.34685E-05-9.24764E-14
 -1       811 1.09563E-02-4.91767E-05-9.75124E-14
 -1       812 1.12679E-02-1.36739E-04-1.02635E-13
 -1       813 1.15708E-02-2.12891E-04-1.07836E-13
 -1       814 1.18672E-02-2.80972E-04-1.13112E-13
 -1       815 1.21593E-02-3.43682E-04-1.18457E-13
 -1       816 1.24484E-02-4.03102E-04-1.23866E-13
 -1       817 1.27358E-02-4.60786E-04-1.29328E-13
 -1       818 1.30222E-02-5.17870E-04-1.34840E-13
 -1       819 1.33081E-02-5.75163E-04-1.40392E-13
 -1       820 1.35936E-02-6.33247E-04-1.45985E-13
 -1       821 1.37752E-02-6.75797E-04-1.49491E-13
 -1       822 1.13882E-03 5.87437E-05-1.67593E-15
 -1       823 1.41710E-02-1.22724E-03-1.51351E-13
 -1       824 1.39959E-02-1.00117E-03-1.49994E-13
 -1       825 1.06001E-02-1.71540E-04-8.62327E-14
 -1       826 1.41152E-02-1.15076E-03-1.50905E-13
 -1       827 3.46613E-03 3.68433E-04-1.16177E-14
 -1       828 1.15138E-02-5.33084E-04-9.43865E-14
 -1       829 8.53735E-03 6.13089E-04-6.34706E-14
 -1       830 2.03293E-03 3.53513E-04-4.05646E-15
 -1       831 1.24633E-03 2.99527E-04-1.54427E-15
 -1       832 1.51054E-03-2.84592E-04-2.82329E-15
 -1       833 1.06693E-03-2.14103E-04-1.52186E-15
 -1       834 6.88915E-03-3.04242E-04-5.15230E-14
 -1       835 7.72022E-03 2.74014E-04-5.57148E-14
 -1       836 6.64292E-03-1.86060E-04-5.03719E-14
 -1       837 1.06811E-02-8.24933E-04-8.67162E-14
 -1       838 9.18597E-03 5.75932E-04-7.17482E-14
 -1       839 1.40572E-02-1.07584E-03-1.50452E-13
 -1       840 1.01119E-02 1.01294E-04-8.24389E-14
 -1       841 1.13747E-03 1.19940E-06-1.72003E-15
 -1       842 1.15020E-03 1.78243E-04-1.54436E-15
 -1       843 1.53240E-03 3.33424E-04-2.30213E-15
 -1       844 1.14290E-03 1.17330E-04-1.61794E-15
 -1       845 2.31996E-03 3.64366E-04-5.25306E-15
 -1       846 1.03696E-02-2.43892E-05-8.54074E-14
 -1       847 1.14143E-02-4.74191E-04-9.42800E-14
 -1       848 1.05723E-03-1.53781E-04-1.53228E-15
 -1       849 6.81543E-03-9.53863E-05-5.01632E-14
 -1       850 1.14919E-02-5.67290E-04-9.48600E-14
 -1       851 1.10866E-02-3.68361E-04-9.08578E-14
 -1       852 2.60683E-03 3.70276E-04-6.60859E-15
 -1       853 1.38627E-02-8.48882E-04-1.49045E-13
 -1       854 1.39308E-02-9.25493E-04-1.49524E-13
 -1       855 1.78246E-03 3.46813E-04-3.11608E-15
 -1       856 1.05132E-03-9.68502E-05-1.52646E-15
 -1       857 1.37930E-02-7.71597E-04-1.48558E-13
 -1       858 9.86898E-03 2.58333E-04-8.02931E-14
 -1       859 6.58962E-03-1.97002E-04-4.91740E-14
 -1       860 1.64205E-03-2.29719E-04-3.34605E-15
 -1       861 4.45531E-03 2.74366E-04-1.95360E-14
 -1       862 2.21838E-03-2.54560E-04-5.77706E-15
 -1       863 2.50698E-03-2.60197E-04-7.23131E-15
 -1       864 2.79524E-03-2.62570E-04-8.84242E-15
 -1       865 3.08286E-03-2.62401E-04-1.06112E-14
 -1       866 3.36957E-03-2.60244E-04-1.25336E-14
 -1       867 3.65516E-03-2.56522E-04-1.46079E-14
 -1       868 3.93936E-03-2.51573E-04-1.68332E-14
 -1       869 4.22185E-03-2.45703E-04-1.92072E-14
 -1       870 4.50223E-03-2.39241E-04-2.17262E-14
 -1       871 4.77997E-03-2.32595E-04-2.43873E-14
 -1       872 5.05439E-03-2.26315E-04-2.71878E-14
 -1       873 5.32466E-03-2.21144E-04-3.01281E-14
 -1       874 5.58977E-03-2.18033E-04-3.32048E-14
 -1       875 5.84852E-03-2.18135E-04-3.64142E-14
 -1       876 6.09962E-03-2.22737E-04-3.97536E-14
 -1       877 6.34179E-03-2.33213E-04-4.32154E-14
 -1       878 6.57406E-03-2.51294E-04-4.67932E-14
 -1       879 1.16477E-02-6.43520E-04-9.98772E-14
 -1       880 1.18851E-02-6.88910E-04-1.04987E-13
 -1       881 1.21304E-02-7.42342E-04-1.10155E-13
 -1       882 1.23838E-02-8.01748E-04-1.15385E-13
 -1       883 1.26442E-02-8.65624E-04-1.20686E-13
 -1       884 1.29105E-02-9.32575E-04-1.26046E-13
 -1       885 1.31816E-02-1.00138E-03-1.31468E-13
 -1       886 1.34565E-02-1.07104E-03-1.36942E-13
 -1       887 1.37343E-02-1.14080E-03-1.42461E-13
 -1       888 1.39524E-02-1.18447E-03-1.46897E-13
 -1       889 4.17137E-03 2.81680E-04-1.71675E-14
 -1       890 3.88667E-03 2.88039E-04-1.49469E-14
 -1       891 4.73862E-03 2.66390E-04-2.20491E-14
 -1       892 5.02154E-03 2.58134E-04-2.47068E-14
 -1       893 5.30455E-03 2.50147E-04-2.75092E-14
 -1       894 5.58847E-03 2.43235E-04-3.04527E-14
 -1       895 5.87462E-03 2.38582E-04-3.35374E-14
 -1       896 6.16502E-03 2.37939E-04-3.67615E-14
 -1       897 6.46246E-03 2.43932E-04-4.01129E-14
 -1       898 6.77056E-03 2.60452E-04-4.35883E-14
 -1       899 7.09278E-03 2.92943E-04-4.71898E-14
 -1       900 7.43237E-03 3.47930E-04-5.09163E-14
 -1       901 7.78598E-03 4.28800E-04-5.47744E-14
 -1       902 1.02312E-02 1.31175E-04-8.55921E-14
 -1       903 1.05767E-02 2.66810E-06-9.04956E-14
 -1       904 1.09056E-02-1.01606E-04-9.54886E-14
 -1       905 1.12186E-02-1.87516E-04-1.00567E-13
 -1       906 1.15195E-02-2.61139E-04-1.05730E-13
 -1       907 1.18121E-02-3.26917E-04-1.10967E-13
 -1       908 1.20995E-02-3.87929E-04-1.16272E-13
 -1       909 1.23840E-02-4.46246E-04-1.21643E-13
 -1       910 1.26671E-02-5.03271E-04-1.27070E-13
 -1       911 1.29497E-02-5.59961E-04-1.32548E-13
 -1       912 1.32324E-02-6.16981E-04-1.38072E-13
 -1       913 1.35155E-02-6.74755E-04-1.43638E-13
 -1       914 7.12341E-03 3.57076E-05-5.13359E-14
 -1       915 1.08919E-02-2.79274E-04-8.99946E-14
 -1       916 1.28128E-03-2.17126E-04-2.13327E-15
 -1       917 6.66311E-03-2.43526E-04-4.90122E-14
 -1       918 1.38985E-02-1.10913E-03-1.46458E-13
 -1       919 6.57881E-03-1.45593E-04-4.81723E-14
 -1       920 1.09337E-03-4.88951E-05-1.62746E-15
 -1       921 3.02805E-03 2.98697E-04-9.18784E-15
 -1       922 1.44694E-03 2.75175E-04-2.19099E-15
 -1       923 7.91089E-03 4.20358E-04-5.65656E-14
 -1       924 1.92985E-03-2.44748E-04-4.48139E-15
 -1       925 7.42561E-03 2.00706E-04-5.26392E-14
 -1       926 1.16256E-02-5.42760E-04-9.78914E-14
 -1       927 1.37839E-02-7.24136E-04-1.49026E-13
 -1       928 3.60119E-03 2.93190E-04-1.28756E-14
 -1       929 2.74053E-03 2.98239E-04-7.57545E-15
 -1       930 1.01167E-02 1.31197E-04-8.32282E-14
 -1       931 1.13327E-02-4.36688E-04-9.45888E-14
 -1       932 1.35846E-02-7.58936E-04-1.43964E-13
 -1       933 6.62114E-03-1.05873E-04-4.77375E-14
 -1       934 3.31496E-03 2.96858E-04-1.09552E-14
 -1       935 1.16470E-02-5.73642E-04-9.83804E-14
 -1       936 1.29746E-03-1.43455E-04-2.21595E-15
 -1       937 9.87438E-03 2.84894E-04-8.07907E-14
 -1       938 6.88353E-03-1.30916E-05-4.90963E-14
 -1       939 1.37229E-02-9.09774E-04-1.44929E-13
 -1       940 1.86624E-03 2.79621E-04-3.62932E-15
 -1       941 1.38419E-02-1.03560E-03-1.46010E-13
 -1       942 6.48960E-03-1.61581E-04-4.70040E-14
 -1       943 1.06742E-02-1.51288E-04-8.91634E-14
 -1       944 1.16079E-02-5.23768E-04-9.82290E-14
 -1       945 1.36553E-02-8.35096E-04-1.44454E-13
 -1       946 1.38472E-03 9.93369E-05-2.33694E-15
 -1       947 1.37838E-02-9.72766E-04-1.45475E-13
 -1       948 1.38157E-03 3.37989E-05-2.40390E-15
 -1       949 2.15432E-03 2.91932E-04-4.76433E-15
 -1       950 1.39122E-03 1.66258E-04-2.25152E-15
 -1       951 6.46027E-03-1.95614E-04-4.61871E-14
 -1       952 2.64378E-03-1.88846E-04-7.98258E-15
 -1       953 2.93226E-03-1.89672E-04-9.66133E-15
 -1       954 3.21974E-03-1.88807E-04-1.14928E-14
 -1       955 3.50589E-03-1.86637E-04-1.34770E-14
 -1       956 3.79036E-03-1.83476E-04-1.56135E-14
 -1       957 4.07278E-03-1.79607E-04-1.78980E-14
 -1       958 4.35269E-03-1.75327E-04-2.03304E-14
 -1       959 4.62952E-03-1.70990E-04-2.29049E-14
 -1       960 4.90256E-03-1.67046E-04-2.56210E-14
 -1       961 5.17090E-03-1.64100E-04-2.84778E-14
 -1       962 5.43338E-03-1.62912E-04-3.14756E-14
 -1       963 5.68853E-03-1.64377E-04-3.46091E-14
 -1       964 5.93439E-03-1.69459E-04-3.78717E-14
 -1       965 6.16836E-03-1.79063E-04-4.12616E-14
 -1       966 1.17870E-02-6.16194E-04-1.02065E-13
 -1       967 1.20080E-02-6.65694E-04-1.07204E-13
 -1       968 1.22437E-02-7.20433E-04-1.12402E-13
 -1       969 1.24909E-02-7.79622E-04-1.17669E-13
 -1       970 1.27469E-02-8.42310E-04-1.22994E-13
 -1       971 1.30100E-02-9.07482E-04-1.28383E-13
 -1       972 1.32786E-02-9.74205E-04-1.33825E-13
 -1       973 1.35515E-02-1.04172E-03-1.39319E-13
 -1       974 1.37246E-02-1.07563E-03-1.42881E-13
 -1       975 1.33822E-03-8.78614E-05-2.34071E-15
 -1       976 4.30343E-03 2.07775E-04-1.86341E-14
 -1       977 1.77712E-03-1.70755E-04-3.88548E-15
 -1       978 4.02067E-03 2.13768E-04-1.63227E-14
 -1       979 5.14312E-03 1.84868E-04-2.64391E-14
 -1       980 5.42094E-03 1.76300E-04-2.93272E-14
 -1       981 5.69889E-03 1.67984E-04-3.23557E-14
 -1       982 5.97851E-03 1.60803E-04-3.55232E-14
 -1       983 6.26228E-03 1.56317E-04-3.88216E-14
 -1       984 6.55394E-03 1.57353E-04-4.22428E-14
 -1       985 6.85898E-03 1.68879E-04-4.57904E-14
 -1       986 2.45255E-03 2.94852E-04-6.11969E-15
 -1       987 1.14800E-02-3.12416E-04-1.03630E-13
 -1       988 1.17662E-02-3.73681E-04-1.08830E-13
 -1       989 1.20470E-02-4.31531E-04-1.14098E-13
 -1       990 1.23252E-02-4.87872E-04-1.19430E-13
 -1       991 1.26027E-02-5.43815E-04-1.24820E-13
 -1       992 1.28806E-02-6.00010E-04-1.30267E-13
 -1       993 1.31594E-02-6.56857E-04-1.35760E-13
 -1       994 1.09955E-02-2.42599E-04-9.41284E-14
 -1       995 1.11740E-02-3.70344E-04-9.37179E-14
 -1       996 1.65624E-03 2.79972E-04-2.86453E-15
 -1       997 2.35472E-03-1.85842E-04-6.46052E-15
 -1       998 7.06980E-03 1.36410E-04-4.88904E-14
 -1       999 2.06559E-03-1.80056E-04-5.09447E-15
 -1      1000 4.86453E-03 1.93159E-04-2.36925E-14
 -1      1001 4.58471E-03 2.00857E-04-2.10908E-14
 -1      1002 1.55633E-03-1.28087E-04-3.06649E-15
 -1      1003 1.12384E-02-2.79031E-04-9.88425E-14
 -1      1004 3.73647E-03 2.18708E-04-1.41600E-14
 -1      1005 2.87652E-03 2.25427E-04-8.57540E-15
 -1      1006 1.36694E-02-1.00341E-03-1.42440E-13
 -1      1007 1.15629E-02-4.95755E-04-9.85515E-14
 -1      1008 6.65894E-03-3.90884E-05-4.66967E-14
 -1      1009 1.17699E-02-5.81978E-04-1.01578E-13
 -1      1010 3.16423E-03 2.24786E-04-1.02841E-14
 -1      1011 6.42974E-03-1.09863E-04-4.51174E-14
 -1      1012 1.63487E-03 1.44455E-04-3.09131E-15
 -1      1013 1.32348E-02-7.31977E-04-1.36262E-13
 -1      1014 1.62965E-03 7.24767E-05-3.18597E-15
 -1      1015 1.69414E-03 2.11453E-04-3.16583E-15
 -1      1016 1.35854E-03-2.74434E-05-2.38009E-15
 -1      1017 1.17655E-02-5.62474E-04-1.01921E-13
 -1      1018 1.33062E-02-8.04700E-04-1.36753E-13
 -1      1019 1.33692E-02-8.65376E-04-1.37298E-13
 -1      1020 2.00008E-03 2.16352E-04-4.32712E-15
 -1      1021 1.91548E-03-1.07999E-04-4.43890E-15
 -1      1022 1.13738E-02-3.91729E-04-9.84285E-14
 -1      1023 3.07132E-03-1.16711E-04-1.04790E-14
 -1      1024 3.35824E-03-1.15805E-04-1.23728E-14
 -1      1025 3.64343E-03-1.14242E-04-1.44179E-14
 -1      1026 3.92646E-03-1.12253E-04-1.66133E-14
 -1      1027 4.20689E-03-1.10084E-04-1.89577E-14
 -1      1028 4.48418E-03-1.08036E-04-2.14456E-14
 -1      1029 4.75767E-03-1.06479E-04-2.40757E-14
 -1      1030 5.02656E-03-1.05912E-04-2.68473E-14
 -1      1031 5.28979E-03-1.06984E-04-2.97636E-14
 -1      1032 5.54605E-03-1.10465E-04-3.28174E-14
 -1      1033 5.79356E-03-1.17241E-04-3.60044E-14
 -1      1034 6.02988E-03-1.28196E-04-3.93184E-14
 -1      1035 1.20956E-02-6.46816E-04-1.09415E-13
 -1      1036 1.23323E-02-7.00325E-04-1.14650E-13
 -1      1037 1.25802E-02-7.57913E-04-1.19946E-13
 -1      1038 1.28366E-02-8.18674E-04-1.25301E-13
 -1      1039 1.30999E-02-8.81704E-04-1.30714E-13
 -1      1040 1.33684E-02-9.46232E-04-1.36181E-13
 -1      1041 1.35184E-02-9.74907E-04-1.39304E-13
 -1      1042 3.45094E-03 2.22448E-04-1.21462E-14
 -1      1043 2.58805E-03 2.23953E-04-7.02142E-15
 -1      1044 5.53290E-03 1.04785E-04-3.11656E-14
 -1      1045 5.26163E-03 1.14202E-04-2.81922E-14
 -1      1046 6.07295E-03 8.35716E-05-3.75229E-14
 -1      1047 6.34567E-03 7.34801E-05-4.08936E-14
 -1      1048 6.62588E-03 6.71306E-05-4.43872E-14
 -1      1049 1.22715E-02-5.27432E-04-1.17225E-13
 -1      1050 1.20018E-02-4.73857E-04-1.11930E-13
 -1      1051 1.14739E-02-4.49592E-04-9.84969E-14
 -1      1052 1.17310E-02-4.20517E-04-1.06696E-13
 -1      1053 1.25419E-02-5.81924E-04-1.22580E-13
 -1      1054 1.28140E-02-6.37591E-04-1.27993E-13
 -1      1055 1.30240E-02-6.84402E-04-1.32117E-13
 -1      1056 6.27218E-03-1.41094E-04-4.30918E-14
 -1      1057 1.94085E-03 1.46453E-04-4.24339E-15
 -1      1058 1.18922E-02-6.11847E-04-1.04561E-13
 -1      1059 5.80289E-03 9.44209E-05-3.42783E-14
 -1      1060 2.49393E-03-1.15498E-04-7.14961E-15
 -1      1061 4.15455E-03 1.41212E-04-1.77243E-14
 -1      1062 2.20448E-03-1.12739E-04-5.71666E-15
 -1      1063 4.98836E-03 1.22525E-04-2.53605E-14
 -1      1064 2.78306E-03-1.16706E-04-8.73734E-15
 -1      1065 6.43515E-03-5.52227E-05-4.41110E-14
 -1      1066 2.29403E-03 2.21994E-04-5.59279E-15
 -1      1067 3.87218E-03 1.45499E-04-1.54694E-14
 -1      1068 2.23506E-03 1.50374E-04-5.50180E-15
 -1      1069 1.30981E-02-7.56149E-04-1.32612E-13
 -1      1070 1.17393E-02-5.36236E-04-1.02252E-13
 -1      1071 2.72614E-03 1.52046E-04-7.95656E-15
 -1      1072 4.71277E-03 1.29761E-04-2.26698E-14
 -1      1073 6.21636E-03-8.67048E-05-4.16842E-14
 -1      1074 1.57514E-03-6.21763E-05-3.11602E-15
 -1      1075 1.31625E-02-8.15566E-04-1.33156E-13
 -1      1076 1.60479E-03 5.15185E-06-3.17390E-15
 -1      1077 1.15477E-02-4.04747E-04-1.02536E-13
 -1      1078 3.01459E-03 1.52280E-04-9.60631E-15
 -1      1079 4.43480E-03 1.35974E-04-2.01245E-14
 -1      1080 1.35768E-02-9.51100E-04-1.40960E-13
 -1      1081 1.21601E-02-6.25150E-04-1.11627E-13
 -1      1082 3.49850E-03-4.37486E-05-1.32485E-14
 -1      1083 3.78257E-03-4.33493E-05-1.53541E-14
 -1      1084 4.06418E-03-4.30399E-05-1.76082E-14
 -1      1085 4.34280E-03-4.30593E-05-2.00086E-14
 -1      1086 4.61793E-03-4.36802E-05-2.25532E-14
 -1      1087 4.88906E-03-4.52628E-05-2.52398E-14
 -1      1088 5.15513E-03-4.83817E-05-2.80699E-14
 -1      1089 5.41537E-03-5.36393E-05-3.10415E-14
 -1      1090 5.66862E-03-6.18112E-05-3.41507E-14
 -1      1091 5.91326E-03-7.37948E-05-3.73907E-14
 -1      1092 3.21240E-03-4.40760E-05-1.12944E-14
 -1      1093 1.19634E-02-5.13396E-04-1.09763E-13
 -1      1094 5.37837E-03 4.67676E-05-2.99667E-14
 -1      1095 1.24043E-02-6.77607E-04-1.16895E-13
 -1      1096 1.26571E-02-7.33816E-04-1.22221E-13
 -1      1097 1.29170E-02-7.92877E-04-1.27604E-13
 -1      1098 2.92467E-03-4.41918E-05-9.49173E-15
 -1      1099 1.27487E-02-6.72098E-04-1.25724E-13
 -1      1100 1.24835E-02-6.16949E-04-1.20343E-13
 -1      1101 1.19549E-02-5.92448E-04-1.06742E-13
 -1      1102 2.05688E-03-4.17695E-05-5.00205E-15
 -1      1103 2.63578E-03-4.39495E-05-7.84079E-15
 -1      1104 2.34628E-03-4.31956E-05-6.34387E-15
 -1      1105 5.11129E-03 5.49764E-05-2.70480E-14
 -1      1106 1.94029E-03 5.98938E-05-4.39079E-15
 -1      1107 2.48069E-03 1.51972E-04-6.67314E-15
 -1      1108 1.22218E-02-5.63939E-04-1.15021E-13
 -1      1109 6.14526E-03-7.33353E-06-3.96048E-14
 -1      1110 5.85289E-03 4.72350E-06-3.58468E-14
 -1      1111 3.30195E-03 1.51135E-04-1.14090E-14
 -1      1112 1.17888E-02-4.97134E-04-1.05565E-13
 -1      1113 4.00871E-03 7.40077E-05-1.68075E-14
 -1      1114 3.58790E-03 1.48825E-04-1.33648E-14
 -1      1115 2.86661E-03 7.95453E-05-8.92329E-15
 -1      1116 4.84050E-03 6.15491E-05-2.42733E-14
 -1      1117 4.28890E-03 7.08037E-05-1.91510E-14
 -1      1118 1.16286E-02-4.72594E-04-1.02011E-13
 -1      1119 5.61856E-03 2.67512E-05-3.28474E-14
 -1      1120 2.62121E-03 8.05993E-05-7.55984E-15
 -1      1121 1.28363E-02-7.33186E-04-1.26671E-13
 -1      1122 2.26852E-03 5.86790E-05-5.83596E-15
 -1      1123 3.92378E-03 2.59456E-05-1.62849E-14
 -1      1124 4.75571E-03 1.83312E-05-2.36560E-14
 -1      1125 1.24671E-02-6.50492E-04-1.19136E-13
 -1      1126 1.19040E-02-5.49388E-04-1.06799E-13
 -1      1127 3.35552E-03 2.79188E-05-1.21062E-14
 -1      1128 4.56624E-03 6.67061E-05-2.16393E-14
 -1      1129 3.06850E-03 2.83344E-05-1.02436E-14
 -1      1130 3.72605E-03 7.64360E-05-1.46097E-14
 -1      1131 3.64075E-03 2.71427E-05-1.41201E-14
 -1      1132 1.21788E-02-5.97466E-04-1.12925E-13
 -1      1133 0.00000E+00 0.00000E+00 0.00000E+00
 -1      1134 0.00000E+00 0.00000E+00 0.00000E+00
 -1      1135 0.00000E+00 0.00000E+00 0.00000E+00
 -1      1136 0.00000E+00 0.00000E+00 0.00000E+00
 -1      1137 0.00000E+00 0.00000E+00 0.00000E+00
 -1      1138 0.00000E+00 0.00000E+00 0.00000E+00
 -1      1139 0.00000E+00 0.00000E+00 0.00000E+00
 -1      1140 0.00000E+00 0.00000E+00 0.00000E+00
 -1      1141 0.00000E+00 0.00000E+00 0.00000E+00
 -1      1142 0.00000E+00 0.00000E+00 0.00000E+00
 -1      1143 0.00000E+00 0.00000E+00 0.00000E+00
 -1      1144 0.00000E+00 0.00000E+00 0.00000E+00
 -1      1145 0.00000E+00 0.00000E+00 0.00000E+00
 -1      1146 0.00000E+00 0.00000E+00 0.00000E+00
 -1      1147 0.00000E+00 0.00000E+00 0.00000E+00
 -1      1148 0.00000E+00 0.00000E+00 0.00000E+00
 -1      1149 0.00000E+00 0.00000E+00 0.00000E+00
 -1      1150 2.11454E-04-1.48241E-04 1.16687E-17
 -1      1151 5.51008E-04-3.37253E-04-8.76713E-17
 -1      1152 8.32424E-04-4.58469E-04-3.63343E-16
 -1      1153 1.10158E-03-5.39728E-04-8.44011E-16
 -1      1154 1.36657E-03-5.96365E-04-1.51859E-15
 -1      1155 1.63098E-03-6.36231E-04-2.38263E-15
 -1      1156 1.89667E-03-6.63921E-04-3.43164E-15
 -1      1157 2.16454E-03-6.82488E-04-4.66082E-15
 -1      1158 2.43496E-03-6.94143E-04-6.06843E-15
 -1      1159 2.70805E-03-7.00525E-04-7.65166E-15
 -1      1160 2.98379E-03-7.02854E-04-9.40586E-15
 -1      1161 3.26217E-03-7.02032E-04-1.13237E-14
 -1      1162 3.54323E-03-6.98721E-04-1.34016E-14
 -1      1163 3.82714E-03-6.93419E-04-1.56403E-14
 -1      1164 4.11421E-03-6.86536E-04-1.80286E-14
 -1      1165 4.40499E-03-6.78468E-04-2.05635E-14
 -1      1166 4.70030E-03-6.69700E-04-2.32430E-14
 -1      1167 5.00129E-03-6.60925E-04-2.60656E-14
 -1      1168 5.30948E-03-6.53223E-04-2.90244E-14
 -1      1169 5.62681E-03-6.48298E-04-3.21196E-14
 -1      1170 5.95553E-03-6.48813E-04-3.53480E-14
 -1      1171 6.29806E-03-6.58821E-04-3.87027E-14
 -1      1172 6.65641E-03-6.84228E-04-4.21859E-14
 -1      1173 7.03120E-03-7.33042E-04-4.58043E-14
 -1      1174 7.41993E-03-8.14770E-04-4.95531E-14
 -1      1175 7.81488E-03-9.37742E-04-5.34189E-14
 -1      1176 8.20154E-03-1.10305E-03-5.73990E-14
 -1      1177 8.56073E-03-1.29576E-03-6.15047E-14
 -1      1178 8.87712E-03-1.47941E-03-6.57506E-14
 -1      1179 9.15223E-03-1.60465E-03-7.01392E-14
 -1      1180 9.41037E-03-1.63487E-03-7.46698E-14
 -1      1181 9.68658E-03-1.57080E-03-7.93397E-14
 -1      1182 1.00045E-02-1.44997E-03-8.41299E-14
 -1      1183 1.03649E-02-1.32162E-03-8.90208E-14
 -1      1184 1.07520E-02-1.22152E-03-9.39931E-14
 -1      1185 1.11468E-02-1.16388E-03-9.90433E-14
 -1      1186 1.15350E-02-1.14720E-03-1.04154E-13
 -1      1187 1.19091E-02-1.16301E-03-1.09319E-13
 -1      1188 1.22667E-02-1.20182E-03-1.14538E-13
 -1      1189 1.26085E-02-1.25565E-03-1.19817E-13
 -1      1190 1.29367E-02-1.31864E-03-1.25177E-13
 -1      1191 1.32536E-02-1.38675E-03-1.30615E-13
 -1      1192 1.35616E-02-1.45732E-03-1.36114E-13
 -1      1193 1.38627E-02-1.52864E-03-1.41661E-13
 -1      1194 1.41585E-02-1.59961E-03-1.47254E-13
 -1      1195 1.44503E-02-1.66953E-03-1.52881E-13
 -1      1196 1.47392E-02-1.73795E-03-1.58527E-13
 -1      1197 1.50262E-02-1.80462E-03-1.64196E-13
 -1      1198 1.53121E-02-1.86950E-03-1.69882E-13
 -1      1199 1.55905E-02-1.93149E-03-1.75456E-13
 -1      1200 2.28200E-04 1.60610E-04 5.30988E-17
 -1      1201 5.53184E-04 3.41878E-04 6.35478E-17
 -1      1202 8.33363E-04 4.60628E-04-6.37511E-17
 -1      1203 1.10250E-03 5.41404E-04-3.50373E-16
 -1      1204 1.36751E-03 5.98039E-04-7.99870E-16
 -1      1205 1.63198E-03 6.38002E-04-1.41364E-15
 -1      1206 1.89776E-03 6.65813E-04-2.19230E-15
 -1      1207 2.16571E-03 6.84530E-04-3.13611E-15
 -1      1208 2.43622E-03 6.96371E-04-4.25000E-15
 -1      1209 2.70939E-03 7.02990E-04-5.53068E-15
 -1      1210 2.98523E-03 7.05636E-04-6.98031E-15
 -1      1211 3.26370E-03 7.05249E-04-8.59523E-15
 -1      1212 3.54481E-03 7.02558E-04-1.03700E-14
 -1      1213 3.82866E-03 6.98150E-04-1.23004E-14
 -1      1214 4.11544E-03 6.92555E-04-1.43828E-14
 -1      1215 4.40548E-03 6.86322E-04-1.66181E-14
 -1      1216 4.69919E-03 6.80105E-04-1.90014E-14
 -1      1217 4.99709E-03 6.74750E-04-2.15336E-14
 -1      1218 5.29969E-03 6.71383E-04-2.42162E-14
 -1      1219 5.60740E-03 6.71471E-04-2.70466E-14
 -1      1220 5.92033E-03 6.76844E-04-3.00182E-14
 -1      1221 6.23803E-03 6.89605E-04-3.31351E-14
 -1      1222 6.55921E-03 7.11865E-04-3.63984E-14
 -1      1223 6.88143E-03 7.45208E-04-3.98084E-14
 -1      1224 7.20101E-03 7.89828E-04-4.33559E-14
 -1      1225 7.51324E-03 8.43432E-04-4.70340E-14
 -1      1226 7.81328E-03 9.00263E-04-5.08384E-14
 -1      1227 8.09766E-03 9.50891E-04-5.47768E-14
 -1      1228 8.36604E-03 9.83512E-04-5.88487E-14
 -1      1229 8.62232E-03 9.86927E-04-6.30629E-14
 -1      1230 8.87415E-03 9.54277E-04-6.74174E-14
 -1      1231 9.13068E-03 8.85689E-04-7.19037E-14
 -1      1232 9.39948E-03 7.88221E-04-7.65105E-14
 -1      1233 9.68431E-03 6.73153E-04-8.12256E-14
 -1      1234 9.98472E-03 5.52243E-04-8.60552E-14
 -1      1235 1.02972E-02 4.34791E-04-9.10023E-14
 -1      1236 1.06168E-02 3.26402E-04-9.60615E-14
 -1      1237 1.09389E-02 2.29238E-04-1.01224E-13
 -1      1238 1.12598E-02 1.43009E-04-1.06463E-13
 -1      1239 1.15772E-02 6.60734E-05-1.11784E-13
 -1      1240 1.18899E-02-3.72038E-06-1.17185E-13
 -1      1241 1.21973E-02-6.85049E-05-1.22654E-13
 -1      1242 1.24999E-02-1.30134E-04-1.28183E-13
 -1      1243 1.27979E-02-1.90101E-04-1.33764E-13
 -1      1244 1.30922E-02-2.49548E-04-1.39380E-13
 -1      1245 1.33833E-02-3.09325E-04-1.45028E-13
 -1      1246 1.36720E-02-3.70045E-04-1.50713E-13
 -1      1247 1.39589E-02-4.32119E-04-1.56423E-13
 -1      1248 1.42448E-02-4.95704E-04-1.62133E-13
 -1      1249 1.45232E-02-5.58842E-04-1.67690E-13
 -1      1250 1.46908E-02-6.31941E-04-1.70634E-13
 -1      1251 1.47551E-02-7.16387E-04-1.71127E-13
 -1      1252 1.48205E-02-8.00496E-04-1.71614E-13
 -1      1253 1.48872E-02-8.83632E-04-1.72087E-13
 -1      1254 1.49546E-02-9.65337E-04-1.72560E-13
 -1      1255 1.50216E-02-1.04476E-03-1.73030E-13
 -1      1256 1.50879E-02-1.12267E-03-1.73510E-13
 -1      1257 1.51536E-02-1.20005E-03-1.73976E-13
 -1      1258 1.52175E-02-1.27673E-03-1.74430E-13
 -1      1259 1.52796E-02-1.35334E-03-1.74868E-13
 -1      1260 1.53398E-02-1.43053E-03-1.75314E-13
 -1      1261 1.53982E-02-1.50821E-03-1.75795E-13
 -1      1262 1.54559E-02-1.58742E-03-1.76274E-13
 -1      1263 1.55143E-02-1.66901E-03-1.76722E-13
 -1      1264 1.55735E-02-1.75213E-03-1.77153E-13
 -1      1265 1.56342E-02-1.83627E-03-1.77578E-13
 -1      1266 1.56955E-02-1.92003E-03-1.77986E-13
 -1      1267 1.12936E-02-3.51931E-04-8.07215E-14
 -1      1268 1.11616E-02-2.03864E-04-8.00689E-14
 -1      1269 1.09232E-02-4.52611E-05-7.89100E-14
 -1      1270 1.05982E-02 1.17290E-04-7.73231E-14
 -1      1271 1.02158E-02 2.69392E-04-7.54336E-14
 -1      1272 9.80855E-03 3.93740E-04-7.33911E-14
 -1      1273 9.38424E-03 4.80181E-04-7.12464E-14
 -1      1274 8.95558E-03 5.18380E-04-6.90918E-14
 -1      1275 8.51978E-03 5.02426E-04-6.69576E-14
 -1      1276 8.09239E-03 4.35618E-04-6.49653E-14
 -1      1277 7.70213E-03 3.31000E-04-6.32590E-14
 -1      1278 7.35199E-03 1.99223E-04-6.18378E-14
 -1      1279 7.06794E-03 5.46033E-05-6.07941E-14
 -1      1280 6.88069E-03-9.06146E-05-6.02026E-14
 -1      1281 6.80138E-03-2.35306E-04-6.00558E-14
 -1      1282 6.83740E-03-3.87994E-04-6.03543E-14
 -1      1283 6.98269E-03-5.44799E-04-6.10679E-14
 -1      1284 7.21507E-03-7.04398E-04-6.21216E-14
 -1      1285 7.52754E-03-8.71167E-04-6.35158E-14
 -1      1286 7.90502E-03-1.03455E-03-6.52234E-14
 -1      1287 8.31777E-03-1.17343E-03-6.71343E-14
 -1      1288 8.75479E-03-1.26879E-03-6.92035E-14
 -1      1289 9.20580E-03-1.30708E-03-7.13689E-14
 -1      1290 9.63920E-03-1.28152E-03-7.34516E-14
 -1      1291 1.00578E-02-1.19967E-03-7.54323E-14
 -1      1292 1.04417E-02-1.08036E-03-7.71922E-14
 -1      1293 1.07723E-02-9.41273E-04-7.86520E-14
 -1      1294 1.10476E-02-7.89041E-04-7.98324E-14
 -1      1295 1.12342E-02-6.39619E-04-8.05980E-14
 -1      1296 1.13168E-02-4.95397E-04-8.08986E-14
 -1      1297 1.66533E-04-1.10297E-04-1.59649E-17
 -1      1298 1.12472E-04-5.69856E-05-4.54687E-17
 -1      1299 1.17528E-04-6.75817E-05-3.71881E-17
 -1      1300 1.08399E-04-4.35122E-05-5.88180E-17
 -1      1301 1.10240E-04-4.96240E-05-5.49555E-17
 -1      1302 2.26213E-04-1.07624E-04-1.29657E-16
 -1      1303 1.06852E-04-3.36262E-05-6.54723E-17
 -1      1304 1.07683E-04-3.83508E-05-6.36562E-17
 -1      1305 2.19080E-04-8.24686E-05-1.52818E-16
 -1      1306 1.06099E-04-2.53657E-05-6.88468E-17
 -1      1307 1.06516E-04-2.93989E-05-6.81692E-17
 -1      1308 2.15900E-04-6.32824E-05-1.65016E-16
 -1      1309 1.05720E-04-1.80971E-05-6.97413E-17
 -1      1310 1.05941E-04-2.16670E-05-6.97006E-17
 -1      1311 2.14299E-04-4.71906E-05-1.70599E-16
 -1      1312 1.05511E-04-1.12404E-05-6.98091E-17
 -1      1313 1.05629E-04-1.46260E-05-7.00666E-17
 -1      1314 2.13422E-04-3.27461E-05-1.72104E-16
 -1      1315 1.05418E-04-4.68860E-06-6.86978E-17
 -1      1316 1.05468E-04-7.94104E-06-6.90501E-17
 -1      1317 2.12946E-04-1.91817E-05-1.71060E-16
 -1      1318 1.05408E-04 1.74379E-06-6.72070E-17
 -1      1319 1.05406E-04-1.46825E-06-6.77626E-17
 -1      1320 2.12741E-04-6.15508E-06-1.68200E-16
 -1      1321 1.05476E-04 8.22601E-06-6.47811E-17
 -1      1322 1.05422E-04 4.96728E-06-6.54994E-17
 -1      1323 2.12749E-04 6.70871E-06-1.63769E-16
 -1      1324 1.05643E-04 1.49353E-05-6.14336E-17
 -1      1325 1.05521E-04 1.15355E-05-6.24500E-17
 -1      1326 2.12969E-04 1.97605E-05-1.57277E-16
 -1      1327 1.05960E-04 2.19583E-05-5.68935E-17
 -1      1328 1.05734E-04 1.83662E-05-5.83301E-17
 -1      1329 2.13457E-04 3.32624E-05-1.48590E-16
 -1      1330 1.06560E-04 2.98310E-05-5.04561E-17
 -1      1331 1.06134E-04 2.57524E-05-5.26787E-17
 -1      1332 2.14362E-04 4.77943E-05-1.36759E-16
 -1      1333 1.07719E-04 3.89345E-05-4.11726E-17
 -1      1334 1.06884E-04 3.41402E-05-4.46962E-17
 -1      1335 2.16015E-04 6.42136E-05-1.20428E-16
 -1      1336 1.10219E-04 5.03599E-05-2.72406E-17
 -1      1337 1.08401E-04 4.41789E-05-3.31766E-17
 -1      1338 2.19173E-04 8.37142E-05-9.72123E-17
 -1      1339 1.16846E-04 6.76156E-05-5.85469E-18
 -1      1340 1.12119E-04 5.77825E-05-1.60733E-17
 -1      1341 2.26201E-04 1.09438E-04-6.40086E-17
 -1      1342 1.57420E-04 1.09808E-04 2.63326E-17
 -1      1343 1.35537E-04 8.60691E-05 7.06087E-18
 -1      1344 2.55822E-04 1.52044E-04-2.45572E-17
 -1      1345 3.34737E-04 2.20612E-04 2.96529E-17
 -1      1346 4.21098E-04-2.61575E-04-1.00777E-16
 -1      1347 5.74019E-04-3.36526E-04-1.95197E-16
 -1      1348 7.21032E-04-3.96991E-04-3.43706E-16
 -1      1349 8.64026E-04-4.46115E-04-5.41396E-16
 -1      1350 6.11492E-04-3.30597E-04-3.17468E-16
 -1      1351 1.00388E-03-4.86976E-04-7.86033E-16
 -1      1352 1.14155E-03-5.20709E-04-1.07904E-15
 -1      1353 9.04440E-04-4.30950E-04-7.23719E-16
 -1      1354 1.27787E-03-5.49177E-04-1.41898E-15
 -1      1355 1.41336E-03-5.72852E-04-1.80617E-15
 -1      1356 1.18660E-03-4.99857E-04-1.31720E-15
 -1      1357 1.54845E-03-5.92793E-04-2.23957E-15
 -1      1358 1.68340E-03-6.09327E-04-2.71941E-15
 -1      1359 1.46329E-03-5.47900E-04-2.09584E-15
 -1      1360 1.81846E-03-6.23075E-04-3.24395E-15
 -1      1361 1.95374E-03-6.34321E-04-3.81334E-15
 -1      1362 1.73779E-03-5.81209E-04-3.05637E-15
 -1      1363 2.08939E-03-6.43456E-04-4.42761E-15
 -1      1364 2.22544E-03-6.50722E-04-5.08643E-15
 -1      1365 2.01201E-03-6.03700E-04-4.19593E-15
 -1      1366 2.36197E-03-6.56380E-04-5.78889E-15
 -1      1367 2.49900E-03-6.60629E-04-6.53474E-15
 -1      1368 2.28700E-03-6.18106E-04-5.51108E-15
 -1      1369 2.63656E-03-6.63646E-04-7.32404E-15
 -1      1370 2.77465E-03-6.65590E-04-8.15653E-15
 -1      1371 2.56331E-03-6.26412E-04-6.99977E-15
 -1      1372 2.91331E-03-6.66581E-04-9.03013E-15
 -1      1373 3.05253E-03-6.66745E-04-9.94491E-15
 -1      1374 2.84127E-03-6.30071E-04-8.65798E-15
 -1      1375 3.19233E-03-6.66159E-04-1.09004E-14
 -1      1376 3.33272E-03-6.64926E-04-1.18964E-14
 -1      1377 3.12107E-03-6.30144E-04-1.04819E-14
 -1      1378 3.47372E-03-6.63089E-04-1.29322E-14
 -1      1379 3.61535E-03-6.60736E-04-1.40076E-14
 -1      1380 3.40286E-03-6.27397E-04-1.24662E-14
 -1      1381 3.75764E-03-6.57888E-04-1.51220E-14
 -1      1382 3.90065E-03-6.54627E-04-1.62751E-14
 -1      1383 3.68684E-03-6.22379E-04-1.46096E-14
 -1      1384 4.04441E-03-6.50961E-04-1.74654E-14
 -1      1385 4.18900E-03-6.46974E-04-1.86927E-14
 -1      1386 3.97328E-03-6.15500E-04-1.69068E-14
 -1      1387 4.33449E-03-6.42671E-04-1.99564E-14
 -1      1388 4.48097E-03-6.38155E-04-2.12558E-14
 -1      1389 4.26257E-03-6.07107E-04-1.93531E-14
 -1      1390 4.62855E-03-6.33437E-04-2.25919E-14
 -1      1391 4.77736E-03-6.28656E-04-2.39642E-14
 -1      1392 4.55526E-03-5.97567E-04-2.19457E-14
 -1      1393 4.92754E-03-6.23848E-04-2.53708E-14
 -1      1394 5.07926E-03-6.19208E-04-2.68117E-14
 -1      1395 4.85209E-03-5.87384E-04-2.46810E-14
 -1      1396 5.23269E-03-6.14823E-04-2.82880E-14
 -1      1397 5.38803E-03-6.10973E-04-2.97975E-14
 -1      1398 5.15402E-03-5.77341E-04-2.75554E-14
 -1      1399 5.54551E-03-6.07838E-04-3.13404E-14
 -1      1400 5.70535E-03-6.05814E-04-3.29170E-14
 -1      1401 5.46226E-03-5.68711E-04-3.05664E-14
 -1      1402 5.86779E-03-6.05240E-04-3.45263E-14
 -1      1403 6.03307E-03-6.06666E-04-3.61692E-14
 -1      1404 5.77817E-03-5.63556E-04-3.37109E-14
 -1      1405 6.20140E-03-6.10676E-04-3.78420E-14
 -1      1406 6.37296E-03-6.18010E-04-3.95464E-14
 -1      1407 6.10323E-03-5.65131E-04-3.69855E-14
 -1      1408 6.54791E-03-6.29593E-04-4.12865E-14
 -1      1409 6.72626E-03-6.46363E-04-4.30572E-14
 -1      1410 6.43882E-03-5.78397E-04-4.03901E-14
 -1      1411 6.90796E-03-6.69634E-04-4.48604E-14
 -1      1412 7.09273E-03-7.00471E-04-4.66981E-14
 -1      1413 6.78580E-03-6.10513E-04-4.39238E-14
 -1      1414 7.28018E-03-7.40431E-04-4.85662E-14
 -1      1415 7.46952E-03-7.90431E-04-5.04651E-14
 -1      1416 7.14400E-03-6.70902E-04-4.75869E-14
 -1      1417 7.65987E-03-8.51707E-04-5.23921E-14
 -1      1418 7.84980E-03-9.24339E-04-5.43482E-14
 -1      1419 7.51135E-03-7.70008E-04-5.13715E-14
 -1      1420 8.03796E-03-1.00809E-03-5.63351E-14
 -1      1421 8.22246E-03-1.10113E-03-5.83530E-14
 -1      1422 7.88295E-03-9.15161E-04-5.52765E-14
 -1      1423 8.40180E-03-1.20032E-03-6.04020E-14
 -1      1424 8.57441E-03-1.30092E-03-6.24855E-14
 -1      1425 8.25058E-03-1.10235E-03-5.93043E-14
 -1      1426 8.73954E-03-1.39664E-03-6.46040E-14
 -1      1427 8.89723E-03-1.48076E-03-6.67589E-14
 -1      1428 8.60416E-03-1.30603E-03-6.34627E-14
 -1      1429 9.04833E-03-1.54636E-03-6.89496E-14
 -1      1430 9.19536E-03-1.58819E-03-7.11751E-14
 -1      1431 8.93726E-03-1.47715E-03-6.77618E-14
 -1      1432 9.34059E-03-1.60324E-03-7.34368E-14
 -1      1433 9.48782E-03-1.59162E-03-7.57342E-14
 -1      1434 9.25453E-03-1.56212E-03-7.22076E-14
 -1      1435 9.63930E-03-1.55655E-03-7.80668E-14
 -1      1436 9.79746E-03-1.50337E-03-8.04286E-14
 -1      1437 9.57211E-03-1.53749E-03-7.67945E-14
 -1      1438 9.96310E-03-1.43904E-03-8.28186E-14
 -1      1439 1.01362E-02-1.37031E-03-8.52352E-14
 -1      1440 9.90589E-03-1.42823E-03-8.15111E-14
 -1      1441 1.03159E-02-1.30337E-03-8.76777E-14
 -1      1442 1.05007E-02-1.24285E-03-9.01423E-14
 -1      1443 1.02601E-02-1.28833E-03-8.63399E-14
 -1      1444 1.06890E-02-1.19176E-03-9.26282E-14
 -1      1445 1.08789E-02-1.15184E-03-9.51309E-14
 -1      1446 1.06279E-02-1.16622E-03-9.12630E-14
 -1      1447 1.10692E-02-1.12327E-03-9.76515E-14
 -1      1448 1.12583E-02-1.10591E-03-1.00190E-13
 -1      1449 1.09994E-02-1.08655E-03-9.62650E-14
 -1      1450 1.14456E-02-1.09849E-03-1.02745E-13
 -1      1451 1.16301E-02-1.10008E-03-1.05313E-13
 -1      1452 1.13664E-02-1.05273E-03-1.01338E-13
 -1      1453 1.18115E-02-1.10913E-03-1.07894E-13
 -1      1454 1.19895E-02-1.12456E-03-1.10492E-13
 -1      1455 1.17242E-02-1.05721E-03-1.06473E-13
 -1      1456 1.21642E-02-1.14508E-03-1.13099E-13
 -1      1457 1.23355E-02-1.16975E-03-1.15721E-13
 -1      1458 1.20707E-02-1.08950E-03-1.11661E-13
 -1      1459 1.25035E-02-1.19765E-03-1.18364E-13
 -1      1460 1.26685E-02-1.22805E-03-1.21023E-13
 -1      1461 1.24058E-02-1.14024E-03-1.16909E-13
 -1      1462 1.28308E-02-1.26037E-03-1.23701E-13
 -1      1463 1.29904E-02-1.29405E-03-1.26400E-13
 -1      1464 1.27305E-02-1.20230E-03-1.22227E-13
 -1      1465 1.31478E-02-1.32877E-03-1.29115E-13
 -1      1466 1.33030E-02-1.36412E-03-1.31844E-13
 -1      1467 1.30461E-02-1.27076E-03-1.27617E-13
 -1      1468 1.34564E-02-1.39993E-03-1.34589E-13
 -1      1469 1.36081E-02-1.43590E-03-1.37348E-13
 -1      1470 1.33543E-02-1.34237E-03-1.33070E-13
 -1      1471 1.37584E-02-1.47196E-03-1.40119E-13
 -1      1472 1.39074E-02-1.50791E-03-1.42899E-13
 -1      1473 1.36564E-02-1.41505E-03-1.38579E-13
 -1      1474 1.40553E-02-1.54369E-03-1.45693E-13
 -1      1475 1.42022E-02-1.57919E-03-1.48498E-13
 -1      1476 1.39536E-02-1.48751E-03-1.44137E-13
 -1      1477 1.43483E-02-1.61438E-03-1.51309E-13
 -1      1478 1.44936E-02-1.64916E-03-1.54123E-13
 -1      1479 1.42472E-02-1.55895E-03-1.49738E-13
 -1      1480 1.46383E-02-1.68354E-03-1.56943E-13
 -1      1481 1.47825E-02-1.71745E-03-1.59772E-13
 -1      1482 1.45379E-02-1.62885E-03-1.55365E-13
 -1      1483 1.49262E-02-1.75089E-03-1.62606E-13
 -1      1484 1.50697E-02-1.78384E-03-1.65442E-13
 -1      1485 1.48265E-02-1.69691E-03-1.61015E-13
 -1      1486 1.52128E-02-1.81632E-03-1.68286E-13
 -1      1487 1.53558E-02-1.84837E-03-1.71137E-13
 -1      1488 1.51137E-02-1.76297E-03-1.66688E-13
 -1      1489 1.55598E-02-1.89006E-03-1.75261E-13
 -1      1490 1.54610E-02-1.83716E-03-1.73655E-13
 -1      1491 6.42376E-04 3.71673E-04-3.46674E-17
 -1      1492 4.92427E-04 3.03471E-04 1.65070E-17
 -1      1493 4.44450E-04 2.65720E-04-2.35543E-17
 -1      1494 9.27610E-04 4.71295E-04-2.53663E-16
 -1      1495 7.86922E-04 4.25993E-04-1.24588E-16
 -1      1496 7.44006E-04 3.90274E-04-1.76793E-16
 -1      1497 1.20215E-03 5.40211E-04-6.29745E-16
 -1      1498 1.06566E-03 5.08807E-04-4.21551E-16
 -1      1499 1.02976E-03 4.75302E-04-4.84015E-16
 -1      1500 1.47237E-03 5.88698E-04-1.16804E-15
 -1      1501 1.33748E-03 5.66623E-04-8.78421E-16
 -1      1502 1.30740E-03 5.34532E-04-9.49002E-16
 -1      1503 1.74162E-03 6.22631E-04-1.87009E-15
 -1      1504 1.60694E-03 6.07246E-04-1.49833E-15
 -1      1505 1.58139E-03 5.75997E-04-1.57524E-15
 -1      1506 2.01162E-03 6.45817E-04-2.73597E-15
 -1      1507 1.87644E-03 6.35398E-04-2.28214E-15
 -1      1508 1.85439E-03 6.04618E-04-2.36444E-15
 -1      1509 2.28325E-03 6.60941E-04-3.76881E-15
 -1      1510 2.14719E-03 6.54259E-04-3.23183E-15
 -1      1511 2.12785E-03 6.23716E-04-3.31868E-15
 -1      1512 2.55691E-03 6.69975E-04-4.96929E-15
 -1      1513 2.41981E-03 6.66121E-04-4.34788E-15
 -1      1514 2.40256E-03 6.35668E-04-4.43905E-15
 -1      1515 2.83279E-03 6.74390E-04-6.33598E-15
 -1      1516 2.69457E-03 6.72684E-04-5.63189E-15
 -1      1517 2.67891E-03 6.42228E-04-5.72466E-15
 -1      1518 3.11096E-03 6.75289E-04-7.86961E-15
 -1      1519 2.97158E-03 6.75220E-04-7.08223E-15
 -1      1520 2.95713E-03 6.44698E-04-7.17661E-15
 -1      1521 3.39147E-03 6.73505E-04-9.56382E-15
 -1      1522 3.25092E-03 6.74684E-04-8.69652E-15
 -1      1523 3.23734E-03 6.44051E-04-8.79135E-15
 -1      1524 3.67443E-03 6.69685E-04-1.14175E-14
 -1      1525 3.53264E-03 6.71808E-04-1.04714E-14
 -1      1526 3.51966E-03 6.41021E-04-1.05656E-14
 -1      1527 3.95998E-03 6.64371E-04-1.34231E-14
 -1      1528 3.81687E-03 6.67174E-04-1.24010E-14
 -1      1529 3.80423E-03 6.36192E-04-1.24951E-14
 -1      1530 4.24837E-03 6.58078E-04-1.55816E-14
 -1      1531 4.10381E-03 6.61302E-04-1.44835E-14
 -1      1532 4.09125E-03 6.30076E-04-1.45771E-14
 -1      1533 4.53994E-03 6.51383E-04-1.78905E-14
 -1      1534 4.39374E-03 6.54727E-04-1.67171E-14
 -1      1535 4.38099E-03 6.23196E-04-1.68107E-14
 -1      1536 4.83509E-03 6.45006E-04-2.03479E-14
 -1      1537 4.68704E-03 6.48088E-04-1.91008E-14
 -1      1538 4.67378E-03 6.16173E-04-1.91928E-14
 -1      1539 5.13427E-03 6.39909E-04-2.29532E-14
 -1      1540 4.98415E-03 6.42213E-04-2.16326E-14
 -1      1541 4.97000E-03 6.09824E-04-2.17247E-14
 -1      1542 5.43786E-03 6.37374E-04-2.57078E-14
 -1      1543 5.28549E-03 6.38219E-04-2.43116E-14
 -1      1544 5.27002E-03 6.05250E-04-2.44021E-14
 -1      1545 5.74607E-03 6.39062E-04-2.86078E-14
 -1      1546 5.59138E-03 6.37573E-04-2.71396E-14
 -1      1547 5.57410E-03 6.03917E-04-2.72269E-14
 -1      1548 6.05875E-03 6.46996E-04-3.16491E-14
 -1      1549 5.90187E-03 6.42127E-04-3.01100E-14
 -1      1550 5.88232E-03 6.07692E-04-3.01963E-14
 -1      1551 6.37516E-03 6.63412E-04-3.48398E-14
 -1      1552 6.21655E-03 6.54044E-04-3.32262E-14
 -1      1553 6.19435E-03 6.18780E-04-3.33114E-14
 -1      1554 6.69374E-03 6.90382E-04-3.81700E-14
 -1      1555 6.53430E-03 6.75538E-04-3.64872E-14
 -1      1556 6.50930E-03 6.39485E-04-3.65700E-14
 -1      1557 7.01199E-03 7.29119E-04-4.16455E-14
 -1      1558 6.85310E-03 7.08354E-04-3.98910E-14
 -1      1559 6.82558E-03 6.71697E-04-3.99694E-14
 -1      1560 7.32646E-03 7.78956E-04-4.52527E-14
 -1      1561 7.16994E-03 7.52901E-04-4.34322E-14
 -1      1562 7.14077E-03 7.16022E-04-4.35034E-14
 -1      1563 7.63327E-03 8.36172E-04-4.89893E-14
 -1      1564 7.48108E-03 8.07110E-04-4.71044E-14
 -1      1565 7.45186E-03 7.70616E-04-4.71713E-14
 -1      1566 7.92898E-03 8.93181E-04-5.28569E-14
 -1      1567 7.78271E-03 8.65371E-04-5.09071E-14
 -1      1568 7.75570E-03 8.30038E-04-5.09691E-14
 -1      1569 8.21195E-03 9.38890E-04-5.68576E-14
 -1      1570 8.07209E-03 9.18203E-04-5.48408E-14
 -1      1571 8.04992E-03 8.84806E-04-5.48994E-14
 -1      1572 8.48344E-03 9.60844E-04-6.09958E-14
 -1      1573 8.34893E-03 9.53471E-04-5.89088E-14
 -1      1574 8.33406E-03 9.22514E-04-5.89633E-14
 -1      1575 8.74797E-03 9.48918E-04-6.52739E-14
 -1      1576 8.61618E-03 9.59407E-04-6.31175E-14
 -1      1577 8.61027E-03 9.30870E-04-6.31661E-14
 -1      1578 9.01227E-03 8.99038E-04-6.96891E-14
 -1      1579 8.87967E-03 9.28543E-04-6.74649E-14
 -1      1580 8.88318E-03 9.01821E-04-6.75068E-14
 -1      1581 9.28314E-03 8.14835E-04-7.42294E-14
 -1      1582 9.14648E-03 8.60637E-04-7.19439E-14
 -1      1583 9.15854E-03 8.34745E-04-7.19799E-14
 -1      1584 9.56530E-03 7.06157E-04-7.88871E-14
 -1      1585 9.42260E-03 7.62765E-04-7.65449E-14
 -1      1586 9.44126E-03 7.36706E-04-7.65742E-14
 -1      1587 9.86020E-03 5.85427E-04-8.36577E-14
 -1      1588 9.71117E-03 6.46552E-04-8.12583E-14
 -1      1589 9.73390E-03 6.19624E-04-8.12851E-14
 -1      1590 1.01664E-02 4.63891E-04-8.85432E-14
 -1      1591 1.00121E-02 5.24220E-04-8.60850E-14
 -1      1592 1.00364E-02 4.96130E-04-8.61101E-14
 -1      1593 1.04804E-02 3.49353E-04-9.35377E-14
 -1      1594 1.03226E-02 4.05460E-04-9.10272E-14
 -1      1595 1.03465E-02 3.76258E-04-9.10473E-14
 -1      1596 1.07984E-02 2.45728E-04-9.86430E-14
 -1      1597 1.06391E-02 2.96099E-04-9.60777E-14
 -1      1598 1.06612E-02 2.66045E-04-9.60907E-14
 -1      1599 1.11169E-02 1.53809E-04-1.03836E-13
 -1      1600 1.09578E-02 1.98365E-04-1.01229E-13
 -1      1601 1.09773E-02 1.67786E-04-1.01233E-13
 -1      1602 1.14334E-02 7.24321E-05-1.09109E-13
 -1      1603 1.12756E-02 1.11930E-04-1.06463E-13
 -1      1604 1.12925E-02 8.11335E-05-1.06458E-13
 -1      1605 1.17462E-02-4.81450E-07-1.14462E-13
 -1      1606 1.15904E-02 3.50630E-05-1.11775E-13
 -1      1607 1.16050E-02 4.29114E-06-1.11763E-13
 -1      1608 1.20547E-02-6.72085E-05-1.19890E-13
 -1      1609 1.19010E-02-3.44821E-05-1.17168E-13
 -1      1610 1.19138E-02-6.50618E-05-1.17149E-13
 -1      1611 1.23586E-02-1.29831E-04-1.25382E-13
 -1      1612 1.22072E-02-9.89184E-05-1.22629E-13
 -1      1613 1.22186E-02-1.29207E-04-1.22602E-13
 -1      1614 1.26583E-02-1.90074E-04-1.30929E-13
 -1      1615 1.25090E-02-1.60160E-04-1.28148E-13
 -1      1616 1.25194E-02-1.90111E-04-1.28114E-13
 -1      1617 1.29542E-02-2.49281E-04-1.36520E-13
 -1      1618 1.28067E-02-2.19739E-04-1.33720E-13
 -1      1619 1.28166E-02-2.49344E-04-1.33675E-13
 -1      1620 1.32469E-02-3.08456E-04-1.42147E-13
 -1      1621 1.31009E-02-2.78823E-04-1.39331E-13
 -1      1622 1.31106E-02-3.08095E-04-1.39278E-13
 -1      1623 1.35371E-02-3.68336E-04-1.47806E-13
 -1      1624 1.33923E-02-3.38274E-04-1.44973E-13
 -1      1625 1.34020E-02-3.67242E-04-1.44915E-13
 -1      1626 1.38252E-02-4.29437E-04-1.53497E-13
 -1      1627 1.36814E-02-3.98713E-04-1.50647E-13
 -1      1628 1.36913E-02-4.27415E-04-1.50583E-13
 -1      1629 1.41120E-02-4.92072E-04-1.59198E-13
 -1      1630 1.39688E-02-4.60558E-04-1.56345E-13
 -1      1631 1.39789E-02-4.89035E-04-1.56271E-13
 -1      1632 1.43980E-02-5.56245E-04-1.64897E-13
 -1      1633 1.42551E-02-5.23989E-04-1.62050E-13
 -1      1634 1.42655E-02-5.52299E-04-1.61968E-13
 -1      1635 1.45551E-02-6.00984E-04-1.67930E-13
 -1      1636 1.46476E-02-7.08920E-04-1.68782E-13
 -1      1637 1.46152E-02-6.66907E-04-1.68537E-13
 -1      1638 1.47135E-02-7.92441E-04-1.69265E-13
 -1      1639 1.46804E-02-7.50785E-04-1.69024E-13
 -1      1640 1.45403E-02-7.01530E-04-1.66436E-13
 -1      1641 1.47805E-02-8.74946E-04-1.69743E-13
 -1      1642 1.47469E-02-8.33842E-04-1.69504E-13
 -1      1643 1.46066E-02-7.84628E-04-1.66920E-13
 -1      1644 1.48483E-02-9.56164E-04-1.70219E-13
 -1      1645 1.48144E-02-9.15726E-04-1.69983E-13
 -1      1646 1.46741E-02-8.66685E-04-1.67402E-13
 -1      1647 1.49148E-02-1.03468E-03-1.70690E-13
 -1      1648 1.48816E-02-9.95582E-04-1.70453E-13
 -1      1649 1.47415E-02-9.46867E-04-1.67879E-13
 -1      1650 1.49816E-02-1.11332E-03-1.71167E-13
 -1      1651 1.49484E-02-1.07414E-03-1.70928E-13
 -1      1652 1.48086E-02-1.02588E-03-1.68353E-13
 -1      1653 1.50470E-02-1.19105E-03-1.71631E-13
 -1      1654 1.50145E-02-1.15227E-03-1.71400E-13
 -1      1655 1.48753E-02-1.10454E-03-1.68824E-13
 -1      1656 1.51105E-02-1.26831E-03-1.72089E-13
 -1      1657 1.50790E-02-1.22971E-03-1.71862E-13
 -1      1658 1.49403E-02-1.18249E-03-1.69292E-13
 -1      1659 1.51720E-02-1.34565E-03-1.72535E-13
 -1      1660 1.51415E-02-1.30694E-03-1.72314E-13
 -1      1661 1.50033E-02-1.26014E-03-1.69752E-13
 -1      1662 1.52317E-02-1.42360E-03-1.72993E-13
 -1      1663 1.52021E-02-1.38452E-03-1.72759E-13
 -1      1664 1.50643E-02-1.33796E-03-1.70206E-13
 -1      1665 1.52892E-02-1.50126E-03-1.73456E-13
 -1      1666 1.52606E-02-1.46228E-03-1.73224E-13
 -1      1667 1.51230E-02-1.41574E-03-1.70660E-13
 -1      1668 1.53472E-02-1.58159E-03-1.73920E-13
 -1      1669 1.53182E-02-1.54124E-03-1.73692E-13
 -1      1670 1.51806E-02-1.49450E-03-1.71118E-13
 -1      1671 1.54055E-02-1.66334E-03-1.74358E-13
 -1      1672 1.53762E-02-1.62229E-03-1.74144E-13
 -1      1673 1.52383E-02-1.57514E-03-1.71567E-13
 -1      1674 1.54649E-02-1.74634E-03-1.74787E-13
 -1      1675 1.54350E-02-1.70471E-03-1.74573E-13
 -1      1676 1.52967E-02-1.65704E-03-1.71999E-13
 -1      1677 1.54780E-02-1.81268E-03-1.74327E-13
 -1      1678 1.54474E-02-1.77072E-03-1.74119E-13
 -1      1679 1.53086E-02-1.72254E-03-1.71544E-13
 -1      1680 1.52738E-02-1.77097E-03-1.70207E-13
 -1      1681 1.12826E-02-3.61321E-04-8.15338E-14
 -1      1682 1.13238E-02-4.05384E-04-8.17383E-14
 -1      1683 1.10938E-02-2.52812E-04-8.08043E-14
 -1      1684 1.11978E-02-3.08764E-04-8.12688E-14
 -1      1685 1.07853E-02-1.14142E-04-7.95243E-14
 -1      1686 1.09363E-02-1.85818E-04-8.02177E-14
 -1      1687 1.04163E-02 8.18316E-05-7.75231E-14
 -1      1688 1.05979E-02-4.92550E-06-7.84161E-14
 -1      1689 1.00212E-02 2.69563E-04-7.53790E-14
 -1      1690 1.02058E-02 1.85980E-04-7.63693E-14
 -1      1691 9.62791E-03 4.26525E-04-7.31358E-14
 -1      1692 9.80778E-03 3.58554E-04-7.41831E-14
 -1      1693 9.23947E-03 5.33856E-04-7.07929E-14
 -1      1694 9.41494E-03 4.92202E-04-7.18837E-14
 -1      1695 8.86885E-03 5.66574E-04-6.84692E-14
 -1      1696 9.03700E-03 5.61468E-04-6.95211E-14
 -1      1697 8.48418E-03 5.18649E-04-6.61354E-14
 -1      1698 8.66400E-03 5.52264E-04-6.71966E-14
 -1      1699 8.09252E-03 4.01793E-04-6.40755E-14
 -1      1700 8.26925E-03 4.61774E-04-6.49866E-14
 -1      1701 7.70635E-03 2.52621E-04-6.23520E-14
 -1      1702 7.88078E-03 3.25028E-04-6.31214E-14
 -1      1703 7.34998E-03 8.42922E-05-6.08274E-14
 -1      1704 7.51484E-03 1.58900E-04-6.14466E-14
 -1      1705 7.04175E-03-5.11545E-05-5.99196E-14
 -1      1706 7.16991E-03 1.18415E-05-6.03211E-14
 -1      1707 6.84815E-03-1.66884E-04-5.94007E-14
 -1      1708 6.92304E-03-1.16711E-04-5.95806E-14
 -1      1709 6.78220E-03-2.66894E-04-5.93519E-14
 -1      1710 6.79589E-03-2.21790E-04-5.93162E-14
 -1      1711 6.85904E-03-3.72329E-04-5.97354E-14
 -1      1712 6.80468E-03-3.21333E-04-5.94735E-14
 -1      1713 7.05604E-03-4.99520E-04-6.06194E-14
 -1      1714 6.95354E-03-4.40080E-04-6.01910E-14
 -1      1715 7.34748E-03-6.54841E-04-6.18310E-14
 -1      1716 7.20172E-03-5.78476E-04-6.12241E-14
 -1      1717 7.70611E-03-8.40926E-04-6.33993E-14
 -1      1718 7.53376E-03-7.51799E-04-6.26347E-14
 -1      1719 8.11785E-03-1.03624E-03-6.52497E-14
 -1      1720 7.93061E-03-9.42169E-04-6.43305E-14
 -1      1721 8.50181E-03-1.21112E-03-6.73790E-14
 -1      1722 8.32272E-03-1.13814E-03-6.64123E-14
 -1      1723 8.90349E-03-1.32708E-03-6.96657E-14
 -1      1724 8.71926E-03-1.28241E-03-6.85785E-14
 -1      1725 9.29116E-03-1.35253E-03-7.19999E-14
 -1      1726 9.11383E-03-1.35167E-03-7.09351E-14
 -1      1727 9.66929E-03-1.29157E-03-7.42303E-14
 -1      1728 9.49578E-03-1.32990E-03-7.32190E-14
 -1      1729 1.00473E-02-1.15823E-03-7.64244E-14
 -1      1730 9.86876E-03-1.22818E-03-7.54574E-14
 -1      1731 1.04289E-02-9.97470E-04-7.82002E-14
 -1      1732 1.02619E-02-1.07422E-03-7.73997E-14
 -1      1733 1.07720E-02-8.32454E-04-7.97237E-14
 -1      1734 1.06176E-02-9.08156E-04-7.90609E-14
 -1      1735 1.10618E-02-6.64048E-04-8.11767E-14
 -1      1736 1.09302E-02-7.30952E-04-8.06652E-14
 -1      1737 1.12628E-02-5.59797E-04-8.16399E-14
 -1      1738 1.11888E-02-6.10126E-04-8.13802E-14
 -1      1739 1.13388E-02-4.57531E-04-8.19761E-14
 -1      1740 1.13194E-02-5.00771E-04-8.19459E-14
 -1      1741 1.02487E-02 8.99955E-05-7.74967E-14
 -1      1742 1.06428E-02-1.22155E-04-7.97688E-14
 -1      1743 1.45657E-02-6.29234E-04-1.67848E-13
 -1      1744 1.44580E-02-6.22114E-04-1.65504E-13
 -1      1745 1.12391E-02-3.70940E-04-8.23378E-14
 -1      1746 1.09923E-02-2.78959E-04-8.14764E-14
 -1      1747 1.13414E-02-4.41101E-04-8.28473E-14
 -1      1748 9.84944E-03 2.96971E-04-7.51371E-14
 -1      1749 9.46860E-03 4.67821E-04-7.26813E-14
 -1      1750 9.11737E-03 5.71911E-04-7.01554E-14
 -1      1751 8.77596E-03 5.83972E-04-6.76148E-14
 -1      1752 8.42348E-03 4.99378E-04-6.52045E-14
 -1      1753 8.04499E-03 3.47279E-04-6.31174E-14
 -1      1754 7.66156E-03 1.65703E-04-6.12755E-14
 -1      1755 7.29605E-03-1.22926E-06-5.98867E-14
 -1      1756 6.99398E-03-1.25292E-04-5.90558E-14
 -1      1757 6.81626E-03-2.13242E-04-5.86390E-14
 -1      1758 6.78438E-03-2.82478E-04-5.86753E-14
 -1      1759 6.90746E-03-3.61918E-04-5.92449E-14
 -1      1760 7.15596E-03-4.81047E-04-6.02925E-14
 -1      1761 7.49149E-03-6.45245E-04-6.16842E-14
 -1      1762 7.89018E-03-8.49328E-04-6.34015E-14
 -1      1763 8.28647E-03-1.07000E-03-6.54778E-14
 -1      1764 8.66597E-03-1.25851E-03-6.78304E-14
 -1      1765 9.02489E-03-1.36565E-03-7.02949E-14
 -1      1766 9.37475E-03-1.36602E-03-7.27860E-14
 -1      1767 9.72550E-03-1.26736E-03-7.52393E-14
 -1      1768 1.00897E-02-1.09954E-03-7.74561E-14
 -1      1769 1.04684E-02-9.13078E-04-7.93043E-14
 -1      1770 1.08156E-02-7.27067E-04-8.11165E-14
 -1      1771 1.11079E-02-5.94043E-04-8.22705E-14
 -1      1772 1.12959E-02-5.05440E-04-8.27823E-14
 -1      1773 2.84964E-04-1.76156E-04-8.65600E-17
 -1      1774 3.32174E-04-1.16727E-04-2.40896E-16
 -1      1775 3.36253E-04-1.32969E-04-2.29038E-16
 -1      1776 3.42066E-04-1.51950E-04-2.13832E-16
 -1      1777 3.51545E-04-1.73936E-04-1.91633E-16
 -1      1778 4.58188E-04-1.87940E-04-3.32945E-16
 -1      1779 3.24721E-04-6.53301E-05-2.61550E-16
 -1      1780 3.25826E-04-7.66294E-05-2.59355E-16
 -1      1781 3.23273E-04-4.38443E-05-2.62689E-16
 -1      1782 3.23906E-04-5.43296E-05-2.62485E-16
 -1      1783 4.36734E-04-7.91785E-05-3.86274E-16
 -1      1784 3.22518E-04-2.37416E-05-2.60154E-16
 -1      1785 3.22837E-04-3.36465E-05-2.61957E-16
 -1      1786 4.34788E-04-5.12347E-05-3.86301E-16
 -1      1787 3.22236E-04-4.32794E-06-2.55208E-16
 -1      1788 3.22329E-04-1.39693E-05-2.57932E-16
 -1      1789 4.33799E-04-2.48774E-05-3.81937E-16
 -1      1790 3.22352E-04 1.49676E-05-2.47808E-16
 -1      1791 3.22243E-04 5.31642E-06-2.52009E-16
 -1      1792 4.33510E-04 7.61499E-07-3.73914E-16
 -1      1793 3.22896E-04 3.46971E-05-2.37318E-16
 -1      1794 3.22558E-04 2.47604E-05-2.43105E-16
 -1      1795 4.33854E-04 2.64286E-05-3.62327E-16
 -1      1796 3.23984E-04 5.51214E-05-2.23400E-16
 -1      1797 3.23343E-04 4.47645E-05-2.31125E-16
 -1      1798 4.34895E-04 5.26469E-05-3.46335E-16
 -1      1799 3.25979E-04 7.77665E-05-2.04426E-16
 -1      1800 3.24815E-04 6.61879E-05-2.14916E-16
 -1      1801 4.36891E-04 8.04989E-05-3.25179E-16
 -1      1802 3.29580E-04 1.03602E-04-1.78256E-16
 -1      1803 3.27479E-04 9.02532E-05-1.92825E-16
 -1      1804 4.40450E-04 1.11451E-04-2.96638E-16
 -1      1805 3.36500E-04 1.35053E-04-1.41014E-16
 -1      1806 3.32378E-04 1.18560E-04-1.61709E-16
 -1      1807 4.46795E-04 1.47208E-04-2.57430E-16
 -1      1808 3.52084E-04 1.77520E-04-8.77797E-17
 -1      1809 3.42663E-04 1.54692E-04-1.17311E-16
 -1      1810 4.59165E-04 1.91311E-04-2.02597E-16
 -1      1811 4.07342E-04 2.33544E-04-4.80979E-17
 -1      1812 3.77810E-04 2.02553E-04-7.32650E-17
 -1      1813 4.95536E-04 2.43805E-04-1.52520E-16
 -1      1814 5.58056E-04 3.02246E-04-1.09613E-16
 -1      1815 3.39738E-04-1.90822E-04-1.44050E-16
 -1      1816 8.52820E-04 4.06527E-04-3.47270E-16
 -1      1817 7.06543E-04 3.58970E-04-2.09563E-16
 -1      1818 6.72889E-04 3.28443E-04-2.37196E-16
 -1      1819 4.58615E-04-2.36559E-04-2.50383E-16
 -1      1820 8.06602E-04-3.73595E-04-6.57108E-16
 -1      1821 9.51761E-04-4.14566E-04-9.12410E-16
 -1      1822 1.09450E-03-4.48993E-04-1.21295E-15
 -1      1823 1.23607E-03-4.77576E-04-1.55941E-15
 -1      1824 1.00334E-03-3.97087E-04-1.10721E-15
 -1      1825 1.37640E-03-5.01688E-04-1.95093E-15
 -1      1826 1.51602E-03-5.21627E-04-2.38798E-15
 -1      1827 1.28890E-03-4.54419E-04-1.80586E-15
 -1      1828 1.65513E-03-5.38300E-04-2.86945E-15
 -1      1829 1.79394E-03-5.51940E-04-3.39522E-15
 -1      1830 1.57124E-03-4.94493E-04-2.68274E-15
 -1      1831 1.93266E-03-5.63143E-04-3.96483E-15
 -1      1832 2.07135E-03-5.72105E-04-4.57825E-15
 -1      1833 1.85186E-03-5.21860E-04-3.73554E-15
 -1      1834 2.21018E-03-5.79228E-04-5.23575E-15
 -1      1835 2.34915E-03-5.84678E-04-5.93570E-15
 -1      1836 2.13189E-03-5.39780E-04-4.96212E-15
 -1      1837 2.48839E-03-5.88731E-04-6.67825E-15
 -1      1838 2.62788E-03-5.91523E-04-7.46317E-15
 -1      1839 2.41206E-03-5.50616E-04-6.36007E-15
 -1      1840 2.76771E-03-5.93243E-04-8.29039E-15
 -1      1841 2.90787E-03-5.94001E-04-9.15839E-15
 -1      1842 2.69286E-03-5.56099E-04-7.92594E-15
 -1      1843 3.04843E-03-5.93922E-04-1.00674E-14
 -1      1844 3.18936E-03-5.93095E-04-1.10162E-14
 -1      1845 2.97460E-03-5.57489E-04-9.65708E-15
 -1      1846 3.33073E-03-5.91599E-04-1.20052E-14
 -1      1847 3.47254E-03-5.89507E-04-1.30343E-14
 -1      1848 3.25752E-03-5.55691E-04-1.15487E-14
 -1      1849 3.61483E-03-5.86867E-04-1.41022E-14
 -1      1850 3.75762E-03-5.83740E-04-1.52085E-14
 -1      1851 3.54181E-03-5.51347E-04-1.35994E-14
 -1      1852 3.90095E-03-5.80153E-04-1.63534E-14
 -1      1853 4.04488E-03-5.76166E-04-1.75363E-14
 -1      1854 3.82769E-03-5.44912E-04-1.58051E-14
 -1      1855 4.18942E-03-5.71797E-04-1.87551E-14
 -1      1856 4.33468E-03-5.67113E-04-2.00113E-14
 -1      1857 4.11541E-03-5.36732E-04-1.81619E-14
 -1      1858 4.48067E-03-5.62137E-04-2.13040E-14
 -1      1859 4.62754E-03-5.56952E-04-2.26321E-14
 -1      1860 4.40530E-03-5.27124E-04-2.06668E-14
 -1      1861 4.77527E-03-5.51606E-04-2.39965E-14
 -1      1862 4.92408E-03-5.46214E-04-2.53945E-14
 -1      1863 4.69775E-03-5.16468E-04-2.33159E-14
 -1      1864 5.07395E-03-5.40874E-04-2.68276E-14
 -1      1865 5.22513E-03-5.35752E-04-2.82951E-14
 -1      1866 4.99329E-03-5.05338E-04-2.61049E-14
 -1      1867 5.37759E-03-5.31034E-04-2.97971E-14
 -1      1868 5.53165E-03-5.26965E-04-3.13320E-14
 -1      1869 5.29255E-03-4.94667E-04-2.90321E-14
 -1      1870 5.68726E-03-5.23872E-04-3.28995E-14
 -1      1871 5.84477E-03-5.22117E-04-3.45010E-14
 -1      1872 5.59629E-03-4.85983E-04-3.20942E-14
 -1      1873 6.00413E-03-5.22240E-04-3.61340E-14
 -1      1874 6.16570E-03-5.24770E-04-3.77994E-14
 -1      1875 5.90541E-03-4.81745E-04-3.52871E-14
 -1      1876 6.32947E-03-5.30537E-04-3.94991E-14
 -1      1877 6.49567E-03-5.40305E-04-4.12302E-14
 -1      1878 6.22104E-03-4.85775E-04-3.86130E-14
 -1      1879 6.66446E-03-5.55233E-04-4.29927E-14
 -1      1880 6.83577E-03-5.76387E-04-4.47866E-14
 -1      1881 6.54454E-03-5.03773E-04-4.20661E-14
 -1      1882 7.01007E-03-6.05167E-04-4.66125E-14
 -1      1883 7.18666E-03-6.42928E-04-4.84701E-14
 -1      1884 6.87773E-03-5.43760E-04-4.56463E-14
 -1      1885 7.36656E-03-6.90943E-04-5.03585E-14
 -1      1886 7.54804E-03-7.50570E-04-5.22757E-14
 -1      1887 7.22279E-03-6.16005E-04-4.93506E-14
 -1      1888 7.73266E-03-8.22182E-04-5.42233E-14
 -1      1889 7.91737E-03-9.06062E-04-5.62008E-14
 -1      1890 7.58166E-03-7.31517E-04-5.31767E-14
 -1      1891 8.10376E-03-1.00051E-03-5.82107E-14
 -1      1892 8.28802E-03-1.10295E-03-6.02513E-14
 -1      1893 7.95368E-03-8.96985E-04-5.71219E-14
 -1      1894 8.47088E-03-1.20847E-03-6.23242E-14
 -1      1895 8.64957E-03-1.31027E-03-6.44346E-14
 -1      1896 8.33204E-03-1.10397E-03-6.11936E-14
 -1      1897 8.82302E-03-1.40116E-03-6.65817E-14
 -1      1898 8.99337E-03-1.47200E-03-6.87632E-14
 -1      1899 8.70293E-03-1.31524E-03-6.54040E-14
 -1      1900 9.15787E-03-1.51718E-03-7.09817E-14
 -1      1901 9.32409E-03-1.53212E-03-7.32356E-14
 -1      1902 9.05584E-03-1.46482E-03-6.97585E-14
 -1      1903 9.48873E-03-1.51698E-03-7.55264E-14
 -1      1904 9.65933E-03-1.47655E-03-7.78515E-14
 -1      1905 9.39896E-03-1.49457E-03-7.42614E-14
 -1      1906 9.83319E-03-1.41655E-03-8.02077E-14
 -1      1907 1.00121E-02-1.34621E-03-8.25921E-14
 -1      1908 9.75249E-03-1.40563E-03-7.89048E-14
 -1      1909 1.01951E-02-1.27266E-03-8.50025E-14
 -1      1910 1.03795E-02-1.20259E-03-8.74396E-14
 -1      1911 1.01238E-02-1.25743E-03-8.36708E-14
 -1      1912 1.05659E-02-1.14078E-03-8.98994E-14
 -1      1913 1.07505E-02-1.08965E-03-9.23812E-14
 -1      1914 1.05021E-02-1.11535E-03-8.85397E-14
 -1      1915 1.09350E-02-1.05084E-03-9.48807E-14
 -1      1916 1.11163E-02-1.02395E-03-9.73967E-14
 -1      1917 1.08737E-02-1.01551E-03-9.34961E-14
 -1      1918 1.12959E-02-1.00858E-03-9.99332E-14
 -1      1919 1.14723E-02-1.00336E-03-1.02485E-13
 -1      1920 1.12321E-02-9.65488E-04-9.85309E-14
 -1      1921 1.16464E-02-1.00700E-03-1.05051E-13
 -1      1922 1.18175E-02-1.01816E-03-1.07632E-13
 -1      1923 1.15766E-02-9.58297E-04-1.03631E-13
 -1      1924 1.19861E-02-1.03543E-03-1.10225E-13
 -1      1925 1.21521E-02-1.05775E-03-1.12832E-13
 -1      1926 1.19094E-02-9.82897E-04-1.08788E-13
 -1      1927 1.23157E-02-1.08397E-03-1.15454E-13
 -1      1928 1.24771E-02-1.11334E-03-1.18095E-13
 -1      1929 1.22326E-02-1.02906E-03-1.14003E-13
 -1      1930 1.26363E-02-1.14503E-03-1.20755E-13
 -1      1931 1.27937E-02-1.17851E-03-1.23430E-13
 -1      1932 1.25480E-02-1.08881E-03-1.19281E-13
 -1      1933 1.29492E-02-1.21325E-03-1.26121E-13
 -1      1934 1.31032E-02-1.24888E-03-1.28831E-13
 -1      1935 1.28570E-02-1.15649E-03-1.24629E-13
 -1      1936 1.32557E-02-1.28508E-03-1.31554E-13
 -1      1937 1.34069E-02-1.32159E-03-1.34292E-13
 -1      1938 1.31607E-02-1.22828E-03-1.30041E-13
 -1      1939 1.35569E-02-1.35824E-03-1.37044E-13
 -1      1940 1.37058E-02-1.39485E-03-1.39807E-13
 -1      1941 1.34601E-02-1.30173E-03-1.35513E-13
 -1      1942 1.38538E-02-1.43132E-03-1.42587E-13
 -1      1943 1.40010E-02-1.46754E-03-1.45375E-13
 -1      1944 1.37559E-02-1.37528E-03-1.41036E-13
 -1      1945 1.41473E-02-1.50344E-03-1.48170E-13
 -1      1946 1.42931E-02-1.53895E-03-1.50975E-13
 -1      1947 1.40489E-02-1.44797E-03-1.46608E-13
 -1      1948 1.44383E-02-1.57404E-03-1.53788E-13
 -1      1949 1.45830E-02-1.60866E-03-1.56604E-13
 -1      1950 1.43396E-02-1.51921E-03-1.52209E-13
 -1      1951 1.47272E-02-1.64281E-03-1.59429E-13
 -1      1952 1.48711E-02-1.67642E-03-1.62259E-13
 -1      1953 1.46286E-02-1.58864E-03-1.57844E-13
 -1      1954 1.50010E-02-1.70779E-03-1.64806E-13
 -1      1955 1.51444E-02-1.74044E-03-1.67647E-13
 -1      1956 1.51617E-02-1.71629E-03-1.68314E-13
 -1      1957 1.49025E-02-1.65425E-03-1.63212E-13
 -1      1958 1.13763E-03 4.78995E-04-7.37230E-16
 -1      1959 9.95979E-04 4.46014E-04-5.22396E-16
 -1      1960 9.63749E-04 4.16609E-04-5.55572E-16
 -1      1961 1.41654E-03 5.29777E-04-1.28573E-15
 -1      1962 1.27748E-03 5.06706E-04-9.91367E-16
 -1      1963 1.24804E-03 4.78629E-04-1.02841E-15
 -1      1964 1.69277E-03 5.65116E-04-1.99560E-15
 -1      1965 1.55480E-03 5.49134E-04-1.62026E-15
 -1      1966 1.52817E-03 5.22034E-04-1.66010E-15
 -1      1967 1.96828E-03 5.89131E-04-2.86827E-15
 -1      1968 1.83052E-03 5.78372E-04-2.41159E-15
 -1      1969 1.80635E-03 5.51922E-04-2.45299E-15
 -1      1970 2.24421E-03 6.04708E-04-3.90624E-15
 -1      1971 2.10614E-03 5.97852E-04-3.36641E-15
 -1      1972 2.08402E-03 5.71821E-04-3.40917E-15
 -1      1973 2.52119E-03 6.13949E-04-5.10835E-15
 -1      1974 2.38255E-03 6.10030E-04-4.48662E-15
 -1      1975 2.36207E-03 5.84257E-04-4.52908E-15
 -1      1976 2.79960E-03 6.18406E-04-6.47616E-15
 -1      1977 2.66021E-03 6.16707E-04-5.77132E-15
 -1      1978 2.64102E-03 5.91085E-04-5.81318E-15
 -1      1979 3.07963E-03 6.19229E-04-8.00785E-15
 -1      1980 2.93940E-03 6.19220E-04-7.22160E-15
 -1      1981 2.92120E-03 5.93670E-04-7.26151E-15
 -1      1982 3.36146E-03 6.17275E-04-9.69919E-15
 -1      1983 3.22032E-03 6.18558E-04-8.83384E-15
 -1      1984 3.20282E-03 5.93025E-04-8.87140E-15
 -1      1985 3.64522E-03 6.13201E-04-1.15496E-14
 -1      1986 3.50309E-03 6.15469E-04-1.06050E-14
 -1      1987 3.48604E-03 5.89906E-04-1.06399E-14
 -1      1988 3.93109E-03 6.07541E-04-1.35524E-14
 -1      1989 3.78788E-03 6.10537E-04-1.25320E-14
 -1      1990 3.77103E-03 5.84902E-04-1.25639E-14
 -1      1991 4.21928E-03 6.00796E-04-1.57074E-14
 -1      1992 4.07488E-03 6.04270E-04-1.46107E-14
 -1      1993 4.05799E-03 5.78515E-04-1.46404E-14
 -1      1994 4.51009E-03 5.93513E-04-1.80126E-14
 -1      1995 4.36434E-03 5.97180E-04-1.68418E-14
 -1      1996 4.34714E-03 5.71249E-04-1.68680E-14
 -1      1997 4.80384E-03 5.86381E-04-2.04667E-14
 -1      1998 4.65657E-03 5.89875E-04-1.92207E-14
 -1      1999 4.63877E-03 5.63693E-04-1.92445E-14
 -1      2000 5.10087E-03 5.80327E-04-2.30676E-14
 -1      2001 4.95191E-03 5.83150E-04-2.17494E-14
 -1      2002 4.93321E-03 5.56623E-04-2.17695E-14
 -1      2003 5.40151E-03 5.76606E-04-2.58141E-14
 -1      2004 5.25071E-03 5.78087E-04-2.44225E-14
 -1      2005 5.23078E-03 5.51093E-04-2.44389E-14
 -1      2006 5.70597E-03 5.76871E-04-2.87084E-14
 -1      2007 5.55325E-03 5.76134E-04-2.72429E-14
 -1      2008 5.53177E-03 5.48529E-04-2.72553E-14
 -1      2009 6.01421E-03 5.83178E-04-3.17459E-14
 -1      2010 5.85963E-03 5.79151E-04-3.02093E-14
 -1      2011 5.83636E-03 5.50773E-04-3.02176E-14
 -1      2012 6.32584E-03 5.97864E-04-3.49299E-14
 -1      2013 6.16966E-03 5.89360E-04-3.33196E-14
 -1      2014 6.14452E-03 5.60054E-04-3.33249E-14
 -1      2015 6.63994E-03 6.23205E-04-3.82519E-14
 -1      2016 6.48270E-03 6.09126E-04-3.65739E-14
 -1      2017 6.45586E-03 5.78789E-04-3.65733E-14
 -1      2018 6.95492E-03 6.60756E-04-4.17133E-14
 -1      2019 6.79750E-03 6.40466E-04-3.99663E-14
 -1      2020 6.76950E-03 6.09123E-04-3.99606E-14
 -1      2021 7.26850E-03 7.10316E-04-4.53083E-14
 -1      2022 7.11213E-03 6.84202E-04-4.34938E-14
 -1      2023 7.08394E-03 6.52108E-04-4.34815E-14
 -1      2024 7.57793E-03 7.68666E-04-4.90344E-14
 -1      2025 7.42401E-03 7.38775E-04-4.71551E-14
 -1      2026 7.39699E-03 7.06510E-04-4.71356E-14
 -1      2027 7.88048E-03 8.28545E-04-5.28925E-14
 -1      2028 7.73029E-03 7.99026E-04-5.09470E-14
 -1      2029 7.70601E-03 7.67501E-04-5.09214E-14
 -1      2030 8.17444E-03 8.78707E-04-5.68822E-14
 -1      2031 8.02860E-03 8.55590E-04-5.48708E-14
 -1      2032 8.00850E-03 8.25884E-04-5.48393E-14
 -1      2033 8.46009E-03 9.05913E-04-6.10100E-14
 -1      2034 8.31814E-03 8.95862E-04-5.89287E-14
 -1      2035 8.30314E-03 8.68848E-04-5.88905E-14
 -1      2036 8.74026E-03 8.98791E-04-6.52740E-14
 -1      2037 8.60047E-03 9.07005E-04-6.31249E-14
 -1      2038 8.59090E-03 8.82935E-04-6.30796E-14
 -1      2039 9.01974E-03 8.52105E-04-6.96748E-14
 -1      2040 8.87959E-03 8.80271E-04-6.74574E-14
 -1      2041 8.87531E-03 8.58602E-04-6.74052E-14
 -1      2042 9.30356E-03 7.68982E-04-7.42027E-14
 -1      2043 9.16069E-03 8.14536E-04-7.19235E-14
 -1      2044 9.16128E-03 7.94178E-04-7.18638E-14
 -1      2045 9.59518E-03 6.59549E-04-7.88495E-14
 -1      2046 9.44819E-03 7.16776E-04-7.65121E-14
 -1      2047 9.45306E-03 6.96591E-04-7.64466E-14
 -1      2048 9.89553E-03 5.36975E-04-8.36127E-14
 -1      2049 9.74428E-03 5.99171E-04-8.12169E-14
 -1      2050 9.75261E-03 5.78378E-04-8.11461E-14
 -1      2051 1.02033E-02 4.13294E-04-8.84913E-14
 -1      2052 1.00487E-02 4.74755E-04-8.60382E-14
 -1      2053 1.00594E-02 4.53036E-04-8.59630E-14
 -1      2054 1.05160E-02 2.96866E-04-9.34745E-14
 -1      2055 1.03593E-02 3.53911E-04-9.09700E-14
 -1      2056 1.03712E-02 3.31296E-04-9.08897E-14
 -1      2057 1.08308E-02 1.91875E-04-9.85621E-14
 -1      2058 1.06734E-02 2.42886E-04-9.60050E-14
 -1      2059 1.06853E-02 2.19576E-04-9.59189E-14
 -1      2060 1.11452E-02 9.91681E-05-1.03737E-13
 -1      2061 1.09882E-02 1.44060E-04-1.01139E-13
 -1      2062 1.09994E-02 1.20299E-04-1.01044E-13
 -1      2063 1.14576E-02 1.75079E-05-1.08997E-13
 -1      2064 1.13018E-02 5.70894E-05-1.06357E-13
 -1      2065 1.13117E-02 3.30963E-05-1.06255E-13
 -1      2066 1.17667E-02-5.53045E-05-1.14334E-13
 -1      2067 1.16126E-02-1.98604E-05-1.11656E-13
 -1      2068 1.16211E-02-4.39120E-05-1.11547E-13
 -1      2069 1.20722E-02-1.21672E-04-1.19747E-13
 -1      2070 1.19200E-02-8.91638E-05-1.17032E-13
 -1      2071 1.19271E-02-1.13149E-04-1.16915E-13
 -1      2072 1.23740E-02-1.83785E-04-1.25224E-13
 -1      2073 1.22236E-02-1.53154E-04-1.22477E-13
 -1      2074 1.22295E-02-1.76989E-04-1.22353E-13
 -1      2075 1.26723E-02-2.43449E-04-1.30753E-13
 -1      2076 1.25236E-02-2.13842E-04-1.27983E-13
 -1      2077 1.25286E-02-2.37476E-04-1.27850E-13
 -1      2078 1.29674E-02-3.02063E-04-1.36328E-13
 -1      2079 1.28202E-02-2.72828E-04-1.33535E-13
 -1      2080 1.28246E-02-2.96236E-04-1.33397E-13
 -1      2081 1.32599E-02-3.60668E-04-1.41943E-13
 -1      2082 1.31140E-02-3.31324E-04-1.39132E-13
 -1      2083 1.31179E-02-3.54498E-04-1.38984E-13
 -1      2084 1.35501E-02-4.20018E-04-1.47588E-13
 -1      2085 1.34053E-02-3.90220E-04-1.44762E-13
 -1      2086 1.34090E-02-4.13161E-04-1.44608E-13
 -1      2087 1.38386E-02-4.80648E-04-1.53263E-13
 -1      2088 1.36946E-02-4.50154E-04-1.50423E-13
 -1      2089 1.36982E-02-4.72869E-04-1.50262E-13
 -1      2090 1.41258E-02-5.42885E-04-1.58950E-13
 -1      2091 1.39824E-02-5.11559E-04-1.56106E-13
 -1      2092 1.39860E-02-5.34062E-04-1.55940E-13
 -1      2093 1.43636E-02-5.98309E-04-1.63651E-13
 -1      2094 1.42205E-02-5.66291E-04-1.60804E-13
 -1      2095 1.42242E-02-5.88635E-04-1.60635E-13
 -1      2096 1.44132E-02-6.35834E-04-1.64340E-13
 -1      2097 1.45677E-02-8.58870E-04-1.65067E-13
 -1      2098 1.45337E-02-8.18159E-04-1.64825E-13
 -1      2099 1.44998E-02-7.77152E-04-1.64582E-13
 -1      2100 1.44663E-02-7.35890E-04-1.64339E-13
 -1      2101 1.43932E-02-7.70027E-04-1.62246E-13
 -1      2102 1.44559E-02-7.06850E-04-1.64463E-13
 -1      2103 1.44230E-02-6.65164E-04-1.64218E-13
 -1      2104 1.43285E-02-6.41522E-04-1.62366E-13
 -1      2105 1.43488E-02-6.99910E-04-1.62123E-13
 -1      2106 1.46348E-02-9.38083E-04-1.65540E-13
 -1      2107 1.46013E-02-8.98616E-04-1.65303E-13
 -1      2108 1.44609E-02-8.50756E-04-1.62729E-13
 -1      2109 1.47025E-02-1.01758E-03-1.66017E-13
 -1      2110 1.46687E-02-9.77955E-04-1.65780E-13
 -1      2111 1.45288E-02-9.30366E-04-1.63207E-13
 -1      2112 1.47689E-02-1.09619E-03-1.66490E-13
 -1      2113 1.47359E-02-1.05697E-03-1.66255E-13
 -1      2114 1.45964E-02-1.00963E-03-1.63684E-13
 -1      2115 1.48335E-02-1.17421E-03-1.66961E-13
 -1      2116 1.48015E-02-1.13524E-03-1.66726E-13
 -1      2117 1.46626E-02-1.08807E-03-1.64160E-13
 -1      2118 1.48960E-02-1.25205E-03-1.67420E-13
 -1      2119 1.48650E-02-1.21311E-03-1.67190E-13
 -1      2120 1.47267E-02-1.16603E-03-1.64628E-13
 -1      2121 1.49564E-02-1.33014E-03-1.67876E-13
 -1      2122 1.49264E-02-1.29102E-03-1.67649E-13
 -1      2123 1.47886E-02-1.24390E-03-1.65089E-13
 -1      2124 1.50141E-02-1.40754E-03-1.68326E-13
 -1      2125 1.49854E-02-1.36873E-03-1.68101E-13
 -1      2126 1.48480E-02-1.32143E-03-1.65543E-13
 -1      2127 1.50719E-02-1.48724E-03-1.68777E-13
 -1      2128 1.50431E-02-1.44725E-03-1.68552E-13
 -1      2129 1.49057E-02-1.39965E-03-1.65991E-13
 -1      2130 1.51294E-02-1.56812E-03-1.69213E-13
 -1      2131 1.51006E-02-1.52753E-03-1.68996E-13
 -1      2132 1.49630E-02-1.47956E-03-1.66431E-13
 -1      2133 1.51878E-02-1.65022E-03-1.69638E-13
 -1      2134 1.51585E-02-1.60903E-03-1.69427E-13
 -1      2135 1.50204E-02-1.56066E-03-1.66860E-13
 -1      2136 1.09089E-02-2.95082E-04-8.21986E-14
 -1      2137 1.10622E-02-3.45908E-04-8.27941E-14
 -1      2138 1.13354E-02-4.39943E-04-8.39724E-14
 -1      2139 1.13515E-02-4.55845E-04-8.42159E-14
 -1      2140 1.12002E-02-3.93383E-04-8.34244E-14
 -1      2141 1.12852E-02-4.16769E-04-8.36988E-14
 -1      2142 1.13182E-02-4.43481E-04-8.50669E-14
 -1      2143 1.04957E-02-1.04977E-04-7.99291E-14
 -1      2144 1.06839E-02-1.99708E-04-8.10471E-14
 -1      2145 1.00949E-02 1.14350E-04-7.75136E-14
 -1      2146 1.02877E-02 5.91829E-06-7.86768E-14
 -1      2147 3.27212E-04-8.89377E-05-2.55438E-16
 -1      2148 3.29277E-04-1.02082E-04-2.49150E-16
 -1      2149 4.46330E-04-1.44981E-04-3.63655E-16
 -1      2150 4.40134E-04-1.09829E-04-3.79810E-16
 -1      2151 9.35367E-03 5.06542E-04-7.23447E-14
 -1      2152 9.51202E-03 4.30535E-04-7.36024E-14
 -1      2153 9.02809E-03 6.01282E-04-6.95157E-14
 -1      2154 9.17325E-03 5.70006E-04-7.07864E-14
 -1      2155 8.71437E-03 5.88916E-04-6.68109E-14
 -1      2156 8.86085E-03 6.09049E-04-6.80773E-14
 -1      2157 8.36157E-03 4.68247E-04-6.42189E-14
 -1      2158 8.52481E-03 5.36041E-04-6.53554E-14
 -1      2159 7.98848E-03 2.89186E-04-6.20807E-14
 -1      2160 8.16436E-03 3.78168E-04-6.30183E-14
 -1      2161 7.61861E-03 1.00211E-04-6.02327E-14
 -1      2162 7.79942E-03 1.93936E-04-6.11197E-14
 -1      2163 7.22527E-03-7.52865E-05-5.87129E-14
 -1      2164 7.39487E-03-7.57887E-06-5.92000E-14
 -1      2165 6.94426E-03-1.74150E-04-5.80891E-14
 -1      2166 7.06602E-03-1.31418E-04-5.84180E-14
 -1      2167 6.78835E-03-2.35663E-04-5.76625E-14
 -1      2168 6.84299E-03-2.14406E-04-5.77442E-14
 -1      2169 6.79254E-03-2.76112E-04-5.77460E-14
 -1      2170 6.76929E-03-2.59359E-04-5.76290E-14
 -1      2171 6.96830E-03-3.43020E-04-5.84966E-14
 -1      2172 6.86986E-03-3.08556E-04-5.80512E-14
 -1      2173 7.22741E-03-4.51800E-04-5.96647E-14
 -1      2174 7.08375E-03-3.92532E-04-5.90765E-14
 -1      2175 7.01929E-03-3.36460E-04-5.78733E-14
 -1      2176 7.62597E-03-6.41268E-04-6.13288E-14
 -1      2177 7.44663E-03-5.50175E-04-6.05425E-14
 -1      2178 8.00837E-03-8.54794E-04-6.31439E-14
 -1      2179 7.81349E-03-7.44535E-04-6.22316E-14
 -1      2180 7.73108E-03-6.59991E-04-6.10745E-14
 -1      2181 8.43739E-03-1.12105E-03-6.57637E-14
 -1      2182 8.26366E-03-1.00952E-03-6.46130E-14
 -1      2183 8.77823E-03-1.30150E-03-6.82016E-14
 -1      2184 8.61474E-03-1.22061E-03-6.70092E-14
 -1      2185 9.12258E-03-1.39863E-03-7.09917E-14
 -1      2186 8.97435E-03-1.37012E-03-6.97229E-14
 -1      2187 9.43887E-03-1.36813E-03-7.36067E-14
 -1      2188 9.29145E-03-1.39626E-03-7.23827E-14
 -1      2189 9.76187E-03-1.24084E-03-7.61972E-14
 -1      2190 9.60549E-03-1.31494E-03-7.49608E-14
 -1      2191 1.01518E-02-1.03258E-03-7.87143E-14
 -1      2192 9.97797E-03-1.12882E-03-7.77253E-14
 -1      2193 1.05166E-02-8.40720E-04-8.05077E-14
 -1      2194 1.03437E-02-9.33477E-04-7.96357E-14
 -1      2195 1.08513E-02-6.68299E-04-8.23802E-14
 -1      2196 1.06871E-02-7.51043E-04-8.14310E-14
 -1      2197 1.11753E-02-5.40226E-04-8.35601E-14
 -1      2198 1.10543E-02-5.80202E-04-8.33521E-14
 -1      2199 1.13240E-02-4.81244E-04-8.41704E-14
 -1      2200 1.12638E-02-5.04855E-04-8.38642E-14
 -1      2201 1.12297E-02-5.10799E-04-8.49496E-14
 -1      2202 9.71031E-03 3.33220E-04-7.49399E-14
 -1      2203 9.88837E-03 2.32119E-04-7.61439E-14
 -1      2204 9.96316E-03 1.59174E-04-7.73120E-14
 -1      2205 6.07431E-04-2.97841E-04-4.01887E-16
 -1      2206 9.58451E-03 3.77753E-04-7.45954E-14
 -1      2207 6.63231E-04-2.92074E-04-5.31096E-16
 -1      2208 1.11402E-02-3.93920E-04-8.41542E-14
 -1      2209 1.06725E-02-2.39225E-04-8.25157E-14
 -1      2210 1.07880E-02-2.71089E-04-8.23577E-14
 -1      2211 1.08848E-02-3.24145E-04-8.36773E-14
 -1      2212 1.51698E-02-1.67405E-03-1.68973E-13
 -1      2213 1.13496E-02-4.69746E-04-8.53004E-14
 -1      2214 1.03610E-02-6.79146E-05-7.99443E-14
 -1      2215 1.09571E-02-6.08040E-04-8.36634E-14
 -1      2216 1.08603E-02-6.43675E-04-8.39749E-14
 -1      2217 1.10522E-02-5.68853E-04-8.49548E-14
 -1      2218 1.05819E-02-7.83398E-04-8.17619E-14
 -1      2219 1.02351E-02-9.71341E-04-7.99068E-14
 -1      2220 9.85996E-03-1.18714E-03-7.74398E-14
 -1      2221 9.51223E-03-1.35328E-03-7.45500E-14
 -1      2222 9.21115E-03-1.41142E-03-7.17999E-14
 -1      2223 8.89467E-03-1.34637E-03-6.88860E-14
 -1      2224 8.15089E-03-9.16052E-04-6.34228E-14
 -1      2225 7.33693E-03-4.65543E-04-5.93125E-14
 -1      2226 6.82216E-03-2.75512E-04-5.69998E-14
 -1      2227 6.76874E-03-2.44359E-04-5.67330E-14
 -1      2228 6.88796E-03-2.04124E-04-5.71075E-14
 -1      2229 7.14558E-03-1.19839E-04-5.77381E-14
 -1      2230 7.51146E-03 3.22031E-05-5.90429E-14
 -1      2231 7.91212E-03 2.33521E-04-6.10213E-14
 -1      2232 8.27350E-03 4.22650E-04-6.31664E-14
 -1      2233 8.62478E-03 5.71279E-04-6.58080E-14
 -1      2234 9.25071E-03 5.44155E-04-7.16918E-14
 -1      2235 8.93852E-03 6.16142E-04-6.86970E-14
 -1      2236 8.55391E-03-1.17151E-03-6.61280E-14
 -1      2237 1.01601E-03 3.98949E-04-7.35292E-16
 -1      2238 8.71621E-04 3.62807E-04-5.28223E-16
 -1      2239 5.48133E-04-5.51857E-05-5.47061E-16
 -1      2240 5.49146E-04-7.18758E-05-5.48606E-16
 -1      2241 5.50533E-04-8.91749E-05-5.48444E-16
 -1      2242 5.52367E-04-1.07130E-04-5.46655E-16
 -1      2243 6.65651E-04-9.52625E-05-7.42638E-16
 -1      2244 5.46782E-04 8.84420E-06-5.27302E-16
 -1      2245 5.46764E-04-6.95966E-06-5.34010E-16
 -1      2246 5.47517E-04 4.07903E-05-5.09887E-16
 -1      2247 5.47030E-04 2.47476E-05-5.19373E-16
 -1      2248 6.61777E-04 1.98849E-05-7.09366E-16
 -1      2249 5.49299E-04 7.33570E-05-4.86997E-16
 -1      2250 5.48262E-04 5.68908E-05-4.99451E-16
 -1      2251 6.63075E-04 5.76454E-05-6.85256E-16
 -1      2252 5.52616E-04 1.08787E-04-4.56151E-16
 -1      2253 5.50734E-04 9.07315E-05-4.72712E-16
 -1      2254 6.65878E-04 9.70326E-05-6.53218E-16
 -1      2255 5.58382E-04 1.48092E-04-4.14978E-16
 -1      2256 5.55126E-04 1.27881E-04-4.37150E-16
 -1      2257 6.70873E-04 1.39740E-04-6.10690E-16
 -1      2258 5.68548E-04 1.93668E-04-3.59345E-16
 -1      2259 5.62797E-04 1.69961E-04-3.89554E-16
 -1      2260 6.79376E-04 1.87240E-04-5.54583E-16
 -1      2261 1.30135E-03 4.55253E-04-1.26539E-15
 -1      2262 1.15909E-03 4.29656E-04-9.80620E-16
 -1      2263 1.07136E-03 3.80355E-04-9.25963E-16
 -1      2264 9.14798E-04-3.45702E-04-9.99865E-16
 -1      2265 1.05884E-03-3.78764E-04-1.30836E-15
 -1      2266 9.51093E-03 4.06950E-04-7.46185E-14
 -1      2267 9.66979E-03 3.09826E-04-7.59667E-14
 -1      2268 1.20207E-03-4.06825E-04-1.66092E-15
 -1      2269 1.34485E-03-4.30326E-04-2.05735E-15
 -1      2270 1.11671E-03-3.59444E-04-1.51622E-15
 -1      2271 1.48701E-03-4.50110E-04-2.49731E-15
 -1      2272 1.62879E-03-4.66441E-04-2.98127E-15
 -1      2273 1.40303E-03-4.05472E-04-2.31342E-15
 -1      2274 1.77023E-03-4.79981E-04-3.50844E-15
 -1      2275 1.91145E-03-4.90940E-04-4.07844E-15
 -1      2276 1.68819E-03-4.37701E-04-3.28300E-15
 -1      2277 2.05255E-03-4.99797E-04-4.69107E-15
 -1      2278 2.19358E-03-5.06720E-04-5.34712E-15
 -1      2279 1.97248E-03-4.59393E-04-4.42342E-15
 -1      2280 2.33463E-03-5.12053E-04-6.04452E-15
 -1      2281 2.47571E-03-5.15932E-04-6.78418E-15
 -1      2282 2.25631E-03-4.73105E-04-5.73235E-15
 -1      2283 2.61692E-03-5.18600E-04-7.56507E-15
 -1      2284 2.75824E-03-5.20166E-04-8.38737E-15
 -1      2285 2.54007E-03-4.80778E-04-7.20809E-15
 -1      2286 2.89975E-03-5.20797E-04-9.25063E-15
 -1      2287 3.04144E-03-5.20577E-04-1.01535E-14
 -1      2288 2.82403E-03-4.83853E-04-8.84797E-15
 -1      2289 3.18336E-03-5.19622E-04-1.10962E-14
 -1      2290 3.32551E-03-5.17995E-04-1.20791E-14
 -1      2291 3.10840E-03-4.83382E-04-1.06486E-14
 -1      2292 3.46794E-03-5.15772E-04-1.31012E-14
 -1      2293 3.61065E-03-5.13003E-04-1.41617E-14
 -1      2294 3.39336E-03-4.80116E-04-1.26074E-14
 -1      2295 3.75366E-03-5.09736E-04-1.52611E-14
 -1      2296 3.89702E-03-5.06017E-04-1.63990E-14
 -1      2297 3.67904E-03-4.74584E-04-1.47221E-14
 -1      2298 4.04073E-03-5.01876E-04-1.75736E-14
 -1      2299 4.18484E-03-4.97360E-04-1.87855E-14
 -1      2300 3.96558E-03-4.67166E-04-1.69901E-14
 -1      2301 4.32935E-03-4.92499E-04-2.00347E-14
 -1      2302 4.47434E-03-4.87347E-04-2.13197E-14
 -1      2303 4.25310E-03-4.58173E-04-1.94066E-14
 -1      2304 4.61980E-03-4.81951E-04-2.26392E-14
 -1      2305 4.76584E-03-4.76382E-04-2.39957E-14
 -1      2306 4.54177E-03-4.47924E-04-2.19682E-14
 -1      2307 4.91241E-03-4.70726E-04-2.53875E-14
 -1      2308 5.05969E-03-4.65087E-04-2.68122E-14
 -1      2309 4.83174E-03-4.36852E-04-2.46724E-14
 -1      2310 5.20758E-03-4.59617E-04-2.82712E-14
 -1      2311 5.35633E-03-4.54474E-04-2.97658E-14
 -1      2312 5.12321E-03-4.25631E-04-2.75164E-14
 -1      2313 5.50582E-03-4.49916E-04-3.12930E-14
 -1      2314 5.65632E-03-4.46187E-04-3.28524E-14
 -1      2315 5.41644E-03-4.15348E-04-3.04959E-14
 -1      2316 5.80775E-03-4.43697E-04-3.44458E-14
 -1      2317 5.96042E-03-4.42826E-04-3.60722E-14
 -1      2318 5.71179E-03-4.07729E-04-3.36083E-14
 -1      2319 6.11428E-03-4.44183E-04-3.77302E-14
 -1      2320 6.26971E-03-4.48366E-04-3.94217E-14
 -1      2321 6.00990E-03-4.05442E-04-3.68543E-14
 -1      2322 6.42681E-03-4.56206E-04-4.11456E-14
 -1      2323 6.58595E-03-4.68649E-04-4.28998E-14
 -1      2324 6.31198E-03-4.12480E-04-4.02289E-14
 -1      2325 6.74759E-03-4.86694E-04-4.46864E-14
 -1      2326 6.91196E-03-5.11822E-04-4.65029E-14
 -1      2327 6.62035E-03-4.34619E-04-4.37308E-14
 -1      2328 7.08011E-03-5.45010E-04-4.83497E-14
 -1      2329 7.25186E-03-5.88402E-04-5.02281E-14
 -1      2330 6.93914E-03-4.79952E-04-4.73557E-14
 -1      2331 7.42900E-03-6.42571E-04-5.21355E-14
 -1      2332 7.61026E-03-7.10079E-04-5.40726E-14
 -1      2333 7.27476E-03-5.59377E-04-5.11005E-14
 -1      2334 7.79803E-03-7.90571E-04-5.60406E-14
 -1      2335 7.98880E-03-8.84968E-04-5.80398E-14
 -1      2336 7.63483E-03-6.86476E-04-5.49659E-14
 -1      2337 8.18493E-03-9.90344E-04-6.00696E-14
 -1      2338 8.38009E-03-1.10348E-03-6.21326E-14
 -1      2339 8.02303E-03-8.71807E-04-5.89504E-14
 -1      2340 8.57425E-03-1.21856E-03-6.42317E-14
 -1      2341 8.76392E-03-1.32219E-03-6.63687E-14
 -1      2342 8.42804E-03-1.10713E-03-6.30663E-14
 -1      2343 8.94585E-03-1.40744E-03-6.85409E-14
 -1      2344 9.12636E-03-1.45909E-03-7.07508E-14
 -1      2345 8.82400E-03-1.33457E-03-6.73265E-14
 -1      2346 9.30117E-03-1.47396E-03-7.30012E-14
 -1      2347 9.48184E-03-1.45183E-03-7.52851E-14
 -1      2348 9.20016E-03-1.44908E-03-7.17423E-14
 -1      2349 9.66439E-03-1.39653E-03-7.76045E-14
 -1      2350 9.85443E-03-1.32380E-03-7.99578E-14
 -1      2351 9.57701E-03-1.39315E-03-7.63070E-14
 -1      2352 1.00489E-02-1.24083E-03-8.23381E-14
 -1      2353 1.02439E-02-1.15986E-03-8.47456E-14
 -1      2354 9.97382E-03-1.22763E-03-8.10069E-14
 -1      2355 1.04397E-02-1.08681E-03-8.71791E-14
 -1      2356 1.06301E-02-1.02533E-03-8.96376E-14
 -1      2357 1.03785E-02-1.05741E-03-8.58221E-14
 -1      2358 1.08176E-02-9.77870E-04-9.21160E-14
 -1      2359 1.09985E-02-9.43208E-04-9.46127E-14
 -1      2360 1.07654E-02-9.37900E-04-9.07352E-14
 -1      2361 1.11753E-02-9.21764E-04-9.71293E-14
 -1      2362 1.13467E-02-9.10996E-04-9.96627E-14
 -1      2363 1.11247E-02-8.76665E-04-9.57301E-14
 -1      2364 1.15146E-02-9.10313E-04-1.02210E-13
 -1      2365 1.16787E-02-9.17571E-04-1.04774E-13
 -1      2366 1.14596E-02-8.62432E-04-1.00792E-13
 -1      2367 1.18402E-02-9.31781E-04-1.07351E-13
 -1      2368 1.19992E-02-9.51499E-04-1.09944E-13
 -1      2369 1.17779E-02-8.81783E-04-1.05916E-13
 -1      2370 1.21561E-02-9.75718E-04-1.12550E-13
 -1      2371 1.23115E-02-1.00350E-03-1.15170E-13
 -1      2372 1.20860E-02-9.23903E-04-1.11096E-13
 -1      2373 1.24653E-02-1.03402E-03-1.17810E-13
 -1      2374 1.26179E-02-1.06669E-03-1.20468E-13
 -1      2375 1.23880E-02-9.80770E-04-1.16340E-13
 -1      2376 1.27692E-02-1.10090E-03-1.23139E-13
 -1      2377 1.29197E-02-1.13626E-03-1.25825E-13
 -1      2378 1.26860E-02-1.04663E-03-1.21648E-13
 -1      2379 1.30692E-02-1.17237E-03-1.28530E-13
 -1      2380 1.32180E-02-1.20899E-03-1.31250E-13
 -1      2381 1.29814E-02-1.11752E-03-1.27020E-13
 -1      2382 1.33660E-02-1.24585E-03-1.33984E-13
 -1      2383 1.35133E-02-1.28279E-03-1.36730E-13
 -1      2384 1.32747E-02-1.19076E-03-1.32456E-13
 -1      2385 1.36600E-02-1.31966E-03-1.39490E-13
 -1      2386 1.38063E-02-1.35634E-03-1.42264E-13
 -1      2387 1.35663E-02-1.26460E-03-1.37946E-13
 -1      2388 1.39519E-02-1.39276E-03-1.45046E-13
 -1      2389 1.40972E-02-1.42883E-03-1.47836E-13
 -1      2390 1.38566E-02-1.33793E-03-1.43484E-13
 -1      2391 1.42420E-02-1.46452E-03-1.50637E-13
 -1      2392 1.43865E-02-1.49976E-03-1.53445E-13
 -1      2393 1.41456E-02-1.41006E-03-1.49065E-13
 -1      2394 1.45307E-02-1.53453E-03-1.56258E-13
 -1      2395 1.46746E-02-1.56880E-03-1.59079E-13
 -1      2396 1.44336E-02-1.48054E-03-1.54675E-13
 -1      2397 1.86445E-03 5.21678E-04-2.80243E-15
 -1      2398 1.72421E-03 5.09569E-04-2.35783E-15
 -1      2399 2.14465E-03 5.39375E-04-3.81375E-15
 -1      2400 2.00459E-03 5.31554E-04-3.28767E-15
 -1      2401 1.92412E-03 4.90738E-04-3.16063E-15
 -1      2402 2.42500E-03 5.50117E-04-4.98724E-15
 -1      2403 2.28479E-03 5.45514E-04-4.38004E-15
 -1      2404 2.20639E-03 5.06309E-04-4.22606E-15
 -1      2405 2.70596E-03 5.55623E-04-6.32471E-15
 -1      2406 2.56540E-03 5.53447E-04-5.63548E-15
 -1      2407 2.48866E-03 5.15443E-04-5.45309E-15
 -1      2408 2.98783E-03 5.57166E-04-7.82378E-15
 -1      2409 2.84678E-03 5.56830E-04-7.05358E-15
 -1      2410 2.77131E-03 5.19719E-04-6.84205E-15
 -1      2411 3.27083E-03 5.55683E-04-9.48319E-15
 -1      2412 3.12918E-03 5.56757E-04-8.63433E-15
 -1      2413 3.05460E-03 5.20308E-04-8.39220E-15
 -1      2414 3.55512E-03 5.51878E-04-1.13002E-14
 -1      2415 3.41280E-03 5.54034E-04-1.03720E-14
 -1      2416 3.33872E-03 5.18075E-04-1.01011E-14
 -1      2417 3.84089E-03 5.46302E-04-1.32707E-14
 -1      2418 3.69781E-03 5.49280E-04-1.22661E-14
 -1      2419 3.62384E-03 5.13668E-04-1.19651E-14
 -1      2420 4.12831E-03 5.39439E-04-1.53935E-14
 -1      2421 3.98438E-03 5.43000E-04-1.43136E-14
 -1      2422 3.91013E-03 5.07602E-04-1.39832E-14
 -1      2423 4.41763E-03 5.31790E-04-1.76668E-14
 -1      2424 4.27271E-03 5.35677E-04-1.65115E-14
 -1      2425 4.19776E-03 5.00343E-04-1.61521E-14
 -1      2426 4.70911E-03 5.23967E-04-2.00878E-14
 -1      2427 4.56307E-03 5.27856E-04-1.88587E-14
 -1      2428 4.48695E-03 4.92392E-04-1.84705E-14
 -1      2429 5.00306E-03 5.16784E-04-2.26555E-14
 -1      2430 4.85575E-03 5.20237E-04-2.13537E-14
 -1      2431 4.77798E-03 4.84376E-04-2.09351E-14
 -1      2432 5.29981E-03 5.11362E-04-2.53688E-14
 -1      2433 5.15106E-03 5.13775E-04-2.39943E-14
 -1      2434 5.07115E-03 4.77145E-04-2.35471E-14
 -1      2435 5.59970E-03 5.09207E-04-2.82280E-14
 -1      2436 5.44934E-03 5.09775E-04-2.67798E-14
 -1      2437 5.36684E-03 4.71872E-04-2.63037E-14
 -1      2438 5.90299E-03 5.12260E-04-3.12325E-14
 -1      2439 5.75091E-03 5.09957E-04-2.97120E-14
 -1      2440 5.66548E-03 4.70130E-04-2.92048E-14
 -1      2441 6.20984E-03 5.22842E-04-3.43815E-14
 -1      2442 6.05600E-03 5.16467E-04-3.27885E-14
 -1      2443 5.96752E-03 4.73938E-04-3.22516E-14
 -1      2444 6.52015E-03 5.43436E-04-3.76677E-14
 -1      2445 6.36464E-03 5.31748E-04-3.60078E-14
 -1      2446 6.27338E-03 4.85699E-04-3.54409E-14
 -1      2447 6.83340E-03 5.76173E-04-4.10929E-14
 -1      2448 6.67655E-03 5.58192E-04-3.93641E-14
 -1      2449 6.58333E-03 5.07968E-04-3.87679E-14
 -1      2450 7.14845E-03 6.21948E-04-4.46492E-14
 -1      2451 6.99092E-03 5.97451E-04-4.28541E-14
 -1      2452 6.89724E-03 5.42912E-04-4.22276E-14
 -1      2453 7.46332E-03 6.79111E-04-4.83365E-14
 -1      2454 7.30618E-03 6.49336E-04-4.64763E-14
 -1      2455 7.21424E-03 5.91354E-04-4.58172E-14
 -1      2456 7.77530E-03 7.42042E-04-5.21576E-14
 -1      2457 7.61995E-03 7.10377E-04-5.02307E-14
 -1      2458 7.53230E-03 6.51313E-04-4.95399E-14
 -1      2459 8.08160E-03 8.00374E-04-5.61091E-14
 -1      2460 7.92932E-03 7.72602E-04-5.41166E-14
 -1      2461 7.84828E-03 7.16359E-04-5.33949E-14
 -1      2462 8.38062E-03 8.40025E-04-6.01964E-14
 -1      2463 8.23192E-03 8.23475E-04-5.81353E-14
 -1      2464 8.15873E-03 7.74711E-04-5.73810E-14
 -1      2465 8.67342E-03 8.46894E-04-6.44219E-14
 -1      2466 8.52740E-03 8.48292E-04-6.22926E-14
 -1      2467 8.46176E-03 8.10686E-04-6.15038E-14
 -1      2468 8.96393E-03 8.12219E-04-6.87806E-14
 -1      2469 8.81839E-03 8.34948E-04-6.65839E-14
 -1      2470 8.75884E-03 8.09400E-04-6.57642E-14
 -1      2471 9.25724E-03 7.36638E-04-7.32721E-14
 -1      2472 9.10974E-03 7.79108E-04-7.10104E-14
 -1      2473 9.05483E-03 7.63226E-04-7.01584E-14
 -1      2474 9.55704E-03 6.29835E-04-7.78859E-14
 -1      2475 9.40612E-03 6.86283E-04-7.55632E-14
 -1      2476 9.35522E-03 6.75759E-04-7.46815E-14
 -1      2477 9.86406E-03 5.06191E-04-8.26182E-14
 -1      2478 9.70973E-03 5.69204E-04-8.02378E-14
 -1      2479 9.66293E-03 5.59875E-04-7.93290E-14
 -1      2480 1.01765E-02 3.79466E-04-8.74659E-14
 -1      2481 1.00198E-02 4.42509E-04-8.50275E-14
 -1      2482 9.97720E-03 4.31666E-04-8.40933E-14
 -1      2483 1.04915E-02 2.59431E-04-9.24180E-14
 -1      2484 1.03339E-02 3.18209E-04-8.99289E-14
 -1      2485 1.02949E-02 3.04711E-04-8.89693E-14
 -1      2486 1.08064E-02 1.51114E-04-9.74733E-14
 -1      2487 1.06492E-02 2.03663E-04-9.49329E-14
 -1      2488 1.06125E-02 1.87406E-04-9.39487E-14
 -1      2489 1.11193E-02 5.57452E-05-1.02617E-13
 -1      2490 1.09632E-02 1.01837E-04-1.00035E-13
 -1      2491 1.09278E-02 8.32036E-05-9.90270E-14
 -1      2492 1.14292E-02-2.78137E-05-1.07845E-13
 -1      2493 1.12747E-02 1.26026E-05-1.05220E-13
 -1      2494 1.12392E-02-7.87628E-06-1.04191E-13
 -1      2495 1.17356E-02-1.01814E-04-1.13153E-13
 -1      2496 1.15829E-02-6.58664E-05-1.10490E-13
 -1      2497 1.15466E-02-8.76661E-05-1.09436E-13
 -1      2498 1.20386E-02-1.68774E-04-1.18535E-13
 -1      2499 1.18875E-02-1.36035E-04-1.15834E-13
 -1      2500 1.18501E-02-1.58694E-04-1.14759E-13
 -1      2501 1.23382E-02-2.31018E-04-1.23982E-13
 -1      2502 1.21888E-02-2.00366E-04-1.21251E-13
 -1      2503 1.21500E-02-2.23500E-04-1.20153E-13
 -1      2504 1.26348E-02-2.90475E-04-1.29488E-13
 -1      2505 1.24869E-02-2.60999E-04-1.26727E-13
 -1      2506 1.24469E-02-2.84304E-04-1.25610E-13
 -1      2507 1.29289E-02-3.48648E-04-1.35035E-13
 -1      2508 1.27822E-02-3.19648E-04-1.32256E-13
 -1      2509 1.27413E-02-3.42891E-04-1.31118E-13
 -1      2510 1.32207E-02-4.06654E-04-1.40627E-13
 -1      2511 1.30751E-02-3.77616E-04-1.37827E-13
 -1      2512 1.30334E-02-4.00622E-04-1.36672E-13
 -1      2513 1.35107E-02-4.65301E-04-1.46252E-13
 -1      2514 1.33659E-02-4.35856E-04-1.43435E-13
 -1      2515 1.33238E-02-4.58494E-04-1.42266E-13
 -1      2516 1.37993E-02-5.25164E-04-1.51909E-13
 -1      2517 1.36552E-02-4.95049E-04-1.49077E-13
 -1      2518 1.36128E-02-5.17220E-04-1.47895E-13
 -1      2519 1.40866E-02-5.86624E-04-1.57581E-13
 -1      2520 1.39431E-02-5.55672E-04-1.54743E-13
 -1      2521 1.39006E-02-5.77306E-04-1.53550E-13
 -1      2522 1.42339E-02-6.18063E-04-1.60515E-13
 -1      2523 1.44229E-02-9.22943E-04-1.60876E-13
 -1      2524 1.43887E-02-8.83094E-04-1.60636E-13
 -1      2525 1.44905E-02-1.00190E-03-1.61355E-13
 -1      2526 1.44568E-02-9.62530E-04-1.61115E-13
 -1      2527 1.43172E-02-9.15728E-04-1.58549E-13
 -1      2528 1.42867E-02-7.63228E-04-1.59914E-13
 -1      2529 1.42526E-02-7.22238E-04-1.59667E-13
 -1      2530 1.43546E-02-8.43313E-04-1.60397E-13
 -1      2531 1.43208E-02-8.03590E-04-1.60156E-13
 -1      2532 1.41801E-02-7.56391E-04-1.57581E-13
 -1      2533 1.42487E-02-8.36480E-04-1.58067E-13
 -1      2534 1.45563E-02-1.08009E-03-1.61829E-13
 -1      2535 1.45236E-02-1.04106E-03-1.61592E-13
 -1      2536 1.43847E-02-9.94294E-04-1.59028E-13
 -1      2537 1.46200E-02-1.15787E-03-1.62298E-13
 -1      2538 1.45884E-02-1.11900E-03-1.62067E-13
 -1      2539 1.44502E-02-1.07212E-03-1.59503E-13
 -1      2540 1.46813E-02-1.23562E-03-1.62759E-13
 -1      2541 1.46509E-02-1.19671E-03-1.62528E-13
 -1      2542 1.45133E-02-1.14959E-03-1.59970E-13
 -1      2543 1.47395E-02-1.31246E-03-1.63206E-13
 -1      2544 1.47106E-02-1.27396E-03-1.62984E-13
 -1      2545 1.45734E-02-1.22646E-03-1.60425E-13
 -1      2546 1.47971E-02-1.39141E-03-1.63654E-13
 -1      2547 1.47685E-02-1.35181E-03-1.63431E-13
 -1      2548 1.46314E-02-1.30385E-03-1.60874E-13
 -1      2549 1.48540E-02-1.47147E-03-1.64086E-13
 -1      2550 1.48256E-02-1.43129E-03-1.63871E-13
 -1      2551 1.46884E-02-1.38281E-03-1.61317E-13
 -1      2552 1.49112E-02-1.55281E-03-1.64509E-13
 -1      2553 1.48825E-02-1.51198E-03-1.64297E-13
 -1      2554 1.47449E-02-1.46302E-03-1.61744E-13
 -1      2555 1.50405E-02-1.64339E-03-1.66418E-13
 -1      2556 1.13705E-02-4.71793E-04-8.67305E-14
 -1      2557 1.13460E-02-4.80143E-04-8.66871E-14
 -1      2558 1.58370E-03 4.94695E-04-1.95383E-15
 -1      2559 1.44280E-03 4.76846E-04-1.58966E-15
 -1      2560 1.64133E-03 4.66604E-04-2.25673E-15
 -1      2561 1.13009E-02-4.50381E-04-8.61702E-14
 -1      2562 1.13485E-02-4.59097E-04-8.64500E-14
 -1      2563 1.02402E-02-2.76127E-05-8.00920E-14
 -1      2564 1.04310E-02-1.29369E-04-8.13549E-14
 -1      2565 1.10785E-02-3.93314E-04-8.50046E-14
 -1      2566 1.12059E-02-4.26295E-04-8.56454E-14
 -1      2567 6.84937E-03-2.68166E-04-5.60690E-14
 -1      2568 6.77827E-03-2.53254E-04-5.57731E-14
 -1      2569 5.46973E-04-2.28469E-05-5.39513E-16
 -1      2570 5.47420E-04-3.88565E-05-5.44012E-16
 -1      2571 6.62935E-04-5.56665E-05-7.38396E-16
 -1      2572 6.61728E-04-1.76503E-05-7.26971E-16
 -1      2573 8.87142E-03 6.25090E-04-6.79238E-14
 -1      2574 9.00403E-03 6.17020E-04-6.93600E-14
 -1      2575 8.65264E-03-1.22360E-03-6.65104E-14
 -1      2576 8.50253E-03-1.12628E-03-6.52727E-14
 -1      2577 9.15211E-03 5.81503E-04-7.09131E-14
 -1      2578 9.29901E-03 5.18962E-04-7.24719E-14
 -1      2579 8.54142E-03 5.47950E-04-6.47142E-14
 -1      2580 8.69570E-03 6.00451E-04-6.61600E-14
 -1      2581 8.18902E-03 3.77521E-04-6.18550E-14
 -1      2582 8.35175E-03 4.65812E-04-6.30387E-14
 -1      2583 7.83672E-03 1.85517E-04-5.98889E-14
 -1      2584 8.00328E-03 2.76923E-04-6.08346E-14
 -1      2585 7.42349E-03-1.45490E-05-5.78036E-14
 -1      2586 7.63157E-03 8.15641E-05-5.88185E-14
 -1      2587 7.05215E-03-1.56304E-04-5.65095E-14
 -1      2588 7.19120E-03-1.08527E-04-5.67905E-14
 -1      2589 6.83569E-03-2.15801E-04-5.58346E-14
 -1      2590 6.93153E-03-1.93548E-04-5.61713E-14
 -1      2591 6.96579E-03-1.73361E-04-5.52346E-14
 -1      2592 6.75288E-03-2.40617E-04-5.57255E-14
 -1      2593 6.77214E-03-2.34113E-04-5.57592E-14
 -1      2594 7.08406E-03-3.40718E-04-5.73067E-14
 -1      2595 6.97436E-03-3.05659E-04-5.67383E-14
 -1      2596 7.43828E-03-4.85413E-04-5.88599E-14
 -1      2597 7.23975E-03-4.00422E-04-5.80021E-14
 -1      2598 7.82841E-03-6.92579E-04-6.08447E-14
 -1      2599 7.65969E-03-5.97187E-04-5.99572E-14
 -1      2600 8.28284E-03-9.81273E-04-6.36196E-14
 -1      2601 8.05809E-03-8.32254E-04-6.21673E-14
 -1      2602 8.98292E-03-1.38329E-03-6.95255E-14
 -1      2603 8.82401E-03-1.31560E-03-6.80090E-14
 -1      2604 8.75337E-03-1.27942E-03-6.71352E-14
 -1      2605 9.29695E-03-1.41734E-03-7.27383E-14
 -1      2606 9.16339E-03-1.42042E-03-7.13430E-14
 -1      2607 9.56851E-03-1.33889E-03-7.54441E-14
 -1      2608 9.43227E-03-1.39015E-03-7.40842E-14
 -1      2609 9.37066E-03-1.41411E-03-7.36172E-14
 -1      2610 9.94718E-03-1.13840E-03-7.88044E-14
 -1      2611 9.76303E-03-1.24675E-03-7.72638E-14
 -1      2612 1.03378E-02-9.07317E-04-8.15167E-14
 -1      2613 1.01777E-02-1.00327E-03-8.05815E-14
 -1      2614 1.06479E-02-7.42247E-04-8.33808E-14
 -1      2615 1.04923E-02-8.22313E-04-8.24469E-14
 -1      2616 1.04370E-02-8.66680E-04-8.31268E-14
 -1      2617 1.12823E-02-5.01056E-04-8.67470E-14
 -1      2618 1.12032E-02-5.21223E-04-8.64394E-14
 -1      2619 5.88299E-04-2.37722E-04-4.84259E-16
 -1      2620 7.81001E-04-3.04343E-04-7.65000E-16
 -1      2621 8.40553E-04-2.93035E-04-9.23510E-16
 -1      2622 5.78878E-04-2.09938E-04-5.07488E-16
 -1      2623 7.57421E-04 3.33763E-04-3.81002E-16
 -1      2624 6.11093E-04 2.84568E-04-2.43051E-16
 -1      2625 5.84458E-04 2.57831E-04-2.59666E-16
 -1      2626 8.13358E-04 3.22360E-04-5.20769E-16
 -1      2627 9.85677E-03 1.99412E-04-7.73294E-14
 -1      2628 1.00382E-02 8.65101E-05-7.87088E-14
 -1      2629 1.01353E-02 2.34180E-05-8.01066E-14
 -1      2630 9.77052E-03 2.43281E-04-7.73488E-14
 -1      2631 9.07042E-03 6.04871E-04-7.01238E-14
 -1      2632 6.70514E-04-1.37666E-04-7.37813E-16
 -1      2633 5.54821E-04-1.26016E-04-5.42548E-16
 -1      2634 5.57913E-04-1.46003E-04-5.35542E-16
 -1      2635 1.35732E-03 4.31068E-04-1.51269E-15
 -1      2636 5.72076E-04 2.27654E-04-3.02614E-16
 -1      2637 5.71826E-04-1.84976E-04-5.24957E-16
 -1      2638 1.07760E-02-6.88793E-04-8.46654E-14
 -1      2639 1.11379E-02-5.47515E-04-8.67501E-14
 -1      2640 9.67688E-03-1.30134E-03-7.67867E-14
 -1      2641 1.13412E-02-4.97468E-04-8.81848E-14
 -1      2642 1.05543E-02-1.97168E-04-8.26643E-14
 -1      2643 1.06720E-02-2.51722E-04-8.39828E-14
 -1      2644 1.04532E-02-1.49564E-04-8.28105E-14
 -1      2645 1.41914E-02-6.39122E-04-1.59311E-13
 -1      2646 1.42018E-02-6.68323E-04-1.59192E-13
 -1      2647 9.08014E-03-1.41165E-03-7.04452E-14
 -1      2648 1.49020E-02-1.62409E-03-1.63536E-13
 -1      2649 1.49110E-02-1.58243E-03-1.64191E-13
 -1      2650 1.47727E-02-1.53302E-03-1.61635E-13
 -1      2651 1.47723E-02-1.59250E-03-1.60993E-13
 -1      2652 1.08962E-02-3.41832E-04-8.53196E-14
 -1      2653 1.09878E-02-3.70574E-04-8.51630E-14
 -1      2654 1.10800E-02-4.02078E-04-8.66580E-14
 -1      2655 8.38598E-03-1.04683E-03-6.39905E-14
 -1      2656 1.13795E-02-4.74389E-04-8.78416E-14
 -1      2657 6.89389E-04 2.50880E-04-4.53996E-16
 -1      2658 1.12639E-02-4.47333E-04-8.70289E-14
 -1      2659 7.96029E-03-7.66470E-04-6.10320E-14
 -1      2660 6.74673E-03-2.38736E-04-5.48015E-14
 -1      2661 7.52876E-03-5.23282E-04-5.86312E-14
 -1      2662 7.16774E-03-3.63915E-04-5.68589E-14
 -1      2663 6.78737E-03-2.18685E-04-5.48295E-14
 -1      2664 7.29614E-03-6.32950E-05-5.65656E-14
 -1      2665 7.39187E-03-1.09002E-05-5.63369E-14
 -1      2666 7.17820E-03-9.36392E-05-5.53413E-14
 -1      2667 7.72135E-03 1.33049E-04-5.86311E-14
 -1      2668 8.09169E-03 3.34020E-04-6.07064E-14
 -1      2669 8.43353E-03 5.12759E-04-6.33782E-14
 -1      2670 6.89041E-03-2.74285E-04-5.55077E-14
 -1      2671 9.40469E-03 4.64260E-04-7.38188E-14
 -1      2672 8.77462E-03 6.20168E-04-6.68068E-14
 -1      2673 1.00759E-02-1.07712E-03-8.03994E-14
 -1      2674 1.40947E-02-6.62156E-04-1.56861E-13
 -1      2675 1.46748E-02-1.53898E-03-1.59402E-13
 -1      2676 7.80649E-04 7.71033E-05-8.86579E-16
 -1      2677 7.79412E-04 5.53044E-05-9.03750E-16
 -1      2678 7.78581E-04 3.34600E-05-9.19132E-16
 -1      2679 7.78167E-04 1.18662E-05-9.32387E-16
 -1      2680 8.97028E-04 4.94975E-05-1.15546E-15
 -1      2681 7.91794E-04 1.72705E-04-7.87619E-16
 -1      2682 7.87855E-04 1.47328E-04-8.17814E-16
 -1      2683 8.03468E-04 2.27845E-04-7.14299E-16
 -1      2684 7.96950E-04 1.99481E-04-7.53493E-16
 -1      2685 9.15083E-04 2.07221E-04-9.86095E-16
 -1      2686 1.12955E-03 3.60870E-04-1.12792E-15
 -1      2687 9.85970E-04 3.32088E-04-8.64678E-16
 -1      2688 1.12404E-02-4.47661E-04-8.83718E-14
 -1      2689 1.13281E-02-4.65726E-04-8.89055E-14
 -1      2690 1.41577E-03 4.06026E-04-1.77045E-15
 -1      2691 1.27273E-03 3.85392E-04-1.42966E-15
 -1      2692 1.18956E-03 3.40285E-04-1.34142E-15
 -1      2693 8.02932E-04 2.77734E-04-6.09213E-16
 -1      2694 8.99852E-03 6.23734E-04-6.93172E-14
 -1      2695 9.12622E-03 5.90136E-04-7.08699E-14
 -1      2696 1.32005E-03-3.61228E-04-2.13105E-15
 -1      2697 1.46329E-03-3.79787E-04-2.57417E-15
 -1      2698 1.60635E-03-3.95376E-04-3.05977E-15
 -1      2699 1.74932E-03-4.08214E-04-3.58809E-15
 -1      2700 1.52508E-03-3.53289E-04-2.83978E-15
 -1      2701 1.89213E-03-4.18757E-04-4.15865E-15
 -1      2702 2.03485E-03-4.27186E-04-4.77053E-15
 -1      2703 1.81182E-03-3.78077E-04-3.89666E-15
 -1      2704 2.17748E-03-4.33862E-04-5.42394E-15
 -1      2705 2.32005E-03-4.38930E-04-6.11905E-15
 -1      2706 2.09836E-03-3.94442E-04-5.11962E-15
 -1      2707 2.46259E-03-4.42661E-04-6.85510E-15
 -1      2708 2.60511E-03-4.45170E-04-7.63190E-15
 -1      2709 2.38466E-03-4.04319E-04-6.50643E-15
 -1      2710 2.74765E-03-4.46653E-04-8.45014E-15
 -1      2711 2.89021E-03-4.47198E-04-9.30800E-15
 -1      2712 2.67076E-03-4.09227E-04-8.05639E-15
 -1      2713 3.03282E-03-4.46947E-04-1.02053E-14
 -1      2714 3.17549E-03-4.45962E-04-1.11422E-14
 -1      2715 2.95675E-03-4.10315E-04-9.76708E-15
 -1      2716 3.31823E-03-4.44343E-04-1.21188E-14
 -1      2717 3.46105E-03-4.42136E-04-1.31343E-14
 -1      2718 3.24267E-03-4.08426E-04-1.16353E-14
 -1      2719 3.60397E-03-4.39410E-04-1.41880E-14
 -1      2720 3.74699E-03-4.36199E-04-1.52809E-14
 -1      2721 3.52858E-03-4.04163E-04-1.36596E-14
 -1      2722 3.89012E-03-4.32554E-04-1.64113E-14
 -1      2723 4.03337E-03-4.28504E-04-1.75787E-14
 -1      2724 3.81449E-03-3.97959E-04-1.58373E-14
 -1      2725 4.17673E-03-4.24094E-04-1.87837E-14
 -1      2726 4.32024E-03-4.19352E-04-2.00254E-14
 -1      2727 4.10039E-03-3.90145E-04-1.81656E-14
 -1      2728 4.46385E-03-4.14335E-04-2.13024E-14
 -1      2729 4.60763E-03-4.09078E-04-2.26145E-14
 -1      2730 4.38624E-03-3.81020E-04-2.06406E-14
 -1      2731 4.75150E-03-4.03664E-04-2.39632E-14
 -1      2732 4.89557E-03-3.98147E-04-2.53475E-14
 -1      2733 4.67194E-03-3.70939E-04-2.32592E-14
 -1      2734 5.03971E-03-3.92659E-04-2.67652E-14
 -1      2735 5.18407E-03-3.87284E-04-2.82173E-14
 -1      2736 4.95736E-03-3.60402E-04-2.60183E-14
 -1      2737 5.32851E-03-3.82229E-04-2.97036E-14
 -1      2738 5.47319E-03-3.77629E-04-3.12231E-14
 -1      2739 5.24233E-03-3.50177E-04-2.89159E-14
 -1      2740 5.61798E-03-3.73795E-04-3.27773E-14
 -1      2741 5.76312E-03-3.70946E-04-3.43642E-14
 -1      2742 5.52671E-03-3.41433E-04-3.19492E-14
 -1      2743 5.90847E-03-3.69520E-04-3.59827E-14
 -1      2744 6.05439E-03-3.69878E-04-3.76339E-14
 -1      2745 5.81049E-03-3.35908E-04-3.51159E-14
 -1      2746 6.20083E-03-3.72588E-04-3.93177E-14
 -1      2747 6.34832E-03-3.78273E-04-4.10345E-14
 -1      2748 6.09410E-03-3.36105E-04-3.84123E-14
 -1      2749 6.49704E-03-3.87589E-04-4.27812E-14
 -1      2750 6.64776E-03-4.01630E-04-4.45581E-14
 -1      2751 6.37893E-03-3.45542E-04-4.18361E-14
 -1      2752 6.80111E-03-4.21012E-04-4.63673E-14
 -1      2753 6.95811E-03-4.47761E-04-4.82048E-14
 -1      2754 6.66830E-03-3.69163E-04-4.53835E-14
 -1      2755 7.12018E-03-4.82258E-04-5.00726E-14
 -1      2756 7.28825E-03-5.27987E-04-5.19694E-14
 -1      2757 6.96890E-03-4.14368E-04-4.90514E-14
 -1      2758 7.46496E-03-5.84841E-04-5.38964E-14
 -1      2759 7.64959E-03-6.58364E-04-5.58523E-14
 -1      2760 7.29236E-03-4.93255E-04-5.28348E-14
 -1      2761 9.12404E-03-1.43073E-03-7.08898E-14
 -1      2762 9.31921E-03-1.43783E-03-7.31409E-14
 -1      2763 9.80578E-03-1.26293E-03-7.86362E-14
 -1      2764 1.00174E-02-1.16248E-03-8.10020E-14
 -1      2765 1.03248E-02-1.02407E-03-8.44649E-14
 -1      2766 1.05275E-02-9.49007E-04-8.68991E-14
 -1      2767 1.07232E-02-8.93662E-04-8.93547E-14
 -1      2768 1.09073E-02-8.53236E-04-9.18331E-14
 -1      2769 1.06910E-02-8.45820E-04-8.79759E-14
 -1      2770 1.10834E-02-8.29227E-04-9.43296E-14
 -1      2771 1.12510E-02-8.16190E-04-9.68436E-14
 -1      2772 1.10515E-02-7.78574E-04-9.29305E-14
 -1      2773 1.14127E-02-8.14305E-04-9.93745E-14
 -1      2774 1.15695E-02-8.19976E-04-1.01921E-13
 -1      2775 1.13740E-02-7.64978E-04-9.79562E-14
 -1      2776 1.17226E-02-8.32840E-04-1.04481E-13
 -1      2777 1.18732E-02-8.50994E-04-1.07055E-13
 -1      2778 1.16741E-02-7.84484E-04-1.03046E-13
 -1      2779 1.20218E-02-8.73773E-04-1.09645E-13
 -1      2780 1.21692E-02-9.00111E-04-1.12248E-13
 -1      2781 1.19633E-02-8.25130E-04-1.08192E-13
 -1      2782 1.23157E-02-9.29325E-04-1.14868E-13
 -1      2783 1.24615E-02-9.60831E-04-1.17507E-13
 -1      2784 1.22481E-02-8.79673E-04-1.13400E-13
 -1      2785 1.26069E-02-9.94036E-04-1.20161E-13
 -1      2786 1.27520E-02-1.02860E-03-1.22829E-13
 -1      2787 1.25317E-02-9.43174E-04-1.18671E-13
 -1      2788 1.28968E-02-1.06407E-03-1.25515E-13
 -1      2789 1.30416E-02-1.10023E-03-1.28214E-13
 -1      2790 1.28155E-02-1.01213E-03-1.24008E-13
 -1      2791 1.31860E-02-1.13677E-03-1.30930E-13
 -1      2792 1.33304E-02-1.17356E-03-1.33659E-13
 -1      2793 1.30999E-02-1.08402E-03-1.29407E-13
 -1      2794 1.34746E-02-1.21037E-03-1.36404E-13
 -1      2795 1.36188E-02-1.24713E-03-1.39161E-13
 -1      2796 1.33850E-02-1.15710E-03-1.34863E-13
 -1      2797 1.37627E-02-1.28370E-03-1.41927E-13
 -1      2798 1.39066E-02-1.32002E-03-1.44705E-13
 -1      2799 1.36704E-02-1.23017E-03-1.40371E-13
 -1      2800 1.40503E-02-1.35600E-03-1.47493E-13
 -1      2801 1.41939E-02-1.39162E-03-1.50292E-13
 -1      2802 1.39561E-02-1.30246E-03-1.45924E-13
 -1      2803 1.43373E-02-1.42682E-03-1.53092E-13
 -1      2804 1.44807E-02-1.46157E-03-1.55903E-13
 -1      2805 1.42419E-02-1.37344E-03-1.51512E-13
 -1      2806 2.26919E-03 4.72615E-04-4.64632E-15
 -1      2807 2.12726E-03 4.66712E-04-4.06706E-15
 -1      2808 1.98527E-03 4.59073E-04-3.52829E-15
 -1      2809 1.84317E-03 4.49541E-04-3.02879E-15
 -1      2810 2.04767E-03 4.26837E-04-3.90408E-15
 -1      2811 2.83708E-03 4.83396E-04-7.36696E-15
 -1      2812 2.69502E-03 4.82315E-04-6.62675E-15
 -1      2813 3.12151E-03 4.83137E-04-8.96738E-15
 -1      2814 2.97924E-03 4.83645E-04-8.14724E-15
 -1      2815 2.90323E-03 4.46769E-04-7.89929E-15
 -1      2816 3.40651E-03 4.80256E-04-1.07247E-14
 -1      2817 3.26393E-03 4.81988E-04-9.82652E-15
 -1      2818 3.18856E-03 4.45756E-04-9.54870E-15
 -1      2819 3.69221E-03 4.75347E-04-1.26364E-14
 -1      2820 3.54926E-03 4.78026E-04-1.16613E-14
 -1      2821 3.47418E-03 4.42321E-04-1.13542E-14
 -1      2822 3.97876E-03 4.68887E-04-1.47012E-14
 -1      2823 3.83536E-03 4.72285E-04-1.36499E-14
 -1      2824 3.76022E-03 4.37001E-04-1.33135E-14
 -1      2825 4.26633E-03 4.61324E-04-1.69162E-14
 -1      2826 4.12240E-03 4.65217E-04-1.57896E-14
 -1      2827 4.04679E-03 4.30238E-04-1.54243E-14
 -1      2828 4.55513E-03 4.53152E-04-1.92791E-14
 -1      2829 4.41055E-03 4.57281E-04-1.80796E-14
 -1      2830 4.33404E-03 4.22454E-04-1.76854E-14
 -1      2831 4.84542E-03 4.45009E-04-2.17879E-14
 -1      2832 4.70006E-03 4.49032E-04-2.05155E-14
 -1      2833 4.62217E-03 4.14132E-04-2.00931E-14
 -1      2834 5.13756E-03 4.37764E-04-2.44438E-14
 -1      2835 4.99123E-03 4.41212E-04-2.30975E-14
 -1      2836 4.91147E-03 4.05908E-04-2.26464E-14
 -1      2837 5.43198E-03 4.32624E-04-2.72429E-14
 -1      2838 5.28445E-03 4.34845E-04-2.58249E-14
 -1      2839 5.20232E-03 3.98656E-04-2.53451E-14
 -1      2840 5.72925E-03 4.31206E-04-3.01877E-14
 -1      2841 5.58022E-03 4.31333E-04-2.86975E-14
 -1      2842 5.49528E-03 3.93592E-04-2.81877E-14
 -1      2843 6.03007E-03 4.35583E-04-3.32764E-14
 -1      2844 5.87919E-03 4.32520E-04-3.17143E-14
 -1      2845 5.79110E-03 3.92354E-04-3.11750E-14
 -1      2846 6.33520E-03 4.48236E-04-3.65054E-14
 -1      2847 6.18209E-03 4.40697E-04-3.48729E-14
 -1      2848 6.09078E-03 3.97055E-04-3.43045E-14
 -1      2849 6.64535E-03 4.71825E-04-3.98679E-14
 -1      2850 6.48968E-03 4.58480E-04-3.81699E-14
 -1      2851 6.39548E-03 4.10266E-04-3.75723E-14
 -1      2852 6.96079E-03 5.08653E-04-4.33636E-14
 -1      2853 6.80252E-03 4.88446E-04-4.16005E-14
 -1      2854 6.70640E-03 4.34825E-04-4.09721E-14
 -1      2855 7.28088E-03 5.59646E-04-4.69870E-14
 -1      2856 7.12048E-03 5.32388E-04-4.51586E-14
 -1      2857 7.02424E-03 4.73327E-04-4.45008E-14
 -1      2858 7.60340E-03 6.22679E-04-5.07452E-14
 -1      2859 7.44219E-03 5.89975E-04-4.88501E-14
 -1      2860 7.34849E-03 5.27036E-04-4.81600E-14
 -1      2861 7.92440E-03 6.90490E-04-5.46334E-14
 -1      2862 7.76446E-03 6.56734E-04-5.26727E-14
 -1      2863 7.67641E-03 5.93788E-04-5.19510E-14
 -1      2864 8.23945E-03 7.49572E-04-5.86534E-14
 -1      2865 8.08287E-03 7.22324E-04-5.66258E-14
 -1      2866 8.00292E-03 6.65343E-04-5.58730E-14
 -1      2867 8.54623E-03 7.81936E-04-6.28136E-14
 -1      2868 8.39367E-03 7.70358E-04-6.07168E-14
 -1      2869 8.32242E-03 7.25566E-04-5.99290E-14
 -1      2870 8.84703E-03 7.71451E-04-6.71065E-14
 -1      2871 8.69672E-03 7.82786E-04-6.49427E-14
 -1      2872 8.63249E-03 7.53470E-04-6.41219E-14
 -1      2873 9.14817E-03 7.12119E-04-7.15369E-14
 -1      2874 8.99679E-03 7.47686E-04-6.93061E-14
 -1      2875 8.93705E-03 7.31712E-04-6.84526E-14
 -1      2876 9.45578E-03 6.11469E-04-7.60932E-14
 -1      2877 9.30076E-03 6.65895E-04-7.37996E-14
 -1      2878 9.24423E-03 6.57032E-04-7.29168E-14
 -1      2879 9.77160E-03 4.86298E-04-8.07756E-14
 -1      2880 9.61273E-03 5.50647E-04-7.84190E-14
 -1      2881 9.56012E-03 5.42429E-04-7.75089E-14
 -1      2882 1.00930E-02 3.54380E-04-8.55715E-14
 -1      2883 9.93198E-03 4.20184E-04-8.31591E-14
 -1      2884 9.88459E-03 4.08801E-04-8.22243E-14
 -1      2885 1.04154E-02 2.28490E-04-9.04749E-14
 -1      2886 1.02545E-02 2.90144E-04-8.80112E-14
 -1      2887 1.02127E-02 2.74849E-04-8.70527E-14
 -1      2888 1.07350E-02 1.15093E-04-9.54816E-14
 -1      2889 1.05758E-02 1.70066E-04-9.29656E-14
 -1      2890 1.05388E-02 1.51661E-04-9.19848E-14
 -1      2891 1.10498E-02 1.58211E-05-1.00581E-13
 -1      2892 1.08931E-02 6.37538E-05-9.80218E-14
 -1      2893 1.08592E-02 4.33333E-05-9.70163E-14
 -1      2894 1.13593E-02-7.05340E-05-1.05763E-13
 -1      2895 1.12053E-02-2.88123E-05-1.03162E-13
 -1      2896 1.11727E-02-5.03979E-05-1.02136E-13
 -1      2897 1.16639E-02-1.46408E-04-1.11026E-13
 -1      2898 1.15122E-02-1.09602E-04-1.08383E-13
 -1      2899 1.14796E-02-1.31832E-04-1.07337E-13
 -1      2900 1.19643E-02-2.14498E-04-1.16363E-13
 -1      2901 1.18146E-02-1.81261E-04-1.13685E-13
 -1      2902 1.17810E-02-2.03839E-04-1.12614E-13
 -1      2903 1.22613E-02-2.77277E-04-1.21767E-13
 -1      2904 1.21132E-02-2.46415E-04-1.19057E-13
 -1      2905 1.20782E-02-2.69157E-04-1.17965E-13
 -1      2906 1.25556E-02-3.36807E-04-1.27233E-13
 -1      2907 1.24087E-02-3.07342E-04-1.24493E-13
 -1      2908 1.23722E-02-3.30118E-04-1.23381E-13
 -1      2909 1.28477E-02-3.94693E-04-1.32747E-13
 -1      2910 1.27018E-02-3.65876E-04-1.29985E-13
 -1      2911 1.26639E-02-3.88577E-04-1.28853E-13
 -1      2912 1.31380E-02-4.52132E-04-1.38307E-13
 -1      2913 1.29930E-02-4.23410E-04-1.35523E-13
 -1      2914 1.29539E-02-4.45940E-04-1.34376E-13
 -1      2915 1.34271E-02-5.09994E-04-1.43905E-13
 -1      2916 1.32827E-02-4.80969E-04-1.41101E-13
 -1      2917 1.32425E-02-5.03235E-04-1.39938E-13
 -1      2918 1.37150E-02-5.68894E-04-1.49533E-13
 -1      2919 1.35712E-02-5.39284E-04-1.46715E-13
 -1      2920 1.35303E-02-5.61199E-04-1.45539E-13
 -1      2921 1.39768E-02-6.30400E-04-1.54609E-13
 -1      2922 1.38334E-02-6.00106E-04-1.51783E-13
 -1      2923 1.37921E-02-6.21586E-04-1.50594E-13
 -1      2924 1.40282E-02-6.84206E-04-1.55088E-13
 -1      2925 1.43442E-02-1.06409E-03-1.57182E-13
 -1      2926 1.43120E-02-1.02546E-03-1.56945E-13
 -1      2927 1.45781E-02-1.48561E-03-1.57812E-13
 -1      2928 1.46754E-02-1.50943E-03-1.59723E-13
 -1      2929 1.44819E-02-1.43248E-03-1.56222E-13
 -1      2930 1.42117E-02-9.08641E-04-1.56230E-13
 -1      2931 1.41774E-02-8.69219E-04-1.55987E-13
 -1      2932 1.44067E-02-1.14114E-03-1.57645E-13
 -1      2933 1.43758E-02-1.10261E-03-1.57416E-13
 -1      2934 1.42384E-02-1.05589E-03-1.54862E-13
 -1      2935 1.42791E-02-9.86726E-04-1.56708E-13
 -1      2936 1.42456E-02-9.47789E-04-1.56470E-13
 -1      2937 1.41065E-02-9.01597E-04-1.53913E-13
 -1      2938 1.41737E-02-9.79099E-04-1.54391E-13
 -1      2939 1.44656E-02-1.21705E-03-1.58094E-13
 -1      2940 1.44365E-02-1.17904E-03-1.57871E-13
 -1      2941 1.42997E-02-1.13179E-03-1.55320E-13
 -1      2942 1.45233E-02-1.29491E-03-1.58545E-13
 -1      2943 1.44947E-02-1.25586E-03-1.58320E-13
 -1      2944 1.43583E-02-1.20797E-03-1.55771E-13
 -1      2945 1.45796E-02-1.37384E-03-1.58981E-13
 -1      2946 1.45516E-02-1.33422E-03-1.58763E-13
 -1      2947 1.44151E-02-1.28561E-03-1.56216E-13
 -1      2948 1.70092E-03 4.37711E-04-2.56918E-15
 -1      2949 1.55845E-03 4.23379E-04-2.15009E-15
 -1      2950 1.47602E-03 3.80205E-04-2.03827E-15
 -1      2951 1.76207E-03 4.08160E-04-2.89207E-15
 -1      2952 8.96691E-03-1.38710E-03-6.90793E-14
 -1      2953 9.63666E-03-1.34783E-03-7.67993E-14
 -1      2954 1.11953E-02-5.50260E-04-8.84692E-14
 -1      2955 1.10404E-02-5.89347E-04-8.69750E-14
 -1      2956 8.05194E-03-8.25490E-04-6.10083E-14
 -1      2957 7.84736E-03-6.97184E-04-5.97018E-14
 -1      2958 8.45851E-03-1.09671E-03-6.42556E-14
 -1      2959 8.25840E-03-9.59588E-04-6.26180E-14
 -1      2960 8.13073E-03-8.83294E-04-6.12633E-14
 -1      2961 2.55304E-03 4.80244E-04-5.92679E-15
 -1      2962 2.41111E-03 4.77084E-04-5.26651E-15
 -1      2963 2.33294E-03 4.38435E-04-5.07567E-15
 -1      2964 2.61807E-03 4.44649E-04-6.40758E-15
 -1      2965 1.03362E-03-3.13364E-04-1.37294E-15
 -1      2966 1.17685E-03-3.39182E-04-1.73062E-15
 -1      2967 1.23847E-03-3.17775E-04-1.95144E-15
 -1      2968 7.84763E-04 1.23119E-04-8.43631E-16
 -1      2969 7.82420E-04 9.97355E-05-8.66657E-16
 -1      2970 9.00091E-04 9.90934E-05-1.11273E-15
 -1      2971 9.05733E-04 1.51089E-04-1.05765E-15
 -1      2972 1.46762E-02-1.48014E-03-1.60041E-13
 -1      2973 6.88599E-04-2.03666E-04-7.21726E-16
 -1      2974 7.82170E-04-9.76739E-05-9.67664E-16
 -1      2975 7.84440E-04-1.20981E-04-9.67921E-16
 -1      2976 1.13890E-02-4.80096E-04-8.92367E-14
 -1      2977 1.14109E-02-4.86936E-04-8.95215E-14
 -1      2978 8.68243E-03 6.12040E-04-6.55939E-14
 -1      2979 8.83338E-03 6.34735E-04-6.73493E-14
 -1      2980 6.93914E-03-2.83299E-04-5.48840E-14
 -1      2981 6.82389E-03-2.54149E-04-5.42271E-14
 -1      2982 8.34964E-03 4.90188E-04-6.21486E-14
 -1      2983 8.51522E-03 5.61601E-04-6.38126E-14
 -1      2984 7.96803E-03 2.80753E-04-5.93308E-14
 -1      2985 8.12564E-03 3.73741E-04-6.03320E-14
 -1      2986 7.60927E-03 9.37997E-05-5.72175E-14
 -1      2987 7.79182E-03 1.85892E-04-5.82685E-14
 -1      2988 7.83837E-03 2.37255E-04-5.79008E-14
 -1      2989 6.88852E-03-1.76919E-04-5.39053E-14
 -1      2990 6.99266E-03-1.48273E-04-5.42326E-14
 -1      2991 7.61731E-03-5.67755E-04-5.83429E-14
 -1      2992 7.41856E-03-4.68391E-04-5.72652E-14
 -1      2993 9.29105E-03 5.23569E-04-7.28076E-14
 -1      2994 9.47911E-03 4.22567E-04-7.49567E-14
 -1      2995 6.73911E-03-2.15493E-04-5.37032E-14
 -1      2996 6.79524E-03-2.03641E-04-5.37753E-14
 -1      2997 7.22291E-03-3.82522E-04-5.62456E-14
 -1      2998 7.08104E-03-3.30152E-04-5.55640E-14
 -1      2999 6.73458E-03-2.30709E-04-5.36265E-14
 -1      3000 6.71541E-03-2.24637E-04-5.35824E-14
 -1      3001 1.13941E-02-4.98370E-04-8.95719E-14
 -1      3002 1.13460E-02-5.13029E-04-8.96320E-14
 -1      3003 9.43425E-03-1.41422E-03-7.44913E-14
 -1      3004 1.05245E-02-8.48970E-04-8.47999E-14
 -1      3005 1.03934E-02-9.22884E-04-8.38566E-14
 -1      3006 7.87449E-04-1.45091E-04-9.65360E-16
 -1      3007 7.91294E-04-1.70237E-04-9.59275E-16
 -1      3008 9.05291E-04-1.48574E-04-1.22374E-15
 -1      3009 8.96022E-04 1.01573E-06-1.18792E-15
 -1      3010 7.78141E-04-9.68108E-06-9.43513E-16
 -1      3011 7.78501E-04-3.12598E-05-9.52743E-16
 -1      3012 8.64813E-04 2.65970E-04-7.60514E-16
 -1      3013 1.13908E-02-4.81411E-04-9.05924E-14
 -1      3014 9.71892E-03 2.79543E-04-7.73819E-14
 -1      3015 9.87973E-03 1.76371E-04-7.87566E-14
 -1      3016 8.89697E-03 6.37514E-04-6.80761E-14
 -1      3017 1.02113E-02-1.04730E-03-8.28025E-14
 -1      3018 1.46480E-02-1.43957E-03-1.59833E-13
 -1      3019 1.03170E-02-7.69236E-05-8.23935E-14
 -1      3020 1.04424E-02-1.36945E-04-8.37090E-14
 -1      3021 7.69104E-03-6.40040E-04-5.71986E-14
 -1      3022 7.88599E-03-7.63622E-04-5.83090E-14
 -1      3023 8.09095E-03-8.75280E-04-6.03336E-14
 -1      3024 8.27985E-03-9.96858E-04-6.19345E-14
 -1      3025 8.48914E-03-1.12669E-03-6.40230E-14
 -1      3026 1.40377E-02-8.23350E-04-1.53429E-13
 -1      3027 1.41430E-02-8.29851E-04-1.55745E-13
 -1      3028 1.41086E-02-7.90166E-04-1.55501E-13
 -1      3029 8.76567E-03-1.29521E-03-6.69008E-14
 -1      3030 1.11144E-02-4.11000E-04-8.86908E-14
 -1      3031 1.11799E-02-4.31510E-04-8.85330E-14
 -1      3032 1.12706E-02-4.51642E-04-9.04185E-14
 -1      3033 8.03245E-04-2.02863E-04-9.59180E-16
 -1      3034 8.21664E-04-2.53341E-04-9.42009E-16
 -1      3035 9.52765E-04-2.87532E-04-1.20468E-15
 -1      3036 9.21401E-04-2.10650E-04-1.22141E-15
 -1      3037 1.40855E-02-7.57591E-04-1.55417E-13
 -1      3038 1.40510E-02-7.17304E-04-1.55172E-13
 -1      3039 1.39333E-02-6.85947E-04-1.52928E-13
 -1      3040 1.39797E-02-7.51516E-04-1.53101E-13
 -1      3041 7.46969E-03 4.37262E-05-5.59797E-14
 -1      3042 7.53054E-03 1.00645E-04-5.56178E-14
 -1      3043 7.33598E-03 6.02326E-06-5.47553E-14
 -1      3044 8.58547E-03 5.98746E-04-6.43360E-14
 -1      3045 1.45108E-02-1.39018E-03-1.57285E-13
 -1      3046 1.07967E-02-3.04313E-04-8.54682E-14
 -1      3047 1.09122E-02-3.43547E-04-8.69644E-14
 -1      3048 1.07055E-02-2.60752E-04-8.56154E-14
 -1      3049 6.96745E-03-1.17336E-04-5.26829E-14
 -1      3050 7.06851E-03-1.11539E-04-5.40046E-14
 -1      3051 7.14361E-03-6.83263E-05-5.37748E-14
 -1      3052 1.14369E-02-5.02123E-04-9.09774E-14
 -1      3053 6.74746E-03-2.33969E-04-5.30114E-14
 -1      3054 6.68564E-03-2.19590E-04-5.18060E-14
 -1      3055 6.76770E-03-2.40141E-04-5.23965E-14
 -1      3056 7.30445E-03-4.23928E-04-5.59599E-14
 -1      3057 6.69572E-03-2.10472E-04-5.25380E-14
 -1      3058 9.21139E-03 5.60665E-04-7.19813E-14
 -1      3059 1.12905E-02-5.36730E-04-8.98597E-14
 -1      3060 1.12238E-02-5.68214E-04-9.00872E-14
 -1      3061 1.13711E-02-5.33595E-04-9.12558E-14
 -1      3062 7.71302E-03-6.29567E-04-5.83158E-14
 -1      3063 7.79266E-04-5.29773E-05-9.59844E-16
 -1      3064 7.80463E-04-7.51059E-05-9.64953E-16
 -1      3065 8.99821E-04-9.67371E-05-1.22268E-15
 -1      3066 8.96907E-04-4.73346E-05-1.21036E-15
 -1      3067 9.82977E-04 2.75019E-04-9.99350E-16
 -1      3068 9.58925E-03 3.62869E-04-7.63423E-14
 -1      3069 9.70016E-03 3.03978E-04-7.77381E-14
 -1      3070 9.47841E-03 4.35030E-04-7.53088E-14
 -1      3071 1.01387E-02 2.40097E-05-8.09919E-14
 -1      3072 8.61794E-03-1.20476E-03-6.54177E-14
 -1      3073 8.22401E-03 4.44529E-04-6.07479E-14
 -1      3074 8.30175E-03 5.05106E-04-6.11634E-14
 -1      3075 8.09800E-03 3.99927E-04-5.93646E-14
 -1      3076 6.98123E-03-2.99776E-04-5.42793E-14
 -1      3077 1.09217E-02-6.35548E-04-8.63136E-14
 -1      3078 1.07427E-02-7.23783E-04-8.57088E-14
 -1      3079 1.01530E-03-2.71580E-04-1.38827E-15
 -1      3080 6.80708E-03-1.80267E-04-5.27857E-14
 -1      3081 1.10071E-02-6.27536E-04-8.80277E-14
 -1      3082 1.14018E-02-4.84165E-04-9.21089E-14
 -1      3083 1.14564E-02-4.97383E-04-9.24447E-14
 -1      3084 1.04049E-03 2.42452E-04-1.20532E-15
 -1      3085 1.03397E-03 2.10785E-04-1.25252E-15
 -1      3086 8.82126E-03 6.46425E-04-6.70613E-14
 -1      3087 8.97229E-03 6.34911E-04-6.90263E-14
 -1      3088 7.49017E-03-5.31741E-04-5.58723E-14
 -1      3089 1.73194E-03-3.37668E-04-3.63835E-15
 -1      3090 1.87563E-03-3.47256E-04-4.20820E-15
 -1      3091 2.01930E-03-3.55032E-04-4.81893E-15
 -1      3092 2.16296E-03-3.61144E-04-5.47021E-15
 -1      3093 1.94051E-03-3.15796E-04-4.52264E-15
 -1      3094 2.30657E-03-3.65853E-04-6.16220E-15
 -1      3095 2.45012E-03-3.69277E-04-6.89464E-15
 -1      3096 2.22848E-03-3.27372E-04-5.82290E-15
 -1      3097 2.59360E-03-3.71622E-04-7.66810E-15
 -1      3098 2.73702E-03-3.72976E-04-8.48133E-15
 -1      3099 2.51631E-03-3.33898E-04-7.28470E-15
 -1      3100 2.88036E-03-3.73498E-04-9.33352E-15
 -1      3101 3.02364E-03-3.73250E-04-1.02255E-14
 -1      3102 2.80380E-03-3.36517E-04-8.90549E-15
 -1      3103 3.16684E-03-3.72351E-04-1.11571E-14
 -1      3104 3.30996E-03-3.70842E-04-1.21275E-14
 -1      3105 3.09084E-03-3.36105E-04-1.06842E-14
 -1      3106 3.45300E-03-3.68812E-04-1.31363E-14
 -1      3107 3.59596E-03-3.66288E-04-1.41833E-14
 -1      3108 3.37734E-03-3.33313E-04-1.26185E-14
 -1      3109 3.73882E-03-3.63337E-04-1.52688E-14
 -1      3110 3.88158E-03-3.59979E-04-1.63917E-14
 -1      3111 3.66320E-03-3.28612E-04-1.47055E-14
 -1      3112 4.02421E-03-3.56272E-04-1.75522E-14
 -1      3113 4.16672E-03-3.52230E-04-1.87498E-14
 -1      3114 3.94828E-03-3.22361E-04-1.69443E-14
 -1      3115 4.30906E-03-3.47917E-04-1.99842E-14
 -1      3116 4.45123E-03-3.43347E-04-2.12540E-14
 -1      3117 4.23239E-03-3.14864E-04-1.93322E-14
 -1      3118 4.59317E-03-3.38603E-04-2.25589E-14
 -1      3119 4.73489E-03-3.33706E-04-2.39001E-14
 -1      3120 4.51528E-03-3.06438E-04-2.18647E-14
 -1      3121 4.87628E-03-3.28776E-04-2.52771E-14
 -1      3122 5.01740E-03-3.23844E-04-2.66878E-14
 -1      3123 4.79658E-03-2.97485E-04-2.45391E-14
 -1      3124 5.15808E-03-3.19088E-04-2.81328E-14
 -1      3125 5.29840E-03-3.14559E-04-2.96120E-14
 -1      3126 5.07583E-03-2.88575E-04-2.73547E-14
 -1      3127 5.43818E-03-3.10509E-04-3.11254E-14
 -1      3128 5.57753E-03-3.07022E-04-3.26735E-14
 -1      3129 5.35249E-03-2.80522E-04-3.03065E-14
 -1      3130 5.71626E-03-3.04436E-04-3.42533E-14
 -1      3131 5.85457E-03-3.02892E-04-3.58654E-14
 -1      3132 5.62594E-03-2.74467E-04-3.33935E-14
 -1      3133 5.99226E-03-3.02813E-04-3.75103E-14
 -1      3134 6.12973E-03-3.04440E-04-3.91883E-14
 -1      3135 5.89569E-03-2.71928E-04-3.66132E-14
 -1      3136 6.26681E-03-3.08241E-04-4.08970E-14
 -1      3137 6.40427E-03-3.14708E-04-4.26367E-14
 -1      3138 6.16160E-03-2.74827E-04-3.99614E-14
 -1      3139 6.54208E-03-3.24264E-04-4.44063E-14
 -1      3140 6.68160E-03-3.37943E-04-4.62064E-14
 -1      3141 6.42454E-03-2.85568E-04-4.34342E-14
 -1      3142 6.82310E-03-3.56070E-04-4.80368E-14
 -1      3143 6.96893E-03-3.80887E-04-4.98942E-14
 -1      3144 6.68751E-03-3.07377E-04-4.70260E-14
 -1      3145 7.13630E-03-4.19073E-04-5.18928E-14
 -1      3146 7.29768E-03-4.64274E-04-5.38099E-14
 -1      3147 7.30736E-03-4.40675E-04-5.48996E-14
 -1      3148 6.97296E-03-3.51425E-04-5.08453E-14
 -1      3149 1.15869E-03-2.75842E-04-1.77531E-15
 -1      3150 1.30158E-03-2.95298E-04-2.17857E-15
 -1      3151 1.10250E-02-7.35105E-04-9.15529E-14
 -1      3152 1.11860E-02-7.22851E-04-9.40494E-14
 -1      3153 1.13381E-02-7.22645E-04-9.65609E-14
 -1      3154 1.14853E-02-7.29373E-04-9.90898E-14
 -1      3155 1.13111E-02-6.79089E-04-9.51681E-14
 -1      3156 1.16281E-02-7.43013E-04-1.01634E-13
 -1      3157 1.17686E-02-7.61089E-04-1.04192E-13
 -1      3158 1.15880E-02-7.01820E-04-1.00222E-13
 -1      3159 1.19073E-02-7.83369E-04-1.06766E-13
 -1      3160 1.20456E-02-8.08753E-04-1.09352E-13
 -1      3161 1.18558E-02-7.42790E-04-1.05340E-13
 -1      3162 1.21835E-02-8.36810E-04-1.11955E-13
 -1      3163 1.23216E-02-8.67030E-04-1.14574E-13
 -1      3164 1.21223E-02-7.95486E-04-1.10512E-13
 -1      3165 1.24599E-02-8.98951E-04-1.17208E-13
 -1      3166 1.25988E-02-9.32289E-04-1.19860E-13
 -1      3167 1.23909E-02-8.56290E-04-1.15747E-13
 -1      3168 1.27380E-02-9.66637E-04-1.22528E-13
 -1      3169 1.28777E-02-1.00182E-03-1.25211E-13
 -1      3170 1.26627E-02-9.22564E-04-1.21049E-13
 -1      3171 1.30179E-02-1.03752E-03-1.27908E-13
 -1      3172 1.31585E-02-1.07363E-03-1.30620E-13
 -1      3173 1.29377E-02-9.92224E-04-1.26413E-13
 -1      3174 1.32995E-02-1.10990E-03-1.33348E-13
 -1      3175 1.34408E-02-1.14626E-03-1.36090E-13
 -1      3176 1.32154E-02-1.06366E-03-1.31836E-13
 -1      3177 1.35824E-02-1.18255E-03-1.38842E-13
 -1      3178 1.37242E-02-1.21872E-03-1.41606E-13
 -1      3179 1.34955E-02-1.13567E-03-1.37314E-13
 -1      3180 1.38662E-02-1.25465E-03-1.44380E-13
 -1      3181 1.40084E-02-1.29032E-03-1.47165E-13
 -1      3182 1.37772E-02-1.20740E-03-1.42839E-13
 -1      3183 1.41507E-02-1.32566E-03-1.49959E-13
 -1      3184 1.42931E-02-1.36064E-03-1.52759E-13
 -1      3185 1.40601E-02-1.27827E-03-1.48406E-13
 -1      3186 6.73139E-03-1.79848E-04-5.16436E-14
 -1      3187 6.80966E-03-1.56677E-04-5.17679E-14
 -1      3188 3.25575E-03 4.08215E-04-1.01367E-14
 -1      3189 3.11276E-03 4.09364E-04-9.26786E-15
 -1      3190 2.96976E-03 4.09874E-04-8.43763E-15
 -1      3191 2.82676E-03 4.09688E-04-7.64711E-15
 -1      3192 3.03665E-03 3.72810E-04-8.98405E-15
 -1      3193 3.82790E-03 3.98708E-04-1.39964E-14
 -1      3194 3.68482E-03 4.01717E-04-1.29741E-14
 -1      3195 4.11425E-03 3.91741E-04-1.61534E-14
 -1      3196 3.97104E-03 3.95372E-04-1.50565E-14
 -1      3197 3.89526E-03 3.60552E-04-1.46859E-14
 -1      3198 4.40093E-03 3.83823E-04-1.84591E-14
 -1      3199 4.25753E-03 3.87878E-04-1.72875E-14
 -1      3200 4.18114E-03 3.53471E-04-1.68877E-14
 -1      3201 4.68814E-03 3.75418E-04-2.09117E-14
 -1      3202 4.54445E-03 3.79652E-04-1.96675E-14
 -1      3203 4.46701E-03 3.45496E-04-1.92391E-14
 -1      3204 4.97619E-03 3.67142E-04-2.35094E-14
 -1      3205 4.83203E-03 3.71221E-04-2.21921E-14
 -1      3206 4.75306E-03 3.37058E-04-2.17357E-14
 -1      3207 5.26553E-03 3.59855E-04-2.62513E-14
 -1      3208 5.12066E-03 3.63311E-04-2.48627E-14
 -1      3209 5.03961E-03 3.28736E-04-2.43777E-14
 -1      3210 5.55682E-03 3.54753E-04-2.91377E-14
 -1      3211 5.41087E-03 3.56938E-04-2.76759E-14
 -1      3212 5.32719E-03 3.21348E-04-2.71635E-14
 -1      3213 5.85104E-03 3.53468E-04-3.21676E-14
 -1      3214 5.70349E-03 3.53502E-04-3.06353E-14
 -1      3215 5.61660E-03 3.16048E-04-3.00930E-14
 -1      3216 6.14952E-03 3.58136E-04-3.53373E-14
 -1      3217 5.99967E-03 3.54880E-04-3.37354E-14
 -1      3218 5.90907E-03 3.14429E-04-3.31641E-14
 -1      3219 6.45390E-03 3.71436E-04-3.86413E-14
 -1      3220 6.30090E-03 3.63478E-04-3.69728E-14
 -1      3221 6.20630E-03 3.18645E-04-3.63736E-14
 -1      3222 6.76592E-03 3.96475E-04-4.20787E-14
 -1      3223 6.60893E-03 3.82228E-04-4.03436E-14
 -1      3224 6.51045E-03 3.31530E-04-3.97158E-14
 -1      3225 7.08678E-03 4.36324E-04-4.56413E-14
 -1      3226 6.92533E-03 4.14307E-04-4.38446E-14
 -1      3227 6.82388E-03 3.56598E-04-4.31866E-14
 -1      3228 7.41615E-03 4.92892E-04-4.93355E-14
 -1      3229 7.25070E-03 4.62461E-04-4.74718E-14
 -1      3230 7.14838E-03 3.97702E-04-4.67847E-14
 -1      3231 7.75068E-03 5.64288E-04-5.31589E-14
 -1      3232 7.58332E-03 5.27188E-04-5.12306E-14
 -1      3233 7.48374E-03 4.57850E-04-5.05110E-14
 -1      3234 8.08359E-03 6.41016E-04-5.71133E-14
 -1      3235 7.91792E-03 6.03179E-04-5.51204E-14
 -1      3236 7.82562E-03 5.35432E-04-5.43677E-14
 -1      3237 8.40798E-03 7.03563E-04-6.12057E-14
 -1      3238 8.24714E-03 6.75826E-04-5.91418E-14
 -1      3239 8.16544E-03 6.19105E-04-5.83566E-14
 -1      3240 8.72131E-03 7.26288E-04-6.54332E-14
 -1      3241 8.56549E-03 7.21661E-04-6.33029E-14
 -1      3242 8.49440E-03 6.84121E-04-6.24819E-14
 -1      3243 9.02961E-03 6.90704E-04-6.97998E-14
 -1      3244 8.87480E-03 7.16283E-04-6.75984E-14
 -1      3245 8.81104E-03 6.99194E-04-6.67470E-14
 -1      3246 9.34390E-03 5.97710E-04-7.42990E-14
 -1      3247 9.18517E-03 6.50201E-04-7.20338E-14
 -1      3248 9.12526E-03 6.45305E-04-7.11495E-14
 -1      3249 9.66920E-03 4.68075E-04-7.89289E-14
 -1      3250 9.50510E-03 5.35613E-04-7.65979E-14
 -1      3251 9.44905E-03 5.31673E-04-7.56866E-14
 -1      3252 1.00027E-02 3.26890E-04-8.36779E-14
 -1      3253 9.83549E-03 3.97268E-04-8.12886E-14
 -1      3254 9.78551E-03 3.87190E-04-8.03520E-14
 -1      3255 1.03369E-02 1.92945E-04-8.85362E-14
 -1      3256 1.01704E-02 2.58279E-04-8.60924E-14
 -1      3257 1.01279E-02 2.41242E-04-8.51335E-14
 -1      3258 1.06654E-02 7.43189E-05-9.34960E-14
 -1      3259 1.05023E-02 1.31556E-04-9.10038E-14
 -1      3260 1.04665E-02 1.09998E-04-9.00222E-14
 -1      3261 1.09852E-02-2.76949E-05-9.85517E-14
 -1      3262 1.08266E-02 2.13983E-05-9.60124E-14
 -1      3263 1.07953E-02-2.16265E-06-9.50107E-14
 -1      3264 1.12962E-02-1.15279E-04-1.03690E-13
 -1      3265 1.11418E-02-7.30354E-05-1.01110E-13
 -1      3266 1.11128E-02-9.69479E-05-1.00086E-13
 -1      3267 1.15998E-02-1.91639E-04-1.08910E-13
 -1      3268 1.14489E-02-1.54622E-04-1.06291E-13
 -1      3269 1.14201E-02-1.78173E-04-1.05246E-13
 -1      3270 1.18977E-02-2.59872E-04-1.14205E-13
 -1      3271 1.17494E-02-2.26574E-04-1.11548E-13
 -1      3272 1.17197E-02-2.49608E-04-1.10484E-13
 -1      3273 1.21916E-02-3.22621E-04-1.19568E-13
 -1      3274 1.20451E-02-2.91779E-04-1.16878E-13
 -1      3275 1.20137E-02-3.14366E-04-1.15793E-13
 -1      3276 1.24826E-02-3.81995E-04-1.24992E-13
 -1      3277 1.23374E-02-3.52617E-04-1.22272E-13
 -1      3278 1.23041E-02-3.74873E-04-1.21168E-13
 -1      3279 1.27718E-02-4.39602E-04-1.30473E-13
 -1      3280 1.26274E-02-4.10938E-04-1.27728E-13
 -1      3281 1.25922E-02-4.32957E-04-1.26602E-13
 -1      3282 1.30597E-02-4.96631E-04-1.36001E-13
 -1      3283 1.29158E-02-4.68132E-04-1.33230E-13
 -1      3284 1.28790E-02-4.89961E-04-1.32091E-13
 -1      3285 1.33468E-02-5.53931E-04-1.41568E-13
 -1      3286 1.32033E-02-5.25207E-04-1.38779E-13
 -1      3287 1.31651E-02-5.46847E-04-1.37622E-13
 -1      3288 1.36334E-02-6.12110E-04-1.47169E-13
 -1      3289 1.34902E-02-5.82884E-04-1.44364E-13
 -1      3290 1.34508E-02-6.04294E-04-1.43193E-13
 -1      3291 1.38424E-02-6.64344E-04-1.51168E-13
 -1      3292 1.37244E-02-6.33400E-04-1.48926E-13
 -1      3293 1.36843E-02-6.54549E-04-1.47744E-13
 -1      3294 1.38658E-02-6.97284E-04-1.51256E-13
 -1      3295 1.01712E-03 6.79045E-05-1.41755E-15
 -1      3296 1.01596E-03 4.10439E-05-1.44005E-15
 -1      3297 1.43067E-02-1.27593E-03-1.53892E-13
 -1      3298 1.42791E-02-1.23707E-03-1.53674E-13
 -1      3299 1.41329E-02-1.04749E-03-1.52549E-13
 -1      3300 1.41012E-02-1.00947E-03-1.52316E-13
 -1      3301 1.04597E-02-1.30103E-04-8.47687E-14
 -1      3302 1.05784E-02-1.97878E-04-8.51933E-14
 -1      3303 1.07081E-02-2.47963E-04-8.66868E-14
 -1      3304 1.42509E-02-1.19854E-03-1.53451E-13
 -1      3305 1.42222E-02-1.16025E-03-1.53224E-13
 -1      3306 1.41435E-02-1.18873E-03-1.51136E-13
 -1      3307 3.54177E-03 4.04333E-04-1.19899E-14
 -1      3308 3.39875E-03 4.06524E-04-1.10439E-14
 -1      3309 3.32307E-03 3.70610E-04-1.07313E-14
 -1      3310 3.60926E-03 3.66383E-04-1.26324E-14
 -1      3311 1.14812E-02-5.10179E-04-9.26590E-14
 -1      3312 1.14716E-02-5.20170E-04-9.27100E-14
 -1      3313 8.49115E-03 5.88363E-04-6.30440E-14
 -1      3314 8.64179E-03 6.30176E-04-6.48157E-14
 -1      3315 2.11126E-03 3.94009E-04-4.28923E-15
 -1      3316 1.96800E-03 3.86874E-04-3.73741E-15
 -1      3317 1.14502E-03 3.09479E-04-1.30878E-15
 -1      3318 1.08249E-03 2.70704E-04-1.24590E-15
 -1      3319 1.20164E-03 2.71893E-04-1.54924E-15
 -1      3320 1.28819E-03 3.31111E-04-1.63403E-15
 -1      3321 1.44481E-03-3.11933E-04-2.62328E-15
 -1      3322 1.58834E-03-3.25949E-04-3.11001E-15
 -1      3323 1.65273E-03-2.97758E-04-3.38465E-15
 -1      3324 1.00731E-02 7.27116E-05-8.10235E-14
 -1      3325 9.99817E-04-2.32333E-04-1.39442E-15
 -1      3326 1.07898E-03-2.54143E-04-1.57918E-15
 -1      3327 9.86706E-04-1.95317E-04-1.39355E-15
 -1      3328 7.13720E-03-3.68566E-04-5.39038E-14
 -1      3329 6.99978E-03-3.15056E-04-5.32413E-14
 -1      3330 6.87491E-03-2.74829E-04-5.25791E-14
 -1      3331 7.00211E-03-3.34771E-04-5.22029E-14
 -1      3332 7.71106E-03 2.09810E-04-5.63059E-14
 -1      3333 7.86557E-03 2.92491E-04-5.73452E-14
 -1      3334 6.65550E-03-2.03332E-04-5.14024E-14
 -1      3335 6.67925E-03-1.95293E-04-5.15214E-14
 -1      3336 1.11291E-02-6.32504E-04-9.06770E-14
 -1      3337 1.10294E-02-6.69977E-04-9.00040E-14
 -1      3338 1.07796E-02-7.39210E-04-8.70535E-14
 -1      3339 1.06206E-02-7.96673E-04-8.54032E-14
 -1      3340 9.11868E-03 6.01677E-04-7.09222E-14
 -1      3341 9.26873E-03 5.43187E-04-7.28597E-14
 -1      3342 1.05815E-02-8.56441E-04-8.61361E-14
 -1      3343 1.41931E-02-1.12248E-03-1.53002E-13
 -1      3344 1.41635E-02-1.08512E-03-1.52777E-13
 -1      3345 1.40272E-02-1.03848E-03-1.50239E-13
 -1      3346 1.40868E-02-1.11314E-03-1.50690E-13
 -1      3347 9.96533E-03 1.51624E-04-8.06248E-14
 -1      3348 1.01997E-02 1.72200E-05-8.28841E-14
 -1      3349 1.01537E-03 1.43956E-05-1.45911E-15
 -1      3350 1.01534E-03-1.21492E-05-1.47553E-15
 -1      3351 1.13607E-03 3.00118E-05-1.75639E-15
 -1      3352 1.15347E-03 2.10884E-04-1.55239E-15
 -1      3353 1.02870E-03 1.80459E-04-1.29410E-15
 -1      3354 1.02458E-03 1.51221E-04-1.33097E-15
 -1      3355 9.03716E-03 6.29166E-04-6.98816E-14
 -1      3356 1.43145E-03 3.49517E-04-1.99751E-15
 -1      3357 1.38761E-03 3.19346E-04-1.95268E-15
 -1      3358 1.57482E-03 3.64991E-04-2.39999E-15
 -1      3359 1.14359E-03-2.35028E-04-1.77756E-15
 -1      3360 1.02134E-03 1.22776E-04-1.36355E-15
 -1      3361 1.01890E-03 9.51097E-05-1.39233E-15
 -1      3362 1.13870E-03 8.81610E-05-1.70457E-15
 -1      3363 1.14424E-03 1.48032E-04-1.63744E-15
 -1      3364 2.25445E-03 3.99597E-04-4.88108E-15
 -1      3365 2.17586E-03 3.60679E-04-4.68379E-15
 -1      3366 2.39759E-03 4.03770E-04-5.51347E-15
 -1      3367 1.03357E-02-4.97655E-05-8.43635E-14
 -1      3368 1.04695E-02-1.09274E-04-8.58528E-14
 -1      3369 1.02301E-02 2.96711E-05-8.39548E-14
 -1      3370 6.77284E-03-2.50948E-04-5.13779E-14
 -1      3371 1.08702E-02-7.39257E-04-8.89033E-14
 -1      3372 1.15166E-02-5.15001E-04-9.41883E-14
 -1      3373 1.13265E-02-4.60193E-04-9.24332E-14
 -1      3374 1.13675E-02-4.73564E-04-9.22713E-14
 -1      3375 1.14550E-02-4.91894E-04-9.41343E-14
 -1      3376 9.78394E-04-1.38086E-04-1.40189E-15
 -1      3377 9.82044E-04-1.66200E-04-1.39971E-15
 -1      3378 1.05950E-03-1.84260E-04-1.58738E-15
 -1      3379 6.76493E-03-1.34318E-04-5.04132E-14
 -1      3380 6.86068E-03-1.29693E-04-5.15434E-14
 -1      3381 6.91467E-03-9.72297E-05-5.13153E-14
 -1      3382 6.66535E-03-1.76136E-04-5.05180E-14
 -1      3383 1.15215E-02-5.41517E-04-9.46378E-14
 -1      3384 1.14519E-02-5.35067E-04-9.29438E-14
 -1      3385 1.14175E-02-5.54621E-04-9.31751E-14
 -1      3386 1.10390E-02-3.82409E-04-8.88417E-14
 -1      3387 1.11548E-02-4.10405E-04-9.07302E-14
 -1      3388 1.09646E-02-3.48265E-04-8.89887E-14
 -1      3389 7.95898E-03 3.66487E-04-5.77421E-14
 -1      3390 2.74998E-03 3.72429E-04-7.39285E-15
 -1      3391 2.68374E-03 4.08676E-04-6.89633E-15
 -1      3392 2.54069E-03 4.06763E-04-6.18525E-15
 -1      3393 1.43227E-02-1.31929E-03-1.53817E-13
 -1      3394 1.41867E-02-1.26990E-03-1.51283E-13
 -1      3395 1.40017E-02-8.94538E-04-1.51601E-13
 -1      3396 1.39673E-02-8.55721E-04-1.51360E-13
 -1      3397 7.20723E-03-1.78808E-05-5.34203E-14
 -1      3398 1.44142E-02-1.36631E-03-1.55379E-13
 -1      3399 1.39640E-02-9.63425E-04-1.49775E-13
 -1      3400 1.40687E-02-9.71361E-04-1.52079E-13
 -1      3401 1.40355E-02-9.33058E-04-1.51842E-13
 -1      3402 1.84304E-03 3.83199E-04-3.27395E-15
 -1      3403 1.69971E-03 3.72407E-04-2.79623E-15
 -1      3404 1.65618E-03 3.42440E-04-2.74218E-15
 -1      3405 1.90678E-03 3.52113E-04-3.61947E-15
 -1      3406 9.75563E-04-1.10803E-04-1.40022E-15
 -1      3407 1.05195E-03-1.25485E-04-1.58993E-15
 -1      3408 9.73459E-04-8.41748E-05-1.39564E-15
 -1      3409 1.38281E-02-8.10501E-04-1.48812E-13
 -1      3410 1.39327E-02-8.16928E-04-1.51118E-13
 -1      3411 1.38978E-02-7.77774E-04-1.50874E-13
 -1      3412 8.37126E-03 5.57905E-04-6.16253E-14
 -1      3413 8.72179E-03 6.50648E-04-6.57376E-14
 -1      3414 1.12433E-02-6.12357E-04-9.20787E-14
 -1      3415 9.83675E-03 2.37450E-04-7.95633E-14
 -1      3416 9.97246E-03 1.79583E-04-8.14052E-14
 -1      3417 9.72232E-03 3.18111E-04-7.85064E-14
 -1      3418 6.63703E-03-2.05578E-04-5.07983E-14
 -1      3419 6.59739E-03-1.91816E-04-4.97966E-14
 -1      3420 6.62844E-03-2.08612E-04-5.01942E-14
 -1      3421 7.57270E-03 1.63364E-04-5.50725E-14
 -1      3422 1.36577E-03-2.71593E-04-2.41140E-15
 -1      3423 1.57443E-03-2.58717E-04-3.13624E-15
 -1      3424 1.71823E-03-2.68702E-04-3.66370E-15
 -1      3425 4.53237E-03 3.07556E-04-2.00248E-14
 -1      3426 4.38998E-03 3.11624E-04-1.88082E-14
 -1      3427 2.15065E-03-2.89037E-04-5.48892E-15
 -1      3428 2.29490E-03-2.93128E-04-6.17753E-15
 -1      3429 2.43909E-03-2.96153E-04-6.90625E-15
 -1      3430 2.58321E-03-2.98200E-04-7.67524E-15
 -1      3431 2.36209E-03-2.58475E-04-6.53415E-15
 -1      3432 2.72722E-03-2.99422E-04-8.48293E-15
 -1      3433 2.87110E-03-2.99884E-04-9.33005E-15
 -1      3434 2.65076E-03-2.62262E-04-8.06588E-15
 -1      3435 3.01482E-03-2.99707E-04-1.02167E-14
 -1      3436 3.15836E-03-2.98933E-04-1.11421E-14
 -1      3437 2.93888E-03-2.63165E-04-9.75538E-15
 -1      3438 3.30171E-03-2.97657E-04-1.21060E-14
 -1      3439 3.44484E-03-2.95906E-04-1.31081E-14
 -1      3440 3.22619E-03-2.61822E-04-1.15994E-14
 -1      3441 3.58772E-03-2.93756E-04-1.41486E-14
 -1      3442 3.73034E-03-2.91221E-04-1.52268E-14
 -1      3443 3.51245E-03-2.58712E-04-1.35973E-14
 -1      3444 3.87267E-03-2.88370E-04-1.63425E-14
 -1      3445 4.01467E-03-2.85208E-04-1.74953E-14
 -1      3446 3.79742E-03-2.54204E-04-1.57462E-14
 -1      3447 4.15631E-03-2.81806E-04-1.86859E-14
 -1      3448 4.29755E-03-2.78165E-04-1.99131E-14
 -1      3449 4.08082E-03-2.48605E-04-1.80455E-14
 -1      3450 4.43832E-03-2.74372E-04-2.11750E-14
 -1      3451 4.57860E-03-2.70425E-04-2.24725E-14
 -1      3452 4.36228E-03-2.42215E-04-2.04910E-14
 -1      3453 4.71827E-03-2.66440E-04-2.38068E-14
 -1      3454 4.85732E-03-2.62417E-04-2.51764E-14
 -1      3455 4.64132E-03-2.35384E-04-2.30796E-14
 -1      3456 4.99561E-03-2.58516E-04-2.65802E-14
 -1      3457 5.13311E-03-2.54740E-04-2.80181E-14
 -1      3458 4.91732E-03-2.28571E-04-2.58101E-14
 -1      3459 5.26964E-03-2.51306E-04-2.94917E-14
 -1      3460 5.40520E-03-2.48218E-04-3.09990E-14
 -1      3461 5.18951E-03-2.22398E-04-2.86806E-14
 -1      3462 5.53955E-03-2.45763E-04-3.25392E-14
 -1      3463 5.67273E-03-2.43939E-04-3.41130E-14
 -1      3464 5.45690E-03-2.17692E-04-3.16887E-14
 -1      3465 5.80444E-03-2.43109E-04-3.57193E-14
 -1      3466 5.93483E-03-2.43256E-04-3.73591E-14
 -1      3467 5.71835E-03-2.15473E-04-3.48302E-14
 -1      3468 6.06351E-03-2.44811E-04-3.90300E-14
 -1      3469 6.19084E-03-2.47731E-04-4.07327E-14
 -1      3470 5.97253E-03-2.16906E-04-3.81030E-14
 -1      3471 6.31632E-03-2.52444E-04-4.24658E-14
 -1      3472 6.44080E-03-2.59043E-04-4.42286E-14
 -1      3473 6.21802E-03-2.23103E-04-4.15012E-14
 -1      3474 6.56347E-03-2.68189E-04-4.60222E-14
 -1      3475 6.68622E-03-2.79614E-04-4.78441E-14
 -1      3476 6.45342E-03-2.35197E-04-4.50218E-14
 -1      3477 6.85778E-03-3.06642E-04-5.02053E-14
 -1      3478 1.15607E-02-6.57361E-04-9.87899E-14
 -1      3479 1.16864E-02-6.77062E-04-1.01331E-13
 -1      3480 1.18114E-02-6.99688E-04-1.03887E-13
 -1      3481 1.19379E-02-7.24755E-04-1.06459E-13
 -1      3482 1.17709E-02-6.58910E-04-1.02436E-13
 -1      3483 1.20651E-02-7.51853E-04-1.09044E-13
 -1      3484 1.21939E-02-7.80815E-04-1.11645E-13
 -1      3485 1.20104E-02-7.10639E-04-1.07576E-13
 -1      3486 1.23239E-02-8.11214E-04-1.14263E-13
 -1      3487 1.24554E-02-8.43004E-04-1.16898E-13
 -1      3488 1.22586E-02-7.68416E-04-1.12778E-13
 -1      3489 1.25880E-02-8.75777E-04-1.19547E-13
 -1      3490 1.27220E-02-9.09502E-04-1.22212E-13
 -1      3491 1.25148E-02-8.31027E-04-1.18046E-13
 -1      3492 1.28571E-02-9.43829E-04-1.24894E-13
 -1      3493 1.29932E-02-9.78728E-04-1.27589E-13
 -1      3494 1.27777E-02-8.97187E-04-1.23375E-13
 -1      3495 1.31303E-02-1.01392E-03-1.30298E-13
 -1      3496 1.32682E-02-1.04938E-03-1.33024E-13
 -1      3497 1.30461E-02-9.65651E-04-1.28765E-13
 -1      3498 1.34068E-02-1.08491E-03-1.35762E-13
 -1      3499 1.35460E-02-1.12048E-03-1.38511E-13
 -1      3500 1.33189E-02-1.03534E-03-1.34209E-13
 -1      3501 1.36858E-02-1.15594E-03-1.41275E-13
 -1      3502 1.38261E-02-1.19127E-03-1.44046E-13
 -1      3503 1.35952E-02-1.10540E-03-1.39708E-13
 -1      3504 1.39359E-02-1.21341E-03-1.46262E-13
 -1      3505 1.40768E-02-1.24827E-03-1.49052E-13
 -1      3506 1.40617E-02-1.20577E-03-1.49128E-13
 -1      3507 1.38433E-02-1.16239E-03-1.44686E-13
 -1      3508 1.38972E-02-8.87380E-04-1.49297E-13
 -1      3509 4.24753E-03 3.15510E-04-1.76287E-14
 -1      3510 4.10498E-03 3.19192E-04-1.64864E-14
 -1      3511 4.31344E-03 2.77927E-04-1.83758E-14
 -1      3512 3.96233E-03 3.22608E-04-1.53809E-14
 -1      3513 3.81956E-03 3.25743E-04-1.43126E-14
 -1      3514 4.02913E-03 2.84953E-04-1.60818E-14
 -1      3515 4.81702E-03 2.99129E-04-2.25659E-14
 -1      3516 4.67469E-03 3.03378E-04-2.12770E-14
 -1      3517 4.59702E-03 2.70059E-04-2.08159E-14
 -1      3518 5.10182E-03 2.90753E-04-2.52513E-14
 -1      3519 4.95936E-03 2.94897E-04-2.38905E-14
 -1      3520 4.88003E-03 2.61671E-04-2.34008E-14
 -1      3521 5.38737E-03 2.83178E-04-2.80803E-14
 -1      3522 5.24444E-03 2.86805E-04-2.66478E-14
 -1      3523 5.16283E-03 2.53207E-04-2.61304E-14
 -1      3524 5.67462E-03 2.77482E-04-3.10532E-14
 -1      3525 5.53070E-03 2.80002E-04-2.95486E-14
 -1      3526 5.44608E-03 2.45323E-04-2.90030E-14
 -1      3527 5.96504E-03 2.75193E-04-3.41655E-14
 -1      3528 5.81932E-03 2.75769E-04-3.25920E-14
 -1      3529 5.73085E-03 2.38986E-04-3.20167E-14
 -1      3530 6.26070E-03 2.78468E-04-3.74124E-14
 -1      3531 6.11206E-03 2.75921E-04-3.57728E-14
 -1      3532 6.01885E-03 2.35625E-04-3.51704E-14
 -1      3533 6.56436E-03 2.90321E-04-4.07920E-14
 -1      3534 6.41137E-03 2.83008E-04-3.90866E-14
 -1      3535 6.31258E-03 2.37392E-04-3.84570E-14
 -1      3536 6.87914E-03 3.14835E-04-4.42970E-14
 -1      3537 6.72027E-03 3.00596E-04-4.25282E-14
 -1      3538 6.61546E-03 2.47556E-04-4.18705E-14
 -1      3539 7.20753E-03 3.56857E-04-4.79273E-14
 -1      3540 7.04168E-03 3.33175E-04-4.60960E-14
 -1      3541 6.93143E-03 2.70980E-04-4.54088E-14
 -1      3542 7.54991E-03 4.20966E-04-5.16873E-14
 -1      3543 7.37756E-03 3.85995E-04-4.97916E-14
 -1      3544 7.26407E-03 3.13854E-04-4.90740E-14
 -1      3545 7.90121E-03 5.06501E-04-5.55782E-14
 -1      3546 7.72559E-03 4.61761E-04-5.36165E-14
 -1      3547 7.61435E-03 3.83516E-04-5.28667E-14
 -1      3548 8.60476E-03 6.65459E-04-6.40593E-14
 -1      3549 8.43893E-03 6.37837E-04-6.19568E-14
 -1      3550 8.93307E-03 6.64477E-04-6.84708E-14
 -1      3551 8.77206E-03 6.75380E-04-6.62978E-14
 -1      3552 9.23204E-03 5.89698E-04-7.25972E-14
 -1      3553 9.06878E-03 6.38934E-04-7.03583E-14
 -1      3554 9.59456E-03 4.19339E-04-7.73568E-14
 -1      3555 9.41896E-03 4.99394E-04-7.50490E-14
 -1      3556 1.02602E-02 1.51794E-04-8.65965E-14
 -1      3557 1.00860E-02 2.22947E-04-8.41752E-14
 -1      3558 1.06012E-02 2.64321E-05-9.15115E-14
 -1      3559 1.04328E-02 8.62378E-05-8.90398E-14
 -1      3560 1.04012E-02 6.06589E-05-8.80614E-14
 -1      3561 1.09281E-02-7.73489E-05-9.65248E-14
 -1      3562 1.07667E-02-2.78075E-05-9.40082E-14
 -1      3563 1.07410E-02-5.57276E-05-9.30048E-14
 -1      3564 1.12414E-02-1.64097E-04-1.01624E-13
 -1      3565 1.10864E-02-1.22391E-04-9.90654E-14
 -1      3566 1.10629E-02-1.49656E-04-9.80421E-14
 -1      3567 1.15439E-02-2.38875E-04-1.06803E-13
 -1      3568 1.13938E-02-2.02630E-04-1.04203E-13
 -1      3569 1.13701E-02-2.28230E-04-1.03163E-13
 -1      3570 1.18388E-02-3.05638E-04-1.12057E-13
 -1      3571 1.16921E-02-2.73013E-04-1.09420E-13
 -1      3572 1.16669E-02-2.96951E-04-1.08359E-13
 -1      3573 1.21287E-02-3.67282E-04-1.17380E-13
 -1      3574 1.19842E-02-3.36929E-04-1.14711E-13
 -1      3575 1.19567E-02-3.59565E-04-1.13628E-13
 -1      3576 1.24156E-02-4.25911E-04-1.22767E-13
 -1      3577 1.22724E-02-3.96859E-04-1.20067E-13
 -1      3578 1.22423E-02-4.18619E-04-1.18967E-13
 -1      3579 1.27009E-02-4.83022E-04-1.28212E-13
 -1      3580 1.25584E-02-4.54580E-04-1.25481E-13
 -1      3581 1.25259E-02-4.75813E-04-1.24365E-13
 -1      3582 1.29855E-02-5.39676E-04-1.33706E-13
 -1      3583 1.28433E-02-5.11356E-04-1.30953E-13
 -1      3584 1.28086E-02-5.32298E-04-1.29817E-13
 -1      3585 1.32699E-02-5.96614E-04-1.39241E-13
 -1      3586 1.31277E-02-5.68079E-04-1.36468E-13
 -1      3587 1.30911E-02-5.88862E-04-1.35317E-13
 -1      3588 1.35543E-02-6.54345E-04-1.44816E-13
 -1      3589 1.34120E-02-6.25355E-04-1.42026E-13
 -1      3590 1.33740E-02-6.46018E-04-1.40859E-13
 -1      3591 7.08358E-03-2.92417E-05-5.19108E-14
 -1      3592 7.25772E-03 3.76818E-05-5.28712E-14
 -1      3593 1.07465E-02-2.44039E-04-8.81333E-14
 -1      3594 1.08551E-02-2.99460E-04-8.85627E-14
 -1      3595 1.09915E-02-3.39357E-04-9.04505E-14
 -1      3596 1.17192E-03-2.17733E-04-1.87232E-15
 -1      3597 1.25098E-03-2.36666E-04-2.08816E-15
 -1      3598 1.39376E-03-2.51595E-04-2.52222E-15
 -1      3599 1.16663E-03-1.85489E-04-1.87876E-15
 -1      3600 6.75990E-03-2.59094E-04-5.02903E-14
 -1      3601 6.67383E-03-2.27956E-04-5.01170E-14
 -1      3602 1.40346E-02-1.16766E-03-1.48911E-13
 -1      3603 1.40069E-02-1.12988E-03-1.48688E-13
 -1      3604 1.39259E-02-1.14637E-03-1.46687E-13
 -1      3605 6.59861E-03-1.70579E-04-4.92935E-14
 -1      3606 6.64426E-03-1.54856E-04-4.94117E-14
 -1      3607 1.07732E-02-8.02446E-04-8.85887E-14
 -1      3608 9.93431E-04-3.54152E-05-1.43266E-15
 -1      3609 9.94432E-04-6.16754E-05-1.44307E-15
 -1      3610 1.07026E-03-7.33660E-05-1.63652E-15
 -1      3611 1.11339E-03-2.42449E-05-1.73262E-15
 -1      3612 3.10389E-03 3.35618E-04-9.53807E-15
 -1      3613 2.96039E-03 3.36108E-04-8.69766E-15
 -1      3614 1.34455E-03 2.89916E-04-1.90408E-15
 -1      3615 1.30227E-03 2.61217E-04-1.85203E-15
 -1      3616 1.48789E-03 3.05310E-04-2.29764E-15
 -1      3617 7.83449E-03 3.47248E-04-5.61770E-14
 -1      3618 8.04997E-03 4.40765E-04-5.81780E-14
 -1      3619 9.37384E-03 4.99337E-04-7.42228E-14
 -1      3620 1.86225E-03-2.76983E-04-4.23174E-15
 -1      3621 2.00642E-03-2.83692E-04-4.84030E-15
 -1      3622 2.07322E-03-2.50984E-04-5.16048E-15
 -1      3623 7.42485E-03 1.28075E-04-5.35363E-14
 -1      3624 7.58112E-03 2.26644E-04-5.42013E-14
 -1      3625 7.28296E-03 1.04567E-04-5.20195E-14
 -1      3626 8.27230E-03 5.70976E-04-6.00988E-14
 -1      3627 1.15587E-02-5.21238E-04-9.59343E-14
 -1      3628 1.15829E-02-5.35389E-04-9.61504E-14
 -1      3629 1.38935E-02-7.53966E-04-1.51109E-13
 -1      3630 1.38700E-02-7.21536E-04-1.51022E-13
 -1      3631 1.37795E-02-7.00131E-04-1.49267E-13
 -1      3632 1.37885E-02-7.48059E-04-1.48801E-13
 -1      3633 6.72174E-03-2.63175E-04-4.91661E-14
 -1      3634 8.09431E-03 5.19384E-04-5.80658E-14
 -1      3635 1.29559E-03 2.26462E-04-1.91009E-15
 -1      3636 3.74402E-03 2.90880E-04-1.39369E-14
 -1      3637 3.67667E-03 3.28538E-04-1.32813E-14
 -1      3638 3.53366E-03 3.30977E-04-1.22880E-14
 -1      3639 2.88410E-03 2.99276E-04-8.40952E-15
 -1      3640 2.81678E-03 3.35933E-04-7.89683E-15
 -1      3641 2.67307E-03 3.35041E-04-7.13585E-15
 -1      3642 1.01008E-02 1.12263E-04-8.28741E-14
 -1      3643 1.02304E-02 4.81848E-05-8.43534E-14
 -1      3644 9.98124E-03 1.93148E-04-8.17973E-14
 -1      3645 1.14773E-02-6.16356E-04-9.62855E-14
 -1      3646 1.15723E-02-5.95182E-04-9.73739E-14
 -1      3647 1.12753E-02-4.40566E-04-9.25862E-14
 -1      3648 1.13844E-02-4.64648E-04-9.44527E-14
 -1      3649 1.12207E-02-4.16425E-04-9.27369E-14
 -1      3650 1.37239E-02-8.03876E-04-1.46512E-13
 -1      3651 1.36886E-02-7.65431E-04-1.46268E-13
 -1      3652 6.67292E-03-1.35426E-04-4.91917E-14
 -1      3653 6.70760E-03-1.12108E-04-4.89697E-14
 -1      3654 6.58838E-03-1.33274E-04-4.79820E-14
 -1      3655 3.24727E-03 3.34569E-04-1.04162E-14
 -1      3656 3.17144E-03 2.98389E-04-1.00987E-14
 -1      3657 3.39053E-03 3.32995E-04-1.13329E-14
 -1      3658 1.15894E-02-5.48293E-04-9.63913E-14
 -1      3659 1.15838E-02-5.62331E-04-9.66285E-14
 -1      3660 1.16512E-02-5.55466E-04-9.81508E-14
 -1      3661 1.45965E-03-2.26187E-04-2.76194E-15
 -1      3662 1.17192E-03-1.19983E-04-1.91386E-15
 -1      3663 1.17513E-03-1.50661E-04-1.91726E-15
 -1      3664 1.78467E-03-2.38779E-04-3.94664E-15
 -1      3665 9.90983E-03 2.99047E-04-8.17817E-14
 -1      3666 9.73439E-03 3.77821E-04-7.94150E-14
 -1      3667 6.96091E-03-5.23855E-05-5.07800E-14
 -1      3668 7.00058E-03-3.04308E-06-5.02404E-14
 -1      3669 6.84748E-03-6.69821E-05-4.96590E-14
 -1      3670 1.36889E-02-6.78870E-04-1.47512E-13
 -1      3671 2.46304E-03 3.68720E-04-5.95925E-15
 -1      3672 1.38597E-02-9.55259E-04-1.47473E-13
 -1      3673 1.38269E-02-9.17781E-04-1.47236E-13
 -1      3674 1.94851E-03 3.17443E-04-3.89252E-15
 -1      3675 1.82281E-03 3.14483E-04-3.42094E-15
 -1      3676 1.28701E-03-1.80765E-04-2.23394E-15
 -1      3677 1.38709E-02-1.07211E-03-1.46246E-13
 -1      3678 1.39787E-02-1.09271E-03-1.48464E-13
 -1      3679 1.39496E-02-1.05568E-03-1.48241E-13
 -1      3680 6.55733E-03-1.75362E-04-4.87028E-14
 -1      3681 6.51983E-03-1.57084E-04-4.76150E-14
 -1      3682 6.52591E-03-1.79088E-04-4.81119E-14
 -1      3683 1.05172E-02-9.95712E-05-8.73091E-14
 -1      3684 1.06263E-02-1.73522E-04-8.77210E-14
 -1      3685 1.07770E-02-2.27312E-04-8.96064E-14
 -1      3686 1.15244E-02-5.03949E-04-9.62680E-14
 -1      3687 1.15449E-02-5.13128E-04-9.61022E-14
 -1      3688 1.16293E-02-5.34542E-04-9.80768E-14
 -1      3689 1.13590E-02-6.01267E-04-9.37761E-14
 -1      3690 6.60306E-03-2.11950E-04-4.91252E-14
 -1      3691 1.36496E-02-6.99448E-04-1.46335E-13
 -1      3692 1.37933E-02-8.80169E-04-1.47000E-13
 -1      3693 1.37589E-02-8.42153E-04-1.46757E-13
 -1      3694 1.36205E-02-7.97379E-04-1.44222E-13
 -1      3695 1.36898E-02-8.72662E-04-1.44705E-13
 -1      3696 1.26169E-03 1.09985E-04-2.01559E-15
 -1      3697 1.25950E-03 7.86160E-05-2.04971E-15
 -1      3698 1.39208E-02-1.02396E-03-1.47971E-13
 -1      3699 1.38900E-02-9.87014E-04-1.47742E-13
 -1      3700 1.37540E-02-9.41300E-04-1.45212E-13
 -1      3701 1.38135E-02-1.00408E-03-1.45753E-13
 -1      3702 1.38119E-03 6.66842E-05-2.42720E-15
 -1      3703 1.25805E-03 4.75267E-05-2.07970E-15
 -1      3704 1.25732E-03 1.66614E-05-2.10556E-15
 -1      3705 2.23646E-03 3.28998E-04-5.05801E-15
 -1      3706 2.09248E-03 3.23941E-04-4.45572E-15
 -1      3707 2.00937E-03 2.87361E-04-4.22688E-15
 -1      3708 1.00458E-02 2.05072E-04-8.32143E-14
 -1      3709 1.26862E-03 1.74348E-04-1.93403E-15
 -1      3710 1.26472E-03 1.41850E-04-1.97723E-15
 -1      3711 1.38594E-03 1.33052E-04-2.34985E-15
 -1      3712 6.54663E-03-2.11847E-04-4.76219E-14
 -1      3713 6.51645E-03-1.92227E-04-4.77001E-14
 -1      3714 2.57455E-03-2.25119E-04-7.65569E-15
 -1      3715 2.71894E-03-2.26113E-04-8.45828E-15
 -1      3716 2.86315E-03-2.26528E-04-9.29988E-15
 -1      3717 3.00714E-03-2.26400E-04-1.01804E-14
 -1      3718 2.78769E-03-1.89826E-04-8.85102E-15
 -1      3719 3.15088E-03-2.25825E-04-1.10990E-14
 -1      3720 3.29434E-03-2.24824E-04-1.20560E-14
 -1      3721 3.07585E-03-1.89666E-04-1.06048E-14
 -1      3722 3.43747E-03-2.23476E-04-1.30517E-14
 -1      3723 3.58024E-03-2.21791E-04-1.40850E-14
 -1      3724 3.36280E-03-1.88015E-04-1.25121E-14
 -1      3725 3.72260E-03-2.19842E-04-1.51564E-14
 -1      3726 3.86454E-03-2.17628E-04-1.62646E-14
 -1      3727 3.64821E-03-1.85217E-04-1.45718E-14
 -1      3728 4.00597E-03-2.15224E-04-1.74102E-14
 -1      3729 4.14688E-03-2.12624E-04-1.85934E-14
 -1      3730 3.93172E-03-1.81560E-04-1.67814E-14
 -1      3731 4.28717E-03-2.09914E-04-1.98123E-14
 -1      3732 4.42681E-03-2.07084E-04-2.10666E-14
 -1      3733 4.21291E-03-1.77324E-04-1.91389E-14
 -1      3734 4.56569E-03-2.04244E-04-2.23573E-14
 -1      3735 4.70377E-03-2.01379E-04-2.36839E-14
 -1      3736 4.49127E-03-1.72823E-04-2.16409E-14
 -1      3737 4.84090E-03-1.98636E-04-2.50462E-14
 -1      3738 4.97702E-03-1.95995E-04-2.64429E-14
 -1      3739 4.76614E-03-1.68445E-04-2.42863E-14
 -1      3740 5.11195E-03-1.93654E-04-2.78739E-14
 -1      3741 5.24563E-03-1.91581E-04-2.93408E-14
 -1      3742 5.03669E-03-1.64708E-04-2.70729E-14
 -1      3743 5.37781E-03-1.90037E-04-3.08421E-14
 -1      3744 5.50842E-03-1.88960E-04-3.23773E-14
 -1      3745 5.30185E-03-1.62289E-04-2.99994E-14
 -1      3746 5.63716E-03-1.88687E-04-3.39455E-14
 -1      3747 5.76393E-03-1.89094E-04-3.55455E-14
 -1      3748 5.56026E-03-1.62008E-04-3.30636E-14
 -1      3749 5.88833E-03-1.90613E-04-3.71797E-14
 -1      3750 6.01031E-03-1.92999E-04-3.88449E-14
 -1      3751 5.81014E-03-1.64790E-04-3.62598E-14
 -1      3752 6.12923E-03-1.96807E-04-4.05410E-14
 -1      3753 6.24515E-03-2.01503E-04-4.22682E-14
 -1      3754 6.04907E-03-1.71541E-04-3.95843E-14
 -1      3755 1.17320E-02-6.21758E-04-1.00986E-13
 -1      3756 1.18424E-02-6.46630E-04-1.03539E-13
 -1      3757 1.19561E-02-6.72348E-04-1.06108E-13
 -1      3758 1.20735E-02-6.99725E-04-1.08694E-13
 -1      3759 1.19013E-02-6.36916E-04-1.04641E-13
 -1      3760 1.21936E-02-7.28063E-04-1.11294E-13
 -1      3761 1.23166E-02-7.57789E-04-1.13912E-13
 -1      3762 1.21281E-02-6.90166E-04-1.09810E-13
 -1      3763 1.24419E-02-7.88371E-04-1.16545E-13
 -1      3764 1.25694E-02-8.20029E-04-1.19194E-13
 -1      3765 1.23686E-02-7.47800E-04-1.15043E-13
 -1      3766 1.26987E-02-8.52340E-04-1.21858E-13
 -1      3767 1.28298E-02-8.85406E-04-1.24537E-13
 -1      3768 1.26196E-02-8.09276E-04-1.20341E-13
 -1      3769 1.29624E-02-9.18895E-04-1.27232E-13
 -1      3770 1.30964E-02-9.52852E-04-1.29938E-13
 -1      3771 1.28788E-02-8.73655E-04-1.25697E-13
 -1      3772 1.32316E-02-9.87022E-04-1.32659E-13
 -1      3773 1.33678E-02-1.02143E-03-1.35395E-13
 -1      3774 1.31443E-02-9.39972E-04-1.31112E-13
 -1      3775 1.35050E-02-1.05588E-03-1.38142E-13
 -1      3776 1.36430E-02-1.09038E-03-1.40902E-13
 -1      3777 1.34150E-02-1.00738E-03-1.36578E-13
 -1      3778 1.37302E-02-1.10769E-03-1.42686E-13
 -1      3779 1.38385E-02-1.12935E-03-1.44895E-13
 -1      3780 1.38117E-02-1.09219E-03-1.44677E-13
 -1      3781 1.36383E-02-1.05836E-03-1.41109E-13
 -1      3782 1.19241E-03-9.40728E-05-1.97112E-15
 -1      3783 1.31588E-03-1.16223E-04-2.33608E-15
 -1      3784 1.21348E-03-6.78530E-05-2.02568E-15
 -1      3785 4.37896E-03 2.40795E-04-1.91283E-14
 -1      3786 4.23748E-03 2.44352E-04-1.79412E-14
 -1      3787 1.70793E-03-2.01441E-04-3.66733E-15
 -1      3788 1.85202E-03-2.08021E-04-4.23287E-15
 -1      3789 4.09572E-03 2.47657E-04-1.67898E-14
 -1      3790 3.95367E-03 2.50714E-04-1.56757E-14
 -1      3791 4.16213E-03 2.10789E-04-1.75038E-14
 -1      3792 5.22275E-03 2.16182E-04-2.70157E-14
 -1      3793 5.08252E-03 2.20480E-04-2.56115E-14
 -1      3794 5.50336E-03 2.07873E-04-2.99307E-14
 -1      3795 5.36297E-03 2.11946E-04-2.84548E-14
 -1      3796 5.28161E-03 1.79696E-04-2.79058E-14
 -1      3797 5.78521E-03 2.00663E-04-3.29871E-14
 -1      3798 5.64401E-03 2.04047E-04-3.14417E-14
 -1      3799 5.55920E-03 1.70817E-04-3.08635E-14
 -1      3800 6.07021E-03 1.95842E-04-3.61789E-14
 -1      3801 5.92713E-03 1.97804E-04-3.45661E-14
 -1      3802 5.83763E-03 1.62450E-04-3.39604E-14
 -1      3803 6.36125E-03 1.95537E-04-3.95028E-14
 -1      3804 6.21472E-03 1.94865E-04-3.78251E-14
 -1      3805 6.11894E-03 1.55701E-04-3.71920E-14
 -1      3806 6.66242E-03 2.03239E-04-4.29512E-14
 -1      3807 6.51025E-03 1.97928E-04-4.12111E-14
 -1      3808 6.40640E-03 1.52644E-04-4.05510E-14
 -1      3809 6.97901E-03 2.24957E-04-4.65244E-14
 -1      3810 6.81850E-03 2.11690E-04-4.47220E-14
 -1      3811 6.70482E-03 1.57113E-04-4.40351E-14
 -1      3812 7.62499E-03 3.12700E-04-5.37391E-14
 -1      3813 7.44375E-03 2.71677E-04-5.18179E-14
 -1      3814 1.46717E-03-1.86367E-04-2.80907E-15
 -1      3815 1.36546E-02-7.23240E-04-1.46105E-13
 -1      3816 1.41618E-03 2.20478E-04-2.28036E-15
 -1      3817 2.52927E-03 3.33295E-04-6.41356E-15
 -1      3818 2.38538E-03 3.30621E-04-5.73056E-15
 -1      3819 2.59617E-03 2.97577E-04-6.87615E-15
 -1      3820 1.06095E-02-7.70530E-05-8.98595E-14
 -1      3821 1.04351E-02-1.54058E-05-8.74069E-14
 -1      3822 1.14983E-02-2.89131E-04-1.04702E-13
 -1      3823 1.13499E-02-2.54879E-04-1.02123E-13
 -1      3824 1.17884E-02-3.52302E-04-1.09916E-13
 -1      3825 1.16443E-02-3.21315E-04-1.07300E-13
 -1      3826 1.16246E-02-3.46272E-04-1.06242E-13
 -1      3827 1.20729E-02-4.11393E-04-1.15202E-13
 -1      3828 1.19312E-02-3.82170E-04-1.12550E-13
 -1      3829 1.19078E-02-4.04832E-04-1.11474E-13
 -1      3830 1.23544E-02-4.68423E-04-1.20550E-13
 -1      3831 1.22139E-02-4.40059E-04-1.17868E-13
 -1      3832 1.21870E-02-4.61214E-04-1.16772E-13
 -1      3833 1.26347E-02-5.24642E-04-1.25959E-13
 -1      3834 1.24946E-02-4.96574E-04-1.23247E-13
 -1      3835 1.24645E-02-5.16857E-04-1.22133E-13
 -1      3836 1.29150E-02-5.80847E-04-1.31420E-13
 -1      3837 1.27748E-02-5.52709E-04-1.28682E-13
 -1      3838 1.27420E-02-5.72570E-04-1.27551E-13
 -1      3839 1.31958E-02-6.37570E-04-1.36925E-13
 -1      3840 1.30553E-02-6.09119E-04-1.34167E-13
 -1      3841 1.30202E-02-6.28831E-04-1.33019E-13
 -1      3842 1.09402E-02-1.75503E-04-9.48362E-14
 -1      3843 1.07782E-02-1.28954E-04-9.23366E-14
 -1      3844 1.08355E-02-2.07949E-04-9.16593E-14
 -1      3845 1.10391E-02-3.39750E-04-9.18735E-14
 -1      3846 1.11318E-02-3.81168E-04-9.23053E-14
 -1      3847 1.12609E-02-4.14828E-04-9.41724E-14
 -1      3848 1.35503E-02-7.17344E-04-1.43811E-13
 -1      3849 1.71793E-03 3.14323E-04-3.04088E-15
 -1      3850 1.59247E-03 3.08386E-04-2.62740E-15
 -1      3851 1.55007E-03 2.79373E-04-2.56585E-15
 -1      3852 1.76001E-03 2.81377E-04-3.28501E-15
 -1      3853 6.61269E-03-2.39009E-04-4.79300E-14
 -1      3854 9.72610E-03 3.66514E-04-7.91721E-14
 -1      3855 2.28547E-03-2.20999E-04-6.16792E-15
 -1      3856 2.43005E-03-2.23433E-04-6.89212E-15
 -1      3857 2.49870E-03-1.88063E-04-7.25165E-15
 -1      3858 7.96765E-03 5.03036E-04-5.64812E-14
 -1      3859 7.10601E-03 7.70898E-05-5.01427E-14
 -1      3860 7.24892E-03 1.56103E-04-5.07820E-14
 -1      3861 1.99637E-03-2.13407E-04-4.83813E-15
 -1      3862 2.14089E-03-2.17682E-04-5.48330E-15
 -1      3863 2.20932E-03-1.83829E-04-5.80842E-15
 -1      3864 7.77413E-03 3.52076E-04-5.52877E-14
 -1      3865 4.94222E-03 2.24764E-04-2.42422E-14
 -1      3866 4.80174E-03 2.28987E-04-2.29090E-14
 -1      3867 5.00363E-03 1.88446E-04-2.50894E-14
 -1      3868 4.66107E-03 2.33083E-04-2.16131E-14
 -1      3869 4.52014E-03 2.37039E-04-2.03527E-14
 -1      3870 4.44411E-03 2.04179E-04-1.98875E-14
 -1      3871 4.72457E-03 1.96682E-04-2.24156E-14
 -1      3872 7.26112E-03 2.33910E-04-4.99377E-14
 -1      3873 1.42499E-03-1.37448E-04-2.68126E-15
 -1      3874 1.59685E-03-1.78622E-04-3.26398E-15
 -1      3875 1.66513E-03-1.49670E-04-3.51876E-15
 -1      3876 1.44538E-03-1.07957E-04-2.74754E-15
 -1      3877 1.34095E-02-6.88293E-04-1.41030E-13
 -1      3878 6.50165E-03-2.15523E-04-4.65256E-14
 -1      3879 1.12242E-02-2.36136E-04-9.97320E-14
 -1      3880 1.10702E-02-1.97397E-04-9.71899E-14
 -1      3881 1.11169E-02-2.66717E-04-9.64987E-14
 -1      3882 1.13595E-02-2.99462E-04-1.01251E-13
 -1      3883 1.33721E-02-7.07884E-04-1.39862E-13
 -1      3884 3.81134E-03 2.53473E-04-1.45985E-14
 -1      3885 3.66872E-03 2.55937E-04-1.35587E-14
 -1      3886 3.87864E-03 2.16392E-04-1.52667E-14
 -1      3887 2.95191E-03 2.62492E-04-8.92934E-15
 -1      3888 2.80791E-03 2.62361E-04-8.11865E-15
 -1      3889 1.36979E-02-1.03917E-03-1.42673E-13
 -1      3890 1.37843E-02-1.05570E-03-1.44458E-13
 -1      3891 1.37559E-02-1.01938E-03-1.44235E-13
 -1      3892 1.16619E-02-5.99368E-04-9.91446E-14
 -1      3893 1.17233E-02-5.90076E-04-1.00232E-13
 -1      3894 6.39603E-03-2.07697E-04-4.47271E-14
 -1      3895 1.14595E-02-4.73958E-04-9.65817E-14
 -1      3896 1.14947E-02-4.90316E-04-9.64260E-14
 -1      3897 1.15965E-02-5.13908E-04-9.84073E-14
 -1      3898 6.45740E-03-1.76668E-04-4.66281E-14
 -1      3899 6.63413E-03-8.16079E-05-4.72463E-14
 -1      3900 6.73681E-03-7.69680E-05-4.84472E-14
 -1      3901 6.76493E-03-3.71838E-05-4.79199E-14
 -1      3902 3.45811E-03 2.95458E-04-1.19416E-14
 -1      3903 1.17053E-02-5.60774E-04-9.97469E-14
 -1      3904 1.17185E-02-5.74712E-04-9.99910E-14
 -1      3905 1.17892E-02-5.95829E-04-1.01840E-13
 -1      3906 3.23933E-03 2.61166E-04-1.06668E-14
 -1      3907 3.09573E-03 2.62084E-04-9.77922E-15
 -1      3908 3.02019E-03 2.25661E-04-9.45722E-15
 -1      3909 1.92018E-03-1.76446E-04-4.52242E-15
 -1      3910 7.09203E-03 2.11292E-04-4.80795E-14
 -1      3911 6.96649E-03 1.46672E-04-4.73637E-14
 -1      3912 7.85861E-03 4.24005E-04-5.57054E-14
 -1      3913 2.30281E-03 2.94751E-04-5.46966E-15
 -1      3914 6.49862E-03-1.31690E-04-4.66636E-14
 -1      3915 6.51537E-03-1.13862E-04-4.64484E-14
 -1      3916 1.51126E-03 1.57006E-04-2.70710E-15
 -1      3917 1.50789E-03 1.21914E-04-2.75545E-15
 -1      3918 6.98146E-03 4.99440E-05-4.90295E-14
 -1      3919 1.34089E-02-7.45867E-04-1.40112E-13
 -1      3920 1.31978E-02-6.95063E-04-1.36024E-13
 -1      3921 1.34450E-02-7.83346E-04-1.40359E-13
 -1      3922 1.01648E-02 1.28037E-04-8.44458E-14
 -1      3923 9.98189E-03 2.09009E-04-8.20472E-14
 -1      3924 1.50537E-03 8.71617E-05-2.79892E-15
 -1      3925 1.50373E-03 5.27142E-05-2.83717E-15
 -1      3926 1.63049E-03 1.08687E-04-3.19384E-15
 -1      3927 1.77873E-03 2.46073E-04-3.44671E-15
 -1      3928 1.67343E-03 2.46583E-04-3.06648E-15
 -1      3929 1.24589E-03-1.24208E-05-2.09358E-15
 -1      3930 1.22369E-03-3.94204E-05-2.04459E-15
 -1      3931 1.34645E-03-5.79206E-05-2.41825E-15
 -1      3932 1.36815E-03 3.03139E-06-2.44938E-15
 -1      3933 1.16945E-02-5.43931E-04-1.00088E-13
 -1      3934 1.17024E-02-5.52475E-04-9.99175E-14
 -1      3935 1.17772E-02-5.71758E-04-1.01768E-13
 -1      3936 1.35144E-02-8.56893E-04-1.40841E-13
 -1      3937 1.34802E-02-8.20309E-04-1.40602E-13
 -1      3938 1.32715E-02-7.68802E-04-1.36520E-13
 -1      3939 1.35762E-02-9.18621E-04-1.41385E-13
 -1      3940 1.35457E-02-8.87812E-04-1.41116E-13
 -1      3941 1.33387E-02-8.35204E-04-1.37038E-13
 -1      3942 6.44833E-03-1.39322E-04-4.60892E-14
 -1      3943 1.09352E-02-2.69797E-04-9.20806E-14
 -1      3944 2.07609E-03 2.54659E-04-4.59633E-15
 -1      3945 1.93174E-03 2.49150E-04-4.02286E-15
 -1      3946 1.84587E-03 2.15426E-04-3.77385E-15
 -1      3947 6.31303E-03-1.82888E-04-4.37268E-14
 -1      3948 1.10803E-02-3.17255E-04-9.39476E-14
 -1      3949 1.84477E-03-1.40299E-04-4.21351E-15
 -1      3950 1.98917E-03-1.44076E-04-4.81470E-15
 -1      3951 9.86062E-03 2.72876E-04-8.05846E-14
 -1      3952 1.11916E-02-3.29421E-04-9.62958E-14
 -1      3953 1.12752E-02-3.88683E-04-9.60861E-14
 -1      3954 1.13048E-02-3.42098E-04-9.86626E-14
 -1      3955 3.00118E-03-1.53388E-04-1.01176E-14
 -1      3956 3.14503E-03-1.53001E-04-1.10292E-14
 -1      3957 3.28853E-03-1.52349E-04-1.19794E-14
 -1      3958 3.43164E-03-1.51436E-04-1.29677E-14
 -1      3959 3.21466E-03-1.16472E-04-1.14537E-14
 -1      3960 3.57430E-03-1.50331E-04-1.39936E-14
 -1      3961 3.71647E-03-1.49028E-04-1.50576E-14
 -1      3962 3.50084E-03-1.15148E-04-1.34223E-14
 -1      3963 3.85809E-03-1.47600E-04-1.61581E-14
 -1      3964 3.99912E-03-1.46035E-04-1.72961E-14
 -1      3965 3.78503E-03-1.13279E-04-1.55412E-14
 -1      3966 4.13949E-03-1.44416E-04-1.84717E-14
 -1      3967 4.27914E-03-1.42728E-04-1.96831E-14
 -1      3968 4.06681E-03-1.11094E-04-1.78100E-14
 -1      3969 4.41798E-03-1.41073E-04-2.09303E-14
 -1      3970 4.55594E-03-1.39432E-04-2.22132E-14
 -1      3971 4.34566E-03-1.08862E-04-2.02256E-14
 -1      3972 4.69292E-03-1.37933E-04-2.35326E-14
 -1      3973 4.82882E-03-1.36553E-04-2.48873E-14
 -1      3974 4.62100E-03-1.06919E-04-2.27847E-14
 -1      3975 4.96351E-03-1.35466E-04-2.62773E-14
 -1      3976 5.09687E-03-1.34639E-04-2.77019E-14
 -1      3977 4.89207E-03-1.05681E-04-2.54863E-14
 -1      3978 5.22873E-03-1.34302E-04-2.91609E-14
 -1      3979 5.35892E-03-1.34392E-04-3.06563E-14
 -1      3980 5.15792E-03-1.05738E-04-2.83283E-14
 -1      3981 5.48724E-03-1.35211E-04-3.21858E-14
 -1      3982 5.61347E-03-1.36638E-04-3.37483E-14
 -1      3983 5.41733E-03-1.07808E-04-3.13112E-14
 -1      3984 5.73730E-03-1.39074E-04-3.53433E-14
 -1      3985 5.85845E-03-1.42288E-04-3.69705E-14
 -1      3986 5.66870E-03-1.12734E-04-3.44302E-14
 -1      3987 5.97649E-03-1.46831E-04-3.86311E-14
 -1      3988 6.09096E-03-1.52230E-04-4.03211E-14
 -1      3989 5.90983E-03-1.21465E-04-3.76794E-14
 -1      3990 1.20598E-02-6.54505E-04-1.08324E-13
 -1      3991 1.21749E-02-6.81377E-04-1.10926E-13
 -1      3992 1.22935E-02-7.09098E-04-1.13542E-13
 -1      3993 1.24151E-02-7.38095E-04-1.16174E-13
 -1      3994 1.22158E-02-6.72163E-04-1.12040E-13
 -1      3995 1.25393E-02-7.67833E-04-1.18824E-13
 -1      3996 1.26659E-02-7.98541E-04-1.21487E-13
 -1      3997 1.24573E-02-7.27912E-04-1.17306E-13
 -1      3998 1.27944E-02-8.29822E-04-1.24162E-13
 -1      3999 1.29248E-02-8.61788E-04-1.26855E-13
 -1      4000 1.27090E-02-7.87327E-04-1.22630E-13
 -1      4001 1.30568E-02-8.94136E-04-1.29565E-13
 -1      4002 1.31902E-02-9.26912E-04-1.32285E-13
 -1      4003 1.29685E-02-8.49457E-04-1.28016E-13
 -1      4004 1.33248E-02-9.59914E-04-1.35016E-13
 -1      4005 1.34606E-02-9.93146E-04-1.37761E-13
 -1      4006 1.32342E-02-9.13455E-04-1.33456E-13
 -1      4007 1.35360E-02-1.00788E-03-1.39325E-13
 -1      4008 1.36220E-02-1.02459E-03-1.41103E-13
 -1      4009 1.35942E-02-9.88971E-04-1.40883E-13
 -1      4010 1.34438E-02-9.60306E-04-1.37753E-13
 -1      4011 3.52585E-03 2.58053E-04-1.25569E-14
 -1      4012 3.38271E-03 2.59818E-04-1.15929E-14
 -1      4013 3.30752E-03 2.24031E-04-1.12421E-14
 -1      4014 3.59373E-03 2.20860E-04-1.31795E-14
 -1      4015 1.02825E-02 5.17332E-05-8.55381E-14
 -1      4016 2.73193E-03 2.25401E-04-7.82660E-15
 -1      4017 2.66375E-03 2.61588E-04-7.34746E-15
 -1      4018 2.51945E-03 2.60126E-04-6.61461E-15
 -1      4019 5.61370E-03 1.34333E-04-3.18013E-14
 -1      4020 5.47666E-03 1.39153E-04-3.02829E-14
 -1      4021 5.33954E-03 1.43873E-04-2.88004E-14
 -1      4022 5.20213E-03 1.48439E-04-2.73536E-14
 -1      4023 5.39663E-03 1.08747E-04-2.97010E-14
 -1      4024 6.16472E-03 1.15600E-04-3.82079E-14
 -1      4025 6.02585E-03 1.19868E-04-3.65570E-14
 -1      4026 6.44718E-03 1.09279E-04-4.16035E-14
 -1      4027 6.30485E-03 1.11787E-04-3.98904E-14
 -1      4028 6.20732E-03 7.54034E-05-3.92277E-14
 -1      4029 6.74058E-03 1.09646E-04-4.51227E-14
 -1      4030 6.59198E-03 1.08078E-04-4.33481E-14
 -1      4031 6.48316E-03 6.50974E-05-4.26596E-14
 -1      4032 1.22986E-02-5.09160E-04-1.18343E-13
 -1      4033 1.21616E-02-4.81876E-04-1.15680E-13
 -1      4034 1.54084E-03 1.89730E-04-2.74212E-15
 -1      4035 1.66283E-03 1.78224E-04-3.18238E-15
 -1      4036 1.20245E-02-4.54644E-04-1.13030E-13
 -1      4037 1.18868E-02-4.27240E-04-1.10397E-13
 -1      4038 1.21379E-02-5.02049E-04-1.14587E-13
 -1      4039 1.13336E-02-4.20416E-04-9.61186E-14
 -1      4040 1.14070E-02-4.50008E-04-9.65554E-14
 -1      4041 1.15270E-02-4.79126E-04-9.85418E-14
 -1      4042 1.14285E-02-4.27670E-04-9.84841E-14
 -1      4043 1.17484E-02-3.99645E-04-1.07782E-13
 -1      4044 1.16085E-02-3.71362E-04-1.05184E-13
 -1      4045 1.18682E-02-4.49454E-04-1.09323E-13
 -1      4046 1.25726E-02-5.64049E-04-1.23713E-13
 -1      4047 1.24355E-02-5.36525E-04-1.21020E-13
 -1      4048 1.24075E-02-5.55557E-04-1.19911E-13
 -1      4049 1.28476E-02-6.19717E-04-1.29142E-13
 -1      4050 1.27099E-02-5.91783E-04-1.26420E-13
 -1      4051 1.26785E-02-6.10292E-04-1.25291E-13
 -1      4052 1.30916E-02-6.71397E-04-1.33946E-13
 -1      4053 1.29533E-02-6.43018E-04-1.31207E-13
 -1      4054 1.29195E-02-6.61367E-04-1.30064E-13
 -1      4055 1.31297E-02-7.08436E-04-1.34199E-13
 -1      4056 6.21078E-03-1.57563E-04-4.22084E-14
 -1      4057 6.35396E-03-1.66492E-04-4.46613E-14
 -1      4058 6.37610E-03-1.50633E-04-4.50594E-14
 -1      4059 6.14823E-03-1.33227E-04-4.12193E-14
 -1      4060 1.52095E-03 2.22399E-04-2.60768E-15
 -1      4061 1.81577E-03 1.80702E-04-3.73783E-15
 -1      4062 1.78640E-03 1.46532E-04-3.69595E-15
 -1      4063 1.96912E-03 1.81716E-04-4.33845E-15
 -1      4064 1.18369E-02-5.95024E-04-1.03083E-13
 -1      4065 1.18490E-02-6.10960E-04-1.03328E-13
 -1      4066 1.19562E-02-6.35955E-04-1.05897E-13
 -1      4067 1.18373E-02-5.86122E-04-1.03257E-13
 -1      4068 6.84047E-03 8.84283E-05-4.66489E-14
 -1      4069 6.33736E-03-1.27468E-04-4.41346E-14
 -1      4070 5.88808E-03 1.24623E-04-3.49380E-14
 -1      4071 5.75071E-03 1.29433E-04-3.33533E-14
 -1      4072 5.66689E-03 9.84402E-05-3.27429E-14
 -1      4073 5.93648E-03 8.71565E-05-3.59209E-14
 -1      4074 2.42331E-03-1.51200E-04-6.85389E-15
 -1      4075 2.56804E-03-1.52396E-04-7.61190E-15
 -1      4076 4.22845E-03 1.74411E-04-1.82236E-14
 -1      4077 4.08745E-03 1.77186E-04-1.70642E-14
 -1      4078 2.13378E-03-1.47114E-04-5.45557E-15
 -1      4079 2.27854E-03-1.49453E-04-6.13517E-15
 -1      4080 2.34846E-03-1.14611E-04-6.46340E-15
 -1      4081 5.06441E-03 1.52811E-04-2.59419E-14
 -1      4082 4.92625E-03 1.56990E-04-2.45648E-14
 -1      4083 5.12465E-03 1.17903E-04-2.67987E-14
 -1      4084 2.71263E-03-1.53133E-04-8.40871E-15
 -1      4085 2.85703E-03-1.53437E-04-9.24370E-15
 -1      4086 2.92691E-03-1.17012E-04-9.63667E-15
 -1      4087 6.42523E-03-8.79494E-05-4.46478E-14
 -1      4088 6.52608E-03-8.60669E-05-4.59397E-14
 -1      4089 6.53956E-03-5.44092E-05-4.54283E-14
 -1      4090 2.37253E-03 2.58959E-04-5.90557E-15
 -1      4091 2.22303E-03 2.57924E-04-5.22302E-15
 -1      4092 2.14620E-03 2.20301E-04-4.98906E-15
 -1      4093 2.44046E-03 2.23888E-04-6.33554E-15
 -1      4094 1.19974E-02-6.27786E-04-1.06996E-13
 -1      4095 3.94600E-03 1.79691E-04-1.59420E-14
 -1      4096 3.80410E-03 1.81953E-04-1.48559E-14
 -1      4097 4.01343E-03 1.43440E-04-1.66229E-14
 -1      4098 2.26349E-03 1.86517E-04-5.59963E-15
 -1      4099 2.11624E-03 1.84580E-04-4.94861E-15
 -1      4100 2.08691E-03 1.49194E-04-4.90260E-15
 -1      4101 1.32025E-02-7.80492E-04-1.34688E-13
 -1      4102 1.31667E-02-7.44757E-04-1.34444E-13
 -1      4103 1.30623E-02-7.20948E-04-1.32376E-13
 -1      4104 1.16790E-02-5.32084E-04-1.00253E-13
 -1      4105 1.17613E-02-5.51072E-04-1.02106E-13
 -1      4106 1.16583E-02-5.18900E-04-1.00413E-13
 -1      4107 2.80072E-03 1.89049E-04-8.31400E-15
 -1      4108 2.65628E-03 1.88471E-04-7.53283E-15
 -1      4109 4.85042E-03 1.25885E-04-2.40390E-14
 -1      4110 4.78766E-03 1.60931E-04-2.32242E-14
 -1      4111 4.64858E-03 1.64661E-04-2.19199E-14
 -1      4112 6.23489E-03-1.15708E-04-4.24215E-14
 -1      4113 6.31898E-03-1.00186E-04-4.34185E-14
 -1      4114 1.45482E-03-7.61964E-05-2.77160E-15
 -1      4115 1.56396E-03-9.54484E-05-3.14871E-15
 -1      4116 1.46499E-03-4.44095E-05-2.79150E-15
 -1      4117 2.63801E-03-1.16499E-04-7.97264E-15
 -1      4118 1.73419E-03-1.19633E-04-3.77727E-15
 -1      4119 6.75877E-03 1.98426E-05-4.67523E-14
 -1      4120 1.32662E-02-8.40331E-04-1.35236E-13
 -1      4121 1.32349E-02-8.10539E-04-1.34965E-13
 -1      4122 1.31315E-02-7.86144E-04-1.32894E-13
 -1      4123 1.61551E-03 3.87724E-05-3.23634E-15
 -1      4124 1.49139E-03 2.01909E-05-2.83058E-15
 -1      4125 1.47979E-03-1.19987E-05-2.81952E-15
 -1      4126 2.05891E-03-1.10970E-04-5.10960E-15
 -1      4127 1.15129E-02-3.62898E-04-1.03109E-13
 -1      4128 1.13976E-02-3.49475E-04-1.00711E-13
 -1      4129 1.14620E-02-4.02578E-04-1.00498E-13
 -1      4130 1.16403E-02-4.15506E-04-1.04630E-13
 -1      4131 3.08893E-03 1.88820E-04-9.99277E-15
 -1      4132 2.94494E-03 1.89159E-04-9.13402E-15
 -1      4133 2.87005E-03 1.52601E-04-8.80971E-15
 -1      4134 6.64388E-03 6.80421E-06-4.55730E-14
 -1      4135 4.36897E-03 1.71408E-04-1.94192E-14
 -1      4136 4.29472E-03 1.38586E-04-1.89496E-14
 -1      4137 4.50903E-03 1.68144E-04-2.06512E-14
 -1      4138 6.31566E-03-7.53686E-05-4.29266E-14
 -1      4139 1.37094E-02-9.92986E-04-1.43492E-13
 -1      4140 1.36805E-02-9.61991E-04-1.43223E-13
 -1      4141 1.78340E-03 1.08926E-04-3.75213E-15
 -1      4142 1.36236E-02-9.77026E-04-1.41712E-13
 -1      4143 1.21336E-02-6.36299E-04-1.10534E-13
 -1      4144 1.22514E-02-6.62203E-04-1.13152E-13
 -1      4145 6.52262E-03-5.03845E-06-4.42917E-14
 -1      4146 3.42787E-03-7.96924E-05-1.28575E-14
 -1      4147 3.57047E-03-7.91713E-05-1.38758E-14
 -1      4148 3.71254E-03-7.86047E-05-1.49316E-14
 -1      4149 3.85401E-03-7.79768E-05-1.60245E-14
 -1      4150 3.64056E-03-4.35495E-05-1.43280E-14
 -1      4151 3.99483E-03-7.73552E-05-1.71549E-14
 -1      4152 4.13493E-03-7.67237E-05-1.83225E-14
 -1      4153 3.92345E-03-4.31462E-05-1.65066E-14
 -1      4154 4.27425E-03-7.61772E-05-1.95274E-14
 -1      4155 4.41272E-03-7.56880E-05-2.07672E-14
 -1      4156 4.20358E-03-4.29479E-05-1.88338E-14
 -1      4157 4.55025E-03-7.53705E-05-2.20417E-14
 -1      4158 4.68676E-03-7.52026E-05-2.33535E-14
 -1      4159 4.48042E-03-4.31995E-05-2.13064E-14
 -1      4160 4.82217E-03-7.53118E-05-2.47012E-14
 -1      4161 4.95633E-03-7.56866E-05-2.60838E-14
 -1      4162 4.75345E-03-4.42145E-05-2.39211E-14
 -1      4163 5.08912E-03-7.65315E-05-2.75013E-14
 -1      4164 5.22042E-03-7.77792E-05-2.89538E-14
 -1      4165 5.02185E-03-4.65271E-05-2.66791E-14
 -1      4166 5.35006E-03-7.96952E-05-3.04421E-14
 -1      4167 5.47787E-03-8.21857E-05-3.19655E-14
 -1      4168 5.28473E-03-5.06661E-05-2.95786E-14
 -1      4169 5.60364E-03-8.56006E-05-3.35217E-14
 -1      4170 5.72710E-03-8.97761E-05-3.51110E-14
 -1      4171 5.54106E-03-5.73692E-05-3.26173E-14
 -1      4172 5.84800E-03-9.51794E-05-3.67325E-14
 -1      4173 5.96587E-03-1.01513E-04-3.83869E-14
 -1      4174 5.78940E-03-6.75392E-05-3.57900E-14
 -1      4175 3.14126E-03-8.04225E-05-1.09342E-14
 -1      4176 3.28478E-03-8.01049E-05-1.18768E-14
 -1      4177 3.35538E-03-4.39565E-05-1.22990E-14
 -1      4178 1.19838E-02-4.95932E-04-1.10860E-13
 -1      4179 1.18520E-02-4.70887E-04-1.08246E-13
 -1      4180 5.45310E-03 7.44925E-05-3.06067E-14
 -1      4181 5.31917E-03 7.93776E-05-2.91166E-14
 -1      4182 1.23723E-02-6.89038E-04-1.15786E-13
 -1      4183 1.24958E-02-7.17066E-04-1.18435E-13
 -1      4184 1.22837E-02-6.50993E-04-1.14265E-13
 -1      4185 1.26215E-02-7.45862E-04-1.21099E-13
 -1      4186 1.27493E-02-7.75526E-04-1.23775E-13
 -1      4187 1.25316E-02-7.05226E-04-1.19564E-13
 -1      4188 1.28789E-02-8.05752E-04-1.26466E-13
 -1      4189 1.30100E-02-8.36603E-04-1.29174E-13
 -1      4190 1.27876E-02-7.62869E-04-1.24920E-13
 -1      4191 1.31340E-02-8.49148E-04-1.31951E-13
 -1      4192 1.32680E-02-8.80367E-04-1.34683E-13
 -1      4193 6.11311E-03-1.07851E-04-4.05343E-14
 -1      4194 2.85312E-03-8.05983E-05-9.16229E-15
 -1      4195 2.99735E-03-8.05870E-05-1.00291E-14
 -1      4196 3.06831E-03-4.42169E-05-1.04212E-14
 -1      4197 6.39225E-03 3.37408E-06-4.25334E-14
 -1      4198 1.27821E-02-6.55764E-04-1.26872E-13
 -1      4199 1.26475E-02-6.27975E-04-1.24167E-13
 -1      4200 1.25136E-02-6.00629E-04-1.21475E-13
 -1      4201 1.23803E-02-5.73748E-04-1.18800E-13
 -1      4202 1.26168E-02-6.44787E-04-1.23041E-13
 -1      4203 1.19323E-02-6.02055E-04-1.05668E-13
 -1      4204 1.20312E-02-6.19060E-04-1.08095E-13
 -1      4205 1.18639E-02-5.77317E-04-1.04342E-13
 -1      4206 1.98475E-03-7.55479E-05-4.77123E-15
 -1      4207 2.12941E-03-7.71409E-05-5.40601E-15
 -1      4208 2.56392E-03-8.00084E-05-7.54355E-15
 -1      4209 2.70862E-03-8.04098E-05-8.33386E-15
 -1      4210 2.77982E-03-4.41817E-05-8.69502E-15
 -1      4211 2.27423E-03-7.84083E-05-6.08017E-15
 -1      4212 2.41909E-03-7.93476E-05-6.79268E-15
 -1      4213 2.20065E-03-4.26730E-05-5.70448E-15
 -1      4214 5.18458E-03 8.38343E-05-2.76617E-14
 -1      4215 5.04917E-03 8.79097E-05-2.62430E-14
 -1      4216 5.24435E-03 5.06768E-05-2.85303E-14
 -1      4217 1.34736E-02-9.07933E-04-1.39138E-13
 -1      4218 1.93893E-03 1.03384E-04-4.37223E-15
 -1      4219 1.78346E-03 6.69350E-05-3.81693E-15
 -1      4220 1.74355E-03-8.48543E-05-3.80284E-15
 -1      4221 2.53356E-03 1.88271E-04-6.89798E-15
 -1      4222 2.38631E-03 1.87750E-04-6.17284E-15
 -1      4223 2.35714E-03 1.51740E-04-6.12252E-15
 -1      4224 2.60289E-03 1.52491E-04-7.34890E-15
 -1      4225 1.22477E-02-5.47309E-04-1.16138E-13
 -1      4226 1.21155E-02-5.21381E-04-1.13492E-13
 -1      4227 1.20943E-02-5.39834E-04-1.12397E-13
 -1      4228 1.23537E-02-5.91012E-04-1.17687E-13
 -1      4229 1.35483E-02-9.62941E-04-1.40143E-13
 -1      4230 6.28938E-03-3.36767E-05-4.18659E-14
 -1      4231 6.23883E-03 2.70946E-05-4.02869E-14
 -1      4232 6.10780E-03 3.48040E-05-3.85984E-14
 -1      4233 6.17579E-03-5.07216E-05-4.06785E-14
 -1      4234 6.06245E-03-8.01552E-05-3.95466E-14
 -1      4235 6.01877E-03-4.36412E-05-3.85331E-14
 -1      4236 1.20598E-02-6.08725E-04-1.09191E-13
 -1      4237 5.99681E-03-2.47658E-06-3.77401E-14
 -1      4238 5.95672E-03 4.01501E-05-3.67226E-14
 -1      4239 5.82578E-03 4.69946E-05-3.51019E-14
 -1      4240 5.87813E-03-3.67926E-05-3.66564E-14
 -1      4241 3.23265E-03 1.88110E-04-1.08896E-14
 -1      4242 3.15812E-03 1.52042E-04-1.05353E-14
 -1      4243 3.37605E-03 1.87029E-04-1.18245E-14
 -1      4244 1.18776E-02-5.07207E-04-1.07674E-13
 -1      4245 1.17623E-02-4.63190E-04-1.06153E-13
 -1      4246 1.16747E-02-4.56424E-04-1.04071E-13
 -1      4247 4.08104E-03 1.07679E-04-1.73108E-14
 -1      4248 3.94010E-03 1.09509E-04-1.61800E-14
 -1      4249 1.34456E-02-9.19839E-04-1.38315E-13
 -1      4250 1.58823E-03-2.87281E-05-3.20206E-15
 -1      4251 1.30402E-02-8.04385E-04-1.30384E-13
 -1      4252 1.29581E-02-6.97356E-04-1.30313E-13
 -1      4253 4.57376E-03 1.32746E-04-2.14216E-14
 -1      4254 2.49040E-03-4.37137E-05-7.12248E-15
 -1      4255 1.29238E-02-7.14085E-04-1.29169E-13
 -1      4256 1.18529E-02-5.64891E-04-1.04510E-13
 -1      4257 1.77074E-03 3.16444E-05-3.81421E-15
 -1      4258 1.81410E-03-5.32545E-05-4.05961E-15
 -1      4259 3.66180E-03 1.83929E-04-1.38077E-14
 -1      4260 3.51911E-03 1.85636E-04-1.27974E-14
 -1      4261 3.44489E-03 1.50231E-04-1.24138E-14
 -1      4262 3.73007E-03 1.47330E-04-1.44435E-14
 -1      4263 2.93995E-03 1.16095E-04-9.31273E-15
 -1      4264 2.79560E-03 1.16047E-04-8.48387E-15
 -1      4265 4.97565E-03 5.81669E-05-2.56842E-14
 -1      4266 4.91304E-03 9.16104E-05-2.48584E-14
 -1      4267 4.77612E-03 9.49962E-05-2.35104E-14
 -1      4268 4.36108E-03 1.03362E-04-1.96814E-14
 -1      4269 4.22137E-03 1.05648E-04-1.84779E-14
 -1      4270 4.14886E-03 7.24664E-05-1.80048E-14
 -1      4271 1.15914E-02-4.44108E-04-1.02298E-13
 -1      4272 1.15088E-02-4.39083E-04-1.00240E-13
 -1      4273 1.15551E-02-4.65707E-04-1.00270E-13
 -1      4274 1.17118E-02-4.87812E-04-1.03804E-13
 -1      4275 5.70669E-03 5.83127E-05-3.36021E-14
 -1      4276 5.57434E-03 6.41070E-05-3.20452E-14
 -1      4277 5.49776E-03 3.62931E-05-3.14305E-14
 -1      4278 5.73463E-03 1.50351E-05-3.43692E-14
 -1      4279 2.08612E-03 1.04719E-04-4.98744E-15
 -1      4280 2.74345E-03 8.02947E-05-8.27569E-15
 -1      4281 2.67287E-03 1.16479E-04-7.80819E-15
 -1      4282 2.55001E-03 1.16673E-04-7.16084E-15
 -1      4283 1.29996E-02-7.74019E-04-1.29918E-13
 -1      4284 1.29671E-02-7.45077E-04-1.29644E-13
 -1      4285 1.27943E-02-7.03207E-04-1.26215E-13
 -1      4286 1.28786E-02-7.63140E-04-1.27154E-13
 -1      4287 2.25039E-03 1.04808E-04-5.72169E-15
 -1      4288 2.10333E-03 5.97012E-05-5.13863E-15
 -1      4289 3.85264E-03-8.48950E-06-1.58645E-14
 -1      4290 3.99345E-03-8.76379E-06-1.69871E-14
 -1      4291 4.17508E-03 1.43991E-05-1.84265E-14
 -1      4292 4.31430E-03 1.34824E-05-1.96312E-14
 -1      4293 4.68575E-03-1.24023E-05-2.31459E-14
 -1      4294 4.82132E-03-1.38282E-05-2.44869E-14
 -1      4295 4.99666E-03 4.99146E-06-2.61905E-14
 -1      4296 5.12995E-03 2.23689E-06-2.76086E-14
 -1      4297 5.26202E-03-1.11938E-06-2.90629E-14
 -1      4298 5.39272E-03-4.95926E-06-3.05518E-14
 -1      4299 5.51151E-03-1.42185E-05-3.19864E-14
 -1      4300 5.63907E-03-1.93802E-05-3.35422E-14
 -1      4301 5.75434E-03-2.98940E-05-3.50371E-14
 -1      4302 1.15990E-02-4.89041E-04-1.00296E-13
 -1      4303 1.16934E-02-5.09691E-04-1.02156E-13
 -1      4304 1.24384E-02-6.64854E-04-1.18028E-13
 -1      4305 1.25653E-02-6.92321E-04-1.20693E-13
 -1      4306 1.27478E-02-7.33964E-04-1.24457E-13
 -1      4307 1.18242E-02-5.44536E-04-1.04536E-13
 -1      4308 1.19364E-02-5.72770E-04-1.06790E-13
 -1      4309 1.20372E-02-5.87968E-04-1.09222E-13
 -1      4310 1.17737E-02-5.14449E-04-1.04419E-13
 -1      4311 3.28338E-03-7.98263E-06-1.17475E-14
 -1      4312 3.42649E-03-8.03821E-06-1.27204E-14
 -1      4313 1.26623E-02-6.75123E-04-1.23517E-13
 -1      4314 2.37337E-03 1.05240E-04-6.30260E-15
 -1      4315 1.82894E-03-1.73899E-05-4.09017E-15
 -1      4316 1.33710E-02-9.05993E-04-1.36755E-13
 -1      4317 4.63849E-03 9.80434E-05-2.21986E-14
 -1      4318 4.50012E-03 1.00844E-04-2.09218E-14
 -1      4319 4.42760E-03 6.87992E-05-2.04200E-14
 -1      4320 2.99590E-03-7.91138E-06-9.91548E-15
 -1      4321 3.13983E-03-7.93287E-06-1.08122E-14
 -1      4322 3.21186E-03 2.82163E-05-1.12028E-14
 -1      4323 1.99674E-03 9.60630E-06-4.74750E-15
 -1      4324 3.86742E-03 7.53093E-05-1.57354E-14
 -1      4325 3.79861E-03 1.11105E-04-1.50860E-14
 -1      4326 3.65659E-03 1.12509E-04-1.40293E-14
 -1      4327 2.74983E-03 1.76780E-05-8.43257E-15
 -1      4328 2.89430E-03 1.76950E-05-9.26174E-15
 -1      4329 2.16106E-03 7.81511E-06-5.46808E-15
 -1      4330 2.30592E-03 7.94071E-06-6.14237E-15
 -1      4331 2.48214E-03 1.82290E-05-6.99908E-15
 -1      4332 2.62696E-03 1.83632E-05-7.75690E-15
 -1      4333 3.04034E-03 9.03477E-05-9.97887E-15
 -1      4334 2.96705E-03 5.40423E-05-9.62090E-15
 -1      4335 3.56910E-03-8.14616E-06-1.37315E-14
 -1      4336 3.71116E-03-8.27958E-06-1.47795E-14
 -1      4337 3.78231E-03 2.66283E-05-1.52293E-14
 -1      4338 3.49811E-03 2.76161E-05-1.31408E-14
 -1      4339 1.21733E-02-6.12375E-04-1.12288E-13
 -1      4340 1.22956E-02-6.37809E-04-1.14921E-13
 -1      4341 1.23237E-02-6.24063E-04-1.16031E-13
 -1      4342 1.20427E-02-5.73931E-04-1.09866E-13
 -1      4343 3.18418E-03 8.99913E-05-1.08762E-14
 -1      4344 4.45270E-03 1.23260E-05-2.08716E-14
 -1      4345 4.59021E-03 1.10008E-05-2.21467E-14
 -1      4346 4.70328E-03 6.40840E-05-2.29805E-14
 -1      4347 1.24771E-02-6.34685E-04-1.19753E-13
 -1      4348 1.23479E-02-6.08200E-04-1.17090E-13
 -1      4349 1.18520E-02-5.26331E-04-1.06201E-13
 -1      4350 1.26519E-02-6.91506E-04-1.22904E-13
 -1      4351 2.44417E-03 6.98486E-05-6.71972E-15
 -1      4352 3.96583E-03 5.00346E-05-1.65917E-14
 -1      4353 3.82472E-03 5.10386E-05-1.54830E-14
 -1      4354 1.22027E-02-5.82324E-04-1.13986E-13
 -1      4355 1.20765E-02-5.57688E-04-1.11356E-13
 -1      4356 4.93274E-03 3.70948E-05-2.53681E-14
 -1      4357 1.19363E-02-5.34218E-04-1.08295E-13
 -1      4358 4.10630E-03 4.88754E-05-1.77363E-14
 -1      4359 3.68300E-03 5.18690E-05-1.44121E-14
 -1      4360 3.32765E-03 8.94616E-05-1.18116E-14
 -1      4361 4.66065E-03 4.21673E-05-2.26804E-14
 -1      4362 3.47071E-03 8.87118E-05-1.27841E-14
 -1      4363 4.79717E-03 3.97871E-05-2.40059E-14
 -1      4364 3.54073E-03 5.25677E-05-1.33779E-14
 -3
    1PSTEP                         2           1           1          
  100CL  101 1.000000000        4364                     0    1           1
 -4  STRESS      6    1
 -5  SXX         1    4    1    1
 -5  SYY         1    4    2    2
 -5  SZZ         1    4    3    3
 -5  SXY         1    4    1    2
 -5  SYZ         1    4    2    3
 -5  SZX         1    4    3    1
 -1         1-1.73572E+00-1.81086E+01-3.03573E+00-4.46209E+00-2.60347E-12-8.55614E-13
 -1         2-7.23163E-01-2.46520E+01-3.37302E+00 1.72131E-01 1.20992E-12 7.33372E-14
 -1         3 1.99976E+01-2.41567E-03 1.03248E-02-2.46423E-03-4.38884E-13-4.31509E-13
 -1         4 1.99975E+01-2.37232E-03 1.19300E-02 2.47714E-03 1.29765E-13 1.01965E-13
 -1         5 3.27353E+01 6.13635E+00 2.73979E+00 6.22018E+00-6.38795E-14 4.26185E-12
 -1         6 3.57179E+01 1.22517E+01 5.12099E+00-8.64064E+00-2.56850E-13 3.34821E-12
 -1         7 2.08000E+01 6.09436E+00-1.28909E-01-4.72454E+00-3.66790E-14 3.34018E-13
 -1         8 1.96614E+01 5.93187E+00 5.09338E-02-3.27563E+00-3.83374E-14-5.12087E-13
 -1         9 1.91345E+01 5.77100E+00 4.92866E-02-2.52771E+00-2.93637E-14-9.51044E-13
 -1        10 1.88979E+01 5.69292E+00 5.11233E-02-1.95211E+00-1.97117E-14-1.14146E-12
 -1        11 1.87814E+01 5.65347E+00 5.04575E-02-1.45673E+00-1.30746E-14-1.19834E-12
 -1        12 1.87214E+01 5.63288E+00 4.89813E-02-1.01535E+00 1.84965E-16-1.19640E-12
 -1        13 1.86899E+01 5.62206E+00 4.75408E-02-5.95316E-01 4.17667E-15-1.16458E-12
 -1        14 1.86768E+01 5.61752E+00 4.67898E-02-1.91106E-01 1.19476E-14-1.12978E-12
 -1        15 1.86773E+01 5.61766E+00 4.68274E-02 2.08293E-01 1.69294E-14-1.08048E-12
 -1        16 1.86913E+01 5.62249E+00 4.76618E-02 6.13299E-01 2.18207E-14-1.01406E-12
 -1        17 1.87238E+01 5.63353E+00 4.92017E-02 1.03521E+00 2.59497E-14-9.16131E-13
 -1        18 1.87853E+01 5.65456E+00 5.09752E-02 1.47957E+00 3.29389E-14-7.74436E-13
 -1        19 1.89038E+01 5.69454E+00 5.16865E-02 1.98105E+00 4.50057E-14-5.49407E-13
 -1        20 1.91393E+01 5.77347E+00 4.88939E-02 2.56486E+00 5.35544E-14-1.74584E-13
 -1        21 1.96570E+01 5.94644E+00 4.58985E-02 3.30952E+00 5.95982E-14 4.89853E-13
 -1        22 2.11829E+01 6.37606E+00 1.39377E-01 4.52214E+00 6.10623E-15 1.73032E-12
 -1        23 2.30007E+01-1.37778E+00-9.37710E-01-7.11247E-01-1.78735E-13 2.46674E-12
 -1        24 1.93379E+01-9.94669E-02-3.09716E-01 6.30039E-02-4.33403E-14 1.74222E-12
 -1        25 1.86484E+01-5.63722E-02-6.88039E-02 6.05142E-02-1.94278E-14 1.05195E-12
 -1        26 1.84453E+01-2.21950E-02-6.53496E-03 3.27521E-02-2.26619E-14 5.19104E-13
 -1        27 1.84571E+01-1.19768E-02 1.50118E-03 2.23241E-02-1.15510E-14 1.24343E-13
 -1        28 1.85736E+01-6.51561E-03 1.61189E-03 1.59621E-02-3.43226E-15-1.33827E-13
 -1        29 1.87388E+01-3.49889E-03 1.42256E-03 1.17664E-02-5.39635E-16-3.20345E-13
 -1        30 1.89235E+01-1.82931E-03 1.42757E-03 8.77853E-03-9.14263E-15-5.23272E-13
 -1        31 1.91125E+01-9.79051E-04 1.34481E-03 6.54940E-03-5.37995E-15-7.43103E-13
 -1        32 1.92994E+01-6.74087E-04 1.04368E-03 4.86489E-03-1.12156E-14-8.93969E-13
 -1        33 1.94839E+01-7.63974E-04 5.03891E-04 3.62110E-03 2.73232E-14-9.48383E-13
 -1        34 1.96704E+01-1.16507E-03-2.72309E-04 2.77385E-03-2.63875E-14-1.04579E-12
 -1        35 1.98671E+01-1.83265E-03-1.29514E-03 2.32139E-03-3.04442E-14-1.15133E-12
 -1        36 2.00858E+01-2.74461E-03-2.59600E-03 2.30271E-03 3.49521E-14-1.09279E-12
 -1        37 2.03419E+01-3.88738E-03-4.22614E-03 2.80538E-03-1.44801E-14-1.04653E-12
 -1        38 2.06547E+01-5.23739E-03-6.24656E-03 3.98039E-03-4.07754E-14-1.05346E-12
 -1        39 2.10475E+01-6.73000E-03-8.69922E-03 6.06091E-03 1.84202E-14-1.13141E-12
 -1        40 2.15476E+01-8.20512E-03-1.15349E-02 9.37604E-03 9.16839E-15-1.05914E-12
 -1        41 2.21840E+01-9.31540E-03-1.44491E-02 1.43330E-02-1.34057E-14-1.30882E-12
 -1        42 2.29835E+01-9.38865E-03-1.65494E-02 2.13003E-02-1.23974E-14-1.42647E-12
 -1        43 2.39590E+01-7.26602E-03-1.57777E-02 3.02428E-02-5.56738E-17-1.20615E-12
 -1        44 2.50885E+01-1.24609E-03-8.19720E-03 3.98444E-02 2.35785E-14-1.04641E-12
 -1        45 2.62773E+01 1.05141E-02 1.21524E-02 4.58067E-02-4.57230E-14-1.16783E-12
 -1        46 2.73061E+01 2.84473E-02 5.07194E-02 3.85332E-02 4.16941E-14-1.37650E-12
 -1        47 2.77907E+01 4.84838E-02 1.03976E-01 2.57620E-03 3.54404E-15-1.01285E-12
 -1        48 2.72269E+01 5.86219E-02 1.44275E-01-7.50871E-02 3.91115E-14-7.20420E-13
 -1        49 2.52477E+01 4.19750E-02 1.17845E-01-1.80715E-01 5.16713E-14-6.71484E-13
 -1        50 2.21146E+01-7.78535E-03-1.44918E-02-2.47740E-01 1.71589E-14-7.60780E-13
 -1        51 1.90657E+01-6.74072E-02-1.98278E-01-1.87144E-01-3.42304E-15-7.13887E-13
 -1        52 1.78066E+01-9.38962E-02-2.85703E-01 3.71449E-03 4.67291E-14-6.38372E-13
 -1        53 1.91482E+01-6.55679E-02-1.92282E-01 1.91748E-01-3.71886E-14-8.10602E-13
 -1        54 2.22271E+01-5.65571E-03-8.35599E-03 2.47126E-01-5.43708E-14-1.09214E-12
 -1        55 2.53337E+01 4.30373E-02 1.20132E-01 1.77168E-01-2.92951E-14-1.28160E-12
 -1        56 2.72613E+01 5.85917E-02 1.43499E-01 7.16037E-02 4.42589E-14-1.23754E-12
 -1        57 2.77787E+01 4.78284E-02 1.01924E-01-4.57847E-03 4.44536E-14-1.17470E-12
 -1        58 2.72658E+01 2.77206E-02 4.90742E-02-3.92469E-02 5.82854E-14-1.15316E-12
 -1        59 2.62250E+01 9.93905E-03 1.11531E-02-4.58589E-02 2.21930E-14-8.36825E-13
 -1        60 2.50351E+01-1.63312E-03-8.67448E-03-3.96756E-02-8.23955E-14-4.56800E-13
 -1        61 2.39105E+01-7.53832E-03-1.59874E-02-3.00754E-02 6.03397E-14-1.54876E-13
 -1        62 2.29432E+01-9.62909E-03-1.66753E-02-2.12084E-02-8.26596E-14-7.99343E-13
 -1        63 2.21547E+01-9.59983E-03-1.46187E-02-1.43210E-02 2.53907E-14-1.13748E-12
 -1        64 2.15325E+01-8.59863E-03-1.18400E-02-9.41530E-03-1.02640E-13-1.11093E-12
 -1        65 2.10517E+01-7.29620E-03-9.23133E-03-6.09862E-03 8.70557E-14-7.36444E-13
 -1        66 2.06858E+01-6.04582E-03-7.13351E-03-3.92847E-03 4.46053E-14-9.05499E-13
 -1        67 2.04119E+01-5.01683E-03-5.68088E-03-2.50605E-03-8.52722E-15-4.72877E-13
 -1        68 2.02125E+01-4.26899E-03-4.95556E-03-1.44810E-03 5.15509E-14 3.20056E-16
 -1        69 2.00768E+01-3.74058E-03-4.89500E-03-2.80730E-04-3.53030E-14 2.43662E-14
 -1        70 2.00009E+01-2.86493E-03-4.47125E-03 1.91508E-03 6.45535E-14 2.66306E-13
 -1        71 1.99853E+01 4.94408E-04 7.74311E-04 4.72974E-03-9.58100E-14 3.47874E-13
 -1        72 2.10147E+01-4.04517E-01-9.79855E-01-3.10954E-01 4.15293E-14 4.01860E-12
 -1        73 1.93027E+01-6.58876E-02-2.91044E-01-5.36585E-02 3.55792E-14 3.27292E-12
 -1        74 1.86585E+01-2.05607E-02-6.42808E-02-2.01621E-02 6.65668E-15 2.70372E-12
 -1        75 1.84553E+01-9.97791E-03-9.36877E-03-1.51974E-02 1.25251E-14 2.30681E-12
 -1        76 1.84673E+01-5.32290E-03 5.55504E-04-1.20448E-02 9.23046E-15 2.01657E-12
 -1        77 1.85834E+01-2.84949E-03 1.52136E-03-9.67801E-03 8.22584E-15 1.81430E-12
 -1        78 1.87485E+01-1.48167E-03 1.52113E-03-7.82997E-03-9.70190E-15 1.70549E-12
 -1        79 1.89332E+01-7.48014E-04 1.52597E-03-6.28074E-03 1.63111E-14 1.45722E-12
 -1        80 1.91223E+01-4.10944E-04 1.41680E-03-4.93564E-03-9.06870E-15 1.23603E-12
 -1        81 1.93092E+01-3.36286E-04 1.10798E-03-3.76685E-03 3.82617E-14 1.09211E-12
 -1        82 1.94931E+01-4.39899E-04 6.01077E-04-2.77903E-03 1.30574E-14 9.50159E-13
 -1        83 1.96771E+01-6.60615E-04-6.87496E-05-1.99535E-03-3.22949E-15 8.67132E-13
 -1        84 1.98672E+01-9.44584E-04-8.56147E-04-1.45531E-03 4.21948E-15 8.09326E-13
 -1        85 2.00711E+01-1.23348E-03-1.70290E-03-1.21633E-03 2.17938E-14 8.16100E-13
 -1        86 2.02976E+01-1.45400E-03-2.52299E-03-1.35539E-03 2.04980E-14 6.66840E-13
 -1        87 2.05548E+01-1.50791E-03-3.17966E-03-1.96698E-03-2.26054E-14 5.83698E-13
 -1        88 2.08491E+01-1.26478E-03-3.45595E-03-3.15079E-03-9.99134E-15 6.55803E-13
 -1        89 2.11816E+01-5.62494E-04-3.02382E-03-4.97901E-03 9.46513E-14 2.58958E-13
 -1        90 2.15452E+01 7.73627E-04-1.42727E-03-7.42864E-03-6.61504E-14 7.59683E-14
 -1        91 2.19198E+01 2.87635E-03 1.88462E-03-1.02622E-02 4.08136E-15 4.32505E-13
 -1        92 2.22665E+01 5.72647E-03 7.40667E-03-1.28506E-02-2.28365E-14 4.69738E-13
 -1        93 2.25239E+01 8.98153E-03 1.52184E-02-1.39778E-02 1.27012E-14 3.98299E-13
 -1        94 2.26086E+01 1.17892E-02 2.43673E-02-1.17671E-02-2.70194E-15 1.44511E-13
 -1        95 2.24262E+01 1.27416E-02 3.21618E-02-4.03858E-03 4.11524E-14 4.30975E-14
 -1        96 2.18999E+01 1.02472E-02 3.40097E-02 1.05234E-02 1.92841E-14 2.92646E-13
 -1        97 2.10157E+01 3.47972E-03 2.48332E-02 3.04092E-02-1.04154E-14 5.31047E-13
 -1        98 1.98728E+01-6.46415E-03 2.55612E-03 4.96656E-02-1.68781E-15 6.33431E-13
 -1        99 1.87033E+01-1.62317E-02-2.80771E-02 5.89126E-02-1.86574E-14 3.48530E-13
 -1       100 1.78234E+01-2.15668E-02-5.49897E-02 5.02344E-02 1.86771E-14 3.17985E-13
 -1       101 1.75128E+01-2.00176E-02-6.47604E-02 2.36641E-02-2.74151E-15 1.73626E-13
 -1       102 1.78777E+01-1.25571E-02-5.20299E-02-1.06569E-02-4.81983E-14-3.17558E-14
 -1       103 1.87933E+01-2.67821E-03-2.36759E-02-3.86444E-02 3.05344E-15 3.78517E-14
 -1       104 1.99712E+01 5.84563E-03 6.50251E-03-5.12913E-02-7.23589E-14 2.56399E-13
 -1       105 2.10982E+01 1.08179E-02 2.72083E-02-4.84352E-02 6.57673E-14 6.12167E-14
 -1       106 2.19531E+01 1.20153E-02 3.47231E-02-3.60381E-02-6.34417E-14-1.62433E-13
 -1       107 2.24479E+01 1.04928E-02 3.17587E-02-2.10743E-02 5.58043E-14-4.58153E-13
 -1       108 2.26040E+01 7.65532E-03 2.34462E-02-8.22102E-03-5.11117E-14-8.20205E-13
 -1       109 2.25015E+01 4.63443E-03 1.41905E-02 6.90611E-04-4.13475E-14 1.39737E-13
 -1       110 2.22349E+01 2.07731E-03 6.47095E-03 5.76349E-03 7.75766E-14 2.82760E-15
 -1       111 2.18867E+01 2.16992E-04 1.09001E-03 7.93930E-03 5.89202E-14-1.84665E-13
 -1       112 2.15171E+01-9.70111E-04-2.11933E-03 8.27477E-03-6.36773E-14-2.66139E-13
 -1       113 2.11645E+01-1.62544E-03-3.70012E-03 7.62564E-03 1.12643E-13-3.58043E-13
 -1       114 2.08499E+01-1.92009E-03-4.23752E-03 6.57935E-03-3.02760E-14-6.09767E-13
 -1       115 2.05824E+01-2.01009E-03-4.23191E-03 5.48819E-03 6.13751E-14-4.17818E-13
 -1       116 2.03641E+01-2.01439E-03-4.08731E-03 4.51691E-03-2.07370E-15-1.50330E-13
 -1       117 2.01945E+01-2.00961E-03-4.13298E-03 3.67121E-03 4.91098E-14-8.27644E-13
 -1       118 2.00734E+01-1.98344E-03-4.49754E-03 2.76224E-03 4.15769E-14-1.30021E-12
 -1       119 2.00034E+01-1.51962E-03-4.26518E-03 9.36499E-04 1.58778E-14-1.17240E-12
 -1       120 1.99882E+01 1.73868E-03 8.10925E-04-3.06854E-03 1.89281E-13-1.09131E-12
 -1       121 1.99999E+01-1.00398E-02 3.48503E-04-4.48522E-03-7.88480E-13 1.28215E-13
 -1       122 1.99977E+01 7.35725E-03-4.27437E-03-2.87636E-04 8.68149E-15-4.37130E-14
 -1       123 1.99981E+01 7.73907E-02-3.46439E-03 2.38322E-03 5.03073E-13 1.19456E-13
 -1       124 1.99991E+01 1.81729E-01-1.50624E-03 3.64975E-03 2.64744E-13 6.77681E-14
 -1       125 2.00002E+01 2.99832E-01 4.35004E-04 3.88028E-03 2.12663E-13 2.43495E-14
 -1       126 2.00013E+01 4.10069E-01 2.04885E-03 3.42356E-03-1.93499E-13 1.11535E-13
 -1       127 2.00021E+01 4.98572E-01 3.27042E-03 2.39059E-03 2.45169E-13 1.04833E-13
 -1       128 2.00027E+01 5.49696E-01 4.02002E-03 9.64779E-04 4.91000E-13-4.90839E-14
 -1       129 2.00028E+01 5.55022E-01 4.19718E-03-6.61129E-04 1.06861E-12 4.34628E-13
 -1       130 2.00024E+01 5.12645E-01 3.73001E-03-2.25846E-03 6.95501E-13-2.86373E-13
 -1       131 2.00016E+01 4.27953E-01 2.57401E-03-3.60172E-03-1.29019E-12-3.65742E-14
 -1       132 2.00006E+01 3.15622E-01 8.26763E-04-4.26712E-03-1.57411E-12 3.11747E-13
 -1       133 1.99993E+01 1.90853E-01-1.45347E-03-4.10652E-03-6.11448E-13 7.58251E-14
 -1       134 1.99978E+01 7.82933E-02-4.04701E-03-3.01125E-03-4.40848E-13 1.42428E-13
 -1       135 1.99981E+01 5.10990E-03-4.24150E-03 5.90571E-04-5.01125E-13-6.38033E-14
 -1       136 1.99981E+01-1.13207E-02 6.28807E-04 8.47695E-03-4.42056E-13 5.17435E-14
 -1       137-1.33550E+00-1.98812E+01-3.04751E+00-3.65174E+00 1.78668E-12 2.56180E-13
 -1       138-1.33767E+00-8.29301E+00-2.18840E+00-2.66406E+00 8.22453E-13 1.36224E-13
 -1       139 3.44304E+00 3.74801E+00-9.69955E-01 4.01378E+00 9.00224E-13 8.55316E-13
 -1       140 1.60720E+01 1.08833E+01 4.78554E-01 1.31229E+01 1.11655E-12 1.29896E-12
 -1       141 3.47632E+01 1.02217E+01 1.82972E+00 1.83673E+01 9.69863E-13 1.70486E-12
 -1       142 5.32824E+01 5.30904E+00 2.86194E+00 1.56454E+01 4.29656E-13 1.12427E-12
 -1       143 6.45053E+01 1.31864E+00 3.40886E+00 5.51771E+00 5.86510E-14 8.30308E-14
 -1       144 6.35947E+01 1.70964E+00 3.37202E+00-7.23583E+00 1.99158E-13-1.37984E-12
 -1       145 5.01999E+01 6.31205E+00 2.70417E+00-1.66613E+01 8.99877E-13-2.45820E-12
 -1       146 3.07454E+01 1.07948E+01 1.56682E+00-1.77955E+01 2.33041E-12-3.49909E-12
 -1       147 1.28437E+01 1.00632E+01 1.63589E-01-1.13472E+01 3.48616E-12-3.53906E-12
 -1       148 1.70575E+00 1.80393E+00-1.24507E+00-2.11040E+00 3.50586E-12-2.56006E-12
 -1       149-1.68223E+00-1.10134E+01-2.43350E+00 3.60841E+00 2.16821E-12-9.07940E-13
 -1       150-1.07177E+00-2.16120E+01-3.16407E+00 3.11583E+00 5.03264E-13-1.57107E-13
 -1       151-7.81927E-01-2.45924E+01-3.38996E+00-1.29346E+00-1.23706E-12 5.51642E-16
 -1       152-1.45511E+00-6.75990E+00-2.23829E+00-2.64015E+00-3.69965E-12-1.84472E-12
 -1       153 4.01605E+00 4.39784E+00-1.06239E+00 4.45252E+00-3.49643E-12-2.85205E-12
 -1       154 1.75121E+01 1.03276E+01 4.13818E-01 1.33020E+01-2.63800E-12-3.09464E-12
 -1       155 3.73068E+01 9.67821E+00 1.93953E+00 1.84304E+01-1.58157E-12-3.22298E-12
 -1       156 5.65282E+01 4.99602E+00 3.19096E+00 1.54396E+01-7.53897E-13-2.03326E-12
 -1       157 6.81399E+01 1.19785E+00 3.88197E+00 4.60129E+00 3.10064E-14-5.61509E-13
 -1       158 6.58943E+01 1.94169E+00 3.74220E+00-8.63470E+00-9.43932E-14 2.10137E-13
 -1       159 5.14632E+01 6.51236E+00 2.87348E+00-1.72055E+01-6.05752E-13 1.47765E-12
 -1       160 3.11308E+01 1.04331E+01 1.51743E+00-1.75704E+01-1.55981E-12 2.39875E-12
 -1       161 1.32744E+01 9.54708E+00 3.18877E-02-1.12427E+01-2.02321E-12 2.34246E-12
 -1       162 2.29354E+00 1.72648E+00-1.36263E+00-2.55663E+00-1.41381E-12 1.10117E-12
 -1       163-1.91125E+00-1.03462E+01-2.50269E+00 3.72558E+00-1.16906E-13 1.46466E-13
 -1       164-1.41961E+00-2.07891E+01-3.19613E+00 3.89502E+00 5.28605E-13-7.58074E-14
 -1       165 2.09980E+01 3.69213E+00-5.73098E-02-3.60977E+00-5.33743E-13-7.40519E-14
 -1       166 1.99842E+01 4.20652E+00-4.56762E-02-2.80920E+00-4.41406E-13-5.94663E-13
 -1       167 1.95092E+01 4.47705E+00-3.15432E-02-2.19400E+00-3.23918E-13-8.65526E-13
 -1       168 1.92732E+01 4.61653E+00-2.36929E-02-1.67504E+00-2.15416E-13-9.85367E-13
 -1       169 1.91471E+01 4.69956E+00-1.94408E-02-1.21843E+00-1.19338E-13-1.00237E-12
 -1       170 1.90758E+01 4.75183E+00-1.73707E-02-7.91387E-01-1.73729E-14-9.89054E-13
 -1       171 1.90400E+01 4.78046E+00-1.63780E-02-3.86449E-01 8.07216E-14-9.55987E-13
 -1       172 1.90296E+01 4.78926E+00-1.60908E-02 8.35746E-03 1.60772E-13-9.17659E-13
 -1       173 1.90416E+01 4.77919E+00-1.64252E-02 4.03493E-01 2.36637E-13-8.68712E-13
 -1       174 1.90792E+01 4.74891E+00-1.74801E-02 8.09487E-01 3.16221E-13-8.04724E-13
 -1       175 1.91511E+01 4.69535E+00-1.96489E-02 1.23089E+00 3.89248E-13-6.84205E-13
 -1       176 1.92826E+01 4.60680E+00-2.39670E-02 1.69769E+00 4.89119E-13-5.07929E-13
 -1       177 1.95240E+01 4.45956E+00-3.28065E-02 2.22624E+00 5.65939E-13-2.51276E-13
 -1       178 2.00065E+01 4.18262E+00-4.71612E-02 2.84653E+00 6.02103E-13 2.05870E-13
 -1       179 2.11195E+01 3.46197E+00-5.97506E-02 3.53616E+00 5.29370E-13 9.70148E-13
 -1       180 2.23967E+01 1.14321E+00-3.36253E-01 3.01434E+00 3.50165E-13 1.95301E-12
 -1       181 2.19502E+01 8.57999E-01 6.54984E-04-1.95904E+00-4.60836E-13 6.01835E-13
 -1       182 2.04266E+01 1.90227E-01-9.97599E-03-7.64545E-01-3.91997E-13 3.77841E-13
 -1       183 1.96519E+01 1.01974E-01 1.35818E-02-2.85598E-01-3.06491E-13 1.96038E-13
 -1       184 1.93141E+01 4.76145E-02 1.00548E-02-6.68204E-02-2.42174E-13 1.35829E-14
 -1       185 1.91881E+01 2.33259E-02 5.23238E-03 4.21905E-02-1.59708E-13-9.66191E-14
 -1       186 1.91812E+01 1.07922E-02 2.53869E-03 9.76972E-02-1.34767E-13-1.86342E-13
 -1       187 1.92406E+01 4.06743E-03 1.28155E-03 1.24549E-01-1.45413E-13-3.02334E-13
 -1       188 1.93368E+01 7.33206E-04 7.07835E-04 1.36047E-01-9.55081E-14-3.58309E-13
 -1       189 1.94534E+01-3.66510E-04 4.50539E-04 1.40308E-01-9.46384E-14-3.61031E-13
 -1       190 1.95828E+01 1.53045E-04 3.63750E-04 1.42834E-01-4.21943E-14-3.88861E-13
 -1       191 1.97229E+01 1.95836E-03 3.88838E-04 1.47714E-01-9.20203E-14-5.23255E-13
 -1       192 1.98757E+01 4.88842E-03 4.98724E-04 1.58278E-01-6.90563E-14-5.26133E-13
 -1       193 2.00471E+01 8.89912E-03 6.77867E-04 1.77495E-01-2.72655E-14-5.67322E-13
 -1       194 2.02457E+01 1.40237E-02 9.13550E-04 2.08240E-01 9.79040E-15-6.43995E-13
 -1       195 2.04828E+01 2.03233E-02 1.18857E-03 2.53412E-01-2.98297E-15-5.45319E-13
 -1       196 2.07721E+01 2.77984E-02 1.47117E-03 3.15886E-01-3.53276E-15-4.78221E-13
 -1       197 2.11292E+01 3.62106E-02 1.69998E-03 3.98100E-01-2.44613E-14-5.24507E-13
 -1       198 2.15704E+01 4.47314E-02 1.76437E-03 5.01009E-01-1.08065E-13-6.03717E-13
 -1       199 2.21100E+01 5.12891E-02 1.48787E-03 6.21824E-01-6.61589E-14-5.63002E-13
 -1       200 2.27555E+01 5.14759E-02 6.39072E-04 7.49756E-01 7.02845E-14-6.19746E-13
 -1       201 2.34991E+01 3.70626E-02-9.74335E-04 8.58886E-01 8.50620E-14-5.34751E-13
 -1       202 2.43046E+01-5.06607E-03-3.28100E-03 8.98396E-01-8.80972E-14-5.57025E-13
 -1       203 2.50906E+01-9.05656E-02-5.56589E-03 7.84645E-01 3.30088E-14-3.90409E-13
 -1       204 2.57150E+01-2.25282E-01-6.31327E-03 4.10029E-01 1.65866E-13-2.67454E-13
 -1       205 2.59763E+01-3.74729E-01-3.90419E-03-3.00714E-01 1.68921E-13-2.18737E-13
 -1       206 2.56623E+01-4.27675E-01-5.85052E-04-1.25688E+00 4.17114E-14-2.77675E-13
 -1       207 2.46937E+01-2.22747E-01-2.77341E-03-2.04777E+00 7.23336E-15-2.53918E-13
 -1       208 2.33470E+01 2.67634E-01-1.51750E-02-2.02026E+00-2.63531E-14-2.20272E-13
 -1       209 2.23348E+01 7.28121E-01-2.73067E-02-8.40119E-01-8.05796E-14-3.10743E-13
 -1       210 2.23546E+01 7.18453E-01-2.65783E-02 8.94960E-01-1.65378E-13-4.70140E-13
 -1       211 2.33915E+01 2.48596E-01-1.37737E-02 2.03918E+00-2.40885E-13-7.02449E-13
 -1       212 2.47327E+01-2.34973E-01-2.77676E-03 2.02892E+00-6.16195E-14-6.64527E-13
 -1       213 2.56797E+01-4.29665E-01-1.00180E-03 1.22163E+00-6.03077E-14-9.08173E-13
 -1       214 2.59696E+01-3.70081E-01-4.28562E-03 2.69413E-01 2.12754E-13-7.85450E-13
 -1       215 2.56917E+01-2.19863E-01-6.28527E-03-4.29277E-01 1.29550E-13-7.50436E-13
 -1       216 2.50584E+01-8.66194E-02-5.44875E-03-7.92838E-01 1.35953E-13-6.76120E-13
 -1       217 2.42700E+01-2.73009E-03-3.13961E-03-8.98997E-01 1.91995E-13-6.79545E-13
 -1       218 2.34668E+01 3.83430E-02-8.61349E-04-8.54954E-01 2.26652E-13-1.89093E-13
 -1       219 2.27288E+01 5.23168E-02 7.38647E-04-7.42993E-01-3.32955E-13-3.51481E-13
 -1       220 2.20918E+01 5.21466E-02 1.58696E-03-6.12682E-01-2.75685E-13-4.78878E-13
 -1       221 2.15638E+01 4.59491E-02 1.88081E-03-4.88965E-01 4.76766E-14-6.42101E-13
 -1       222 2.11381E+01 3.80912E-02 1.85158E-03-3.81832E-01 1.69720E-13-4.51648E-13
 -1       223 2.08021E+01 3.06770E-02 1.67354E-03-2.93277E-01 1.39791E-14-4.24463E-13
 -1       224 2.05417E+01 2.46337E-02 1.44836E-03-2.21423E-01 3.96633E-13-1.29844E-13
 -1       225 2.03442E+01 2.03623E-02 1.21014E-03-1.62657E-01 2.97513E-13 2.44932E-13
 -1       226 2.01993E+01 1.80491E-02 9.46127E-04-1.12644E-01 2.21080E-15 1.29285E-13
 -1       227 2.00991E+01 1.75284E-02 7.37438E-04-6.72609E-02 1.69605E-13 9.58024E-14
 -1       228 2.00349E+01 1.72558E-02 5.32413E-04-2.47657E-02-3.90128E-15 1.51283E-13
 -1       229 2.09413E+01 2.77015E-01-5.13067E-02 1.16507E+00 3.89598E-13 1.68613E-12
 -1       230 1.98471E+01 1.26919E-01 8.32606E-03 4.43298E-01 2.76132E-13 1.38849E-12
 -1       231 1.93419E+01 5.82731E-02 1.27614E-02 1.49708E-01 2.31624E-13 1.13714E-12
 -1       232 1.91347E+01 2.81324E-02 7.67034E-03 9.33198E-03 1.45832E-13 9.61206E-13
 -1       233 1.90896E+01 1.37664E-02 3.88281E-03-6.16960E-02 1.18456E-13 8.50150E-13
 -1       234 1.91334E+01 6.19795E-03 1.98830E-03-9.70838E-02 8.07994E-14 7.12444E-13
 -1       235 1.92256E+01 2.16616E-03 1.11113E-03-1.13220E-01 1.42688E-13 6.11294E-13
 -1       236 1.93435E+01 2.42194E-04 6.79693E-04-1.19261E-01 9.19343E-14 5.35745E-13
 -1       237 1.94748E+01-2.97457E-04 4.49092E-04-1.20901E-01 9.34726E-14 4.21383E-13
 -1       238 1.96145E+01 1.25596E-04 3.22382E-04-1.21954E-01 3.81933E-14 4.53830E-13
 -1       239 1.97617E+01 1.23187E-03 2.55616E-04-1.25070E-01 7.61926E-14 3.73715E-13
 -1       240 1.99186E+01 2.80301E-03 2.21642E-04-1.32069E-01 6.41231E-14 2.96717E-13
 -1       241 2.00895E+01 4.62696E-03 1.98387E-04-1.44060E-01 4.65788E-14 2.35908E-13
 -1       242 2.02794E+01 6.44789E-03 1.64956E-04-1.61387E-01 3.23527E-14 1.93850E-13
 -1       243 2.04934E+01 7.91148E-03 1.00812E-04-1.83421E-01 1.77844E-14 2.40870E-13
 -1       244 2.07345E+01 8.50372E-03-1.22469E-05-2.08183E-01 3.74731E-14 1.65803E-13
 -1       245 2.10026E+01 7.49276E-03-1.84235E-04-2.31791E-01 2.06962E-13 1.18087E-13
 -1       246 2.12913E+01 3.90374E-03-4.05920E-04-2.47824E-01-6.17575E-14 1.24962E-13
 -1       247 2.15853E+01-3.40991E-03-6.33325E-04-2.46769E-01-7.79120E-14 1.42409E-14
 -1       248 2.18578E+01-1.54809E-02-7.73974E-04-2.16057E-01-1.09958E-13 9.09545E-14
 -1       249 2.20679E+01-3.25654E-02-6.94822E-04-1.41503E-01 8.59382E-15 2.61275E-13
 -1       250 2.21625E+01-5.29805E-02-2.74968E-04-1.14074E-02 1.09959E-13 2.35910E-13
 -1       251 2.20841E+01-7.16284E-02 4.81382E-04 1.75615E-01-8.17792E-15 1.63802E-13
 -1       252 2.17866E+01-7.92333E-02 1.28781E-03 3.99675E-01-1.35176E-13 2.12550E-13
 -1       253 2.12624E+01-6.43489E-02 1.58454E-03 6.10560E-01-1.65446E-13 3.14928E-13
 -1       254 2.05702E+01-1.99720E-02 8.39528E-04 7.31247E-01 3.06514E-14 3.68949E-13
 -1       255 1.98476E+01 4.72234E-02-9.28407E-04 6.84776E-01 1.54689E-13 3.90269E-13
 -1       256 1.92856E+01 1.13218E-01-2.72593E-03 4.40461E-01-9.84035E-14 3.37772E-13
 -1       257 1.90603E+01 1.46159E-01-3.13191E-03 5.13946E-02 5.74020E-14 4.05679E-13
 -1       258 1.92482E+01 1.28081E-01-1.62186E-03-3.54952E-01 5.77758E-14 3.75056E-13
 -1       259 1.97856E+01 6.94823E-02 7.93304E-04-6.41947E-01-3.30150E-14 2.62749E-13
 -1       260 2.05023E+01 1.44883E-04 2.48445E-03-7.35898E-01-1.53373E-14 1.89623E-13
 -1       261 2.12045E+01-5.21972E-02 2.65947E-03-6.49671E-01 1.50462E-13-7.66357E-15
 -1       262 2.17476E+01-7.57870E-02 1.64652E-03-4.53549E-01 4.22897E-14 1.95649E-14
 -1       263 2.20661E+01-7.43657E-02 2.82457E-04-2.27639E-01 1.85034E-13-1.19035E-13
 -1       264 2.21633E+01-5.85832E-02-7.67084E-04-2.94484E-02-3.88175E-14 3.25938E-14
 -1       265 2.20831E+01-3.84595E-02-1.24700E-03 1.14306E-01-3.85147E-13 4.95666E-14
 -1       266 2.18833E+01-2.02528E-02-1.23832E-03 2.00677E-01 1.43190E-13 3.23974E-13
 -1       267 2.16185E+01-6.55135E-03-9.49095E-04 2.39467E-01 1.37046E-13 3.67457E-13
 -1       268 2.13311E+01 2.40810E-03-5.67841E-04 2.44470E-01 4.20078E-14 1.45374E-13
 -1       269 2.10506E+01 7.47839E-03-2.12487E-04 2.28511E-01 1.04080E-13 6.63828E-14
 -1       270 2.07947E+01 9.81362E-03 6.46570E-05 2.01446E-01 5.45945E-15 1.72501E-13
 -1       271 2.05726E+01 1.05002E-02 2.50778E-04 1.69825E-01-8.22167E-14 4.95386E-14
 -1       272 2.03878E+01 1.04365E-02 3.43205E-04 1.37279E-01 5.79855E-14-6.92792E-14
 -1       273 2.02408E+01 1.03038E-02 3.17734E-04 1.05126E-01 3.01912E-13-4.51628E-14
 -1       274 2.01310E+01 1.06148E-02 1.49971E-04 7.30925E-02 5.71333E-14 5.61928E-14
 -1       275 2.00572E+01 1.17554E-02 1.94681E-04 4.01044E-02-3.75173E-14 2.83824E-13
 -1       276 2.00155E+01 9.62323E-03 7.56893E-04 8.49604E-03-1.10949E-13-3.45006E-14
 -1       277 2.00154E+01 3.33721E-02 4.15057E-04 2.60466E-02-1.98309E-14 5.67914E-13
 -1       278 2.00130E+01 8.59183E-02 1.51953E-04 5.91993E-02 9.07096E-14 6.28508E-14
 -1       279 2.00070E+01 1.59083E-01 7.20542E-05 8.33647E-02-1.03767E-14 5.98758E-14
 -1       280 2.00008E+01 2.44003E-01-1.99713E-05 9.29269E-02 4.50605E-14 3.30171E-14
 -1       281 1.99950E+01 3.27767E-01-1.97531E-04 8.77835E-02-1.07313E-13-1.60478E-13
 -1       282 1.99901E+01 4.01410E-01-3.67425E-04 6.92221E-02 3.64134E-14 1.61027E-13
 -1       283 1.99866E+01 4.52710E-01-4.96823E-04 4.00810E-02 4.46430E-15 2.51235E-13
 -1       284 1.99849E+01 4.74026E-01-5.51620E-04 4.45103E-03 4.11117E-13 3.85454E-13
 -1       285 1.99854E+01 4.61715E-01-5.21878E-04-3.26411E-02 1.17081E-13-2.42175E-13
 -1       286 1.99882E+01 4.16895E-01-4.10620E-04-6.56286E-02 9.16200E-14-8.49674E-13
 -1       287 1.99931E+01 3.47039E-01-2.38016E-04-8.86384E-02-2.59788E-14-1.53478E-13
 -1       288 1.99998E+01 2.59999E-01-6.62308E-05-9.76911E-02 1.17153E-13 6.48082E-13
 -1       289 2.00072E+01 1.70203E-01 3.53493E-05-8.92998E-02-4.05109E-15 7.67325E-15
 -1       290 2.00146E+01 9.26977E-02 4.06347E-04-6.34603E-02-3.65277E-13-2.64788E-14
 -1       291 2.00283E+01 5.21882E-02 4.29925E-04-4.89648E-02-1.33239E-13 1.24493E-13
 -1       292-8.44934E-01-1.07308E+01-9.55170E-01 1.36461E+00 2.60528E-13 3.31693E-13
 -1       293 2.99311E+00-7.95253E+00-6.49100E-01 4.07805E+00 3.51497E-13-3.56985E-13
 -1       294 1.09664E+01-5.18741E+00-3.02104E-01 6.48416E+00 1.18572E-13 3.78350E-13
 -1       295 1.88603E+01-9.15882E-01-8.16437E-02 7.27503E+00 1.53155E-13 4.42257E-13
 -1       296 2.89059E+01 2.93701E+00 3.50471E-01 7.88140E+00 2.79374E-13 3.86469E-13
 -1       297 3.83176E+01 5.13253E+00 7.23303E-01 6.59785E+00 3.75110E-13 1.09246E-13
 -1       298 4.39960E+01 6.44299E+00 8.73069E-01 3.31625E+00 5.84685E-13-5.16809E-14
 -1       299 4.58990E+01 6.84453E+00 9.25106E-01-2.44847E-01 7.33053E-13-4.89999E-13
 -1       300 4.26715E+01 6.33420E+00 7.64704E-01-3.48092E+00 7.42073E-13-8.42909E-13
 -1       301 3.64065E+01 4.60228E+00 5.93571E-01-6.52869E+00 1.26569E-12-9.55347E-13
 -1       302 2.67762E+01 2.31432E+00 2.59245E-01-7.92212E+00 1.32869E-12-1.31103E-12
 -1       303 1.72471E+01-1.98297E+00-1.44667E-01-7.08579E+00 1.02945E-12-1.19976E-12
 -1       304 7.48008E+00-5.52626E+00-5.66203E-01-5.20246E+00 8.67334E-13-1.44226E-12
 -1       305 1.49708E+00-9.24483E+00-8.75438E-01-2.96329E+00 4.34180E-13-1.05380E-12
 -1       306-1.18426E+00-1.11380E+01-1.00839E+00-8.84768E-01-1.89807E-13-8.14349E-13
 -1       307-3.94410E-01-1.02385E+01-9.11122E-01 1.43122E+00-8.54816E-13-9.39415E-13
 -1       308 3.70508E+00-8.27560E+00-7.99162E-01 3.48686E+00-1.17936E-12-1.19824E-12
 -1       309 1.05624E+01-4.77897E+00-5.28229E-01 5.55179E+00-1.50852E-12-1.20320E-12
 -1       310 2.01080E+01-1.04462E+00-1.13000E-01 7.05889E+00-1.43471E-12-1.32652E-12
 -1       311 3.09675E+01 1.61317E+00 2.82374E-01 6.42668E+00-1.17138E-12-1.01366E-12
 -1       312 4.02848E+01 4.75007E+00 7.68912E-01 5.81422E+00-1.01489E-12-7.18564E-13
 -1       313 4.60274E+01 6.43517E+00 1.00769E+00 2.68970E+00-8.59451E-13-5.84727E-13
 -1       314 4.85573E+01 6.73044E+00 1.18491E+00-5.98016E-01-2.73920E-13-1.69711E-13
 -1       315 4.52315E+01 5.95140E+00 1.00789E+00-3.93780E+00-7.40213E-13 1.32339E-13
 -1       316 3.73294E+01 3.74109E+00 5.49960E-01-5.37399E+00-6.29906E-13 2.13163E-13
 -1       317 2.78432E+01 1.44107E+00 2.25960E-01-7.37643E+00-5.53030E-13 4.36096E-13
 -1       318 1.75434E+01-1.93152E+00-2.25684E-01-6.71745E+00-1.42802E-13 9.60593E-13
 -1       319 1.02453E+01-6.04480E+00-3.91246E-01-5.90723E+00 4.12864E-13 5.55972E-13
 -1       320 2.11994E+00-9.02795E+00-8.51249E-01-2.91138E+00 3.81140E-13 3.05173E-13
 -1       321-8.33458E-01-9.92346E+00-8.32694E-01-9.28322E-01 4.10283E-13 1.94539E-13
 -1       322 2.01427E+01 3.01555E+00-1.78956E-02-2.10878E+00-4.56931E-13-5.20997E-13
 -1       323 2.07451E+01 2.20792E+00-1.78296E-02-2.36280E+00-5.33557E-13-2.21691E-13
 -1       324 1.95926E+01 3.69504E+00-1.50737E-02-1.31476E+00-2.06119E-13-7.67534E-13
 -1       325 1.94715E+01 3.85392E+00-1.35577E-02-9.21591E-01-9.24426E-14-7.63834E-13
 -1       326 1.94042E+01 3.94593E+00-1.26672E-02-5.42515E-01 3.15669E-14-7.45672E-13
 -1       327 1.93745E+01 3.98793E+00-1.22722E-02-1.72704E-01 1.45427E-13-7.32514E-13
 -1       328 1.93757E+01 3.98634E+00-1.22976E-02 1.94026E-01 2.51253E-13-6.85371E-13
 -1       329 1.94082E+01 3.94075E+00-1.27465E-02 5.64166E-01 3.37407E-13-6.36767E-13
 -1       330 1.94771E+01 3.84622E+00-1.37578E-02 9.37531E-01 4.27285E-13-5.52440E-13
 -1       331 1.96010E+01 3.68229E+00-1.56457E-02 1.33134E+00 5.28746E-13-3.96035E-13
 -1       332 1.98120E+01 3.41186E+00-1.88205E-02 1.73686E+00 6.12637E-13-2.13734E-13
 -1       333 2.01763E+01 2.95570E+00-2.29140E-02 2.12587E+00 6.58518E-13 5.80161E-14
 -1       334 2.07380E+01 2.12921E+00-3.04373E-02 2.32147E+00 6.41443E-13 5.52726E-13
 -1       335 2.10790E+01 1.18756E+00-2.48951E-02 1.92174E+00 5.43910E-13 9.79541E-13
 -1       336 2.03764E+01 4.89640E-01 8.35373E-03 9.26866E-01 4.24574E-13 7.91931E-13
 -1       337 2.04469E+01 6.75986E-01 1.23514E-02-1.02446E+00-4.27236E-13-1.17380E-13
 -1       338 2.00276E+01 3.38643E-01 7.20197E-03-4.54922E-01-3.60635E-13-1.48460E-13
 -1       339 1.97772E+01 1.79318E-01 4.16699E-03-1.43333E-01-2.59800E-13-1.64976E-13
 -1       340 1.96474E+01 9.51891E-02 1.94750E-03 3.24786E-02-2.20211E-13-2.23739E-13
 -1       341 1.96009E+01 4.85593E-02 8.75681E-04 1.30776E-01-1.74603E-13-2.83543E-13
 -1       342 1.96088E+01 2.29055E-02 4.01339E-04 1.84359E-01-1.10505E-13-2.59683E-13
 -1       343 1.96521E+01 1.03296E-02 1.98546E-04 2.13198E-01-8.64572E-14-2.57515E-13
 -1       344 1.97189E+01 6.67605E-03 1.34772E-04 2.30406E-01-8.77661E-14-2.99294E-13
 -1       345 1.98029E+01 9.63684E-03 1.59139E-04 2.45249E-01-9.48002E-14-2.96198E-13
 -1       346 1.99018E+01 1.79348E-02 2.50718E-04 2.64781E-01-6.36715E-14-2.76066E-13
 -1       347 2.00162E+01 3.09290E-02 3.99900E-04 2.94788E-01-1.38748E-13-3.10413E-13
 -1       348 2.01493E+01 4.83839E-02 6.01831E-04 3.40380E-01-4.01603E-14-3.22836E-13
 -1       349 2.03059E+01 7.02655E-02 8.52314E-04 4.06313E-01 4.89841E-14-3.77671E-13
 -1       350 2.04925E+01 9.64578E-02 1.14239E-03 4.97056E-01 2.92909E-14-4.68061E-13
 -1       351 2.07163E+01 1.26266E-01 1.44910E-03 6.16455E-01-3.02839E-14-3.62022E-13
 -1       352 2.09854E+01 1.57496E-01 1.71976E-03 7.66735E-01-5.02816E-14-3.86413E-13
 -1       353 2.13076E+01 1.84787E-01 1.84845E-03 9.46362E-01-8.42241E-15-2.63448E-13
 -1       354 2.16905E+01 1.96826E-01 1.64733E-03 1.14604E+00-7.68696E-14-2.99101E-13
 -1       355 2.21416E+01 1.72324E-01 8.27301E-04 1.34192E+00 8.77004E-14-4.37949E-13
 -1       356 2.26691E+01 7.59626E-02-9.45321E-04 1.48551E+00 6.22749E-14-4.14338E-13
 -1       357 2.32839E+01-1.40539E-01-3.90082E-03 1.49166E+00 1.56627E-13-9.56343E-14
 -1       358 2.39958E+01-5.18326E-01-7.65582E-03 1.23214E+00 1.66421E-13 7.55819E-15
 -1       359 2.47909E+01-1.02836E+00-1.08095E-02 5.57198E-01 1.76466E-13-4.47545E-14
 -1       360 2.55703E+01-1.45260E+00-1.07775E-02-6.08334E-01 1.48336E-13-5.88482E-14
 -1       361 2.60667E+01-1.30186E+00-1.50641E-02-2.03777E+00 3.20872E-14 3.13768E-15
 -1       362 2.59471E+01-1.00735E-01-3.48621E-02-2.94739E+00-3.71378E-14-1.66395E-13
 -1       363 2.53010E+01 1.77211E+00-5.77304E-02-2.27049E+00-1.25157E-13-3.28086E-13
 -1       364 2.49204E+01 2.71344E+00-6.50462E-02 4.43230E-02-2.86746E-13-2.68718E-13
 -1       365 2.53288E+01 1.70870E+00-5.42842E-02 2.32454E+00-4.41040E-13-5.50630E-13
 -1       366 2.59609E+01-1.58746E-01-3.25831E-02 2.93185E+00-1.71717E-13-5.13132E-13
 -1       367 2.60592E+01-1.33006E+00-1.62638E-02 1.98925E+00-5.46590E-14-5.51088E-13
 -1       368 2.55400E+01-1.44248E+00-1.22274E-02 5.59487E-01 1.18646E-13-4.32712E-13
 -1       369 2.47601E+01-1.00988E+00-1.05417E-02-5.89619E-01 1.81621E-13-4.01796E-13
 -1       370 2.39667E+01-5.01952E-01-7.36208E-03-1.24799E+00 2.06839E-13-3.09804E-13
 -1       371 2.32587E+01-1.29560E-01-3.62359E-03-1.49483E+00 2.08427E-13 6.77882E-14
 -1       372 2.26482E+01 8.25256E-02-8.11291E-04-1.48054E+00 3.37787E-13 8.59098E-14
 -1       373 2.21257E+01 1.76569E-01 9.13372E-04-1.33156E+00 6.21177E-14-2.23177E-13
 -1       374 2.16810E+01 2.00551E-01 1.71534E-03-1.13131E+00-2.87798E-13 1.05204E-13
 -1       375 2.13062E+01 1.89396E-01 1.92219E-03-9.26814E-01-1.53021E-13 3.92424E-13
 -1       376 2.09946E+01 1.64156E-01 1.81616E-03-7.40701E-01 6.84460E-14 3.42633E-13
 -1       377 2.07394E+01 1.36129E-01 1.58461E-03-5.81155E-01 7.03967E-14-1.15277E-14
 -1       378 2.05338E+01 1.10844E-01 1.33158E-03-4.48547E-01 3.78787E-13-1.70320E-14
 -1       379 2.03708E+01 9.07957E-02 1.10503E-03-3.39370E-01 4.11327E-13-4.69930E-15
 -1       380 2.02438E+01 7.69223E-02 9.21245E-04-2.48513E-01 4.59758E-14 1.17125E-13
 -1       381 2.01470E+01 6.92318E-02 9.28440E-04-1.70517E-01 6.79469E-14 3.21750E-13
 -1       382 2.00807E+01 6.12713E-02 5.94218E-04-1.05870E-01 1.10358E-13 3.05139E-13
 -1       383 1.98766E+01 2.29337E-01 1.08160E-02 3.97152E-01 3.36094E-13 6.56153E-13
 -1       384 1.95911E+01 1.16926E-01 6.21000E-03 1.16448E-01 2.46749E-13 5.53313E-13
 -1       385 1.94616E+01 6.02387E-02 2.86464E-03-3.57555E-02 1.61733E-13 4.12202E-13
 -1       386 1.94300E+01 2.96833E-02 1.26778E-03-1.17786E-01 1.48234E-13 3.32590E-13
 -1       387 1.94583E+01 1.30099E-02 5.78611E-04-1.60488E-01 1.56913E-13 2.54119E-13
 -1       388 1.95229E+01 4.59362E-03 2.77008E-04-1.81520E-01 1.47692E-13 2.27699E-13
 -1       389 1.96098E+01 1.54021E-03 1.52737E-04-1.91872E-01 1.12402E-13 2.02028E-13
 -1       390 1.97115E+01 2.16148E-03 1.24282E-04-1.98846E-01 3.19673E-14 2.01959E-13
 -1       391 1.98248E+01 5.34832E-03 1.55455E-04-2.07466E-01 1.25793E-13 1.49391E-13
 -1       392 1.99498E+01 1.02488E-02 2.22533E-04-2.21159E-01 1.03195E-13 8.26104E-14
 -1       393 2.00883E+01 1.60615E-02 3.03989E-04-2.42025E-01 1.00382E-13 6.09492E-14
 -1       394 2.02434E+01 2.18602E-02 3.75917E-04-2.70820E-01 3.74496E-14 3.99116E-14
 -1       395 2.04184E+01 2.64139E-02 4.08880E-04-3.06681E-01 1.93492E-15 5.03461E-14
 -1       396 2.06156E+01 2.79979E-02 3.66106E-04-3.46593E-01 8.64834E-14-1.42957E-14
 -1       397 2.08353E+01 2.42268E-02 2.04235E-04-3.84626E-01 1.86577E-13-7.39342E-14
 -1       398 2.10742E+01 1.20078E-02-1.20822E-04-4.11036E-01 5.90208E-14 3.70217E-14
 -1       399 2.13236E+01-1.21932E-02-6.39049E-04-4.11543E-01-8.47262E-14-9.05924E-14
 -1       400 2.15672E+01-5.14279E-02-1.34052E-03-3.67413E-01-1.06062E-13 6.90507E-15
 -1       401 2.17799E+01-1.06218E-01-2.13890E-03-2.57512E-01-1.23449E-13 7.70499E-14
 -1       402 2.19275E+01-1.71082E-01-2.85245E-03-6.40103E-02 1.38045E-13 2.67941E-13
 -1       403 2.19682E+01-2.30189E-01-3.18985E-03 2.16686E-01-3.27837E-14 3.49260E-13
 -1       404 2.18612E+01-2.54975E-01-2.84149E-03 5.58137E-01-1.28893E-13 2.71813E-13
 -1       405 2.15823E+01-2.09887E-01-1.71946E-03 8.89242E-01-1.31123E-13 1.74535E-13
 -1       406 2.11490E+01-7.18330E-02 8.98299E-05 1.09590E+00 2.57728E-14 8.17662E-14
 -1       407 2.06432E+01 1.40962E-01 2.05593E-03 1.05660E+00 1.40262E-13 2.32137E-13
 -1       408 2.02082E+01 3.55210E-01 3.64639E-03 7.12387E-01-9.88500E-14 2.74180E-13
 -1       409 1.99996E+01 4.69178E-01 4.68727E-03 1.30602E-01 1.52317E-14 3.72592E-13
 -1       410 2.01021E+01 4.20086E-01 5.02087E-03-4.97307E-01 8.08841E-14 4.12146E-13
 -1       411 2.04740E+01 2.35802E-01 4.18839E-03-9.53764E-01 1.68248E-13 1.85562E-13
 -1       412 2.09751E+01 1.05303E-02 2.10412E-03-1.11488E+00 1.45212E-14-9.28472E-14
 -1       413 2.14484E+01-1.64141E-01-4.45394E-04-9.93653E-01 5.98119E-14-1.71331E-13
 -1       414 2.17869E+01-2.46623E-01-2.48014E-03-6.96528E-01 7.65416E-14-4.10762E-14
 -1       415 2.19524E+01-2.46432E-01-3.46889E-03-3.47718E-01 1.83109E-13 1.35795E-13
 -1       416 2.19583E+01-1.97147E-01-3.46066E-03-3.75484E-02-7.14743E-14 1.82960E-13
 -1       417 2.18429E+01-1.31576E-01-2.78959E-03 1.90731E-01-2.05018E-13 1.40162E-13
 -1       418 2.16495E+01-7.08863E-02-1.86635E-03 3.30600E-01-3.55907E-14-1.23018E-13
 -1       419 2.14161E+01-2.43338E-02-9.84864E-04 3.95708E-01 5.56591E-14-1.10300E-13
 -1       420 2.11717E+01 6.72347E-03-2.86598E-04 4.06571E-01 1.50397E-13 4.11806E-13
 -1       421 2.09363E+01 2.47562E-02 1.95167E-04 3.82859E-01-5.12117E-15 4.76010E-13
 -1       422 2.07219E+01 3.34249E-02 4.87424E-04 3.40102E-01-2.45856E-14 6.40263E-13
 -1       423 2.05349E+01 3.62769E-02 6.39322E-04 2.88956E-01 5.60995E-14 5.08543E-13
 -1       424 2.03776E+01 3.62626E-02 6.98223E-04 2.35677E-01 9.20674E-14 4.03337E-13
 -1       425 2.02500E+01 3.55952E-02 6.92857E-04 1.83027E-01 1.87240E-13 3.62556E-13
 -1       426 2.01507E+01 3.56026E-02 6.05582E-04 1.31520E-01 5.37438E-14 5.64633E-13
 -1       427 2.00771E+01 3.61389E-02 4.91641E-04 8.10321E-02-1.02231E-13 5.31240E-13
 -1       428 2.00423E+01 3.73476E-02 3.44538E-04 5.29666E-02 1.05558E-13 5.72743E-13
 -1       429 2.00140E+01 2.08654E-01 1.52657E-04 1.60188E-01 4.80969E-14 8.64315E-14
 -1       430 2.00364E+01 1.34911E-01 3.94791E-04 1.35894E-01-6.95804E-15 1.71834E-13
 -1       431 2.00444E+01 8.16266E-02 4.95186E-04 9.64918E-02-4.96858E-14 1.48335E-13
 -1       432 1.99910E+01 2.82499E-01-7.63343E-05 1.61327E-01-5.93045E-14-5.31740E-13
 -1       433 1.99698E+01 3.51051E-01-2.73544E-04 1.39398E-01-4.46301E-14 3.60710E-13
 -1       434 1.99531E+01 4.04892E-01-4.34484E-04 9.73075E-02 9.31143E-14 2.86003E-13
 -1       435 1.99428E+01 4.37167E-01-5.32500E-04 4.06378E-02-4.21342E-14 3.31184E-13
 -1       436 1.99403E+01 4.43278E-01-5.51220E-04-2.30477E-02-2.93660E-14 1.08130E-13
 -1       437 1.99467E+01 4.21731E-01-4.81443E-04-8.48347E-02 1.20289E-13-7.02433E-13
 -1       438 1.99616E+01 3.75633E-01-3.29163E-04-1.34645E-01 2.06294E-13-6.36914E-13
 -1       439 1.99842E+01 3.08721E-01-1.37360E-04-1.65663E-01 4.26021E-13 6.27265E-13
 -1       440 2.00112E+01 2.30261E-01 7.58607E-05-1.70439E-01-8.31810E-14 4.74937E-14
 -1       441 2.00395E+01 1.48882E-01 4.04819E-04-1.47550E-01-1.81225E-13-2.76537E-13
 -1       442 1.01110E+01-5.12002E+00 9.34673E-03 7.04428E+00-9.18710E-15-2.45387E-13
 -1       443 1.48051E+00-3.85812E+00-3.66323E-03 6.99592E-01-1.53521E-13 5.80369E-14
 -1       444 3.59503E+00-4.35135E+00-2.08625E-02 4.40120E+00-1.73236E-13 7.21645E-16
 -1       445 1.97205E+01-5.08827E+00-9.34301E-03 6.66649E+00-1.86795E-13 2.23044E-13
 -1       446 2.67160E+01-2.71186E+00 7.23414E-03 4.63187E+00-4.09395E-14-1.64369E-13
 -1       447 1.97900E+01 3.44168E+00-2.08866E-02-1.72474E+00-3.23086E-13-7.10887E-13
 -1       448 3.42591E+01 5.13184E+00 2.67872E-02 1.05457E-01 4.31002E-13-1.66950E-13
 -1       449 3.62764E+01 7.86517E+00 9.06784E-02-4.27194E-03 7.89036E-13-3.69954E-13
 -1       450 3.56790E+01 7.74179E+00 6.92804E-02 9.74969E-02 8.22536E-13-2.08014E-13
 -1       451 3.45822E+01 4.55527E+00 7.50769E-02-6.93648E-01 8.08256E-13-4.77882E-13
 -1       452 3.10714E+01 2.89593E-01 4.36879E-02-2.83699E+00 7.88451E-13-2.25542E-13
 -1       453 2.53736E+01-3.16915E+00 1.48977E-02-5.20602E+00 2.43333E-13-1.88932E-13
 -1       454 1.68586E+01-5.48719E+00-9.08642E-03-7.20094E+00-3.23491E-13-6.06761E-13
 -1       455 8.15378E+00-5.47570E+00-8.43176E-02-6.63981E+00-1.42358E-13-1.03407E-12
 -1       456 2.67314E+00-4.59876E+00-5.35433E-02-3.77428E+00-8.52998E-14-1.12170E-12
 -1       457 1.42315E+00-4.01665E+00-1.25890E-02 6.21949E-01-2.17115E-13-1.11489E-12
 -1       458 5.51311E+00-4.62223E+00 1.33894E-02 5.08196E+00-2.42514E-13-9.74790E-13
 -1       459 1.09062E+01-5.82974E+00-6.03578E-02 6.63036E+00-1.91597E-13-6.62755E-13
 -1       460 2.06827E+01-5.64521E+00-9.83365E-03 6.11921E+00-4.37400E-13-4.67848E-13
 -1       461 2.72983E+01-3.90465E+00-3.98737E-02 3.94614E+00-5.17239E-13-2.35131E-13
 -1       462 3.38125E+01 9.20726E-01 5.43488E-02 8.84048E-01-8.38603E-13-2.31926E-13
 -1       463 3.66907E+01 4.99956E+00 1.17068E-01-1.65366E-01-9.70404E-13-5.16379E-13
 -1       464 3.69810E+01 7.74558E+00 9.42258E-02-2.84787E-01-7.52370E-13-4.53016E-13
 -1       465 3.78266E+01 7.17036E+00 1.51690E-01 2.70573E-01-5.94053E-13-2.11317E-13
 -1       466 3.58458E+01 4.09110E+00 8.40340E-02 2.66486E-01-4.13475E-13-5.79217E-13
 -1       467 3.18856E+01-1.00868E+00 6.78128E-04-1.65577E+00-9.31841E-14-5.30076E-13
 -1       468 2.61911E+01-3.97080E+00-1.76690E-02-4.65685E+00 1.58998E-13 2.42861E-14
 -1       469 1.91477E+01-5.57483E+00-3.70939E-02-6.31092E+00 6.61207E-13 4.53609E-13
 -1       470 9.08638E+00-5.31332E+00-2.70596E-02-6.33739E+00 5.22110E-13 4.83252E-13
 -1       471 3.85724E+00-4.42289E+00-3.04053E-03-4.02690E+00 3.04048E-13 2.91434E-14
 -1       472 3.21517E+01 1.28461E+00 5.41462E-02 2.35332E+00 7.26897E-14 1.37390E-14
 -1       473 1.69074E+01-5.22075E+00 7.67504E-02 7.08910E+00-1.45106E-13 2.22364E-13
 -1       474 1.60294E+01-5.54979E+00 6.11480E-02-6.76616E+00 6.90101E-13 3.52916E-13
 -1       475 2.03667E+01 8.33853E-01 4.03040E-03 9.69249E-01 4.48532E-13 2.57995E-13
 -1       476 1.97442E+01 3.11343E+00-5.35801E-03-6.30997E-01-3.65126E-14-6.66484E-13
 -1       477 1.98381E+01 2.93837E+00-5.82484E-03-9.46901E-01-1.40468E-13-6.88525E-13
 -1       478 1.96778E+01 3.23800E+00-5.02316E-03 8.95271E-03 1.94916E-13-6.34698E-13
 -1       479 1.96960E+01 3.20448E+00-5.10367E-03 3.28914E-01 2.77170E-13-5.97374E-13
 -1       480 1.97486E+01 3.10632E+00-5.41417E-03 6.43046E-01 3.66035E-13-5.42171E-13
 -1       481 1.98451E+01 2.92649E+00-5.97125E-03 9.57773E-01 4.67080E-13-4.14551E-13
 -1       482 1.99975E+01 2.63891E+00-6.52795E-03 1.25304E+00 5.25397E-13-2.67282E-13
 -1       483 2.02344E+01 2.19074E+00-5.68973E-03 1.49847E+00 5.75817E-13-7.56910E-14
 -1       484 2.01077E+01 4.57090E-01 5.08152E-03 4.58806E-01 3.44171E-13 1.95158E-13
 -1       485 2.03405E+01 9.78610E-01 2.93100E-03-9.39829E-01-3.66091E-13-3.15254E-13
 -1       486 2.96686E+01 1.18757E+00-1.44349E-01-1.37301E+00 1.97224E-13-1.88807E-13
 -1       487 2.01711E+01 5.49087E-01 1.94967E-03-4.61068E-01-3.02696E-13-2.59243E-13
 -1       488 2.00284E+01 3.12279E-01 1.08528E-03-1.54231E-01-2.51939E-13-2.39751E-13
 -1       489 1.99337E+01 1.74944E-01 4.68760E-04 3.54198E-02-2.20355E-13-2.11357E-13
 -1       490 1.98837E+01 9.47963E-02 1.99743E-04 1.49910E-01-1.35713E-13-1.98752E-13
 -1       491 1.98684E+01 5.02675E-02 8.56511E-05 2.18033E-01-1.10450E-13-2.41591E-13
 -1       492 1.98789E+01 2.95280E-02 4.39630E-05 2.59902E-01-1.08016E-13-2.59567E-13
 -1       493 1.99086E+01 2.58117E-02 4.33584E-05 2.89901E-01-1.01839E-13-2.30340E-13
 -1       494 1.99530E+01 3.51605E-02 7.27655E-05 3.18779E-01-5.28523E-14-1.81104E-13
 -1       495 2.00100E+01 5.53029E-02 1.27618E-04 3.54974E-01-1.15615E-13-1.89234E-13
 -1       496 2.00788E+01 8.50380E-02 2.05907E-04 4.05464E-01-6.21658E-14-1.20392E-13
 -1       497 2.01598E+01 1.23796E-01 3.06719E-04 4.76319E-01-7.68953E-14-1.21330E-13
 -1       498 2.02537E+01 1.71163E-01 4.28746E-04 5.72970E-01-1.19446E-14-1.49390E-13
 -1       499 2.03619E+01 2.26176E-01 5.67714E-04 7.00155E-01 1.10575E-14-2.12166E-13
 -1       500 2.04857E+01 2.86119E-01 7.11428E-04 8.61434E-01-6.73024E-14-2.59122E-13
 -1       501 2.06272E+01 3.44414E-01 8.31053E-04 1.05805E+00-1.35994E-15-2.00103E-13
 -1       502 2.07906E+01 3.87055E-01 8.68273E-04 1.28679E+00-1.03455E-13-3.17400E-13
 -1       503 2.09860E+01 3.87126E-01 7.17537E-04 1.53632E+00-3.79539E-14-2.51434E-13
 -1       504 2.12373E+01 2.97703E-01 2.04115E-04 1.78134E+00 1.00351E-13-4.04039E-13
 -1       505 2.15948E+01 4.65378E-02-8.03438E-04 1.97317E+00 2.68167E-13-3.82928E-13
 -1       506 2.21503E+01-4.56219E-01-2.40821E-03 2.02509E+00 2.40685E-13-3.01367E-13
 -1       507 2.30385E+01-1.26712E+00-3.95135E-03 1.79211E+00 1.81777E-13-1.03259E-13
 -1       508 2.43842E+01-2.26869E+00-4.86167E-03 1.06010E+00 1.64573E-13-4.70969E-14
 -1       509 2.61075E+01-2.92350E+00-1.08687E-02-3.57582E-01 3.24341E-14 2.04958E-15
 -1       510 2.76229E+01-1.98048E+00-6.05162E-02-2.20229E+00-1.31813E-13-6.70618E-14
 -1       511 2.82158E+01 1.19214E+00-1.18886E-01-3.16678E+00-2.87145E-13-2.12354E-13
 -1       512 2.81065E+01 4.67544E+00-1.62088E-01-1.51873E+00-3.99049E-13-6.44332E-13
 -1       513 2.81093E+01 4.55959E+00-1.64478E-01 1.62929E+00-5.18842E-13-9.88785E-13
 -1       514 2.81644E+01 1.04902E+00-1.26963E-01 3.17461E+00-2.62068E-13-8.25149E-13
 -1       515 2.76371E+01-2.09788E+00-4.69786E-02 2.21833E+00-1.32953E-13-5.60368E-13
 -1       516 2.60551E+01-2.88907E+00-8.93637E-03 3.00828E-01 1.87445E-13-5.44612E-13
 -1       517 2.43329E+01-2.23773E+00-4.14328E-03-1.09917E+00 3.01421E-13-2.80037E-13
 -1       518 2.30003E+01-1.23336E+00-3.51785E-03-1.80831E+00 3.12271E-13-3.47432E-14
 -1       519 2.21272E+01-4.31985E-01-1.72290E-03-2.02677E+00 5.10927E-13 4.08148E-13
 -1       520 2.15810E+01 6.15709E-02-6.35819E-04-1.96646E+00 1.73688E-13 4.67219E-13
 -1       521 2.12298E+01 3.07392E-01 2.57984E-04-1.76879E+00-7.03119E-14 1.61952E-13
 -1       522 2.09835E+01 3.94925E-01 7.33745E-04-1.51886E+00 2.09750E-15-1.33432E-13
 -1       523 2.07931E+01 3.95784E-01 8.86828E-04-1.26390E+00 4.79208E-14 2.10453E-13
 -1       524 2.06357E+01 3.56347E-01 8.60428E-04-1.02803E+00 8.67606E-15 4.02330E-13
 -1       525 2.05015E+01 3.03338E-01 7.57584E-04-8.21528E-01-2.21486E-13 2.83059E-13
 -1       526 2.03868E+01 2.50877E-01 6.37686E-04-6.46540E-01 1.34434E-13 2.46487E-13
 -1       527 2.02895E+01 2.05819E-01 5.24464E-04-5.00773E-01 3.45543E-13 1.21149E-13
 -1       528 2.02077E+01 1.71169E-01 4.17754E-04-3.79691E-01 4.08944E-13 5.19714E-14
 -1       529 2.01403E+01 1.47329E-01 4.16346E-04-2.77990E-01 1.06563E-13 5.61979E-14
 -1       530 1.98155E+01 1.38072E-01 1.06607E-03-3.58717E-02 2.31831E-13 1.14510E-13
 -1       531 1.97666E+01 7.25915E-02 4.33947E-04-1.44030E-01 2.11773E-13 6.11671E-14
 -1       532 1.97605E+01 3.61160E-02 1.75288E-04-2.05780E-01 1.78209E-13 4.08324E-14
 -1       533 1.97842E+01 1.80348E-02 7.12508E-05-2.41011E-01 1.06103E-13 3.70836E-14
 -1       534 1.98289E+01 1.23143E-02 4.08609E-05-2.63199E-01 7.75211E-14 6.87917E-14
 -1       535 1.98891E+01 1.51768E-02 5.37235E-05-2.81695E-01 1.28378E-13 1.20886E-14
 -1       536 1.99623E+01 2.39323E-02 9.39242E-05-3.03031E-01 1.96385E-13 2.99119E-14
 -1       537 2.00477E+01 3.63367E-02 1.48835E-04-3.31568E-01 1.21705E-13-6.45308E-14
 -1       538 2.01462E+01 5.01156E-02 2.05419E-04-3.69726E-01 9.82237E-14-7.93411E-14
 -1       539 2.02596E+01 6.25338E-02 2.48063E-04-4.17862E-01-5.26574E-15-1.21545E-13
 -1       540 2.03901E+01 6.99616E-02 2.56440E-04-4.73838E-01 4.05853E-14-1.09749E-13
 -1       541 2.05403E+01 6.74575E-02 2.04850E-04-5.32272E-01 1.89388E-13-1.29741E-13
 -1       542 2.07120E+01 4.85158E-02 6.27620E-05-5.83534E-01 4.19201E-14 4.41265E-14
 -1       543 2.09064E+01 5.28292E-03-2.01324E-04-6.12693E-01-1.02905E-13 1.17275E-13
 -1       544 2.11231E+01-7.01950E-02-6.07688E-04-5.98853E-01-9.64155E-14 1.86546E-13
 -1       545 2.13581E+01-1.82782E-01-1.14418E-03-5.15767E-01-6.26946E-14 1.43946E-13
 -1       546 2.16013E+01-3.28093E-01-1.72568E-03-3.35361E-01-1.87157E-13-4.40618E-14
 -1       547 2.18316E+01-4.83263E-01-2.20565E-03-3.65729E-02-1.37304E-14 1.75664E-13
 -1       548 2.20120E+01-5.97324E-01-2.27749E-03 3.78100E-01-4.39666E-14 1.82667E-13
 -1       549 2.20886E+01-5.90570E-01-1.64384E-03 8.58194E-01-6.37572E-14 1.43107E-13
 -1       550 2.20065E+01-3.81137E-01-5.71354E-04 1.28288E+00 3.68726E-14 9.13629E-14
 -1       551 2.17515E+01 5.34422E-02 1.03558E-03 1.47062E+00 2.50192E-14 8.57559E-14
 -1       552 2.13986E+01 6.04142E-01 2.03163E-03 1.25432E+00-3.50642E-14 2.02629E-13
 -1       553 2.11114E+01 1.03880E+00 2.13543E-03 6.04545E-01-2.45841E-14 9.21106E-14
 -1       554 2.10580E+01 1.11836E+00 2.41871E-03-2.80217E-01-3.94910E-15 6.34846E-14
 -1       555 2.12718E+01 7.95964E-01 2.75631E-03-1.05314E+00 2.62460E-13-3.13285E-14
 -1       556 2.16218E+01 2.57470E-01 1.77991E-03-1.44090E+00 2.19291E-13-1.30803E-13
 -1       557 2.19285E+01-2.42561E-01 8.67468E-05-1.38986E+00-6.06714E-15-7.56570E-14
 -1       558 2.20776E+01-5.39623E-01-1.41341E-03-1.03100E+00-1.37456E-13 9.68620E-14
 -1       559 2.20551E+01-6.14094E-01-2.28866E-03-5.54069E-01 1.30095E-13 1.87679E-13
 -1       560 2.19069E+01-5.34572E-01-2.48108E-03-1.06252E-01 4.75836E-14 1.73069E-13
 -1       561 2.16906E+01-3.86102E-01-2.08317E-03 2.37051E-01 5.93999E-14-1.04479E-13
 -1       562 2.14503E+01-2.31520E-01-1.43962E-03 4.57968E-01 6.53234E-14-3.60745E-13
 -1       563 2.12131E+01-1.03519E-01-8.09976E-04 5.70928E-01-1.09978E-14-3.41044E-13
 -1       564 2.09927E+01-1.20667E-02-3.01056E-04 6.02485E-01-3.06129E-13-4.99934E-15
 -1       565 2.07954E+01 4.53867E-02 5.83482E-05 5.79705E-01-7.27876E-14 3.93222E-13
 -1       566 2.06232E+01 7.64364E-02 2.79532E-04 5.25010E-01 5.41108E-14 2.59201E-13
 -1       567 2.04760E+01 8.95636E-02 3.96233E-04 4.54714E-01 5.29142E-14 3.63897E-13
 -1       568 2.03523E+01 9.22950E-02 4.41948E-04 3.79319E-01 1.61107E-13 2.16623E-13
 -1       569 2.02502E+01 9.04886E-02 4.75354E-04 3.04627E-01 1.26935E-13 2.07209E-13
 -1       570 2.01674E+01 8.83585E-02 5.78720E-04 2.33246E-01 1.56586E-13 3.06393E-13
 -1       571 2.01000E+01 8.69298E-02 5.45776E-04 1.65157E-01-3.85476E-14 4.33671E-13
 -1       572 1.99565E+01 3.22673E-01-8.39840E-05 2.12725E-01 7.51103E-14-4.98281E-14
 -1       573 1.99166E+01 3.84028E-01-1.54791E-04 1.67633E-01-4.66989E-14 3.56128E-13
 -1       574 2.00489E+01 1.76418E-01 5.33211E-05 2.16470E-01 7.81120E-14 1.45431E-13
 -1       575 2.00024E+01 2.51381E-01-1.18381E-05 2.29394E-01-3.14601E-14-3.14564E-13
 -1       576 1.98878E+01 4.28368E-01-2.14488E-04 9.92426E-02 1.49356E-14 2.45536E-13
 -1       577 1.98738E+01 4.50280E-01-2.48717E-04 1.58597E-02-1.67508E-13 8.60407E-14
 -1       578 1.98773E+01 4.46310E-01-2.42078E-04-7.18138E-02-1.43817E-13 8.44435E-14
 -1       579 1.98989E+01 4.16493E-01-1.95773E-04-1.50371E-01 1.24901E-13-8.18550E-13
 -1       580 1.99378E+01 3.62340E-01-1.03866E-04-2.10611E-01 2.80211E-13 3.86336E-14
 -1       581 1.99900E+01 2.89066E-01 2.77372E-05-2.40821E-01 1.03272E-13-1.04759E-13
 -1       582 2.00466E+01 2.05909E-01 2.52986E-04-2.35629E-01-1.17532E-13-7.31078E-14
 -1       583 5.46168E+00-1.21446E+00 1.85581E-01-1.92189E+00-1.60545E-13-3.65041E-13
 -1       584 1.99244E+01 2.52292E-01 2.49431E-03 1.49160E-01 2.68025E-13 1.69156E-13
 -1       585 5.31672E+00-1.44468E+00 1.71090E-01 2.75482E+00-3.58703E-13 1.43219E-13
 -1       586 2.47621E+01-4.97662E+00-2.18924E-02 4.20357E+00-2.19401E-13-3.00419E-14
 -1       587 9.44499E+00-2.93131E+00 1.59712E-01 6.09962E+00-3.57901E-13-9.34322E-14
 -1       588 6.23459E+00-1.50824E+00 1.85319E-01 3.06763E+00 6.43513E-14-9.20639E-13
 -1       589 1.96933E+01 3.20884E+00-5.09705E-03-3.11181E-01 8.39662E-14-6.56254E-13
 -1       590 3.04170E+01 7.64047E+00-1.65107E-01 3.74530E-02 7.70148E-13-2.75721E-14
 -1       591 3.20956E+01 1.90573E+00-1.24081E-01-2.07438E+00-5.58963E-13-1.66561E-13
 -1       592 3.04790E+01 6.28136E+00-1.50721E-01-1.30636E+00 6.61957E-13-1.97134E-13
 -1       593 3.07983E+01 5.62861E+00-1.44311E-01 1.40900E+00 6.79928E-13 1.38924E-13
 -1       594 2.99641E+01 7.90998E-01-1.18943E-01 1.02146E+00 1.66041E-13 3.78343E-13
 -1       595 2.83074E+01-2.96061E+00-4.28155E-02-1.99908E+00 1.02279E-14 3.65784E-13
 -1       596 2.31528E+01-5.29087E+00 7.65623E-03-5.18737E+00-3.77781E-13 1.08524E-14
 -1       597 1.45387E+01-4.45443E+00 1.16820E-01-7.06295E+00-5.28334E-13-6.57020E-13
 -1       598 8.59129E+00-2.74031E+00 1.59665E-01-5.83147E+00-4.07480E-13-7.89729E-13
 -1       599 4.66833E+00-1.42610E+00 1.70797E-01-1.92110E+00-1.22461E-13-1.00080E-12
 -1       600 1.16182E+01-3.77560E+00 1.33656E-01 6.22143E+00 1.67831E-13-4.23162E-13
 -1       601 1.82495E+01-5.45835E+00 7.04114E-02 6.30444E+00 2.07417E-13-2.57429E-13
 -1       602 2.55165E+01-5.59567E+00 3.76492E-03 3.71545E+00-1.00094E-13 4.90233E-14
 -1       603 3.01283E+01-2.92078E+00-7.02064E-02 3.64008E-02-3.89127E-13 1.50768E-13
 -1       604 3.20948E+01 5.73520E+00-1.38716E-01-1.72850E+00-7.29791E-13-5.54584E-13
 -1       605 3.18663E+01 6.91509E+00-1.49780E-01 5.12712E-01-5.98493E-13-8.89188E-13
 -1       606 3.20952E+01 5.08493E+00-1.34014E-01 1.95308E+00-3.86843E-13-7.61620E-13
 -1       607 3.14351E+01 2.45144E-01-1.14754E-01 1.93418E+00-1.01447E-13-5.72598E-13
 -1       608 2.87170E+01-4.31600E+00-6.56362E-02-1.02258E+00 1.35910E-13-7.49296E-13
 -1       609 2.51493E+01-5.66676E+00 4.06214E-02-3.89168E+00 7.35190E-13-1.07931E-13
 -1       610 1.02369E+01-2.52200E+00 1.72884E-01-5.41810E+00 4.22676E-13 2.66662E-13
 -1       611 2.03889E+01 1.77307E+00-5.66794E-03-1.54421E+00-4.30979E-13-4.11214E-13
 -1       612 2.05761E+01 1.30595E+00-9.89255E-04 1.54655E+00 5.58376E-13 3.84093E-13
 -1       613 2.86705E+01-2.45477E+00-5.73105E-02 1.16164E+00-1.08076E-13 1.31485E-13
 -1       614 1.99852E+01 2.66764E+00-6.60125E-03-1.25095E+00-2.55184E-13-6.64183E-13
 -1       615 2.18810E+01-5.18259E+00 5.00096E-02 5.29536E+00-1.33060E-13-2.79351E-14
 -1       616 2.01011E+01 1.35387E-01 4.33602E-04-2.15905E-01-5.74745E-14 1.36609E-13
 -1       617 1.44841E+01-3.63269E+00 1.18051E-01 6.58101E+00-3.45071E-14 1.56174E-13
 -1       618 1.98707E+01-4.90945E+00 6.00521E-02-5.91066E+00-5.17975E-13-1.48928E-13
 -1       619 1.99707E+01 2.46518E+00-1.58570E-03 3.90506E-01 2.98304E-13-4.99293E-13
 -1       620 1.99391E+01 2.54156E+00-1.50742E-03 1.34676E-01 2.02544E-13-5.50048E-13
 -1       621 2.01284E+01 2.05608E+00-1.57225E-03 8.43590E-01 4.49008E-13-2.92517E-13
 -1       622 2.02431E+01 1.68278E+00-2.25352E-03 9.86596E-01 4.84364E-13-1.51081E-13
 -1       623 2.03198E+01 1.04208E+00 2.93295E-03 8.25565E-01 4.23930E-13-1.83826E-14
 -1       624 1.01649E+01-7.22991E-01 1.41835E-01 4.12004E+00-3.60847E-13-9.94343E-14
 -1       625 2.02085E+01 6.22745E-01 1.07672E-03 4.09656E-01 3.31757E-13-5.13585E-14
 -1       626 2.74010E+01 6.22394E+00-1.55845E-01-8.74279E-01 6.82593E-13 4.21278E-15
 -1       627 2.02457E+01 6.84633E-01 2.69356E-04-3.81267E-01-2.40648E-13-3.37844E-13
 -1       628 2.01765E+01 4.10386E-01 1.66308E-04-1.19635E-01-1.94555E-13-2.75966E-13
 -1       629 2.01155E+01 2.39552E-01 5.62856E-05 5.37704E-02-1.49121E-13-2.16060E-13
 -1       630 2.00708E+01 1.36959E-01 1.89539E-05 1.64941E-01-1.38374E-13-2.10857E-13
 -1       631 2.00429E+01 8.05818E-02 6.85031E-06 2.36155E-01-9.72169E-14-1.98077E-13
 -1       632 2.00293E+01 5.70742E-02 5.79415E-06 2.84642E-01-1.14936E-13-1.93313E-13
 -1       633 2.00270E+01 5.81925E-02 1.25218E-05 3.23787E-01-2.32531E-14-1.51293E-13
 -1       634 2.00332E+01 7.88229E-02 2.65662E-05 3.64058E-01-6.64373E-14-1.12613E-13
 -1       635 2.00454E+01 1.15892E-01 4.77710E-05 4.13831E-01-7.95172E-14-8.97098E-14
 -1       636 2.00611E+01 1.67637E-01 7.62943E-05 4.80010E-01-7.07107E-14-9.59548E-14
 -1       637 2.00776E+01 2.32961E-01 1.12397E-04 5.68446E-01-6.72609E-14-4.45096E-14
 -1       638 2.00919E+01 3.10632E-01 1.56279E-04 6.84138E-01-4.47873E-14-6.99719E-14
 -1       639 2.01003E+01 3.98080E-01 2.07676E-04 8.31219E-01-4.71845E-14-1.86379E-13
 -1       640 2.00989E+01 4.89447E-01 2.63470E-04 1.01274E+00-4.56687E-14-1.56214E-13
 -1       641 2.00854E+01 5.72326E-01 3.13908E-04 1.23031E+00-8.68046E-14-1.52154E-13
 -1       642 2.00621E+01 6.22544E-01 3.40312E-04 1.48364E+00-4.07065E-14-1.64323E-13
 -1       643 2.00441E+01 5.96609E-01 3.07157E-04 1.76991E+00-6.07043E-14-1.25176E-13
 -1       644 2.00734E+01 4.22216E-01 1.43382E-04 2.08237E+00 9.94825E-14-1.78411E-13
 -1       645 2.02428E+01-9.13807E-03 3.49912E-04 2.40401E+00 3.34161E-13-3.27597E-13
 -1       646 2.07262E+01-8.31351E-01 1.26591E-03 2.68550E+00 3.06083E-13-3.18644E-13
 -1       647 2.18158E+01-2.13532E+00 7.95778E-03 2.78878E+00 2.73668E-13-3.16454E-13
 -1       648 2.38327E+01-3.72604E+00 2.34176E-02 2.36964E+00 1.80781E-13-2.26796E-13
 -1       649 2.66364E+01-4.36536E+00-2.63274E-02-9.92886E-01 2.73268E-13-1.32950E-13
 -1       650 2.37664E+01-3.69359E+00 4.31187E-03-2.37203E+00 2.68530E-13 1.34942E-13
 -1       651 2.17523E+01-2.06405E+00 8.36056E-03-2.77992E+00 4.09045E-13 1.03204E-13
 -1       652 2.07068E+01-7.90008E-01 4.66304E-03-2.67494E+00 5.09650E-13 3.13669E-13
 -1       653 2.02343E+01 1.75744E-02 9.18158E-04-2.38875E+00 2.36923E-13 6.94774E-14
 -1       654 2.00742E+01 4.38957E-01 2.86366E-04-2.06412E+00-7.29835E-14-1.08571E-13
 -1       655 2.00494E+01 6.08984E-01 2.79897E-04-1.74893E+00-1.43338E-13-1.34120E-13
 -1       656 2.00697E+01 6.35127E-01 2.99209E-04-1.45858E+00 7.00153E-14 2.02700E-13
 -1       657 2.00947E+01 5.88640E-01 2.78301E-04-1.19917E+00 8.27242E-14 1.64129E-13
 -1       658 2.01100E+01 5.12493E-01 2.37662E-04-9.72849E-01-1.79625E-13 1.91202E-14
 -1       659 2.01132E+01 4.30786E-01 1.97513E-04-7.79213E-01 1.69461E-14 4.07471E-13
 -1       660 2.01064E+01 3.56166E-01 1.60937E-04-6.15894E-01 2.96570E-13 5.62737E-13
 -1       661 2.00931E+01 2.94092E-01 1.48847E-04-4.79299E-01 5.48124E-14 4.73551E-13
 -1       662 2.00743E+01 2.49121E-01 3.53506E-04-3.66748E-01 6.41822E-14 4.50692E-14
 -1       663 1.99920E+01 1.16428E-01 7.16071E-05-1.60480E-01 1.88760E-13 6.07311E-15
 -1       664 2.00380E+01 2.10549E-01 2.68195E-04-4.78131E-02 2.20727E-13-3.80067E-14
 -1       665 1.99664E+01 3.92787E-02 1.87995E-05-2.73918E-01 1.04876E-13-1.63222E-14
 -1       666 1.99784E+01 3.37556E-02 1.85632E-05-3.06057E-01 1.54086E-13-1.05087E-13
 -1       667 2.00025E+01 4.17652E-02 2.90729E-05-3.35845E-01 1.43804E-13-6.45223E-14
 -1       668 2.00370E+01 5.88729E-02 4.66821E-05-3.70125E-01 1.74236E-13-2.76010E-14
 -1       669 2.00815E+01 8.10666E-02 6.74599E-05-4.13434E-01 1.16316E-13 3.19142E-14
 -1       670 2.01367E+01 1.04014E-01 8.71521E-05-4.68116E-01 9.40230E-14 7.93663E-14
 -1       671 2.02045E+01 1.22366E-01 1.00071E-04-5.34134E-01 3.72880E-14 3.93511E-14
 -1       672 2.02883E+01 1.29042E-01 9.78645E-05-6.08579E-01 8.61818E-14 1.51899E-14
 -1       673 2.03931E+01 1.14609E-01 7.07118E-05-6.84836E-01 5.14880E-15 1.00069E-13
 -1       674 2.05262E+01 6.71000E-02 5.27442E-06-7.51460E-01-7.75223E-14 9.88157E-14
 -1       675 2.06976E+01-2.71789E-02-1.16733E-04-7.90946E-01-1.23739E-13 8.53814E-14
 -1       676 2.09192E+01-1.80807E-01-3.09056E-04-7.78624E-01-1.08205E-13 1.45455E-13
 -1       677 2.12025E+01-3.98610E-01-5.67919E-04-6.82519E-01-5.83117E-14 2.31199E-13
 -1       678 2.15520E+01-6.65455E-01-8.09001E-04-4.66194E-01-5.56806E-14 1.17736E-13
 -1       679 2.19524E+01-9.28742E-01-1.04212E-03-9.83968E-02-3.67884E-14 1.06613E-13
 -1       680 2.23523E+01-1.08120E+00-9.61952E-04 4.24864E-01-1.23498E-13 1.34576E-13
 -1       681 2.26508E+01-9.62713E-01-3.84297E-04 1.03839E+00-2.68010E-14 1.66104E-13
 -1       682 2.27260E+01-4.33900E-01-1.53254E-03 1.56126E+00 2.03147E-14 2.72330E-13
 -1       683 2.25352E+01 4.80115E-01-1.72604E-03 1.70159E+00-2.45606E-14 1.43513E-13
 -1       684 2.21849E+01 1.48540E+00-3.28516E-03 1.24083E+00-3.80685E-15 2.65568E-13
 -1       685 2.19723E+01 2.02491E+00-4.98775E-03 2.21629E-01 1.32410E-13 2.57587E-13
 -1       686 2.20729E+01 1.77143E+00-2.55892E-03-9.03592E-01 1.85554E-13-1.66576E-14
 -1       687 2.24080E+01 8.75199E-01-1.67866E-03-1.60201E+00 4.04539E-13-1.99655E-14
 -1       688 2.26824E+01-1.24753E-01-1.66947E-03-1.67426E+00 2.30221E-13-1.50577E-13
 -1       689 2.27119E+01-8.16890E-01-5.71913E-04-1.25658E+00-1.56914E-13-3.19046E-13
 -1       690 2.24835E+01-1.07594E+00-4.22163E-04-6.49672E-01-7.51232E-14-2.88483E-13
 -1       691 2.21080E+01-1.00498E+00-8.96528E-04-8.05621E-02-1.98324E-15-1.62152E-13
 -1       692 2.16993E+01-7.66501E-01-8.83405E-04 3.46579E-01 2.68300E-13-1.55528E-14
 -1       693 2.13280E+01-4.90081E-01-6.17704E-04 6.14475E-01 9.64609E-14 2.44393E-14
 -1       694 2.10213E+01-2.48067E-01-3.74906E-04 7.47709E-01-3.12712E-14 5.56881E-14
 -1       695 2.07800E+01-6.70170E-02-1.81771E-04 7.82334E-01-3.09564E-13 1.75763E-13
 -1       696 2.05942E+01 5.26011E-02-3.26477E-05 7.52021E-01-2.93474E-13-3.12580E-14
 -1       697 2.04519E+01 1.21826E-01 6.52129E-05 6.83613E-01-4.90755E-15-5.33897E-15
 -1       698 2.03421E+01 1.54816E-01 1.17241E-04 5.96514E-01 3.92909E-14 1.60484E-13
 -1       699 2.02564E+01 1.64831E-01 1.34471E-04 5.03587E-01 1.68819E-13-1.17898E-13
 -1       700 2.01885E+01 1.62854E-01 1.52038E-04 4.12268E-01 6.33347E-14 5.54035E-14
 -1       701 2.01339E+01 1.56779E-01 2.33058E-04 3.26189E-01 1.88719E-14 1.01515E-13
 -1       702 2.00859E+01 1.66532E-01 1.92683E-04 2.71033E-01 1.55590E-13 1.71164E-13
 -1       703 1.97953E+01 4.73263E-01-7.22406E-05 8.04976E-02-4.23470E-14-2.05340E-13
 -1       704 2.00613E+01 2.24429E-01 1.33509E-04-2.99196E-01 1.53900E-13-1.57887E-13
 -1       705 1.98903E+01 3.73833E-01-2.64173E-05 2.49953E-01 9.02188E-14 2.23399E-13
 -1       706 1.97850E+01 4.87563E-01-1.13997E-04-2.98765E-02-5.03818E-14 5.17470E-14
 -1       707 1.98323E+01 4.33545E-01-4.35757E-05 1.77527E-01 2.20879E-13 3.92804E-13
 -1       708 1.98043E+01 4.73652E-01-1.14589E-04-1.37929E-01-1.33688E-13-2.80880E-13
 -1       709 1.98540E+01 4.30728E-01-6.79454E-05-2.32460E-01-1.09074E-13-4.13885E-13
 -1       710 1.99274E+01 3.63098E-01-1.47666E-04-2.99357E-01-1.61676E-13-2.69469E-14
 -1       711 2.01110E+01 3.67400E-01 6.72418E-04 1.31982E-01 2.68543E-13-6.74317E-14
 -1       712 1.63801E+01-3.74464E+00 1.15476E-01-5.78140E+00 4.77701E-13 4.75977E-13
 -1       713 2.75715E+01-4.44796E+00-2.56138E-02 7.32100E-01-4.02898E-14 1.54536E-13
 -1       714 2.97446E+01-1.49035E+00-7.41624E-02-1.84752E+00-2.55466E-13 2.71588E-14
 -1       715 1.99695E+01 6.40831E-02 3.56626E-05-2.29803E-01 1.45066E-13 1.57206E-14
 -1       716 2.02934E+01 1.13282E+00 8.82770E-04-7.55820E-01-2.75508E-13-4.22569E-13
 -1       717 2.00336E+01 2.30805E+00-1.66348E-03 6.32770E-01 3.84071E-13-3.96426E-13
 -1       718 2.00266E+01 2.32105E+00-1.86610E-03-6.23011E-01-9.66055E-14-6.00582E-13
 -1       719 8.01346E+00 2.32787E-01 1.48099E-01 5.62257E-01-3.38091E-13-1.71807E-13
 -1       720 2.70858E+01 5.81950E+00-1.52031E-01 1.20495E+00 6.23716E-13 2.55365E-13
 -1       721 1.11325E+01-1.53029E+00 1.16794E-01 4.59640E+00 1.99885E-13-4.61214E-13
 -1       722 2.75938E+01 2.86872E+00-1.21430E-01 2.16306E+00 3.02994E-13 3.58269E-13
 -1       723 2.77995E+01-2.06888E+00-7.21578E-02 2.66187E-01-6.13277E-14 5.28470E-13
 -1       724 2.56767E+01-4.45537E+00-1.72544E-02-2.46272E+00-1.98832E-13 3.07601E-13
 -1       725 1.36696E+01-2.50469E+00 1.20925E-01-5.92749E+00-4.71539E-13-5.54088E-13
 -1       726 2.28741E+01-5.18085E+00 3.66301E-02 4.20157E+00 2.78579E-13-4.86316E-14
 -1       727 2.74950E+01 3.54069E+00-1.27205E-01-2.10831E+00 3.69101E-13-1.51046E-13
 -1       728 8.86975E+00-6.47007E-01 1.46248E-01-3.67620E+00-1.85444E-13-7.57817E-13
 -1       729 1.67424E+01-3.67274E+00 9.61965E-02 5.71534E+00 3.23411E-13-2.45966E-13
 -1       730 7.99809E+00 1.93627E-01 1.55130E-01 2.65244E-01 9.50000E-15-9.46805E-13
 -1       731 9.77243E+00-4.72768E-01 1.41056E-01-3.16417E+00 1.35204E-14-4.83814E-13
 -1       732 2.01170E+01 2.07770E+00-2.25159E-03-8.39003E-01-1.73454E-13-5.84394E-13
 -1       733 1.99376E+01 2.54375E+00-1.61969E-03-1.24057E-01 1.22073E-13-5.64168E-13
 -1       734 2.78703E+01-1.58989E+00-7.69435E-02-7.71132E-01-7.42427E-14-1.94234E-13
 -1       735 2.51285E+01-4.65131E+00-3.62489E-03 2.66420E+00-3.19737E-13 5.74003E-14
 -1       736 1.99615E+01 3.01052E-01-9.57929E-05 2.89954E-01 4.52322E-14-1.93793E-13
 -1       737 1.33780E+01-1.57322E+00 9.29197E-02 5.06449E+00-2.85744E-13 3.98528E-13
 -1       738 2.02599E+01 1.61009E+00-8.04722E-04-9.88970E-01-2.79093E-13-5.15841E-13
 -1       739 2.00260E+01 2.34039E-01 1.06135E-05 2.92893E-01-1.85710E-14-1.31555E-13
 -1       740 2.32006E+01-4.76901E+00 2.94131E-02-3.86388E+00-4.47569E-13 1.29812E-13
 -1       741 1.89817E+01-4.20430E+00 6.20461E-02 5.68627E+00 3.33761E-14-3.29736E-14
 -1       742 1.78413E+01-3.51401E+00 5.57996E-02-5.57130E+00-5.73472E-13-3.48232E-13
 -1       743 1.07623E+01 1.97380E-01 9.02079E-02 2.39673E+00 1.32032E-13-5.42195E-13
 -1       744 1.36549E+01-1.68311E+00 4.31411E-02-4.81726E+00 1.79627E-13 2.09621E-13
 -1       745 1.99664E+01 2.47238E+00-1.80186E-03-3.79055E-01 2.09781E-14-5.35631E-13
 -1       746 2.67347E+01 9.21425E-01-7.83243E-02-2.14769E+00 4.65392E-14-2.86519E-13
 -1       747 2.68595E+01 4.53623E-02-6.75980E-02 1.97029E+00 1.22751E-13 1.80279E-13
 -1       748 2.09237E+01-4.95731E+00 6.80218E-02-4.99686E+00 6.09273E-13 1.69002E-13
 -1       749 1.11722E+01 5.58121E-01 7.90250E-02 1.96573E+00-3.08588E-13-1.23655E-13
 -1       750 2.02723E+01 1.32230E+00 8.15191E-04 6.23262E-01 4.11652E-13-2.02916E-13
 -1       751 2.51491E+01 5.21923E+00-9.94952E-02 8.28376E-02 5.48530E-13-8.00152E-14
 -1       752 2.02716E+01 4.65175E-01 4.41472E-05-6.58247E-02-1.43563E-13-3.60566E-13
 -1       753 2.02312E+01 2.81001E-01-1.72498E-05 7.71550E-02-1.31005E-13-3.12352E-13
 -1       754 2.01894E+01 1.69376E-01-1.07434E-05 1.73831E-01-1.06161E-13-2.97389E-13
 -1       755 2.01503E+01 1.10540E-01-5.59283E-06 2.39642E-01-6.29008E-14-2.64530E-13
 -1       756 2.01147E+01 9.12773E-02-1.84987E-06 2.88415E-01-2.97806E-14-1.79887E-13
 -1       757 2.00816E+01 1.02727E-01 1.72356E-06 3.31395E-01-3.70392E-14-1.58544E-13
 -1       758 2.00489E+01 1.39099E-01 5.86076E-06 3.77557E-01-7.31644E-15-1.28860E-13
 -1       759 2.00131E+01 1.96719E-01 1.13378E-05 4.34072E-01-5.08272E-14-1.02692E-14
 -1       760 1.99700E+01 2.73235E-01 1.90594E-05 5.06682E-01-8.15007E-14-4.44689E-14
 -1       761 1.99139E+01 3.66806E-01 2.89877E-05 6.00010E-01-1.13937E-13-4.99310E-14
 -1       762 1.98379E+01 4.75001E-01 4.22578E-05 7.17790E-01-9.71197E-14-1.09587E-13
 -1       763 1.97336E+01 5.93247E-01 6.03846E-05 8.63066E-01-4.53158E-14-7.54809E-14
 -1       764 1.95918E+01 7.12527E-01 8.11322E-05 1.03877E+00-1.06963E-13-8.89099E-14
 -1       765 1.94044E+01 8.15556E-01 9.93391E-05 1.24906E+00-9.87782E-14-1.43180E-13
 -1       766 1.91678E+01 8.71079E-01 1.23182E-04 1.50180E+00-5.28653E-14-1.09135E-13
 -1       767 1.88914E+01 8.25861E-01 2.04125E-04 1.81312E+00 6.45524E-14-7.82213E-14
 -1       768 1.86120E+01 5.93933E-01 3.79241E-04 2.21390E+00 1.18003E-13 7.43959E-14
 -1       769 1.84252E+01 3.90296E-02 2.60414E-03 2.75520E+00 2.62166E-13-1.79892E-13
 -1       770 1.85589E+01-1.01260E+00 1.68468E-02 3.45620E+00 2.05270E-13-2.40059E-13
 -1       771 1.98396E+01-2.93284E+00 4.75393E-02 4.20084E+00 3.60325E-13-2.87177E-13
 -1       772 2.02873E+01 1.18438E+00 5.90789E-04-5.55616E-01-1.72687E-13-4.69269E-13
 -1       773 2.00585E+01-2.77813E+00 6.67569E-02-4.18815E+00 4.45559E-13 3.77962E-13
 -1       774 1.89410E+01-1.08834E+00 5.23329E-03-3.44609E+00 3.92669E-13 2.69237E-13
 -1       775 1.87214E+01 5.11536E-03 3.51224E-03-2.73297E+00 2.48360E-13-2.59247E-13
 -1       776 1.88421E+01 5.58451E-01 1.03823E-03-2.21824E+00-4.33610E-14-4.04286E-13
 -1       777 1.90669E+01 7.97478E-01 3.53615E-04-1.82433E+00-9.66409E-14-2.81826E-13
 -1       778 1.93030E+01 8.50705E-01 2.43413E-04-1.50866E+00 2.86260E-13-3.08680E-13
 -1       779 1.95082E+01 8.04907E-01 1.89503E-04-1.24617E+00 1.07381E-13-3.50986E-14
 -1       780 1.96705E+01 7.13893E-01 1.45644E-04-1.02305E+00-8.38273E-14-1.06152E-13
 -1       781 1.97913E+01 6.09267E-01 1.10640E-04-8.32273E-01 1.63844E-13 3.15427E-13
 -1       782 1.98771E+01 5.08696E-01 7.96910E-05-6.69685E-01 8.11154E-14 3.21133E-13
 -1       783 1.99355E+01 4.21707E-01 1.30970E-04-5.32632E-01 1.03321E-13 8.80657E-14
 -1       784 1.99707E+01 3.52735E-01-8.80849E-05-4.16674E-01-9.21758E-14-1.86577E-14
 -1       785 1.26568E+01-7.72104E-01 8.46226E-02-4.26805E+00-3.44452E-13-5.26558E-13
 -1       786 2.00645E+01 6.55595E-02 5.46398E-06-3.25123E-01 1.09653E-13-1.00813E-13
 -1       787 2.00811E+01 6.63796E-02 9.02537E-07-2.86631E-01 1.63065E-13-1.25117E-13
 -1       788 2.00510E+01 1.10311E-01 1.64746E-05-4.09133E-01 8.24088E-14 2.06101E-14
 -1       789 2.00533E+01 1.43872E-01 2.27555E-05-4.65482E-01 8.09452E-14-5.28816E-14
 -1       790 2.00630E+01 1.76206E-01 2.92702E-05-5.35194E-01 7.17270E-14-4.21652E-14
 -1       791 2.00829E+01 1.98917E-01 3.46726E-05-6.18437E-01 8.96095E-14-7.22982E-14
 -1       792 2.01188E+01 2.00878E-01 3.63491E-05-7.12784E-01-2.28965E-14 4.51910E-14
 -1       793 2.01800E+01 1.67471E-01 3.37950E-05-8.12323E-01 1.19235E-14-6.50504E-15
 -1       794 2.02813E+01 8.06210E-02 1.88081E-05-9.06438E-01-1.05938E-13-8.28125E-14
 -1       795 2.04437E+01-7.98653E-02-3.56432E-05-9.78077E-01-1.97236E-13-7.58032E-14
 -1       796 2.06949E+01-3.31823E-01-1.47819E-04-1.00097E+00-1.82065E-13 3.20802E-14
 -1       797 2.10657E+01-6.79926E-01-3.04385E-04-9.36357E-01-6.30722E-14 1.57200E-13
 -1       798 2.15783E+01-1.09554E+00-3.47228E-04-7.31578E-01-5.96624E-14 6.36771E-14
 -1       799 2.22246E+01-1.48725E+00-6.76919E-04-3.28345E-01-1.54338E-13 2.30761E-13
 -1       800 2.29265E+01-1.66384E+00-1.11845E-03 3.13096E-01-5.65162E-14 2.98212E-13
 -1       801 2.35145E+01-1.34492E+00-9.84448E-04 1.11810E+00 2.22890E-14 3.57923E-13
 -1       802 2.37504E+01-2.70013E-01 5.04369E-03 1.82975E+00 2.06419E-14 4.25778E-13
 -1       803 2.34359E+01 1.40765E+00-2.24880E-02 1.90813E+00 1.05450E-13 1.34497E-13
 -1       804 2.30815E+01 2.84162E+00-2.31174E-02 1.01349E+00 4.01111E-14-1.87947E-14
 -1       805 2.30021E+01 3.11105E+00-2.55286E-02-4.75810E-01 3.22868E-13-8.04998E-14
 -1       806 2.32889E+01 2.04861E+00-2.68570E-02-1.68586E+00 2.57948E-13-1.66561E-13
 -1       807 2.37132E+01 3.43430E-01 5.34235E-03-1.97175E+00 3.29162E-13-2.52656E-14
 -1       808 2.36507E+01-1.03593E+00-4.07643E-03-1.41055E+00 2.33970E-13-3.06829E-15
 -1       809 2.31770E+01-1.61832E+00 1.79365E-04-6.02084E-01-1.44473E-13-2.96315E-13
 -1       810 2.24918E+01-1.59055E+00-5.51771E-06 1.15564E-01-1.73958E-13-1.26096E-13
 -1       811 2.18098E+01-1.25090E+00-4.19792E-04 6.07065E-01-5.99276E-14-2.41668E-14
 -1       812 2.12425E+01-8.25226E-01-2.17977E-04 8.77013E-01 9.53398E-14 1.12382E-13
 -1       813 2.08212E+01-4.42392E-01-6.51639E-05 9.83553E-01-1.48219E-14 1.61740E-13
 -1       814 2.05299E+01-1.49922E-01-3.33174E-05 9.83779E-01-2.03495E-13 1.60244E-13
 -1       815 2.03386E+01 4.86131E-02-1.19850E-08 9.20662E-01-2.46282E-13-1.29965E-13
 -1       816 2.02178E+01 1.67959E-01 3.28235E-05 8.24164E-01-1.37137E-13-2.07679E-13
 -1       817 2.01438E+01 2.28584E-01 5.28954E-05 7.13948E-01-7.48744E-14-3.23571E-13
 -1       818 2.00991E+01 2.50044E-01 4.50980E-05 6.02209E-01 6.86025E-14-3.11069E-13
 -1       819 2.00716E+01 2.49147E-01 6.26580E-05 4.96350E-01 5.14532E-14 1.01836E-14
 -1       820 2.00536E+01 2.37590E-01 3.65571E-05 3.99032E-01 1.14153E-13-2.38489E-13
 -1       821 2.00376E+01 2.35494E-01-1.33079E-04 3.44214E-01-1.74138E-13-1.13399E-13
 -1       822 2.01470E+01 1.91361E+00-3.06224E-04 1.95335E-01 2.04938E-13-4.69331E-13
 -1       823 1.98224E+01 4.55122E-01-6.32900E-06-3.34015E-01-2.70306E-13-1.43465E-13
 -1       824 1.96776E+01 5.37900E-01-4.14175E-05 4.19316E-02 1.12324E-13-3.77468E-13
 -1       825 2.25998E+01-4.50348E+00 2.33417E-02 3.90097E+00-1.82965E-13-2.24785E-13
 -1       826 1.97305E+01 5.16195E-01-3.67897E-05-2.27727E-01-3.45719E-13-4.22543E-13
 -1       827 2.00547E+01 8.22309E-02 1.08134E-05-3.63808E-01 9.19574E-14-3.32648E-14
 -1       828 1.10441E+01 7.41814E-01 8.27704E-02-1.14208E+00-3.97907E-14-7.20903E-13
 -1       829 2.52997E+01 3.44347E+00-8.95927E-02 1.87697E+00 3.36169E-13 2.70500E-13
 -1       830 2.01810E+01 2.60936E-01-7.66864E-05-6.93542E-02 2.01157E-13-1.11212E-13
 -1       831 2.02829E+01 9.52440E-01-7.25750E-05 5.41384E-01 3.77957E-13-1.49063E-13
 -1       832 2.02974E+01 7.47695E-01-7.81098E-04-2.73684E-01-1.79543E-13-3.86883E-13
 -1       833 2.02309E+01 1.60156E+00-2.87627E-04-7.11618E-01-1.75653E-13-5.43238E-13
 -1       834 1.56926E+01-1.42619E+00 6.36185E-02 4.44308E+00 4.00556E-13-9.53699E-14
 -1       835 2.59268E+01-3.29390E+00-1.02115E-02-3.65390E-01-6.31279E-14 1.30583E-13
 -1       836 1.03440E+01 5.09614E-01 9.41071E-02-1.71406E+00 4.26074E-14-6.17093E-13
 -1       837 2.49102E+01-4.86608E+00 2.49677E-02-2.77908E+00 4.18169E-13-1.42946E-13
 -1       838 2.50690E+01 3.97297E+00-9.11468E-02-1.54351E+00 3.40554E-13-1.83070E-13
 -1       839 1.96817E+01 5.43695E-01-9.64049E-05-9.65127E-02-2.09215E-13-3.36025E-15
 -1       840 2.58389E+01-2.97406E+00-1.86780E-02 1.45413E-01 4.14599E-15-2.60356E-14
 -1       841 2.01352E+01 1.95276E+00-2.29868E-04 3.79357E-03 1.34170E-13-4.82672E-13
 -1       842 2.02307E+01 1.59811E+00-3.65931E-05 5.26278E-01 3.82154E-13-2.80271E-13
 -1       843 2.02389E+01 5.90581E-01-1.44806E-05 2.41562E-01 2.85348E-13-1.80773E-13
 -1       844 2.01796E+01 1.79765E+00-2.67428E-04 3.74396E-01 3.05439E-13-3.61135E-13
 -1       845 2.01387E+01 1.52071E-01-3.40329E-05-1.72119E-01 1.55157E-13-1.18692E-13
 -1       846 2.45529E+01-3.66733E+00 5.50348E-03 1.40864E+00-5.44679E-14 4.08022E-13
 -1       847 1.29268E+01-1.44955E-02 5.56862E-02 3.22279E+00-2.34551E-13 1.20903E-13
 -1       848 2.01613E+01 1.86845E+00-5.58379E-04-5.65197E-01-1.02935E-13-5.60259E-13
 -1       849 1.57345E+01-1.78646E+00 4.83053E-02-4.77392E+00-3.84386E-13-3.98319E-13
 -1       850 1.30874E+01 5.18809E-02 6.12709E-02-3.14637E+00 4.72842E-15-3.32640E-13
 -1       851 1.67898E+01-2.45615E+00 4.89689E-02 5.07307E+00-2.75028E-13 1.85584E-13
 -1       852 2.01055E+01 9.19901E-02 7.24318E-07-2.39532E-01 1.34324E-13-1.13810E-13
 -1       853 1.97885E+01 4.40151E-01 6.28433E-06 2.74604E-01 2.57586E-13 3.57353E-13
 -1       854 1.97158E+01 5.01135E-01-3.05334E-05 1.70804E-01 1.92001E-13-2.04310E-13
 -1       855 2.02084E+01 3.96560E-01 1.21199E-04 5.93077E-02 1.97334E-13-1.59536E-13
 -1       856 2.01071E+01 2.04506E+00-7.11778E-04-3.77425E-01-1.62988E-14-4.80729E-13
 -1       857 1.98847E+01 3.63053E-01 7.14118E-05 3.42055E-01 2.71307E-13 5.89458E-14
 -1       858 2.56511E+01-1.27299E+00-2.45709E-02-1.43248E+00 1.40133E-13 5.61452E-14
 -1       859 1.13794E+01 8.97748E-01 5.27037E-02 3.89057E-01 1.14751E-13-7.54081E-13
 -1       860 2.03439E+01 7.57047E-01 1.76348E-04-1.68240E-01-1.13643E-13-3.74858E-13
 -1       861 1.99307E+01 2.65594E-01 1.12278E-05-5.68357E-01 4.96394E-14-3.43105E-14
 -1       862 2.03016E+01 2.99291E-01-1.36890E-05 9.47159E-02-7.63541E-14-3.06106E-13
 -1       863 2.02568E+01 1.90721E-01-1.13026E-05 1.70821E-01-4.43631E-14-2.72798E-13
 -1       864 2.02041E+01 1.38603E-01-5.76820E-06 2.25452E-01-1.08128E-14-2.49481E-13
 -1       865 2.01461E+01 1.30172E-01-1.96934E-06 2.68925E-01-1.52249E-14-2.27938E-13
 -1       866 2.00823E+01 1.56453E-01-1.10330E-06 3.09700E-01-1.01290E-14-2.07678E-13
 -1       867 2.00103E+01 2.11313E-01-2.05548E-06 3.54491E-01-1.99821E-14-2.86988E-13
 -1       868 1.99257E+01 2.90555E-01-2.24578E-06 4.08435E-01-2.46264E-14-2.59114E-13
 -1       869 1.98222E+01 3.91155E-01-1.89846E-06 4.75250E-01-4.11722E-14-1.85159E-13
 -1       870 1.96915E+01 5.10357E-01-2.04083E-06 5.57553E-01-8.52757E-14-9.04722E-14
 -1       871 1.95229E+01 6.44256E-01 1.19858E-07 6.57088E-01-1.06307E-13-1.75460E-13
 -1       872 1.93035E+01 7.86534E-01 1.85961E-06 7.75163E-01-1.28610E-13-2.62487E-13
 -1       873 1.90172E+01 9.26352E-01-9.82295E-06 9.14400E-01-1.62892E-13-1.94392E-13
 -1       874 1.86459E+01 1.04487E+00-4.25346E-05 1.08159E+00 3.21091E-14-4.77381E-14
 -1       875 1.81692E+01 1.11104E+00-8.35777E-06 1.29314E+00-8.36177E-16 5.23205E-14
 -1       876 1.75657E+01 1.07570E+00 2.20341E-04 1.58590E+00 9.89105E-14-2.23400E-13
 -1       877 1.68274E+01 8.63597E-01 1.10238E-03 2.03631E+00 8.49423E-14-3.42931E-13
 -1       878 1.59409E+01 3.45441E-01 1.97950E-02 2.75108E+00 2.30888E-13-3.01010E-13
 -1       879 1.63759E+01 2.26771E-01 1.43799E-02-2.82715E+00 1.84659E-14 2.69689E-14
 -1       880 1.70757E+01 8.03963E-01-9.78860E-04-2.10527E+00-9.25514E-14-1.08035E-13
 -1       881 1.77465E+01 1.04551E+00-3.79440E-04-1.64850E+00-3.66148E-14-2.71763E-13
 -1       882 1.83014E+01 1.09537E+00-1.59120E-04-1.34089E+00 2.18949E-13-2.23702E-13
 -1       883 1.87446E+01 1.04089E+00-2.49659E-05-1.11258E+00 3.36550E-13-6.60512E-15
 -1       884 1.90899E+01 9.34795E-01 1.19222E-05-9.28269E-01 5.17817E-15 2.90880E-14
 -1       885 1.93541E+01 8.09328E-01 1.09540E-05-7.71627E-01 3.95047E-14 5.70454E-14
 -1       886 1.95531E+01 6.84374E-01-1.86408E-05-6.35860E-01 2.24283E-13 4.35857E-14
 -1       887 1.97000E+01 5.71836E-01-1.27912E-04-5.18533E-01 1.88363E-15 1.07227E-13
 -1       888 1.97647E+01 5.08912E-01-4.36854E-05-4.19548E-01-1.81393E-13-7.08593E-15
 -1       889 1.99688E+01 2.23515E-01 7.90867E-06-4.85225E-01 6.06401E-14-5.04335E-14
 -1       890 2.00099E+01 1.77288E-01 5.49585E-06-4.18339E-01 1.34866E-13-8.43314E-14
 -1       891 1.98997E+01 2.92149E-01 1.60155E-05-6.69213E-01-2.20805E-14-5.84607E-16
 -1       892 1.98840E+01 2.87927E-01 2.39950E-05-7.87661E-01-2.17519E-14-2.09089E-14
 -1       893 1.98975E+01 2.33069E-01 4.83468E-05-9.20892E-01-2.13699E-14 2.29105E-14
 -1       894 1.99625E+01 1.03302E-01 6.95726E-05-1.06243E+00-1.24460E-13-5.77784E-14
 -1       895 2.01124E+01-1.29235E-01 1.03012E-05-1.19952E+00-2.28743E-13-5.37205E-14
 -1       896 2.03940E+01-4.90674E-01-1.21910E-04-1.30684E+00-1.69543E-13-1.17398E-13
 -1       897 2.08649E+01-9.90286E-01-1.66750E-04-1.33787E+00-3.90964E-14-1.64923E-13
 -1       898 2.15834E+01-1.59101E+00 1.23889E-03-1.20685E+00-2.15395E-13 3.07417E-15
 -1       899 2.25559E+01-2.14483E+00-2.12071E-03-8.03298E-01-3.29555E-13 6.67404E-14
 -1       900 2.37461E+01-2.37453E+00 2.40126E-03-8.53824E-03-2.01354E-13 2.52903E-13
 -1       901 2.47165E+01-1.68701E+00-1.16877E-02 1.09360E+00 1.03284E-13 4.16373E-13
 -1       902 2.41572E+01-2.25742E+00-5.30951E-03-3.86707E-01 2.76096E-13 2.68862E-13
 -1       903 2.30412E+01-2.31395E+00 1.52596E-03 5.47488E-01-2.93047E-13 1.25494E-13
 -1       904 2.19399E+01-1.82392E+00-3.18344E-03 1.08924E+00-8.02813E-14-1.70776E-13
 -1       905 2.11070E+01-1.20002E+00-7.38427E-04 1.30286E+00-2.36811E-15-1.13816E-13
 -1       906 2.05490E+01-6.51695E-01 5.52746E-04 1.32421E+00-7.83309E-14 6.18694E-14
 -1       907 2.02028E+01-2.34285E-01 1.10136E-04 1.23685E+00-1.71476E-13 1.04341E-13
 -1       908 2.00087E+01 5.02973E-02 5.31148E-05 1.10241E+00-1.57464E-13 9.76751E-14
 -1       909 1.99148E+01 2.23536E-01 4.38456E-05 9.53821E-01-9.41061E-15 1.49092E-13
 -1       910 1.98825E+01 3.13883E-01 4.82728E-05 8.07578E-01-1.09376E-13-2.36613E-13
 -1       911 1.98849E+01 3.47760E-01 7.89741E-05 6.71790E-01-7.77024E-14 6.41207E-14
 -1       912 1.99029E+01 3.47463E-01-9.63651E-05 5.49976E-01-7.78269E-14 1.52610E-14
 -1       913 1.99297E+01 3.29346E-01 3.15795E-05 4.43118E-01 1.28517E-13 1.11452E-13
 -1       914 2.09572E+01-3.66090E+00 1.30751E-02-4.01176E+00-4.98467E-13 1.17591E-13
 -1       915 2.00090E+01-3.36758E+00 2.72178E-02 4.34279E+00 1.97099E-14-1.85350E-13
 -1       916 2.02880E+01 1.24816E+00 6.67831E-04-4.53165E-01-1.21153E-13-5.00561E-13
 -1       917 1.40388E+01 2.27170E-01 6.18283E-02 2.90852E+00 3.92479E-13-1.84897E-13
 -1       918 1.96341E+01 5.81187E-01-1.61314E-05-2.91314E-01-5.99562E-14-1.41152E-13
 -1       919 1.30093E+01 3.49685E-01 4.51367E-02-2.61004E+00-9.49601E-14-2.92294E-13
 -1       920 2.01115E+01 2.02849E+00-2.19680E-04-1.78967E-01 7.64183E-14-4.85307E-13
 -1       921 2.01390E+01 9.83612E-02 1.51543E-06-2.79474E-01 6.57046E-14-2.71822E-14
 -1       922 2.03032E+01 8.45876E-01-4.60118E-04 3.30746E-01 3.12554E-13-1.86007E-13
 -1       923 2.53582E+01-1.41201E+00-3.70007E-02 1.20203E+00 1.12885E-13 2.18110E-13
 -1       924 2.03326E+01 4.81698E-01-1.39738E-05-1.48030E-02-8.67481E-14-3.43014E-13
 -1       925 2.41176E+01-3.63815E+00-1.73381E-03-1.57044E+00-2.96298E-13-4.18697E-14
 -1       926 1.28642E+01 1.10398E+00 3.31286E-02 3.07813E-01 6.75020E-14-5.96138E-13
 -1       927 1.99649E+01 2.98819E-01 3.46226E-05 3.53927E-01 1.93826E-15-7.50744E-14
 -1       928 2.00521E+01 1.35876E-01 5.35836E-06-3.64877E-01 1.08320E-13-6.96324E-14
 -1       929 2.01838E+01 1.18101E-01-3.98650E-06-2.34152E-01 1.28009E-13-1.43848E-13
 -1       930 2.52623E+01-2.58059E+00-6.01166E-03-2.67032E-01 3.28081E-13 2.91041E-13
 -1       931 1.52521E+01-8.22215E-01 3.13194E-02 3.92148E+00-2.79771E-13 4.35732E-13
 -1       932 1.97684E+01 4.37916E-01-6.43761E-05 3.88262E-01 1.98765E-13 3.58740E-13
 -1       933 1.49151E+01-4.08841E-01 3.01314E-02-3.52580E+00-3.29023E-13-2.57072E-13
 -1       934 2.00951E+01 1.07092E-01 8.04543E-06-3.20537E-01 9.76001E-14 1.36009E-14
 -1       935 1.34646E+01 1.00270E+00 2.59475E-02-1.33367E+00 7.09268E-14-6.06023E-13
 -1       936 2.02698E+01 1.43693E+00 2.47334E-04-3.24448E-01-2.52322E-14-4.62739E-13
 -1       937 2.48497E+01-1.12816E+00-3.70031E-02-1.43954E+00 3.36761E-13 1.60390E-13
 -1       938 1.88837E+01-2.47129E+00 1.47520E-02-4.13634E+00-5.45661E-13 7.26593E-14
 -1       939 1.95694E+01 5.85306E-01-1.67519E-04 1.45735E-01 1.38834E-13-4.34099E-13
 -1       940 2.03005E+01 4.72685E-01-2.26732E-04 3.72855E-02 1.79458E-13-1.90672E-13
 -1       941 1.95614E+01 6.13797E-01-1.53446E-04-1.33003E-01-1.54835E-13-3.51815E-13
 -1       942 1.29683E+01 9.98091E-01 2.59386E-02-1.00222E+00-3.60521E-14-5.89365E-13
 -1       943 2.26746E+01-3.54012E+00 5.02446E-03 2.57386E+00 1.57892E-13 4.33283E-13
 -1       944 1.35240E+01 8.90018E-01 2.95280E-02 1.48862E+00 1.12138E-13-1.88958E-13
 -1       945 1.96506E+01 5.22012E-01-1.06290E-04 2.86415E-01 2.16459E-13-5.34586E-16
 -1       946 2.02902E+01 1.37189E+00 3.99916E-05 1.89075E-01 2.25852E-13-3.38663E-13
 -1       947 1.95449E+01 6.12889E-01 4.94549E-06 9.10284E-03-1.89491E-14-4.64879E-13
 -1       948 2.02793E+01 1.44237E+00-4.59978E-05 6.72779E-02 1.67261E-13-4.41774E-13
 -1       949 2.02669E+01 2.87945E-01 5.80586E-05-8.88857E-02 1.76622E-13-1.51049E-13
 -1       950 2.03097E+01 1.22928E+00-1.84987E-04 2.93636E-01 2.76429E-13-2.73743E-13
 -1       951 1.39781E+01 1.11384E+00 1.88958E-02 1.19458E+00 2.52220E-13-2.88425E-13
 -1       952 2.02841E+01 2.02113E-01-1.02837E-05 1.50101E-01 2.54745E-14-2.44941E-13
 -1       953 2.02156E+01 1.64101E-01-2.47812E-06 1.90024E-01 2.03411E-14-2.33106E-13
 -1       954 2.01349E+01 1.71224E-01 7.44933E-07 2.23482E-01-9.19475E-15-2.29371E-13
 -1       955 2.00416E+01 2.14679E-01-3.06819E-06 2.55867E-01-4.69439E-14-2.44160E-13
 -1       956 1.99325E+01 2.88136E-01-8.07783E-06 2.91240E-01 1.65944E-14-1.90714E-13
 -1       957 1.98021E+01 3.86721E-01-1.85995E-05 3.32146E-01 2.17554E-15-1.50865E-13
 -1       958 1.96426E+01 5.06693E-01-2.64923E-05 3.79617E-01-3.17417E-14-1.71167E-13
 -1       959 1.94433E+01 6.44191E-01-2.73686E-05 4.33720E-01-1.38904E-13-1.55962E-13
 -1       960 1.91908E+01 7.93277E-01-4.89407E-05 4.93096E-01-1.93448E-13-8.69266E-14
 -1       961 1.88670E+01 9.46924E-01-7.75433E-05 5.56033E-01-1.42872E-13-1.78927E-13
 -1       962 1.84484E+01 1.09387E+00-1.38463E-04 6.22618E-01 7.73126E-14-1.56715E-13
 -1       963 1.79024E+01 1.21709E+00-2.21525E-04 6.97181E-01 3.75993E-14-1.68127E-13
 -1       964 1.71800E+01 1.29289E+00-1.05930E-04 7.95051E-01-7.10274E-14-2.05429E-13
 -1       965 1.62181E+01 1.29196E+00-9.90849E-06 9.55364E-01-5.11158E-14-2.44990E-13
 -1       966 1.51081E+01 1.09908E+00 1.02945E-02-1.41792E+00-9.66742E-14-5.18071E-13
 -1       967 1.63643E+01 1.26967E+00-4.84183E-04-1.07493E+00-9.94964E-15-3.99168E-13
 -1       968 1.72902E+01 1.29126E+00-6.35687E-05-8.86265E-01 2.26998E-13-3.85440E-13
 -1       969 1.79820E+01 1.22551E+00-1.41393E-04-7.62221E-01 2.29477E-13-4.23265E-13
 -1       970 1.85065E+01 1.11246E+00-1.51909E-05-6.65220E-01 2.94142E-13-5.20763E-13
 -1       971 1.89054E+01 9.78527E-01 7.92500E-06-5.79057E-01-7.05737E-14-1.84220E-13
 -1       972 1.92106E+01 8.39582E-01-1.05167E-04-4.98017E-01 1.32780E-13-4.91124E-13
 -1       973 1.94418E+01 7.10294E-01-2.16886E-04-4.22514E-01 3.09938E-13-3.13863E-13
 -1       974 1.95432E+01 6.43167E-01-5.48518E-05-3.51862E-01-1.51643E-13-2.53504E-13
 -1       975 2.02681E+01 1.46938E+00 1.91213E-05-1.88686E-01 7.90008E-15-4.02927E-13
 -1       976 1.98358E+01 3.18408E-01 3.61831E-06-4.69687E-01 2.07267E-14-7.03845E-14
 -1       977 2.03757E+01 7.24469E-01-7.32275E-05-8.22200E-02-5.07118E-14-3.35620E-13
 -1       978 1.99219E+01 2.57973E-01-3.90144E-07-3.95460E-01 7.55453E-14-1.57177E-13
 -1       979 1.95816E+01 3.97077E-01 1.20343E-05-8.30222E-01 5.38627E-15-8.55102E-14
 -1       980 1.95319E+01 3.25865E-01 9.68560E-05-1.00882E+00-4.14090E-14-1.25598E-13
 -1       981 1.95371E+01 1.60829E-01 2.13250E-04-1.22048E+00-2.42421E-13-1.11256E-13
 -1       982 1.96408E+01-1.35476E-01 9.13270E-05-1.46252E+00-1.51759E-13-1.30150E-13
 -1       983 1.99144E+01-6.05439E-01-4.45921E-05-1.71481E+00-8.84550E-14-1.42098E-13
 -1       984 2.04421E+01-1.26855E+00-7.00653E-04-1.93457E+00-2.40558E-13 5.61830E-14
 -1       985 2.13826E+01-2.12331E+00 3.95093E-03-2.00241E+00-3.29633E-13-3.17730E-14
 -1       986 2.02287E+01 1.76737E-01 1.27713E-05-1.75137E-01 1.38827E-13-1.05311E-13
 -1       987 2.00922E+01-8.26426E-01 5.53225E-04 1.81084E+00-1.29665E-13 5.82142E-14
 -1       988 1.97211E+01-2.74902E-01 8.15391E-06 1.55277E+00-1.99950E-13 1.72915E-13
 -1       989 1.95622E+01 8.79692E-02 4.60861E-05 1.29935E+00-2.73935E-13 3.34703E-13
 -1       990 1.95230E+01 3.06769E-01 5.93477E-05 1.07054E+00-1.47422E-13 3.56616E-13
 -1       991 1.95518E+01 4.20321E-01 3.42979E-05 8.72808E-01 7.36624E-14 2.02293E-13
 -1       992 1.96154E+01 4.61926E-01 1.54807E-04 7.06644E-01-3.92260E-13 5.05825E-13
 -1       993 1.96907E+01 4.59868E-01 2.02865E-04 5.67336E-01 5.49808E-14 5.49104E-13
 -1       994 2.09856E+01-2.44248E+00 6.36488E-03 2.73370E+00 7.16565E-14 4.09319E-13
 -1       995 1.77494E+01-1.87059E+00 2.33176E-02 4.14637E+00-2.48933E-13 1.39493E-13
 -1       996 2.03056E+01 6.34574E-01-5.94740E-04 1.64936E-01 2.42662E-13-1.97655E-13
 -1       997 2.03381E+01 2.97321E-01-2.27129E-05 9.69708E-02-3.78666E-14-2.55115E-13
 -1       998 2.20020E+01-2.95875E+00 1.22193E-02-2.45472E+00-3.88757E-13-1.13364E-13
 -1       999 2.03718E+01 4.65504E-01 5.54361E-05 2.28786E-02-2.91360E-14-2.66181E-13
 -1      1000 1.96587E+01 4.04432E-01 7.73858E-06-6.82972E-01 5.45011E-15-6.28789E-14
 -1      1001 1.97467E+01 3.71710E-01-3.95927E-06-5.64143E-01 8.98246E-15-6.36984E-15
 -1      1002 2.03457E+01 1.05809E+00-6.08745E-04-1.47655E-01-7.67829E-15-4.00913E-13
 -1      1003 2.03773E+01-1.50417E+00 1.58299E-04 2.24560E+00-8.97110E-14 2.76728E-13
 -1      1004 2.00030E+01 2.01221E-01 1.00964E-06-3.37409E-01 1.36198E-13-1.77047E-13
 -1      1005 2.02155E+01 1.42366E-01-1.54899E-05-2.10881E-01 3.53391E-14-6.53107E-14
 -1      1006 1.94485E+01 6.79284E-01 2.04347E-04-1.68126E-01 2.09846E-14-2.33652E-13
 -1      1007 1.47698E+01 3.85946E-01 1.57936E-02 2.48273E+00-1.19669E-13 2.27324E-13
 -1      1008 1.73841E+01-1.16338E+00 5.08786E-03-3.58689E+00-4.83907E-13-1.16921E-13
 -1      1009 1.44086E+01 1.26701E+00 1.71644E-02-2.34933E-01-4.86418E-14-7.45369E-13
 -1      1010 2.01500E+01 1.34502E-01-1.14735E-05-2.50945E-01 1.03949E-13-1.37212E-13
 -1      1011 1.48782E+01 5.82750E-01 1.68954E-02-2.17607E+00-2.13209E-13-1.45884E-13
 -1      1012 2.03616E+01 9.31127E-01 3.00139E-04 1.27490E-01 2.10908E-13-2.82829E-13
 -1      1013 1.94868E+01 5.79501E-01-7.30154E-05 4.58625E-01 1.27020E-14 4.09976E-14
 -1      1014 2.03673E+01 1.01747E+00 2.96404E-04 7.15350E-02 1.65551E-13-3.48189E-13
 -1      1015 2.03542E+01 7.48050E-01 9.52031E-04 1.32908E-01 2.25453E-13-2.27881E-13
 -1      1016 2.02671E+01 1.48773E+00-1.74405E-04-5.68427E-02 8.32399E-14-4.36369E-13
 -1      1017 1.46380E+01 1.17163E+00 7.93850E-03 6.84233E-01-2.59027E-14-4.34001E-13
 -1      1018 1.93298E+01 6.85087E-01 2.36083E-04 2.89459E-01-5.98433E-14-5.02123E-13
 -1      1019 1.92560E+01 7.47697E-01 6.79727E-04 1.10214E-01 7.97158E-14-6.94242E-13
 -1      1020 2.03526E+01 4.71546E-01 8.52106E-05-9.14685E-03 1.61203E-13-2.34154E-13
 -1      1021 2.04012E+01 6.51578E-01-2.79059E-05-2.24725E-02 4.01420E-14-2.69963E-13
 -1      1022 1.82420E+01-1.04240E+00 3.20134E-03 3.09458E+00-1.55743E-13 3.30210E-13
 -1      1023 2.01948E+01 1.86396E-01 1.22229E-06 1.31471E-01 4.13507E-14-1.70622E-13
 -1      1024 2.00936E+01 2.11065E-01 2.32867E-06 1.51001E-01 4.43543E-15-1.46882E-13
 -1      1025 1.99747E+01 2.71253E-01 3.55483E-06 1.69203E-01-9.15982E-15-1.44159E-13
 -1      1026 1.98343E+01 3.60419E-01-1.62578E-05 1.87396E-01 4.30009E-14-1.48824E-13
 -1      1027 1.96665E+01 4.72341E-01-8.18079E-05 2.05023E-01-7.74866E-14-2.67356E-13
 -1      1028 1.94629E+01 6.02756E-01-5.64818E-05 2.20288E-01-1.18161E-14-2.77399E-13
 -1      1029 1.92106E+01 7.46185E-01-6.93718E-05 2.30253E-01-1.02771E-13-2.13073E-13
 -1      1030 1.88957E+01 8.93742E-01-1.42789E-04 2.28241E-01-1.22274E-13-4.84654E-14
 -1      1031 1.84965E+01 1.03853E+00-2.01576E-04 2.08892E-01-5.46221E-14 3.64974E-14
 -1      1032 1.79849E+01 1.16687E+00-2.15627E-04 1.64075E-01-5.38295E-14-1.82336E-13
 -1      1033 1.73152E+01 1.26395E+00-1.51720E-04 8.58127E-02-9.03257E-14-2.45344E-13
 -1      1034 1.64085E+01 1.32376E+00 2.54358E-03-2.54631E-02-8.38717E-15-1.57040E-13
 -1      1035 1.64662E+01 1.34027E+00 4.40719E-04-9.76550E-02 5.87094E-14-6.45409E-13
 -1      1036 1.73550E+01 1.29456E+00 3.36796E-04-1.79986E-01 3.29079E-13-4.66632E-13
 -1      1037 1.80153E+01 1.19995E+00 7.68589E-06-2.31177E-01 2.42549E-13-4.21233E-13
 -1      1038 1.85169E+01 1.07841E+00-7.25586E-05-2.54147E-01 3.40722E-13-4.41782E-13
 -1      1039 1.88999E+01 9.47928E-01 1.10874E-04-2.53659E-01 2.84042E-14-2.38913E-13
 -1      1040 1.91927E+01 8.19336E-01-1.87808E-04-2.42319E-01 2.47279E-13 1.07595E-13
 -1      1041 1.93326E+01 7.47547E-01 1.40745E-03-2.03549E-01 2.01703E-13-3.57770E-14
 -1      1042 2.00791E+01 1.57154E-01-3.25521E-06-2.91101E-01 1.59344E-13-1.66519E-13
 -1      1043 2.02744E+01 1.91545E-01 5.73336E-05-1.63499E-01 1.12230E-13-1.12275E-13
 -1      1044 1.90631E+01 4.64612E-01 3.23925E-05-1.06006E+00-1.08158E-13-2.45049E-14
 -1      1045 1.92074E+01 5.38256E-01-1.51260E-05-8.27940E-01 3.96908E-14 1.24517E-13
 -1      1046 1.89344E+01-4.68985E-02-3.27205E-04-1.74624E+00-1.42360E-13-1.91980E-13
 -1      1047 1.91068E+01-6.10076E-01-2.95676E-03-2.21588E+00-2.57193E-13-1.57505E-13
 -1      1048 1.95974E+01-1.43465E+00 8.50765E-03-2.74407E+00-2.67504E-13-1.21997E-13
 -1      1049 1.90150E+01 4.41551E-01 5.85929E-05 1.15284E+00-9.85285E-14 4.74908E-13
 -1      1050 1.89386E+01 2.00397E-01-7.95113E-04 1.48491E+00-2.57199E-13 4.98203E-13
 -1      1051 1.64915E+01-3.50864E-01 1.66941E-02 3.07932E+00-2.16383E-13 2.81634E-13
 -1      1052 1.89839E+01-2.19248E-01-7.89707E-04 1.90344E+00-2.35095E-13 4.65494E-13
 -1      1053 1.91430E+01 5.60992E-01 2.02865E-04 8.95510E-01 3.56379E-14 4.69515E-13
 -1      1054 1.92881E+01 5.98456E-01-1.38775E-04 6.94933E-01-2.50364E-13 2.56591E-13
 -1      1055 1.93893E+01 5.97647E-01 2.24848E-04 5.66637E-01-3.60819E-13 1.20500E-13
 -1      1056 1.50051E+01 1.27504E+00 8.19008E-03-3.82997E-01 1.07178E-14-2.88442E-13
 -1      1057 2.03902E+01 5.96902E-01-1.94726E-04 1.94181E-02 1.55458E-13-2.59029E-13
 -1      1058 1.53524E+01 1.33497E+00 7.31037E-03-3.55287E-01-1.20565E-13-6.48188E-13
 -1      1059 1.89575E+01 2.84195E-01 2.57472E-04-1.36089E+00-1.66396E-13-1.93848E-13
 -1      1060 2.03465E+01 2.79910E-01-9.08351E-05 7.76953E-02-3.72814E-14-1.95148E-13
 -1      1061 1.97976E+01 3.49778E-01-2.74695E-05-3.37698E-01 4.06602E-14 9.56891E-14
 -1      1062 2.03901E+01 4.24415E-01 4.42615E-05 3.65007E-02-2.21757E-14-2.33537E-13
 -1      1063 1.93650E+01 5.38740E-01 3.34986E-05-6.51482E-01-2.98940E-14 5.12304E-14
 -1      1064 2.02798E+01 2.05453E-01-5.19073E-05 1.08190E-01 1.55010E-14-2.09166E-13
 -1      1065 1.66418E+01-1.02648E-01 4.83299E-03-2.72928E+00-2.79038E-13-9.29796E-14
 -1      1066 2.03219E+01 2.95643E-01 1.12423E-04-1.00141E-01 1.21190E-13-1.97126E-13
 -1      1067 1.99181E+01 2.75557E-01-1.83555E-05-2.79561E-01 1.07976E-13 2.44555E-15
 -1      1068 2.03732E+01 3.81026E-01-2.27097E-04-5.41065E-02 1.15547E-13-2.27003E-13
 -1      1069 1.91736E+01 7.33498E-01-5.58728E-04 3.81719E-01 9.83763E-15-3.56837E-13
 -1      1070 1.53406E+01 8.63639E-01 5.18910E-03 1.57118E+00-2.22745E-13-2.98987E-14
 -1      1071 2.02846E+01 1.98112E-01-2.42648E-05-1.33669E-01 4.03247E-14-1.54116E-13
 -1      1072 1.95196E+01 4.94465E-01-4.80791E-05-5.16333E-01 4.39659E-15 1.97320E-14
 -1      1073 1.60297E+01 8.85027E-01 6.02292E-03-1.44324E+00-1.84296E-13-9.39106E-14
 -1      1074 2.03547E+01 1.09921E+00 1.50216E-04-7.20347E-02 5.19837E-14-3.47733E-13
 -1      1075 1.90662E+01 8.19790E-01-1.49733E-04 1.80811E-01 3.24503E-13-4.83207E-13
 -1      1076 2.03627E+01 1.07956E+00 6.15735E-04 5.64272E-03 1.22742E-13-3.71833E-13
 -1      1077 1.86765E+01-5.66245E-01-3.06827E-04 2.40450E+00 8.32610E-14 5.44128E-13
 -1      1078 2.02101E+01 1.66456E-01 5.14168E-05-1.67731E-01 7.68532E-14-1.81636E-13
 -1      1079 1.96645E+01 4.26699E-01 4.83594E-06-4.14926E-01 2.07332E-14-8.47259E-15
 -1      1080 1.93762E+01 7.03479E-01-1.51141E-03-5.73408E-02-1.40035E-13-4.21782E-13
 -1      1081 1.70521E+01 1.15680E+00 7.74439E-04 5.90178E-01 2.20558E-13-1.24107E-14
 -1      1082 2.00356E+01 2.45596E-01-1.34755E-05 5.32630E-02-2.66179E-14-1.11371E-13
 -1      1083 1.98990E+01 3.18889E-01 1.32452E-05 5.28974E-02-1.78629E-14-9.36892E-14
 -1      1084 1.97372E+01 4.18893E-01 3.52048E-04 4.81403E-02-2.14588E-14-1.82526E-13
 -1      1085 1.95425E+01 5.36701E-01-4.31615E-05 3.35359E-02-7.49300E-14-1.35861E-13
 -1      1086 1.93182E+01 6.60891E-01 1.48958E-04 6.07939E-03-2.91114E-15-1.81295E-13
 -1      1087 1.90374E+01 7.95942E-01 7.91714E-04-3.90871E-02 4.20444E-14-7.94446E-14
 -1      1088 1.86876E+01 9.21835E-01-9.33888E-05-1.19245E-01-2.77354E-14 2.75909E-14
 -1      1089 1.82650E+01 1.02340E+00-5.33701E-04-2.44354E-01-5.70070E-14 4.05495E-14
 -1      1090 1.77372E+01 1.08828E+00-6.70708E-04-4.32542E-01-6.00894E-14 6.60600E-14
 -1      1091 1.70480E+01 1.10441E+00-1.46763E-03-7.09349E-01-2.86187E-14 6.31736E-14
 -1      1092 2.01527E+01 2.04051E-01-3.23793E-05 5.02885E-02 5.39781E-15-1.45569E-13
 -1      1093 1.80962E+01 4.20045E-01-4.14991E-04 1.58384E+00-1.19667E-13 2.90882E-13
 -1      1094 1.87550E+01 7.19794E-01 1.29748E-04-7.59029E-01 3.94332E-14-1.98268E-14
 -1      1095 1.77396E+01 1.14105E+00 4.72012E-04 3.44009E-01 1.61152E-13-3.30589E-13
 -1      1096 1.82719E+01 1.07556E+00 5.91199E-04 1.78837E-01 1.80427E-13-3.43734E-13
 -1      1097 1.86879E+01 9.74210E-01-7.93992E-04 7.13125E-02 2.20417E-13-4.47230E-13
 -1      1098 2.02514E+01 2.04603E-01 2.09358E-05 4.46095E-02 5.28096E-14-1.52606E-13
 -1      1099 1.89220E+01 7.57782E-01 5.04437E-04 6.14237E-01 1.20954E-13 1.98094E-13
 -1      1100 1.86526E+01 7.43718E-01-5.11868E-04 8.37599E-01-6.62931E-14 5.52574E-14
 -1      1101 1.60568E+01 1.19603E+00 2.30783E-03 6.81932E-01-7.00103E-14-2.18887E-13
 -1      1102 2.04166E+01 5.54856E-01-1.58169E-04 2.96188E-03 5.32291E-14-2.78028E-13
 -1      1103 2.03317E+01 2.55344E-01 1.54356E-04 3.60673E-02 3.93704E-14-1.36268E-13
 -1      1104 2.03877E+01 3.68745E-01 2.38081E-05 2.30488E-02 3.71038E-14-2.26459E-13
 -1      1105 1.90198E+01 6.99842E-01 2.63196E-04-5.58111E-01-2.24397E-15-1.55090E-14
 -1      1106 2.04097E+01 6.57083E-01-6.74246E-04 1.36125E-02 1.28024E-13-3.02641E-13
 -1      1107 2.03363E+01 2.65364E-01-2.84437E-04-9.92033E-02 5.59365E-14-1.86122E-13
 -1      1108 1.83728E+01 6.44539E-01-2.12600E-04 1.15214E+00-1.85546E-14 8.19862E-14
 -1      1109 1.76550E+01 3.27297E-01 1.02543E-03-1.87655E+00-1.68915E-13-8.37994E-14
 -1      1110 1.79902E+01 6.63560E-01-8.60838E-04-1.25254E+00-7.96659E-14-6.07513E-14
 -1      1111 2.01237E+01 1.75354E-01 2.17285E-05-1.99717E-01 1.11376E-13-1.46182E-13
 -1      1112 1.74625E+01 3.01380E-01 5.06367E-03 1.96342E+00-6.46971E-14 4.22878E-13
 -1      1113 1.98112E+01 3.56534E-01 5.15938E-04-1.88827E-01-2.92650E-15 1.79590E-14
 -1      1114 2.00259E+01 2.14553E-01-4.83028E-05-2.35381E-01 1.26918E-13-5.57315E-14
 -1      1115 2.02679E+01 2.00679E-01-4.08537E-05-8.21578E-02 4.39957E-14-2.58176E-13
 -1      1116 1.92692E+01 6.30911E-01 1.28794E-03-4.14720E-01-7.57382E-15 6.13179E-14
 -1      1117 1.96480E+01 4.50830E-01 7.14120E-05-2.40491E-01-1.00035E-15 9.36311E-14
 -1      1118 1.69926E+01 4.57986E-02 3.69728E-03 2.46647E+00-1.70719E-13 2.67946E-13
 -1      1119 1.84129E+01 7.21133E-01 4.69068E-04-9.65252E-01-6.12082E-14 2.27054E-14
 -1      1120 2.03311E+01 2.49041E-01 5.00874E-05-6.38597E-02 6.36278E-14-2.65984E-13
 -1      1121 1.87504E+01 8.94883E-01 1.91715E-05 3.62604E-01 9.38192E-14-3.10301E-13
 -1      1122 2.03970E+01 4.08745E-01 3.17379E-04-2.20021E-02 7.94282E-14-2.37183E-13
 -1      1123 1.98300E+01 3.50709E-01-5.99999E-04-8.71113E-02-8.62834E-15-1.75399E-14
 -1      1124 1.92327E+01 6.68510E-01-2.31665E-03-2.42284E-01 9.47255E-14 5.33199E-14
 -1      1125 1.82511E+01 9.25463E-01-1.16189E-03 6.61308E-01 1.67574E-14-1.36157E-13
 -1      1126 1.67379E+01 8.07237E-01-1.40683E-03 1.43703E+00 7.68540E-14 2.86801E-13
 -1      1127 2.00991E+01 2.16700E-01-9.44673E-05-4.86223E-02 3.95447E-14-2.12988E-13
 -1      1128 1.94641E+01 5.48229E-01 7.52515E-05-3.16339E-01-1.13543E-14 2.11333E-13
 -1      1129 2.02073E+01 1.97459E-01-4.27898E-05-3.86443E-02 3.78419E-14-2.51135E-13
 -1      1130 1.99475E+01 2.75506E-01-2.12397E-04-1.52005E-01 4.48180E-14-9.38387E-14
 -1      1131 1.99762E+01 2.71548E-01 4.71895E-04-6.39359E-02-2.42236E-14-1.01711E-13
 -1      1132 1.76230E+01 9.15062E-01-1.06120E-03 9.67000E-01 1.15251E-14 2.56715E-14
 -1      1133 2.79369E+01 9.07806E+00 2.32308E+00-6.69473E+00-7.53841E-14 1.80403E-12
 -1      1134 2.05327E+01 6.22262E+00 2.09355E-01-3.90429E+00-3.72757E-14 6.04378E-15
 -1      1135 1.94279E+01 5.85101E+00 7.53968E-02-2.88921E+00-2.21351E-14-7.08532E-13
 -1      1136 1.90259E+01 5.72593E+00 6.04758E-02-2.23620E+00-1.43635E-14-1.02387E-12
 -1      1137 1.88449E+01 5.67081E+00 5.77301E-02-1.70239E+00-8.48974E-15-1.15069E-12
 -1      1138 1.87555E+01 5.64340E+00 5.57839E-02-1.23466E+00-2.59428E-15-1.17403E-12
 -1      1139 1.87094E+01 5.62902E+00 5.39893E-02-8.04487E-01 4.39752E-16-1.16258E-12
 -1      1140 1.86869E+01 5.62189E+00 5.26952E-02-3.92809E-01 3.28600E-15-1.12496E-12
 -1      1141 1.86805E+01 5.61985E+00 5.22812E-02 8.57448E-03 5.75874E-15-1.08506E-12
 -1      1142 1.86878E+01 5.62219E+00 5.27978E-02 4.10351E-01 8.45634E-15-1.02801E-12
 -1      1143 1.87113E+01 5.62965E+00 5.42042E-02 8.23312E-01 1.10866E-14-9.46341E-13
 -1      1144 1.87592E+01 5.64468E+00 5.64324E-02 1.25598E+00 1.45257E-14-8.24392E-13
 -1      1145 1.88503E+01 5.67269E+00 5.86442E-02 1.72812E+00 1.80932E-14-6.40309E-13
 -1      1146 1.90313E+01 5.72758E+00 6.05528E-02 2.26949E+00 2.29296E-14-3.40350E-13
 -1      1147 1.94243E+01 5.84806E+00 6.92337E-02 2.92962E+00 2.91434E-14 1.79185E-13
 -1      1148 2.04389E+01 6.17758E+00 1.52964E-01 3.87874E+00 2.88936E-14 1.11875E-12
 -1      1149 2.51927E+01 7.98643E+00 1.42865E+00 5.84384E+00 4.89053E-14 2.91125E-12
 -1      1150 2.87818E+01 3.61328E+00 1.27010E+00-4.21456E+00-2.91850E-13 2.92183E-12
 -1      1151 2.01995E+01-1.77623E-01-6.16012E-01-1.10155E-01-1.00669E-13 2.25792E-12
 -1      1152 1.88040E+01-9.63949E-02-2.36323E-01 6.23169E-02-3.30916E-14 1.39372E-12
 -1      1153 1.84690E+01-4.82102E-02-5.97072E-02 4.02988E-02-3.35365E-14 7.79245E-13
 -1      1154 1.84136E+01-2.48297E-02-1.53824E-02 2.65490E-02-2.12040E-14 3.29483E-13
 -1      1155 1.84966E+01-1.34175E-02-5.29551E-03 1.87640E-02-1.85566E-14-1.35204E-14
 -1      1156 1.86470E+01-7.17457E-03-2.01401E-03 1.37701E-02-6.67294E-15-2.21085E-13
 -1      1157 1.88271E+01-3.67403E-03-2.76555E-04 1.03089E-02-6.23042E-15-4.32883E-13
 -1      1158 1.90166E+01-1.79862E-03 6.36712E-04 7.76301E-03-1.65499E-14-6.42006E-13
 -1      1159 1.92055E+01-9.77227E-04 8.36360E-04 5.83869E-03-2.14347E-16-8.23691E-13
 -1      1160 1.93910E+01-8.97770E-04 4.15799E-04 4.39530E-03-5.16839E-16-9.60458E-13
 -1      1161 1.95755E+01-1.38583E-03-5.42658E-04 3.36885E-03 2.66094E-15-9.72930E-13
 -1      1162 1.97652E+01-2.34664E-03-1.99550E-03 2.74275E-03-2.13728E-14-1.15960E-12
 -1      1163 1.99704E+01-3.73465E-03-3.94291E-03 2.54016E-03 2.30653E-15-1.14274E-12
 -1      1164 2.02044E+01-5.53229E-03-6.42118E-03 2.82773E-03 2.53421E-15-1.08518E-12
 -1      1165 2.04848E+01-7.72675E-03-9.48476E-03 3.72661E-03-2.27689E-14-1.03544E-12
 -1      1166 2.08329E+01-1.02737E-02-1.31669E-02 5.42780E-03-1.19105E-14-1.14016E-12
 -1      1167 2.12742E+01-1.30323E-02-1.73930E-02 8.20541E-03 2.49713E-14-1.10669E-12
 -1      1168 2.18373E+01-1.56494E-02-2.17957E-02 1.24094E-02-1.60549E-14-1.17070E-12
 -1      1169 2.25518E+01-1.73624E-02-2.53510E-02 1.83914E-02-7.19650E-15-1.41115E-12
 -1      1170 2.34403E+01-1.67049E-02-2.57442E-02 2.62581E-02 4.74664E-16-1.35729E-12
 -1      1171 2.45036E+01-1.11648E-02-1.85051E-02 3.52590E-02-3.77411E-15-1.13894E-12
 -1      1172 2.56909E+01 2.90701E-03 3.52113E-03 4.25419E-02 2.21524E-15-1.04727E-12
 -1      1173 2.68534E+01 2.93390E-02 4.84721E-02 4.12515E-02-2.46404E-14-1.36016E-12
 -1      1174 2.76896E+01 6.84634E-02 1.17839E-01 1.91598E-02 4.58687E-14-1.26750E-12
 -1      1175 2.77300E+01 1.09615E-01 1.89780E-01-3.76770E-02 8.68229E-15-8.33701E-13
 -1      1176 2.64735E+01 1.21793E-01 2.04503E-01-1.29339E-01 4.90441E-14-6.23598E-13
 -1      1177 2.37877E+01 6.26234E-02 8.90800E-02-2.16634E-01 1.31622E-14-7.75574E-13
 -1      1178 2.04283E+01-7.44586E-02-1.52676E-01-2.21030E-01 2.60686E-14-7.49317E-13
 -1      1179 1.80384E+01-2.01358E-01-3.65532E-01-9.36200E-02 4.60292E-14-7.18037E-13
 -1      1180 1.80847E+01-1.98639E-01-3.60882E-01 9.97619E-02-3.89116E-14-7.73270E-13
 -1      1181 2.05359E+01-6.88154E-02-1.43213E-01 2.23016E-01-1.20043E-15-8.70637E-13
 -1      1182 2.38941E+01 6.58761E-02 9.53126E-02 2.14519E-01-1.78815E-14-1.29516E-12
 -1      1183 2.65352E+01 1.22394E-01 2.05616E-01 1.25800E-01 1.25490E-14-1.25762E-12
 -1      1184 2.77389E+01 1.08295E-01 1.87572E-01 3.49331E-02 4.49640E-14-1.19312E-12
 -1      1185 2.76603E+01 6.69594E-02 1.15066E-01-2.05251E-02 5.76171E-14-1.15628E-12
 -1      1186 2.68047E+01 2.81177E-02 4.64382E-02-4.16542E-02 4.83398E-14-9.82339E-13
 -1      1187 2.56365E+01 2.12021E-03 2.33408E-03-4.25032E-02-4.29742E-14-7.15629E-13
 -1      1188 2.44517E+01-1.16655E-02-1.91220E-02-3.51006E-02 2.02042E-14-2.85952E-13
 -1      1189 2.33953E+01-1.70809E-02-2.61108E-02-2.61284E-02-1.01663E-14-3.87319E-13
 -1      1190 2.25164E+01-1.77589E-02-2.57063E-02-1.83303E-02-2.54228E-14-1.07853E-12
 -1      1191 2.18143E+01-1.61823E-02-2.23156E-02-1.24056E-02-2.10444E-14-1.08425E-12
 -1      1192 2.12674E+01-1.38070E-02-1.82288E-02-8.21699E-03 5.11208E-14-9.70541E-13
 -1      1193 2.08486E+01-1.14016E-02-1.44919E-02-5.38155E-03 1.69730E-14-7.07897E-13
 -1      1194 2.05325E+01-9.33796E-03-1.15454E-02-3.49533E-03 1.47943E-14-7.94342E-13
 -1      1195 2.02986E+01-7.77684E-03-9.58592E-03-2.17554E-03 1.01022E-14-1.72517E-13
 -1      1196 2.01327E+01-6.75222E-03-8.64659E-03-1.00494E-03-3.50523E-15-7.73111E-14
 -1      1197 2.00276E+01-6.02292E-03-8.17595E-03 5.92458E-04 7.62942E-15 2.50504E-13
 -1      1198 1.99839E+01-5.80873E-03-5.28721E-03 3.64300E-03 7.66027E-15 2.67255E-13
 -1      1199 1.99913E+01 3.07384E-03 6.92140E-03 2.95806E-03 3.77199E-15 2.04979E-13
 -1      1200 2.77627E+01 5.25316E-01 3.76762E-01 1.96553E+00-5.30270E-14 4.33592E-12
 -1      1201 2.00572E+01-6.62211E-02-5.73393E-01 1.29561E-01 1.66117E-14 3.69621E-12
 -1      1202 1.88791E+01-4.06440E-02-1.93196E-01 1.95475E-02 2.57702E-14 2.99993E-12
 -1      1203 1.84988E+01-2.15211E-02-5.06215E-02 1.65077E-03 4.82166E-15 2.54398E-12
 -1      1204 1.84275E+01-1.25977E-02-1.35698E-02-3.80284E-03 1.57422E-14 2.17007E-12
 -1      1205 1.85046E+01-7.71368E-03-4.96562E-03-5.15436E-03 7.10033E-15 1.93775E-12
 -1      1206 1.86527E+01-4.80054E-03-2.43401E-03-5.21685E-03 1.79219E-16 1.79141E-12
 -1      1207 1.88322E+01-3.04993E-03-1.12218E-03-4.78707E-03-4.63117E-16 1.64512E-12
 -1      1208 1.90219E+01-2.06452E-03-3.74289E-04-4.11980E-03 7.90378E-15 1.33322E-12
 -1      1209 1.92115E+01-1.62201E-03-1.46651E-04-3.33646E-03 6.45743E-15 1.19692E-12
 -1      1210 1.93976E+01-1.58159E-03-3.90978E-04-2.51745E-03 2.93414E-14 1.01058E-12
 -1      1211 1.95815E+01-1.84298E-03-1.02926E-03-1.72823E-03 5.84720E-15 9.28698E-13
 -1      1212 1.97678E+01-2.32167E-03-1.97570E-03-1.03216E-03 3.18755E-17 8.44160E-13
 -1      1213 1.99637E+01-2.92883E-03-3.13433E-03-5.00781E-04-3.67008E-15 8.19962E-13
 -1      1214 2.01775E+01-3.55107E-03-4.37804E-03-2.22947E-04 1.65843E-14 7.41092E-13
 -1      1215 2.04179E+01-4.02774E-03-5.51566E-03-3.12273E-04 1.40561E-14 6.39590E-13
 -1      1216 2.06925E+01-4.12667E-03-6.24937E-03-9.09325E-04-1.72699E-14 6.34339E-13
 -1      1217 2.10054E+01-3.52451E-03-6.12733E-03-2.17127E-03 1.61925E-14 4.89244E-13
 -1      1218 2.13548E+01-1.80684E-03-4.50843E-03-4.23588E-03 4.81816E-14 8.25156E-14
 -1      1219 2.17278E+01 1.48166E-03-5.79459E-04-7.14060E-03-3.41915E-14 3.09613E-13
 -1      1220 2.20961E+01 6.68913E-03 6.49660E-03-1.06748E-02 1.36780E-14 4.68195E-13
 -1      1221 2.24105E+01 1.37559E-02 1.71841E-02-1.41609E-02 9.17257E-15 4.90086E-13
 -1      1222 2.25983E+01 2.17557E-02 3.08314E-02-1.62230E-02-1.07050E-14 3.05750E-13
 -1      1223 2.25683E+01 2.84355E-02 4.46753E-02-1.47372E-02 4.07291E-14 4.84005E-14
 -1      1224 2.22292E+01 3.02192E-02 5.31870E-02-7.33676E-03 2.17361E-15 1.71186E-13
 -1      1225 2.15271E+01 2.34009E-02 4.90047E-02 7.19191E-03 3.48666E-14 3.58991E-13
 -1      1226 2.04966E+01 6.72028E-03 2.65918E-02 2.68913E-02-9.50151E-15 6.67924E-13
 -1      1227 1.93019E+01-1.60378E-02-1.23258E-02 4.54471E-02-1.32686E-14 4.65579E-13
 -1      1228 1.82273E+01-3.61330E-02-5.55363E-02 5.39310E-02-1.33266E-14 3.82583E-13
 -1      1229 1.75901E+01-4.43610E-02-8.43751E-02 4.58433E-02-4.57316E-15 2.46358E-13
 -1      1230 1.76011E+01-3.75286E-02-8.50202E-02 2.24101E-02 1.34558E-14 1.72865E-14
 -1      1231 1.82558E+01-2.05104E-02-5.83075E-02-7.07291E-03-1.40044E-14 7.16024E-14
 -1      1232 1.93365E+01-1.93495E-03-1.86238E-02-3.10847E-02-2.63379E-14 8.67986E-14
 -1      1233 2.05257E+01 1.15212E-02 1.66881E-02-4.25954E-02-5.24732E-14 1.40110E-13
 -1      1234 2.15434E+01 1.76694E-02 3.72463E-02-4.14810E-02 2.88146E-14-8.03108E-14
 -1      1235 2.22311E+01 1.78152E-02 4.21153E-02-3.22604E-02-1.44364E-14-2.30236E-13
 -1      1236 2.25580E+01 1.45237E-02 3.62461E-02-2.03253E-02 4.48832E-14-7.24759E-13
 -1      1237 2.25796E+01 1.00654E-02 2.57611E-02-9.49284E-03-2.31720E-14-4.08971E-13
 -1      1238 2.23875E+01 5.85551E-03 1.51528E-02-1.48889E-03-4.90547E-15 1.82871E-13
 -1      1239 2.20727E+01 2.52595E-03 6.66176E-03 3.49581E-03 5.98057E-14-2.00636E-13
 -1      1240 2.17079E+01 2.00403E-04 8.49570E-04 6.03121E-03-1.30204E-14-1.29934E-13
 -1      1241 2.13427E+01-1.25494E-03-2.60900E-03 6.88774E-03 1.02537E-14-3.04456E-13
 -1      1242 2.10064E+01-2.07087E-03-4.35246E-03 6.75463E-03 5.72522E-14-5.65849E-13
 -1      1243 2.07137E+01-2.49212E-03-5.03799E-03 6.14698E-03 3.66040E-14-5.82979E-13
 -1      1244 2.04698E+01-2.73989E-03-5.24016E-03 5.40049E-03-4.07100E-14-2.43894E-13
 -1      1245 2.02751E+01-2.98830E-03-5.43754E-03 4.68765E-03 4.04332E-14-4.34059E-13
 -1      1246 2.01286E+01-3.35536E-03-5.96236E-03 4.00874E-03 6.17590E-14-1.10816E-12
 -1      1247 2.00314E+01-3.63410E-03-6.48130E-03 2.98132E-03 8.07559E-14-1.28362E-12
 -1      1248 1.99877E+01-2.28018E-03-4.18840E-03 4.64853E-04 8.39979E-14-1.14933E-12
 -1      1249 1.99933E+01 2.32721E-03 6.08115E-03-2.36878E-03-2.68720E-14-8.06143E-13
 -1      1250 2.00020E+01-6.97303E-03 5.61529E-03-2.38044E-03-7.35674E-13-1.06306E-16
 -1      1251 1.99962E+01-1.08101E-02-4.82975E-03-2.53019E-03-4.89313E-13 7.31574E-15
 -1      1252 1.99960E+01 3.47776E-02-6.18032E-03 1.09215E-03 2.24238E-13-3.74011E-14
 -1      1253 1.99975E+01 1.25142E-01-3.81301E-03 3.00249E-03 5.56936E-13-3.39482E-14
 -1      1254 1.99996E+01 2.40231E-01-6.63739E-04 3.72939E-03 3.29549E-13 1.50031E-13
 -1      1255 2.00016E+01 3.58015E-01 2.25312E-03 3.59098E-03-1.78222E-13 4.67627E-14
 -1      1256 2.00033E+01 4.60433E-01 4.61875E-03 2.88159E-03 1.81721E-14 1.14995E-14
 -1      1257 2.00046E+01 5.32455E-01 6.30855E-03 1.65715E-03 5.59640E-13-4.63847E-14
 -1      1258 2.00052E+01 5.61705E-01 7.10030E-03 1.42333E-04 6.28899E-13 1.49054E-13
 -1      1259 2.00050E+01 5.42844E-01 6.85216E-03-1.45837E-03 1.19512E-12 1.40203E-13
 -1      1260 2.00040E+01 4.77525E-01 5.47874E-03-2.89816E-03-3.51000E-13-2.53389E-13
 -1      1261 2.00023E+01 3.75875E-01 3.07211E-03-3.90725E-03-1.65244E-12 8.92247E-14
 -1      1262 2.00000E+01 2.53310E-01-2.22056E-04-4.15433E-03-1.11185E-12 1.67276E-13
 -1      1263 1.99975E+01 1.30201E-01-4.01861E-03-3.43896E-03-4.87882E-13 2.87842E-14
 -1      1264 1.99958E+01 3.14772E-02-7.19759E-03-1.44203E-03-4.60806E-13 7.30728E-14
 -1      1265 1.99949E+01-1.15836E-02-4.48293E-03 5.21107E-03-4.12446E-13-1.32891E-13
 -1      1266 2.00026E+01-9.05236E-03 6.39349E-03 3.20883E-03-1.92135E-13 1.33630E-13
 -1      1267-1.03874E+00-2.41373E+01-3.72953E+00-2.03926E+00 1.60172E-12 1.96326E-13
 -1      1268-1.67298E+00-1.52368E+01-3.00790E+00-3.85679E+00 1.48037E-12 2.47802E-13
 -1      1269 4.27406E-01-2.52491E+00-1.81381E+00 1.08400E-01 6.74349E-13 5.01488E-13
 -1      1270 9.18535E+00 7.80762E+00-2.72116E-01 8.48126E+00 1.14508E-12 1.07914E-12
 -1      1271 2.56334E+01 1.13034E+01 1.42034E+00 1.63460E+01 9.90208E-13 1.62559E-12
 -1      1272 4.52613E+01 8.33238E+00 2.85213E+00 1.78322E+01 7.72493E-13 1.46994E-12
 -1      1273 6.09769E+01 3.61344E+00 3.79746E+00 1.11349E+01 1.99160E-13 6.81899E-13
 -1      1274 6.65916E+01 1.67788E+00 4.14966E+00-9.01692E-01 1.06394E-13-6.31606E-13
 -1      1275 5.89880E+01 4.36813E+00 3.71151E+00-1.26144E+01 5.22249E-13-1.97597E-12
 -1      1276 4.15756E+01 9.25994E+00 2.64698E+00-1.80822E+01 1.62448E-12-3.11129E-12
 -1      1277 2.18531E+01 1.12142E+01 1.10014E+00-1.50957E+01 3.00382E-12-3.76033E-12
 -1      1278 6.78281E+00 6.39016E+00-5.42591E-01-6.59083E+00 3.70659E-12-3.16680E-12
 -1      1279-4.52525E-01-4.93384E+00-2.03939E+00 1.38866E+00 2.91456E-12-1.73195E-12
 -1      1280-1.56841E+00-1.75201E+01-3.17171E+00 3.94391E+00 1.37479E-12-5.42261E-13
 -1      1281-8.88751E-01-2.48689E+01-3.74342E+00 1.08111E+00-4.09672E-13-1.04836E-13
 -1      1282-1.35310E+00-2.29601E+01-3.66121E+00-3.30137E+00-1.85574E-12-3.87697E-13
 -1      1283-1.99657E+00-1.33756E+01-3.00749E+00-4.22245E+00-3.39173E-12-1.47587E-12
 -1      1284 7.08750E-01-1.31168E+00-1.83441E+00 3.93199E-01-3.68638E-12-2.44316E-12
 -1      1285 1.03479E+01 7.95464E+00-2.60750E-01 8.90744E+00-3.18212E-12-3.07732E-12
 -1      1286 2.76646E+01 1.08220E+01 1.47813E+00 1.64163E+01-2.17826E-12-3.24651E-12
 -1      1287 4.82979E+01 7.92161E+00 3.11741E+00 1.78532E+01-1.25389E-12-2.80109E-12
 -1      1288 6.45662E+01 3.39995E+00 4.23447E+00 1.05884E+01-2.74114E-13-1.32283E-12
 -1      1289 6.96247E+01 1.66049E+00 4.56113E+00-2.14659E+00 3.12250E-15-8.21565E-14
 -1      1290 6.07488E+01 4.55012E+00 3.97451E+00-1.36678E+01-3.02064E-13 8.63754E-13
 -1      1291 4.22435E+01 9.23302E+00 2.67124E+00-1.81482E+01-1.02041E-12 2.09743E-12
 -1      1292 2.22896E+01 1.07931E+01 1.03657E+00-1.48858E+01-1.97242E-12 2.63056E-12
 -1      1293 7.12840E+00 5.93639E+00-7.71964E-01-6.68840E+00-1.76792E-12 1.74127E-12
 -1      1294-4.38075E-01-4.64086E+00-2.18212E+00 1.14246E+00-8.30003E-13 7.20757E-13
 -1      1295-1.94623E+00-1.69482E+01-3.30560E+00 4.56014E+00 3.93241E-13-1.14075E-13
 -1      1296-1.22063E+00-2.43688E+01-3.76606E+00 2.28150E+00 7.84206E-13 5.87204E-14
 -1      1297 2.22430E+01 1.83699E+00-7.25435E-01-2.79014E+00-1.11633E-13 1.37057E-12
 -1      1298 2.03465E+01 4.68790E+00-4.85458E-02-3.30732E+00-2.66495E-13-3.30166E-13
 -1      1299 2.08496E+01 4.80724E+00-1.13459E-01-4.16072E+00-3.55965E-13 4.28615E-14
 -1      1300 1.95270E+01 4.99225E+00-1.95039E-02-2.65529E+00-2.38067E-13-8.49567E-13
 -1      1301 1.98211E+01 5.08804E+00 2.50865E-04-3.04614E+00-2.79721E-13-6.30482E-13
 -1      1302 2.05148E+01 3.95124E+00-2.58880E-02-3.07481E+00-4.53453E-13-2.89560E-13
 -1      1303 1.91857E+01 5.08453E+00-3.55657E-03-2.07087E+00-1.72948E-13-1.08464E-12
 -1      1304 1.93319E+01 5.13887E+00 1.06520E-02-2.36407E+00-2.05475E-13-9.85090E-13
 -1      1305 1.97510E+01 4.36546E+00-2.42197E-02-2.48949E+00-3.66955E-13-7.18800E-13
 -1      1306 1.90157E+01 5.13261E+00 3.35752E-03-1.56503E+00-1.15105E-13-1.17642E-12
 -1      1307 1.90908E+01 5.16180E+00 1.26403E-02-1.81512E+00-1.35050E-13-1.14341E-12
 -1      1308 1.93956E+01 4.55647E+00-1.94700E-02-1.93099E+00-2.53301E-13-9.16274E-13
 -1      1309 1.89261E+01 5.16352E+00 6.65866E-03-1.11697E+00-5.24932E-14-1.18145E-12
 -1      1310 1.89667E+01 5.17932E+00 1.28189E-02-1.33857E+00-7.97227E-14-1.17825E-12
 -1      1311 1.92136E+01 4.66356E+00-1.59770E-02-1.44448E+00-1.67034E-13-9.83963E-13
 -1      1312 1.88770E+01 5.18426E+00 8.24195E-03-6.93566E-01-6.65050E-16-1.15749E-12
 -1      1313 1.88989E+01 5.19282E+00 1.21117E-02-9.03804E-01-1.45782E-14-1.17524E-12
 -1      1314 1.91142E+01 4.73026E+00-1.38572E-02-1.00361E+00-6.10900E-14-9.92883E-13
 -1      1315 1.88543E+01 5.19673E+00 9.32625E-03-2.88963E-01 5.88975E-14-1.12198E-12
 -1      1316 1.88637E+01 5.20041E+00 1.11292E-02-4.91022E-01 3.82407E-14-1.13969E-12
 -1      1317 1.90604E+01 4.77023E+00-1.28179E-02-5.88243E-01 2.42854E-14-9.61228E-13
 -1      1318 1.88508E+01 5.20180E+00 1.02620E-02 1.08262E-01 9.99210E-14-1.07898E-12
 -1      1319 1.88505E+01 5.20167E+00 1.01932E-02-9.13156E-02 8.63885E-14-1.10755E-12
 -1      1320 1.90372E+01 4.78875E+00-1.23803E-02-1.88840E-01 1.18785E-13-9.30908E-13
 -1      1321 1.88652E+01 5.20003E+00 1.12120E-02 5.08536E-01 1.45480E-13-1.01667E-12
 -1      1322 1.88552E+01 5.19608E+00 9.26048E-03 3.06071E-01 1.31180E-13-1.05376E-12
 -1      1323 1.90379E+01 4.78811E+00-1.24003E-02 2.05684E-01 1.86384E-13-8.86232E-13
 -1      1324 1.89019E+01 5.19164E+00 1.21599E-02 9.22757E-01 1.90219E-13-9.31489E-13
 -1      1325 1.88792E+01 5.18294E+00 8.16943E-03 7.11589E-01 1.75343E-13-9.84598E-13
 -1      1326 1.90628E+01 4.76817E+00-1.28907E-02 6.05763E-01 2.62304E-13-8.27748E-13
 -1      1327 1.89708E+01 5.17758E+00 1.29749E-02 1.35609E+00 2.36792E-13-7.98866E-13
 -1      1328 1.89292E+01 5.16133E+00 6.49297E-03 1.13313E+00 2.18893E-13-8.77552E-13
 -1      1329 1.91181E+01 4.72680E+00-1.39178E-02 1.01891E+00 3.35632E-13-7.39075E-13
 -1      1330 1.90991E+01 5.15772E+00 1.28983E-02 1.84099E+00 2.99630E-13-5.94517E-13
 -1      1331 1.90219E+01 5.12807E+00 3.20489E-03 1.58808E+00 2.72568E-13-7.13570E-13
 -1      1332 1.92202E+01 4.65715E+00-1.60732E-02 1.46204E+00 4.15033E-13-5.84515E-13
 -1      1333 1.93419E+01 5.13285E+00 1.02154E-02 2.39831E+00 3.49484E-13-2.72563E-13
 -1      1334 1.91949E+01 5.07665E+00-4.29641E-03 2.10098E+00 3.21888E-13-4.68556E-13
 -1      1335 1.94081E+01 4.54325E+00-1.99238E-02 1.95789E+00 5.02610E-13-3.70315E-13
 -1      1336 1.98463E+01 5.09716E+00 6.03136E-03 3.08431E+00 3.76102E-13 2.89775E-13
 -1      1337 1.95381E+01 4.98326E+00-2.04482E-02 2.69711E+00 3.43114E-13-4.34097E-14
 -1      1338 1.97711E+01 4.34584E+00-2.45188E-02 2.52790E+00 5.54706E-13-8.31279E-15
 -1      1339 2.10858E+01 4.90355E+00 8.19434E-03 4.05340E+00 2.95874E-13 1.28046E-12
 -1      1340 2.03211E+01 4.73147E+00-4.78910E-02 3.41654E+00 2.99941E-13 6.82406E-13
 -1      1341 2.05530E+01 3.91435E+00-2.24108E-02 3.17815E+00 5.41987E-13 6.04392E-13
 -1      1342 2.71749E+01 3.20269E+00 9.28058E-01 4.58009E+00 1.19307E-13 3.01925E-12
 -1      1343 2.19990E+01 3.51993E+00-1.81848E-01 3.88424E+00 1.32783E-13 1.83442E-12
 -1      1344 2.20926E+01 2.56045E+00-3.26531E-02 3.45610E+00 4.61492E-13 1.48881E-12
 -1      1345 2.14016E+01 3.59616E-01-7.63134E-01 1.18423E+00 2.30385E-13 2.94931E-12
 -1      1346 2.19758E+01 1.31436E-01-4.00708E-01-1.28584E+00-2.97290E-13 1.50077E-12
 -1      1347 2.06529E+01 3.06665E-01-1.64765E-01-8.05998E-01-2.62720E-13 1.15869E-12
 -1      1348 2.00554E+01 1.53470E-01-7.34934E-02-4.02448E-01-2.08340E-13 1.02480E-12
 -1      1349 1.95851E+01 9.12549E-02-1.49083E-02-3.30275E-01-1.96180E-13 7.16073E-13
 -1      1350 2.09510E+01 3.69131E-01-1.04215E-01-1.27428E+00-4.55934E-13 5.01647E-13
 -1      1351 1.92281E+01 6.46141E-02 3.05556E-03-1.35463E-01-1.68883E-13 6.04169E-13
 -1      1352 1.90735E+01 4.14522E-02 1.32447E-02-1.17583E-01-1.63161E-13 3.57527E-13
 -1      1353 1.99008E+01 1.33983E-01-3.51969E-02-5.04248E-01-3.54532E-13 3.00721E-13
 -1      1354 1.89140E+01 3.17142E-02 1.32889E-02-2.76313E-02-1.32184E-13 2.54893E-13
 -1      1355 1.88949E+01 1.96585E-02 1.11258E-02-1.81543E-02-1.20987E-13 6.56159E-14
 -1      1356 1.94248E+01 5.57308E-02-8.58007E-03-1.69476E-01-2.81893E-13 1.15949E-13
 -1      1357 1.88405E+01 1.63356E-02 8.85205E-03 2.61909E-02-8.89365E-14 3.15720E-16
 -1      1358 1.88842E+01 9.53780E-03 6.52845E-03 3.10005E-02-7.82699E-14-1.07985E-13
 -1      1359 1.92184E+01 2.48112E-02-3.61562E-03-9.29461E-03-2.08927E-13-4.69963E-14
 -1      1360 1.88873E+01 8.40625E-03 4.76967E-03 5.33399E-02-6.62066E-14-1.59865E-13
 -1      1361 1.89606E+01 4.23552E-03 3.76754E-03 5.55365E-02-5.93410E-14-2.51278E-13
 -1      1362 1.91663E+01 1.09298E-02-2.39096E-03 7.16614E-02-1.48444E-13-1.27947E-13
 -1      1363 1.89953E+01 4.04423E-03 2.56704E-03 6.61630E-02-6.77031E-14-3.09926E-13
 -1      1364 1.90814E+01 1.41740E-03 2.37990E-03 6.69012E-02-7.32530E-14-4.00836E-13
 -1      1365 1.92006E+01 3.96469E-03-1.58084E-03 1.12136E-01-1.38823E-13-2.45270E-13
 -1      1366 1.91333E+01 1.71025E-03 1.48669E-03 7.12861E-02-6.23492E-14-4.30385E-13
 -1      1367 1.92236E+01 9.45309E-05 1.66247E-03 7.12946E-02-5.76000E-14-5.30676E-13
 -1      1368 1.92829E+01 4.89319E-04-9.29708E-04 1.30883E-01-1.25599E-13-3.37947E-13
 -1      1369 1.92848E+01 6.77157E-04 9.34176E-04 7.27718E-02-5.18735E-14-5.46026E-13
 -1      1370 1.93756E+01-2.23536E-04 1.26041E-03 7.25584E-02-5.45292E-14-6.23094E-13
 -1      1371 1.93917E+01-8.99151E-04-5.21602E-04 1.38471E-01-9.47379E-14-3.62198E-13
 -1      1372 1.94424E+01 5.62092E-04 6.31157E-04 7.33884E-02-4.05275E-14-6.29664E-13
 -1      1373 1.95331E+01 1.95758E-04 1.02972E-03 7.33338E-02-4.82381E-15-6.71521E-13
 -1      1374 1.95158E+01-8.66421E-04-3.66536E-04 1.41650E-01-8.15101E-14-3.89078E-13
 -1      1375 1.96048E+01 1.15547E-03 4.58441E-04 7.51980E-02-2.16379E-14-7.32353E-13
 -1      1376 1.96973E+01 1.20570E-03 9.09801E-04 7.56104E-02-5.91877E-14-7.88241E-13
 -1      1377 1.96504E+01 2.42228E-04-4.31290E-04 1.45185E-01-4.99675E-14-4.73384E-13
 -1      1378 1.97750E+01 2.34946E-03 3.57436E-04 7.98807E-02-6.19300E-14-7.76512E-13
 -1      1379 1.98732E+01 2.73466E-03 8.68366E-04 8.10338E-02-6.51267E-14-8.33542E-13
 -1      1380 1.97961E+01 2.25665E-03-6.81083E-04 1.52766E-01-8.64791E-14-5.38592E-13
 -1      1381 1.99601E+01 4.10301E-03 2.89296E-04 8.89400E-02-1.34819E-14-8.14622E-13
 -1      1382 2.00697E+01 4.76058E-03 8.80460E-04 9.10997E-02 2.23721E-14-7.93322E-13
 -1      1383 1.99568E+01 5.11854E-03-1.09314E-03 1.67530E-01-4.76149E-14-5.75749E-13
 -1      1384 2.01702E+01 6.41993E-03 2.18114E-04 1.03837E-01 8.97091E-15-8.55515E-13
 -1      1385 2.02987E+01 7.28981E-03 9.18203E-04 1.07282E-01-1.09130E-14-8.33814E-13
 -1      1386 2.01397E+01 8.84605E-03-1.65714E-03 1.92393E-01-2.25219E-14-6.21306E-13
 -1      1387 2.04187E+01 9.32631E-03 1.01306E-04 1.26064E-01-1.38342E-14-8.11027E-13
 -1      1388 2.05756E+01 1.03280E-02 9.41936E-04 1.31095E-01-4.23278E-14-7.93694E-13
 -1      1389 2.03549E+01 1.35002E-02-2.37146E-03 2.30241E-01 1.67147E-14-6.06629E-13
 -1      1390 2.07223E+01 1.28336E-02-1.18483E-04 1.57131E-01-1.91232E-14-7.69403E-13
 -1      1391 2.09187E+01 1.38279E-02 8.90351E-04 1.64060E-01 1.67514E-14-7.77978E-13
 -1      1392 2.06150E+01 1.91297E-02-3.23687E-03 2.83971E-01-2.54590E-14-5.23642E-13
 -1      1393 2.11002E+01 1.68664E-02-5.19409E-04 1.98382E-01-2.08774E-15-7.80320E-13
 -1      1394 2.13492E+01 1.75879E-02 6.72109E-04 2.07487E-01-6.86820E-15-7.96583E-13
 -1      1395 2.09350E+01 2.56607E-02-4.24527E-03 3.56267E-01-5.31996E-15-4.78681E-13
 -1      1396 2.15742E+01 2.11197E-02-1.19654E-03 2.50507E-01-5.60418E-14-8.46359E-13
 -1      1397 2.18892E+01 2.10624E-02 1.70456E-04 2.61896E-01-7.04272E-14-9.28101E-13
 -1      1398 2.13309E+01 3.26705E-02-5.35705E-03 4.48896E-01-6.61042E-14-6.12572E-13
 -1      1399 2.21654E+01 2.47901E-02-2.22634E-03 3.12445E-01-3.26952E-14-9.32678E-13
 -1      1400 2.25581E+01 2.30281E-02-7.10264E-04 3.25766E-01-2.48482E-14-9.96913E-13
 -1      1401 2.18190E+01 3.89528E-02-6.45393E-03 5.61078E-01-9.86516E-14-5.81253E-13
 -1      1402 2.28898E+01 2.61126E-02-3.55481E-03 3.79276E-01 3.67731E-14-1.02634E-12
 -1      1403 2.33643E+01 2.10703E-02-1.90197E-03 3.93140E-01 3.83383E-14-9.43429E-13
 -1      1404 2.24114E+01 4.17518E-02-7.24552E-03 6.86277E-01 2.14030E-14-6.15315E-13
 -1      1405 2.37479E+01 2.16909E-02-4.74314E-03 4.38596E-01 4.60138E-14-8.37278E-13
 -1      1406 2.42900E+01 1.09975E-02-2.88314E-03 4.49564E-01 4.93629E-14-7.71196E-13
 -1      1407 2.31104E+01 3.56173E-02-7.10422E-03 8.06547E-01 7.52024E-14-6.00755E-13
 -1      1408 2.47069E+01 5.87054E-03-4.56380E-03 4.65329E-01-8.43379E-15-8.03382E-13
 -1      1409 2.52666E+01-1.32414E-02-2.29058E-03 4.66459E-01-5.29168E-14-8.53970E-13
 -1      1410 2.38971E+01 1.12792E-02-4.83982E-03 8.84042E-01-5.33807E-15-5.62529E-13
 -1      1411 2.56737E+01-2.87570E-02-6.78742E-04 4.16928E-01-2.84434E-14-7.83519E-13
 -1      1412 2.61431E+01-5.74562E-02 2.12264E-03 3.96613E-01 1.99250E-14-8.49289E-13
 -1      1413 2.47161E+01-4.37701E-02 1.41462E-03 8.51813E-01-3.33440E-14-4.74934E-13
 -1      1414 2.64639E+01-8.70841E-02 9.64354E-03 2.36213E-01 1.08481E-13-7.75482E-13
 -1      1415 2.66643E+01-1.19877E-01 1.21052E-02 1.79894E-01 9.21554E-14-6.54975E-13
 -1      1416 2.54568E+01-1.38574E-01 1.36684E-02 6.13186E-01 9.52485E-14-3.38120E-13
 -1      1417 2.67889E+01-1.59276E-01 2.61826E-02-1.22327E-01 7.25253E-14-6.14571E-13
 -1      1418 2.65008E+01-1.76577E-01 2.44308E-02-2.21798E-01 7.57276E-14-5.24192E-13
 -1      1419 2.59414E+01-2.59620E-01 3.17400E-02 7.21904E-02 1.80786E-13-2.47841E-13
 -1      1420 2.63123E+01-2.02894E-01 3.88001E-02-6.24902E-01 6.75328E-14-5.30027E-13
 -1      1421 2.53973E+01-1.70858E-01 2.64107E-02-7.44623E-01 5.93900E-14-4.92342E-13
 -1      1422 2.59427E+01-3.40661E-01 4.81111E-02-7.72911E-01 1.00791E-13-2.49398E-13
 -1      1423 2.48511E+01-1.43925E-01 2.76518E-02-1.07251E+00 2.73974E-14-5.09745E-13
 -1      1424 2.34560E+01-4.13540E-02 1.02525E-03-1.14025E+00-1.39871E-14-5.02112E-13
 -1      1425 2.52791E+01-2.65233E-01 4.27656E-02-1.67896E+00 1.36557E-14-2.84980E-13
 -1      1426 2.27053E+01 5.38099E-02-1.85254E-02-1.12068E+00 3.80668E-14-4.96714E-13
 -1      1427 2.13789E+01 1.86390E-01-4.99204E-02-1.05039E+00-2.04940E-14-4.61908E-13
 -1      1428 2.40234E+01 3.53834E-02-4.89724E-03-2.09864E+00 2.98537E-14-2.52881E-13
 -1      1429 2.08167E+01 2.84025E-01-7.29167E-02-5.52066E-01-4.63969E-14-5.37806E-13
 -1      1430 2.02751E+01 3.45877E-01-8.71411E-02-3.47697E-01 2.13128E-14-4.96445E-13
 -1      1431 2.27065E+01 4.27215E-01-7.88834E-02-1.49197E+00-1.07907E-13-2.44495E-13
 -1      1432 2.02863E+01 3.43766E-01-8.64149E-02 3.78546E-01-3.83409E-14-5.35098E-13
 -1      1433 2.08632E+01 2.77851E-01-7.11516E-02 5.80017E-01-1.00555E-13-6.06890E-13
 -1      1434 2.21440E+01 6.08947E-01-1.15172E-01 2.87941E-02-7.73132E-14-4.69385E-13
 -1      1435 2.14391E+01 1.78470E-01-4.75502E-02 1.06354E+00-1.22746E-13-6.88949E-13
 -1      1436 2.27793E+01 4.53890E-02-1.61468E-02 1.12834E+00-1.26388E-13-8.26117E-13
 -1      1437 2.27432E+01 4.16063E-01-7.56080E-02 1.53016E+00-2.19044E-13-5.66460E-13
 -1      1438 2.35275E+01-4.80140E-02 2.39737E-03 1.13202E+00-9.97735E-14-8.82433E-13
 -1      1439 2.49120E+01-1.48412E-01 2.83752E-02 1.06090E+00-1.56177E-14-1.01631E-12
 -1      1440 2.40699E+01 2.22894E-02-2.17109E-03 2.09768E+00-1.79494E-13-6.71657E-13
 -1      1441 2.54463E+01-1.72947E-01 2.64332E-02 7.25947E-01-5.73794E-14-1.04530E-12
 -1      1442 2.63389E+01-2.02682E-01 3.84293E-02 6.05957E-01 2.42167E-15-1.11770E-12
 -1      1443 2.53095E+01-2.71457E-01 4.33646E-02 1.65065E+00-2.48170E-14-7.96925E-13
 -1      1444 2.65144E+01-1.75208E-01 2.38947E-02 2.04301E-01 1.10511E-13-1.01063E-12
 -1      1445 2.67813E+01-1.56793E-01 2.54026E-02 1.06248E-01 1.08621E-13-9.83475E-13
 -1      1446 2.59475E+01-3.40166E-01 4.72886E-02 7.38788E-01 6.69360E-14-9.47496E-13
 -1      1447 2.66476E+01-1.17512E-01 1.16365E-02-1.90906E-01 4.33317E-14-9.20135E-13
 -1      1448 2.64337E+01-8.46400E-02 9.19511E-03-2.45736E-01 6.81972E-14-9.37661E-13
 -1      1449 2.59250E+01-2.55212E-01 3.10131E-02-9.75214E-02 1.63359E-13-6.93141E-13
 -1      1450 2.61080E+01-5.55180E-02 1.92825E-03-4.01450E-01 1.45311E-13-9.12617E-13
 -1      1451 2.56325E+01-2.70860E-02-8.59485E-04-4.20757E-01 1.21962E-13-7.26978E-13
 -1      1452 2.54276E+01-1.34605E-01 1.31421E-02-6.26748E-01 1.32108E-13-7.58383E-13
 -1      1453 2.52240E+01-1.19932E-02-2.31120E-03-4.67066E-01 1.27220E-13-7.93719E-13
 -1      1454 2.46635E+01 6.83791E-03-4.56219E-03-4.65374E-01 7.57575E-14-5.89896E-13
 -1      1455 2.46815E+01-4.10787E-02 1.11353E-03-8.56031E-01 1.56931E-13-6.76846E-13
 -1      1456 2.42477E+01 1.17186E-02-2.81746E-03-4.47693E-01 5.42053E-14-2.73444E-13
 -1      1457 2.37078E+01 2.22386E-02-4.66451E-03-4.36437E-01 1.13271E-13-2.43895E-13
 -1      1458 2.38628E+01 1.27841E-02-5.01231E-03-8.82261E-01 2.31534E-13-3.90205E-13
 -1      1459 2.33271E+01 2.15329E-02-1.81001E-03-3.89797E-01-1.59448E-13-2.62965E-13
 -1      1460 2.28566E+01 2.65176E-02-3.44316E-03-3.75749E-01-2.65790E-13-5.85245E-13
 -1      1461 2.30803E+01 3.64633E-02-7.21800E-03-8.01150E-01-2.79633E-14-3.22898E-13
 -1      1462 2.25292E+01 2.34537E-02-6.13171E-04-3.21255E-01-1.65275E-13-6.94512E-13
 -1      1463 2.21420E+01 2.52521E-02-2.10040E-03-3.07741E-01-1.00590E-13-8.85970E-13
 -1      1464 2.23884E+01 4.23934E-02-7.35485E-03-6.78324E-01-3.52624E-13-4.34478E-13
 -1      1465 2.18716E+01 2.16224E-02 2.66251E-04-2.55996E-01-1.95495E-14-8.54965E-13
 -1      1466 2.15638E+01 2.17929E-02-1.05725E-03-2.44321E-01-6.04126E-14-8.41931E-13
 -1      1467 2.18059E+01 3.97303E-02-6.60009E-03-5.50523E-01-1.13090E-13-5.87608E-13
 -1      1468 2.13467E+01 1.84297E-02 7.66154E-04-1.99554E-01 2.43249E-14-7.57656E-13
 -1      1469 2.11075E+01 1.78917E-02-3.63691E-04-1.89998E-01 1.57928E-13-6.40576E-13
 -1      1470 2.13311E+01 3.38541E-02-5.57326E-03-4.34811E-01 1.03833E-13-5.08553E-13
 -1      1471 2.09366E+01 1.51080E-02 9.75877E-04-1.53043E-01-1.18894E-14-5.59901E-13
 -1      1472 2.07540E+01 1.43701E-02 4.75147E-05-1.45417E-01-3.79080E-15-6.07932E-13
 -1      1473 2.09531E+01 2.75176E-02-4.56457E-03-3.36934E-01 1.26430E-13-4.63919E-13
 -1      1474 2.06219E+01 1.22425E-02 9.89932E-04-1.15469E-01 2.09390E-13-6.19594E-13
 -1      1475 2.04848E+01 1.15770E-02 2.40063E-04-1.09388E-01 1.82203E-13-3.14451E-13
 -1      1476 2.06576E+01 2.19880E-02-3.70088E-03-2.56820E-01 2.05398E-13-3.46762E-13
 -1      1477 2.03849E+01 1.01018E-02 8.47199E-04-8.49124E-02 2.04589E-13-1.69278E-13
 -1      1478 2.02850E+01 9.65103E-03 2.32674E-04-7.99074E-02 2.28160E-13 7.94976E-14
 -1      1479 2.04311E+01 1.78101E-02-3.04103E-03-1.91659E-01 3.70136E-13 6.26963E-14
 -1      1480 2.02119E+01 8.81671E-03 5.23944E-04-5.90604E-02 2.86313E-14 4.62845E-14
 -1      1481 2.01438E+01 8.59909E-03 3.11640E-05-5.46056E-02-3.08464E-14 1.82617E-15
 -1      1482 2.02617E+01 1.52516E-02-2.60806E-03-1.37454E-01 1.29193E-13 2.75398E-13
 -1      1483 2.00936E+01 8.30553E-03 2.79028E-05-3.56789E-02 5.54288E-14 9.85692E-14
 -1      1484 2.00547E+01 8.09483E-03-1.26547E-04-3.12372E-02 1.19924E-13 2.21138E-13
 -1      1485 2.01407E+01 1.43268E-02-2.31816E-03-8.99122E-02 2.63223E-14 5.36308E-14
 -1      1486 2.00234E+01 8.92524E-03-2.84998E-05-1.33128E-02 5.11242E-14 2.21319E-13
 -1      1487 2.00120E+01 6.70064E-03 9.21431E-04-8.69288E-03-6.07973E-14 3.19504E-13
 -1      1488 2.00604E+01 1.43882E-02-1.91689E-03-4.62681E-02 1.67977E-13 8.76998E-14
 -1      1489 1.99962E+01-7.19306E-04 2.42642E-03 4.21994E-03-2.73504E-13 2.59323E-13
 -1      1490 2.00115E+01 6.24568E-03-1.28669E-04-6.30122E-03-2.34039E-13 1.29667E-13
 -1      1491 2.02336E+01 7.54950E-02-1.52061E-01 4.84134E-01 2.26076E-13 2.45972E-12
 -1      1492 2.15041E+01 2.16030E-01-2.29245E-01 7.21078E-01 1.94372E-13 2.77642E-12
 -1      1493 2.17059E+01 8.81517E-01-8.53845E-02 2.06479E+00 3.70967E-13 1.90023E-12
 -1      1494 1.93050E+01 3.24261E-02-2.13344E-02 1.86215E-01 1.50758E-13 2.02456E-12
 -1      1495 1.97261E+01 1.13615E-01-6.26820E-02 2.38219E-01 1.57346E-13 2.27149E-12
 -1      1496 2.02810E+01 1.87716E-01-5.51579E-02 7.86464E-01 3.30506E-13 1.56250E-12
 -1      1497 1.89235E+01 1.52014E-02 5.65720E-03 5.34408E-02 1.19675E-13 1.71156E-12
 -1      1498 1.90623E+01 5.17041E-02 9.92421E-04 7.97774E-02 1.08456E-13 1.89065E-12
 -1      1499 1.95366E+01 7.19595E-02-1.21532E-02 2.98967E-01 2.47205E-13 1.28826E-12
 -1      1500 1.88146E+01 7.29707E-03 6.95504E-03-9.60890E-03 8.49702E-14 1.47251E-12
 -1      1501 1.88287E+01 2.60444E-02 1.11138E-02 4.87390E-03 8.83117E-14 1.60575E-12
 -1      1502 1.92028E+01 3.12855E-02-2.48221E-03 8.26705E-02 1.93710E-13 1.06877E-12
 -1      1503 1.88443E+01 3.49388E-03 4.74206E-03-4.08217E-02 6.62938E-14 1.31065E-12
 -1      1504 1.87990E+01 1.41457E-02 8.55786E-03-3.25267E-02 6.04083E-14 1.39907E-12
 -1      1505 1.90895E+01 1.37062E-02-1.66769E-03-2.37780E-02 1.27881E-13 9.12175E-13
 -1      1506 1.89455E+01 1.48260E-03 3.22715E-03-5.57575E-02 4.18233E-14 1.19035E-12
 -1      1507 1.88717E+01 7.82668E-03 5.42026E-03-5.09786E-02 3.97479E-14 1.24141E-12
 -1      1508 1.90967E+01 5.24154E-03-1.72677E-03-7.76452E-02 8.91206E-14 8.09039E-13
 -1      1509 1.90821E+01 4.29996E-04 2.40590E-03-6.19437E-02 7.69743E-14 1.03066E-12
 -1      1510 1.89960E+01 4.28003E-03 3.50190E-03-5.92396E-02 6.20109E-14 1.11441E-12
 -1      1511 1.91696E+01 9.33871E-04-1.53738E-03-1.03876E-01 1.11689E-13 6.65544E-13
 -1      1512 1.92345E+01-2.55101E-05 1.88809E-03-6.36459E-02 5.12629E-14 8.61818E-13
 -1      1513 1.91445E+01 2.33165E-03 2.41998E-03-6.21110E-02 6.06615E-14 9.52086E-13
 -1      1514 1.92776E+01-1.12528E-03-1.25524E-03-1.15271E-01 1.22287E-13 5.99998E-13
 -1      1515 1.93932E+01-7.30490E-05 1.47573E-03-6.35581E-02 6.38681E-14 7.41656E-13
 -1      1516 1.93030E+01 1.41900E-03 1.76530E-03-6.25715E-02 4.17305E-14 8.15059E-13
 -1      1517 1.94040E+01-1.81074E-03-1.03930E-03-1.19292E-01 9.20793E-14 4.95497E-13
 -1      1518 1.95549E+01 1.70201E-04 1.09931E-03-6.35066E-02 3.19465E-14 6.93522E-13
 -1      1519 1.94653E+01 1.23162E-03 1.33144E-03-6.26155E-02 4.22076E-14 7.47768E-13
 -1      1520 1.95405E+01-1.58893E-03-9.41491E-04-1.20723E-01 6.35799E-14 4.22192E-13
 -1      1521 1.97207E+01 6.20711E-04 7.39074E-04-6.47708E-02 3.99149E-14 5.95426E-13
 -1      1522 1.96304E+01 1.57339E-03 1.02662E-03-6.36310E-02 3.71853E-14 6.59864E-13
 -1      1523 1.96843E+01-7.46418E-04-9.64497E-04-1.22817E-01 5.36461E-14 4.49372E-13
 -1      1524 1.98946E+01 1.20711E-03 3.90919E-04-6.82341E-02 3.39953E-14 5.48169E-13
 -1      1525 1.98009E+01 2.30054E-03 8.05650E-04-6.65817E-02 2.98568E-14 5.56259E-13
 -1      1526 1.98362E+01 5.14752E-04-1.09617E-03-1.27826E-01 7.84125E-14 3.22135E-13
 -1      1527 2.00825E+01 1.85359E-03 5.78695E-05-7.44302E-02 3.30333E-14 5.20158E-13
 -1      1528 1.99818E+01 3.28338E-03 6.40036E-04-7.20745E-02 9.21626E-15 5.32617E-13
 -1      1529 1.99995E+01 2.02213E-03-1.31898E-03-1.37232E-01 5.18584E-14 3.02824E-13
 -1      1530 2.02912E+01 2.46288E-03-2.48727E-04-8.35070E-02 2.01059E-14 4.35495E-13
 -1      1531 2.01794E+01 4.37411E-03 5.07707E-04-8.03449E-02 3.92507E-14 4.85965E-13
 -1      1532 2.01792E+01 3.59101E-03-1.60738E-03-1.51785E-01 5.65088E-14 2.00358E-13
 -1      1533 2.05272E+01 2.89709E-03-5.03280E-04-9.51082E-02-2.41522E-15 4.11252E-13
 -1      1534 2.04005E+01 5.37282E-03 3.90193E-04-9.11609E-02 1.76722E-14 4.37316E-13
 -1      1535 2.03803E+01 4.98292E-03-1.91990E-03-1.71375E-01 1.12001E-14 2.31336E-13
 -1      1536 2.07950E+01 2.95680E-03-6.56049E-04-1.08162E-01 2.38541E-14 3.81800E-13
 -1      1537 2.06507E+01 5.98894E-03 2.73905E-04-1.03642E-01 1.07012E-14 3.56434E-13
 -1      1538 2.06072E+01 5.85955E-03-2.18745E-03-1.94747E-01 2.61841E-14 2.39582E-13
 -1      1539 2.10949E+01 2.36373E-03-6.19890E-04-1.20583E-01 1.46013E-13 2.08566E-13
 -1      1540 2.09326E+01 5.80182E-03 1.55410E-04-1.15990E-01 8.37673E-14 3.67388E-13
 -1      1541 2.08617E+01 5.73459E-03-2.29841E-03-2.19041E-01 1.03028E-13 1.19751E-13
 -1      1542 2.14198E+01 7.59883E-04-2.57198E-04-1.28910E-01-7.83086E-14 7.72403E-14
 -1      1543 2.12433E+01 4.23486E-03 5.12653E-05-1.25160E-01 5.78973E-14 1.61125E-13
 -1      1544 2.11410E+01 3.93806E-03-2.08375E-03-2.39199E-01 1.41501E-13 1.51639E-13
 -1      1545 2.17516E+01-2.25023E-03 6.21899E-04-1.28007E-01-4.25096E-14 2.11975E-13
 -1      1546 2.15712E+01 5.76399E-04 1.13785E-05-1.26556E-01-1.03557E-13 5.78114E-14
 -1      1547 2.14350E+01-3.70422E-04-1.31063E-03-2.47359E-01-1.28063E-13 5.17182E-14
 -1      1548 2.20570E+01-6.96953E-03 2.22430E-03-1.11068E-01-8.04004E-14 2.61934E-13
 -1      1549 2.18919E+01-5.88940E-03 1.28911E-04-1.13966E-01-3.97427E-14 2.42462E-13
 -1      1550 2.17232E+01-8.06922E-03 2.95460E-04-2.32572E-01-5.00463E-14 7.50775E-14
 -1      1551 2.22852E+01-1.33353E-02 4.65897E-03-7.04104E-02 5.09818E-14 3.21739E-13
 -1      1552 2.21647E+01-1.55490E-02 5.27252E-04-8.01382E-02 1.46194E-15 3.25337E-13
 -1      1553 2.19722E+01-1.97067E-02 2.96622E-03-1.81465E-01-8.98275E-14 1.62348E-13
 -1      1554 2.23684E+01-2.04809E-02 7.70266E-03 2.56603E-04 2.98967E-14 1.66609E-13
 -1      1555 2.23320E+01-2.78408E-02 1.29334E-03-1.85952E-02 2.19998E-14 3.04856E-13
 -1      1556 2.21349E+01-3.47789E-02 6.70188E-03-8.09133E-02 5.25482E-14 3.24732E-13
 -1      1557 2.22325E+01-2.62517E-02 1.04777E-02 1.01494E-01 3.47014E-14 7.78396E-14
 -1      1558 2.23236E+01-4.04101E-02 2.33218E-03 7.26981E-02 3.11665E-14 1.26637E-13
 -1      1559 2.21544E+01-5.06373E-02 1.09866E-02 7.61197E-02 9.34643E-14 1.75896E-13
 -1      1560 2.18187E+01-2.71259E-02 1.12551E-02 2.22100E-01-5.20395E-14 2.41591E-13
 -1      1561 2.20713E+01-4.84987E-02 3.16777E-03 1.85913E-01-5.87655E-14 1.67191E-13
 -1      1562 2.19759E+01-6.14734E-02 1.45172E-02 2.81204E-01-1.15331E-13 2.17105E-13
 -1      1563 2.11194E+01-1.92987E-02 7.86920E-03 3.34265E-01-1.02683E-13 3.74326E-13
 -1      1564 2.15372E+01-4.56050E-02 2.88444E-03 2.98256E-01-7.54757E-14 2.90563E-13
 -1      1565 2.15678E+01-5.86305E-02 1.52819E-02 5.00146E-01-1.20431E-13 2.36640E-13
 -1      1566 2.02145E+01-1.32962E-03-8.78093E-04 3.95881E-01 1.85055E-14 5.32602E-13
 -1      1567 2.07489E+01-2.65074E-02 5.05743E-04 3.72179E-01-8.48323E-15 4.89147E-13
 -1      1568 2.09513E+01-3.38500E-02 1.14672E-02 6.69581E-01-7.66054E-14 3.54142E-13
 -1      1569 1.92865E+01 2.28565E-02-1.33820E-02 3.65705E-01 7.42678E-14 3.71165E-13
 -1      1570 1.98290E+01 7.85132E-03-4.13036E-03 3.66670E-01 1.01153E-13 4.65128E-13
 -1      1571 2.02236E+01 1.39229E-02 2.90318E-03 7.11424E-01 1.34625E-13 3.71963E-13
 -1      1572 1.85826E+01 4.37286E-02-2.45228E-02 2.28715E-01-2.17066E-14 3.14086E-13
 -1      1573 1.89883E+01 4.71455E-02-9.50471E-03 2.59631E-01-6.50357E-14 3.19703E-13
 -1      1574 1.95541E+01 7.23106E-02-7.80130E-03 5.69634E-01-2.35584E-14 3.82123E-13
 -1      1575 1.83233E+01 5.07794E-02-2.80290E-02 1.58120E-02 1.20104E-14 3.10576E-13
 -1      1576 1.84652E+01 7.46618E-02-1.26373E-02 6.92273E-02 3.52079E-14 3.51623E-13
 -1      1577 1.91362E+01 1.16885E-01-1.60385E-02 2.53382E-01-1.96961E-14 3.79338E-13
 -1      1578 1.85964E+01 4.01313E-02-2.11233E-02-2.02628E-01-5.08187E-15 1.74659E-13
 -1      1579 1.84268E+01 7.72437E-02-1.10725E-02-1.45007E-01 6.38578E-14 2.47033E-13
 -1      1580 1.91054E+01 1.23986E-01-1.82310E-02-1.46999E-01 9.34010E-14 3.61380E-13
 -1      1581 1.93101E+01 1.77317E-02-7.11197E-03-3.53112E-01-1.69803E-14 1.92606E-13
 -1      1582 1.88857E+01 5.48268E-02-5.07382E-03-3.10490E-01-4.21546E-14 1.26774E-13
 -1      1583 1.94710E+01 8.84198E-02-1.43990E-02-4.97263E-01 2.17777E-14 2.87418E-13
 -1      1584 2.02414E+01-5.55674E-03 7.09418E-03-3.97879E-01-3.73191E-14 2.41522E-13
 -1      1585 1.96935E+01 1.98420E-02 2.39179E-03-3.80413E-01-1.32842E-14 1.61593E-13
 -1      1586 2.01120E+01 2.83133E-02-7.55518E-03-6.90138E-01-4.99262E-14 3.05327E-13
 -1      1587 2.11431E+01-2.12453E-02 1.59793E-02-3.46359E-01 1.23403E-13 2.22218E-14
 -1      1588 2.06156E+01-1.22407E-02 7.89699E-03-3.52465E-01 4.54710E-14 1.31346E-13
 -1      1589 2.08390E+01-2.88662E-02-1.11959E-03-6.94642E-01 8.78438E-14 2.23137E-14
 -1      1590 2.18350E+01-2.68252E-02 1.80715E-02-2.38074E-01-9.03617E-15-1.06814E-13
 -1      1591 2.14315E+01-3.18010E-02 9.78070E-03-2.58779E-01 5.37643E-14 1.42351E-14
 -1      1592 2.14768E+01-6.38593E-02 3.03218E-03-5.53024E-01 7.74276E-14 1.77150E-14
 -1      1593 2.22403E+01-2.45637E-02 1.51895E-02-1.16445E-01 1.19834E-13-2.38391E-13
 -1      1594 2.20037E+01-3.75308E-02 8.51209E-03-1.41719E-01 3.42747E-14-1.00628E-13
 -1      1595 2.19173E+01-7.28577E-02 4.72237E-03-3.41365E-01 9.94586E-14-4.78636E-14
 -1      1596 2.23692E+01-1.83413E-02 1.01832E-02-1.16689E-02-4.00990E-14-3.91114E-13
 -1      1597 2.22920E+01-3.34324E-02 5.64979E-03-3.44245E-02 5.91966E-14-2.92519E-13
 -1      1598 2.21293E+01-6.31639E-02 4.67519E-03-1.28904E-01 1.31955E-13-1.03507E-13
 -1      1599 2.22818E+01-1.13628E-02 5.28283E-03 6.29797E-02-1.88922E-13 5.82034E-14
 -1      1600 2.23280E+01-2.47133E-02 2.67268E-03 4.60447E-02-2.35529E-13-2.99051E-13
 -1      1601 2.21377E+01-4.50188E-02 3.76893E-03 4.22274E-02-2.10972E-13 1.70676E-13
 -1      1602 2.20527E+01-5.43259E-03 1.57517E-03 1.06827E-01 1.33202E-13 2.01454E-13
 -1      1603 2.21785E+01-1.53435E-02 4.22130E-04 9.61813E-02 1.40317E-14 2.44619E-13
 -1      1604 2.19952E+01-2.62955E-02 2.64614E-03 1.57321E-01-1.39238E-13 1.04751E-13
 -1      1605 2.17495E+01-1.16975E-03-7.40883E-04 1.25667E-01 1.04089E-13 8.99402E-14
 -1      1606 2.19160E+01-7.46170E-03-8.96021E-04 1.20293E-01 1.04146E-13 1.64081E-13
 -1      1607 2.17596E+01-1.11000E-02 1.64267E-03 2.19910E-01 1.43410E-13 3.75806E-13
 -1      1608 2.14235E+01 1.49739E-03-1.91258E-03 1.27085E-01-1.74821E-15-2.36035E-14
 -1      1609 2.16016E+01-1.76848E-03-1.43998E-03 1.25503E-01 5.43307E-14 5.95444E-15
 -1      1610 2.14802E+01-5.86028E-04 8.76471E-04 2.41837E-01 1.18927E-13 2.59141E-13
 -1      1611 2.11085E+01 2.92420E-03-2.30829E-03 1.17926E-01 6.28504E-14-1.70058E-13
 -1      1612 2.12795E+01 1.85476E-03-1.47999E-03 1.18750E-01-1.77163E-14-1.43286E-13
 -1      1613 2.11935E+01 5.70909E-03 3.47982E-04 2.36416E-01 8.77859E-14 1.31111E-13
 -1      1614 2.08242E+01 3.51815E-03-2.25839E-03 1.03333E-01-8.10192E-15-1.88498E-13
 -1      1615 2.09775E+01 3.86976E-03-1.25862E-03 1.05498E-01 6.69149E-14-7.57623E-14
 -1      1616 2.09233E+01 8.84718E-03 7.77321E-06 2.14976E-01 5.27731E-14 1.24568E-13
 -1      1617 2.05799E+01 3.64047E-03-2.01258E-03 8.66500E-02 1.14056E-14-1.94222E-13
 -1      1618 2.07107E+01 4.81326E-03-9.46808E-04 8.94537E-02-1.74415E-14-2.30791E-13
 -1      1619 2.06829E+01 9.93998E-03-2.09926E-04 1.85716E-01-3.73594E-15 1.00572E-13
 -1      1620 2.03785E+01 3.57999E-03-1.75568E-03 6.96661E-02-7.08624E-15-1.61399E-13
 -1      1621 2.04856E+01 5.18073E-03-6.54151E-04 7.27415E-02 1.49635E-14-2.28171E-13
 -1      1622 2.04785E+01 9.93443E-03-3.77381E-04 1.53729E-01-3.79753E-14 2.92550E-15
 -1      1623 2.02205E+01 3.54526E-03-1.63563E-03 5.29513E-02 1.58107E-13-4.33001E-13
 -1      1624 2.03038E+01 5.38419E-03-4.61880E-04 5.62161E-02 1.36635E-13-1.23985E-13
 -1      1625 2.03118E+01 9.56769E-03-5.75784E-04 1.21504E-01 1.58665E-13-1.01435E-13
 -1      1626 2.01053E+01 3.67591E-03-1.70258E-03 3.62242E-02 4.62119E-14-6.65794E-13
 -1      1627 2.01649E+01 5.73687E-03-4.34034E-04 3.98332E-02 9.62748E-14-4.47540E-13
 -1      1628 2.01827E+01 9.37404E-03-8.81187E-04 8.95692E-02 2.33188E-13-3.98878E-16
 -1      1629 2.00333E+01 3.98138E-03-1.51363E-03 1.87047E-02-1.73921E-14-4.92415E-13
 -1      1630 2.00684E+01 6.39181E-03-4.80078E-04 2.31070E-02 8.06191E-15-4.66027E-13
 -1      1631 2.00901E+01 9.80817E-03-1.18036E-03 5.73344E-02-2.13617E-14 2.00234E-13
 -1      1632 2.00039E+01 3.61213E-03 8.68966E-04 2.19355E-03-4.72043E-14-5.47953E-13
 -1      1633 2.00136E+01 6.10285E-03-3.11172E-05 6.58384E-03-1.77753E-14-6.29306E-13
 -1      1634 2.00319E+01 9.54385E-03-1.04634E-03 2.45797E-02 2.31730E-14 8.50914E-15
 -1      1635 1.99979E+01-3.19289E-04 2.06833E-03-2.71180E-03-3.19889E-13-4.15858E-13
 -1      1636 2.00065E+01 2.41222E-02-8.85678E-04 1.41383E-02-1.45286E-14 2.25820E-13
 -1      1637 2.00065E+01 1.21199E-02 6.83845E-04 9.90577E-03-3.40599E-13 2.73823E-13
 -1      1638 2.00051E+01 8.44157E-02-7.53417E-04 3.16942E-02 2.16596E-13 9.57760E-14
 -1      1639 2.00063E+01 5.05812E-02-6.14883E-04 2.83908E-02 8.60547E-14 5.27575E-14
 -1      1640 2.00128E+01 5.54218E-02-1.25870E-03 4.26429E-02-1.56577E-14 2.91483E-13
 -1      1641 2.00023E+01 1.71067E-01-3.71261E-04 4.36910E-02 1.31971E-13-8.13952E-14
 -1      1642 2.00040E+01 1.21657E-01-5.21429E-04 4.18366E-02 2.29969E-13 1.05536E-13
 -1      1643 2.00082E+01 1.19075E-01-1.29116E-03 7.19584E-02 3.47744E-14 9.42634E-14
 -1      1644 1.99994E+01 2.70631E-01-9.25782E-05 4.79926E-02 1.30008E-13 5.89403E-14
 -1      1645 2.00011E+01 2.14755E-01-2.55173E-04 4.77730E-02 1.13586E-13 1.04352E-13
 -1      1646 2.00033E+01 2.00171E-01-5.10215E-04 8.89183E-02 8.14223E-14-5.78236E-14
 -1      1647 1.99967E+01 3.65984E-01 2.90013E-05 4.46649E-02-1.27990E-13 8.83811E-14
 -1      1648 1.99983E+01 3.13816E-01-8.31670E-05 4.58853E-02 2.97865E-14-1.13312E-13
 -1      1649 1.99984E+01 2.87105E-01 3.54280E-04 9.10536E-02-9.40658E-14-1.68424E-13
 -1      1650 1.99945E+01 4.45935E-01 8.46999E-05 3.44718E-02 1.30725E-13 1.06499E-13
 -1      1651 1.99958E+01 4.04050E-01 2.19757E-05 3.69594E-02-3.32718E-14 1.53656E-13
 -1      1652 1.99941E+01 3.68253E-01 1.11957E-03 7.91304E-02-4.02739E-14 1.16068E-13
 -1      1653 1.99931E+01 4.96592E-01 1.04675E-04 1.89806E-02 2.84474E-13 5.46977E-14
 -1      1654 1.99939E+01 4.72440E-01 8.11894E-05 2.23534E-02 7.83974E-14 2.21022E-13
 -1      1655 1.99908E+01 4.32689E-01 1.73066E-03 5.50929E-02-2.14959E-14 2.19238E-13
 -1      1656 1.99927E+01 5.10032E-01 1.10104E-04 3.62696E-04 7.12455E-13 3.19562E-13
 -1      1657 1.99928E+01 5.07591E-01 1.26441E-04 4.16174E-03 4.08588E-13 1.24122E-13
 -1      1658 1.99888E+01 4.70222E-01 2.11217E-03 2.24718E-02 2.28071E-13 3.01691E-13
 -1      1659 1.99932E+01 4.83501E-01 9.51541E-05-1.87427E-02 3.75942E-13-2.86171E-13
 -1      1660 1.99927E+01 5.03632E-01 1.55517E-04-1.50602E-02 5.84647E-13 1.53531E-13
 -1      1661 1.99883E+01 4.75000E-01 2.21096E-03-1.41650E-02 3.25177E-13 1.83968E-13
 -1      1662 1.99949E+01 4.20198E-01 4.07001E-05-3.54285E-02-4.74316E-13-4.93430E-13
 -1      1663 1.99937E+01 4.60291E-01 1.59010E-04-3.24485E-02 2.87273E-13-5.36576E-13
 -1      1664 1.99896E+01 4.45676E-01 1.98711E-03-4.94943E-02 5.99008E-14-5.42850E-13
 -1      1665 1.99974E+01 3.31044E-01-6.35655E-05-4.66770E-02-7.65730E-13 1.23761E-13
 -1      1666 1.99958E+01 3.84027E-01 7.91479E-05-4.49771E-02-6.04254E-13-1.80431E-13
 -1      1667 1.99928E+01 3.86500E-01 1.46408E-03-7.77455E-02 4.36848E-14-6.53974E-13
 -1      1668 2.00007E+01 2.27253E-01-2.82335E-04-5.04323E-02-2.98536E-13 2.90935E-13
 -1      1669 1.99987E+01 2.86031E-01-1.04880E-04-5.03773E-02-6.60624E-13 5.08881E-13
 -1      1670 1.99973E+01 3.05548E-01 6.26851E-04-9.39986E-02-1.05875E-14 4.64365E-13
 -1      1671 2.00041E+01 1.28060E-01-6.85762E-04-4.49690E-02-2.54869E-13 1.16058E-13
 -1      1672 2.00022E+01 1.81035E-01-4.55098E-04-4.68201E-02-3.18988E-13 6.84343E-14
 -1      1673 2.00031E+01 2.14175E-01-3.78740E-04-9.44515E-02-3.57683E-14 2.36825E-13
 -1      1674 2.00078E+01 5.29965E-02-2.75521E-04-3.06046E-02-4.79261E-13-3.01016E-14
 -1      1675 2.00053E+01 8.84586E-02-9.52199E-04-3.44385E-02-3.89817E-13 8.31173E-14
 -1      1676 2.00087E+01 1.27809E-01-1.34875E-03-7.71797E-02-1.61429E-13-6.76325E-16
 -1      1677 2.00119E+01 2.08471E-02 1.05526E-03-1.76608E-02-2.96626E-13-1.31940E-14
 -1      1678 2.00115E+01 3.42348E-02-8.31673E-04-2.42938E-02-2.85240E-13-2.39974E-14
 -1      1679 2.00207E+01 7.03747E-02-6.09424E-04-5.63597E-02-2.45157E-13 9.74182E-14
 -1      1680 2.00330E+01 3.51979E-02 8.22836E-04-3.73463E-02-1.13981E-13 9.98204E-14
 -1      1681-6.17308E-01-1.47741E+01-1.68123E+00-8.61687E-01 9.79439E-13 2.59542E-13
 -1      1682-6.18897E-01-1.68873E+01-1.87515E+00 4.85030E-01 7.57838E-13 2.27124E-13
 -1      1683 1.45501E+00-7.92041E+00-1.12708E+00 8.37426E-01 6.13065E-13-1.65798E-13
 -1      1684 6.86656E-01-1.30343E+01-1.64956E+00 2.45176E-01 9.85878E-13-7.63486E-14
 -1      1685 7.76769E+00-8.31026E-01-4.28833E-01 5.03554E+00 4.25437E-13 5.98188E-13
 -1      1686 4.74292E+00-6.04149E+00-1.10548E+00 2.36224E+00 4.40981E-13 2.20546E-13
 -1      1687 1.74764E+01 5.11894E+00 2.93361E-01 9.77784E+00 6.53144E-13 7.91700E-13
 -1      1688 1.10468E+01 1.55556E+00-5.68609E-01 6.05773E+00 5.50671E-13 6.26277E-13
 -1      1689 3.12295E+01 6.75402E+00 1.00244E+00 1.27870E+01 6.23834E-13 1.02407E-12
 -1      1690 2.23880E+01 6.39158E+00 1.78450E-01 1.07420E+01 6.84897E-13 8.69749E-13
 -1      1691 4.46971E+01 5.32982E+00 1.52596E+00 1.10932E+01 4.58911E-13 6.12732E-13
 -1      1692 3.63113E+01 6.88685E+00 9.32027E-01 1.24071E+01 6.49480E-13 9.02389E-13
 -1      1693 5.30581E+01 3.72585E+00 1.74909E+00 4.65983E+00 3.26128E-13 4.77396E-14
 -1      1694 4.80824E+01 5.11928E+00 1.44503E+00 9.02137E+00 4.66710E-13 5.11924E-13
 -1      1695 5.37205E+01 3.78106E+00 1.68487E+00-3.25376E+00 4.89137E-13-8.10019E-13
 -1      1696 5.41662E+01 3.66788E+00 1.72739E+00 2.19812E+00 3.97654E-13-2.15911E-13
 -1      1697 4.59224E+01 5.49987E+00 1.29917E+00-9.62914E+00 7.71147E-13-1.54821E-12
 -1      1698 5.18274E+01 3.95142E+00 1.67343E+00-5.55443E+00 4.99295E-13-1.12405E-12
 -1      1699 3.34054E+01 6.87120E+00 7.37149E-01-1.20842E+01 1.72357E-12-2.14451E-12
 -1      1700 4.21604E+01 5.52918E+00 1.36743E+00-1.14180E+01 1.09807E-12-1.72773E-12
 -1      1701 1.96678E+01 5.81834E+00 9.24688E-03-9.92019E+00 2.30571E-12-2.46070E-12
 -1      1702 2.81999E+01 6.73138E+00 8.40595E-01-1.24888E+01 1.87439E-12-2.38698E-12
 -1      1703 9.46370E+00-5.49162E-02-7.50613E-01-5.07267E+00 2.17726E-12-1.93501E-12
 -1      1704 1.52262E+01 3.93091E+00 8.98182E-02-8.76565E+00 2.27707E-12-2.24054E-12
 -1      1705 2.61164E+00-7.68589E+00-1.44309E+00-9.77288E-01 1.48204E-12-1.16718E-12
 -1      1706 5.01938E+00-1.80167E+00-7.12092E-01-3.48632E+00 2.12763E-12-1.91536E-12
 -1      1707 1.32471E-01-1.46070E+01-1.81900E+00 1.84757E-01 4.67626E-13-5.99437E-13
 -1      1708 5.33171E-01-9.90583E+00-1.36880E+00 1.62895E-01 1.27853E-12-9.17266E-13
 -1      1709-7.21129E-01-1.71356E+01-1.90205E+00-7.44382E-01-7.00023E-13-3.96405E-13
 -1      1710-7.03155E-01-1.58462E+01-1.78629E+00 7.88914E-01 1.29341E-13-4.99212E-13
 -1      1711-4.72446E-01-1.37434E+01-1.64043E+00-1.18829E+00-1.66334E-12-8.34638E-13
 -1      1712-4.92979E-01-1.65982E+01-1.88079E+00-1.84808E-01-1.05183E-12-4.76147E-13
 -1      1713 1.74207E+00-7.28987E+00-1.23252E+00 4.77819E-01-2.41696E-12-1.45461E-12
 -1      1714 8.06512E-01-1.23599E+01-1.75043E+00-4.61778E-01-1.89027E-12-1.04840E-12
 -1      1715 7.72788E+00-1.06565E-01-5.93853E-01 4.77859E+00-2.49045E-12-1.97486E-12
 -1      1716 4.37261E+00-5.29108E+00-1.33777E+00 1.77894E+00-2.50977E-12-1.58312E-12
 -1      1717 1.86298E+01 4.74271E+00 1.75530E-01 9.77283E+00-2.05569E-12-2.11253E-12
 -1      1718 1.18483E+01 1.63896E+00-7.11835E-01 6.12885E+00-2.37765E-12-1.99762E-12
 -1      1719 3.34788E+01 5.66342E+00 9.74105E-01 1.19432E+01-1.37401E-12-2.07279E-12
 -1      1720 2.43714E+01 5.25842E+00 1.10618E-01 1.00778E+01-1.76781E-12-2.04614E-12
 -1      1721 4.72476E+01 5.00617E+00 1.70309E+00 1.05833E+01-9.35890E-13-1.39022E-12
 -1      1722 3.84881E+01 6.43121E+00 9.86448E-01 1.20092E+01-1.18033E-12-1.88982E-12
 -1      1723 5.58067E+01 3.68924E+00 2.03656E+00 3.98279E+00-4.46254E-13-5.82145E-13
 -1      1724 5.06780E+01 4.93874E+00 1.65644E+00 8.60701E+00-8.18498E-13-1.21314E-12
 -1      1725 5.63423E+01 3.81486E+00 2.02947E+00-4.15339E+00-2.37727E-13 6.99441E-15
 -1      1726 5.72808E+01 3.53467E+00 2.07938E+00 1.49924E+00-1.28841E-13-3.81264E-13
 -1      1727 4.78110E+01 5.43125E+00 1.50799E+00-1.02305E+01-6.31870E-13 7.73048E-13
 -1      1728 5.43658E+01 3.94370E+00 2.03162E+00-6.49062E+00-4.36734E-13 1.53544E-13
 -1      1729 3.41979E+01 6.17455E+00 6.94602E-01-1.13675E+01-1.00847E-12 1.22258E-12
 -1      1730 4.33127E+01 5.19502E+00 1.45252E+00-1.09943E+01-6.74738E-13 8.22231E-13
 -1      1731 2.04214E+01 5.08339E+00-8.20624E-02-9.60020E+00-1.21403E-12 1.47438E-12
 -1      1732 2.88515E+01 6.04480E+00 7.62642E-01-1.20891E+01-1.12699E-12 1.35181E-12
 -1      1733 9.78921E+00 1.78721E-01-7.96016E-01-5.05050E+00-7.94920E-13 1.02518E-12
 -1      1734 1.55028E+01 3.97326E+00 2.63936E-02-8.63335E+00-1.06137E-12 1.54499E-12
 -1      1735 4.14460E+00-7.47013E+00-1.28393E+00-1.58146E+00 4.90719E-14 4.21663E-13
 -1      1736 6.93915E+00-2.29247E+00-6.45345E-01-4.09754E+00-4.85167E-13 7.89535E-13
 -1      1737 2.14508E-01-1.40325E+01-1.81727E+00 5.84368E-01 4.93827E-13 4.87041E-14
 -1      1738 6.53041E-01-9.36316E+00-1.38451E+00 3.28113E-01 1.48881E-13 2.47122E-13
 -1      1739-5.89142E-01-1.64180E+01-1.78534E+00-1.13065E-01 7.25309E-13 1.19293E-13
 -1      1740-6.20178E-01-1.47643E+01-1.66516E+00 1.11703E+00 4.67293E-13 1.12577E-13
 -1      1741 2.40476E+01 1.19795E+00 2.37689E-01 7.62737E+00 2.47358E-13 4.79394E-13
 -1      1742 1.45826E+01-3.49148E+00-3.73054E-01 6.64762E+00 9.99201E-14 4.53082E-13
 -1      1743 2.00055E+01 2.14030E-03 2.88979E-04 1.29449E-03-4.33242E-13 5.23702E-15
 -1      1744 2.00147E+01 2.10493E-02 6.07651E-05 1.67629E-02-8.80828E-14 3.81227E-13
 -1      1745 5.61382E-01-1.00893E+01-1.14392E+00 2.65830E+00 2.93265E-13-1.98730E-14
 -1      1746 6.65057E+00-6.85122E+00-6.37286E-01 5.31217E+00 3.35842E-13-5.92373E-14
 -1      1747-1.36115E+00-1.13007E+01-1.29713E+00 2.25080E-01 3.03105E-13 2.68119E-13
 -1      1748 3.43452E+01 4.49646E+00 8.69047E-01 7.45500E+00 2.94376E-13 2.85105E-13
 -1      1749 4.23038E+01 6.42786E+00 1.29238E+00 5.08295E+00 5.23859E-13 1.54321E-14
 -1      1750 4.63015E+01 7.29796E+00 1.45723E+00 1.60569E+00 6.40155E-13-2.66842E-13
 -1      1751 4.55304E+01 7.31005E+00 1.39341E+00-1.94600E+00 7.45237E-13-6.85452E-13
 -1      1752 4.06618E+01 6.04561E+00 1.14626E+00-5.15379E+00 9.67726E-13-9.58456E-13
 -1      1753 3.23044E+01 3.90778E+00 7.43475E-01-7.44691E+00 1.36996E-12-1.17195E-12
 -1      1754 2.20682E+01 2.41013E-01 1.14833E-01-7.43508E+00 1.26166E-12-1.29807E-12
 -1      1755 1.23275E+01-3.80475E+00-3.84916E-01-6.26300E+00 9.75220E-13-1.47748E-12
 -1      1756 4.11956E+00-7.94798E+00-9.60257E-01-3.96791E+00 6.98885E-13-1.25105E-12
 -1      1757-3.13093E-01-1.10425E+01-1.29537E+00-1.87321E+00 1.15907E-13-1.01075E-12
 -1      1758-1.30301E+00-1.16364E+01-1.34746E+00 2.36055E-01-5.36238E-13-8.64975E-13
 -1      1759 1.17548E+00-1.00962E+01-1.20763E+00 2.35791E+00-1.02829E-12-1.08882E-12
 -1      1760 6.78769E+00-7.01041E+00-8.85550E-01 4.44382E+00-1.42331E-12-1.25407E-12
 -1      1761 1.52509E+01-2.98541E+00-3.58309E-01 6.27549E+00-1.53455E-12-1.28902E-12
 -1      1762 2.60158E+01 5.83719E-01 2.89089E-01 7.00815E+00-1.34737E-12-1.26521E-12
 -1      1763 3.61785E+01 3.65790E+00 8.28842E-01 6.17281E+00-1.09410E-12-9.02833E-13
 -1      1764 4.44278E+01 6.18473E+00 1.39860E+00 4.41470E+00-1.04625E-12-7.20757E-13
 -1      1765 4.86353E+01 7.34493E+00 1.67999E+00 1.10490E+00-4.76508E-13-4.42285E-13
 -1      1766 4.83094E+01 7.00080E+00 1.66928E+00-2.36249E+00-5.35461E-13 7.27196E-14
 -1      1767 4.21340E+01 5.47061E+00 1.20227E+00-4.76657E+00-6.94153E-13 2.50133E-13
 -1      1768 3.34181E+01 3.01730E+00 7.28772E-01-6.60999E+00-6.56808E-13 3.30402E-13
 -1      1769 2.28270E+01-7.42310E-02 8.85241E-02-7.15366E+00-3.30069E-13 8.36331E-13
 -1      1770 1.34790E+01-4.52205E+00-5.31423E-01-6.01612E+00 1.27565E-13 7.11209E-13
 -1      1771 5.78869E+00-7.72103E+00-7.89784E-01-4.48002E+00 3.35731E-13 5.71185E-13
 -1      1772 1.63383E-01-1.04341E+01-1.22149E+00-1.81196E+00 5.10703E-13 1.69309E-13
 -1      1773 2.28368E+01 1.98385E+00-2.36477E-02-2.72194E+00-3.64594E-13 1.09288E-12
 -1      1774 1.98241E+01 3.71380E+00-3.54263E-02-2.15207E+00-3.80817E-13-6.26645E-13
 -1      1775 2.00533E+01 3.56224E+00-4.02133E-02-2.44435E+00-4.57408E-13-5.00482E-13
 -1      1776 2.03549E+01 3.18078E+00-4.57169E-02-2.58450E+00-4.71140E-13-3.21514E-13
 -1      1777 2.05707E+01 2.80870E+00-1.42484E-01-2.85274E+00-5.32279E-13-7.90895E-14
 -1      1778 2.04176E+01 2.69280E+00-4.22496E-03-2.22347E+00-4.93476E-13-3.67723E-13
 -1      1779 1.93640E+01 4.19185E+00-2.00502E-02-1.26911E+00-1.63694E-13-8.05248E-13
 -1      1780 1.94360E+01 4.15163E+00-1.68567E-02-1.49356E+00-2.17174E-13-7.97955E-13
 -1      1781 1.92699E+01 4.29918E+00-1.67632E-02-8.58301E-01-5.05837E-14-7.93636E-13
 -1      1782 1.93115E+01 4.27470E+00-1.42074E-02-1.06894E+00-1.08288E-13-8.01637E-13
 -1      1783 1.95368E+01 3.78767E+00-8.87896E-03-1.11739E+00-1.52194E-13-7.68469E-13
 -1      1784 1.92199E+01 4.36061E+00-1.48042E-02-4.65910E-01 5.44262E-14-7.70328E-13
 -1      1785 1.92412E+01 4.34741E+00-1.32865E-02-6.65978E-01 4.97237E-15-7.85616E-13
 -1      1786 1.94416E+01 3.90938E+00-9.07215E-03-7.31480E-01-2.70152E-14-7.59677E-13
 -1      1787 1.92011E+01 4.38669E+00-1.36750E-02-8.33568E-02 1.58562E-13-7.40541E-13
 -1      1788 1.92074E+01 4.38266E+00-1.32093E-02-2.78513E-01 1.12127E-13-7.68033E-13
 -1      1789 1.93926E+01 3.97481E+00-9.06324E-03-3.57313E-01 8.21267E-14-7.45431E-13
 -1      1790 1.92089E+01 4.38129E+00-1.31694E-02 2.97739E-01 2.47451E-13-6.97825E-13
 -1      1791 1.92016E+01 4.38587E+00-1.37589E-02 1.02429E-01 2.07518E-13-7.22301E-13
 -1      1792 1.93782E+01 3.99458E+00-9.05704E-03 1.06521E-02 1.95658E-13-7.12874E-13
 -1      1793 1.92450E+01 4.34341E+00-1.33196E-02 6.85914E-01 3.31330E-13-6.47841E-13
 -1      1794 1.92225E+01 4.35744E+00-1.49320E-02 4.85348E-01 2.87174E-13-6.78390E-13
 -1      1795 1.93951E+01 3.97152E+00-9.10743E-03 3.78792E-01 2.86234E-13-6.59507E-13
 -1      1796 1.93163E+01 4.26885E+00-1.43917E-02 1.08322E+00 4.13642E-13-5.44138E-13
 -1      1797 1.92742E+01 4.29383E+00-1.69915E-02 8.75399E-01 3.70718E-13-6.07672E-13
 -1      1798 1.94465E+01 3.90304E+00-9.12518E-03 7.50229E-01 3.72622E-13-5.98282E-13
 -1      1799 1.94446E+01 4.14013E+00-1.73785E-02 1.51316E+00 5.16405E-13-3.84161E-13
 -1      1800 1.93699E+01 4.18336E+00-2.05156E-02 1.28365E+00 4.55476E-13-4.72906E-13
 -1      1801 1.95438E+01 3.77765E+00-9.18603E-03 1.13355E+00 4.68695E-13-4.78053E-13
 -1      1802 1.96689E+01 3.92203E+00-2.51680E-02 1.97843E+00 5.98212E-13-1.73150E-13
 -1      1803 1.95387E+01 3.99948E+00-2.68960E-02 1.72105E+00 5.46661E-13-3.00024E-13
 -1      1804 1.97135E+01 3.56882E+00-8.67290E-03 1.53325E+00 5.59814E-13-3.04480E-13
 -1      1805 2.00710E+01 3.52242E+00-4.51505E-02 2.47114E+00 6.38137E-13 1.78468E-13
 -1      1806 1.98344E+01 3.68350E+00-3.96796E-02 2.18201E+00 6.03921E-13-3.79106E-14
 -1      1807 2.00046E+01 3.22409E+00-5.25978E-03 1.93293E+00 6.26544E-13-7.13596E-14
 -1      1808 2.09082E+01 2.68092E+00-5.76043E-02 2.85706E+00 5.85502E-13 7.93088E-13
 -1      1809 2.04051E+01 3.09630E+00-5.03566E-02 2.61534E+00 6.06190E-13 4.31946E-13
 -1      1810 2.05108E+01 2.61001E+00 3.18616E-03 2.24346E+00 6.39767E-13 3.08635E-13
 -1      1811 2.17124E+01 1.21266E+00-1.22013E-01 2.32950E+00 4.56253E-13 1.50165E-12
 -1      1812 2.12592E+01 2.26219E+00 1.28756E-04 2.73991E+00 5.27590E-13 1.03130E-12
 -1      1813 2.09243E+01 1.68482E+00-2.29342E-02 2.13963E+00 5.98979E-13 7.64694E-13
 -1      1814 2.09339E+01 7.78570E-01-6.24250E-02 1.52410E+00 4.73337E-13 1.34391E-12
 -1      1815 2.17792E+01 2.45712E+00 9.09060E-02-3.04773E+00-4.74376E-13 3.51552E-13
 -1      1816 2.00840E+01 2.98208E-01-8.88934E-03 6.56730E-01 3.47663E-13 1.10045E-12
 -1      1817 2.06357E+01 4.40557E-01-1.24331E-02 1.03382E+00 3.90542E-13 1.23058E-12
 -1      1818 2.07296E+01 8.45194E-01 2.24383E-03 1.41470E+00 4.81715E-13 8.94106E-13
 -1      1819 2.14919E+01 1.74186E+00 7.94039E-02-2.33676E+00-4.94299E-13 1.85227E-13
 -1      1820 2.05057E+01 5.00938E-01 3.24201E-02-9.21250E-01-3.93532E-13 1.27187E-13
 -1      1821 2.00746E+01 3.52723E-01 7.63383E-03-6.29103E-01-3.50369E-13 3.01027E-14
 -1      1822 1.98812E+01 2.58323E-01 2.74614E-02-3.89838E-01-3.29797E-13 2.16433E-14
 -1      1823 1.96914E+01 1.79280E-01 1.05383E-02-2.51353E-01-2.92552E-13-6.93707E-14
 -1      1824 2.01892E+01 4.84617E-01-6.04604E-03-7.20858E-01-4.07886E-13-1.30397E-13
 -1      1825 1.95711E+01 1.34244E-01 1.67356E-02-1.16686E-01-2.54325E-13-7.33111E-14
 -1      1826 1.94950E+01 9.51020E-02 7.15048E-03-4.48090E-02-2.06936E-13-1.42310E-13
 -1      1827 1.98662E+01 2.45899E-01-5.88801E-03-2.91533E-01-3.14304E-13-1.54331E-13
 -1      1828 1.94329E+01 7.09634E-02 8.79877E-03 3.06693E-02-1.88080E-13-1.47775E-13
 -1      1829 1.94218E+01 5.00036E-02 4.38985E-03 6.86143E-02-1.74518E-13-2.10460E-13
 -1      1830 1.96880E+01 1.28694E-01-4.78762E-03-5.12205E-02-2.44909E-13-1.90364E-13
 -1      1831 1.94000E+01 3.63827E-02 4.40351E-03 1.10353E-01-1.66878E-13-2.36123E-13
 -1      1832 1.94254E+01 2.49209E-02 2.84042E-03 1.29827E-01-1.54965E-13-3.03710E-13
 -1      1833 1.96084E+01 6.64040E-02-3.67349E-03 8.40575E-02-2.10260E-13-2.61282E-13
 -1      1834 1.94300E+01 1.72345E-02 2.08741E-03 1.52200E-01-1.36631E-13-2.79224E-13
 -1      1835 1.94758E+01 1.13702E-02 2.03107E-03 1.61577E-01-8.82478E-14-3.12034E-13
 -1      1836 1.95947E+01 3.22501E-02-2.62303E-03 1.58960E-01-1.43513E-13-2.69568E-13
 -1      1837 1.94975E+01 7.44081E-03 8.66493E-04 1.73316E-01-8.43531E-14-3.19389E-13
 -1      1838 1.95549E+01 5.21698E-03 1.64758E-03 1.77721E-01-7.61616E-14-3.02210E-13
 -1      1839 1.96239E+01 1.43633E-02-1.82091E-03 1.99511E-01-1.02397E-13-2.63452E-13
 -1      1840 1.95881E+01 3.88690E-03 2.43232E-04 1.84558E-01-8.65205E-14-3.21221E-13
 -1      1841 1.96528E+01 4.24581E-03 1.55179E-03 1.87459E-01-5.64474E-14-3.29802E-13
 -1      1842 1.96809E+01 6.94926E-03-1.29819E-03 2.22081E-01-9.01362E-14-2.82469E-13
 -1      1843 1.96942E+01 4.85922E-03-2.49753E-05 1.93449E-01-6.31703E-14-3.40239E-13
 -1      1844 1.97649E+01 7.21983E-03 1.68648E-03 1.97403E-01-8.41713E-14-3.73674E-13
 -1      1845 1.97573E+01 6.91624E-03-1.01606E-03 2.37770E-01-9.92908E-14-3.12999E-13
 -1      1846 1.98136E+01 9.40310E-03-6.67406E-05 2.05642E-01-9.09283E-14-3.68753E-13
 -1      1847 1.98913E+01 1.34678E-02 2.02795E-03 2.12707E-01-4.67027E-14-3.77906E-13
 -1      1848 1.98489E+01 1.25656E-02-9.23149E-04 2.54689E-01-7.53066E-14-2.94434E-13
 -1      1849 1.99475E+01 1.70232E-02 4.03868E-05 2.25745E-01-7.90802E-14-4.01325E-13
 -1      1850 2.00350E+01 2.26772E-02 2.56729E-03 2.37724E-01-8.25567E-14-4.46042E-13
 -1      1851 1.99552E+01 2.30024E-02-9.74915E-04 2.79229E-01-9.80116E-14-3.04057E-13
 -1      1852 2.01003E+01 2.75194E-02 2.43047E-04 2.57832E-01-5.25626E-14-5.08244E-13
 -1      1853 2.02019E+01 3.47605E-02 3.30050E-03 2.76428E-01 4.05860E-15-4.88127E-13
 -1      1854 2.00780E+01 3.78340E-02-1.13587E-03 3.16818E-01-1.04615E-13-3.48819E-13
 -1      1855 2.02787E+01 4.08589E-02 4.98765E-04 3.05742E-01 5.00598E-14-5.04080E-13
 -1      1856 2.04000E+01 4.97193E-02 4.21679E-03 3.32629E-01 5.35417E-14-4.24483E-13
 -1      1857 2.02216E+01 5.69615E-02-1.37674E-03 3.72381E-01 1.59230E-14-3.36980E-13
 -1      1858 2.04914E+01 5.70163E-02 7.67127E-04 3.73182E-01 1.85160E-14-4.86467E-13
 -1      1859 2.06393E+01 6.74337E-02 5.27926E-03 4.09967E-01 1.86394E-14-4.70195E-13
 -1      1860 2.03917E+01 8.03454E-02-1.67154E-03 4.50534E-01 2.32717E-14-4.37690E-13
 -1      1861 2.07490E+01 7.56998E-02 1.00274E-03 4.63539E-01-2.69210E-14-4.15157E-13
 -1      1862 2.09311E+01 8.72798E-02 6.39141E-03 5.11518E-01-3.60781E-14-4.35291E-13
 -1      1863 2.05953E+01 1.07625E-01-1.99695E-03 5.55459E-01 2.07226E-14-4.25368E-13
 -1      1864 2.10631E+01 9.58428E-02 1.15112E-03 5.79189E-01-4.62117E-14-4.72733E-13
 -1      1865 2.12873E+01 1.07415E-01 7.34251E-03 6.38744E-01-6.55379E-14-4.72913E-13
 -1      1866 2.08403E+01 1.37423E-01-2.33700E-03 6.90254E-01-6.22497E-14-3.69247E-13
 -1      1867 2.14457E+01 1.14666E-01 1.15344E-03 7.19911E-01-5.24264E-14-4.13695E-13
 -1      1868 2.17185E+01 1.23499E-01 7.72900E-03 7.89255E-01-5.16635E-14-3.94649E-13
 -1      1869 2.11347E+01 1.66060E-01-2.69776E-03 8.55394E-01-1.93372E-14-3.38927E-13
 -1      1870 2.19074E+01 1.26058E-01 9.73587E-04 8.79761E-01-8.56825E-14-3.80977E-13
 -1      1871 2.22314E+01 1.26611E-01 6.86500E-03 9.52636E-01-8.84492E-15-4.25359E-13
 -1      1872 2.14866E+01 1.85339E-01-3.13592E-03 1.04570E+00-5.38042E-14-2.52666E-13
 -1      1873 2.24556E+01 1.18100E-01 6.66304E-04 1.04156E+00 7.51452E-14-4.70821E-13
 -1      1874 2.28249E+01 1.00426E-01 3.74276E-03 1.10347E+00 9.98277E-14-4.85566E-13
 -1      1875 2.19038E+01 1.79121E-01-3.80130E-03 1.24498E+00 1.64257E-14-4.03196E-13
 -1      1876 2.30902E+01 7.01972E-02 5.03300E-04 1.16823E+00 6.15365E-14-4.92256E-13
 -1      1877 2.34841E+01 1.89727E-02-2.81913E-03 1.19152E+00-2.68877E-14-4.81685E-13
 -1      1878 2.23942E+01 1.19212E-01-4.95542E-03 1.41765E+00 6.94543E-14-4.31654E-13
 -1      1879 2.37983E+01-4.76637E-02 1.02843E-03 1.19196E+00 2.21212E-14-2.85213E-13
 -1      1880 2.41728E+01-1.50198E-01-1.35394E-02 1.13196E+00 1.24626E-13-2.35105E-13
 -1      1881 2.29670E+01-3.62287E-02-6.85327E-03 1.49752E+00 1.03791E-13-2.75267E-13
 -1      1882 2.45437E+01-2.65911E-01 2.80390E-03 1.00716E+00 1.01346E-13-2.05668E-13
 -1      1883 2.48261E+01-4.26017E-01-2.71552E-02 8.07195E-01 1.69575E-13-1.35729E-13
 -1      1884 2.36322E+01-3.32257E-01-9.23899E-03 1.37809E+00 1.56336E-13-5.27326E-14
 -1      1885 2.52466E+01-5.82068E-01 5.04987E-03 4.86441E-01 1.94702E-13-1.51584E-13
 -1      1886 2.53412E+01-7.60871E-01-3.78749E-02 1.06187E-01 1.99719E-13-4.16110E-14
 -1      1887 2.43895E+01-7.75002E-01-1.01972E-02 9.18684E-01 2.05381E-13-5.91797E-14
 -1      1888 2.57534E+01-8.89298E-01 3.56667E-03-4.42437E-01 1.69901E-13-1.42893E-13
 -1      1889 2.55737E+01-9.60253E-01-3.51401E-02-9.59376E-01 5.94646E-14-1.20891E-13
 -1      1890 2.51885E+01-1.23904E+00-5.28978E-03-4.45205E-05 1.44449E-13-7.45311E-14
 -1      1891 2.58244E+01-9.08368E-01-1.25820E-02-1.61868E+00 3.45141E-14-1.90081E-13
 -1      1892 2.53668E+01-6.82101E-01-1.37366E-02-2.06075E+00 2.89014E-14-1.33180E-13
 -1      1893 2.58527E+01-1.36129E+00 6.95534E-03-1.32048E+00 7.06536E-14 8.10360E-15
 -1      1894 2.52742E+01-3.01233E-01-4.43227E-02-2.45855E+00 1.39385E-14-1.55981E-13
 -1      1895 2.46848E+01 2.62645E-01 8.10589E-03-2.46967E+00-5.05151E-14-1.89989E-13
 -1      1896 2.60668E+01-6.75303E-01 2.82691E-03-2.54939E+00 1.79180E-14-9.43516E-15
 -1      1897 2.43080E+01 8.53624E-01-6.25139E-02-2.13405E+00-1.00045E-13-2.36665E-13
 -1      1898 2.38839E+01 1.39058E+00-7.74725E-05-1.50571E+00-1.42518E-13-2.21910E-13
 -1      1899 2.56654E+01 8.51256E-01-3.39805E-02-2.71960E+00-8.70901E-14-3.61464E-13
 -1      1900 2.36663E+01 1.68876E+00-3.68757E-02-4.36943E-01-2.02158E-13-2.45774E-13
 -1      1901 2.36728E+01 1.67689E+00-3.85859E-02 5.07711E-01-2.10408E-13-3.75635E-13
 -1      1902 2.50984E+01 2.23526E+00-7.85150E-02-1.17220E+00-2.37942E-13-2.80878E-13
 -1      1903 2.39069E+01 1.36055E+00 2.69465E-03 1.56119E+00-3.48437E-13-5.15853E-13
 -1      1904 2.43407E+01 8.11873E-01-6.12074E-02 2.16884E+00-3.31221E-13-6.26867E-13
 -1      1905 2.51111E+01 2.20713E+00-7.57557E-02 1.24985E+00-3.41158E-13-4.14002E-13
 -1      1906 2.47140E+01 2.21826E-01 9.12248E-03 2.47363E+00-2.34566E-13-6.36501E-13
 -1      1907 2.52996E+01-3.33994E-01-4.31894E-02 2.44156E+00-1.02682E-13-5.45912E-13
 -1      1908 2.56875E+01 7.88843E-01-3.11566E-02 2.73762E+00-2.87957E-13-5.23241E-13
 -1      1909 2.53795E+01-7.03353E-01-1.51731E-02 2.02802E+00-8.43162E-14-5.81904E-13
 -1      1910 2.58290E+01-9.17766E-01-1.23256E-02 1.57674E+00-3.89393E-14-6.71616E-13
 -1      1911 2.60668E+01-7.15792E-01 3.56131E-03 2.51793E+00-1.32705E-13-5.24449E-13
 -1      1912 2.55673E+01-9.59119E-01-3.64298E-02 9.16755E-01 9.11771E-15-6.33021E-13
 -1      1913 2.57361E+01-8.80745E-01 3.12297E-03 4.02567E-01 1.82552E-13-5.79110E-13
 -1      1914 2.58298E+01-1.37264E+00 3.51242E-03 1.26774E+00 3.38887E-14-5.23323E-13
 -1      1915 2.53227E+01-7.49428E-01-3.76908E-02-1.38283E-01 2.09223E-13-5.50892E-13
 -1      1916 2.52198E+01-5.69938E-01 5.08289E-03-5.12095E-01 1.81237E-13-5.93868E-13
 -1      1917 2.51579E+01-1.22446E+00-5.85645E-03-4.02815E-02 1.70787E-13-4.32466E-13
 -1      1918 2.48004E+01-4.14627E-01-2.65861E-02-8.25057E-01 2.10127E-13-6.35588E-13
 -1      1919 2.45133E+01-2.56132E-01 2.84315E-03-1.01905E+00 1.64792E-13-4.95613E-13
 -1      1920 2.43592E+01-7.57796E-01-1.01218E-02-9.42714E-01 1.64584E-13-4.18702E-13
 -1      1921 2.41446E+01-1.42058E-01-1.29924E-02-1.13791E+00 1.28420E-13-3.52633E-13
 -1      1922 2.37686E+01-4.13742E-02 1.13417E-03-1.19375E+00 1.30769E-13-3.39573E-13
 -1      1923 2.36048E+01-3.18570E-01-9.01404E-03-1.38733E+00 2.60686E-13-8.23733E-14
 -1      1924 2.34567E+01 2.39107E-02-2.44743E-03-1.18954E+00 3.13686E-13-2.47261E-13
 -1      1925 2.30638E+01 7.39328E-02 6.19226E-04-1.16368E+00 3.52920E-13 1.63797E-14
 -1      1926 2.29436E+01-2.76076E-02-6.74876E-03-1.49645E+00 2.89425E-13 2.93394E-14
 -1      1927 2.28011E+01 1.03452E-01 3.96977E-03-1.09649E+00 1.68094E-13-1.74329E-13
 -1      1928 2.24346E+01 1.20646E-01 8.30703E-04-1.03287E+00-6.70323E-14-1.94799E-13
 -1      1929 2.23755E+01 1.24477E-01-4.95570E-03-1.40991E+00 1.44508E-13-8.83761E-14
 -1      1930 2.22135E+01 1.28985E-01 7.01433E-03-9.42024E-01-2.64985E-13-4.69162E-14
 -1      1931 2.18939E+01 1.28519E-01 1.19832E-03-8.67667E-01-3.10353E-13-3.78298E-14
 -1      1932 2.18907E+01 1.82940E-01-3.86310E-03-1.23243E+00-6.60509E-14-8.91045E-14
 -1      1933 2.17089E+01 1.26204E-01 7.84792E-03-7.75050E-01-2.46420E-13-1.73842E-14
 -1      1934 2.14421E+01 1.17905E-01 1.46268E-03-7.03897E-01 2.61076E-15-7.97590E-14
 -1      1935 2.14806E+01 1.89301E-01-3.24380E-03-1.02861E+00-2.89266E-13 2.78029E-13
 -1      1936 2.12889E+01 1.11240E-01 7.46613E-03-6.19879E-01 9.69320E-14-7.26032E-14
 -1      1937 2.10728E+01 1.00604E-01 1.57839E-03-5.57738E-01 1.11565E-13-1.99198E-14
 -1      1938 2.11378E+01 1.71428E-01-2.84789E-03-8.32702E-01 1.71124E-14 4.25019E-13
 -1      1939 2.09476E+01 9.29615E-02 6.54155E-03-4.85965E-01 1.31850E-13-2.46493E-13
 -1      1940 2.07764E+01 8.27556E-02 1.59044E-03-4.34175E-01 1.69434E-13-2.59925E-13
 -1      1941 2.08555E+01 1.45333E-01-2.52964E-03-6.59735E-01 5.87594E-15 1.23544E-13
 -1      1942 2.06755E+01 7.57931E-02 5.46308E-03-3.74716E-01 2.07046E-13-1.34956E-13
 -1      1943 2.05426E+01 6.72849E-02 1.56004E-03-3.32387E-01 4.13369E-13 9.99260E-14
 -1      1944 2.06264E+01 1.19293E-01-2.23111E-03-5.13755E-01 2.79393E-13-6.97353E-14
 -1      1945 2.04626E+01 6.17673E-02 4.41903E-03-2.83562E-01 4.00611E-13 9.70081E-14
 -1      1946 2.03617E+01 5.54765E-02 1.52160E-03-2.48779E-01 3.03133E-13 1.67519E-13
 -1      1947 2.04435E+01 9.72322E-02-1.93902E-03-3.93071E-01 3.87377E-13 6.38134E-15
 -1      1948 2.02992E+01 5.17209E-02 3.46313E-03-2.08183E-01 9.68292E-14 2.19374E-13
 -1      1949 2.02251E+01 4.78286E-02 1.48742E-03-1.78665E-01 4.10436E-14 1.26540E-13
 -1      1950 2.02998E+01 8.08069E-02-1.65809E-03-2.93284E-01 2.67851E-13-1.27061E-14
 -1      1951 2.01768E+01 4.57284E-02 2.54776E-03-1.43694E-01 6.81887E-15 1.87176E-13
 -1      1952 2.01256E+01 4.37494E-02 1.40665E-03-1.17287E-01 6.47916E-14 2.77401E-13
 -1      1953 2.01889E+01 7.06308E-02-1.29583E-03-2.09114E-01 2.88239E-14 1.68378E-13
 -1      1954 2.00925E+01 4.17207E-02 1.87894E-03-8.78014E-02 1.57348E-13 2.04460E-13
 -1      1955 2.00596E+01 3.98060E-02 1.41562E-03-6.43414E-02 1.08392E-13 1.98360E-13
 -1      1956 2.00526E+01 5.33926E-02-1.00805E-03-7.70169E-02 1.29016E-14 2.52059E-13
 -1      1957 2.01081E+01 6.26481E-02-1.59817E-03-1.37496E-01 7.86455E-14 2.73237E-13
 -1      1958 1.96029E+01 1.42649E-01 7.92478E-03 2.58264E-01 2.99779E-13 8.94168E-13
 -1      1959 1.98743E+01 2.04563E-01 1.64759E-02 4.31595E-01 3.03466E-13 1.02024E-12
 -1      1960 2.00888E+01 3.51125E-01-1.55613E-03 6.53846E-01 3.76638E-13 7.39608E-13
 -1      1961 1.93634E+01 7.30320E-02 7.02102E-03 5.36720E-02 1.94115E-13 7.53099E-13
 -1      1962 1.94771E+01 1.02708E-01 1.42646E-02 1.42869E-01 2.39365E-13 8.39108E-13
 -1      1963 1.96984E+01 1.66345E-01-1.99454E-03 2.53550E-01 2.93694E-13 6.23434E-13
 -1      1964 1.92780E+01 3.79580E-02 4.54537E-03-5.45010E-02 1.49296E-13 6.28906E-13
 -1      1965 1.93056E+01 5.35013E-02 8.44589E-03-6.12041E-03 1.41070E-13 6.82922E-13
 -1      1966 1.95022E+01 8.26607E-02-2.90403E-03 3.88554E-02 2.07299E-13 4.86639E-13
 -1      1967 1.92846E+01 1.89359E-02 3.03677E-03-1.11157E-01 1.25793E-13 5.18683E-13
 -1      1968 1.92651E+01 2.74493E-02 4.51502E-03-8.47013E-02 1.32954E-13 6.08214E-13
 -1      1969 1.94297E+01 4.05639E-02-2.95679E-03-7.73391E-02 1.50862E-13 3.89688E-13
 -1      1970 1.93448E+01 8.52355E-03 2.23944E-03-1.39323E-01 1.57049E-13 4.40985E-13
 -1      1971 1.92997E+01 1.31038E-02 2.37653E-03-1.25177E-01 1.20322E-13 4.88469E-13
 -1      1972 1.94334E+01 1.82233E-02-2.46574E-03-1.39247E-01 1.54716E-13 3.01658E-13
 -1      1973 1.94359E+01 3.30142E-03 1.79419E-03-1.52102E-01 1.12393E-13 3.99069E-13
 -1      1974 1.93770E+01 5.48615E-03 1.26010E-03-1.44722E-01 1.45176E-13 4.38858E-13
 -1      1975 1.94833E+01 6.57063E-03-1.90722E-03-1.70855E-01 1.53490E-13 2.37982E-13
 -1      1976 1.95449E+01 1.48670E-03 1.53508E-03-1.57672E-01 1.02144E-13 3.16565E-13
 -1      1977 1.94787E+01 2.13278E-03 6.86828E-04-1.53535E-01 8.57200E-14 3.64654E-13
 -1      1978 1.95612E+01 1.41179E-03-1.46267E-03-1.86378E-01 1.22828E-13 2.13177E-13
 -1      1979 1.96655E+01 2.02636E-03 1.39725E-03-1.61498E-01 2.56038E-14 3.20412E-13
 -1      1980 1.95948E+01 1.66711E-03 4.21427E-04-1.58199E-01 6.19904E-14 3.22215E-13
 -1      1981 1.96567E+01 5.16588E-04-1.16588E-03-1.94914E-01 8.07037E-14 2.27017E-13
 -1      1982 1.97958E+01 4.21673E-03 1.35014E-03-1.67355E-01 1.00953E-13 2.83397E-13
 -1      1983 1.97212E+01 3.21961E-03 3.45471E-04-1.63187E-01 7.33969E-14 3.22795E-13
 -1      1984 1.97647E+01 2.54073E-03-1.00063E-03-2.02605E-01 8.08699E-14 1.70044E-13
 -1      1985 1.99368E+01 7.50520E-03 1.36868E-03-1.77820E-01 7.69879E-14 1.98313E-13
 -1      1986 1.98573E+01 6.16038E-03 3.88980E-04-1.71581E-01 9.29710E-14 2.30547E-13
 -1      1987 1.98839E+01 6.55069E-03-9.41008E-04-2.13669E-01 1.20846E-13 1.23307E-13
 -1      1988 2.00917E+01 1.13586E-02 1.42262E-03-1.94457E-01 7.76969E-14 1.69620E-13
 -1      1989 2.00052E+01 9.93873E-03 5.00057E-04-1.85377E-01 8.04114E-14 1.95215E-13
 -1      1990 2.00154E+01 1.17622E-02-9.62962E-04-2.30873E-01 1.00595E-13 5.66354E-14
 -1      1991 2.02644E+01 1.51472E-02 1.47013E-03-2.17766E-01 4.36113E-14 1.00719E-13
 -1      1992 2.01685E+01 1.39586E-02 6.31638E-04-2.05550E-01 5.23623E-14 1.19638E-13
 -1      1993 2.01618E+01 1.73551E-02-1.04398E-03-2.55660E-01 7.52527E-14 8.12153E-14
 -1      1994 2.04589E+01 1.80243E-02 1.45230E-03-2.46938E-01 1.33664E-14 1.20774E-13
 -1      1995 2.03513E+01 1.74574E-02 7.33915E-04-2.31890E-01 9.71391E-15 1.07550E-13
 -1      1996 2.03265E+01 2.23027E-02-1.16021E-03-2.88002E-01 2.15340E-14 3.44395E-14
 -1      1997 2.06780E+01 1.87999E-02 1.28946E-03-2.79388E-01 5.96256E-14 9.12290E-14
 -1      1998 2.05572E+01 1.93770E-02 7.49657E-04-2.62652E-01 3.67941E-14 1.16231E-13
 -1      1999 2.05123E+01 2.51940E-02-1.28250E-03-3.26003E-01 2.47251E-14 2.13032E-14
 -1      2000 2.09213E+01 1.58342E-02 8.83089E-04-3.10085E-01 1.56428E-13 1.16191E-14
 -1      2001 2.07878E+01 1.82401E-02 6.12681E-04-2.93988E-01 1.00539E-13 5.73413E-14
 -1      2002 2.07209E+01 2.40652E-02-1.37081E-03-3.65252E-01 1.68068E-13-6.07337E-14
 -1      2003 2.11839E+01 7.02044E-03 1.29992E-04-3.30785E-01 9.49501E-15 1.20350E-13
 -1      2004 2.10411E+01 1.20802E-02 2.51848E-04-3.19237E-01 1.56280E-13 9.18467E-14
 -1      2005 2.09511E+01 1.62986E-02-1.36730E-03-3.97987E-01 1.16921E-13-2.90835E-14
 -1      2006 2.14535E+01-1.00018E-02-1.04144E-03-3.29401E-01-7.92830E-14-7.09433E-14
 -1      2007 2.13094E+01-1.46519E-03-3.95532E-04-3.28244E-01-1.17328E-13-1.68231E-14
 -1      2008 2.11972E+01-1.26640E-03-1.18821E-03-4.12271E-01-1.47247E-14-1.62356E-14
 -1      2009 2.17084E+01-3.71633E-02-2.60382E-03-2.90100E-01-8.94926E-14 6.82364E-14
 -1      2010 2.15767E+01-2.47008E-02-1.35800E-03-3.07113E-01-7.55208E-14 4.04746E-14
 -1      2011 2.14469E+01-3.17498E-02-7.16310E-04-3.91628E-01-9.46707E-14-6.25676E-14
 -1      2012 2.19159E+01-7.44992E-02-4.33791E-03-1.95151E-01-6.95312E-14 1.84261E-13
 -1      2013 2.18166E+01-5.87573E-02-2.59076E-03-2.39188E-01-1.27764E-13 1.12022E-13
 -1      2014 2.16800E+01-7.67843E-02 1.95253E-04-3.16039E-01-1.29496E-13 2.61633E-14
 -1      2015 2.20331E+01-1.17745E-01-5.75762E-03-2.99836E-02 1.42065E-13 2.84716E-13
 -1      2016 2.19915E+01-1.01541E-01-3.93863E-03-1.08505E-01 4.06238E-14 3.20343E-13
 -1      2017 2.18664E+01-1.33837E-01 1.68287E-03-1.65701E-01 8.19657E-15 2.01993E-13
 -1      2018 2.20117E+01-1.55494E-01-6.13620E-03 2.07220E-01-1.49624E-14 2.53805E-13
 -1      2019 2.20544E+01-1.44865E-01-5.10100E-03 9.29148E-02 9.86685E-14 2.61483E-13
 -1      2020 2.19673E+01-1.92470E-01 3.76340E-03 7.07662E-02 8.26032E-14 2.85370E-13
 -1      2021 2.18103E+01-1.68085E-01-4.82896E-03 4.91993E-01-1.41962E-13 2.28016E-13
 -1      2022 2.19572E+01-1.72103E-01-5.64319E-03 3.53517E-01-1.22919E-13 2.41937E-13
 -1      2023 2.19398E+01-2.31174E-01 6.14781E-03 3.82943E-01-1.08177E-13 3.45171E-13
 -1      2024 2.14140E+01-1.32381E-01-1.89647E-03 7.61998E-01-1.36939E-13 2.75398E-13
 -1      2025 2.16665E+01-1.59875E-01-5.10229E-03 6.29528E-01-1.39294E-13 2.02310E-13
 -1      2026 2.17486E+01-2.19311E-01 7.93576E-03 7.22936E-01-1.18364E-13 2.17022E-13
 -1      2027 2.08594E+01-3.55479E-02 1.46734E-03 9.20527E-01 2.47083E-14 2.34472E-13
 -1      2028 2.11892E+01-8.80711E-02-3.03406E-03 8.40730E-01-4.71793E-14 2.06276E-13
 -1      2029 2.13871E+01-1.29719E-01 7.66277E-03 9.97852E-01-3.77723E-14 6.50244E-14
 -1      2030 2.02523E+01 1.06397E-01 3.21260E-03 8.69149E-01 1.72422E-13 3.43691E-13
 -1      2031 2.05969E+01 4.17964E-02 6.22441E-04 8.88598E-01 1.07496E-13 2.74004E-13
 -1      2032 2.09038E+01 3.86015E-02 4.22123E-03 1.08742E+00 7.39863E-14 2.05257E-13
 -1      2033 1.97557E+01 2.42365E-01 2.09657E-03 5.66099E-01-9.64350E-14 3.08844E-13
 -1      2034 2.00288E+01 1.92321E-01 5.22850E-03 7.03176E-01-6.88338E-15 3.08830E-13
 -1      2035 2.04148E+01 2.41284E-01-1.75966E-03 8.97438E-01 4.49987E-15 2.38070E-13
 -1      2036 1.95347E+01 3.07049E-01-7.06714E-04 7.56607E-02 4.34930E-14 3.72881E-13
 -1      2037 1.96547E+01 2.98396E-01 9.40396E-03 2.98338E-01-4.57065E-14 3.86552E-13
 -1      2038 2.00771E+01 3.95783E-01-7.20591E-03 4.29402E-01-5.59067E-14 3.34459E-13
 -1      2039 1.96745E+01 2.65313E-01-2.34990E-03-4.40936E-01 6.19851E-14 3.57990E-13
 -1      2040 1.96005E+01 3.04890E-01 1.12473E-02-2.07735E-01 7.61908E-14 3.67563E-13
 -1      2041 2.00190E+01 4.26437E-01-8.20734E-03-1.85031E-01 6.04031E-14 3.89770E-13
 -1      2042 2.01272E+01 1.40863E-01-1.26716E-03-8.08087E-01 3.76496E-14 2.01120E-13
 -1      2043 1.98811E+01 2.08897E-01 9.47200E-03-6.42339E-01 7.58248E-14 2.60258E-13
 -1      2044 2.02632E+01 3.16584E-01-4.51522E-03-7.34956E-01 1.55292E-13 2.56149E-13
 -1      2045 2.07389E+01-3.97543E-03 1.52590E-03-9.29747E-01-2.47076E-14 6.96318E-15
 -1      2046 2.03956E+01 6.14251E-02 4.69640E-03-8.71802E-01-5.69857E-14 1.13255E-13
 -1      2047 2.07128E+01 1.21388E-01 2.06521E-04-1.04545E+00 6.41696E-14 1.10892E-13
 -1      2048 2.13313E+01-1.12385E-01 3.99689E-03-8.21069E-01 1.07081E-13-1.20068E-13
 -1      2049 2.09836E+01-7.19995E-02-9.54423E-04-8.62744E-01 9.17912E-14-9.94673E-14
 -1      2050 2.12124E+01-7.16364E-02 2.91581E-03-1.06191E+00 1.04467E-13-1.37165E-13
 -1      2051 2.17755E+01-1.60828E-01 4.84401E-03-5.71301E-01 5.58741E-14 2.66245E-14
 -1      2052 2.14974E+01-1.50384E-01-5.31496E-03-6.73732E-01 3.59018E-14-3.57596E-14
 -1      2053 2.16260E+01-1.97923E-01 2.99382E-03-8.47548E-01 8.72696E-15-1.23351E-13
 -1      2054 2.20181E+01-1.57437E-01 4.10316E-03-2.82604E-01 1.54582E-13-2.51170E-15
 -1      2055 2.18475E+01-1.68931E-01-7.38512E-03-4.02485E-01 1.08924E-13 4.20640E-14
 -1      2056 2.18811E+01-2.39898E-01 1.77102E-03-5.20627E-01 1.33995E-13 5.55133E-14
 -1      2057 2.20680E+01-1.24233E-01 2.56721E-03-2.84658E-02-9.53491E-14 9.29575E-14
 -1      2058 2.20077E+01-1.45933E-01-7.36131E-03-1.34885E-01 8.87328E-14 9.28045E-15
 -1      2059 2.19667E+01-2.17109E-01 5.36089E-04-1.89298E-01 8.28001E-14 1.64229E-13
 -1      2060 2.19676E+01-8.18525E-02 1.03851E-03 1.56687E-01-3.16523E-13 4.24526E-14
 -1      2061 2.19982E+01-1.04509E-01-6.00777E-03 7.83368E-02-1.79113E-13 1.01919E-13
 -1      2062 2.19101E+01-1.61563E-01-1.77750E-04 8.01089E-02-1.50141E-13 2.00170E-13
 -1      2063 2.17684E+01-4.32768E-02-6.74457E-05 2.68613E-01 8.11610E-14 1.24361E-13
 -1      2064 2.18619E+01-6.18804E-02-4.12004E-03 2.20397E-01-2.34764E-13-7.26973E-14
 -1      2065 2.17532E+01-9.98686E-02-4.16068E-04 2.63507E-01-1.44711E-13-6.84977E-15
 -1      2066 2.15174E+01-1.39888E-02-6.76238E-04 3.19380E-01 6.94192E-14 1.40506E-13
 -1      2067 2.16463E+01-2.69847E-02-2.27121E-03 2.96549E-01 1.07739E-13 1.63673E-13
 -1      2068 2.15371E+01-4.72426E-02-4.14743E-04 3.65083E-01 5.25060E-14-9.02258E-14
 -1      2069 2.12503E+01 5.38733E-03-8.88698E-04 3.26325E-01 5.64183E-14 2.62632E-13
 -1      2070 2.13927E+01-2.41991E-03-7.60551E-04 3.21856E-01 1.75867E-13 3.35839E-13
 -1      2071 2.12958E+01-9.09589E-03-3.52848E-04 4.02252E-01 1.16014E-13 1.14182E-13
 -1      2072 2.09918E+01 1.65368E-02-8.48269E-04 3.05759E-01 8.17794E-14 3.20634E-13
 -1      2073 2.11322E+01 1.27089E-02 3.20537E-04 3.12970E-01-2.20212E-15 2.64088E-13
 -1      2074 2.10540E+01 1.50334E-02-3.09143E-04 3.95223E-01 4.42400E-14 4.16942E-13
 -1      2075 2.07565E+01 2.18315E-02-6.72304E-04 2.70355E-01-2.18648E-14 3.98344E-13
 -1      2076 2.08855E+01 2.06577E-02 1.00284E-03 2.84016E-01 6.10033E-14 4.13099E-13
 -1      2077 2.08277E+01 2.81400E-02-2.99045E-04 3.61603E-01-2.47195E-14 5.66032E-13
 -1      2078 2.05521E+01 2.35415E-02-4.36255E-04 2.28661E-01-5.39652E-14 2.63392E-13
 -1      2079 2.06645E+01 2.38714E-02 1.37132E-03 2.45234E-01 2.04060E-14 3.42216E-13
 -1      2080 2.06261E+01 3.37732E-02-3.12586E-04 3.14452E-01 5.65454E-14 5.73779E-13
 -1      2081 2.03815E+01 2.35470E-02-1.85257E-04 1.85552E-01 1.09871E-13 1.84581E-13
 -1      2082 2.04753E+01 2.44882E-02 1.51967E-03 2.03041E-01-2.14351E-14 2.41128E-13
 -1      2083 2.04534E+01 3.51297E-02-3.39972E-04 2.62184E-01 3.09428E-14 4.39812E-13
 -1      2084 2.02447E+01 2.32513E-02 3.24427E-05 1.42996E-01 2.18167E-13 1.73481E-13
 -1      2085 2.03194E+01 2.41901E-02 1.51870E-03 1.60664E-01 1.51564E-13 1.84626E-13
 -1      2086 2.03107E+01 3.47633E-02-3.78071E-04 2.09273E-01 1.83577E-13 3.93768E-13
 -1      2087 2.01406E+01 2.34954E-02 1.49514E-04 1.01103E-01 2.08318E-14 3.97896E-13
 -1      2088 2.01966E+01 2.40800E-02 1.38416E-03 1.19041E-01 2.37699E-13 3.16063E-13
 -1      2089 2.01971E+01 3.43564E-02-4.60345E-04 1.57301E-01 1.21067E-13 4.07815E-13
 -1      2090 2.00679E+01 2.43984E-02 5.02180E-04 5.96045E-02-8.71121E-14 4.55802E-13
 -1      2091 2.01051E+01 2.44190E-02 1.07208E-03 7.79464E-02-6.69225E-14 3.85248E-13
 -1      2092 2.01107E+01 3.47976E-02-4.97606E-04 1.06360E-01-4.71303E-14 5.71228E-13
 -1      2093 2.00292E+01 2.37021E-02 8.98515E-04 2.97592E-02 2.52476E-14 3.40685E-13
 -1      2094 2.00512E+01 2.56121E-02 7.68346E-04 4.69158E-02 8.40774E-14 4.58414E-13
 -1      2095 2.00577E+01 3.61280E-02-4.38634E-04 6.68872E-02 3.47419E-14 5.08851E-13
 -1      2096 2.00287E+01 3.47625E-02 6.31724E-05 3.91748E-02-4.72102E-16 6.15358E-13
 -1      2097 2.00051E+01 2.25721E-01-4.24140E-04 1.26346E-01 1.77137E-13 2.28608E-14
 -1      2098 2.00130E+01 1.85122E-01 8.26866E-04 1.21103E-01 5.95309E-14 9.31069E-14
 -1      2099 2.00202E+01 1.47127E-01-1.36709E-05 1.10071E-01 2.65993E-14 1.75849E-13
 -1      2100 2.00268E+01 1.11673E-01 9.71761E-04 9.62930E-02 7.49501E-14 1.57461E-13
 -1      2101 2.00247E+01 1.70748E-01-1.96377E-04 1.49338E-01 2.48925E-15 9.42225E-14
 -1      2102 2.00281E+01 8.45023E-02 2.70013E-04 7.80295E-02-4.39070E-14 1.05151E-14
 -1      2103 2.00311E+01 5.73302E-02 8.23560E-04 5.97539E-02-4.46113E-14 3.42296E-13
 -1      2104 2.00443E+01 5.89785E-02 5.19243E-04 7.43742E-02 5.58895E-14 3.37286E-13
 -1      2105 2.00385E+01 1.07171E-01-4.47726E-04 1.15959E-01-1.05263E-13 2.03927E-13
 -1      2106 1.99905E+01 3.03584E-01-8.92805E-04 1.23777E-01-1.56789E-13-3.58586E-13
 -1      2107 1.99980E+01 2.63555E-01 3.11219E-04 1.26971E-01-2.87817E-14-1.71455E-13
 -1      2108 2.00026E+01 2.46056E-01 1.84010E-04 1.61861E-01 1.37474E-15-2.46444E-13
 -1      2109 1.99774E+01 3.73818E-01-1.32373E-03 1.03045E-01-6.43645E-15 2.19020E-13
 -1      2110 1.99839E+01 3.38708E-01-2.63815E-04 1.14055E-01-1.30825E-13 1.14416E-13
 -1      2111 1.99813E+01 3.18923E-01 6.37049E-04 1.51410E-01-7.68701E-14-4.45157E-14
 -1      2112 1.99676E+01 4.25821E-01-1.60955E-03 6.70917E-02 8.83563E-14 2.63775E-13
 -1      2113 1.99723E+01 4.01414E-01-8.14512E-04 8.42731E-02 4.47333E-14 2.22041E-13
 -1      2114 1.99631E+01 3.81686E-01 1.07739E-03 1.19183E-01 2.30837E-14 3.27104E-13
 -1      2115 1.99622E+01 4.52435E-01-1.68717E-03 2.08090E-02 1.15329E-13 4.22331E-13
 -1      2116 1.99644E+01 4.42397E-01-1.25241E-03 4.17981E-02 4.58471E-14 3.19887E-13
 -1      2117 1.99501E+01 4.25943E-01 1.41821E-03 6.94921E-02 9.64694E-14 2.49395E-13
 -1      2118 1.99621E+01 4.49596E-01-1.52078E-03-2.94735E-02 1.31349E-13-3.36823E-14
 -1      2119 1.99615E+01 4.55630E-01-1.52230E-03-7.61167E-03 1.56114E-13 3.58221E-13
 -1      2120 1.99440E+01 4.45751E-01 1.60515E-03 8.92278E-03-9.74461E-14 2.92621E-13
 -1      2121 1.99677E+01 4.17103E-01-1.11745E-03-7.64948E-02 8.90169E-14-7.08633E-13
 -1      2122 1.99641E+01 4.38634E-01-1.58346E-03-5.70289E-02 1.05415E-13-4.68592E-13
 -1      2123 1.99459E+01 4.37953E-01 1.59640E-03-5.42519E-02 5.69493E-14-3.56018E-13
 -1      2124 1.99787E+01 3.60165E-01-4.92601E-04-1.12349E-01 9.68930E-14-4.31840E-13
 -1      2125 1.99723E+01 3.93503E-01-1.45479E-03-9.86579E-02 7.41387E-14-7.16158E-13
 -1      2126 1.99563E+01 4.03245E-01 1.40782E-03-1.10458E-01 1.42510E-13-6.34534E-13
 -1      2127 1.99944E+01 2.84409E-01 2.25268E-04-1.31670E-01 2.98270E-13 7.40466E-13
 -1      2128 1.99858E+01 3.25826E-01-1.14451E-03-1.26047E-01 1.65154E-13 3.62413E-13
 -1      2129 1.99743E+01 3.45346E-01 9.99366E-04-1.51263E-01 3.30642E-13-4.85196E-14
 -1      2130 2.00122E+01 2.01364E-01 8.70391E-04-1.29299E-01-1.90919E-14-1.44277E-14
 -1      2131 2.00027E+01 2.44063E-01-7.11380E-04-1.33576E-01 3.22390E-14 2.98316E-13
 -1      2132 1.99981E+01 2.70679E-01 3.78150E-04-1.69318E-01 1.78333E-13 3.62673E-13
 -1      2133 2.00287E+01 1.19556E-01 3.05136E-04-1.04184E-01-2.36468E-13-2.04833E-13
 -1      2134 2.00209E+01 1.59606E-01-2.40673E-04-1.18553E-01-8.25170E-14-1.98856E-13
 -1      2135 2.00246E+01 1.89580E-01 1.27739E-05-1.60159E-01-1.78882E-13-9.98420E-14
 -1      2136 1.04140E+01-5.24588E+00-1.73464E-01 6.71901E+00 1.12854E-13 3.66408E-14
 -1      2137 6.50890E+00-6.50000E+00-3.62505E-01 5.41335E+00 2.48690E-13-2.60986E-13
 -1      2138 4.75802E-01-6.98425E+00-3.66137E-01 1.27973E+00 4.09117E-14 2.27207E-13
 -1      2139 4.12828E-01-6.53001E+00-2.97499E-01-2.90947E-01 8.33639E-14 1.16018E-13
 -1      2140 3.41854E+00-5.98337E+00-2.26708E-01 4.39750E+00 1.06137E-13-1.59706E-13
 -1      2141 1.42599E+00-7.20195E+00-4.19265E-01 2.76411E+00-3.08087E-15 1.81688E-13
 -1      2142 2.36167E+00-4.42938E+00-1.49206E-01 2.55445E+00-1.59484E-13 1.56930E-13
 -1      2143 1.94330E+01-2.96296E+00 6.31998E-02 7.07321E+00-9.10383E-15 2.84661E-13
 -1      2144 1.53482E+01-4.82006E+00-1.17966E-01 6.66527E+00-3.99125E-14 2.97623E-13
 -1      2145 2.77207E+01 1.67237E-01 2.24577E-01 6.23056E+00 1.33671E-13 4.68514E-14
 -1      2146 2.27733E+01-1.96457E+00-1.48871E-01 5.96113E+00 2.86438E-14 1.64091E-13
 -1      2147 1.95232E+01 4.01716E+00-2.69921E-02-1.70183E+00-2.65193E-13-7.64677E-13
 -1      2148 1.96483E+01 3.94688E+00-2.46071E-02-1.95324E+00-3.32139E-13-7.08045E-13
 -1      2149 1.99720E+01 3.24799E+00-1.38752E-02-1.91700E+00-3.76104E-13-6.20799E-13
 -1      2150 1.97032E+01 3.58767E+00-7.19004E-03-1.51906E+00-2.59342E-13-7.38090E-13
 -1      2151 3.85288E+01 5.72008E+00 3.02248E-01 1.86278E+00 4.98324E-13-1.28286E-13
 -1      2152 3.61605E+01 4.72334E+00 1.98329E-01 2.93528E+00 3.93130E-13-6.01741E-14
 -1      2153 4.06519E+01 7.20354E+00 3.57105E-01 1.59749E-01 7.40741E-13-4.72726E-13
 -1      2154 3.97407E+01 6.93313E+00 3.04878E-01 1.35821E+00 6.73128E-13-2.08472E-13
 -1      2155 3.88610E+01 6.77609E+00 2.49748E-01-1.37018E+00 7.62834E-13-5.12479E-13
 -1      2156 4.03779E+01 7.19744E+00 3.83101E-01-3.79778E-01 7.72327E-13-4.09978E-13
 -1      2157 3.53943E+01 4.24878E+00 1.89023E-01-3.31382E+00 9.82575E-13-7.04659E-13
 -1      2158 3.81673E+01 5.38497E+00 3.07469E-01-2.28412E+00 7.74936E-13-7.04936E-13
 -1      2159 2.89165E+01 9.62373E-01 8.96243E-03-5.26619E+00 9.63257E-13-7.26752E-13
 -1      2160 3.33216E+01 2.48919E+00 2.62911E-01-4.76469E+00 1.10331E-12-5.60219E-13
 -1      2161 2.11802E+01-2.60638E+00-1.61399E-01-6.09588E+00 5.67935E-13-5.87030E-13
 -1      2162 2.60343E+01-4.22071E-01 1.75020E-01-6.54151E+00 7.83040E-13-6.95999E-13
 -1      2163 1.22503E+01-5.46734E+00-3.19313E-01-6.25276E+00 2.26374E-13-1.04389E-12
 -1      2164 1.70028E+01-3.73534E+00-2.82537E-02-7.17755E+00 3.61600E-13-8.32112E-13
 -1      2165 4.74082E+00-7.09891E+00-4.67864E-01-4.70739E+00 1.36335E-13-1.07117E-12
 -1      2166 7.99188E+00-5.44610E+00-2.30206E-01-6.02247E+00 3.86802E-13-1.19650E-12
 -1      2167 7.91699E-01-7.44775E+00-4.30228E-01-2.18323E+00-1.29952E-13-9.80882E-13
 -1      2168 2.29185E+00-6.69062E+00-3.28957E-01-3.63330E+00 1.90348E-13-1.08552E-12
 -1      2169 6.48243E-01-6.75842E+00-3.24528E-01 1.25799E+00-5.38292E-13-1.01591E-12
 -1      2170 2.12840E-01-7.18542E+00-3.92595E-01-3.65937E-01-1.83881E-13-9.44911E-13
 -1      2171 4.92009E+00-6.27207E+00-2.42459E-01 4.53454E+00-7.18536E-13-1.09085E-12
 -1      2172 2.57958E+00-6.98259E+00-3.58003E-01 3.20413E+00-5.05151E-13-9.46965E-13
 -1      2173 1.08607E+01-5.32157E+00-1.98755E-01 6.19184E+00-8.49543E-13-8.54268E-13
 -1      2174 7.31017E+00-6.84725E+00-4.14911E-01 5.04125E+00-6.88227E-13-9.30200E-13
 -1      2175 8.10544E+00-5.51912E+00-1.30496E-01 5.79559E+00-2.82496E-13-8.79297E-13
 -1      2176 2.04916E+01-3.44679E+00-8.16399E-03 6.55171E+00-9.42135E-13-8.94507E-13
 -1      2177 1.56936E+01-5.25613E+00-3.25910E-01 5.88698E+00-9.20375E-13-7.82430E-13
 -1      2178 2.87821E+01-1.14644E+00 8.62240E-02 5.21236E+00-9.33364E-13-6.20948E-13
 -1      2179 2.37449E+01-2.76666E+00-1.87374E-01 5.40135E+00-9.00224E-13-8.76410E-13
 -1      2180 2.41957E+01-4.73048E+00 5.68919E-02 5.01843E+00-4.69680E-13-4.27713E-13
 -1      2181 3.67319E+01 2.82435E+00 3.75739E-01 3.38671E+00-9.51354E-13-4.62852E-13
 -1      2182 3.22705E+01 1.05360E+00 2.51307E-02 3.47538E+00-1.03158E-12-5.73763E-13
 -1      2183 4.08038E+01 5.65554E+00 4.20038E-01 1.44966E+00-8.98781E-13-5.56000E-13
 -1      2184 3.82969E+01 4.53554E+00 2.71637E-01 2.52365E+00-9.93594E-13-6.17284E-13
 -1      2185 4.22360E+01 7.11290E+00 4.80013E-01-8.44355E-02-4.57245E-13-3.40450E-13
 -1      2186 4.10603E+01 6.85689E+00 3.57282E-01 8.17375E-01-6.80234E-13-5.10980E-13
 -1      2187 4.11709E+01 6.28172E+00 3.85668E-01-1.51039E+00-6.46538E-13-1.27620E-13
 -1      2188 4.26238E+01 6.83541E+00 4.93482E-01-4.22396E-01-4.16722E-13-1.53544E-13
 -1      2189 3.63512E+01 3.65911E+00 1.40356E-01-2.32169E+00-4.58189E-13-1.87628E-13
 -1      2190 4.01255E+01 5.01411E+00 4.77607E-01-1.97101E+00-6.14508E-13-2.77944E-13
 -1      2191 2.99390E+01-1.87256E-01-2.50160E-02-4.31813E+00-3.03840E-13-9.02611E-14
 -1      2192 3.41666E+01 1.32356E+00 1.94702E-01-3.58121E+00-3.56735E-13-1.95066E-13
 -1      2193 2.18031E+01-3.07474E+00-2.35746E-01-5.69301E+00 4.81837E-14 5.12423E-13
 -1      2194 2.68492E+01-1.23612E+00 1.16636E-01-5.98327E+00-2.06613E-13 2.07168E-13
 -1      2195 1.46638E+01-5.53847E+00-1.94392E-01-6.20081E+00 4.87443E-13 4.17125E-13
 -1      2196 1.86041E+01-3.80023E+00-2.26029E-02-6.60543E+00 2.40030E-13 6.25389E-13
 -1      2197 5.63265E+00-7.12165E+00-4.69698E-01-4.57316E+00 4.51750E-13 3.89244E-13
 -1      2198 9.58386E+00-5.67321E+00-1.95709E-01-6.06761E+00 5.18363E-13 4.92661E-13
 -1      2199 1.52884E+00-6.81812E+00-3.37173E-01-2.35768E+00 3.95572E-13 5.54001E-14
 -1      2200 3.25937E+00-6.65526E+00-3.20623E-01-3.72411E+00 3.95572E-13 1.72196E-13
 -1      2201 6.43321E+00-5.17305E+00-1.07016E-01-5.19165E+00 4.32321E-13 3.76088E-13
 -1      2202 3.47621E+01 3.23214E+00 3.00467E-01 4.51716E+00 2.04487E-13 2.50910E-14
 -1      2203 3.04086E+01 1.78101E+00 2.76246E-02 4.99057E+00 1.81799E-13 1.22236E-13
 -1      2204 2.97858E+01-5.74901E-01 1.69925E-01 3.53720E+00 6.13676E-14-9.22595E-14
 -1      2205 2.07204E+01 1.10842E+00-2.07229E-02-1.61567E+00-4.61485E-13 6.82822E-14
 -1      2206 3.38712E+01 3.50115E+00 2.82363E-01 1.27266E+00 2.22766E-13-2.62013E-14
 -1      2207 2.06154E+01 1.33027E+00-1.87002E-02-1.67694E+00-4.83875E-13-1.43836E-13
 -1      2208 6.68195E+00-5.00082E+00-7.52058E-02 5.78108E+00-4.90719E-14-1.80134E-13
 -1      2209 1.79699E+01-5.48198E+00-1.29643E-01 6.80264E+00-1.77108E-13 1.55410E-13
 -1      2210 1.42956E+01-5.23036E+00-5.76411E-02 6.88210E+00-2.63123E-14 2.49578E-13
 -1      2211 1.37938E+01-4.96746E+00 1.53368E-01 7.21053E+00-7.44960E-14 4.60743E-15
 -1      2212 2.00370E+01 9.87139E-02 5.98810E-04-9.85187E-02-9.93938E-14-7.36715E-17
 -1      2213 2.35485E+00-4.52701E+00-1.40369E-01-1.67933E+00 6.27137E-14-8.39884E-14
 -1      2214 2.32320E+01-4.05418E+00-2.22067E-02 5.68393E+00-1.19404E-13 1.17489E-13
 -1      2215 1.35377E+01-5.77126E+00-8.37682E-02-6.35206E+00 5.80591E-13 3.92904E-13
 -1      2216 1.72735E+01-5.90089E+00-1.60615E-01-6.54457E+00 6.72407E-13 4.32251E-13
 -1      2217 1.26621E+01-5.23341E+00 1.00131E-01-6.61513E+00 5.87808E-13 3.02175E-13
 -1      2218 2.27530E+01-4.88401E+00-1.65406E-02-5.47514E+00 4.59299E-13 2.40336E-13
 -1      2219 2.94896E+01-2.33497E+00 1.51571E-01-3.27742E+00-2.55906E-14-1.87017E-13
 -1      2220 3.43948E+01 1.69458E+00 2.07233E-01-6.89830E-01-2.26846E-13-5.69378E-13
 -1      2221 3.73533E+01 5.99212E+00 3.54494E-01 2.81859E-01-5.23082E-13-4.05620E-13
 -1      2222 3.80425E+01 7.87102E+00 3.97260E-01 6.95038E-03-6.63802E-13-2.89650E-13
 -1      2223 3.75420E+01 6.70167E+00 3.48924E-01-2.35485E-01-8.58036E-13-5.07955E-13
 -1      2224 3.09955E+01-1.45164E+00 1.23526E-01 2.47714E+00-7.75199E-13-2.08722E-13
 -1      2225 1.57699E+01-5.89480E+00-5.70839E-02 6.52646E+00-3.28515E-13-5.71879E-13
 -1      2226 3.20733E+00-4.68359E+00-1.30655E-01 2.89948E+00-2.31953E-13-1.04217E-12
 -1      2227 1.78447E+00-4.67115E+00-1.80054E-01-1.57832E+00-1.45314E-13-1.13531E-12
 -1      2228 5.17518E+00-5.41115E+00-1.96487E-01-5.21401E+00-9.47020E-14-1.10179E-12
 -1      2229 1.25140E+01-5.48335E+00-4.63753E-02-7.06650E+00-1.94456E-13-9.29194E-13
 -1      2230 2.11112E+01-4.56531E+00-2.41115E-02-6.22314E+00-2.29261E-14-2.99649E-13
 -1      2231 2.85278E+01-1.31933E+00 1.44938E-01-4.04653E+00 5.22943E-13-3.26406E-13
 -1      2232 3.33607E+01 2.66879E+00 2.61856E-01-1.78002E+00 8.83599E-13-3.17191E-13
 -1      2233 3.57429E+01 6.44013E+00 2.82898E-01-3.12228E-01 8.07687E-13-3.77393E-13
 -1      2234 3.58483E+01 6.85141E+00 2.96296E-01 5.85942E-02 6.07292E-13-2.66759E-13
 -1      2235 3.65555E+01 8.19167E+00 3.31435E-01 4.72602E-02 8.01414E-13-3.34680E-13
 -1      2236 3.56469E+01 3.24698E+00 2.79214E-01 3.30040E-01-8.79463E-13-4.28602E-13
 -1      2237 2.01382E+01 5.07999E-01 3.82488E-03 6.75704E-01 3.79221E-13 4.50501E-13
 -1      2238 2.04051E+01 7.01048E-01 2.08106E-02 9.67962E-01 4.33141E-13 5.26192E-13
 -1      2239 1.95720E+01 3.52395E+00-1.11256E-02-5.89479E-01 2.32377E-15-7.08338E-13
 -1      2240 1.96067E+01 3.47757E+00-1.04078E-02-7.73421E-01-6.52157E-14-7.28940E-13
 -1      2241 1.96522E+01 3.38854E+00-1.27069E-02-9.37564E-01-1.11173E-13-7.30686E-13
 -1      2242 1.97121E+01 3.30678E+00-1.25998E-02-1.12673E+00-1.80863E-13-7.32756E-13
 -1      2243 1.97970E+01 3.04183E+00 2.58133E-04-7.89045E-01-8.62557E-14-6.80922E-13
 -1      2244 1.95257E+01 3.60775E+00-9.64799E-03 9.92708E-02 2.28747E-13-6.64703E-13
 -1      2245 1.95250E+01 3.60858E+00-9.64374E-03-7.96591E-02 1.68819E-13-6.85230E-13
 -1      2246 1.95511E+01 3.56779E+00-9.73357E-03 4.44176E-01 3.15509E-13-6.18587E-13
 -1      2247 1.95341E+01 3.59067E+00-1.01810E-02 2.63838E-01 2.61577E-13-6.51730E-13
 -1      2248 1.96913E+01 3.23268E+00-8.13355E-04 1.68896E-01 2.34749E-13-6.22883E-13
 -1      2249 1.96116E+01 3.46999E+00-1.06109E-02 7.87313E-01 4.04882E-13-5.57095E-13
 -1      2250 1.95761E+01 3.51756E+00-1.12584E-02 6.06221E-01 3.51370E-13-5.99308E-13
 -1      2251 1.97274E+01 3.16823E+00-4.20928E-04 4.85949E-01 3.16583E-13-5.66711E-13
 -1      2252 1.97198E+01 3.29446E+00-1.29316E-02 1.14018E+00 5.03067E-13-4.07966E-13
 -1      2253 1.96585E+01 3.37854E+00-1.29320E-02 9.51095E-01 4.44266E-13-4.92343E-13
 -1      2254 1.98028E+01 3.03286E+00 3.19672E-04 8.00643E-01 4.13765E-13-4.83513E-13
 -1      2255 1.98953E+01 3.00682E+00-1.81445E-02 1.48741E+00 5.77777E-13-2.45314E-13
 -1      2256 1.97978E+01 3.14888E+00-1.52227E-02 1.29690E+00 5.24796E-13-3.36472E-13
 -1      2257 1.99295E+01 2.80540E+00 1.95767E-03 1.10645E+00 4.88511E-13-3.39473E-13
 -1      2258 2.01681E+01 2.54552E+00-2.83810E-02 1.79235E+00 6.27359E-13-1.60167E-14
 -1      2259 2.00199E+01 2.78558E+00-1.70948E-02 1.61767E+00 5.87503E-13-1.42754E-13
 -1      2260 2.01202E+01 2.45249E+00 5.88196E-03 1.37268E+00 5.46035E-13-1.59392E-13
 -1      2261 1.98641E+01 2.71038E-01 4.87836E-03 2.80809E-01 2.96264E-13 3.76625E-13
 -1      2262 2.00231E+01 3.70074E-01 2.01910E-02 4.39140E-01 3.31184E-13 4.30329E-13
 -1      2263 2.02052E+01 6.37226E-01-2.31989E-03 7.00838E-01 4.02068E-13 2.29642E-13
 -1      2264 2.03942E+01 8.56789E-01 1.29742E-02-9.98452E-01-3.89613E-13-2.19551E-13
 -1      2265 2.01847E+01 6.30652E-01-3.89825E-03-6.87469E-01-3.64265E-13-2.32647E-13
 -1      2266 3.15509E+01 2.95743E+00-1.81663E-01-5.70678E-01 3.46168E-13-2.02199E-13
 -1      2267 3.09397E+01 1.14778E+00-7.15346E-02 2.54133E-01 1.67449E-13-7.87703E-14
 -1      2268 2.01200E+01 4.72464E-01 1.61392E-02-4.70578E-01-3.23981E-13-1.92086E-13
 -1      2269 1.99809E+01 3.48785E-01 2.03629E-04-2.97359E-01-2.68824E-13-2.08870E-13
 -1      2270 2.02429E+01 7.49275E-01-1.80686E-03-6.89124E-01-3.48985E-13-2.83108E-13
 -1      2271 1.99195E+01 2.65017E-01 1.08951E-02-1.57352E-01-2.52066E-13-1.92282E-13
 -1      2272 1.98438E+01 1.95063E-01 9.43821E-04-5.75832E-02-2.26581E-13-2.28885E-13
 -1      2273 2.00817E+01 4.23138E-01-3.81627E-03-3.00988E-01-2.81331E-13-2.50577E-13
 -1      2274 1.98022E+01 1.47198E-01 6.40596E-03 2.81975E-02-2.21849E-13-2.12980E-13
 -1      2275 1.97719E+01 1.06932E-01 1.06281E-03 8.54090E-02-1.93704E-13-2.39324E-13
 -1      2276 1.99660E+01 2.37837E-01-3.81836E-03-5.54237E-02-2.37694E-13-2.30101E-13
 -1      2277 1.97500E+01 7.91586E-02 3.60871E-03 1.36552E-01-1.41252E-13-2.39701E-13
 -1      2278 1.97498E+01 5.63797E-02 1.11170E-03 1.68770E-01-1.03720E-13-2.43901E-13
 -1      2279 1.98974E+01 1.30739E-01-3.14365E-03 9.51584E-02-1.84262E-13-2.02363E-13
 -1      2280 1.97437E+01 4.09627E-02 1.89403E-03 1.98715E-01-1.08576E-13-2.55465E-13
 -1      2281 1.97630E+01 2.93807E-02 1.17680E-03 2.16835E-01-9.81231E-14-2.45767E-13
 -1      2282 1.98679E+01 6.95849E-02-2.39574E-03 1.85445E-01-1.24842E-13-2.16621E-13
 -1      2283 1.97688E+01 2.21969E-02 8.37800E-04 2.34922E-01-9.10866E-14-2.50492E-13
 -1      2284 1.98013E+01 1.83213E-02 1.29766E-03 2.46160E-01-8.92864E-14-2.86385E-13
 -1      2285 1.98677E+01 3.77811E-02-1.78137E-03 2.39735E-01-1.12026E-13-2.46995E-13
 -1      2286 1.98158E+01 1.70395E-02 1.87685E-04 2.59056E-01-9.63603E-14-2.60270E-13
 -1      2287 1.98580E+01 1.88693E-02 1.50137E-03 2.68527E-01-9.97417E-14-2.62130E-13
 -1      2288 1.98893E+01 2.60822E-02-1.34600E-03 2.75153E-01-1.10501E-13-2.49929E-13
 -1      2289 1.98794E+01 2.21315E-02-2.04808E-04 2.81216E-01-7.89112E-14-2.35273E-13
 -1      2290 1.99298E+01 2.85210E-02 1.80615E-03 2.92802E-01-5.20494E-14-2.44949E-13
 -1      2291 1.99272E+01 2.91922E-02-1.06988E-03 3.04195E-01-7.61305E-14-1.98415E-13
 -1      2292 1.99569E+01 3.55504E-02-4.35530E-04 3.09211E-01-9.08448E-14-2.37392E-13
 -1      2293 2.00159E+01 4.58871E-02 2.22421E-03 3.26071E-01-1.26431E-13-2.52395E-13
 -1      2294 1.99783E+01 4.40542E-02-9.15966E-04 3.36412E-01-8.93575E-14-2.13495E-13
 -1      2295 2.00484E+01 5.62759E-02-5.71973E-04 3.49471E-01-1.23133E-13-2.15728E-13
 -1      2296 2.01173E+01 7.02852E-02 2.76309E-03 3.74350E-01-6.25473E-14-1.91386E-13
 -1      2297 2.00413E+01 6.89818E-02-8.45910E-04 3.79481E-01-9.23152E-14-1.66378E-13
 -1      2298 2.01554E+01 8.38426E-02-6.64031E-04 4.07624E-01-3.83644E-14-1.98651E-13
 -1      2299 2.02367E+01 1.01418E-01 3.42298E-03 4.43027E-01 3.64238E-16-2.48393E-13
 -1      2300 2.01160E+01 1.03134E-01-8.23065E-04 4.39912E-01-6.82605E-14-1.30333E-13
 -1      2301 2.02808E+01 1.18003E-01-7.48091E-04 4.88792E-01-1.99347E-14-2.86385E-13
 -1      2302 2.03776E+01 1.38981E-01 4.18902E-03 5.37015E-01-9.28782E-16-3.11208E-13
 -1      2303 2.02032E+01 1.46064E-01-8.13213E-04 5.23447E-01-5.62185E-14-1.43654E-13
 -1      2304 2.04283E+01 1.58245E-01-8.45631E-04 5.97606E-01 9.26689E-15-3.05665E-13
 -1      2305 2.05443E+01 1.82042E-01 5.01733E-03 6.60557E-01-5.66951E-15-3.00687E-13
 -1      2306 2.03041E+01 1.97126E-01-7.87591E-04 6.35182E-01 1.91246E-14-1.57855E-13
 -1      2307 2.06023E+01 2.02982E-01-9.54295E-04 7.37786E-01-4.40262E-14-3.10918E-13
 -1      2308 2.07412E+01 2.27928E-01 5.81222E-03 8.16480E-01-4.90498E-14-2.83899E-13
 -1      2309 2.04200E+01 2.54525E-01-7.33769E-04 7.79298E-01-3.65416E-14-2.89663E-13
 -1      2310 2.08078E+01 2.48089E-01-1.02574E-03 9.11063E-01-4.21592E-15-3.19299E-13
 -1      2311 2.09733E+01 2.70286E-01 6.39262E-03 1.00456E+00 2.93376E-14-2.41609E-13
 -1      2312 2.05527E+01 3.13641E-01-6.84272E-04 9.58264E-01-4.83158E-14-2.26028E-13
 -1      2313 2.10510E+01 2.84390E-01-9.22007E-04 1.11500E+00-6.21654E-14-2.98687E-13
 -1      2314 2.12463E+01 2.95820E-01 6.44968E-03 1.21849E+00-1.03458E-13-3.24264E-13
 -1      2315 2.07051E+01 3.64154E-01-7.73171E-04 1.17122E+00-4.29358E-14-2.55433E-13
 -1      2316 2.13414E+01 2.93651E-01-3.43352E-04 1.33910E+00-5.13546E-14-3.14996E-13
 -1      2317 2.15691E+01 2.79464E-01 5.49704E-03 1.44071E+00 1.27606E-14-4.10124E-13
 -1      2318 2.08837E+01 3.85439E-01-1.33368E-03 1.41108E+00-7.13761E-14-2.53070E-13
 -1      2319 2.16957E+01 2.43145E-01 1.26221E-03 1.55832E+00 7.29857E-14-4.20582E-13
 -1      2320 2.19583E+01 1.78764E-01 2.83931E-03 1.63458E+00 9.83051E-14-4.25393E-13
 -1      2321 2.11040E+01 3.40125E-01-3.04109E-03 1.65986E+00 1.53251E-14-3.36305E-13
 -1      2322 2.21448E+01 8.09334E-02 4.79841E-03 1.72324E+00 1.65848E-13-3.41500E-13
 -1      2323 2.24446E+01-6.80581E-02-2.43945E-03 1.73383E+00 2.16639E-13-2.49116E-13
 -1      2324 2.14002E+01 1.67583E-01-6.99757E-03 1.88107E+00 1.91113E-13-4.22119E-13
 -1      2325 2.27412E+01-2.60444E-01 1.11937E-02 1.74675E+00 1.94794E-13-1.89629E-13
 -1      2326 2.30786E+01-5.27110E-01-1.12587E-02 1.63182E+00 1.94545E-13-1.20184E-13
 -1      2327 2.18395E+01-2.14924E-01-1.44721E-02 2.00788E+00 2.71896E-13-3.37433E-13
 -1      2328 2.35558E+01-8.31438E-01 2.04349E-02 1.49190E+00 1.74042E-13-3.49209E-14
 -1      2329 2.39179E+01-1.20812E+00-2.35616E-02 1.18124E+00 1.80122E-13-8.33656E-14
 -1      2330 2.25329E+01-8.83446E-01-2.57695E-02 1.92577E+00 1.88704E-13-2.13279E-13
 -1      2331 2.46321E+01-1.57030E+00 2.75933E-02 7.82059E-01 1.29088E-13-7.34282E-14
 -1      2332 2.49731E+01-1.92030E+00-3.34193E-02 2.33679E-01 1.66899E-13-5.94897E-14
 -1      2333 2.36166E+01-1.80721E+00-3.70352E-02 1.45767E+00 1.78907E-13-9.22448E-14
 -1      2334 2.58602E+01-2.12566E+00 1.63532E-02-4.96148E-01 1.57583E-13-4.21885E-15
 -1      2335 2.60895E+01-2.08985E+00-2.89046E-02-1.19712E+00 1.51233E-14 4.29743E-14
 -1      2336 2.51369E+01-2.63621E+00-4.11642E-02 3.92160E-01 1.37518E-13 2.23903E-14
 -1      2337 2.68233E+01-1.72327E+00-4.51555E-02-2.09128E+00-3.99559E-14-4.28477E-14
 -1      2338 2.68097E+01-8.89851E-01-3.04419E-02-2.58529E+00-7.59358E-14-8.51021E-14
 -1      2339 2.68667E+01-2.46298E+00-1.84995E-02-1.29690E+00-7.43780E-14-3.83131E-14
 -1      2340 2.70190E+01 3.17578E-01-1.25954E-01-2.98550E+00-2.01367E-13-2.25427E-13
 -1      2341 2.67634E+01 1.73811E+00-5.24847E-02-2.70596E+00-2.22530E-13-3.02459E-13
 -1      2342 2.80493E+01-4.52735E-01-5.87277E-02-2.75868E+00-2.47247E-13-1.17510E-13
 -1      2343 2.66207E+01 3.03616E+00-1.42372E-01-1.86939E+00-1.99896E-13-4.65761E-13
 -1      2344 2.64421E+01 3.76854E+00-1.04755E-01-7.38428E-01-3.16067E-13-4.91392E-13
 -1      2345 2.83208E+01 2.99601E+00-9.14717E-02-2.43442E+00-3.15983E-13-4.11532E-13
 -1      2346 2.64718E+01 3.75525E+00-8.93447E-02 8.27544E-01-4.32793E-13-6.39030E-13
 -1      2347 2.66257E+01 2.95722E+00-1.43804E-01 1.94394E+00-4.66210E-13-7.57699E-13
 -1      2348 2.82273E+01 4.84635E+00-1.26517E-01 7.80543E-02-4.92134E-13-8.35405E-13
 -1      2349 2.67881E+01 1.64437E+00-4.46435E-02 2.73654E+00-3.63196E-13-7.49588E-13
 -1      2350 2.70189E+01 2.15603E-01-1.26479E-01 2.98793E+00-1.71432E-13-6.35603E-13
 -1      2351 2.83026E+01 2.87740E+00-9.96094E-02 2.50921E+00-3.82111E-13-9.20500E-13
 -1      2352 2.68197E+01-9.44740E-01-1.65978E-02 2.52906E+00-2.03431E-13-6.35028E-13
 -1      2353 2.67910E+01-1.76034E+00-4.36037E-02 2.03352E+00-9.29022E-14-5.77909E-13
 -1      2354 2.80495E+01-6.18185E-01-3.32211E-02 2.75711E+00-1.80689E-13-7.27390E-13
 -1      2355 2.60465E+01-2.10326E+00-3.30940E-02 1.13988E+00 6.20415E-14-6.26007E-13
 -1      2356 2.58153E+01-2.10934E+00 1.68778E-02 4.46598E-01 1.65043E-13-4.90666E-13
 -1      2357 2.67423E+01-2.54190E+00-5.78464E-02 1.24205E+00 2.02199E-14-5.72773E-13
 -1      2358 2.49321E+01-1.90110E+00-3.40459E-02-2.76567E-01 2.23623E-13-3.91303E-13
 -1      2359 2.45905E+01-1.54519E+00 2.76930E-02-8.16839E-01 2.99368E-13-3.07966E-13
 -1      2360 2.50888E+01-2.61206E+00-3.79149E-02-4.38668E-01 2.25224E-13-4.77000E-13
 -1      2361 2.38841E+01-1.18160E+00-2.27194E-02-1.20549E+00 2.66476E-13-2.52494E-13
 -1      2362 2.35217E+01-8.07140E-01 2.03590E-02-1.50825E+00 2.55849E-13-1.31342E-13
 -1      2363 2.35717E+01-1.77364E+00-3.64405E-02-1.48446E+00 3.20851E-13-1.27037E-13
 -1      2364 2.30524E+01-5.06051E-01-1.05293E-02-1.64043E+00 3.07318E-13 8.52070E-14
 -1      2365 2.27167E+01-2.43463E-01 1.13502E-02-1.74936E+00 3.50562E-13 2.69599E-13
 -1      2366 2.25034E+01-8.52797E-01-2.45158E-02-1.93428E+00 4.18508E-13 2.44774E-13
 -1      2367 2.24250E+01-5.45821E-02-2.08442E-03-1.73203E+00 2.06006E-13 3.41613E-13
 -1      2368 2.21273E+01 9.14681E-02 4.83703E-03-1.71746E+00 2.03581E-13 2.78560E-13
 -1      2369 2.18216E+01-1.95370E-01-1.39422E-02-2.00532E+00 3.51066E-13 3.92130E-13
 -1      2370 2.19440E+01 1.87153E-01 2.98028E-03-1.62587E+00 6.36366E-14 1.51291E-13
 -1      2371 2.16841E+01 2.50097E-01 1.35920E-03-1.54684E+00-2.09439E-14-2.94824E-14
 -1      2372 2.13896E+01 1.79913E-01-6.86124E-03-1.87147E+00 5.08559E-14 3.39825E-13
 -1      2373 2.15600E+01 2.85566E-01 5.54846E-03-1.42687E+00 8.19738E-14-2.51873E-13
 -1      2374 2.13356E+01 2.99596E-01-1.73592E-04-1.32291E+00-6.46179E-14-9.88761E-14
 -1      2375 2.10988E+01 3.48720E-01-3.07305E-03-1.64494E+00-7.20594E-14-4.23663E-14
 -1      2376 2.12428E+01 3.01978E-01 6.45450E-03-1.19977E+00-1.72465E-13 2.02516E-14
 -1      2377 2.10519E+01 2.91407E-01-6.67244E-04-1.09363E+00-8.49986E-14 2.16906E-13
 -1      2378 2.08834E+01 3.93519E-01-1.43431E-03-1.39103E+00 4.79973E-14 6.27124E-14
 -1      2379 2.09768E+01 2.78363E-01 6.37243E-03-9.79881E-01-3.85586E-14 2.91958E-13
 -1      2380 2.08170E+01 2.57888E-01-6.77182E-04-8.82832E-01 5.70388E-14 3.18520E-13
 -1      2381 2.07101E+01 3.74272E-01-9.02006E-04-1.14492E+00 3.20197E-14 3.78215E-13
 -1      2382 2.07538E+01 2.39558E-01 5.77321E-03-7.83626E-01-9.18161E-14 3.22287E-13
 -1      2383 2.06223E+01 2.17189E-01-4.93701E-04-6.99921E-01-1.45193E-13 1.86025E-13
 -1      2384 2.05643E+01 3.27979E-01-8.23557E-04-9.23491E-01-8.25504E-14 4.05495E-13
 -1      2385 2.05684E+01 1.98892E-01 4.95652E-03-6.16229E-01 6.27932E-14 6.64105E-14
 -1      2386 2.04621E+01 1.78626E-01-2.54376E-04-5.46225E-01 3.12026E-13-6.96558E-14
 -1      2387 2.04398E+01 2.75227E-01-8.67582E-04-7.32763E-01-1.14174E-13 2.50185E-13
 -1      2388 2.04163E+01 1.62937E-01 4.08951E-03-4.76798E-01 3.08654E-13-1.60902E-13
 -1      2389 2.03319E+01 1.46610E-01-1.10683E-05-4.18878E-01 3.59204E-13-5.81257E-14
 -1      2390 2.03339E+01 2.26521E-01-8.98555E-04-5.72534E-01 2.65069E-13 1.47754E-13
 -1      2391 2.02932E+01 1.34674E-01 3.25177E-03-3.61340E-01 4.24293E-13 3.74515E-14
 -1      2392 2.02274E+01 1.22931E-01 2.00343E-04-3.13013E-01 2.26062E-13 1.13003E-13
 -1      2393 2.02447E+01 1.86866E-01-8.52892E-04-4.39330E-01 4.22066E-13 1.21739E-13
 -1      2394 2.01947E+01 1.14779E-01 2.44290E-03-2.64650E-01 8.07132E-14 2.17303E-13
 -1      2395 2.01454E+01 1.07945E-01 7.21136E-04-2.23498E-01 9.66292E-14 3.14818E-13
 -1      2396 2.01702E+01 1.57784E-01-7.94781E-04-3.28005E-01 2.58851E-13 2.63247E-14
 -1      2397 1.96287E+01 7.95135E-02 2.38898E-03-8.06326E-02 1.74003E-13 2.14426E-13
 -1      2398 1.96516E+01 1.09932E-01 6.97492E-03-3.14822E-02 1.85805E-13 2.70820E-13
 -1      2399 1.96161E+01 4.06968E-02 1.77234E-03-1.55018E-01 1.79531E-13 1.40849E-13
 -1      2400 1.96063E+01 5.78923E-02 3.78841E-03-1.28230E-01 1.79755E-13 1.81556E-13
 -1      2401 1.97781E+01 1.00620E-01-3.35156E-03-9.24287E-02 2.27804E-13 8.17157E-14
 -1      2402 1.96440E+01 1.96170E-02 1.45438E-03-1.95718E-01 1.63327E-13 1.15735E-13
 -1      2403 1.96142E+01 2.86821E-02 1.96306E-03-1.81490E-01 1.60546E-13 1.42131E-13
 -1      2404 1.97546E+01 5.11695E-02-2.54783E-03-1.76372E-01 1.90360E-13 5.78966E-14
 -1      2405 1.96986E+01 9.94913E-03 1.31805E-03-2.18100E-01 1.10887E-13 1.06525E-13
 -1      2406 1.96564E+01 1.36641E-02 9.10183E-04-2.10279E-01 1.30318E-13 1.30326E-13
 -1      2407 1.97661E+01 2.48955E-02-1.85774E-03-2.24188E-01 1.48535E-13 3.39695E-14
 -1      2408 1.97715E+01 8.04369E-03 1.31129E-03-2.32484E-01 6.20923E-14 1.26962E-13
 -1      2409 1.97211E+01 8.08415E-03 3.13012E-04-2.26952E-01 1.14060E-13 1.45401E-13
 -1      2410 1.98021E+01 1.36113E-02-1.37044E-03-2.52442E-01 9.06341E-14 5.47269E-14
 -1      2411 1.98583E+01 1.15442E-02 1.40365E-03-2.46006E-01 1.17987E-13 7.79070E-14
 -1      2412 1.98014E+01 9.02326E-03 1.19717E-06-2.39916E-01 8.86762E-14 9.84635E-14
 -1      2413 1.98556E+01 1.25195E-02-1.07016E-03-2.72460E-01 1.15502E-13 2.88225E-14
 -1      2414 1.99576E+01 1.87091E-02 1.56415E-03-2.63600E-01 1.51548E-13 5.21038E-14
 -1      2415 1.98945E+01 1.44794E-02-1.23426E-04-2.55005E-01 1.69437E-13 6.52529E-14
 -1      2416 1.99227E+01 1.84620E-02-9.16254E-04-2.92152E-01 1.63265E-13 1.51357E-14
 -1      2417 2.00698E+01 2.80042E-02 1.75318E-03-2.88451E-01 1.04234E-13-4.27898E-14
 -1      2418 1.99997E+01 2.28525E-02-1.24776E-04-2.76151E-01 1.17837E-13-1.42833E-14
 -1      2419 2.00021E+01 2.90316E-02-8.70774E-04-3.16947E-01 1.56400E-13-1.09464E-14
 -1      2420 2.01968E+01 3.77810E-02 1.91644E-03-3.22094E-01 7.36133E-14-1.75456E-14
 -1      2421 2.01184E+01 3.25917E-02-4.67446E-05-3.05643E-01 1.18413E-13-8.25745E-15
 -1      2422 2.00939E+01 4.20204E-02-9.02039E-04-3.50234E-01 1.12414E-13-5.06211E-14
 -1      2423 2.03411E+01 4.59713E-02 1.97854E-03-3.64210E-01 6.41262E-15-1.99518E-14
 -1      2424 2.02530E+01 4.18871E-02 7.95605E-05-3.44058E-01 2.74680E-14-2.66588E-14
 -1      2425 2.01996E+01 5.49713E-02-9.83964E-04-3.93415E-01 5.08102E-14-1.15975E-13
 -1      2426 2.05047E+01 4.97746E-02 1.83680E-03-4.12137E-01 6.30307E-14-6.91700E-14
 -1      2427 2.04059E+01 4.83613E-02 2.32137E-04-3.89907E-01 2.14981E-14-2.33426E-14
 -1      2428 2.03213E+01 6.47477E-02-1.09618E-03-4.45627E-01 1.66324E-14-1.05109E-13
 -1      2429 2.06889E+01 4.53764E-02 1.35955E-03-4.60109E-01 2.02162E-13-7.92769E-14
 -1      2430 2.05797E+01 4.87611E-02 3.96259E-04-4.39000E-01 1.52999E-13-4.92360E-14
 -1      2431 2.04616E+01 6.71098E-02-1.22313E-03-5.03148E-01 1.08328E-13-1.29348E-13
 -1      2432 2.08928E+01 2.78291E-02 3.94683E-04-4.98309E-01 3.58033E-14-4.19402E-15
 -1      2433 2.07752E+01 3.87305E-02 5.61935E-04-4.83553E-01 1.35881E-13 4.47545E-15
 -1      2434 2.06226E+01 5.63831E-02-1.35088E-03-5.58521E-01 1.30932E-13-4.80154E-14
 -1      2435 2.11127E+01-8.63459E-03-1.20176E-03-5.11997E-01-5.36180E-14 5.28286E-14
 -1      2436 2.09914E+01 1.28529E-02 7.18823E-04-5.11223E-01-1.56694E-14 5.79766E-14
 -1      2437 2.08062E+01 2.54380E-02-1.46226E-03-5.99511E-01-4.75863E-14 4.97153E-14
 -1      2438 2.13400E+01-6.93780E-02-3.50084E-03-4.81252E-01-9.06511E-14 7.75313E-14
 -1      2439 2.12235E+01-3.46776E-02 8.44727E-04-5.04416E-01-7.80144E-14 7.97715E-14
 -1      2440 2.10127E+01-3.35771E-02-1.52050E-03-6.08222E-01-1.02671E-13 1.73760E-13
 -1      2441 2.15606E+01-1.56512E-01-6.38110E-03-3.82378E-01-1.24699E-13 4.45108E-14
 -1      2442 2.14613E+01-1.08154E-01 8.78578E-04-4.40664E-01-8.87461E-14 5.45341E-14
 -1      2443 2.12401E+01-1.26999E-01-1.43161E-03-5.61020E-01-6.81516E-14 1.56407E-13
 -1      2444 2.17526E+01-2.63801E-01-9.36464E-03-1.92633E-01-3.11246E-14 7.03664E-14
 -1      2445 2.16871E+01-2.06469E-01 6.81829E-04-2.95470E-01-1.47605E-13-1.14676E-14
 -1      2446 2.14816E+01-2.54956E-01-9.91967E-04-4.30509E-01-1.34283E-13 1.01992E-14
 -1      2447 2.18859E+01-3.69695E-01-1.14432E-02 9.97607E-02-3.14106E-14 2.92584E-13
 -1      2448 2.18732E+01-3.16954E-01-2.34460E-05-4.96419E-02 7.39222E-14 1.89271E-13
 -1      2449 2.17220E+01-4.03617E-01 1.35833E-04-1.91592E-01-7.93445E-14 3.85190E-14
 -1      2450 2.19232E+01-4.31703E-01-1.10317E-02 4.79305E-01-7.68300E-14 2.22798E-13
 -1      2451 2.19803E+01-4.08306E-01-1.56801E-03 2.96946E-01-7.05386E-14 2.78283E-13
 -1      2452 2.19326E+01-5.35879E-01 2.32717E-03 1.65955E-01-2.88560E-14 2.42677E-13
 -1      2453 2.18276E+01-3.90763E-01-6.64124E-03 8.83609E-01-1.06960E-13 1.92083E-13
 -1      2454 2.19618E+01-4.28166E-01-4.10950E-03 7.05482E-01-1.10489E-13 2.17334E-13
 -1      2455 2.20673E+01-5.86283E-01 5.68641E-03 6.17004E-01-7.45933E-14 1.62574E-13
 -1      2456 2.15813E+01-1.97446E-01 1.74023E-03 1.19385E+00 2.01989E-14 7.40345E-14
 -1      2457 2.17800E+01-3.16922E-01-7.18823E-03 1.08050E+00-2.61731E-14 9.42985E-14
 -1      2458 2.20688E+01-4.75099E-01 8.86086E-03 1.07676E+00 6.15133E-15 1.16684E-13
 -1      2459 2.12152E+01 1.40478E-01 1.11994E-02 1.25875E+00 8.05256E-14 1.28491E-13
 -1      2460 2.14395E+01-4.57840E-02-8.65491E-03 1.27613E+00 1.71792E-14 7.06553E-14
 -1      2461 2.18972E+01-1.53541E-01 8.92827E-03 1.39267E+00 1.99884E-15 9.75854E-14
 -1      2462 2.08321E+01 5.20025E-01 1.63307E-02 9.69292E-01-7.78761E-14 2.19737E-13
 -1      2463 2.10207E+01 3.32112E-01-6.09644E-03 1.15019E+00 5.23800E-14 1.96665E-13
 -1      2464 2.15794E+01 3.32541E-01 3.62409E-03 1.38466E+00 3.96141E-14 1.82363E-13
 -1      2465 2.05837E+01 7.69076E-01 1.32483E-02 3.50626E-01-6.70583E-14 2.41294E-13
 -1      2466 2.06750E+01 6.71329E-01 1.47038E-03 6.59470E-01-8.66798E-14 1.92445E-13
 -1      2467 2.12390E+01 8.12487E-01-6.37756E-03 9.48387E-01-3.80516E-14 6.52224E-14
 -1      2468 2.05955E+01 7.49756E-01 4.40728E-03-3.99463E-01 1.55518E-14 3.07890E-13
 -1      2469 2.05564E+01 7.97700E-01 1.13545E-02-6.76420E-02-1.19262E-15 2.56321E-13
 -1      2470 2.10564E+01 1.06165E+00-1.26497E-02 1.65560E-01-2.32188E-14 1.07668E-13
 -1      2471 2.08706E+01 4.73897E-01-3.91373E-03-1.00348E+00 2.56265E-13 4.66732E-14
 -1      2472 2.07153E+01 6.38936E-01 1.70292E-02-7.66483E-01 1.65801E-13 2.20860E-13
 -1      2473 2.11426E+01 9.44101E-01-9.14950E-03-6.81138E-01 1.22303E-13-8.66603E-16
 -1      2474 2.12827E+01 9.09416E-02-7.82446E-03-1.27067E+00 1.33849E-13-1.00707E-13
 -1      2475 2.10646E+01 2.86688E-01 1.41944E-02-1.19192E+00 2.37403E-13 2.19364E-14
 -1      2476 2.14435E+01 5.25746E-01 4.31670E-04-1.26932E+00 2.34508E-13-1.01892E-13
 -1      2477 2.16676E+01-2.31213E-01-7.06908E-03-1.18311E+00 1.76946E-14-6.78849E-14
 -1      2478 2.14519E+01-8.44711E-02 5.34891E-03-1.25193E+00 5.15434E-14-1.24211E-13
 -1      2479 2.17892E+01 1.58316E-02 7.62192E-03-1.43430E+00 1.20024E-13-1.38322E-13
 -1      2480 2.19130E+01-4.02043E-01-4.15687E-03-8.57587E-01-1.82237E-14-1.02476E-14
 -1      2481 2.17497E+01-3.37036E-01-3.98605E-03-1.01535E+00-7.91142E-14-8.49884E-14
 -1      2482 2.20237E+01-3.80224E-01 9.10364E-03-1.21997E+00-7.49140E-14 3.89460E-14
 -1      2483 2.19894E+01-4.25192E-01-1.43729E-03-4.47866E-01 1.68961E-13 1.63611E-13
 -1      2484 2.19015E+01-4.30314E-01-9.78559E-03-6.29718E-01 1.44162E-13 1.39019E-13
 -1      2485 2.20844E+01-5.68261E-01 6.48278E-03-7.93580E-01 5.59990E-15 2.42852E-13
 -1      2486 2.19237E+01-3.54043E-01 1.84892E-04-7.10763E-02-3.69735E-14 1.81581E-13
 -1      2487 2.19105E+01-3.99130E-01-1.13596E-02-2.31372E-01 1.15273E-13 2.08897E-13
 -1      2488 2.19931E+01-5.69115E-01 2.92310E-03-3.26311E-01 9.03899E-14 7.17392E-14
 -1      2489 2.17624E+01-2.45904E-01 8.82199E-04 2.13606E-01-9.11114E-14 6.85358E-14
 -1      2490 2.18092E+01-3.03188E-01-9.95648E-03 9.61691E-02-4.16112E-14 1.41346E-13
 -1      2491 2.18053E+01-4.57806E-01 3.11840E-04 7.09333E-02 5.99082E-14 8.78255E-14
 -1      2492 2.15489E+01-1.40186E-01 1.03702E-03 3.93584E-01-3.24176E-14-2.81341E-13
 -1      2493 2.16365E+01-1.92379E-01-7.19652E-03 3.21852E-01-5.13029E-14-6.60582E-14
 -1      2494 2.15729E+01-3.08055E-01-1.03580E-03 3.52775E-01 7.98700E-14-2.93934E-13
 -1      2495 2.13159E+01-5.58368E-02 9.65797E-04 4.82504E-01 1.83063E-14-2.92266E-13
 -1      2496 2.14259E+01-9.56365E-02-4.28445E-03 4.49342E-01 5.80569E-15-3.01054E-13
 -1      2497 2.13315E+01-1.67874E-01-1.53463E-03 5.18614E-01 3.51150E-14-3.97166E-13
 -1      2498 2.10849E+01 2.61531E-03 8.49966E-04 5.03688E-01-6.97883E-14 1.95577E-13
 -1      2499 2.12028E+01-2.38986E-02-1.83608E-03 4.98593E-01-1.66243E-13-8.36234E-14
 -1      2500 2.11010E+01-5.88513E-02-1.61960E-03 5.89620E-01-2.08233E-13-1.12093E-13
 -1      2501 2.08692E+01 3.81467E-02 7.58905E-04 4.80427E-01-5.00060E-14 4.96604E-13
 -1      2502 2.09846E+01 2.27576E-02-5.06875E-05 4.93328E-01 2.08819E-14 4.04031E-13
 -1      2503 2.08910E+01 1.51672E-02-1.54399E-03 5.92912E-01-1.72780E-13 1.64455E-13
 -1      2504 2.06762E+01 5.64798E-02 7.08994E-04 4.31681E-01-1.27550E-14 4.42480E-13
 -1      2505 2.07824E+01 4.91149E-02 1.09395E-03 4.54587E-01 3.47646E-14 4.36831E-13
 -1      2506 2.07055E+01 5.91770E-02-1.42600E-03 5.53342E-01-9.02526E-15 4.42875E-13
 -1      2507 2.05090E+01 6.35585E-02 7.02684E-04 3.70934E-01 1.01707E-13 4.71419E-13
 -1      2508 2.06025E+01 6.12212E-02 1.71653E-03 3.98320E-01 4.83868E-14 4.98979E-13
 -1      2509 2.05454E+01 8.11680E-02-1.30450E-03 4.90281E-01 4.69646E-14 2.48639E-13
 -1      2510 2.03684E+01 6.44806E-02 7.32100E-04 3.06560E-01 6.81022E-14 3.30330E-13
 -1      2511 2.04474E+01 6.46931E-02 1.95583E-03 3.35152E-01 8.76322E-14 3.64267E-13
 -1      2512 2.04099E+01 8.91117E-02-1.18198E-03 4.17105E-01 1.13240E-13 3.59221E-13
 -1      2513 2.02533E+01 6.31851E-02 8.12942E-04 2.42846E-01 1.94973E-13 2.77325E-13
 -1      2514 2.03176E+01 6.40819E-02 1.94310E-03 2.71135E-01 1.40560E-13 3.57629E-13
 -1      2515 2.02972E+01 8.96518E-02-1.05326E-03 3.41881E-01 1.15999E-13 2.32451E-13
 -1      2516 2.01614E+01 6.20560E-02 8.17469E-04 1.81052E-01 1.01980E-13 3.63239E-13
 -1      2517 2.02118E+01 6.26897E-02 1.75855E-03 2.08760E-01 1.82455E-13 3.46086E-13
 -1      2518 2.02046E+01 8.77601E-02-9.55455E-04 2.68805E-01 1.43022E-13 2.65597E-13
 -1      2519 2.00900E+01 6.17296E-02 7.94286E-04 1.21829E-01-1.34156E-13 4.37662E-13
 -1      2520 2.01280E+01 6.18975E-02 1.49620E-03 1.48718E-01-3.35261E-14 5.45164E-13
 -1      2521 2.01298E+01 8.55938E-02-1.08112E-03 1.98685E-01 6.03255E-14 3.89103E-13
 -1      2522 2.00626E+01 5.93416E-02 1.03456E-03 8.93313E-02-1.78254E-14 3.42678E-13
 -1      2523 1.99597E+01 3.34671E-01-1.49029E-03 1.74975E-01 4.10388E-14 1.07244E-13
 -1      2524 1.99765E+01 3.02869E-01 5.50357E-04 1.86915E-01 1.12137E-13-4.15273E-13
 -1      2525 1.99318E+01 3.91896E-01-1.65266E-03 1.31158E-01 1.37295E-15 3.43229E-13
 -1      2526 1.99453E+01 3.67056E-01 5.70620E-05 1.53829E-01-2.48295E-14 3.52573E-13
 -1      2527 1.99376E+01 3.55784E-01 8.35696E-04 1.91395E-01-2.61747E-14 1.95561E-13
 -1      2528 2.00279E+01 1.91714E-01-8.17059E-04 1.87607E-01 3.01166E-14 2.23329E-13
 -1      2529 2.00454E+01 1.57025E-01 1.24578E-03 1.76103E-01-2.87516E-14 1.60290E-13
 -1      2530 1.99932E+01 2.65381E-01-1.17840E-03 1.94564E-01-3.28991E-14-4.73717E-13
 -1      2531 2.00113E+01 2.30878E-01 9.67768E-04 1.94422E-01-1.50573E-14-6.35525E-14
 -1      2532 2.00262E+01 2.14638E-01 3.81111E-04 2.23963E-01 1.15030E-13-3.12172E-14
 -1      2533 1.99797E+01 2.88427E-01 4.46808E-04 2.22341E-01 3.00932E-14-2.67359E-13
 -1      2534 1.99130E+01 4.30109E-01-1.62621E-03 6.85443E-02 4.63068E-14 2.17227E-13
 -1      2535 1.99214E+01 4.15342E-01-4.82209E-04 9.90231E-02 5.84797E-14 2.64896E-13
 -1      2536 1.99038E+01 4.09681E-01 1.21051E-03 1.34335E-01-4.44354E-14 3.77958E-13
 -1      2537 1.99059E+01 4.44342E-01-1.38838E-03-4.90707E-03-1.27374E-13 1.45571E-13
 -1      2538 1.99080E+01 4.41723E-01-9.86532E-04 2.93686E-02-1.28283E-13 2.61154E-13
 -1      2539 1.98827E+01 4.43584E-01 1.48592E-03 5.80065E-02-2.47052E-14 1.19094E-13
 -1      2540 1.99122E+01 4.32119E-01-9.47677E-04-7.93646E-02 3.88556E-15-3.70169E-13
 -1      2541 1.99073E+01 4.42291E-01-1.38453E-03-4.60504E-02-1.15035E-13 5.80883E-15
 -1      2542 1.98776E+01 4.52914E-01 1.61285E-03-2.80505E-02-1.59666E-13 8.60153E-14
 -1      2543 1.99318E+01 3.94971E-01-3.24800E-04-1.43142E-01 1.85426E-13-6.42794E-13
 -1      2544 1.99201E+01 4.16344E-01-1.64737E-03-1.16145E-01 1.69230E-13-8.11669E-13
 -1      2545 1.98902E+01 4.35774E-01 1.58866E-03-1.11711E-01 1.33213E-14-4.96911E-13
 -1      2546 1.99639E+01 3.35463E-01 4.06781E-04-1.88332E-01 3.91272E-13 2.86093E-13
 -1      2547 1.99460E+01 3.66257E-01-1.72143E-03-1.71254E-01 3.15294E-13-3.67704E-13
 -1      2548 1.99200E+01 3.93122E-01 1.34479E-03-1.81651E-01 1.83393E-13-4.11557E-13
 -1      2549 2.00044E+01 2.60245E-01 1.01766E-03-2.04710E-01 2.60536E-15 1.73957E-14
 -1      2550 1.99835E+01 2.96509E-01-1.45155E-03-2.02186E-01 2.77480E-13 2.28413E-13
 -1      2551 1.99653E+01 3.28240E-01 1.02102E-03-2.27710E-01 1.82914E-13 5.78367E-14
 -1      2552 2.00462E+01 1.77982E-01 1.21752E-03-1.90377E-01-1.93710E-13-1.86268E-13
 -1      2553 2.00250E+01 2.16617E-01-1.05363E-03-2.02692E-01-1.37248E-13-8.59378E-14
 -1      2554 2.00152E+01 2.48010E-01-5.57303E-04-2.39108E-01 8.66374E-15-5.78933E-14
 -1      2555 2.00617E+01 1.05823E-01 1.20539E-03-1.28750E-01-2.38082E-14 8.96893E-14
 -1      2556 3.48900E+00-2.45341E+00 1.04822E-01-5.68593E-01-9.61869E-14-1.57652E-13
 -1      2557 4.59867E+00-2.78295E+00 8.01405E-02-3.02355E+00 4.41314E-14-2.18603E-13
 -1      2558 1.97024E+01 1.47940E-01 3.49769E-03 5.15009E-02 2.17311E-13 2.91896E-13
 -1      2559 1.97781E+01 2.01756E-01 1.24156E-02 1.39689E-01 2.53739E-13 3.52423E-13
 -1      2560 1.98518E+01 1.88342E-01-3.94957E-03 5.26594E-02 2.52248E-13 1.53162E-13
 -1      2561 4.45933E+00-2.86034E+00 7.24798E-02 3.64399E+00-2.98983E-13 1.17906E-13
 -1      2562 3.46243E+00-2.57873E+00 9.25864E-02 1.65040E+00-2.58633E-13 1.67644E-13
 -1      2563 2.56330E+01-3.91430E+00-1.64460E-02 4.51587E+00-1.69059E-13-9.12603E-14
 -1      2564 2.23752E+01-4.91832E+00 4.29664E-03 5.42853E+00-2.35478E-13 6.12427E-14
 -1      2565 9.64272E+00-4.12565E+00 4.65076E-02 6.60288E+00-1.90653E-13-1.66811E-13
 -1      2566 6.57615E+00-3.59044E+00 7.90360E-02 5.20620E+00-3.01620E-13-1.09329E-13
 -1      2567 5.76755E+00-3.05514E+00 8.75686E-02 4.12485E+00-8.64309E-14-9.08940E-13
 -1      2568 3.89715E+00-2.65738E+00 1.13199E-01 1.78951E+00-5.63646E-14-1.01885E-12
 -1      2569 1.95322E+01 3.59365E+00-1.01284E-02-2.44276E-01 1.16674E-13-7.03266E-13
 -1      2570 1.95479E+01 3.57269E+00-9.64789E-03-4.24498E-01 5.19047E-14-7.07732E-13
 -1      2571 1.97235E+01 3.17380E+00-5.44591E-04-4.71090E-01 2.20944E-14-6.58111E-13
 -1      2572 1.96899E+01 3.23473E+00-8.40782E-04-1.51087E-01 1.35176E-13-6.49001E-13
 -1      2573 3.28394E+01 7.65936E+00-1.04578E-01 2.24087E-01 7.62668E-13-1.17018E-13
 -1      2574 3.31407E+01 7.66688E+00-9.62317E-02-1.39062E-01 7.89924E-13-1.90799E-13
 -1      2575 3.41250E+01 3.34156E+00-7.08323E-02-9.58995E-01-7.86815E-13-3.23741E-13
 -1      2576 3.28771E+01 1.52083E+00-5.30244E-02-7.50643E-01-6.27665E-13-2.70894E-13
 -1      2577 3.31239E+01 6.95650E+00-1.02778E-01-5.13526E-01 7.10820E-13-2.34923E-13
 -1      2578 3.22328E+01 5.75306E+00-9.88304E-02-7.17977E-01 5.43232E-13-2.28761E-13
 -1      2579 3.26000E+01 5.09433E+00-6.61011E-02 5.19667E-01 7.04437E-13-2.13912E-13
 -1      2580 3.29845E+01 6.58558E+00-1.20300E-01 6.20633E-01 7.74103E-13-4.64073E-14
 -1      2581 3.05967E+01 5.18274E-01-5.72046E-02-7.11975E-01 5.04020E-13 8.24341E-14
 -1      2582 3.18682E+01 2.49696E+00-1.30519E-01 9.85780E-02 5.49505E-13-1.90403E-14
 -1      2583 2.69073E+01-2.99948E+00-1.64597E-02-3.46294E+00 1.51615E-13 1.57097E-14
 -1      2584 2.93904E+01-1.46618E+00-8.47150E-02-2.45812E+00 3.96787E-13 8.92619E-14
 -1      2585 2.01477E+01-5.19041E+00 4.83430E-02-6.21051E+00-3.29681E-13-2.27443E-13
 -1      2586 2.40973E+01-4.34620E+00-1.92025E-02-5.30502E+00-5.37903E-14-3.45834E-14
 -1      2587 1.15191E+01-4.90757E+00 3.59403E-02-6.81086E+00-3.60961E-13-8.38524E-13
 -1      2588 1.54028E+01-5.03072E+00-6.45484E-03-7.11445E+00-4.58134E-13-6.33320E-13
 -1      2589 5.71069E+00-3.51427E+00 8.11503E-02-4.77084E+00-2.66620E-13-9.55125E-13
 -1      2590 8.32213E+00-4.12629E+00 3.12512E-02-6.32997E+00-2.85966E-13-8.25645E-13
 -1      2591 1.16163E+01-3.70538E+00 1.46974E-01-6.51542E+00-4.28824E-13-7.70772E-13
 -1      2592 3.02985E+00-2.66027E+00 7.12058E-02-5.87106E-01-1.63324E-13-1.06992E-12
 -1      2593 3.69155E+00-2.95780E+00 6.47143E-02-2.93353E+00-1.10550E-13-1.01796E-12
 -1      2594 1.12648E+01-4.79343E+00 2.50144E-02 6.49537E+00-3.40283E-14-5.48339E-13
 -1      2595 8.64110E+00-4.09607E+00 8.65564E-02 5.57869E+00-2.38420E-14-6.69215E-13
 -1      2596 1.92186E+01-5.65105E+00-2.47823E-02 6.28936E+00-1.12188E-13-3.64833E-13
 -1      2597 1.47269E+01-5.50509E+00 3.20561E-02 6.43798E+00 5.70655E-14-4.33736E-13
 -1      2598 2.61687E+01-4.87282E+00-8.99076E-02 3.93890E+00-3.04035E-13-4.71845E-16
 -1      2599 2.32022E+01-5.51024E+00 1.71783E-02 4.78264E+00-2.71672E-13-2.02560E-13
 -1      2600 3.16698E+01-1.21640E+00-1.04875E-01 5.35825E-01-6.27972E-13-3.15858E-14
 -1      2601 2.89128E+01-3.27298E+00-1.85997E-02 1.86793E+00-4.36970E-13 4.29656E-14
 -1      2602 3.43795E+01 6.62523E+00-9.38662E-02-8.60528E-01-8.06022E-13-4.93799E-13
 -1      2603 3.43637E+01 5.34737E+00-4.49166E-02-1.12428E+00-8.25784E-13-5.57610E-13
 -1      2604 3.23290E+01 3.97892E+00-3.34535E-02-1.91778E+00-6.47926E-13-3.46084E-13
 -1      2605 3.47241E+01 6.92876E+00-4.67411E-02 5.60518E-01-5.80425E-13-5.05901E-13
 -1      2606 3.42011E+01 7.25885E+00-1.00513E-01-1.52784E-02-6.74183E-13-6.50004E-13
 -1      2607 3.38466E+01 4.64204E+00-6.71383E-02 1.25553E+00-3.98737E-13-6.73017E-13
 -1      2608 3.47276E+01 5.96912E+00-7.23237E-02 9.70988E-01-4.95715E-13-5.19862E-13
 -1      2609 3.22805E+01 6.11764E+00-3.48520E-02 1.26229E+00-4.72011E-13-8.47822E-13
 -1      2610 3.17414E+01-2.41301E-01-4.51468E-02 3.09517E-01-8.62088E-14-5.88030E-13
 -1      2611 3.33754E+01 1.99177E+00-1.09255E-01 9.72461E-01-2.59542E-13-6.03850E-13
 -1      2612 2.75356E+01-4.19222E+00-6.28835E-02-2.77140E+00 9.00391E-14-3.90715E-13
 -1      2613 2.98863E+01-2.86969E+00-1.47126E-01-1.47301E+00-1.69725E-14-6.26055E-13
 -1      2614 2.24166E+01-5.59774E+00 3.55442E-02-5.02635E+00 7.48013E-13 2.70853E-13
 -1      2615 2.54837E+01-4.97770E+00-3.83713E-02-4.29849E+00 4.35596E-13 3.27516E-15
 -1      2616 2.71380E+01-4.93319E+00 7.42678E-02-2.49562E+00 3.70037E-13-4.51278E-13
 -1      2617 7.23744E+00-3.28152E+00 1.27784E-01-4.68541E+00 3.35176E-13 1.60372E-13
 -1      2618 9.74802E+00-3.89018E+00 1.13286E-01-5.99337E+00 4.95659E-13 3.93213E-13
 -1      2619 2.05408E+01 1.95567E+00-1.36487E-02-1.89701E+00-4.71630E-13-3.36708E-13
 -1      2620 2.04038E+01 1.21546E+00-7.21026E-03-1.28548E+00-4.39286E-13-2.77562E-13
 -1      2621 2.03783E+01 1.38251E+00 7.16379E-03-1.23425E+00-3.94496E-13-3.46092E-13
 -1      2622 2.02867E+01 2.38583E+00-4.85227E-03-1.84071E+00-4.47539E-13-4.52308E-13
 -1      2623 2.04783E+01 8.75570E-01-7.24378E-03 1.22582E+00 4.99588E-13 5.84320E-13
 -1      2624 2.08282E+01 1.25717E+00-6.02354E-03 1.72672E+00 5.42687E-13 6.69537E-13
 -1      2625 2.06367E+01 1.71585E+00-1.57920E-02 1.92061E+00 6.03581E-13 4.67053E-13
 -1      2626 2.04411E+01 1.05927E+00-9.43296E-03 1.23952E+00 5.11914E-13 3.34493E-13
 -1      2627 3.01049E+01-7.49779E-01-8.44503E-02 1.73930E+00-3.58498E-14 9.92539E-14
 -1      2628 2.77169E+01-2.54576E+00-5.24452E-02 2.75234E+00-7.20951E-14-4.10505E-14
 -1      2629 2.68701E+01-3.80784E+00-1.90183E-02 2.77793E+00-1.37501E-13 9.63951E-14
 -1      2630 2.95302E+01-5.12201E-01 5.42059E-03-8.72398E-02 2.30371E-14 4.16334E-16
 -1      2631 3.06879E+01 7.10864E+00-6.59601E-02-6.34890E-01 7.26530E-13-1.06463E-13
 -1      2632 1.99208E+01 2.82192E+00 2.41074E-03-1.09506E+00-1.98105E-13-6.80461E-13
 -1      2633 1.97897E+01 3.16438E+00-1.45789E-02-1.28181E+00-2.21632E-13-7.17491E-13
 -1      2634 1.98818E+01 3.04026E+00-1.74617E-02-1.48059E+00-2.95872E-13-6.92682E-13
 -1      2635 1.99926E+01 3.44915E-01-3.61473E-03 2.97302E-01 3.08599E-13 1.81384E-13
 -1      2636 2.04165E+01 2.11642E+00-1.27401E-02 1.87323E+00 6.03652E-13 2.20022E-13
 -1      2637 2.01134E+01 2.62297E+00-1.17021E-02-1.67642E+00-3.68990E-13-5.63785E-13
 -1      2638 2.07800E+01-5.62704E+00 7.00802E-02-5.56051E+00 7.23810E-13 2.20615E-13
 -1      2639 1.27632E+01-4.18570E+00 6.07255E-02-6.05728E+00 6.19588E-13 2.79166E-13
 -1      2640 3.20512E+01 2.76135E+00-5.39843E-02 1.99729E+00-2.61569E-13-6.67244E-13
 -1      2641 7.79987E+00-1.94207E+00 1.62687E-01-3.76652E+00 7.22755E-14-1.24928E-13
 -1      2642 2.10210E+01-5.23547E+00 4.40300E-02 5.94704E+00-2.16521E-13 7.58560E-14
 -1      2643 1.95358E+01-5.01284E+00 1.34710E-01 6.28068E+00-1.68837E-13 7.43051E-14
 -1      2644 2.31572E+01-5.18799E+00-5.00510E-02 4.70922E+00-1.89723E-13-4.89678E-14
 -1      2645 2.00704E+01 8.44740E-02 2.20152E-04 1.30425E-01-4.13398E-14 3.04951E-13
 -1      2646 2.00656E+01 1.10741E-01 7.30132E-05 1.50991E-01 9.89700E-15 2.25201E-13
 -1      2647 3.23083E+01 6.54559E+00-5.26533E-02-5.72036E-01-6.99552E-13-6.96568E-13
 -1      2648 2.00939E+01 9.86522E-02 1.31216E-03-1.60280E-01 1.33853E-14 2.16138E-13
 -1      2649 2.00657E+01 1.41012E-01-8.87797E-04-1.81109E-01-1.01952E-13-8.95684E-14
 -1      2650 2.00748E+01 1.71463E-01 8.16294E-04-2.26568E-01-6.01349E-14 4.88350E-14
 -1      2651 2.01279E+01 1.04295E-01 2.25271E-03-1.94027E-01 1.42941E-14 2.59118E-13
 -1      2652 1.53937E+01-4.57637E+00-2.80015E-03 6.73456E+00-7.44960E-14 2.66662E-13
 -1      2653 1.25956E+01-4.33748E+00 1.16736E-01 6.85388E+00-8.59590E-14-1.39888E-14
 -1      2654 1.20779E+01-3.26908E+00 1.63664E-01 6.45498E+00-1.59844E-13 3.89966E-14
 -1      2655 3.13272E+01-4.65807E-01-4.38926E-02-1.05910E+00-4.59133E-13-3.78031E-14
 -1      2656 5.26913E+00-1.38331E+00 1.70665E-01 4.21754E-01-1.75636E-13-3.45834E-14
 -1      2657 2.04326E+01 1.80981E+00 1.25434E-02 1.56014E+00 5.63187E-13 1.43697E-13
 -1      2658 7.30741E+00-2.27960E+00 1.59398E-01 4.49604E+00-4.33570E-13 3.61378E-14
 -1      2659 2.80916E+01-4.26838E+00 2.59016E-02 1.85360E+00-2.30996E-13 1.56652E-13
 -1      2660 5.27370E+00-1.51168E+00 1.66349E-01 6.13658E-01-3.30430E-14-1.02152E-12
 -1      2661 2.20131E+01-5.61490E+00 7.29003E-02 5.10422E+00 2.16493E-14-1.96634E-13
 -1      2662 1.50125E+01-4.67397E+00 1.14625E-01 6.28915E+00 1.54959E-13-3.57658E-13
 -1      2663 6.54262E+00-2.15917E+00 1.53491E-01-3.94661E+00-2.66009E-13-9.36112E-13
 -1      2664 1.86232E+01-5.22801E+00 5.59453E-02-6.53756E+00-4.58023E-13-3.53099E-13
 -1      2665 2.13344E+01-5.19295E+00-1.61079E-02-5.46597E+00-4.70957E-13-2.75387E-14
 -1      2666 1.74051E+01-4.63406E+00 1.37192E-01-6.60203E+00-5.06650E-13-3.82333E-13
 -1      2667 2.58917E+01-4.24966E+00 4.71174E-03-3.64786E+00-1.90487E-13 1.39916E-13
 -1      2668 2.94898E+01-9.70882E-01 8.61738E-03-5.09072E-01 1.03306E-13 3.49221E-13
 -1      2669 3.06166E+01 3.28003E+00-5.97833E-02 1.27439E+00 4.34347E-13 1.79134E-13
 -1      2670 8.73870E+00-2.74668E+00 1.37708E-01 4.74459E+00 1.20987E-13-7.22478E-13
 -1      2671 3.03262E+01 3.82792E+00-8.50352E-02-1.41662E+00 4.31266E-13-2.55934E-13
 -1      2672 3.08975E+01 6.84549E+00-6.54874E-02 7.37733E-01 7.34912E-13 7.24421E-15
 -1      2673 3.04690E+01-2.04950E+00 7.87382E-03 5.23916E-01 4.60491E-14-6.03573E-13
 -1      2674 2.00761E+01 1.31795E-01 6.34495E-04 1.92743E-01-8.67415E-15 2.30079E-13
 -1      2675 2.01173E+01 1.39056E-01-1.23583E-03-2.46143E-01-1.12531E-14 1.07139E-13
 -1      2676 1.98559E+01 2.77758E+00-6.29978E-03 5.13004E-01 3.34198E-13-5.12765E-13
 -1      2677 1.98315E+01 2.82791E+00-5.78201E-03 3.62897E-01 2.86207E-13-5.41697E-13
 -1      2678 1.98149E+01 2.86616E+00-5.64424E-03 2.28488E-01 2.42982E-13-5.76699E-13
 -1      2679 1.98064E+01 2.88330E+00-5.48431E-03 7.47914E-02 1.99885E-13-5.91760E-13
 -1      2680 1.99604E+01 2.51788E+00 3.73942E-03 2.62823E-01 2.45368E-13-5.27856E-13
 -1      2681 2.00509E+01 2.33138E+00-1.07044E-02 1.04098E+00 4.87672E-13-2.89248E-13
 -1      2682 1.99878E+01 2.48158E+00-6.42222E-03 9.05338E-01 4.54838E-13-3.52560E-13
 -1      2683 2.02194E+01 1.91339E+00-1.19410E-02 1.22313E+00 5.26442E-13-1.16623E-13
 -1      2684 2.01296E+01 2.15222E+00-4.84814E-03 1.12953E+00 4.99147E-13-2.03954E-13
 -1      2685 2.01960E+01 1.89520E+00 6.52536E-03 9.20596E-01 4.68900E-13-2.16016E-13
 -1      2686 2.02114E+01 7.31601E-01-3.31558E-03 6.37140E-01 3.88450E-13 8.28592E-14
 -1      2687 2.03518E+01 9.55219E-01 9.17749E-03 9.02319E-01 4.32399E-13 1.19926E-13
 -1      2688 9.70841E+00-1.84705E+00 1.19008E-01 5.10805E+00-3.84637E-13 3.27516E-15
 -1      2689 7.80274E+00-1.04194E+00 1.58885E-01 3.45835E+00-4.16708E-13 3.74978E-14
 -1      2690 2.00724E+01 4.23413E-01-1.19500E-03 2.78084E-01 3.02622E-13 6.11213E-14
 -1      2691 2.01707E+01 5.59449E-01 1.02518E-02 4.42836E-01 3.30910E-13 7.83911E-14
 -1      2692 2.02555E+01 8.29442E-01 9.21428E-04 6.09296E-01 3.81398E-13-3.66735E-14
 -1      2693 2.03353E+01 1.50286E+00-1.82635E-03 1.26409E+00 5.17403E-13 9.03310E-14
 -1      2694 2.88112E+01 6.88613E+00-1.83504E-01-3.49204E-01 7.23088E-13 4.93251E-14
 -1      2695 2.89031E+01 6.31565E+00-1.37334E-01-1.15830E+00 6.83481E-13-6.87644E-14
 -1      2696 2.02189E+01 6.35464E-01 8.17721E-03-4.27506E-01-2.70268E-13-2.98782E-13
 -1      2697 2.01376E+01 4.85951E-01-3.19772E-03-2.66021E-01-2.44267E-13-2.95593E-13
 -1      2698 2.01129E+01 3.75857E-01 6.53077E-03-1.42552E-01-2.22457E-13-2.60555E-13
 -1      2699 2.00570E+01 2.84349E-01-1.51713E-03-4.04846E-02-1.99590E-13-2.64787E-13
 -1      2700 2.02025E+01 5.43815E-01-1.79744E-03-2.45819E-01-2.20291E-13-3.02315E-13
 -1      2701 2.00329E+01 2.17456E-01 4.41776E-03 4.03826E-02-1.80790E-13-2.15571E-13
 -1      2702 2.00019E+01 1.62130E-01-4.58838E-04 1.03234E-01-1.43502E-13-2.03764E-13
 -1      2703 2.01374E+01 3.21624E-01-2.18403E-03-2.96556E-02-1.78634E-13-2.49297E-13
 -1      2704 1.99832E+01 1.22532E-01 2.74817E-03 1.54384E-01-1.44615E-13-1.84905E-13
 -1      2705 1.99719E+01 9.09095E-02 2.18682E-04 1.92667E-01-1.23223E-13-2.26523E-13
 -1      2706 2.00858E+01 1.85446E-01-2.04543E-03 1.11485E-01-1.43419E-13-2.05610E-13
 -1      2707 1.99598E+01 6.94201E-02 1.53020E-03 2.24973E-01-1.09726E-13-2.11305E-13
 -1      2708 1.99630E+01 5.40478E-02 6.81724E-04 2.49047E-01-1.07324E-13-2.18353E-13
 -1      2709 2.00509E+01 1.06588E-01-1.68874E-03 2.01844E-01-1.26621E-13-2.07446E-13
 -1      2710 1.99569E+01 4.53050E-02 6.45938E-04 2.70827E-01-1.17710E-13-2.29134E-13
 -1      2711 1.99710E+01 4.17259E-02 1.04185E-03 2.88201E-01-1.02732E-13-2.07976E-13
 -1      2712 2.00315E+01 6.71528E-02-1.32598E-03 2.61051E-01-1.03349E-13-2.09051E-13
 -1      2713 1.99695E+01 4.24966E-02-1.44389E-06 3.05880E-01-6.16974E-14-2.01170E-13
 -1      2714 1.99921E+01 4.79921E-02 1.36609E-03 3.22185E-01-2.55384E-14-1.65278E-13
 -1      2715 2.00246E+01 5.63466E-02-1.01649E-03 3.04369E-01-7.38039E-14-1.67299E-13
 -1      2716 1.99941E+01 5.63104E-02-4.92717E-04 3.40794E-01-6.83010E-14-1.61217E-13
 -1      2717 2.00238E+01 6.92505E-02 1.69425E-03 3.60436E-01-1.00663E-13-1.55301E-13
 -1      2718 2.00274E+01 6.75137E-02-7.61387E-04 3.43686E-01-3.64159E-14-1.49224E-13
 -1      2719 2.00280E+01 8.39591E-02-8.94339E-04 3.84020E-01-9.40535E-14-1.21201E-13
 -1      2720 2.00644E+01 1.03423E-01 2.04939E-03 4.10611E-01-5.97613E-14-1.22431E-13
 -1      2721 2.00373E+01 9.65932E-02-5.40875E-04 3.88390E-01-7.53634E-14-8.93334E-14
 -1      2722 2.00698E+01 1.23878E-01-1.25978E-03 4.42541E-01-5.78592E-14-1.22669E-13
 -1      2723 2.01129E+01 1.49372E-01 2.44295E-03 4.79171E-01-8.18754E-14-1.08815E-13
 -1      2724 2.00518E+01 1.41205E-01-3.26126E-04 4.46101E-01-8.50725E-14-1.14669E-13
 -1      2725 2.01181E+01 1.75181E-01-1.63024E-03 5.22353E-01-8.80743E-14-8.16037E-14
 -1      2726 2.01682E+01 2.06336E-01 2.87632E-03 5.71725E-01-1.87790E-14-1.00504E-13
 -1      2727 2.00685E+01 1.99964E-01-8.44701E-05 5.23182E-01-6.30776E-14-5.67636E-14
 -1      2728 2.01717E+01 2.37030E-01-2.03174E-03 6.28702E-01-2.18848E-14-9.17694E-14
 -1      2729 2.02295E+01 2.73177E-01 3.34120E-03 6.93106E-01-4.58951E-15-1.50483E-13
 -1      2730 2.00847E+01 2.71748E-01 2.14276E-04 6.25055E-01-5.88288E-14-4.75216E-14
 -1      2731 2.02294E+01 3.07692E-01-2.46727E-03 7.66045E-01-1.48840E-14-2.01956E-13
 -1      2732 2.02955E+01 3.47175E-01 3.82285E-03 8.47125E-01-5.69818E-14-2.52008E-13
 -1      2733 2.00971E+01 3.54698E-01 5.89436E-04 7.56293E-01-4.36379E-14-1.25681E-13
 -1      2734 2.02901E+01 3.82988E-01-2.89987E-03 9.37684E-01-7.25116E-14-2.02717E-13
 -1      2735 2.03654E+01 4.21994E-01 4.30676E-03 1.03591E+00-4.38452E-14-1.87355E-13
 -1      2736 2.01019E+01 4.44623E-01 1.02639E-03 9.20499E-01-5.39252E-14-1.79202E-13
 -1      2737 2.03538E+01 4.53652E-01-3.21784E-03 1.14498E+00-6.04486E-14-1.81898E-13
 -1      2738 2.04403E+01 4.84271E-01 4.79330E-03 1.25873E+00-9.14930E-14-2.47883E-13
 -1      2739 2.00958E+01 5.32354E-01 1.42532E-03 1.12002E+00-4.98660E-14-1.53380E-13
 -1      2740 2.04244E+01 5.01025E-01-3.17261E-03 1.38598E+00-5.12741E-14-2.49932E-13
 -1      2741 2.05270E+01 5.08267E-01 5.32350E-03 1.50997E+00-2.31473E-14-1.96680E-13
 -1      2742 2.00781E+01 5.99429E-01 1.51832E-03 1.35555E+00-7.16242E-14-1.36618E-13
 -1      2743 2.05156E+01 4.90682E-01-2.27414E-03 1.65312E+00-4.63761E-14-1.61135E-13
 -1      2744 2.06462E+01 4.48470E-01 5.97410E-03 1.77609E+00 2.14640E-15-2.23803E-13
 -1      2745 2.00561E+01 6.11571E-01 7.27864E-04 1.62554E+00-4.54629E-14-1.80288E-13
 -1      2746 2.06625E+01 3.64482E-01 3.80652E-04 1.92935E+00 1.11433E-13-2.71375E-13
 -1      2747 2.08458E+01 2.31762E-01 6.79014E-03 2.03042E+00 2.17122E-13-3.28835E-13
 -1      2748 2.00552E+01 5.09981E-01-2.05135E-03 1.92523E+00-6.39392E-15-1.30024E-13
 -1      2749 2.09401E+01 3.50170E-02 6.66042E-03 2.17987E+00 2.81587E-13-3.37510E-13
 -1      2750 2.12200E+01-2.43373E-01 7.42263E-03 2.22286E+00 2.79936E-13-3.18654E-13
 -1      2751 2.01369E+01 2.02142E-01-8.55254E-03 2.24314E+00 2.38027E-13-2.59738E-13
 -1      2752 2.14863E+01-6.04982E-01 1.92392E-02 2.33387E+00 2.77243E-13-3.08557E-13
 -1      2753 2.19229E+01-1.07862E+00 5.68583E-03 2.25845E+00 2.43576E-13-2.04762E-13
 -1      2754 2.04269E+01-4.36800E-01-2.08409E-02 2.54730E+00 3.12226E-13-3.40509E-13
 -1      2755 2.25148E+01-1.62178E+00 4.20338E-02 2.24456E+00 2.11335E-13-1.93342E-13
 -1      2756 2.31571E+01-2.26291E+00-3.71667E-04 1.95819E+00 2.01490E-13-2.04250E-13
 -1      2757 2.11501E+01-1.52896E+00-4.00266E-02 2.75185E+00 2.87350E-13-3.11121E-13
 -1      2758 2.42416E+01-2.87219E+00 6.38419E-02 1.64243E+00 1.85314E-13-1.46381E-13
 -1      2759 2.50373E+01-3.40664E+00-9.39330E-03 1.05433E+00 7.58144E-14-1.60879E-13
 -1      2760 2.26266E+01-2.99627E+00-5.54562E-02 2.61432E+00 2.24312E-13-2.70797E-13
 -1      2761 2.98389E+01 5.88117E+00-1.80785E-01-4.57117E-01-5.88196E-13-7.86780E-13
 -1      2762 2.98117E+01 5.60758E+00-2.18429E-01 9.69832E-01-5.51476E-13-9.61026E-13
 -1      2763 2.96575E+01 7.96163E-01-1.17270E-01 2.62063E+00-2.15633E-13-6.81302E-13
 -1      2764 2.91582E+01-1.26790E+00-1.73019E-01 2.01256E+00-6.58293E-14-5.39846E-13
 -1      2765 2.75202E+01-3.19658E+00 1.45854E-02 6.38561E-01 3.27646E-14-2.41147E-13
 -1      2766 2.65214E+01-3.60688E+00 3.55864E-02-3.05770E-01 1.91227E-13-2.45887E-13
 -1      2767 2.50314E+01-3.34469E+00 6.39708E-03-1.08066E+00 2.37074E-13-1.49369E-13
 -1      2768 2.41600E+01-2.84265E+00 5.76992E-02-1.68336E+00 3.02772E-13-1.50873E-13
 -1      2769 2.50304E+01-4.11572E+00-2.87529E-02-1.73068E+00 2.77108E-13 8.37099E-14
 -1      2770 2.31081E+01-2.21562E+00 1.73442E-03-1.97676E+00 3.22814E-13-3.25648E-14
 -1      2771 2.24657E+01-1.58055E+00 3.96753E-02-2.25459E+00 3.31327E-13 1.06757E-14
 -1      2772 2.25525E+01-2.92836E+00-5.18056E-02-2.62817E+00 3.30202E-13 9.62980E-14
 -1      2773 2.18941E+01-1.04158E+00 7.17652E-03-2.26081E+00 3.92790E-13 1.92726E-13
 -1      2774 2.14657E+01-5.74666E-01 2.05170E-02-2.33090E+00 5.36714E-13 4.48840E-13
 -1      2775 2.11272E+01-1.45514E+00-2.83481E-02-2.73669E+00 4.88960E-13 1.99086E-13
 -1      2776 2.12024E+01-2.19273E-01 7.25163E-03-2.21772E+00 4.17955E-13 2.76237E-13
 -1      2777 2.09306E+01 5.53296E-02 7.45528E-03-2.17058E+00 2.10297E-13 2.53107E-13
 -1      2778 2.04176E+01-4.00309E-01-1.70268E-02-2.53505E+00 3.72376E-13 2.00099E-13
 -1      2779 2.08372E+01 2.46972E-01 6.27456E-03-2.01955E+00 2.13886E-14 2.00628E-13
 -1      2780 2.06601E+01 3.78081E-01 1.07708E-03-1.91518E+00-8.98985E-14 1.98379E-14
 -1      2781 2.01344E+01 2.24257E-01-7.74404E-03-2.22676E+00 6.37468E-14 2.46005E-14
 -1      2782 2.06432E+01 4.59018E-01 5.42554E-03-1.76071E+00-1.43767E-13-3.69933E-14
 -1      2783 2.05177E+01 5.01548E-01-1.65725E-03-1.63480E+00-1.73787E-13-5.47595E-14
 -1      2784 2.00576E+01 5.23821E-01-2.31017E-03-1.90597E+00-1.09752E-13-2.53900E-13
 -1      2785 2.05281E+01 5.18064E-01 4.83120E-03-1.48986E+00-1.89070E-14 8.10189E-14
 -1      2786 2.04301E+01 5.12605E-01-2.58112E-03-1.36268E+00 8.51643E-14 1.53331E-13
 -1      2787 2.00613E+01 6.23239E-01 1.68504E-04-1.60282E+00-3.37744E-14 1.48666E-13
 -1      2788 2.04450E+01 4.96389E-01 4.35341E-03-1.23264E+00 1.35515E-13 2.51764E-13
 -1      2789 2.03634E+01 4.68744E-01-2.64290E-03-1.11491E+00 6.98836E-14 3.43364E-13
 -1      2790 2.00853E+01 6.13125E-01 9.46926E-04-1.32775E+00 1.07890E-13 6.28601E-14
 -1      2791 2.03743E+01 4.39015E-01 3.89435E-03-1.00169E+00-1.09474E-13 2.34010E-13
 -1      2792 2.03043E+01 4.04103E-01-2.32925E-03-8.98161E-01-1.68308E-13 1.32188E-13
 -1      2793 2.01049E+01 5.51412E-01 9.44868E-04-1.08481E+00-7.68408E-14 1.79339E-13
 -1      2794 2.03091E+01 3.71572E-01 3.41509E-03-8.01723E-01-1.32316E-13 2.00675E-13
 -1      2795 2.02491E+01 3.37395E-01-1.88389E-03-7.13503E-01 3.86578E-14 3.67383E-13
 -1      2796 2.01132E+01 4.72024E-01 6.76038E-04-8.74856E-01-7.75413E-14 1.57434E-13
 -1      2797 2.02486E+01 3.07619E-01 2.92190E-03-6.32562E-01 2.36981E-13 4.67987E-13
 -1      2798 2.01975E+01 2.78086E-01-1.45667E-03-5.58647E-01 3.49446E-13 4.23955E-13
 -1      2799 2.01104E+01 3.93462E-01 3.76364E-04-6.96498E-01 1.60587E-13 5.40803E-13
 -1      2800 2.01931E+01 2.53599E-01 2.41895E-03-4.91272E-01 2.41520E-13 3.98179E-13
 -1      2801 2.01502E+01 2.30522E-01-1.03536E-03-4.29670E-01 2.60308E-13 2.51258E-13
 -1      2802 2.00995E+01 3.24813E-01 8.45634E-05-5.46529E-01 2.12661E-13 5.49963E-13
 -1      2803 2.01425E+01 2.12721E-01 1.86654E-03-3.73431E-01 2.34928E-13 4.16951E-14
 -1      2804 2.01072E+01 1.96886E-01-5.58389E-04-3.21491E-01 8.39156E-14-4.10583E-14
 -1      2805 2.00829E+01 2.70525E-01-2.24045E-04-4.22083E-01 4.71216E-14 2.67879E-13
 -1      2806 1.98789E+01 7.35989E-02 5.27624E-04-1.84452E-01 1.76710E-13 3.24176E-14
 -1      2807 1.98859E+01 1.01571E-01 3.08060E-03-1.48888E-01 1.96531E-13 5.83557E-14
 -1      2808 1.99060E+01 1.35924E-01 1.19148E-04-9.78084E-02 2.18889E-13 2.74942E-14
 -1      2809 1.99360E+01 1.84525E-01 4.92229E-03-3.73713E-02 2.33528E-13 4.36588E-14
 -1      2810 2.00068E+01 1.59474E-01-2.45224E-03-1.06379E-01 2.12705E-13-1.80457E-14
 -1      2811 1.98997E+01 2.58467E-02 1.03566E-03-2.69449E-01 7.92348E-14 2.96118E-14
 -1      2812 1.98783E+01 3.09835E-02 7.80098E-04-2.55942E-01 1.07909E-13 3.44519E-14
 -1      2813 1.99357E+01 2.53494E-02 1.23557E-03-2.94694E-01 1.37786E-13-3.69800E-14
 -1      2814 1.99056E+01 2.39755E-02 1.71086E-04-2.83606E-01 1.03082E-13 4.00064E-15
 -1      2815 1.99685E+01 3.51095E-02-1.17398E-03-2.90264E-01 1.31878E-13-8.00059E-14
 -1      2816 1.99843E+01 3.43387E-02 1.42988E-03-3.20246E-01 1.59608E-13-7.88437E-15
 -1      2817 1.99470E+01 2.84608E-02-2.13903E-04-3.08061E-01 1.38781E-13-1.94892E-14
 -1      2818 1.99874E+01 3.66363E-02-9.38293E-04-3.20885E-01 1.52982E-13-8.93816E-14
 -1      2819 2.00443E+01 4.95022E-02 1.61577E-03-3.51681E-01 1.42748E-13-1.86372E-14
 -1      2820 2.00004E+01 4.07841E-02-4.37647E-04-3.36042E-01 1.76138E-13 3.27477E-14
 -1      2821 2.00171E+01 4.93525E-02-8.00470E-04-3.52682E-01 1.57672E-13-4.24644E-14
 -1      2822 2.01159E+01 6.76801E-02 1.77304E-03-3.92449E-01 9.71807E-14-6.10650E-15
 -1      2823 2.00652E+01 5.77767E-02-5.36676E-04-3.72030E-01 1.37652E-13-9.45287E-15
 -1      2824 2.00569E+01 6.90636E-02-7.45522E-04-3.91331E-01 1.56874E-13-2.59828E-14
 -1      2825 2.02003E+01 8.52851E-02 1.86493E-03-4.43875E-01 2.81441E-14-5.22734E-14
 -1      2826 2.01420E+01 7.61395E-02-5.25399E-04-4.18430E-01 8.75925E-14-1.29042E-14
 -1      2827 2.01067E+01 9.16194E-02-7.64008E-04-4.40277E-01 1.03666E-13 7.80367E-14
 -1      2828 2.02994E+01 9.77358E-02 1.83515E-03-5.04846E-01 3.07743E-14-2.52452E-14
 -1      2829 2.02328E+01 9.18780E-02-3.97173E-04-4.75413E-01 8.05394E-15-5.61751E-14
 -1      2830 2.01681E+01 1.12192E-01-8.56472E-04-5.00686E-01 7.35902E-14 3.02562E-14
 -1      2831 2.04162E+01 9.88915E-02 1.60459E-03-5.71193E-01 1.26029E-13-6.98601E-14
 -1      2832 2.03404E+01 9.97292E-02-1.23267E-04-5.40449E-01 6.57614E-14-2.32000E-14
 -1      2833 2.02436E+01 1.24563E-01-1.03950E-03-5.71115E-01 5.97473E-14 5.52733E-14
 -1      2834 2.05540E+01 8.06291E-02 1.07245E-03-6.34775E-01 8.37421E-15 8.48021E-14
 -1      2835 2.04684E+01 9.26364E-02 3.46810E-04-6.07523E-01 1.02099E-13-9.82309E-15
 -1      2836 2.03373E+01 1.20454E-01-1.34493E-03-6.46846E-01 5.53293E-14 1.75065E-14
 -1      2837 2.07172E+01 3.28918E-02 1.20008E-04-6.82400E-01-1.16231E-13 1.41489E-13
 -1      2838 2.06217E+01 6.15061E-02 1.07609E-03-6.66069E-01-3.61128E-14 1.18120E-13
 -1      2839 2.04554E+01 8.91288E-02-1.81513E-03-7.18902E-01-5.09817E-14 8.92502E-14
 -1      2840 2.09102E+01-5.52242E-02-1.37621E-03-6.94874E-01-1.02381E-13 1.43406E-13
 -1      2841 2.08059E+01-4.33424E-03 2.11820E-03-6.99836E-01-1.29830E-13 1.28912E-13
 -1      2842 2.06063E+01 1.76995E-02-2.49551E-03-7.72864E-01-1.10457E-13 7.52292E-14
 -1      2843 2.11371E+01-1.92311E-01-3.49843E-03-6.46742E-01-8.13005E-14 1.62224E-13
 -1      2844 2.10266E+01-1.15211E-01 3.46898E-03-6.86045E-01-8.44838E-14 1.33582E-13
 -1      2845 2.08009E+01-1.07022E-01-3.38740E-03-7.87692E-01-8.52914E-14 1.18168E-13
 -1      2846 2.13983E+01-3.77975E-01-6.17043E-03-5.07955E-01-1.30180E-13 1.60389E-13
 -1      2847 2.12874E+01-2.76438E-01 4.96387E-03-5.95704E-01-4.17359E-14 2.39530E-13
 -1      2848 2.10513E+01-2.93681E-01-4.33996E-03-7.35050E-01-1.11666E-13 1.69262E-13
 -1      2849 2.16858E+01-5.91702E-01-8.97298E-03-2.49699E-01-4.73723E-14 9.03923E-14
 -1      2850 2.15844E+01-4.79521E-01 6.14783E-03-3.96932E-01-1.04423E-13 1.16993E-13
 -1      2851 2.13663E+01-5.36863E-01-4.89983E-03-5.80538E-01-3.22339E-14 1.97471E-13
 -1      2852 2.19737E+01-7.78758E-01-1.08314E-02 1.42472E-01-9.08258E-15 1.19452E-13
 -1      2853 2.18983E+01-6.89222E-01 6.01651E-03-6.43683E-02-1.70545E-14 1.26963E-13
 -1      2854 2.17423E+01-8.01850E-01-4.20244E-03-2.89731E-01-6.25993E-14 7.55454E-14
 -1      2855 2.22111E+01-8.41100E-01-9.52967E-03 6.45331E-01-8.36308E-14 7.68174E-14
 -1      2856 2.21828E+01-8.30337E-01 3.27924E-03 4.01527E-01-1.01748E-13 1.36702E-13
 -1      2857 2.21487E+01-1.00785E+00-1.19680E-03 1.56279E-01-8.05855E-14 1.51326E-13
 -1      2858 2.23230E+01-6.54932E-01-3.08102E-03 1.16428E+00-2.80175E-14 1.03228E-13
 -1      2859 2.23601E+01-7.86898E-01-3.12759E-03 9.42151E-01-1.71618E-14 8.32131E-14
 -1      2860 2.25111E+01-1.01912E+00 5.14273E-03 7.29760E-01-5.32580E-14 1.30443E-13
 -1      2861 2.22440E+01-1.43362E-01 7.92010E-03 1.51603E+00 1.81409E-14 1.74908E-13
 -1      2862 2.23448E+01-4.45929E-01-1.29789E-02 1.40775E+00 6.12434E-14 1.80660E-13
 -1      2863 2.27134E+01-6.86277E-01 1.16674E-02 1.30912E+00-2.01772E-14 2.84488E-13
 -1      2864 2.19844E+01 6.07348E-01 1.79906E-02 1.47185E+00-4.21993E-15 2.04521E-13
 -1      2865 2.21136E+01 2.06597E-01-2.00514E-02 1.56963E+00 1.63535E-14 1.53007E-13
 -1      2866 2.26569E+01 4.07676E-02 1.11504E-02 1.65600E+00-1.61362E-14 1.94846E-13
 -1      2867 2.16708E+01 1.30737E+00 1.63545E-02 9.09418E-01-8.37785E-15 1.88428E-13
 -1      2868 2.17726E+01 9.80915E-01-1.82661E-02 1.23800E+00-4.65966E-14 2.13871E-13
 -1      2869 2.23779E+01 9.90564E-01 2.49314E-03 1.50887E+00-8.66755E-15 1.59599E-13
 -1      2870 2.15230E+01 1.56854E+00 2.17532E-03-3.76283E-02 4.63631E-14 1.59064E-13
 -1      2871 2.15423E+01 1.50856E+00-4.38985E-03 4.17284E-01 6.58544E-14 2.19878E-13
 -1      2872 2.20771E+01 1.74839E+00-1.16025E-02 7.50243E-01 4.35624E-14 2.60938E-13
 -1      2873 2.16599E+01 1.22961E+00-1.35603E-02-9.73817E-01 1.95106E-13 1.11692E-14
 -1      2874 2.15854E+01 1.47369E+00 1.29821E-02-5.78618E-01 9.91347E-14 1.11141E-14
 -1      2875 2.20171E+01 1.89002E+00-1.31859E-02-3.49651E-01 1.77480E-13 9.96074E-14
 -1      2876 2.19864E+01 5.01508E-01-2.04760E-02-1.50668E+00 3.00014E-13-2.05424E-14
 -1      2877 2.18608E+01 8.98381E-01 1.96932E-02-1.31833E+00 3.55582E-13 3.44731E-14
 -1      2878 2.22512E+01 1.32680E+00-1.48198E-03-1.28806E+00 2.81897E-13-6.17778E-16
 -1      2879 2.22807E+01-2.32654E-01-1.62339E-02-1.51572E+00 1.05673E-13-1.54542E-13
 -1      2880 2.21626E+01 1.22331E-01 1.24713E-02-1.55542E+00 2.52129E-13-1.20980E-13
 -1      2881 2.25698E+01 3.92287E-01 9.56347E-03-1.66821E+00 3.43259E-13-9.46940E-14
 -1      2882 2.23803E+01-6.97902E-01-6.53637E-03-1.13452E+00-1.55145E-13-8.49232E-14
 -1      2883 2.23178E+01-5.01612E-01 7.80967E-04-1.32611E+00-9.28895E-14-1.46407E-13
 -1      2884 2.27262E+01-4.56619E-01 1.27312E-02-1.48084E+00 1.79649E-14-2.50932E-13
 -1      2885 2.22666E+01-8.41463E-01 1.52720E-03-5.99902E-01 1.28160E-14-1.97896E-14
 -1      2886 2.22716E+01-8.05863E-01-7.69675E-03-8.44332E-01-9.64116E-14-4.63988E-14
 -1      2887 2.26133E+01-9.39812E-01 8.22457E-03-9.54594E-01-1.61174E-13-2.74287E-13
 -1      2888 2.20122E+01-7.54381E-01 5.48158E-03-9.56960E-02 1.50814E-14-9.24179E-15
 -1      2889 2.20721E+01-8.22201E-01-1.07786E-02-3.20509E-01 3.86223E-14-2.76333E-14
 -1      2890 2.22964E+01-1.04155E+00 1.18266E-03-3.59435E-01 4.05779E-15-2.22733E-13
 -1      2891 2.17026E+01-5.58171E-01 6.37608E-03 2.87985E-01 1.66298E-13-1.06771E-13
 -1      2892 2.17960E+01-6.67685E-01-9.90420E-03 1.18057E-01 2.06735E-13 4.33407E-14
 -1      2893 2.18953E+01-8.90247E-01-3.36824E-03 1.40614E-01 1.49526E-13-1.35119E-13
 -1      2894 2.13968E+01-3.44865E-01 5.56953E-03 5.32454E-01 1.28552E-13-1.42563E-13
 -1      2895 2.15048E+01-4.53870E-01-7.27074E-03 4.24486E-01 1.31162E-13-1.32499E-13
 -1      2896 2.15025E+01-6.33345E-01-4.87613E-03 4.87358E-01 1.49685E-13-1.22028E-14
 -1      2897 2.11235E+01-1.63739E-01 4.14012E-03 6.56211E-01 7.66206E-16-1.55053E-13
 -1      2898 2.12336E+01-2.51865E-01-4.45711E-03 6.02159E-01 4.00148E-14-1.27990E-13
 -1      2899 2.11642E+01-3.73448E-01-4.64665E-03 6.86262E-01 4.95670E-14 8.05266E-14
 -1      2900 2.08911E+01-3.13531E-02 2.74584E-03 6.90020E-01-3.23374E-13 3.62877E-14
 -1      2901 2.09960E+01-9.33476E-02-2.12579E-03 6.76447E-01-1.75295E-13-4.02019E-14
 -1      2902 2.08922E+01-1.60985E-01-3.80243E-03 7.68553E-01-1.77915E-13 9.41437E-14
 -1      2903 2.06983E+01 5.40160E-02 1.65106E-03 6.64059E-01-2.05691E-13 1.14245E-13
 -1      2904 2.07941E+01 1.56003E-02-4.15241E-04 6.77487E-01-3.07348E-13-2.63225E-14
 -1      2905 2.06806E+01-9.83295E-03-2.88946E-03 7.69362E-01-3.14490E-13 5.59885E-14
 -1      2906 2.05400E+01 1.01851E-01 8.93630E-04 6.02929E-01 7.01808E-14 7.47520E-14
 -1      2907 2.06250E+01 8.15130E-02 7.12867E-04 6.32221E-01 1.38559E-14 1.70141E-13
 -1      2908 2.05180E+01 8.51871E-02-2.13193E-03 7.18998E-01-1.74514E-13-1.67987E-14
 -1      2909 2.04109E+01 1.23399E-01 4.26759E-04 5.24520E-01-7.98588E-15 1.72574E-13
 -1      2910 2.04845E+01 1.15278E-01 1.35970E-03 5.61553E-01 2.20994E-14 1.49823E-13
 -1      2911 2.03930E+01 1.36695E-01-1.58087E-03 6.40557E-01 9.09795E-15 8.15592E-14
 -1      2912 2.03058E+01 1.28921E-01 1.83656E-04 4.40555E-01 1.95980E-13-1.54633E-14
 -1      2913 2.03683E+01 1.27889E-01 1.64033E-03 4.80056E-01 1.05320E-13 1.08503E-13
 -1      2914 2.02960E+01 1.58470E-01-1.19912E-03 5.50109E-01 1.44093E-13 7.90327E-14
 -1      2915 2.02206E+01 1.26681E-01 1.59807E-04 3.57687E-01 5.99818E-14 1.25352E-13
 -1      2916 2.02725E+01 1.28744E-01 1.66507E-03 3.96712E-01 1.71050E-13 1.10802E-13
 -1      2917 2.02197E+01 1.62666E-01-9.33932E-04 4.57755E-01 1.20018E-13-9.20662E-14
 -1      2918 2.01526E+01 1.22585E-01 6.47779E-04 2.79013E-01 6.62937E-14 2.52558E-13
 -1      2919 2.01939E+01 1.24702E-01 1.55671E-03 3.15949E-01 7.01705E-14 1.87513E-13
 -1      2920 2.01584E+01 1.58846E-01-7.59836E-04 3.68895E-01 2.83572E-14 1.85512E-13
 -1      2921 2.00963E+01 1.26947E-01 8.41681E-04 2.17704E-01 8.26328E-14 3.70697E-13
 -1      2922 2.01289E+01 1.28572E-01 1.44882E-03 2.53580E-01 1.12533E-13 2.11012E-13
 -1      2923 2.01054E+01 1.59606E-01-1.47094E-03 2.98069E-01 5.62120E-14 7.32796E-14
 -1      2924 2.00641E+01 1.69260E-01-1.41348E-03 2.43289E-01 1.21514E-13 1.32854E-13
 -1      2925 1.98326E+01 4.59337E-01-1.39391E-03 4.69557E-02-1.02711E-13-1.33401E-13
 -1      2926 1.98426E+01 4.49696E-01-2.40917E-04 9.05289E-02 1.78610E-14-4.61071E-15
 -1      2927 2.01041E+01 1.87820E-01 1.71096E-03-2.88392E-01 1.49239E-13-1.51644E-13
 -1      2928 2.00833E+01 1.79270E-01 2.52367E-04-2.57134E-01 1.09394E-13-1.81470E-15
 -1      2929 2.00671E+01 2.36996E-01 7.35882E-05-3.32134E-01 8.05121E-14-1.44104E-13
 -1      2930 1.98996E+01 3.76413E-01-1.72778E-03 2.07596E-01-1.00102E-14 2.02542E-13
 -1      2931 1.99266E+01 3.48654E-01 7.77424E-04 2.31152E-01 1.39035E-14 1.29608E-13
 -1      2932 1.98308E+01 4.64960E-01-9.51268E-04-5.18719E-02-1.25879E-13 1.68227E-13
 -1      2933 1.98288E+01 4.67022E-01-8.48286E-04-5.94263E-03-7.01552E-14 4.84029E-16
 -1      2934 1.97919E+01 4.84383E-01 1.60384E-03 2.56421E-02-8.40968E-16-1.42595E-13
 -1      2935 1.98569E+01 4.28346E-01-1.65957E-03 1.37104E-01 3.32626E-14 4.16789E-13
 -1      2936 1.98769E+01 4.08497E-01 3.38809E-04 1.72809E-01 9.77285E-14 3.77145E-13
 -1      2937 1.98623E+01 4.06133E-01 1.00248E-03 2.15071E-01 1.69370E-13 3.03520E-13
 -1      2938 1.98153E+01 4.56732E-01 1.37181E-03 1.29901E-01 7.94675E-14 1.44827E-13
 -1      2939 1.98529E+01 4.43803E-01-3.21856E-04-1.44868E-01-1.50560E-14-6.13188E-13
 -1      2940 1.98386E+01 4.57398E-01-1.40809E-03-1.03546E-01-1.15722E-13-7.38446E-15
 -1      2941 1.97965E+01 4.84755E-01 1.68664E-03-8.42078E-02-1.18097E-13 1.21080E-14
 -1      2942 1.98990E+01 3.96182E-01 4.52322E-04-2.21849E-01 5.78249E-14-1.80808E-13
 -1      2943 1.98727E+01 4.20592E-01-1.84938E-03-1.89849E-01-4.84980E-15-6.29570E-13
 -1      2944 1.98309E+01 4.56250E-01 1.62710E-03-1.86166E-01-1.64379E-13-5.80247E-13
 -1      2945 1.99648E+01 3.26975E-01 1.46520E-03-2.70291E-01-1.26457E-14-8.45133E-14
 -1      2946 1.99279E+01 3.59079E-01-2.32965E-03-2.52057E-01 5.21606E-14 8.12034E-14
 -1      2947 1.98934E+01 3.99718E-01 1.40383E-03-2.66109E-01-1.11289E-13-1.81393E-13
 -1      2948 1.99685E+01 2.43182E-01-3.55569E-04 4.60826E-02 2.55557E-13 2.77849E-14
 -1      2949 2.00296E+01 3.24207E-01 7.47711E-03 1.46931E-01 2.64833E-13 6.36794E-14
 -1      2950 2.01513E+01 4.90020E-01-1.35691E-03 2.66840E-01 3.02721E-13-5.26696E-14
 -1      2951 2.00656E+01 2.84114E-01-2.23374E-03 3.91819E-02 2.44827E-13-6.46327E-14
 -1      2952 2.99889E+01 5.16054E+00-1.74353E-01-1.71288E+00-5.74957E-13-6.08111E-13
 -1      2953 2.98671E+01 2.84967E+00-2.06937E-01 2.51643E+00-3.46334E-13-7.62043E-13
 -1      2954 1.32188E+01-3.15851E+00 1.16936E-01-5.69968E+00 4.38080E-13 3.54522E-13
 -1      2955 1.60580E+01-4.59057E+00 7.59779E-02-6.26821E+00 6.25389E-13 4.66821E-13
 -1      2956 2.85659E+01-3.87768E+00-1.48290E-01 5.25610E-01-2.24879E-13 1.73972E-13
 -1      2957 2.67463E+01-4.80180E+00 6.73081E-02 2.09704E+00-4.46448E-14 1.44953E-13
 -1      2958 3.07446E+01 1.17747E-01-1.45926E-01-1.93434E+00-3.99347E-13-5.19584E-14
 -1      2959 2.99722E+01-2.04758E+00-2.51279E-02-1.00220E+00-3.25483E-13 7.63833E-14
 -1      2960 2.88151E+01-3.02727E+00-2.02760E-02-6.45399E-01-1.74645E-13 1.33865E-13
 -1      2961 1.98792E+01 3.99704E-02 8.13673E-04-2.36459E-01 1.29592E-13 2.08951E-14
 -1      2962 1.98695E+01 5.43963E-02 1.70947E-03-2.15511E-01 1.76345E-13 3.77400E-14
 -1      2963 1.99740E+01 8.77894E-02-1.98593E-03-1.96544E-01 1.69623E-13 2.09665E-14
 -1      2964 1.99629E+01 4.98319E-02-1.52210E-03-2.52613E-01 1.21995E-13 1.75091E-14
 -1      2965 2.03120E+01 1.06462E+00 2.55811E-03-8.51254E-01-3.18669E-13-3.72459E-13
 -1      2966 2.02286E+01 8.23623E-01-5.05452E-03-6.05545E-01-2.90761E-13-3.48743E-13
 -1      2967 2.02670E+01 9.00553E-01 1.19621E-04-5.61419E-01-2.72232E-13-3.74978E-13
 -1      2968 1.99328E+01 2.60635E+00-7.90748E-03 7.90058E-01 4.34175E-13-4.11590E-13
 -1      2969 1.98900E+01 2.69935E+00-6.21191E-03 6.41556E-01 3.73100E-13-4.68767E-13
 -1      2970 2.00086E+01 2.40337E+00 4.44386E-03 5.12292E-01 3.38748E-13-4.49533E-13
 -1      2971 2.00887E+01 2.20285E+00 5.77394E-03 7.39889E-01 4.14575E-13-3.39445E-13
 -1      2972 2.00552E+01 2.15584E-01 7.99728E-04-2.66973E-01 6.05931E-14-3.56590E-14
 -1      2973 2.01817E+01 2.27571E+00 7.59012E-05-1.42026E+00-3.34820E-13-5.38632E-13
 -1      2974 1.98858E+01 2.70758E+00-6.10977E-03-6.30649E-01-6.56018E-14-6.31373E-13
 -1      2975 1.99277E+01 2.61748E+00-7.54993E-03-7.80771E-01-1.18656E-13-6.45282E-13
 -1      2976 6.63928E+00-6.04534E-01 1.36358E-01 1.66840E+00-3.21333E-13-2.93099E-14
 -1      2977 6.65500E+00-5.01883E-01 1.26218E-01-6.60266E-01-2.55049E-13-1.97398E-13
 -1      2978 2.88870E+01 5.80056E+00-1.34305E-01 1.38977E+00 6.53810E-13 2.62637E-13
 -1      2979 2.86117E+01 6.68645E+00-1.93521E-01 5.74013E-01 7.32581E-13 1.53367E-13
 -1      2980 1.12090E+01-2.69894E+00 7.93220E-02 5.42932E+00 2.03296E-13-4.25937E-13
 -1      2981 8.72823E+00-1.47650E+00 1.52542E-01 3.88520E+00 7.85899E-14-6.98830E-13
 -1      2982 2.87753E+01 1.94079E+00-1.07608E-01 1.58846E+00 2.14537E-13 3.97765E-13
 -1      2983 2.90639E+01 4.07482E+00-1.73828E-01 1.71128E+00 5.04208E-13 3.47222E-13
 -1      2984 2.82114E+01-2.42533E+00-8.50058E-03-7.36757E-01-5.96415E-14 4.62713E-13
 -1      2985 2.86738E+01-7.01528E-01-1.41054E-01 6.22627E-01-1.24900E-14 4.69708E-13
 -1      2986 2.45307E+01-4.77025E+00 2.43512E-02-3.80805E+00-3.05492E-13 1.04354E-13
 -1      2987 2.67756E+01-3.86799E+00-9.05642E-02-2.33615E+00-8.28365E-14 3.32609E-13
 -1      2988 2.69820E+01-3.38505E+00-1.57123E-02-1.10977E+00-9.45199E-14 4.18748E-13
 -1      2989 1.13001E+01-2.58081E+00 1.67441E-01-5.82722E+00-4.30489E-13-6.53200E-13
 -1      2990 1.39286E+01-3.54052E+00 6.23030E-02-6.49756E+00-4.99545E-13-5.66894E-13
 -1      2991 2.39350E+01-5.57051E+00-8.27651E-02 4.04777E+00 8.61533E-14-1.30659E-14
 -1      2992 2.07708E+01-5.15591E+00 1.19830E-01 5.15544E+00 2.28234E-13-1.00066E-13
 -1      2993 2.89135E+01 4.74296E+00-1.73368E-01-1.64953E+00 5.34683E-13-1.27176E-13
 -1      2994 2.86403E+01 2.50239E+00-1.06811E-01-1.72200E+00 3.19689E-13-1.96620E-13
 -1      2995 6.81315E+00-1.01636E+00 1.48309E-01-2.78218E+00-1.53502E-13-8.10574E-13
 -1      2996 8.57671E+00-1.74841E+00 9.41315E-02-4.75829E+00-3.03424E-13-7.71799E-13
 -1      2997 1.72805E+01-4.67837E+00-2.10201E-03 6.05754E+00 2.45970E-13-2.41446E-13
 -1      2998 1.43398E+01-3.64260E+00 1.49801E-01 5.88976E+00 2.16674E-13-3.28626E-13
 -1      2999 7.00979E+00-6.47177E-01 1.35468E-01 1.59546E+00 3.78517E-14-9.16600E-13
 -1      3000 6.34473E+00-5.69704E-01 1.67683E-01-8.09954E-01-5.81687E-14-9.78856E-13
 -1      3001 7.76232E+00-8.10454E-01 1.90816E-01-2.53267E+00-9.08440E-14-5.16587E-13
 -1      3002 9.80229E+00-1.54732E+00 8.71116E-02-4.26154E+00 1.79384E-13-4.99600E-14
 -1      3003 3.00058E+01 4.91208E+00-1.41205E-01 1.87602E+00-4.56857E-13-8.30377E-13
 -1      3004 2.58952E+01-4.92734E+00-6.36914E-03-2.27989E+00 5.40581E-13-3.32019E-13
 -1      3005 2.74699E+01-4.41223E+00-1.07918E-01-1.05193E+00 2.39628E-13-5.34142E-13
 -1      3006 1.99817E+01 2.49406E+00-6.49729E-03-8.96089E-01-1.53539E-13-6.34649E-13
 -1      3007 2.00353E+01 2.34983E+00-1.31692E-02-1.03671E+00-2.20232E-13-6.33515E-13
 -1      3008 2.00782E+01 2.21245E+00 3.02097E-03-7.30766E-01-1.30882E-13-5.89213E-13
 -1      3009 1.99438E+01 2.55550E+00 3.25706E-03 5.29975E-03 1.62702E-13-5.52790E-13
 -1      3010 1.98060E+01 2.88391E+00-5.56673E-03-6.11568E-02 1.61862E-13-5.98505E-13
 -1      3011 1.98135E+01 2.86953E+00-5.42127E-03-2.15180E-01 1.02770E-13-6.08248E-13
 -1      3012 2.02909E+01 1.59181E+00-1.24995E-03 1.16155E+00 5.01619E-13-3.22420E-14
 -1      3013 9.05030E+00-2.35556E-01 1.70163E-01 2.39973E+00-3.94802E-13-1.37779E-13
 -1      3014 2.85372E+01-2.64845E-01-1.74977E-01-9.79961E-01 2.77972E-14-1.29424E-13
 -1      3015 2.84428E+01-1.94641E+00-1.40572E-02 1.00425E-01-5.71036E-14-4.78229E-14
 -1      3016 2.73425E+01 6.14528E+00-1.28881E-01 1.79965E-01 6.77319E-13 1.27898E-13
 -1      3017 2.83146E+01-3.01427E+00-2.34719E-02 7.95938E-01 6.52534E-14-5.56347E-13
 -1      3018 2.00201E+01 2.55743E-01-1.22564E-03-2.70630E-01 1.09204E-13-1.44269E-13
 -1      3019 2.50670E+01-4.76836E+00 3.96198E-02 3.35066E+00-2.10568E-13 9.83796E-14
 -1      3020 2.35343E+01-4.81990E+00 3.47577E-02 4.03609E+00-1.81820E-13 3.88682E-14
 -1      3021 2.54387E+01-4.23256E+00-4.38233E-02 1.62847E+00 9.28424E-14-8.55167E-14
 -1      3022 2.68675E+01-3.66294E+00 1.04113E-02 1.16190E-01-9.26949E-15 2.67147E-16
 -1      3023 2.77131E+01-3.09595E+00-3.73849E-02-7.90218E-01-1.14877E-13 2.81580E-14
 -1      3024 2.86417E+01-1.91531E+00-1.13965E-01-1.99076E+00-1.97925E-13-3.11903E-14
 -1      3025 2.90965E+01-1.70872E-03-6.49816E-02-2.47256E+00-2.55879E-13-8.86513E-14
 -1      3026 1.99259E+01 3.39161E-01 5.27662E-04 2.71619E-01 8.58083E-14-3.57558E-14
 -1      3027 1.99547E+01 3.09888E-01-1.56557E-03 2.50444E-01 3.82387E-14-9.55739E-14
 -1      3028 1.99851E+01 2.76863E-01 8.41758E-04 2.59100E-01-7.21705E-15-2.74155E-13
 -1      3029 2.98252E+01 3.29117E+00-1.88326E-01-2.43955E+00-4.59743E-13-3.77504E-13
 -1      3030 1.37418E+01-2.63340E+00 5.80150E-02 5.76409E+00-1.60191E-13 2.25125E-13
 -1      3031 1.16408E+01-2.19597E+00 1.58868E-01 5.53329E+00-2.65982E-13 1.55084E-13
 -1      3032 1.18061E+01-1.20364E+00 1.07571E-01 4.66793E+00-2.72386E-13 1.49145E-13
 -1      3033 2.01452E+01 2.13434E+00 8.23557E-04-1.13590E+00-2.61857E-13-5.82087E-13
 -1      3034 2.02930E+01 1.68530E+00-1.06110E-02-1.24461E+00-3.50974E-13-4.58855E-13
 -1      3035 2.02882E+01 1.30768E+00-1.25497E-03-9.71271E-01-3.29777E-13-4.11825E-13
 -1      3036 2.02016E+01 1.86191E+00 5.27572E-03-9.21807E-01-2.24390E-13-5.62024E-13
 -1      3037 2.00104E+01 2.40972E-01-1.33364E-03 2.60351E-01-7.84833E-15-1.77626E-13
 -1      3038 2.00406E+01 2.05782E-01 8.43075E-04 2.53912E-01 7.67463E-14-8.58120E-15
 -1      3039 2.00582E+01 2.01967E-01 1.26020E-03 2.82863E-01 9.04986E-14 4.70474E-14
 -1      3040 1.99948E+01 2.68969E-01 7.12599E-04 2.92542E-01-5.32273E-15-1.64616E-13
 -1      3041 2.32188E+01-5.09756E+00 1.71055E-02-4.49344E+00-3.98043E-13 9.58955E-15
 -1      3042 2.42682E+01-4.72430E+00-6.41234E-02-3.15982E+00-3.46782E-13 2.13187E-13
 -1      3043 2.16352E+01-4.67996E+00 1.15144E-01-4.89508E+00-4.55240E-13-4.61263E-14
 -1      3044 2.75261E+01 4.33761E+00-1.04313E-01 1.76448E+00 4.62352E-13 2.43409E-13
 -1      3045 1.99939E+01 2.94596E-01-3.49960E-04-3.03833E-01-3.18670E-14-9.48290E-14
 -1      3046 1.80994E+01-4.64322E+00 1.15610E-01 6.35287E+00-3.10724E-14 1.76206E-13
 -1      3047 1.68010E+01-3.87346E+00 1.11431E-01 6.22417E+00 2.69229E-14 1.41900E-13
 -1      3048 2.02149E+01-4.80351E+00-1.65903E-02 5.44130E+00-3.85386E-14-7.46417E-14
 -1      3049 1.58171E+01-2.99885E+00 9.52387E-02-5.78205E+00-5.47645E-13-4.39558E-13
 -1      3050 1.64189E+01-3.88553E+00 1.33724E-01-6.24744E+00-5.76664E-13-4.71116E-13
 -1      3051 1.86096E+01-4.31887E+00-2.67902E-02-5.75637E+00-5.25802E-13-2.66419E-13
 -1      3052 8.85171E+00-8.48425E-02 1.77155E-01-1.34604E+00-1.05308E-13-5.03847E-13
 -1      3053 8.83373E+00-5.96784E-01 1.70956E-01 2.65624E+00 9.42163E-14-7.03826E-13
 -1      3054 9.39925E+00 2.05324E-01 1.17169E-01 1.40668E+00 2.69992E-14-7.62349E-13
 -1      3055 1.07650E+01-7.02440E-01 3.90437E-02 3.44292E+00 1.37848E-13-4.70513E-13
 -1      3056 1.98872E+01-4.48997E+00 8.45434E-02 5.05382E+00 2.99261E-13-1.48687E-13
 -1      3057 8.36315E+00-1.99466E-01 1.78734E-01-1.69239E+00-6.51215E-14-8.42965E-13
 -1      3058 2.75923E+01 4.88998E+00-1.14260E-01-1.58782E+00 4.80810E-13-1.11695E-13
 -1      3059 1.22342E+01-2.02334E+00 1.70108E-01-5.02858E+00 2.73392E-13 2.24584E-13
 -1      3060 1.48224E+01-2.70048E+00 3.47223E-02-5.26202E+00 3.24761E-13 3.36009E-13
 -1      3061 1.17856E+01-1.13231E+00 1.01352E-01-4.09119E+00 5.12090E-14-5.62050E-14
 -1      3062 2.53875E+01-4.96139E+00 8.96846E-03 2.55340E+00 1.07914E-13 1.92554E-14
 -1      3063 1.98289E+01 2.83268E+00-5.78180E-03-3.48875E-01 5.74798E-14-5.90144E-13
 -1      3064 1.98527E+01 2.78424E+00-6.05716E-03-5.02374E-01-1.22277E-14-6.00044E-13
 -1      3065 2.00006E+01 2.40885E+00 2.24469E-03-5.01037E-01-4.34586E-14-5.67291E-13
 -1      3066 1.99567E+01 2.52041E+00 2.70185E-03-2.51516E-01 7.08044E-14-5.49486E-13
 -1      3067 2.02819E+01 1.37295E+00 2.17828E-03 9.13856E-01 4.54229E-13-8.51893E-14
 -1      3068 2.82217E+01 9.52390E-01-1.02945E-01-1.70764E+00 1.08621E-13-2.38670E-13
 -1      3069 2.73889E+01-2.81125E-01-5.87086E-02-1.38894E+00-2.58613E-14-2.63907E-13
 -1      3070 2.70230E+01 2.15125E+00-1.49143E-01-2.12884E+00 2.21947E-13-2.30461E-13
 -1      3071 2.66262E+01-3.80761E+00-1.01786E-01 2.01530E+00-1.76317E-13 1.47798E-13
 -1      3072 3.00390E+01 1.49556E+00-1.40410E-01-2.74664E+00-3.78989E-13-1.71141E-13
 -1      3073 2.83238E+01 2.81810E-01-1.12857E-01 1.46389E+00 1.88044E-14 4.04649E-13
 -1      3074 2.70901E+01 1.37985E+00-1.50129E-01 2.04733E+00 1.33754E-13 2.79179E-13
 -1      3075 2.74715E+01-8.83386E-01-5.54296E-03 1.11133E+00 2.61041E-14 3.91624E-13
 -1      3076 1.40105E+01-2.60709E+00 1.51589E-01 5.23948E+00 2.78166E-13-3.77379E-13
 -1      3077 1.86730E+01-5.12607E+00 1.06555E-01-5.86226E+00 6.50591E-13 3.17572E-13
 -1      3078 2.27327E+01-5.44660E+00-1.73606E-02-4.50301E+00 7.13485E-13 8.41219E-14
 -1      3079 2.02824E+01 1.38472E+00 5.47098E-03-8.77479E-01-2.76793E-13-4.58520E-13
 -1      3080 1.12643E+01-1.59659E+00 1.54255E-01-4.90605E+00-3.34524E-13-7.34107E-13
 -1      3081 1.88235E+01-4.41405E+00 1.29590E-01-5.40132E+00 5.28064E-13 3.18159E-13
 -1      3082 1.05778E+01-1.08151E-01 8.09201E-02 3.01564E+00-3.53158E-13-1.85990E-13
 -1      3083 9.61295E+00 3.98092E-01 1.06465E-01 1.29717E+00-3.63974E-13-1.16990E-13
 -1      3084 2.02456E+01 1.49147E+00-6.13618E-03 7.96238E-01 4.50279E-13-1.82604E-13
 -1      3085 2.02094E+01 1.68133E+00-9.64723E-05 7.39715E-01 4.29083E-13-2.48471E-13
 -1      3086 2.61251E+01 5.61016E+00-1.06990E-01 6.59426E-01 5.59636E-13 1.01731E-13
 -1      3087 2.62542E+01 5.73354E+00-1.28252E-01-4.24509E-01 6.35547E-13-6.15289E-14
 -1      3088 2.35194E+01-4.31787E+00 1.05939E-01 3.17188E+00 2.55219E-13-1.61659E-13
 -1      3089 2.02304E+01 4.48442E-01 4.08410E-03-9.61113E-02-1.77420E-13-3.06128E-13
 -1      3090 2.01934E+01 3.45572E-01-2.03788E-03-5.51484E-03-1.55920E-13-2.98286E-13
 -1      3091 2.01788E+01 2.67909E-01 2.91824E-03 6.25736E-02-1.45292E-13-2.64412E-13
 -1      3092 2.01519E+01 2.04601E-01-9.41729E-04 1.21804E-01-1.36666E-13-2.68565E-13
 -1      3093 2.02468E+01 3.71210E-01-8.95666E-04 7.89948E-03-1.37320E-13-3.44238E-13
 -1      3094 2.01343E+01 1.58368E-01 1.92560E-03 1.67180E-01-1.27365E-13-2.58013E-13
 -1      3095 2.01174E+01 1.22580E-01-1.60182E-04 2.05762E-01-1.01438E-13-2.62359E-13
 -1      3096 2.02059E+01 2.23523E-01-1.02433E-03 1.27158E-01-1.20053E-13-2.92067E-13
 -1      3097 2.00996E+01 9.86593E-02 1.04325E-03 2.36307E-01-7.91168E-14-2.39253E-13
 -1      3098 2.00912E+01 8.29667E-02 3.99387E-04 2.62894E-01-9.34960E-14-2.19802E-13
 -1      3099 2.01660E+01 1.38542E-01-9.37029E-04 2.07738E-01-8.50006E-14-3.04046E-13
 -1      3100 2.00739E+01 7.55636E-02 3.11501E-04 2.85454E-01-7.32625E-14-1.76740E-13
 -1      3101 2.00724E+01 7.51029E-02 8.11673E-04 3.06818E-01-3.08714E-14-1.46277E-13
 -1      3102 2.01295E+01 9.97914E-02-7.53404E-04 2.64494E-01-4.63113E-14-2.19529E-13
 -1      3103 2.00553E+01 8.04673E-02-2.97812E-04 3.26947E-01-3.28869E-14-1.49908E-13
 -1      3104 2.00590E+01 9.20870E-02 1.13123E-03 3.48392E-01-2.34212E-14-1.41988E-13
 -1      3105 2.00960E+01 9.61996E-02-5.19518E-04 3.09946E-01-5.02161E-14-1.69836E-13
 -1      3106 2.00412E+01 1.07833E-01-8.28879E-04 3.70534E-01-4.46634E-14-1.06285E-13
 -1      3107 2.00486E+01 1.29553E-01 1.39343E-03 3.96286E-01-5.67370E-14-9.74816E-14
 -1      3108 2.00640E+01 1.20441E-01-2.46869E-04 3.54180E-01-2.45721E-14-1.60838E-13
 -1      3109 2.00286E+01 1.54209E-01-1.32620E-03 4.24019E-01-8.30580E-14-3.67178E-14
 -1      3110 2.00384E+01 1.84823E-01 1.61869E-03 4.57518E-01-6.88240E-14-5.67317E-14
 -1      3111 2.00307E+01 1.67802E-01 7.34250E-05 4.05251E-01-3.22239E-14-6.25703E-14
 -1      3112 2.00141E+01 2.17474E-01-1.83028E-03 4.93762E-01-8.78159E-14-5.52937E-14
 -1      3113 2.00248E+01 2.56191E-01 1.81796E-03 5.37858E-01-8.22675E-14-3.03850E-14
 -1      3114 1.99924E+01 2.35302E-01 4.64881E-04 4.69599E-01-5.47133E-14-3.03081E-14
 -1      3115 1.99934E+01 2.96112E-01-2.37554E-03 5.85032E-01-9.41646E-14-5.40904E-14
 -1      3116 2.00035E+01 3.42122E-01 1.99665E-03 6.42090E-01-7.61878E-14-5.66446E-14
 -1      3117 1.99442E+01 3.20888E-01 9.56797E-04 5.52397E-01-9.18885E-14-7.96083E-14
 -1      3118 1.99615E+01 3.88263E-01-2.98561E-03 7.02228E-01-7.45613E-14-1.08584E-13
 -1      3119 1.99690E+01 4.40113E-01 2.16679E-03 7.74117E-01-6.23736E-14-1.86487E-13
 -1      3120 1.98800E+01 4.22463E-01 1.57454E-03 6.57818E-01-1.16249E-13-4.97197E-14
 -1      3121 1.99124E+01 4.90333E-01-3.67196E-03 8.48964E-01-7.07253E-14-1.42661E-13
 -1      3122 1.99155E+01 5.44987E-01 2.37248E-03 9.36974E-01-5.68339E-14-1.27522E-13
 -1      3123 1.97921E+01 5.36572E-01 2.33845E-03 7.89242E-01-6.12859E-14-1.41458E-13
 -1      3124 1.98396E+01 5.94855E-01-4.42711E-03 1.02823E+00-5.99967E-14-9.71110E-14
 -1      3125 1.98371E+01 6.46158E-01 2.72457E-03 1.13299E+00-9.08019E-14-1.08171E-13
 -1      3126 1.96719E+01 6.56440E-01 3.22724E-03 9.49621E-01-6.86881E-14-7.10583E-14
 -1      3127 1.97381E+01 6.86950E-01-5.20141E-03 1.24282E+00-9.51762E-14-1.22621E-13
 -1      3128 1.97316E+01 7.23191E-01 3.46837E-03 1.36427E+00-6.84596E-14-1.06623E-13
 -1      3129 1.95103E+01 7.68859E-01 4.12983E-03 1.14242E+00-1.15960E-13-1.30500E-13
 -1      3130 1.96079E+01 7.38883E-01-5.85299E-03 1.49631E+00-5.13420E-14-7.44125E-14
 -1      3131 1.96058E+01 7.39265E-01 5.08735E-03 1.63374E+00-4.53476E-14-1.04962E-13
 -1      3132 1.93008E+01 8.49387E-01 4.78526E-03 1.37350E+00-6.28599E-14-1.12193E-13
 -1      3133 1.94626E+01 7.02444E-01-6.01137E-03 1.79480E+00-1.42165E-14-7.89465E-14
 -1      3134 1.94874E+01 6.32365E-01 8.38284E-03 1.94694E+00 3.38639E-14-1.04528E-13
 -1      3135 1.90449E+01 8.55331E-01 4.65494E-03 1.65457E+00 3.63790E-15-1.39792E-13
 -1      3136 1.93448E+01 4.99416E-01-4.67335E-03 2.14918E+00 8.12228E-14-7.58126E-14
 -1      3137 1.94452E+01 3.05071E-01 1.47930E-02 2.31261E+00 2.53678E-13-1.37815E-13
 -1      3138 1.87622E+01 7.16245E-01 2.69383E-03 2.00861E+00 7.91897E-14 2.51767E-14
 -1      3139 1.93567E+01 1.24644E-02 2.27701E-03 2.57286E+00 2.99071E-13-2.74232E-13
 -1      3140 1.96160E+01-3.85849E-01 2.34539E-02 2.73531E+00 2.77435E-13-2.64457E-13
 -1      3141 1.85111E+01 3.18099E-01-3.17471E-03 2.47564E+00 1.86187E-13-4.19591E-14
 -1      3142 1.97074E+01-8.92728E-01 2.75886E-02 3.04681E+00 2.28307E-13-2.77955E-13
 -1      3143 2.02352E+01-1.58791E+00 3.18847E-02 3.17538E+00 2.73630E-13-2.84476E-13
 -1      3144 1.84395E+01-5.19861E-01-1.58250E-02 3.10049E+00 2.34257E-13-2.14291E-13
 -1      3145 2.09587E+01-2.43449E+00 7.55985E-02 3.42297E+00 3.22609E-13-2.99248E-13
 -1      3146 2.19095E+01-3.41230E+00 3.20654E-02 3.36040E+00 2.29761E-13-2.19246E-13
 -1      3147 2.10501E+01-4.09702E+00-2.09669E-02 4.25038E+00 2.94778E-13-1.69094E-13
 -1      3148 1.90065E+01-2.01421E+00-3.40851E-02 3.83462E+00 3.14150E-13-2.94355E-13
 -1      3149 2.02879E+01 1.16468E+00 1.23796E-03-6.56760E-01-2.24974E-13-4.51572E-13
 -1      3150 2.02616E+01 9.24052E-01-4.68910E-03-4.68034E-01-2.10520E-13-4.12435E-13
 -1      3151 2.19570E+01-3.26025E+00 3.91029E-02-3.27198E+00 2.56323E-13 1.82121E-13
 -1      3152 2.09258E+01-2.33978E+00 5.20368E-02-3.35297E+00 3.81353E-13 2.38469E-13
 -1      3153 2.04346E+01-1.57934E+00 3.71562E-02-3.09556E+00 4.26860E-13 1.45960E-13
 -1      3154 1.98793E+01-9.19548E-01 1.91939E-02-3.00522E+00 4.67842E-13 1.18430E-13
 -1      3155 1.93503E+01-1.94813E+00 1.12700E-03-3.81264E+00 4.16819E-13 4.50870E-13
 -1      3156 1.97508E+01-3.81758E-01 2.37101E-02-2.70973E+00 4.25006E-13 6.10406E-15
 -1      3157 1.94932E+01 1.07698E-02 2.07545E-03-2.54872E+00 2.76043E-13-8.22428E-14
 -1      3158 1.88058E+01-5.19954E-01 3.29834E-03-3.07725E+00 3.71438E-13-5.75373E-14
 -1      3159 1.95552E+01 2.98458E-01 1.33482E-02-2.30204E+00 6.89028E-14-1.41995E-13
 -1      3160 1.94579E+01 4.93881E-01-3.77689E-03-2.13756E+00-3.13283E-14-2.28702E-13
 -1      3161 1.87754E+01 2.84577E-01-1.34653E-03-2.46850E+00 4.37066E-14-3.47144E-13
 -1      3162 1.95782E+01 6.24416E-01 7.70261E-03-1.94008E+00-1.03452E-13-2.95511E-13
 -1      3163 1.95535E+01 6.97034E-01-5.09441E-03-1.78629E+00-1.46032E-13-3.12997E-13
 -1      3164 1.89615E+01 6.83424E-01 2.14975E-03-2.01771E+00-4.89801E-14-3.56371E-13
 -1      3165 1.96795E+01 7.33731E-01 4.92252E-03-1.62422E+00 1.27916E-13-2.33099E-13
 -1      3166 1.96805E+01 7.36804E-01-4.97133E-03-1.48435E+00 2.25088E-13-4.27273E-14
 -1      3167 1.91970E+01 8.30111E-01 3.86786E-03-1.66429E+00 6.99425E-14-2.57899E-13
 -1      3168 1.97905E+01 7.22934E-01 3.49649E-03-1.34841E+00 1.01856E-13 5.44848E-14
 -1      3169 1.97958E+01 6.91164E-01-4.42566E-03-1.22352E+00 6.65976E-14 4.08994E-15
 -1      3170 1.94176E+01 8.33090E-01 4.08488E-03-1.37597E+00 1.91388E-13-2.18549E-13
 -1      3171 1.98837E+01 6.53956E-01 2.76965E-03-1.10807E+00-8.74767E-14 2.08947E-14
 -1      3172 1.98854E+01 6.08193E-01-3.77398E-03-9.98590E-01-1.67059E-13-4.33583E-14
 -1      3173 1.95995E+01 7.63585E-01 3.57270E-03-1.13349E+00-1.55145E-15-2.22000E-14
 -1      3174 1.99517E+01 5.63576E-01 2.35361E-03-9.00412E-01 2.17061E-14 1.86553E-13
 -1      3175 1.99483E+01 5.15687E-01-3.12285E-03-8.06108E-01 1.38795E-13 4.43096E-13
 -1      3176 1.97386E+01 6.64681E-01 2.83433E-03-9.26671E-01 5.05290E-14 6.41699E-14
 -1      3177 1.99963E+01 4.72444E-01 2.06147E-03-7.23030E-01 9.10167E-14 4.25150E-13
 -1      3178 1.99886E+01 4.28714E-01-2.55750E-03-6.42893E-01 1.87703E-13 4.42096E-13
 -1      3179 1.98397E+01 5.61147E-01 2.10096E-03-7.50083E-01 1.28279E-13 3.26237E-13
 -1      3180 2.00222E+01 3.91856E-01 1.96739E-03-5.73147E-01 2.29798E-13 2.25840E-13
 -1      3181 2.00115E+01 3.55025E-01-2.01288E-03-5.05269E-01 1.01642E-13 2.33906E-13
 -1      3182 1.99099E+01 4.66031E-01 1.34153E-03-6.00183E-01 1.15828E-13 2.26844E-13
 -1      3183 2.00350E+01 3.25300E-01 1.88480E-03-4.46106E-01-7.77006E-14 1.18468E-13
 -1      3184 2.00236E+01 2.99131E-01-2.21070E-04-3.90476E-01-4.58940E-14 1.02704E-13
 -1      3185 1.99544E+01 3.86346E-01 2.77539E-05-4.73516E-01-3.68570E-15-3.35420E-14
 -1      3186 1.08642E+01-6.87903E-01 1.32805E-01-3.98673E+00-2.53821E-13-6.49689E-13
 -1      3187 1.29923E+01-1.69600E+00 5.20074E-02-5.08985E+00-4.07632E-13-5.65714E-13
 -1      3188 2.00352E+01 5.46340E-02 1.11533E-03-3.31223E-01 1.23408E-13-1.01624E-13
 -1      3189 2.00229E+01 5.02113E-02-2.85427E-06-3.14750E-01 1.38848E-13-1.16239E-13
 -1      3190 2.00315E+01 5.01801E-02 8.34460E-04-2.97122E-01 1.51178E-13-1.32915E-13
 -1      3191 2.00261E+01 5.46786E-02 5.48669E-04-2.79016E-01 1.32113E-13-9.55176E-14
 -1      3192 2.00698E+01 6.48888E-02-8.34490E-04-3.06035E-01 1.31645E-13-1.23065E-13
 -1      3193 2.00680E+01 9.76694E-02 1.52690E-03-4.11991E-01 7.84660E-14 2.50051E-14
 -1      3194 2.00444E+01 8.35957E-02-6.64321E-04-3.89283E-01 1.31799E-13-2.18861E-14
 -1      3195 2.00968E+01 1.26088E-01 1.67073E-03-4.67499E-01 7.63102E-14 3.40155E-14
 -1      3196 2.00676E+01 1.11155E-01-8.09639E-04-4.39215E-01 7.61325E-14 1.42612E-14
 -1      3197 2.00506E+01 1.26518E-01-4.96054E-04-4.36780E-01 7.62066E-14-1.13310E-15
 -1      3198 2.01357E+01 1.51334E-01 1.76310E-03-5.35361E-01 5.97148E-14 8.13677E-15
 -1      3199 2.01000E+01 1.38804E-01-8.22275E-04-5.01420E-01 1.09596E-13 3.77545E-14
 -1      3200 2.00567E+01 1.59491E-01-5.26836E-04-4.99758E-01 8.17794E-14-7.31313E-14
 -1      3201 2.01876E+01 1.65598E-01 1.77955E-03-6.14217E-01 8.64585E-14-1.19265E-14
 -1      3202 2.01441E+01 1.59737E-01-6.65421E-04-5.75942E-01 6.05213E-14-7.47850E-15
 -1      3203 2.00713E+01 1.86932E-01-6.77750E-04-5.76280E-01 7.49198E-14-6.36618E-14
 -1      3204 2.02581E+01 1.58493E-01 1.67837E-03-6.99566E-01-2.93582E-15 4.66522E-14
 -1      3205 2.02046E+01 1.64980E-01-2.70709E-04-6.60063E-01 3.52747E-14 1.98551E-14
 -1      3206 2.00985E+01 1.99019E-01-1.01361E-03-6.65244E-01 3.60247E-14 4.23715E-15
 -1      3207 2.03555E+01 1.16595E-01 1.39990E-03-7.82768E-01-4.31130E-14 2.59928E-14
 -1      3208 2.02888E+01 1.42689E-01 4.62359E-04-7.47450E-01-5.13844E-17 6.96873E-14
 -1      3209 2.01457E+01 1.82787E-01-1.62124E-03-7.62528E-01-9.57378E-15 7.47375E-15
 -1      3210 2.04922E+01 2.38432E-02 8.41996E-04-8.49818E-01-1.44401E-13-1.58016E-14
 -1      3211 2.04078E+01 7.80625E-02 1.65394E-03-8.26972E-01-8.71319E-14-7.56670E-15
 -1      3212 2.02246E+01 1.21771E-01-2.60823E-03-8.59923E-01-4.63186E-14-6.18952E-14
 -1      3213 2.06845E+01-1.36376E-01-1.73761E-04-8.79899E-01-1.49356E-13 6.13876E-14
 -1      3214 2.05775E+01-4.55865E-02 3.42205E-03-8.81227E-01-1.60611E-13 3.20502E-14
 -1      3215 2.03527E+01-3.33821E-03-4.10855E-03-9.43686E-01-1.61605E-13-8.49789E-14
 -1      3216 2.09519E+01-3.75545E-01-1.89308E-03-8.43843E-01-1.25962E-13 7.84099E-14
 -1      3217 2.08176E+01-2.43293E-01 5.82277E-03-8.84680E-01-1.31908E-13 9.20354E-14
 -1      3218 2.05541E+01-2.11734E-01-6.18835E-03-9.92315E-01-1.87020E-13 6.45669E-16
 -1      3219 2.13112E+01-6.88211E-01-4.51125E-03-7.03842E-01-6.11907E-14 1.28470E-13
 -1      3220 2.11487E+01-5.20070E-01 8.68123E-03-8.02127E-01-4.42686E-14 1.62253E-13
 -1      3221 2.08585E+01-5.14599E-01-8.62051E-03-9.73465E-01-1.07638E-13 8.65254E-14
 -1      3222 2.17653E+01-1.03225E+00-7.92977E-03-4.17396E-01-6.63936E-14 1.25754E-13
 -1      3223 2.15828E+01-8.55481E-01 1.13718E-02-5.89679E-01-6.04918E-14 1.04605E-13
 -1      3224 2.12942E+01-8.99772E-01-1.06387E-02-8.41492E-01-5.97404E-14 9.76599E-14
 -1      3225 2.22832E+01-1.30414E+00-1.13819E-02 4.68399E-02-1.65519E-13 2.14458E-13
 -1      3226 2.21045E+01-1.18044E+00 1.19463E-02-2.04230E-01-1.45205E-13 1.92985E-13
 -1      3227 2.18710E+01-1.30411E+00-1.05571E-02-5.40531E-01-1.10252E-13 1.12968E-13
 -1      3228 2.27786E+01-1.31938E+00-1.12014E-02 6.77751E-01-3.77542E-14 2.17767E-13
 -1      3229 2.26476E+01-1.35447E+00 8.05728E-03 3.72690E-01-8.69308E-14 1.98594E-13
 -1      3230 2.25537E+01-1.59087E+00-7.71435E-03-1.95657E-02-9.37419E-14 2.90118E-13
 -1      3231 2.31073E+01-8.59416E-01-4.78391E-03 1.34362E+00-4.18263E-14 2.52337E-13
 -1      3232 2.30684E+01-1.16036E+00-3.12937E-03 1.06993E+00-2.35619E-14 2.84192E-13
 -1      3233 2.32182E+01-1.50915E+00 1.46580E-03 7.07205E-01-2.54467E-14 4.04331E-13
 -1      3234 2.31419E+01 1.93825E-01 1.47977E-02 1.75168E+00-2.65326E-15 2.65883E-13
 -1      3235 2.31886E+01-4.02512E-01-2.35649E-02 1.66393E+00 3.83350E-14 3.08586E-13
 -1      3236 2.36418E+01-8.11323E-01 2.81559E-03 1.49230E+00 4.02208E-14 2.92068E-13
 -1      3237 2.28729E+01 1.52095E+00 1.98847E-02 1.54535E+00 4.94804E-14 1.62359E-13
 -1      3238 2.29518E+01 8.18530E-01-4.87090E-02 1.75249E+00 1.42867E-14 1.56703E-13
 -1      3239 2.36366E+01 5.94193E-01 1.08090E-02 1.92799E+00 6.35065E-14 3.56546E-13
 -1      3240 2.25474E+01 2.46649E+00-2.88266E-03 6.08133E-01 1.17914E-13 9.40464E-14
 -1      3241 2.26203E+01 2.08196E+00-3.57245E-02 1.10866E+00 9.44357E-14 1.57113E-13
 -1      3242 2.33770E+01 2.12238E+00 5.25198E-03 1.50481E+00 6.34649E-14-3.02137E-14
 -1      3243 2.25283E+01 2.38734E+00-2.87904E-02-6.79178E-01 2.68507E-13-1.14403E-13
 -1      3244 2.25062E+01 2.57375E+00-8.75136E-03-1.25804E-01 2.67598E-13 8.09337E-14
 -1      3245 2.30817E+01 2.99637E+00-1.89081E-02 2.65875E-01 1.59487E-13-6.39037E-14
 -1      3246 2.28116E+01 1.32784E+00-5.15662E-02-1.58960E+00 3.11166E-13-1.34980E-13
 -1      3247 2.27434E+01 1.96500E+00 1.74634E-02-1.26614E+00 2.72418E-13-1.07506E-13
 -1      3248 2.32575E+01 2.60412E+00 4.72203E-03-1.12760E+00 3.05962E-13-1.46374E-13
 -1      3249 2.31408E+01 1.89550E-02-3.23537E-02-1.78053E+00 2.74051E-13-4.77422E-14
 -1      3250 2.30617E+01 6.92510E-01 1.74594E-02-1.76847E+00 3.47127E-13-5.76349E-14
 -1      3251 2.35426E+01 1.24061E+00 1.29752E-02-1.88775E+00 2.62251E-13-1.23573E-13
 -1      3252 2.31565E+01-9.50781E-01-1.14216E-02-1.31958E+00 2.23391E-14-2.15284E-13
 -1      3253 2.31584E+01-5.32949E-01-2.51556E-04-1.54650E+00 1.97693E-13-9.68497E-14
 -1      3254 2.37067E+01-3.58690E-01 5.38502E-03-1.71394E+00 3.00253E-13-6.37511E-14
 -1      3255 2.28313E+01-1.33568E+00 5.55060E-03-6.26270E-01-1.08331E-13-3.38897E-13
 -1      3256 2.29332E+01-1.21197E+00-8.78762E-03-9.33725E-01-1.07949E-13-3.32217E-13
 -1      3257 2.34235E+01-1.31955E+00 7.57452E-03-1.00595E+00 4.29235E-14-9.58686E-14
 -1      3258 2.23147E+01-1.27204E+00 1.18471E-02 9.79104E-03-6.20006E-14-1.91742E-13
 -1      3259 2.24801E+01-1.35010E+00-1.14157E-02-2.66972E-01-8.25629E-14-2.49128E-13
 -1      3260 2.28185E+01-1.61617E+00-3.61695E-03-2.30633E-01-1.70407E-13-2.09594E-13
 -1      3261 2.17722E+01-9.81456E-01 1.20921E-02 4.67318E-01 1.00475E-13-1.57188E-14
 -1      3262 2.19568E+01-1.14876E+00-9.30287E-03 2.65607E-01-4.71411E-16-1.52548E-13
 -1      3263 2.21218E+01-1.43701E+00-1.03323E-02 3.72823E-01-7.22587E-14-5.68068E-14
 -1      3264 2.13012E+01-6.35779E-01 9.90773E-03 7.37625E-01 6.44183E-14 1.20853E-13
 -1      3265 2.14726E+01-8.13310E-01-5.66859E-03 6.14599E-01 1.61675E-13 1.52498E-13
 -1      3266 2.14956E+01-1.05108E+00-1.12883E-02 7.50826E-01 1.05271E-14 3.72839E-14
 -1      3267 2.09334E+01-3.29856E-01 7.00965E-03 8.59681E-01-1.26483E-14 1.34976E-13
 -1      3268 2.10777E+01-4.78542E-01-2.67494E-03 8.01327E-01 3.56067E-14 1.08910E-13
 -1      3269 2.10073E+01-6.43425E-01-9.35061E-03 9.36119E-01 6.25935E-14 1.21704E-13
 -1      3270 2.06632E+01-9.85286E-02 4.37904E-03 8.79077E-01-2.79839E-13 1.81886E-13
 -1      3271 2.07788E+01-2.06663E-01-7.43578E-04 8.67484E-01-2.13786E-13 1.20595E-13
 -1      3272 2.06580E+01-3.03087E-01-7.00118E-03 9.87171E-01-1.50359E-13 1.78550E-13
 -1      3273 2.04716E+01 5.64013E-02 2.39630E-03 8.33838E-01-2.62548E-13-3.33158E-14
 -1      3274 2.05621E+01-1.33774E-02 4.32518E-04 8.52763E-01-2.72978E-13 5.32131E-14
 -1      3275 2.04225E+01-5.51396E-02-4.82671E-03 9.54188E-01-2.04770E-13 2.01035E-14
 -1      3276 2.03379E+01 1.47800E-01 1.04924E-03 7.52380E-01-1.31008E-13-4.52380E-14
 -1      3277 2.04085E+01 1.08561E-01 1.10466E-03 7.89040E-01-1.84171E-13-5.23361E-14
 -1      3278 2.02708E+01 1.05504E-01-3.12163E-03 8.73349E-01-1.85558E-13-1.53666E-13
 -1      3279 2.02446E+01 1.92735E-01 2.08859E-04 6.54341E-01-1.13840E-14-7.15560E-14
 -1      3280 2.03000E+01 1.75098E-01 1.43663E-03 6.99552E-01-6.40745E-14-1.43890E-13
 -1      3281 2.01763E+01 1.96584E-01-1.92453E-03 7.69343E-01-1.17955E-13-2.55156E-13
 -1      3282 2.01786E+01 2.07329E-01-2.71780E-04 5.52400E-01 1.41220E-13-1.75839E-13
 -1      3283 2.02225E+01 2.03282E-01 1.53110E-03 6.00065E-01 1.17320E-13-1.18171E-13
 -1      3284 2.01188E+01 2.38293E-01-1.14819E-03 6.57984E-01 1.14992E-14-3.82581E-13
 -1      3285 2.01305E+01 2.05384E-01-4.55621E-04 4.53958E-01 4.61464E-14-2.29335E-14
 -1      3286 2.01657E+01 2.08241E-01 1.46700E-03 5.00583E-01 1.15819E-13-5.57116E-14
 -1      3287 2.00838E+01 2.48945E-01-6.24914E-04 5.48970E-01 8.86626E-14-5.95389E-14
 -1      3288 2.00951E+01 1.97034E-01 4.76022E-05 3.62696E-01 8.40890E-14-1.29528E-13
 -1      3289 2.01225E+01 2.01476E-01 1.27415E-03 4.06036E-01 7.90464E-14-4.93711E-14
 -1      3290 2.00616E+01 2.43246E-01-2.88906E-04 4.47166E-01 5.85019E-14-8.86376E-14
 -1      3291 2.00642E+01 2.01262E-01 4.99326E-04 3.07306E-01 9.36059E-15 1.90198E-14
 -1      3292 2.00879E+01 1.97475E-01 1.09578E-03 3.36452E-01-2.56702E-14-8.58365E-14
 -1      3293 2.00441E+01 2.36151E-01-4.61341E-04 3.71327E-01 5.59555E-15-1.53810E-13
 -1      3294 2.00292E+01 2.33038E-01-1.31566E-03 3.17844E-01-1.25126E-13-1.20911E-13
 -1      3295 2.00543E+01 2.18086E+00-4.29573E-03 2.88815E-01 2.55423E-13-4.85274E-13
 -1      3296 2.00412E+01 2.22048E+00-3.32637E-03 1.68522E-01 2.00481E-13-5.03690E-13
 -1      3297 1.98807E+01 4.08633E-01 1.20492E-03-3.15159E-01-2.52158E-13-1.08060E-13
 -1      3298 1.98327E+01 4.40004E-01-2.14707E-03-2.81068E-01-1.47055E-13-1.60184E-13
 -1      3299 1.97299E+01 5.10311E-01-1.28497E-03 5.16391E-03 2.99824E-14-1.49832E-13
 -1      3300 1.97375E+01 5.04436E-01-1.66920E-04 6.19292E-02 2.22514E-14-2.47100E-13
 -1      3301 2.37302E+01-4.57227E+00-1.93827E-02 3.29913E+00-3.04569E-13-2.00440E-13
 -1      3302 2.23321E+01-4.76627E+00 8.10131E-02 4.55177E+00-1.47340E-13-6.37580E-14
 -1      3303 2.07955E+01-4.38559E+00 3.17615E-02 4.85739E+00-7.16718E-14-1.75394E-13
 -1      3304 1.97947E+01 4.72052E-01 1.08745E-05-2.30044E-01-2.38540E-13-4.95210E-13
 -1      3305 1.97642E+01 4.92497E-01-1.47573E-03-1.81079E-01-2.44760E-13-5.08021E-13
 -1      3306 1.97783E+01 4.89675E-01 1.82960E-03-2.81643E-01-2.42411E-13-2.48565E-13
 -1      3307 2.00476E+01 7.21384E-02 1.34172E-03-3.67684E-01 1.36245E-13-3.15580E-14
 -1      3308 2.00294E+01 6.16204E-02-3.98196E-04-3.49284E-01 1.27513E-13-6.29773E-14
 -1      3309 2.00573E+01 7.30494E-02-6.64786E-04-3.44305E-01 1.00438E-13-8.35990E-14
 -1      3310 2.00510E+01 9.55962E-02-5.47554E-04-3.86083E-01 9.73809E-14-1.56471E-16
 -1      3311 9.53567E+00 4.93536E-01 1.06966E-01-3.16295E-01-1.26758E-13-5.15504E-13
 -1      3312 1.03079E+01 1.05265E-01 6.97044E-02-2.12780E+00-3.65420E-14-6.04364E-13
 -1      3313 2.66003E+01 3.25839E+00-4.56935E-02 2.10875E+00 3.65361E-13 2.88582E-13
 -1      3314 2.61083E+01 4.46388E+00-1.69681E-01 1.48348E+00 5.17530E-13 2.11831E-13
 -1      3315 2.00878E+01 1.84273E-01-7.32209E-04-1.16068E-01 1.92385E-13-4.83290E-14
 -1      3316 2.01153E+01 2.43980E-01 3.05380E-03-5.49197E-02 2.00176E-13-7.43727E-14
 -1      3317 2.02936E+01 9.96609E-01-7.63799E-04 6.81937E-01 4.00339E-13-9.56240E-14
 -1      3318 2.02714E+01 1.31638E+00 2.94297E-03 7.63146E-01 4.31174E-13-1.48541E-13
 -1      3319 2.02760E+01 1.14059E+00 3.22886E-04 5.82931E-01 3.94504E-13-1.72600E-13
 -1      3320 2.02360E+01 7.85874E-01-3.58186E-03 4.73780E-01 3.56067E-13-1.07706E-13
 -1      3321 2.02782E+01 7.29823E-01 4.57038E-03-3.31427E-01-2.02232E-13-3.56260E-13
 -1      3322 2.02351E+01 5.71659E-01-3.56796E-03-1.96674E-01-1.83722E-13-3.34506E-13
 -1      3323 2.02805E+01 6.07878E-01-1.56796E-04-1.66246E-01-1.65900E-13-3.66333E-13
 -1      3324 2.67132E+01-3.28291E+00-2.02614E-02 9.52820E-01-1.63237E-13-6.19504E-14
 -1      3325 2.02318E+01 1.59937E+00-6.75611E-03-8.45033E-01-2.26097E-13-5.42452E-13
 -1      3326 2.02614E+01 1.37605E+00-6.66847E-06-7.37635E-01-2.24419E-13-4.95576E-13
 -1      3327 2.01804E+01 1.84559E+00 2.29748E-03-7.82418E-01-1.70523E-13-5.50647E-13
 -1      3328 1.84645E+01-3.19312E+00 1.26857E-01 4.86598E+00 3.80904E-13-2.68421E-13
 -1      3329 1.59825E+01-2.59145E+00 4.14636E-03 5.07329E+00 3.77823E-13-2.02137E-13
 -1      3330 1.36553E+01-1.39881E+00 1.60215E-01 4.52218E+00 3.17558E-13-2.87853E-13
 -1      3331 1.78584E+01-2.22662E+00 7.13975E-02 4.34556E+00 4.16001E-13-2.35610E-13
 -1      3332 2.60082E+01-3.73531E+00 6.84560E-02-1.36821E+00-1.39679E-13 2.55129E-13
 -1      3333 2.66283E+01-2.89856E+00-1.37961E-01-1.60948E-01-4.30138E-14 3.46542E-13
 -1      3334 9.11179E+00 3.11755E-01 9.70476E-02-7.63431E-01 3.32893E-14-7.62543E-13
 -1      3335 9.53863E+00-7.13252E-02 9.92902E-02-2.66755E+00-6.45560E-14-6.86562E-13
 -1      3336 1.85013E+01-3.21745E+00 1.36643E-01-4.86765E+00 4.99614E-13 3.48870E-13
 -1      3337 2.02551E+01-3.90300E+00-9.22724E-03-4.56167E+00 4.43520E-13 2.04697E-13
 -1      3338 2.30143E+01-4.93882E+00 6.03983E-02-3.91535E+00 5.58095E-13 3.04010E-14
 -1      3339 2.50385E+01-5.24653E+00 4.70366E-02-3.23170E+00 6.01810E-13-2.21503E-13
 -1      3340 2.61359E+01 4.94633E+00-1.60846E-01-1.16788E+00 5.63993E-13-8.71421E-14
 -1      3341 2.64059E+01 3.86282E+00-5.59428E-02-1.91815E+00 3.86788E-13-1.65097E-13
 -1      3342 2.57282E+01-4.55522E+00 8.82870E-03-1.89427E+00 3.63889E-13-1.67977E-13
 -1      3343 1.97434E+01 5.06624E-01-7.37199E-04-1.17524E-01-1.63806E-13-3.69755E-14
 -1      3344 1.97323E+01 5.13791E-01-8.56423E-04-6.19724E-02-1.17100E-13 5.03884E-14
 -1      3345 1.96803E+01 5.44528E-01 1.39403E-03-2.71715E-02 1.41963E-15-2.49544E-13
 -1      3346 1.97067E+01 5.33903E-01 1.46965E-03-1.62427E-01-3.08968E-13-2.73635E-13
 -1      3347 2.67608E+01-2.42832E+00-8.08556E-02-2.66471E-01-5.85565E-14-1.25670E-13
 -1      3348 2.56080E+01-3.72239E+00 1.22451E-02 1.31736E+00-1.97784E-13-5.76275E-15
 -1      3349 2.00340E+01 2.24009E+00-3.58765E-03 6.50151E-02 1.72349E-13-5.12985E-13
 -1      3350 2.00343E+01 2.24307E+00-2.71088E-03-5.65490E-02 1.22591E-13-5.25209E-13
 -1      3351 2.01467E+01 1.94763E+00 4.93720E-03 9.95242E-02 1.71174E-13-4.73653E-13
 -1      3352 2.02650E+01 1.47646E+00 7.68073E-03 5.79088E-01 3.94829E-13-2.42617E-13
 -1      3353 2.01653E+01 1.81355E+00-7.84397E-03 6.75881E-01 4.17071E-13-2.93879E-13
 -1      3354 2.01305E+01 1.94632E+00-3.04158E-03 5.82962E-01 3.77047E-13-3.34643E-13
 -1      3355 2.51471E+01 4.62188E+00-8.68799E-02-7.83097E-01 4.73628E-13-2.09721E-13
 -1      3356 2.02254E+01 6.12426E-01 2.74479E-03 3.26770E-01 3.03743E-13-1.16081E-13
 -1      3357 2.02609E+01 7.72443E-01 1.64544E-03 3.89297E-01 3.30195E-13-1.59690E-13
 -1      3358 2.01710E+01 4.74534E-01-2.42347E-03 1.84861E-01 2.77540E-13-1.20102E-13
 -1      3359 2.02603E+01 1.39034E+00-1.29899E-04-6.35530E-01-1.71464E-13-5.10914E-13
 -1      3360 2.00998E+01 2.04230E+00-5.35559E-03 4.98409E-01 3.48507E-13-3.80264E-13
 -1      3361 2.00745E+01 2.12385E+00-3.15939E-03 3.86135E-01 2.96307E-13-4.33145E-13
 -1      3362 2.01695E+01 1.87143E+00 5.44859E-03 2.85719E-01 2.50118E-13-4.16004E-13
 -1      3363 2.02111E+01 1.71790E+00 6.70804E-03 4.52419E-01 3.49928E-13-3.19965E-13
 -1      3364 2.00704E+01 1.40151E-01 2.27872E-03-1.63778E-01 1.71188E-13-5.19272E-14
 -1      3365 2.01543E+01 2.04220E-01-1.49338E-03-1.22974E-01 1.80128E-13-9.68884E-14
 -1      3366 2.00559E+01 1.05491E-01-4.88814E-05-2.01905E-01 1.40467E-13-5.24219E-14
 -1      3367 2.48475E+01-4.11965E+00 4.90865E-03 2.05155E+00-2.65787E-13 1.94626E-13
 -1      3368 2.35634E+01-4.12557E+00-1.83373E-02 2.71128E+00-1.08767E-13 1.14877E-13
 -1      3369 2.51650E+01-3.32729E+00-1.01360E-02 7.41692E-01-8.90434E-14 1.52088E-13
 -1      3370 1.32115E+01-6.03927E-01 1.10384E-01 3.56631E+00 2.65760E-13-2.75474E-13
 -1      3371 2.25149E+01-4.22030E+00 5.87051E-02-3.60936E+00 3.96832E-13 1.46438E-13
 -1      3372 1.10473E+01 7.03312E-01 1.08593E-01 4.26987E-01-1.19797E-13-4.64871E-13
 -1      3373 1.30232E+01-8.13631E-01 4.52048E-02 4.10238E+00-2.64672E-13 2.35846E-13
 -1      3374 1.17171E+01-3.40436E-01 1.31364E-01 3.60717E+00-2.82989E-13-8.57092E-14
 -1      3375 1.20420E+01 2.28185E-01 5.32949E-02 2.66097E+00-2.73660E-13-5.28813E-14
 -1      3376 2.00940E+01 2.09534E+00-1.11407E-03-5.97668E-01-9.64788E-14-5.74147E-13
 -1      3377 2.01269E+01 1.96787E+00-6.31858E-03-6.95244E-01-1.39505E-13-5.67939E-13
 -1      3378 2.02018E+01 1.74696E+00 4.18432E-03-6.40717E-01-1.35351E-13-5.42394E-13
 -1      3379 1.41931E+01-1.31754E+00 5.59236E-02-4.58813E+00-3.74277E-13-4.66668E-13
 -1      3380 1.48653E+01-2.09763E+00 1.28978E-01-5.29415E+00-4.20330E-13-4.50147E-13
 -1      3381 1.66081E+01-2.64771E+00 1.77908E-02-5.13199E+00-4.87971E-13-3.87461E-13
 -1      3382 1.14715E+01-9.88971E-02 1.19333E-01-3.04253E+00-1.16282E-13-5.52350E-13
 -1      3383 1.20892E+01 4.06076E-01 8.54283E-02-2.11881E+00-5.76865E-14-4.81823E-13
 -1      3384 1.16651E+01-1.23995E-01 1.60775E-01-3.01479E+00-3.17506E-14-3.38465E-13
 -1      3385 1.31818E+01-8.37745E-01 9.71319E-03-3.97549E+00 7.63903E-14-7.89369E-14
 -1      3386 1.57966E+01-2.97323E+00 1.22260E-01 5.76778E+00-1.66214E-13 2.00347E-13
 -1      3387 1.50865E+01-2.04899E+00 5.94267E-02 5.14560E+00-3.00135E-13 3.13867E-13
 -1      3388 1.77089E+01-3.36657E+00 1.03077E-02 5.34636E+00-1.59400E-13 1.57201E-13
 -1      3389 2.65297E+01-1.80686E+00-4.69905E-02 8.10792E-01 3.53892E-14 1.60524E-13
 -1      3390 2.00896E+01 7.78032E-02-1.04363E-03-2.63665E-01 1.53257E-13-1.10550E-13
 -1      3391 2.00377E+01 6.45794E-02 4.66328E-04-2.57562E-01 1.11153E-13-7.19961E-14
 -1      3392 2.00410E+01 8.16390E-02 1.30283E-03-2.32854E-01 1.32725E-13-6.71376E-14
 -1      3393 1.99411E+01 3.56727E-01-1.86290E-03-3.56038E-01-1.62508E-13 3.39678E-14
 -1      3394 1.98969E+01 4.07631E-01 1.34829E-03-3.78885E-01-1.88977E-13-7.30639E-14
 -1      3395 1.98062E+01 4.34124E-01-1.88688E-03 2.24833E-01 2.67488E-13 3.97573E-13
 -1      3396 1.98431E+01 4.07681E-01 1.03378E-03 2.62040E-01 2.12397E-13 4.12850E-13
 -1      3397 2.04836E+01-4.22858E+00 4.47059E-02-4.86538E+00-4.94722E-13-1.06156E-13
 -1      3398 1.99965E+01 3.08796E-01 3.27250E-04-3.36956E-01-4.21217E-14-2.31872E-14
 -1      3399 1.96980E+01 5.22685E-01 1.40360E-03 1.07214E-01 1.46512E-13-2.30334E-13
 -1      3400 1.97525E+01 4.84575E-01-1.68288E-03 1.24437E-01 4.67306E-14-1.36518E-13
 -1      3401 1.97766E+01 4.67174E-01 4.74646E-04 1.74361E-01 2.35865E-13 5.39152E-14
 -1      3402 2.01230E+01 2.98241E-01-1.42232E-03 4.26519E-03 2.05414E-13-9.57524E-14
 -1      3403 2.01639E+01 3.90277E-01 3.32970E-03 9.87741E-02 2.34011E-13-1.17963E-13
 -1      3404 2.02187E+01 4.93690E-01-6.60657E-04 1.48415E-01 2.43503E-13-1.71384E-13
 -1      3405 2.01888E+01 3.26405E-01-1.78605E-03-7.44030E-03 1.98170E-13-1.39943E-13
 -1      3406 2.00596E+01 2.18151E+00-4.08860E-03-4.95896E-01-5.87496E-14-5.48091E-13
 -1      3407 2.01381E+01 1.97078E+00 3.95069E-03-4.72445E-01-6.68762E-14-5.23160E-13
 -1      3408 2.00348E+01 2.25614E+00-2.76122E-03-3.80703E-01 7.63327E-15-5.11362E-13
 -1      3409 1.98371E+01 4.02846E-01 6.28993E-04 3.10627E-01 2.56358E-13 3.21586E-13
 -1      3410 1.98831E+01 3.65918E-01-1.74772E-03 2.95154E-01 1.67130E-13 1.75501E-13
 -1      3411 1.99265E+01 3.32640E-01 8.28863E-04 3.15311E-01 1.33273E-13-1.44091E-13
 -1      3412 2.62440E+01 1.92747E+00-3.43758E-02 2.04378E+00 2.57051E-13 2.13378E-13
 -1      3413 2.52532E+01 4.41389E+00-9.03692E-02 1.03420E+00 4.23217E-13 9.62008E-14
 -1      3414 1.70187E+01-2.28363E+00 7.95899E-02-4.59637E+00 4.13822E-13 3.13402E-13
 -1      3415 2.67408E+01-1.41787E+00-3.77592E-02-1.13956E+00 2.81025E-16-7.50719E-14
 -1      3416 2.58348E+01-2.16823E+00-1.59691E-02-6.10003E-01 9.89261E-14 4.71446E-14
 -1      3417 2.61549E+01-2.45679E-01-4.75190E-02-1.80137E+00 8.66668E-14-1.42306E-13
 -1      3418 9.94147E+00 5.56975E-01 1.41932E-01 3.06466E-01 6.96973E-14-8.39759E-13
 -1      3419 1.08793E+01 7.21205E-01 8.23781E-02-6.00502E-01 2.85974E-14-7.10876E-13
 -1      3420 1.08530E+01 4.60665E-01-1.03954E-02 1.33145E+00 1.46514E-13-6.75210E-13
 -1      3421 2.47097E+01-4.04595E+00 1.31470E-02-2.14679E+00-2.78073E-13 1.90941E-13
 -1      3422 2.02900E+01 9.58579E-01-1.35405E-03-4.09107E-01-1.81035E-13-4.15445E-13
 -1      3423 2.03269E+01 7.67337E-01 5.50744E-03-2.22068E-01-1.49289E-13-3.98434E-13
 -1      3424 2.03039E+01 6.06030E-01-2.86361E-03-1.17037E-01-1.17495E-13-3.69141E-13
 -1      3425 2.00085E+01 2.34590E-01 1.78847E-03-5.93908E-01 7.01695E-14-6.30303E-14
 -1      3426 1.99964E+01 2.19030E-01-1.13788E-03-5.51874E-01 5.38049E-14-5.64130E-14
 -1      3427 2.02698E+01 2.95540E-01 1.83200E-03 8.41277E-02-1.12428E-13-3.08758E-13
 -1      3428 2.02456E+01 2.30874E-01-9.98795E-04 1.34584E-01-9.85527E-14-2.93545E-13
 -1      3429 2.02257E+01 1.83700E-01 1.16653E-03 1.70875E-01-7.08150E-14-2.81006E-13
 -1      3430 2.02041E+01 1.48767E-01-2.98528E-04 2.05671E-01-4.52015E-14-2.56876E-13
 -1      3431 2.02770E+01 2.44173E-01-2.43975E-04 1.33940E-01-6.55365E-14-2.88614E-13
 -1      3432 2.01790E+01 1.26632E-01 5.27311E-04 2.31497E-01-3.67743E-14-2.27807E-13
 -1      3433 2.01602E+01 1.14345E-01 2.07863E-04 2.57404E-01-2.37524E-14-2.13006E-13
 -1      3434 2.02284E+01 1.63900E-01-3.02782E-04 1.98818E-01-2.43459E-14-2.41272E-13
 -1      3435 2.01314E+01 1.11422E-01-5.74911E-05 2.78024E-01-2.53627E-14-2.18501E-13
 -1      3436 2.01147E+01 1.16819E-01 5.57516E-04 3.00581E-01-3.54536E-14-1.90213E-13
 -1      3437 2.01736E+01 1.33833E-01-1.99510E-04 2.47469E-01-1.58270E-14-2.61493E-13
 -1      3438 2.00821E+01 1.29136E-01-5.96513E-04 3.20299E-01-3.13320E-14-1.98171E-13
 -1      3439 2.00663E+01 1.48852E-01 7.85940E-04 3.43930E-01 1.36599E-14-1.78148E-13
 -1      3440 2.01135E+01 1.43066E-01 2.30217E-05 2.89273E-01-2.04655E-14-2.01877E-13
 -1      3441 2.00289E+01 1.73769E-01-1.11246E-03 3.66177E-01 1.11970E-14-1.97108E-13
 -1      3442 2.00121E+01 2.05572E-01 9.15920E-04 3.94386E-01-2.67495E-14-1.49056E-13
 -1      3443 2.00467E+01 1.84039E-01 3.50432E-04 3.31808E-01-1.07486E-14-2.44860E-13
 -1      3444 1.99677E+01 2.41339E-01-1.63256E-03 4.21834E-01-4.42018E-14-1.56783E-13
 -1      3445 1.99477E+01 2.83726E-01 9.60615E-04 4.57368E-01-4.43442E-14-1.46093E-13
 -1      3446 1.99697E+01 2.51598E-01 7.87984E-04 3.80992E-01-3.09997E-14-2.78429E-13
 -1      3447 1.98934E+01 3.29105E-01-2.18960E-03 4.92037E-01-6.34867E-14-1.23227E-13
 -1      3448 1.98672E+01 3.80905E-01 9.29030E-04 5.37020E-01-7.75364E-14-1.04872E-13
 -1      3449 1.98774E+01 3.42170E-01 1.36184E-03 4.41247E-01-2.62539E-14-2.16660E-13
 -1      3450 1.97987E+01 4.34712E-01-2.81829E-03 5.80437E-01-1.06676E-13-4.08872E-14
 -1      3451 1.97628E+01 4.94517E-01 8.26291E-04 6.36496E-01-1.05884E-13-5.67334E-14
 -1      3452 1.97624E+01 4.52909E-01 2.10012E-03 5.15717E-01-4.73190E-14-1.41891E-13
 -1      3453 1.96749E+01 5.54934E-01-3.55488E-03 6.89814E-01-9.61093E-14-1.26825E-13
 -1      3454 1.96250E+01 6.20391E-01 6.84360E-04 7.58148E-01-2.78176E-14-1.08553E-13
 -1      3455 1.96156E+01 5.80520E-01 3.03385E-03 6.06593E-01-1.22982E-13-1.51181E-13
 -1      3456 1.95112E+01 6.84171E-01-4.46550E-03 8.22405E-01-8.19822E-14-1.48271E-13
 -1      3457 1.94428E+01 7.51055E-01 5.94591E-04 9.04109E-01-1.41669E-13-1.53598E-13
 -1      3458 1.94252E+01 7.19989E-01 4.22331E-03 7.15358E-01-7.41997E-14-2.26727E-13
 -1      3459 1.92949E+01 8.12221E-01-5.65436E-03 9.81024E-01-1.65327E-13-1.84959E-13
 -1      3460 1.92043E+01 8.72827E-01 7.47488E-04 1.07781E+00-1.41802E-13-1.64003E-13
 -1      3461 1.91769E+01 8.62766E-01 5.68206E-03 8.43874E-01-1.83998E-13-2.52159E-13
 -1      3462 1.90128E+01 9.20555E-01-7.28134E-03 1.17118E+00-3.21972E-14-1.32765E-13
 -1      3463 1.88991E+01 9.61424E-01 1.55898E-03 1.28674E+00 1.26627E-14-1.14275E-13
 -1      3464 1.88538E+01 9.94098E-01 7.44014E-03 9.96699E-01-5.61461E-14-1.04733E-13
 -1      3465 1.86532E+01 9.77211E-01-9.55083E-03 1.40502E+00-3.43590E-14-6.89039E-14
 -1      3466 1.85228E+01 9.76078E-01 3.91040E-03 1.54747E+00 5.49984E-14-8.25465E-14
 -1      3467 1.84368E+01 1.08911E+00 9.55315E-03 1.18511E+00 3.13682E-14 2.15333E-14
 -1      3468 1.82111E+01 9.29616E-01-1.25796E-02 1.70855E+00 9.51574E-14-1.61678E-13
 -1      3469 1.80855E+01 8.50588E-01 9.09535E-03 1.89417E+00 1.24134E-13-1.23550E-13
 -1      3470 1.79054E+01 1.10783E+00 1.22124E-02 1.43477E+00 3.17979E-14-7.67334E-14
 -1      3471 1.77003E+01 6.97260E-01-1.46341E-02 2.13218E+00 9.45112E-14-9.77707E-14
 -1      3472 1.76284E+01 4.75866E-01 1.92243E-02 2.39171E+00 1.69009E-13-2.18779E-13
 -1      3473 1.72427E+01 9.88694E-01 1.72970E-02 1.80048E+00 1.19404E-13-3.05981E-13
 -1      3474 1.71808E+01 1.74261E-01 1.50656E-04 2.75763E+00 2.43682E-13-2.22656E-13
 -1      3475 1.72485E+01-3.11148E-01 3.69119E-02 3.13392E+00 2.08255E-13-2.31966E-13
 -1      3476 1.64168E+01 5.75418E-01 3.78308E-03 2.38935E+00 1.58894E-13-3.47738E-13
 -1      3477 1.72587E+01-1.17014E+00 6.68248E-02 3.85394E+00 2.92238E-13-1.54172E-13
 -1      3478 1.75760E+01-4.03598E-01 1.03301E-03-3.15067E+00 2.06894E-13 1.65660E-13
 -1      3479 1.75091E+01 9.40032E-02-1.27579E-02-2.75914E+00 1.11011E-13-1.64632E-13
 -1      3480 1.78977E+01 4.25510E-01 1.42981E-02-2.42162E+00-2.35300E-14-2.31058E-13
 -1      3481 1.79483E+01 6.54324E-01-1.33829E-02-2.17121E+00-7.89654E-14-2.58626E-13
 -1      3482 1.67667E+01 5.37183E-01 2.05125E-02-2.44200E+00-4.61953E-14-6.70583E-14
 -1      3483 1.82904E+01 8.15977E-01 8.55202E-03-1.93185E+00 1.02635E-14-2.88037E-13
 -1      3484 1.83925E+01 9.03145E-01-1.09729E-02-1.74626E+00 7.07523E-15-2.34685E-13
 -1      3485 1.74503E+01 9.41529E-01 1.15804E-02-1.86728E+00-6.91688E-14-1.28888E-13
 -1      3486 1.86764E+01 9.53158E-01 3.68628E-03-1.57935E+00 5.49283E-14-2.37716E-13
 -1      3487 1.87892E+01 9.60649E-01-8.44495E-03-1.43276E+00 1.73572E-13-1.83433E-13
 -1      3488 1.80576E+01 1.08386E+00 1.04704E-02-1.49050E+00 9.92363E-14-3.60471E-13
 -1      3489 1.90156E+01 9.48918E-01 1.51120E-03-1.30736E+00 3.08603E-13-1.13729E-13
 -1      3490 1.91156E+01 9.14258E-01-6.49007E-03-1.18563E+00 2.30414E-13 1.53191E-14
 -1      3491 1.85502E+01 1.07860E+00 8.78121E-03-1.22455E+00 2.62982E-13-5.94350E-14
 -1      3492 1.92921E+01 8.71561E-01 6.82206E-04-1.08454E+00 3.79356E-14-1.60882E-14
 -1      3493 1.93717E+01 8.17878E-01-5.07436E-03-9.80447E-01-2.89007E-14-3.56039E-14
 -1      3494 1.89382E+01 9.95932E-01 7.05095E-03-1.01920E+00 1.52830E-13 3.29295E-14
 -1      3495 1.95070E+01 7.63003E-01 4.72444E-04-8.95379E-01 3.93153E-14-1.35038E-14
 -1      3496 1.95662E+01 7.04184E-01-4.02075E-03-8.05554E-01 5.36572E-14 1.38535E-13
 -1      3497 1.92378E+01 8.78135E-01 5.46011E-03-8.49082E-01 3.21275E-14 3.80990E-14
 -1      3498 1.96685E+01 6.48288E-01 5.03458E-04-7.32739E-01 2.27120E-13 1.67328E-13
 -1      3499 1.97103E+01 5.92341E-01-3.20746E-03-6.55387E-01 1.96243E-13 2.39906E-13
 -1      3500 1.94652E+01 7.51241E-01 4.08620E-03-7.03029E-01 9.90099E-14 2.08248E-14
 -1      3501 1.97868E+01 5.42347E-01 8.46586E-04-5.92703E-01-1.06567E-14 2.67198E-13
 -1      3502 1.98145E+01 4.93190E-01-2.46397E-03-5.26459E-01-1.81800E-14 2.89105E-13
 -1      3503 1.96347E+01 6.30347E-01 2.59631E-03-5.76382E-01 1.08700E-13 8.51680E-14
 -1      3504 1.98504E+01 4.68568E-01 1.60642E-03-4.76980E-01-5.18649E-14 2.10695E-13
 -1      3505 1.98690E+01 4.29029E-01-1.10973E-03-4.21068E-01-8.11034E-14 1.44155E-13
 -1      3506 1.97925E+01 4.78898E-01-1.26859E-03-3.75899E-01-2.61959E-13-2.01584E-14
 -1      3507 1.97330E+01 5.40778E-01 3.44159E-04-4.67587E-01-4.61351E-14 6.12398E-14
 -1      3508 1.97533E+01 4.73019E-01 1.12267E-03 2.24115E-01 1.98102E-13 3.99214E-14
 -1      3509 2.00174E+01 2.02140E-01 1.59798E-03-5.10692E-01 3.16979E-14-5.34493E-14
 -1      3510 2.00106E+01 1.81899E-01-1.09439E-03-4.75429E-01 7.68363E-14-5.82564E-14
 -1      3511 1.99494E+01 2.44479E-01-1.71312E-04-5.26077E-01 5.00064E-14-6.18170E-14
 -1      3512 2.00330E+01 1.62641E-01 1.41474E-03-4.42409E-01 1.17325E-13-4.21883E-14
 -1      3513 2.00302E+01 1.42358E-01-9.20208E-04-4.13683E-01 1.13077E-13-1.81935E-14
 -1      3514 1.99889E+01 2.00283E-01-1.25583E-04-4.51155E-01 1.00819E-13-6.86542E-14
 -1      3515 2.00114E+01 2.48700E-01 1.99643E-03-6.91641E-01-3.77018E-14 1.92352E-14
 -1      3516 1.99912E+01 2.43942E-01-9.94737E-04-6.43794E-01 1.72135E-14-4.54648E-14
 -1      3517 1.99146E+01 2.78703E-01-3.82971E-04-6.18035E-01 2.38331E-14-3.78556E-16
 -1      3518 2.00349E+01 2.29450E-01 2.22179E-03-8.00920E-01 6.61032E-15 9.03323E-15
 -1      3519 2.00022E+01 2.43612E-01-5.66698E-04-7.49808E-01-1.24693E-14 3.29571E-14
 -1      3520 1.98901E+01 2.89485E-01-8.87410E-04-7.27738E-01-3.00276E-14-2.52777E-14
 -1      3521 2.00935E+01 1.57773E-01 2.45421E-03-9.15133E-01-6.72837E-14-1.43383E-14
 -1      3522 2.00413E+01 2.01026E-01 2.88244E-04-8.65449E-01 5.28090E-15 7.30471E-15
 -1      3523 1.98868E+01 2.59155E-01-1.80220E-03-8.53762E-01-1.87018E-14-2.29429E-14
 -1      3524 2.02089E+01 1.11379E-02 2.57817E-03-1.02265E+00-1.62109E-13-7.88781E-14
 -1      3525 2.01272E+01 9.53513E-02 1.75312E-03-9.81973E-01-9.91348E-14-5.25059E-14
 -1      3526 1.99222E+01 1.65427E-01-3.32871E-03-9.91497E-01-6.75970E-14-2.58577E-14
 -1      3527 2.04117E+01-2.33928E-01 2.26909E-03-1.10404E+00-2.40848E-13-4.42752E-15
 -1      3528 2.02877E+01-9.68190E-02 4.06398E-03-1.08421E+00-2.07246E-13-5.86112E-14
 -1      3529 2.00232E+01-1.80639E-02-5.76606E-03-1.13149E+00-1.80105E-13-4.51125E-14
 -1      3530 2.07402E+01-5.93587E-01 1.03262E-03-1.12714E+00-1.40647E-13 4.32947E-14
 -1      3531 2.05604E+01-3.96702E-01 7.50592E-03-1.14611E+00-1.93093E-13-3.24336E-14
 -1      3532 2.02293E+01-3.18894E-01-9.40673E-03-1.25512E+00-2.08172E-13-1.00196E-13
 -1      3533 2.12323E+01-1.05963E+00-2.06819E-03-1.04215E+00-5.77090E-14-3.96782E-14
 -1      3534 2.09888E+01-8.10701E-01 1.22005E-02-1.12492E+00-5.88700E-14 2.89992E-15
 -1      3535 2.05926E+01-7.54353E-01-1.39223E-02-1.32672E+00-9.57055E-14-1.28325E-13
 -1      3536 2.19129E+01-1.56266E+00-5.60550E-03-7.75447E-01-1.50489E-13 5.96898E-14
 -1      3537 2.16102E+01-1.30706E+00 1.78350E-02-9.53048E-01-1.24630E-13 1.81542E-14
 -1      3538 2.11731E+01-1.31374E+00-1.85401E-02-1.28257E+00-1.17695E-13-4.57186E-14
 -1      3539 2.27352E+01-1.94662E+00-1.66210E-02-2.68695E-01-1.76693E-13 1.78212E-13
 -1      3540 2.24125E+01-1.77261E+00 1.92007E-02-5.56736E-01-1.86733E-13 1.56344E-13
 -1      3541 2.19915E+01-1.89099E+00-2.29014E-02-1.01709E+00-2.68215E-13 5.16653E-14
 -1      3542 2.35868E+01-1.86311E+00-1.59809E-02 5.38469E-01-2.71710E-14 3.83520E-13
 -1      3543 2.33467E+01-1.96124E+00 2.60605E-02 1.66213E-01-1.23064E-13 3.27939E-13
 -1      3544 2.30775E+01-2.33932E+00-3.43907E-02-4.36901E-01-2.96650E-13 1.50068E-13
 -1      3545 2.42687E+01-9.27382E-01 8.23913E-03 1.46044E+00-9.75999E-15 4.08641E-13
 -1      3546 2.41202E+01-1.51489E+00 1.19805E-02 1.08869E+00 6.62422E-14 4.23669E-13
 -1      3547 2.41318E+01-2.10894E+00-4.10326E-02 5.15859E-01-3.28674E-14 3.51709E-13
 -1      3548 2.40922E+01 3.23757E+00-4.13320E-02 1.43867E+00 9.37514E-14 1.49213E-13
 -1      3549 2.42106E+01 2.29823E+00-1.04472E-01 1.85031E+00 2.26652E-13 1.89208E-13
 -1      3550 2.39785E+01 4.08760E+00-7.54523E-02-1.85692E-01 4.34958E-13-2.34960E-14
 -1      3551 2.40029E+01 3.97243E+00-7.65471E-02 5.69028E-01 2.71554E-13 2.80622E-14
 -1      3552 2.40294E+01 2.89816E+00-1.11090E-01-1.58364E+00 2.20816E-13-1.20114E-13
 -1      3553 2.39333E+01 3.63348E+00-4.69387E-02-9.87294E-01 3.19342E-13-1.29641E-13
 -1      3554 2.50478E+01 5.27178E-01-6.48264E-02-2.01164E+00 1.70485E-13-9.72408E-14
 -1      3555 2.49293E+01 1.72404E+00-3.72726E-02-1.97253E+00 1.49117E-13-1.63211E-13
 -1      3556 2.36737E+01-1.90179E+00 2.05881E-02-5.03057E-01-1.53046E-15-2.13755E-14
 -1      3557 2.38768E+01-1.62602E+00-8.95850E-03-8.97163E-01 3.08926E-13 1.24343E-13
 -1      3558 2.27777E+01-1.88696E+00 2.95595E-02 3.16651E-01-2.89677E-13-4.64255E-14
 -1      3559 2.30618E+01-1.98781E+00-1.70456E-02-4.40686E-03-2.39669E-13-9.41974E-14
 -1      3560 2.34899E+01-2.35480E+00-4.28875E-02 1.18649E-01-4.91785E-14 2.80016E-13
 -1      3561 2.18924E+01-1.48931E+00 1.95453E-02 8.38754E-01-7.67763E-14-2.79531E-14
 -1      3562 2.22087E+01-1.73457E+00-9.86535E-03 6.26442E-01-1.21809E-13-8.45079E-14
 -1      3563 2.23817E+01-2.14406E+00-4.49359E-02 8.43735E-01-2.13737E-13-5.01014E-14
 -1      3564 2.11958E+01-9.82975E-01 1.36486E-02 1.08104E+00 7.87083E-14-4.41642E-14
 -1      3565 2.14686E+01-1.24345E+00-2.30160E-03 9.69609E-01 2.83194E-15-5.53777E-14
 -1      3566 2.14388E+01-1.54612E+00-3.06966E-02 1.20705E+00-2.64801E-14-1.45961E-13
 -1      3567 2.07032E+01-5.29087E-01 9.39634E-03 1.14465E+00-4.32828E-14 2.98569E-14
 -1      3568 2.09066E+01-7.48876E-01 7.52643E-04 1.10687E+00 2.12767E-14-1.79536E-14
 -1      3569 2.07784E+01-9.40874E-01-1.67762E-02 1.31948E+00-3.45516E-14 1.89202E-14
 -1      3570 2.03782E+01-1.81911E-01 5.36494E-03 1.10458E+00-1.07724E-13 1.08396E-13
 -1      3571 2.05207E+01-3.43536E-01 1.94399E-03 1.11455E+00-1.08587E-13 1.54817E-13
 -1      3572 2.03477E+01-4.54053E-01-1.06913E-02 1.28349E+00-1.45204E-13 6.95828E-14
 -1      3573 2.01805E+01 5.45118E-02 2.61267E-03 1.00833E+00-1.95780E-13-3.04499E-14
 -1      3574 2.02758E+01-5.15071E-02 2.43909E-03 1.04592E+00-8.25760E-14 1.34781E-13
 -1      3575 2.00883E+01-9.83395E-02-6.91607E-03 1.17065E+00-1.33549E-13 1.41499E-13
 -1      3576 2.00698E+01 1.97643E-01 8.74894E-04 8.87370E-01-7.09033E-14-5.98323E-14
 -1      3577 2.01312E+01 1.36246E-01 2.37828E-03 9.38970E-01-1.03389E-13-3.52277E-15
 -1      3578 1.99519E+01 1.33409E-01-4.10670E-03 1.02825E+00-1.04525E-13 1.54453E-13
 -1      3579 2.00145E+01 2.71287E-01-1.47434E-04 7.60075E-01-1.64039E-13-2.52146E-13
 -1      3580 2.00532E+01 2.42082E-01 2.14511E-03 8.16891E-01-1.68272E-13-2.52677E-13
 -1      3581 1.98936E+01 2.66965E-01-2.23023E-03 8.80372E-01-3.46065E-14-3.31531E-14
 -1      3582 1.99921E+01 2.98028E-01-7.02330E-04 6.36813E-01-3.87892E-14-1.06380E-13
 -1      3583 2.00164E+01 2.89883E-01 1.88292E-03 6.93435E-01-4.18594E-14-1.74707E-13
 -1      3584 1.98814E+01 3.30102E-01-1.06636E-03 7.39089E-01-9.23830E-14-1.36645E-13
 -1      3585 1.99870E+01 2.96436E-01-1.24603E-03 5.23811E-01-3.00841E-14-8.36988E-15
 -1      3586 2.00031E+01 2.99963E-01 1.42767E-03 5.76429E-01-1.41200E-15-1.26487E-13
 -1      3587 1.98940E+01 3.46955E-01-4.53577E-04 6.10120E-01-3.39286E-14 1.07372E-13
 -1      3588 1.99922E+01 2.82159E-01-6.91566E-04 4.21293E-01 7.24179E-14-1.01068E-13
 -1      3589 2.00019E+01 2.91015E-01 1.28613E-03 4.69313E-01 7.01645E-14-2.50941E-15
 -1      3590 1.99175E+01 3.41047E-01 1.04889E-03 4.95964E-01 2.83672E-14 5.29852E-14
 -1      3591 1.94599E+01-3.52508E+00 5.96342E-02-4.78369E+00-5.27918E-13-1.02088E-13
 -1      3592 2.18204E+01-4.28446E+00-4.93819E-02-4.00275E+00-4.65017E-13 8.97268E-14
 -1      3593 2.11669E+01-3.96644E+00-1.18439E-03 4.13234E+00-4.68896E-14-3.09705E-13
 -1      3594 1.95824E+01-3.68898E+00 9.29197E-02 4.96020E+00 1.18863E-14-1.48189E-13
 -1      3595 1.83405E+01-2.97159E+00 1.00180E-02 4.77916E+00-9.43690E-14 1.17024E-14
 -1      3596 2.02523E+01 1.41718E+00-2.94517E-03-5.78756E-01-1.48801E-13-5.23580E-13
 -1      3597 2.02944E+01 1.23008E+00 6.72005E-03-5.04994E-01-1.44982E-13-4.86195E-13
 -1      3598 2.02882E+01 9.82534E-01-5.20555E-03-3.61619E-01-1.49317E-13-4.55302E-13
 -1      3599 2.02279E+01 1.55083E+00-1.66565E-03-5.16251E-01-1.03902E-13-5.24616E-13
 -1      3600 1.46881E+01-6.60306E-01 7.68263E-03 3.67171E+00 3.65933E-13-9.63882E-14
 -1      3601 1.25688E+01 2.77698E-01 1.39589E-01 2.68901E+00 2.98914E-13-3.45085E-13
 -1      3602 1.97289E+01 5.16455E-01-9.38831E-04-3.13717E-01-1.10936E-13-2.55050E-13
 -1      3603 1.96823E+01 5.46462E-01-7.22609E-04-2.58898E-01-1.98256E-13-1.27677E-13
 -1      3604 1.97020E+01 5.48754E-01 2.04411E-03-3.56089E-01-1.55558E-13-3.12776E-13
 -1      3605 1.16857E+01 4.19414E-01 6.19877E-02-2.19932E+00-1.34857E-14-4.68250E-13
 -1      3606 1.27544E+01-2.22292E-01 4.29537E-02-3.41204E+00-2.16462E-13-4.05863E-13
 -1      3607 2.42260E+01-4.32868E+00-2.39562E-02-2.53582E+00 3.09124E-13 4.86781E-14
 -1      3608 2.00212E+01 2.28026E+00-3.63198E-03-1.54206E-01 1.04255E-13-5.24210E-13
 -1      3609 2.00350E+01 2.24819E+00-2.77110E-03-2.74725E-01 4.97067E-14-5.10481E-13
 -1      3610 2.01146E+01 2.04912E+00 4.34001E-03-2.77597E-01 2.72880E-14-4.82245E-13
 -1      3611 2.01292E+01 2.00337E+00 4.79324E-03-8.69905E-02 1.00292E-13-4.90488E-13
 -1      3612 2.01030E+01 8.22629E-02 6.87506E-04-3.02893E-01 9.14430E-14-4.14248E-14
 -1      3613 2.01116E+01 8.35289E-02 2.17077E-04-2.82163E-01 1.22079E-13-5.32987E-14
 -1      3614 2.02911E+01 9.00385E-01-1.48261E-04 4.32184E-01 3.45413E-13-1.77503E-13
 -1      3615 2.02827E+01 1.07525E+00-2.33435E-03 4.72251E-01 3.67800E-13-1.98413E-13
 -1      3616 2.02674E+01 7.17474E-01-1.71683E-03 2.83341E-01 2.99523E-13-1.89808E-13
 -1      3617 2.58150E+01-2.25999E+00 3.40068E-02 5.21008E-01 4.98247E-14 1.52094E-13
 -1      3618 2.61022E+01-8.19047E-01-5.71501E-02 1.55895E+00 1.19325E-13 1.72591E-13
 -1      3619 2.60896E+01 2.63529E+00-3.86334E-02-1.98848E+00 1.57770E-13-2.20095E-13
 -1      3620 2.03060E+01 4.80103E-01 2.37983E-03-4.25539E-02-1.11565E-13-3.52472E-13
 -1      3621 2.02812E+01 3.76076E-01-1.89063E-03 3.12908E-02-1.11324E-13-3.35515E-13
 -1      3622 2.03153E+01 3.89776E-01 3.46696E-05 4.17679E-02-8.97850E-14-3.28010E-13
 -1      3623 2.38437E+01-4.00403E+00 9.69342E-02-2.59579E+00-3.79903E-13 1.20865E-13
 -1      3624 2.48075E+01-3.59796E+00-9.35789E-02-1.04616E+00-1.89087E-13 1.81643E-14
 -1      3625 2.26479E+01-3.73934E+00 1.08776E-02-2.87338E+00-3.74992E-13 6.12808E-14
 -1      3626 2.50406E+01 1.00564E+00-2.36844E-02 1.99740E+00 2.24258E-13 2.12282E-13
 -1      3627 1.19924E+01 8.32601E-01 4.85819E-02 1.08634E+00-5.75936E-14-3.38958E-13
 -1      3628 1.19164E+01 9.19658E-01 4.28784E-02-3.73239E-01 1.44947E-14-6.28927E-13
 -1      3629 1.99604E+01 2.98057E-01-1.36780E-03 3.21163E-01 8.75150E-15-4.90698E-14
 -1      3630 1.99978E+01 2.66133E-01 2.31427E-04 3.22861E-01 1.47659E-14-1.07812E-13
 -1      3631 2.00018E+01 2.67743E-01 3.21705E-04 3.49258E-01-9.98395E-14-1.38368E-13
 -1      3632 1.99239E+01 3.31765E-01 2.49275E-05 3.48894E-01 1.13049E-13-9.03267E-14
 -1      3633 1.57356E+01-5.00469E-01 1.97838E-02 3.53026E+00 2.81285E-13-1.41432E-13
 -1      3634 2.50846E+01-1.55339E-01-5.23128E-02 1.85750E+00 1.35312E-13 3.46563E-13
 -1      3635 2.02788E+01 1.21531E+00 7.10852E-04 4.39578E-01 3.42297E-13-2.28393E-13
 -1      3636 2.00302E+01 1.56319E-01-1.82431E-04-3.91122E-01 1.36971E-13-8.93563E-14
 -1      3637 2.00529E+01 1.24767E-01 1.21738E-03-3.87535E-01 1.07541E-13 3.68724E-16
 -1      3638 2.00536E+01 1.08226E-01-6.38334E-04-3.64083E-01 9.55011E-14-1.51498E-14
 -1      3639 2.01590E+01 1.07336E-01-5.50992E-04-2.57178E-01 8.92127E-14-1.01630E-13
 -1      3640 2.01336E+01 9.14909E-02 2.94433E-04-2.60990E-01 1.57437E-13-1.18081E-13
 -1      3641 2.01470E+01 1.07642E-01 8.07411E-04-2.35532E-01 1.42463E-13-1.07666E-13
 -1      3642 2.55986E+01-2.78543E+00-5.73046E-04-4.89755E-02 1.78689E-13 1.44088E-13
 -1      3643 2.50134E+01-3.11777E+00 2.77548E-02 5.21073E-01 1.30899E-13 3.51004E-13
 -1      3644 2.55042E+01-1.91265E+00 1.89368E-03-8.52070E-01 2.29520E-13 1.39808E-13
 -1      3645 1.61305E+01-5.89585E-01 3.57534E-02-3.47801E+00 1.64873E-13 4.38330E-14
 -1      3646 1.49502E+01 1.38372E-01 6.17910E-02-2.97685E+00 4.09941E-14-1.75058E-13
 -1      3647 1.44455E+01-1.13511E+00 1.04819E-01 4.45548E+00-3.06789E-13 4.49168E-13
 -1      3648 1.40492E+01-4.61574E-01 2.13281E-02 3.63282E+00-2.30566E-13 3.11261E-13
 -1      3649 1.58960E+01-1.65275E+00 1.29700E-02 4.47737E+00-2.98305E-13 2.77577E-13
 -1      3650 1.97731E+01 4.35416E-01-2.41236E-03 3.30001E-01 2.38829E-13 3.20042E-13
 -1      3651 1.98316E+01 4.02321E-01 1.76856E-03 3.64624E-01 2.63818E-13 2.79324E-13
 -1      3652 1.39173E+01-5.48196E-01 8.94154E-02-3.85194E+00-3.63692E-13-4.22700E-13
 -1      3653 1.52060E+01-1.11440E+00 9.02348E-03-4.12789E+00-4.02968E-13-3.62033E-13
 -1      3654 1.39629E+01-5.54443E-02 3.56550E-02-3.12070E+00-1.76777E-13-2.65170E-13
 -1      3655 2.00806E+01 8.63554E-02-2.59739E-04-3.22290E-01 1.00487E-13-2.18292E-14
 -1      3656 2.01152E+01 1.02071E-01-4.17933E-04-3.00015E-01 9.10985E-14-7.30088E-15
 -1      3657 2.00763E+01 9.57527E-02 9.83847E-04-3.42742E-01 7.28639E-14-7.92877E-16
 -1      3658 1.23943E+01 8.80547E-01 8.01852E-02-1.20205E+00-2.48915E-14-6.19227E-13
 -1      3659 1.30899E+01 4.91216E-01-2.55557E-02-2.15167E+00 7.02528E-14-4.67518E-13
 -1      3660 1.31797E+01 1.04749E+00 4.11606E-02-5.19686E-01 1.01273E-14-6.23859E-13
 -1      3661 2.03104E+01 9.88456E-01-3.08101E-03-3.02623E-01-1.25985E-13-4.43989E-13
 -1      3662 2.01854E+01 1.73233E+00-3.20810E-03-3.52971E-01-1.52693E-14-4.58342E-13
 -1      3663 2.02074E+01 1.64246E+00-4.86372E-03-4.38184E-01-6.76355E-14-5.14167E-13
 -1      3664 2.03344E+01 6.20022E-01 1.09675E-04-8.86204E-02-1.01337E-13-3.45322E-13
 -1      3665 2.42640E+01-1.12070E+00-1.89076E-02-1.41705E+00 2.76857E-13 1.03762E-13
 -1      3666 2.43632E+01-3.04849E-01 8.91598E-03-1.73933E+00 3.11372E-13 2.20401E-14
 -1      3667 1.84206E+01-2.92699E+00 5.86754E-02-4.82283E+00-5.62782E-13-1.43673E-13
 -1      3668 1.98016E+01-3.06402E+00-1.10774E-02-4.07119E+00-5.48144E-13 1.21287E-13
 -1      3669 1.72967E+01-2.15084E+00 1.55167E-02-4.49425E+00-4.55261E-13-1.81535E-13
 -1      3670 2.00087E+01 2.69002E-01 4.78056E-04 3.76482E-01 5.48927E-14-1.72303E-13
 -1      3671 2.01176E+01 1.20411E-01-1.23710E-03-2.06999E-01 1.51519E-13-1.28698E-13
 -1      3672 1.96197E+01 5.59450E-01-1.62062E-03 9.31096E-02 1.40226E-13-3.93503E-13
 -1      3673 1.96443E+01 5.43432E-01 5.81398E-04 1.58853E-01 2.31040E-13-3.61906E-13
 -1      3674 2.02412E+01 3.61918E-01-1.35013E-03-1.55363E-02 1.90524E-13-1.61228E-13
 -1      3675 2.02593E+01 4.42866E-01 2.73225E-03 5.16245E-02 1.80802E-13-1.78371E-13
 -1      3676 2.02881E+01 1.35989E+00 6.70663E-03-3.92638E-01-7.68430E-14-4.71959E-13
 -1      3677 1.95969E+01 6.01233E-01 1.19523E-03-2.12447E-01-1.03491E-13-2.14895E-13
 -1      3678 1.96440E+01 5.63885E-01-1.28821E-03-1.81795E-01-3.02425E-13-3.97260E-13
 -1      3679 1.96225E+01 5.77305E-01-3.35717E-04-1.14312E-01-2.47255E-13-2.34153E-13
 -1      3680 1.18123E+01 7.69964E-01 8.41745E-02-1.35501E+00-3.47031E-15-5.99507E-13
 -1      3681 1.29643E+01 6.82415E-01 3.57074E-02-1.78125E+00-9.73744E-14-4.64385E-13
 -1      3682 1.20527E+01 8.86275E-01-1.57502E-02-3.36840E-01 3.60571E-14-6.39881E-13
 -1      3683 2.34962E+01-3.70202E+00-4.49619E-02 2.03589E+00 8.25702E-14 4.54030E-13
 -1      3684 2.27062E+01-3.93595E+00 6.23451E-02 3.22650E+00 4.10401E-14 1.18638E-13
 -1      3685 2.13391E+01-3.46272E+00 1.25374E-02 3.53181E+00 1.20383E-13 7.50632E-14
 -1      3686 1.31425E+01 4.33688E-01 2.24515E-02 2.30745E+00-5.88978E-14-2.89699E-14
 -1      3687 1.24641E+01 7.40662E-01 7.43585E-02 1.68079E+00-7.87925E-14-8.57092E-14
 -1      3688 1.32081E+01 9.89920E-01 3.77149E-02 9.36637E-01 1.48496E-13-3.68400E-13
 -1      3689 1.63660E+01-1.40751E+00 6.28725E-02-3.98507E+00 2.67258E-13 1.03920E-13
 -1      3690 1.26680E+01 5.95252E-01 7.87401E-02 1.75496E+00 2.90327E-13-4.77701E-13
 -1      3691 1.99491E+01 3.14625E-01 6.00258E-04 3.97751E-01 1.00402E-14 3.96785E-14
 -1      3692 1.96775E+01 5.08621E-01-2.24460E-03 2.27476E-01 1.73775E-13-6.66440E-14
 -1      3693 1.97228E+01 4.82416E-01 1.30932E-03 2.80338E-01 1.91237E-13 1.28402E-13
 -1      3694 1.97132E+01 4.81883E-01 1.66092E-03 3.39709E-01 1.66823E-13 1.53750E-13
 -1      3695 1.96125E+01 5.57696E-01 2.19245E-03 2.17660E-01 2.61725E-13-2.18495E-13
 -1      3696 2.02287E+01 1.57545E+00-4.16939E-03 2.77443E-01 2.67559E-13-3.50741E-13
 -1      3697 2.02177E+01 1.63580E+00-2.13120E-03 1.95709E-01 2.07125E-13-4.08937E-13
 -1      3698 1.96103E+01 5.77308E-01-1.21894E-03-4.47005E-02-7.95602E-14-2.31923E-13
 -1      3699 1.96119E+01 5.74300E-01-9.05106E-05 2.60804E-02 4.85809E-14-4.55786E-13
 -1      3700 1.95596E+01 6.02026E-01 1.76246E-03 7.78164E-02 1.65997E-14-4.30790E-13
 -1      3701 1.95542E+01 6.17731E-01 1.92598E-03-6.15772E-02-3.63883E-14-3.97315E-13
 -1      3702 2.02906E+01 1.42160E+00 5.19395E-03 1.28699E-01 1.96622E-13-3.91338E-13
 -1      3703 2.02089E+01 1.67007E+00-3.36910E-03 1.26983E-01 1.87307E-13-4.62439E-13
 -1      3704 2.02054E+01 1.69108E+00-2.28320E-03 3.88677E-02 1.48246E-13-4.60135E-13
 -1      3705 2.02028E+01 2.15761E-01-1.04100E-03-1.30911E-01 1.64451E-13-1.35235E-13
 -1      3706 2.02280E+01 2.80627E-01 2.40306E-03-7.72206E-02 1.92929E-13-1.36244E-13
 -1      3707 2.02804E+01 3.78735E-01-5.32346E-04-2.80539E-02 1.81030E-13-1.69892E-13
 -1      3708 2.44803E+01-1.70572E+00-9.72843E-03-9.17327E-01 3.93306E-13 1.57769E-13
 -1      3709 2.02594E+01 1.40239E+00-6.05266E-03 4.03572E-01 3.34988E-13-2.76092E-13
 -1      3710 2.02438E+01 1.50755E+00-1.48212E-03 3.35440E-01 2.87764E-13-3.16330E-13
 -1      3711 2.03039E+01 1.31692E+00 5.46878E-03 2.40766E-01 2.52199E-13-3.04508E-13
 -1      3712 1.38265E+01 6.18177E-01-1.76769E-02 2.04064E+00 3.50409E-13-2.50466E-13
 -1      3713 1.28036E+01 1.07937E+00 8.72656E-02 8.05767E-01 2.27599E-13-4.80439E-13
 -1      3714 2.02719E+01 1.98656E-01 5.19194E-04 1.59608E-01-7.43298E-15-2.64830E-13
 -1      3715 2.02442E+01 1.69049E-01-3.37880E-04 1.87974E-01 6.55110E-15-2.54752E-13
 -1      3716 2.02107E+01 1.52482E-01 8.41271E-05 2.07166E-01 1.73451E-14-2.47701E-13
 -1      3717 2.01811E+01 1.46717E-01 3.49303E-05 2.29672E-01 7.01148E-15-2.22037E-13
 -1      3718 2.02491E+01 1.82861E-01 1.78345E-04 1.70473E-01 1.91577E-14-2.40142E-13
 -1      3719 2.01407E+01 1.50838E-01-3.57359E-04 2.45963E-01-1.90552E-14-2.08367E-13
 -1      3720 2.01088E+01 1.64042E-01 2.50532E-04 2.66674E-01-2.30004E-14-2.12892E-13
 -1      3721 2.01750E+01 1.67605E-01 2.73056E-04 2.06902E-01-1.02921E-15-2.13649E-13
 -1      3722 2.00613E+01 1.84840E-01-8.03980E-04 2.82925E-01-4.68162E-14-2.29941E-13
 -1      3723 2.00257E+01 2.13573E-01 3.29207E-04 3.05043E-01-5.24526E-14-2.86072E-13
 -1      3724 2.00890E+01 1.93244E-01 5.27489E-04 2.39624E-01-3.84980E-14-2.50228E-13
 -1      3725 1.99698E+01 2.48244E-01-1.26075E-03 3.23433E-01 2.86895E-15-2.45993E-13
 -1      3726 1.99282E+01 2.90034E-01 2.77870E-04 3.49370E-01 1.47259E-14-2.15333E-13
 -1      3727 1.99890E+01 2.52192E-01 9.24342E-04 2.73356E-01-1.91726E-14-2.25818E-13
 -1      3728 1.98613E+01 3.36515E-01-1.74252E-03 3.71354E-01-1.43597E-14-1.99617E-13
 -1      3729 1.98104E+01 3.89507E-01 9.85161E-05 4.02753E-01-2.78152E-14-1.66059E-13
 -1      3730 1.98709E+01 3.38850E-01 1.46485E-03 3.11435E-01 1.36465E-14-1.66199E-13
 -1      3731 1.97286E+01 4.46190E-01-2.28036E-03 4.29099E-01-3.54093E-14-1.52542E-13
 -1      3732 1.96641E+01 5.08765E-01-2.00884E-04 4.66989E-01-4.81885E-14-1.21138E-13
 -1      3733 1.97282E+01 4.48946E-01 2.17955E-03 3.55612E-01-1.36045E-14-1.51662E-13
 -1      3734 1.95620E+01 5.73892E-01-2.90689E-03 4.98031E-01-1.17763E-13-1.31693E-13
 -1      3735 1.94785E+01 6.43842E-01-6.39748E-04 5.42966E-01-1.61512E-13-1.61157E-13
 -1      3736 1.95516E+01 5.78775E-01 3.12885E-03 4.06394E-01-8.55694E-14-1.92070E-13
 -1      3737 1.93495E+01 7.14672E-01-3.69254E-03 5.78453E-01-1.59212E-13-1.36690E-13
 -1      3738 1.92403E+01 7.88846E-01-1.18846E-03 6.30577E-01-1.40356E-13-1.91386E-13
 -1      3739 1.93294E+01 7.23455E-01 4.34817E-03 4.63276E-01-1.68239E-13-9.55144E-14
 -1      3740 1.90753E+01 8.61475E-01-4.78805E-03 6.70221E-01-1.59194E-13-2.42075E-13
 -1      3741 1.89325E+01 9.35032E-01-1.78970E-03 7.30261E-01-1.53289E-13-2.23684E-13
 -1      3742 1.90461E+01 8.76591E-01 5.91254E-03 5.24495E-01-1.80275E-13-1.11291E-13
 -1      3743 1.87192E+01 1.00281E+00-6.43008E-03 7.74865E-01-2.27682E-14-1.59710E-13
 -1      3744 1.85341E+01 1.06776E+00-2.32406E-03 8.45366E-01 2.42101E-14-1.04729E-13
 -1      3745 1.86816E+01 1.02927E+00 8.01998E-03 5.89210E-01-1.38500E-14-1.69241E-13
 -1      3746 1.82551E+01 1.11987E+00-9.07139E-03 8.98272E-01 3.72375E-14-4.79459E-14
 -1      3747 1.80182E+01 1.16397E+00-2.43063E-03 9.86153E-01 4.63890E-14-1.37984E-14
 -1      3748 1.82088E+01 1.16771E+00 1.10126E-02 6.59509E-01 3.35541E-14-1.94754E-13
 -1      3749 1.76474E+01 1.18351E+00-1.34182E-02 1.05649E+00-5.64651E-14-3.35991E-14
 -1      3750 1.73483E+01 1.18808E+00-1.86086E-03 1.17795E+00-1.13354E-14-1.40619E-13
 -1      3751 1.75890E+01 1.27214E+00 1.56262E-02 7.44597E-01-3.88372E-15-1.80250E-13
 -1      3752 1.68435E+01 1.14921E+00-2.12289E-02 1.28365E+00 3.34871E-14-2.28164E-13
 -1      3753 1.64974E+01 1.09220E+00 1.76672E-03 1.46863E+00 5.27629E-14-3.35514E-13
 -1      3754 1.67687E+01 1.31684E+00 2.55198E-02 8.69962E-01-6.05709E-14-2.11941E-13
 -1      3755 1.56193E+01 6.56957E-01-8.70207E-03-2.13521E+00-6.10241E-14-2.14186E-13
 -1      3756 1.60265E+01 9.22568E-01-2.42227E-02-1.78395E+00-6.27202E-14-2.47583E-13
 -1      3757 1.66877E+01 1.05288E+00 1.59096E-03-1.58234E+00-2.19197E-14-2.16652E-13
 -1      3758 1.70147E+01 1.13107E+00-1.97215E-02-1.38271E+00-5.79662E-14-2.58607E-13
 -1      3759 1.58210E+01 1.20009E+00 2.46340E-02-1.23339E+00 9.63856E-16-4.67426E-13
 -1      3760 1.74974E+01 1.17466E+00-3.87883E-04-1.25663E+00 3.33476E-14-3.18648E-13
 -1      3761 1.77696E+01 1.17569E+00-1.31194E-02-1.12582E+00 2.80401E-13-3.36182E-13
 -1      3762 1.68850E+01 1.30426E+00 1.93175E-02-9.75612E-01 2.74401E-14-3.41717E-13
 -1      3763 1.81255E+01 1.16098E+00-1.87097E-03-1.04310E+00 3.14011E-13-3.24761E-13
 -1      3764 1.83451E+01 1.12215E+00-8.89647E-03-9.45925E-01 3.11075E-13-1.93836E-13
 -1      3765 1.76811E+01 1.27458E+00 1.47475E-02-8.22954E-01 2.92828E-13-4.65819E-13
 -1      3766 1.86132E+01 1.07551E+00-1.89217E-03-8.82459E-01 2.95790E-13-3.27447E-13
 -1      3767 1.87849E+01 1.01638E+00-6.31227E-03-8.02946E-01 1.32422E-13-1.98997E-13
 -1      3768 1.82766E+01 1.18089E+00 1.07878E-02-7.13112E-01 2.47238E-13-4.03238E-13
 -1      3769 1.89886E+01 9.55097E-01-1.55584E-03-7.48891E-01 6.61141E-15-1.60314E-13
 -1      3770 1.91201E+01 8.88476E-01-4.74263E-03-6.79867E-01-7.36734E-15-9.93231E-14
 -1      3771 1.87296E+01 1.05420E+00 8.06954E-03-6.22088E-01 1.15851E-13-3.97227E-13
 -1      3772 1.92757E+01 8.23646E-01-1.11038E-03-6.31326E-01 9.70736E-14-2.46675E-13
 -1      3773 1.93745E+01 7.57816E-01-3.78081E-03-5.70156E-01 1.33954E-13-2.77467E-13
 -1      3774 1.90752E+01 9.15666E-01 5.99444E-03-5.38200E-01-2.06599E-14-2.80793E-13
 -1      3775 1.94941E+01 6.97725E-01-2.32659E-04-5.26172E-01 1.31132E-13-1.31371E-13
 -1      3776 1.95664E+01 6.37852E-01-2.81440E-03-4.72285E-01 1.22283E-13-2.11409E-13
 -1      3777 1.93387E+01 7.78369E-01 3.84519E-03-4.59999E-01 2.26018E-13-3.86244E-13
 -1      3778 1.96219E+01 6.10003E-01 1.23254E-03-4.35898E-01-2.55935E-14-1.04225E-13
 -1      3779 1.96528E+01 5.73326E-01-1.65857E-03-3.86934E-01-2.06434E-13-3.49052E-13
 -1      3780 1.95905E+01 6.11526E-01 2.77153E-04-3.20634E-01-1.59512E-13-1.70052E-13
 -1      3781 1.94967E+01 6.78647E-01 1.63004E-03-3.86121E-01 1.27124E-13-2.60634E-13
 -1      3782 2.01857E+01 1.74762E+00-2.62393E-03-2.79044E-01-1.57654E-14-4.40335E-13
 -1      3783 2.02758E+01 1.47082E+00 6.83280E-03-2.56955E-01-1.49664E-14-4.30245E-13
 -1      3784 2.01866E+01 1.73869E+00-3.66758E-03-1.87283E-01 4.11241E-14-4.41045E-13
 -1      3785 1.98843E+01 2.94537E-01 1.54879E-03-5.19241E-01 2.37179E-14-5.75801E-14
 -1      3786 1.99011E+01 2.68497E-01-1.45022E-03-4.77946E-01 5.75949E-14-7.13203E-14
 -1      3787 2.03575E+01 7.42899E-01-1.16028E-03-1.25271E-01-8.70014E-14-3.45015E-13
 -1      3788 2.03514E+01 5.98669E-01-2.35419E-03-4.84309E-02-6.77373E-14-3.30858E-13
 -1      3789 1.99463E+01 2.42904E-01 1.28753E-03-4.40567E-01 6.06473E-14-9.89949E-14
 -1      3790 1.99650E+01 2.15645E-01-1.21490E-03-4.07222E-01 9.60760E-14-1.18924E-13
 -1      3791 1.98799E+01 2.88655E-01 3.63522E-04-4.31816E-01 6.04749E-14-1.31220E-13
 -1      3792 1.97432E+01 3.18771E-01 3.13024E-03-8.76646E-01-2.57323E-14-3.71302E-14
 -1      3793 1.97327E+01 3.39956E-01-1.29882E-03-8.09019E-01-1.30373E-14-7.31064E-14
 -1      3794 1.97531E+01 2.18592E-01 4.13089E-03-1.03764E+00-7.80159E-14-9.03258E-14
 -1      3795 1.97166E+01 2.77866E-01-5.73686E-04-9.64043E-01-1.76547E-14-4.79734E-14
 -1      3796 1.95539E+01 3.60625E-01-1.52610E-03-9.18141E-01-2.36675E-14-1.14961E-13
 -1      3797 1.98343E+01 1.95443E-02 5.32162E-03-1.21362E+00-2.47832E-13-8.57671E-14
 -1      3798 1.97551E+01 1.32455E-01 8.41575E-04-1.13899E+00-1.93567E-13-5.85205E-14
 -1      3799 1.95268E+01 2.41023E-01-3.26305E-03-1.11310E+00-1.40509E-13-9.82930E-14
 -1      3800 2.00320E+01-3.11612E-01 6.08856E-03-1.39109E+00-1.57557E-13-1.44941E-13
 -1      3801 1.98880E+01-1.27667E-01 3.34308E-03-1.32564E+00-1.71743E-13-6.86690E-14
 -1      3802 1.95728E+01 7.94599E-03-6.27015E-03-1.33989E+00-1.89593E-13-1.21545E-13
 -1      3803 2.04103E+01-8.00456E-01 6.35213E-03-1.53606E+00-6.58825E-14-1.35588E-13
 -1      3804 2.01748E+01-5.34492E-01 7.86326E-03-1.50103E+00-1.17179E-13-1.54854E-13
 -1      3805 1.97466E+01-3.81386E-01-1.19033E-02-1.58893E+00-1.30600E-13-1.81835E-13
 -1      3806 2.10416E+01-1.44905E+00 3.80803E-03-1.58555E+00-2.45427E-13 2.03779E-14
 -1      3807 2.06913E+01-1.10224E+00 1.54833E-02-1.61883E+00-1.00970E-13-9.60998E-14
 -1      3808 2.01271E+01-9.55337E-01-1.94371E-02-1.82567E+00-1.38498E-13-9.33411E-15
 -1      3809 2.20496E+01-2.12984E+00 1.82357E-02-1.37749E+00-3.52392E-13 1.77965E-14
 -1      3810 2.15458E+01-1.81395E+00 2.82925E-02-1.57304E+00-3.05659E-13-2.02336E-14
 -1      3811 2.08330E+01-1.73330E+00-2.78784E-02-1.98769E+00-3.02322E-13 2.48881E-14
 -1      3812 2.45612E+01-2.70653E+00-6.05167E-03-1.57823E-01-8.41827E-14 1.01920E-13
 -1      3813 2.40769E+01-2.88528E+00 6.32309E-02-7.14428E-01-2.61535E-13 7.65499E-14
 -1      3814 2.03114E+01 1.08317E+00-1.81137E-03-2.52692E-01-6.51603E-14-4.24551E-13
 -1      3815 1.99025E+01 3.45072E-01-1.20902E-03 3.92003E-01 2.18123E-13 1.02793E-13
 -1      3816 2.03161E+01 1.05897E+00 5.36266E-03 3.23091E-01 2.87950E-13-2.15307E-13
 -1      3817 2.01680E+01 1.32195E-01-2.67285E-04-2.07849E-01 1.32236E-13-1.04171E-13
 -1      3818 2.01870E+01 1.69025E-01 1.56315E-03-1.71940E-01 1.45866E-13-1.17838E-13
 -1      3819 2.02033E+01 1.46347E-01-6.29227E-04-2.05378E-01 1.46118E-13-1.17494E-13
 -1      3820 2.30451E+01-2.83249E+00 5.68388E-02 1.45815E+00-5.94477E-14 3.52270E-13
 -1      3821 2.36313E+01-2.96601E+00 5.76638E-03 1.02539E+00 1.32673E-13 4.58760E-13
 -1      3822 2.03469E+01-7.24388E-01 1.05541E-02 1.55280E+00-1.17950E-13 1.58169E-13
 -1      3823 2.06480E+01-1.00803E+00 1.55244E-02 1.55283E+00-1.34602E-13-3.79976E-14
 -1      3824 1.99773E+01-2.47447E-01 5.01461E-03 1.38793E+00-2.23034E-13 1.42412E-13
 -1      3825 2.01534E+01-4.63041E-01 7.05751E-03 1.44534E+00-1.59955E-13 1.82221E-13
 -1      3826 1.98673E+01-5.57571E-01-1.18500E-02 1.68410E+00-1.47666E-13 9.62982E-14
 -1      3827 1.97929E+01 7.11632E-02 1.70399E-03 1.19752E+00-2.34344E-13 1.57082E-13
 -1      3828 1.98937E+01-7.00041E-02 5.61501E-03 1.27254E+00-2.22329E-13 1.39756E-13
 -1      3829 1.96211E+01-1.00598E-01-8.23310E-03 1.42514E+00-2.01481E-13 2.45126E-13
 -1      3830 1.97219E+01 2.64393E-01-8.33370E-05 1.01088E+00-1.13962E-13 2.34534E-13
 -1      3831 1.97728E+01 1.82288E-01 4.38604E-03 1.08899E+00-1.83893E-13 1.47395E-13
 -1      3832 1.95322E+01 1.93955E-01-4.43752E-03 1.18360E+00-2.42059E-13 3.82639E-13
 -1      3833 1.97177E+01 3.64954E-01-1.00897E-03 8.40069E-01 3.08065E-14-1.30610E-15
 -1      3834 1.97375E+01 3.25455E-01 3.30321E-03 9.14690E-01 7.65514E-14 8.67741E-14
 -1      3835 1.95332E+01 3.62270E-01-2.03831E-03 9.70360E-01 2.53092E-14 2.30595E-13
 -1      3836 1.97492E+01 4.02511E-01-1.28811E-03 6.89081E-01-2.37082E-13 2.69481E-13
 -1      3837 1.97509E+01 3.91361E-01 2.55294E-03 7.57517E-01-1.86815E-13 6.68543E-14
 -1      3838 1.95826E+01 4.41428E-01-5.18516E-04 7.88433E-01-2.35688E-13 3.88618E-13
 -1      3839 1.97938E+01 4.01441E-01-1.60382E-03 5.57796E-01 4.09568E-14 3.27122E-13
 -1      3840 1.97890E+01 4.07042E-01 2.23783E-03 6.19362E-01 3.93600E-14 3.41045E-13
 -1      3841 1.96523E+01 4.60060E-01-6.59184E-04 6.36014E-01-1.42944E-13 5.87736E-13
 -1      3842 2.15873E+01-2.08315E+00 3.30290E-02 1.86082E+00 1.12063E-14 5.96120E-14
 -1      3843 2.21707E+01-2.42880E+00 2.21291E-02 1.64369E+00-5.30461E-14 2.77504E-13
 -1      3844 2.15931E+01-3.03408E+00-5.77605E-02 2.68538E+00 1.28409E-13 4.17189E-13
 -1      3845 1.87805E+01-2.62661E+00 4.88245E-03 4.25732E+00-1.41614E-13 7.77434E-14
 -1      3846 1.73699E+01-2.07126E+00 9.26041E-02 4.57977E+00-2.31742E-13 1.16619E-13
 -1      3847 1.64370E+01-1.41577E+00-2.55751E-03 4.08345E+00-2.69253E-13 2.66911E-13
 -1      3848 1.98449E+01 3.83404E-01-8.22058E-04 4.18829E-01 1.74480E-13 2.16581E-13
 -1      3849 2.02555E+01 5.14094E-01-1.04194E-03 1.12245E-01 2.15987E-13-2.00915E-13
 -1      3850 2.02763E+01 6.22334E-01 2.93883E-03 2.06421E-01 2.61066E-13-2.01685E-13
 -1      3851 2.02988E+01 7.37018E-01-3.01579E-03 2.43115E-01 2.81491E-13-1.82696E-13
 -1      3852 2.02947E+01 5.52864E-01-2.51684E-03 9.62186E-02 2.12917E-13-1.99195E-13
 -1      3853 1.50252E+01 2.93934E-01 4.38552E-02 2.76556E+00 2.96387E-13-2.35647E-13
 -1      3854 2.46238E+01-3.82046E-01-1.72807E-02-1.68998E+00 2.34153E-13 3.79150E-14
 -1      3855 2.03217E+01 3.01727E-01 9.25850E-04 9.48165E-02-4.39333E-14-2.82207E-13
 -1      3856 2.02971E+01 2.41552E-01-8.87479E-04 1.33960E-01-5.10716E-14-2.84667E-13
 -1      3857 2.03104E+01 2.49454E-01 2.67826E-04 1.24259E-01-9.19635E-15-2.56916E-13
 -1      3858 2.45308E+01-8.02616E-01-1.19583E-02 1.52602E+00 4.28945E-14 3.42896E-13
 -1      3859 2.16863E+01-3.19843E+00 9.13165E-02-3.17633E+00-4.51462E-13 4.24569E-14
 -1      3860 2.28154E+01-3.40311E+00-7.12366E-02-2.07458E+00-3.53994E-13-9.46951E-14
 -1      3861 2.03540E+01 4.78251E-01 1.30281E-03 3.14454E-03-5.00041E-14-3.13407E-13
 -1      3862 2.03354E+01 3.78652E-01-1.59921E-03 5.85410E-02-3.84255E-14-2.92099E-13
 -1      3863 2.03546E+01 3.81506E-01 6.27203E-04 6.09349E-02-3.43732E-14-2.29720E-13
 -1      3864 2.54111E+01-2.34334E+00 3.71335E-02 4.76920E-01 7.30978E-14 1.76775E-13
 -1      3865 1.97736E+01 3.49488E-01 2.41760E-03-7.35871E-01-1.64808E-14-4.90623E-14
 -1      3866 1.97782E+01 3.45381E-01-1.58123E-03-6.76550E-01 5.40639E-15 7.41970E-15
 -1      3867 1.96200E+01 4.00917E-01-4.19263E-04-7.55364E-01 6.84160E-15-9.19940E-14
 -1      3868 1.98247E+01 3.34883E-01 1.91238E-03-6.16951E-01 9.21364E-15 3.70150E-14
 -1      3869 1.98374E+01 3.15874E-01-1.59241E-03-5.66814E-01 1.50850E-14 1.13377E-14
 -1      3870 1.97925E+01 3.45589E-01 3.31218E-04-5.16012E-01-1.13507E-15-2.19987E-14
 -1      3871 1.97037E+01 3.88587E-01 1.37412E-04-6.22425E-01 2.01530E-14-2.36234E-15
 -1      3872 2.29914E+01-2.76674E+00-2.25344E-03-1.22180E+00-3.24941E-13 1.68407E-14
 -1      3873 2.03035E+01 1.23775E+00-3.70952E-03-2.34366E-01-2.20849E-14-4.43605E-13
 -1      3874 2.03518E+01 9.22340E-01 3.84203E-03-1.63498E-01-5.87047E-14-3.85243E-13
 -1      3875 2.03603E+01 8.88707E-01-1.13635E-03-1.17140E-01-1.88667E-14-3.67205E-13
 -1      3876 2.03049E+01 1.25377E+00-3.61104E-03-1.72239E-01 9.71293E-15-4.05298E-13
 -1      3877 1.98304E+01 3.95496E-01 6.45084E-04 4.70357E-01 4.10842E-14 1.84800E-13
 -1      3878 1.49242E+01 7.11205E-01 2.04694E-02 2.00701E+00 2.65736E-13-3.60616E-13
 -1      3879 2.08102E+01-1.33538E+00 1.63087E-02 1.74692E+00-1.07372E-13-1.69925E-14
 -1      3880 2.12740E+01-1.66643E+00 2.63775E-02 1.66027E+00-7.96587E-14-6.65141E-14
 -1      3881 2.05659E+01-1.98658E+00-2.64363E-02 2.49784E+00-2.35549E-14 3.11043E-13
 -1      3882 2.01886E+01-1.17385E+00-1.49166E-02 2.02260E+00-1.18388E-13 1.47747E-13
 -1      3883 1.97267E+01 4.48392E-01-1.06220E-03 4.75027E-01 1.46833E-13 4.86858E-13
 -1      3884 2.00074E+01 1.90974E-01 1.06288E-03-3.78154E-01 1.35250E-13-1.52767E-13
 -1      3885 2.00271E+01 1.67167E-01-9.15223E-04-3.51222E-01 1.18937E-13-1.77406E-13
 -1      3886 1.99630E+01 2.29865E-01 2.79611E-04-3.65867E-01 1.01204E-13-1.54783E-13
 -1      3887 2.01780E+01 1.20000E-01 2.07736E-04-2.45579E-01 3.96141E-14-5.36261E-14
 -1      3888 2.02010E+01 1.31728E-01 3.08505E-04-2.21698E-01 7.25928E-14-9.53872E-14
 -1      3889 1.94934E+01 6.63545E-01 4.43450E-04-2.59559E-01-1.43244E-14-2.86003E-13
 -1      3890 1.95378E+01 6.28288E-01-1.68195E-03-2.30511E-01-1.07133E-14-1.75590E-13
 -1      3891 1.95056E+01 6.44758E-01-4.41400E-04-1.50430E-01-6.10550E-14-2.34235E-13
 -1      3892 1.48920E+01 6.06387E-01 1.76225E-02-2.18766E+00 6.00509E-14-2.51249E-13
 -1      3893 1.43707E+01 1.10995E+00 5.50540E-02-1.38752E+00-4.36500E-15-6.06833E-13
 -1      3894 1.54215E+01 9.69178E-01-3.67574E-03 1.67708E+00 1.44622E-13-3.53704E-13
 -1      3895 1.49184E+01-2.02340E-01 8.88947E-03 3.16150E+00-1.97292E-13 2.90074E-13
 -1      3896 1.39429E+01 2.35312E-01 6.78657E-02 2.82131E+00-1.75341E-13 1.59886E-13
 -1      3897 1.41295E+01 6.28741E-01 2.10722E-02 2.02417E+00 4.04572E-14-2.64094E-14
 -1      3898 1.34270E+01 1.07958E+00 3.21127E-02 1.51115E-01 1.19519E-13-4.51306E-13
 -1      3899 1.61537E+01-8.20153E-01 8.10322E-03-3.62002E+00-4.17750E-13-2.11083E-13
 -1      3900 1.66857E+01-1.42406E+00 6.16823E-02-4.15347E+00-4.58330E-13-2.78166E-13
 -1      3901 1.80632E+01-1.78428E+00 6.84120E-03-3.80437E+00-5.17860E-13-2.09329E-14
 -1      3902 2.00723E+01 1.21035E-01-2.88628E-04-3.42440E-01 9.07685E-14-2.00033E-14
 -1      3903 1.36676E+01 1.18049E+00 2.68339E-02 3.53520E-02-3.14976E-14-6.99489E-13
 -1      3904 1.38717E+01 1.10596E+00-7.00080E-03-7.54349E-01 1.46749E-14-7.51683E-13
 -1      3905 1.47320E+01 1.17219E+00 7.92816E-03-8.55872E-01-7.11904E-14-6.60865E-13
 -1      3906 2.01234E+01 1.21354E-01 5.67044E-04-2.86115E-01 1.03440E-13-7.31398E-14
 -1      3907 2.01452E+01 1.16874E-01-1.31318E-04-2.64727E-01 7.89976E-14-8.95590E-14
 -1      3908 2.01816E+01 1.37993E-01-1.33118E-04-2.31119E-01 6.10130E-14-1.20168E-13
 -1      3909 2.03739E+01 5.96525E-01 1.34134E-03-2.71095E-02-4.79602E-14-3.08053E-13
 -1      3910 2.23959E+01-2.50180E+00 3.19779E-02-1.57169E+00-3.60464E-13-3.27613E-14
 -1      3911 2.16284E+01-2.50843E+00 4.52314E-03-2.23317E+00-3.28241E-13-6.76468E-14
 -1      3912 2.49182E+01-1.56403E+00-6.40131E-02 1.11982E+00 1.35246E-13 3.12389E-13
 -1      3913 2.02448E+01 2.30888E-01-5.90503E-04-1.33581E-01 1.55949E-13-1.28664E-13
 -1      3914 1.40809E+01 5.11574E-01 7.40908E-02-2.38157E+00-1.43307E-13-1.99347E-13
 -1      3915 1.48275E+01 6.71329E-02 1.23638E-03-2.82219E+00-2.43684E-13-1.49863E-13
 -1      3916 2.03297E+01 1.07113E+00-3.26966E-03 2.04852E-01 2.50445E-13-2.83432E-13
 -1      3917 2.03278E+01 1.14503E+00-8.77041E-04 1.62523E-01 2.14406E-13-3.03239E-13
 -1      3918 2.04970E+01-2.76464E+00 7.96786E-03-3.34514E+00-4.71671E-13 1.40348E-14
 -1      3919 1.96343E+01 5.08066E-01 4.30522E-05 4.20580E-01 1.58009E-13 1.78195E-13
 -1      3920 1.95941E+01 5.20846E-01 2.25943E-03 5.15098E-01 4.48334E-14 2.56001E-13
 -1      3921 1.95642E+01 5.48782E-01-2.52665E-03 3.69011E-01 1.22730E-13-5.11006E-14
 -1      3922 2.45832E+01-2.45676E+00-4.47196E-02-3.00029E-01 3.54381E-13 2.92644E-13
 -1      3923 2.50020E+01-1.83239E+00-3.72425E-02-8.76052E-01 3.68853E-13 2.32706E-13
 -1      3924 2.03224E+01 1.18775E+00-3.48857E-03 1.25724E-01 2.04884E-13-3.42238E-13
 -1      3925 2.03211E+01 1.22505E+00-1.80447E-03 7.30684E-02 1.70319E-13-4.02723E-13
 -1      3926 2.03703E+01 9.86842E-01 4.82774E-03 1.01247E-01 1.83331E-13-3.09379E-13
 -1      3927 2.03290E+01 6.04369E-01-1.02267E-03 8.58278E-02 2.06279E-13-2.05152E-13
 -1      3928 2.03343E+01 6.97757E-01 2.39299E-03 1.52288E-01 2.33577E-13-1.95264E-13
 -1      3929 2.01970E+01 1.71067E+00-3.94186E-03-2.92185E-02 1.13356E-13-4.65065E-13
 -1      3930 2.01881E+01 1.75039E+00-2.21055E-03-1.14686E-01 7.70614E-14-4.68470E-13
 -1      3931 2.02731E+01 1.49293E+00 5.01464E-03-1.22830E-01 5.25091E-14-4.17409E-13
 -1      3932 2.02789E+01 1.47922E+00 5.07008E-03 5.53208E-03 1.17194E-13-4.31936E-13
 -1      3933 1.40602E+01 9.94037E-01-8.21978E-04 1.08736E+00 1.29698E-14-3.15584E-13
 -1      3934 1.37877E+01 1.14055E+00 2.26575E-02 5.00852E-01 4.82863E-14-4.64986E-13
 -1      3935 1.45102E+01 1.21679E+00 1.13454E-02 2.32531E-01-1.61043E-14-4.39624E-13
 -1      3936 1.94480E+01 6.32252E-01-2.13846E-03 2.14828E-01 1.31573E-14-4.67825E-13
 -1      3937 1.94942E+01 6.00984E-01-7.07562E-04 2.86893E-01 1.02588E-13-2.81400E-13
 -1      3938 1.94096E+01 6.36881E-01 2.59150E-03 3.76456E-01-9.36152E-14-2.50647E-13
 -1      3939 1.94080E+01 6.75293E-01-5.37724E-04 5.72967E-02 7.42998E-15-5.55221E-13
 -1      3940 1.94193E+01 6.61358E-01-8.23217E-04 1.27557E-01 5.70017E-14-5.02137E-13
 -1      3941 1.92975E+01 7.18953E-01 2.62246E-03 1.98438E-01 5.84760E-14-5.58748E-13
 -1      3942 1.38489E+01 7.45541E-01-1.02218E-02-1.65092E+00-1.09156E-13-3.96887E-13
 -1      3943 2.06260E+01-2.84044E+00 5.44415E-02 3.46241E+00 1.02470E-14 2.09438E-13
 -1      3944 2.03102E+01 3.75489E-01-1.23439E-03-4.83447E-02 1.66154E-13-1.86577E-13
 -1      3945 2.03294E+01 4.77421E-01 1.79987E-03 1.52905E-02 1.70122E-13-2.06201E-13
 -1      3946 2.03523E+01 6.06824E-01 3.53573E-04 5.94531E-02 1.91946E-13-2.34594E-13
 -1      3947 1.52543E+01 1.22486E+00 3.47891E-02 1.06069E+00 8.91151E-14-2.43451E-13
 -1      3948 1.94252E+01-2.21572E+00-3.24653E-03 3.47995E+00-1.15003E-13 3.42370E-13
 -1      3949 2.03927E+01 6.96112E-01 3.09246E-03-5.16981E-02-1.61917E-15-3.06213E-13
 -1      3950 2.03831E+01 5.57001E-01-2.17318E-03-1.15137E-03 4.01694E-15-2.83878E-13
 -1      3951 2.51919E+01-1.17946E+00-4.96020E-02-1.41113E+00 2.13454E-13 1.24034E-13
 -1      3952 1.95931E+01-1.72709E+00 2.11499E-02 2.96986E+00-6.75345E-14 4.39245E-13
 -1      3953 1.80416E+01-1.41409E+00 3.01255E-02 3.59345E+00-2.04337E-13 2.39397E-13
 -1      3954 1.93100E+01-1.31635E+00-1.45236E-02 2.67998E+00-1.06557E-13 4.29431E-13
 -1      3955 2.02053E+01 1.75706E-01-2.19306E-04 1.60519E-01 2.19174E-14-2.32576E-13
 -1      3956 2.01646E+01 1.78408E-01-1.57549E-04 1.77400E-01 2.78056E-14-2.06832E-13
 -1      3957 2.01138E+01 1.90987E-01-5.17103E-04 1.87334E-01 8.13069E-15-2.03875E-13
 -1      3958 2.00670E+01 2.12705E-01-1.19100E-04 2.03177E-01-8.09097E-15-1.85031E-13
 -1      3959 2.01450E+01 1.99068E-01 6.30865E-04 1.41336E-01 2.04934E-14-1.56190E-13
 -1      3960 2.00069E+01 2.42253E-01-8.53336E-04 2.12993E-01-8.46293E-15-1.87358E-13
 -1      3961 1.99524E+01 2.79531E-01-2.15123E-04 2.29630E-01-1.17729E-14-1.64342E-13
 -1      3962 2.00360E+01 2.41895E-01 9.27921E-04 1.60124E-01-2.76746E-15-1.60446E-13
 -1      3963 1.98813E+01 3.23037E-01-1.21346E-03 2.40187E-01 1.05317E-14-1.60843E-13
 -1      3964 1.98161E+01 3.73000E-01-4.90851E-04 2.58708E-01 2.63306E-14-1.41674E-13
 -1      3965 1.99079E+01 3.17123E-01 1.40220E-03 1.78227E-01 1.30241E-14-1.24708E-13
 -1      3966 1.97312E+01 4.28005E-01-1.62105E-03 2.69998E-01-9.57444E-15-2.00148E-13
 -1      3967 1.96512E+01 4.88442E-01-9.41373E-04 2.90669E-01-4.05354E-14-2.07689E-13
 -1      3968 1.97558E+01 4.18478E-01 2.02122E-03 1.96329E-01-5.91808E-15-2.04384E-13
 -1      3969 1.95482E+01 5.52903E-01-2.04965E-03 3.02030E-01-2.95776E-14-2.53501E-13
 -1      3970 1.94480E+01 6.21669E-01-1.50299E-03 3.24474E-01-6.44963E-14-2.31361E-13
 -1      3971 1.95723E+01 5.40533E-01 2.74368E-03 2.12883E-01-5.63830E-14-2.63260E-13
 -1      3972 1.93210E+01 6.92840E-01-2.55746E-03 3.34836E-01-9.49360E-14-2.24718E-13
 -1      3973 1.91936E+01 7.66260E-01-2.36950E-03 3.57988E-01-1.37905E-13-1.85846E-13
 -1      3974 1.93480E+01 6.78776E-01 3.92852E-03 2.25356E-01-5.18178E-14-2.39606E-13
 -1      3975 1.90349E+01 8.40869E-01-3.29563E-03 3.64588E-01-1.81919E-13-1.07460E-13
 -1      3976 1.88709E+01 9.15602E-01-3.51792E-03 3.87093E-01-1.47856E-13-1.19645E-13
 -1      3977 1.90689E+01 8.25597E-01 5.32001E-03 2.30051E-01-1.17865E-13-1.19386E-13
 -1      3978 1.86703E+01 9.89131E-01-4.34074E-03 3.87873E-01-7.39725E-14-7.16515E-14
 -1      3979 1.84579E+01 1.05962E+00-4.98571E-03 4.08763E-01 2.76210E-14-7.84951E-14
 -1      3980 1.87173E+01 9.74118E-01 7.14176E-03 2.19494E-01-8.31413E-14-5.15533E-15
 -1      3981 1.82002E+01 1.12511E+00-6.02133E-03 4.01064E-01 2.32716E-14-1.76379E-13
 -1      3982 1.79230E+01 1.18360E+00-6.87031E-03 4.20852E-01-3.22492E-14-2.07489E-13
 -1      3983 1.82706E+01 1.11372E+00 9.94094E-03 1.87869E-01-5.23762E-14-9.51637E-14
 -1      3984 1.75842E+01 1.23176E+00-8.97687E-03 4.02732E-01-4.21014E-14-2.20477E-13
 -1      3985 1.72166E+01 1.26841E+00-9.53291E-03 4.26312E-01-5.61063E-14-2.79052E-13
 -1      3986 1.76928E+01 1.23093E+00 1.41891E-02 1.26673E-01-1.04843E-13-2.29716E-13
 -1      3987 1.67573E+01 1.28492E+00-1.46523E-02 3.96637E-01-6.17523E-14-2.59655E-13
 -1      3988 1.62462E+01 1.28207E+00-1.96754E-02 4.38818E-01-6.88070E-14-2.25108E-13
 -1      3989 1.69332E+01 1.31117E+00 2.32354E-02 3.04542E-02-3.50979E-14-2.02211E-13
 -1      3990 1.63947E+01 1.30755E+00-8.84552E-04-5.66919E-01-1.29194E-14-6.17085E-13
 -1      3991 1.68416E+01 1.29972E+00-1.36390E-02-5.14803E-01 1.75858E-13-5.71406E-13
 -1      3992 1.72954E+01 1.28553E+00-7.26395E-03-5.19885E-01 3.04406E-13-5.06358E-13
 -1      3993 1.76439E+01 1.25059E+00-9.08209E-03-4.82551E-01 2.58795E-13-5.33800E-13
 -1      3994 1.69652E+01 1.34018E+00 1.91945E-02-1.41535E-01 2.32070E-13-5.26429E-13
 -1      3995 1.79787E+01 1.20560E+00-6.07254E-03-4.87016E-01 1.84054E-13-4.53928E-13
 -1      3996 1.82442E+01 1.15066E+00-6.11540E-03-4.55839E-01 2.97863E-13-4.13042E-13
 -1      3997 1.77272E+01 1.26210E+00 1.41558E-02-2.06915E-01 2.63708E-13-4.63620E-13
 -1      3998 1.84975E+01 1.08982E+00-4.43397E-03-4.52817E-01 3.31901E-13-4.85033E-13
 -1      3999 1.86991E+01 1.02472E+00-4.54690E-03-4.22449E-01 1.40007E-13-3.11287E-13
 -1      4000 1.82951E+01 1.15006E+00 9.86666E-03-2.43638E-01 2.84931E-13-3.50764E-13
 -1      4001 1.88951E+01 9.58230E-01-2.87467E-03-4.13619E-01-4.97025E-14-1.35509E-13
 -1      4002 1.90464E+01 8.89790E-01-4.07821E-03-3.83072E-01 4.18383E-14-2.23943E-13
 -1      4003 1.87347E+01 1.02091E+00 8.47904E-03-2.54738E-01 1.73248E-13-4.33299E-13
 -1      4004 1.91978E+01 8.25982E-01-2.19113E-03-3.65572E-01 1.86081E-13-2.02892E-13
 -1      4005 1.93139E+01 7.60557E-01-3.13688E-03-3.34823E-01 3.12092E-13-1.06523E-13
 -1      4006 1.90639E+01 8.92173E-01 6.58594E-03-2.48860E-01 1.53561E-13 4.33694E-14
 -1      4007 1.93838E+01 7.28993E-01-2.30961E-05-3.11764E-01 3.36618E-13-2.51629E-13
 -1      4008 1.94349E+01 6.92489E-01-1.49466E-03-2.78466E-01 8.57854E-14-2.40075E-13
 -1      4009 1.93972E+01 7.13504E-01 2.43967E-03-1.85648E-01 1.01609E-13-1.33635E-13
 -1      4010 1.92726E+01 7.89032E-01 4.95029E-03-2.22707E-01 1.87872E-13 1.44333E-13
 -1      4011 2.00665E+01 1.47731E-01 8.36777E-04-3.28316E-01 1.11477E-13-1.49217E-13
 -1      4012 2.00872E+01 1.31603E-01-5.48499E-04-3.05614E-01 1.37182E-13-8.68637E-14
 -1      4013 2.01138E+01 1.45635E-01-3.65516E-05-2.70872E-01 1.34448E-13-1.37900E-13
 -1      4014 2.00410E+01 1.79169E-01 1.22609E-04-3.13831E-01 1.54228E-13-1.94757E-13
 -1      4015 2.45107E+01-2.86273E+00 4.91773E-02 4.34482E-01 1.62323E-13 3.95579E-13
 -1      4016 2.02435E+01 1.66044E-01-1.56576E-04-1.87673E-01 7.58851E-14-7.04420E-14
 -1      4017 2.02296E+01 1.53234E-01-2.13798E-04-1.99188E-01 1.00670E-13-1.22314E-13
 -1      4018 2.02533E+01 1.86807E-01 7.68931E-04-1.68073E-01 1.21386E-13-1.16350E-13
 -1      4019 1.93085E+01 3.21090E-01 6.39005E-03-1.14081E+00-1.86380E-13-8.03470E-14
 -1      4020 1.92975E+01 3.88585E-01-2.71425E-03-1.03396E+00-8.37681E-14-6.13732E-14
 -1      4021 1.93736E+01 4.38138E-01 4.15624E-03-9.19296E-01-8.45687E-15-2.26436E-16
 -1      4022 1.93924E+01 4.61771E-01-2.79335E-03-8.30061E-01 3.91160E-14 5.48266E-15
 -1      4023 1.91377E+01 5.03005E-01 3.39762E-04-9.41295E-01-2.62900E-14 9.82002E-14
 -1      4024 1.94525E+01-3.17325E-01 1.25075E-02-1.73514E+00-9.75776E-14-1.77541E-13
 -1      4025 1.92964E+01-9.64156E-02-1.62976E-03-1.59767E+00-1.42091E-13-1.73627E-13
 -1      4026 1.98090E+01-9.28924E-01 1.52257E-02-2.08515E+00-2.78588E-13-4.72404E-14
 -1      4027 1.95265E+01-5.97583E-01 4.49046E-03-1.94914E+00-1.75640E-13-1.03643E-13
 -1      4028 1.89852E+01-3.35637E-01-1.22924E-02-1.97284E+00-1.84088E-13-1.62081E-13
 -1      4029 2.04199E+01-1.80502E+00-9.82815E-03-2.39869E+00-2.83373E-13-1.07865E-13
 -1      4030 2.00421E+01-1.30995E+00 1.81908E-02-2.28780E+00-2.54938E-13-3.53600E-14
 -1      4031 1.92878E+01-1.06630E+00-2.80280E-02-2.47314E+00-2.47225E-13-1.70464E-13
 -1      4032 1.92697E+01 3.68207E-01-2.30941E-03 1.11169E+00-1.78823E-13 4.66960E-13
 -1      4033 1.92971E+01 2.73358E-01 6.64014E-03 1.22902E+00-2.46589E-13 5.29518E-13
 -1      4034 2.03300E+01 9.79904E-01-1.42095E-03 2.12561E-01 2.57348E-13-2.49202E-13
 -1      4035 2.03550E+01 8.44297E-01 7.65125E-04 1.28637E-01 2.25674E-13-2.63360E-13
 -1      4036 1.92561E+01 1.39485E-01-1.42674E-03 1.38974E+00-3.09530E-13 5.01216E-13
 -1      4037 1.93435E+01-2.77549E-02 8.34112E-03 1.52417E+00-2.61275E-13 4.09805E-13
 -1      4038 1.89715E+01 3.20293E-01-2.93852E-03 1.31525E+00-1.44501E-13 4.79184E-13
 -1      4039 1.70209E+01-1.07949E+00 1.31417E-02 3.58856E+00-2.39051E-13 1.49363E-13
 -1      4040 1.59619E+01-5.17218E-01 6.42122E-02 3.46884E+00-2.40918E-13 3.73963E-13
 -1      4041 1.56384E+01-1.35040E-02 1.14204E-02 2.80280E+00-1.84743E-13 3.20681E-13
 -1      4042 1.72756E+01-7.20755E-01-2.20134E-02 3.10132E+00-2.04050E-13 2.02051E-13
 -1      4043 1.93606E+01-2.47731E-01-3.08018E-04 1.71519E+00-2.40399E-13 2.94299E-13
 -1      4044 1.95489E+01-5.06315E-01 1.03914E-02 1.86187E+00-1.54540E-13 2.62990E-13
 -1      4045 1.89488E+01-9.09036E-03-4.56047E-03 1.69107E+00-2.47564E-13 4.97323E-13
 -1      4046 1.93455E+01 4.85048E-01-2.62563E-03 8.84847E-01 9.14643E-14 3.32424E-13
 -1      4047 1.93375E+01 4.40382E-01 4.61152E-03 9.84115E-01 3.24333E-14 3.79188E-13
 -1      4048 1.90796E+01 5.01760E-01-3.24771E-04 1.02136E+00-3.73433E-14 4.29664E-13
 -1      4049 1.94501E+01 5.25086E-01-2.44052E-03 7.02748E-01-3.53782E-13 2.87390E-13
 -1      4050 1.94231E+01 5.13365E-01 2.85500E-03 7.83643E-01-9.19964E-14 2.93638E-13
 -1      4051 1.92196E+01 5.80620E-01 6.34122E-04 7.92250E-01-9.24729E-14 4.37350E-13
 -1      4052 1.95416E+01 5.27037E-01-6.62390E-04 5.68255E-01-1.77773E-13 2.64244E-13
 -1      4053 1.95048E+01 5.33554E-01 2.53710E-03 6.36345E-01-3.34224E-13 3.19116E-13
 -1      4054 1.93398E+01 6.01224E-01 1.31467E-03 6.29262E-01-3.24244E-13 1.86445E-13
 -1      4055 1.94355E+01 5.83906E-01-2.08968E-03 5.13929E-01-1.90179E-13 1.16929E-13
 -1      4056 1.55639E+01 1.27517E+00-1.04593E-02 3.32202E-01-2.67516E-14-2.51286E-13
 -1      4057 1.44097E+01 1.16648E+00-1.75349E-02 3.27476E-01 1.29943E-13-2.81782E-13
 -1      4058 1.41176E+01 1.21378E+00 6.67824E-02-6.82096E-01 9.39786E-15-4.45121E-13
 -1      4059 1.58223E+01 1.34905E+00 4.66511E-02-1.89629E-01-8.66234E-15-1.97022E-13
 -1      4060 2.03193E+01 9.28858E-01 7.77148E-04 2.39708E-01 2.60282E-13-2.20229E-13
 -1      4061 2.03725E+01 6.72586E-01 1.25119E-04 7.22913E-02 1.83928E-13-2.53718E-13
 -1      4062 2.03747E+01 7.57155E-01-1.43837E-03 7.13546E-02 1.81132E-13-2.76347E-13
 -1      4063 2.03679E+01 5.37918E-01-6.04152E-04 2.76117E-03 1.59442E-13-2.53801E-13
 -1      4064 1.49327E+01 1.33387E+00 3.74239E-02-2.99873E-01-7.34952E-14-6.22664E-13
 -1      4065 1.52034E+01 1.20715E+00 4.20576E-04-8.62545E-01-9.39168E-14-5.67059E-13
 -1      4066 1.58141E+01 1.27439E+00-1.93923E-02-7.31906E-01-3.30356E-14-5.73387E-13
 -1      4067 1.49485E+01 1.23657E+00-6.14977E-03 1.40184E-01-7.49912E-14-4.72808E-13
 -1      4068 2.06279E+01-2.20608E+00-1.53230E-02-2.63297E+00-3.35094E-13-1.24922E-13
 -1      4069 1.48666E+01 9.33246E-01 2.65880E-03-1.24193E+00-1.09035E-13-2.71675E-13
 -1      4070 1.93163E+01 8.56650E-02 9.81484E-03-1.41136E+00-1.79913E-13-1.98806E-13
 -1      4071 1.92504E+01 2.15249E-01-2.61075E-03-1.28761E+00-1.77240E-13-1.74796E-13
 -1      4072 1.90109E+01 3.78186E-01 4.11074E-04-1.20660E+00-1.29463E-13-1.33821E-13
 -1      4073 1.89395E+01 1.24262E-01-1.10597E-03-1.54588E+00-1.75506E-13-1.91899E-13
 -1      4074 2.03429E+01 2.90511E-01 2.15386E-04 8.68462E-02-2.75091E-14-2.27790E-13
 -1      4075 2.03149E+01 2.39568E-01-7.08980E-04 1.13829E-01 4.09789E-15-2.22612E-13
 -1      4076 1.98170E+01 3.36368E-01 1.11190E-03-4.03514E-01 2.78900E-14 2.63622E-15
 -1      4077 1.98579E+01 3.01261E-01-1.56937E-03-3.67325E-01 6.92411E-14-3.92890E-14
 -1      4078 2.03819E+01 4.48157E-01 7.47751E-04 2.93266E-02-2.44786E-14-2.46781E-13
 -1      4079 2.03628E+01 3.58522E-01-1.22624E-03 6.63580E-02-2.68233E-14-2.31273E-13
 -1      4080 2.03685E+01 3.52265E-01 6.96921E-04 5.74006E-02-3.49566E-14-1.92695E-13
 -1      4081 1.94752E+01 4.72685E-01 2.87356E-03-7.40918E-01-5.49578E-15-3.47797E-15
 -1      4082 1.95091E+01 4.66714E-01-2.54676E-03-6.68425E-01-2.82899E-14-3.78272E-14
 -1      4083 1.92899E+01 5.40512E-01 1.02800E-03-7.37430E-01 6.22009E-15 9.82420E-14
 -1      4084 2.02824E+01 2.04998E-01 3.29355E-05 1.28721E-01 3.08721E-14-2.31024E-13
 -1      4085 2.02475E+01 1.83985E-01-3.52878E-04 1.49078E-01 1.61688E-14-2.31217E-13
 -1      4086 2.02375E+01 1.95934E-01 4.21753E-04 1.19969E-01 2.35984E-14-1.93467E-13
 -1      4087 1.57019E+01 2.01076E-01-1.55178E-02-2.47302E+00-2.59549E-13-1.01482E-13
 -1      4088 1.58900E+01-2.09496E-01 5.16693E-02-3.08022E+00-3.06595E-13-1.68796E-13
 -1      4089 1.69054E+01-6.76825E-01-2.96542E-02-3.16880E+00-3.77652E-13-1.11086E-13
 -1      4090 2.02756E+01 2.32973E-01-7.26542E-04-1.37659E-01 1.30757E-13-1.43735E-13
 -1      4091 2.02963E+01 2.95801E-01 1.13270E-03-9.27939E-02 1.47454E-13-1.52816E-13
 -1      4092 2.03361E+01 3.81806E-01 3.36126E-05-5.50993E-02 1.38424E-13-2.07438E-13
 -1      4093 2.02968E+01 2.42023E-01-6.39944E-05-1.32575E-01 1.24123E-13-1.63943E-13
 -1      4094 1.59777E+01 1.35901E+00 2.44356E-02-2.17678E-01-6.51769E-14-6.96297E-13
 -1      4095 1.99202E+01 2.68577E-01 8.47332E-04-3.37446E-01 1.02059E-13-8.76635E-14
 -1      4096 1.99593E+01 2.36577E-01-1.19071E-03-3.08998E-01 1.20733E-13-5.32435E-14
 -1      4097 1.98599E+01 3.13541E-01 7.64811E-04-3.07926E-01 7.26721E-14 3.55440E-14
 -1      4098 2.03458E+01 3.41124E-01-1.51830E-04-7.86188E-02 1.06160E-13-2.25036E-13
 -1      4099 2.03643E+01 4.26162E-01-2.32872E-06-3.27266E-02 1.33392E-13-2.37899E-13
 -1      4100 2.03794E+01 4.86297E-01-1.00106E-03-1.99169E-02 1.43749E-13-2.39687E-13
 -1      4101 1.92530E+01 7.04969E-01-9.32666E-04 3.36077E-01-9.02457E-14-4.56957E-13
 -1      4102 1.93306E+01 6.55517E-01-4.09202E-04 4.23289E-01-9.68285E-14-1.93233E-13
 -1      4103 1.92744E+01 6.65128E-01-1.14515E-03 4.78026E-01-2.06680E-13-1.54430E-13
 -1      4104 1.44829E+01 8.83992E-01 2.69188E-02 1.52023E+00-6.54087E-14-2.14483E-13
 -1      4105 1.50080E+01 1.02528E+00 1.77111E-02 1.14447E+00-1.00160E-13-3.40511E-13
 -1      4106 1.50148E+01 5.79671E-01-1.46836E-02 2.02970E+00-1.77061E-13 1.10655E-13
 -1      4107 2.02503E+01 1.69371E-01-1.63218E-04-1.72394E-01 3.60194E-14-1.23296E-13
 -1      4108 2.02803E+01 1.96039E-01 1.27540E-04-1.47925E-01 7.81598E-14-1.32733E-13
 -1      4109 1.94461E+01 5.18499E-01 1.14348E-03-5.82382E-01-9.18786E-15 2.09168E-14
 -1      4110 1.95900E+01 4.53225E-01 1.98325E-03-5.99542E-01 1.12571E-14-3.61469E-14
 -1      4111 1.96306E+01 4.28890E-01-2.27133E-03-5.41507E-01 2.71795E-14-9.22808E-15
 -1      4112 1.54223E+01 1.01031E+00-3.47287E-02-9.54189E-01-1.08018E-13-1.78443E-13
 -1      4113 1.55544E+01 7.98905E-01 5.55423E-02-1.79354E+00-2.07525E-13-1.28943E-13
 -1      4114 2.03074E+01 1.28241E+00-1.96840E-03-1.28274E-01 3.76405E-14-3.80380E-13
 -1      4115 2.03568E+01 1.09674E+00 6.22119E-03-1.09432E-01 2.18332E-14-3.69009E-13
 -1      4116 2.03065E+01 1.28650E+00-3.77331E-03-6.92100E-02 7.47035E-14-3.94804E-13
 -1      4117 2.03131E+01 2.42632E-01 3.95807E-04 9.32667E-02-2.75776E-15-2.12512E-13
 -1      4118 2.03722E+01 8.44124E-01-2.34658E-03-8.03061E-02 7.31350E-15-3.20296E-13
 -1      4119 1.93303E+01-1.90059E+00 3.84833E-02-3.39579E+00-4.03385E-13-8.53191E-15
 -1      4120 1.91686E+01 7.88552E-01 3.74547E-03 1.44205E-01 1.83070E-13-6.25820E-13
 -1      4121 1.91965E+01 7.48669E-01-1.74571E-03 2.37118E-01 1.05740E-13-4.23098E-13
 -1      4122 1.91284E+01 7.73807E-01 1.03497E-03 2.80771E-01 1.89142E-13-3.27912E-13
 -1      4123 2.03716E+01 1.06823E+00 7.31121E-03 3.95676E-02 1.44141E-13-3.67876E-13
 -1      4124 2.03142E+01 1.25564E+00-3.44188E-03 3.39445E-02 1.55310E-13-4.05137E-13
 -1      4125 2.03108E+01 1.28027E+00-2.13207E-03-2.05282E-02 9.72199E-14-4.00963E-13
 -1      4126 2.03947E+01 5.43700E-01 1.62362E-03 8.35255E-03 1.19696E-14-2.71774E-13
 -1      4127 1.93908E+01-7.21875E-01-9.60515E-03 2.10915E+00-9.10730E-15 3.37840E-13
 -1      4128 1.95293E+01-1.00439E+00 1.65183E-02 2.34122E+00 1.33476E-14 4.91653E-13
 -1      4129 1.84971E+01-7.91607E-01 1.14426E-02 2.72441E+00-3.51478E-14 4.09004E-13
 -1      4130 1.88499E+01-3.91173E-01 2.82889E-03 2.14058E+00-1.11652E-13 5.16720E-13
 -1      4131 2.01803E+01 1.50002E-01 1.09608E-04-2.09561E-01 8.79213E-14-1.74222E-13
 -1      4132 2.02134E+01 1.54697E-01-2.94169E-05-1.88722E-01 5.61348E-14-1.45513E-13
 -1      4133 2.02471E+01 1.81155E-01 2.12612E-04-1.50865E-01 6.51674E-14-1.73879E-13
 -1      4134 1.85880E+01-1.30419E+00 2.19839E-02-3.18089E+00-3.77186E-13-6.28187E-14
 -1      4135 1.97478E+01 3.69202E-01-1.92630E-03-4.43283E-01 8.23498E-15-1.07169E-14
 -1      4136 1.97339E+01 3.89632E-01 1.05011E-03-3.75340E-01 3.13029E-14 6.11025E-14
 -1      4137 1.97060E+01 4.01966E-01 1.42267E-03-4.89424E-01 1.25316E-14-2.94207E-14
 -1      4138 1.62748E+01 4.24307E-01 6.93985E-03-2.05204E+00-2.21774E-13-6.61745E-14
 -1      4139 1.94702E+01 6.56537E-01-1.48419E-03-9.59154E-02-1.29460E-13-3.11226E-13
 -1      4140 1.94607E+01 6.55380E-01-1.86242E-03-2.34529E-02-7.61600E-14-4.19362E-13
 -1      4141 2.03804E+01 7.97560E-01-1.80307E-03 5.07748E-02 1.58470E-13-2.96684E-13
 -1      4142 1.94133E+01 6.92608E-01 5.50828E-05-1.13653E-01-1.02171E-13-3.01369E-13
 -1      4143 1.67366E+01 1.23151E+00-9.10514E-03 2.69824E-01 1.53011E-13-2.81701E-13
 -1      4144 1.71771E+01 1.22044E+00-6.08690E-03 1.93322E-01 3.06061E-13-2.26660E-13
 -1      4145 1.81527E+01-7.92877E-01 1.78948E-02-2.82903E+00-2.83930E-13-9.90683E-14
 -1      4146 2.00637E+01 2.28203E-01-5.05129E-04 1.02458E-01-1.62648E-14-1.19643E-13
 -1      4147 2.00039E+01 2.57760E-01-5.08586E-04 1.10676E-01-2.22402E-14-1.35501E-13
 -1      4148 1.99353E+01 2.94764E-01-6.93921E-04 1.11681E-01-9.88973E-15-1.29842E-13
 -1      4149 1.98644E+01 3.38589E-01-8.38091E-04 1.19038E-01 2.29180E-14-1.58967E-13
 -1      4150 1.99697E+01 2.83337E-01 1.13483E-03 5.32488E-02-2.20975E-14-9.80773E-14
 -1      4151 1.97843E+01 3.88117E-01-9.04409E-04 1.18035E-01 1.01721E-14-1.91922E-13
 -1      4152 1.96983E+01 4.42590E-01-1.70652E-03 1.23684E-01-7.49778E-14-2.57114E-13
 -1      4153 1.98243E+01 3.70066E-01 2.18256E-03 5.07870E-02-1.86272E-14-1.23353E-13
 -1      4154 1.96031E+01 5.02731E-01-1.33531E-03 1.21063E-01-9.94295E-14-2.21420E-13
 -1      4155 1.94995E+01 5.65467E-01-2.21081E-03 1.24420E-01-4.05893E-14-2.05554E-13
 -1      4156 1.96488E+01 4.82683E-01 3.88976E-03 4.18995E-02-4.02018E-14-1.56801E-13
 -1      4157 1.93859E+01 6.31729E-01-1.51276E-03 1.16932E-01-4.65882E-16-2.26500E-13
 -1      4158 1.92590E+01 6.99540E-01-2.49376E-03 1.16099E-01-5.59038E-14-1.78800E-13
 -1      4159 1.94406E+01 6.05295E-01 4.53162E-03 2.08147E-02-4.81436E-14-1.41227E-13
 -1      4160 1.91207E+01 7.67644E-01-1.81066E-03 9.68306E-02-6.53093E-14-1.22010E-13
 -1      4161 1.89560E+01 8.35294E-01-5.43544E-03 8.68662E-02-3.42452E-14-3.43117E-14
 -1      4162 1.91980E+01 7.30276E-01 5.73225E-03-1.54179E-02 1.64472E-14-1.54155E-13
 -1      4163 1.87898E+01 9.04788E-01-2.19512E-03 6.02232E-02-5.33633E-14 1.65071E-14
 -1      4164 1.85820E+01 9.67098E-01-7.30167E-03 3.78165E-02-4.36727E-14 5.84577E-14
 -1      4165 1.88872E+01 8.71760E-01 1.00641E-02-7.45213E-02 1.01836E-14-3.76127E-14
 -1      4166 1.83767E+01 1.02883E+00-2.75384E-03-7.60810E-03-7.19761E-14 6.06017E-14
 -1      4167 1.81113E+01 1.07891E+00-9.49847E-03-4.71693E-02-5.38073E-14-2.73947E-14
 -1      4168 1.85148E+01 9.90814E-01 1.41931E-02-1.75794E-01-4.49697E-14 1.17988E-14
 -1      4169 1.78521E+01 1.12586E+00-3.51565E-03-1.20922E-01-6.96174E-14-3.23977E-14
 -1      4170 1.75039E+01 1.15528E+00-1.31159E-02-1.83042E-01-9.17861E-14-4.88904E-14
 -1      4171 1.80506E+01 1.07730E+00 1.73978E-02-3.31287E-01-5.67996E-14 1.91154E-14
 -1      4172 1.71682E+01 1.18000E+00-4.80581E-03-2.96376E-01-3.74342E-14-7.92856E-14
 -1      4173 1.66781E+01 1.17649E+00-2.47658E-02-3.83566E-01 3.77419E-14-4.71769E-14
 -1      4174 1.74604E+01 1.11888E+00 2.16027E-02-5.63721E-01-4.96915E-14 9.81639E-14
 -1      4175 2.01734E+01 1.95320E-01-3.57570E-04 9.09585E-02 2.30044E-14-1.45921E-13
 -1      4176 2.01224E+01 2.07058E-01-3.88906E-04 1.00392E-01 6.76496E-15-1.35989E-13
 -1      4177 2.00955E+01 2.25414E-01 7.73952E-04 5.19006E-02 3.07486E-15-1.21773E-13
 -1      4178 1.85057E+01 2.97144E-01-8.71913E-03 1.53081E+00-1.75346E-13 3.58670E-13
 -1      4179 1.85268E+01 1.11096E-01 2.91440E-03 1.75294E+00-1.65346E-13 3.66683E-13
 -1      4180 1.89136E+01 5.96765E-01 2.86606E-03-9.05815E-01-2.47356E-14-1.67956E-14
 -1      4181 1.89775E+01 6.14952E-01-6.78109E-03-7.94693E-01 4.52393E-14 1.84908E-14
 -1      4182 1.75217E+01 1.20142E+00-1.02418E-02 9.51014E-02 2.48435E-13-3.79598E-13
 -1      4183 1.78591E+01 1.16829E+00-4.28018E-03 4.79403E-02 2.24478E-13-4.05237E-13
 -1      4184 1.74371E+01 1.16731E+00 1.58323E-02 4.60328E-01 1.59248E-13-1.88097E-13
 -1      4185 1.81239E+01 1.12645E+00-7.38117E-03-1.77047E-02 2.25112E-13-4.12053E-13
 -1      4186 1.83803E+01 1.07608E+00-3.04889E-03-4.24221E-02 2.87513E-13-3.61359E-13
 -1      4187 1.80342E+01 1.11934E+00 1.05180E-02 2.57950E-01 1.76840E-13-3.77399E-13
 -1      4188 1.85870E+01 1.02072E+00-5.58876E-03-8.56356E-02 2.60023E-13-4.67609E-13
 -1      4189 1.87769E+01 9.59665E-01-4.99999E-03-9.06552E-02 1.29474E-13-4.93536E-13
 -1      4190 1.84969E+01 1.02692E+00 3.97315E-03 1.24751E-01 1.76260E-13-2.99182E-13
 -1      4191 1.89644E+01 8.82125E-01-3.33664E-03-2.86718E-02 2.23427E-13-4.44887E-13
 -1      4192 1.91105E+01 8.21711E-01-2.87618E-03-3.46059E-02 3.40134E-13-3.45276E-13
 -1      4193 1.61760E+01 1.12003E+00 1.33666E-03-6.98593E-01-8.24961E-14-1.05743E-13
 -1      4194 2.02651E+01 2.04675E-01-3.97533E-04 7.58370E-02 3.27963E-14-1.61176E-13
 -1      4195 2.02228E+01 1.94665E-01-2.30629E-04 8.79822E-02 5.39446E-14-1.38914E-13
 -1      4196 2.02029E+01 2.03838E-01 6.19112E-04 4.76884E-02 2.53137E-14-1.58020E-13
 -1      4197 1.79536E+01-3.79595E-01 2.80907E-03-2.51121E+00-2.44429E-13-1.58197E-13
 -1      4198 1.90977E+01 6.71375E-01-4.04033E-03 6.56182E-01-8.84140E-14 2.43540E-13
 -1      4199 1.90313E+01 6.68746E-01 3.95492E-03 7.53333E-01 1.09792E-14 3.21896E-13
 -1      4200 1.88925E+01 6.39208E-01-5.83185E-03 8.73070E-01-3.68283E-14 2.70527E-13
 -1      4201 1.88370E+01 5.99357E-01 4.41658E-03 9.96134E-01-1.06620E-14 2.93845E-13
 -1      4202 1.87961E+01 7.58808E-01 3.86982E-03 7.21627E-01 2.13092E-14 1.84058E-14
 -1      4203 1.56850E+01 1.26030E+00 1.13899E-03 1.92135E-01-1.68009E-13-4.15143E-13
 -1      4204 1.62120E+01 1.25057E+00-1.58858E-02 2.83410E-01-3.71103E-14-3.63268E-13
 -1      4205 1.54102E+01 1.20654E+00 2.46331E-02 6.83200E-01-1.06431E-13-4.32608E-13
 -1      4206 2.04136E+01 6.14457E-01 4.21553E-03-7.90616E-03 4.60387E-14-2.76710E-13
 -1      4207 2.04003E+01 4.89853E-01-1.62454E-03 1.94373E-02 2.26252E-14-2.78722E-13
 -1      4208 2.03380E+01 2.67464E-01-3.71006E-04 5.55993E-02-5.51217E-15-1.54470E-13
 -1      4209 2.03054E+01 2.29408E-01-1.62610E-04 7.20439E-02 1.67322E-14-1.66261E-13
 -1      4210 2.02916E+01 2.28744E-01 3.10722E-04 4.00055E-02 4.08962E-14-1.42107E-13
 -1      4211 2.03876E+01 3.97448E-01-2.36908E-04 2.84641E-02-6.54567E-15-2.21756E-13
 -1      4212 2.03668E+01 3.23403E-01-3.61770E-04 5.02042E-02-2.87410E-14-2.11092E-13
 -1      4213 2.03992E+01 4.65940E-01 4.65494E-04 1.20990E-02 5.75773E-14-2.49708E-13
 -1      4214 1.91192E+01 6.22283E-01 2.91780E-03-6.89731E-01 1.06878E-14 4.51202E-14
 -1      4215 1.91912E+01 6.07225E-01-4.61075E-03-6.07281E-01-5.29991E-15 3.98522E-14
 -1      4216 1.89122E+01 7.22534E-01 9.64718E-03-6.54181E-01 2.01389E-14-8.01597E-14
 -1      4217 1.93192E+01 7.31106E-01 2.17240E-03 2.47438E-02-4.30111E-14-5.15827E-13
 -1      4218 2.04056E+01 6.40993E-01 4.31801E-03 1.98355E-02 1.44224E-13-2.87173E-13
 -1      4219 2.03853E+01 8.24512E-01-3.81229E-03 3.84981E-02 1.43057E-13-3.32625E-13
 -1      4220 2.03749E+01 8.58677E-01-4.36304E-03-4.87612E-02 4.78735E-14-2.92034E-13
 -1      4221 2.03049E+01 2.28667E-01-3.23334E-04-1.31665E-01 9.31308E-14-1.51060E-13
 -1      4222 2.03304E+01 2.81348E-01 1.06048E-04-9.97316E-02 7.87947E-14-2.19022E-13
 -1      4223 2.03521E+01 3.24576E-01-3.49041E-04-7.83958E-02 8.26513E-14-2.07607E-13
 -1      4224 2.03089E+01 2.33273E-01 2.27159E-04-1.16649E-01 5.03276E-14-1.37229E-13
 -1      4225 1.86890E+01 5.29900E-01-6.05446E-03 1.15607E+00-2.93545E-15 1.99462E-13
 -1      4226 1.86602E+01 4.34511E-01 6.66056E-03 1.31942E+00-7.73175E-14 2.35773E-13
 -1      4227 1.82435E+01 5.40300E-01 3.91157E-03 1.36066E+00-5.08597E-14 2.67031E-13
 -1      4228 1.85260E+01 7.00617E-01 4.22968E-03 9.89141E-01-3.34101E-14 9.06324E-14
 -1      4229 1.93497E+01 7.24815E-01-1.13325E-03-1.30054E-01 3.14070E-14-2.51098E-13
 -1      4230 1.71975E+01 1.21030E-01 8.13323E-03-2.27856E+00-1.95604E-13-5.17143E-14
 -1      4231 1.84130E+01-1.21010E-01 1.71701E-02-2.04966E+00-2.05035E-13-9.52996E-14
 -1      4232 1.82885E+01 1.06185E-01-1.33670E-02-1.81727E+00-1.69247E-13-1.43561E-13
 -1      4233 1.67809E+01 5.52706E-01-3.14889E-02-1.69352E+00-1.55200E-13-8.45305E-14
 -1      4234 1.66121E+01 1.03242E+00 2.67252E-02-1.05426E+00-1.08482E-13-5.74053E-14
 -1      4235 1.73013E+01 7.54315E-01 6.59593E-03-1.29387E+00-1.20255E-13-3.28832E-14
 -1      4236 1.66115E+01 1.19910E+00 2.20386E-02 6.33514E-01 1.23034E-13-5.39308E-14
 -1      4237 1.78495E+01 5.23159E-01 1.44326E-02-1.54699E+00-1.41143E-13-1.50155E-13
 -1      4238 1.84680E+01 3.31518E-01 1.16623E-02-1.50624E+00-1.25537E-13-1.24485E-13
 -1      4239 1.84669E+01 4.45668E-01-1.13016E-02-1.32189E+00-1.10283E-13-7.81181E-14
 -1      4240 1.74604E+01 8.47815E-01-2.57071E-02-9.99821E-01-8.76647E-14 2.14677E-14
 -1      4241 2.01368E+01 1.54422E-01-3.88701E-04-2.24876E-01 1.23518E-13-1.46226E-13
 -1      4242 2.01669E+01 1.70556E-01 2.53841E-04-1.84113E-01 9.45475E-14-1.57475E-13
 -1      4243 2.01017E+01 1.66863E-01 5.24435E-04-2.45485E-01 1.40348E-13-1.57246E-13
 -1      4244 1.78114E+01 3.53177E-01 5.26409E-03 1.76931E+00-1.07254E-13 3.42617E-13
 -1      4245 1.82068E+01 1.02162E-02-1.33008E-02 1.95853E+00-1.73779E-13 4.21835E-13
 -1      4246 1.80393E+01-1.09659E-01 6.42531E-03 2.19864E+00-1.40588E-14 4.42254E-13
 -1      4247 1.98027E+01 3.54846E-01 4.94025E-04-2.63198E-01 1.13221E-14 6.61234E-14
 -1      4248 1.98623E+01 3.13875E-01-1.22703E-03-2.35069E-01 4.21501E-14 1.27002E-15
 -1      4249 1.92750E+01 7.49876E-01-2.23191E-03-4.63577E-02 1.21431E-13-3.51622E-13
 -1      4250 2.03676E+01 1.10302E+00 6.27541E-03-3.26873E-02 8.37710E-14-3.65999E-13
 -1      4251 1.88906E+01 8.99639E-01 3.35002E-03 1.27143E-01 3.14826E-13-4.40127E-13
 -1      4252 1.92232E+01 6.72750E-01 1.00746E-03 5.38327E-01-1.62519E-13-7.86064E-14
 -1      4253 1.95956E+01 4.61655E-01 1.04644E-03-4.64526E-01 7.11195E-15 3.79408E-15
 -1      4254 2.03595E+01 3.10154E-01 2.09673E-04 2.83600E-02 3.81849E-14-1.71553E-13
 -1      4255 1.90489E+01 7.45271E-01-1.04358E-03 4.95716E-01 1.14811E-13 3.41383E-14
 -1      4256 1.56505E+01 1.01296E+00-1.70829E-02 1.10125E+00-1.23104E-13-1.54244E-13
 -1      4257 2.03832E+01 8.53430E-01-4.30221E-03 1.04542E-02 1.15219E-13-3.41354E-13
 -1      4258 2.03859E+01 8.08234E-01-2.49884E-03-3.05978E-02 4.42242E-14-3.02011E-13
 -1      4259 2.00150E+01 2.09033E-01 6.56300E-04-2.86462E-01 1.34273E-13-7.97269E-14
 -1      4260 2.00517E+01 1.84490E-01-9.71036E-04-2.63404E-01 1.54562E-13-1.09355E-13
 -1      4261 2.00752E+01 1.95824E-01 5.32715E-04-2.17719E-01 1.25983E-13-1.24181E-13
 -1      4262 1.99736E+01 2.45420E-01 6.12671E-04-2.57042E-01 1.06591E-13 6.01868E-16
 -1      4263 2.02375E+01 1.82623E-01-4.96938E-04-1.24898E-01 6.04580E-14-2.09982E-13
 -1      4264 2.02761E+01 1.99291E-01-4.16792E-05-1.07516E-01 4.82647E-14-2.11656E-13
 -1      4265 1.91540E+01 6.65856E-01 1.93031E-03-4.79992E-01-4.62792E-16 3.49548E-14
 -1      4266 1.93137E+01 5.90170E-01 2.02704E-03-5.32460E-01-6.32925E-15 5.91954E-14
 -1      4267 1.93887E+01 5.57849E-01-2.49394E-03-4.67952E-01-5.27678E-15 4.31622E-14
 -1      4268 1.96571E+01 4.40420E-01 9.17799E-04-3.26904E-01 2.40772E-14 6.13976E-14
 -1      4269 1.97215E+01 3.95784E-01-1.99869E-03-2.90714E-01 3.18321E-14 9.90730E-14
 -1      4270 1.97333E+01 4.02099E-01 4.97786E-04-2.12746E-01 2.48963E-15 6.28289E-14
 -1      4271 1.77925E+01-3.04437E-01-2.32022E-02 2.44982E+00-8.93513E-15 3.68835E-13
 -1      4272 1.75743E+01-4.83472E-01 3.51355E-03 2.77166E+00-1.70968E-13 2.33258E-13
 -1      4273 1.67728E+01-1.62653E-01 1.09765E-02 2.76156E+00-1.93798E-13 2.70329E-13
 -1      4274 1.72564E+01 1.96906E-01 1.95080E-02 2.18474E+00-1.08373E-13 3.46190E-13
 -1      4275 1.86845E+01 5.11118E-01 4.29023E-03-1.16491E+00-1.24534E-13-7.08361E-14
 -1      4276 1.87323E+01 5.73662E-01-8.36647E-03-1.01866E+00-6.64474E-14-3.77703E-14
 -1      4277 1.86213E+01 7.36375E-01 1.35785E-02-8.54455E-01-8.18171E-15 3.57960E-15
 -1      4278 1.82468E+01 7.11270E-01 1.56734E-02-1.09936E+00-7.17083E-14 7.60980E-15
 -1      4279 2.03923E+01 5.15043E-01-1.38124E-03-1.57826E-02 1.35804E-13-2.65603E-13
 -1      4280 2.02979E+01 2.24704E-01-4.53593E-05-7.45084E-02 5.94008E-14-2.59440E-13
 -1      4281 2.03065E+01 2.23680E-01-3.41841E-04-1.00338E-01 4.32704E-14-2.07405E-13
 -1      4282 2.03344E+01 2.57831E-01 2.96456E-04-8.15849E-02 5.54647E-14-2.21276E-13
 -1      4283 1.89153E+01 8.53364E-01-8.56330E-04 2.70287E-01 2.49290E-13-3.35628E-13
 -1      4284 1.89679E+01 8.13060E-01-2.79120E-04 3.71027E-01 1.56312E-13-2.18769E-13
 -1      4285 1.88282E+01 8.22674E-01-1.95928E-03 4.91739E-01 1.35772E-13-4.96423E-14
 -1      4286 1.87266E+01 9.33468E-01 2.29118E-03 2.17415E-01 1.51647E-13-3.00329E-13
 -1      4287 2.03877E+01 4.02196E-01 2.20695E-03-3.62579E-02 9.38789E-14-2.29514E-13
 -1      4288 2.04025E+01 5.33017E-01 2.48293E-04-7.83024E-03 1.13937E-13-2.58537E-13
 -1      4289 1.98628E+01 3.35623E-01-5.37414E-04-1.61229E-02-2.51262E-14-4.62420E-14
 -1      4290 1.97794E+01 3.83212E-01-1.62083E-03-1.91649E-02-1.45908E-14-8.82108E-14
 -1      4291 1.96829E+01 4.37374E-01-1.15590E-03-9.54952E-02-8.48659E-16-5.85181E-14
 -1      4292 1.95841E+01 4.91262E-01-3.09370E-03-1.07857E-01-2.76238E-14-2.14110E-14
 -1      4293 1.92667E+01 6.63670E-01-3.40686E-03-1.18340E-01 5.29585E-14-7.94276E-14
 -1      4294 1.91241E+01 7.28520E-01-4.37757E-03-1.41044E-01 9.01057E-14-1.28885E-14
 -1      4295 1.90002E+01 7.54734E-01-2.70834E-03-3.00266E-01 4.36980E-14-1.64895E-14
 -1      4296 1.88223E+01 7.99246E-01-9.22613E-03-3.52288E-01-5.36084E-15 1.75614E-15
 -1      4297 1.86842E+01 8.24414E-01-5.61016E-03-4.43261E-01 1.58077E-16 2.47082E-14
 -1      4298 1.84695E+01 8.55243E-01-1.28592E-02-5.18559E-01-9.84412E-15 4.51405E-14
 -1      4299 1.82951E+01 8.76150E-01-7.15183E-03-6.08371E-01-5.63981E-14 2.88064E-14
 -1      4300 1.80277E+01 8.82716E-01-1.67853E-02-7.17005E-01-5.02541E-14 3.95492E-14
 -1      4301 1.78200E+01 8.85407E-01-5.96861E-03-8.41872E-01-7.02984E-14 2.33939E-14
 -1      4302 1.59463E+01 2.24663E-01 1.95504E-02 2.48903E+00-1.66624E-13 2.30354E-13
 -1      4303 1.61553E+01 4.56024E-01 8.40124E-03 2.06249E+00-2.28470E-13 1.70375E-13
 -1      4304 1.79787E+01 1.01388E+00-1.04624E-02 5.14933E-01 1.18653E-13-2.14639E-13
 -1      4305 1.82572E+01 1.00531E+00 1.28934E-03 4.14701E-01 1.44387E-13-2.60528E-13
 -1      4306 1.85069E+01 9.74721E-01-4.76178E-03 2.78434E-01 8.84426E-14-2.62017E-13
 -1      4307 1.60953E+01 8.62061E-01 2.15916E-02 1.50024E+00-1.21419E-13 1.65926E-13
 -1      4308 1.64038E+01 9.89673E-01 2.27491E-03 1.07502E+00 7.37227E-14 1.17907E-16
 -1      4309 1.68751E+01 9.79204E-01-6.22561E-03 9.91672E-01 1.95891E-13 1.47670E-13
 -1      4310 1.68005E+01 4.33732E-01-9.23010E-03 1.93081E+00-1.11490E-13 3.01483E-13
 -1      4311 2.01255E+01 2.10312E-01-3.43496E-04 6.65983E-04 2.30953E-14-1.75258E-13
 -1      4312 2.00670E+01 2.30258E-01-4.83812E-04 1.92996E-03 1.49633E-14-1.60558E-13
 -1      4313 1.86915E+01 8.29243E-01 4.41831E-04 5.92018E-01-1.30008E-14-2.05256E-13
 -1      4314 2.03667E+01 3.34506E-01-7.85841E-04-5.94543E-02 6.71038E-14-2.03292E-13
 -1      4315 2.03902E+01 7.99193E-01-2.64431E-03-2.33061E-03 8.48536E-14-3.13329E-13
 -1      4316 1.92057E+01 7.81882E-01-3.37071E-03-6.18037E-02 1.75192E-13-4.08088E-13
 -1      4317 1.94925E+01 5.21428E-01 4.88101E-04-4.15708E-01-1.19539E-14 8.69354E-14
 -1      4318 1.95619E+01 4.81066E-01-2.97278E-03-3.67575E-01 3.06731E-14 6.09756E-14
 -1      4319 1.95652E+01 5.04467E-01 3.75296E-03-2.76909E-01-7.98596E-16 1.59050E-13
 -1      4320 2.02285E+01 2.00014E-01-7.30289E-04 3.60092E-03 3.84447E-14-2.14847E-13
 -1      4321 2.01793E+01 1.99819E-01-4.15249E-04 6.02796E-03 2.42063E-14-2.18181E-13
 -1      4322 2.01543E+01 2.07436E-01 7.38967E-04-4.40440E-02 4.95623E-14-2.46891E-13
 -1      4323 2.04184E+01 6.21783E-01 4.26622E-03 6.65537E-03 8.43705E-14-2.80995E-13
 -1      4324 1.98809E+01 3.15875E-01 5.19168E-04-1.70375E-01 1.84082E-14-5.43624E-14
 -1      4325 1.99325E+01 2.76979E-01 3.18470E-04-2.15759E-01 7.64691E-14-4.67474E-14
 -1      4326 1.99856E+01 2.43691E-01-1.03104E-03-1.93627E-01 9.45596E-14-7.73550E-14
 -1      4327 2.03015E+01 2.27569E-01-3.98938E-04-2.04446E-02 5.04448E-14-2.12637E-13
 -1      4328 2.02612E+01 2.05833E-01 3.26757E-04-1.85913E-02 3.49846E-14-2.20751E-13
 -1      4329 2.04039E+01 4.81865E-01-2.20897E-03-8.22397E-03 7.37699E-14-2.77160E-13
 -1      4330 2.03932E+01 3.92184E-01 5.05432E-04 1.77414E-03 8.16679E-14-2.46104E-13
 -1      4331 2.03614E+01 3.06678E-01-8.08421E-04-1.68623E-02 7.71562E-14-2.50598E-13
 -1      4332 2.03330E+01 2.57145E-01 6.29016E-04-1.19663E-02 6.42076E-14-2.13677E-13
 -1      4333 2.02095E+01 1.84604E-01 1.31233E-04-1.03468E-01 5.19348E-14-1.99920E-13
 -1      4334 2.02380E+01 2.00417E-01 4.67816E-04-6.27942E-02 2.73943E-14-2.42584E-13
 -1      4335 2.00043E+01 2.58510E-01-3.33309E-04-5.40799E-03-3.14782E-14-1.17751E-13
 -1      4336 1.99357E+01 2.94017E-01-6.82026E-04-6.19180E-03-2.36167E-14-7.45547E-14
 -1      4337 1.99055E+01 3.11721E-01 7.67666E-04-7.51166E-02-1.25776E-14-4.49205E-14
 -1      4338 2.00388E+01 2.42057E-01 1.88257E-04-5.55359E-02 9.40778E-15-1.82228E-13
 -1      4339 1.73124E+01 1.01762E+00-1.24499E-02 7.90219E-01 9.06188E-14-3.83920E-14
 -1      4340 1.76688E+01 1.03473E+00-6.49186E-04 6.45795E-01 3.96826E-14-1.73015E-13
 -1      4341 1.79685E+01 9.30593E-01 8.13598E-03 8.08211E-01 1.67112E-14-3.64118E-15
 -1      4342 1.72311E+01 8.71790E-01 1.07141E-02 1.18755E+00 6.44611E-14 1.70909E-13
 -1      4343 2.01650E+01 1.86080E-01-3.72944E-04-1.18385E-01 6.73592E-14-1.86971E-13
 -1      4344 1.94909E+01 5.44509E-01-1.84898E-03-1.39147E-01-6.28419E-14 3.40023E-14
 -1      4345 1.93788E+01 6.04020E-01-2.15522E-03-1.59432E-01-2.08396E-14 5.37874E-14
 -1      4346 1.93737E+01 5.87205E-01 1.21086E-03-3.65290E-01-1.29062E-14 1.31438E-13
 -1      4347 1.84339E+01 8.23240E-01-8.91939E-03 7.53104E-01-1.03996E-13-2.58385E-14
 -1      4348 1.83041E+01 7.97790E-01 2.24363E-03 9.01822E-01-6.40058E-14-2.50437E-14
 -1      4349 1.70592E+01 5.48263E-01-8.05468E-03 1.70500E+00 1.05064E-14 3.86474E-13
 -1      4350 1.85196E+01 9.18916E-01 5.14181E-03 5.04565E-01 6.61676E-14-2.66251E-13
 -1      4351 2.03639E+01 3.25086E-01 2.43580E-04-4.30973E-02 7.55898E-14-2.28747E-13
 -1      4352 1.98221E+01 3.53971E-01 4.98353E-04-1.37992E-01 1.40894E-14 2.62938E-15
 -1      4353 1.98891E+01 3.10589E-01-1.21834E-03-1.21378E-01 1.39254E-14-5.46302E-14
 -1      4354 1.79789E+01 7.59409E-01-1.17207E-02 1.06914E+00 1.00094E-15 1.25248E-13
 -1      4355 1.78467E+01 6.81504E-01 3.22557E-03 1.27745E+00-2.41058E-14 1.66724E-13
 -1      4356 1.91332E+01 6.94439E-01 3.21945E-03-3.93279E-01 3.45765E-14 2.72830E-14
 -1      4357 1.74232E+01 5.95861E-01-7.66528E-03 1.53460E+00-3.07159E-14 2.86112E-13
 -1      4358 1.97421E+01 4.03666E-01 1.41021E-03-1.60441E-01-6.89376E-15 3.56298E-14
 -1      4359 1.99632E+01 2.74425E-01 8.48721E-04-1.07663E-01 1.17445E-14-8.36001E-14
 -1      4360 2.01108E+01 1.97315E-01-5.37000E-04-1.25342E-01 7.18854E-14-1.73881E-13
 -1      4361 1.93576E+01 6.10708E-01 1.92768E-03-2.80932E-01 4.14366E-14 1.67755E-13
 -1      4362 2.00612E+01 2.17433E-01 2.50667E-05-1.42012E-01 8.67791E-14-1.41531E-13
 -1      4363 1.92572E+01 6.47911E-01 5.86783E-04-3.28374E-01 3.16750E-14 5.34253E-14
 -1      4364 2.00235E+01 2.45729E-01 2.53262E-04-9.83428E-02 4.54613E-14-1.50566E-13
 -3
    1PSTEP                         3           1           1          
  100CL  101 1.000000000        4364                     0    1           1
 -4  TOSTRAIN    6    1
 -5  EXX         1    4    1    1
 -5  EYY         1    4    2    2
 -5  EZZ         1    4    3    3
 -5  EXY         1    4    1    2
 -5  EYZ         1    4    2    3
 -5  EZX         1    4    3    1
 -1         1 2.19408E-05-7.94150E-05 1.38932E-05-2.76225E-05-1.61169E-17-5.29655E-18
 -1         2 3.65921E-05-1.11539E-04 2.01883E-05 1.06557E-06 7.48992E-18 4.54116E-19
 -1         3 9.52152E-05-2.85942E-05-2.85153E-05-1.52547E-08-2.71690E-18-2.67124E-18
 -1         4 9.52127E-05-2.85963E-05-2.85077E-05 1.53347E-08 8.03307E-19 6.31214E-19
 -1         5 1.43202E-04-2.14580E-05-4.24843E-05 3.85059E-05-3.95353E-19 2.63833E-17
 -1         6 1.45267E-04 2.57254E-10-4.41423E-05-5.34897E-05-1.59115E-18 2.07269E-17
 -1         7 9.05254E-05-5.09306E-07-3.90343E-05-2.92471E-05-2.26793E-19 2.06798E-18
 -1         8 8.50791E-05 8.64598E-08-3.63193E-05-2.02777E-05-2.37275E-19-3.17007E-18
 -1         9 8.28020E-05 7.55536E-08-3.53446E-05-1.56477E-05-1.81728E-19-5.88741E-18
 -1        10 8.17844E-05 3.90368E-08-3.48864E-05-1.20845E-05-1.22052E-19-7.06622E-18
 -1        11 8.12869E-05 1.85766E-08-3.46667E-05-9.01782E-06-8.09380E-20-7.41832E-18
 -1        12 8.10325E-05 8.41271E-09-3.45586E-05-6.28553E-06 1.14316E-21-7.40627E-18
 -1        13 8.09002E-05 3.88908E-09-3.45050E-05-3.68529E-06 2.58527E-20-7.20928E-18
 -1        14 8.08454E-05 2.06776E-09-3.44834E-05-1.18304E-06 7.39593E-20-6.99388E-18
 -1        15 8.08472E-05 2.06096E-09-3.44840E-05 1.28943E-06 1.04800E-19-6.68868E-18
 -1        16 8.09058E-05 3.84152E-09-3.45070E-05 3.79662E-06 1.35082E-19-6.27753E-18
 -1        17 8.10429E-05 7.71303E-09-3.45619E-05 6.40845E-06 1.60643E-19-5.67129E-18
 -1        18 8.13031E-05 1.74838E-08-3.46713E-05 9.15926E-06 2.03910E-19-4.79413E-18
 -1        19 8.18092E-05 3.75645E-08-3.48944E-05 1.22636E-05 2.78594E-19-3.40109E-18
 -1        20 8.28217E-05 8.10578E-08-3.53568E-05 1.58777E-05 3.31587E-19-1.08075E-18
 -1        21 8.50442E-05 1.69419E-07-3.63577E-05 2.04875E-05 3.68989E-19 3.03244E-18
 -1        22 9.15632E-05-9.82184E-08-3.87063E-05 2.79942E-05 3.77988E-20 1.07115E-17
 -1        23 1.12835E-04-3.80793E-05-3.53551E-05-4.40296E-06-1.10652E-18 1.52704E-17
 -1        24 9.26699E-05-2.76568E-05-2.89583E-05 3.90024E-07-2.68298E-19 1.07851E-17
 -1        25 8.89809E-05-2.68108E-05-2.68877E-05 3.74612E-07-1.20274E-19 6.51203E-18
 -1        26 8.78760E-05-2.64468E-05-2.63499E-05 2.02751E-07-1.40289E-19 3.21354E-18
 -1        27 8.79062E-05-2.64265E-05-2.63431E-05 1.38197E-07-7.15031E-20 7.69748E-19
 -1        28 8.84525E-05-2.65670E-05-2.65167E-05 9.88128E-08-2.12486E-20-8.28478E-19
 -1        29 8.92354E-05-2.67884E-05-2.67579E-05 7.28394E-08-3.34026E-21-1.98310E-18
 -1        30 9.01125E-05-2.70443E-05-2.70242E-05 5.43433E-08-5.65972E-20-3.23930E-18
 -1        31 9.10114E-05-2.73102E-05-2.72958E-05 4.05439E-08-3.33045E-20-4.60015E-18
 -1        32 9.19014E-05-2.75753E-05-2.75646E-05 3.01160E-08-6.94296E-20-5.53410E-18
 -1        33 9.27810E-05-2.78386E-05-2.78307E-05 2.24163E-08 1.69143E-19-5.87094E-18
 -1        34 9.36708E-05-2.81058E-05-2.81003E-05 1.71715E-08-1.63351E-19-6.47392E-18
 -1        35 9.46098E-05-2.83885E-05-2.83852E-05 1.43705E-08-1.88464E-19-7.12729E-18
 -1        36 9.56543E-05-2.87034E-05-2.87024E-05 1.42549E-08 2.16371E-19-6.76488E-18
 -1        37 9.68777E-05-2.90723E-05-2.90744E-05 1.73666E-08-8.96395E-20-6.47855E-18
 -1        38 9.83720E-05-2.95227E-05-2.95289E-05 2.46405E-08-2.52419E-19-6.52142E-18
 -1        39 1.00248E-04-3.00875E-05-3.00997E-05 3.75199E-08 1.14029E-19-7.00395E-18
 -1        40 1.02636E-04-3.08049E-05-3.08255E-05 5.80421E-08 5.67558E-20-6.55657E-18
 -1        41 1.05672E-04-3.17152E-05-3.17470E-05 8.87283E-08-8.29898E-20-8.10220E-18
 -1        42 1.09482E-04-3.28546E-05-3.28989E-05 1.31859E-07-7.67475E-20-8.83056E-18
 -1        43 1.14124E-04-3.42392E-05-3.42919E-05 1.87218E-07-3.44107E-22-7.46665E-18
 -1        44 1.19483E-04-3.58350E-05-3.58780E-05 2.46656E-07 1.45962E-19-6.47778E-18
 -1        45 1.25097E-04-3.75062E-05-3.74961E-05 2.83565E-07-2.83047E-19-7.22945E-18
 -1        46 1.29916E-04-3.89457E-05-3.88079E-05 2.38539E-07 2.58100E-19-8.52122E-18
 -1        47 1.32119E-04-3.96187E-05-3.92752E-05 1.59479E-08 2.19468E-20-6.27004E-18
 -1        48 1.29362E-04-3.88226E-05-3.82923E-05-4.64825E-07 2.42136E-19-4.45968E-18
 -1        49 1.19999E-04-3.60366E-05-3.55669E-05-1.11871E-06 3.19871E-19-4.15687E-18
 -1        50 1.05339E-04-3.16086E-05-3.16501E-05-1.53363E-06 1.06218E-19-4.70950E-18
 -1        51 9.11686E-05-2.72745E-05-2.80846E-05-1.15851E-06-2.11990E-20-4.41913E-18
 -1        52 8.53358E-05-2.54770E-05-2.66644E-05 2.29944E-08 2.89268E-19-3.95185E-18
 -1        53 9.15502E-05-2.73921E-05-2.81765E-05 1.18701E-06-2.30214E-19-5.01766E-18
 -1        54 1.05863E-04-3.17680E-05-3.17847E-05 1.52983E-06-3.36577E-19-6.76102E-18
 -1        55 1.20403E-04-3.61576E-05-3.56804E-05 1.09675E-06-1.81341E-19-7.93379E-18
 -1        56 1.29527E-04-3.88707E-05-3.83450E-05 4.43261E-07 2.73985E-19-7.66094E-18
 -1        57 1.32066E-04-3.96017E-05-3.92668E-05-2.83429E-08 2.75200E-19-7.27200E-18
 -1        58 1.29727E-04-3.88892E-05-3.87571E-05-2.42957E-07 3.60813E-19-7.13859E-18
 -1        59 1.24851E-04-3.74329E-05-3.74253E-05-2.83888E-07 1.37389E-19-5.18041E-18
 -1        60 1.19229E-04-3.57598E-05-3.58034E-05-2.45611E-07-5.10068E-19-2.82778E-18
 -1        61 1.13893E-04-3.41708E-05-3.42232E-05-1.86181E-07 3.73531E-19-9.58749E-19
 -1        62 1.09291E-04-3.27980E-05-3.28416E-05-1.31290E-07-5.11703E-19-4.94829E-18
 -1        63 1.05533E-04-3.16744E-05-3.17055E-05-8.86540E-08 1.57183E-19-7.04154E-18
 -1        64 1.02565E-04-3.07847E-05-3.08048E-05-5.82852E-08-6.35393E-19-6.87715E-18
 -1        65 1.00270E-04-3.00953E-05-3.01073E-05-3.77534E-08 5.38917E-19-4.55893E-18
 -1        66 9.85226E-05-2.95697E-05-2.95765E-05-2.43191E-08 2.76125E-19-5.60547E-18
 -1        67 9.72147E-05-2.91756E-05-2.91797E-05-1.55136E-08-5.27898E-20-2.92734E-18
 -1        68 9.62631E-05-2.88882E-05-2.88925E-05-8.96441E-09 3.19124E-19 1.98027E-21
 -1        69 9.56159E-05-2.86919E-05-2.86990E-05-1.73785E-09-2.18543E-19 1.50839E-19
 -1        70 9.52527E-05-2.85799E-05-2.85899E-05 1.18553E-08 3.99617E-19 1.64856E-18
 -1        71 9.51662E-05-2.85492E-05-2.85474E-05 2.92793E-08-5.93109E-19 2.15351E-18
 -1        72 1.02048E-04-3.05475E-05-3.41091E-05-1.92495E-06 2.57101E-19 2.48774E-17
 -1        73 9.24276E-05-2.74733E-05-2.88671E-05-3.32172E-07 2.20235E-19 2.02610E-17
 -1        74 8.89710E-05-2.66610E-05-2.69317E-05-1.24813E-07 4.12035E-20 1.67373E-17
 -1        75 8.79099E-05-2.63988E-05-2.63950E-05-9.40790E-08 7.75391E-20 1.42803E-17
 -1        76 8.79462E-05-2.64080E-05-2.63716E-05-7.45630E-08 5.71408E-20 1.24835E-17
 -1        77 8.84944E-05-2.65635E-05-2.65364E-05-5.99115E-08 5.09225E-20 1.12314E-17
 -1        78 8.92784E-05-2.67928E-05-2.67742E-05-4.84712E-08-6.00594E-20 1.05578E-17
 -1        79 9.01568E-05-2.70531E-05-2.70390E-05-3.88808E-08 1.00973E-19 9.02087E-18
 -1        80 9.10571E-05-2.73215E-05-2.73102E-05-3.05540E-08-5.61396E-20 7.65162E-18
 -1        81 9.19476E-05-2.75878E-05-2.75789E-05-2.33186E-08 2.36858E-19 6.76065E-18
 -1        82 9.28243E-05-2.78503E-05-2.78439E-05-1.72035E-08 8.08314E-20 5.88193E-18
 -1        83 9.37017E-05-2.81133E-05-2.81096E-05-1.23521E-08-1.99922E-20 5.36796E-18
 -1        84 9.46083E-05-2.83850E-05-2.83844E-05-9.00908E-09 2.61205E-20 5.01011E-18
 -1        85 9.55809E-05-2.86765E-05-2.86794E-05-7.52965E-09 1.34914E-19 5.05205E-18
 -1        86 9.66608E-05-2.89998E-05-2.90065E-05-8.39052E-09 1.26893E-19 4.12806E-18
 -1        87 9.78869E-05-2.93667E-05-2.93771E-05-1.21766E-08-1.39938E-19 3.61337E-18
 -1        88 9.92880E-05-2.97855E-05-2.97990E-05-1.95049E-08-6.18518E-20 4.05973E-18
 -1        89 1.00870E-04-3.02577E-05-3.02730E-05-3.08224E-08 5.85936E-19 1.60308E-18
 -1        90 1.02597E-04-3.07732E-05-3.07868E-05-4.59868E-08-4.09503E-19 4.70269E-19
 -1        91 1.04373E-04-3.13030E-05-3.13091E-05-6.35278E-08 2.52655E-20 2.67740E-18
 -1        92 1.06012E-04-3.17926E-05-3.17822E-05-7.95515E-08-1.41370E-19 2.90790E-18
 -1        93 1.07222E-04-3.21560E-05-3.21174E-05-8.65293E-08 7.86268E-20 2.46566E-18
 -1        94 1.07608E-04-3.22766E-05-3.21988E-05-7.28441E-08-1.67227E-20 8.94592E-19
 -1        95 1.06727E-04-3.20228E-05-3.19025E-05-2.50007E-08 2.54761E-19 2.66796E-19
 -1        96 1.04222E-04-3.12853E-05-3.11382E-05 6.51447E-08 1.19371E-19 1.81159E-18
 -1        97 1.00034E-04-3.00413E-05-2.99091E-05 1.88248E-07-6.44758E-20 3.28739E-18
 -1        98 9.46380E-05-2.84242E-05-2.83683E-05 3.07454E-07-1.04494E-20 3.92123E-18
 -1        99 8.91265E-05-2.67561E-05-2.68295E-05 3.64697E-07-1.15496E-19 2.15753E-18
 -1       100 8.49826E-05-2.54861E-05-2.56930E-05 3.10975E-07 1.15615E-19 1.96848E-18
 -1       101 8.35155E-05-2.50211E-05-2.52981E-05 1.46492E-07-1.69605E-20 1.07483E-18
 -1       102 8.52243E-05-2.55251E-05-2.57694E-05-6.59711E-08-2.98371E-19-1.96578E-19
 -1       103 8.95295E-05-2.68265E-05-2.69565E-05-2.39227E-07 1.89019E-20 2.34297E-19
 -1       104 9.50831E-05-2.85117E-05-2.85076E-05-3.17518E-07-4.47937E-19 1.58713E-18
 -1       105 1.00413E-04-3.01276E-05-3.00262E-05-2.99837E-07 4.07135E-19 3.78941E-19
 -1       106 1.04472E-04-3.13539E-05-3.12134E-05-2.23093E-07-3.92728E-19-1.00551E-18
 -1       107 1.06834E-04-3.20638E-05-3.19322E-05-1.30460E-07 3.45452E-19-2.83616E-18
 -1       108 1.07594E-04-3.22885E-05-3.21907E-05-5.08921E-08-3.16408E-19-5.07746E-18
 -1       109 1.07123E-04-3.21432E-05-3.20840E-05 4.27521E-09-2.55961E-19 8.65042E-19
 -1       110 1.05868E-04-3.17635E-05-3.17363E-05 3.56787E-08 4.80237E-19 1.75065E-20
 -1       111 1.04220E-04-3.12672E-05-3.12618E-05 4.91481E-08 3.64744E-19-1.14316E-18
 -1       112 1.02467E-04-3.07402E-05-3.07473E-05 5.12248E-08-3.94193E-19-1.64752E-18
 -1       113 1.00791E-04-3.02374E-05-3.02503E-05 4.72063E-08 6.97317E-19-2.21646E-18
 -1       114 9.92940E-05-2.97886E-05-2.98030E-05 4.07293E-08-1.87423E-19-3.77475E-18
 -1       115 9.80201E-05-2.94069E-05-2.94206E-05 3.39745E-08 3.79941E-19-2.58649E-18
 -1       116 9.69806E-05-2.90953E-05-2.91081E-05 2.79618E-08-1.28375E-20-9.30612E-19
 -1       117 9.61732E-05-2.88530E-05-2.88661E-05 2.27266E-08 3.04013E-19-5.12350E-18
 -1       118 9.55971E-05-2.86794E-05-2.86949E-05 1.70996E-08 2.57381E-19-8.04891E-18
 -1       119 9.52626E-05-2.85775E-05-2.85944E-05 5.79738E-09 9.82905E-20-7.25768E-18
 -1       120 9.51785E-05-2.85475E-05-2.85533E-05-1.89957E-08 1.17174E-18-6.75574E-18
 -1       121 9.52515E-05-2.86196E-05-2.85553E-05-2.77656E-08-4.88106E-18 7.93713E-19
 -1       122 9.52228E-05-2.85270E-05-2.85990E-05-1.78061E-09 5.37430E-20-2.70604E-19
 -1       123 9.51235E-05-2.81953E-05-2.86958E-05 1.47533E-08 3.11426E-18 7.39487E-19
 -1       124 9.49763E-05-2.77026E-05-2.88369E-05 2.25937E-08 1.63890E-18 4.19517E-19
 -1       125 9.48102E-05-2.71446E-05-2.89980E-05 2.40208E-08 1.31649E-18 1.50735E-19
 -1       126 9.46557E-05-2.66235E-05-2.91494E-05 2.11935E-08-1.19785E-18 6.90452E-19
 -1       127 9.45314E-05-2.62050E-05-2.92712E-05 1.47989E-08 1.51771E-18 6.48965E-19
 -1       128 9.44597E-05-2.59634E-05-2.93414E-05 5.97244E-09 3.03952E-18-3.03853E-19
 -1       129 9.44524E-05-2.59384E-05-2.93483E-05-4.09271E-09 6.61523E-18 2.69055E-18
 -1       130 9.45120E-05-2.61391E-05-2.92895E-05-1.39810E-08 4.30548E-18-1.77278E-18
 -1       131 9.46309E-05-2.65396E-05-2.91729E-05-2.22964E-08-7.98691E-18-2.26411E-19
 -1       132 9.47887E-05-2.70704E-05-2.90192E-05-2.64155E-08-9.74446E-18 1.92986E-18
 -1       133 9.49640E-05-2.76595E-05-2.88499E-05-2.54213E-08-3.78515E-18 4.69393E-19
 -1       134 9.51214E-05-2.81896E-05-2.86994E-05-1.86410E-08-2.72906E-18 8.81695E-19
 -1       135 9.52276E-05-2.85383E-05-2.85962E-05 3.65592E-09-3.10220E-18-3.94973E-19
 -1       136 9.52443E-05-2.86235E-05-2.85495E-05 5.24764E-08-2.73654E-18 3.20317E-19
 -1       137 2.63957E-05-8.84109E-05 1.57976E-05-2.26060E-05 1.10599E-17 1.58591E-18
 -1       138 8.60356E-06-3.44533E-05 3.33717E-06-1.64918E-05 5.08982E-18 8.44280E-19
 -1       139 1.24268E-05 1.43147E-05-1.48918E-05 2.48472E-05 5.57305E-18 5.29480E-18
 -1       140 6.03021E-05 2.81818E-05-3.62288E-05 8.12371E-05 6.90967E-18 8.03961E-18
 -1       141 1.48323E-04-3.60084E-06-5.55512E-05 1.13703E-04 6.00419E-18 1.05536E-17
 -1       142 2.42053E-04-5.49250E-05-7.00737E-05 9.68525E-05 2.65958E-18 6.95922E-18
 -1       143 3.00415E-04-9.07411E-05-7.78016E-05 3.41573E-05 3.63112E-19 5.13620E-19
 -1       144 2.95573E-04-8.75257E-05-7.72347E-05-4.47932E-05 1.23286E-18-8.54233E-18
 -1       145 2.26167E-04-4.55199E-05-6.78544E-05-1.03142E-04 5.57051E-18-1.52186E-17
 -1       146 1.28747E-04 5.24371E-06-5.18821E-05-1.10163E-04 1.44262E-17-2.16624E-17
 -1       147 4.65506E-05 2.93383E-05-3.19451E-05-7.02445E-05 2.15824E-17-2.19060E-17
 -1       148 7.32424E-06 7.93201E-06-1.09427E-05-1.30644E-05 2.17018E-17-1.58474E-17
 -1       149 1.11992E-05-4.65651E-05 6.54849E-06 2.23378E-05 1.34242E-17-5.62059E-18
 -1       150 3.02907E-05-9.68631E-05 1.73384E-05 1.92885E-05 3.11560E-18-9.72513E-19
 -1       151 3.62513E-05-1.11147E-04 2.01064E-05-8.00716E-06-7.65787E-18 3.33519E-21
 -1       152 5.92546E-06-2.69137E-05 1.07720E-06-1.63438E-05-2.29021E-17-1.14193E-17
 -1       153 1.43591E-05 1.67226E-05-1.70789E-05 2.75632E-05-2.16421E-17-1.76556E-17
 -1       154 6.80460E-05 2.35706E-05-3.78004E-05 8.23457E-05-1.63321E-17-1.91565E-17
 -1       155 1.61055E-04-9.97952E-06-5.78856E-05 1.14093E-04-9.79022E-18-1.99531E-17
 -1       156 2.57486E-04-6.15225E-05-7.26967E-05 9.55786E-05-4.66673E-18-1.25873E-17
 -1       157 3.17219E-04-9.71843E-05-8.05683E-05 2.84842E-05 1.91906E-19-3.47612E-18
 -1       158 3.05663E-04-9.02346E-05-7.90886E-05-5.34529E-05-5.84400E-19 1.30083E-18
 -1       159 2.31654E-04-4.66126E-05-6.91390E-05-1.06510E-04-3.74992E-18 9.14669E-18
 -1       160 1.31170E-04 3.04132E-06-5.21512E-05-1.08769E-04-9.65618E-18 1.48506E-17
 -1       161 4.95273E-05 2.64533E-05-3.24503E-05-6.95974E-05-1.25251E-17 1.45012E-17
 -1       162 1.04018E-05 6.89145E-06-1.22316E-05-1.58268E-05-8.75197E-18 6.81734E-18
 -1       163 9.25437E-06-4.29619E-05 5.59303E-06 2.30631E-05-7.24213E-19 9.06961E-19
 -1       164 2.75046E-05-9.24019E-05 1.65071E-05 2.41120E-05 3.27315E-18-4.69309E-19
 -1       165 9.47977E-05-1.23337E-05-3.55445E-05-2.23462E-05-3.30414E-18-4.58457E-19
 -1       166 8.92186E-05-8.45249E-06-3.47756E-05-1.73903E-05-2.73254E-18-3.68123E-18
 -1       167 8.65501E-05-6.50593E-06-3.44162E-05-1.35819E-05-2.00521E-18-5.35800E-18
 -1       168 8.52158E-05-5.51575E-06-3.42410E-05-1.03693E-05-1.33353E-18-6.09989E-18
 -1       169 8.44908E-05-4.94638E-06-3.41592E-05-7.54265E-06-7.38759E-19-6.20514E-18
 -1       170 8.40737E-05-4.59856E-06-3.41222E-05-4.89906E-06-1.07546E-19-6.12271E-18
 -1       171 8.38610E-05-4.41253E-06-3.41073E-05-2.39231E-06 4.99704E-19-5.91802E-18
 -1       172 8.37981E-05-4.35612E-06-3.41035E-05 5.17367E-08 9.95253E-19-5.68076E-18
 -1       173 8.38702E-05-4.42072E-06-3.41079E-05 2.49781E-06 1.46490E-18-5.37777E-18
 -1       174 8.40940E-05-4.61714E-06-3.41233E-05 5.01111E-06 1.95756E-18-4.98165E-18
 -1       175 8.45160E-05-4.97179E-06-3.41599E-05 7.61979E-06 2.40963E-18-4.23557E-18
 -1       176 8.52752E-05-5.57525E-06-3.42419E-05 1.05095E-05 3.02788E-18-3.14435E-18
 -1       177 8.66475E-05-6.60857E-06-3.44185E-05 1.37815E-05 3.50344E-18-1.55554E-18
 -1       178 8.93610E-05-8.59602E-06-3.47804E-05 1.76214E-05 3.72730E-18 1.27449E-18
 -1       179 9.57089E-05-1.35998E-05-3.54009E-05 2.18905E-05 3.27704E-18 6.00549E-18
 -1       180 1.05498E-04-2.60711E-05-3.52297E-05 1.86602E-05 2.16760E-18 1.20899E-17
 -1       181 1.03298E-04-2.72727E-05-3.25800E-05-1.21274E-05-2.85273E-18 3.72562E-18
 -1       182 9.70119E-05-2.82607E-05-2.95001E-05-4.73290E-06-2.42664E-18 2.33903E-18
 -1       183 9.34153E-05-2.76079E-05-2.81551E-05-1.76799E-06-1.89733E-18 1.21355E-18
 -1       184 9.18897E-05-2.73792E-05-2.76118E-05-4.13650E-07-1.49917E-18 8.40912E-20
 -1       185 9.13312E-05-2.73080E-05-2.74200E-05 2.61179E-07-9.88666E-19-5.98118E-19
 -1       186 9.13200E-05-2.73539E-05-2.74050E-05 6.04792E-07-8.34271E-19-1.15354E-18
 -1       187 9.16143E-05-2.74690E-05-2.74863E-05 7.71016E-07-9.00175E-19-1.87159E-18
 -1       188 9.20777E-05-2.76215E-05-2.76216E-05 8.42198E-07-5.91240E-19-2.21810E-18
 -1       189 9.26353E-05-2.77930E-05-2.77880E-05 8.68574E-07-5.85857E-19-2.23495E-18
 -1       190 9.32508E-05-2.79753E-05-2.79739E-05 8.84211E-07-2.61203E-19-2.40724E-18
 -1       191 9.39150E-05-2.81667E-05-2.81764E-05 9.14423E-07-5.69649E-19-3.23920E-18
 -1       192 9.46387E-05-2.83713E-05-2.83985E-05 9.79815E-07-4.27491E-19-3.25701E-18
 -1       193 9.54489E-05-2.85974E-05-2.86483E-05 1.09878E-06-1.68787E-19-3.51199E-18
 -1       194 9.63868E-05-2.88570E-05-2.89381E-05 1.28910E-06 6.06063E-20-3.98664E-18
 -1       195 9.75063E-05-2.91660E-05-2.92845E-05 1.56874E-06-1.84652E-20-3.37578E-18
 -1       196 9.88728E-05-2.95441E-05-2.97071E-05 1.95548E-06-2.18694E-20-2.96041E-18
 -1       197 1.00561E-04-3.00146E-05-3.02282E-05 2.46443E-06-1.51428E-19-3.24695E-18
 -1       198 1.02650E-04-3.06044E-05-3.08704E-05 3.10148E-06-6.68974E-19-3.73730E-18
 -1       199 1.05210E-04-3.13436E-05-3.16519E-05 3.84939E-06-4.09556E-19-3.48525E-18
 -1       200 1.08285E-04-3.22637E-05-3.25784E-05 4.64135E-06 4.35095E-19-3.83652E-18
 -1       201 1.11849E-04-3.33923E-05-3.36277E-05 5.31691E-06 5.26574E-19-3.31036E-18
 -1       202 1.15748E-04-3.47403E-05-3.47293E-05 5.56150E-06-5.45364E-19-3.44824E-18
 -1       203 1.19617E-04-3.62671E-05-3.57409E-05 4.85732E-06 2.04338E-19-2.41683E-18
 -1       204 1.22783E-04-3.77995E-05-3.64439E-05 2.53827E-06 1.02679E-18-1.65567E-18
 -1       205 1.24237E-04-3.88878E-05-3.65922E-05-1.86156E-06 1.04569E-18-1.35408E-18
 -1       206 1.22813E-04-3.86961E-05-3.60522E-05-7.78069E-06 2.58219E-19-1.71894E-18
 -1       207 1.17911E-04-3.63334E-05-3.49717E-05-1.26767E-05 4.47836E-20-1.57183E-18
 -1       208 1.10815E-04-3.20567E-05-3.38074E-05-1.25064E-05-1.63160E-19-1.36359E-18
 -1       209 1.05355E-04-2.84005E-05-3.30770E-05-5.20073E-06-4.98863E-19-1.92366E-18
 -1       210 1.05462E-04-2.84760E-05-3.30881E-05 5.54023E-06-1.02373E-18-2.91043E-18
 -1       211 1.11053E-04-3.22130E-05-3.38372E-05 1.26235E-05-1.49118E-18-4.34851E-18
 -1       212 1.18115E-04-3.64474E-05-3.50100E-05 1.25600E-05-3.81451E-19-4.11379E-18
 -1       213 1.22900E-04-3.87299E-05-3.60763E-05 7.56248E-06-3.73336E-19-5.62199E-18
 -1       214 1.24200E-04-3.88556E-05-3.65912E-05 1.66780E-06 1.31706E-18-4.86231E-18
 -1       215 1.22664E-04-3.77404E-05-3.64183E-05-2.65743E-06 8.01971E-19-4.64557E-18
 -1       216 1.19457E-04-3.62024E-05-3.56999E-05-4.90804E-06 8.41618E-19-4.18551E-18
 -1       217 1.15580E-04-3.46799E-05-3.46825E-05-5.56522E-06 1.18854E-18-4.20671E-18
 -1       218 1.11693E-04-3.33401E-05-3.35828E-05-5.29257E-06 1.40308E-18-1.17057E-18
 -1       219 1.08157E-04-3.22217E-05-3.25410E-05-4.59948E-06-2.06115E-18-2.17583E-18
 -1       220 1.05123E-04-3.13137E-05-3.16267E-05-3.79279E-06-1.70662E-18-2.96448E-18
 -1       221 1.02616E-04-3.05893E-05-3.08621E-05-3.02693E-06 2.95140E-19-3.97491E-18
 -1       222 1.00601E-04-3.00186E-05-3.02429E-05-2.36372E-06 1.05065E-18-2.79592E-18
 -1       223 9.90115E-05-2.95736E-05-2.97532E-05-1.81553E-06 8.65355E-20-2.62763E-18
 -1       224 9.77804E-05-2.92301E-05-2.93736E-05-1.37071E-06 2.45535E-18-8.03794E-19
 -1       225 9.68465E-05-2.89679E-05-2.90865E-05-1.00693E-06 1.84175E-18 1.51625E-18
 -1       226 9.61600E-05-2.87716E-05-2.88774E-05-6.97320E-07 1.36861E-20 8.00337E-19
 -1       227 9.56840E-05-2.86306E-05-2.87345E-05-4.16377E-07 1.04994E-18 5.93062E-19
 -1       228 9.53789E-05-2.85399E-05-2.86434E-05-1.53311E-07-2.41509E-20 9.36509E-19
 -1       229 9.93979E-05-2.85237E-05-3.05562E-05 7.21236E-06 2.41181E-18 1.04380E-17
 -1       230 9.43169E-05-2.77605E-05-2.84947E-05 2.74423E-06 1.70939E-18 8.59543E-18
 -1       231 9.20029E-05-2.73720E-05-2.76538E-05 9.26766E-07 1.43387E-18 7.03946E-18
 -1       232 9.10664E-05-2.72123E-05-2.73389E-05 5.77694E-08 9.02769E-19 5.95033E-18
 -1       233 9.08774E-05-2.72108E-05-2.72720E-05-3.81928E-07 7.33296E-19 5.26284E-18
 -1       234 9.10999E-05-2.73068E-05-2.73329E-05-6.00995E-07 5.00187E-19 4.41037E-18
 -1       235 9.15460E-05-2.74565E-05-2.74630E-05-7.00889E-07 8.83306E-19 3.78420E-18
 -1       236 9.21103E-05-2.76333E-05-2.76306E-05-7.38283E-07 5.69118E-19 3.31652E-18
 -1       237 9.27372E-05-2.78233E-05-2.78186E-05-7.48435E-07 5.78640E-19 2.60856E-18
 -1       238 9.34019E-05-2.80206E-05-2.80194E-05-7.54954E-07 2.36435E-19 2.80942E-18
 -1       239 9.41012E-05-2.82255E-05-2.82315E-05-7.74242E-07 4.71668E-19 2.31348E-18
 -1       240 9.48463E-05-2.84421E-05-2.84581E-05-8.17571E-07 3.96952E-19 1.83682E-18
 -1       241 9.56574E-05-2.86775E-05-2.87049E-05-8.91799E-07 2.88345E-19 1.46038E-18
 -1       242 9.65593E-05-2.89402E-05-2.89791E-05-9.99061E-07 2.00279E-19 1.20002E-18
 -1       243 9.75760E-05-2.92387E-05-2.92871E-05-1.13547E-06 1.10095E-19 1.49110E-18
 -1       244 9.87236E-05-2.95802E-05-2.96329E-05-1.28875E-06 2.31976E-19 1.02640E-18
 -1       245 1.00002E-04-2.99677E-05-3.00153E-05-1.43490E-06 1.28120E-18 7.31012E-19
 -1       246 1.01382E-04-3.03969E-05-3.04236E-05-1.53415E-06-3.82308E-19 7.73576E-19
 -1       247 1.02793E-04-3.08515E-05-3.08344E-05-1.52762E-06-4.82312E-19 8.81584E-20
 -1       248 1.04108E-04-3.12980E-05-3.12070E-05-1.33749E-06-6.80690E-19 5.63051E-19
 -1       249 1.05133E-04-3.16796E-05-3.14823E-05-8.75969E-07 5.31993E-20 1.61742E-18
 -1       250 1.05612E-04-3.19127E-05-3.15864E-05-7.06171E-08 6.80697E-19 1.46040E-18
 -1       251 1.05264E-04-3.18905E-05-3.14441E-05 1.08714E-06-5.06301E-20 1.01401E-18
 -1       252 1.03857E-04-3.15029E-05-3.10044E-05 2.47418E-06-8.36797E-19 1.31578E-18
 -1       253 1.01339E-04-3.06836E-05-3.02754E-05 3.77966E-06-1.02419E-18 1.94955E-18
 -1       254 9.79807E-05-2.94823E-05-2.93535E-05 4.52677E-06 1.89747E-19 2.28396E-18
 -1       255 9.44461E-05-2.81275E-05-2.84256E-05 4.23909E-06 9.57604E-19 2.41595E-18
 -1       256 9.16786E-05-2.70079E-05-2.77256E-05 2.72666E-06-6.09179E-19 2.09097E-18
 -1       257 9.05588E-05-2.65285E-05-2.74527E-05 3.18157E-07 3.55337E-19 2.51134E-18
 -1       258 9.14776E-05-2.68853E-05-2.76882E-05-2.19732E-06 3.57663E-19 2.32177E-18
 -1       259 9.41168E-05-2.79354E-05-2.83607E-05-3.97396E-06-2.04378E-19 1.62655E-18
 -1       260 9.76264E-05-2.92919E-05-2.92774E-05-4.55556E-06-9.49450E-20 1.17385E-18
 -1       261 1.01045E-04-3.05445E-05-3.02049E-05-4.02177E-06 9.31432E-19-4.74438E-20
 -1       262 1.03666E-04-3.14313E-05-3.09519E-05-2.80769E-06 2.61789E-19 1.21108E-19
 -1       263 1.05183E-04-3.18776E-05-3.14155E-05-1.40919E-06 1.14544E-18-7.36885E-19
 -1       264 1.05624E-04-3.19398E-05-3.15818E-05-1.82299E-07-2.40299E-19 2.01773E-19
 -1       265 1.05214E-04-3.17286E-05-3.14983E-05 7.07609E-07-2.38424E-18 3.06839E-19
 -1       266 1.04237E-04-3.13566E-05-3.12389E-05 1.24229E-06 8.86416E-19 2.00555E-18
 -1       267 1.02956E-04-3.09133E-05-3.08787E-05 1.48242E-06 8.48377E-19 2.27473E-18
 -1       268 1.01574E-04-3.04607E-05-3.04791E-05 1.51338E-06 2.60048E-19 8.99935E-19
 -1       269 1.00231E-04-3.00364E-05-3.00840E-05 1.41459E-06 6.44305E-19 4.10939E-19
 -1       270 9.90084E-05-2.96601E-05-2.97205E-05 1.24705E-06 3.37972E-20 1.06787E-18
 -1       271 9.79495E-05-2.93398E-05-2.94033E-05 1.05130E-06-5.08961E-19 3.06668E-19
 -1       272 9.70693E-05-2.90762E-05-2.91387E-05 8.49825E-07 3.58958E-19-4.28870E-19
 -1       273 9.63696E-05-2.88668E-05-2.89286E-05 6.50783E-07 1.86898E-18-2.79580E-19
 -1       274 9.58463E-05-2.87082E-05-2.87730E-05 4.52477E-07 3.53683E-19 3.47860E-19
 -1       275 9.54932E-05-2.85974E-05-2.86689E-05 2.48265E-07-2.32251E-19 1.75700E-18
 -1       276 9.52973E-05-2.85489E-05-2.86038E-05 5.25946E-08-6.86827E-19-2.13575E-19
 -1       277 9.52631E-05-2.84351E-05-2.86391E-05 1.61241E-07-1.22762E-19 3.51566E-18
 -1       278 9.51772E-05-2.81811E-05-2.87121E-05 3.66472E-07 5.61536E-19 3.89077E-19
 -1       279 9.50442E-05-2.78240E-05-2.88084E-05 5.16067E-07-6.42370E-20 3.70660E-19
 -1       280 9.48931E-05-2.74106E-05-2.89212E-05 5.75262E-07 2.78947E-19 2.04392E-19
 -1       281 9.47462E-05-2.70032E-05-2.90334E-05 5.43422E-07-6.64320E-19-9.93438E-19
 -1       282 9.46178E-05-2.66452E-05-2.91324E-05 4.28518E-07 2.25417E-19 9.96836E-19
 -1       283 9.45281E-05-2.63958E-05-2.92013E-05 2.48120E-07 2.76363E-20 1.55527E-18
 -1       284 9.44898E-05-2.62918E-05-2.92297E-05 2.75540E-08 2.54501E-18 2.38614E-18
 -1       285 9.45097E-05-2.63512E-05-2.92127E-05-2.02064E-07 7.24786E-19-1.49918E-18
 -1       286 9.45870E-05-2.65688E-05-2.91521E-05-4.06272E-07 5.67171E-19-5.25989E-18
 -1       287 9.47097E-05-2.69086E-05-2.90585E-05-5.48714E-07-1.60822E-19-9.50105E-19
 -1       288 9.48656E-05-2.73329E-05-2.89428E-05-6.04755E-07 7.25237E-19 4.01194E-18
 -1       289 9.50294E-05-2.77713E-05-2.88247E-05-5.52809E-07-2.50787E-20 4.75012E-20
 -1       290 9.51748E-05-2.81515E-05-2.87228E-05-3.92849E-07-2.26124E-18-1.63917E-19
 -1       291 9.52976E-05-2.83639E-05-2.86843E-05-3.03116E-07-8.24812E-19 7.70672E-19
 -1       292 1.26708E-05-4.85277E-05 1.19884E-05 8.44758E-06 1.61264E-18 2.05363E-18
 -1       293 2.65409E-05-4.12178E-05 3.99394E-06 2.52451E-05 2.17603E-18-2.21007E-18
 -1       294 6.00630E-05-3.99366E-05-9.69425E-06 4.01400E-05 7.33531E-19 2.34242E-18
 -1       295 9.12362E-05-3.11881E-05-2.60237E-05 4.50359E-05 9.48677E-19 2.73803E-18
 -1       296 1.32951E-04-2.78090E-05-4.38209E-05 4.87896E-05 1.72975E-18 2.39266E-18
 -1       297 1.74099E-04-3.13321E-05-5.86273E-05 4.08438E-05 2.32215E-18 6.76568E-19
 -1       298 1.99053E-04-3.34177E-05-6.78982E-05 2.05292E-05 3.61927E-18-3.20178E-19
 -1       299 2.07467E-04-3.42986E-05-7.09427E-05-1.51572E-06 4.53840E-18-3.03329E-18
 -1       300 1.93056E-04-3.18889E-05-6.63667E-05-2.15486E-05 4.59346E-18-5.21825E-18
 -1       301 1.65942E-04-3.09417E-05-5.57575E-05-4.04157E-05 7.83509E-18-5.91420E-18
 -1       302 1.23829E-04-2.76015E-05-4.03235E-05-4.90417E-05 8.22554E-18-8.11669E-18
 -1       303 8.51684E-05-3.38747E-05-2.24948E-05-4.38644E-05 6.37371E-18-7.42678E-18
 -1       304 4.43229E-05-3.61925E-05-5.48737E-06-3.22057E-05 5.37061E-18-8.92826E-18
 -1       305 2.15865E-05-4.49110E-05 6.89945E-06-1.83442E-05 2.68721E-18-6.52353E-18
 -1       306 1.17126E-05-4.99056E-05 1.28013E-05-5.47714E-06-1.17510E-18-5.04101E-18
 -1       307 1.40499E-05-4.68897E-05 1.08512E-05 8.85994E-06-5.29173E-18-5.81530E-18
 -1       308 3.06072E-05-4.35589E-05 2.72378E-06 2.15853E-05-7.30079E-18-7.41760E-18
 -1       309 5.78787E-05-3.70915E-05-1.07774E-05 3.43682E-05-9.33960E-18-7.44817E-18
 -1       310 9.74063E-05-3.35387E-05-2.77715E-05 4.36979E-05-8.88262E-18-8.21177E-18
 -1       311 1.44756E-04-3.69609E-05-4.51992E-05 3.97842E-05-7.25145E-18-6.27546E-18
 -1       312 1.83948E-04-3.60288E-05-6.06741E-05 3.59928E-05-6.28260E-18-4.44692E-18
 -1       313 2.08545E-04-3.65493E-05-7.01480E-05 1.66505E-05-5.32085E-18-3.61980E-18
 -1       314 2.19917E-04-3.90105E-05-7.33400E-05-3.70200E-06-1.69576E-18-1.05066E-18
 -1       315 2.05446E-04-3.77163E-05-6.83190E-05-2.43768E-05-4.58224E-18 8.18446E-19
 -1       316 1.71629E-04-3.62987E-05-5.60533E-05-3.32676E-05-3.89932E-18 1.31904E-18
 -1       317 1.30205E-04-3.32366E-05-4.07587E-05-4.56636E-05-3.42350E-18 2.70013E-18
 -1       318 8.66219E-05-3.39374E-05-2.33774E-05-4.15842E-05-8.84302E-19 5.94681E-18
 -1       319 5.79817E-05-4.28621E-05-7.86384E-06-3.65686E-05 2.55571E-18 3.44149E-18
 -1       320 2.42081E-05-4.48026E-05 5.81502E-06-1.80229E-05 2.35920E-18 1.88899E-18
 -1       321 1.13971E-05-4.48743E-05 1.14018E-05-5.74676E-06 2.54004E-18 1.20448E-18
 -1       322 9.16355E-05-1.43900E-05-3.31685E-05-1.30543E-05-2.82862E-18-3.22522E-18
 -1       323 9.56575E-05-1.90965E-05-3.28749E-05-1.46269E-05-3.30298E-18-1.37236E-18
 -1       324 8.80409E-05-1.03724E-05-3.33398E-05-8.13897E-06-1.27597E-18-4.75140E-18
 -1       325 8.72351E-05-9.44506E-06-3.33866E-05-5.70509E-06-5.72263E-19-4.72851E-18
 -1       326 8.67822E-05-8.91211E-06-3.34177E-05-3.35843E-06 1.95414E-19-4.61606E-18
 -1       327 8.65800E-05-8.67016E-06-3.34333E-05-1.06912E-06 9.00263E-19-4.53461E-18
 -1       328 8.65881E-05-8.67946E-06-3.34329E-05 1.20111E-06 1.55538E-18-4.24277E-18
 -1       329 8.68084E-05-8.94229E-06-3.34163E-05 3.49246E-06 2.08871E-18-3.94189E-18
 -1       330 8.72731E-05-9.48943E-06-3.33845E-05 5.80376E-06 2.64510E-18-3.41987E-18
 -1       331 8.80999E-05-1.04443E-05-3.33363E-05 8.24161E-06 3.27319E-18-2.45164E-18
 -1       332 8.94956E-05-1.20290E-05-3.32665E-05 1.07520E-05 3.79252E-18-1.32313E-18
 -1       333 9.18878E-05-1.47157E-05-3.31548E-05 1.31602E-05 4.07654E-18 3.59149E-19
 -1       334 9.57541E-05-1.94431E-05-3.28124E-05 1.43710E-05 3.97083E-18 3.42164E-18
 -1       335 9.87152E-05-2.44223E-05-3.19279E-05 1.18965E-05 3.36708E-18 6.06380E-18
 -1       336 9.63190E-05-2.67894E-05-2.97688E-05 5.73774E-06 2.62830E-18 4.90244E-18
 -1       337 9.63830E-05-2.60086E-05-3.01168E-05-6.34187E-06-2.64480E-18-7.26642E-19
 -1       338 9.48757E-05-2.70086E-05-2.90604E-05-2.81619E-06-2.23250E-18-9.19044E-19
 -1       339 9.39148E-05-2.74051E-05-2.84894E-05-8.87299E-07-1.60829E-18-1.02128E-18
 -1       340 9.34202E-05-2.76172E-05-2.81944E-05 2.01058E-07-1.36321E-18-1.38505E-18
 -1       341 9.32668E-05-2.77712E-05-2.80664E-05 8.09563E-07-1.08088E-18-1.75526E-18
 -1       342 9.33421E-05-2.79041E-05-2.80434E-05 1.14127E-06-6.84076E-19-1.60756E-18
 -1       343 9.35664E-05-2.80255E-05-2.80883E-05 1.31980E-06-5.35211E-19-1.59414E-18
 -1       344 9.38899E-05-2.81383E-05-2.81788E-05 1.42632E-06-5.43314E-19-1.85277E-18
 -1       345 9.42857E-05-2.82442E-05-2.83029E-05 1.51821E-06-5.86859E-19-1.83361E-18
 -1       346 9.47444E-05-2.83461E-05-2.84555E-05 1.63912E-06-3.94157E-19-1.70898E-18
 -1       347 9.52705E-05-2.84479E-05-2.86369E-05 1.82488E-06-8.58915E-19-1.92161E-18
 -1       348 9.58789E-05-2.85551E-05-2.88509E-05 2.10711E-06-2.48612E-19-1.99851E-18
 -1       349 9.65931E-05-2.86750E-05-2.91047E-05 2.51527E-06 3.03235E-19-2.33797E-18
 -1       350 9.74437E-05-2.88173E-05-2.94073E-05 3.07701E-06 1.81324E-19-2.89752E-18
 -1       351 9.84668E-05-2.89956E-05-2.97683E-05 3.81615E-06-1.87471E-19-2.24109E-18
 -1       352 9.97032E-05-2.92317E-05-3.01960E-05 4.74645E-06-3.11268E-19-2.39208E-18
 -1       353 1.01198E-04-2.95622E-05-3.06947E-05 5.85843E-06-5.21376E-20-1.63087E-18
 -1       354 1.03005E-04-3.00516E-05-3.12598E-05 7.09451E-06-4.75860E-19-1.85158E-18
 -1       355 1.05189E-04-3.08114E-05-3.18730E-05 8.30711E-06 5.42907E-19-2.71111E-18
 -1       356 1.07841E-04-3.20213E-05-3.24974E-05 9.19604E-06 3.85511E-19-2.56494E-18
 -1       357 1.11082E-04-3.39264E-05-3.30805E-05 9.23410E-06 9.69594E-19-5.92024E-19
 -1       358 1.15017E-04-3.67371E-05-3.35758E-05 7.62751E-06 1.03023E-18 4.67870E-20
 -1       359 1.19536E-04-4.02970E-05-3.39979E-05 3.44932E-06 1.09240E-18-2.77055E-19
 -1       360 1.23854E-04-4.34308E-05-3.45052E-05-3.76588E-06 9.18263E-19-3.64302E-19
 -1       361 1.26009E-04-4.34160E-05-3.54501E-05-1.26148E-05 1.98641E-19 1.94172E-20
 -1       362 1.23751E-04-3.74972E-05-3.70894E-05-1.82458E-05-2.29877E-19-1.03005E-18
 -1       363 1.18032E-04-2.76232E-05-3.89508E-05-1.40554E-05-7.74784E-19-2.03102E-18
 -1       364 1.14885E-04-2.25865E-05-3.97866E-05 2.74381E-07-1.77506E-18-1.66349E-18
 -1       365 1.18250E-04-2.79698E-05-3.88835E-05 1.43900E-05-2.73029E-18-3.40867E-18
 -1       366 1.23897E-04-3.77964E-05-3.70154E-05 1.81495E-05-1.06300E-18-3.17653E-18
 -1       367 1.26015E-04-4.35378E-05-3.54048E-05 1.23144E-05-3.38368E-19-3.41149E-18
 -1       368 1.23697E-04-4.33372E-05-3.44833E-05 3.46349E-06 7.34477E-19-2.67869E-18
 -1       369 1.19363E-04-4.01655E-05-3.39791E-05-3.65002E-06 1.12432E-18-2.48731E-18
 -1       370 1.14855E-04-3.66179E-05-3.35561E-05-7.72567E-06 1.28043E-18-1.91783E-18
 -1       371 1.10946E-04-3.38384E-05-3.30588E-05-9.25370E-06 1.29026E-18 4.19639E-19
 -1       372 1.07732E-04-3.19604E-05-3.24763E-05-9.16527E-06 2.09106E-18 5.31823E-19
 -1       373 1.05107E-04-3.07687E-05-3.18561E-05-8.24302E-06 3.84538E-19-1.38157E-18
 -1       374 1.02954E-04-3.00203E-05-3.12511E-05-7.00335E-06-1.78161E-18 6.51265E-19
 -1       375 1.01185E-04-2.95382E-05-3.06988E-05-5.73742E-06-9.47270E-19 2.42929E-18
 -1       376 9.97370E-05-2.92131E-05-3.02181E-05-4.58529E-06 4.23714E-19 2.12106E-18
 -1       377 9.85625E-05-2.89818E-05-2.98147E-05-3.59763E-06 4.35789E-19-7.13619E-20
 -1       378 9.76198E-05-2.88081E-05-2.94860E-05-2.77672E-06 2.34487E-18-1.05436E-19
 -1       379 9.68724E-05-2.86703E-05-2.92255E-05-2.10086E-06 2.54631E-18-2.90906E-20
 -1       380 9.62876E-05-2.85547E-05-2.90251E-05-1.53841E-06 2.84612E-19 7.25059E-19
 -1       381 9.58379E-05-2.84531E-05-2.88759E-05-1.05558E-06 4.20624E-19 1.99178E-18
 -1       382 9.55340E-05-2.83958E-05-2.87714E-05-6.55386E-07 6.83169E-19 1.88896E-18
 -1       383 9.43075E-05-2.73185E-05-2.86713E-05 2.45856E-06 2.08059E-18 4.06190E-18
 -1       384 9.31151E-05-2.74394E-05-2.81248E-05 7.20870E-07 1.52750E-18 3.42527E-18
 -1       385 9.25843E-05-2.75196E-05-2.78747E-05-2.21344E-07 1.00120E-18 2.55172E-18
 -1       386 9.24797E-05-2.76176E-05-2.77936E-05-7.29154E-07 9.17641E-19 2.05889E-18
 -1       387 9.26393E-05-2.77365E-05-2.78135E-05-9.93494E-07 9.71368E-19 1.57312E-18
 -1       388 9.29594E-05-2.78684E-05-2.78951E-05-1.12370E-06 9.14285E-19 1.40956E-18
 -1       389 9.33776E-05-2.80069E-05-2.80155E-05-1.18778E-06 6.95822E-19 1.25065E-18
 -1       390 9.38609E-05-2.81491E-05-2.81617E-05-1.23095E-06 1.97893E-19 1.25022E-18
 -1       391 9.43960E-05-2.82959E-05-2.83280E-05-1.28431E-06 7.78721E-19 9.24801E-19
 -1       392 9.49839E-05-2.84512E-05-2.85132E-05-1.36908E-06 6.38829E-19 5.11398E-19
 -1       393 9.56351E-05-2.86215E-05-2.87190E-05-1.49825E-06 6.21412E-19 3.77305E-19
 -1       394 9.63655E-05-2.88156E-05-2.89486E-05-1.67651E-06 2.31831E-19 2.47072E-19
 -1       395 9.71921E-05-2.90439E-05-2.92049E-05-1.89850E-06 1.19785E-20 3.11666E-19
 -1       396 9.81289E-05-2.93180E-05-2.94891E-05-2.14558E-06 5.35373E-19-8.84971E-20
 -1       397 9.91809E-05-2.96497E-05-2.97984E-05-2.38102E-06 1.15500E-18-4.57689E-19
 -1       398 1.00337E-04-3.00487E-05-3.01238E-05-2.54451E-06 3.65367E-19 2.29183E-19
 -1       399 1.01559E-04-3.05194E-05-3.04478E-05-2.54765E-06-5.24495E-19-5.60810E-19
 -1       400 1.02776E-04-3.10532E-05-3.07431E-05-2.27446E-06-6.56575E-19 4.27450E-20
 -1       401 1.03869E-04-3.16169E-05-3.09727E-05-1.59412E-06-7.64205E-19 4.76975E-19
 -1       402 1.04665E-04-3.21355E-05-3.10941E-05-3.96254E-07 8.54564E-19 1.65868E-18
 -1       403 1.04944E-04-3.24747E-05-3.10695E-05 1.34139E-06-2.02940E-19 2.16209E-18
 -1       404 1.04469E-04-3.24404E-05-3.08796E-05 3.45514E-06-7.97913E-19 1.68266E-18
 -1       405 1.03075E-04-3.18289E-05-3.05402E-05 5.50483E-06-8.11712E-19 1.08045E-18
 -1       406 1.00812E-04-3.05550E-05-3.01098E-05 6.78411E-06 1.59545E-19 5.06172E-19
 -1       407 9.80965E-05-2.88219E-05-2.96818E-05 6.54089E-06 8.68288E-19 1.43703E-18
 -1       408 9.57169E-05-2.71826E-05-2.93589E-05 4.41001E-06-6.11928E-19 1.69730E-18
 -1       409 9.45594E-05-2.63434E-05-2.92188E-05 8.08489E-07 9.42920E-20 2.30652E-18
 -1       410 9.51171E-05-2.67241E-05-2.92935E-05-3.07857E-06 5.00712E-19 2.55138E-18
 -1       411 9.71523E-05-2.81317E-05-2.95655E-05-5.90425E-06 1.04154E-18 1.14872E-18
 -1       412 9.98633E-05-2.99173E-05-2.99694E-05-6.90165E-06 8.98926E-20-5.74768E-19
 -1       413 1.02371E-04-3.14216E-05-3.04083E-05-6.15119E-06 3.70266E-19-1.06062E-18
 -1       414 1.04103E-04-3.22950E-05-3.07836E-05-4.31184E-06 4.73831E-19-2.54278E-19
 -1       415 1.04892E-04-3.25291E-05-3.10251E-05-2.15254E-06 1.13353E-18 8.40635E-19
 -1       416 1.04850E-04-3.23029E-05-3.11039E-05-2.32443E-07-4.42461E-19 1.13261E-18
 -1       417 1.04206E-04-3.18267E-05-3.10294E-05 1.18071E-06-1.26916E-18 8.67672E-19
 -1       418 1.03197E-04-3.12627E-05-3.08354E-05 2.04657E-06-2.20324E-19-7.61543E-19
 -1       419 1.02017E-04-3.07088E-05-3.05643E-05 2.44962E-06 3.44557E-19-6.82812E-19
 -1       420 1.00809E-04-3.02129E-05-3.02563E-05 2.51687E-06 9.31027E-19 2.54928E-18
 -1       421 9.96609E-05-2.97914E-05-2.99434E-05 2.37008E-06-3.17025E-20 2.94673E-18
 -1       422 9.86272E-05-2.94442E-05-2.96481E-05 2.10539E-06-1.52196E-19 3.96353E-18
 -1       423 9.77323E-05-2.91637E-05-2.93843E-05 1.78877E-06 3.47283E-19 3.14812E-18
 -1       424 9.69834E-05-2.89392E-05-2.91593E-05 1.45895E-06 5.69940E-19 2.49685E-18
 -1       425 9.63768E-05-2.87601E-05-2.89761E-05 1.13302E-06 1.15910E-18 2.24440E-18
 -1       426 9.59039E-05-2.86180E-05-2.88347E-05 8.14173E-07 3.32700E-19 3.49534E-18
 -1       427 9.55529E-05-2.85102E-05-2.87309E-05 5.01628E-07-6.32862E-19 3.28863E-18
 -1       428 9.53859E-05-2.84546E-05-2.86836E-05 3.27888E-07 6.53454E-19 3.54555E-18
 -1       429 9.50063E-05-2.75980E-05-2.88887E-05 9.91640E-07 2.97743E-19 5.35052E-19
 -1       430 9.52181E-05-2.79815E-05-2.88143E-05 8.41248E-07-4.30735E-20 1.06374E-18
 -1       431 9.53322E-05-2.82469E-05-2.87491E-05 5.97330E-07-3.07578E-19 9.18266E-19
 -1       432 9.47918E-05-2.72132E-05-2.89625E-05 9.98690E-07-3.67123E-19-3.29173E-18
 -1       433 9.45934E-05-2.68563E-05-2.90311E-05 8.62937E-07-2.76282E-19 2.23297E-18
 -1       434 9.44370E-05-2.65758E-05-2.90849E-05 6.02380E-07 5.76422E-19 1.77050E-18
 -1       435 9.43418E-05-2.64072E-05-2.91167E-05 2.51567E-07-2.60831E-19 2.05018E-18
 -1       436 9.43215E-05-2.63746E-05-2.91221E-05-1.42676E-07-1.81790E-19 6.69373E-19
 -1       437 9.43827E-05-2.64864E-05-2.91001E-05-5.25167E-07 7.44648E-19-4.34840E-18
 -1       438 9.45190E-05-2.67273E-05-2.90547E-05-8.33516E-07 1.27706E-18-3.94280E-18
 -1       439 9.47222E-05-2.70786E-05-2.89906E-05-1.02553E-06 2.63727E-18 3.88307E-18
 -1       440 9.49624E-05-2.74910E-05-2.89160E-05-1.05510E-06-5.14930E-19 2.94009E-19
 -1       441 9.52130E-05-2.79195E-05-2.88386E-05-9.13406E-07-1.12187E-18-1.71190E-18
 -1       442 5.54486E-05-3.88387E-05-7.08548E-06 4.36075E-05-5.69630E-20-1.51905E-18
 -1       443 1.25669E-05-2.04818E-05 3.37913E-06 4.33081E-06-9.50358E-19 3.59036E-19
 -1       444 2.33652E-05-2.58267E-05 9.81124E-07 2.72455E-05-1.07234E-18 4.12929E-21
 -1       445 1.01189E-04-5.23886E-05-2.09476E-05 4.12687E-05-1.15641E-18 1.38077E-18
 -1       446 1.31083E-04-5.10897E-05-3.42572E-05 2.86735E-05-2.53739E-19-1.01782E-18
 -1       447 8.93513E-05-1.18527E-05-3.32876E-05-1.06770E-05-2.00005E-18-4.40074E-18
 -1       448 1.55769E-04-2.45425E-05-5.61453E-05 6.52831E-07 2.66794E-18-1.03359E-18
 -1       449 1.61379E-04-1.44998E-05-6.26276E-05-2.64454E-08 4.88431E-18-2.29006E-18
 -1       450 1.58741E-04-1.42033E-05-6.16997E-05 6.03553E-07 5.09204E-18-1.28786E-18
 -1       451 1.58062E-04-2.78186E-05-5.55531E-05-4.29401E-06 5.00348E-18-2.95826E-18
 -1       452 1.47483E-04-4.30711E-05-4.45933E-05-1.75623E-05 4.88086E-18-1.39549E-18
 -1       453 1.25333E-04-5.13605E-05-3.16497E-05-3.22277E-05 1.50624E-18-1.16943E-18
 -1       454 8.81308E-05-5.02002E-05-1.62881E-05-4.45773E-05-2.00196E-18-3.75602E-18
 -1       455 4.67704E-05-3.76026E-05-4.22733E-06-4.11036E-05-8.80914E-19-6.40145E-18
 -1       456 1.93754E-05-2.56412E-05 2.49592E-06-2.33646E-05-5.27966E-19-6.94345E-18
 -1       457 1.25330E-05-2.11420E-05 3.64506E-06 3.85016E-06-1.34398E-18-6.90173E-18
 -1       458 3.28370E-05-2.99056E-05-1.20892E-06 3.14597E-05-1.50126E-18-6.03479E-18
 -1       459 6.03487E-05-4.32547E-05-7.53950E-06 4.10451E-05-1.18627E-18-4.10297E-18
 -1       460 1.06568E-04-5.64146E-05-2.15289E-05 3.78808E-05-2.70743E-18-2.89627E-18
 -1       461 1.35627E-04-5.75342E-05-3.36094E-05 2.44285E-05-3.20189E-18-1.45541E-18
 -1       462 1.59619E-04-4.39968E-05-4.93601E-05 5.47268E-06-5.19129E-18-1.43561E-18
 -1       463 1.67408E-04-2.87751E-05-5.90000E-05-1.02369E-06-6.00695E-18-3.19660E-18
 -1       464 1.64900E-04-1.60809E-05-6.34464E-05-1.76297E-06-4.65773E-18-2.80439E-18
 -1       465 1.69667E-04-2.01101E-05-6.35590E-05 1.67498E-06-3.67782E-18-1.30808E-18
 -1       466 1.64730E-04-3.18469E-05-5.66526E-05 1.64967E-06-2.55995E-18-3.58538E-18
 -1       467 1.53276E-04-5.03550E-05-4.41066E-05-1.02500E-05-5.76856E-19-3.28109E-18
 -1       468 1.30417E-04-5.62992E-05-3.18274E-05-2.88281E-05 9.84252E-19 1.49925E-19
 -1       469 9.91964E-05-5.38476E-05-1.95664E-05-3.90676E-05 4.09307E-18 2.80802E-18
 -1       470 5.08976E-05-3.82434E-05-5.51893E-06-3.92314E-05 3.23185E-18 2.99151E-18
 -1       471 2.46905E-05-2.65674E-05 7.93591E-07-2.49284E-05 1.88211E-18 1.80630E-19
 -1       472 1.51191E-04-3.98912E-05-4.75084E-05 1.45682E-05 4.49923E-19 8.54444E-20
 -1       473 8.78599E-05-4.91238E-05-1.63297E-05 4.38849E-05-8.98278E-19 1.37659E-18
 -1       474 8.41714E-05-4.94141E-05-1.46797E-05-4.18858E-05 4.27233E-18 2.18476E-18
 -1       475 9.57874E-05-2.51303E-05-3.02673E-05 6.00012E-06 2.77664E-18 1.59712E-18
 -1       476 8.95799E-05-1.33725E-05-3.26793E-05-3.90617E-06-2.26030E-19-4.12586E-18
 -1       477 9.02776E-05-1.43395E-05-3.25655E-05-5.86177E-06-8.69564E-19-4.26229E-18
 -1       478 8.90855E-05-1.26850E-05-3.27608E-05 5.54215E-08 1.20663E-18-3.92908E-18
 -1       479 8.92198E-05-1.28704E-05-3.27392E-05 2.03613E-06 1.71582E-18-3.69803E-18
 -1       480 8.96113E-05-1.34126E-05-3.26757E-05 3.98076E-06 2.26593E-18-3.35630E-18
 -1       481 9.03281E-05-1.44059E-05-3.25592E-05 5.92907E-06 2.89145E-18-2.56626E-18
 -1       482 9.14655E-05-1.59923E-05-3.23688E-05 7.75693E-06 3.25246E-18-1.65460E-18
 -1       483 9.32328E-05-1.84661E-05-3.20630E-05 9.27623E-06 3.56458E-18-4.68561E-19
 -1       484 9.50908E-05-2.65560E-05-2.93541E-05 2.84023E-06 2.13058E-18 1.20812E-18
 -1       485 9.54574E-05-2.44020E-05-3.04419E-05-5.81799E-06-2.26628E-18-1.95157E-18
 -1       486 1.39789E-04-3.65223E-05-4.47676E-05-8.49959E-06 1.22084E-18-1.16880E-18
 -1       487 9.52658E-05-2.62040E-05-2.95910E-05-2.85423E-06-1.87383E-18-1.60484E-18
 -1       488 9.49257E-05-2.71265E-05-2.90530E-05-9.54765E-07-1.55962E-18-1.48417E-18
 -1       489 9.46717E-05-2.76443E-05-2.87244E-05 2.19265E-07-1.36410E-18-1.30840E-18
 -1       490 9.45484E-05-2.79541E-05-2.85397E-05 9.28013E-07-8.40130E-19-1.23037E-18
 -1       491 9.45395E-05-2.81442E-05-2.84548E-05 1.34973E-06-6.83735E-19-1.49556E-18
 -1       492 9.46193E-05-2.82579E-05-2.84405E-05 1.60892E-06-6.68672E-19-1.60685E-18
 -1       493 9.47658E-05-2.83180E-05-2.84775E-05 1.79462E-06-6.30433E-19-1.42591E-18
 -1       494 9.49641E-05-2.83370E-05-2.85542E-05 1.97340E-06-3.27181E-19-1.12112E-18
 -1       495 9.52067E-05-2.83226E-05-2.86642E-05 2.19746E-06-7.15715E-19-1.17145E-18
 -1       496 9.54918E-05-2.82794E-05-2.88046E-05 2.51001E-06-3.84836E-19-7.45285E-19
 -1       497 9.58216E-05-2.82106E-05-2.89750E-05 2.94864E-06-4.76018E-19-7.51090E-19
 -1       498 9.62010E-05-2.81194E-05-2.91763E-05 3.54696E-06-7.39424E-20-9.24794E-19
 -1       499 9.66374E-05-2.80122E-05-2.94088E-05 4.33430E-06 6.84507E-20-1.31341E-18
 -1       500 9.71413E-05-2.79039E-05-2.96707E-05 5.33269E-06-4.16634E-19-1.60409E-18
 -1       501 9.77318E-05-2.78286E-05-2.99556E-05 6.54983E-06-8.41884E-21-1.23873E-18
 -1       502 9.84488E-05-2.78590E-05-3.02497E-05 7.96582E-06-6.40437E-19-1.96486E-18
 -1       503 9.93793E-05-2.81376E-05-3.05296E-05 9.51058E-06-2.34953E-19-1.55650E-18
 -1       504 1.00704E-04-2.89217E-05-3.07633E-05 1.10274E-05 6.21223E-19-2.50120E-18
 -1       505 1.02767E-04-3.06270E-05-3.09200E-05 1.22149E-05 1.66008E-18-2.37051E-18
 -1       506 1.06133E-04-3.38124E-05-3.10031E-05 1.25362E-05 1.48995E-18-1.86560E-18
 -1       507 1.11523E-04-3.89404E-05-3.11208E-05 1.10940E-05 1.12529E-18-6.39217E-19
 -1       508 1.19363E-04-4.56309E-05-3.16168E-05 6.56255E-06 1.01879E-18-2.91556E-19
 -1       509 1.28513E-04-5.12023E-05-3.31718E-05-2.21360E-06 2.00787E-19 1.26658E-20
 -1       510 1.34453E-04-4.88057E-05-3.69202E-05-1.36333E-05-8.15944E-19-4.15139E-19
 -1       511 1.32827E-04-3.44615E-05-4.25774E-05-1.96039E-05-1.77755E-18-1.31457E-18
 -1       512 1.27393E-04-1.76566E-05-4.76032E-05-9.40166E-06-2.47037E-18-3.98872E-18
 -1       513 1.27575E-04-1.82088E-05-4.74530E-05 1.00861E-05-3.21179E-18-6.12103E-18
 -1       514 1.32799E-04-3.50582E-05-4.23381E-05 1.96523E-05-1.62217E-18-5.10816E-18
 -1       515 1.34669E-04-4.94044E-05-3.67083E-05 1.37325E-05-8.23065E-19-3.46895E-18
 -1       516 1.28212E-04-5.09663E-05-3.31369E-05 1.86227E-06 1.16038E-18-3.37141E-18
 -1       517 1.19073E-04-4.54112E-05-3.15842E-05-6.80441E-06 1.86593E-18-1.73356E-18
 -1       518 1.11292E-04-3.87257E-05-3.11124E-05-1.11943E-05 1.93311E-18-2.15080E-19
 -1       519 1.05987E-04-3.36648E-05-3.10013E-05-1.25466E-05 3.16288E-18 2.52663E-18
 -1       520 1.02679E-04-3.05358E-05-3.09209E-05-1.21733E-05 1.07521E-18 2.89231E-18
 -1       521 1.00655E-04-2.88648E-05-3.07661E-05-1.09497E-05-4.35264E-19 1.00256E-18
 -1       522 9.93561E-05-2.80969E-05-3.05371E-05-9.40248E-06 1.29844E-20-8.26009E-19
 -1       523 9.84481E-05-2.78210E-05-3.02656E-05-7.82412E-06 2.96652E-19 1.30281E-18
 -1       524 9.77547E-05-2.77838E-05-2.99845E-05-6.36401E-06 5.37086E-20 2.49061E-18
 -1       525 9.71918E-05-2.78445E-05-2.97176E-05-5.08565E-06-1.37110E-18 1.75227E-18
 -1       526 9.67207E-05-2.79302E-05-2.94793E-05-4.00239E-06 8.32208E-19 1.52587E-18
 -1       527 9.63219E-05-2.80057E-05-2.92765E-05-3.10002E-06 2.13908E-18 7.49968E-19
 -1       528 9.59822E-05-2.80537E-05-2.91107E-05-2.35047E-06 2.53156E-18 3.21728E-19
 -1       529 9.56951E-05-2.80709E-05-2.89803E-05-1.72089E-06 6.59673E-19 3.47891E-19
 -1       530 9.41608E-05-2.76519E-05-2.85000E-05-2.22063E-07 1.43515E-18 7.08874E-19
 -1       531 9.40222E-05-2.78929E-05-2.83396E-05-8.91617E-07 1.31098E-18 3.78654E-19
 -1       532 9.40456E-05-2.80575E-05-2.82800E-05-1.27387E-06 1.10320E-18 2.52772E-19
 -1       533 9.41847E-05-2.81774E-05-2.82886E-05-1.49198E-06 6.56825E-19 2.29565E-19
 -1       534 9.44057E-05-2.82684E-05-2.83444E-05-1.62933E-06 4.79892E-19 4.25854E-19
 -1       535 9.46884E-05-2.83408E-05-2.84345E-05-1.74383E-06 7.94719E-19 7.48343E-20
 -1       536 9.50240E-05-2.84037E-05-2.85512E-05-1.87591E-06 1.21571E-18 1.85169E-19
 -1       537 9.54129E-05-2.84667E-05-2.86907E-05-2.05257E-06 7.53412E-19-3.99476E-19
 -1       538 9.58623E-05-2.85419E-05-2.88509E-05-2.28878E-06 6.08051E-19-4.91159E-19
 -1       539 9.63845E-05-2.86448E-05-2.90304E-05-2.58676E-06-3.25975E-20-7.52423E-19
 -1       540 9.69956E-05-2.87960E-05-2.92275E-05-2.93328E-06 2.51242E-19-6.79397E-19
 -1       541 9.77141E-05-2.90223E-05-2.94386E-05-3.29502E-06 1.17240E-18-8.03161E-19
 -1       542 9.85590E-05-2.93576E-05-2.96575E-05-3.61235E-06 2.59506E-19 2.73164E-19
 -1       543 9.95472E-05-2.98409E-05-2.98749E-05-3.79286E-06-6.37030E-19 7.25985E-19
 -1       544 1.00687E-04-3.05093E-05-3.00785E-05-3.70719E-06-5.96858E-19 1.15481E-18
 -1       545 1.01968E-04-3.13803E-05-3.02559E-05-3.19284E-06-3.88110E-19 8.91097E-19
 -1       546 1.03334E-04-3.24188E-05-3.03985E-05-2.07604E-06-1.15859E-18-2.72763E-19
 -1       547 1.04653E-04-3.34860E-05-3.05081E-05-2.26404E-07-8.49994E-20 1.08744E-18
 -1       548 1.05676E-04-3.42868E-05-3.06032E-05 2.34062E-06-2.72174E-19 1.13079E-18
 -1       549 1.06030E-04-3.43650E-05-3.07193E-05 5.31263E-06-3.94686E-19 8.85902E-19
 -1       550 1.05338E-04-3.32520E-05-3.08961E-05 7.94162E-06 2.28258E-19 5.65581E-19
 -1       551 1.03501E-04-3.08206E-05-3.11450E-05 9.10386E-06 1.54882E-19 5.30867E-19
 -1       552 1.01032E-04-2.76955E-05-3.14229E-05 7.76485E-06-2.17066E-19 1.25437E-18
 -1       553 9.90434E-05-2.52155E-05-3.16329E-05 3.74242E-06-1.52180E-19 5.70208E-19
 -1       554 9.86752E-05-2.47608E-05-3.16690E-05-1.73468E-06-2.44448E-20 3.93000E-19
 -1       555 1.00153E-04-2.66020E-05-3.15123E-05-6.51943E-06 1.62475E-18-1.93938E-19
 -1       556 1.02590E-04-2.96647E-05-3.12476E-05-8.91986E-06 1.35751E-18-8.09737E-19
 -1       557 1.04768E-04-3.24817E-05-3.09796E-05-8.60387E-06-3.75581E-20-4.68352E-19
 -1       558 1.05904E-04-3.41071E-05-3.07753E-05-6.38236E-06-8.50920E-19 5.99623E-19
 -1       559 1.05905E-04-3.44283E-05-3.06409E-05-3.42995E-06 8.05353E-19 1.16183E-18
 -1       560 1.05086E-04-3.38377E-05-3.05438E-05-6.57749E-07 2.94564E-19 1.07138E-18
 -1       561 1.03843E-04-3.28221E-05-3.04449E-05 1.46746E-06 3.67714E-19-6.46772E-19
 -1       562 1.02477E-04-3.17438E-05-3.03195E-05 2.83504E-06 4.04384E-19-2.23319E-18
 -1       563 1.01164E-04-3.07962E-05-3.01604E-05 3.53431E-06-6.80812E-20-2.11123E-18
 -1       564 9.99831E-05-3.00466E-05-2.99738E-05 3.72967E-06-1.89508E-18-3.09483E-20
 -1       565 9.89609E-05-2.94917E-05-2.97723E-05 3.58865E-06-4.50590E-19 2.43423E-18
 -1       566 9.80962E-05-2.90981E-05-2.95696E-05 3.25006E-06 3.34972E-19 1.60458E-18
 -1       567 9.73761E-05-2.88255E-05-2.93774E-05 2.81490E-06 3.27564E-19 2.25270E-18
 -1       568 9.67833E-05-2.86359E-05-2.92045E-05 2.34816E-06 9.97326E-19 1.34100E-18
 -1       569 9.62997E-05-2.84987E-05-2.90559E-05 1.88578E-06 7.85787E-19 1.28272E-18
 -1       570 9.59080E-05-2.83906E-05-2.89340E-05 1.44390E-06 9.69345E-19 1.89672E-18
 -1       571 9.55895E-05-2.83012E-05-2.88359E-05 1.02240E-06-2.38628E-19 2.68463E-18
 -1       572 9.45699E-05-2.69726E-05-2.89706E-05 1.31687E-06 4.64969E-19-3.08460E-19
 -1       573 9.42928E-05-2.66234E-05-2.90017E-05 1.03773E-06-2.89089E-19 2.20460E-18
 -1       574 9.52191E-05-2.78013E-05-2.88931E-05 1.34005E-06 4.83551E-19 9.00289E-19
 -1       575 9.48903E-05-2.73777E-05-2.89340E-05 1.42006E-06-1.94753E-19-1.94730E-18
 -1       576 9.40922E-05-2.63710E-05-2.90241E-05 6.14359E-07 9.24584E-20 1.51999E-18
 -1       577 9.39941E-05-2.62466E-05-2.90356E-05 9.81789E-08-1.03696E-18 5.32633E-19
 -1       578 9.40168E-05-2.62706E-05-2.90349E-05-4.44561E-07-8.90299E-19 5.22746E-19
 -1       579 9.41620E-05-2.64434E-05-2.90229E-05-9.30868E-07 7.73199E-19-5.06722E-18
 -1       580 9.44245E-05-2.67570E-05-2.90007E-05-1.30378E-06 1.73464E-18 2.39161E-19
 -1       581 9.47775E-05-2.71807E-05-2.89700E-05-1.49079E-06 6.39304E-19-6.48508E-19
 -1       582 9.51653E-05-2.76578E-05-2.89309E-05-1.45866E-06-7.27582E-19-4.52572E-19
 -1       583 2.74779E-05-1.38507E-05-5.18374E-06-1.18974E-05-9.93821E-19-2.25925E-18
 -1       584 9.45139E-05-2.72655E-05-2.88119E-05 9.23372E-07 1.65920E-18 1.04716E-18
 -1       585 2.71371E-05-1.47191E-05-4.71678E-06 1.70536E-05-2.22058E-18 8.86526E-19
 -1       586 1.25055E-04-5.90413E-05-2.83692E-05 2.60221E-05-1.35801E-18-1.86083E-19
 -1       587 4.89356E-05-2.76796E-05-8.54473E-06 3.77595E-05-2.21557E-18-5.78312E-19
 -1       588 3.15784E-05-1.63534E-05-5.86946E-06 1.89901E-05 3.98397E-19-5.69916E-18
 -1       589 8.92007E-05-1.28458E-05-3.27416E-05-1.92636E-06 5.19791E-19-4.06253E-18
 -1       590 1.34164E-04-6.83375E-06-5.51540E-05 2.31852E-07 4.76752E-18-1.70702E-19
 -1       591 1.50291E-04-3.65986E-05-4.91641E-05-1.28414E-05-3.46029E-18-1.03110E-18
 -1       592 1.36380E-04-1.34148E-05-5.32325E-05-8.08700E-06 4.09784E-18-1.22047E-18
 -1       593 1.38824E-04-1.69884E-05-5.27256E-05 8.72240E-06 4.20891E-18 8.59738E-19
 -1       594 1.41726E-04-3.88693E-05-4.45023E-05 6.32331E-06 1.02798E-18 2.34220E-18
 -1       595 1.39088E-04-5.44761E-05-3.64136E-05-1.23753E-05 6.33422E-20 2.26454E-18
 -1       596 1.17799E-04-5.82810E-05-2.54806E-05-3.21123E-05-2.33882E-18 6.71935E-20
 -1       597 7.54285E-05-4.21480E-05-1.38498E-05-4.37230E-05-3.27055E-18-4.06729E-18
 -1       598 4.45975E-05-2.55504E-05-7.59824E-06-3.60996E-05-2.52262E-18-4.88860E-18
 -1       599 2.40234E-05-1.37040E-05-3.81844E-06-1.18925E-05-7.58134E-19-6.19520E-18
 -1       600 6.05277E-05-3.47675E-05-1.05673E-05 3.85136E-05 1.03894E-18-2.61966E-18
 -1       601 9.45996E-05-5.21635E-05-1.79378E-05 3.90275E-05 1.28384E-18-1.59360E-18
 -1       602 1.29495E-04-6.31035E-05-2.84403E-05 2.30004E-05-6.19710E-19 3.03555E-19
 -1       603 1.47741E-04-5.68487E-05-3.92023E-05 2.25338E-07-2.40886E-18 9.33113E-19
 -1       604 1.44837E-04-1.83410E-05-5.47034E-05-1.07003E-05-4.51765E-18-3.43313E-18
 -1       605 1.42080E-04-1.23803E-05-5.61153E-05 3.17393E-06-3.70503E-18-5.50451E-18
 -1       606 1.45761E-04-2.14449E-05-5.37526E-05 1.20905E-05-2.39509E-18-4.71480E-18
 -1       607 1.49505E-04-4.35761E-05-4.58040E-05 1.19735E-05-6.27996E-19-3.54483E-18
 -1       608 1.43007E-04-6.14828E-05-3.51711E-05-6.33024E-06 8.41421E-19-4.63862E-18
 -1       609 1.27796E-04-6.29702E-05-2.76388E-05-2.40913E-05 4.55121E-18-6.68203E-19
 -1       610 5.21029E-05-2.68806E-05-1.01980E-05-3.35406E-05 2.61667E-18 1.65087E-18
 -1       611 9.45651E-05-2.06757E-05-3.16869E-05-9.55938E-06-2.66796E-18-2.54562E-18
 -1       612 9.61171E-05-2.31742E-05-3.12647E-05 9.57391E-06 3.45663E-18 2.37771E-18
 -1       613 1.40115E-04-5.25653E-05-3.77239E-05 7.19108E-06-6.69023E-19 8.13628E-19
 -1       614 9.13660E-05-1.58377E-05-3.23926E-05-7.74399E-06-1.57971E-18-4.11160E-18
 -1       615 1.11528E-04-5.60091E-05-2.36168E-05 3.27808E-05-8.23634E-19-1.72919E-19
 -1       616 9.55254E-05-2.80717E-05-2.89072E-05-1.33656E-06-3.55795E-19 8.45672E-19
 -1       617 7.39929E-05-3.81588E-05-1.49399E-05 4.07396E-05-2.13638E-19 9.66809E-19
 -1       618 1.01550E-04-5.18508E-05-2.10872E-05-3.65898E-05-3.20660E-18-9.21903E-19
 -1       619 9.15791E-05-1.67884E-05-3.20588E-05 2.41742E-06 1.84664E-18-3.09086E-18
 -1       620 9.13196E-05-1.63797E-05-3.21225E-05 8.33705E-07 1.25384E-18-3.40506E-18
 -1       621 9.29147E-05-1.89618E-05-3.16997E-05 5.22222E-06 2.77957E-18-1.81082E-18
 -1       622 9.39948E-05-2.09022E-05-3.13334E-05 6.10750E-06 2.99844E-18-9.35262E-19
 -1       623 9.52681E-05-2.40702E-05-3.05030E-05 5.11064E-06 2.62433E-18-1.13797E-19
 -1       624 4.92346E-05-1.81667E-05-1.28131E-05 2.55050E-05-2.23381E-18-6.15449E-19
 -1       625 9.53399E-05-2.59054E-05-2.97538E-05 2.53597E-06 2.05373E-18-3.17934E-19
 -1       626 1.21812E-04-9.28384E-06-4.87778E-05-5.41221E-06 4.22558E-18 2.60794E-20
 -1       627 9.54296E-05-2.56626E-05-2.98992E-05-2.36022E-06-1.48972E-18-2.09142E-18
 -1       628 9.54919E-05-2.68695E-05-2.94090E-05-7.40595E-07-1.20439E-18-1.70836E-18
 -1       629 9.54457E-05-2.75957E-05-2.90783E-05 3.32864E-07-9.23133E-19-1.33752E-18
 -1       630 9.53795E-05-2.80204E-05-2.88681E-05 1.02106E-06-8.56604E-19-1.30531E-18
 -1       631 9.53271E-05-2.82490E-05-2.87478E-05 1.46191E-06-6.01818E-19-1.22619E-18
 -1       632 9.52961E-05-2.83415E-05-2.86948E-05 1.76207E-06-7.11511E-19-1.19670E-18
 -1       633 9.52836E-05-2.83329E-05-2.86931E-05 2.00439E-06-1.43948E-19-9.36579E-19
 -1       634 9.52837E-05-2.82436E-05-2.87314E-05 2.25369E-06-4.11278E-19-6.97129E-19
 -1       635 9.52886E-05-2.80845E-05-2.88016E-05 2.56181E-06-4.92249E-19-5.55347E-19
 -1       636 9.52892E-05-2.78605E-05-2.88978E-05 2.97149E-06-4.37733E-19-5.94006E-19
 -1       637 9.52746E-05-2.75731E-05-2.90145E-05 3.51895E-06-4.16377E-19-2.75536E-19
 -1       638 9.52316E-05-2.72237E-05-2.91457E-05 4.23514E-06-2.77255E-19-4.33159E-19
 -1       639 9.51465E-05-2.68193E-05-2.92824E-05 5.14564E-06-2.92095E-19-1.15377E-18
 -1       640 9.50095E-05-2.63824E-05-2.94107E-05 6.26932E-06-2.82711E-19-9.67038E-19
 -1       641 9.48265E-05-2.59684E-05-2.95095E-05 7.61619E-06-5.37362E-19-9.41904E-19
 -1       642 9.46438E-05-2.56961E-05-2.95478E-05 9.18444E-06-2.51993E-19-1.01724E-18
 -1       643 9.45955E-05-2.57939E-05-2.94853E-05 1.09566E-05-3.75789E-19-7.74898E-19
 -1       644 9.49841E-05-2.66659E-05-2.92787E-05 1.28908E-05 6.15844E-19-1.10445E-18
 -1       645 9.64069E-05-2.89623E-05-2.89036E-05 1.48820E-05 2.06862E-18-2.02798E-18
 -1       646 9.98823E-05-3.35695E-05-2.84153E-05 1.66245E-05 1.89480E-18-1.97255E-18
 -1       647 1.06924E-04-4.13450E-05-2.80771E-05 1.72639E-05 1.69414E-18-1.95899E-18
 -1       648 1.18778E-04-5.18231E-05-2.86122E-05 1.46692E-05 1.11911E-18-1.40397E-18
 -1       649 1.33114E-04-5.88018E-05-3.19412E-05-6.14644E-06 1.69168E-18-8.23025E-19
 -1       650 1.18444E-04-5.15467E-05-2.86549E-05-1.46840E-05 1.66234E-18 8.35363E-19
 -1       651 1.06519E-04-4.09155E-05-2.80863E-05-1.72090E-05 2.53218E-18 6.38871E-19
 -1       652 9.97256E-05-3.33497E-05-2.84303E-05-1.65591E-05 3.15497E-18 1.94176E-18
 -1       653 9.63276E-05-2.88238E-05-2.89269E-05-1.47875E-05 1.46666E-18 4.30101E-19
 -1       654 9.49640E-05-2.65876E-05-2.93032E-05-1.27779E-05-4.51802E-19-6.72105E-19
 -1       655 9.46029E-05-2.57425E-05-2.95106E-05-1.08267E-05-8.87333E-19-8.30264E-19
 -1       656 9.46621E-05-2.56470E-05-2.95769E-05-9.02933E-06 4.33428E-19 1.25481E-18
 -1       657 9.48476E-05-2.59040E-05-2.95463E-05-7.42345E-06 5.12102E-19 1.01603E-18
 -1       658 9.50294E-05-2.62884E-05-2.94596E-05-6.02240E-06-1.11196E-18 1.18363E-19
 -1       659 9.51615E-05-2.66821E-05-2.93476E-05-4.82370E-06 1.04904E-19 2.52244E-18
 -1       660 9.52356E-05-2.70276E-05-2.92314E-05-3.81268E-06 1.83591E-18 3.48361E-18
 -1       661 9.52613E-05-2.73043E-05-2.91239E-05-2.96709E-06 3.39315E-19 2.93150E-18
 -1       662 9.52356E-05-2.74918E-05-2.90318E-05-2.27034E-06 3.97318E-19 2.79000E-19
 -1       663 9.50334E-05-2.80056E-05-2.87259E-05-9.93449E-07 1.16852E-18 3.75954E-20
 -1       664 9.51180E-05-2.76235E-05-2.89253E-05-2.95986E-07 1.36641E-18-2.35280E-19
 -1       665 9.50221E-05-2.83365E-05-2.85795E-05-1.69569E-06 6.49232E-19-1.01042E-19
 -1       666 9.50871E-05-2.83799E-05-2.85887E-05-1.89464E-06 9.53868E-19-6.50539E-19
 -1       667 9.51903E-05-2.83762E-05-2.86345E-05-2.07904E-06 8.90213E-19-3.99424E-19
 -1       668 9.53301E-05-2.83440E-05-2.87082E-05-2.29125E-06 1.07860E-18-1.70863E-19
 -1       669 9.55101E-05-2.83019E-05-2.88033E-05-2.55935E-06 7.20050E-19 1.97564E-19
 -1       670 9.57402E-05-2.82715E-05-2.89148E-05-2.89786E-06 5.82047E-19 4.91315E-19
 -1       671 9.60369E-05-2.82810E-05-2.90379E-05-3.30654E-06 2.30830E-19 2.43602E-19
 -1       672 9.64263E-05-2.83689E-05-2.91671E-05-3.76739E-06 5.33506E-19 9.40330E-20
 -1       673 9.69460E-05-2.85873E-05-2.92963E-05-4.23946E-06 3.18735E-20 6.19477E-19
 -1       674 9.76480E-05-2.90036E-05-2.94190E-05-4.65190E-06-4.79900E-19 6.11716E-19
 -1       675 9.85989E-05-2.96972E-05-2.95297E-05-4.89633E-06-7.66005E-19 5.28551E-19
 -1       676 9.98738E-05-3.07451E-05-2.96277E-05-4.82005E-06-6.69840E-19 9.00437E-19
 -1       677 1.01534E-04-3.21866E-05-2.97225E-05-4.22512E-06-3.60976E-19 1.43124E-18
 -1       678 1.03580E-04-3.39562E-05-2.98417E-05-2.88596E-06-3.44689E-19 7.28843E-19
 -1       679 1.05864E-04-3.57817E-05-3.00388E-05-6.09123E-07-2.27738E-19 6.59989E-19
 -1       680 1.07986E-04-3.70791E-05-3.03919E-05 2.63011E-06-7.64509E-19 8.33092E-19
 -1       681 1.09237E-04-3.69421E-05-3.09848E-05 6.42814E-06-1.65910E-19 1.02826E-18
 -1       682 1.08841E-04-3.45298E-05-3.18532E-05 9.66497E-06 1.25758E-19 1.68585E-18
 -1       683 1.06627E-04-2.99044E-05-3.28872E-05 1.05336E-05-1.52044E-19 8.88412E-19
 -1       684 1.03525E-04-2.46147E-05-3.38304E-05 7.68131E-06-2.35672E-20 1.64399E-18
 -1       685 1.01744E-04-2.17394E-05-3.43054E-05 1.37199E-06 8.19681E-19 1.59459E-18
 -1       686 1.02582E-04-2.30937E-05-3.40756E-05-5.59366E-06 1.14867E-18-1.03118E-19
 -1       687 1.05457E-04-2.78414E-05-3.32697E-05-9.91718E-06 2.50429E-18-1.23599E-19
 -1       688 1.08192E-04-3.29952E-05-3.22332E-05-1.03645E-05 1.42518E-18-9.32146E-19
 -1       689 1.09320E-04-3.63347E-05-3.12813E-05-7.77880E-06-9.71370E-19-1.97505E-18
 -1       690 1.08602E-04-3.72422E-05-3.05842E-05-4.02178E-06-4.65050E-19-1.78585E-18
 -1       691 1.06713E-04-3.63672E-05-3.01514E-05-4.98718E-07-1.22768E-20-1.00380E-18
 -1       692 1.04426E-04-3.46478E-05-2.99082E-05 2.14549E-06 1.66090E-18-9.62802E-20
 -1       693 1.02263E-04-3.28014E-05-2.97714E-05 3.80390E-06 5.97139E-19 1.51291E-19
 -1       694 1.00456E-04-3.12111E-05-2.96778E-05 4.62867E-06-1.93584E-19 3.44737E-19
 -1       695 9.90484E-05-3.00046E-05-2.95908E-05 4.84302E-06-1.91635E-18 1.08806E-18
 -1       696 9.79927E-05-2.91698E-05-2.94957E-05 4.65537E-06-1.81675E-18-1.93502E-19
 -1       697 9.72156E-05-2.86369E-05-2.93907E-05 4.23189E-06-3.03800E-20-3.30509E-20
 -1       698 9.66456E-05-2.83230E-05-2.92807E-05 3.69271E-06 2.43229E-19 9.93470E-19
 -1       699 9.62234E-05-2.81530E-05-2.91726E-05 3.11744E-06 1.04507E-18-7.29842E-19
 -1       700 9.59029E-05-2.80655E-05-2.90727E-05 2.55214E-06 3.92072E-19 3.42974E-19
 -1       701 9.56512E-05-2.80164E-05-2.89855E-05 2.01927E-06 1.16826E-19 6.28428E-19
 -1       702 9.54090E-05-2.79014E-05-2.89311E-05 1.67782E-06 9.63173E-19 1.05959E-18
 -1       703 9.35874E-05-2.60253E-05-2.89555E-05 4.98319E-07-2.62148E-19-1.27115E-18
 -1       704 9.52090E-05-2.75904E-05-2.89789E-05-1.85216E-06 9.52712E-19-9.77393E-19
 -1       705 9.41815E-05-2.66345E-05-2.89488E-05 1.54733E-06 5.58497E-19 1.38294E-18
 -1       706 9.35178E-05-2.59424E-05-2.89613E-05-1.84950E-07-3.11888E-19 3.20338E-19
 -1       707 9.38205E-05-2.62674E-05-2.89515E-05 1.09898E-06 1.36735E-18 2.43164E-18
 -1       708 9.36296E-05-2.60362E-05-2.89690E-05-8.53848E-07-8.27592E-19-1.73878E-18
 -1       709 9.39276E-05-2.63117E-05-2.89785E-05-1.43904E-06-6.75217E-19-2.56215E-18
 -1       710 9.43738E-05-2.67384E-05-2.89871E-05-1.85317E-06-1.00085E-18-1.66814E-19
 -1       711 9.52409E-05-2.69815E-05-2.92517E-05 8.17032E-07 1.66241E-18-4.17434E-19
 -1       712 8.31849E-05-4.13967E-05-1.75007E-05-3.57896E-05 2.95718E-18 2.94648E-18
 -1       713 1.37684E-04-6.05321E-05-3.31556E-05 4.53205E-06-2.49438E-19 9.56658E-19
 -1       714 1.43876E-04-4.94833E-05-4.07164E-05-1.14370E-05-1.58145E-18 1.68083E-19
 -1       715 9.50013E-05-2.82228E-05-2.86193E-05-1.42259E-06 8.98028E-19 9.73179E-20
 -1       716 9.50157E-05-2.35974E-05-3.06047E-05-4.67889E-06-1.70553E-18-2.61590E-18
 -1       717 9.21033E-05-1.76263E-05-3.19246E-05 3.91715E-06 2.37758E-18-2.45407E-18
 -1       718 9.20516E-05-1.75541E-05-3.19341E-05-3.85673E-06-5.98034E-19-3.71789E-18
 -1       719 3.76152E-05-1.05509E-05-1.10751E-05 3.48064E-06-2.09295E-18-1.06361E-18
 -1       720 1.20883E-04-1.07648E-05-4.77315E-05 7.45922E-06 3.86099E-18 1.58085E-18
 -1       721 5.50313E-05-2.33576E-05-1.31613E-05 2.84539E-05 1.23752E-18-2.85524E-18
 -1       722 1.27474E-04-2.55856E-05-4.40961E-05 1.33904E-05 1.87565E-18 2.21780E-18
 -1       723 1.35437E-04-4.94623E-05-3.71017E-05 1.64782E-06-3.79643E-19 3.27143E-18
 -1       724 1.28660E-04-5.78724E-05-3.03984E-05-1.52454E-05-1.23085E-18 1.90421E-18
 -1       725 6.84985E-05-3.16278E-05-1.53740E-05-3.66940E-05-2.91909E-18-3.43003E-18
 -1       726 1.16273E-04-5.74003E-05-2.51016E-05 2.60097E-05 1.72456E-18-3.01064E-19
 -1       727 1.26052E-04-2.22364E-05-4.49425E-05-1.30515E-05 2.28482E-18-9.35098E-19
 -1       728 4.29523E-05-1.59610E-05-1.10504E-05-2.27574E-05-1.14797E-18-4.69129E-18
 -1       729 8.48349E-05-4.15443E-05-1.82128E-05 3.53807E-05 2.00196E-18-1.52265E-18
 -1       730 3.75879E-05-1.07254E-05-1.09637E-05 1.64199E-06 5.88146E-20-5.86126E-18
 -1       731 4.70092E-05-1.64134E-05-1.26135E-05-1.95877E-05 8.37371E-20-2.99500E-18
 -1       732 9.28301E-05-1.88415E-05-3.17174E-05-5.19383E-06-1.07376E-18-3.61768E-18
 -1       733 9.13093E-05-1.63669E-05-3.21239E-05-7.67974E-07 7.55693E-19-3.49247E-18
 -1       734 1.35097E-04-4.72757E-05-3.79098E-05-4.77367E-06-4.59562E-19-1.20247E-18
 -1       735 1.26309E-04-5.80417E-05-2.92704E-05 1.64926E-05-1.97932E-18 3.55357E-19
 -1       736 9.46247E-05-2.70827E-05-2.89469E-05 1.79495E-06 2.80009E-19-1.19967E-18
 -1       737 6.58194E-05-2.67357E-05-1.64215E-05 3.13516E-05-1.76891E-18 2.46698E-18
 -1       738 9.41767E-05-2.12745E-05-3.12467E-05-6.12220E-06-1.72772E-18-3.19330E-18
 -1       739 9.50276E-05-2.74941E-05-2.89429E-05 1.81315E-06-1.14963E-19-8.14387E-19
 -1       740 1.17250E-04-5.58952E-05-2.61907E-05-2.39193E-05-2.77068E-18 8.03609E-19
 -1       741 9.63065E-05-4.72258E-05-2.08151E-05 3.52007E-05 2.06544E-19-2.04122E-19
 -1       742 8.98990E-05-4.23007E-05-2.02019E-05-3.44890E-05-3.55005E-18-2.15572E-18
 -1       743 5.08382E-05-1.45637E-05-1.52271E-05 1.48369E-05 8.17354E-19-3.35650E-18
 -1       744 6.73661E-05-2.75834E-05-1.68971E-05-2.98211E-05 1.11204E-18 1.29765E-18
 -1       745 9.15485E-05-1.67476E-05-3.20639E-05-2.34653E-06 1.29865E-19-3.31581E-18
 -1       746 1.26104E-04-3.36929E-05-3.98818E-05-1.32952E-05 2.88097E-19-1.77370E-18
 -1       747 1.27934E-04-3.80582E-05-3.87575E-05 1.21971E-05 7.59901E-19 1.11598E-18
 -1       748 1.06621E-04-5.35944E-05-2.24852E-05-3.09330E-05 3.77171E-18 1.04620E-18
 -1       749 5.22906E-05-1.34154E-05-1.63812E-05 1.21688E-05-1.91031E-18-7.65493E-19
 -1       750 9.46447E-05-2.26650E-05-3.08456E-05 3.85829E-06 2.54832E-18-1.25614E-18
 -1       751 1.12444E-04-1.09316E-05-4.38571E-05 5.12804E-07 3.39568E-18-4.95334E-19
 -1       752 9.58666E-05-2.67443E-05-2.96237E-05-4.07486E-07-8.88725E-19-2.23208E-18
 -1       753 9.59376E-05-2.75636E-05-2.93032E-05 4.77626E-07-8.10983E-19-1.93361E-18
 -1       754 9.58980E-05-2.80354E-05-2.90840E-05 1.07610E-06-6.57189E-19-1.84098E-18
 -1       755 9.57957E-05-2.82597E-05-2.89440E-05 1.48350E-06-3.89386E-19-1.63756E-18
 -1       756 9.56538E-05-2.83006E-05-2.88657E-05 1.78543E-06-1.84356E-19-1.11358E-18
 -1       757 9.54801E-05-2.81989E-05-2.88348E-05 2.05149E-06-2.29290E-19-9.81463E-19
 -1       758 9.52722E-05-2.79789E-05-2.88399E-05 2.33726E-06-4.52923E-20-7.97706E-19
 -1       759 9.50195E-05-2.76534E-05-2.88711E-05 2.68711E-06-3.14645E-19-6.35711E-20
 -1       760 9.47048E-05-2.72274E-05-2.89188E-05 3.13660E-06-5.04528E-19-2.75284E-19
 -1       761 9.43040E-05-2.67018E-05-2.89723E-05 3.71435E-06-7.05322E-19-3.09097E-19
 -1       762 9.37874E-05-2.60780E-05-2.90182E-05 4.44346E-06-6.01217E-19-6.78396E-19
 -1       763 9.31218E-05-2.53659E-05-2.90380E-05 5.34279E-06-2.80526E-19-4.67262E-19
 -1       764 9.22764E-05-2.45955E-05-2.90058E-05 6.43051E-06-6.62155E-19-5.50395E-19
 -1       765 9.12366E-05-2.38371E-05-2.88851E-05 7.73229E-06-6.11484E-19-8.86352E-19
 -1       766 9.00307E-05-2.32348E-05-2.86264E-05 9.29687E-06-3.27262E-19-6.75598E-19
 -1       767 8.87792E-05-2.30554E-05-2.81666E-05 1.12241E-05 3.99611E-19-4.84228E-19
 -1       768 8.77798E-05-2.37609E-05-2.74353E-05 1.37051E-05 7.30494E-19 4.60547E-19
 -1       769 8.76795E-05-2.61396E-05-2.63650E-05 1.70560E-05 1.62293E-18-1.11362E-18
 -1       770 8.97984E-05-3.13587E-05-2.49860E-05 2.13955E-05 1.27072E-18-1.48609E-18
 -1       771 9.85964E-05-4.23761E-05-2.39262E-05 2.60052E-05 2.23060E-18-1.77776E-18
 -1       772 9.49132E-05-2.33427E-05-3.06710E-05-3.43953E-06-1.06902E-18-2.90500E-18
 -1       773 9.93898E-05-4.19795E-05-2.43683E-05-2.59266E-05 2.75820E-18 2.33977E-18
 -1       774 9.17425E-05-3.22486E-05-2.54789E-05-2.13329E-05 2.43080E-18 1.66673E-18
 -1       775 8.91374E-05-2.67256E-05-2.67355E-05-1.69184E-05 1.53746E-18-1.60486E-18
 -1       776 8.89248E-05-2.42594E-05-2.77101E-05-1.37320E-05-2.68426E-19-2.50272E-18
 -1       777 8.96550E-05-2.34414E-05-2.83760E-05-1.12935E-05-5.98253E-19-1.74464E-18
 -1       778 9.07034E-05-2.35251E-05-2.87898E-05-9.33932E-06 1.77209E-18-1.91087E-18
 -1       779 9.17462E-05-2.40363E-05-2.90179E-05-7.71440E-06 6.64738E-19-2.17277E-19
 -1       780 9.26491E-05-2.47015E-05-2.91199E-05-6.33318E-06-5.18931E-19-6.57132E-19
 -1       781 9.33738E-05-2.53722E-05-2.91432E-05-5.15216E-06 1.01427E-18 1.95264E-18
 -1       782 9.39262E-05-2.59737E-05-2.91222E-05-4.14567E-06 5.02143E-19 1.98796E-18
 -1       783 9.43282E-05-2.64713E-05-2.90811E-05-3.29725E-06 6.39608E-19 5.45169E-19
 -1       784 9.45950E-05-2.68498E-05-2.90340E-05-2.57941E-06-5.70612E-19-1.15500E-19
 -1       785 6.12526E-05-2.18787E-05-1.65752E-05-2.64213E-05-2.13230E-18-3.25962E-18
 -1       786 9.54515E-05-2.83514E-05-2.87572E-05-2.01267E-06 6.78807E-19-6.24081E-19
 -1       787 9.55293E-05-2.83711E-05-2.87821E-05-1.77438E-06 1.00945E-18-7.74533E-19
 -1       788 9.53231E-05-2.81190E-05-2.88017E-05-2.53273E-06 5.10150E-19 1.27586E-19
 -1       789 9.52864E-05-2.79625E-05-2.88530E-05-2.88155E-06 5.01090E-19-3.27362E-19
 -1       790 9.52863E-05-2.78224E-05-2.89130E-05-3.31311E-06 4.44024E-19-2.61023E-19
 -1       791 9.53489E-05-2.77427E-05-2.89739E-05-3.82842E-06 5.54726E-19-4.47560E-19
 -1       792 9.55168E-05-2.77846E-05-2.90279E-05-4.41247E-06-1.41740E-19 2.79754E-19
 -1       793 9.58562E-05-2.80312E-05-2.90677E-05-5.02867E-06 7.38118E-20-4.02693E-20
 -1       794 9.64624E-05-2.85894E-05-2.90884E-05-5.61128E-06-6.55809E-19-5.12648E-19
 -1       795 9.74650E-05-2.95855E-05-2.90913E-05-6.05476E-06-1.22098E-18-4.69258E-19
 -1       796 9.90215E-05-3.11441E-05-2.90908E-05-6.19647E-06-1.12707E-18 1.98592E-19
 -1       797 1.01285E-04-3.33312E-05-2.91240E-05-5.79650E-06-3.90447E-19 9.73141E-19
 -1       798 1.04319E-04-3.60425E-05-2.92627E-05-4.52882E-06-3.69339E-19 3.94190E-19
 -1       799 1.07957E-04-3.88306E-05-2.96280E-05-2.03261E-06-9.55424E-19 1.42852E-18
 -1       800 1.11552E-04-4.06735E-05-3.03805E-05 1.93821E-06-3.49861E-19 1.84608E-18
 -1       801 1.13897E-04-3.99951E-05-3.16755E-05 6.92157E-06 1.37982E-19 2.21572E-18
 -1       802 1.13476E-04-3.52222E-05-3.35194E-05 1.13270E-05 1.27779E-19 2.63577E-18
 -1       803 1.09621E-04-2.67447E-05-3.55979E-05 1.18123E-05 6.52784E-19 8.32594E-19
 -1       804 1.05886E-04-1.94091E-05-3.71431E-05 6.27396E-06 2.48313E-19-1.16349E-19
 -1       805 1.05126E-04-1.80091E-05-3.74260E-05-2.94549E-06 1.99870E-18-4.98328E-19
 -1       806 1.08011E-04-2.34762E-05-3.63243E-05-1.04363E-05 1.59682E-18-1.03109E-18
 -1       807 1.12422E-04-3.22482E-05-3.43411E-05-1.22061E-05 2.03767E-18-1.56403E-19
 -1       808 1.14108E-04-3.87138E-05-3.23262E-05-8.73195E-06 1.44838E-18-1.89970E-20
 -1       809 1.12678E-04-4.08166E-05-3.07973E-05-3.72719E-06-8.94357E-19-1.83433E-18
 -1       810 1.09376E-04-3.97052E-05-2.98590E-05 7.15393E-07-1.07688E-18-7.80598E-19
 -1       811 1.05644E-04-3.71130E-05-2.93719E-05 3.75802E-06-3.70981E-19-1.49605E-19
 -1       812 1.02334E-04-3.42758E-05-2.91686E-05 5.42913E-06 5.90199E-19 6.95699E-19
 -1       813 9.97806E-05-3.18511E-05-2.91129E-05 6.08866E-06-9.17542E-20 1.00125E-18
 -1       814 9.79756E-05-3.00423E-05-2.91144E-05 6.09006E-06-1.25973E-18 9.91984E-19
 -1       815 9.67808E-05-2.88236E-05-2.91245E-05 5.69933E-06-1.52460E-18-8.04546E-19
 -1       816 9.60355E-05-2.80829E-05-2.91224E-05 5.10197E-06-8.48943E-19-1.28563E-18
 -1       817 9.55964E-05-2.76885E-05-2.91032E-05 4.41968E-06-4.63508E-19-2.00306E-18
 -1       818 9.53528E-05-2.75224E-05-2.90700E-05 3.72796E-06 4.24682E-19-1.92566E-18
 -1       819 9.52232E-05-2.74874E-05-2.90294E-05 3.07264E-06 3.18520E-19 6.30414E-20
 -1       820 9.51541E-05-2.75167E-05-2.89873E-05 2.47020E-06 7.06659E-19-1.47636E-18
 -1       821 9.50810E-05-2.75036E-05-2.89622E-05 2.13085E-06-1.07800E-18-7.01993E-19
 -1       822 9.32047E-05-1.96685E-05-3.15166E-05 1.20921E-06 1.26866E-18-2.90538E-18
 -1       823 9.37424E-05-2.61505E-05-2.89680E-05-2.06771E-06-1.67333E-18-8.88115E-19
 -1       824 9.29346E-05-2.55494E-05-2.88795E-05 2.59577E-07 6.95338E-19-2.33671E-18
 -1       825 1.14018E-04-5.37639E-05-2.57407E-05 2.41489E-05-1.13263E-18-1.39153E-18
 -1       826 9.32173E-05-2.57283E-05-2.89240E-05-1.40974E-06-2.14016E-18-2.61574E-18
 -1       827 9.53811E-05-2.82580E-05-2.87670E-05-2.25214E-06 5.69260E-19-2.05925E-19
 -1       828 5.14132E-05-1.23631E-05-1.64429E-05-7.07001E-06-2.46318E-19-4.46277E-18
 -1       829 1.15684E-04-1.96170E-05-4.14883E-05 1.16193E-05 2.08113E-18 1.67452E-18
 -1       830 9.57275E-05-2.75874E-05-2.92032E-05-4.29336E-07 1.24526E-18-6.88453E-19
 -1       831 9.52245E-05-2.44400E-05-3.03365E-05 3.35142E-06 2.33973E-18-9.22773E-19
 -1       832 9.55872E-05-2.54347E-05-3.00681E-05-1.69424E-06-1.11146E-18-2.39499E-18
 -1       833 9.40501E-05-2.12744E-05-3.11906E-05-4.40525E-06-1.08738E-18-3.36290E-18
 -1       834 7.66732E-05-2.93003E-05-2.00777E-05 2.75048E-05 2.47966E-18-5.90422E-19
 -1       835 1.28181E-04-5.27090E-05-3.23814E-05-2.26194E-06-3.90793E-19 8.08387E-19
 -1       836 4.83948E-05-1.24849E-05-1.50571E-05-1.06109E-05 2.63758E-19-3.82007E-18
 -1       837 1.25536E-04-5.87935E-05-2.85156E-05-1.72039E-05 2.58874E-18-8.84898E-19
 -1       838 1.13831E-04-1.67637E-05-4.19225E-05-9.55505E-06 2.10819E-18-1.13329E-18
 -1       839 9.29457E-05-2.55275E-05-2.88938E-05-5.97460E-07-1.29514E-18-2.08015E-20
 -1       840 1.27318E-04-5.10482E-05-3.27530E-05 9.00175E-07 2.56691E-20-1.61175E-19
 -1       841 9.30924E-05-1.94653E-05-3.15553E-05 2.34840E-08 8.30576E-19-2.98797E-18
 -1       842 9.40538E-05-2.12910E-05-3.11842E-05 3.25791E-06 2.36571E-18-1.73501E-18
 -1       843 9.55319E-05-2.61004E-05-2.97564E-05 1.49538E-06 1.76644E-18-1.11907E-18
 -1       844 9.35254E-05-2.02673E-05-3.13973E-05 2.31769E-06 1.89082E-18-2.23560E-18
 -1       845 9.56814E-05-2.80454E-05-2.89870E-05-1.06550E-06 9.60498E-19-7.34759E-19
 -1       846 1.22150E-04-5.25469E-05-2.98104E-05 8.72014E-06-3.37181E-19 2.52585E-18
 -1       847 6.14975E-05-1.86155E-05-1.81810E-05 1.99506E-05-1.45199E-18 7.48433E-19
 -1       848 9.33379E-05-1.99037E-05-3.14738E-05-3.49884E-06-6.37219E-19-3.46827E-18
 -1       849 7.74094E-05-3.10539E-05-1.96958E-05-2.95529E-05-2.37955E-18-2.46576E-18
 -1       850 6.21594E-05-1.85368E-05-1.84787E-05-1.94775E-05 2.92623E-20-2.05924E-18
 -1       851 8.33902E-05-3.57513E-05-2.02434E-05 3.14048E-05-1.70254E-18 1.14887E-18
 -1       852 9.56093E-05-2.82842E-05-2.88536E-05-1.48282E-06 8.31531E-19-7.04537E-19
 -1       853 9.36021E-05-2.61733E-05-2.88980E-05 1.69993E-06 1.59458E-18 2.21218E-18
 -1       854 9.31691E-05-2.57791E-05-2.88815E-05 1.05736E-06 1.18858E-18-1.26478E-18
 -1       855 9.56638E-05-2.69809E-05-2.94351E-05 3.67143E-07 1.22159E-18-9.87603E-19
 -1       856 9.28276E-05-1.89850E-05-3.16493E-05-2.33644E-06-1.00897E-19-2.97594E-18
 -1       857 9.41701E-05-2.66779E-05-2.89250E-05 2.11748E-06 1.67952E-18 3.64902E-19
 -1       858 1.24002E-04-4.26711E-05-3.49428E-05-8.86773E-06 8.67501E-19 3.47581E-19
 -1       859 5.28301E-05-1.20567E-05-1.72879E-05 2.40845E-06 7.10373E-19-4.66812E-18
 -1       860 9.57941E-05-2.54580E-05-3.01434E-05-1.04148E-06-7.03502E-19-2.32055E-18
 -1       861 9.45288E-05-2.72078E-05-2.88518E-05-3.51840E-06 3.07292E-19-2.12398E-19
 -1       862 9.62468E-05-2.75771E-05-2.94299E-05 5.86336E-07-4.72668E-19-1.89494E-18
 -1       863 9.61883E-05-2.80300E-05-2.92107E-05 1.05746E-06-2.74629E-19-1.68875E-18
 -1       864 9.60122E-05-2.82030E-05-2.90611E-05 1.39566E-06-6.69365E-20-1.54440E-18
 -1       865 9.57479E-05-2.81603E-05-2.89661E-05 1.66477E-06-9.42492E-20-1.41104E-18
 -1       866 9.54066E-05-2.79440E-05-2.89126E-05 1.91719E-06-6.27032E-20-1.28563E-18
 -1       867 9.49853E-05-2.75799E-05-2.88880E-05 2.19447E-06-1.23699E-19-1.77659E-18
 -1       868 9.44691E-05-2.70817E-05-2.88804E-05 2.52841E-06-1.52449E-19-1.60404E-18
 -1       869 9.38326E-05-2.64548E-05-2.88762E-05 2.94202E-06-2.54875E-19-1.14622E-18
 -1       870 9.30397E-05-2.57004E-05-2.88597E-05 3.45152E-06-5.27897E-19-5.60066E-19
 -1       871 9.20459E-05-2.48220E-05-2.88102E-05 4.06769E-06-6.58094E-19-1.08618E-18
 -1       872 9.07976E-05-2.38310E-05-2.87000E-05 4.79863E-06-7.96158E-19-1.62492E-18
 -1       873 8.92347E-05-2.27562E-05-2.84908E-05 5.66057E-06-1.00838E-18-1.20338E-18
 -1       874 8.72972E-05-2.16613E-05-2.81298E-05 6.69557E-06 1.98771E-19-2.95521E-19
 -1       875 8.49328E-05-2.06653E-05-2.75432E-05 8.00514E-06-5.17629E-21 3.23888E-19
 -1       876 8.21090E-05-1.99718E-05-2.66295E-05 9.81745E-06 6.12301E-19-1.38296E-18
 -1       877 7.88953E-05-1.99284E-05-2.52676E-05 1.26058E-05 5.25833E-19-2.12291E-18
 -1       878 7.53872E-05-2.11560E-05-2.31719E-05 1.70305E-05 1.42931E-18-1.86339E-18
 -1       879 7.76358E-05-2.23348E-05-2.36496E-05-1.75014E-05 1.14316E-19 1.66955E-19
 -1       880 8.01658E-05-2.05641E-05-2.55471E-05-1.30326E-05-5.72937E-19-6.68786E-19
 -1       881 8.30143E-05-2.03730E-05-2.68476E-05-1.02050E-05-2.26665E-19-1.68234E-18
 -1       882 8.55851E-05-2.09286E-05-2.77105E-05-8.30076E-06 1.35540E-18-1.38482E-18
 -1       883 8.77731E-05-2.18214E-05-2.82651E-05-6.88742E-06 2.08340E-18-4.08884E-20
 -1       884 8.95688E-05-2.28199E-05-2.86066E-05-5.74643E-06 3.20554E-20 1.80068E-19
 -1       885 9.10061E-05-2.37948E-05-2.88048E-05-4.77674E-06 2.44552E-19 3.53138E-19
 -1       886 9.21324E-05-2.46741E-05-2.89108E-05-3.93628E-06 1.38842E-18 2.69816E-19
 -1       887 9.29929E-05-2.54197E-05-2.89604E-05-3.20996E-06 1.16606E-20 6.63784E-19
 -1       888 9.33908E-05-2.58119E-05-2.89626E-05-2.59720E-06-1.12291E-18-4.38652E-20
 -1       889 9.47703E-05-2.74625E-05-2.88461E-05-3.00377E-06 3.75391E-19-3.12207E-19
 -1       890 9.50318E-05-2.77413E-05-2.88388E-05-2.58972E-06 8.34884E-19-5.22051E-19
 -1       891 9.43433E-05-2.70370E-05-2.88455E-05-4.14275E-06-1.36689E-19-3.61899E-21
 -1       892 9.42743E-05-2.70347E-05-2.88169E-05-4.87599E-06-1.34654E-19-1.29436E-19
 -1       893 9.44172E-05-2.73153E-05-2.87578E-05-5.70076E-06-1.32290E-19 1.41827E-19
 -1       894 9.49120E-05-2.80261E-05-2.86651E-05-6.57697E-06-7.70467E-19-3.57676E-19
 -1       895 9.59577E-05-2.93474E-05-2.85473E-05-7.42560E-06-1.41603E-18-3.32555E-19
 -1       896 9.78152E-05-3.14706E-05-2.84339E-05-8.08994E-06-1.04955E-18-7.26752E-19
 -1       897 1.00771E-04-3.45223E-05-2.83930E-05-8.28205E-06-2.42023E-19-1.02096E-18
 -1       898 1.05049E-04-3.84114E-05-2.85546E-05-7.47095E-06-1.33340E-18 1.90301E-20
 -1       899 1.10476E-04-4.24332E-05-2.91688E-05-4.97280E-06-2.04010E-18 4.13158E-19
 -1       900 1.16466E-04-4.52338E-05-3.05194E-05-5.28558E-08-1.24647E-18 1.56558E-18
 -1       901 1.20125E-04-4.33260E-05-3.29550E-05 6.76992E-06 6.39378E-19 2.57756E-18
 -1       902 1.18267E-04-4.52523E-05-3.13107E-05-2.39390E-06 1.70917E-18 1.66439E-18
 -1       903 1.13023E-04-4.39369E-05-2.96030E-05 3.38921E-06-1.81410E-18 7.76868E-19
 -1       904 1.07086E-04-4.00236E-05-2.87523E-05 6.74290E-06-4.96982E-19-1.05719E-18
 -1       905 1.02225E-04-3.58661E-05-2.84420E-05 8.06529E-06-1.46601E-20-7.04575E-19
 -1       906 9.87828E-05-3.24599E-05-2.84222E-05 8.19752E-06-4.84903E-19 3.83001E-19
 -1       907 9.65383E-05-2.99769E-05-2.85259E-05 7.65667E-06-1.06152E-18 6.45917E-19
 -1       908 9.52076E-05-2.83444E-05-2.86555E-05 6.82442E-06-9.74776E-19 6.04655E-19
 -1       909 9.45132E-05-2.73854E-05-2.87689E-05 5.90460E-06-5.82562E-20 9.22951E-19
 -1       910 9.42299E-05-2.69089E-05-2.88517E-05 4.99929E-06-6.77087E-19-1.46475E-18
 -1       911 9.41932E-05-2.67511E-05-2.89035E-05 4.15870E-06-4.81015E-19 3.96937E-19
 -1       912 9.42796E-05-2.67780E-05-2.89296E-05 3.40462E-06-4.81786E-19 9.44726E-20
 -1       913 9.44327E-05-2.69027E-05-2.89413E-05 2.74311E-06 7.95579E-19 6.89939E-19
 -1       914 1.05007E-04-4.73904E-05-2.46468E-05-2.48347E-05-3.08576E-18 7.27952E-19
 -1       915 1.00053E-04-4.46592E-05-2.36438E-05 2.68839E-05 1.21999E-19-1.14740E-18
 -1       916 9.48255E-05-2.30402E-05-3.07628E-05-2.80530E-06-7.49996E-19-3.09871E-18
 -1       917 6.64384E-05-1.90620E-05-2.00855E-05 1.80051E-05 2.42962E-18-1.14460E-18
 -1       918 9.26654E-05-2.52811E-05-2.88790E-05-1.80337E-06-3.71158E-19-8.73800E-19
 -1       919 6.13851E-05-1.69841E-05-1.88694E-05-1.61574E-05-5.87843E-19-1.80947E-18
 -1       920 9.28716E-05-1.90709E-05-3.16296E-05-1.10789E-06 4.73066E-19-3.00428E-18
 -1       921 9.57594E-05-2.83016E-05-2.89105E-05-1.73008E-06 4.06743E-19-1.68271E-19
 -1       922 9.54743E-05-2.49760E-05-3.02152E-05 2.04748E-06 1.93486E-18-1.15147E-18
 -1       923 1.22824E-04-4.28971E-05-3.43851E-05 7.44113E-06 6.98835E-19 1.35022E-18
 -1       924 9.61339E-05-2.67528E-05-2.97348E-05-9.16378E-08-5.37012E-19-2.12342E-18
 -1       925 1.20046E-04-5.17758E-05-2.92646E-05-9.72179E-06-1.83423E-18-2.59202E-19
 -1       926 5.96337E-05-1.31677E-05-1.97968E-05 1.90551E-06 4.17868E-19-3.69035E-18
 -1       927 9.46441E-05-2.70984E-05-2.89480E-05 2.19098E-06 1.19987E-20-4.64746E-19
 -1       928 9.52922E-05-2.79989E-05-2.88400E-05-2.25876E-06 6.70552E-19-4.31057E-19
 -1       929 9.59445E-05-2.82716E-05-2.90027E-05-1.44952E-06 7.92437E-19-8.90488E-19
 -1       930 1.23992E-04-4.83689E-05-3.24311E-05-1.65305E-06 2.03098E-18 1.80168E-18
 -1       931 7.37587E-05-2.57487E-05-2.04649E-05 2.42759E-05-1.73191E-18 2.69738E-18
 -1       932 9.35095E-05-2.61551E-05-2.88664E-05 2.40353E-06 1.23045E-18 2.22077E-18
 -1       933 7.15654E-05-2.32972E-05-2.05798E-05-2.18264E-05-2.03682E-18-1.59139E-18
 -1       934 9.55380E-05-2.81973E-05-2.88602E-05-1.98428E-06 6.04191E-19 8.41963E-20
 -1       935 6.26478E-05-1.44975E-05-2.05440E-05-8.25604E-06 4.39079E-19-3.75156E-18
 -1       936 9.44696E-05-2.21147E-05-3.10084E-05-2.00849E-06-1.56199E-19-2.86458E-18
 -1       937 1.19997E-04-4.08190E-05-3.40642E-05-8.91146E-06 2.08471E-18 9.92891E-19
 -1       938 9.34317E-05-3.87658E-05-2.33760E-05-2.56059E-05-3.37790E-18 4.49784E-19
 -1       939 9.23516E-05-2.51688E-05-2.87932E-05 9.02170E-07 8.59446E-19-2.68728E-18
 -1       940 9.59943E-05-2.67496E-05-2.96771E-05 2.30815E-07 1.11093E-18-1.18035E-18
 -1       941 9.22730E-05-2.50218E-05-2.88225E-05-8.23354E-07-9.58503E-19-2.17790E-18
 -1       942 6.02909E-05-1.38104E-05-1.98285E-05-6.20421E-06-2.23180E-19-3.64843E-18
 -1       943 1.13024E-04-4.92572E-05-2.73111E-05 1.59334E-05 9.77433E-19 2.68223E-18
 -1       944 6.30864E-05-1.51240E-05-2.04509E-05 9.21526E-06 6.94187E-19-1.16973E-18
 -1       945 9.28286E-05-2.55863E-05-2.88185E-05 1.77304E-06 1.33998E-18-3.30929E-21
 -1       946 9.46599E-05-2.24532E-05-3.09456E-05 1.17046E-06 1.39813E-18-2.09649E-18
 -1       947 9.21953E-05-2.50028E-05-2.87968E-05 5.63509E-08-1.17304E-19-2.87782E-18
 -1       948 9.45078E-05-2.21020E-05-3.10312E-05 4.16482E-07 1.03543E-18-2.73479E-18
 -1       949 9.60975E-05-2.75816E-05-2.93637E-05-5.50245E-07 1.09337E-18-9.35066E-19
 -1       950 9.49570E-05-2.31599E-05-3.07708E-05 1.81775E-06 1.71123E-18-1.69460E-18
 -1       951 6.49440E-05-1.46917E-05-2.14699E-05 7.39502E-06 1.56136E-18-1.78549E-18
 -1       952 9.63024E-05-2.80149E-05-2.92661E-05 9.29197E-07 1.57699E-19-1.51630E-18
 -1       953 9.60302E-05-2.80980E-05-2.91138E-05 1.17634E-06 1.25921E-19-1.44304E-18
 -1       954 9.56360E-05-2.79488E-05-2.90088E-05 1.38346E-06-5.69198E-20-1.41992E-18
 -1       955 9.51296E-05-2.76086E-05-2.89376E-05 1.58394E-06-2.90605E-19-1.51147E-18
 -1       956 9.45049E-05-2.71029E-05-2.88866E-05 1.80292E-06 1.02727E-19-1.18061E-18
 -1       957 9.37433E-05-2.64472E-05-2.88413E-05 2.05614E-06 1.34677E-20-9.33923E-19
 -1       958 9.28124E-05-2.56480E-05-2.87848E-05 2.35001E-06-1.96496E-19-1.05961E-18
 -1       959 9.16669E-05-2.47085E-05-2.86965E-05 2.68493E-06-8.59880E-19-9.65477E-19
 -1       960 9.02515E-05-2.36378E-05-2.85489E-05 3.05250E-06-1.19754E-18-5.38117E-19
 -1       961 8.84903E-05-2.24436E-05-2.83060E-05 3.44211E-06-8.84444E-19-1.10765E-18
 -1       962 8.62871E-05-2.11458E-05-2.79182E-05 3.85430E-06 4.78601E-19-9.70139E-19
 -1       963 8.35110E-05-1.97788E-05-2.73146E-05 4.31588E-06 2.32757E-19-1.04078E-18
 -1       964 7.99625E-05-1.83860E-05-2.63903E-05 4.92175E-06-4.39693E-19-1.27170E-18
 -1       965 7.53836E-05-1.70166E-05-2.50145E-05 5.91416E-06-3.16435E-19-1.51661E-18
 -1       966 7.03586E-05-1.63640E-05-2.31041E-05-8.77761E-06-5.98456E-19-3.20710E-18
 -1       967 7.61119E-05-1.73308E-05-2.51936E-05-6.65433E-06-6.15925E-20-2.47104E-18
 -1       968 8.04899E-05-1.85514E-05-2.65453E-05-5.48640E-06 1.40523E-18-2.38605E-18
 -1       969 8.38780E-05-1.98526E-05-2.74400E-05-4.71851E-06 1.42057E-18-2.62021E-18
 -1       970 8.65367E-05-2.11403E-05-2.80271E-05-4.11803E-06 1.82088E-18-3.22377E-18
 -1       971 8.86279E-05-2.23481E-05-2.84056E-05-3.58464E-06-4.36885E-19-1.14041E-18
 -1       972 9.02798E-05-2.34456E-05-2.86436E-05-3.08297E-06 8.21973E-19-3.04029E-18
 -1       973 9.15656E-05-2.43913E-05-2.87897E-05-2.61556E-06 1.91867E-18-1.94296E-18
 -1       974 9.21441E-05-2.48561E-05-2.88379E-05-2.17819E-06-9.38745E-19-1.56931E-18
 -1       975 9.44157E-05-2.19574E-05-3.10535E-05-1.16805E-06 4.89055E-20-2.49431E-18
 -1       976 9.40015E-05-2.68207E-05-2.87918E-05-2.90758E-06 1.28308E-19-4.35714E-19
 -1       977 9.59923E-05-2.56582E-05-3.01435E-05-5.08981E-07-3.13930E-19-2.07765E-18
 -1       978 9.44977E-05-2.72314E-05-2.88284E-05-2.44808E-06 4.67661E-19-9.73003E-19
 -1       979 9.26785E-05-2.60829E-05-2.85409E-05-5.13947E-06 3.33434E-20-5.29349E-19
 -1       980 9.25436E-05-2.63512E-05-2.83678E-05-6.24509E-06-2.56342E-19-7.77509E-19
 -1       981 9.28035E-05-2.71445E-05-2.81388E-05-7.55535E-06-1.50070E-18-6.88728E-19
 -1       982 9.37211E-05-2.87036E-05-2.78643E-05-9.05369E-06-9.39460E-19-8.05689E-19
 -1       983 9.56954E-05-3.13321E-05-2.75844E-05-1.06155E-05-5.47579E-19-8.79653E-19
 -1       984 9.91567E-05-3.52428E-05-2.73942E-05-1.19759E-05-1.48917E-18 3.47797E-19
 -1       985 1.04850E-04-4.06632E-05-2.74945E-05-1.23959E-05-2.04060E-18-1.96689E-19
 -1       986 9.60746E-05-2.80566E-05-2.91506E-05-1.08418E-06 8.59407E-19-6.51925E-19
 -1       987 9.68570E-05-3.26393E-05-2.75199E-05 1.12100E-05-8.02689E-19 3.60370E-19
 -1       988 9.43027E-05-2.94821E-05-2.77802E-05 9.61238E-06-1.23779E-18 1.07043E-18
 -1       989 9.30276E-05-2.75272E-05-2.80715E-05 8.04357E-06-1.69579E-18 2.07197E-18
 -1       990 9.25285E-05-2.64293E-05-2.83280E-05 6.62715E-06-9.12616E-19 2.20762E-18
 -1       991 9.25033E-05-2.59297E-05-2.85314E-05 5.40310E-06 4.56005E-19 1.25229E-18
 -1       992 9.27466E-05-2.58226E-05-2.86812E-05 4.37447E-06-2.42828E-18 3.13130E-18
 -1       993 9.31082E-05-2.59401E-05-2.87856E-05 3.51208E-06 3.40358E-19 3.39921E-18
 -1       994 1.03411E-04-4.16194E-05-2.64598E-05 1.69229E-05 4.43592E-19 2.53388E-18
 -1       995 8.71601E-05-3.42972E-05-2.25731E-05 2.56680E-05-1.54100E-18 8.63504E-19
 -1       996 9.57878E-05-2.59854E-05-2.99174E-05 1.02103E-06 1.50219E-18-1.22358E-18
 -1       997 9.64235E-05-2.76386E-05-2.94793E-05 6.00295E-07-2.34412E-19-1.57928E-18
 -1       998 1.08981E-04-4.55382E-05-2.71465E-05-1.51959E-05-2.40659E-18-7.01782E-19
 -1       999 9.63436E-05-2.68860E-05-2.97674E-05 1.41630E-07-1.80366E-19-1.64779E-18
 -1      1000 9.30353E-05-2.61581E-05-2.86616E-05-4.22792E-06 3.37390E-20-3.89250E-19
 -1      1001 9.35010E-05-2.64395E-05-2.87406E-05-3.49231E-06 5.56058E-20-3.94322E-20
 -1      1002 9.53734E-05-2.40258E-05-3.05797E-05-9.14058E-07-4.75323E-20-2.48184E-18
 -1      1003 9.91831E-05-3.62733E-05-2.69608E-05 1.39013E-05-5.55354E-19 1.71308E-18
 -1      1004 9.49651E-05-2.76176E-05-2.88632E-05-2.08872E-06 8.43131E-19-1.09600E-18
 -1      1005 9.60610E-05-2.82013E-05-2.90827E-05-1.30546E-06 2.18766E-19-4.04304E-19
 -1      1006 9.16414E-05-2.45492E-05-2.87530E-05-1.04078E-06 1.29905E-19-1.44642E-18
 -1      1007 6.97584E-05-1.92844E-05-2.15758E-05 1.53693E-05-7.40809E-19 1.40723E-18
 -1      1008 8.44360E-05-3.03816E-05-2.31482E-05-2.22046E-05-2.99562E-18-7.23781E-19
 -1      1009 6.67779E-05-1.45749E-05-2.23120E-05-1.45435E-06-3.01117E-19-4.61419E-18
 -1      1010 9.57603E-05-2.81452E-05-2.89779E-05-1.55347E-06 6.43493E-19-8.49409E-19
 -1      1011 6.99921E-05-1.85038E-05-2.20067E-05-1.34709E-05-1.31986E-18-9.03073E-19
 -1      1012 9.56292E-05-2.46544E-05-3.04167E-05 7.89223E-07 1.30562E-18-1.75084E-18
 -1      1013 9.19667E-05-2.50787E-05-2.86665E-05 2.83911E-06 7.86317E-20 2.53795E-19
 -1      1014 9.55334E-05-2.42515E-05-3.05483E-05 4.42836E-07 1.02484E-18-2.15545E-18
 -1      1015 9.58548E-05-2.55167E-05-3.01416E-05 8.22764E-07 1.39566E-18-1.41069E-18
 -1      1016 9.43851E-05-2.18684E-05-3.10792E-05-3.51883E-07 5.15295E-19-2.70133E-18
 -1      1017 6.80196E-05-1.53436E-05-2.25474E-05 4.23573E-06-1.60349E-19-2.68667E-18
 -1      1018 9.10674E-05-2.43519E-05-2.85915E-05 1.79189E-06-3.70458E-19-3.10838E-18
 -1      1019 9.06263E-05-2.39491E-05-2.85735E-05 6.82277E-07 4.93479E-19-4.29769E-18
 -1      1020 9.62435E-05-2.68299E-05-2.97484E-05-5.66234E-08 9.97924E-19-1.44952E-18
 -1      1021 9.62179E-05-2.60418E-05-3.00756E-05-1.39115E-07 2.48498E-19-1.67120E-18
 -1      1022 8.83512E-05-3.10284E-05-2.45556E-05 1.91569E-05-9.64124E-19 2.04416E-18
 -1      1023 9.58996E-05-2.79622E-05-2.91160E-05 8.13868E-07 2.55980E-19-1.05623E-18
 -1      1024 9.53821E-05-2.77000E-05-2.90066E-05 9.34769E-07 2.74574E-20-9.09270E-19
 -1      1025 9.47301E-05-2.72436E-05-2.89228E-05 1.04745E-06-5.67037E-20-8.92413E-19
 -1      1026 9.39340E-05-2.66184E-05-2.88496E-05 1.16007E-06 2.66196E-19-9.21294E-19
 -1      1027 9.29756E-05-2.58457E-05-2.87702E-05 1.26919E-06-4.79679E-19-1.65506E-18
 -1      1028 9.18193E-05-2.49337E-05-2.86654E-05 1.36369E-06-7.31473E-20-1.71723E-18
 -1      1029 9.04133E-05-2.38904E-05-2.85101E-05 1.42538E-06-6.36202E-19-1.31902E-18
 -1      1030 8.87030E-05-2.27378E-05-2.82713E-05 1.41292E-06-7.56933E-19-3.00024E-19
 -1      1031 8.65951E-05-2.14779E-05-2.79081E-05 1.29314E-06-3.38137E-19 2.25936E-19
 -1      1032 8.39758E-05-2.01359E-05-2.73607E-05 1.01570E-06-3.33230E-19-1.12875E-18
 -1      1033 8.06479E-05-1.87170E-05-2.65424E-05 5.31221E-07-5.59160E-19-1.51879E-18
 -1      1034 7.62408E-05-1.71407E-05-2.53196E-05-1.57629E-07-5.19217E-20-9.72154E-19
 -1      1035 7.64952E-05-1.71415E-05-2.54357E-05-6.04531E-07 3.63439E-19-3.99539E-18
 -1      1036 8.07928E-05-1.86287E-05-2.66406E-05-1.11420E-06 2.03716E-18-2.88867E-18
 -1      1037 8.40727E-05-2.00221E-05-2.74503E-05-1.43109E-06 1.50149E-18-2.60763E-18
 -1      1038 8.66352E-05-2.13173E-05-2.79936E-05-1.57329E-06 2.10923E-18-2.73484E-18
 -1      1039 8.86450E-05-2.24860E-05-2.83535E-05-1.57027E-06 1.75835E-19-1.47899E-18
 -1      1040 9.02236E-05-2.35163E-05-2.85895E-05-1.50007E-06 1.53077E-18 6.66062E-19
 -1      1041 9.09902E-05-2.40603E-05-2.86793E-05-1.26006E-06 1.24864E-18-2.21476E-19
 -1      1042 9.53901E-05-2.79360E-05-2.89089E-05-1.80206E-06 9.86417E-19-1.03083E-18
 -1      1043 9.62709E-05-2.80513E-05-2.92368E-05-1.01214E-06 6.94758E-19-6.95036E-19
 -1      1044 9.01128E-05-2.50206E-05-2.78966E-05-6.56230E-06-6.69547E-19-1.51697E-19
 -1      1045 9.06947E-05-2.48759E-05-2.82081E-05-5.12534E-06 2.45705E-19 7.70817E-19
 -1      1046 9.02312E-05-2.72720E-05-2.69837E-05-1.08101E-05-8.81274E-19-1.18845E-18
 -1      1047 9.18605E-05-3.01963E-05-2.64380E-05-1.37173E-05-1.59215E-18-9.75031E-19
 -1      1048 9.53582E-05-3.48401E-05-2.59063E-05-1.69871E-05-1.65598E-18-7.55223E-19
 -1      1049 8.99168E-05-2.50618E-05-2.77948E-05 7.13666E-06-6.09938E-19 2.93991E-18
 -1      1050 8.98986E-05-2.60997E-05-2.73452E-05 9.19227E-06-1.59218E-18 3.08411E-18
 -1      1051 7.90082E-05-2.52539E-05-2.29785E-05 1.90625E-05-1.33951E-18 1.74345E-18
 -1      1052 9.07140E-05-2.81628E-05-2.68105E-05 1.17832E-05-1.45535E-18 2.88163E-18
 -1      1053 9.03556E-05-2.46761E-05-2.81476E-05 5.54363E-06 2.20615E-19 2.90652E-18
 -1      1054 9.09932E-05-2.47044E-05-2.84100E-05 4.30196E-06-1.54987E-18 1.58842E-18
 -1      1055 9.14760E-05-2.48534E-05-2.85517E-05 3.50775E-06-2.23364E-18 7.45955E-19
 -1      1056 6.96199E-05-1.53760E-05-2.32184E-05-2.37093E-06 6.63461E-20-1.78559E-18
 -1      1057 9.62437E-05-2.62862E-05-2.99825E-05 1.20207E-07 9.62356E-19-1.60351E-18
 -1      1058 7.11893E-05-1.55855E-05-2.38043E-05-2.19939E-06-7.46357E-19-4.01259E-18
 -1      1059 8.98674E-05-2.57292E-05-2.74869E-05-8.42453E-06-1.03007E-18-1.20001E-18
 -1      1060 9.64884E-05-2.77334E-05-2.94668E-05 4.80971E-07-2.30789E-19-1.20806E-18
 -1      1061 9.37746E-05-2.66166E-05-2.87821E-05-2.09051E-06 2.51706E-19 5.92361E-19
 -1      1062 9.64895E-05-2.71078E-05-2.97349E-05 2.25956E-07-1.37278E-19-1.44571E-18
 -1      1063 9.14446E-05-2.50989E-05-2.84338E-05-4.03298E-06-1.85058E-19 3.17140E-19
 -1      1064 9.62772E-05-2.79928E-05-2.92649E-05 6.69749E-07 9.59584E-20-1.29484E-18
 -1      1065 7.93865E-05-2.42697E-05-2.36044E-05-1.68956E-05-1.72738E-18-5.75592E-19
 -1      1066 9.63482E-05-2.76236E-05-2.94530E-05-6.19918E-07 7.50226E-19-1.22030E-18
 -1      1067 9.44547E-05-2.71423E-05-2.88482E-05-1.73061E-06 6.68424E-19 1.51392E-20
 -1      1068 9.64711E-05-2.72898E-05-2.96499E-05-3.34945E-07 7.15291E-19-1.40526E-18
 -1      1069 9.02559E-05-2.38972E-05-2.84414E-05 2.36302E-06 6.08996E-20-2.20899E-18
 -1      1070 7.18092E-05-1.78100E-05-2.31242E-05 9.72637E-06-1.37890E-18-1.85090E-19
 -1      1071 9.63105E-05-2.80346E-05-2.92612E-05-8.27476E-07 2.49629E-19-9.54053E-19
 -1      1072 9.22441E-05-2.55305E-05-2.85917E-05-3.19635E-06 2.72170E-20 1.22150E-19
 -1      1073 7.50589E-05-1.86937E-05-2.41352E-05-8.93437E-06-1.14088E-18-5.81351E-19
 -1      1074 9.53566E-05-2.38440E-05-3.06477E-05-4.45929E-07 3.21804E-19-2.15263E-18
 -1      1075 8.96203E-05-2.33334E-05-2.84092E-05 1.11931E-06 2.00883E-18-2.99128E-18
 -1      1076 9.54221E-05-2.39497E-05-3.06289E-05 3.49311E-08 7.59829E-19-2.30182E-18
 -1      1077 8.97451E-05-2.93767E-05-2.58733E-05 1.48850E-05 5.15425E-19 3.36841E-18
 -1      1078 9.60007E-05-2.80790E-05-2.91091E-05-1.03833E-06 4.75758E-19-1.12441E-18
 -1      1079 9.30310E-05-2.60603E-05-2.87017E-05-2.56859E-06 1.28349E-19-5.24492E-20
 -1      1080 9.12647E-05-2.43282E-05-2.86924E-05-3.54967E-07-8.66882E-19-2.61103E-18
 -1      1081 7.95466E-05-1.88526E-05-2.60090E-05 3.65349E-06 1.36536E-18-7.68281E-20
 -1      1082 9.50568E-05-2.74528E-05-2.89732E-05 3.29724E-07-1.64777E-19-6.89442E-19
 -1      1083 9.43015E-05-2.69086E-05-2.88826E-05 3.27460E-07-1.10580E-19-5.79980E-19
 -1      1084 9.33879E-05-2.62018E-05-2.87928E-05 2.98012E-07-1.32840E-19-1.12992E-18
 -1      1085 9.22930E-05-2.53621E-05-2.86848E-05 2.07603E-07-4.63851E-19-8.41046E-19
 -1      1086 9.10470E-05-2.44505E-05-2.85408E-05 3.76343E-08-1.80216E-20-1.12230E-18
 -1      1087 8.95159E-05-2.34072E-05-2.83295E-05-2.41968E-07 2.60274E-19-4.91800E-19
 -1      1088 8.76717E-05-2.23067E-05-2.80139E-05-7.38180E-07-1.71696E-19 1.70801E-19
 -1      1089 8.55151E-05-2.12188E-05-2.75574E-05-1.51267E-06-3.52900E-19 2.51021E-19
 -1      1090 8.29091E-05-2.01556E-05-2.68967E-05-2.67764E-06-3.71983E-19 4.08942E-19
 -1      1091 7.96054E-05-1.90931E-05-2.59390E-05-4.39121E-06-1.77162E-19 3.91076E-19
 -1      1092 9.56737E-05-2.78178E-05-2.90812E-05 3.11310E-07 3.34149E-20-9.01143E-19
 -1      1093 8.55730E-05-2.38509E-05-2.64538E-05 9.80475E-06-7.40795E-19 1.80070E-18
 -1      1094 8.82811E-05-2.33655E-05-2.78205E-05-4.69875E-06 2.44111E-19-1.22737E-19
 -1      1095 8.28436E-05-1.99094E-05-2.69701E-05 2.12958E-06 9.97608E-19-2.04651E-18
 -1      1096 8.54715E-05-2.09818E-05-2.76363E-05 1.10709E-06 1.11693E-18-2.12788E-18
 -1      1097 8.75992E-05-2.20567E-05-2.80925E-05 4.41459E-07 1.36449E-18-2.76856E-18
 -1      1098 9.61428E-05-2.79563E-05-2.92227E-05 2.76154E-07 3.26917E-19-9.44706E-19
 -1      1099 8.90213E-05-2.34236E-05-2.81115E-05 3.80242E-06 7.48763E-19 1.22630E-18
 -1      1100 8.77604E-05-2.31044E-05-2.77115E-05 5.18513E-06-4.10386E-19 3.42070E-19
 -1      1101 7.47490E-05-1.72462E-05-2.46359E-05 4.22148E-06-4.33400E-19-1.35502E-18
 -1      1102 9.64297E-05-2.65242E-05-2.99600E-05 1.83355E-08 3.29513E-19-1.72113E-18
 -1      1103 9.64526E-05-2.78296E-05-2.94093E-05 2.23274E-07 2.43721E-19-8.43567E-19
 -1      1104 9.65573E-05-2.73693E-05-2.96519E-05 1.42683E-07 2.29690E-19-1.40189E-18
 -1      1105 8.95705E-05-2.38390E-05-2.81697E-05-3.45498E-06-1.38908E-20-9.60076E-20
 -1      1106 9.62513E-05-2.60268E-05-3.00986E-05 8.42676E-08 7.92529E-19-1.87349E-18
 -1      1107 9.64606E-05-2.77878E-05-2.94322E-05-6.14116E-07 3.46274E-19-1.15218E-18
 -1      1108 8.65691E-05-2.31773E-05-2.71687E-05 7.13231E-06-1.14862E-19 5.07533E-19
 -1      1109 8.36026E-05-2.36644E-05-2.56842E-05-1.16167E-05-1.04566E-18-5.18755E-19
 -1      1110 8.47208E-05-2.25392E-05-2.66523E-05-7.75385E-06-4.93168E-19-3.76079E-19
 -1      1111 9.55764E-05-2.79131E-05-2.89985E-05-1.23635E-06 6.89470E-19-9.04934E-19
 -1      1112 8.27168E-05-2.35185E-05-2.53528E-05 1.21545E-05-4.00506E-19 2.61781E-18
 -1      1113 9.38288E-05-2.66046E-05-2.88085E-05-1.16893E-06-1.81163E-20 1.11175E-19
 -1      1114 9.50552E-05-2.75867E-05-2.89152E-05-1.45712E-06 7.85683E-19-3.45004E-19
 -1      1115 9.62271E-05-2.79985E-05-2.92410E-05-5.08596E-07 2.72354E-19-1.59823E-18
 -1      1116 9.08552E-05-2.45250E-05-2.84227E-05-2.56731E-06-4.68855E-20 3.79587E-19
 -1      1117 9.29176E-05-2.59218E-05-2.87122E-05-1.48876E-06-6.19248E-21 5.79621E-19
 -1      1118 8.08463E-05-2.40623E-05-2.43229E-05 1.52686E-05-1.05683E-18 1.65872E-18
 -1      1119 8.66494E-05-2.28708E-05-2.73320E-05-5.97537E-06-3.78907E-19 1.40558E-19
 -1      1120 9.64590E-05-2.78586E-05-2.94000E-05-3.95322E-07 3.93886E-19-1.64657E-18
 -1      1121 8.80094E-05-2.25250E-05-2.80647E-05 2.24469E-06 5.80785E-19-1.92091E-18
 -1      1122 9.65442E-05-2.71926E-05-2.97210E-05-1.36203E-07 4.91698E-19-1.46827E-18
 -1      1123 9.39285E-05-2.66577E-05-2.88325E-05-5.39260E-07-5.34137E-20-1.08580E-19
 -1      1124 9.06325E-05-2.42886E-05-2.84413E-05-1.49986E-06 5.86396E-19 3.30076E-19
 -1      1125 8.55894E-05-2.16643E-05-2.74006E-05 4.09381E-06 1.03737E-19-8.42881E-19
 -1      1126 7.85530E-05-2.00653E-05-2.50712E-05 8.89588E-06 4.75763E-19 1.77544E-18
 -1      1127 9.54008E-05-2.76810E-05-2.90231E-05-3.00995E-07 2.44801E-19-1.31850E-18
 -1      1128 9.19030E-05-2.51954E-05-2.85887E-05-1.95829E-06-7.02887E-20 1.30825E-18
 -1      1129 9.59434E-05-2.79273E-05-2.91499E-05-2.39227E-07 2.34259E-19-1.55465E-18
 -1      1130 9.45950E-05-2.71842E-05-2.88911E-05-9.40983E-07 2.77445E-19-5.80906E-19
 -1      1131 9.47360E-05-2.72450E-05-2.89231E-05-3.95794E-07-1.49956E-19-6.29640E-19
 -1      1132 8.26134E-05-2.08168E-05-2.64880E-05 5.98619E-06 7.13463E-20 1.58919E-19
 -1      1133 1.16746E-04 2.57254E-10-4.18163E-05-4.14436E-05-4.67139E-19 1.11681E-17
 -1      1134 8.85860E-05 7.18380E-11-3.72249E-05-2.41694E-05-2.30816E-19 3.74283E-20
 -1      1135 8.40477E-05 4.14353E-11-3.57538E-05-1.78856E-05-1.36955E-19-4.38616E-18
 -1      1136 8.23334E-05 3.20315E-11-3.50718E-05-1.38432E-05-8.89385E-20-6.33822E-18
 -1      1137 8.15542E-05 2.73437E-11-3.47476E-05-1.05386E-05-5.25293E-20-7.12334E-18
 -1      1138 8.11704E-05 2.46205E-11-3.45900E-05-7.64315E-06-1.60605E-20-7.26777E-18
 -1      1139 8.09737E-05 2.29536E-11-3.45121E-05-4.98015E-06 2.72308E-21-7.19695E-18
 -1      1140 8.08788E-05 2.20504E-11-3.44759E-05-2.43167E-06 2.03387E-20-6.96405E-18
 -1      1141 8.08519E-05 2.17766E-11-3.44659E-05 5.30801E-08 3.56457E-20-6.71705E-18
 -1      1142 8.08825E-05 2.20931E-11-3.44772E-05 2.54027E-06 5.23523E-20-6.36390E-18
 -1      1143 8.09815E-05 2.30495E-11-3.45146E-05 5.09669E-06 6.86361E-20-5.85830E-18
 -1      1144 8.11849E-05 2.47735E-11-3.45939E-05 7.77509E-06 8.99178E-20-5.10338E-18
 -1      1145 8.15757E-05 2.76511E-11-3.47536E-05 1.06979E-05 1.12047E-19-3.96382E-18
 -1      1146 8.23567E-05 3.25042E-11-3.50815E-05 1.40492E-05 1.41957E-19-2.10693E-18
 -1      1147 8.40433E-05 4.19049E-11-3.57737E-05 1.81357E-05 1.80312E-19 1.10926E-18
 -1      1148 8.82846E-05 6.66651E-11-3.72952E-05 2.40113E-05 1.78724E-19 6.92555E-18
 -1      1149 1.06515E-04 1.63714E-10-4.05956E-05 3.61762E-05 3.03238E-19 1.80225E-17
 -1      1150 1.30080E-04-2.57252E-05-4.02306E-05-2.60901E-05-1.80757E-18 1.80875E-17
 -1      1151 9.73217E-05-2.88222E-05-3.15360E-05-6.81910E-07-6.23125E-19 1.39774E-17
 -1      1152 9.00181E-05-2.69842E-05-2.78505E-05 3.85771E-07-2.04876E-19 8.62772E-18
 -1      1153 8.81016E-05-2.65285E-05-2.65997E-05 2.49468E-07-2.07599E-19 4.82393E-18
 -1      1154 8.77414E-05-2.64015E-05-2.63430E-05 1.64351E-07-1.31262E-19 2.03966E-18
 -1      1155 8.81056E-05-2.64800E-05-2.64297E-05 1.16158E-07-1.14875E-19-8.36974E-20
 -1      1156 8.88083E-05-2.66699E-05-2.66379E-05 8.52433E-08-4.13082E-20-1.36865E-18
 -1      1157 8.96586E-05-2.69130E-05-2.68920E-05 6.38169E-08-3.85690E-20-2.67977E-18
 -1      1158 9.05568E-05-2.71760E-05-2.71609E-05 4.80567E-08-1.02451E-19-3.97430E-18
 -1      1159 9.14550E-05-2.74423E-05-2.74310E-05 3.61443E-08-1.32680E-21-5.09904E-18
 -1      1160 9.23390E-05-2.77064E-05-2.76982E-05 2.72090E-08-3.19953E-21-5.94570E-18
 -1      1161 9.32194E-05-2.79708E-05-2.79656E-05 2.08548E-08 1.64727E-20-6.02289E-18
 -1      1162 9.41264E-05-2.82444E-05-2.82422E-05 1.69790E-08-1.32308E-19-7.17849E-18
 -1      1163 9.51079E-05-2.85412E-05-2.85425E-05 1.57248E-08 1.42786E-20-7.07408E-18
 -1      1164 9.62287E-05-2.88806E-05-2.88861E-05 1.75050E-08 1.56879E-20-6.71779E-18
 -1      1165 9.75714E-05-2.92873E-05-2.92982E-05 2.30695E-08-1.40952E-19-6.40986E-18
 -1      1166 9.92380E-05-2.97915E-05-2.98094E-05 3.36007E-08-7.37332E-20-7.05812E-18
 -1      1167 1.01349E-04-3.04289E-05-3.04559E-05 5.07954E-08 1.54585E-19-6.85092E-18
 -1      1168 1.04041E-04-3.12396E-05-3.12776E-05 7.68203E-08-9.93899E-20-7.24723E-18
 -1      1169 1.07451E-04-3.22633E-05-3.23128E-05 1.13852E-07-4.45503E-20-8.73569E-18
 -1      1170 1.11681E-04-3.35290E-05-3.35849E-05 1.62550E-07 2.93649E-21-8.40228E-18
 -1      1171 1.16726E-04-3.50319E-05-3.50773E-05 2.18270E-07-2.33629E-20-7.05060E-18
 -1      1172 1.22328E-04-3.66925E-05-3.66887E-05 2.63355E-07 1.37138E-20-6.48311E-18
 -1      1173 1.27762E-04-3.82916E-05-3.81731E-05 2.55366E-07-1.52542E-19-8.42004E-18
 -1      1174 1.31589E-04-3.93989E-05-3.90932E-05 1.18609E-07 2.83955E-19-7.84644E-18
 -1      1175 1.31620E-04-3.93634E-05-3.88671E-05-2.33238E-07 5.37535E-20-5.16102E-18
 -1      1176 1.25598E-04-3.75315E-05-3.70195E-05-8.00670E-07 3.03615E-19-3.86025E-18
 -1      1177 1.13058E-04-3.38114E-05-3.36476E-05-1.34107E-06 8.14839E-20-4.80098E-18
 -1      1178 9.76019E-05-2.93197E-05-2.98039E-05-1.36828E-06 1.61373E-19-4.63856E-18
 -1      1179 8.67072E-05-2.62059E-05-2.72222E-05-5.79553E-07 2.84974E-19-4.44491E-18
 -1      1180 8.69169E-05-2.62656E-05-2.72700E-05 6.17574E-07-2.40888E-19-4.78664E-18
 -1      1181 9.80929E-05-2.94601E-05-2.99207E-05 1.38057E-06-7.41816E-21-5.38946E-18
 -1      1182 1.13551E-04-3.39569E-05-3.37747E-05 1.32798E-06-1.10697E-19-8.01759E-18
 -1      1183 1.25889E-04-3.76183E-05-3.71031E-05 7.78760E-07 7.77020E-20-7.78540E-18
 -1      1184 1.31667E-04-3.93792E-05-3.88885E-05 2.16253E-07 2.78356E-19-7.38597E-18
 -1      1185 1.31456E-04-3.93602E-05-3.90624E-05-1.27060E-07 3.56680E-19-7.15790E-18
 -1      1186 1.27535E-04-3.82249E-05-3.81115E-05-2.57859E-07 2.99247E-19-6.08125E-18
 -1      1187 1.22072E-04-3.66168E-05-3.66155E-05-2.63115E-07-2.66031E-19-4.43009E-18
 -1      1188 1.16481E-04-3.49592E-05-3.50054E-05-2.17290E-07 1.25074E-19-1.77014E-18
 -1      1189 1.11468E-04-3.34659E-05-3.35218E-05-1.61747E-07-6.29352E-20-2.39769E-18
 -1      1190 1.07283E-04-3.22141E-05-3.22633E-05-1.13473E-07-1.57376E-19-6.67660E-18
 -1      1191 1.03932E-04-3.12084E-05-3.12464E-05-7.67965E-08-1.30274E-19-6.71207E-18
 -1      1192 1.01319E-04-3.04217E-05-3.04491E-05-5.08671E-08 3.16462E-19-6.00810E-18
 -1      1193 9.93161E-05-2.98173E-05-2.98364E-05-3.33144E-08 1.05070E-19-4.38221E-18
 -1      1194 9.78038E-05-2.93602E-05-2.93738E-05-2.16378E-08 9.15813E-20-4.91736E-18
 -1      1195 9.66849E-05-2.90214E-05-2.90326E-05-1.34676E-08 6.25357E-20-1.06796E-18
 -1      1196 9.58920E-05-2.87808E-05-2.87925E-05-6.22104E-09-2.16994E-20-4.78592E-19
 -1      1197 9.53897E-05-2.86278E-05-2.86411E-05 3.66760E-09 4.72304E-20 1.55074E-18
 -1      1198 9.51774E-05-2.85686E-05-2.85653E-05 2.25519E-08 4.74210E-20 1.65443E-18
 -1      1199 9.51826E-05-2.85543E-05-2.85305E-05 1.83118E-08 2.33503E-20 1.26892E-18
 -1      1200 1.30915E-04-3.76978E-05-3.86174E-05 1.21676E-05-3.28305E-19 2.68416E-17
 -1      1201 9.64243E-05-2.81494E-05-3.12890E-05 8.02045E-07 1.02888E-19 2.28815E-17
 -1      1202 9.02346E-05-2.68877E-05-2.78321E-05 1.21009E-07 1.59507E-19 1.85710E-17
 -1      1203 8.81924E-05-2.64570E-05-2.66371E-05 1.02191E-08 2.98513E-20 1.57485E-17
 -1      1204 8.77876E-05-2.63657E-05-2.63717E-05-2.35414E-08 9.74535E-20 1.34338E-17
 -1      1205 8.81354E-05-2.64648E-05-2.64478E-05-3.19080E-08 4.39556E-20 1.19956E-17
 -1      1206 8.88329E-05-2.66662E-05-2.66515E-05-3.22948E-08 1.11008E-21 1.10897E-17
 -1      1207 8.96832E-05-2.69161E-05-2.69042E-05-2.96343E-08-2.86784E-21 1.01841E-17
 -1      1208 9.05840E-05-2.71835E-05-2.71730E-05-2.55035E-08 4.89284E-20 8.25329E-18
 -1      1209 9.14859E-05-2.74525E-05-2.74434E-05-2.06543E-08 3.99744E-20 7.40950E-18
 -1      1210 9.23722E-05-2.77178E-05-2.77104E-05-1.55842E-08 1.81637E-19 6.25596E-18
 -1      1211 9.32491E-05-2.79808E-05-2.79758E-05-1.06986E-08 3.61969E-20 5.74908E-18
 -1      1212 9.41386E-05-2.82480E-05-2.82458E-05-6.38959E-09 1.97283E-22 5.22575E-18
 -1      1213 9.50739E-05-2.85290E-05-2.85303E-05-3.10007E-09-2.27193E-20 5.07595E-18
 -1      1214 9.60946E-05-2.88356E-05-2.88407E-05-1.38015E-09 1.02665E-19 4.58771E-18
 -1      1215 9.72416E-05-2.91797E-05-2.91889E-05-1.93312E-09 8.70138E-20 3.95936E-18
 -1      1216 9.85503E-05-2.95714E-05-2.95845E-05-5.62915E-09-1.06910E-19 3.92687E-18
 -1      1217 1.00040E-04-3.00158E-05-3.00319E-05-1.34412E-08 1.00239E-19 3.02865E-18
 -1      1218 1.01698E-04-3.05090E-05-3.05257E-05-2.62221E-08 2.98267E-19 5.10801E-19
 -1      1219 1.03464E-04-3.10318E-05-3.10446E-05-4.42037E-08-2.11662E-19 1.91664E-18
 -1      1220 1.05201E-04-3.15432E-05-3.15444E-05-6.60819E-08 8.46739E-20 2.89835E-18
 -1      1221 1.06672E-04-3.19740E-05-3.19528E-05-8.76625E-08 5.67810E-20 3.03386E-18
 -1      1222 1.07536E-04-3.22237E-05-3.21676E-05-1.00428E-07-6.62671E-20 1.89273E-18
 -1      1223 1.07364E-04-3.21689E-05-3.20684E-05-9.12304E-08 2.52135E-19 2.99618E-19
 -1      1224 1.05734E-04-3.16881E-05-3.15459E-05-4.54181E-08 1.34566E-20 1.05972E-18
 -1      1225 1.02406E-04-3.07115E-05-3.05530E-05 4.45214E-08 2.15833E-19 2.22230E-18
 -1      1226 9.75552E-05-2.92868E-05-2.91638E-05 1.66470E-07-5.88175E-20 4.13469E-18
 -1      1227 9.19545E-05-2.76330E-05-2.76100E-05 2.81339E-07-8.21390E-20 2.88214E-18
 -1      1228 8.69276E-05-2.61317E-05-2.62518E-05 3.33859E-07-8.24964E-20 2.36830E-18
 -1      1229 8.39461E-05-2.52194E-05-2.54671E-05 2.83792E-07-2.83127E-20 1.52508E-18
 -1      1230 8.39901E-05-2.52017E-05-2.54957E-05 1.38729E-07 8.33103E-20 1.07031E-19
 -1      1231 8.70449E-05-2.60941E-05-2.63280E-05-4.37847E-08-8.66985E-20 4.43316E-19
 -1      1232 9.21082E-05-2.76062E-05-2.77096E-05-1.92429E-07-1.63044E-19 5.37178E-19
 -1      1233 9.77012E-05-2.92914E-05-2.92594E-05-2.63686E-07-3.24835E-19 8.67362E-19
 -1      1234 1.02509E-04-3.07454E-05-3.06242E-05-2.56787E-07 1.78378E-19-4.97208E-19
 -1      1235 1.05777E-04-3.17341E-05-3.15836E-05-1.99707E-07-8.93653E-20-1.42527E-18
 -1      1236 1.07346E-04-3.22083E-05-3.20738E-05-1.25823E-07 2.77848E-19-4.48659E-18
 -1      1237 1.07471E-04-3.22454E-05-3.21482E-05-5.87652E-08-1.43450E-19-2.53173E-18
 -1      1238 1.06577E-04-3.19759E-05-3.19183E-05-9.21691E-09-3.03658E-20 1.13207E-18
 -1      1239 1.05095E-04-3.15300E-05-3.15044E-05 2.16408E-08 3.70226E-19-1.24203E-18
 -1      1240 1.03370E-04-3.10116E-05-3.10076E-05 3.73360E-08-8.06024E-20-8.04337E-19
 -1      1241 1.01637E-04-3.04918E-05-3.05001E-05 4.26384E-08 6.34753E-20-1.88471E-18
 -1      1242 1.00040E-04-3.00128E-05-3.00269E-05 4.18144E-08 3.54419E-19-3.50287E-18
 -1      1243 9.86475E-05-2.95957E-05-2.96114E-05 3.80527E-08 2.26596E-19-3.60892E-18
 -1      1244 9.74867E-05-2.92481E-05-2.92636E-05 3.34316E-08-2.52014E-19-1.50982E-18
 -1      1245 9.65599E-05-2.89708E-05-2.89860E-05 2.90188E-08 2.50301E-19-2.68703E-18
 -1      1246 9.58639E-05-2.87626E-05-2.87788E-05 2.48160E-08 3.82317E-19-6.86001E-18
 -1      1247 9.54020E-05-2.86243E-05-2.86419E-05 1.84558E-08 4.99917E-19-7.94624E-18
 -1      1248 9.51889E-05-2.85588E-05-2.85706E-05 2.87766E-09 5.19987E-19-7.11491E-18
 -1      1249 9.51943E-05-2.85595E-05-2.85363E-05-1.46639E-08-1.66351E-19-4.99041E-18
 -1      1250 9.52495E-05-2.86155E-05-2.85376E-05-1.47361E-08-4.55417E-18-6.57402E-22
 -1      1251 9.52421E-05-2.86105E-05-2.85735E-05-1.56631E-08-3.02907E-18 4.52879E-20
 -1      1252 9.51780E-05-2.83912E-05-2.86448E-05 6.76095E-09 1.38814E-18-2.31531E-19
 -1      1253 9.50530E-05-2.79665E-05-2.87648E-05 1.85868E-08 3.44770E-18-2.10155E-19
 -1      1254 9.48940E-05-2.74260E-05-2.89172E-05 2.30867E-08 2.04007E-18 9.28761E-19
 -1      1255 9.47311E-05-2.68721E-05-2.90744E-05 2.22299E-08-1.10328E-18 2.89483E-19
 -1      1256 9.45896E-05-2.63903E-05-2.92120E-05 1.78384E-08 1.12497E-19 7.11870E-20
 -1      1257 9.44903E-05-2.60515E-05-2.93086E-05 1.02586E-08 3.46444E-18-2.87143E-19
 -1      1258 9.44502E-05-2.59142E-05-2.93475E-05 8.81109E-10 3.89318E-18 9.22714E-19
 -1      1259 9.44766E-05-2.60034E-05-2.93214E-05-9.02801E-09 7.39834E-18 8.67923E-19
 -1      1260 9.45670E-05-2.63110E-05-2.92332E-05-1.79410E-08-2.17286E-18-1.56860E-18
 -1      1261 9.47078E-05-2.67893E-05-2.90971E-05-2.41877E-08-1.02294E-17 5.52343E-19
 -1      1262 9.48766E-05-2.73649E-05-2.89344E-05-2.57173E-08-6.88288E-18 1.03552E-18
 -1      1263 9.50461E-05-2.79422E-05-2.87730E-05-2.12888E-08-3.02022E-18 1.78188E-19
 -1      1264 9.51833E-05-2.84052E-05-2.86446E-05-8.92688E-09-2.85261E-18 4.52355E-19
 -1      1265 9.52367E-05-2.86129E-05-2.85689E-05 3.22590E-08-2.55323E-18-8.22660E-19
 -1      1266 9.52541E-05-2.86273E-05-2.85317E-05 1.98642E-08-1.18941E-18 8.27236E-19
 -1      1267 3.48633E-05-1.08128E-04 1.82061E-05-1.26240E-05 9.91537E-18 1.21541E-18
 -1      1268 1.80973E-05-6.58693E-05 9.83353E-06-2.38753E-05 9.16405E-18 1.53440E-18
 -1      1269 8.23345E-06-1.00428E-05-5.64077E-06 6.71048E-07 4.17248E-18 3.10438E-18
 -1      1270 3.29748E-05 2.44459E-05-2.55715E-05 5.25030E-05 7.08797E-18 6.67885E-18
 -1      1271 1.03887E-04 1.51773E-05-4.60033E-05 1.01190E-04 6.12913E-18 1.00628E-17
 -1      1272 1.99552E-04-2.90555E-05-6.29809E-05 1.10390E-04 4.78235E-18 9.09798E-18
 -1      1273 2.79779E-04-7.53280E-05-7.41888E-05 6.89303E-05 1.23286E-18 4.22077E-18
 -1      1274 3.08778E-04-9.30691E-05-7.77676E-05-5.58190E-06 6.58727E-19-3.91022E-18
 -1      1275 2.69353E-04-6.87702E-05-7.28350E-05-7.80893E-05 3.23291E-18-1.22328E-17
 -1      1276 1.80969E-04-1.90802E-05-6.00176E-05-1.11938E-04 1.00564E-17-1.92632E-17
 -1      1277 8.64703E-05 2.06107E-05-4.20002E-05-9.34498E-05 1.85966E-17-2.32782E-17
 -1      1278 2.39454E-05 2.15147E-05-2.14023E-05-4.08004E-05 2.29461E-17-1.96003E-17
 -1      1279 7.80688E-06-1.99346E-05-2.01656E-06 8.59649E-06 1.80435E-17-1.07209E-17
 -1      1280 2.20911E-05-7.66575E-05 1.21660E-05 2.44147E-05 8.51183E-18-3.35700E-18
 -1      1281 3.66425E-05-1.11806E-04 1.89708E-05 6.69257E-06-2.53602E-18-6.48986E-19
 -1      1282 3.15871E-05-1.02170E-04 1.72988E-05-2.04371E-05-1.14879E-17-2.40007E-18
 -1      1283 1.38969E-05-5.65447E-05 7.63884E-06-2.61390E-05-2.09963E-17-9.13610E-18
 -1      1284 7.86942E-06-4.63800E-06-7.87397E-06 2.43409E-06-2.28208E-17-1.51229E-17
 -1      1285 3.82847E-05 2.34690E-05-2.73882E-05 5.51413E-05-1.96986E-17-1.90498E-17
 -1      1286 1.14164E-04 9.90098E-06-4.79421E-05 1.01625E-04-1.34848E-17-2.01018E-17
 -1      1287 2.14220E-04-3.57286E-05-6.54688E-05 1.10520E-04-7.76136E-18-1.73388E-17
 -1      1288 2.96552E-04-8.20964E-05-7.69303E-05 6.55474E-05-1.69682E-18-8.18911E-18
 -1      1289 3.22658E-04-9.80727E-05-8.01163E-05-1.32884E-05 1.92171E-20-5.08749E-19
 -1      1290 2.77102E-04-7.07946E-05-7.43579E-05-8.46103E-05-1.86983E-18 5.34562E-18
 -1      1291 1.84153E-04-2.01972E-05-6.08177E-05-1.12346E-04-6.31717E-18 1.29850E-17
 -1      1292 8.92412E-05 1.80728E-05-4.23249E-05-9.21501E-05-1.22108E-17 1.62867E-17
 -1      1293 2.65670E-05 1.91879E-05-2.23400E-05-4.14044E-05-1.09437E-17 1.07776E-17
 -1      1294 7.66103E-06-1.83562E-05-3.13542E-06 7.07238E-06-5.13810E-18 4.46302E-18
 -1      1295 1.96663E-05-7.32033E-05 1.12512E-05 2.82294E-05 2.43607E-18-7.06002E-19
 -1      1296 3.43801E-05-1.08918E-04 1.86227E-05 1.41236E-05 4.85540E-18 3.63509E-19
 -1      1297 1.04331E-04-2.19917E-05-3.78544E-05-1.72723E-05-6.90755E-19 8.48494E-18
 -1      1298 9.02607E-05-6.67380E-06-3.59947E-05-2.04739E-05-1.64960E-18-2.04389E-18
 -1      1299 9.25785E-05-6.73147E-06-3.71929E-05-2.57569E-05-2.20356E-18 2.65439E-19
 -1      1300 8.58816E-05-4.09520E-06-3.51203E-05-1.64375E-05-1.47373E-18-5.25923E-18
 -1      1301 8.71171E-05-4.08745E-06-3.55833E-05-1.88570E-05-1.73160E-18-3.90300E-18
 -1      1302 9.20819E-05-1.04544E-05-3.50748E-05-1.90345E-05-2.80707E-18-1.79243E-18
 -1      1303 8.41019E-05-3.19103E-06-3.46887E-05-1.28197E-05-1.07066E-18-6.71444E-18
 -1      1304 8.47004E-05-3.16145E-06-3.49076E-05-1.46347E-05-1.27193E-18-6.09813E-18
 -1      1305 8.78507E-05-7.39321E-06-3.45674E-05-1.54111E-05-2.27162E-18-4.44968E-18
 -1      1306 8.32138E-05-2.72906E-06-3.44816E-05-9.68831E-06-7.12553E-19-7.28263E-18
 -1      1307 8.35163E-05-2.71058E-06-3.45863E-05-1.12365E-05-8.36035E-19-7.07827E-18
 -1      1308 8.58788E-05-5.98275E-06-3.43100E-05-1.19537E-05-1.56806E-18-5.67218E-18
 -1      1309 8.27382E-05-2.45860E-06-3.43820E-05-6.91456E-06-3.24956E-19-7.31375E-18
 -1      1310 8.29004E-05-2.45021E-06-3.44333E-05-8.28639E-06-4.93529E-19-7.29395E-18
 -1      1311 8.48541E-05-5.21781E-06-3.41864E-05-8.94200E-06-1.03402E-18-6.09120E-18
 -1      1312 8.24726E-05-2.29196E-06-3.43340E-05-4.29350E-06-4.11605E-21-7.16542E-18
 -1      1313 8.25593E-05-2.28808E-06-3.43591E-05-5.59498E-06-9.02454E-20-7.27532E-18
 -1      1314 8.42822E-05-4.76113E-06-3.41295E-05-6.21285E-06-3.78174E-19-6.14639E-18
 -1      1315 8.23451E-05-2.20171E-06-3.43142E-05-1.78882E-06 3.64602E-19-6.94559E-18
 -1      1316 8.23820E-05-2.20016E-06-3.43243E-05-3.03966E-06 2.36728E-19-7.05523E-18
 -1      1317 8.39675E-05-4.49546E-06-3.41048E-05-3.64150E-06 1.50338E-19-5.95043E-18
 -1      1318 8.23198E-05-2.17386E-06-3.43119E-05 6.70194E-07 6.18558E-19-6.67944E-18
 -1      1319 8.23185E-05-2.17390E-06-3.43116E-05-5.65287E-07 5.34785E-19-6.85627E-18
 -1      1320 8.38297E-05-4.37469E-06-3.40959E-05-1.16901E-06 7.35335E-19-5.76276E-18
 -1      1321 8.23898E-05-2.20432E-06-3.43256E-05 3.14808E-06 9.00595E-19-6.29369E-18
 -1      1322 8.23504E-05-2.20594E-06-3.43148E-05 1.89473E-06 8.12066E-19-6.52329E-18
 -1      1323 8.38343E-05-4.37877E-06-3.40962E-05 1.27328E-06 1.15380E-18-5.48623E-18
 -1      1324 8.25750E-05-2.29799E-06-3.43614E-05 5.71231E-06 1.17754E-18-5.76636E-18
 -1      1325 8.24852E-05-2.30134E-06-3.43356E-05 4.40508E-06 1.08546E-18-6.09516E-18
 -1      1326 8.39819E-05-4.50855E-06-3.41056E-05 3.74996E-06 1.62379E-18-5.12418E-18
 -1      1327 8.29219E-05-2.46447E-06-3.44358E-05 8.39483E-06 1.46586E-18-4.94536E-18
 -1      1328 8.27562E-05-2.47316E-06-3.43841E-05 7.01462E-06 1.35505E-18-5.43247E-18
 -1      1329 8.43058E-05-4.78308E-06-3.41304E-05 6.30753E-06 2.07772E-18-4.57525E-18
 -1      1330 8.35613E-05-2.74222E-06-3.45911E-05 1.13966E-05 1.85486E-18-3.68036E-18
 -1      1331 8.32501E-05-2.75937E-06-3.44847E-05 9.83098E-06 1.68733E-18-4.41734E-18
 -1      1332 8.48948E-05-5.25761E-06-3.41871E-05 9.05073E-06 2.56926E-18-3.61842E-18
 -1      1333 8.47573E-05-3.20379E-06-3.49154E-05 1.48467E-05 2.16351E-18-1.68732E-18
 -1      1334 8.41582E-05-3.24067E-06-3.46941E-05 1.30060E-05 1.99265E-18-2.90056E-18
 -1      1335 8.59576E-05-6.06287E-06-3.43111E-05 1.21203E-05 3.11140E-18-2.29247E-18
 -1      1336 8.72161E-05-4.08836E-06-3.56049E-05 1.90933E-05 2.32828E-18 1.79388E-18
 -1      1337 8.59490E-05-4.15261E-06-3.51279E-05 1.66964E-05 2.12407E-18-2.68774E-19
 -1      1338 8.79749E-05-7.51497E-06-3.45696E-05 1.56489E-05 3.43388E-18-5.14573E-20
 -1      1339 9.33916E-05-6.78398E-06-3.70886E-05 2.50925E-05 1.83171E-18 7.92659E-18
 -1      1340 9.00762E-05-6.43091E-06-3.60174E-05 2.11500E-05 1.85686E-18 4.22447E-18
 -1      1341 9.23117E-05-1.06897E-05-3.50601E-05 1.96743E-05 3.35515E-18 3.74156E-18
 -1      1342 1.23503E-04-2.48962E-05-3.89772E-05 2.83530E-05 7.38613E-19 1.86906E-17
 -1      1343 9.99887E-05-1.44059E-05-3.73216E-05 2.40453E-05 8.21834E-19 1.13555E-17
 -1      1344 1.01592E-04-1.93216E-05-3.53741E-05 2.13949E-05 2.85680E-18 9.21614E-18
 -1      1345 1.02489E-04-2.77711E-05-3.47214E-05 7.33094E-06 1.42617E-18 1.82580E-17
 -1      1346 1.05031E-04-3.01956E-05-3.34899E-05-7.95999E-06-1.84028E-18 9.29068E-18
 -1      1347 9.81443E-05-2.78084E-05-3.07268E-05-4.98951E-06-1.62630E-18 7.17283E-18
 -1      1348 9.53878E-05-2.78148E-05-2.92198E-05-2.49134E-06-1.28971E-18 6.34397E-18
 -1      1349 9.31535E-05-2.75229E-05-2.81801E-05-2.04456E-06-1.21443E-18 4.43284E-18
 -1      1350 9.93883E-05-2.80234E-05-3.09536E-05-7.88842E-06-2.82242E-18 3.10543E-18
 -1      1351 9.14656E-05-2.71654E-05-2.75464E-05-8.38580E-07-1.04546E-18 3.74010E-18
 -1      1352 9.07481E-05-2.70694E-05-2.72440E-05-7.27895E-07-1.01006E-18 2.21330E-18
 -1      1353 9.46246E-05-2.77414E-05-2.87887E-05-3.12153E-06-2.19472E-18 1.86159E-18
 -1      1354 9.00024E-05-2.68880E-05-2.70020E-05-1.71051E-07-8.18283E-19 1.57792E-18
 -1      1355 8.99319E-05-2.69150E-05-2.69679E-05-1.12384E-07-7.48962E-19 4.06205E-19
 -1      1356 9.24315E-05-2.74720E-05-2.78701E-05-1.04914E-06-1.74504E-18 7.17781E-19
 -1      1357 8.96808E-05-2.68499E-05-2.68962E-05 1.62134E-07-5.50557E-19 1.95876E-21
 -1      1358 8.99020E-05-2.69414E-05-2.69600E-05 1.91908E-07-4.84529E-19-6.68494E-19
 -1      1359 9.14859E-05-2.73316E-05-2.75075E-05-5.75381E-08-1.29336E-18-2.90929E-19
 -1      1360 8.99207E-05-2.69486E-05-2.69712E-05 3.30200E-07-4.09851E-19-9.89639E-19
 -1      1361 9.02773E-05-2.70718E-05-2.70747E-05 3.43798E-07-3.67348E-19-1.55553E-18
 -1      1362 9.12559E-05-2.73250E-05-2.74074E-05 4.43618E-07-9.18940E-19-7.92055E-19
 -1      1363 9.04443E-05-2.71205E-05-2.71297E-05 4.09581E-07-4.19115E-19-1.91860E-18
 -1      1364 9.08586E-05-2.72558E-05-2.72499E-05 4.14150E-07-4.53472E-19-2.48136E-18
 -1      1365 9.14281E-05-2.74083E-05-2.74426E-05 6.94178E-07-8.59377E-19-1.51834E-18
 -1      1366 9.11062E-05-2.73272E-05-2.73286E-05 4.41295E-07-3.85971E-19-2.66429E-18
 -1      1367 9.15385E-05-2.74642E-05-2.74545E-05 4.41347E-07-3.56572E-19-3.28513E-18
 -1      1368 9.18241E-05-2.75434E-05-2.75522E-05 8.10227E-07-7.77517E-19-2.09205E-18
 -1      1369 9.18300E-05-2.75478E-05-2.75462E-05 4.50492E-07-3.21122E-19-3.38015E-18
 -1      1370 9.22631E-05-2.76822E-05-2.76730E-05 4.49171E-07-3.37562E-19-3.85725E-18
 -1      1371 9.23437E-05-2.77060E-05-2.77037E-05 8.57201E-07-5.86473E-19-2.24218E-18
 -1      1372 9.25811E-05-2.77731E-05-2.77727E-05 4.54309E-07-2.50885E-19-3.89792E-18
 -1      1373 9.30130E-05-2.79050E-05-2.78998E-05 4.53971E-07-2.98616E-20-4.15703E-18
 -1      1374 9.29340E-05-2.78833E-05-2.78802E-05 8.76881E-07-5.04587E-19-2.40858E-18
 -1      1375 9.33537E-05-2.80019E-05-2.80063E-05 4.65511E-07-1.33949E-19-4.53361E-18
 -1      1376 9.37935E-05-2.81345E-05-2.81363E-05 4.68064E-07-3.66400E-19-4.87959E-18
 -1      1377 9.35738E-05-2.80703E-05-2.80745E-05 8.98763E-07-3.09322E-19-2.93047E-18
 -1      1378 9.41629E-05-2.82393E-05-2.82517E-05 4.94500E-07-3.83376E-19-4.80698E-18
 -1      1379 9.46293E-05-2.83786E-05-2.83901E-05 5.01637E-07-4.03166E-19-5.16002E-18
 -1      1380 9.42648E-05-2.82684E-05-2.82866E-05 9.45692E-07-5.35346E-19-3.33414E-18
 -1      1381 9.50418E-05-2.84953E-05-2.85189E-05 5.50581E-07-8.34596E-20-5.04290E-18
 -1      1382 9.55620E-05-2.86496E-05-2.86736E-05 5.63951E-07 1.38494E-19-4.91104E-18
 -1      1383 9.50264E-05-2.84837E-05-2.85222E-05 1.03709E-06-2.94760E-19-3.56416E-18
 -1      1384 9.60390E-05-2.87843E-05-2.88227E-05 6.42801E-07 5.55336E-20-5.29605E-18
 -1      1385 9.66490E-05-2.89648E-05-2.90043E-05 6.64125E-07-6.75575E-20-5.16171E-18
 -1      1386 9.58929E-05-2.87265E-05-2.87915E-05 1.19101E-06-1.39421E-19-3.84618E-18
 -1      1387 9.72186E-05-2.91254E-05-2.91825E-05 7.80397E-07-8.56405E-20-5.02064E-18
 -1      1388 9.79630E-05-2.93459E-05-2.94040E-05 8.11539E-07-2.62028E-19-4.91334E-18
 -1      1389 9.69122E-05-2.90108E-05-2.91090E-05 1.42530E-06 1.03471E-19-3.75532E-18
 -1      1390 9.86593E-05-2.95419E-05-2.96221E-05 9.72713E-07-1.18379E-19-4.76296E-18
 -1      1391 9.95919E-05-2.98193E-05-2.98994E-05 1.01561E-06 1.03699E-19-4.81605E-18
 -1      1392 9.81442E-05-2.93544E-05-2.94928E-05 1.75791E-06-1.57599E-19-3.24159E-18
 -1      1393 1.00454E-04-3.00621E-05-3.01697E-05 1.22808E-06-1.29222E-20-4.83055E-18
 -1      1394 1.01637E-04-3.04161E-05-3.05208E-05 1.28445E-06-4.25171E-20-4.93123E-18
 -1      1395 9.96597E-05-2.97788E-05-2.99640E-05 2.20546E-06-3.29350E-20-2.96326E-18
 -1      1396 1.02706E-04-3.07179E-05-3.08561E-05 1.55076E-06-3.46926E-19-5.23938E-18
 -1      1397 1.04204E-04-3.11703E-05-3.12996E-05 1.62126E-06-4.35979E-19-5.74540E-18
 -1      1398 1.01537E-04-3.03095E-05-3.05449E-05 2.77888E-06-4.09213E-19-3.79211E-18
 -1      1399 1.05517E-04-3.15436E-05-3.17108E-05 1.93418E-06-2.02401E-19-5.77372E-18
 -1      1400 1.07388E-04-3.21153E-05-3.22622E-05 2.01665E-06-1.53823E-19-6.17138E-18
 -1      1401 1.03853E-04-3.09753E-05-3.12563E-05 3.47334E-06-6.10704E-19-3.59823E-18
 -1      1402 1.08967E-04-3.25703E-05-3.27539E-05 2.34790E-06 2.27640E-19-6.35353E-18
 -1      1403 1.11231E-04-3.32746E-05-3.34168E-05 2.43373E-06 2.37328E-19-5.84027E-18
 -1      1404 1.06672E-04-3.18072E-05-3.21105E-05 4.24838E-06 1.32494E-19-3.80909E-18
 -1      1405 1.13061E-04-3.38155E-05-3.39792E-05 2.71512E-06 2.84849E-19-5.18314E-18
 -1      1406 1.15655E-04-3.46435E-05-3.47294E-05 2.78302E-06 3.05580E-19-4.77404E-18
 -1      1407 1.10009E-04-3.28351E-05-3.30996E-05 4.99291E-06 4.65537E-19-3.71896E-18
 -1      1408 1.17650E-04-3.52611E-05-3.53257E-05 2.88061E-06-5.22092E-20-4.97330E-18
 -1      1409 1.20339E-04-3.61549E-05-3.60871E-05 2.88760E-06-3.27579E-19-5.28649E-18
 -1      1410 1.13786E-04-3.40781E-05-3.41779E-05 5.47264E-06-3.30452E-20-3.48232E-18
 -1      1411 1.22298E-04-3.68126E-05-3.66388E-05 2.58099E-06-1.76084E-19-4.85040E-18
 -1      1412 1.24570E-04-3.76239E-05-3.72551E-05 2.45522E-06 1.23336E-19-5.25753E-18
 -1      1413 1.17756E-04-3.55192E-05-3.52395E-05 5.27313E-06-2.06411E-19-2.94008E-18
 -1      1414 1.26129E-04-3.82341E-05-3.76353E-05 1.46227E-06 6.71545E-19-4.80060E-18
 -1      1415 1.27127E-04-3.86800E-05-3.78630E-05 1.11363E-06 5.70477E-19-4.05460E-18
 -1      1416 1.21401E-04-3.70463E-05-3.61039E-05 3.79591E-06 5.89614E-19-2.09311E-18
 -1      1417 1.27756E-04-3.90657E-05-3.79176E-05-7.57264E-07 4.48980E-19-3.80449E-18
 -1      1418 1.26412E-04-3.87340E-05-3.74897E-05-1.37303E-06 4.68793E-19-3.24501E-18
 -1      1419 1.23856E-04-3.83408E-05-3.65371E-05 4.46893E-07 1.11914E-18-1.53425E-18
 -1      1420 1.25531E-04-3.86106E-05-3.71144E-05-3.86844E-06 4.18064E-19-3.28104E-18
 -1      1421 1.21146E-04-3.71333E-05-3.59121E-05-4.60957E-06 3.67665E-19-3.04784E-18
 -1      1422 1.23954E-04-3.87519E-05-3.63452E-05-4.78469E-06 6.23932E-19-1.54390E-18
 -1      1423 1.18505E-04-3.62265E-05-3.51643E-05-6.63936E-06 1.69612E-19-3.15541E-18
 -1      1424 1.11753E-04-3.37070E-05-3.34447E-05-7.05868E-06-8.65826E-20-3.10819E-18
 -1      1425 1.20695E-04-3.74372E-05-3.55305E-05-1.03935E-05 8.45577E-20-1.76416E-18
 -1      1426 1.08070E-04-3.21534E-05-3.26012E-05-6.93752E-06 2.35621E-19-3.07494E-18
 -1      1427 1.01609E-04-2.95823E-05-3.10452E-05-6.50239E-06-1.26909E-19-2.85937E-18
 -1      1428 1.14353E-04-3.41436E-05-3.43930E-05-1.29916E-05 1.84812E-19-1.56545E-18
 -1      1429 9.88257E-05-2.82815E-05-3.04911E-05-3.41755E-06-2.87250E-19-3.32921E-18
 -1      1430 9.61787E-05-2.71930E-05-2.98736E-05-2.15241E-06 1.31925E-19-3.07322E-18
 -1      1431 1.07629E-04-3.02909E-05-3.34239E-05-9.23603E-06-6.67991E-19-1.51354E-18
 -1      1432 9.62336E-05-2.72200E-05-2.98830E-05 2.34338E-06-2.37355E-19-3.31256E-18
 -1      1433 9.90531E-05-2.83798E-05-3.05403E-05 3.59058E-06-6.22463E-19-3.75670E-18
 -1      1434 1.04742E-04-2.85700E-05-3.30526E-05 1.78249E-07-4.78679E-19-2.90573E-18
 -1      1435 1.01904E-04-2.97095E-05-3.11086E-05 6.58382E-06-7.59841E-19-4.26481E-18
 -1      1436 1.08431E-04-3.23026E-05-3.26835E-05 6.98497E-06-7.82420E-19-5.11428E-18
 -1      1437 1.07815E-04-3.04010E-05-3.34447E-05 9.47239E-06-1.35597E-18-3.50666E-18
 -1      1438 1.12101E-04-3.38427E-05-3.35307E-05 7.00773E-06-6.17643E-19-5.46294E-18
 -1      1439 1.18800E-04-3.63359E-05-3.52415E-05 6.56747E-06-9.66809E-20-6.29155E-18
 -1      1440 1.14590E-04-3.42763E-05-3.44277E-05 1.29856E-05-1.11115E-18-4.15790E-18
 -1      1441 1.21382E-04-3.72132E-05-3.59790E-05 4.49396E-06-3.55185E-19-6.47101E-18
 -1      1442 1.25658E-04-3.86471E-05-3.71545E-05 3.75116E-06 1.49819E-20-6.91904E-18
 -1      1443 1.20847E-04-3.75111E-05-3.55622E-05 1.02183E-05-1.53631E-19-4.93336E-18
 -1      1444 1.26475E-04-3.87461E-05-3.75136E-05 1.26472E-06 6.84125E-19-6.25619E-18
 -1      1445 1.27718E-04-3.90420E-05-3.79141E-05 6.57724E-07 6.72438E-19-6.08819E-18
 -1      1446 1.23978E-04-3.87553E-05-3.63567E-05 4.57345E-06 4.14358E-19-5.86543E-18
 -1      1447 1.27045E-04-3.86443E-05-3.78448E-05-1.18180E-06 2.68251E-19-5.69609E-18
 -1      1448 1.25983E-04-3.81786E-05-3.75977E-05-1.52122E-06 4.22173E-19-5.80454E-18
 -1      1449 1.23773E-04-3.82953E-05-3.65235E-05-6.03704E-07 1.01125E-18-4.29087E-18
 -1      1450 1.24400E-04-3.75643E-05-3.72087E-05-2.48517E-06 8.99539E-19-5.64958E-18
 -1      1451 1.22099E-04-3.67456E-05-3.65832E-05-2.60468E-06 7.55011E-19-4.50039E-18
 -1      1452 1.21257E-04-3.69849E-05-3.60702E-05-3.87987E-06 8.17810E-19-4.69475E-18
 -1      1453 1.20135E-04-3.60881E-05-3.60282E-05-2.89136E-06 7.87550E-19-4.91351E-18
 -1      1454 1.17442E-04-3.51944E-05-3.52650E-05-2.88089E-06 4.68974E-19-3.65177E-18
 -1      1455 1.17588E-04-3.54565E-05-3.51953E-05-5.29924E-06 9.71481E-19-4.19000E-18
 -1      1456 1.15453E-04-3.45798E-05-3.46698E-05-2.77143E-06 3.35556E-19-1.69274E-18
 -1      1457 1.12869E-04-3.37557E-05-3.39223E-05-2.70175E-06 7.01199E-19-1.50982E-18
 -1      1458 1.13621E-04-3.40216E-05-3.41318E-05-5.46161E-06 1.43331E-18-2.41555E-18
 -1      1459 1.11053E-04-3.32193E-05-3.33638E-05-2.41303E-06-9.87061E-19-1.62786E-18
 -1      1460 1.08808E-04-3.25211E-05-3.27066E-05-2.32606E-06-1.64536E-18-3.62293E-18
 -1      1461 1.09864E-04-3.27879E-05-3.30583E-05-4.95950E-06-1.73106E-19-1.99889E-18
 -1      1462 1.07249E-04-3.20721E-05-3.22211E-05-1.98872E-06-1.02313E-18-4.29935E-18
 -1      1463 1.05405E-04-3.15081E-05-3.16775E-05-1.90506E-06-6.22703E-19-5.48458E-18
 -1      1464 1.06561E-04-3.17711E-05-3.20790E-05-4.19915E-06-2.18291E-18-2.68963E-18
 -1      1465 1.04119E-04-3.11426E-05-3.12748E-05-1.58474E-06-1.21020E-19-5.29264E-18
 -1      1466 1.02655E-04-3.07002E-05-3.08416E-05-1.51247E-06-3.73987E-19-5.21195E-18
 -1      1467 1.03790E-04-3.09526E-05-3.12394E-05-3.40800E-06-7.00083E-19-3.63757E-18
 -1      1468 1.01623E-04-3.04086E-05-3.05179E-05-1.23533E-06 1.50580E-19-4.69025E-18
 -1      1469 1.00487E-04-3.00679E-05-3.01809E-05-1.17618E-06 9.77650E-19-3.96546E-18
 -1      1470 1.01536E-04-3.03038E-05-3.05479E-05-2.69169E-06 6.42776E-19-3.14818E-18
 -1      1471 9.96752E-05-2.98389E-05-2.99264E-05-9.47406E-07-7.35992E-20-3.46606E-18
 -1      1472 9.88079E-05-2.95802E-05-2.96689E-05-9.00199E-07-2.34671E-20-3.76339E-18
 -1      1473 9.97438E-05-2.97954E-05-2.99940E-05-2.08578E-06 7.82660E-19-2.87188E-18
 -1      1474 9.81805E-05-2.94029E-05-2.94726E-05-7.14808E-07 1.29622E-18-3.83558E-18
 -1      1475 9.75299E-05-2.92093E-05-2.92794E-05-6.77162E-07 1.12792E-18-1.94660E-18
 -1      1476 9.83436E-05-2.94009E-05-2.95599E-05-1.58984E-06 1.27151E-18-2.14662E-18
 -1      1477 9.70552E-05-2.90744E-05-2.91317E-05-5.25648E-07 1.26650E-18-1.04791E-18
 -1      1478 9.65812E-05-2.89330E-05-2.89913E-05-4.94665E-07 1.41242E-18 4.92129E-19
 -1      1479 9.72697E-05-2.90981E-05-2.92272E-05-1.18646E-06 2.29132E-18 3.88120E-19
 -1      1480 9.62339E-05-2.88329E-05-2.88843E-05-3.65612E-07 1.77241E-19 2.86522E-19
 -1      1481 9.59107E-05-2.87360E-05-2.87890E-05-3.38035E-07-1.90954E-19 1.13050E-20
 -1      1482 9.64663E-05-2.88690E-05-2.89795E-05-8.50906E-07 7.99766E-19 1.70484E-18
 -1      1483 9.56719E-05-2.86656E-05-2.87169E-05-2.20870E-07 3.43131E-19 6.10190E-19
 -1      1484 9.54871E-05-2.86108E-05-2.86617E-05-1.93373E-07 7.42387E-19 1.36895E-18
 -1      1485 9.58908E-05-2.87008E-05-2.88039E-05-5.56600E-07 1.62947E-19 3.32000E-19
 -1      1486 9.53369E-05-2.85623E-05-2.86178E-05-8.24126E-08 3.16483E-19 1.37007E-18
 -1      1487 9.52843E-05-2.85580E-05-2.85937E-05-5.38131E-08-3.76365E-19 1.97788E-18
 -1      1488 9.55079E-05-2.85865E-05-2.86874E-05-2.86422E-07 1.03986E-18 5.42903E-19
 -1      1489 9.52177E-05-2.85729E-05-2.85535E-05 2.61235E-08-1.69312E-18 1.60533E-18
 -1      1490 9.52839E-05-2.85579E-05-2.85973E-05-3.90076E-08-1.44881E-18 8.02697E-19
 -1      1491 9.64596E-05-2.83283E-05-2.97370E-05 2.99702E-06 1.39954E-18 1.52268E-17
 -1      1492 1.02419E-04-2.93639E-05-3.21204E-05 4.46382E-06 1.20326E-18 1.71874E-17
 -1      1493 1.02224E-04-2.66888E-05-3.26744E-05 1.27820E-05 2.29647E-18 1.17633E-17
 -1      1494 9.19129E-05-2.73937E-05-2.77265E-05 1.15276E-06 9.33245E-19 1.25330E-17
 -1      1495 9.38610E-05-2.75496E-05-2.86409E-05 1.47469E-06 9.74048E-19 1.40616E-17
 -1      1496 9.63869E-05-2.80002E-05-2.95037E-05 4.86859E-06 2.04596E-18 9.67266E-18
 -1      1497 9.00823E-05-2.69693E-05-2.70284E-05 3.30824E-07 7.40836E-19 1.05954E-17
 -1      1498 9.06975E-05-2.69870E-05-2.73010E-05 4.93860E-07 6.71386E-19 1.17040E-17
 -1      1499 9.29459E-05-2.75494E-05-2.80701E-05 1.85075E-06 1.53031E-18 7.97496E-18
 -1      1500 8.95728E-05-2.68531E-05-2.68553E-05-5.94837E-08 5.26004E-19 9.11554E-18
 -1      1501 8.96075E-05-2.67900E-05-2.68825E-05 3.01718E-08 5.46694E-19 9.94036E-18
 -1      1502 9.14007E-05-2.72800E-05-2.74891E-05 5.11769E-07 1.19916E-18 6.61621E-18
 -1      1503 8.97228E-05-2.69105E-05-2.69028E-05-2.52706E-07 4.10386E-19 8.11352E-18
 -1      1504 8.94864E-05-2.68005E-05-2.68351E-05-2.01356E-07 3.73955E-19 8.66091E-18
 -1      1505 9.08851E-05-2.72030E-05-2.72982E-05-1.47197E-07 7.91648E-19 5.64680E-18
 -1      1506 9.02098E-05-2.70625E-05-2.70517E-05-3.45165E-07 2.58906E-19 7.36886E-18
 -1      1507 8.98465E-05-2.69301E-05-2.69450E-05-3.15582E-07 2.46059E-19 7.68492E-18
 -1      1508 9.09317E-05-2.72536E-05-2.72967E-05-4.80661E-07 5.51696E-19 5.00834E-18
 -1      1509 9.08629E-05-2.72615E-05-2.72493E-05-3.83461E-07 4.76507E-19 6.38030E-18
 -1      1510 9.04461E-05-2.71218E-05-2.71266E-05-3.66721E-07 3.83876E-19 6.89874E-18
 -1      1511 9.12846E-05-2.73785E-05-2.73938E-05-6.43044E-07 6.91407E-19 4.12003E-18
 -1      1512 9.15903E-05-2.74807E-05-2.74689E-05-3.93998E-07 3.17341E-19 5.33507E-18
 -1      1513 9.11576E-05-2.73417E-05-2.73411E-05-3.84496E-07 3.75523E-19 5.89387E-18
 -1      1514 9.18015E-05-2.75430E-05-2.75438E-05-7.13581E-07 7.57018E-19 3.71427E-18
 -1      1515 9.23466E-05-2.77070E-05-2.76975E-05-3.93455E-07 3.95374E-19 4.59120E-18
 -1      1516 9.19146E-05-2.75715E-05-2.75694E-05-3.87348E-07 2.58332E-19 5.04560E-18
 -1      1517 9.24042E-05-2.77272E-05-2.77224E-05-7.38474E-07 5.70014E-19 3.06736E-18
 -1      1518 9.31169E-05-2.79364E-05-2.79306E-05-3.93136E-07 1.97764E-19 4.29324E-18
 -1      1519 9.26884E-05-2.78037E-05-2.78030E-05-3.87620E-07 2.61285E-19 4.62904E-18
 -1      1520 9.30537E-05-2.79212E-05-2.79172E-05-7.47335E-07 3.93590E-19 2.61357E-18
 -1      1521 9.39062E-05-2.81705E-05-2.81698E-05-4.00962E-07 2.47092E-19 3.68597E-18
 -1      1522 9.34745E-05-2.80374E-05-2.80408E-05-3.93906E-07 2.30195E-19 4.08487E-18
 -1      1523 9.37371E-05-2.81226E-05-2.81239E-05-7.60297E-07 3.32094E-19 2.78183E-18
 -1      1524 9.47338E-05-2.84156E-05-2.84207E-05-4.22402E-07 2.10447E-19 3.39343E-18
 -1      1525 9.42856E-05-2.82772E-05-2.82865E-05-4.12172E-07 1.84827E-19 3.44351E-18
 -1      1526 9.44587E-05-2.83333E-05-2.83433E-05-7.91304E-07 4.85410E-19 1.99417E-18
 -1      1527 9.56281E-05-2.86805E-05-2.86916E-05-4.60758E-07 2.04492E-19 3.22002E-18
 -1      1528 9.51456E-05-2.85307E-05-2.85470E-05-4.46175E-07 5.70529E-20 3.29715E-18
 -1      1529 9.52348E-05-2.85592E-05-2.85799E-05-8.49532E-07 3.21028E-19 1.87463E-18
 -1      1530 9.66216E-05-2.89754E-05-2.89921E-05-5.16948E-07 1.24465E-19 2.69592E-18
 -1      1531 9.60854E-05-2.88076E-05-2.88315E-05-4.97373E-07 2.42981E-19 3.00836E-18
 -1      1532 9.60884E-05-2.88080E-05-2.88402E-05-9.39618E-07 3.49818E-19 1.24031E-18
 -1      1533 9.77453E-05-2.93101E-05-2.93312E-05-5.88765E-07-1.49505E-20 2.54585E-18
 -1      1534 9.71370E-05-2.91185E-05-2.91494E-05-5.64330E-07 1.09400E-19 2.70720E-18
 -1      1535 9.70445E-05-2.90882E-05-2.91309E-05-1.06089E-06 6.93343E-20 1.43208E-18
 -1      1536 9.90208E-05-2.96922E-05-2.97146E-05-6.69577E-07 1.47667E-19 2.36353E-18
 -1      1537 9.83276E-05-2.94728E-05-2.95082E-05-6.41593E-07 6.62448E-20 2.20651E-18
 -1      1538 9.81241E-05-2.94078E-05-2.94576E-05-1.20557E-06 1.62093E-19 1.48313E-18
 -1      1539 1.00449E-04-3.01235E-05-3.01419E-05-7.46466E-07 9.03888E-19 1.29112E-18
 -1      1540 9.96704E-05-2.98763E-05-2.99112E-05-7.18033E-07 5.18560E-19 2.27431E-18
 -1      1541 9.93364E-05-2.97718E-05-2.98215E-05-1.35597E-06 6.37794E-19 7.41316E-19
 -1      1542 1.01998E-04-3.05957E-05-3.06020E-05-7.98015E-07-4.84768E-19 4.78150E-19
 -1      1543 1.01153E-04-3.03275E-05-3.03534E-05-7.74799E-07 3.58412E-19 9.97447E-19
 -1      1544 1.00669E-04-3.01797E-05-3.02170E-05-1.48075E-06 8.75959E-19 9.38719E-19
 -1      1545 1.03581E-04-3.10853E-05-3.10675E-05-7.92424E-07-2.63155E-19 1.31223E-18
 -1      1546 1.02719E-04-3.08133E-05-3.08168E-05-7.83441E-07-6.41069E-19 3.57871E-19
 -1      1547 1.02074E-04-3.06213E-05-3.06271E-05-1.53127E-06-7.92773E-19 3.20160E-19
 -1      1548 1.05040E-04-3.15464E-05-3.14895E-05-6.87562E-07-4.97718E-19 1.62150E-18
 -1      1549 1.04255E-04-3.13023E-05-3.12651E-05-7.05506E-07-2.46025E-19 1.50096E-18
 -1      1550 1.03455E-04-3.10720E-05-3.10202E-05-1.43973E-06-3.09809E-19 4.64763E-19
 -1      1551 1.06132E-04-3.19061E-05-3.17947E-05-4.35874E-07 3.15602E-19 1.99172E-18
 -1      1552 1.05568E-04-3.17386E-05-3.16391E-05-4.96093E-07 9.04936E-21 2.01399E-18
 -1      1553 1.04653E-04-3.14869E-05-3.13465E-05-1.12335E-06-5.56071E-19 1.00501E-18
 -1      1554 1.06534E-04-3.20634E-05-3.18889E-05 1.58850E-09 1.85077E-19 1.03139E-18
 -1      1555 1.06381E-04-3.20373E-05-3.18569E-05-1.15113E-07 1.36190E-19 1.88720E-18
 -1      1556 1.05444E-04-3.17964E-05-3.15396E-05-5.00892E-07 3.25297E-19 2.01024E-18
 -1      1557 1.05891E-04-3.19006E-05-3.16733E-05 6.28298E-07 2.14815E-19 4.81869E-19
 -1      1558 1.06357E-04-3.20866E-05-3.18220E-05 4.50036E-07 1.92938E-19 7.83936E-19
 -1      1559 1.05554E-04-3.19060E-05-3.15245E-05 4.71217E-07 5.78590E-19 1.08888E-18
 -1      1560 1.03921E-04-3.13149E-05-3.10773E-05 1.37490E-06-3.22150E-19 1.49554E-18
 -1      1561 1.05166E-04-3.17660E-05-3.14461E-05 1.15089E-06-3.63781E-19 1.03499E-18
 -1      1562 1.04714E-04-3.17076E-05-3.12372E-05 1.74079E-06-7.13956E-19 1.34398E-18
 -1      1563 1.00585E-04-3.02737E-05-3.01055E-05 2.06926E-06-6.35655E-19 2.31722E-18
 -1      1564 1.02619E-04-3.09886E-05-3.06885E-05 1.84635E-06-4.67231E-19 1.79867E-18
 -1      1565 1.02766E-04-3.11122E-05-3.06547E-05 3.09614E-06-7.45528E-19 1.46492E-18
 -1      1566 9.62629E-05-2.88830E-05-2.88802E-05 2.45069E-06 1.14556E-19 3.29702E-18
 -1      1567 9.88414E-05-2.97682E-05-2.96010E-05 2.30397E-06-5.25144E-20 3.02798E-18
 -1      1568 9.98002E-05-3.01080E-05-2.98275E-05 4.14502E-06-4.74223E-19 2.19228E-18
 -1      1569 9.18270E-05-2.74242E-05-2.76485E-05 2.26389E-06 4.59752E-19 2.29768E-18
 -1      1570 9.44187E-05-2.82839E-05-2.83581E-05 2.26986E-06 6.26182E-19 2.87938E-18
 -1      1571 9.62790E-05-2.88288E-05-2.88970E-05 4.40405E-06 8.33388E-19 2.30263E-18
 -1      1572 8.84613E-05-2.63034E-05-2.67259E-05 1.41585E-06-1.34380E-19 1.94434E-18
 -1      1573 9.03667E-05-2.68881E-05-2.72388E-05 1.60724E-06-4.02612E-19 1.97909E-18
 -1      1574 9.30228E-05-2.75790E-05-2.80749E-05 3.52631E-06-1.45855E-19 2.36551E-18
 -1      1575 8.72214E-05-2.58943E-05-2.63822E-05 9.78836E-08 7.43602E-20 1.92262E-18
 -1      1576 8.78411E-05-2.60053E-05-2.65458E-05 4.28550E-07 2.17952E-19 2.17672E-18
 -1      1577 9.09806E-05-2.67579E-05-2.75808E-05 1.56856E-06-1.21933E-19 2.34828E-18
 -1      1578 8.85273E-05-2.63450E-05-2.67242E-05-1.25436E-06-3.14593E-20 1.08120E-18
 -1      1579 8.76523E-05-2.59404E-05-2.64871E-05-8.97659E-07 3.95326E-19 1.52925E-18
 -1      1580 9.08269E-05-2.66769E-05-2.75573E-05-9.09994E-07 5.78193E-19 2.23711E-18
 -1      1581 9.19376E-05-2.74912E-05-2.76450E-05-2.18593E-06-1.05115E-19 1.19230E-18
 -1      1582 8.98606E-05-2.67112E-05-2.70820E-05-1.92208E-06-2.60959E-19 7.84776E-19
 -1      1583 9.26133E-05-2.73741E-05-2.80106E-05-3.07830E-06 1.34811E-19 1.77925E-18
 -1      1584 9.63856E-05-2.89529E-05-2.88746E-05-2.46306E-06-2.31023E-19 1.49507E-18
 -1      1585 9.37469E-05-2.80425E-05-2.81505E-05-2.35494E-06-8.22350E-20 1.00029E-18
 -1      1586 9.57415E-05-2.85857E-05-2.88078E-05-4.27229E-06-3.09064E-19 1.89009E-18
 -1      1587 1.00689E-04-3.03284E-05-3.00979E-05-2.14413E-06 7.63924E-19 1.37590E-19
 -1      1588 9.81756E-05-2.95204E-05-2.93957E-05-2.18192E-06 2.81483E-19 8.13072E-19
 -1      1589 9.92762E-05-2.99059E-05-2.97341E-05-4.30017E-06 5.43789E-19 1.38146E-19
 -1      1590 1.03989E-04-3.13464E-05-3.10685E-05-1.47379E-06-5.59373E-20-6.61215E-19
 -1      1591 1.02086E-04-3.07818E-05-3.05244E-05-1.60196E-06 3.32824E-19 8.81179E-20
 -1      1592 1.02357E-04-3.09896E-05-3.05755E-05-3.42348E-06 4.79308E-19 1.09638E-19
 -1      1593 1.05919E-04-3.19105E-05-3.16644E-05-7.20849E-07 7.41825E-19-1.47574E-18
 -1      1594 1.04821E-04-3.16248E-05-3.13398E-05-8.77308E-07 2.12175E-19-6.22940E-19
 -1      1595 1.04466E-04-3.16641E-05-3.11839E-05-2.11321E-06 6.15700E-19-2.96303E-19
 -1      1596 1.06532E-04-3.20579E-05-3.18813E-05-7.22360E-08-2.48234E-19-2.42118E-18
 -1      1597 1.06192E-04-3.20131E-05-3.17711E-05-2.13104E-07 3.66454E-19-1.81082E-18
 -1      1598 1.05461E-04-3.19207E-05-3.15008E-05-7.97977E-07 8.16864E-19-6.40753E-19
 -1      1599 1.06113E-04-3.18928E-05-3.17898E-05 3.89874E-07-1.16952E-18 3.60300E-19
 -1      1600 1.06355E-04-3.20187E-05-3.18491E-05 2.85038E-07-1.45803E-18-1.85127E-18
 -1      1601 1.05477E-04-3.18450E-05-3.15430E-05 2.61408E-07-1.30602E-18 1.05656E-18
 -1      1602 1.05019E-04-3.15320E-05-3.14886E-05 6.61311E-07 8.24585E-19 1.24710E-18
 -1      1603 1.05633E-04-3.17573E-05-3.16597E-05 5.95408E-07 8.68639E-20 1.51432E-18
 -1      1604 1.04773E-04-3.15508E-05-3.13716E-05 9.73891E-07-8.61952E-19 6.48457E-19
 -1      1605 1.03572E-04-3.10753E-05-3.10726E-05 7.77936E-07 6.44363E-19 5.56779E-19
 -1      1606 1.04374E-04-3.13428E-05-3.13021E-05 7.44669E-07 6.44713E-19 1.01574E-18
 -1      1607 1.03630E-04-3.11403E-05-3.10614E-05 1.36135E-06 8.87772E-19 2.32642E-18
 -1      1608 1.02017E-04-3.05951E-05-3.06163E-05 7.86719E-07-1.08222E-20-1.46113E-19
 -1      1609 1.02869E-04-3.08658E-05-3.08637E-05 7.76920E-07 3.36333E-19 3.68592E-20
 -1      1610 1.02286E-04-3.06900E-05-3.06809E-05 1.49709E-06 7.36211E-19 1.60421E-18
 -1      1611 1.00516E-04-3.01378E-05-3.01702E-05 7.30019E-07 3.89074E-19-1.05274E-18
 -1      1612 1.01330E-04-3.03883E-05-3.04089E-05 7.35117E-07-1.09672E-19-8.87016E-19
 -1      1613 1.00913E-04-3.02498E-05-3.02830E-05 1.46353E-06 5.43437E-19 8.11640E-19
 -1      1614 9.91611E-05-2.97289E-05-2.97647E-05 6.39680E-07-5.01544E-20-1.16689E-18
 -1      1615 9.98890E-05-2.99476E-05-2.99793E-05 6.53081E-07 4.14236E-19-4.68998E-19
 -1      1616 9.96223E-05-2.98484E-05-2.99031E-05 1.33080E-06 3.26691E-19 7.71131E-19
 -1      1617 9.79970E-05-2.93796E-05-2.94146E-05 5.36405E-07 7.06057E-20-1.20233E-18
 -1      1618 9.86168E-05-2.95624E-05-2.95981E-05 5.53761E-07-1.07971E-19-1.42871E-18
 -1      1619 9.84763E-05-2.94994E-05-2.95623E-05 1.14967E-06-2.31280E-20 6.22589E-19
 -1      1620 9.70381E-05-2.90927E-05-2.91257E-05 4.31266E-07-4.38666E-20-9.99132E-19
 -1      1621 9.75439E-05-2.92395E-05-2.92756E-05 4.50304E-07 9.26310E-20-1.41249E-18
 -1      1622 9.75030E-05-2.92072E-05-2.92710E-05 9.51659E-07-2.35086E-19 1.81115E-20
 -1      1623 9.62852E-05-2.88672E-05-2.88992E-05 3.27794E-07 9.78755E-19-2.68048E-18
 -1      1624 9.66776E-05-2.89791E-05-2.90153E-05 3.48004E-07 8.45836E-19-7.67526E-19
 -1      1625 9.67102E-05-2.89705E-05-2.90333E-05 7.52170E-07 9.82209E-19-6.27931E-19
 -1      1626 9.57367E-05-2.87019E-05-2.87352E-05 2.24245E-07 2.86075E-19-4.12158E-18
 -1      1627 9.60157E-05-2.87790E-05-2.88172E-05 2.46586E-07 5.95988E-19-2.77048E-18
 -1      1628 9.60961E-05-2.87866E-05-2.88501E-05 5.54476E-07 1.44355E-18-2.46955E-21
 -1      1629 9.53931E-05-2.85979E-05-2.86319E-05 1.15791E-07-1.07666E-19-3.04829E-18
 -1      1630 9.55552E-05-2.86380E-05-2.86805E-05 1.43043E-07 4.99063E-20-2.88493E-18
 -1      1631 9.56549E-05-2.86518E-05-2.87198E-05 3.54927E-07-1.32239E-19 1.23954E-18
 -1      1632 9.52505E-05-2.85611E-05-2.85781E-05 1.35791E-08-2.92217E-19-3.39209E-18
 -1      1633 9.52940E-05-2.85617E-05-2.85997E-05 4.07571E-08-1.10038E-19-3.89570E-18
 -1      1634 9.53777E-05-2.85700E-05-2.86356E-05 1.52160E-07 1.43453E-19 5.26749E-20
 -1      1635 9.52256E-05-2.85729E-05-2.85581E-05-1.67873E-08-1.98027E-18-2.57436E-18
 -1      1636 9.52360E-05-2.84646E-05-2.86194E-05 8.75231E-08-8.99389E-20 1.39794E-18
 -1      1637 9.52507E-05-2.85240E-05-2.85948E-05 6.13214E-08-2.10847E-18 1.69510E-18
 -1      1638 9.51428E-05-2.81756E-05-2.87029E-05 1.96202E-07 1.34084E-18 5.92899E-19
 -1      1639 9.51965E-05-2.83386E-05-2.86555E-05 1.75752E-07 5.32720E-19 3.26594E-19
 -1      1640 9.52215E-05-2.83240E-05-2.86748E-05 2.63980E-07-9.69286E-20 1.80442E-18
 -1      1641 9.50053E-05-2.77596E-05-2.88209E-05 2.70468E-07 8.16962E-19-5.03875E-19
 -1      1642 9.50841E-05-2.79971E-05-2.87534E-05 2.58988E-07 1.42362E-18 6.53317E-19
 -1      1643 9.51090E-05-2.80143E-05-2.87594E-05 4.45457E-07 2.15271E-19 5.83535E-19
 -1      1644 9.48486E-05-2.72817E-05-2.89576E-05 2.97097E-07 8.04812E-19 3.64868E-19
 -1      1645 9.49369E-05-2.75500E-05-2.88810E-05 2.95737E-07 7.03153E-19 6.45989E-19
 -1      1646 9.49685E-05-2.76222E-05-2.88645E-05 5.50446E-07 5.04043E-19-3.57956E-19
 -1      1647 9.46996E-05-2.68240E-05-2.90894E-05 2.76497E-07-7.92323E-19 5.47122E-19
 -1      1648 9.47816E-05-2.70745E-05-2.90176E-05 2.84052E-07 1.84390E-19-7.01455E-19
 -1      1649 9.48197E-05-2.72024E-05-2.89776E-05 5.63665E-07-5.82313E-19-1.04263E-18
 -1      1650 9.45749E-05-2.64403E-05-2.92003E-05 2.13397E-07 8.09249E-19 6.59281E-19
 -1      1651 9.46409E-05-2.66414E-05-2.91425E-05 2.28796E-07-2.05968E-19 9.51204E-19
 -1      1652 9.46824E-05-2.68110E-05-2.90838E-05 4.89855E-07-2.49315E-19 7.18518E-19
 -1      1653 9.44959E-05-2.61971E-05-2.92705E-05 1.17499E-07 1.76103E-18 3.38605E-19
 -1      1654 9.45340E-05-2.63131E-05-2.92372E-05 1.38378E-07 4.85316E-19 1.36823E-18
 -1      1655 9.45736E-05-2.65003E-05-2.91681E-05 3.41051E-07-1.33070E-19 1.35719E-18
 -1      1656 9.44744E-05-2.61324E-05-2.92890E-05 2.24526E-09 4.41044E-18 1.97824E-18
 -1      1657 9.44786E-05-2.61442E-05-2.92857E-05 2.57631E-08 2.52935E-18 7.68371E-19
 -1      1658 9.45098E-05-2.63192E-05-2.92170E-05 1.39111E-07 1.41187E-18 1.86761E-18
 -1      1659 9.45151E-05-2.62595E-05-2.92520E-05-1.16026E-07 2.32726E-18-1.77154E-18
 -1      1660 9.44837E-05-2.61630E-05-2.92798E-05-9.32297E-08 3.61924E-18 9.50432E-19
 -1      1661 9.45007E-05-2.62960E-05-2.92228E-05-8.76878E-08 2.01300E-18 1.13885E-18
 -1      1662 9.46133E-05-2.65632E-05-2.91642E-05-2.19319E-07-2.93624E-18-3.05456E-18
 -1      1663 9.45505E-05-2.63709E-05-2.92193E-05-2.00871E-07 1.77836E-18-3.32166E-18
 -1      1664 9.45491E-05-2.64372E-05-2.91838E-05-3.06394E-07 3.70813E-19-3.36050E-18
 -1      1665 9.47531E-05-2.69913E-05-2.90410E-05-2.88953E-07-4.74023E-18 7.66142E-19
 -1      1666 9.46692E-05-2.67368E-05-2.91136E-05-2.78430E-07-3.74062E-18-1.11695E-18
 -1      1667 9.46494E-05-2.67227E-05-2.91063E-05-4.81281E-07 2.70429E-19-4.04841E-18
 -1      1668 9.49174E-05-2.74899E-05-2.88985E-05-3.12200E-07-1.84808E-18 1.80102E-18
 -1      1669 9.48236E-05-2.72074E-05-2.89787E-05-3.11860E-07-4.08958E-18 3.15022E-18
 -1      1670 9.47880E-05-2.71135E-05-2.90011E-05-5.81896E-07-6.55408E-20 2.87464E-18
 -1      1671 9.50756E-05-2.79665E-05-2.87635E-05-2.78380E-07-1.57776E-18 7.18456E-19
 -1      1672 9.49907E-05-2.77119E-05-2.88354E-05-2.89839E-07-1.97469E-18 4.23641E-19
 -1      1673 9.49475E-05-2.75554E-05-2.88836E-05-5.84700E-07-2.21421E-19 1.46606E-18
 -1      1674 9.51999E-05-2.83298E-05-2.86596E-05-1.89457E-07-2.96686E-18-1.86344E-19
 -1      1675 9.51382E-05-2.81564E-05-2.87099E-05-2.13191E-07-2.41315E-18 5.14535E-19
 -1      1676 9.50987E-05-2.79733E-05-2.87728E-05-4.77779E-07-9.99321E-19-4.18719E-21
 -1      1677 9.52633E-05-2.84906E-05-2.86131E-05-1.09329E-07-1.83626E-18-8.16771E-20
 -1      1678 9.52451E-05-2.84236E-05-2.86407E-05-1.50390E-07-1.76577E-18-1.48555E-19
 -1      1679 9.52370E-05-2.82650E-05-2.87044E-05-3.48894E-07-1.51764E-18 6.03065E-19
 -1      1680 9.53436E-05-2.84521E-05-2.86649E-05-2.31191E-07-7.05594E-19 6.17935E-19
 -1      1681 2.05681E-05-6.70694E-05 1.39819E-05-5.33426E-06 6.06306E-18 1.60682E-18
 -1      1682 2.38563E-05-7.68526E-05 1.60795E-05 3.00257E-06 4.69129E-18 1.40650E-18
 -1      1683 1.98536E-05-3.81847E-05 3.86926E-06 5.18406E-06 3.79471E-18-1.02597E-18
 -1      1684 2.42467E-05-6.06926E-05 9.78448E-06 1.51775E-06 6.10372E-18-4.72697E-19
 -1      1685 3.87888E-05-1.44413E-05-1.19516E-05 3.11724E-05 2.63427E-18 3.70280E-18
 -1      1686 3.27953E-05-3.39654E-05-3.40907E-06 1.46234E-05 2.72914E-18 1.36584E-18
 -1      1687 7.54892E-05-1.00951E-06-3.08821E-05 6.05295E-05 4.04289E-18 4.90009E-18
 -1      1688 5.11940E-05-7.56142E-06-2.07111E-05 3.75002E-05 3.41015E-18 3.87687E-18
 -1      1689 1.37631E-04-1.38836E-05-4.94886E-05 7.91577E-05 3.86162E-18 6.33919E-18
 -1      1690 9.72236E-05-1.80166E-06-4.02639E-05 6.64983E-05 4.23940E-18 5.38289E-18
 -1      1691 2.03049E-04-4.06528E-05-6.42005E-05 6.86725E-05 2.84074E-18 3.79217E-18
 -1      1692 1.61741E-04-2.04102E-05-5.72734E-05 7.68058E-05 4.02087E-18 5.58618E-18
 -1      1693 2.44836E-04-6.05538E-05-7.27910E-05 2.88466E-05 2.01890E-18 2.95614E-19
 -1      1694 2.19586E-04-4.63759E-05-6.91213E-05 5.58466E-05 2.88902E-18 3.16790E-18
 -1      1695 2.48004E-04-6.11455E-05-7.41220E-05-2.01423E-05 3.02835E-18-5.01444E-18
 -1      1696 2.50227E-04-6.23819E-05-7.43944E-05 1.36074E-05 2.46190E-18-1.33662E-18
 -1      1697 2.08965E-04-4.12695E-05-6.72738E-05-5.96090E-05 4.77335E-18-9.58502E-18
 -1      1698 2.38761E-04-5.76134E-05-7.17153E-05-3.43846E-05 3.09082E-18-6.95922E-18
 -1      1699 1.48204E-04-1.60550E-05-5.40278E-05-7.48070E-05 1.06697E-17-1.32772E-17
 -1      1700 1.90911E-04-3.58532E-05-6.16164E-05-7.06829E-05 6.79744E-18-1.06963E-17
 -1      1701 8.53311E-05-4.03697E-07-3.63647E-05-6.14107E-05 1.42734E-17-1.52313E-17
 -1      1702 1.23468E-04-9.43221E-06-4.58990E-05-7.73117E-05 1.16027E-17-1.47782E-17
 -1      1703 4.62160E-05-1.27088E-05-1.70155E-05-3.14022E-05 1.34788E-17-1.19779E-17
 -1      1704 6.67617E-05-3.16137E-06-2.69396E-05-5.42636E-05 1.40963E-17-1.38685E-17
 -1      1705 2.54778E-05-3.82688E-05 3.77075E-07-6.04988E-06 9.17591E-18-7.22519E-18
 -1      1706 2.74929E-05-1.47327E-05-7.98764E-06-2.15820E-05 1.31731E-17-1.18572E-17
 -1      1707 2.40965E-05-6.71478E-05 1.20160E-05 1.14373E-06 2.89431E-18-3.71085E-18
 -1      1708 1.86455E-05-4.59769E-05 6.87143E-06 1.00840E-06 7.91552E-18-5.67840E-18
 -1      1709 2.37627E-05-7.78508E-05 1.64523E-05-4.60808E-06-4.33334E-18-2.45428E-18
 -1      1710 2.18410E-05-7.19020E-05 1.51359E-05 4.88376E-06 8.00870E-19-3.09019E-18
 -1      1711 1.97271E-05-6.24262E-05 1.24967E-05-7.35605E-06-1.02965E-17-5.16648E-18
 -1      1712 2.40510E-05-7.56480E-05 1.54599E-05-1.14405E-06-6.51114E-18-2.94725E-18
 -1      1713 2.04704E-05-3.54416E-05 2.05626E-06 2.95792E-06-1.49603E-17-9.00481E-18
 -1      1714 2.39982E-05-5.75084E-05 8.16950E-06-2.85863E-06-1.17018E-17-6.48986E-18
 -1      1715 3.78000E-05-1.06989E-05-1.37155E-05 2.95817E-05-1.54177E-17-1.22252E-17
 -1      1716 3.02917E-05-2.95311E-05-5.05821E-06 1.10125E-05-1.55354E-17-9.80059E-18
 -1      1717 8.16872E-05-4.28040E-06-3.25534E-05 6.04985E-05-1.27267E-17-1.30773E-17
 -1      1718 5.50960E-05-8.10468E-06-2.26572E-05 3.79405E-05-1.47172E-17-1.23675E-17
 -1      1719 1.49940E-04-2.22497E-05-5.12788E-05 7.39343E-05-8.50590E-18-1.28325E-17
 -1      1720 1.08384E-04-9.93422E-06-4.18016E-05 6.23862E-05-1.09437E-17-1.26682E-17
 -1      1721 2.15404E-04-4.60906E-05-6.65383E-05 6.55154E-05-5.79360E-18-8.60585E-18
 -1      1722 1.72680E-04-2.57675E-05-5.94731E-05 7.43427E-05-7.30651E-18-1.16992E-17
 -1      1723 2.57567E-04-6.50655E-05-7.52963E-05 2.46554E-05-2.76260E-18-3.60370E-18
 -1      1724 2.31902E-04-5.12458E-05-7.15647E-05 5.32815E-05-5.06674E-18-7.50979E-18
 -1      1725 2.59948E-04-6.52222E-05-7.62746E-05-2.57115E-05-1.47130E-18 4.31987E-20
 -1      1726 2.64745E-04-6.79685E-05-7.69773E-05 9.28100E-06-7.97905E-19-2.36015E-18
 -1      1727 2.17758E-04-4.45925E-05-6.88794E-05-6.33316E-05-3.91176E-18 4.78489E-18
 -1      1728 2.50349E-04-6.17883E-05-7.36249E-05-4.01800E-05-2.70384E-18 9.50371E-19
 -1      1729 1.53034E-04-2.04439E-05-5.43674E-05-7.03700E-05-6.24348E-18 7.56909E-18
 -1      1730 1.96754E-04-3.92121E-05-6.23799E-05-6.80602E-05-4.17672E-18 5.09067E-18
 -1      1731 9.00998E-05-4.84952E-06-3.68261E-05-5.94298E-05-7.51318E-18 9.12763E-18
 -1      1732 1.27663E-04-1.35211E-05-4.62202E-05-7.48371E-05-6.97616E-18 8.36699E-18
 -1      1733 4.74971E-05-1.19964E-05-1.80305E-05-3.12650E-05-4.92126E-18 6.34682E-18
 -1      1734 6.81092E-05-3.26433E-06-2.76973E-05-5.34445E-05-6.56959E-18 9.56470E-18
 -1      1735 3.22420E-05-3.96587E-05-1.36319E-06-9.78996E-06 3.02391E-19 2.61077E-18
 -1      1736 3.72405E-05-1.99077E-05-9.71119E-06-2.53657E-05-3.00273E-18 4.88823E-18
 -1      1737 2.36640E-05-6.45317E-05 1.10863E-05 3.61752E-06 3.05652E-18 3.01491E-19
 -1      1738 1.84635E-05-4.35415E-05 5.85013E-06 2.03118E-06 9.21572E-19 1.52995E-18
 -1      1739 2.31993E-05-7.47889E-05 1.57943E-05-6.99925E-07 4.49017E-18 7.38189E-19
 -1      1740 2.05174E-05-6.70415E-05 1.40485E-05 6.91497E-06 2.89346E-18 6.97108E-19
 -1      1741 1.12462E-04-2.89888E-05-3.49333E-05 4.72170E-05 1.53144E-18 2.96800E-18
 -1      1742 7.49619E-05-3.69255E-05-1.76210E-05 4.11519E-05 6.18334E-19 2.80495E-18
 -1      1743 9.52610E-05-2.85696E-05-2.85810E-05 8.01349E-09-2.68197E-18 3.24193E-20
 -1      1744 9.52780E-05-2.84923E-05-2.86222E-05 1.03770E-07-5.45274E-19 2.35998E-18
 -1      1745 1.87207E-05-4.72122E-05 8.16412E-06 1.64561E-05 1.81519E-18-1.23243E-19
 -1      1746 4.23672E-05-4.12152E-05-2.74805E-06 3.28849E-05 2.07862E-18-3.66818E-19
 -1      1747 1.15152E-05-5.00154E-05 1.19116E-05 1.39335E-06 1.87655E-18 1.66018E-18
 -1      1748 1.55883E-04-2.88943E-05-5.13497E-05 4.61500E-05 1.82239E-18 1.76437E-18
 -1      1749 1.90418E-04-3.16715E-05-6.34625E-05 3.14659E-05 3.24308E-18 9.57147E-20
 -1      1750 2.07976E-04-3.34745E-05-6.96314E-05 9.93998E-06 3.96284E-18-1.65193E-18
 -1      1751 2.04378E-04-3.22243E-05-6.88511E-05-1.20467E-05 4.61336E-18-4.24321E-18
 -1      1752 1.83354E-04-3.09373E-05-6.12665E-05-3.19044E-05 5.99043E-18-5.93304E-18
 -1      1753 1.47186E-04-2.86028E-05-4.81914E-05-4.60999E-05 8.48092E-18-7.25484E-18
 -1      1754 1.04579E-04-3.05424E-05-3.13235E-05-4.60267E-05 7.81007E-18-8.03623E-18
 -1      1755 6.46878E-05-3.51787E-05-1.40083E-05-3.87709E-05 6.03934E-18-9.14584E-18
 -1      1756 3.23430E-05-4.23608E-05 8.96522E-07-2.45632E-05 4.32664E-18-7.74474E-18
 -1      1757 1.61346E-05-5.02854E-05 1.00538E-05-1.15960E-05 7.17437E-19-6.25682E-18
 -1      1758 1.23435E-05-5.16250E-05 1.20684E-05 1.46129E-06-3.31952E-18-5.35537E-18
 -1      1759 2.17458E-05-4.80312E-05 6.99329E-06 1.45966E-05-6.36545E-18-6.74005E-18
 -1      1760 4.36023E-05-4.18145E-05-3.89873E-06 2.75094E-05-8.81084E-18-7.76316E-18
 -1      1761 7.73999E-05-3.54913E-05-1.92283E-05 3.88483E-05-9.49947E-18-7.97947E-18
 -1      1762 1.22638E-04-3.47988E-05-3.66227E-05 4.33838E-05-8.34116E-18-7.83251E-18
 -1      1763 1.65869E-04-3.54491E-05-5.29623E-05 3.82126E-05-6.77309E-18-5.58788E-18
 -1      1764 2.00728E-04-3.60152E-05-6.56436E-05 2.73291E-05-6.47663E-18-4.46175E-18
 -1      1765 2.18704E-04-3.69031E-05-7.19718E-05 6.83983E-06-2.95022E-18-2.73803E-18
 -1      1766 2.17659E-04-3.80609E-05-7.10656E-05-1.46250E-05-3.31402E-18 4.49774E-19
 -1      1767 1.91105E-04-3.58583E-05-6.22815E-05-2.95073E-05-4.29710E-18 1.54838E-18
 -1      1768 1.53782E-04-3.44132E-05-4.85802E-05-4.09190E-05-4.06597E-18 2.04558E-18
 -1      1769 1.08679E-04-3.30899E-05-3.20823E-05-4.42845E-05-2.04389E-18 5.17876E-18
 -1      1770 7.14050E-05-4.00301E-05-1.53262E-05-3.72427E-05 7.88588E-19 4.40288E-18
 -1      1771 3.97235E-05-4.39081E-05-1.00040E-06-2.77335E-05 2.07777E-18 3.53567E-18
 -1      1772 1.74288E-05-4.81744E-05 8.85577E-06-1.12169E-05 3.16113E-18 1.04820E-18
 -1      1773 1.05947E-04-2.31434E-05-3.55707E-05-1.68501E-05-2.25691E-18 6.76568E-18
 -1      1774 8.91457E-05-1.05848E-05-3.37943E-05-1.33223E-05-2.35743E-18-3.87920E-18
 -1      1775 9.04606E-05-1.16271E-05-3.39280E-05-1.51317E-05-2.83157E-18-3.09818E-18
 -1      1776 9.24493E-05-1.38665E-05-3.38401E-05-1.59993E-05-2.91659E-18-1.99029E-18
 -1      1777 9.41468E-05-1.58084E-05-3.40776E-05-1.76598E-05-3.29510E-18-4.89638E-19
 -1      1778 9.33857E-05-1.63391E-05-3.30349E-05-1.37643E-05-3.05485E-18-2.27635E-18
 -1      1779 8.62496E-05-7.67297E-06-3.37466E-05-7.85640E-06-1.01334E-18-4.98488E-18
 -1      1780 8.66457E-05-7.97200E-06-3.37769E-05-9.24582E-06-1.34441E-18-4.93972E-18
 -1      1781 8.56436E-05-7.03215E-06-3.37499E-05-5.31329E-06-3.13136E-19-4.91296E-18
 -1      1782 8.58731E-05-7.21184E-06-3.37622E-05-6.61725E-06-6.70354E-19-4.96251E-18
 -1      1783 8.76339E-05-9.86046E-06-3.33629E-05-6.91716E-06-9.42150E-19-4.75720E-18
 -1      1784 8.53153E-05-6.67112E-06-3.37570E-05-2.88420E-06 3.36924E-19-4.76870E-18
 -1      1785 8.54333E-05-6.76653E-06-3.37613E-05-4.12272E-06 3.07819E-20-4.86332E-18
 -1      1786 8.70071E-05-9.14463E-06-3.34017E-05-4.52821E-06-1.67237E-19-4.70277E-18
 -1      1787 8.51869E-05-6.52165E-06-3.37620E-05-5.16018E-07 9.81574E-19-4.58430E-18
 -1      1788 8.52217E-05-6.55046E-06-3.37630E-05-1.72413E-06 6.94122E-19-4.75450E-18
 -1      1789 8.66802E-05-8.76307E-06-3.34251E-05-2.21194E-06 5.08404E-19-4.61458E-18
 -1      1790 8.52309E-05-6.55920E-06-3.37630E-05 1.84315E-06 1.53184E-18-4.31988E-18
 -1      1791 8.51903E-05-6.52608E-06-3.37619E-05 6.34083E-07 1.28463E-18-4.47141E-18
 -1      1792 8.65833E-05-8.64834E-06-3.34327E-05 6.59418E-08 1.21122E-18-4.41304E-18
 -1      1793 8.54570E-05-6.79094E-06-3.37612E-05 4.24613E-06 2.05109E-18-4.01044E-18
 -1      1794 8.53321E-05-6.68967E-06-3.37567E-05 3.00454E-06 1.77774E-18-4.19958E-18
 -1      1795 8.66970E-05-8.78225E-06-3.34242E-05 2.34490E-06 1.77193E-18-4.08268E-18
 -1      1796 8.59048E-05-7.24639E-06-3.37617E-05 6.70567E-06 2.56064E-18-3.36848E-18
 -1      1797 8.56721E-05-7.06348E-06-3.37495E-05 5.41913E-06 2.29492E-18-3.76178E-18
 -1      1798 8.70397E-05-9.18179E-06-3.34000E-05 4.64427E-06 2.30671E-18-3.70363E-18
 -1      1799 8.67035E-05-8.03823E-06-3.37752E-05 9.36719E-06 3.19679E-18-2.37815E-18
 -1      1800 8.62909E-05-7.72127E-06-3.37453E-05 7.94643E-06 2.81961E-18-2.92750E-18
 -1      1801 8.76821E-05-9.91775E-06-3.33601E-05 7.01723E-06 2.90144E-18-2.95940E-18
 -1      1802 8.80944E-05-9.38612E-06-3.38211E-05 1.22474E-05 3.70321E-18-1.07187E-18
 -1      1803 8.73662E-05-8.82881E-06-3.37540E-05 1.06541E-05 3.38409E-18-1.85731E-18
 -1      1804 8.87877E-05-1.11553E-05-3.33017E-05 9.49158E-06 3.46551E-18-1.88487E-18
 -1      1805 9.06088E-05-1.18350E-05-3.39199E-05 1.52975E-05 3.95038E-18 1.10480E-18
 -1      1806 8.92442E-05-1.07378E-05-3.37860E-05 1.35077E-05 3.73856E-18-2.34734E-19
 -1      1807 9.06617E-05-1.32177E-05-3.32089E-05 1.19657E-05 3.87860E-18-4.41754E-19
 -1      1808 9.58153E-05-1.70203E-05-3.39731E-05 1.76866E-05 3.62452E-18 4.90951E-18
 -1      1809 9.28157E-05-1.43339E-05-3.38132E-05 1.61902E-05 3.75261E-18 2.67395E-18
 -1      1810 9.39374E-05-1.68771E-05-3.30146E-05 1.38881E-05 3.96045E-18 1.91059E-18
 -1      1811 1.01834E-04-2.50688E-05-3.33310E-05 1.44207E-05 2.82438E-18 9.29566E-18
 -1      1812 9.80025E-05-1.95982E-05-3.36014E-05 1.69614E-05 3.26606E-18 6.38403E-18
 -1      1813 9.72656E-05-2.18362E-05-3.24080E-05 1.32453E-05 3.70798E-18 4.73378E-18
 -1      1814 9.86623E-05-2.61089E-05-3.13151E-05 9.43489E-06 2.93023E-18 8.31943E-18
 -1      1815 1.00070E-04-1.95424E-05-3.41904E-05-1.88669E-05-2.93652E-18 2.17624E-18
 -1      1816 9.52247E-05-2.72587E-05-2.91597E-05 4.06547E-06 2.15222E-18 6.81230E-18
 -1      1817 9.76538E-05-2.73640E-05-3.01682E-05 6.39986E-06 2.41762E-18 7.61789E-18
 -1      1818 9.75019E-05-2.55922E-05-3.08105E-05 8.75769E-06 2.98203E-18 5.53495E-18
 -1      1819 9.97405E-05-2.25215E-05-3.28129E-05-1.44656E-05-3.06001E-18 1.14662E-18
 -1      1820 9.68844E-05-2.69548E-05-2.98552E-05-5.70297E-06-2.43615E-18 7.87342E-19
 -1      1821 9.50784E-05-2.70092E-05-2.91455E-05-3.89445E-06-2.16895E-18 1.86347E-19
 -1      1822 9.42641E-05-2.72108E-05-2.86400E-05-2.41328E-06-2.04161E-18 1.33983E-19
 -1      1823 9.34974E-05-2.72919E-05-2.83365E-05-1.55600E-06-1.81104E-18-4.29432E-19
 -1      1824 9.54555E-05-2.65254E-05-2.95628E-05-4.46245E-06-2.52500E-18-8.07226E-19
 -1      1825 9.29802E-05-2.73434E-05-2.80709E-05-7.22343E-07-1.57440E-18-4.53828E-19
 -1      1826 9.26873E-05-2.74074E-05-2.79518E-05-2.77389E-07-1.28103E-18-8.80967E-19
 -1      1827 9.42582E-05-2.72010E-05-2.87596E-05-1.80473E-06-1.94569E-18-9.55384E-19
 -1      1828 9.24236E-05-2.74359E-05-2.78207E-05 1.89857E-07-1.16430E-18-9.14796E-19
 -1      1829 9.24070E-05-2.75136E-05-2.77959E-05 4.24755E-07-1.08035E-18-1.30285E-18
 -1      1830 9.35753E-05-2.75060E-05-2.83323E-05-3.17079E-07-1.51610E-18-1.17844E-18
 -1      1831 9.23226E-05-2.75473E-05-2.77453E-05 6.83137E-07-1.03305E-18-1.46171E-18
 -1      1832 9.24621E-05-2.76359E-05-2.77726E-05 8.03690E-07-9.59305E-19-1.88011E-18
 -1      1833 9.32838E-05-2.76906E-05-2.81244E-05 5.20356E-07-1.30161E-18-1.61746E-18
 -1      1834 9.24962E-05-2.76780E-05-2.77718E-05 9.42192E-07-8.45810E-19-1.72853E-18
 -1      1835 9.27227E-05-2.77713E-05-2.78291E-05 1.00024E-06-5.46296E-19-1.93164E-18
 -1      1836 9.32660E-05-2.78352E-05-2.80510E-05 9.84035E-07-8.88411E-19-1.66875E-18
 -1      1837 9.28336E-05-2.78194E-05-2.78601E-05 1.07291E-06-5.22186E-19-1.97717E-18
 -1      1838 9.31089E-05-2.79131E-05-2.79352E-05 1.10018E-06-4.71477E-19-1.87082E-18
 -1      1839 9.34291E-05-2.79631E-05-2.80633E-05 1.23507E-06-6.33886E-19-1.63089E-18
 -1      1840 9.32707E-05-2.79648E-05-2.79874E-05 1.14250E-06-5.35603E-19-1.98851E-18
 -1      1841 9.35763E-05-2.80574E-05-2.80740E-05 1.16046E-06-3.49436E-19-2.04163E-18
 -1      1842 9.37107E-05-2.80807E-05-2.81317E-05 1.37479E-06-5.57986E-19-1.74862E-18
 -1      1843 9.37752E-05-2.81115E-05-2.81417E-05 1.19754E-06-3.91054E-19-2.10624E-18
 -1      1844 9.41060E-05-2.82036E-05-2.82379E-05 1.22202E-06-5.21060E-19-2.31322E-18
 -1      1845 9.40741E-05-2.81904E-05-2.82395E-05 1.47191E-06-6.14657E-19-1.93761E-18
 -1      1846 9.43372E-05-2.82603E-05-2.83189E-05 1.27302E-06-5.62889E-19-2.28276E-18
 -1      1847 9.46983E-05-2.83549E-05-2.84257E-05 1.31676E-06-2.89111E-19-2.33942E-18
 -1      1848 9.45021E-05-2.82945E-05-2.83780E-05 1.57665E-06-4.66184E-19-1.82269E-18
 -1      1849 9.49638E-05-2.84155E-05-2.85206E-05 1.39747E-06-4.89545E-19-2.48440E-18
 -1      1850 9.53687E-05-2.85171E-05-2.86416E-05 1.47162E-06-5.11066E-19-2.76121E-18
 -1      1851 9.49931E-05-2.83964E-05-2.85449E-05 1.72856E-06-6.06738E-19-1.88226E-18
 -1      1852 9.56761E-05-2.85840E-05-2.87529E-05 1.59610E-06-3.25387E-19-3.14627E-18
 -1      1853 9.61449E-05-2.86990E-05-2.88937E-05 1.71122E-06 2.51248E-20-3.02174E-18
 -1      1854 9.55571E-05-2.85011E-05-2.87423E-05 1.96126E-06-6.47619E-19-2.15936E-18
 -1      1855 9.65060E-05-2.87757E-05-2.90255E-05 1.89269E-06 3.09895E-19-3.12049E-18
 -1      1856 9.70656E-05-2.89121E-05-2.91937E-05 2.05913E-06 3.31448E-19-2.62775E-18
 -1      1857 9.62139E-05-2.86148E-05-2.89759E-05 2.30522E-06 9.85702E-20-2.08607E-18
 -1      1858 9.74956E-05-2.90030E-05-2.93512E-05 2.31018E-06 1.14624E-19-3.01146E-18
 -1      1859 9.81783E-05-2.91711E-05-2.95559E-05 2.53789E-06 1.15385E-19-2.91073E-18
 -1      1860 9.69910E-05-2.87460E-05-2.92537E-05 2.78902E-06 1.44064E-19-2.70951E-18
 -1      1861 9.86953E-05-2.92824E-05-2.97448E-05 2.86953E-06-1.66654E-19-2.57002E-18
 -1      1862 9.95381E-05-2.94951E-05-2.99958E-05 3.16654E-06-2.23344E-19-2.69466E-18
 -1      1863 9.79220E-05-2.89065E-05-2.95851E-05 3.43855E-06 1.28284E-19-2.63323E-18
 -1      1864 1.00162E-04-2.96354E-05-3.02216E-05 3.58546E-06-2.86072E-19-2.92644E-18
 -1      1865 1.01204E-04-2.99094E-05-3.05289E-05 3.95413E-06-4.05707E-19-2.92755E-18
 -1      1866 9.90464E-05-2.91141E-05-2.99792E-05 4.27300E-06-3.85355E-19-2.28581E-18
 -1      1867 1.01957E-04-3.00923E-05-3.07950E-05 4.45659E-06-3.24544E-19-2.56097E-18
 -1      1868 1.03234E-04-3.04493E-05-3.11660E-05 4.88587E-06-3.19828E-19-2.44307E-18
 -1      1869 1.00408E-04-2.93978E-05-3.04425E-05 5.29529E-06-1.19705E-19-2.09812E-18
 -1      1870 1.04140E-04-3.06975E-05-3.14718E-05 5.44614E-06-5.30418E-19-2.35843E-18
 -1      1871 1.05673E-04-3.11660E-05-3.19073E-05 5.89727E-06-5.47544E-20-2.63317E-18
 -1      1872 1.02057E-04-2.98081E-05-3.09749E-05 6.47336E-06-3.33076E-19-1.56412E-18
 -1      1873 1.06762E-04-3.15180E-05-3.22449E-05 6.44773E-06 4.65183E-19-2.91460E-18
 -1      1874 1.08541E-04-3.21342E-05-3.27327E-05 6.83103E-06 6.17980E-19-3.00589E-18
 -1      1875 1.04053E-04-3.04328E-05-3.15652E-05 7.70703E-06 1.01684E-19-2.49598E-18
 -1      1876 1.09852E-04-3.26524E-05-3.30839E-05 7.23193E-06 3.80940E-19-3.04729E-18
 -1      1877 1.11806E-04-3.34543E-05-3.35892E-05 7.37607E-06-1.66448E-19-2.98185E-18
 -1      1878 1.06476E-04-3.14169E-05-3.21856E-05 8.77593E-06 4.29955E-19-2.67214E-18
 -1      1879 1.13392E-04-3.42261E-05-3.39246E-05 7.37879E-06 1.36938E-19-1.76561E-18
 -1      1880 1.15343E-04-3.52285E-05-3.43825E-05 7.00737E-06 7.71488E-19-1.45542E-18
 -1      1881 1.09428E-04-3.29727E-05-3.27908E-05 9.27035E-06 6.42514E-19-1.70404E-18
 -1      1882 1.17251E-04-3.63327E-05-3.46693E-05 6.23479E-06 6.27380E-19-1.27318E-18
 -1      1883 1.18867E-04-3.74557E-05-3.49866E-05 4.99692E-06 1.04975E-18-8.40230E-19
 -1      1884 1.13022E-04-3.53293E-05-3.33296E-05 8.53102E-06 9.67795E-19-3.26439E-19
 -1      1885 1.21046E-04-3.88456E-05-3.52110E-05 3.01130E-06 1.20529E-18-9.38380E-19
 -1      1886 1.21813E-04-3.97708E-05-3.52951E-05 6.57350E-07 1.23635E-18-2.57591E-19
 -1      1887 1.17262E-04-3.85181E-05-3.37836E-05 5.68709E-06 1.27140E-18-3.66348E-19
 -1      1888 1.23900E-04-4.10304E-05-3.55031E-05-2.73890E-06 1.05176E-18-8.84575E-19
 -1      1889 1.23202E-04-4.10563E-05-3.53294E-05-5.93900E-06 3.68089E-19-7.48373E-19
 -1      1890 1.21723E-04-4.18762E-05-3.42387E-05-2.75603E-10 8.94202E-19-4.61382E-19
 -1      1891 1.24289E-04-4.11997E-05-3.56543E-05-1.00204E-05 2.13651E-19-1.17669E-18
 -1      1892 1.21788E-04-3.94668E-05-3.53293E-05-1.27570E-05 1.78916E-19-8.24481E-19
 -1      1893 1.25043E-04-4.34247E-05-3.49546E-05-8.17443E-06 4.37387E-19 5.01635E-20
 -1      1894 1.20847E-04-3.74771E-05-3.58867E-05-1.52196E-05 8.62782E-20-9.65604E-19
 -1      1895 1.17160E-04-3.40248E-05-3.56006E-05-1.52884E-05-3.12740E-19-1.17611E-18
 -1      1896 1.25088E-04-4.04581E-05-3.62601E-05-1.57820E-05 1.10948E-19-5.84056E-20
 -1      1897 1.14622E-04-3.05715E-05-3.62428E-05-1.32108E-05-6.19340E-19-1.46505E-18
 -1      1898 1.11746E-04-2.74979E-05-3.61067E-05-9.32105E-06-8.82397E-19-1.37374E-18
 -1      1899 1.21049E-04-3.25627E-05-3.80428E-05-1.68356E-05-5.39031E-19-2.23762E-18
 -1      1900 1.10337E-04-2.57146E-05-3.63971E-05-2.70489E-06-1.25144E-18-1.52147E-18
 -1      1901 1.10387E-04-2.57779E-05-3.63975E-05 3.14297E-06-1.30252E-18-2.32536E-18
 -1      1902 1.16435E-04-2.50986E-05-3.94219E-05-7.25646E-06-1.47299E-18-1.73876E-18
 -1      1903 1.11895E-04-2.76778E-05-3.60835E-05 9.66448E-06-2.15686E-18-3.19337E-18
 -1      1904 1.14836E-04-3.08189E-05-3.62237E-05 1.34262E-05-2.05046E-18-3.88060E-18
 -1      1905 1.16532E-04-2.52547E-05-3.93868E-05 7.73718E-06-2.11181E-18-2.56287E-18
 -1      1906 1.17356E-04-3.42625E-05-3.55792E-05 1.53129E-05-1.45208E-18-3.94024E-18
 -1      1907 1.21013E-04-3.76711E-05-3.58709E-05 1.51144E-05-6.35645E-19-3.37945E-18
 -1      1908 1.21239E-04-3.28955E-05-3.79717E-05 1.69472E-05-1.78266E-18-3.23912E-18
 -1      1909 1.21881E-04-3.95841E-05-3.53239E-05 1.25544E-05-5.21958E-19-3.60227E-18
 -1      1910 1.24324E-04-4.12513E-05-3.56462E-05 9.76077E-06-2.41067E-19-4.15761E-18
 -1      1911 1.25145E-04-4.06519E-05-3.61988E-05 1.55872E-05-8.21503E-19-3.24659E-18
 -1      1912 1.23171E-04-4.10399E-05-3.53280E-05 5.67515E-06 5.64468E-20-3.91871E-18
 -1      1913 1.23807E-04-4.09643E-05-3.54927E-05 2.49208E-06 1.13007E-18-3.58497E-18
 -1      1914 1.24955E-04-4.34411E-05-3.49221E-05 7.84788E-06 2.09773E-19-3.23962E-18
 -1      1915 1.21709E-04-3.96902E-05-3.52842E-05-8.56038E-07 1.29517E-18-3.41029E-18
 -1      1916 1.20901E-04-3.87496E-05-3.51899E-05-3.17011E-06 1.12191E-18-3.67633E-18
 -1      1917 1.21557E-04-4.17623E-05-3.42186E-05-2.49362E-07 1.05725E-18-2.67717E-18
 -1      1918 1.18728E-04-3.73656E-05-3.49635E-05-5.10750E-06 1.30078E-18-3.93459E-18
 -1      1919 1.17092E-04-3.62427E-05-3.46395E-05-6.30843E-06 1.02014E-18-3.06809E-18
 -1      1920 1.17093E-04-3.83930E-05-3.37645E-05-5.83585E-06 1.01885E-18-2.59197E-18
 -1      1921 1.15196E-04-3.51502E-05-3.43512E-05-7.04419E-06 7.94983E-19-2.18297E-18
 -1      1922 1.13241E-04-3.41538E-05-3.38906E-05-7.38985E-06 8.09522E-19-2.10212E-18
 -1      1923 1.12872E-04-3.52253E-05-3.33090E-05-8.58825E-06 1.61377E-18-5.09932E-19
 -1      1924 1.11668E-04-3.33922E-05-3.35554E-05-7.36380E-06 1.94187E-18-1.53067E-18
 -1      1925 1.09721E-04-3.25971E-05-3.30509E-05-7.20374E-06 2.18474E-18 1.01402E-19
 -1      1926 1.09304E-04-3.28984E-05-3.27693E-05-9.26371E-06 1.79168E-18 1.81622E-19
 -1      1927 1.08423E-04-3.20861E-05-3.27019E-05-6.78778E-06 1.04058E-18-1.07918E-18
 -1      1928 1.06658E-04-3.14761E-05-3.22178E-05-6.39399E-06-4.14960E-19-1.20590E-18
 -1      1929 1.06379E-04-3.13651E-05-3.21664E-05-8.72801E-06 8.94571E-19-5.47087E-19
 -1      1930 1.05585E-04-3.11294E-05-3.18845E-05-5.83158E-06-1.64038E-18-2.90431E-19
 -1      1931 1.04071E-04-3.06667E-05-3.14549E-05-5.37127E-06-1.92123E-18-2.34185E-19
 -1      1932 1.03986E-04-3.03957E-05-3.15521E-05-7.62935E-06-4.08886E-19-5.51599E-19
 -1      1933 1.03184E-04-3.04230E-05-3.11557E-05-4.79793E-06-1.52545E-18-1.07615E-19
 -1      1934 1.01935E-04-3.00722E-05-3.07931E-05-4.35746E-06 1.61615E-20-4.93746E-19
 -1      1935 1.02023E-04-2.97804E-05-3.09724E-05-6.36758E-06-1.79069E-18 1.72113E-18
 -1      1936 1.01206E-04-2.98937E-05-3.05361E-05-3.83735E-06 6.00055E-19-4.49448E-19
 -1      1937 1.00201E-04-2.96272E-05-3.02402E-05-3.45266E-06 6.90641E-19-1.23313E-19
 -1      1938 1.00415E-04-2.93765E-05-3.04554E-05-5.15482E-06 1.05935E-19 2.63107E-18
 -1      1939 9.96082E-05-2.94918E-05-3.00268E-05-3.00835E-06 8.16217E-19-1.52591E-18
 -1      1940 9.88149E-05-2.92888E-05-2.97913E-05-2.68775E-06 1.04887E-18-1.60906E-18
 -1      1941 9.91078E-05-2.90979E-05-3.00132E-05-4.08407E-06 3.63744E-20 7.64796E-19
 -1      1942 9.83389E-05-2.91834E-05-2.96187E-05-2.31967E-06 1.28171E-18-8.35442E-19
 -1      1943 9.77238E-05-2.90285E-05-2.94353E-05-2.05764E-06 2.55895E-18 6.18589E-19
 -1      1944 9.80538E-05-2.88951E-05-2.96474E-05-3.18039E-06 1.72957E-18-4.31695E-19
 -1      1945 9.73464E-05-2.89445E-05-2.92995E-05-1.75538E-06 2.47997E-18 6.00527E-19
 -1      1946 9.68791E-05-2.88262E-05-2.91602E-05-1.54006E-06 1.87654E-18 1.03702E-18
 -1      1947 9.72136E-05-2.87392E-05-2.93531E-05-2.43330E-06 2.39805E-18 3.95037E-20
 -1      1948 9.65840E-05-2.87575E-05-2.90562E-05-1.28875E-06 5.99419E-19 1.35803E-18
 -1      1949 9.62396E-05-2.86674E-05-2.89543E-05-1.10602E-06 2.54078E-19 7.83345E-19
 -1      1950 9.65524E-05-2.86125E-05-2.91230E-05-1.81556E-06 1.65813E-18-7.86566E-20
 -1      1951 9.60112E-05-2.86099E-05-2.88773E-05-8.89536E-07 4.22119E-20 1.15871E-18
 -1      1952 9.57718E-05-2.85446E-05-2.88067E-05-7.26065E-07 4.01090E-19 1.71725E-18
 -1      1953 9.60387E-05-2.85032E-05-2.89484E-05-1.29451E-06 1.78435E-19 1.04234E-18
 -1      1954 9.56165E-05-2.85076E-05-2.87543E-05-5.43532E-07 9.74059E-19 1.26571E-18
 -1      1955 9.54632E-05-2.84691E-05-2.87067E-05-3.98304E-07 6.70997E-19 1.22794E-18
 -1      1956 9.54136E-05-2.83909E-05-2.87276E-05-4.76771E-07 7.98666E-20 1.56036E-18
 -1      1957 9.56655E-05-2.84252E-05-2.88229E-05-8.51164E-07 4.86854E-19 1.69147E-18
 -1      1958 9.31318E-05-2.73361E-05-2.81701E-05 1.59878E-06 1.85578E-18 5.53532E-18
 -1      1959 9.43236E-05-2.74412E-05-2.86056E-05 2.67178E-06 1.87861E-18 6.31580E-18
 -1      1960 9.51613E-05-2.70240E-05-2.92072E-05 4.04762E-06 2.33155E-18 4.57852E-18
 -1      1961 9.20923E-05-2.73243E-05-2.77329E-05 3.32255E-07 1.20167E-18 4.66204E-18
 -1      1962 9.25808E-05-2.73557E-05-2.79032E-05 8.84426E-07 1.48180E-18 5.19448E-18
 -1      1963 9.35673E-05-2.73457E-05-2.83878E-05 1.56960E-06 1.81810E-18 3.85935E-18
 -1      1964 9.17391E-05-2.73657E-05-2.75725E-05-3.37387E-07 9.24212E-19 3.89323E-18
 -1      1965 9.18431E-05-2.73368E-05-2.76157E-05-3.78882E-08 8.73291E-19 4.22761E-18
 -1      1966 9.27538E-05-2.74625E-05-2.79922E-05 2.40534E-07 1.28328E-18 3.01253E-18
 -1      1967 9.17999E-05-2.74636E-05-2.75620E-05-6.88115E-07 7.78721E-19 3.21090E-18
 -1      1968 9.16930E-05-2.73973E-05-2.75393E-05-5.24341E-07 8.23048E-19 3.76513E-18
 -1      1969 9.24688E-05-2.75594E-05-2.78288E-05-4.78766E-07 9.33904E-19 2.41235E-18
 -1      1970 9.21028E-05-2.75981E-05-2.76370E-05-8.62479E-07 9.72206E-19 2.72991E-18
 -1      1971 9.18812E-05-2.75120E-05-2.75784E-05-7.74903E-07 7.44850E-19 3.02386E-18
 -1      1972 9.25177E-05-2.76718E-05-2.77998E-05-8.62004E-07 9.57768E-19 1.86741E-18
 -1      1973 9.25446E-05-2.77524E-05-2.77617E-05-9.41581E-07 6.95766E-19 2.47043E-18
 -1      1974 9.22620E-05-2.76572E-05-2.76833E-05-8.95898E-07 8.98711E-19 2.71674E-18
 -1      1975 9.27711E-05-2.77993E-05-2.78518E-05-1.05767E-06 9.50175E-19 1.47322E-18
 -1      1976 9.30667E-05-2.79164E-05-2.79161E-05-9.76064E-07 6.32321E-19 1.95969E-18
 -1      1977 9.27518E-05-2.78176E-05-2.78265E-05-9.50457E-07 5.30648E-19 2.25738E-18
 -1      1978 9.31485E-05-2.79357E-05-2.79535E-05-1.15377E-06 7.60363E-19 1.31967E-18
 -1      1979 9.36404E-05-2.80859E-05-2.80898E-05-9.99748E-07 1.58500E-19 1.98350E-18
 -1      1980 9.33058E-05-2.79853E-05-2.79930E-05-9.79326E-07 3.83750E-19 1.99466E-18
 -1      1981 9.36040E-05-2.80768E-05-2.80872E-05-1.20661E-06 4.99594E-19 1.40535E-18
 -1      1982 9.42577E-05-2.82615E-05-2.82793E-05-1.03600E-06 6.24947E-19 1.75437E-18
 -1      1983 9.39053E-05-2.81583E-05-2.81761E-05-1.01021E-06 4.54362E-19 1.99825E-18
 -1      1984 9.41154E-05-2.82218E-05-2.82437E-05-1.25422E-06 5.00623E-19 1.05265E-18
 -1      1985 9.49246E-05-2.84474E-05-2.84854E-05-1.10079E-06 4.76591E-19 1.22765E-18
 -1      1986 9.45491E-05-2.83387E-05-2.83745E-05-1.06217E-06 5.75535E-19 1.42719E-18
 -1      1987 9.46773E-05-2.83731E-05-2.84194E-05-1.32271E-06 7.48096E-19 7.63328E-19
 -1      1988 9.56564E-05-2.86504E-05-2.87119E-05-1.20378E-06 4.80980E-19 1.05003E-18
 -1      1989 9.52478E-05-2.85322E-05-2.85906E-05-1.14757E-06 4.97785E-19 1.20847E-18
 -1      1990 9.52961E-05-2.85361E-05-2.86149E-05-1.42922E-06 6.22728E-19 3.50600E-19
 -1      1991 9.64734E-05-2.88791E-05-2.89638E-05-1.34807E-06 2.69975E-19 6.23498E-19
 -1      1992 9.60194E-05-2.87465E-05-2.88290E-05-1.27245E-06 3.24149E-19 7.40614E-19
 -1      1993 9.59855E-05-2.87185E-05-2.88324E-05-1.58266E-06 4.65850E-19 5.02761E-19
 -1      1994 9.73956E-05-2.91433E-05-2.92459E-05-1.52867E-06 8.27449E-20 7.47651E-19
 -1      1995 9.68848E-05-2.89912E-05-2.90947E-05-1.43551E-06 6.01348E-20 6.65784E-19
 -1      1996 9.67625E-05-2.89299E-05-2.90752E-05-1.78287E-06 1.33306E-19 2.13197E-19
 -1      1997 9.84378E-05-2.94523E-05-2.95607E-05-1.72954E-06 3.69111E-19 5.64751E-19
 -1      1998 9.78625E-05-2.92762E-05-2.93915E-05-1.62594E-06 2.27775E-19 7.19523E-19
 -1      1999 9.76435E-05-2.91815E-05-2.93454E-05-2.01811E-06 1.53060E-19 1.31877E-19
 -1      2000 9.96015E-05-2.98135E-05-2.99060E-05-1.91957E-06 9.68366E-19 7.19250E-20
 -1      2001 9.89625E-05-2.96109E-05-2.97200E-05-1.81992E-06 6.22385E-19 3.54969E-19
 -1      2002 9.86387E-05-2.94848E-05-2.96422E-05-2.26108E-06 1.04042E-18-3.75971E-19
 -1      2003 1.00866E-04-3.02295E-05-3.02722E-05-2.04772E-06 5.87786E-20 7.45023E-19
 -1      2004 1.00178E-04-3.00016E-05-3.00748E-05-1.97623E-06 9.67449E-19 5.68575E-19
 -1      2005 9.97460E-05-2.98506E-05-2.99600E-05-2.46373E-06 7.23795E-19-1.80041E-19
 -1      2006 1.02175E-04-3.06940E-05-3.06386E-05-2.03915E-06-4.90799E-19-4.39170E-19
 -1      2007 1.01476E-04-3.04485E-05-3.04418E-05-2.03198E-06-7.26315E-19-1.04142E-19
 -1      2008 1.00942E-04-3.02860E-05-3.02855E-05-2.55215E-06-9.11536E-20-1.00506E-19
 -1      2009 1.03430E-04-3.11853E-05-3.09714E-05-1.79586E-06-5.54003E-19 4.22416E-19
 -1      2010 1.02783E-04-3.09396E-05-3.07951E-05-1.90117E-06-4.67510E-19 2.50560E-19
 -1      2011 1.02175E-04-3.07887E-05-3.05965E-05-2.42437E-06-5.86056E-19-3.87324E-19
 -1      2012 1.04474E-04-3.16571E-05-3.12227E-05-1.20808E-06-4.30430E-19 1.14066E-18
 -1      2013 1.03976E-04-3.14427E-05-3.10950E-05-1.48069E-06-7.90920E-19 6.93469E-19
 -1      2014 1.03347E-04-3.13373E-05-3.08608E-05-1.95643E-06-8.01639E-19 1.61962E-19
 -1      2015 1.05096E-04-3.20283E-05-3.13350E-05-1.85613E-07 8.79449E-19 1.76253E-18
 -1      2016 1.04872E-04-3.18943E-05-3.12901E-05-6.71697E-07 2.51476E-19 1.98308E-18
 -1      2017 1.04314E-04-3.18774E-05-3.10384E-05-1.02577E-06 5.07426E-20 1.25043E-18
 -1      2018 1.05049E-04-3.21770E-05-3.12524E-05 1.28279E-06-9.26244E-20 1.57117E-18
 -1      2019 1.05235E-04-3.21889E-05-3.13237E-05 5.75187E-07 6.10803E-19 1.61870E-18
 -1      2020 1.04876E-04-3.23038E-05-3.10890E-05 4.38077E-07 5.11353E-19 1.76658E-18
 -1      2021 1.04106E-04-3.19511E-05-3.09405E-05 3.04567E-06-8.78817E-19 1.41153E-18
 -1      2022 1.04812E-04-3.21789E-05-3.11484E-05 2.18844E-06-7.60927E-19 1.49770E-18
 -1      2023 1.04797E-04-3.24522E-05-3.09831E-05 2.37060E-06-6.69666E-19 2.13677E-18
 -1      2024 1.02163E-04-3.12191E-05-3.04113E-05 4.71713E-06-8.47718E-19 1.70485E-18
 -1      2025 1.03409E-04-3.17061E-05-3.07480E-05 3.89708E-06-8.62303E-19 1.25240E-18
 -1      2026 1.03867E-04-3.21251E-05-3.07183E-05 4.47532E-06-7.32730E-19 1.34347E-18
 -1      2027 9.93789E-05-2.99704E-05-2.97413E-05 5.69850E-06 1.52954E-19 1.45150E-18
 -1      2028 1.01031E-04-3.06854E-05-3.01590E-05 5.20452E-06-2.92061E-19 1.27694E-18
 -1      2029 1.02018E-04-3.11816E-05-3.03312E-05 6.17718E-06-2.33827E-19 4.02526E-19
 -1      2030 9.62829E-05-2.84298E-05-2.90685E-05 5.38044E-06 1.06737E-18 2.12761E-18
 -1      2031 9.80198E-05-2.92260E-05-2.94809E-05 5.50084E-06 6.65450E-19 1.69622E-18
 -1      2032 9.94809E-05-2.96848E-05-2.98977E-05 6.73163E-06 4.58010E-19 1.27065E-18
 -1      2033 9.37256E-05-2.70713E-05-2.85587E-05 3.50442E-06-5.96986E-19 1.91189E-18
 -1      2034 9.50930E-05-2.77042E-05-2.88624E-05 4.35300E-06-4.26163E-20 1.91181E-18
 -1      2035 9.68712E-05-2.80125E-05-2.95171E-05 5.55557E-06 2.78628E-20 1.47376E-18
 -1      2036 9.25850E-05-2.64436E-05-2.83488E-05 4.68376E-07 2.69237E-19 2.30831E-18
 -1      2037 9.31542E-05-2.66707E-05-2.84597E-05 1.84686E-06-2.82949E-19 2.39294E-18
 -1      2038 9.50502E-05-2.67866E-05-2.92813E-05 2.65820E-06-3.46086E-19 2.07046E-18
 -1      2039 9.33125E-05-2.68397E-05-2.84967E-05-2.72960E-06 3.83726E-19 2.21612E-18
 -1      2040 9.28840E-05-2.65649E-05-2.83827E-05-1.28598E-06 4.71645E-19 2.27540E-18
 -1      2041 9.47309E-05-2.65561E-05-2.92468E-05-1.14543E-06 3.73932E-19 2.41287E-18
 -1      2042 9.56445E-05-2.80806E-05-2.89605E-05-5.00245E-06 2.33066E-19 1.24503E-18
 -1      2043 9.43599E-05-2.74203E-05-2.86549E-05-3.97639E-06 4.69395E-19 1.61111E-18
 -1      2044 9.60454E-05-2.74334E-05-2.94211E-05-4.54972E-06 9.61329E-19 1.58568E-18
 -1      2045 9.87601E-05-2.96481E-05-2.96140E-05-5.75558E-06-1.52951E-19 4.31060E-20
 -1      2046 9.70274E-05-2.88508E-05-2.92020E-05-5.39687E-06-3.52769E-19 7.01112E-19
 -1      2047 9.84589E-05-2.90120E-05-2.97622E-05-6.47186E-06 3.97239E-19 6.86471E-19
 -1      2048 1.01733E-04-3.10142E-05-3.02938E-05-5.08281E-06 6.62879E-19-7.43278E-19
 -1      2049 1.00026E-04-3.03180E-05-2.98782E-05-5.34080E-06 5.68230E-19-6.15747E-19
 -1      2050 1.01110E-04-3.06488E-05-3.01872E-05-6.57372E-06 6.46701E-19-8.49117E-19
 -1      2051 1.03916E-04-3.18806E-05-3.08550E-05-3.53663E-06 3.45887E-19 1.64814E-19
 -1      2052 1.02591E-04-3.14192E-05-3.05211E-05-4.17072E-06 2.22250E-19-2.21373E-19
 -1      2053 1.03260E-04-3.18411E-05-3.05973E-05-5.24673E-06 5.40248E-20-7.63600E-19
 -1      2054 1.05067E-04-3.22100E-05-3.12100E-05-1.74946E-06 9.56929E-19-1.55481E-20
 -1      2055 1.04287E-04-3.20046E-05-3.10045E-05-2.49158E-06 6.74291E-19 2.60395E-19
 -1      2056 1.04536E-04-3.24035E-05-3.09075E-05-3.22293E-06 8.29500E-19 3.43656E-19
 -1      2057 1.05260E-04-3.21210E-05-3.13360E-05-1.76217E-07-5.90256E-19 5.75453E-19
 -1      2058 1.05017E-04-3.21239E-05-3.12661E-05-8.35000E-07 5.49294E-19 5.74510E-20
 -1      2059 1.04913E-04-3.24156E-05-3.10683E-05-1.17185E-06 5.12567E-19 1.01666E-18
 -1      2060 1.04723E-04-3.17735E-05-3.12604E-05 9.69968E-07-1.95943E-18 2.62802E-19
 -1      2061 1.04911E-04-3.19150E-05-3.13053E-05 4.84942E-07-1.10880E-18 6.30929E-19
 -1      2062 1.04565E-04-3.20693E-05-3.10702E-05 4.95912E-07-9.29440E-19 1.23915E-18
 -1      2063 1.03721E-04-3.13038E-05-3.10363E-05 1.66284E-06 5.02425E-19 7.69849E-19
 -1      2064 1.04199E-04-3.15201E-05-3.11625E-05 1.36436E-06-1.45331E-18-4.50029E-19
 -1      2065 1.03730E-04-3.15509E-05-3.09352E-05 1.63123E-06-8.95822E-19-4.24046E-20
 -1      2066 1.02485E-04-3.08047E-05-3.07223E-05 1.97711E-06 4.29735E-19 8.69795E-19
 -1      2067 1.03120E-04-3.10486E-05-3.08956E-05 1.83578E-06 6.66957E-19 1.01321E-18
 -1      2068 1.02626E-04-3.09916E-05-3.07018E-05 2.26004E-06 3.25036E-19-5.58540E-19
 -1      2069 1.01185E-04-3.03307E-05-3.03695E-05 2.02011E-06 3.49256E-19 1.62582E-18
 -1      2070 1.01875E-04-3.05715E-05-3.05612E-05 1.99244E-06 1.08870E-18 2.07900E-18
 -1      2071 1.01422E-04-3.04654E-05-3.04113E-05 2.49013E-06 7.18180E-19 7.06842E-19
 -1      2072 9.99383E-05-2.99083E-05-3.00159E-05 1.89279E-06 5.06254E-19 1.98488E-18
 -1      2073 1.00611E-04-3.01288E-05-3.02055E-05 1.93743E-06-1.36319E-20 1.63483E-18
 -1      2074 1.00236E-04-3.00051E-05-3.01001E-05 2.44662E-06 2.73866E-19 2.58107E-18
 -1      2075 9.88103E-05-2.95472E-05-2.96865E-05 1.67363E-06-1.35352E-19 2.46594E-18
 -1      2076 9.94236E-05-2.97394E-05-2.98611E-05 1.75819E-06 3.77639E-19 2.55728E-18
 -1      2077 9.91397E-05-2.96194E-05-2.97955E-05 2.23850E-06-1.53026E-19 3.50401E-18
 -1      2078 9.78342E-05-2.92474E-05-2.93959E-05 1.41552E-06-3.34070E-19 1.63052E-18
 -1      2079 9.83665E-05-2.94091E-05-2.95484E-05 1.51812E-06 1.26324E-19 2.11848E-18
 -1      2080 9.81715E-05-2.93045E-05-2.95155E-05 1.94661E-06 3.50045E-19 3.55196E-18
 -1      2081 9.70212E-05-2.90040E-05-2.91509E-05 1.14866E-06 6.80156E-19 1.14264E-18
 -1      2082 9.74641E-05-2.91359E-05-2.92781E-05 1.25692E-06-1.32695E-19 1.49269E-18
 -1      2083 9.73473E-05-2.90513E-05-2.92709E-05 1.62304E-06 1.91551E-19 2.72265E-18
 -1      2084 9.63701E-05-2.88103E-05-2.89541E-05 8.85211E-07 1.35056E-18 1.07393E-18
 -1      2085 9.67223E-05-2.89147E-05-2.90550E-05 9.94589E-07 9.38252E-19 1.14292E-18
 -1      2086 9.66683E-05-2.88491E-05-2.90667E-05 1.29550E-06 1.13643E-18 2.43761E-18
 -1      2087 9.58740E-05-2.86607E-05-2.88052E-05 6.25876E-07 1.28959E-19 2.46317E-18
 -1      2088 9.61378E-05-2.87396E-05-2.88801E-05 7.36923E-07 1.47147E-18 1.95658E-18
 -1      2089 9.61282E-05-2.86887E-05-2.89043E-05 9.73770E-07 7.49464E-19 2.52457E-18
 -1      2090 9.55259E-05-2.85530E-05-2.87009E-05 3.68980E-07-5.39267E-19 2.82163E-18
 -1      2091 9.57021E-05-2.86068E-05-2.87513E-05 4.82525E-07-4.14282E-19 2.38487E-18
 -1      2092 9.57164E-05-2.85632E-05-2.87817E-05 6.58420E-07-2.91759E-19 3.53618E-18
 -1      2093 9.53418E-05-2.85015E-05-2.86427E-05 1.84224E-07 1.56294E-19 2.10900E-18
 -1      2094 9.54444E-05-2.85238E-05-2.86776E-05 2.90431E-07 5.20479E-19 2.83780E-18
 -1      2095 9.54620E-05-2.84812E-05-2.87076E-05 4.14063E-07 2.15068E-19 3.15003E-18
 -1      2096 9.53251E-05-2.84470E-05-2.86618E-05 2.42511E-07-2.92269E-21 3.80936E-18
 -1      2097 9.49406E-05-2.75033E-05-2.89032E-05 7.82142E-07 1.09656E-18 1.41519E-19
 -1      2098 9.50343E-05-2.77096E-05-2.88505E-05 7.49687E-07 3.68524E-19 5.76377E-19
 -1      2099 9.51239E-05-2.78996E-05-2.88105E-05 6.81393E-07 1.64663E-19 1.08859E-18
 -1      2100 9.52049E-05-2.80794E-05-2.87646E-05 5.96099E-07 4.63977E-19 9.74759E-19
 -1      2101 9.51119E-05-2.77933E-05-2.88515E-05 9.24474E-07 1.54097E-20 5.83282E-19
 -1      2102 9.52510E-05-2.82096E-05-2.87311E-05 4.83040E-07-2.71805E-19 6.50946E-20
 -1      2103 9.53032E-05-2.83441E-05-2.86939E-05 3.69905E-07-2.76166E-19 2.11898E-18
 -1      2104 9.53641E-05-2.83546E-05-2.87165E-05 4.60412E-07 3.45983E-19 2.08796E-18
 -1      2105 9.52691E-05-2.81155E-05-2.87817E-05 7.17839E-07-6.51629E-19 1.26241E-18
 -1      2106 9.47604E-05-2.71109E-05-2.89958E-05 7.66237E-07-9.70596E-19-2.21982E-18
 -1      2107 9.48515E-05-2.73140E-05-2.89436E-05 7.86009E-07-1.78173E-19-1.06139E-18
 -1      2108 9.48987E-05-2.74037E-05-2.89258E-05 1.00200E-06 8.51045E-21-1.52560E-18
 -1      2109 9.45985E-05-2.67572E-05-2.90795E-05 6.37895E-07-3.98449E-20 1.35584E-18
 -1      2110 9.46780E-05-2.69352E-05-2.90336E-05 7.06054E-07-8.09866E-19 7.08288E-19
 -1      2111 9.46927E-05-2.70270E-05-2.89973E-05 9.37299E-07-4.75863E-19-2.75573E-19
 -1      2112 9.44779E-05-2.64951E-05-2.91411E-05 4.15329E-07 5.46968E-19 1.63289E-18
 -1      2113 9.45338E-05-2.66192E-05-2.91091E-05 5.21690E-07 2.76920E-19 1.37454E-18
 -1      2114 9.45156E-05-2.67027E-05-2.90589E-05 7.37801E-07 1.42899E-19 2.02493E-18
 -1      2115 9.44142E-05-2.63606E-05-2.91718E-05 1.28818E-07 7.13940E-19 2.61443E-18
 -1      2116 9.44385E-05-2.64122E-05-2.91586E-05 2.58750E-07 2.83816E-19 1.98025E-18
 -1      2117 9.43901E-05-2.64739E-05-2.91019E-05 4.30189E-07 5.97191E-19 1.54387E-18
 -1      2118 9.44175E-05-2.63742E-05-2.91668E-05-1.82455E-07 8.13112E-19-2.08509E-19
 -1      2119 9.44059E-05-2.63446E-05-2.91745E-05-4.71198E-08 9.66423E-19 2.21756E-18
 -1      2120 9.43324E-05-2.63711E-05-2.91206E-05 5.52363E-08-6.03238E-19 1.81146E-18
 -1      2121 9.44901E-05-2.65375E-05-2.91265E-05-4.73540E-07 5.51057E-19-4.38678E-18
 -1      2122 9.44429E-05-2.64292E-05-2.91543E-05-3.53036E-07 6.52566E-19-2.90080E-18
 -1      2123 9.43528E-05-2.64110E-05-2.91123E-05-3.35845E-07 3.52544E-19-2.20392E-18
 -1      2124 9.46228E-05-2.68252E-05-2.90578E-05-6.95493E-07 5.99815E-19-2.67330E-18
 -1      2125 9.45463E-05-2.66560E-05-2.91010E-05-6.10739E-07 4.58953E-19-4.43336E-18
 -1      2126 9.44519E-05-2.65908E-05-2.90784E-05-6.83786E-07 8.82204E-19-3.92807E-18
 -1      2127 9.48046E-05-2.72094E-05-2.89686E-05-8.15102E-07 1.84644E-18 4.58384E-18
 -1      2128 9.47065E-05-2.69979E-05-2.90220E-05-7.80291E-07 1.02238E-18 2.24351E-18
 -1      2129 9.46210E-05-2.68917E-05-2.90233E-05-9.36393E-07 2.04683E-18-3.00359E-19
 -1      2130 9.50074E-05-2.76313E-05-2.88724E-05-8.00421E-07-1.18188E-19-8.93142E-20
 -1      2131 9.49034E-05-2.74121E-05-2.89274E-05-8.26899E-07 1.99576E-19 1.84672E-18
 -1      2132 9.48419E-05-2.72803E-05-2.89536E-05-1.04816E-06 1.10396E-18 2.24512E-18
 -1      2133 9.52036E-05-2.80436E-05-2.87818E-05-6.44950E-07-1.46385E-18-1.26802E-18
 -1      2134 9.51099E-05-2.78409E-05-2.88304E-05-7.33902E-07-5.10820E-19-1.23102E-18
 -1      2135 9.50846E-05-2.77039E-05-2.88774E-05-9.91461E-07-1.10736E-18-6.18070E-19
 -1      2136 5.73325E-05-3.96098E-05-8.20908E-06 4.15939E-05 6.97955E-19 2.26793E-19
 -1      2137 4.07983E-05-3.97330E-05-1.73892E-06 3.35112E-05 1.53906E-18-1.61550E-18
 -1      2138 1.27663E-05-3.34150E-05 7.55427E-06 7.92215E-06 2.53263E-19 1.40650E-18
 -1      2139 1.17194E-05-3.12600E-05 7.32216E-06-1.80110E-06 5.16055E-19 7.17437E-19
 -1      2140 2.51503E-05-3.30520E-05 2.58449E-06 2.72226E-05 6.57298E-19-9.88699E-19
 -1      2141 1.76779E-05-3.57332E-05 6.25488E-06 1.71111E-05-1.90582E-20 1.12401E-18
 -1      2142 1.77869E-05-2.42529E-05 2.24337E-06 1.58132E-05-9.87217E-19 9.70700E-19
 -1      2143 9.66806E-05-4.19611E-05-2.32277E-05 4.37866E-05-5.59042E-20 1.76141E-18
 -1      2144 8.01411E-05-4.47102E-05-1.56020E-05 4.12612E-05-2.47334E-19 1.84272E-18
 -1      2145 1.31443E-04-3.91254E-05-3.87704E-05 3.85701E-05 8.27339E-19 2.88838E-19
 -1      2146 1.11464E-04-4.16758E-05-3.04357E-05 3.69022E-05 1.77877E-19 1.01517E-18
 -1      2147 8.72673E-05-8.72239E-06-3.37576E-05-1.05351E-05-1.64167E-18-4.73372E-18
 -1      2148 8.79602E-05-9.23924E-06-3.38246E-05-1.20915E-05-2.05610E-18-4.38314E-18
 -1      2149 9.04845E-05-1.30450E-05-3.32375E-05-1.18672E-05-2.32827E-18-3.84304E-18
 -1      2150 8.87097E-05-1.10530E-05-3.33069E-05-9.40371E-06-1.60545E-18-4.56912E-18
 -1      2151 1.74867E-04-2.82344E-05-6.17734E-05 1.15315E-05 3.08447E-18-7.94517E-19
 -1      2152 1.65162E-04-2.94491E-05-5.74610E-05 1.81708E-05 2.43353E-18-3.72694E-19
 -1      2153 1.82779E-04-2.42817E-05-6.66644E-05 9.88925E-07 4.58584E-18-2.92634E-18
 -1      2154 1.78901E-04-2.41930E-05-6.52251E-05 8.40794E-06 4.16698E-18-1.29088E-18
 -1      2155 1.75015E-04-2.36054E-05-6.40066E-05-8.48205E-06 4.72221E-18-3.17277E-18
 -1      2156 1.81446E-04-2.39565E-05-6.61404E-05-2.35101E-06 4.78150E-18-2.53808E-18
 -1      2157 1.62204E-04-3.06010E-05-5.57328E-05-2.05141E-05 6.08254E-18-4.36222E-18
 -1      2158 1.73617E-04-2.93213E-05-6.07534E-05-1.41398E-05 4.79675E-18-4.36391E-18
 -1      2159 1.36310E-04-3.67393E-05-4.26414E-05-3.26002E-05 5.96290E-18-4.49944E-18
 -1      2160 1.54743E-04-3.61245E-05-4.99063E-05-2.94957E-05 6.82994E-18-3.46691E-18
 -1      2161 1.04812E-04-4.24382E-05-2.73026E-05-3.77364E-05 3.51603E-18-3.63335E-18
 -1      2162 1.24326E-04-3.94517E-05-3.57555E-05-4.04950E-05 4.84757E-18-4.30886E-18
 -1      2163 6.66012E-05-4.30792E-05-1.12104E-05-3.87076E-05 1.40142E-18-6.46201E-18
 -1      2164 8.63425E-05-4.20368E-05-1.90881E-05-4.44324E-05 2.23913E-18-5.15081E-18
 -1      2165 3.33850E-05-3.99086E-05 1.14079E-06-2.91410E-05 8.44068E-19-6.63100E-18
 -1      2166 4.61656E-05-3.70219E-05-4.73305E-06-3.72820E-05 2.39499E-18-7.40704E-18
 -1      2167 1.50242E-05-3.59819E-05 7.45994E-06-1.35152E-05-8.04258E-19-6.07111E-18
 -1      2168 2.09415E-05-3.46642E-05 4.71749E-06-2.24918E-05 1.17822E-18-6.71972E-18
 -1      2169 1.32054E-05-3.26454E-05 7.18346E-06 7.78757E-06-3.33244E-18-6.28964E-18
 -1      2170 1.18393E-05-3.39595E-05 8.09133E-06-2.26533E-06-1.13831E-18-5.84919E-18
 -1      2171 3.27355E-05-3.65493E-05 7.76834E-07 2.80710E-05-4.44777E-18-6.75297E-18
 -1      2172 2.27703E-05-3.64241E-05 4.58524E-06 1.98351E-05-3.12725E-18-5.86274E-18
 -1      2173 5.96036E-05-4.05721E-05-8.85944E-06 3.83304E-05-5.25965E-18-5.28837E-18
 -1      2174 4.51849E-05-4.24563E-05-2.63708E-06 3.12077E-05-4.26058E-18-5.75834E-18
 -1      2175 4.66682E-05-3.76743E-05-4.31615E-06 3.58775E-05-1.74912E-18-5.44346E-18
 -1      2176 1.02515E-04-4.56754E-05-2.43887E-05 4.05582E-05-5.83267E-18-5.53663E-18
 -1      2177 8.27059E-05-4.69831E-05-1.64627E-05 3.64432E-05-5.69799E-18-4.84376E-18
 -1      2178 1.38572E-04-4.66997E-05-3.90689E-05 3.22670E-05-5.77846E-18-3.84468E-18
 -1      2179 1.17291E-04-4.68282E-05-3.08612E-05 3.34369E-05-5.57263E-18-5.42567E-18
 -1      2180 1.21894E-04-5.71726E-05-2.75365E-05 3.10665E-05-2.90744E-18-2.64740E-18
 -1      2181 1.70342E-04-3.95616E-05-5.47197E-05 2.09654E-05-5.88921E-18-2.86382E-18
 -1      2182 1.52128E-04-4.11194E-05-4.74861E-05 2.15142E-05-6.38589E-18-3.55161E-18
 -1      2183 1.85624E-04-3.19601E-05-6.43703E-05 8.97411E-06-5.56374E-18-3.44107E-18
 -1      2184 1.75499E-04-3.35001E-05-5.98958E-05 1.56226E-05-6.15073E-18-3.81970E-18
 -1      2185 1.90277E-04-2.71520E-05-6.82127E-05-5.22696E-07-2.83036E-18-2.10751E-18
 -1      2186 1.85219E-04-2.65162E-05-6.67518E-05 5.05994E-06-4.21145E-18-3.16303E-18
 -1      2187 1.86527E-04-2.94535E-05-6.59529E-05-9.35004E-06-4.00265E-18-7.90282E-19
 -1      2188 1.92501E-04-2.90466E-05-6.83062E-05-2.61483E-06-2.58006E-18-9.50265E-19
 -1      2189 1.67673E-04-3.47064E-05-5.64892E-05-1.43723E-05-2.83640E-18-1.16128E-18
 -1      2190 1.83229E-04-3.41278E-05-6.22108E-05-1.22015E-05-3.80402E-18-1.72032E-18
 -1      2191 1.42870E-04-4.36259E-05-4.26216E-05-2.67313E-05-1.88084E-18-5.58618E-19
 -1      2192 1.60529E-04-4.27850E-05-4.97731E-05-2.21694E-05-2.20821E-18-1.20745E-18
 -1      2193 1.08553E-04-4.54521E-05-2.78773E-05-3.52424E-05 2.98156E-19 3.17171E-18
 -1      2194 1.29453E-04-4.44089E-05-3.60347E-05-3.70393E-05-1.27987E-18 1.28325E-18
 -1      2195 7.80175E-05-4.70443E-05-1.39619E-05-3.83860E-05 3.01798E-18 2.58229E-18
 -1      2196 9.40520E-05-4.46413E-05-2.12560E-05-4.08908E-05 1.48570E-18 3.87158E-18
 -1      2197 3.76669E-05-4.12882E-05-1.09509E-07-2.83100E-05 2.79733E-18 2.40960E-18
 -1      2198 5.40216E-05-4.04269E-05-6.51859E-06-3.75614E-05 3.20856E-18 3.04964E-18
 -1      2199 1.75021E-05-3.41696E-05 5.95053E-06-1.45951E-05 2.44835E-18 3.43048E-19
 -1      2200 2.54863E-05-3.58899E-05 3.32450E-06-2.30540E-05 2.44962E-18 1.06620E-18
 -1      2201 3.81773E-05-3.36710E-05-2.30983E-06-3.21388E-05 2.67662E-18 2.32828E-18
 -1      2202 1.60487E-04-3.46982E-05-5.28467E-05 2.79634E-05 1.26584E-18 1.55007E-19
 -1      2203 1.42219E-04-3.49993E-05-4.58536E-05 3.08940E-05 1.12592E-18 7.56824E-19
 -1      2204 1.42416E-04-4.55315E-05-4.09206E-05 2.18969E-05 3.79788E-19-5.70900E-19
 -1      2205 9.71147E-05-2.42927E-05-3.12827E-05-1.00018E-05-2.85683E-18 4.22722E-19
 -1      2206 1.55887E-04-3.21187E-05-5.20445E-05 7.87836E-06 1.37897E-18-1.61783E-19
 -1      2207 9.62947E-05-2.30892E-05-3.14399E-05-1.03810E-05-2.99544E-18-8.90417E-19
 -1      2208 3.90703E-05-3.32517E-05-2.75974E-06 3.57876E-05-3.04085E-19-1.11448E-18
 -1      2209 9.35877E-05-5.15908E-05-1.84573E-05 4.21116E-05-1.09648E-18 9.62176E-19
 -1      2210 7.56284E-05-4.52464E-05-1.32248E-05 4.26035E-05-1.63054E-19 1.54515E-18
 -1      2211 7.25621E-05-4.35791E-05-1.18788E-05 4.46366E-05-4.60786E-19 2.85874E-20
 -1      2212 9.52726E-05-2.81551E-05-2.87625E-05-6.09877E-07-6.15295E-19-4.56190E-22
 -1      2213 1.78812E-05-2.47207E-05 2.43467E-06-1.03959E-05 3.88259E-19-5.20078E-19
 -1      2214 1.16452E-04-5.24625E-05-2.75027E-05 3.51862E-05-7.39248E-19 7.27178E-19
 -1      2215 7.28296E-05-4.67021E-05-1.14938E-05-3.93223E-05 3.59396E-18 2.43223E-18
 -1      2216 9.09139E-05-5.25464E-05-1.70114E-05-4.05140E-05 4.16211E-18 2.67586E-18
 -1      2217 6.76287E-05-4.31527E-05-1.01355E-05-4.09508E-05 3.63907E-18 1.87046E-18
 -1      2218 1.15348E-04-5.57378E-05-2.56058E-05-3.38937E-05 2.84307E-18 1.48697E-18
 -1      2219 1.43546E-04-5.34635E-05-3.80706E-05-2.02888E-05-1.58395E-19-1.15789E-18
 -1      2220 1.61068E-04-4.13620E-05-5.05694E-05-4.27038E-06-1.40438E-18-3.52408E-18
 -1      2221 1.68806E-04-2.53344E-05-6.02339E-05 1.74484E-06-3.23863E-18-2.51103E-18
 -1      2222 1.69343E-04-1.74329E-05-6.36990E-05 4.30262E-08-4.10896E-18-1.79306E-18
 -1      2223 1.68699E-04-2.22172E-05-6.15437E-05-1.45777E-06-5.31132E-18-3.14461E-18
 -1      2224 1.49495E-04-5.13683E-05-4.16173E-05 1.53347E-05-4.79876E-18-1.29173E-18
 -1      2225 8.35973E-05-5.05173E-05-1.43791E-05 4.04019E-05-2.03415E-18-3.54017E-18
 -1      2226 2.21505E-05-2.66980E-05 1.48677E-06 1.79491E-05-1.43614E-18-6.45185E-18
 -1      2227 1.54278E-05-2.45356E-05 3.26642E-06-9.77054E-06-8.99549E-19-7.02783E-18
 -1      2228 3.26546E-05-3.28798E-05-5.98568E-07-3.22772E-05-5.85723E-19-6.82073E-18
 -1      2229 6.74902E-05-4.39221E-05-1.02647E-05-4.37450E-05-1.20363E-18-5.75220E-18
 -1      2230 1.07086E-04-5.18639E-05-2.37517E-05-3.85242E-05-1.41878E-19-1.85437E-18
 -1      2231 1.37525E-04-4.72437E-05-3.81791E-05-2.50499E-05 3.23736E-18-2.02060E-18
 -1      2232 1.54674E-04-3.53237E-05-5.02238E-05-1.10192E-05 5.46982E-18-1.96342E-18
 -1      2233 1.60600E-04-2.07981E-05-5.89143E-05-1.93284E-06 5.00046E-18-2.33654E-18
 -1      2234 1.60495E-04-1.90094E-05-5.95886E-05 3.62726E-07 3.75913E-18-1.65150E-18
 -1      2235 1.61898E-04-1.36877E-05-6.23463E-05 2.92563E-07 4.96107E-18-2.07179E-18
 -1      2236 1.64710E-04-3.58612E-05-5.42330E-05 2.04310E-06-5.44430E-18-2.65333E-18
 -1      2237 9.51650E-05-2.63553E-05-2.94763E-05 4.18293E-06 2.34758E-18 2.78882E-18
 -1      2238 9.61357E-05-2.58415E-05-3.00525E-05 5.99214E-06 2.68135E-18 3.25738E-18
 -1      2239 8.81816E-05-1.11634E-05-3.30472E-05-3.64915E-06 1.43851E-20-4.38495E-18
 -1      2240 8.84123E-05-1.14349E-05-3.30271E-05-4.78784E-06-4.03716E-19-4.51250E-18
 -1      2241 8.87592E-05-1.19205E-05-3.29758E-05-5.80397E-06-6.88213E-19-4.52329E-18
 -1      2242 8.91611E-05-1.23955E-05-3.29441E-05-6.97498E-06-1.11963E-18-4.53611E-18
 -1      2243 8.99258E-05-1.37970E-05-3.26257E-05-4.88457E-06-5.33964E-19-4.21524E-18
 -1      2244 8.78392E-05-1.07002E-05-3.30937E-05 6.14534E-07 1.41605E-18-4.11483E-18
 -1      2245 8.78351E-05-1.06954E-05-3.30939E-05-4.93128E-07 1.04507E-18-4.24191E-18
 -1      2246 8.80178E-05-1.09268E-05-3.30734E-05 2.74966E-06 1.95315E-18-3.82936E-18
 -1      2247 8.79046E-05-1.07929E-05-3.30839E-05 1.63328E-06 1.61928E-18-4.03452E-18
 -1      2248 8.91510E-05-1.27355E-05-3.27524E-05 1.04555E-06 1.45321E-18-3.85594E-18
 -1      2249 8.84465E-05-1.14776E-05-3.30242E-05 4.87384E-06 2.50641E-18-3.44868E-18
 -1      2250 8.82105E-05-1.11995E-05-3.30445E-05 3.75280E-06 2.17515E-18-3.70999E-18
 -1      2251 8.94144E-05-1.30945E-05-3.27100E-05 3.00826E-06 1.95980E-18-3.50821E-18
 -1      2252 8.92160E-05-1.24648E-05-3.29391E-05 7.05827E-06 3.11422E-18-2.52551E-18
 -1      2253 8.88038E-05-1.19768E-05-3.29716E-05 5.88773E-06 2.75022E-18-3.04785E-18
 -1      2254 8.99660E-05-1.38480E-05-3.26209E-05 4.95636E-06 2.56140E-18-2.99317E-18
 -1      2255 9.04698E-05-1.40777E-05-3.28037E-05 9.20779E-06 3.57672E-18-1.51862E-18
 -1      2256 8.97987E-05-1.32662E-05-3.28535E-05 8.02844E-06 3.24874E-18-2.08291E-18
 -1      2257 9.08917E-05-1.51144E-05-3.24690E-05 6.84944E-06 3.02411E-18-2.10150E-18
 -1      2258 9.24425E-05-1.66494E-05-3.25831E-05 1.10955E-05 3.88365E-18-9.91359E-20
 -1      2259 9.13778E-05-1.53107E-05-3.26606E-05 1.00142E-05 3.63692E-18-8.83720E-19
 -1      2260 9.22986E-05-1.70730E-05-3.22187E-05 8.49753E-06 3.38021E-18-9.86711E-19
 -1      2261 9.41969E-05-2.70936E-05-2.87413E-05 1.73834E-06 1.83402E-18 2.33149E-18
 -1      2262 9.47906E-05-2.68710E-05-2.90370E-05 2.71848E-06 2.05019E-18 2.66395E-18
 -1      2263 9.53082E-05-2.58269E-05-2.97859E-05 4.33852E-06 2.48899E-18 1.42159E-18
 -1      2264 9.58726E-05-2.50731E-05-3.02967E-05-6.18090E-06-2.41189E-18-1.35913E-18
 -1      2265 9.52223E-05-2.58266E-05-2.97548E-05-4.25576E-06-2.25497E-18-1.44020E-18
 -1      2266 1.46277E-04-3.07302E-05-5.01627E-05-3.53277E-06 2.14299E-18-1.25170E-18
 -1      2267 1.45794E-04-3.86317E-05-4.61799E-05 1.57320E-06 1.03656E-18-4.87256E-19
 -1      2268 9.51118E-05-2.65162E-05-2.93410E-05-2.91310E-06-2.00560E-18-1.18910E-18
 -1      2269 9.46487E-05-2.68836E-05-2.90415E-05-1.84080E-06-1.66416E-18-1.29300E-18
 -1      2270 9.53272E-05-2.53479E-05-2.99975E-05-4.26600E-06-2.16038E-18-1.75257E-18
 -1      2271 9.44607E-05-2.72100E-05-2.87832E-05-9.74082E-07-1.56041E-18-1.19032E-18
 -1      2272 9.42143E-05-2.74208E-05-2.86225E-05-3.56468E-07-1.40265E-18-1.41691E-18
 -1      2273 9.50279E-05-2.66677E-05-2.93107E-05-1.86326E-06-1.74157E-18-1.55119E-18
 -1      2274 9.40768E-05-2.75971E-05-2.84687E-05 1.74556E-07-1.37335E-18-1.31845E-18
 -1      2275 9.39976E-05-2.77379E-05-2.83933E-05 5.28723E-07-1.19912E-18-1.48153E-18
 -1      2276 9.47419E-05-2.73849E-05-2.88808E-05-3.43099E-07-1.47144E-18-1.42444E-18
 -1      2277 9.39296E-05-2.78426E-05-2.83103E-05 8.45325E-07-8.74418E-19-1.48387E-18
 -1      2278 9.39643E-05-2.79470E-05-2.82892E-05 1.04477E-06-6.42075E-19-1.50986E-18
 -1      2279 9.45673E-05-2.77978E-05-2.86266E-05 5.89076E-07-1.14067E-18-1.25272E-18
 -1      2280 9.39563E-05-2.80129E-05-2.82547E-05 1.23014E-06-6.72136E-19-1.58145E-18
 -1      2281 9.40660E-05-2.80947E-05-2.82693E-05 1.34231E-06-6.07429E-19-1.52142E-18
 -1      2282 9.45129E-05-2.80479E-05-2.84935E-05 1.14799E-06-7.72828E-19-1.34099E-18
 -1      2283 9.41041E-05-2.81366E-05-2.82688E-05 1.45428E-06-5.63870E-19-1.55066E-18
 -1      2284 9.42639E-05-2.82022E-05-2.83076E-05 1.52385E-06-5.52725E-19-1.77286E-18
 -1      2285 9.45569E-05-2.82000E-05-2.84450E-05 1.48407E-06-6.93492E-19-1.52902E-18
 -1      2286 9.43365E-05-2.82275E-05-2.83318E-05 1.60368E-06-5.96516E-19-1.61120E-18
 -1      2287 9.45330E-05-2.82809E-05-2.83884E-05 1.66231E-06-6.17448E-19-1.62271E-18
 -1      2288 9.46756E-05-2.82872E-05-2.84570E-05 1.70333E-06-6.84056E-19-1.54718E-18
 -1      2289 9.46323E-05-2.82934E-05-2.84317E-05 1.74086E-06-4.88498E-19-1.45645E-18
 -1      2290 9.48607E-05-2.83380E-05-2.85033E-05 1.81259E-06-3.22211E-19-1.51635E-18
 -1      2291 9.48513E-05-2.83269E-05-2.85142E-05 1.88311E-06-4.71284E-19-1.22828E-18
 -1      2292 9.49829E-05-2.83400E-05-2.85628E-05 1.91416E-06-5.62373E-19-1.46957E-18
 -1      2293 9.52451E-05-2.83788E-05-2.86491E-05 2.01853E-06-7.82671E-19-1.56244E-18
 -1      2294 9.50733E-05-2.83294E-05-2.86078E-05 2.08255E-06-5.53166E-19-1.32163E-18
 -1      2295 9.53891E-05-2.83718E-05-2.87237E-05 2.16339E-06-7.62255E-19-1.33546E-18
 -1      2296 9.56925E-05-2.84083E-05-2.88263E-05 2.31741E-06-3.87197E-19-1.18477E-18
 -1      2297 9.53375E-05-2.83008E-05-2.87330E-05 2.34917E-06-5.71475E-19-1.02996E-18
 -1      2298 9.58594E-05-2.83933E-05-2.89164E-05 2.52338E-06-2.37493E-19-1.22975E-18
 -1      2299 9.62155E-05-2.84315E-05-2.90382E-05 2.74255E-06 2.25572E-21-1.53767E-18
 -1      2300 9.56445E-05-2.82449E-05-2.88885E-05 2.72326E-06-4.22565E-19-8.06821E-19
 -1      2301 9.64077E-05-2.84096E-05-2.91447E-05 3.02585E-06-1.23405E-19-1.77286E-18
 -1      2302 9.68318E-05-2.84551E-05-2.92895E-05 3.32438E-06-5.74891E-21-1.92652E-18
 -1      2303 9.59984E-05-2.81651E-05-2.90743E-05 3.24039E-06-3.48019E-19-8.89284E-19
 -1      2304 9.70527E-05-2.84285E-05-2.94134E-05 3.69946E-06 5.73666E-20-1.89221E-18
 -1      2305 9.75626E-05-2.84893E-05-2.95851E-05 4.08916E-06-3.50964E-20-1.86140E-18
 -1      2306 9.64057E-05-2.80660E-05-2.92912E-05 3.93208E-06 1.18390E-19-9.77198E-19
 -1      2307 9.78175E-05-2.84639E-05-2.97263E-05 4.56725E-06-2.72543E-19-1.92473E-18
 -1      2308 9.84337E-05-2.85532E-05-2.99282E-05 5.05440E-06-3.03641E-19-1.75747E-18
 -1      2309 9.68756E-05-2.79584E-05-2.95386E-05 4.82423E-06-2.26211E-19-1.79315E-18
 -1      2310 9.87316E-05-2.85425E-05-3.00847E-05 5.63991E-06-2.60984E-20-1.97661E-18
 -1      2311 9.94774E-05-2.86839E-05-3.03175E-05 6.21871E-06 1.81614E-19-1.49567E-18
 -1      2312 9.74231E-05-2.78665E-05-2.98124E-05 5.93211E-06-2.99099E-19-1.39922E-18
 -1      2313 9.98379E-05-2.87173E-05-3.04835E-05 6.90239E-06-3.84833E-19-1.84901E-18
 -1      2314 1.00741E-04-2.89524E-05-3.07437E-05 7.54301E-06-6.40455E-19-2.00735E-18
 -1      2315 9.80768E-05-2.78436E-05-3.01027E-05 7.25038E-06-2.65793E-19-1.58125E-18
 -1      2316 1.01207E-04-2.90889E-05-3.09089E-05 8.28965E-06-3.17909E-19-1.94997E-18
 -1      2317 1.02303E-04-2.94901E-05-3.11861E-05 8.91866E-06 7.89941E-20-2.53886E-18
 -1      2318 9.88976E-05-2.79966E-05-3.03909E-05 8.73528E-06-4.41851E-19-1.56662E-18
 -1      2319 1.02964E-04-2.98378E-05-3.13352E-05 9.64676E-06 4.51816E-19-2.60360E-18
 -1      2320 1.04304E-04-3.05217E-05-3.16108E-05 1.01188E-05 6.08555E-19-2.63338E-18
 -1      2321 1.00014E-04-2.85246E-05-3.06490E-05 1.02754E-05 9.48704E-20-2.08189E-18
 -1      2322 1.05329E-04-3.12568E-05-3.17282E-05 1.06676E-05 1.02668E-18-2.11405E-18
 -1      2323 1.06980E-04-3.23843E-05-3.19781E-05 1.07332E-05 1.34109E-18-1.54215E-18
 -1      2324 1.01677E-04-2.97638E-05-3.08445E-05 1.16447E-05 1.18308E-18-2.61312E-18
 -1      2325 1.08648E-04-3.37437E-05-3.20621E-05 1.08132E-05 1.20587E-18-1.17390E-18
 -1      2326 1.10667E-04-3.54634E-05-3.22701E-05 1.01018E-05 1.20432E-18-7.44003E-19
 -1      2327 1.04325E-04-3.22021E-05-3.09612E-05 1.24297E-05 1.68317E-18-2.08887E-18
 -1      2328 1.13329E-04-3.76396E-05-3.23661E-05 9.23555E-06 1.07740E-18-2.16175E-19
 -1      2329 1.15654E-04-3.98877E-05-3.25547E-05 7.31243E-06 1.11503E-18-5.16078E-19
 -1      2330 1.08598E-04-3.63599E-05-3.10505E-05 1.19214E-05 1.16816E-18-1.32030E-18
 -1      2331 1.19500E-04-4.27057E-05-3.28140E-05 4.84132E-06 7.99119E-19-4.54562E-19
 -1      2332 1.21710E-04-4.47724E-05-3.30917E-05 1.44658E-06 1.03319E-18-3.68274E-19
 -1      2333 1.15095E-04-4.22908E-05-3.13326E-05 9.02366E-06 1.10753E-18-5.71041E-19
 -1      2334 1.26157E-04-4.70887E-05-3.38286E-05-3.07139E-06 9.75511E-19-2.61257E-20
 -1      2335 1.27262E-04-4.71811E-05-3.44228E-05-7.41072E-06 9.36368E-20 2.66035E-19
 -1      2336 1.23524E-04-4.84044E-05-3.23399E-05 2.42766E-06 8.51295E-19 1.38606E-19
 -1      2337 1.30256E-04-4.64606E-05-3.60722E-05-1.29460E-05-2.47334E-19-2.65240E-19
 -1      2338 1.28980E-04-4.24934E-05-3.71732E-05-1.60041E-05-4.70050E-19-5.26835E-19
 -1      2339 1.31481E-04-5.00830E-05-3.49505E-05-8.02842E-06-4.60402E-19-2.37169E-19
 -1      2340 1.28388E-04-3.69064E-05-3.96521E-05-1.84817E-05-1.24651E-18-1.39549E-18
 -1      2341 1.25037E-04-2.98817E-05-4.09664E-05-1.67512E-05-1.37759E-18-1.87239E-18
 -1      2342 1.34299E-04-4.21425E-05-3.97034E-05-1.70775E-05-1.53054E-18-7.27495E-19
 -1      2343 1.22631E-04-2.33684E-05-4.30450E-05-1.15724E-05-1.23741E-18-2.88330E-18
 -1      2344 1.20681E-04-1.96794E-05-4.36569E-05-4.57122E-06-1.95675E-18-3.04191E-18
 -1      2345 1.30711E-04-2.60609E-05-4.51738E-05-1.50702E-05-1.95612E-18-2.54761E-18
 -1      2346 1.20819E-04-1.98071E-05-4.36070E-05 5.12289E-06-2.67917E-18-3.95586E-18
 -1      2347 1.22770E-04-2.37492E-05-4.29461E-05 1.20339E-05-2.88616E-18-4.69051E-18
 -1      2348 1.27673E-04-1.70661E-05-4.78505E-05 4.83193E-07-3.04678E-18-5.17148E-18
 -1      2349 1.25277E-04-3.03746E-05-4.08304E-05 1.69405E-05-2.24855E-18-4.64028E-18
 -1      2350 1.28534E-04-3.73911E-05-3.95087E-05 1.84967E-05-1.06128E-18-3.93465E-18
 -1      2351 1.30806E-04-2.65881E-05-4.50172E-05 1.55332E-05-2.36534E-18-5.69831E-18
 -1      2352 1.29086E-04-4.27889E-05-3.70433E-05 1.56561E-05-1.25933E-18-3.93113E-18
 -1      2353 1.30153E-04-4.65932E-05-3.59657E-05 1.25885E-05-5.75109E-19-3.57752E-18
 -1      2354 1.34500E-04-4.29671E-05-3.93458E-05 1.70678E-05-1.11851E-18-4.50283E-18
 -1      2355 1.27083E-04-4.71775E-05-3.43622E-05 7.05639E-06 3.84077E-19-3.87528E-18
 -1      2356 1.25919E-04-4.69476E-05-3.37853E-05 2.76465E-06 1.02170E-18-3.03744E-18
 -1      2357 1.31058E-04-5.02249E-05-3.48474E-05 7.68889E-06 1.25202E-19-3.54573E-18
 -1      2358 1.21489E-04-4.46215E-05-3.30635E-05-1.71208E-06 1.38434E-18-2.42234E-18
 -1      2359 1.19265E-04-4.25269E-05-3.27900E-05-5.05662E-06 1.85323E-18-1.90646E-18
 -1      2360 1.23256E-04-4.82253E-05-3.22901E-05-2.71556E-06 1.39423E-18-2.95285E-18
 -1      2361 1.15454E-04-3.97143E-05-3.25403E-05-7.46256E-06 1.64961E-18-1.56306E-18
 -1      2362 1.13132E-04-3.74750E-05-3.23524E-05-9.33677E-06 1.58383E-18-8.13066E-19
 -1      2363 1.14832E-04-4.20677E-05-3.13136E-05-9.18949E-06 1.98622E-18-7.86420E-19
 -1      2364 1.10511E-04-3.53267E-05-3.22592E-05-1.01550E-05 1.90245E-18 5.27473E-19
 -1      2365 1.08506E-04-3.36280E-05-3.20506E-05-1.08293E-05 2.17015E-18 1.66895E-18
 -1      2366 1.08412E-04-3.61736E-05-3.10462E-05-1.19741E-05 2.59077E-18 1.51527E-18
 -1      2367 1.06867E-04-3.22926E-05-3.19676E-05-1.07221E-05 1.27528E-18 2.11475E-18
 -1      2368 1.05231E-04-3.11818E-05-3.17181E-05-1.06319E-05 1.26026E-18 1.72442E-18
 -1      2369 1.04211E-04-3.20841E-05-3.09610E-05-1.24139E-05 2.17327E-18 2.42747E-18
 -1      2370 1.04224E-04-3.04617E-05-3.16018E-05-1.00649E-05 3.93941E-19 9.36566E-19
 -1      2371 1.02899E-04-2.97883E-05-3.13281E-05-9.57570E-06-1.29653E-19-1.82510E-19
 -1      2372 1.01608E-04-2.96901E-05-3.08463E-05-1.15853E-05 3.14822E-19 2.10368E-18
 -1      2373 1.02251E-04-2.94481E-05-3.11815E-05-8.83303E-06 5.07457E-19-1.55921E-18
 -1      2374 1.01171E-04-2.90526E-05-3.09083E-05-8.18945E-06-4.00015E-19-6.12090E-19
 -1      2375 9.99767E-05-2.84762E-05-3.06540E-05-1.01830E-05-4.46082E-19-2.62268E-19
 -1      2376 1.00716E-04-2.89181E-05-3.07475E-05-7.42713E-06-1.06764E-18 1.25367E-19
 -1      2377 9.98317E-05-2.86855E-05-3.04936E-05-6.77010E-06-5.26180E-19 1.34275E-18
 -1      2378 9.88845E-05-2.79574E-05-3.04024E-05-8.61114E-06 2.97126E-19 3.88219E-19
 -1      2379 9.94829E-05-2.86505E-05-3.03342E-05-6.06593E-06-2.38696E-19 1.80736E-18
 -1      2380 9.87612E-05-2.85096E-05-3.01102E-05-5.46515E-06 3.53098E-19 1.97179E-18
 -1      2381 9.80863E-05-2.78024E-05-3.01249E-05-7.08759E-06 1.98217E-19 2.34133E-18
 -1      2382 9.84771E-05-2.85158E-05-2.99630E-05-4.85102E-06-5.68385E-19 1.99511E-18
 -1      2383 9.78919E-05-2.84255E-05-2.97731E-05-4.33284E-06-8.98815E-19 1.15158E-18
 -1      2384 9.74579E-05-2.78146E-05-2.98501E-05-5.71685E-06-5.11027E-19 2.51021E-18
 -1      2385 9.76536E-05-2.84434E-05-2.96440E-05-3.81475E-06 3.88720E-19 4.11113E-19
 -1      2386 9.71838E-05-2.83806E-05-2.94880E-05-3.38140E-06 1.93159E-18-4.31202E-19
 -1      2387 9.69405E-05-2.78879E-05-2.95970E-05-4.53615E-06-7.06794E-19 1.54876E-18
 -1      2388 9.69819E-05-2.83961E-05-2.93795E-05-2.95161E-06 1.91072E-18-9.96063E-19
 -1      2389 9.66091E-05-2.83474E-05-2.92550E-05-2.59305E-06 2.22364E-18-3.59825E-19
 -1      2390 9.65058E-05-2.79685E-05-2.93763E-05-3.54426E-06 1.64090E-18 9.14668E-19
 -1      2391 9.64371E-05-2.83536E-05-2.91671E-05-2.23687E-06 2.62657E-18 2.31843E-19
 -1      2392 9.61449E-05-2.83111E-05-2.90709E-05-1.93770E-06 1.39943E-18 6.99540E-19
 -1      2393 9.61377E-05-2.80300E-05-2.91920E-05-2.71966E-06 2.61279E-18 7.53623E-19
 -1      2394 9.59977E-05-2.83065E-05-2.90019E-05-1.63831E-06 4.99653E-19 1.34521E-18
 -1      2395 9.57752E-05-2.82661E-05-2.89299E-05-1.38356E-06 5.98180E-19 1.94887E-18
 -1      2396 9.58241E-05-2.80620E-05-2.90437E-05-2.03051E-06 1.60241E-18 1.62962E-19
 -1      2397 9.33528E-05-2.76657E-05-2.81431E-05-4.99154E-07 1.07716E-18 1.32740E-18
 -1      2398 9.34120E-05-2.75602E-05-2.81975E-05-1.94890E-07 1.15022E-18 1.67650E-18
 -1      2399 9.33491E-05-2.78317E-05-2.80726E-05-9.59638E-07 1.11138E-18 8.71925E-19
 -1      2400 9.32754E-05-2.77388E-05-2.80737E-05-7.93802E-07 1.11277E-18 1.12392E-18
 -1      2401 9.40427E-05-2.77706E-05-2.84142E-05-5.72178E-07 1.41021E-18 5.05859E-19
 -1      2402 9.35127E-05-2.79715E-05-2.80839E-05-1.21159E-06 1.01107E-18 7.16453E-19
 -1      2403 9.33573E-05-2.78865E-05-2.80519E-05-1.12351E-06 9.93855E-19 8.79860E-19
 -1      2404 9.39999E-05-2.79735E-05-2.83060E-05-1.09183E-06 1.17842E-18 3.58407E-19
 -1      2405 9.37868E-05-2.80954E-05-2.81488E-05-1.35015E-06 6.86442E-19 6.59440E-19
 -1      2406 9.35811E-05-2.80168E-05-2.80958E-05-1.30173E-06 8.06732E-19 8.06782E-19
 -1      2407 9.40915E-05-2.81161E-05-2.82817E-05-1.38783E-06 9.19501E-19 2.10288E-19
 -1      2408 9.41368E-05-2.82086E-05-2.82503E-05-1.43919E-06 3.84381E-19 7.85958E-19
 -1      2409 9.38978E-05-2.81349E-05-2.81830E-05-1.40494E-06 7.06087E-19 9.00103E-19
 -1      2410 9.42782E-05-2.82219E-05-2.83147E-05-1.56274E-06 5.61068E-19 3.38785E-19
 -1      2411 9.45450E-05-2.83161E-05-2.83789E-05-1.52289E-06 7.30394E-19 4.82282E-19
 -1      2412 9.42796E-05-2.82448E-05-2.83006E-05-1.48519E-06 5.48948E-19 6.09536E-19
 -1      2413 9.45340E-05-2.83040E-05-2.83881E-05-1.68666E-06 7.15013E-19 1.78425E-19
 -1      2414 9.50071E-05-2.84240E-05-2.85301E-05-1.63181E-06 9.38151E-19 3.22547E-19
 -1      2415 9.47151E-05-2.83515E-05-2.84419E-05-1.57860E-06 1.04890E-18 4.03947E-19
 -1      2416 9.48450E-05-2.83718E-05-2.84918E-05-1.80856E-06 1.01069E-18 9.36975E-20
 -1      2417 9.55280E-05-2.85403E-05-2.87028E-05-1.78565E-06 6.45260E-19-2.64889E-19
 -1      2418 9.52043E-05-2.84620E-05-2.86043E-05-1.70951E-06 7.29469E-19-8.84205E-20
 -1      2419 9.52077E-05-2.84349E-05-2.86200E-05-1.96205E-06 9.68191E-19-6.77634E-20
 -1      2420 9.61187E-05-2.86754E-05-2.88975E-05-1.99392E-06 4.55702E-19-1.08616E-19
 -1      2421 9.57556E-05-2.85854E-05-2.87874E-05-1.89207E-06 7.33035E-19-5.11176E-20
 -1      2422 9.56265E-05-2.85042E-05-2.87699E-05-2.16811E-06 6.95894E-19-3.13369E-19
 -1      2423 9.67937E-05-2.88426E-05-2.91149E-05-2.25464E-06 3.96972E-20-1.23511E-19
 -1      2424 9.63827E-05-2.87335E-05-2.89923E-05-2.12988E-06 1.70040E-19-1.65031E-19
 -1      2425 9.61114E-05-2.85934E-05-2.89398E-05-2.43543E-06 3.14539E-19-7.17938E-19
 -1      2426 9.75676E-05-2.90580E-05-2.93548E-05-2.55133E-06 3.90190E-19-4.28195E-19
 -1      2427 9.71017E-05-2.89214E-05-2.92193E-05-2.41371E-06 1.33083E-19-1.44501E-19
 -1      2428 9.66774E-05-2.87206E-05-2.91282E-05-2.75864E-06 1.02962E-19-6.50674E-19
 -1      2429 9.84517E-05-2.93414E-05-2.96139E-05-2.84829E-06 1.25148E-18-4.90762E-19
 -1      2430 9.79282E-05-2.91679E-05-2.94673E-05-2.71762E-06 9.47138E-19-3.04794E-19
 -1      2431 9.73419E-05-2.89095E-05-2.93325E-05-3.11472E-06 6.70602E-19-8.00728E-19
 -1      2432 9.94494E-05-2.97150E-05-2.98848E-05-3.08477E-06 2.21640E-19-2.59627E-20
 -1      2433 9.88735E-05-2.94953E-05-2.97315E-05-2.99342E-06 8.41171E-19 2.77052E-20
 -1      2434 9.81243E-05-2.91905E-05-2.95479E-05-3.45751E-06 8.10529E-19-2.97238E-19
 -1      2435 1.00551E-04-3.02004E-05-3.01544E-05-3.16950E-06-3.31921E-19 3.27034E-19
 -1      2436 9.99397E-05-2.99276E-05-3.00027E-05-3.16471E-06-9.70010E-20 3.58903E-19
 -1      2437 9.90428E-05-2.95999E-05-2.97664E-05-3.71126E-06-2.94582E-19 3.07762E-19
 -1      2438 1.01723E-04-3.08111E-05-3.04033E-05-2.97918E-06-5.61173E-19 4.79957E-19
 -1      2439 1.01112E-04-3.04856E-05-3.02657E-05-3.12257E-06-4.82946E-19 4.93824E-19
 -1      2440 1.00111E-04-3.01759E-05-2.99774E-05-3.76519E-06-6.35585E-19 1.07566E-18
 -1      2441 1.02902E-04-3.15370E-05-3.06076E-05-2.36711E-06-7.71946E-19 2.75544E-19
 -1      2442 1.02350E-04-3.11752E-05-3.05003E-05-2.72792E-06-5.49379E-19 3.37591E-19
 -1      2443 1.01327E-04-3.09457E-05-3.01684E-05-3.47298E-06-4.21890E-19 9.68231E-19
 -1      2444 1.03974E-04-3.23179E-05-3.07429E-05-1.19249E-06-1.92678E-19 4.35602E-19
 -1      2445 1.03566E-04-3.19657E-05-3.06834E-05-1.82910E-06-9.13747E-19-7.09895E-20
 -1      2446 1.02659E-04-3.19007E-05-3.03285E-05-2.66506E-06-8.31274E-19 6.31379E-20
 -1      2447 1.04763E-04-3.30096E-05-3.07919E-05 6.17566E-07-1.94444E-19 1.81123E-18
 -1      2448 1.04611E-04-3.27567E-05-3.07947E-05-3.07307E-07 4.57611E-19 1.17168E-18
 -1      2449 1.04014E-04-3.29536E-05-3.04542E-05-1.18605E-06-4.91184E-19 2.38452E-19
 -1      2450 1.05029E-04-3.33588E-05-3.07547E-05 2.96712E-06-4.75612E-19 1.37922E-18
 -1      2451 1.05254E-04-3.33425E-05-3.08246E-05 1.83824E-06-4.36665E-19 1.72270E-18
 -1      2452 1.05203E-04-3.38874E-05-3.05556E-05 1.02734E-06-1.78631E-19 1.50229E-18
 -1      2453 1.04508E-04-3.30335E-05-3.06556E-05 5.46996E-06-6.62132E-19 1.18908E-18
 -1      2454 1.05198E-04-3.34071E-05-3.07819E-05 4.36727E-06-6.83979E-19 1.34540E-18
 -1      2455 1.05912E-04-3.43246E-05-3.06601E-05 3.81955E-06-4.61767E-19 1.00641E-18
 -1      2456 1.03047E-04-3.17731E-05-3.05400E-05 7.39051E-06 1.25041E-19 4.58304E-19
 -1      2457 1.04178E-04-3.26132E-05-3.06958E-05 6.68878E-06-1.62023E-19 5.83753E-19
 -1      2458 1.05756E-04-3.38019E-05-3.08059E-05 6.66567E-06 3.80793E-20 7.22331E-19
 -1      2459 1.00808E-04-2.96545E-05-3.04548E-05 7.79229E-06 4.98494E-19 7.95417E-19
 -1      2460 1.02171E-04-3.08335E-05-3.06037E-05 7.89986E-06 1.06347E-19 4.37400E-19
 -1      2461 1.04479E-04-3.20257E-05-3.10199E-05 8.62127E-06 1.23746E-20 6.04100E-19
 -1      2462 9.84342E-05-2.73071E-05-3.04252E-05 6.00038E-06-4.82097E-19 1.36028E-18
 -1      2463 9.96330E-05-2.84394E-05-3.05331E-05 7.12024E-06 3.24258E-19 1.21744E-18
 -1      2464 1.02279E-04-2.92494E-05-3.12856E-05 8.57168E-06 2.45233E-19 1.12891E-18
 -1      2465 9.69001E-05-2.57620E-05-3.04409E-05 2.17054E-06-4.15112E-19 1.49372E-18
 -1      2466 9.74913E-05-2.63410E-05-3.04878E-05 4.08243E-06-5.36592E-19 1.19133E-18
 -1      2467 9.99864E-05-2.64633E-05-3.15325E-05 5.87097E-06-2.35555E-19 4.03757E-19
 -1      2468 9.69963E-05-2.58581E-05-3.04722E-05-2.47287E-06 9.62706E-20 1.90599E-18
 -1      2469 9.67320E-05-2.55840E-05-3.04518E-05-4.18736E-07-7.38507E-21 1.58675E-18
 -1      2470 9.87699E-05-2.50070E-05-3.16574E-05 1.02490E-06-1.43731E-19 6.66518E-19
 -1      2471 9.87125E-05-2.75529E-05-3.05108E-05-6.21200E-06 1.58641E-18 2.88928E-19
 -1      2472 9.77072E-05-2.65751E-05-3.04250E-05-4.74490E-06 1.02640E-18 1.36723E-18
 -1      2473 9.93432E-05-2.56949E-05-3.15959E-05-4.21657E-06 7.57113E-19-5.36509E-21
 -1      2474 1.01228E-04-2.99597E-05-3.05711E-05-7.86602E-06 8.28591E-19-6.23426E-19
 -1      2475 9.98780E-05-2.87475E-05-3.04343E-05-7.37858E-06 1.46964E-18 1.35797E-19
 -1      2476 1.01360E-04-2.81307E-05-3.13826E-05-7.85769E-06 1.45172E-18-6.30760E-19
 -1      2477 1.03519E-04-3.20446E-05-3.06571E-05-7.32399E-06 1.09539E-19-4.20238E-19
 -1      2478 1.02265E-04-3.10555E-05-3.04995E-05-7.75004E-06 3.19078E-19-7.68924E-19
 -1      2479 1.03724E-04-3.10629E-05-3.11137E-05-8.87901E-06 7.43007E-19-8.56278E-19
 -1      2480 1.04928E-04-3.32129E-05-3.07498E-05-5.30887E-06-1.12811E-19-6.34365E-20
 -1      2481 1.04057E-04-3.26702E-05-3.06085E-05-6.28551E-06-4.89754E-19-5.26118E-19
 -1      2482 1.05405E-04-3.32860E-05-3.08759E-05-7.55218E-06-4.63754E-19 2.41093E-19
 -1      2483 1.05321E-04-3.34362E-05-3.08129E-05-2.77250E-06 1.04596E-18 1.01283E-18
 -1      2484 1.04921E-04-3.33230E-05-3.07197E-05-3.89826E-06 8.92435E-19 8.60595E-19
 -1      2485 1.05967E-04-3.42645E-05-3.07065E-05-4.91264E-06 3.46688E-20 1.50337E-18
 -1      2486 1.04904E-04-3.30058E-05-3.08130E-05-4.39996E-07-2.28884E-19 1.12407E-18
 -1      2487 1.04922E-04-3.31851E-05-3.07846E-05-1.43230E-06 7.13592E-19 1.29317E-18
 -1      2488 1.05538E-04-3.41330E-05-3.05918E-05-2.02002E-06 5.59558E-19 4.44100E-19
 -1      2489 1.03981E-04-3.22614E-05-3.07337E-05 1.32232E-06-5.64023E-19 4.24270E-19
 -1      2490 1.04301E-04-3.25856E-05-3.07703E-05 5.95333E-07-2.57594E-19 8.74997E-19
 -1      2491 1.04488E-04-3.33308E-05-3.04949E-05 4.39111E-07 3.70861E-19 5.43682E-19
 -1      2492 1.02813E-04-3.14532E-05-3.05790E-05 2.43647E-06-2.00682E-19-1.74164E-18
 -1      2493 1.03316E-04-3.18151E-05-3.06687E-05 1.99242E-06-3.17589E-19-4.08932E-19
 -1      2494 1.03170E-04-3.22839E-05-3.03833E-05 2.18385E-06 4.94436E-19-1.81959E-18
 -1      2495 1.01582E-04-3.07185E-05-3.03669E-05 2.98693E-06 1.13326E-19-1.80927E-18
 -1      2496 1.02171E-04-3.10577E-05-3.04922E-05 2.78164E-06 3.59377E-20-1.86367E-18
 -1      2497 1.01821E-04-3.12708E-05-3.02411E-05 3.21047E-06 2.17379E-19-2.45864E-18
 -1      2498 1.00399E-04-3.01100E-05-3.01209E-05 3.11807E-06-4.32023E-19 1.21071E-18
 -1      2499 1.01002E-04-3.04009E-05-3.02643E-05 3.08653E-06-1.02912E-18-5.17669E-19
 -1      2500 1.00567E-04-3.04222E-05-3.00679E-05 3.65003E-06-1.28906E-18-6.93911E-19
 -1      2501 9.93216E-05-2.96326E-05-2.98640E-05 2.97407E-06-3.09561E-19 3.07421E-18
 -1      2502 9.98941E-05-2.98695E-05-3.00107E-05 3.05393E-06 1.29269E-19 2.50115E-18
 -1      2503 9.94614E-05-2.97698E-05-2.98733E-05 3.67041E-06-1.06959E-18 1.01806E-18
 -1      2504 9.83763E-05-2.92695E-05-2.96147E-05 2.67231E-06-7.89589E-20 2.73916E-18
 -1      2505 9.88921E-05-2.94568E-05-2.97541E-05 2.81411E-06 2.15210E-19 2.70419E-18
 -1      2506 9.85152E-05-2.92955E-05-2.96706E-05 3.42545E-06-5.58707E-20 2.74161E-18
 -1      2507 9.75703E-05-2.89970E-05-2.93861E-05 2.29626E-06 6.29613E-19 2.91831E-18
 -1      2508 9.80170E-05-2.91430E-05-2.95114E-05 2.46579E-06 2.99537E-19 3.08891E-18
 -1      2509 9.77213E-05-2.89623E-05-2.94728E-05 3.03507E-06 2.90734E-19 1.53919E-18
 -1      2510 9.68992E-05-2.87917E-05-2.91863E-05 1.89775E-06 4.21584E-19 2.04490E-18
 -1      2511 9.72735E-05-2.89053E-05-2.92937E-05 2.07475E-06 5.42485E-19 2.25499E-18
 -1      2512 9.70645E-05-2.87310E-05-2.92900E-05 2.58208E-06 7.01008E-19 2.22375E-18
 -1      2513 9.63527E-05-2.86335E-05-2.90196E-05 1.50333E-06 1.20698E-18 1.71677E-18
 -1      2514 9.66564E-05-2.87228E-05-2.91075E-05 1.67846E-06 8.70134E-19 2.21389E-18
 -1      2515 9.65266E-05-2.85675E-05-2.91290E-05 2.11641E-06 7.18089E-19 1.43898E-18
 -1      2516 9.59168E-05-2.85076E-05-2.88867E-05 1.12080E-06 6.31302E-19 2.24862E-18
 -1      2517 9.61544E-05-2.85779E-05-2.89551E-05 1.29232E-06 1.12948E-18 2.14244E-18
 -1      2518 9.60883E-05-2.84444E-05-2.89936E-05 1.66403E-06 8.85374E-19 1.64417E-18
 -1      2519 9.55775E-05-2.84072E-05-2.87845E-05 7.54179E-07-8.30489E-19 2.70934E-18
 -1      2520 9.57573E-05-2.84617E-05-2.88357E-05 9.20634E-07-2.07543E-19 3.37482E-18
 -1      2521 9.57355E-05-2.83477E-05-2.88843E-05 1.22995E-06 3.73443E-19 2.40873E-18
 -1      2522 9.54499E-05-2.83798E-05-2.87407E-05 5.53003E-07-1.10348E-19 2.12134E-18
 -1      2523 9.45703E-05-2.69181E-05-2.89991E-05 1.08318E-06 2.54050E-19 6.63892E-19
 -1      2524 9.46929E-05-2.70965E-05-2.89680E-05 1.15709E-06 6.94179E-19-2.57073E-18
 -1      2525 9.43560E-05-2.66055E-05-2.90418E-05 8.11930E-07 8.49925E-21 2.12475E-18
 -1      2526 9.44532E-05-2.67455E-05-2.90174E-05 9.52272E-07-1.53706E-19 2.18259E-18
 -1      2527 9.44313E-05-2.67892E-05-2.89865E-05 1.18482E-06-1.62034E-19 1.21061E-18
 -1      2528 9.50982E-05-2.76972E-05-2.88890E-05 1.16138E-06 1.86436E-19 1.38251E-18
 -1      2529 9.52281E-05-2.78903E-05-2.88546E-05 1.09016E-06-1.77986E-19 9.92269E-19
 -1      2530 9.48281E-05-2.72962E-05-2.89464E-05 1.20444E-06-2.03661E-19-2.93253E-18
 -1      2531 9.49606E-05-2.74895E-05-2.89127E-05 1.20356E-06-9.32121E-20-3.93420E-19
 -1      2532 9.50555E-05-2.75873E-05-2.89136E-05 1.38644E-06 7.12092E-19-1.93249E-19
 -1      2533 9.47290E-05-2.71697E-05-2.89524E-05 1.37640E-06 1.86291E-19-1.65508E-18
 -1      2534 9.42118E-05-2.63967E-05-2.90694E-05 4.24322E-07 2.86661E-19 1.34474E-18
 -1      2535 9.42714E-05-2.64807E-05-2.90549E-05 6.13000E-07 3.62017E-19 1.63983E-18
 -1      2536 9.41928E-05-2.64848E-05-2.90134E-05 8.31598E-07-2.75076E-19 2.33974E-18
 -1      2537 9.41572E-05-2.63191E-05-2.90784E-05-3.03771E-08-7.88508E-19 9.01155E-19
 -1      2538 9.41704E-05-2.63352E-05-2.90758E-05 1.81806E-07-7.94131E-19 1.61667E-18
 -1      2539 9.40436E-05-2.62936E-05-2.90304E-05 3.59088E-07-1.52937E-19 7.37247E-19
 -1      2540 9.42040E-05-2.63869E-05-2.90678E-05-4.91305E-07 2.40534E-20-2.29152E-18
 -1      2541 9.41667E-05-2.63309E-05-2.90774E-05-2.85074E-07-7.12123E-19 3.59596E-20
 -1      2542 9.40058E-05-2.62421E-05-2.90359E-05-1.73646E-07-9.88406E-19 5.32476E-19
 -1      2543 9.43496E-05-2.65927E-05-2.90398E-05-8.86120E-07 1.14788E-18-3.97920E-18
 -1      2544 9.42652E-05-2.64723E-05-2.90599E-05-7.18991E-07 1.04762E-18-5.02462E-18
 -1      2545 9.40904E-05-2.63417E-05-2.90295E-05-6.91546E-07 8.24649E-20-3.07612E-18
 -1      2546 9.45865E-05-2.69230E-05-2.89972E-05-1.16587E-06 2.42216E-18 1.77105E-18
 -1      2547 9.44603E-05-2.67478E-05-2.90257E-05-1.06015E-06 1.95182E-18-2.27627E-18
 -1      2548 9.42935E-05-2.65870E-05-2.90123E-05-1.12451E-06 1.13529E-18-2.54773E-18
 -1      2549 9.48860E-05-2.73400E-05-2.89447E-05-1.26725E-06 1.61282E-20 1.07688E-19
 -1      2550 9.47380E-05-2.71338E-05-2.89784E-05-1.25163E-06 1.71773E-18 1.41398E-18
 -1      2551 9.46026E-05-2.69603E-05-2.89860E-05-1.40963E-06 1.13232E-18 3.58036E-19
 -1      2552 9.52023E-05-2.77917E-05-2.88859E-05-1.17852E-06-1.19916E-18-1.15309E-18
 -1      2553 9.50494E-05-2.75742E-05-2.89217E-05-1.25476E-06-8.49631E-19-5.31996E-19
 -1      2554 9.49571E-05-2.74114E-05-2.89501E-05-1.48019E-06 5.36325E-20-3.58387E-19
 -1      2555 9.53790E-05-2.81574E-05-2.88050E-05-7.97024E-07-1.47384E-19 5.55219E-19
 -1      2556 1.99694E-05-1.68170E-05-9.80254E-07-3.51986E-06-5.95451E-19-9.75782E-19
 -1      2557 2.57596E-05-1.99361E-05-2.21226E-06-1.87172E-05 2.73168E-19-1.35335E-18
 -1      2558 9.36046E-05-2.74468E-05-2.83410E-05 3.18815E-07 1.34526E-18 1.80698E-18
 -1      2559 9.38755E-05-2.73114E-05-2.84835E-05 8.64740E-07 1.57076E-18 2.18167E-18
 -1      2560 9.42689E-05-2.74572E-05-2.86476E-05 3.25986E-07 1.56153E-18 9.48145E-19
 -1      2561 2.52175E-05-2.00947E-05-1.93913E-06 2.25580E-05-1.85087E-18 7.29719E-19
 -1      2562 2.00394E-05-1.73583E-05-8.21537E-07 1.02168E-05-1.60108E-18 1.03762E-18
 -1      2563 1.27677E-04-5.52347E-05-3.11051E-05 2.79554E-05-1.04672E-18-5.65394E-19
 -1      2564 1.13568E-04-5.53912E-05-2.49179E-05 3.36052E-05-1.45774E-18 3.79047E-19
 -1      2565 5.17450E-05-3.34877E-05-7.66006E-06 4.08749E-05-1.18076E-18-1.03253E-18
 -1      2566 3.63313E-05-2.66047E-05-3.88895E-06 3.22289E-05-1.86707E-18-6.77203E-19
 -1      2567 3.17039E-05-2.29127E-05-3.45788E-06 2.55348E-05-5.35325E-19-5.62726E-18
 -1      2568 2.21924E-05-1.83833E-05-1.23205E-06 1.10779E-05-3.48925E-19-6.30637E-18
 -1      2569 8.78912E-05-1.07761E-05-3.30852E-05-1.51218E-06 7.22265E-19-4.35356E-18
 -1      2570 8.79953E-05-1.08990E-05-3.30754E-05-2.62784E-06 3.21315E-19-4.38119E-18
 -1      2571 8.93881E-05-1.30623E-05-3.27130E-05-2.91627E-06 1.36775E-19-4.07402E-18
 -1      2572 8.91418E-05-1.27238E-05-3.27535E-05-9.35300E-07 8.36807E-19-4.01763E-18
 -1      2573 1.45585E-04-1.02908E-05-5.83533E-05 1.38721E-06 4.72136E-18-7.24425E-19
 -1      2574 1.46998E-04-1.06974E-05-5.87547E-05-8.60859E-07 4.88992E-18-1.18108E-18
 -1      2575 1.57828E-04-3.27366E-05-5.38610E-05-5.93663E-06-4.87065E-18-2.00387E-18
 -1      2576 1.54461E-04-3.96494E-05-4.93924E-05-4.64684E-06-3.88566E-18-1.67628E-18
 -1      2577 1.47942E-04-1.40468E-05-5.77471E-05-3.17897E-06 4.40034E-18-1.45436E-18
 -1      2578 1.45412E-04-1.85101E-05-5.47361E-05-4.44462E-06 3.36293E-18-1.41603E-18
 -1      2579 1.48055E-04-2.22182E-05-5.41638E-05 3.21698E-06 4.36095E-18-1.32412E-18
 -1      2580 1.47833E-04-1.55889E-05-5.71015E-05 3.84201E-06 4.79230E-18-2.87568E-19
 -1      2581 1.45040E-04-4.11599E-05-4.47224E-05-4.40747E-06 3.12020E-18 5.10337E-19
 -1      2582 1.48373E-04-3.34492E-05-4.97146E-05 6.10245E-07 3.40179E-18-1.18161E-19
 -1      2583 1.32438E-04-5.26987E-05-3.42324E-05-2.14372E-05 9.38618E-19 9.74088E-20
 -1      2584 1.42170E-04-4.88471E-05-4.02952E-05-1.52169E-05 2.45629E-18 5.52901E-19
 -1      2585 1.03287E-04-5.35677E-05-2.11373E-05-3.84460E-05-2.04114E-18-1.40809E-18
 -1      2586 1.20986E-04-5.50935E-05-2.83074E-05-3.28406E-05-3.32884E-19-2.14088E-19
 -1      2587 6.18125E-05-3.98766E-05-9.27397E-06-4.21625E-05-2.23468E-18-5.19083E-18
 -1      2588 8.05429E-05-4.59507E-05-1.48481E-05-4.40418E-05-2.83650E-18-3.92060E-18
 -1      2589 3.20982E-05-2.50087E-05-2.75132E-06-2.95338E-05-1.65013E-18-5.91187E-18
 -1      2590 4.54793E-05-3.15824E-05-5.84525E-06-3.91855E-05-1.77051E-18-5.11100E-18
 -1      2591 6.03993E-05-3.44494E-05-1.06015E-05-4.03336E-05-2.65481E-18-4.77123E-18
 -1      2592 1.81265E-05-1.70981E-05-1.88890E-07-3.63447E-06-1.01103E-18-6.62295E-18
 -1      2593 2.17118E-05-1.94509E-05-7.40054E-07-1.81599E-05-6.84297E-19-6.30193E-18
 -1      2594 6.04541E-05-3.89542E-05-9.12577E-06 4.02094E-05-2.10488E-19-3.39459E-18
 -1      2595 4.68760E-05-3.19732E-05-6.08073E-06 3.45347E-05-1.47807E-19-4.14263E-18
 -1      2596 9.96253E-05-5.43295E-05-1.95002E-05 3.89342E-05-6.94355E-19-2.25851E-18
 -1      2597 7.79467E-05-4.72989E-05-1.30214E-05 3.98541E-05 3.53213E-19-2.68499E-18
 -1      2598 1.31703E-04-6.04594E-05-3.08508E-05 2.43836E-05-1.88232E-18-2.75286E-21
 -1      2599 1.18334E-04-5.94098E-05-2.51924E-05 2.96068E-05-1.68178E-18-1.25403E-18
 -1      2600 1.52696E-04-5.08851E-05-4.40043E-05 3.31701E-06-3.88747E-18-1.95241E-19
 -1      2601 1.42382E-04-5.68630E-05-3.67169E-05 1.15634E-05-2.70511E-18 2.65968E-19
 -1      2602 1.54381E-04-1.74307E-05-5.90251E-05-5.32708E-06-4.98987E-18-3.05673E-18
 -1      2603 1.56062E-04-2.35632E-05-5.69440E-05-6.95982E-06-5.11142E-18-3.45166E-18
 -1      2604 1.48311E-04-2.71893E-05-5.20277E-05-1.18719E-05-4.01112E-18-2.14257E-18
 -1      2605 1.55521E-04-1.65450E-05-5.97266E-05 3.46987E-06-3.59269E-18-3.13190E-18
 -1      2606 1.52636E-04-1.41491E-05-5.97071E-05-9.45807E-08-4.17333E-18-4.02388E-18
 -1      2607 1.54639E-04-2.61515E-05-5.53035E-05 7.77235E-06-2.46847E-18-4.16656E-18
 -1      2608 1.56945E-04-2.10831E-05-5.84825E-05 6.01088E-06-3.06838E-18-3.21830E-18
 -1      2609 1.45027E-04-1.69336E-05-5.50205E-05 7.81418E-06-2.92205E-18-5.24832E-18
 -1      2610 1.51559E-04-4.64295E-05-4.52152E-05 1.91606E-06-5.33631E-19-3.63970E-18
 -1      2611 1.56241E-04-3.80385E-05-5.10448E-05 6.02000E-06-1.60703E-18-3.73796E-18
 -1      2612 1.37201E-04-5.92097E-05-3.36471E-05-1.71563E-05 5.57771E-19-2.41849E-18
 -1      2613 1.46626E-04-5.61498E-05-3.92958E-05-9.11865E-06-1.05032E-19-3.87560E-18
 -1      2614 1.14692E-04-5.87304E-05-2.38577E-05-3.11155E-05 4.63052E-18 1.67660E-18
 -1      2615 1.28517E-04-6.00538E-05-2.94769E-05-2.66097E-05 2.69674E-18 2.01170E-20
 -1      2616 1.36170E-04-6.23660E-05-3.13675E-05-1.54491E-05 2.29069E-18-2.79373E-18
 -1      2617 3.89693E-05-2.61480E-05-5.04283E-06-2.90049E-05 2.07491E-18 9.93146E-19
 -1      2618 5.18147E-05-3.26123E-05-7.82889E-06-3.71018E-05 3.06880E-18 2.43437E-18
 -1      2619 9.50390E-05-2.00118E-05-3.22028E-05-1.17434E-05-2.91960E-18-2.08440E-18
 -1      2620 9.54348E-05-2.33501E-05-3.09190E-05-7.95774E-06-2.71939E-18-1.71824E-18
 -1      2621 9.50544E-05-2.25387E-05-3.10528E-05-7.64061E-06-2.44212E-18-2.14247E-18
 -1      2622 9.32020E-05-1.76130E-05-3.24125E-05-1.13949E-05-2.77048E-18-2.80003E-18
 -1      2623 9.62753E-05-2.50750E-05-3.05400E-05 7.58841E-06 3.09269E-18 3.61722E-18
 -1      2624 9.73944E-05-2.37594E-05-3.15792E-05 1.06892E-05 3.35949E-18 4.14474E-18
 -1      2625 9.58413E-05-2.12877E-05-3.20074E-05 1.18895E-05 3.73646E-18 2.89125E-18
 -1      2626 9.58389E-05-2.41440E-05-3.07598E-05 7.67323E-06 3.16900E-18 2.07068E-18
 -1      2627 1.44548E-04-4.64567E-05-4.23380E-05 1.07671E-05-2.21976E-19 6.14734E-19
 -1      2628 1.35697E-04-5.16433E-05-3.62085E-05 1.70383E-05-4.46280E-19-2.54533E-19
 -1      2629 1.33420E-04-5.64913E-05-3.30367E-05 1.71967E-05-8.51162E-19 5.96311E-19
 -1      2630 1.41344E-04-4.46328E-05-4.14285E-05-5.40056E-07 1.42672E-19 2.54110E-21
 -1      2631 1.36072E-04-9.89503E-06-5.43092E-05-3.93027E-06 4.49732E-18-6.59045E-19
 -1      2632 9.08264E-05-1.50241E-05-3.24782E-05-6.77895E-06-1.22636E-18-4.21238E-18
 -1      2633 8.97369E-05-1.31817E-05-3.28609E-05-7.93504E-06-1.37201E-18-4.44161E-18
 -1      2634 9.03570E-05-1.39002E-05-3.28290E-05-9.16556E-06-1.83159E-18-4.28802E-18
 -1      2635 9.47151E-05-2.69132E-05-2.90707E-05 1.84044E-06 1.91038E-18 1.12285E-18
 -1      2636 9.42162E-05-1.90700E-05-3.22506E-05 1.15962E-05 3.73689E-18 1.36204E-18
 -1      2637 9.20479E-05-1.62264E-05-3.25363E-05-1.03778E-05-2.28423E-18-3.49010E-18
 -1      2638 1.06891E-04-5.65812E-05-2.13134E-05-3.44222E-05 4.48059E-18 1.36573E-18
 -1      2639 6.66698E-05-3.82518E-05-1.19644E-05-3.74974E-05 3.83579E-18 1.72805E-18
 -1      2640 1.48757E-04-3.25610E-05-4.99893E-05 1.23642E-05-1.61953E-18-4.13056E-18
 -1      2641 3.96842E-05-2.06230E-05-7.59360E-06-2.33166E-05 4.47445E-19-7.73341E-19
 -1      2642 1.07516E-04-5.50237E-05-2.23411E-05 3.68150E-05-1.34043E-18 4.69627E-19
 -1      2643 9.99965E-05-5.19714E-05-2.01056E-05 3.88804E-05-1.04545E-18 4.60018E-19
 -1      2644 1.17755E-04-5.77150E-05-2.59087E-05 2.91523E-05-1.17420E-18-3.03079E-19
 -1      2645 9.54522E-05-2.82700E-05-2.87916E-05 8.07395E-07-2.55913E-19 1.88779E-18
 -1      2646 9.53921E-05-2.81379E-05-2.88230E-05 9.34709E-07 6.12672E-20 1.39410E-18
 -1      2647 1.44574E-04-1.49101E-05-5.57564E-05-3.54117E-06-4.33130E-18-4.31214E-18
 -1      2648 9.55425E-05-2.82377E-05-2.88403E-05-9.92208E-07 8.28612E-20 1.33800E-18
 -1      2649 9.53509E-05-2.79926E-05-2.88710E-05-1.12115E-06-6.31131E-19-5.54471E-19
 -1      2650 9.53481E-05-2.78629E-05-2.89193E-05-1.40256E-06-3.72264E-19 3.02312E-19
 -1      2651 9.56952E-05-2.82608E-05-2.88925E-05-1.20112E-06 8.84874E-20 1.60407E-18
 -1      2652 7.98451E-05-4.37793E-05-1.54667E-05 4.16902E-05-4.61315E-19 1.65087E-18
 -1      2653 6.60088E-05-3.88152E-05-1.12414E-05 4.24288E-05-5.32148E-19-8.66091E-20
 -1      2654 6.19499E-05-3.30549E-05-1.18046E-05 3.99594E-05-9.89546E-19 2.41510E-19
 -1      2655 1.49905E-04-4.69085E-05-4.42967E-05-6.55630E-06-2.84232E-18-2.34205E-19
 -1      2656 2.68234E-05-1.43583E-05-4.73848E-06 2.61086E-06-1.08734E-18-2.14088E-19
 -1      2657 9.46946E-05-2.05892E-05-3.17151E-05 9.65801E-06 3.48640E-18 8.89550E-19
 -1      2658 3.78261E-05-2.15221E-05-6.42355E-06 2.78326E-05-2.68404E-18 2.24040E-19
 -1      2659 1.39830E-04-6.04935E-05-3.39098E-05 1.14747E-05-1.43000E-18 9.69853E-19
 -1      2660 2.70348E-05-1.49700E-05-4.58217E-06 3.79884E-06-2.04585E-19-6.32374E-18
 -1      2661 1.12741E-04-5.82890E-05-2.30788E-05 3.15976E-05 1.33831E-19-1.21713E-18
 -1      2662 7.80016E-05-4.38672E-05-1.42236E-05 3.89328E-05 9.59265E-19-2.21414E-18
 -1      2663 3.40206E-05-1.98476E-05-5.53117E-06-2.44314E-05-1.64663E-18-5.79498E-18
 -1      2664 9.60707E-05-5.15798E-05-1.88696E-05-4.04706E-05-2.83565E-18-2.18590E-18
 -1      2665 1.09034E-04-5.51830E-05-2.31359E-05-3.38369E-05-2.91570E-18-1.70479E-19
 -1      2666 8.93056E-05-4.71274E-05-1.75911E-05-4.08697E-05-3.13625E-18-2.36687E-18
 -1      2667 1.29358E-04-5.72314E-05-3.08948E-05-2.25820E-05-1.17918E-18 8.66303E-19
 -1      2668 1.41802E-04-4.67639E-05-4.07003E-05-3.15140E-06 6.39576E-19 2.16184E-18
 -1      2669 1.41193E-04-2.80333E-05-4.87084E-05 7.88908E-06 2.68880E-18 1.10898E-18
 -1      2670 4.53399E-05-2.57600E-05-7.90427E-06 2.93713E-05 7.48989E-19-4.47276E-18
 -1      2671 1.39064E-04-2.49735E-05-4.91965E-05-8.76955E-06 2.66985E-18-1.58459E-18
 -1      2672 1.37445E-04-1.14482E-05-5.42304E-05 4.56692E-06 4.54920E-18 4.48398E-20
 -1      2673 1.48007E-04-5.32980E-05-4.05618E-05 3.24329E-06 2.85152E-19-3.73647E-18
 -1      2674 9.54114E-05-2.80535E-05-2.88654E-05 1.19317E-06-5.36972E-20 1.42430E-18
 -1      2675 9.55997E-05-2.80750E-05-2.89435E-05-1.52375E-06-6.96623E-20 6.63239E-19
 -1      2676 9.05932E-05-1.51301E-05-3.23636E-05 3.17574E-06 2.06884E-18-3.17426E-18
 -1      2677 9.04040E-05-1.48562E-05-3.23981E-05 2.24650E-06 1.77176E-18-3.35337E-18
 -1      2678 9.02701E-05-1.46505E-05-3.24284E-05 1.41445E-06 1.50417E-18-3.57004E-18
 -1      2679 9.02052E-05-1.45571E-05-3.24400E-05 4.62995E-07 1.23738E-18-3.66328E-18
 -1      2680 9.14474E-05-1.65303E-05-3.20941E-05 1.62700E-06 1.51895E-18-3.26768E-18
 -1      2681 9.21653E-05-1.75271E-05-3.20257E-05 6.44414E-06 3.01892E-18-1.79059E-18
 -1      2682 9.16440E-05-1.67277E-05-3.21297E-05 5.60448E-06 2.81566E-18-2.18251E-18
 -1      2683 9.35666E-05-1.97565E-05-3.16752E-05 7.57175E-06 3.25893E-18-7.21953E-19
 -1      2684 9.27873E-05-1.85009E-05-3.18542E-05 6.99233E-06 3.08996E-18-1.26258E-18
 -1      2685 9.34545E-05-1.98359E-05-3.15277E-05 5.69893E-06 2.90272E-18-1.33724E-18
 -1      2686 9.52042E-05-2.53848E-05-2.99343E-05 3.94420E-06 2.40469E-18 5.12940E-19
 -1      2687 9.55358E-05-2.45385E-05-3.03949E-05 5.58579E-06 2.67675E-18 7.42397E-19
 -1      2688 4.86992E-05-2.28346E-05-1.06638E-05 3.16212E-05-2.38101E-18 2.01170E-20
 -1      2689 3.84174E-05-1.63354E-05-8.90170E-06 2.14089E-05-2.57964E-18 2.32087E-19
 -1      2690 9.49799E-05-2.66569E-05-2.92855E-05 1.72147E-06 1.87337E-18 3.78370E-19
 -1      2691 9.52372E-05-2.61659E-05-2.95657E-05 2.74137E-06 2.04849E-18 4.85278E-19
 -1      2692 9.52685E-05-2.49880E-05-3.01169E-05 3.77183E-06 2.36103E-18-2.27027E-19
 -1      2693 9.46905E-05-2.18914E-05-3.12061E-05 7.82533E-06 3.20297E-18 5.59187E-19
 -1      2694 1.27621E-04-8.10555E-06-5.18700E-05-2.16174E-06 4.47636E-18 3.05329E-19
 -1      2695 1.28808E-04-1.10195E-05-5.09665E-05-7.17046E-06 4.23093E-18-4.25793E-19
 -1      2696 9.53611E-05-2.58698E-05-2.97530E-05-2.64646E-06-1.67309E-18-1.84960E-18
 -1      2697 9.52037E-05-2.64494E-05-2.94774E-05-1.64680E-06-1.51213E-18-1.82986E-18
 -1      2698 9.52293E-05-2.69522E-05-2.92385E-05-8.82467E-07-1.37711E-18-1.61296E-18
 -1      2699 9.51057E-05-2.72967E-05-2.90664E-05-2.50619E-07-1.23556E-18-1.63916E-18
 -1      2700 9.54280E-05-2.62685E-05-2.96461E-05-1.52174E-06-1.36371E-18-1.87148E-18
 -1      2701 9.50776E-05-2.75892E-05-2.89080E-05 2.49987E-07-1.11917E-18-1.33449E-18
 -1      2702 9.50161E-05-2.78014E-05-2.88079E-05 6.39066E-07-8.88343E-19-1.26140E-18
 -1      2703 9.54360E-05-2.72330E-05-2.92376E-05-1.83583E-07-1.10583E-18-1.54327E-18
 -1      2704 9.49793E-05-2.79679E-05-2.87094E-05 9.55711E-07-8.95234E-19-1.14465E-18
 -1      2705 9.49739E-05-2.80986E-05-2.86601E-05 1.19270E-06-7.62807E-19-1.40228E-18
 -1      2706 9.53846E-05-2.78080E-05-2.89686E-05 6.90146E-07-8.87833E-19-1.27282E-18
 -1      2707 9.49453E-05-2.81856E-05-2.86059E-05 1.39269E-06-6.79259E-19-1.30808E-18
 -1      2708 9.49840E-05-2.82622E-05-2.85926E-05 1.54172E-06-6.64384E-19-1.35171E-18
 -1      2709 9.53308E-05-2.81342E-05-2.88045E-05 1.24951E-06-7.83843E-19-1.28419E-18
 -1      2710 9.49670E-05-2.82950E-05-2.85714E-05 1.67655E-06-7.28678E-19-1.41845E-18
 -1      2711 9.50389E-05-2.83328E-05-2.85847E-05 1.78410E-06-6.35957E-19-1.28747E-18
 -1      2712 9.52941E-05-2.82948E-05-2.87187E-05 1.61603E-06-6.39780E-19-1.29413E-18
 -1      2713 9.50321E-05-2.83255E-05-2.85886E-05 1.89354E-06-3.81936E-19-1.24534E-18
 -1      2714 9.51300E-05-2.83336E-05-2.86222E-05 1.99448E-06-1.58095E-19-1.02315E-18
 -1      2715 9.52764E-05-2.83369E-05-2.86920E-05 1.88419E-06-4.56881E-19-1.03566E-18
 -1      2716 9.51300E-05-2.82941E-05-2.86457E-05 2.10968E-06-4.22816E-19-9.98012E-19
 -1      2717 9.52501E-05-2.82781E-05-2.86963E-05 2.23127E-06-6.23149E-19-9.61387E-19
 -1      2718 9.52733E-05-2.82880E-05-2.87107E-05 2.12758E-06-2.25432E-19-9.23765E-19
 -1      2719 9.52530E-05-2.82104E-05-2.87357E-05 2.37727E-06-5.82236E-19-7.50295E-19
 -1      2720 9.53943E-05-2.81739E-05-2.88015E-05 2.54188E-06-3.69951E-19-7.57907E-19
 -1      2721 9.52783E-05-2.81639E-05-2.87652E-05 2.40432E-06-4.66536E-19-5.53017E-19
 -1      2722 9.53953E-05-2.80795E-05-2.88541E-05 2.73954E-06-3.58176E-19-7.59382E-19
 -1      2723 9.55587E-05-2.80249E-05-2.89344E-05 2.96630E-06-5.06847E-19-6.73616E-19
 -1      2724 9.52834E-05-2.79725E-05-2.88487E-05 2.76158E-06-5.26639E-19-7.09859E-19
 -1      2725 9.55524E-05-2.79036E-05-2.89981E-05 3.23361E-06-5.45222E-19-5.05166E-19
 -1      2726 9.57403E-05-2.78333E-05-2.90928E-05 3.53925E-06-1.16251E-19-6.22170E-19
 -1      2727 9.52789E-05-2.77170E-05-2.89554E-05 3.23875E-06-3.90481E-19-3.51394E-19
 -1      2728 9.57199E-05-2.76851E-05-2.91650E-05 3.89196E-06-1.35477E-19-5.68096E-19
 -1      2729 9.59359E-05-2.76032E-05-2.92736E-05 4.29066E-06-2.84116E-20-9.31562E-19
 -1      2730 9.52531E-05-2.73988E-05-2.90797E-05 3.86939E-06-3.64179E-19-2.94181E-19
 -1      2731 9.58946E-05-2.74305E-05-2.93505E-05 4.74218E-06-9.21386E-20-1.25020E-18
 -1      2732 9.61439E-05-2.73458E-05-2.94714E-05 5.24411E-06-3.52745E-19-1.56005E-18
 -1      2733 9.51931E-05-2.70220E-05-2.92141E-05 4.68181E-06-2.70140E-19-7.78025E-19
 -1      2734 9.60768E-05-2.71580E-05-2.95469E-05 5.80471E-06-4.48882E-19-1.25491E-18
 -1      2735 9.63693E-05-2.70901E-05-2.96758E-05 6.41280E-06-2.71422E-19-1.15982E-18
 -1      2736 9.50869E-05-2.66013E-05-2.93474E-05 5.69833E-06-3.33823E-19-1.10935E-18
 -1      2737 9.62795E-05-2.69120E-05-2.97403E-05 7.08797E-06-3.74206E-19-1.12603E-18
 -1      2738 9.66362E-05-2.69012E-05-2.98694E-05 7.79212E-06-5.66385E-19-1.53451E-18
 -1      2739 9.49319E-05-2.61754E-05-2.94621E-05 6.93348E-06-3.08694E-19-9.49495E-19
 -1      2740 9.65476E-05-2.67873E-05-2.99085E-05 8.57986E-06-3.17411E-19-1.54720E-18
 -1      2741 9.70141E-05-2.69116E-05-3.00251E-05 9.34741E-06-1.43293E-19-1.21754E-18
 -1      2742 9.47517E-05-2.58308E-05-2.95321E-05 8.39152E-06-4.43388E-19-8.45730E-19
 -1      2743 9.69954E-05-2.69681E-05-3.00198E-05 1.02336E-05-2.87090E-19-9.97501E-19
 -1      2744 9.76661E-05-2.73676E-05-3.01068E-05 1.09948E-05 1.32878E-20-1.38545E-18
 -1      2745 9.46306E-05-2.57404E-05-2.95218E-05 1.00629E-05-2.81437E-19-1.11607E-18
 -1      2746 9.78715E-05-2.77827E-05-3.00367E-05 1.19436E-05 6.89827E-19-1.67994E-18
 -1      2747 9.89249E-05-2.86858E-05-3.00785E-05 1.25692E-05 1.34409E-18-2.03564E-18
 -1      2748 9.47751E-05-2.62188E-05-2.93885E-05 1.19181E-05-3.95818E-20-8.04909E-19
 -1      2749 9.96552E-05-2.97572E-05-2.99327E-05 1.34944E-05 1.74316E-18-2.08935E-18
 -1      2750 1.01385E-04-3.14838E-05-2.99313E-05 1.37606E-05 1.73294E-18-1.97262E-18
 -1      2751 9.56134E-05-2.77922E-05-2.90965E-05 1.38861E-05 1.47350E-18-1.60790E-18
 -1      2752 1.03153E-04-3.36031E-05-2.97389E-05 1.44477E-05 1.71627E-18-1.91011E-18
 -1      2753 1.05928E-04-3.64629E-05-2.97505E-05 1.39809E-05 1.50785E-18-1.26756E-18
 -1      2754 9.79248E-05-3.12315E-05-2.86565E-05 1.57690E-05 1.93283E-18-2.10791E-18
 -1      2755 1.09470E-04-3.99469E-05-2.96471E-05 1.38949E-05 1.30826E-18-1.19687E-18
 -1      2756 1.13505E-04-4.38568E-05-2.98506E-05 1.21221E-05 1.24732E-18-1.26440E-18
 -1      2757 1.02956E-04-3.74380E-05-2.82208E-05 1.70353E-05 1.77884E-18-1.92597E-18
 -1      2758 1.19448E-04-4.83991E-05-3.02237E-05 1.01674E-05 1.14717E-18-9.06173E-19
 -1      2759 1.24105E-04-5.19763E-05-3.09457E-05 6.52682E-06 4.69309E-19-9.95935E-19
 -1      2760 1.12106E-04-4.65125E-05-2.83075E-05 1.61839E-05 1.38862E-18-1.67636E-18
 -1      2761 1.33946E-04-1.43631E-05-5.18895E-05-2.82977E-06-3.64139E-18-4.87055E-18
 -1      2762 1.34262E-04-1.55733E-05-5.16391E-05 6.00372E-06-3.41397E-18-5.94919E-18
 -1      2763 1.40256E-04-3.84091E-05-4.40637E-05 1.62230E-05-1.33482E-18-4.21791E-18
 -1      2764 1.40907E-04-4.74450E-05-4.06671E-05 1.24587E-05-4.07529E-19-3.34197E-18
 -1      2765 1.35594E-04-5.45572E-05-3.46786E-05 3.95300E-06 2.02845E-19-1.49284E-18
 -1      2766 1.31394E-04-5.51141E-05-3.25655E-05-1.89286E-06 1.18382E-18-1.52214E-18
 -1      2767 1.23966E-04-5.16953E-05-3.09505E-05-6.68983E-06 1.46760E-18-9.24656E-19
 -1      2768 1.19026E-04-4.81331E-05-3.01786E-05-1.04208E-05 1.87429E-18-9.33971E-19
 -1      2769 1.25113E-04-5.53153E-05-3.00150E-05-1.07138E-05 1.71545E-18 5.18212E-19
 -1      2770 1.13201E-04-4.35646E-05-2.98382E-05-1.22371E-05 1.99836E-18-2.01599E-19
 -1      2771 1.09181E-04-3.96770E-05-2.96471E-05-1.39570E-05 2.05107E-18 6.60859E-20
 -1      2772 1.11650E-04-4.60885E-05-2.82812E-05-1.62696E-05 2.04412E-18 5.96113E-19
 -1      2773 1.05735E-04-3.62474E-05-2.97551E-05-1.39955E-05 2.43155E-18 1.19306E-18
 -1      2774 1.03009E-04-3.34311E-05-2.97466E-05-1.44294E-05 3.32251E-18 2.77854E-18
 -1      2775 1.02725E-04-3.70705E-05-2.82380E-05-1.69414E-05 3.02689E-18 1.23244E-18
 -1      2776 1.01267E-04-3.13436E-05-2.99413E-05-1.37287E-05 2.58734E-18 1.71004E-18
 -1      2777 9.95796E-05-2.96480E-05-2.99443E-05-1.34369E-05 1.30184E-18 1.56685E-18
 -1      2778 9.78228E-05-3.10499E-05-2.86772E-05-1.56932E-05 2.30518E-18 1.23871E-18
 -1      2779 9.88630E-05-2.86003E-05-3.00904E-05-1.25019E-05 1.32406E-19 1.24198E-18
 -1      2780 9.78399E-05-2.77156E-05-3.00495E-05-1.18559E-05-5.56515E-19 1.22806E-19
 -1      2781 9.55688E-05-2.76845E-05-2.91207E-05-1.37847E-05 3.94624E-19 1.52289E-19
 -1      2782 9.76376E-05-2.73123E-05-3.01202E-05-1.08997E-05-8.89986E-19-2.29006E-19
 -1      2783 9.69892E-05-2.69203E-05-3.00354E-05-1.01202E-05-1.07583E-18-3.38988E-19
 -1      2784 9.47675E-05-2.61561E-05-2.94131E-05-1.17989E-05-6.79418E-19-1.57176E-18
 -1      2785 9.70058E-05-2.68658E-05-3.00429E-05-9.22294E-06-1.17043E-19 5.01545E-19
 -1      2786 9.65576E-05-2.67412E-05-2.99305E-05-8.43563E-06 5.27208E-19 9.49192E-19
 -1      2787 9.46395E-05-2.56914E-05-2.95486E-05-9.92223E-06-2.09079E-19 9.20314E-19
 -1      2788 9.66420E-05-2.68497E-05-2.98956E-05-7.63065E-06 8.38901E-19 1.55854E-18
 -1      2789 9.63027E-05-2.68547E-05-2.97728E-05-6.90183E-06 4.32613E-19 2.12559E-18
 -1      2790 9.47670E-05-2.57750E-05-2.95647E-05-8.21937E-06 6.67893E-19 3.89134E-19
 -1      2791 9.63875E-05-2.70211E-05-2.97147E-05-6.20095E-06-6.77696E-19 1.44863E-18
 -1      2792 9.61132E-05-2.70785E-05-2.95945E-05-5.56004E-06-1.04191E-18 8.18305E-19
 -1      2793 9.49487E-05-2.60969E-05-2.95046E-05-6.71547E-06-4.75681E-19 1.11019E-18
 -1      2794 9.61745E-05-2.72485E-05-2.95276E-05-4.96304E-06-8.19098E-19 1.24228E-18
 -1      2795 9.59449E-05-2.73179E-05-2.94182E-05-4.41692E-06 2.39310E-19 2.27428E-18
 -1      2796 9.51017E-05-2.64863E-05-2.94042E-05-5.41578E-06-4.80017E-19 9.74594E-19
 -1      2797 9.59781E-05-2.74658E-05-2.93521E-05-3.91586E-06 1.46703E-18 2.89706E-18
 -1      2798 9.57832E-05-2.75272E-05-2.92577E-05-3.45829E-06 2.16324E-18 2.62448E-18
 -1      2799 9.52012E-05-2.68561E-05-2.92895E-05-4.31165E-06 9.94112E-19 3.34783E-18
 -1      2800 9.57919E-05-2.76431E-05-2.91981E-05-3.04121E-06 1.49512E-18 2.46492E-18
 -1      2801 9.56255E-05-2.76868E-05-2.91202E-05-2.65986E-06 1.61143E-18 1.55541E-18
 -1      2802 9.52478E-05-2.71670E-05-2.91772E-05-3.38327E-06 1.31647E-18 3.40453E-18
 -1      2803 9.56100E-05-2.77647E-05-2.90700E-05-2.31172E-06 1.45431E-18 2.58113E-19
 -1      2804 9.54682E-05-2.77863E-05-2.90085E-05-1.99018E-06 5.19478E-19-2.54170E-19
 -1      2805 9.52465E-05-2.74013E-05-2.90773E-05-2.61290E-06 2.91705E-19 1.65830E-18
 -1      2806 9.45557E-05-2.80488E-05-2.85011E-05-1.14184E-06 1.09392E-18 2.00680E-19
 -1      2807 9.45455E-05-2.79292E-05-2.85389E-05-9.21687E-07 1.21662E-18 3.61250E-19
 -1      2808 9.45960E-05-2.77900E-05-2.86307E-05-6.05480E-07 1.35503E-18 1.70202E-19
 -1      2809 9.46626E-05-2.76083E-05-2.87201E-05-2.31346E-07 1.44565E-18 2.70269E-19
 -1      2810 9.50460E-05-2.78182E-05-2.88206E-05-6.58534E-07 1.31675E-18-1.11712E-19
 -1      2811 9.47221E-05-2.83066E-05-2.84601E-05-1.66802E-06 4.90501E-19 1.83311E-19
 -1      2812 9.46131E-05-2.82511E-05-2.84381E-05-1.58440E-06 6.68010E-19 2.13274E-19
 -1      2813 9.48940E-05-2.83606E-05-2.85099E-05-1.82430E-06 8.52963E-19-2.28924E-19
 -1      2814 9.47539E-05-2.83226E-05-2.84699E-05-1.75566E-06 6.38124E-19 2.47657E-20
 -1      2815 9.50398E-05-2.83576E-05-2.85822E-05-1.79687E-06 8.16390E-19-4.95275E-19
 -1      2816 9.51123E-05-2.83875E-05-2.85913E-05-1.98248E-06 9.88049E-19-4.88080E-20
 -1      2817 9.49455E-05-2.83599E-05-2.85374E-05-1.90704E-06 8.59122E-19-1.20647E-19
 -1      2818 9.51270E-05-2.83776E-05-2.86102E-05-1.98643E-06 9.47030E-19-5.53315E-19
 -1      2819 9.53761E-05-2.84013E-05-2.86978E-05-2.17707E-06 8.83676E-19-1.15373E-19
 -1      2820 9.51825E-05-2.83772E-05-2.86324E-05-2.08026E-06 1.09038E-18 2.02724E-19
 -1      2821 9.52504E-05-2.83598E-05-2.86702E-05-2.18327E-06 9.76065E-19-2.62875E-19
 -1      2822 9.56908E-05-2.84173E-05-2.88252E-05-2.42945E-06 6.01594E-19-3.78021E-20
 -1      2823 9.54668E-05-2.83887E-05-2.87497E-05-2.30305E-06 8.52133E-19-5.85178E-20
 -1      2824 9.54113E-05-2.83227E-05-2.87549E-05-2.42253E-06 9.71126E-19-1.60846E-19
 -1      2825 9.60672E-05-2.84540E-05-2.89705E-05-2.74780E-06 1.74225E-19-3.23597E-19
 -1      2826 9.58065E-05-2.84110E-05-2.88856E-05-2.59028E-06 5.42239E-19-7.98832E-20
 -1      2827 9.56166E-05-2.82865E-05-2.88584E-05-2.72552E-06 6.41744E-19 4.83084E-19
 -1      2828 9.65216E-05-2.85364E-05-2.91300E-05-3.12524E-06 1.90507E-19-1.56280E-19
 -1      2829 9.62161E-05-2.84660E-05-2.90372E-05-2.94303E-06 4.98577E-20-3.47751E-19
 -1      2830 9.58795E-05-2.82761E-05-2.89759E-05-3.09949E-06 4.55558E-19 1.87300E-19
 -1      2831 9.70762E-05-2.86973E-05-2.92996E-05-3.53596E-06 7.80182E-19-4.32467E-19
 -1      2832 9.67165E-05-2.85826E-05-2.92007E-05-3.34564E-06 4.07095E-19-1.43619E-19
 -1      2833 9.62215E-05-2.83248E-05-2.91023E-05-3.53547E-06 3.69864E-19 3.42168E-19
 -1      2834 9.77595E-05-2.89805E-05-2.94730E-05-3.92956E-06 5.18403E-20 5.24965E-19
 -1      2835 9.73358E-05-2.88000E-05-2.93713E-05-3.76086E-06 6.32038E-19-6.08095E-20
 -1      2836 9.66741E-05-2.84778E-05-2.92318E-05-4.00428E-06 3.42514E-19 1.08373E-19
 -1      2837 9.86060E-05-2.94395E-05-2.96424E-05-4.22438E-06-7.19527E-19 8.75881E-19
 -1      2838 9.81094E-05-2.91683E-05-2.95424E-05-4.12328E-06-2.23555E-19 7.31219E-19
 -1      2839 9.72818E-05-2.87949E-05-2.93579E-05-4.45035E-06-3.15601E-19 5.52501E-19
 -1      2840 9.96532E-05-3.01327E-05-2.97994E-05-4.30160E-06-6.33786E-19 8.87751E-19
 -1      2841 9.90791E-05-2.97464E-05-2.97065E-05-4.33232E-06-8.03710E-19 7.98025E-19
 -1      2842 9.81034E-05-2.93497E-05-2.94747E-05-4.78440E-06-6.83782E-19 4.65705E-19
 -1      2843 1.00932E-04-3.11066E-05-2.99377E-05-4.00364E-06-5.03289E-19 1.00424E-18
 -1      2844 1.00286E-04-3.05916E-05-2.98570E-05-4.24694E-06-5.22995E-19 8.26938E-19
 -1      2845 9.92097E-05-3.02204E-05-2.95788E-05-4.87619E-06-5.27994E-19 7.31515E-19
 -1      2846 1.02446E-04-3.23601E-05-3.00585E-05-3.14448E-06-8.05874E-19 9.92885E-19
 -1      2847 1.01756E-04-3.17340E-05-2.99920E-05-3.68769E-06-2.58366E-19 1.48280E-18
 -1      2848 1.00670E-04-3.14655E-05-2.96744E-05-4.55031E-06-6.91264E-19 1.04782E-18
 -1      2849 1.04124E-04-3.37845E-05-3.01771E-05-1.54576E-06-2.93259E-19 5.59572E-19
 -1      2850 1.03459E-04-3.31271E-05-3.01206E-05-2.45720E-06-6.46430E-19 7.24245E-19
 -1      2851 1.02518E-04-3.30727E-05-2.97796E-05-3.59381E-06-1.99542E-19 1.22244E-18
 -1      2852 1.05764E-04-3.50838E-05-3.03300E-05 8.81968E-07-5.62251E-20 7.39466E-19
 -1      2853 1.05254E-04-3.45739E-05-3.02700E-05-3.98470E-07-1.05575E-19 7.85959E-19
 -1      2854 1.04686E-04-3.48728E-05-2.99350E-05-1.79357E-06-3.87519E-19 4.67662E-19
 -1      2855 1.06982E-04-3.57217E-05-3.05739E-05 3.99491E-06-5.17714E-19 4.75536E-19
 -1      2856 1.06814E-04-3.56485E-05-3.04880E-05 2.48564E-06-6.29872E-19 8.46250E-19
 -1      2857 1.06912E-04-3.64386E-05-3.02070E-05 9.67443E-07-4.98864E-19 9.36778E-19
 -1      2858 1.07240E-04-3.50043E-05-3.09691E-05 7.20746E-06-1.73443E-19 6.39031E-19
 -1      2859 1.07605E-04-3.56856E-05-3.08337E-05 5.83236E-06-1.06241E-19 5.15129E-19
 -1      2860 1.08644E-04-3.70190E-05-3.06783E-05 4.51756E-06-3.29691E-19 8.07504E-19
 -1      2861 1.06117E-04-3.24711E-05-3.15346E-05 9.38494E-06 1.12301E-19 1.08276E-18
 -1      2862 1.07059E-04-3.40261E-05-3.13459E-05 8.71466E-06 3.79127E-19 1.11837E-18
 -1      2863 1.09123E-04-3.57324E-05-3.14118E-05 8.10410E-06-1.24906E-19 1.76111E-18
 -1      2864 1.03794E-04-2.85398E-05-3.21882E-05 9.11147E-06-2.61240E-20 1.26608E-18
 -1      2865 1.05036E-04-3.05784E-05-3.19815E-05 9.71677E-06 1.01239E-19 9.47183E-19
 -1      2866 1.07816E-04-3.21887E-05-3.23721E-05 1.02514E-05-9.98912E-20 1.20619E-18
 -1      2867 1.01303E-04-2.47560E-05-3.27480E-05 5.62973E-06-5.18543E-20 1.16646E-18
 -1      2868 1.02304E-04-2.64066E-05-3.25920E-05 7.66379E-06-2.88459E-19 1.32396E-18
 -1      2869 1.05143E-04-2.72551E-05-3.33717E-05 9.34063E-06-5.36592E-20 9.87999E-19
 -1      2870 1.00247E-04-2.32810E-05-3.29776E-05-2.32937E-07 2.87012E-19 9.84682E-19
 -1      2871 1.00434E-04-2.35849E-05-3.29508E-05 2.58319E-06 4.07678E-19 1.36115E-18
 -1      2872 1.02648E-04-2.31965E-05-3.40917E-05 4.64436E-06 2.69674E-19 1.61533E-18
 -1      2873 1.01405E-04-2.50681E-05-3.27639E-05-6.02839E-06 1.20780E-18 6.91424E-20
 -1      2874 1.00664E-04-2.38373E-05-3.28797E-05-3.58192E-06 6.13695E-19 6.88020E-20
 -1      2875 1.02162E-04-2.24341E-05-3.42159E-05-2.16451E-06 1.09868E-18 6.16618E-19
 -1      2876 1.04010E-04-2.89917E-05-3.22231E-05-9.32708E-06 1.85723E-18-1.27169E-19
 -1      2877 1.02788E-04-2.69799E-05-3.24193E-05-8.16108E-06 2.20123E-18 2.13406E-19
 -1      2878 1.04065E-04-2.54673E-05-3.36900E-05-7.97371E-06 1.74508E-18-3.82488E-21
 -1      2879 1.06454E-04-3.29142E-05-3.15745E-05-9.38304E-06 6.54168E-19-9.56689E-19
 -1      2880 1.05344E-04-3.10962E-05-3.17762E-05-9.62879E-06 1.56080E-18-7.48928E-19
 -1      2881 1.06901E-04-3.03882E-05-3.27575E-05-1.03270E-05 2.12494E-18-5.86201E-19
 -1      2882 1.07579E-04-3.52859E-05-3.10060E-05-7.02322E-06-9.60416E-19-5.25715E-19
 -1      2883 1.06990E-04-3.42722E-05-3.11622E-05-8.20926E-06-5.75030E-19-9.06326E-19
 -1      2884 1.08854E-04-3.46586E-05-3.17531E-05-9.16708E-06 1.11212E-19-1.55339E-18
 -1      2885 1.07231E-04-3.58185E-05-3.06000E-05-3.71368E-06 7.93382E-20-1.22507E-19
 -1      2886 1.07217E-04-3.56430E-05-3.07020E-05-5.22682E-06-5.96831E-19-2.87229E-19
 -1      2887 1.09013E-04-3.67917E-05-3.09229E-05-5.90939E-06-9.97745E-19-1.69797E-18
 -1      2888 1.05890E-04-3.50461E-05-3.03422E-05-5.92404E-07 9.33606E-20-5.72107E-20
 -1      2889 1.06295E-04-3.54314E-05-3.04084E-05-1.98410E-06 2.39093E-19-1.71064E-19
 -1      2890 1.07660E-04-3.68135E-05-3.03584E-05-2.22507E-06 2.51182E-20-1.37883E-18
 -1      2891 1.04134E-04-3.36707E-05-3.01759E-05 1.78277E-06 1.02947E-18-6.60963E-19
 -1      2892 1.04758E-04-3.43024E-05-3.02304E-05 7.30828E-07 1.27978E-18 2.68299E-19
 -1      2893 1.05540E-04-3.55135E-05-3.00233E-05 8.70470E-07 9.25637E-19-8.36451E-19
 -1      2894 1.02374E-04-3.22170E-05-3.00476E-05 3.29615E-06 7.95797E-19-8.82533E-19
 -1      2895 1.03063E-04-3.28721E-05-3.01074E-05 2.62777E-06 8.11958E-19-8.20230E-19
 -1      2896 1.03304E-04-3.37268E-05-2.98362E-05 3.01698E-06 9.26624E-19-7.55416E-20
 -1      2897 1.00816E-04-3.09620E-05-2.99227E-05 4.06226E-06 4.74367E-21-9.59851E-19
 -1      2898 1.01479E-04-3.15267E-05-2.99951E-05 3.72765E-06 2.47711E-19-7.92316E-19
 -1      2899 1.01322E-04-3.20063E-05-2.97232E-05 4.24829E-06 3.06843E-19 4.98499E-19
 -1      2900 9.95223E-05-2.99977E-05-2.97866E-05 4.27155E-06-2.00184E-18 2.24638E-19
 -1      2901 1.00117E-04-3.04357E-05-2.98710E-05 4.18753E-06-1.08516E-18-2.48869E-19
 -1      2902 9.97219E-05-3.06071E-05-2.96341E-05 4.75771E-06-1.10138E-18 5.82794E-19
 -1      2903 9.84837E-05-2.93141E-05-2.96383E-05 4.11084E-06-1.27332E-18 7.07230E-19
 -1      2904 9.89978E-05-2.96310E-05-2.97301E-05 4.19397E-06-1.90263E-18-1.62949E-19
 -1      2905 9.84973E-05-2.95864E-05-2.95434E-05 4.76272E-06-1.94684E-18 3.46596E-19
 -1      2906 9.76628E-05-2.88592E-05-2.94841E-05 3.73242E-06 4.34452E-19 4.62750E-19
 -1      2907 9.80970E-05-2.90772E-05-2.95774E-05 3.91375E-06 8.57744E-20 1.05325E-18
 -1      2908 9.75863E-05-2.89028E-05-2.94433E-05 4.45094E-06-1.08032E-18-1.03992E-19
 -1      2909 9.70177E-05-2.85714E-05-2.93326E-05 3.24703E-06-4.94363E-20 1.06832E-18
 -1      2910 9.73787E-05-2.87166E-05-2.94218E-05 3.47628E-06 1.36806E-19 9.27476E-19
 -1      2911 9.69164E-05-2.84796E-05-2.93356E-05 3.96535E-06 5.63208E-20 5.04890E-19
 -1      2912 9.65099E-05-2.83946E-05-2.91916E-05 2.72725E-06 1.21321E-18-9.57254E-20
 -1      2913 9.68068E-05-2.84909E-05-2.92724E-05 2.97178E-06 6.51979E-19 6.71685E-19
 -1      2914 9.64227E-05-2.82379E-05-2.92263E-05 3.40543E-06 8.92001E-19 4.89250E-19
 -1      2915 9.61076E-05-2.82836E-05-2.90669E-05 2.21425E-06 3.71316E-19 7.75991E-19
 -1      2916 9.63494E-05-2.83500E-05-2.91367E-05 2.45584E-06 1.05888E-18 6.85919E-19
 -1      2917 9.60532E-05-2.81093E-05-2.91221E-05 2.83372E-06 7.42971E-19-5.69933E-19
 -1      2918 9.57888E-05-2.82067E-05-2.89615E-05 1.72722E-06 4.10390E-19 1.56346E-18
 -1      2919 9.59811E-05-2.82568E-05-2.90192E-05 1.95587E-06 4.34389E-19 1.16079E-18
 -1      2920 9.57665E-05-2.80402E-05-2.90282E-05 2.28363E-06 1.75545E-19 1.14841E-18
 -1      2921 9.55143E-05-2.81057E-05-2.88864E-05 1.34769E-06 5.11536E-19 2.29479E-18
 -1      2922 9.56660E-05-2.81453E-05-2.89323E-05 1.56978E-06 6.96630E-19 1.30626E-18
 -1      2923 9.55140E-05-2.79598E-05-2.89570E-05 1.84519E-06 3.47979E-19 4.53636E-19
 -1      2924 9.53034E-05-2.78549E-05-2.89115E-05 1.50608E-06 7.52231E-19 8.22430E-19
 -1      2925 9.37869E-05-2.61430E-05-2.89952E-05 2.90678E-07-6.35832E-19-8.25815E-19
 -1      2926 9.38463E-05-2.62048E-05-2.89901E-05 5.60417E-07 1.10568E-19-2.85423E-20
 -1      2927 9.54632E-05-2.78282E-05-2.89803E-05-1.78528E-06 9.23861E-19-9.38750E-19
 -1      2928 9.53784E-05-2.78372E-05-2.89454E-05-1.59178E-06 6.77203E-19-1.12339E-20
 -1      2929 9.52189E-05-2.75388E-05-2.90055E-05-2.05607E-06 4.98408E-19-8.92072E-19
 -1      2930 9.42245E-05-2.66330E-05-2.89739E-05 1.28512E-06-6.19678E-20 1.25383E-18
 -1      2931 9.43895E-05-2.68075E-05-2.89610E-05 1.43094E-06 8.60692E-20 8.02332E-19
 -1      2932 9.37693E-05-2.61142E-05-2.89984E-05-3.21112E-07-7.79250E-19 1.04141E-18
 -1      2933 9.37570E-05-2.61018E-05-2.89981E-05-3.67877E-08-4.34294E-19 2.99625E-21
 -1      2934 9.35527E-05-2.59698E-05-2.89584E-05 1.58737E-07-5.20602E-21-8.82731E-19
 -1      2935 9.39473E-05-2.63249E-05-2.89869E-05 8.48740E-07 2.05911E-19 2.58012E-18
 -1      2936 9.40677E-05-2.64508E-05-2.89775E-05 1.06977E-06 6.04986E-19 2.33471E-18
 -1      2937 9.40010E-05-2.64422E-05-2.89502E-05 1.33139E-06 1.04848E-18 1.87893E-18
 -1      2938 9.37041E-05-2.61346E-05-2.89535E-05 8.04147E-07 4.91941E-19 8.96548E-19
 -1      2939 9.39042E-05-2.62475E-05-2.89969E-05-8.96804E-07-9.32036E-20-3.79592E-18
 -1      2940 9.38183E-05-2.61608E-05-2.90010E-05-6.41001E-07-7.16372E-19-4.57131E-20
 -1      2941 9.35743E-05-2.59748E-05-2.89652E-05-5.21286E-07-7.31074E-19 7.49541E-20
 -1      2942 9.41906E-05-2.65412E-05-2.89910E-05-1.37335E-06 3.57964E-19-1.11929E-18
 -1      2943 9.40336E-05-2.63841E-05-2.89992E-05-1.17525E-06-3.00227E-20-3.89734E-18
 -1      2944 9.37786E-05-2.61595E-05-2.89738E-05-1.15245E-06-1.01759E-18-3.59201E-18
 -1      2945 9.46013E-05-2.69662E-05-2.89813E-05-1.67323E-06-7.82828E-20-5.23177E-19
 -1      2946 9.43850E-05-2.67552E-05-2.89925E-05-1.56035E-06 3.22899E-19 5.02687E-19
 -1      2947 9.41574E-05-2.65177E-05-2.89835E-05-1.64734E-06-6.88933E-19-1.12291E-18
 -1      2948 9.47410E-05-2.73679E-05-2.88755E-05 2.85274E-07 1.58202E-18 1.72002E-19
 -1      2949 9.49052E-05-2.70806E-05-2.90413E-05 9.09573E-07 1.63944E-18 3.94207E-19
 -1      2950 9.52605E-05-2.64522E-05-2.94941E-05 1.65187E-06 1.87399E-18-3.26049E-19
 -1      2951 9.51477E-05-2.73090E-05-2.90816E-05 2.42555E-07 1.51560E-18-4.00107E-19
 -1      2952 1.35681E-04-1.80183E-05-5.10438E-05-1.06036E-05-3.55881E-18-3.76464E-18
 -1      2953 1.38449E-04-2.88018E-05-4.77237E-05 1.55779E-05-2.14426E-18-4.71734E-18
 -1      2954 6.72918E-05-3.40916E-05-1.38150E-05-3.52837E-05 2.71199E-18 2.19445E-18
 -1      2955 8.29159E-05-4.49084E-05-1.60202E-05-3.88032E-05 3.87158E-18 2.88997E-18
 -1      2956 1.41779E-04-5.90617E-05-3.59750E-05 3.25377E-06-1.39210E-18 1.07700E-18
 -1      2957 1.34127E-04-6.11709E-05-3.10288E-05 1.29817E-05-2.76450E-19 8.97537E-19
 -1      2958 1.46443E-04-4.31517E-05-4.47840E-05-1.19745E-05-2.47217E-18-3.21873E-19
 -1      2959 1.45686E-04-5.25319E-05-4.00119E-05-6.20407E-06-2.01493E-18 4.72644E-19
 -1      2960 1.41568E-04-5.55510E-05-3.69362E-05-3.99533E-06-1.08114E-18 8.28716E-19
 -1      2961 9.46044E-05-2.82096E-05-2.84520E-05-1.46379E-06 8.02236E-19 1.29351E-19
 -1      2962 9.45367E-05-2.81285E-05-2.84546E-05-1.33412E-06 1.09166E-18 2.33628E-19
 -1      2963 9.49915E-05-2.81133E-05-2.86691E-05-1.21670E-06 1.05005E-18 1.29792E-19
 -1      2964 9.49923E-05-2.82789E-05-2.85968E-05-1.56380E-06 7.55210E-19 1.08390E-19
 -1      2965 9.51995E-05-2.39513E-05-3.05259E-05-5.26967E-06-1.97271E-18-2.30570E-18
 -1      2966 9.51571E-05-2.49687E-05-3.00986E-05-3.74861E-06-1.79995E-18-2.15888E-18
 -1      2967 9.52230E-05-2.46647E-05-3.02388E-05-3.47545E-06-1.68525E-18-2.32129E-18
 -1      2968 9.12059E-05-1.60529E-05-3.22364E-05 4.89084E-06 2.68775E-18-2.54793E-18
 -1      2969 9.08668E-05-1.55513E-05-3.23000E-05 3.97153E-06 2.30967E-18-2.90189E-18
 -1      2970 9.18391E-05-1.71454E-05-3.19959E-05 3.17133E-06 2.09701E-18-2.78283E-18
 -1      2971 9.25055E-05-1.82167E-05-3.18176E-05 4.58027E-06 2.56642E-18-2.10133E-18
 -1      2972 9.51916E-05-2.76248E-05-2.89544E-05-1.65269E-06 3.75100E-19-2.20746E-19
 -1      2973 9.28521E-05-1.79944E-05-3.20816E-05-8.79210E-06-2.07269E-18-3.33439E-18
 -1      2974 9.08352E-05-1.55064E-05-3.23054E-05-3.90402E-06-4.06106E-19-3.90850E-18
 -1      2975 9.11653E-05-1.59931E-05-3.22433E-05-4.83334E-06-7.34540E-19-3.99460E-18
 -1      2976 3.22844E-05-1.25582E-05-7.97173E-06 1.03282E-05-1.98926E-18-1.81900E-19
 -1      2977 3.22272E-05-1.20774E-05-8.18913E-06-4.08736E-06-1.57890E-18-1.22206E-18
 -1      2978 1.29463E-04-1.34536E-05-5.01932E-05 8.60333E-06 4.04734E-18 1.62567E-18
 -1      2979 1.26970E-04-8.75712E-06-5.13474E-05 3.55341E-06 4.53523E-18 9.49405E-19
 -1      2980 5.71186E-05-2.89783E-05-1.17795E-05 3.36100E-05 1.25859E-18-2.63681E-18
 -1      2981 4.34544E-05-1.97178E-05-9.63321E-06 2.40512E-05 4.86462E-19-4.32622E-18
 -1      2982 1.34407E-04-3.17120E-05-4.43926E-05 9.83334E-06 1.32825E-18 2.46254E-18
 -1      2983 1.32827E-04-2.18677E-05-4.81688E-05 1.05937E-05 3.12110E-18 2.14935E-18
 -1      2984 1.37817E-04-5.18390E-05-3.68777E-05-4.56088E-06-3.69154E-19 2.86435E-18
 -1      2985 1.37746E-04-4.41017E-05-4.06321E-05 3.85436E-06-7.72388E-20 2.90786E-18
 -1      2986 1.23593E-04-5.77941E-05-2.81132E-05-2.35737E-05-1.89111E-18 6.45969E-19
 -1      2987 1.33158E-04-5.65404E-05-3.31564E-05-1.44619E-05-5.12614E-19 2.05893E-18
 -1      2988 1.33344E-04-5.46426E-05-3.37848E-05-6.87003E-06-5.85114E-19 2.59229E-18
 -1      2989 5.72578E-05-2.86718E-05-1.16588E-05-3.60732E-05-2.66487E-18-4.04363E-18
 -1      2990 7.12957E-05-3.68466E-05-1.45435E-05-4.02230E-05-3.09252E-18-3.50947E-18
 -1      2991 1.22052E-04-6.06009E-05-2.66291E-05 2.50576E-05 5.33419E-19-8.08652E-20
 -1      2992 1.06103E-04-5.43956E-05-2.17363E-05 3.19146E-05 1.41275E-18-6.19433E-19
 -1      2993 1.31155E-04-1.84717E-05-4.89062E-05-1.02114E-05 3.30999E-18-7.87529E-19
 -1      2994 1.32960E-04-2.88459E-05-4.49981E-05-1.06600E-05 1.97877E-18-1.21708E-18
 -1      2995 3.36836E-05-1.47847E-05-7.57490E-06-1.72230E-05-9.50292E-19-5.01761E-18
 -1      2996 4.32047E-05-2.07127E-05-9.30646E-06-2.94561E-05-1.87830E-18-4.77769E-18
 -1      2997 8.89746E-05-4.69614E-05-1.80131E-05 3.74991E-05 1.52265E-18-1.49464E-18
 -1      2998 7.32746E-05-3.80452E-05-1.45684E-05 3.64604E-05 1.34106E-18-2.03436E-18
 -1      2999 3.41110E-05-1.32893E-05-8.44436E-06 9.87668E-06 2.34337E-19-5.67406E-18
 -1      3000 3.07873E-05-1.20163E-05-7.45154E-06-5.01400E-06-3.60121E-19-6.05967E-18
 -1      3001 3.78486E-05-1.52209E-05-9.02259E-06-1.56784E-05-5.62350E-19-3.19776E-18
 -1      3002 4.87636E-05-2.14959E-05-1.13780E-05-2.63810E-05 1.11041E-18-3.09061E-19
 -1      3003 1.36069E-04-1.92728E-05-5.05551E-05 1.16134E-05-2.82824E-18-5.14043E-18
 -1      3004 1.30358E-04-6.04475E-05-2.99844E-05-1.41136E-05 3.34652E-18-2.05538E-18
 -1      3005 1.37266E-04-6.00991E-05-3.34534E-05-6.51198E-06 1.48342E-18-3.30671E-18
 -1      3006 9.15972E-05-1.66595E-05-3.21391E-05-5.54722E-06-9.50478E-19-3.92878E-18
 -1      3007 9.20679E-05-1.74133E-05-3.20414E-05-6.41775E-06-1.36334E-18-3.92176E-18
 -1      3008 9.24454E-05-1.81519E-05-3.18294E-05-4.52379E-06-8.10223E-19-3.64751E-18
 -1      3009 9.13151E-05-1.63268E-05-3.21263E-05 3.28080E-08 1.00721E-18-3.42203E-18
 -1      3010 9.02023E-05-1.45534E-05-3.24406E-05-3.78590E-07 1.00200E-18-3.70503E-18
 -1      3011 9.02583E-05-1.46328E-05-3.24301E-05-1.33207E-06 6.36197E-19-3.76535E-18
 -1      3012 9.43510E-05-2.14051E-05-3.12669E-05 7.19053E-06 3.10526E-18-1.99589E-19
 -1      3013 4.31901E-05-1.42938E-05-1.17822E-05 1.48555E-05-2.44401E-18-8.52856E-19
 -1      3014 1.36520E-04-4.17786E-05-4.12222E-05-6.06643E-06 1.72212E-19-8.01399E-19
 -1      3015 1.38243E-04-4.98811E-05-3.79190E-05 6.21677E-07-3.53451E-19-2.96250E-19
 -1      3016 1.21608E-04-9.61337E-06-4.84534E-05 1.11407E-06 4.19292E-18 7.91764E-19
 -1      3017 1.39171E-04-5.47696E-05-3.62551E-05 4.92724E-06 4.03982E-19-3.44425E-18
 -1      3018 9.49704E-05-2.73806E-05-2.89714E-05-1.67533E-06 6.76023E-19-8.93096E-19
 -1      3019 1.26122E-04-5.85730E-05-2.88093E-05 2.07422E-05-1.30348E-18 6.09070E-19
 -1      3020 1.18904E-04-5.66220E-05-2.65694E-05 2.49853E-05-1.12550E-18 2.40584E-19
 -1      3021 1.27246E-04-5.64335E-05-3.05032E-05 1.00810E-05 5.74738E-19-5.29363E-19
 -1      3022 1.33158E-04-5.58396E-05-3.30998E-05 7.19269E-07-5.73865E-20 1.61466E-21
 -1      3023 1.36444E-04-5.42794E-05-3.53454E-05-4.89182E-06-7.11111E-19 1.74330E-19
 -1      3024 1.39288E-04-4.98745E-05-3.87233E-05-1.23237E-05-1.22523E-18-1.93071E-19
 -1      3025 1.38650E-04-4.14817E-05-4.18734E-05-1.53063E-05-1.58395E-18-5.48666E-19
 -1      3026 9.44002E-05-2.68513E-05-2.89476E-05 1.68145E-06 5.31194E-19-2.21346E-19
 -1      3027 9.45819E-05-2.70288E-05-2.89568E-05 1.55037E-06 2.36715E-19-5.91648E-19
 -1      3028 9.47705E-05-2.72330E-05-2.89417E-05 1.60395E-06-4.46771E-20-1.69715E-18
 -1      3029 1.37592E-04-2.66662E-05-4.82059E-05-1.51020E-05-2.84582E-18-2.33696E-18
 -1      3030 6.91162E-05-3.22540E-05-1.55929E-05 3.56824E-05-9.91770E-19 1.39379E-18
 -1      3031 5.83427E-05-2.73137E-05-1.27362E-05 3.42537E-05-1.64642E-18 9.60112E-19
 -1      3032 5.77851E-05-2.27511E-05-1.46341E-05 2.88967E-05-1.68612E-18 9.23266E-19
 -1      3033 9.28795E-05-1.86165E-05-3.18240E-05-7.03174E-06-1.62102E-18-3.60339E-18
 -1      3034 9.42407E-05-2.09495E-05-3.14480E-05-7.70471E-06-2.17269E-18-2.84053E-18
 -1      3035 9.47443E-05-2.27544E-05-3.08573E-05-6.01263E-06-2.04148E-18-2.54940E-18
 -1      3036 9.35305E-05-2.00006E-05-3.14941E-05-5.70642E-06-1.38908E-18-3.47920E-18
 -1      3037 9.49455E-05-2.74370E-05-2.89369E-05 1.61170E-06-4.85849E-20-1.09959E-18
 -1      3038 9.51364E-05-2.76508E-05-2.89194E-05 1.57184E-06 4.75097E-19-5.31218E-20
 -1      3039 9.52251E-05-2.76947E-05-2.89372E-05 1.75106E-06 5.60229E-19 2.91245E-19
 -1      3040 9.48281E-05-2.72842E-05-2.89448E-05 1.81097E-06-3.29502E-20-1.01905E-18
 -1      3041 1.17824E-04-5.74683E-05-2.58061E-05-2.78165E-05-2.46402E-18 5.93188E-20
 -1      3042 1.22404E-04-5.70739E-05-2.82253E-05-1.95608E-05-2.14675E-18 1.31970E-18
 -1      3043 1.09546E-04-5.33575E-05-2.36735E-05-3.03029E-05-2.81818E-18-2.85530E-19
 -1      3044 1.25029E-04-1.85187E-05-4.60164E-05 1.09230E-05 2.86223E-18 1.50677E-18
 -1      3045 9.47885E-05-2.71593E-05-2.89852E-05-1.88087E-06-1.97272E-19-5.87037E-19
 -1      3046 9.26558E-05-4.81320E-05-1.86726E-05 3.93273E-05-1.92382E-19 1.09082E-18
 -1      3047 8.53792E-05-4.26057E-05-1.79373E-05 3.85306E-05 1.66654E-19 8.78426E-19
 -1      3048 1.03147E-04-5.17286E-05-2.20952E-05 3.36842E-05-2.38546E-19-4.62056E-19
 -1      3049 7.94677E-05-3.70122E-05-1.78583E-05-3.57936E-05-3.39020E-18-2.72109E-18
 -1      3050 8.35448E-05-4.21491E-05-1.72680E-05-3.86746E-05-3.56971E-18-2.91649E-18
 -1      3051 9.48255E-05-4.71130E-05-2.05430E-05-3.56347E-05-3.25509E-18-1.64917E-18
 -1      3052 4.20191E-05-1.33024E-05-1.16805E-05-8.33261E-06-6.51898E-19-3.11909E-18
 -1      3053 4.26737E-05-1.57057E-05-1.09530E-05 1.64434E-05 5.83209E-19-4.35703E-18
 -1      3054 4.42976E-05-1.26171E-05-1.31629E-05 8.70802E-06 1.67157E-19-4.71924E-18
 -1      3055 5.22098E-05-1.87793E-05-1.41892E-05 2.13133E-05 8.53386E-19-2.91263E-18
 -1      3056 1.00994E-04-4.99118E-05-2.15934E-05 3.12856E-05 1.85236E-18-9.20460E-19
 -1      3057 3.98541E-05-1.31525E-05-1.08113E-05-1.04767E-05-4.03122E-19-5.21815E-18
 -1      3058 1.24569E-04-1.59687E-05-4.69473E-05-9.82937E-06 2.97669E-18-6.91549E-19
 -1      3059 6.09055E-05-2.73554E-05-1.37769E-05-3.11293E-05 1.69248E-18 1.39030E-18
 -1      3060 7.43909E-05-3.40838E-05-1.71516E-05-3.25744E-05 2.01049E-18 2.07989E-18
 -1      3061 5.75946E-05-2.23733E-05-1.47363E-05-2.53264E-05 3.17108E-19-3.47813E-19
 -1      3062 1.27968E-04-5.99064E-05-2.91375E-05 1.58068E-05 6.68097E-19 1.19220E-19
 -1      3063 9.03851E-05-1.48298E-05-3.24013E-05-2.15970E-06 3.55827E-19-3.65327E-18
 -1      3064 9.05679E-05-1.50941E-05-3.23673E-05-3.10994E-06-7.56952E-20-3.71456E-18
 -1      3065 9.17964E-05-1.71047E-05-3.20028E-05-3.10166E-06-2.69029E-19-3.51180E-18
 -1      3066 9.14274E-05-1.65114E-05-3.20973E-05-1.55700E-06 4.38312E-19-3.40158E-18
 -1      3067 9.46161E-05-2.24394E-05-3.09251E-05 5.65720E-06 2.81190E-18-5.27362E-19
 -1      3068 1.33175E-04-3.56344E-05-4.21674E-05-1.05711E-05 6.72385E-19-1.47765E-18
 -1      3069 1.30909E-04-4.03818E-05-3.90050E-05-8.59822E-06-1.60063E-19-1.63371E-18
 -1      3070 1.25821E-04-2.81472E-05-4.23877E-05-1.31785E-05 1.37399E-18-1.42667E-18
 -1      3071 1.32376E-04-5.60234E-05-3.30826E-05 1.24756E-05-1.09145E-18 9.14901E-19
 -1      3072 1.41107E-04-3.55905E-05-4.57179E-05-1.70030E-05-2.34628E-18-1.05964E-18
 -1      3073 1.34634E-04-3.89594E-05-4.14025E-05 9.06220E-06 1.16467E-19 2.50510E-18
 -1      3074 1.27244E-04-3.19150E-05-4.13863E-05 1.26740E-05 8.27922E-19 1.72821E-18
 -1      3075 1.32086E-04-4.34437E-05-3.80094E-05 6.87966E-06 1.61624E-19 2.42426E-18
 -1      3076 7.02244E-05-3.26462E-05-1.55687E-05 3.24349E-05 1.72202E-18-2.33612E-18
 -1      3077 9.60896E-05-5.12377E-05-1.88453E-05-3.62902E-05 4.02743E-18 1.96596E-18
 -1      3078 1.16056E-04-5.83867E-05-2.47771E-05-2.78758E-05 4.41696E-18 5.20727E-19
 -1      3079 9.45968E-05-2.23888E-05-3.09270E-05-5.43202E-06-1.71348E-18-2.83846E-18
 -1      3080 5.56998E-05-2.39150E-05-1.30764E-05-3.03708E-05-2.07089E-18-4.54433E-18
 -1      3081 9.57565E-05-4.80951E-05-1.99679E-05-3.34367E-05 3.26881E-18 1.96956E-18
 -1      3082 5.04092E-05-1.57417E-05-1.45712E-05 1.86683E-05-2.18623E-18-1.15133E-18
 -1      3083 4.50552E-05-1.19892E-05-1.37945E-05 8.03011E-06-2.25318E-18-7.24213E-19
 -1      3084 9.42859E-05-2.18113E-05-3.10822E-05 4.92909E-06 2.78744E-18-1.13040E-18
 -1      3085 9.38337E-05-2.08642E-05-3.12730E-05 4.57919E-06 2.65623E-18-1.53815E-18
 -1      3086 1.16544E-04-1.04537E-05-4.58456E-05 4.08216E-06 3.46436E-18 6.29756E-19
 -1      3087 1.17012E-04-1.00202E-05-4.63075E-05-2.62791E-06 3.93436E-18-3.80887E-19
 -1      3088 1.18014E-04-5.43118E-05-2.69263E-05 1.96354E-05 1.57993E-18-1.00074E-18
 -1      3089 9.56886E-05-2.67709E-05-2.95217E-05-5.94975E-07-1.09831E-18-1.89508E-18
 -1      3090 9.56685E-05-2.71993E-05-2.93512E-05-3.41395E-08-9.65221E-19-1.84653E-18
 -1      3091 9.57026E-05-2.75553E-05-2.91957E-05 3.87360E-07-8.99428E-19-1.63684E-18
 -1      3092 9.56705E-05-2.78128E-05-2.90852E-05 7.54027E-07-8.46029E-19-1.66254E-18
 -1      3093 9.58842E-05-2.71550E-05-2.94585E-05 4.89015E-08-8.50079E-19-2.13100E-18
 -1      3094 9.56487E-05-2.80119E-05-2.89804E-05 1.03493E-06-7.88450E-19-1.59722E-18
 -1      3095 9.56224E-05-2.81552E-05-2.89151E-05 1.27377E-06-6.27948E-19-1.62413E-18
 -1      3096 9.59007E-05-2.77997E-05-2.91897E-05 7.87168E-07-7.43186E-19-1.80803E-18
 -1      3097 9.55697E-05-2.82453E-05-2.88496E-05 1.46285E-06-4.89771E-19-1.48109E-18
 -1      3098 9.55535E-05-2.83073E-05-2.88184E-05 1.62744E-06-5.78784E-19-1.36068E-18
 -1      3099 9.58321E-05-2.81475E-05-2.90110E-05 1.28599E-06-5.26194E-19-1.88219E-18
 -1      3100 9.54816E-05-2.83176E-05-2.87835E-05 1.76710E-06-4.53530E-19-1.09410E-18
 -1      3101 9.54744E-05-2.83184E-05-2.87783E-05 1.89935E-06-1.91109E-19-9.05523E-19
 -1      3102 9.57131E-05-2.82801E-05-2.89025E-05 1.63734E-06-2.86689E-19-1.35899E-18
 -1      3103 9.53869E-05-2.82668E-05-2.87668E-05 2.02396E-06-2.03586E-19-9.28000E-19
 -1      3104 9.53857E-05-2.82188E-05-2.87818E-05 2.15672E-06-1.44988E-19-8.78970E-19
 -1      3105 9.55585E-05-2.82497E-05-2.88485E-05 1.91871E-06-3.10862E-19-1.05137E-18
 -1      3106 9.52814E-05-2.81156E-05-2.87883E-05 2.29378E-06-2.76488E-19-6.57953E-19
 -1      3107 9.52824E-05-2.80259E-05-2.88193E-05 2.45320E-06-3.51229E-19-6.03458E-19
 -1      3108 9.53711E-05-2.80889E-05-2.88361E-05 2.19254E-06-1.52113E-19-9.95667E-19
 -1      3109 9.51559E-05-2.78761E-05-2.88389E-05 2.62488E-06-5.14169E-19-2.27301E-19
 -1      3110 9.51545E-05-2.77485E-05-2.88826E-05 2.83225E-06-4.26053E-19-3.51196E-19
 -1      3111 9.51445E-05-2.78163E-05-2.88547E-05 2.50869E-06-1.99481E-19-3.87340E-19
 -1      3112 9.49971E-05-2.75533E-05-2.89109E-05 3.05662E-06-5.43623E-19-3.42294E-19
 -1      3113 9.49876E-05-2.73895E-05-2.89642E-05 3.32960E-06-5.09275E-19-1.88098E-19
 -1      3114 9.48651E-05-2.74408E-05-2.88945E-05 2.90704E-06-3.38702E-19-1.87622E-19
 -1      3115 9.47872E-05-2.71486E-05-2.89964E-05 3.62163E-06-5.82924E-19-3.34846E-19
 -1      3116 9.47630E-05-2.69501E-05-2.90556E-05 3.97484E-06-4.71639E-19-3.50657E-19
 -1      3117 9.45128E-05-2.69651E-05-2.89456E-05 3.41960E-06-5.68833E-19-4.92813E-19
 -1      3118 9.45046E-05-2.66634E-05-2.90854E-05 4.34713E-06-4.61570E-19-6.72189E-19
 -1      3119 9.44588E-05-2.64345E-05-2.91456E-05 4.79215E-06-3.86123E-19-1.15444E-18
 -1      3120 9.40610E-05-2.63905E-05-2.89960E-05 4.07221E-06-7.19638E-19-3.07788E-19
 -1      3121 9.41258E-05-2.61062E-05-2.91643E-05 5.25549E-06-4.37823E-19-8.83140E-19
 -1      3122 9.40535E-05-2.58589E-05-2.92179E-05 5.80032E-06-3.51829E-19-7.89421E-19
 -1      3123 9.34784E-05-2.57227E-05-2.90299E-05 4.88579E-06-3.79389E-19-8.75690E-19
 -1      3124 9.36310E-05-2.55034E-05-2.92132E-05 6.36521E-06-3.71408E-19-6.01164E-19
 -1      3125 9.35353E-05-2.52656E-05-2.92488E-05 7.01376E-06-5.62107E-19-6.69630E-19
 -1      3126 9.27333E-05-2.49814E-05-2.90251E-05 5.87860E-06-4.25212E-19-4.39884E-19
 -1      3127 9.30168E-05-2.49186E-05-2.92033E-05 7.69364E-06-5.89187E-19-7.59080E-19
 -1      3128 9.29217E-05-2.47491E-05-2.92046E-05 8.44547E-06-4.23798E-19-6.60044E-19
 -1      3129 9.18018E-05-2.42165E-05-2.89505E-05 7.07213E-06-7.17848E-19-8.07856E-19
 -1      3130 9.23235E-05-2.44844E-05-2.90946E-05 9.26287E-06-3.17831E-19-4.60649E-19
 -1      3131 9.22975E-05-2.44952E-05-2.90401E-05 1.01136E-05-2.80723E-19-6.49763E-19
 -1      3132 9.06884E-05-2.35347E-05-2.87632E-05 8.50262E-06-3.89133E-19-6.94526E-19
 -1      3133 9.16843E-05-2.44502E-05-2.88359E-05 1.11106E-05-8.80075E-20-4.88717E-19
 -1      3134 9.18817E-05-2.48398E-05-2.87026E-05 1.20525E-05 2.09633E-19-6.47077E-19
 -1      3135 8.94615E-05-2.31407E-05-2.84067E-05 1.02426E-05 2.25208E-20-8.65377E-19
 -1      3136 9.14115E-05-2.52506E-05-2.83712E-05 1.33045E-05 5.02808E-19-4.69316E-19
 -1      3137 9.21391E-05-2.63472E-05-2.81442E-05 1.43161E-05 1.57039E-18-8.53139E-19
 -1      3138 8.83169E-05-2.33963E-05-2.78136E-05 1.24343E-05 4.90223E-19 1.55855E-19
 -1      3139 9.21535E-05-2.75963E-05-2.76593E-05 1.59272E-05 1.85139E-18-1.69763E-18
 -1      3140 9.39273E-05-2.98938E-05-2.73600E-05 1.69329E-05 1.71745E-18-1.63712E-18
 -1      3141 8.76982E-05-2.49251E-05-2.69140E-05 1.53254E-05 1.15259E-18-2.59746E-19
 -1      3142 9.50809E-05-3.24440E-05-2.67468E-05 1.88612E-05 1.41332E-18-1.72067E-18
 -1      3143 9.85809E-05-3.65144E-05-2.64871E-05 1.96571E-05 1.69391E-18-1.76104E-18
 -1      3144 8.85725E-05-2.87951E-05-2.56749E-05 1.91935E-05 1.45016E-18-1.32657E-18
 -1      3145 1.03173E-04-4.16418E-05-2.61031E-05 2.11898E-05 1.99711E-18-1.85247E-18
 -1      3146 1.09160E-04-4.75942E-05-2.62719E-05 2.08025E-05 1.42233E-18-1.35724E-18
 -1      3147 1.06122E-04-4.95513E-05-2.43186E-05 2.63119E-05 1.82477E-18-1.04683E-18
 -1      3148 9.34335E-05-3.66950E-05-2.44371E-05 2.37381E-05 1.94472E-18-1.82223E-18
 -1      3149 9.49436E-05-2.34384E-05-3.06407E-05-4.06565E-06-1.39270E-18-2.79545E-18
 -1      3150 9.51705E-05-2.45382E-05-3.02876E-05-2.89735E-06-1.30322E-18-2.55317E-18
 -1      3151 1.09159E-04-4.69481E-05-2.65235E-05-2.02551E-05 1.58681E-18 1.12742E-18
 -1      3152 1.02915E-04-4.11102E-05-2.63037E-05-2.07565E-05 2.36075E-18 1.47622E-18
 -1      3153 9.95106E-05-3.67660E-05-2.67591E-05-1.91630E-05 2.64245E-18 9.03559E-19
 -1      3154 9.59497E-05-3.28053E-05-2.69940E-05-1.86037E-05 2.89617E-18 7.33153E-19
 -1      3155 9.49256E-05-3.69217E-05-2.48548E-05-2.36021E-05 2.58027E-18 2.79111E-18
 -1      3156 9.45628E-05-3.00672E-05-2.75571E-05-1.67745E-05 2.63099E-18 3.77856E-20
 -1      3157 9.28062E-05-2.77990E-05-2.78529E-05-1.57778E-05 1.70883E-18-5.09120E-19
 -1      3158 9.02893E-05-2.93461E-05-2.61069E-05-1.90497E-05 2.29938E-18-3.56164E-19
 -1      3159 9.26745E-05-2.65338E-05-2.82988E-05-1.42508E-05 4.26541E-19-8.79018E-19
 -1      3160 9.19567E-05-2.54398E-05-2.85206E-05-1.32325E-05-1.93937E-19-1.41578E-18
 -1      3161 8.90020E-05-2.54649E-05-2.72349E-05-1.52812E-05 2.70565E-19-2.14898E-18
 -1      3162 9.23265E-05-2.50064E-05-2.88242E-05-1.20100E-05-6.40415E-19-1.82936E-18
 -1      3163 9.21234E-05-2.46071E-05-2.89536E-05-1.10580E-05-9.04009E-19-1.93760E-18
 -1      3164 8.93135E-05-2.38365E-05-2.80539E-05-1.24906E-05-3.03210E-19-2.20611E-18
 -1      3165 9.26568E-05-2.46267E-05-2.91384E-05-1.00547E-05 7.91861E-19-1.44299E-18
 -1      3166 9.26711E-05-2.45993E-05-2.91912E-05-9.18885E-06 1.39341E-18-2.64502E-19
 -1      3167 9.02228E-05-2.34769E-05-2.85917E-05-1.03028E-05 4.32979E-19-1.59652E-18
 -1      3168 9.32029E-05-2.48347E-05-2.92883E-05-8.34729E-06 6.30540E-19 3.37286E-19
 -1      3169 9.32848E-05-2.49822E-05-2.92882E-05-7.57420E-06 4.12271E-19 2.53188E-20
 -1      3170 9.12690E-05-2.37782E-05-2.89102E-05-8.51792E-06 1.18478E-18-1.35292E-18
 -1      3171 9.37461E-05-2.52952E-05-2.93263E-05-6.85947E-06-5.41522E-19 1.29348E-19
 -1      3172 9.38289E-05-2.55062E-05-2.92945E-05-6.18175E-06-1.03418E-18-2.68409E-19
 -1      3173 9.22348E-05-2.43682E-05-2.90730E-05-7.01682E-06-9.60419E-21-1.37428E-19
 -1      3174 9.41998E-05-2.58221E-05-2.92964E-05-5.57398E-06 1.34371E-19 1.15485E-18
 -1      3175 9.42597E-05-2.60375E-05-2.92491E-05-4.99019E-06 8.59208E-19 2.74298E-18
 -1      3176 9.30398E-05-2.50369E-05-2.91340E-05-5.73653E-06 3.12798E-19 3.97242E-19
 -1      3177 9.45428E-05-2.63194E-05-2.92313E-05-4.47590E-06 5.63437E-19 2.63188E-18
 -1      3178 9.45749E-05-2.65100E-05-2.91797E-05-3.97981E-06 1.16197E-18 2.73678E-18
 -1      3179 9.36700E-05-2.56733E-05-2.91340E-05-4.64337E-06 7.94108E-19 2.01956E-18
 -1      3180 9.47811E-05-2.67399E-05-2.91535E-05-3.54806E-06 1.42256E-18 1.39806E-18
 -1      3181 9.47885E-05-2.68944E-05-2.91046E-05-3.12786E-06 6.29215E-19 1.44799E-18
 -1      3182 9.41414E-05-2.62254E-05-2.91021E-05-3.71542E-06 7.17028E-19 1.40427E-18
 -1      3183 9.49373E-05-2.70751E-05-2.90772E-05-2.76161E-06-4.81004E-19 7.33372E-19
 -1      3184 9.49234E-05-2.71804E-05-2.90335E-05-2.41723E-06-2.84105E-19 6.35785E-19
 -1      3185 9.44690E-05-2.66666E-05-2.90581E-05-2.93129E-06-2.28163E-20-2.07641E-19
 -1      3186 5.25274E-05-1.89858E-05-1.39052E-05-2.46797E-05-1.57130E-18-4.02203E-18
 -1      3187 6.42168E-05-2.67110E-05-1.58900E-05-3.15086E-05-2.52342E-18-3.50206E-18
 -1      3188 9.53262E-05-2.83632E-05-2.86945E-05-2.05043E-06 7.63954E-19-6.29100E-19
 -1      3189 9.52755E-05-2.83651E-05-2.86759E-05-1.94845E-06 8.59536E-19-7.19574E-19
 -1      3190 9.53150E-05-2.83786E-05-2.86841E-05-1.83932E-06 9.35866E-19-8.22806E-19
 -1      3191 9.52834E-05-2.83491E-05-2.86842E-05-1.72724E-06 8.17839E-19-5.91299E-19
 -1      3192 9.54791E-05-2.83610E-05-2.87679E-05-1.89450E-06 8.14948E-19-7.61829E-19
 -1      3193 9.54202E-05-2.82057E-05-2.88008E-05-2.55042E-06 4.85742E-19 1.54793E-19
 -1      3194 9.53309E-05-2.82358E-05-2.87574E-05-2.40985E-06 8.15901E-19-1.35485E-19
 -1      3195 9.55167E-05-2.81117E-05-2.88819E-05-2.89404E-06 4.72397E-19 2.10572E-19
 -1      3196 9.54021E-05-2.81375E-05-2.88306E-05-2.71895E-06 4.71296E-19 8.82837E-20
 -1      3197 9.52990E-05-2.80405E-05-2.88268E-05-2.70387E-06 4.71756E-19-7.01444E-21
 -1      3198 9.56653E-05-2.80471E-05-2.89730E-05-3.31414E-06 3.69663E-19 5.03705E-20
 -1      3199 9.55171E-05-2.80521E-05-2.89165E-05-3.10403E-06 6.78450E-19 2.33718E-19
 -1      3200 9.52809E-05-2.78922E-05-2.88828E-05-3.09374E-06 5.06253E-19-4.52718E-19
 -1      3201 9.58924E-05-2.80534E-05-2.90675E-05-3.80229E-06 5.35219E-19-7.38307E-20
 -1      3202 9.56972E-05-2.80157E-05-2.90087E-05-3.56536E-06 3.74656E-19-4.62956E-20
 -1      3203 9.53115E-05-2.77821E-05-2.89435E-05-3.56745E-06 4.63789E-19-3.94097E-19
 -1      3204 9.62383E-05-2.81878E-05-2.91585E-05-4.33065E-06-1.81739E-20 2.88799E-19
 -1      3205 9.59770E-05-2.80777E-05-2.91007E-05-4.08611E-06 2.18367E-19 1.22913E-19
 -1      3206 9.54244E-05-2.77630E-05-2.90013E-05-4.11818E-06 2.23010E-19 2.62299E-20
 -1      3207 9.67625E-05-2.85261E-05-2.92392E-05-4.84571E-06-2.66890E-19 1.60908E-19
 -1      3208 9.64086E-05-2.83051E-05-2.91856E-05-4.62707E-06-3.18090E-22 4.31398E-19
 -1      3209 9.56731E-05-2.79068E-05-2.90484E-05-4.72041E-06-5.92664E-20 4.62660E-20
 -1      3210 9.75465E-05-2.91622E-05-2.93046E-05-5.26078E-06-8.93913E-19-9.78194E-20
 -1      3211 9.70663E-05-2.87847E-05-2.92577E-05-5.11935E-06-5.39388E-19-4.68416E-20
 -1      3212 9.61373E-05-2.83087E-05-2.90786E-05-5.32333E-06-2.86735E-19-3.83161E-19
 -1      3213 9.86928E-05-3.01985E-05-2.93553E-05-5.44700E-06-9.24585E-19 3.80019E-19
 -1      3214 9.80483E-05-2.96184E-05-2.93150E-05-5.45522E-06-9.94261E-19 1.98406E-19
 -1      3215 9.69280E-05-2.90852E-05-2.90900E-05-5.84186E-06-1.00041E-18-5.26060E-19
 -1      3216 1.00310E-04-3.17169E-05-2.94038E-05-5.22379E-06-7.79763E-19 4.85395E-19
 -1      3217 9.94705E-05-3.09062E-05-2.93641E-05-5.47659E-06-8.16573E-19 5.69743E-19
 -1      3218 9.81881E-05-3.03624E-05-2.90900E-05-6.14290E-06-1.15774E-18 3.99756E-21
 -1      3219 1.02472E-04-3.37153E-05-2.94829E-05-4.35712E-06-3.78799E-19 7.95292E-19
 -1      3220 1.01438E-04-3.27013E-05-2.94281E-05-4.96555E-06-2.74043E-19 1.00443E-18
 -1      3221 1.00074E-04-3.22361E-05-2.91038E-05-6.02621E-06-6.66331E-19 5.35633E-19
 -1      3222 1.05130E-04-3.59974E-05-2.96564E-05-2.58388E-06-4.11010E-19 7.78474E-19
 -1      3223 1.03981E-04-3.49225E-05-2.95563E-05-3.65039E-06-3.74473E-19 6.47552E-19
 -1      3224 1.02702E-04-3.46897E-05-2.91856E-05-5.20924E-06-3.69821E-19 6.04561E-19
 -1      3225 1.07990E-04-3.80270E-05-3.00242E-05 2.89961E-07-1.02464E-18 1.32760E-18
 -1      3226 1.06929E-04-3.72161E-05-2.98347E-05-1.26428E-06-8.98891E-19 1.19467E-18
 -1      3227 1.06026E-04-3.74393E-05-2.94316E-05-3.34614E-06-6.82514E-19 6.99323E-19
 -1      3228 1.10370E-04-3.88076E-05-3.07094E-05 4.19560E-06-2.33715E-19 1.34808E-18
 -1      3229 1.09769E-04-3.88151E-05-3.03804E-05 2.30713E-06-5.38143E-19 1.22939E-18
 -1      3230 1.09682E-04-3.97842E-05-2.99837E-05-1.21121E-07-5.80307E-19 1.79597E-18
 -1      3231 1.11269E-04-3.70960E-05-3.18054E-05 8.31763E-06-2.58924E-19 1.56208E-18
 -1      3232 1.11512E-04-3.84759E-05-3.13121E-05 6.62337E-06-1.45858E-19 1.75928E-18
 -1      3233 1.12717E-04-4.03574E-05-3.10060E-05 4.37794E-06-1.57524E-19 2.50300E-18
 -1      3234 1.09901E-04-3.21580E-05-3.32663E-05 1.08438E-05-1.64311E-20 1.64594E-18
 -1      3235 1.11031E-04-3.50096E-05-3.26638E-05 1.03005E-05 2.37309E-19 1.91029E-18
 -1      3236 1.13735E-04-3.76415E-05-3.26016E-05 9.23805E-06 2.48989E-19 1.80803E-18
 -1      3237 1.06717E-04-2.54613E-05-3.47536E-05 9.56647E-06 3.06308E-19 1.00507E-18
 -1      3238 1.08195E-04-2.88210E-05-3.41896E-05 1.08488E-05 8.84355E-20 9.70064E-19
 -1      3239 1.11691E-04-3.09525E-05-3.45640E-05 1.19352E-05 3.93129E-19 2.20719E-18
 -1      3240 1.03849E-04-2.04613E-05-3.57479E-05 3.76463E-06 7.29931E-19 5.82193E-19
 -1      3241 1.04793E-04-2.23496E-05-3.54591E-05 6.86314E-06 5.84592E-19 9.72606E-19
 -1      3242 1.08280E-04-2.32967E-05-3.64027E-05 9.31548E-06 3.92878E-19-1.87042E-19
 -1      3243 1.03908E-04-2.07738E-05-3.57308E-05-4.20444E-06 1.66218E-18-7.08206E-19
 -1      3244 1.03508E-04-1.98832E-05-3.58701E-05-7.78789E-07 1.65656E-18 5.01020E-19
 -1      3245 1.05659E-04-1.86784E-05-3.73444E-05 1.64589E-06 9.87310E-19-3.95597E-19
 -1      3246 1.06803E-04-2.61912E-05-3.47304E-05-9.84037E-06 1.92627E-18-8.35593E-19
 -1      3247 1.05470E-04-2.31583E-05-3.52145E-05-7.83801E-06 1.68640E-18-6.65513E-19
 -1      3248 1.07023E-04-2.08312E-05-3.69227E-05-6.98036E-06 1.89405E-18-9.06120E-19
 -1      3249 1.10213E-04-3.29218E-05-3.32394E-05-1.10223E-05 1.69651E-18-2.95555E-19
 -1      3250 1.08803E-04-2.96726E-05-3.38515E-05-1.09476E-05 2.14888E-18-3.56789E-19
 -1      3251 1.10317E-04-2.77431E-05-3.53427E-05-1.16861E-05 1.62346E-18-7.64977E-19
 -1      3252 1.11644E-04-3.75919E-05-3.17769E-05-8.16880E-06 1.38290E-19-1.33271E-18
 -1      3253 1.11040E-04-3.56210E-05-3.23233E-05-9.57360E-06 1.22382E-18-5.99558E-19
 -1      3254 1.13394E-04-3.55825E-05-3.33287E-05-1.06101E-05 1.85871E-18-3.94638E-19
 -1      3255 1.10621E-04-3.89845E-05-3.06816E-05-3.87691E-06-6.70619E-19-2.09793E-18
 -1      3256 1.10950E-04-3.85204E-05-3.10722E-05-5.78020E-06-6.68257E-19-2.05658E-18
 -1      3257 1.13415E-04-3.97566E-05-3.15410E-05-6.22729E-06 2.65716E-19-5.93469E-19
 -1      3258 1.08061E-04-3.79523E-05-3.00045E-05 6.06112E-08-3.83813E-19-1.18698E-18
 -1      3259 1.08993E-04-3.85272E-05-3.02401E-05-1.65268E-06-5.11106E-19-1.54222E-18
 -1      3260 1.10973E-04-4.02887E-05-3.03062E-05-1.42773E-06-1.05490E-18-1.29748E-18
 -1      3261 1.05062E-04-3.57940E-05-2.96435E-05 2.89292E-06 6.21987E-19-9.73079E-20
 -1      3262 1.06211E-04-3.68239E-05-2.97701E-05 1.64423E-06-2.91747E-21-9.44347E-19
 -1      3263 1.07410E-04-3.84307E-05-2.95989E-05 2.30795E-06-4.47316E-19-3.51661E-19
 -1      3264 1.02328E-04-3.34720E-05-2.94749E-05 4.56625E-06 3.98780E-19 7.48135E-19
 -1      3265 1.03421E-04-3.45400E-05-2.95403E-05 3.80466E-06 1.00085E-18 9.44035E-19
 -1      3266 1.03877E-04-3.56970E-05-2.92601E-05 4.64797E-06 6.51694E-20 2.30803E-19
 -1      3267 1.00144E-04-3.14857E-05-2.94003E-05 5.32184E-06-7.82990E-20 8.35567E-19
 -1      3268 1.01058E-04-3.23860E-05-2.94401E-05 4.96060E-06 2.20423E-19 6.74207E-19
 -1      3269 1.00967E-04-3.30610E-05-2.91358E-05 5.79502E-06 3.87483E-19 7.53408E-19
 -1      3270 9.85309E-05-2.99943E-05-2.93573E-05 5.44191E-06-1.73234E-18 1.12596E-18
 -1      3271 9.92428E-05-3.06670E-05-2.93923E-05 5.37014E-06-1.32344E-18 7.46540E-19
 -1      3272 9.88144E-05-3.09447E-05-2.91118E-05 6.11106E-06-9.30794E-19 1.10531E-18
 -1      3273 9.73999E-05-2.89800E-05-2.93143E-05 5.16186E-06-1.62530E-18-2.06241E-19
 -1      3274 9.79334E-05-2.94388E-05-2.93533E-05 5.27901E-06-1.68987E-18 3.29414E-19
 -1      3275 9.73357E-05-2.94307E-05-2.91192E-05 5.90688E-06-1.26762E-18 1.24450E-19
 -1      3276 9.66345E-05-2.83518E-05-2.92603E-05 4.65759E-06-8.11003E-19-2.80045E-19
 -1      3277 9.70267E-05-2.86396E-05-2.93048E-05 4.88453E-06-1.14011E-18-3.23985E-19
 -1      3278 9.63814E-05-2.84514E-05-2.91239E-05 5.40645E-06-1.14869E-18-9.51264E-19
 -1      3279 9.61272E-05-2.80034E-05-2.91952E-05 4.05068E-06-7.04726E-20-4.42966E-19
 -1      3280 9.64143E-05-2.81682E-05-2.92433E-05 4.33056E-06-3.96651E-19-8.90749E-19
 -1      3281 9.57997E-05-2.78845E-05-2.91133E-05 4.76260E-06-7.30197E-19-1.57953E-18
 -1      3282 9.57928E-05-2.78389E-05-2.91241E-05 3.41962E-06 8.74221E-19-1.08853E-18
 -1      3283 9.60049E-05-2.79234E-05-2.91724E-05 3.71469E-06 7.26263E-19-7.31532E-19
 -1      3284 9.54649E-05-2.76047E-05-2.90870E-05 4.07324E-06 7.11853E-20-2.36836E-18
 -1      3285 9.55666E-05-2.77791E-05-2.90534E-05 2.81021E-06 2.85668E-19-1.41969E-19
 -1      3286 9.57274E-05-2.78186E-05-2.90986E-05 3.09884E-06 7.16973E-19-3.44881E-19
 -1      3287 9.52826E-05-2.75049E-05-2.90498E-05 3.39839E-06 5.48863E-19-3.68574E-19
 -1      3288 9.54094E-05-2.77691E-05-2.89885E-05 2.24526E-06 5.20551E-19-8.01838E-19
 -1      3289 9.55318E-05-2.77888E-05-2.90282E-05 2.51356E-06 4.89335E-19-3.05631E-19
 -1      3290 9.51842E-05-2.75007E-05-2.90083E-05 2.76817E-06 3.62155E-19-5.48709E-19
 -1      3291 9.52557E-05-2.77055E-05-2.89483E-05 1.90237E-06 5.79465E-20 1.17742E-19
 -1      3292 9.53730E-05-2.77582E-05-2.89739E-05 2.08280E-06-1.58911E-19-5.31369E-19
 -1      3293 9.51116E-05-2.75093E-05-2.89740E-05 2.29869E-06 3.46390E-20-9.52156E-19
 -1      3294 9.50462E-05-2.75016E-05-2.89523E-05 1.96761E-06-7.74590E-19-7.48498E-19
 -1      3295 9.23873E-05-1.82578E-05-3.17850E-05 1.78790E-06 1.58119E-18-3.00408E-18
 -1      3296 9.22667E-05-1.80518E-05-3.18182E-05 1.04323E-06 1.24107E-18-3.11808E-18
 -1      3297 9.40843E-05-2.64568E-05-2.89790E-05-1.95099E-06-1.56098E-18-6.68945E-19
 -1      3298 9.38161E-05-2.62342E-05-2.89713E-05-1.73994E-06-9.10343E-19-9.91615E-19
 -1      3299 9.32245E-05-2.57536E-05-2.89206E-05 3.19671E-08 1.85605E-19-9.27531E-19
 -1      3300 9.32675E-05-2.57941E-05-2.89178E-05 3.83371E-07 1.37747E-19-1.52966E-18
 -1      3301 1.19560E-04-5.56453E-05-2.74607E-05 2.04232E-05-1.88542E-18-1.24084E-18
 -1      3302 1.13037E-04-5.47153E-05-2.47083E-05 2.81776E-05-9.12149E-19-3.94691E-19
 -1      3303 1.05246E-04-5.06370E-05-2.32915E-05 3.00696E-05-4.43686E-19-1.08576E-18
 -1      3304 9.35860E-05-2.60303E-05-2.89524E-05-1.42408E-06-1.47668E-18-3.06559E-18
 -1      3305 9.34139E-05-2.58873E-05-2.89452E-05-1.12097E-06-1.51518E-18-3.14489E-18
 -1      3306 9.34804E-05-2.59256E-05-2.89456E-05-1.74350E-06-1.50064E-18-1.53874E-18
 -1      3307 9.53598E-05-2.82978E-05-2.87361E-05-2.27614E-06 8.43423E-19-1.95359E-19
 -1      3308 9.52907E-05-2.83194E-05-2.87034E-05-2.16223E-06 7.89364E-19-3.89860E-19
 -1      3309 9.54075E-05-2.83045E-05-2.87608E-05-2.13141E-06 6.21758E-19-5.17517E-19
 -1      3310 9.53452E-05-2.81883E-05-2.87835E-05-2.39004E-06 6.02834E-19-9.68680E-22
 -1      3311 4.45501E-05-1.14250E-05-1.38181E-05-1.95802E-06-7.84697E-19-3.19120E-18
 -1      3312 4.88353E-05-1.43239E-05-1.45440E-05-1.31721E-05-2.26237E-19-3.74124E-18
 -1      3313 1.22079E-04-2.24190E-05-4.28729E-05 1.30542E-05 2.26179E-18 1.78639E-18
 -1      3314 1.18191E-04-1.57986E-05-4.44825E-05 9.18345E-06 3.20390E-18 1.31131E-18
 -1      3315 9.53941E-05-2.78183E-05-2.89636E-05-7.18517E-07 1.19096E-18-2.99180E-19
 -1      3316 9.54341E-05-2.75787E-05-2.90701E-05-3.39979E-07 1.23918E-18-4.60402E-19
 -1      3317 9.52135E-05-2.42440E-05-3.04182E-05 4.22152E-06 2.47829E-18-5.91958E-19
 -1      3318 9.46458E-05-2.26949E-05-3.08257E-05 4.72424E-06 2.66917E-18-9.19537E-19
 -1      3319 9.49224E-05-2.35348E-05-3.05936E-05 3.60862E-06 2.44217E-18-1.06847E-18
 -1      3320 9.52444E-05-2.51612E-05-3.00483E-05 2.93292E-06 2.20422E-18-6.66753E-19
 -1      3321 9.55136E-05-2.55000E-05-2.99897E-05-2.05169E-06-1.25191E-18-2.20542E-18
 -1      3322 9.55462E-05-2.61801E-05-2.97410E-05-1.21751E-06-1.13733E-18-2.07075E-18
 -1      3323 9.57057E-05-2.60773E-05-2.98413E-05-1.02914E-06-1.02700E-18-2.26778E-18
 -1      3324 1.31924E-04-5.37657E-05-3.35683E-05 5.89841E-06-1.01054E-18-3.83494E-19
 -1      3325 9.40668E-05-2.12769E-05-3.12196E-05-5.23115E-06-1.39965E-18-3.35803E-18
 -1      3326 9.45173E-05-2.23923E-05-3.09107E-05-4.56631E-06-1.38926E-18-3.06785E-18
 -1      3327 9.34575E-05-2.00440E-05-3.14548E-05-4.84354E-06-1.05562E-18-3.40877E-18
 -1      3328 9.23066E-05-4.17645E-05-2.12122E-05 3.01227E-05 2.35793E-18-1.66164E-18
 -1      3329 7.98032E-05-3.51783E-05-1.91103E-05 3.14061E-05 2.33887E-18-1.25139E-18
 -1      3330 6.67946E-05-2.63974E-05-1.67463E-05 2.79944E-05 1.96578E-18-1.78205E-18
 -1      3331 8.81189E-05-3.62169E-05-2.19911E-05 2.69011E-05 2.57524E-18-1.45854E-18
 -1      3332 1.29087E-04-5.50395E-05-3.14924E-05-8.46989E-06-8.64688E-19 1.57945E-18
 -1      3333 1.31139E-04-5.16459E-05-3.45565E-05-9.96345E-07-2.66279E-19 2.14530E-18
 -1      3334 4.28055E-05-1.16709E-05-1.30001E-05-4.72600E-06 2.06067E-19-4.72062E-18
 -1      3335 4.53821E-05-1.41081E-05-1.30519E-05-1.65134E-05-3.99641E-19-4.25020E-18
 -1      3336 9.25028E-05-4.19469E-05-2.11834E-05-3.01331E-05 3.09273E-18 2.15970E-18
 -1      3337 1.02042E-04-4.75083E-05-2.34040E-05-2.82389E-05 2.74566E-18 1.26719E-18
 -1      3338 1.16561E-04-5.64821E-05-2.55345E-05-2.42379E-05 3.45494E-18 1.88167E-19
 -1      3339 1.26659E-04-6.08200E-05-2.80503E-05-2.00058E-05 3.72546E-18-1.37124E-18
 -1      3340 1.17620E-04-1.35533E-05-4.51692E-05-7.22971E-06 3.49136E-18-5.39467E-19
 -1      3341 1.20304E-04-1.92483E-05-4.35074E-05-1.18742E-05 2.39435E-18-1.02205E-18
 -1      3342 1.29010E-04-5.84586E-05-3.02050E-05-1.17264E-05 2.25274E-18-1.03984E-18
 -1      3343 9.32936E-05-2.57913E-05-2.89321E-05-7.27532E-07-1.01404E-18-2.28896E-19
 -1      3344 9.32307E-05-2.57412E-05-2.89271E-05-3.83639E-07-7.24906E-19 3.11928E-19
 -1      3345 9.29356E-05-2.55237E-05-2.88859E-05-1.68205E-07 8.78821E-21-1.54479E-18
 -1      3346 9.30766E-05-2.56121E-05-2.89082E-05-1.00550E-06-1.91266E-18-1.69393E-18
 -1      3347 1.31017E-04-4.96777E-05-3.51457E-05-1.64958E-06-3.62490E-19-7.77947E-19
 -1      3348 1.27243E-04-5.43261E-05-3.12069E-05 8.15510E-06-1.22439E-18-3.55754E-20
 -1      3349 9.22050E-05-1.79478E-05-3.18372E-05 4.02474E-07 1.06692E-18-3.17562E-18
 -1      3350 9.22011E-05-1.79353E-05-3.18378E-05-3.50065E-07 7.58896E-19-3.25130E-18
 -1      3351 9.31475E-05-1.95137E-05-3.15399E-05 6.16102E-07 1.05965E-18-2.93214E-18
 -1      3352 9.43797E-05-2.19302E-05-3.10226E-05 3.58483E-06 2.44418E-18-1.50192E-18
 -1      3353 9.34459E-05-2.01605E-05-3.14358E-05 4.18402E-06 2.58187E-18-1.81925E-18
 -1      3354 9.30833E-05-1.94853E-05-3.15528E-05 3.60881E-06 2.33410E-18-2.07160E-18
 -1      3355 1.13269E-04-1.37913E-05-4.29408E-05-4.84774E-06 2.93200E-18-1.29829E-18
 -1      3356 9.54328E-05-2.59811E-05-2.97553E-05 2.02286E-06 1.88032E-18-7.18597E-19
 -1      3357 9.53745E-05-2.52681E-05-3.00397E-05 2.40993E-06 2.04406E-18-9.88559E-19
 -1      3358 9.53781E-05-2.65526E-05-2.95052E-05 1.14438E-06 1.71811E-18-7.43486E-19
 -1      3359 9.44915E-05-2.23224E-05-3.09301E-05-3.93423E-06-1.06144E-18-3.16280E-18
 -1      3360 9.28034E-05-1.89811E-05-3.16571E-05 3.08539E-06 2.15743E-18-2.35401E-18
 -1      3361 9.25635E-05-1.85598E-05-3.17270E-05 2.39036E-06 1.83428E-18-2.68138E-18
 -1      3362 9.33641E-05-1.99098E-05-3.14612E-05 1.76873E-06 1.54835E-18-2.57526E-18
 -1      3363 9.37797E-05-2.07021E-05-3.12952E-05 2.80069E-06 2.16622E-18-1.98073E-18
 -1      3364 9.53699E-05-2.80079E-05-2.88614E-05-1.01386E-06 1.05974E-18-3.21454E-19
 -1      3365 9.56830E-05-2.78172E-05-2.90906E-05-7.61266E-07 1.11508E-18-5.99785E-19
 -1      3366 9.53534E-05-2.81488E-05-2.88022E-05-1.24989E-06 8.69558E-19-3.24517E-19
 -1      3367 1.24200E-04-5.51209E-05-2.95879E-05 1.27001E-05-1.64535E-18 1.20482E-18
 -1      3368 1.18127E-04-5.32814E-05-2.78557E-05 1.67841E-05-6.73325E-19 7.11137E-19
 -1      3369 1.24601E-04-5.17798E-05-3.12450E-05 4.59143E-06-5.51227E-19 9.41477E-19
 -1      3370 6.36172E-05-2.19072E-05-1.74853E-05 2.20772E-05 1.64526E-18-1.70539E-18
 -1      3371 1.13159E-04-5.23446E-05-2.58556E-05-2.23437E-05 2.45655E-18 9.06544E-19
 -1      3372 5.14466E-05-1.25880E-05-1.62695E-05 2.64325E-06-7.41604E-19-2.87779E-18
 -1      3373 6.31131E-05-2.25436E-05-1.72270E-05 2.53957E-05-1.63843E-18 1.45991E-18
 -1      3374 5.60945E-05-1.85475E-05-1.56269E-05 2.23301E-05-1.75180E-18-5.30666E-19
 -1      3375 5.69408E-05-1.61924E-05-1.72751E-05 1.64727E-05-1.69409E-18-3.27325E-19
 -1      3376 9.26939E-05-1.87263E-05-3.17044E-05-3.69985E-06-5.97250E-19-3.55424E-18
 -1      3377 9.30402E-05-1.93729E-05-3.15940E-05-4.30389E-06-8.63603E-19-3.51581E-18
 -1      3378 9.36973E-05-2.05468E-05-3.13354E-05-3.96634E-06-8.37885E-19-3.35767E-18
 -1      3379 6.93883E-05-2.66297E-05-1.81273E-05-2.84027E-05-2.31693E-18-2.88891E-18
 -1      3380 7.35997E-05-3.14092E-05-1.76254E-05-3.27733E-05-2.60203E-18-2.78663E-18
 -1      3381 8.28433E-05-3.63594E-05-1.98587E-05-3.17695E-05-3.02078E-18-2.39859E-18
 -1      3382 5.45971E-05-1.70293E-05-1.56784E-05-1.88347E-05-7.19872E-19-3.41937E-18
 -1      3383 5.68656E-05-1.54587E-05-1.74436E-05-1.31165E-05-3.57104E-19-2.98277E-18
 -1      3384 5.54955E-05-1.74845E-05-1.57217E-05-1.86630E-05-1.96565E-19-2.09529E-18
 -1      3385 6.39535E-05-2.28343E-05-1.75881E-05-2.46102E-05 4.72936E-19-4.88579E-19
 -1      3386 7.92946E-05-3.68994E-05-1.77369E-05 3.57053E-05-1.02893E-18 1.24032E-18
 -1      3387 7.46829E-05-3.13942E-05-1.83421E-05 3.18537E-05-1.85802E-18 1.94299E-18
 -1      3388 8.91226E-05-4.13444E-05-2.04399E-05 3.30965E-05-9.86793E-19 9.73188E-19
 -1      3389 1.28980E-04-4.64365E-05-3.55421E-05 5.01919E-06 2.19077E-19 9.93728E-19
 -1      3390 9.55549E-05-2.83274E-05-2.88155E-05-1.63221E-06 9.48736E-19-6.84358E-19
 -1      3391 9.53246E-05-2.83184E-05-2.87153E-05-1.59443E-06 6.88087E-19-4.45690E-19
 -1      3392 9.53151E-05-2.82432E-05-2.87405E-05-1.44148E-06 8.21633E-19-4.15614E-19
 -1      3393 9.44506E-05-2.67859E-05-2.90057E-05-2.20405E-06-1.00600E-18 2.10277E-19
 -1      3394 9.41631E-05-2.64850E-05-2.90001E-05-2.34548E-06-1.16986E-18-4.52300E-19
 -1      3395 9.36980E-05-2.62247E-05-2.89238E-05 1.39182E-06 1.65588E-18 2.46117E-18
 -1      3396 9.39072E-05-2.64075E-05-2.89248E-05 1.62215E-06 1.31484E-18 2.55574E-18
 -1      3397 1.03518E-04-4.94623E-05-2.30086E-05-3.01190E-05-3.06255E-18-6.57140E-19
 -1      3398 9.47798E-05-2.70964E-05-2.90060E-05-2.08592E-06-2.60753E-19-1.43540E-19
 -1      3399 9.30511E-05-2.56530E-05-2.88800E-05 6.63703E-07 9.06981E-19-1.42588E-18
 -1      3400 9.33696E-05-2.59079E-05-2.89181E-05 7.70326E-07 2.89284E-19-8.45112E-19
 -1      3401 9.35062E-05-2.60283E-05-2.89174E-05 1.07938E-06 1.46012E-18 3.33761E-19
 -1      3402 9.53999E-05-2.73249E-05-2.91800E-05 2.64036E-08 1.27161E-18-5.92753E-19
 -1      3403 9.54562E-05-2.69518E-05-2.93472E-05 6.11459E-07 1.44864E-18-7.30245E-19
 -1      3404 9.55750E-05-2.65319E-05-2.95922E-05 9.18760E-07 1.50740E-18-1.06095E-18
 -1      3405 9.56733E-05-2.72843E-05-2.93159E-05-4.60590E-08 1.22677E-18-8.66317E-19
 -1      3406 9.24115E-05-1.82626E-05-3.17925E-05-3.06983E-06-3.63688E-19-3.39294E-18
 -1      3407 9.30746E-05-1.93897E-05-3.15653E-05-2.92466E-06-4.13996E-19-3.23861E-18
 -1      3408 9.21847E-05-1.78737E-05-3.18574E-05-2.35673E-06 4.72537E-20-3.16557E-18
 -1      3409 9.38860E-05-2.64213E-05-2.89112E-05 1.92293E-06 1.58698E-18 1.99077E-18
 -1      3410 9.41611E-05-2.66595E-05-2.89355E-05 1.82714E-06 1.03461E-18 1.08644E-18
 -1      3411 9.44116E-05-2.68836E-05-2.89376E-05 1.95192E-06 8.25024E-19-8.91991E-19
 -1      3412 1.22267E-04-2.82639E-05-4.04087E-05 1.26520E-05 1.59136E-18 1.32095E-18
 -1      3413 1.14077E-04-1.49283E-05-4.28118E-05 6.40222E-06 2.62003E-18 5.95517E-19
 -1      3414 8.41899E-05-3.53005E-05-2.06711E-05-2.84537E-05 2.56169E-18 1.94013E-18
 -1      3415 1.29417E-04-4.48989E-05-3.63554E-05-7.05443E-06 1.74701E-21-4.64703E-19
 -1      3416 1.26143E-04-4.72090E-05-3.38855E-05-3.77621E-06 6.12418E-19 2.91836E-19
 -1      3417 1.24966E-04-3.84662E-05-3.72395E-05-1.11513E-05 5.36489E-19-8.80941E-19
 -1      3418 4.63419E-05-1.17526E-05-1.43219E-05 1.89717E-06 4.31471E-19-5.19851E-18
 -1      3419 5.06580E-05-1.22252E-05-1.61798E-05-3.71740E-06 1.77037E-19-4.40065E-18
 -1      3420 5.10378E-05-1.32958E-05-1.62119E-05 8.24229E-06 9.06987E-19-4.17979E-18
 -1      3421 1.23426E-04-5.45848E-05-2.94571E-05-1.32897E-05-1.72141E-18 1.18198E-18
 -1      3422 9.52518E-05-2.44192E-05-3.03616E-05-2.53257E-06-1.12069E-18-2.57180E-18
 -1      3423 9.56905E-05-2.53922E-05-3.01083E-05-1.37470E-06-9.24173E-19-2.46650E-18
 -1      3424 9.58237E-05-2.61157E-05-2.98850E-05-7.24513E-07-7.27351E-19-2.28516E-18
 -1      3425 9.49411E-05-2.74691E-05-2.89102E-05-3.67657E-06 4.34382E-19-3.90187E-19
 -1      3426 9.49097E-05-2.75217E-05-2.88846E-05-3.41637E-06 3.33078E-19-3.49224E-19
 -1      3427 9.60981E-05-2.75522E-05-2.93703E-05 5.20790E-07-6.95984E-19-1.91136E-18
 -1      3428 9.60792E-05-2.78214E-05-2.92569E-05 8.33140E-07-6.10088E-19-1.81718E-18
 -1      3429 9.60490E-05-2.80208E-05-2.91508E-05 1.05780E-06-4.38379E-19-1.73956E-18
 -1      3430 9.59979E-05-2.81542E-05-2.90770E-05 1.27320E-06-2.79819E-19-1.59018E-18
 -1      3431 9.62085E-05-2.78040E-05-2.93171E-05 8.29151E-07-4.05702E-19-1.78666E-18
 -1      3432 9.59090E-05-2.82249E-05-2.90056E-05 1.43308E-06-2.27651E-19-1.41023E-18
 -1      3433 9.58375E-05-2.82561E-05-2.89627E-05 1.59345E-06-1.47038E-19-1.31861E-18
 -1      3434 9.60920E-05-2.81168E-05-2.91333E-05 1.23078E-06-1.50712E-19-1.49359E-18
 -1      3435 9.57046E-05-2.82284E-05-2.89186E-05 1.72110E-06-1.57007E-19-1.35263E-18
 -1      3436 9.56168E-05-2.81799E-05-2.88996E-05 1.86074E-06-2.19475E-19-1.17751E-18
 -1      3437 9.58739E-05-2.81819E-05-2.90116E-05 1.53195E-06-9.79771E-20-1.61877E-18
 -1      3438 9.54455E-05-2.80730E-05-2.88761E-05 1.98280E-06-1.93960E-19-1.22678E-18
 -1      3439 9.53402E-05-2.79585E-05-2.88751E-05 2.12909E-06 8.45614E-20-1.10282E-18
 -1      3440 9.55742E-05-2.80524E-05-2.89379E-05 1.79074E-06-1.26691E-19-1.24971E-18
 -1      3441 9.51289E-05-2.77836E-05-2.88662E-05 2.26681E-06 6.93149E-20-1.22019E-18
 -1      3442 9.50008E-05-2.76111E-05-2.88781E-05 2.44144E-06-1.65592E-19-9.22729E-19
 -1      3443 9.51970E-05-2.77622E-05-2.88994E-05 2.05405E-06-6.65393E-20-1.51580E-18
 -1      3444 9.47420E-05-2.73738E-05-2.88779E-05 2.61136E-06-2.73630E-19-9.70564E-19
 -1      3445 9.45825E-05-2.71470E-05-2.88975E-05 2.83132E-06-2.74512E-19-9.04386E-19
 -1      3446 9.47333E-05-2.73312E-05-2.88838E-05 2.35852E-06-1.91903E-19-1.72361E-18
 -1      3447 9.42633E-05-2.68488E-05-2.88997E-05 3.04594E-06-3.93013E-19-7.62834E-19
 -1      3448 9.40602E-05-2.65692E-05-2.89214E-05 3.32441E-06-4.79987E-19-6.49206E-19
 -1      3449 9.41633E-05-2.67688E-05-2.88786E-05 2.73153E-06-1.62524E-19-1.34123E-18
 -1      3450 9.36625E-05-2.62098E-05-2.89183E-05 3.59318E-06-6.60378E-19-2.53111E-19
 -1      3451 9.34008E-05-2.58789E-05-2.89351E-05 3.94021E-06-6.55472E-19-3.51207E-19
 -1      3452 9.34568E-05-2.60783E-05-2.88691E-05 3.19253E-06-2.92927E-19-8.78374E-19
 -1      3453 9.29024E-05-2.54594E-05-2.89167E-05 4.27027E-06-5.94963E-19-7.85108E-19
 -1      3454 9.25653E-05-2.50825E-05-2.89188E-05 4.69330E-06-1.72204E-19-6.71996E-19
 -1      3455 9.25740E-05-2.52622E-05-2.88372E-05 3.75510E-06-7.61314E-19-9.35882E-19
 -1      3456 9.19393E-05-2.46088E-05-2.88718E-05 5.09108E-06-5.07508E-19-9.17870E-19
 -1      3457 9.15112E-05-2.41999E-05-2.88456E-05 5.59687E-06-8.77000E-19-9.50845E-19
 -1      3458 9.14664E-05-2.43278E-05-2.87587E-05 4.42841E-06-4.59331E-19-1.40355E-18
 -1      3459 9.07282E-05-2.36883E-05-2.87514E-05 6.07301E-06-1.02346E-18-1.14498E-18
 -1      3460 9.02012E-05-2.32795E-05-2.86781E-05 6.67218E-06-8.77820E-19-1.01526E-18
 -1      3461 9.00779E-05-2.32953E-05-2.86010E-05 5.22398E-06-1.13904E-18-1.56099E-18
 -1      3462 8.92324E-05-2.27671E-05-2.85109E-05 7.25018E-06-1.99317E-19-8.21878E-19
 -1      3463 8.86201E-05-2.24228E-05-2.83648E-05 7.96554E-06 7.83882E-20-7.07416E-19
 -1      3464 8.83492E-05-2.22108E-05-2.83187E-05 6.17004E-06-3.47571E-19-6.48346E-19
 -1      3465 8.74422E-05-2.19803E-05-2.80889E-05 8.69776E-06-2.12698E-19-4.26548E-19
 -1      3466 8.68039E-05-2.18188E-05-2.78369E-05 9.57956E-06 3.40467E-19-5.11003E-19
 -1      3467 8.62249E-05-2.11657E-05-2.78487E-05 7.33640E-06 1.94184E-19 1.33302E-19
 -1      3468 8.54095E-05-2.15712E-05-2.74038E-05 1.05767E-05 5.89072E-19-1.00087E-18
 -1      3469 8.48931E-05-2.17989E-05-2.70082E-05 1.17258E-05 7.68450E-19-7.64831E-19
 -1      3470 8.36639E-05-2.03212E-05-2.71037E-05 8.88194E-06 1.96845E-19-4.75018E-19
 -1      3471 8.33121E-05-2.19450E-05-2.63519E-05 1.31992E-05 5.85069E-19-6.05247E-19
 -1      3472 8.32373E-05-2.29448E-05-2.57716E-05 1.48058E-05 1.04625E-18-1.35435E-18
 -1      3473 8.06710E-05-1.99491E-05-2.59625E-05 1.11458E-05 7.39164E-19-1.89417E-18
 -1      3474 8.15641E-05-2.37144E-05-2.47922E-05 1.70710E-05 1.50850E-18-1.37835E-18
 -1      3475 8.25274E-05-2.61751E-05-2.40204E-05 1.94005E-05 1.28920E-18-1.43599E-18
 -1      3476 7.73479E-05-2.07179E-05-2.42566E-05 1.47912E-05 9.83617E-19-2.15266E-18
 -1      3477 8.37607E-05-3.03229E-05-2.26655E-05 2.38577E-05 1.80910E-18-9.54408E-19
 -1      3478 8.42704E-05-2.70320E-05-2.45271E-05-1.95041E-05 1.28077E-18 1.02551E-18
 -1      3479 8.32607E-05-2.45472E-05-2.52081E-05-1.70804E-05 6.87215E-19-1.01915E-18
 -1      3480 8.45991E-05-2.35624E-05-2.61080E-05-1.49910E-05-1.45661E-19-1.43036E-18
 -1      3481 8.45523E-05-2.25054E-05-2.66388E-05-1.34408E-05-4.88832E-19-1.60102E-18
 -1      3482 7.90449E-05-2.14238E-05-2.46222E-05-1.51171E-05-2.85966E-19-4.15119E-19
 -1      3483 8.59190E-05-2.22557E-05-2.72540E-05-1.19591E-05 6.35349E-20-1.78308E-18
 -1      3484 8.63089E-05-2.19587E-05-2.76175E-05-1.08102E-05 4.37996E-20-1.45281E-18
 -1      3485 8.17351E-05-2.04621E-05-2.62189E-05-1.15594E-05-4.28189E-19-7.97879E-19
 -1      3486 8.75683E-05-2.21470E-05-2.80247E-05-9.77691E-06 3.40032E-19-1.47158E-18
 -1      3487 8.81120E-05-2.22551E-05-2.82543E-05-8.86944E-06 1.07449E-18-1.13554E-18
 -1      3488 8.44253E-05-2.06503E-05-2.72951E-05-9.22688E-06 6.14321E-19-2.23149E-18
 -1      3489 8.91928E-05-2.26487E-05-2.85136E-05-8.09317E-06 1.91040E-18-7.04038E-19
 -1      3490 8.97298E-05-2.29451E-05-2.86450E-05-7.33963E-06 1.42637E-18 9.48329E-20
 -1      3491 8.67807E-05-2.13766E-05-2.79993E-05-7.58054E-06 1.62798E-18-3.67931E-19
 -1      3492 9.06210E-05-2.34108E-05-2.88020E-05-6.71379E-06 2.34839E-19-9.95936E-20
 -1      3493 9.10849E-05-2.37719E-05-2.88664E-05-6.06943E-06-1.78909E-19-2.20405E-19
 -1      3494 8.87492E-05-2.23222E-05-2.84438E-05-6.30932E-06 9.46093E-19 2.03849E-19
 -1      3495 9.17997E-05-2.42344E-05-2.89549E-05-5.54282E-06 2.43381E-19-8.35946E-20
 -1      3496 9.21721E-05-2.45927E-05-2.89768E-05-4.98676E-06 3.32164E-19 8.57597E-19
 -1      3497 9.03462E-05-2.33088E-05-2.87110E-05-5.25622E-06 1.98884E-19 2.35851E-19
 -1      3498 9.27327E-05-2.50115E-05-2.90216E-05-4.53601E-06 1.40598E-18 1.03584E-18
 -1      3499 9.30169E-05-2.53323E-05-2.90190E-05-4.05716E-06 1.21484E-18 1.48514E-18
 -1      3500 9.16124E-05-2.42359E-05-2.88612E-05-4.35209E-06 6.12918E-19 1.28915E-19
 -1      3501 9.34470E-05-2.56855E-05-2.90377E-05-3.66911E-06-6.59699E-20 1.65408E-18
 -1      3502 9.36539E-05-2.59544E-05-2.90228E-05-3.25903E-06-1.12543E-19 1.78970E-18
 -1      3503 9.25944E-05-2.50516E-05-2.89377E-05-3.56808E-06 6.72906E-19 5.27230E-19
 -1      3504 9.38539E-05-2.61287E-05-2.90194E-05-2.95273E-06-3.21069E-19 1.30430E-18
 -1      3505 9.40031E-05-2.63398E-05-2.90025E-05-2.60661E-06-5.02069E-19 8.92389E-19
 -1      3506 9.35678E-05-2.59928E-05-2.89652E-05-2.32699E-06-1.62165E-18-1.24790E-19
 -1      3507 9.31936E-05-2.56153E-05-2.89609E-05-2.89458E-06-2.85598E-19 3.79104E-19
 -1      3508 9.33859E-05-2.59681E-05-2.88894E-05 1.38738E-06 1.22635E-18 2.47132E-19
 -1      3509 9.50299E-05-2.76360E-05-2.88775E-05-3.16143E-06 1.96225E-19-3.30877E-19
 -1      3510 9.50304E-05-2.77188E-05-2.88517E-05-2.94313E-06 4.75653E-19-3.60635E-19
 -1      3511 9.46483E-05-2.73348E-05-2.88493E-05-3.25666E-06 3.09564E-19-3.82677E-19
 -1      3512 9.51609E-05-2.78461E-05-2.88442E-05-2.73872E-06 7.26298E-19-2.61166E-19
 -1      3513 9.51799E-05-2.79354E-05-2.88223E-05-2.56089E-06 6.99999E-19-1.12626E-19
 -1      3514 9.48993E-05-2.76017E-05-2.88423E-05-2.79286E-06 6.24118E-19-4.25002E-19
 -1      3515 9.49342E-05-2.74063E-05-2.89335E-05-4.28159E-06-2.33392E-19 1.19075E-19
 -1      3516 9.48493E-05-2.73959E-05-2.89121E-05-3.98539E-06 1.06560E-19-2.81448E-19
 -1      3517 9.44337E-05-2.71217E-05-2.88494E-05-3.82593E-06 1.47539E-19-2.34345E-21
 -1      3518 9.50731E-05-2.75318E-05-2.89384E-05-4.95808E-06 4.09212E-20 5.59201E-20
 -1      3519 9.49013E-05-2.74137E-05-2.89253E-05-4.64167E-06-7.71906E-20 2.04020E-19
 -1      3520 9.43027E-05-2.70347E-05-2.88323E-05-4.50505E-06-1.85885E-19-1.56481E-19
 -1      3521 9.54542E-05-2.79571E-05-2.89186E-05-5.66511E-06-4.16518E-19-8.87609E-20
 -1      3522 9.51470E-05-2.76735E-05-2.89162E-05-5.35754E-06 3.26913E-20 4.52197E-20
 -1      3523 9.43316E-05-2.71731E-05-2.87886E-05-5.28520E-06-1.15773E-19-1.42027E-19
 -1      3524 9.62134E-05-2.88205E-05-2.88735E-05-6.33066E-06-1.00353E-18-4.88294E-19
 -1      3525 9.57052E-05-2.83016E-05-2.88810E-05-6.07888E-06-6.13692E-19-3.25036E-19
 -1      3526 9.46361E-05-2.76678E-05-2.87125E-05-6.13784E-06-4.18457E-19-1.60072E-19
 -1      3527 9.75297E-05-3.02768E-05-2.88146E-05-6.83454E-06-1.49097E-18-2.74085E-20
 -1      3528 9.67407E-05-2.94493E-05-2.88248E-05-6.71175E-06-1.28295E-18-3.62831E-19
 -1      3529 9.53827E-05-2.86824E-05-2.86063E-05-7.00448E-06-1.11493E-18-2.79269E-19
 -1      3530 9.96094E-05-3.24569E-05-2.87760E-05-6.97756E-06-8.70670E-19 2.68015E-19
 -1      3531 9.84626E-05-3.12718E-05-2.87695E-05-7.09497E-06-1.19534E-18-2.00779E-19
 -1      3532 9.67990E-05-3.04041E-05-2.84882E-05-7.76980E-06-1.28869E-18-6.20262E-19
 -1      3533 1.02623E-04-3.53748E-05-2.88280E-05-6.45141E-06-3.57245E-19-2.45630E-19
 -1      3534 1.01087E-04-3.38619E-05-2.87677E-05-6.96382E-06-3.64434E-19 1.79511E-20
 -1      3535 9.91574E-05-3.29902E-05-2.84066E-05-8.21305E-06-5.92464E-19-7.94393E-19
 -1      3536 1.06588E-04-3.87374E-05-2.90985E-05-4.80038E-06-9.31599E-19 3.69507E-19
 -1      3537 1.04747E-04-3.71212E-05-2.89195E-05-5.89982E-06-7.71521E-19 1.12380E-19
 -1      3538 1.02728E-04-3.64768E-05-2.84588E-05-7.93972E-06-7.28584E-19-2.83020E-19
 -1      3539 1.11068E-04-4.17248E-05-2.97772E-05-1.66335E-06-1.09381E-18 1.10322E-18
 -1      3540 1.09231E-04-4.04863E-05-2.93942E-05-3.44646E-06-1.15597E-18 9.67843E-19
 -1      3541 1.07456E-04-4.03885E-05-2.88241E-05-6.29630E-06-1.66038E-18 3.19833E-19
 -1      3542 1.15002E-04-4.25445E-05-3.11099E-05 3.33338E-06-1.68201E-19 2.37417E-18
 -1      3543 1.13939E-04-4.27289E-05-3.04266E-05 1.02894E-06-7.61822E-19 2.03010E-18
 -1      3544 1.13284E-04-4.40584E-05-2.97898E-05-2.70463E-06-1.83641E-18 9.28992E-19
 -1      3545 1.16878E-04-3.90975E-05-3.33055E-05 9.04079E-06-6.04156E-20 2.52968E-18
 -1      3546 1.17005E-04-4.16883E-05-3.22362E-05 6.73953E-06 4.10070E-19 2.62273E-18
 -1      3547 1.17985E-04-4.44580E-05-3.16566E-05 3.19341E-06-2.03460E-19 2.17725E-18
 -1      3548 1.10159E-04-1.89413E-05-3.92393E-05 8.90608E-06 5.80350E-19 9.23689E-19
 -1      3549 1.12155E-04-2.34934E-05-3.83673E-05 1.14543E-05 1.40311E-18 1.17128E-18
 -1      3550 1.08452E-04-1.46825E-05-4.04538E-05-1.14952E-06 2.69256E-18-1.45451E-19
 -1      3551 1.08734E-04-1.52642E-05-4.03293E-05 3.52255E-06 1.68115E-18 1.73720E-19
 -1      3552 1.10444E-04-2.03683E-05-3.89970E-05-9.80352E-06 1.36695E-18-7.43529E-19
 -1      3553 1.08844E-04-1.68211E-05-3.96046E-05-6.11182E-06 1.97695E-18-8.02524E-19
 -1      3554 1.18615E-04-3.31796E-05-3.68444E-05-1.24530E-05 1.05535E-18-6.01962E-19
 -1      3555 1.16301E-04-2.73503E-05-3.82537E-05-1.22109E-05 9.23160E-19-1.01031E-18
 -1      3556 1.15419E-04-4.29051E-05-3.10046E-05-3.11416E-06-9.47287E-21-1.32325E-19
 -1      3557 1.16035E-04-4.18398E-05-3.18294E-05-5.55386E-06 1.91240E-18 7.69748E-19
 -1      3558 1.11118E-04-4.15672E-05-2.97031E-05 1.96022E-06-1.79324E-18-2.87396E-19
 -1      3559 1.12682E-04-4.23869E-05-3.01869E-05-2.72806E-08-1.48366E-18-5.83129E-19
 -1      3560 1.15282E-04-4.47090E-05-3.03972E-05 7.34493E-07-3.04436E-19 1.73344E-18
 -1      3561 1.06349E-04-3.83947E-05-2.90542E-05 5.19229E-06-4.75281E-19-1.73045E-19
 -1      3562 1.08248E-04-3.99725E-05-2.92958E-05 3.87798E-06-7.54055E-19-5.23148E-19
 -1      3563 1.09706E-04-4.21194E-05-2.91248E-05 5.22312E-06-1.32314E-18-3.10160E-19
 -1      3564 1.02317E-04-3.49800E-05-2.88105E-05 6.69214E-06 4.87242E-19-2.73398E-19
 -1      3565 1.04011E-04-3.65874E-05-2.89041E-05 6.00234E-06 1.75313E-20-3.42815E-19
 -1      3566 1.04342E-04-3.79456E-05-2.85644E-05 7.47224E-06-1.63927E-19-9.03569E-19
 -1      3567 9.93291E-05-3.21089E-05-2.87754E-05 7.08594E-06-2.67942E-19 1.84828E-19
 -1      3568 1.00624E-04-3.34338E-05-2.87932E-05 6.85207E-06 1.31714E-19-1.11141E-19
 -1      3569 1.00313E-04-3.41398E-05-2.84192E-05 8.16822E-06-2.13888E-19 1.17124E-19
 -1      3570 9.72912E-05-2.99856E-05-2.88263E-05 6.83789E-06-6.66861E-19 6.71025E-19
 -1      3571 9.82058E-05-3.09540E-05-2.88153E-05 6.89958E-06-6.72205E-19 9.58388E-19
 -1      3572 9.75575E-05-3.12150E-05-2.84703E-05 7.94538E-06-8.98882E-19 4.30751E-19
 -1      3573 9.60160E-05-2.85734E-05-2.88947E-05 6.24201E-06-1.21197E-18-1.88500E-19
 -1      3574 9.66217E-05-2.92142E-05-2.88803E-05 6.47477E-06-5.11185E-19 8.34359E-19
 -1      3575 9.58090E-05-2.91560E-05-2.85900E-05 7.24688E-06-8.26730E-19 8.75944E-19
 -1      3576 9.52871E-05-2.77313E-05-2.89494E-05 5.49325E-06-4.38925E-19-3.70390E-19
 -1      3577 9.56649E-05-2.81135E-05-2.89422E-05 5.81267E-06-6.40027E-19-2.18074E-20
 -1      3578 9.48244E-05-2.78616E-05-2.87129E-05 6.36533E-06-6.47057E-19 9.56136E-19
 -1      3579 9.49199E-05-2.73001E-05-2.89804E-05 4.70523E-06-1.01548E-18-1.56091E-18
 -1      3580 9.51425E-05-2.74977E-05-2.89830E-05 5.05694E-06-1.04169E-18-1.56419E-18
 -1      3581 9.43533E-05-2.71450E-05-2.88115E-05 5.44992E-06-2.14230E-19-2.05233E-19
 -1      3582 9.47755E-05-2.71399E-05-2.89892E-05 3.94218E-06-2.40124E-19-6.58542E-19
 -1      3583 9.48993E-05-2.72171E-05-2.90000E-05 4.29270E-06-2.59130E-19-1.08152E-18
 -1      3584 9.42034E-05-2.68286E-05-2.88787E-05 4.57531E-06-5.71895E-19-8.45901E-19
 -1      3585 9.47543E-05-2.71394E-05-2.89822E-05 3.24264E-06-1.86235E-19-5.18135E-20
 -1      3586 9.48225E-05-2.71496E-05-2.89976E-05 3.56837E-06-8.74087E-21-7.83014E-19
 -1      3587 9.42384E-05-2.67672E-05-2.89178E-05 3.77693E-06-2.10034E-19 6.64683E-19
 -1      3588 9.47988E-05-2.72157E-05-2.89666E-05 2.60800E-06 4.48301E-19-6.25661E-19
 -1      3589 9.48296E-05-2.71902E-05-2.89838E-05 2.90527E-06 4.34352E-19-1.55346E-20
 -1      3590 9.43566E-05-2.68311E-05-2.89358E-05 3.07025E-06 1.75606E-19 3.28004E-19
 -1      3591 9.76167E-05-4.46711E-05-2.24800E-05-2.96133E-05-3.26804E-18-6.31953E-19
 -1      3592 1.10098E-04-5.15036E-05-2.52865E-05-2.47789E-05-2.87867E-18 5.55442E-19
 -1      3593 1.06463E-04-4.91245E-05-2.45777E-05 2.55811E-05-2.90268E-19-1.91723E-18
 -1      3594 9.83870E-05-4.56742E-05-2.22625E-05 3.07060E-05 7.35330E-20-9.17337E-19
 -1      3595 9.15664E-05-4.03654E-05-2.19078E-05 2.95853E-05-5.84188E-19 7.24743E-20
 -1      3596 9.44190E-05-2.21791E-05-3.09704E-05-3.58277E-06-9.21151E-19-3.24121E-18
 -1      3597 9.48730E-05-2.31440E-05-3.07172E-05-3.12615E-06-8.97510E-19-3.00978E-18
 -1      3598 9.52145E-05-2.42970E-05-3.04116E-05-2.23860E-06-9.24346E-19-2.81854E-18
 -1      3599 9.41101E-05-2.15097E-05-3.11203E-05-3.19584E-06-6.43205E-19-3.24762E-18
 -1      3600 7.08756E-05-2.41383E-05-2.00031E-05 2.27297E-05 2.26530E-18-5.96682E-19
 -1      3601 5.92553E-05-1.68325E-05-1.76874E-05 1.66463E-05 1.85041E-18-2.13622E-18
 -1      3602 9.32105E-05-2.57234E-05-2.89264E-05-1.94206E-06-6.86746E-19-1.57888E-18
 -1      3603 9.29457E-05-2.55144E-05-2.89017E-05-1.60270E-06-1.22730E-18-7.90383E-19
 -1      3604 9.30322E-05-2.55355E-05-2.89199E-05-2.20436E-06-9.62980E-19-1.93623E-18
 -1      3605 5.49584E-05-1.47852E-05-1.69978E-05-1.36148E-05-8.34724E-20-2.89871E-18
 -1      3606 6.09916E-05-1.93405E-05-1.76985E-05-2.11221E-05-1.34001E-18-2.51251E-18
 -1      3607 1.21580E-04-5.51872E-05-2.85388E-05-1.56980E-05 1.91366E-18 3.01332E-19
 -1      3608 9.20869E-05-1.77382E-05-3.18766E-05-9.54610E-07 6.45385E-19-3.24511E-18
 -1      3609 9.21972E-05-1.79119E-05-3.18464E-05-1.70068E-06 3.07708E-19-3.16012E-18
 -1      3610 9.28504E-05-1.89837E-05-3.16418E-05-1.71846E-06 1.68926E-19-2.98533E-18
 -1      3611 9.29846E-05-1.92230E-05-3.15952E-05-5.38512E-07 6.20856E-19-3.03635E-18
 -1      3612 9.56102E-05-2.83279E-05-2.88329E-05-1.87505E-06 5.66076E-19-2.56439E-19
 -1      3613 9.56497E-05-2.83334E-05-2.88491E-05-1.74672E-06 7.55726E-19-3.29944E-19
 -1      3614 9.53383E-05-2.46996E-05-3.02743E-05 2.67543E-06 2.13827E-18-1.09883E-18
 -1      3615 9.50518E-05-2.38518E-05-3.05225E-05 2.92346E-06 2.27686E-18-1.22827E-18
 -1      3616 9.54888E-05-2.55344E-05-2.99865E-05 1.75402E-06 1.85419E-18-1.17500E-18
 -1      3617 1.26109E-04-4.76890E-05-3.34881E-05 3.22529E-06 3.08426E-19 9.41583E-19
 -1      3618 1.25548E-04-4.11074E-05-3.63909E-05 9.65063E-06 7.38679E-19 1.06840E-18
 -1      3619 1.20527E-04-2.46666E-05-4.12195E-05-1.23097E-05 9.76682E-19-1.36245E-18
 -1      3620 9.60060E-05-2.67258E-05-2.96831E-05-2.63429E-07-6.90644E-19-2.18197E-18
 -1      3621 9.60428E-05-2.71797E-05-2.95195E-05 1.93705E-07-6.89150E-19-2.07700E-18
 -1      3622 9.61825E-05-2.71658E-05-2.95785E-05 2.58563E-07-5.55812E-19-2.03054E-18
 -1      3623 1.19123E-04-5.32677E-05-2.78808E-05-1.60692E-05-2.35176E-18 7.48195E-19
 -1      3624 1.23404E-04-5.24387E-05-3.07449E-05-6.47620E-06-1.17054E-18 1.12411E-19
 -1      3625 1.13173E-04-5.01760E-05-2.69604E-05-1.77876E-05-2.32139E-18 3.79355E-19
 -1      3626 1.17838E-04-3.09497E-05-3.73217E-05 1.23648E-05 1.38826E-18 1.31411E-18
 -1      3627 5.58481E-05-1.32367E-05-1.80902E-05 6.72495E-06-3.56532E-19-2.09837E-18
 -1      3628 5.53695E-05-1.27053E-05-1.81330E-05-2.31053E-06 8.97326E-20-3.89333E-18
 -1      3629 9.46259E-05-2.70936E-05-2.89472E-05 1.98815E-06 5.41760E-20-3.03766E-19
 -1      3630 9.48469E-05-2.73013E-05-2.89473E-05 1.99866E-06 9.14076E-20-6.67405E-19
 -1      3631 9.48638E-05-2.72995E-05-2.89550E-05 2.16207E-06-6.18054E-19-8.56565E-19
 -1      3632 9.44018E-05-2.68829E-05-2.89366E-05 2.15982E-06 6.99826E-19-5.59165E-19
 -1      3633 7.56180E-05-2.48908E-05-2.16702E-05 2.18540E-05 1.74133E-18-8.75541E-19
 -1      3634 1.19747E-04-3.65002E-05-3.58624E-05 1.14988E-05 8.37643E-19 2.14539E-18
 -1      3635 9.48284E-05-2.31835E-05-3.07024E-05 2.72120E-06 2.11898E-18-1.41386E-18
 -1      3636 9.51589E-05-2.78700E-05-2.88388E-05-2.42123E-06 8.47919E-19-5.53158E-19
 -1      3637 9.53101E-05-2.80546E-05-2.88195E-05-2.39903E-06 6.65733E-19 2.28255E-21
 -1      3638 9.53398E-05-2.81318E-05-2.88057E-05-2.25385E-06 5.91197E-19-9.37846E-20
 -1      3639 9.58426E-05-2.82866E-05-2.89545E-05-1.59206E-06 5.52269E-19-6.29139E-19
 -1      3640 9.57430E-05-2.83270E-05-2.88915E-05-1.61565E-06 9.74607E-19-7.30975E-19
 -1      3641 9.57834E-05-2.82701E-05-2.89314E-05-1.45805E-06 8.81914E-19-6.66503E-19
 -1      3642 1.25878E-04-4.98326E-05-3.25930E-05-3.03182E-07 1.10617E-18 8.91965E-19
 -1      3643 1.23526E-04-5.06196E-05-3.11473E-05 3.22569E-06 8.10324E-19 2.17292E-18
 -1      3644 1.24178E-04-4.55451E-05-3.36932E-05-5.27472E-06 1.42084E-18 8.65482E-19
 -1      3645 7.76032E-05-2.59022E-05-2.20311E-05-2.15305E-05 1.02062E-18 2.71342E-19
 -1      3646 7.09052E-05-2.07867E-05-2.12608E-05-1.84281E-05 2.53759E-19-1.08371E-18
 -1      3647 7.02600E-05-2.61915E-05-1.85157E-05 2.75815E-05-1.89919E-18 2.78052E-18
 -1      3648 6.75298E-05-2.22987E-05-1.93093E-05 2.24889E-05-1.42736E-18 1.92684E-18
 -1      3649 7.80375E-05-3.05973E-05-2.02857E-05 2.77171E-05-1.84664E-18 1.71831E-18
 -1      3650 9.35391E-05-2.61705E-05-2.88808E-05 2.04286E-06 1.47847E-18 1.98121E-18
 -1      3651 9.38588E-05-2.64175E-05-2.88971E-05 2.25720E-06 1.63316E-18 1.72915E-18
 -1      3652 6.69285E-05-2.26201E-05-1.86730E-05-2.38454E-05-2.25141E-18-2.61672E-18
 -1      3653 7.39887E-05-2.70425E-05-2.00879E-05-2.55536E-05-2.49457E-18-2.24112E-18
 -1      3654 6.65183E-05-2.02620E-05-1.96980E-05-1.93186E-05-1.09434E-18-1.64155E-18
 -1      3655 9.54990E-05-2.82750E-05-2.88112E-05-1.99513E-06 6.22062E-19-1.35133E-19
 -1      3656 9.56415E-05-2.82494E-05-2.88838E-05-1.85723E-06 5.63943E-19-4.51958E-20
 -1      3657 9.54630E-05-2.82258E-05-2.88125E-05-2.12173E-06 4.51062E-19-4.90826E-21
 -1      3658 5.76478E-05-1.36275E-05-1.85822E-05-7.44126E-06-1.54081E-19-3.83327E-18
 -1      3659 6.16678E-05-1.63243E-05-1.95233E-05-1.33199E-05 4.34905E-19-2.89418E-18
 -1      3660 6.12054E-05-1.38989E-05-2.01286E-05-3.21710E-06 6.26970E-20-3.86202E-18
 -1      3661 9.53087E-05-2.43036E-05-3.04417E-05-1.87338E-06-7.79911E-19-2.74850E-18
 -1      3662 9.36509E-05-2.05825E-05-3.13264E-05-2.18506E-06-9.45244E-20-2.83735E-18
 -1      3663 9.38861E-05-2.10395E-05-3.12372E-05-2.71257E-06-4.18696E-19-3.18294E-18
 -1      3664 9.59447E-05-2.60969E-05-2.99344E-05-5.48603E-07-6.27323E-19-2.13771E-18
 -1      3665 1.17171E-04-3.99725E-05-3.31519E-05-8.77224E-06 1.71388E-18 6.42336E-19
 -1      3666 1.16438E-04-3.62690E-05-3.43266E-05-1.07673E-05 1.92754E-18 1.36442E-19
 -1      3667 9.18148E-05-4.03370E-05-2.18544E-05-2.98556E-05-3.48390E-18-8.89398E-19
 -1      3668 9.86865E-05-4.28628E-05-2.39636E-05-2.52026E-05-3.39327E-18 7.50802E-19
 -1      3669 8.54155E-05-3.49738E-05-2.15630E-05-2.78215E-05-2.81826E-18-1.12380E-18
 -1      3670 9.48944E-05-2.73035E-05-2.89658E-05 2.33060E-06 3.39812E-19-1.06664E-18
 -1      3671 9.56278E-05-2.81643E-05-2.89173E-05-1.28142E-06 9.37976E-19-7.96704E-19
 -1      3672 9.26303E-05-2.53618E-05-2.88351E-05 5.76393E-07 8.68066E-19-2.43597E-18
 -1      3673 9.27673E-05-2.54764E-05-2.88369E-05 9.83376E-07 1.43025E-18-2.24037E-18
 -1      3674 9.58717E-05-2.71907E-05-2.94395E-05-9.61772E-08 1.17944E-18-9.98077E-19
 -1      3675 9.58362E-05-2.68368E-05-2.95615E-05 3.19580E-07 1.11925E-18-1.10420E-18
 -1      3676 9.46577E-05-2.25169E-05-3.08938E-05-2.43062E-06-4.75695E-19-2.92165E-18
 -1      3677 9.24581E-05-2.51343E-05-2.88488E-05-1.31515E-06-6.40661E-19-1.33030E-18
 -1      3678 9.27392E-05-2.53759E-05-2.88746E-05-1.12540E-06-1.87215E-18-2.45923E-18
 -1      3679 9.26164E-05-2.52826E-05-2.88585E-05-7.07648E-07-1.53063E-18-1.44952E-18
 -1      3680 5.50289E-05-1.33285E-05-1.75739E-05-8.38814E-06-2.14802E-20-3.71125E-18
 -1      3681 6.07087E-05-1.53218E-05-1.93252E-05-1.10268E-05-6.02791E-19-2.87475E-18
 -1      3682 5.61502E-05-1.29753E-05-1.85592E-05-2.08520E-06 2.23210E-19-3.96112E-18
 -1      3683 1.17239E-04-5.11304E-05-2.84915E-05 1.26031E-05 5.11155E-19 2.81066E-18
 -1      3684 1.13659E-04-5.12691E-05-2.65178E-05 1.99736E-05 2.54070E-19 7.34424E-19
 -1      3685 1.06543E-04-4.69914E-05-2.54780E-05 2.18636E-05 7.45204E-19 4.64680E-19
 -1      3686 6.19315E-05-1.67418E-05-1.92876E-05 1.42842E-05-3.64608E-19-1.79306E-19
 -1      3687 5.81887E-05-1.43852E-05-1.85099E-05 1.04049E-05-4.87769E-19-5.30560E-19
 -1      3688 6.14276E-05-1.42087E-05-2.01033E-05 5.79823E-06 9.19269E-19-2.28058E-18
 -1      3689 7.98541E-05-3.01722E-05-2.10698E-05-2.46695E-05 1.65449E-18 6.43269E-19
 -1      3690 5.93610E-05-1.53751E-05-1.85726E-05 1.08641E-05 1.79725E-18-2.95718E-18
 -1      3691 9.45454E-05-2.70014E-05-2.89453E-05 2.46227E-06 6.21538E-20 2.45629E-19
 -1      3692 9.29790E-05-2.56855E-05-2.88480E-05 1.40818E-06 1.07575E-18-4.12558E-19
 -1      3693 9.32270E-05-2.58801E-05-2.88583E-05 1.73543E-06 1.18385E-18 7.94871E-19
 -1      3694 9.31817E-05-2.58694E-05-2.88422E-05 2.10296E-06 1.03272E-18 9.51787E-19
 -1      3695 9.25930E-05-2.53653E-05-2.88041E-05 1.34742E-06 1.62020E-18-1.35259E-18
 -1      3696 9.40823E-05-2.13900E-05-3.11686E-05 1.71751E-06 1.65632E-18-2.17126E-18
 -1      3697 9.39410E-05-2.10899E-05-3.12295E-05 1.21153E-06 1.28220E-18-2.53152E-18
 -1      3698 9.25593E-05-2.52639E-05-2.88452E-05-2.76717E-07-4.92516E-19-1.43571E-18
 -1      3699 9.25695E-05-2.52821E-05-2.88378E-05 1.61450E-07 3.00739E-19-2.82153E-18
 -1      3700 9.22782E-05-2.50780E-05-2.87939E-05 4.81721E-07 1.02760E-19-2.66679E-18
 -1      3701 9.22300E-05-2.49957E-05-2.88079E-05-3.81192E-07-2.25262E-19-2.45957E-18
 -1      3702 9.45834E-05-2.22244E-05-3.09926E-05 7.96710E-07 1.21718E-18-2.42257E-18
 -1      3703 9.38517E-05-2.09123E-05-3.12717E-05 7.86085E-07 1.15952E-18-2.86272E-18
 -1      3704 9.38034E-05-2.08088E-05-3.12915E-05 2.40610E-07 9.17713E-19-2.84846E-18
 -1      3705 9.58972E-05-2.78323E-05-2.91744E-05-8.10402E-07 1.01803E-18-8.37166E-19
 -1      3706 9.59193E-05-2.75642E-05-2.92865E-05-4.78032E-07 1.19432E-18-8.43418E-19
 -1      3707 9.60329E-05-2.71677E-05-2.95156E-05-1.73667E-07 1.12066E-18-1.05171E-18
 -1      3708 1.19023E-04-4.30804E-05-3.25814E-05-5.67869E-06 2.43475E-18 9.76669E-19
 -1      3709 9.44786E-05-2.22553E-05-3.09743E-05 2.49831E-06 2.07373E-18-1.70914E-18
 -1      3710 9.42473E-05-2.17387E-05-3.10804E-05 2.07653E-06 1.78139E-18-1.95824E-18
 -1      3711 9.47963E-05-2.27424E-05-3.08609E-05 1.49046E-06 1.56123E-18-1.88505E-18
 -1      3712 6.49825E-05-1.67832E-05-2.07194E-05 1.26326E-05 2.16919E-18-1.55052E-18
 -1      3713 5.93027E-05-1.32756E-05-1.94172E-05 4.98808E-06 1.40894E-18-2.97417E-18
 -1      3714 9.62481E-05-2.80146E-05-2.92411E-05 9.88052E-07-4.60136E-20-1.63942E-18
 -1      3715 9.61602E-05-2.81149E-05-2.91635E-05 1.16365E-06 4.05545E-20-1.57703E-18
 -1      3716 9.60235E-05-2.81464E-05-2.90899E-05 1.28246E-06 1.07375E-19-1.53339E-18
 -1      3717 9.58908E-05-2.81315E-05-2.90396E-05 1.42178E-06 4.34043E-20-1.37451E-18
 -1      3718 9.61630E-05-2.80568E-05-2.91877E-05 1.05531E-06 1.18595E-19-1.48659E-18
 -1      3719 9.56930E-05-2.80536E-05-2.89896E-05 1.52263E-06-1.17961E-19-1.28989E-18
 -1      3720 9.55213E-05-2.79460E-05-2.89600E-05 1.65084E-06-1.42383E-19-1.31790E-18
 -1      3721 9.58318E-05-2.80238E-05-2.90596E-05 1.28082E-06-6.37123E-21-1.32259E-18
 -1      3722 9.52672E-05-2.77777E-05-2.89269E-05 1.75144E-06-2.89815E-19-1.42345E-18
 -1      3723 9.50551E-05-2.75917E-05-2.89117E-05 1.88836E-06-3.24707E-19-1.77092E-18
 -1      3724 9.53850E-05-2.77791E-05-2.89721E-05 1.48339E-06-2.38321E-19-1.54903E-18
 -1      3725 9.47417E-05-2.73444E-05-2.88890E-05 2.00220E-06 1.77603E-20-1.52282E-18
 -1      3726 9.44817E-05-2.70882E-05-2.88819E-05 2.16276E-06 9.11605E-20-1.33301E-18
 -1      3727 9.48242E-05-2.73561E-05-2.89116E-05 1.69221E-06-1.18688E-19-1.39792E-18
 -1      3728 9.40995E-05-2.67684E-05-2.88623E-05 2.29886E-06-8.88932E-20-1.23573E-18
 -1      3729 9.37787E-05-2.64459E-05-2.88566E-05 2.49323E-06-1.72190E-19-1.02798E-18
 -1      3730 9.41374E-05-2.67756E-05-2.88642E-05 1.92793E-06 8.44784E-20-1.02885E-18
 -1      3731 9.33114E-05-2.60557E-05-2.88320E-05 2.65633E-06-2.19200E-19-9.44305E-19
 -1      3732 9.29118E-05-2.56685E-05-2.88193E-05 2.89088E-06-2.98309E-19-7.49901E-19
 -1      3733 9.32993E-05-2.60484E-05-2.88141E-05 2.20141E-06-8.42184E-20-9.38860E-19
 -1      3734 9.23368E-05-2.52088E-05-2.87794E-05 3.08305E-06-7.29009E-19-8.15240E-19
 -1      3735 9.18358E-05-2.47596E-05-2.87492E-05 3.36122E-06-9.99837E-19-9.97636E-19
 -1      3736 9.22717E-05-2.51793E-05-2.87428E-05 2.51577E-06-5.29715E-19-1.18900E-18
 -1      3737 9.11249E-05-2.42337E-05-2.86807E-05 3.58090E-06-9.85598E-19-8.46176E-19
 -1      3738 9.04954E-05-2.37281E-05-2.86188E-05 3.90357E-06-8.68872E-19-1.18477E-18
 -1      3739 9.10051E-05-2.41746E-05-2.86262E-05 2.86790E-06-1.04148E-18-5.91280E-19
 -1      3740 8.96108E-05-2.31413E-05-2.85039E-05 4.14899E-06-9.85484E-19-1.49856E-18
 -1      3741 8.88218E-05-2.25914E-05-2.83908E-05 4.52066E-06-9.48933E-19-1.38471E-18
 -1      3742 8.94351E-05-2.30430E-05-2.84329E-05 3.24687E-06-1.11599E-18-6.88944E-19
 -1      3743 8.77155E-05-2.19572E-05-2.82049E-05 4.79678E-06-1.40945E-19-9.88682E-19
 -1      3744 8.67354E-05-2.13894E-05-2.80137E-05 5.23322E-06 1.49871E-19-6.48320E-19
 -1      3745 8.74781E-05-2.17981E-05-2.81202E-05 3.64749E-06-8.57385E-20-1.04769E-18
 -1      3746 8.53420E-05-2.07330E-05-2.77217E-05 5.56073E-06 2.30518E-19-2.96808E-19
 -1      3747 8.41416E-05-2.01941E-05-2.74147E-05 6.10476E-06 2.87169E-19-8.54202E-20
 -1      3748 8.50245E-05-2.04677E-05-2.76282E-05 4.08268E-06 2.07714E-19-1.20562E-18
 -1      3749 8.23636E-05-1.95556E-05-2.69652E-05 6.54016E-06-3.49547E-19-2.07996E-19
 -1      3750 8.09163E-05-1.91231E-05-2.64894E-05 7.29209E-06-7.01718E-20-8.70498E-19
 -1      3751 8.19175E-05-1.90917E-05-2.68701E-05 4.60941E-06-2.40428E-20-1.11583E-18
 -1      3752 7.85958E-05-1.85594E-05-2.58050E-05 7.94638E-06 2.07298E-19-1.41244E-18
 -1      3753 7.69964E-05-1.83694E-05-2.51196E-05 9.09151E-06 3.26627E-19-2.07700E-18
 -1      3754 7.79334E-05-1.77211E-05-2.57150E-05 5.38548E-06-3.74962E-19-1.31202E-18
 -1      3755 7.34516E-05-1.91725E-05-2.32932E-05-1.32180E-05-3.77763E-19-1.32591E-18
 -1      3756 7.50333E-05-1.84672E-05-2.43283E-05-1.10435E-05-3.88269E-19-1.53265E-18
 -1      3757 7.79588E-05-1.88281E-05-2.53361E-05-9.79544E-06-1.35696E-19-1.34118E-18
 -1      3758 7.94349E-05-1.88926E-05-2.60165E-05-8.55963E-06-3.58843E-19-1.60090E-18
 -1      3759 7.35883E-05-1.69218E-05-2.41985E-05-7.63529E-06 5.96728E-21-2.89359E-18
 -1      3760 8.16433E-05-1.94021E-05-2.66762E-05-7.77917E-06 2.06438E-19-1.97258E-18
 -1      3761 8.29563E-05-1.97678E-05-2.71272E-05-6.96938E-06 1.73582E-18-2.08113E-18
 -1      3762 7.85137E-05-1.79382E-05-2.58926E-05-6.03950E-06 1.69868E-19-2.11539E-18
 -1      3763 8.46558E-05-2.03624E-05-2.75609E-05-6.45726E-06 1.94388E-18-2.01042E-18
 -1      3764 8.57673E-05-2.08510E-05-2.78527E-05-5.85572E-06 1.92571E-18-1.19993E-18
 -1      3765 8.23540E-05-1.92104E-05-2.70094E-05-5.09448E-06 1.81275E-18-2.88364E-18
 -1      3766 8.71003E-05-2.14660E-05-2.81357E-05-5.46284E-06 1.83108E-18-2.02705E-18
 -1      3767 8.80091E-05-2.19867E-05-2.83177E-05-4.97062E-06 8.19755E-19-1.23189E-18
 -1      3768 8.53289E-05-2.05015E-05-2.77450E-05-4.41451E-06 1.53052E-18-2.49623E-18
 -1      3769 8.90597E-05-2.25763E-05-2.84984E-05-4.63599E-06 4.09285E-20-9.92421E-19
 -1      3770 8.97857E-05-2.30768E-05-2.86063E-05-4.20870E-06-4.56074E-20-6.14858E-19
 -1      3771 8.76712E-05-2.17481E-05-2.82242E-05-3.85102E-06 7.17171E-19-2.45903E-18
 -1      3772 9.06140E-05-2.36130E-05-2.87186E-05-3.90821E-06 6.00932E-19-1.52704E-18
 -1      3773 9.11825E-05-2.40639E-05-2.87785E-05-3.52954E-06 8.29237E-19-1.71765E-18
 -1      3774 8.95178E-05-2.28986E-05-2.85299E-05-3.33172E-06-1.27894E-19-1.73824E-18
 -1      3775 9.18326E-05-2.45259E-05-2.88466E-05-3.25725E-06 8.11767E-19-8.13248E-19
 -1      3776 9.22663E-05-2.49106E-05-2.88767E-05-2.92367E-06 7.56992E-19-1.30872E-18
 -1      3777 9.09717E-05-2.39257E-05-2.87204E-05-2.84761E-06 1.39916E-18-2.39103E-18
 -1      3778 9.25645E-05-2.51283E-05-2.88969E-05-2.69842E-06-1.58436E-19-6.45204E-19
 -1      3779 9.27683E-05-2.53430E-05-2.89024E-05-2.39530E-06-1.27793E-18-2.16080E-18
 -1      3780 9.24141E-05-2.50748E-05-2.88587E-05-1.98488E-06-9.87453E-19-1.05270E-18
 -1      3781 9.18695E-05-2.46231E-05-2.88141E-05-2.39027E-06 7.86960E-19-1.61345E-18
 -1      3782 9.36296E-05-2.05110E-05-3.13458E-05-1.72742E-06-9.75951E-20-2.72589E-18
 -1      3783 9.44406E-05-2.19713E-05-3.10341E-05-1.59067E-06-9.26488E-20-2.66342E-18
 -1      3784 9.36480E-05-2.05533E-05-3.13393E-05-1.15937E-06 2.54578E-19-2.73028E-18
 -1      3785 9.42643E-05-2.70058E-05-2.88196E-05-3.21435E-06 1.46825E-19-3.56448E-19
 -1      3786 9.43856E-05-2.71495E-05-2.88206E-05-2.95871E-06 3.56540E-19-4.41507E-19
 -1      3787 9.58807E-05-2.55428E-05-3.01489E-05-7.75488E-07-5.38580E-19-2.13580E-18
 -1      3788 9.60595E-05-2.62193E-05-2.99399E-05-2.99810E-07-4.19326E-19-2.04817E-18
 -1      3789 9.46334E-05-2.73398E-05-2.88356E-05-2.72732E-06 3.75436E-19-6.12825E-19
 -1      3790 9.47649E-05-2.74928E-05-2.88352E-05-2.52090E-06 5.94756E-19-7.36197E-19
 -1      3791 9.42532E-05-2.70258E-05-2.88105E-05-2.67315E-06 3.74368E-19-8.12313E-19
 -1      3792 9.35552E-05-2.66910E-05-2.86450E-05-5.42685E-06-1.59295E-19-2.29854E-19
 -1      3793 9.34815E-05-2.65689E-05-2.86814E-05-5.00821E-06-8.07072E-20-4.52563E-19
 -1      3794 9.37444E-05-2.71838E-05-2.85114E-05-6.42351E-06-4.82956E-19-5.59160E-19
 -1      3795 9.34923E-05-2.68425E-05-2.85662E-05-5.96788E-06-1.09291E-19-2.96978E-19
 -1      3796 9.26007E-05-2.62147E-05-2.84566E-05-5.68373E-06-1.46513E-19-7.11664E-19
 -1      3797 9.44136E-05-2.82493E-05-2.83373E-05-7.51286E-06-1.53420E-18-5.30940E-19
 -1      3798 9.38816E-05-2.75921E-05-2.84068E-05-7.05090E-06-1.19827E-18-3.62270E-19
 -1      3799 9.26451E-05-2.67430E-05-2.82553E-05-6.89061E-06-8.69815E-19-6.08480E-19
 -1      3800 9.58271E-05-3.01097E-05-2.81430E-05-8.61149E-06-9.75351E-19-8.97254E-19
 -1      3801 9.48821E-05-2.90241E-05-2.82131E-05-8.20632E-06-1.06317E-18-4.25094E-19
 -1      3802 9.32012E-05-2.79143E-05-2.80023E-05-8.29453E-06-1.17367E-18-7.52420E-19
 -1      3803 9.83264E-05-3.29784E-05-2.79838E-05-9.50897E-06-4.07843E-19-8.39356E-19
 -1      3804 9.68229E-05-3.13776E-05-2.80202E-05-9.29206E-06-7.25394E-19-9.58620E-19
 -1      3805 9.45933E-05-3.00086E-05-2.77213E-05-9.83621E-06-8.08474E-19-1.12565E-18
 -1      3806 1.02263E-04-3.69651E-05-2.79712E-05-9.81532E-06-1.51931E-18 1.26146E-19
 -1      3807 1.00083E-04-3.48299E-05-2.79107E-05-1.00214E-05-6.25052E-19-5.94905E-19
 -1      3808 9.72358E-05-3.32744E-05-2.74808E-05-1.13018E-05-8.57368E-19-5.77819E-20
 -1      3809 1.08014E-04-4.16675E-05-2.83699E-05-8.52734E-06-2.18147E-18 1.10167E-19
 -1      3810 1.05150E-04-3.94580E-05-2.80536E-05-9.73788E-06-1.89218E-18-1.25257E-19
 -1      3811 1.01721E-04-3.79755E-05-2.74181E-05-1.23047E-05-1.87151E-18 1.54074E-19
 -1      3812 1.20833E-04-4.79670E-05-3.12498E-05-9.77001E-07-5.21139E-19 6.30927E-19
 -1      3813 1.18683E-04-4.82253E-05-2.99727E-05-4.42265E-06-1.61902E-18 4.73875E-19
 -1      3814 9.51760E-05-2.38557E-05-3.05722E-05-1.56428E-06-4.03373E-19-2.62817E-18
 -1      3815 9.42828E-05-2.67873E-05-2.89309E-05 2.42669E-06 1.35028E-18 6.36339E-19
 -1      3816 9.52229E-05-2.39880E-05-3.05103E-05 2.00009E-06 1.78254E-18-1.33285E-18
 -1      3817 9.58496E-05-2.81815E-05-2.90015E-05-1.28669E-06 8.18601E-19-6.44869E-19
 -1      3818 9.58847E-05-2.80359E-05-2.90725E-05-1.06439E-06 9.02978E-19-7.29476E-19
 -1      3819 9.59982E-05-2.81641E-05-2.90740E-05-1.27139E-06 9.04539E-19-7.27344E-19
 -1      3820 1.13704E-04-4.64908E-05-2.86045E-05 9.02662E-06-3.68009E-19 2.18073E-18
 -1      3821 1.16759E-04-4.78911E-05-2.94944E-05 6.34764E-06 8.21304E-19 2.83994E-18
 -1      3822 9.79099E-05-3.25316E-05-2.79819E-05 9.61260E-06-7.30164E-19 9.79144E-19
 -1      3823 9.97418E-05-3.43195E-05-2.79832E-05 9.61278E-06-8.33252E-19-2.35222E-19
 -1      3824 9.54765E-05-2.97245E-05-2.81617E-05 8.59197E-06-1.38069E-18 8.81598E-19
 -1      3825 9.66201E-05-3.10056E-05-2.80955E-05 8.94733E-06-9.90196E-19 1.12804E-18
 -1      3826 9.54196E-05-3.10200E-05-2.76417E-05 1.04254E-05-9.14122E-19 5.96134E-19
 -1      3827 9.41476E-05-2.79391E-05-2.83691E-05 7.41323E-06-1.45070E-18 9.72412E-19
 -1      3828 9.48238E-05-2.87609E-05-2.82928E-05 7.87765E-06-1.37632E-18 8.65158E-19
 -1      3829 9.35894E-05-2.84974E-05-2.79257E-05 8.82230E-06-1.24727E-18 1.51745E-18
 -1      3830 9.35364E-05-2.69151E-05-2.85523E-05 6.25780E-06-7.05482E-19 1.45188E-18
 -1      3831 9.38895E-05-2.73851E-05-2.84864E-05 6.74137E-06-1.13838E-18 9.12447E-19
 -1      3832 9.27396E-05-2.69732E-05-2.82013E-05 7.32702E-06-1.49846E-18 2.36872E-18
 -1      3833 9.33738E-05-2.64288E-05-2.86943E-05 5.20043E-06 1.90707E-19-8.08533E-21
 -1      3834 9.35182E-05-2.66513E-05-2.86456E-05 5.66237E-06 4.73890E-19 5.37173E-19
 -1      3835 9.25008E-05-2.61766E-05-2.84318E-05 6.00699E-06 1.56676E-19 1.42749E-18
 -1      3836 9.34704E-05-2.62945E-05-2.87942E-05 4.26574E-06-1.46765E-18 1.66822E-18
 -1      3837 9.34892E-05-2.63556E-05-2.87625E-05 4.68939E-06-1.15647E-18 4.13860E-19
 -1      3838 9.26208E-05-2.58724E-05-2.86083E-05 4.88077E-06-1.45902E-18 2.40573E-18
 -1      3839 9.36851E-05-2.63630E-05-2.88580E-05 3.45302E-06 2.53542E-19 2.02504E-18
 -1      3840 9.36488E-05-2.63350E-05-2.88409E-05 3.83414E-06 2.43657E-19 2.11123E-18
 -1      3841 9.29262E-05-2.58830E-05-2.87351E-05 3.93723E-06-8.84893E-19 3.63837E-18
 -1      3842 1.05725E-04-4.08059E-05-2.77058E-05 1.15193E-05 6.93641E-20 3.69025E-19
 -1      3843 1.09013E-04-4.32697E-05-2.80973E-05 1.01752E-05-3.28371E-19 1.71788E-18
 -1      3844 1.07241E-04-4.52128E-05-2.67880E-05 1.66238E-05 7.94921E-19 2.58260E-18
 -1      3845 9.31764E-05-3.93440E-05-2.30538E-05 2.63548E-05-8.76679E-19 4.81274E-19
 -1      3846 8.55403E-05-3.48095E-05-2.14142E-05 2.83510E-05-1.43461E-18 7.21910E-19
 -1      3847 8.02977E-05-3.02196E-05-2.14711E-05 2.52785E-05-1.66680E-18 1.65228E-18
 -1      3848 9.39532E-05-2.65230E-05-2.89015E-05 2.59275E-06 1.08012E-18 1.34074E-18
 -1      3849 9.57219E-05-2.64869E-05-2.96758E-05 6.94852E-07 1.33707E-18-1.24376E-18
 -1      3850 9.56605E-05-2.60068E-05-2.98412E-05 1.27785E-06 1.61612E-18-1.24852E-18
 -1      3851 9.56125E-05-2.54844E-05-3.00656E-05 1.50499E-06 1.74256E-18-1.13098E-18
 -1      3852 9.58550E-05-2.63561E-05-2.97942E-05 5.95639E-07 1.31806E-18-1.23311E-18
 -1      3853 7.10658E-05-2.01275E-05-2.16756E-05 1.71201E-05 1.83478E-18-1.45878E-18
 -1      3854 1.17827E-04-3.69715E-05-3.47134E-05-1.04618E-05 1.44951E-18 2.34711E-19
 -1      3855 9.63375E-05-2.75955E-05-2.94576E-05 5.86959E-07-2.71968E-19-1.74700E-18
 -1      3856 9.63091E-05-2.78444E-05-2.93452E-05 8.29278E-07-3.16157E-19-1.76222E-18
 -1      3857 9.63593E-05-2.78273E-05-2.93699E-05 7.69222E-07-5.69297E-20-1.59043E-18
 -1      3858 1.17977E-04-3.88489E-05-3.39544E-05 9.44680E-06 2.65532E-19 2.12270E-18
 -1      3859 1.07707E-04-4.63416E-05-2.59765E-05-1.96630E-05-2.79478E-18 2.62830E-19
 -1      3860 1.13608E-04-4.86969E-05-2.80710E-05-1.28427E-05-2.19140E-18-5.86206E-19
 -1      3861 9.62388E-05-2.68016E-05-2.97542E-05 1.94662E-08-3.09549E-19-1.94014E-18
 -1      3862 9.62967E-05-2.72452E-05-2.95991E-05 3.62397E-07-2.37872E-19-1.80823E-18
 -1      3863 9.63805E-05-2.72621E-05-2.96200E-05 3.77216E-07-2.12787E-19-1.42208E-18
 -1      3864 1.24300E-04-4.75134E-05-3.27771E-05 2.95236E-06 4.52514E-19 1.09430E-18
 -1      3865 9.36571E-05-2.65872E-05-2.87357E-05-4.55540E-06-1.02024E-19-3.03719E-19
 -1      3866 9.36908E-05-2.66077E-05-2.87555E-05-4.18817E-06 3.34682E-20 4.59315E-20
 -1      3867 9.28562E-05-2.61188E-05-2.86032E-05-4.67606E-06 4.23527E-20-5.69487E-19
 -1      3868 9.39220E-05-2.67290E-05-2.87902E-05-3.81922E-06 5.70369E-20 2.29141E-19
 -1      3869 9.40148E-05-2.68327E-05-2.87980E-05-3.50885E-06 9.33834E-20 7.01856E-20
 -1      3870 9.37558E-05-2.66298E-05-2.87671E-05-3.19436E-06-7.02660E-21-1.36182E-19
 -1      3871 9.32718E-05-2.62979E-05-2.87026E-05-3.85311E-06 1.24757E-19-1.46240E-20
 -1      3872 1.13439E-04-4.60167E-05-2.89032E-05-7.56352E-06-2.01154E-18 1.04245E-19
 -1      3873 9.49205E-05-2.31057E-05-3.07909E-05-1.45084E-06-1.36716E-19-2.74612E-18
 -1      3874 9.55902E-05-2.46874E-05-3.03733E-05-1.01213E-06-3.63410E-19-2.38484E-18
 -1      3875 9.56860E-05-2.48526E-05-3.03612E-05-7.25151E-07-1.16794E-19-2.27317E-18
 -1      3876 9.49042E-05-2.30316E-05-3.08153E-05-1.06624E-06 6.01273E-20-2.50899E-18
 -1      3877 9.38647E-05-2.64468E-05-2.88911E-05 2.91174E-06 2.54331E-19 1.14400E-18
 -1      3878 7.00224E-05-1.79628E-05-2.22388E-05 1.24244E-05 1.64503E-18-2.23239E-18
 -1      3879 1.00980E-04-3.61111E-05-2.77435E-05 1.08143E-05-6.64685E-19-1.05197E-19
 -1      3880 1.03648E-04-3.83645E-05-2.78852E-05 1.02779E-05-4.93134E-19-4.11754E-19
 -1      3881 1.00809E-04-3.88020E-05-2.66678E-05 1.54628E-05-1.45822E-19 1.92551E-18
 -1      3882 9.78344E-05-3.44093E-05-2.72349E-05 1.25208E-05-7.32879E-19 9.14624E-19
 -1      3883 9.32978E-05-2.60443E-05-2.88267E-05 2.94065E-06 9.08967E-19 3.01388E-18
 -1      3884 9.49988E-05-2.76741E-05-2.88497E-05-2.34096E-06 8.37264E-19-9.45701E-19
 -1      3885 9.51298E-05-2.78128E-05-2.88533E-05-2.17423E-06 7.36275E-19-1.09823E-18
 -1      3886 9.47332E-05-2.74244E-05-2.88457E-05-2.26489E-06 6.26501E-19-9.58183E-19
 -1      3887 9.59138E-05-2.82545E-05-2.89961E-05-1.52025E-06 2.45230E-19-3.31971E-19
 -1      3888 9.60067E-05-2.82318E-05-2.90453E-05-1.37241E-06 4.49384E-19-5.90492E-19
 -1      3889 9.18772E-05-2.46886E-05-2.87935E-05-1.60679E-06-8.86749E-20-1.77049E-18
 -1      3890 9.21419E-05-2.49169E-05-2.88167E-05-1.42697E-06-6.63207E-20-1.08698E-18
 -1      3891 9.19635E-05-2.47943E-05-2.87884E-05-9.31236E-07-3.77960E-19-1.45003E-18
 -1      3892 7.00230E-05-1.84119E-05-2.20567E-05-1.35426E-05 3.71742E-19-1.55536E-18
 -1      3893 6.67678E-05-1.53228E-05-2.18531E-05-8.58940E-06-2.70124E-20-3.75657E-18
 -1      3894 7.20565E-05-1.74103E-05-2.34328E-05 1.03820E-05 8.95277E-19-2.18959E-18
 -1      3895 7.13163E-05-2.22882E-05-2.09806E-05 1.95712E-05-1.22133E-18 1.79568E-18
 -1      3896 6.59618E-05-1.88949E-05-1.99315E-05 1.74652E-05-1.08545E-18 9.89784E-19
 -1      3897 6.63549E-05-1.72211E-05-2.09828E-05 1.25306E-05 2.50457E-19-1.63491E-19
 -1      3898 6.23498E-05-1.40864E-05-2.05707E-05 9.35474E-07 7.39870E-19-2.79381E-18
 -1      3899 7.80823E-05-2.69937E-05-2.18664E-05-2.24097E-05-2.58607E-18-1.30671E-18
 -1      3900 8.14020E-05-3.07061E-05-2.15086E-05-2.57120E-05-2.83727E-18-1.72199E-18
 -1      3901 8.85544E-05-3.43109E-05-2.32230E-05-2.35509E-05-3.20581E-18-1.29570E-19
 -1      3902 9.54101E-05-2.80980E-05-2.88491E-05-2.11987E-06 5.61900E-19-1.23830E-19
 -1      3903 6.33590E-05-1.39421E-05-2.10838E-05 2.18845E-07-1.94986E-19-4.33018E-18
 -1      3904 6.44857E-05-1.45402E-05-2.14300E-05-4.66978E-06 9.08443E-20-4.65327E-18
 -1      3905 6.84666E-05-1.54752E-05-2.26825E-05-5.29826E-06-4.40704E-19-4.09108E-18
 -1      3906 9.56515E-05-2.81706E-05-2.89184E-05-1.77119E-06 6.40342E-19-4.52770E-19
 -1      3907 9.57628E-05-2.82221E-05-2.89465E-05-1.63879E-06 4.89033E-19-5.54413E-19
 -1      3908 9.59057E-05-2.81735E-05-2.90286E-05-1.43074E-06 3.77700E-19-7.43897E-19
 -1      3909 9.61647E-05-2.62669E-05-2.99514E-05-1.67821E-07-2.96896E-19-1.90699E-18
 -1      3910 1.10175E-04-4.39531E-05-2.82678E-05-9.72949E-06-2.23146E-18-2.02811E-19
 -1      3911 1.06569E-04-4.28490E-05-2.72927E-05-1.38244E-05-2.03198E-18-4.18772E-19
 -1      3912 1.20984E-04-4.29538E-05-3.36680E-05 6.93222E-06 8.37252E-19 1.93387E-18
 -1      3913 9.60746E-05-2.78208E-05-2.92537E-05-8.26927E-07 9.65396E-19-7.96492E-19
 -1      3914 6.62153E-05-1.77854E-05-2.04936E-05-1.47430E-05-8.87135E-19-1.23411E-18
 -1      3915 7.05093E-05-2.08642E-05-2.12721E-05-1.74707E-05-1.50852E-18-9.27713E-19
 -1      3916 9.52827E-05-2.39372E-05-3.05882E-05 1.26813E-06 1.55037E-18-1.75458E-18
 -1      3917 9.51646E-05-2.35860E-05-3.06797E-05 1.00609E-06 1.32727E-18-1.87719E-18
 -1      3918 1.01543E-04-4.24577E-05-2.52939E-05-2.07080E-05-2.91988E-18 8.68705E-20
 -1      3919 9.27708E-05-2.56297E-05-2.87746E-05 2.60359E-06 9.78153E-19 1.10311E-18
 -1      3920 9.25580E-05-2.55146E-05-2.87249E-05 3.18870E-06 2.77540E-19 1.58477E-18
 -1      3921 9.23826E-05-2.53320E-05-2.87449E-05 2.28435E-06 7.59756E-19-3.16337E-19
 -1      3922 1.20636E-04-4.67538E-05-3.18221E-05-1.85732E-06 2.19379E-18 1.81162E-18
 -1      3923 1.21728E-04-4.43896E-05-3.32768E-05-5.42318E-06 2.28337E-18 1.44056E-18
 -1      3924 9.50818E-05-2.33711E-05-3.07455E-05 7.78293E-07 1.26833E-18-2.11862E-18
 -1      3925 9.50196E-05-2.31940E-05-3.07888E-05 4.52328E-07 1.05436E-18-2.49305E-18
 -1      3926 9.55845E-05-2.44080E-05-3.04872E-05 6.26767E-07 1.13490E-18-1.91520E-18
 -1      3927 9.59428E-05-2.61620E-05-2.99097E-05 5.31315E-07 1.27696E-18-1.26999E-18
 -1      3928 9.58300E-05-2.57298E-05-3.00345E-05 9.42735E-07 1.44596E-18-1.20877E-18
 -1      3929 9.37380E-05-2.07012E-05-3.13154E-05-1.80876E-07 7.01725E-19-2.87897E-18
 -1      3930 9.36363E-05-2.05018E-05-3.13512E-05-7.09960E-07 4.77047E-19-2.90005E-18
 -1      3931 9.43986E-05-2.18595E-05-3.10704E-05-7.60373E-07 3.25056E-19-2.58396E-18
 -1      3932 9.44457E-05-2.19332E-05-3.10589E-05 3.42462E-08 7.25488E-19-2.67389E-18
 -1      3933 6.55343E-05-1.53513E-05-2.15099E-05 6.73127E-06 8.02919E-20-1.95362E-18
 -1      3934 6.39940E-05-1.42979E-05-2.12182E-05 3.10051E-06 2.98918E-19-2.87848E-18
 -1      3935 6.73415E-05-1.49508E-05-2.24130E-05 1.43948E-06-9.96935E-20-2.72149E-18
 -1      3936 9.17095E-05-2.47691E-05-2.86963E-05 1.32989E-06 8.14501E-20-2.89606E-18
 -1      3937 9.19720E-05-2.49860E-05-2.87108E-05 1.77600E-06 6.35071E-19-1.74200E-18
 -1      3938 9.15133E-05-2.46990E-05-2.86255E-05 2.33044E-06-5.79522E-19-1.55163E-18
 -1      3939 9.14550E-05-2.45092E-05-2.86929E-05 3.54694E-07 4.59952E-20-3.43708E-18
 -1      3940 9.15293E-05-2.45914E-05-2.86906E-05 7.89636E-07 3.52868E-19-3.10847E-18
 -1      3941 9.08621E-05-2.41480E-05-2.85825E-05 1.22843E-06 3.61994E-19-3.45892E-18
 -1      3942 6.48966E-05-1.62193E-05-2.08979E-05-1.02200E-05-6.75734E-19-2.45689E-18
 -1      3943 1.02199E-04-4.30693E-05-2.51487E-05 2.14339E-05 6.34332E-20 1.29652E-18
 -1      3944 9.61806E-05-2.72248E-05-2.95569E-05-2.99277E-07 1.02857E-18-1.15500E-18
 -1      3945 9.61220E-05-2.67711E-05-2.97154E-05 9.46554E-08 1.05314E-18-1.27648E-18
 -1      3946 9.60481E-05-2.61855E-05-2.99399E-05 3.68043E-07 1.18824E-18-1.45225E-18
 -1      3947 7.08398E-05-1.60088E-05-2.33759E-05 6.56617E-06 5.51662E-19-1.50708E-18
 -1      3948 9.56708E-05-3.82967E-05-2.46004E-05 2.15425E-05-7.11931E-19 2.11944E-18
 -1      3949 9.61093E-05-2.58220E-05-3.01122E-05-3.20036E-07-1.00235E-20-1.89561E-18
 -1      3950 9.62697E-05-2.64632E-05-2.99248E-05-7.12754E-09 2.48667E-20-1.75734E-18
 -1      3951 1.21717E-04-4.15340E-05-3.45397E-05-8.73558E-06 1.32141E-18 7.67835E-19
 -1      3952 9.57377E-05-3.62447E-05-2.54222E-05 1.83848E-05-4.18069E-19 2.71914E-18
 -1      3953 8.78896E-05-3.25506E-05-2.36102E-05 2.22452E-05-1.26493E-18 1.48198E-18
 -1      3954 9.38534E-05-3.38332E-05-2.57743E-05 1.65904E-05-6.59642E-19 2.65838E-18
 -1      3955 9.59649E-05-2.80277E-05-2.91167E-05 9.93689E-07 1.35679E-19-1.43975E-18
 -1      3956 9.57673E-05-2.79568E-05-2.90622E-05 1.09819E-06 1.72130E-19-1.28039E-18
 -1      3957 9.55077E-05-2.78237E-05-2.90092E-05 1.15969E-06 5.03329E-20-1.26208E-18
 -1      3958 9.52534E-05-2.76541E-05-2.89716E-05 1.25776E-06-5.00869E-20-1.14543E-18
 -1      3959 9.56435E-05-2.78316E-05-2.90600E-05 8.74938E-07 1.26864E-19-9.66893E-19
 -1      3960 9.49262E-05-2.74265E-05-2.89315E-05 1.31853E-06-5.23896E-20-1.15984E-18
 -1      3961 9.46123E-05-2.71720E-05-2.89038E-05 1.42152E-06-7.28798E-20-1.01735E-18
 -1      3962 9.50626E-05-2.74723E-05-2.89640E-05 9.91241E-07-1.71320E-20-9.93235E-19
 -1      3963 9.42132E-05-2.68619E-05-2.88691E-05 1.48687E-06 6.51960E-20-9.95693E-19
 -1      3964 9.38304E-05-2.65319E-05-2.88440E-05 1.60153E-06 1.62999E-19-8.77032E-19
 -1      3965 9.43445E-05-2.69318E-05-2.88862E-05 1.10331E-06 8.06256E-20-7.72002E-19
 -1      3966 9.33489E-05-2.61470E-05-2.88066E-05 1.67142E-06-5.92702E-20-1.23901E-18
 -1      3967 9.28807E-05-2.57459E-05-2.87754E-05 1.79938E-06-2.50934E-19-1.28569E-18
 -1      3968 9.34744E-05-2.62327E-05-2.88107E-05 1.21537E-06-3.66357E-20-1.26523E-18
 -1      3969 9.22996E-05-2.52902E-05-2.87256E-05 1.86971E-06-1.83100E-19-1.56929E-18
 -1      3970 9.17234E-05-2.48203E-05-2.86781E-05 2.00865E-06-3.99263E-19-1.43224E-18
 -1      3971 9.24253E-05-2.53904E-05-2.87196E-05 1.31785E-06-3.49038E-19-1.62971E-18
 -1      3972 9.10184E-05-2.42985E-05-2.86033E-05 2.07279E-06-5.87699E-19-1.39111E-18
 -1      3973 9.03067E-05-2.37672E-05-2.85253E-05 2.21611E-06-8.53699E-19-1.15048E-18
 -1      3974 9.11578E-05-2.44133E-05-2.85909E-05 1.39506E-06-3.20777E-19-1.48328E-18
 -1      3975 8.94457E-05-2.31838E-05-2.84096E-05 2.25697E-06-1.12616E-18-6.65231E-19
 -1      3976 8.85587E-05-2.25935E-05-2.82832E-05 2.39629E-06-9.15298E-19-7.40656E-19
 -1      3977 8.96172E-05-2.33175E-05-2.83954E-05 1.42413E-06-7.29641E-19-7.39056E-19
 -1      3978 8.74991E-05-2.19554E-05-2.81055E-05 2.40112E-06-4.57925E-19-4.43556E-19
 -1      3979 8.63881E-05-2.13155E-05-2.79059E-05 2.53044E-06 1.70987E-19-4.85922E-19
 -1      3980 8.77283E-05-2.21106E-05-2.80966E-05 1.35877E-06-5.14685E-19-3.19143E-20
 -1      3981 8.50691E-05-2.06341E-05-2.76363E-05 2.48278E-06 1.44062E-19-1.09187E-18
 -1      3982 8.36664E-05-1.99582E-05-2.73278E-05 2.60528E-06-1.99638E-19-1.28446E-18
 -1      3983 8.53976E-05-2.08116E-05-2.76445E-05 1.16300E-06-3.24234E-19-5.89109E-19
 -1      3984 8.19876E-05-1.92420E-05-2.69227E-05 2.49310E-06-2.60630E-19-1.36486E-18
 -1      3985 8.01853E-05-1.85414E-05-2.64525E-05 2.63908E-06-3.47326E-19-1.72747E-18
 -1      3986 8.24729E-05-1.94342E-05-2.69664E-05 7.84169E-07-6.49025E-19-1.42205E-18
 -1      3987 7.79819E-05-1.77994E-05-2.58444E-05 2.45537E-06-3.82277E-19-1.60739E-18
 -1      3988 7.55596E-05-1.70757E-05-2.51341E-05 2.71649E-06-4.25951E-19-1.39353E-18
 -1      3989 7.87281E-05-1.79798E-05-2.59528E-05 1.88526E-07-2.17274E-19-1.25179E-18
 -1      3990 7.62035E-05-1.71933E-05-2.52932E-05-3.50950E-06-7.99751E-20-3.82005E-18
 -1      3991 7.83608E-05-1.78508E-05-2.59811E-05-3.18688E-06 1.08864E-18-3.53728E-18
 -1      3992 8.05330E-05-1.85758E-05-2.65788E-05-3.21834E-06 1.88442E-18-3.13460E-18
 -1      3993 8.22450E-05-1.92374E-05-2.70354E-05-2.98722E-06 1.60206E-18-3.30448E-18
 -1      3994 7.88446E-05-1.78816E-05-2.60591E-05-8.76170E-07 1.43662E-18-3.25884E-18
 -1      3995 8.38993E-05-1.99343E-05-2.74351E-05-3.01486E-06 1.13938E-18-2.81003E-18
 -1      3996 8.52422E-05-2.05751E-05-2.77361E-05-2.82186E-06 1.84391E-18-2.55693E-18
 -1      3997 8.25920E-05-1.93348E-05-2.70602E-05-1.28090E-06 1.63248E-18-2.87003E-18
 -1      3998 8.65329E-05-2.12291E-05-2.80030E-05-2.80315E-06 2.05463E-18-3.00259E-18
 -1      3999 8.75862E-05-2.18269E-05-2.81986E-05-2.61516E-06 8.66712E-19-1.92702E-18
 -1      4000 8.54627E-05-2.06736E-05-2.77319E-05-1.50823E-06 1.76386E-18-2.17140E-18
 -1      4001 8.86117E-05-2.24259E-05-2.83755E-05-2.56050E-06-3.07682E-19-8.38866E-19
 -1      4002 8.94321E-05-2.29663E-05-2.84998E-05-2.37140E-06 2.58999E-19-1.38631E-18
 -1      4003 8.77423E-05-2.19145E-05-2.81819E-05-1.57695E-06 1.07249E-18-2.68233E-18
 -1      4004 9.02412E-05-2.34890E-05-2.86158E-05-2.26307E-06 1.15193E-18-1.25600E-18
 -1      4005 9.08889E-05-2.39651E-05-2.86927E-05-2.07272E-06 1.93200E-18-6.59428E-19
 -1      4006 8.94966E-05-2.29951E-05-2.84773E-05-1.54056E-06 9.50617E-19 2.68477E-19
 -1      4007 9.12626E-05-2.42198E-05-2.87327E-05-1.92997E-06 2.08382E-18-1.55770E-18
 -1      4008 9.15600E-05-2.44644E-05-2.87605E-05-1.72384E-06 5.31052E-19-1.48618E-18
 -1      4009 9.13448E-05-2.43161E-05-2.87179E-05-1.14925E-06 6.29005E-19-8.27265E-19
 -1      4010 9.06400E-05-2.37820E-05-2.86359E-05-1.37867E-06 1.16302E-18 8.93492E-19
 -1      4011 9.53424E-05-2.79641E-05-2.88734E-05-2.03243E-06 6.90095E-19-9.23723E-19
 -1      4012 9.54659E-05-2.80685E-05-2.88866E-05-1.89190E-06 8.49220E-19-5.37727E-19
 -1      4013 9.55719E-05-2.80404E-05-2.89422E-05-1.67682E-06 8.32299E-19-8.53667E-19
 -1      4014 9.51771E-05-2.77770E-05-2.88853E-05-1.94277E-06 9.54745E-19-1.20564E-18
 -1      4015 1.20737E-04-4.87176E-05-3.06915E-05 2.68965E-06 1.00487E-18 2.44885E-18
 -1      4016 9.61607E-05-2.81284E-05-2.91573E-05-1.16179E-06 4.69765E-19-4.36070E-19
 -1      4017 9.61127E-05-2.81694E-05-2.91193E-05-1.23307E-06 6.23196E-19-7.57183E-19
 -1      4018 9.61761E-05-2.80448E-05-2.91964E-05-1.04045E-06 7.51434E-19-7.20261E-19
 -1      4019 9.14774E-05-2.60637E-05-2.80118E-05-7.06216E-06-1.15378E-18-4.97386E-19
 -1      4020 9.13416E-05-2.57136E-05-2.81359E-05-6.40072E-06-5.18565E-19-3.79929E-19
 -1      4021 9.16235E-05-2.55962E-05-2.82827E-05-5.69088E-06-5.23521E-20-1.40186E-21
 -1      4022 9.16891E-05-2.55006E-05-2.83764E-05-5.13847E-06 2.42147E-19 3.39408E-20
 -1      4023 9.04131E-05-2.49449E-05-2.80566E-05-5.82706E-06-1.62748E-19 6.07906E-19
 -1      4024 9.30664E-05-2.93182E-05-2.72764E-05-1.07413E-05-6.04051E-19-1.09907E-18
 -1      4025 9.20275E-05-2.80230E-05-2.74362E-05-9.89032E-06-8.79611E-19-1.07483E-18
 -1      4026 9.56341E-05-3.27438E-05-2.68991E-05-1.29081E-05-1.72460E-18-2.92441E-19
 -1      4027 9.38307E-05-3.07471E-05-2.70200E-05-1.20661E-05-1.08729E-18-6.41601E-19
 -1      4028 9.09025E-05-2.87024E-05-2.67007E-05-1.22128E-05-1.13959E-18-1.00336E-18
 -1      4029 9.98303E-05-3.77526E-05-2.66395E-05-1.48491E-05-1.75423E-18-6.67739E-19
 -1      4030 9.72841E-05-3.48955E-05-2.66736E-05-1.41626E-05-1.57819E-18-2.18893E-19
 -1      4031 9.34101E-05-3.25916E-05-2.61642E-05-1.53099E-05-1.53044E-18-1.05526E-18
 -1      4032 9.12378E-05-2.57715E-05-2.80651E-05 6.88189E-06-1.10700E-18 2.89071E-18
 -1      4033 9.14909E-05-2.62750E-05-2.79261E-05 7.60819E-06-1.52650E-18 3.27797E-18
 -1      4034 9.54115E-05-2.43746E-05-3.04494E-05 1.31586E-06 1.59311E-18-1.54268E-18
 -1      4035 9.57213E-05-2.50592E-05-3.02810E-05 7.96327E-07 1.39703E-18-1.63032E-18
 -1      4036 9.14986E-05-2.68425E-05-2.77148E-05 8.60317E-06-1.91614E-18 3.10277E-18
 -1      4037 9.21394E-05-2.77776E-05-2.75541E-05 9.43532E-06-1.61741E-18 2.53689E-18
 -1      4038 8.98871E-05-2.55727E-05-2.75737E-05 8.14201E-06-8.94530E-19 2.96638E-18
 -1      4039 8.25754E-05-2.94748E-05-2.27109E-05 2.22149E-05-1.47983E-18 9.24603E-19
 -1      4040 7.66560E-05-2.53573E-05-2.17580E-05 2.14738E-05-1.49139E-18 2.31499E-18
 -1      4041 7.44717E-05-2.24212E-05-2.22669E-05 1.73507E-05-1.14364E-18 1.98516E-18
 -1      4042 8.33260E-05-2.80802E-05-2.37546E-05 1.91987E-05-1.26317E-18 1.25078E-18
 -1      4043 9.25475E-05-2.88372E-05-2.73055E-05 1.06178E-05-1.48818E-18 1.82185E-18
 -1      4044 9.37984E-05-3.03528E-05-2.71542E-05 1.15259E-05-9.56678E-19 1.62803E-18
 -1      4045 9.02519E-05-2.71065E-05-2.70784E-05 1.04685E-05-1.53254E-18 3.07866E-18
 -1      4046 9.14321E-05-2.53229E-05-2.83418E-05 5.47762E-06 5.66207E-19 2.05787E-18
 -1      4047 9.14476E-05-2.55345E-05-2.82322E-05 6.09214E-06 2.00778E-19 2.34736E-18
 -1      4048 9.01391E-05-2.48668E-05-2.79750E-05 6.32271E-06-2.31173E-19 2.65982E-18
 -1      4049 9.18727E-05-2.52819E-05-2.85476E-05 4.35034E-06-2.19008E-18 1.77908E-18
 -1      4050 9.17537E-05-2.53068E-05-2.84671E-05 4.85112E-06-5.69501E-19 1.81776E-18
 -1      4051 9.06915E-05-2.46926E-05-2.82830E-05 4.90440E-06-5.72451E-19 2.70741E-18
 -1      4052 9.23034E-05-2.54060E-05-2.86727E-05 3.51777E-06-1.10050E-18 1.63580E-18
 -1      4053 9.21140E-05-2.53268E-05-2.86141E-05 3.93928E-06-2.06901E-18 1.97548E-18
 -1      4054 9.12337E-05-2.47672E-05-2.84810E-05 3.89543E-06-2.00722E-18 1.15418E-18
 -1      4055 9.17190E-05-2.49816E-05-2.86091E-05 3.18146E-06-1.17730E-18 7.23846E-19
 -1      4056 7.23069E-05-1.61469E-05-2.41056E-05 2.05649E-06-1.65608E-19-1.55557E-18
 -1      4057 6.69762E-05-1.50056E-05-2.23352E-05 2.02723E-06 8.04410E-19-1.74436E-18
 -1      4058 6.53974E-05-1.44836E-05-2.15840E-05-4.22250E-06 5.81706E-20-2.75551E-18
 -1      4059 7.33506E-05-1.62460E-05-2.43084E-05-1.17389E-06-5.36261E-20-1.21966E-18
 -1      4060 9.54306E-05-2.46056E-05-3.03508E-05 1.48391E-06 1.61127E-18-1.36332E-18
 -1      4061 9.60511E-05-2.59010E-05-3.00639E-05 4.47518E-07 1.13860E-18-1.57063E-18
 -1      4062 9.59429E-05-2.54992E-05-3.01952E-05 4.41719E-07 1.12129E-18-1.71072E-18
 -1      4063 9.62222E-05-2.65346E-05-2.98683E-05 1.70929E-08 9.87024E-19-1.57115E-18
 -1      4064 6.91493E-05-1.50342E-05-2.30598E-05-1.85636E-06-4.54972E-19-3.85460E-18
 -1      4065 7.06719E-05-1.59714E-05-2.34416E-05-5.33957E-06-5.81387E-19-3.51036E-18
 -1      4066 7.35126E-05-1.64954E-05-2.45045E-05-4.53085E-06-2.04506E-19-3.54954E-18
 -1      4067 6.94257E-05-1.54578E-05-2.31508E-05 8.67807E-07-4.64234E-19-2.92690E-18
 -1      4068 1.01402E-04-3.99517E-05-2.63899E-05-1.62993E-05-2.07440E-18-7.73328E-19
 -1      4069 6.94563E-05-1.67978E-05-2.25585E-05-7.68811E-06-6.74986E-19-1.68178E-18
 -1      4070 9.18461E-05-2.72008E-05-2.76704E-05-8.73698E-06-1.11375E-18-1.23070E-18
 -1      4071 9.13649E-05-2.64719E-05-2.78205E-05-7.97089E-06-1.09720E-18-1.08207E-18
 -1      4072 8.99872E-05-2.53581E-05-2.76967E-05-7.46944E-06-8.01437E-19-8.28418E-19
 -1      4073 9.00124E-05-2.64632E-05-2.72393E-05-9.56975E-06-1.08646E-18-1.18795E-18
 -1      4074 9.64558E-05-2.76783E-05-2.94753E-05 5.37619E-07-1.70294E-19-1.41013E-18
 -1      4075 9.63962E-05-2.78794E-05-2.93668E-05 7.04658E-07 2.53680E-20-1.37807E-18
 -1      4076 9.38845E-05-2.67098E-05-2.87852E-05-2.49794E-06 1.72653E-19 1.63194E-20
 -1      4077 9.41335E-05-2.69317E-05-2.88063E-05-2.27392E-06 4.28635E-19-2.43217E-19
 -1      4078 9.64153E-05-2.69840E-05-2.97536E-05 1.81545E-07-1.51534E-19-1.52769E-18
 -1      4079 9.64555E-05-2.73808E-05-2.96078E-05 4.10788E-07-1.66049E-19-1.43169E-18
 -1      4080 9.64887E-05-2.74214E-05-2.95978E-05 3.55337E-07-2.16397E-19-1.19288E-18
 -1      4081 9.20596E-05-2.55749E-05-2.84833E-05-4.58663E-06-3.40216E-20-2.15301E-20
 -1      4082 9.22375E-05-2.56441E-05-2.85491E-05-4.13787E-06-1.75128E-19-2.34168E-19
 -1      4083 9.10830E-05-2.49846E-05-2.83242E-05-4.56504E-06 3.85053E-20 6.08165E-19
 -1      4084 9.62901E-05-2.79988E-05-2.92676E-05 7.96844E-07 1.91113E-19-1.43015E-18
 -1      4085 9.61542E-05-2.80483E-05-2.91895E-05 9.22865E-07 1.00092E-19-1.43134E-18
 -1      4086 9.60884E-05-2.79783E-05-2.91886E-05 7.42667E-07 1.46085E-19-1.19766E-18
 -1      4087 7.45057E-05-2.14516E-05-2.27924E-05-1.53092E-05-1.60674E-18-6.28227E-19
 -1      4088 7.58923E-05-2.37715E-05-2.21547E-05-1.90680E-05-1.89797E-18-1.04492E-18
 -1      4089 8.15111E-05-2.73312E-05-2.33249E-05-1.96164E-05-2.33784E-18-6.87658E-19
 -1      4090 9.62185E-05-2.78546E-05-2.93014E-05-8.52173E-07 8.09448E-19-8.89785E-19
 -1      4091 9.62249E-05-2.75878E-05-2.94119E-05-5.74439E-07 9.12811E-19-9.46002E-19
 -1      4092 9.62933E-05-2.72336E-05-2.95969E-05-3.41091E-07 8.56912E-19-1.28414E-18
 -1      4093 9.63059E-05-2.78429E-05-2.93415E-05-8.20700E-07 7.68382E-19-1.01489E-18
 -1      4094 7.41079E-05-1.63887E-05-2.46504E-05-1.34753E-06-4.03476E-19-4.31041E-18
 -1      4095 9.44733E-05-2.71797E-05-2.88371E-05-2.08895E-06 6.31792E-19-5.42678E-19
 -1      4096 9.47081E-05-2.73850E-05-2.88569E-05-1.91284E-06 7.47396E-19-3.29603E-19
 -1      4097 9.41218E-05-2.68793E-05-2.88155E-05-1.90621E-06 4.49875E-19 2.20034E-19
 -1      4098 9.63978E-05-2.74408E-05-2.95535E-05-4.86688E-07 6.57182E-19-1.39308E-18
 -1      4099 9.63641E-05-2.70625E-05-2.97007E-05-2.02593E-07 8.25758E-19-1.47271E-18
 -1      4100 9.63516E-05-2.67963E-05-2.98129E-05-1.23295E-07 8.89873E-19-1.48378E-18
 -1      4101 9.06752E-05-2.41460E-05-2.85158E-05 2.08048E-06-5.58664E-19-2.82878E-18
 -1      4102 9.11147E-05-2.44931E-05-2.85536E-05 2.62036E-06-5.99415E-19-1.19620E-18
 -1      4103 9.08343E-05-2.43659E-05-2.84905E-05 2.95921E-06-1.27945E-18-9.55997E-19
 -1      4104 6.76650E-05-1.65189E-05-2.18245E-05 9.41094E-06-4.04906E-19-1.32774E-18
 -1      4105 6.99767E-05-1.65830E-05-2.28204E-05 7.08483E-06-6.20038E-19-2.10792E-18
 -1      4106 7.06917E-05-1.86683E-05-2.23477E-05 1.25648E-05-1.09609E-18 6.85005E-19
 -1      4107 9.61882E-05-2.81222E-05-2.91717E-05-1.06720E-06 2.22977E-19-7.63260E-19
 -1      4108 9.62926E-05-2.80385E-05-2.92513E-05-9.15724E-07 4.83846E-19-8.21679E-19
 -1      4109 9.18581E-05-2.53127E-05-2.85154E-05-3.60522E-06-5.68773E-20 1.29485E-19
 -1      4110 9.26352E-05-2.58303E-05-2.86237E-05-3.71145E-06 6.96870E-20-2.23766E-19
 -1      4111 9.28696E-05-2.59981E-05-2.86672E-05-3.35218E-06 1.68254E-19-5.71262E-20
 -1      4112 7.20461E-05-1.71713E-05-2.36406E-05-5.90688E-06-6.68683E-19-1.10465E-18
 -1      4113 7.28478E-05-1.84956E-05-2.30973E-05-1.11029E-05-1.28468E-18-7.98216E-19
 -1      4114 9.48729E-05-2.29011E-05-3.08520E-05-7.94078E-07 2.33013E-19-2.35473E-18
 -1      4115 9.53614E-05-2.38674E-05-3.06183E-05-6.77438E-07 1.35158E-19-2.28434E-18
 -1      4116 9.48652E-05-2.28777E-05-3.08651E-05-4.28443E-07 4.62451E-19-2.44402E-18
 -1      4117 9.63817E-05-2.78638E-05-2.93634E-05 5.77365E-07-1.70719E-20-1.31555E-18
 -1      4118 9.58079E-05-2.50801E-05-3.03202E-05-4.97133E-07 4.52742E-20-1.98278E-18
 -1      4119 9.47091E-05-3.67201E-05-2.47163E-05-2.10215E-05-2.49715E-18-5.28200E-20
 -1      4120 9.01470E-05-2.36340E-05-2.84923E-05 8.92697E-07 1.13329E-18-3.87412E-18
 -1      4121 9.03448E-05-2.38560E-05-2.85014E-05 1.46787E-06 6.54583E-19-2.61918E-18
 -1      4122 8.99807E-05-2.36430E-05-2.84268E-05 1.73811E-06 1.17088E-18-2.02993E-18
 -1      4123 9.54712E-05-2.40260E-05-3.05935E-05 2.44943E-07 8.92304E-19-2.27733E-18
 -1      4124 9.49452E-05-2.30361E-05-3.08304E-05 2.10132E-07 9.61446E-19-2.50799E-18
 -1      4125 9.48921E-05-2.29158E-05-3.08545E-05-1.27079E-07 6.01837E-19-2.48215E-18
 -1      4126 9.63386E-05-2.65486E-05-2.99043E-05 5.17063E-08 7.40974E-20-1.68241E-18
 -1      4127 9.33821E-05-3.11249E-05-2.67156E-05 1.30567E-05-5.63786E-20 2.09138E-18
 -1      4128 9.44077E-05-3.27053E-05-2.63854E-05 1.44932E-05 8.26304E-20 3.04356E-18
 -1      4129 8.91960E-05-3.02104E-05-2.52391E-05 1.68654E-05-2.17581E-19 2.53193E-18
 -1      4130 9.03160E-05-2.87951E-05-2.63561E-05 1.32512E-05-6.91182E-19 3.19875E-18
 -1      4131 9.58822E-05-2.81148E-05-2.90428E-05-1.29728E-06 5.44275E-19-1.07852E-18
 -1      4132 9.60333E-05-2.81396E-05-2.90974E-05-1.16828E-06 3.47501E-19-9.00797E-19
 -1      4133 9.61558E-05-2.80621E-05-2.91822E-05-9.33928E-07 4.03417E-19-1.07639E-18
 -1      4134 9.03461E-05-3.27962E-05-2.45865E-05-1.96912E-05-2.33496E-18-3.88866E-19
 -1      4135 9.35127E-05-2.64503E-05-2.87478E-05-2.74413E-06 5.09785E-20-6.63429E-20
 -1      4136 9.34130E-05-2.63374E-05-2.87429E-05-2.32353E-06 1.93780E-19 3.78253E-19
 -1      4137 9.32617E-05-2.62393E-05-2.87189E-05-3.02977E-06 7.75767E-20-1.82128E-19
 -1      4138 7.68831E-05-2.12391E-05-2.38228E-05-1.27031E-05-1.37289E-18-4.09656E-19
 -1      4139 9.17795E-05-2.46861E-05-2.87596E-05-5.93762E-07-8.01418E-19-1.92664E-18
 -1      4140 9.17362E-05-2.46774E-05-2.87461E-05-1.45184E-07-4.71466E-19-2.59605E-18
 -1      4141 9.59125E-05-2.53143E-05-3.02627E-05 3.14320E-07 9.81003E-19-1.83661E-18
 -1      4142 9.14547E-05-2.44352E-05-2.87224E-05-7.03565E-07-6.32486E-19-1.86562E-18
 -1      4143 7.79517E-05-1.80320E-05-2.57121E-05 1.67034E-06 9.47211E-19-1.74386E-18
 -1      4144 8.00609E-05-1.87184E-05-2.63112E-05 1.19676E-06 1.89466E-18-1.40313E-18
 -1      4145 8.75485E-05-2.97336E-05-2.47145E-05-1.75130E-05-1.75766E-18-6.13285E-19
 -1      4146 9.52162E-05-2.75750E-05-2.89909E-05 6.34261E-07-1.00687E-19-7.40649E-19
 -1      4147 9.48892E-05-2.73489E-05-2.89477E-05 6.85139E-07-1.37678E-19-8.38817E-19
 -1      4148 9.45098E-05-2.70744E-05-2.89034E-05 6.91361E-07-6.12220E-20-8.03782E-19
 -1      4149 9.41100E-05-2.67642E-05-2.88654E-05 7.36901E-07 1.41873E-19-9.84083E-19
 -1      4150 9.46876E-05-2.71806E-05-2.89275E-05 3.29635E-07-1.36794E-19-6.07145E-19
 -1      4151 9.36578E-05-2.64138E-05-2.88221E-05 7.30693E-07 6.29701E-20-1.18809E-18
 -1      4152 9.31716E-05-2.60304E-05-2.87808E-05 7.65664E-07-4.64148E-19-1.59166E-18
 -1      4153 9.38695E-05-2.65613E-05-2.88386E-05 3.14396E-07-1.15312E-19-7.63611E-19
 -1      4154 9.26316E-05-2.56085E-05-2.87289E-05 7.49435E-07-6.15516E-19-1.37069E-18
 -1      4155 9.20500E-05-2.51605E-05-2.86747E-05 7.70222E-07-2.51266E-19-1.27248E-18
 -1      4156 9.28706E-05-2.57768E-05-2.87407E-05 2.59378E-07-2.48868E-19-9.70676E-19
 -1      4157 9.14133E-05-2.46837E-05-2.86038E-05 7.23863E-07-2.88428E-21-1.40214E-18
 -1      4158 9.07140E-05-2.41782E-05-2.85241E-05 7.18709E-07-3.46071E-19-1.10686E-18
 -1      4159 9.17030E-05-2.48964E-05-2.86154E-05 1.28853E-07-2.98031E-19-8.74261E-19
 -1      4160 8.99567E-05-2.36572E-05-2.84205E-05 5.99427E-07-4.04295E-19-7.55302E-19
 -1      4161 8.90811E-05-2.30946E-05-2.82991E-05 5.37743E-07-2.11995E-19-2.12406E-19
 -1      4162 9.03678E-05-2.39564E-05-2.84417E-05-9.54439E-08 1.01816E-19-9.54296E-19
 -1      4163 8.81857E-05-2.25309E-05-2.81456E-05 3.72810E-07-3.30344E-19 1.02187E-19
 -1      4164 8.71144E-05-2.19300E-05-2.79620E-05 2.34102E-07-2.70356E-19 3.61881E-19
 -1      4165 8.86793E-05-2.28449E-05-2.81792E-05-4.61323E-07 6.30411E-20-2.32840E-19
 -1      4166 8.60421E-05-2.13492E-05-2.77353E-05-4.70977E-08-4.45567E-19 3.75153E-19
 -1      4167 8.47167E-05-2.07221E-05-2.74598E-05-2.92000E-07-3.33092E-19-1.69586E-19
 -1      4168 8.67302E-05-2.17519E-05-2.77976E-05-1.08825E-06-2.78386E-19 7.30417E-20
 -1      4169 8.34069E-05-2.01368E-05-2.71282E-05-7.48563E-07-4.30964E-19-2.00557E-19
 -1      4170 8.17202E-05-1.94855E-05-2.67184E-05-1.13312E-06-5.68199E-19-3.02655E-19
 -1      4171 8.43916E-05-2.06815E-05-2.72428E-05-2.05083E-06-3.51615E-19 1.18333E-19
 -1      4172 8.00745E-05-1.89001E-05-2.62346E-05-1.83471E-06-2.31735E-19-4.90817E-19
 -1      4173 7.77740E-05-1.81881E-05-2.56244E-05-2.37446E-06 2.33641E-19-2.92047E-19
 -1      4174 8.15153E-05-1.96462E-05-2.64389E-05-3.48970E-06-3.07615E-19 6.07679E-19
 -1      4175 9.57852E-05-2.78885E-05-2.90998E-05 5.63076E-07 1.42408E-19-9.03321E-19
 -1      4176 9.55257E-05-2.77597E-05-2.90439E-05 6.21474E-07 4.18783E-20-8.41835E-19
 -1      4177 9.53699E-05-2.76356E-05-2.90263E-05 3.21290E-07 1.90348E-20-7.53835E-19
 -1      4178 8.77104E-05-2.50093E-05-2.69027E-05 9.47644E-06-1.08548E-18 2.22034E-18
 -1      4179 8.80602E-05-2.59420E-05-2.66117E-05 1.08515E-05-1.02357E-18 2.26995E-18
 -1      4180 8.92082E-05-2.41818E-05-2.78583E-05-5.60743E-06-1.53125E-19-1.03974E-19
 -1      4181 8.95003E-05-2.41727E-05-2.80215E-05-4.91953E-06 2.80053E-19 1.14466E-19
 -1      4182 8.17348E-05-1.92953E-05-2.67960E-05 5.88723E-07 1.53793E-18-2.34989E-18
 -1      4183 8.33804E-05-1.99436E-05-2.72023E-05 2.96773E-07 1.38963E-18-2.50861E-18
 -1      4184 8.13436E-05-1.93742E-05-2.65023E-05 2.84965E-06 9.85822E-19-1.16441E-18
 -1      4185 8.47057E-05-2.05167E-05-2.75357E-05-1.09601E-07 1.39355E-18-2.55081E-18
 -1      4186 8.59922E-05-2.11290E-05-2.78093E-05-2.62613E-07 1.77984E-18-2.23698E-18
 -1      4187 8.42630E-05-2.04480E-05-2.73121E-05 1.59683E-06 1.09473E-18-2.33628E-18
 -1      4188 8.70595E-05-2.16843E-05-2.80377E-05-5.30125E-07 1.60967E-18-2.89472E-18
 -1      4189 8.80500E-05-2.22472E-05-2.82189E-05-5.61199E-07 8.01507E-19-3.05522E-18
 -1      4190 8.66076E-05-2.15397E-05-2.78722E-05 7.72271E-07 1.09113E-18-1.85208E-18
 -1      4191 8.90513E-05-2.28866E-05-2.83681E-05-1.77492E-07 1.38312E-18-2.75406E-18
 -1      4192 8.98327E-05-2.33837E-05-2.84883E-05-2.14227E-07 2.10559E-18-2.13742E-18
 -1      4193 7.54268E-05-1.77771E-05-2.47023E-05-4.32463E-06-5.10688E-19-6.54604E-19
 -1      4194 9.62086E-05-2.79749E-05-2.92444E-05 4.69467E-07 2.03025E-19-9.97754E-19
 -1      4195 9.60211E-05-2.79624E-05-2.91689E-05 5.44652E-07 3.33942E-19-8.59942E-19
 -1      4196 9.59122E-05-2.78915E-05-2.91495E-05 2.95214E-07 1.56704E-19-9.78221E-19
 -1      4197 8.60314E-05-2.74596E-05-2.50923E-05-1.55456E-05-1.51313E-18-9.79317E-19
 -1      4198 8.99883E-05-2.40797E-05-2.82608E-05 4.06208E-06-5.47325E-19 1.50763E-18
 -1      4199 8.96641E-05-2.40087E-05-2.81240E-05 4.66349E-06 6.79664E-20 1.99269E-18
 -1      4200 8.90596E-05-2.39372E-05-2.79303E-05 5.40472E-06-2.27985E-19 1.67469E-18
 -1      4201 8.88375E-05-2.40622E-05-2.77452E-05 6.16654E-06-6.60032E-20 1.81904E-18
 -1      4202 8.84156E-05-2.32437E-05-2.79171E-05 4.46721E-06 1.31914E-19 1.13941E-19
 -1      4203 7.28885E-05-1.64073E-05-2.42022E-05 1.18941E-06-1.04005E-18-2.56993E-18
 -1      4204 7.54362E-05-1.71822E-05-2.50222E-05 1.75444E-06-2.29732E-19-2.24880E-18
 -1      4205 7.16232E-05-1.63044E-05-2.36209E-05 4.22934E-06-6.58858E-19-2.67805E-18
 -1      4206 9.63240E-05-2.62424E-05-3.00201E-05-4.89429E-08 2.85001E-19-1.71297E-18
 -1      4207 9.64470E-05-2.68084E-05-2.98509E-05 1.20326E-07 1.40061E-19-1.72542E-18
 -1      4208 9.64660E-05-2.77801E-05-2.94381E-05 3.44186E-07-3.41230E-20-9.56244E-19
 -1      4209 9.63649E-05-2.79151E-05-2.93362E-05 4.45986E-07 1.03580E-19-1.02923E-18
 -1      4210 9.62994E-05-2.78992E-05-2.93133E-05 2.47653E-07 2.53167E-19-8.79708E-19
 -1      4211 9.65162E-05-2.72321E-05-2.96940E-05 1.76207E-07-4.05206E-20-1.37277E-18
 -1      4212 9.65232E-05-2.75549E-05-2.95591E-05 3.10788E-07-1.77921E-19-1.30676E-18
 -1      4213 9.64726E-05-2.69236E-05-2.98051E-05 7.48985E-08 3.56431E-19-1.54581E-18
 -1      4214 9.01507E-05-2.43541E-05-2.81882E-05-4.26976E-06 6.61629E-20 2.79315E-19
 -1      4215 9.05260E-05-2.45179E-05-2.83055E-05-3.75936E-06-3.28087E-20 2.46704E-19
 -1      4216 8.90122E-05-2.35906E-05-2.80037E-05-4.04969E-06 1.24669E-19-4.96226E-19
 -1      4217 9.09484E-05-2.41204E-05-2.86329E-05 1.53176E-07-2.66259E-19-3.19322E-18
 -1      4218 9.62477E-05-2.61047E-05-3.00460E-05 1.22791E-07 8.92817E-19-1.77774E-18
 -1      4219 9.59006E-05-2.51902E-05-3.03179E-05 2.38321E-07 8.85590E-19-2.05910E-18
 -1      4220 9.58030E-05-2.50119E-05-3.03545E-05-3.01855E-07 2.96359E-19-1.80783E-18
 -1      4221 9.63638E-05-2.79176E-05-2.93352E-05-8.15070E-07 5.76524E-19-9.35135E-19
 -1      4222 9.64096E-05-2.77039E-05-2.94449E-05-6.17386E-07 4.87777E-19-1.35585E-18
 -1      4223 9.64517E-05-2.75284E-05-2.95398E-05-4.85307E-07 5.11651E-19-1.28519E-18
 -1      4224 9.63755E-05-2.79022E-05-2.93449E-05-7.22113E-07 3.11552E-19-8.49510E-19
 -1      4225 8.82469E-05-2.41666E-05-2.74844E-05 7.15664E-06-1.81717E-20 1.23477E-18
 -1      4226 8.82278E-05-2.45978E-05-2.72464E-05 8.16784E-06-4.78632E-19 1.45955E-18
 -1      4227 8.60964E-05-2.34949E-05-2.68154E-05 8.42311E-06-3.14845E-19 1.65305E-18
 -1      4228 8.72122E-05-2.31355E-05-2.74465E-05 6.12326E-06-2.06824E-19 5.61058E-19
 -1      4229 9.11076E-05-2.41893E-05-2.86833E-05-8.05098E-07 1.94425E-19-1.55442E-18
 -1      4230 8.17083E-05-2.40031E-05-2.47020E-05-1.41053E-05-1.21089E-18-3.20135E-19
 -1      4231 8.78293E-05-2.69051E-05-2.60497E-05-1.26883E-05-1.26927E-18-5.89945E-19
 -1      4232 8.69556E-05-2.56017E-05-2.63418E-05-1.12498E-05-1.04772E-18-8.88710E-19
 -1      4233 7.91644E-05-2.12958E-05-2.49122E-05-1.04837E-05-9.60760E-19-5.23283E-19
 -1      4234 7.75922E-05-1.88535E-05-2.50792E-05-6.52634E-06-6.71556E-19-3.55363E-19
 -1      4235 8.13002E-05-2.11336E-05-2.57624E-05-8.00965E-06-7.44436E-19-2.03562E-19
 -1      4236 7.73580E-05-1.80522E-05-2.53388E-05 3.92175E-06 7.61634E-19-3.33858E-19
 -1      4237 8.42294E-05-2.30286E-05-2.61779E-05-9.57659E-06-8.73738E-19-9.29528E-19
 -1      4238 8.74528E-05-2.48209E-05-2.68010E-05-9.32436E-06-7.77132E-19-7.70621E-19
 -1      4239 8.73173E-05-2.42430E-05-2.70718E-05-8.18314E-06-6.82705E-19-4.83588E-19
 -1      4240 8.19703E-05-2.08695E-05-2.62770E-05-6.18937E-06-5.42685E-19 1.32896E-19
 -1      4241 9.56696E-05-2.80310E-05-2.89893E-05-1.39209E-06 7.64635E-19-9.05211E-19
 -1      4242 9.57887E-05-2.79980E-05-2.90523E-05-1.13975E-06 5.85294E-19-9.74843E-19
 -1      4243 9.54834E-05-2.79229E-05-2.89526E-05-1.51967E-06 8.68819E-19-9.73425E-19
 -1      4244 8.43043E-05-2.37706E-05-2.59244E-05 1.09529E-05-6.63956E-19 2.12096E-18
 -1      4245 8.67035E-05-2.59421E-05-2.60876E-05 1.21243E-05-1.07577E-18 2.61136E-18
 -1      4246 8.60490E-05-2.63018E-05-2.55832E-05 1.36107E-05-8.70302E-20 2.73776E-18
 -1      4247 9.37911E-05-2.66006E-05-2.87942E-05-1.62932E-06 7.00891E-20 4.09335E-19
 -1      4248 9.41356E-05-2.68783E-05-2.88289E-05-1.45519E-06 2.60929E-19 7.86194E-21
 -1      4249 9.07175E-05-2.39616E-05-2.86175E-05-2.86976E-07 7.51714E-19-2.17671E-18
 -1      4250 9.54040E-05-2.38531E-05-3.06425E-05-2.02350E-07 5.18583E-19-2.26571E-18
 -1      4251 8.86651E-05-2.27073E-05-2.82558E-05 7.87077E-07 1.94892E-18-2.72460E-18
 -1      4252 9.05763E-05-2.42595E-05-2.84179E-05 3.33250E-06-1.00607E-18-4.86612E-19
 -1      4253 9.26516E-05-2.57969E-05-2.86483E-05-2.87563E-06 4.40267E-20 2.34872E-20
 -1      4254 9.65068E-05-2.76084E-05-2.95271E-05 1.75562E-07 2.36382E-19-1.06200E-18
 -1      4255 8.96456E-05-2.36623E-05-2.82823E-05 3.06872E-06 7.10735E-19 2.11332E-19
 -1      4256 7.31037E-05-1.75099E-05-2.38864E-05 6.81727E-06-7.62075E-19-9.54849E-19
 -1      4257 9.58497E-05-2.50487E-05-3.03585E-05 6.47165E-08 7.13262E-19-2.11314E-18
 -1      4258 9.59248E-05-2.52705E-05-3.02893E-05-1.89415E-07 2.73769E-19-1.86959E-18
 -1      4259 9.50099E-05-2.75984E-05-2.88883E-05-1.77334E-06 8.31213E-19-4.93547E-19
 -1      4260 9.52221E-05-2.77654E-05-2.89134E-05-1.63060E-06 9.56812E-19-6.76961E-19
 -1      4261 9.53156E-05-2.77471E-05-2.89561E-05-1.34778E-06 7.79892E-19-7.68737E-19
 -1      4262 9.47607E-05-2.73659E-05-2.88813E-05-1.59121E-06 6.59849E-19 3.72593E-21
 -1      4263 9.61086E-05-2.80403E-05-2.91739E-05-7.73180E-07 3.74263E-19-1.29989E-18
 -1      4264 9.62681E-05-2.80168E-05-2.92507E-05-6.65577E-07 2.98781E-19-1.31025E-18
 -1      4265 9.02557E-05-2.41949E-05-2.83049E-05-2.97138E-06-2.86494E-21 2.16387E-19
 -1      4266 9.11242E-05-2.47836E-05-2.84245E-05-3.29618E-06-3.91811E-20 3.66447E-19
 -1      4267 9.15336E-05-2.50381E-05-2.85069E-05-2.89685E-06-3.26658E-20 2.67194E-19
 -1      4268 9.29747E-05-2.59856E-05-2.87064E-05-2.02369E-06 1.49049E-19 3.80081E-19
 -1      4269 9.33491E-05-2.62860E-05-2.87484E-05-1.79966E-06 1.97056E-19 6.13309E-19
 -1      4270 9.33931E-05-2.62764E-05-2.87625E-05-1.31700E-06 1.54117E-20 3.88941E-19
 -1      4271 8.51941E-05-2.68344E-05-2.50934E-05 1.51655E-05-5.53123E-20 2.28326E-18
 -1      4272 8.43727E-05-2.74134E-05-2.43987E-05 1.71579E-05-1.05838E-18 1.44398E-18
 -1      4273 8.00873E-05-2.47514E-05-2.36765E-05 1.70954E-05-1.19971E-18 1.67347E-18
 -1      4274 8.18641E-05-2.37422E-05-2.48404E-05 1.35246E-05-6.70878E-19 2.14308E-18
 -1      4275 8.82377E-05-2.42644E-05-2.74019E-05-7.21133E-06-7.70922E-19-4.38508E-19
 -1      4276 8.83938E-05-2.40167E-05-2.76198E-05-6.30599E-06-4.11341E-19-2.33816E-19
 -1      4277 8.76016E-05-2.31147E-05-2.75892E-05-5.28948E-06-5.06466E-20 2.21602E-20
 -1      4278 8.58512E-05-2.27023E-05-2.70084E-05-6.80556E-06-4.43906E-19 4.71071E-20
 -1      4279 9.63725E-05-2.66773E-05-2.98742E-05-9.77016E-08 8.40693E-19-1.64421E-18
 -1      4280 9.63355E-05-2.79268E-05-2.93182E-05-4.61242E-07 3.67719E-19-1.60606E-18
 -1      4281 9.63787E-05-2.79437E-05-2.93305E-05-6.21138E-07 2.67864E-19-1.28394E-18
 -1      4282 9.64615E-05-2.78217E-05-2.94160E-05-5.05050E-07 3.43353E-19-1.36981E-18
 -1      4283 8.88548E-05-2.29569E-05-2.82450E-05 1.67320E-06 1.54322E-18-2.07770E-18
 -1      4284 8.91624E-05-2.32250E-05-2.82599E-05 2.29683E-06 9.67646E-19-1.35429E-18
 -1      4285 8.84857E-05-2.29772E-05-2.80820E-05 3.04410E-06 8.40492E-19-3.07310E-19
 -1      4286 8.78374E-05-2.23105E-05-2.80749E-05 1.34590E-06 9.38769E-19-1.85918E-18
 -1      4287 9.65064E-05-2.72132E-05-2.96893E-05-2.24454E-07 5.81155E-19-1.42080E-18
 -1      4288 9.63929E-05-2.66086E-05-2.99067E-05-4.84729E-08 7.05322E-19-1.60047E-18
 -1      4289 9.41062E-05-2.67765E-05-2.88575E-05-9.98085E-08-1.55544E-19-2.86260E-19
 -1      4290 9.36426E-05-2.64292E-05-2.88115E-05-1.18640E-07-9.03236E-20-5.46066E-19
 -1      4291 9.31050E-05-2.60341E-05-2.87488E-05-5.91161E-07-5.25425E-21-3.62256E-19
 -1      4292 9.25601E-05-2.56335E-05-2.86938E-05-6.67683E-07-1.71004E-19-1.32545E-19
 -1      4293 9.08031E-05-2.43587E-05-2.84882E-05-7.32582E-07 3.27838E-19-4.91695E-19
 -1      4294 9.00325E-05-2.38447E-05-2.83817E-05-8.73131E-07 5.57797E-19-7.97857E-20
 -1      4295 8.94030E-05-2.35454E-05-2.82343E-05-1.85879E-06 2.70511E-19-1.02077E-19
 -1      4296 8.85013E-05-2.30699E-05-2.80747E-05-2.18083E-06-3.31852E-20 1.08720E-20
 -1      4297 8.78027E-05-2.27579E-05-2.78962E-05-2.74400E-06 9.77727E-22 1.52956E-19
 -1      4298 8.67464E-05-2.22940E-05-2.76680E-05-3.21013E-06-6.09396E-20 2.79443E-19
 -1      4299 8.58781E-05-2.19535E-05-2.74216E-05-3.76610E-06-3.49130E-19 1.78326E-19
 -1      4300 8.46091E-05-2.15264E-05-2.70948E-05-4.43860E-06-3.11098E-19 2.44829E-19
 -1      4301 8.36010E-05-2.12325E-05-2.67505E-05-5.21159E-06-4.35181E-19 1.44820E-19
 -1      4302 7.55859E-05-2.17385E-05-2.30083E-05 1.54083E-05-1.03148E-18 1.42600E-18
 -1      4303 7.62664E-05-2.09194E-05-2.36904E-05 1.27678E-05-1.41434E-18 1.05470E-18
 -1      4304 8.41795E-05-2.08409E-05-2.71821E-05 3.18768E-06 7.34521E-19-1.32872E-18
 -1      4305 8.55009E-05-2.12963E-05-2.75117E-05 2.56720E-06 8.93824E-19-1.61279E-18
 -1      4306 8.67424E-05-2.17901E-05-2.78536E-05 1.72364E-06 5.47502E-19-1.62201E-18
 -1      4307 7.53817E-05-1.89190E-05-2.41219E-05 9.28723E-06-7.51644E-19 1.02716E-18
 -1      4308 7.66961E-05-1.87245E-05-2.48369E-05 6.65491E-06 4.56375E-19 7.27505E-22
 -1      4309 7.89677E-05-1.94355E-05-2.55358E-05 6.13893E-06 1.21266E-18 9.14145E-19
 -1      4310 7.93959E-05-2.19221E-05-2.46643E-05 1.19527E-05-6.90176E-19 1.86633E-18
 -1      4311 9.55359E-05-2.77488E-05-2.90528E-05 4.12275E-09 1.42971E-19-1.08493E-18
 -1      4312 9.52289E-05-2.75700E-05-2.89984E-05 1.19474E-08 9.26302E-20-9.93929E-19
 -1      4313 8.78217E-05-2.27540E-05-2.78846E-05 3.66487E-06-8.04810E-20-1.27063E-18
 -1      4314 9.65073E-05-2.75012E-05-2.95768E-05-3.68050E-07 4.15405E-19-1.25847E-18
 -1      4315 9.59585E-05-2.53195E-05-3.02832E-05-1.44276E-08 5.25284E-19-1.93966E-18
 -1      4316 9.03437E-05-2.37087E-05-2.85698E-05-3.82594E-07 1.08452E-18-2.52626E-18
 -1      4317 9.20757E-05-2.53641E-05-2.85889E-05-2.57343E-06-7.40000E-20 5.38172E-19
 -1      4318 9.24688E-05-2.56505E-05-2.86469E-05-2.27547E-06 1.89882E-19 3.77468E-19
 -1      4319 9.24417E-05-2.55535E-05-2.86531E-05-1.71420E-06-4.94313E-21 9.84596E-19
 -1      4320 9.60415E-05-2.79444E-05-2.91871E-05 2.22914E-08 2.37991E-19-1.33000E-18
 -1      4321 9.58070E-05-2.78754E-05-2.91150E-05 3.73159E-08 1.49849E-19-1.35064E-18
 -1      4322 9.56755E-05-2.78051E-05-2.90847E-05-2.72654E-07 3.06814E-19-1.52837E-18
 -1      4323 9.63360E-05-2.62143E-05-3.00371E-05 4.11999E-08 5.22294E-19-1.73949E-18
 -1      4324 9.42189E-05-2.68978E-05-2.88500E-05-1.05470E-06 1.13955E-19-3.36529E-19
 -1      4325 9.45205E-05-2.71565E-05-2.88692E-05-1.33565E-06 4.73380E-19-2.89389E-19
 -1      4326 9.48229E-05-2.73890E-05-2.89039E-05-1.19864E-06 5.85369E-19-4.78864E-19
 -1      4327 9.63492E-05-2.79179E-05-2.93291E-05-1.26562E-07 3.12278E-19-1.31632E-18
 -1      4328 9.61873E-05-2.79649E-05-2.92370E-05-1.15089E-07 2.16571E-19-1.36656E-18
 -1      4329 9.64761E-05-2.68506E-05-2.98473E-05-5.09103E-08 4.56671E-19-1.71575E-18
 -1      4330 9.65497E-05-2.72664E-05-2.96910E-05 1.09828E-08 5.05563E-19-1.52350E-18
 -1      4331 9.65223E-05-2.76262E-05-2.95297E-05-1.04385E-07 4.77634E-19-1.55132E-18
 -1      4332 9.64556E-05-2.78235E-05-2.94115E-05-7.40773E-08 3.97475E-19-1.32276E-18
 -1      4333 9.59718E-05-2.79918E-05-2.91338E-05-6.40519E-07 3.21501E-19-1.23760E-18
 -1      4334 9.60843E-05-2.79577E-05-2.91955E-05-3.88726E-07 1.69583E-19-1.50171E-18
 -1      4335 9.48899E-05-2.73461E-05-2.89485E-05-3.34780E-08-1.94865E-19-7.28937E-19
 -1      4336 9.45128E-05-2.70785E-05-2.89028E-05-3.83302E-08-1.46199E-19-4.61529E-19
 -1      4337 9.43415E-05-2.69531E-05-2.88780E-05-4.65007E-07-7.78612E-20-2.78079E-19
 -1      4338 9.50766E-05-2.74744E-05-2.89717E-05-3.43794E-07 5.82386E-20-1.12808E-18
 -1      4339 8.10042E-05-1.98684E-05-2.62451E-05 4.89183E-06 5.60973E-19-2.37666E-19
 -1      4340 8.26600E-05-2.03130E-05-2.67225E-05 3.99778E-06 2.45654E-19-1.07104E-18
 -1      4341 8.42234E-05-2.12496E-05-2.69600E-05 5.00321E-06 1.03451E-19-2.25415E-20
 -1      4342 8.07924E-05-2.04798E-05-2.58103E-05 7.35151E-06 3.99045E-19 1.05801E-18
 -1      4343 9.57585E-05-2.79205E-05-2.90747E-05-7.32858E-07 4.16986E-19-1.15744E-18
 -1      4344 9.20387E-05-2.52486E-05-2.86309E-05-8.61388E-07-3.89021E-19 2.10490E-19
 -1      4345 9.14203E-05-2.48047E-05-2.85572E-05-9.86962E-07-1.29007E-19 3.32969E-19
 -1      4346 9.14152E-05-2.48823E-05-2.85098E-05-2.26132E-06-7.98955E-20 8.13665E-19
 -1      4347 8.66174E-05-2.24013E-05-2.75527E-05 4.66207E-06-6.43782E-19-1.59953E-19
 -1      4348 8.60194E-05-2.23529E-05-2.72777E-05 5.58271E-06-3.96225E-19-1.55033E-19
 -1      4349 8.04627E-05-2.17480E-05-2.51919E-05 1.05547E-05 6.50387E-20 2.39246E-18
 -1      4350 8.68684E-05-2.20881E-05-2.77448E-05 3.12350E-06 4.09609E-19-1.64822E-18
 -1      4351 9.65063E-05-2.75436E-05-2.95546E-05-2.66793E-07 4.67937E-19-1.41605E-18
 -1      4352 9.38847E-05-2.66325E-05-2.88206E-05-8.54238E-07 8.72200E-20 1.62772E-20
 -1      4353 9.42682E-05-2.69323E-05-2.88625E-05-7.51385E-07 8.62048E-20-3.38187E-19
 -1      4354 8.45458E-05-2.20512E-05-2.68249E-05 6.61850E-06 6.19641E-21 7.75347E-19
 -1      4355 8.40062E-05-2.22547E-05-2.64535E-05 7.90804E-06-1.49226E-19 1.03210E-18
 -1      4356 9.01136E-05-2.40308E-05-2.83098E-05-2.43458E-06 2.14045E-19 1.68895E-19
 -1      4357 8.21272E-05-2.20419E-05-2.57780E-05 9.49988E-06-1.90148E-19 1.77117E-18
 -1      4358 9.34314E-05-2.62828E-05-2.87730E-05-9.93206E-07-4.26757E-20 2.20566E-19
 -1      4359 9.46695E-05-2.72132E-05-2.89068E-05-6.66487E-07 7.27042E-20-5.17524E-19
 -1      4360 9.54845E-05-2.77893E-05-2.90141E-05-7.75926E-07 4.45005E-19-1.07640E-18
 -1      4361 9.13037E-05-2.47483E-05-2.85169E-05-1.73910E-06 2.56513E-19 1.03848E-18
 -1      4362 9.52189E-05-2.76235E-05-2.89694E-05-8.79124E-07 5.37204E-19-8.76143E-19
 -1      4363 9.07745E-05-2.44258E-05-2.84331E-05-2.03279E-06 1.96084E-19 3.30728E-19
 -1      4364 9.49988E-05-2.74353E-05-2.89549E-05-6.08789E-07 2.81427E-19-9.32077E-19
 -3
    1PSTEP                         4           1           1          
  100CL  101 1.000000000        4364                     0    1           1
 -4  ERROR       1    1
 -5  STR(%)      1    1    0    0
 -1         1 2.47416E+01
 -1         2 2.52562E+01
 -1         3 2.05066E-02
 -1         4 2.61322E-02
 -1         5 1.40458E+01
 -1         6 1.31501E+01
 -1         7 1.31501E+01
 -1         8 3.65519E+00
 -1         9 1.81435E+00
 -1        10 1.28627E+00
 -1        11 1.04153E+00
 -1        12 8.95620E-01
 -1        13 8.05835E-01
 -1        14 7.52402E-01
 -1        15 7.54256E-01
 -1        16 8.09982E-01
 -1        17 8.97127E-01
 -1        18 1.04814E+00
 -1        19 1.30249E+00
 -1        20 1.82631E+00
 -1        21 3.49698E+00
 -1        22 8.64112E+00
 -1        23 1.31501E+01
 -1        24 4.33014E+00
 -1        25 3.35637E+00
 -1        26 2.12886E+00
 -1        27 1.38241E+00
 -1        28 1.03969E+00
 -1        29 8.07774E-01
 -1        30 6.36997E-01
 -1        31 5.07914E-01
 -1        32 4.10940E-01
 -1        33 3.40241E-01
 -1        34 2.91378E-01
 -1        35 2.61776E-01
 -1        36 3.07926E-01
 -1        37 3.74225E-01
 -1        38 4.62685E-01
 -1        39 5.73447E-01
 -1        40 7.02780E-01
 -1        41 8.39858E-01
 -1        42 1.10360E+00
 -1        43 1.41054E+00
 -1        44 1.78948E+00
 -1        45 2.15536E+00
 -1        46 2.29195E+00
 -1        47 2.29195E+00
 -1        48 2.24035E+00
 -1        49 2.75480E+00
 -1        50 5.11699E+00
 -1        51 6.50005E+00
 -1        52 6.50005E+00
 -1        53 6.49797E+00
 -1        54 5.02990E+00
 -1        55 2.72833E+00
 -1        56 2.23241E+00
 -1        57 2.29168E+00
 -1        58 2.29168E+00
 -1        59 2.14151E+00
 -1        60 1.76999E+00
 -1        61 1.39352E+00
 -1        62 1.08459E+00
 -1        63 8.32157E-01
 -1        64 6.91389E-01
 -1        65 5.57024E-01
 -1        66 4.38790E-01
 -1        67 3.38995E-01
 -1        68 2.55351E-01
 -1        69 2.08412E-01
 -1        70 1.73150E-01
 -1        71 1.01183E-01
 -1        72 1.40458E+01
 -1        73 3.40509E+00
 -1        74 2.42576E+00
 -1        75 1.68059E+00
 -1        76 1.16200E+00
 -1        77 9.30120E-01
 -1        78 7.63316E-01
 -1        79 6.30054E-01
 -1        80 5.23345E-01
 -1        81 4.39544E-01
 -1        82 3.76197E-01
 -1        83 3.30889E-01
 -1        84 3.00763E-01
 -1        85 2.82216E-01
 -1        86 2.95320E-01
 -1        87 3.30785E-01
 -1        88 3.62857E-01
 -1        89 3.81515E-01
 -1        90 3.89852E-01
 -1        91 4.54224E-01
 -1        92 5.63101E-01
 -1        93 6.32569E-01
 -1        94 7.74449E-01
 -1        95 9.34841E-01
 -1        96 9.57757E-01
 -1        97 1.21048E+00
 -1        98 1.33731E+00
 -1        99 2.02112E+00
 -1       100 2.37424E+00
 -1       101 2.63660E+00
 -1       102 2.65908E+00
 -1       103 2.65908E+00
 -1       104 2.13514E+00
 -1       105 1.39546E+00
 -1       106 9.27531E-01
 -1       107 6.34693E-01
 -1       108 6.89168E-01
 -1       109 7.41152E-01
 -1       110 7.41152E-01
 -1       111 6.99757E-01
 -1       112 6.07696E-01
 -1       113 5.07515E-01
 -1       114 4.11009E-01
 -1       115 3.14797E-01
 -1       116 2.60006E-01
 -1       117 2.10239E-01
 -1       118 1.58450E-01
 -1       119 1.04317E-01
 -1       120 7.00217E-02
 -1       121 2.97995E-02
 -1       122 2.97995E-02
 -1       123 2.80214E-02
 -1       124 1.70921E-02
 -1       125 1.07301E-02
 -1       126 2.12944E-02
 -1       127 2.86774E-02
 -1       128 3.19315E-02
 -1       129 3.19315E-02
 -1       130 3.10603E-02
 -1       131 2.50465E-02
 -1       132 1.48350E-02
 -1       133 1.80636E-02
 -1       134 3.10084E-02
 -1       135 4.39338E-02
 -1       136 4.62445E-02
 -1       137 2.49368E+01
 -1       138 4.62093E+01
 -1       139 4.62093E+01
 -1       140 2.03931E+01
 -1       141 1.17635E+01
 -1       142 1.22915E+01
 -1       143 1.22915E+01
 -1       144 1.27236E+01
 -1       145 1.27236E+01
 -1       146 1.20072E+01
 -1       147 2.44047E+01
 -1       148 3.17100E+01
 -1       149 3.17100E+01
 -1       150 2.44624E+01
 -1       151 2.47416E+01
 -1       152 4.63767E+01
 -1       153 4.63767E+01
 -1       154 1.92569E+01
 -1       155 1.19873E+01
 -1       156 1.25159E+01
 -1       157 1.25159E+01
 -1       158 1.21851E+01
 -1       159 1.21851E+01
 -1       160 1.20750E+01
 -1       161 2.40120E+01
 -1       162 4.79763E+01
 -1       163 4.79763E+01
 -1       164 2.52562E+01
 -1       165 6.06826E+00
 -1       166 2.28913E+00
 -1       167 1.50299E+00
 -1       168 1.15313E+00
 -1       169 9.69795E-01
 -1       170 8.61436E-01
 -1       171 7.93992E-01
 -1       172 7.54256E-01
 -1       173 7.97247E-01
 -1       174 8.64470E-01
 -1       175 9.77494E-01
 -1       176 1.16813E+00
 -1       177 1.52227E+00
 -1       178 2.25487E+00
 -1       179 3.92521E+00
 -1       180 1.40458E+01
 -1       181 4.33014E+00
 -1       182 3.35637E+00
 -1       183 2.12886E+00
 -1       184 1.46271E+00
 -1       185 1.04289E+00
 -1       186 8.07774E-01
 -1       187 6.36997E-01
 -1       188 5.07914E-01
 -1       189 4.14299E-01
 -1       190 3.40939E-01
 -1       191 2.91378E-01
 -1       192 2.60431E-01
 -1       193 2.61776E-01
 -1       194 3.07926E-01
 -1       195 3.74225E-01
 -1       196 4.62685E-01
 -1       197 6.17253E-01
 -1       198 8.26414E-01
 -1       199 1.06341E+00
 -1       200 1.30487E+00
 -1       201 1.50347E+00
 -1       202 1.78948E+00
 -1       203 2.15536E+00
 -1       204 2.29195E+00
 -1       205 2.24035E+00
 -1       206 1.99061E+00
 -1       207 2.87182E+00
 -1       208 5.11699E+00
 -1       209 6.50005E+00
 -1       210 6.49797E+00
 -1       211 5.02990E+00
 -1       212 2.80954E+00
 -1       213 2.01384E+00
 -1       214 2.23241E+00
 -1       215 2.29168E+00
 -1       216 2.14151E+00
 -1       217 1.76999E+00
 -1       218 1.49338E+00
 -1       219 1.29106E+00
 -1       220 1.04776E+00
 -1       221 8.10126E-01
 -1       222 6.01171E-01
 -1       223 4.38790E-01
 -1       224 3.38995E-01
 -1       225 2.60232E-01
 -1       226 2.08412E-01
 -1       227 1.73150E-01
 -1       228 1.01183E-01
 -1       229 3.40509E+00
 -1       230 2.42576E+00
 -1       231 1.68059E+00
 -1       232 1.16200E+00
 -1       233 9.30120E-01
 -1       234 7.63316E-01
 -1       235 6.30054E-01
 -1       236 5.23345E-01
 -1       237 4.39544E-01
 -1       238 3.76197E-01
 -1       239 3.30889E-01
 -1       240 3.00763E-01
 -1       241 2.82216E-01
 -1       242 2.70589E-01
 -1       243 2.95320E-01
 -1       244 3.30785E-01
 -1       245 3.62857E-01
 -1       246 3.81515E-01
 -1       247 3.89852E-01
 -1       248 4.55664E-01
 -1       249 5.63101E-01
 -1       250 6.32569E-01
 -1       251 7.74449E-01
 -1       252 9.34841E-01
 -1       253 9.57757E-01
 -1       254 1.21048E+00
 -1       255 1.50533E+00
 -1       256 2.02112E+00
 -1       257 2.37424E+00
 -1       258 2.63660E+00
 -1       259 2.65908E+00
 -1       260 2.13514E+00
 -1       261 1.39546E+00
 -1       262 9.27531E-01
 -1       263 5.81380E-01
 -1       264 6.34693E-01
 -1       265 6.89168E-01
 -1       266 7.41152E-01
 -1       267 6.99757E-01
 -1       268 6.07696E-01
 -1       269 5.07515E-01
 -1       270 4.15534E-01
 -1       271 3.29245E-01
 -1       272 2.60006E-01
 -1       273 2.10239E-01
 -1       274 1.58450E-01
 -1       275 1.06526E-01
 -1       276 7.00217E-02
 -1       277 4.30204E-02
 -1       278 4.54532E-02
 -1       279 4.54532E-02
 -1       280 2.38719E-02
 -1       281 3.80665E-02
 -1       282 5.31641E-02
 -1       283 6.13103E-02
 -1       284 6.22833E-02
 -1       285 6.22833E-02
 -1       286 5.89143E-02
 -1       287 4.74409E-02
 -1       288 2.74202E-02
 -1       289 5.06807E-02
 -1       290 5.06807E-02
 -1       291 6.30026E-02
 -1       292 3.13956E+01
 -1       293 2.64749E+01
 -1       294 4.62093E+01
 -1       295 2.06557E+01
 -1       296 1.09563E+01
 -1       297 1.17635E+01
 -1       298 1.22915E+01
 -1       299 1.19061E+01
 -1       300 1.27236E+01
 -1       301 1.20072E+01
 -1       302 1.19279E+01
 -1       303 2.73397E+01
 -1       304 3.17100E+01
 -1       305 2.44624E+01
 -1       306 3.10994E+01
 -1       307 3.10994E+01
 -1       308 2.66004E+01
 -1       309 4.63767E+01
 -1       310 2.03144E+01
 -1       311 1.10630E+01
 -1       312 1.19873E+01
 -1       313 1.25159E+01
 -1       314 1.17716E+01
 -1       315 1.21851E+01
 -1       316 1.20750E+01
 -1       317 1.18848E+01
 -1       318 2.41950E+01
 -1       319 4.79763E+01
 -1       320 2.93567E+01
 -1       321 3.13956E+01
 -1       322 1.03804E+00
 -1       323 2.47068E+00
 -1       324 7.87756E-01
 -1       325 6.90857E-01
 -1       326 6.29016E-01
 -1       327 5.85375E-01
 -1       328 5.88498E-01
 -1       329 6.31711E-01
 -1       330 6.97911E-01
 -1       331 7.92621E-01
 -1       332 9.27538E-01
 -1       333 1.15144E+00
 -1       334 1.32002E+00
 -1       335 2.20288E+00
 -1       336 1.91592E+00
 -1       337 1.74107E+00
 -1       338 1.28058E+00
 -1       339 9.21305E-01
 -1       340 6.70909E-01
 -1       341 5.66092E-01
 -1       342 4.74907E-01
 -1       343 3.95963E-01
 -1       344 3.29657E-01
 -1       345 2.75353E-01
 -1       346 2.31438E-01
 -1       347 2.12194E-01
 -1       348 2.48314E-01
 -1       349 2.98198E-01
 -1       350 3.98244E-01
 -1       351 5.54475E-01
 -1       352 7.41702E-01
 -1       353 9.56919E-01
 -1       354 1.18665E+00
 -1       355 1.40061E+00
 -1       356 1.55674E+00
 -1       357 1.72353E+00
 -1       358 1.88787E+00
 -1       359 1.94789E+00
 -1       360 2.06872E+00
 -1       361 2.17830E+00
 -1       362 2.66538E+00
 -1       363 3.80862E+00
 -1       364 4.68929E+00
 -1       365 3.68247E+00
 -1       366 2.62218E+00
 -1       367 2.13086E+00
 -1       368 2.06394E+00
 -1       369 1.95812E+00
 -1       370 1.87994E+00
 -1       371 1.71332E+00
 -1       372 1.54709E+00
 -1       373 1.39053E+00
 -1       374 1.17502E+00
 -1       375 9.45506E-01
 -1       376 7.31951E-01
 -1       377 5.47937E-01
 -1       378 3.97062E-01
 -1       379 2.77852E-01
 -1       380 1.95581E-01
 -1       381 1.38880E-01
 -1       382 9.23175E-02
 -1       383 1.14025E+00
 -1       384 9.01423E-01
 -1       385 7.13758E-01
 -1       386 5.53935E-01
 -1       387 4.59241E-01
 -1       388 3.95320E-01
 -1       389 3.41216E-01
 -1       390 2.99705E-01
 -1       391 2.66468E-01
 -1       392 2.41266E-01
 -1       393 2.22741E-01
 -1       394 2.29438E-01
 -1       395 2.56583E-01
 -1       396 3.16418E-01
 -1       397 3.83019E-01
 -1       398 4.41878E-01
 -1       399 4.88870E-01
 -1       400 4.94121E-01
 -1       401 4.94121E-01
 -1       402 4.32216E-01
 -1       403 3.84685E-01
 -1       404 4.80123E-01
 -1       405 8.42032E-01
 -1       406 1.24332E+00
 -1       407 1.49171E+00
 -1       408 1.50040E+00
 -1       409 1.50040E+00
 -1       410 1.53406E+00
 -1       411 1.69153E+00
 -1       412 1.50901E+00
 -1       413 1.09660E+00
 -1       414 7.15860E-01
 -1       415 4.61931E-01
 -1       416 3.76937E-01
 -1       417 4.76567E-01
 -1       418 5.23377E-01
 -1       419 5.35746E-01
 -1       420 4.96645E-01
 -1       421 4.41072E-01
 -1       422 3.80175E-01
 -1       423 3.10143E-01
 -1       424 2.40035E-01
 -1       425 1.93821E-01
 -1       426 1.51127E-01
 -1       427 1.06526E-01
 -1       428 6.11903E-02
 -1       429 5.00532E-02
 -1       430 8.32530E-02
 -1       431 8.32530E-02
 -1       432 4.95416E-02
 -1       433 7.20107E-02
 -1       434 8.58900E-02
 -1       435 8.85345E-02
 -1       436 9.00874E-02
 -1       437 9.00874E-02
 -1       438 8.45436E-02
 -1       439 6.65009E-02
 -1       440 5.63462E-02
 -1       441 8.31680E-02
 -1       442 2.64749E+01
 -1       443 3.39430E+01
 -1       444 2.97610E+01
 -1       445 1.55000E+01
 -1       446 9.51653E+00
 -1       447 9.14008E-01
 -1       448 9.69564E+00
 -1       449 9.96859E+00
 -1       450 1.02381E+01
 -1       451 8.68190E+00
 -1       452 6.82819E+00
 -1       453 1.06003E+01
 -1       454 1.88707E+01
 -1       455 2.34286E+01
 -1       456 3.34560E+01
 -1       457 3.34560E+01
 -1       458 2.85803E+01
 -1       459 2.66004E+01
 -1       460 1.60559E+01
 -1       461 8.69092E+00
 -1       462 7.28974E+00
 -1       463 9.29218E+00
 -1       464 1.08708E+01
 -1       465 1.02745E+01
 -1       466 9.02265E+00
 -1       467 6.15974E+00
 -1       468 1.08271E+01
 -1       469 1.73261E+01
 -1       470 2.93567E+01
 -1       471 3.39430E+01
 -1       472 7.31418E+00
 -1       473 1.45367E+01
 -1       474 1.57684E+01
 -1       475 1.05763E+00
 -1       476 4.83117E-01
 -1       477 5.07658E-01
 -1       478 4.29196E-01
 -1       479 4.54778E-01
 -1       480 4.84008E-01
 -1       481 5.08007E-01
 -1       482 5.08007E-01
 -1       483 5.97892E-01
 -1       484 9.01423E-01
 -1       485 8.01495E-01
 -1       486 5.31597E+00
 -1       487 7.11432E-01
 -1       488 5.96771E-01
 -1       489 4.82624E-01
 -1       490 3.90224E-01
 -1       491 3.43547E-01
 -1       492 2.93948E-01
 -1       493 2.45203E-01
 -1       494 1.98460E-01
 -1       495 1.53037E-01
 -1       496 1.72333E-01
 -1       497 2.10944E-01
 -1       498 3.20774E-01
 -1       499 4.54254E-01
 -1       500 6.16128E-01
 -1       501 8.09811E-01
 -1       502 1.03549E+00
 -1       503 1.28703E+00
 -1       504 1.54724E+00
 -1       505 1.78247E+00
 -1       506 2.07950E+00
 -1       507 2.61083E+00
 -1       508 3.19236E+00
 -1       509 4.12373E+00
 -1       510 2.62691E+00
 -1       511 4.74499E+00
 -1       512 6.17523E+00
 -1       513 6.08331E+00
 -1       514 4.31027E+00
 -1       515 3.84755E+00
 -1       516 3.30126E+00
 -1       517 3.17952E+00
 -1       518 2.58830E+00
 -1       519 2.07752E+00
 -1       520 1.77368E+00
 -1       521 1.53679E+00
 -1       522 1.27645E+00
 -1       523 1.02646E+00
 -1       524 8.03586E-01
 -1       525 6.14107E-01
 -1       526 4.58289E-01
 -1       527 3.33449E-01
 -1       528 2.35625E-01
 -1       529 1.61242E-01
 -1       530 5.53935E-01
 -1       531 4.59241E-01
 -1       532 3.95320E-01
 -1       533 3.33564E-01
 -1       534 2.76752E-01
 -1       535 2.25556E-01
 -1       536 1.79217E-01
 -1       537 1.68325E-01
 -1       538 1.88149E-01
 -1       539 2.10784E-01
 -1       540 2.74795E-01
 -1       541 3.41101E-01
 -1       542 3.98593E-01
 -1       543 4.51256E-01
 -1       544 4.88870E-01
 -1       545 4.94121E-01
 -1       546 4.64474E-01
 -1       547 4.94539E-01
 -1       548 5.38769E-01
 -1       549 7.43480E-01
 -1       550 1.04497E+00
 -1       551 1.27591E+00
 -1       552 1.49171E+00
 -1       553 1.50040E+00
 -1       554 1.44116E+00
 -1       555 1.51755E+00
 -1       556 1.36437E+00
 -1       557 1.16004E+00
 -1       558 8.31624E-01
 -1       559 5.69938E-01
 -1       560 5.19514E-01
 -1       561 4.45139E-01
 -1       562 4.88582E-01
 -1       563 4.89751E-01
 -1       564 4.58886E-01
 -1       565 4.16459E-01
 -1       566 3.64941E-01
 -1       567 3.05519E-01
 -1       568 2.43050E-01
 -1       569 1.84171E-01
 -1       570 1.31530E-01
 -1       571 9.87850E-02
 -1       572 8.70390E-02
 -1       573 1.09567E-01
 -1       574 7.94295E-02
 -1       575 7.14801E-02
 -1       576 1.18562E-01
 -1       577 1.18562E-01
 -1       578 1.22774E-01
 -1       579 1.22774E-01
 -1       580 1.10843E-01
 -1       581 1.22543E-01
 -1       582 1.08410E-01
 -1       583 3.39430E+01
 -1       584 7.13758E-01
 -1       585 2.97610E+01
 -1       586 7.61414E+00
 -1       587 2.05212E+01
 -1       588 2.85803E+01
 -1       589 4.54605E-01
 -1       590 8.14753E+00
 -1       591 5.09294E+00
 -1       592 7.43398E+00
 -1       593 6.66778E+00
 -1       594 5.00653E+00
 -1       595 5.84270E+00
 -1       596 9.57529E+00
 -1       597 1.43594E+01
 -1       598 2.34286E+01
 -1       599 3.34560E+01
 -1       600 1.81476E+01
 -1       601 1.36381E+01
 -1       602 8.87302E+00
 -1       603 5.55842E+00
 -1       604 6.80939E+00
 -1       605 8.09723E+00
 -1       606 6.93090E+00
 -1       607 4.40876E+00
 -1       608 4.73849E+00
 -1       609 1.16500E+01
 -1       610 2.06290E+01
 -1       611 8.75718E-01
 -1       612 1.32835E+00
 -1       613 4.65931E+00
 -1       614 7.11586E-01
 -1       615 8.28794E+00
 -1       616 9.23175E-02
 -1       617 1.18097E+01
 -1       618 9.39110E+00
 -1       619 3.56823E-01
 -1       620 3.41209E-01
 -1       621 3.60227E-01
 -1       622 3.36605E-01
 -1       623 5.41615E-01
 -1       624 1.44418E+01
 -1       625 5.20784E-01
 -1       626 5.41204E+00
 -1       627 4.02005E-01
 -1       628 3.85887E-01
 -1       629 3.41116E-01
 -1       630 2.85270E-01
 -1       631 2.38872E-01
 -1       632 2.03211E-01
 -1       633 1.62146E-01
 -1       634 1.16686E-01
 -1       635 9.76418E-02
 -1       636 1.40341E-01
 -1       637 2.27291E-01
 -1       638 3.32193E-01
 -1       639 4.60363E-01
 -1       640 6.18884E-01
 -1       641 8.23958E-01
 -1       642 1.08511E+00
 -1       643 1.40915E+00
 -1       644 1.83422E+00
 -1       645 2.38320E+00
 -1       646 3.03857E+00
 -1       647 4.02742E+00
 -1       648 5.20568E+00
 -1       649 3.84560E+00
 -1       650 4.67660E+00
 -1       651 3.24226E+00
 -1       652 2.65093E+00
 -1       653 2.07752E+00
 -1       654 1.67972E+00
 -1       655 1.34022E+00
 -1       656 1.04536E+00
 -1       657 8.03586E-01
 -1       658 6.14107E-01
 -1       659 4.58289E-01
 -1       660 3.33449E-01
 -1       661 2.35625E-01
 -1       662 1.98468E-01
 -1       663 3.23187E-01
 -1       664 3.96843E-01
 -1       665 2.39648E-01
 -1       666 1.96205E-01
 -1       667 1.51943E-01
 -1       668 1.10097E-01
 -1       669 1.25641E-01
 -1       670 1.61135E-01
 -1       671 2.29518E-01
 -1       672 2.99861E-01
 -1       673 3.68019E-01
 -1       674 4.29063E-01
 -1       675 4.84359E-01
 -1       676 5.58473E-01
 -1       677 6.14021E-01
 -1       678 6.26983E-01
 -1       679 7.98347E-01
 -1       680 9.33021E-01
 -1       681 1.10939E+00
 -1       682 1.23795E+00
 -1       683 1.39857E+00
 -1       684 1.87851E+00
 -1       685 1.77210E+00
 -1       686 1.93263E+00
 -1       687 1.54595E+00
 -1       688 1.24401E+00
 -1       689 1.19274E+00
 -1       690 9.46660E-01
 -1       691 8.66997E-01
 -1       692 6.87363E-01
 -1       693 6.26036E-01
 -1       694 5.84002E-01
 -1       695 5.14765E-01
 -1       696 4.48878E-01
 -1       697 3.96215E-01
 -1       698 3.34758E-01
 -1       699 2.70856E-01
 -1       700 2.10383E-01
 -1       701 1.55571E-01
 -1       702 1.13857E-01
 -1       703 1.51768E-01
 -1       704 1.85622E-01
 -1       705 1.32900E-01
 -1       706 1.57849E-01
 -1       707 1.51768E-01
 -1       708 1.61457E-01
 -1       709 1.61457E-01
 -1       710 1.98468E-01
 -1       711 4.67670E-01
 -1       712 1.20225E+01
 -1       713 5.72785E+00
 -1       714 3.17744E+00
 -1       715 2.80537E-01
 -1       716 4.05091E-01
 -1       717 3.60227E-01
 -1       718 3.60108E-01
 -1       719 1.28961E+01
 -1       720 5.79704E+00
 -1       721 1.48597E+01
 -1       722 3.76122E+00
 -1       723 3.45423E+00
 -1       724 4.58035E+00
 -1       725 1.11231E+01
 -1       726 7.81847E+00
 -1       727 3.76046E+00
 -1       728 1.60046E+01
 -1       729 9.93738E+00
 -1       730 1.37598E+01
 -1       731 1.39470E+01
 -1       732 4.12476E-01
 -1       733 3.40710E-01
 -1       734 3.96841E+00
 -1       735 4.87185E+00
 -1       736 1.03140E-01
 -1       737 7.96719E+00
 -1       738 4.39086E-01
 -1       739 8.62686E-02
 -1       740 6.45440E+00
 -1       741 8.02680E+00
 -1       742 7.25570E+00
 -1       743 1.03378E+01
 -1       744 9.80879E+00
 -1       745 3.55916E-01
 -1       746 4.36707E+00
 -1       747 4.07652E+00
 -1       748 8.10725E+00
 -1       749 8.95967E+00
 -1       750 2.44320E-01
 -1       751 3.97836E+00
 -1       752 2.52001E-01
 -1       753 2.39751E-01
 -1       754 2.09764E-01
 -1       755 1.69815E-01
 -1       756 1.41066E-01
 -1       757 1.03498E-01
 -1       758 8.91144E-02
 -1       759 1.09473E-01
 -1       760 1.84606E-01
 -1       761 2.87651E-01
 -1       762 4.16728E-01
 -1       763 5.79272E-01
 -1       764 7.84100E-01
 -1       765 1.04082E+00
 -1       766 1.35798E+00
 -1       767 1.75970E+00
 -1       768 2.35060E+00
 -1       769 3.47711E+00
 -1       770 4.38621E+00
 -1       771 5.99245E+00
 -1       772 1.93938E-01
 -1       773 9.80879E+00
 -1       774 8.43555E+00
 -1       775 3.63485E+00
 -1       776 2.29087E+00
 -1       777 1.70813E+00
 -1       778 1.32100E+00
 -1       779 1.00444E+00
 -1       780 7.53504E-01
 -1       781 5.57062E-01
 -1       782 4.04310E-01
 -1       783 2.87531E-01
 -1       784 2.55196E-01
 -1       785 9.09605E+00
 -1       786 1.20891E-01
 -1       787 1.60233E-01
 -1       788 6.40716E-02
 -1       789 1.13179E-01
 -1       790 1.77537E-01
 -1       791 2.49132E-01
 -1       792 3.29236E-01
 -1       793 4.12363E-01
 -1       794 4.93869E-01
 -1       795 5.78180E-01
 -1       796 7.08774E-01
 -1       797 8.41433E-01
 -1       798 9.47095E-01
 -1       799 1.15027E+00
 -1       800 1.57185E+00
 -1       801 1.58131E+00
 -1       802 3.05371E+00
 -1       803 4.07652E+00
 -1       804 3.41235E+00
 -1       805 3.39443E+00
 -1       806 4.36707E+00
 -1       807 3.18355E+00
 -1       808 1.47360E+00
 -1       809 1.68975E+00
 -1       810 1.38630E+00
 -1       811 9.66276E-01
 -1       812 8.90821E-01
 -1       813 7.62263E-01
 -1       814 6.27062E-01
 -1       815 5.26289E-01
 -1       816 4.47967E-01
 -1       817 3.68476E-01
 -1       818 2.93132E-01
 -1       819 2.26604E-01
 -1       820 1.68449E-01
 -1       821 1.22415E-01
 -1       822 2.86655E-01
 -1       823 2.55196E-01
 -1       824 1.94760E-01
 -1       825 5.30148E+00
 -1       826 2.38535E-01
 -1       827 7.93365E-02
 -1       828 8.95967E+00
 -1       829 4.07652E+00
 -1       830 2.79214E-01
 -1       831 2.79457E-01
 -1       832 2.33811E-01
 -1       833 2.00694E-01
 -1       834 1.03378E+01
 -1       835 4.17348E+00
 -1       836 8.34299E+00
 -1       837 5.92915E+00
 -1       838 4.36707E+00
 -1       839 2.10174E-01
 -1       840 2.39627E+00
 -1       841 2.79484E-01
 -1       842 2.77540E-01
 -1       843 2.42087E-01
 -1       844 2.86655E-01
 -1       845 2.40097E-01
 -1       846 3.41977E+00
 -1       847 5.11105E+00
 -1       848 2.00406E-01
 -1       849 5.93628E+00
 -1       850 9.80879E+00
 -1       851 6.38295E+00
 -1       852 1.93937E-01
 -1       853 1.84819E-01
 -1       854 1.94760E-01
 -1       855 2.73535E-01
 -1       856 2.32345E-01
 -1       857 1.62254E-01
 -1       858 3.18355E+00
 -1       859 8.34299E+00
 -1       860 1.56086E-01
 -1       861 2.21441E-01
 -1       862 1.69616E-01
 -1       863 1.53727E-01
 -1       864 1.27950E-01
 -1       865 1.07614E-01
 -1       866 1.13851E-01
 -1       867 1.28330E-01
 -1       868 1.65630E-01
 -1       869 2.52504E-01
 -1       870 3.61561E-01
 -1       871 5.00265E-01
 -1       872 6.79840E-01
 -1       873 9.17436E-01
 -1       874 1.24058E+00
 -1       875 1.69527E+00
 -1       876 2.35060E+00
 -1       877 4.33693E+00
 -1       878 4.45862E+00
 -1       879 6.30490E+00
 -1       880 3.33566E+00
 -1       881 2.29087E+00
 -1       882 1.67120E+00
 -1       883 1.23168E+00
 -1       884 9.15320E-01
 -1       885 6.81519E-01
 -1       886 5.04748E-01
 -1       887 3.70319E-01
 -1       888 2.79975E-01
 -1       889 1.57909E-01
 -1       890 1.05231E-01
 -1       891 2.93292E-01
 -1       892 3.71822E-01
 -1       893 4.78577E-01
 -1       894 6.08580E-01
 -1       895 7.54653E-01
 -1       896 9.29676E-01
 -1       897 1.19489E+00
 -1       898 1.48543E+00
 -1       899 1.59246E+00
 -1       900 2.73374E+00
 -1       901 2.39278E+00
 -1       902 2.55122E+00
 -1       903 2.97748E+00
 -1       904 1.98576E+00
 -1       905 1.25487E+00
 -1       906 1.03645E+00
 -1       907 8.10241E-01
 -1       908 6.65753E-01
 -1       909 5.28586E-01
 -1       910 4.16717E-01
 -1       911 3.29929E-01
 -1       912 2.54272E-01
 -1       913 2.13842E-01
 -1       914 5.10003E+00
 -1       915 4.78418E+00
 -1       916 2.00406E-01
 -1       917 7.94257E+00
 -1       918 2.77337E-01
 -1       919 5.55926E+00
 -1       920 2.65448E-01
 -1       921 1.20579E-01
 -1       922 1.65658E-01
 -1       923 3.05371E+00
 -1       924 1.67788E-01
 -1       925 4.07108E+00
 -1       926 5.49230E+00
 -1       927 1.38584E-01
 -1       928 9.29064E-02
 -1       929 1.44714E-01
 -1       930 2.03994E+00
 -1       931 4.79013E+00
 -1       932 3.69418E-01
 -1       933 3.99888E+00
 -1       934 8.98728E-02
 -1       935 6.11014E+00
 -1       936 2.32345E-01
 -1       937 1.47360E+00
 -1       938 4.64920E+00
 -1       939 4.16366E-01
 -1       940 1.94670E-01
 -1       941 2.36700E-01
 -1       942 6.20077E+00
 -1       943 3.61364E+00
 -1       944 4.58130E+00
 -1       945 4.16366E-01
 -1       946 2.14222E-01
 -1       947 3.87239E-01
 -1       948 2.14222E-01
 -1       949 1.92212E-01
 -1       950 2.03984E-01
 -1       951 6.20077E+00
 -1       952 1.14844E-01
 -1       953 1.08953E-01
 -1       954 1.24122E-01
 -1       955 1.40426E-01
 -1       956 1.60642E-01
 -1       957 2.01527E-01
 -1       958 2.83225E-01
 -1       959 3.85600E-01
 -1       960 5.17318E-01
 -1       961 6.92179E-01
 -1       962 9.35625E-01
 -1       963 1.29681E+00
 -1       964 1.85887E+00
 -1       965 4.04977E+00
 -1       966 4.18319E+00
 -1       967 2.83517E+00
 -1       968 1.91891E+00
 -1       969 1.32040E+00
 -1       970 9.54901E-01
 -1       971 7.06444E-01
 -1       972 5.28916E-01
 -1       973 3.97102E-01
 -1       974 3.14485E-01
 -1       975 2.32345E-01
 -1       976 2.21441E-01
 -1       977 1.25135E-01
 -1       978 1.57909E-01
 -1       979 4.69981E-01
 -1       980 5.91280E-01
 -1       981 7.71105E-01
 -1       982 1.04309E+00
 -1       983 1.33683E+00
 -1       984 1.71513E+00
 -1       985 3.06244E+00
 -1       986 1.76428E-01
 -1       987 1.96343E+00
 -1       988 1.20726E+00
 -1       989 8.71622E-01
 -1       990 6.43007E-01
 -1       991 5.13419E-01
 -1       992 4.16752E-01
 -1       993 3.89912E-01
 -1       994 4.04023E+00
 -1       995 4.11428E+00
 -1       996 1.79493E-01
 -1       997 1.23109E-01
 -1       998 4.14640E+00
 -1       999 1.16194E-01
 -1      1000 3.71822E-01
 -1      1001 2.93292E-01
 -1      1002 1.56086E-01
 -1      1003 3.06527E+00
 -1      1004 1.27833E-01
 -1      1005 1.11000E-01
 -1      1006 2.47433E-01
 -1      1007 3.44223E+00
 -1      1008 4.16221E+00
 -1      1009 3.54671E+00
 -1      1010 1.08269E-01
 -1      1011 4.33384E+00
 -1      1012 1.38885E-01
 -1      1013 3.95771E-01
 -1      1014 1.49766E-01
 -1      1015 1.20753E-01
 -1      1016 2.22711E-01
 -1      1017 3.54671E+00
 -1      1018 4.16366E-01
 -1      1019 3.87239E-01
 -1      1020 1.42696E-01
 -1      1021 1.36577E-01
 -1      1022 3.06527E+00
 -1      1023 1.24804E-01
 -1      1024 1.40535E-01
 -1      1025 1.60651E-01
 -1      1026 1.97765E-01
 -1      1027 2.48367E-01
 -1      1028 3.16417E-01
 -1      1029 4.12550E-01
 -1      1030 5.38627E-01
 -1      1031 7.15978E-01
 -1      1032 9.75546E-01
 -1      1033 1.36137E+00
 -1      1034 2.29777E+00
 -1      1035 1.94683E+00
 -1      1036 1.35822E+00
 -1      1037 9.55108E-01
 -1      1038 6.97275E-01
 -1      1039 5.28534E-01
 -1      1040 3.93370E-01
 -1      1041 2.96783E-01
 -1      1042 1.20511E-01
 -1      1043 1.30612E-01
 -1      1044 8.28797E-01
 -1      1045 5.91280E-01
 -1      1046 1.76879E+00
 -1      1047 3.12853E+00
 -1      1048 4.16221E+00
 -1      1049 8.24158E-01
 -1      1050 1.16562E+00
 -1      1051 3.03715E+00
 -1      1052 1.97492E+00
 -1      1053 6.43007E-01
 -1      1054 5.13419E-01
 -1      1055 4.16752E-01
 -1      1056 3.75880E+00
 -1      1057 9.98191E-02
 -1      1058 2.54270E+00
 -1      1059 1.25732E+00
 -1      1060 9.49505E-02
 -1      1061 2.04836E-01
 -1      1062 8.45642E-02
 -1      1063 4.69981E-01
 -1      1064 1.10692E-01
 -1      1065 4.16221E+00
 -1      1066 1.40826E-01
 -1      1067 1.59444E-01
 -1      1068 9.43026E-02
 -1      1069 5.62657E-01
 -1      1070 3.44223E+00
 -1      1071 9.88334E-02
 -1      1072 3.62772E-01
 -1      1073 2.52386E+00
 -1      1074 1.51225E-01
 -1      1075 5.62657E-01
 -1      1076 1.51225E-01
 -1      1077 2.23071E+00
 -1      1078 1.08788E-01
 -1      1079 2.75753E-01
 -1      1080 3.26321E-01
 -1      1081 1.62781E+00
 -1      1082 1.59908E-01
 -1      1083 1.84490E-01
 -1      1084 2.27438E-01
 -1      1085 2.88118E-01
 -1      1086 3.55794E-01
 -1      1087 4.38259E-01
 -1      1088 6.23317E-01
 -1      1089 9.14010E-01
 -1      1090 1.20735E+00
 -1      1091 2.15558E+00
 -1      1092 1.41112E-01
 -1      1093 1.88332E+00
 -1      1094 9.14010E-01
 -1      1095 1.01823E+00
 -1      1096 7.61533E-01
 -1      1097 6.38033E-01
 -1      1098 1.24717E-01
 -1      1099 6.25609E-01
 -1      1100 8.24158E-01
 -1      1101 2.54270E+00
 -1      1102 1.36577E-01
 -1      1103 1.08892E-01
 -1      1104 9.62874E-02
 -1      1105 6.23317E-01
 -1      1106 1.18336E-01
 -1      1107 9.63241E-02
 -1      1108 1.09209E+00
 -1      1109 2.95717E+00
 -1      1110 1.66553E+00
 -1      1111 1.31069E-01
 -1      1112 1.97492E+00
 -1      1113 2.10643E-01
 -1      1114 1.75383E-01
 -1      1115 1.06421E-01
 -1      1116 4.19492E-01
 -1      1117 2.39116E-01
 -1      1118 3.44223E+00
 -1      1119 1.20735E+00
 -1      1120 9.62874E-02
 -1      1121 6.89285E-01
 -1      1122 9.62874E-02
 -1      1123 2.10643E-01
 -1      1124 3.55794E-01
 -1      1125 9.61721E-01
 -1      1126 2.42529E+00
 -1      1127 1.78551E-01
 -1      1128 3.10350E-01
 -1      1129 1.31069E-01
 -1      1130 1.78551E-01
 -1      1131 1.78551E-01
 -1      1132 1.72820E+00
 -1      1133 1.31501E+01
 -1      1134 8.40265E+00
 -1      1135 2.73477E+00
 -1      1136 1.55031E+00
 -1      1137 1.16390E+00
 -1      1138 9.68575E-01
 -1      1139 8.50727E-01
 -1      1140 7.79118E-01
 -1      1141 7.53329E-01
 -1      1142 7.82119E-01
 -1      1143 8.53554E-01
 -1      1144 9.72631E-01
 -1      1145 1.17531E+00
 -1      1146 1.56440E+00
 -1      1147 2.66164E+00
 -1      1148 6.06905E+00
 -1      1149 1.13435E+01
 -1      1150 1.31501E+01
 -1      1151 8.74012E+00
 -1      1152 3.84325E+00
 -1      1153 2.74261E+00
 -1      1154 1.75563E+00
 -1      1155 1.21105E+00
 -1      1156 9.23733E-01
 -1      1157 7.22386E-01
 -1      1158 5.72456E-01
 -1      1159 4.59427E-01
 -1      1160 3.75590E-01
 -1      1161 3.15810E-01
 -1      1162 2.76577E-01
 -1      1163 2.84851E-01
 -1      1164 3.41076E-01
 -1      1165 4.18455E-01
 -1      1166 5.18066E-01
 -1      1167 6.38113E-01
 -1      1168 7.71319E-01
 -1      1169 9.71728E-01
 -1      1170 1.25707E+00
 -1      1171 1.60001E+00
 -1      1172 1.97242E+00
 -1      1173 2.22365E+00
 -1      1174 2.29195E+00
 -1      1175 2.26615E+00
 -1      1176 2.49758E+00
 -1      1177 3.93589E+00
 -1      1178 5.80852E+00
 -1      1179 6.50005E+00
 -1      1180 6.49901E+00
 -1      1181 5.76393E+00
 -1      1182 3.87911E+00
 -1      1183 2.48037E+00
 -1      1184 2.26205E+00
 -1      1185 2.29168E+00
 -1      1186 2.21660E+00
 -1      1187 1.95575E+00
 -1      1188 1.58175E+00
 -1      1189 1.23905E+00
 -1      1190 9.58372E-01
 -1      1191 7.61773E-01
 -1      1192 6.24207E-01
 -1      1193 4.97907E-01
 -1      1194 3.88892E-01
 -1      1195 2.97173E-01
 -1      1196 2.31882E-01
 -1      1197 1.90781E-01
 -1      1198 1.37167E-01
 -1      1199 6.36576E-02
 -1      1200 1.40458E+01
 -1      1201 8.72546E+00
 -1      1202 2.91542E+00
 -1      1203 2.05318E+00
 -1      1204 1.42130E+00
 -1      1205 1.04606E+00
 -1      1206 8.46718E-01
 -1      1207 6.96685E-01
 -1      1208 5.76699E-01
 -1      1209 4.81445E-01
 -1      1210 4.07871E-01
 -1      1211 3.53543E-01
 -1      1212 3.15826E-01
 -1      1213 2.91490E-01
 -1      1214 2.88768E-01
 -1      1215 3.13053E-01
 -1      1216 3.46821E-01
 -1      1217 3.72186E-01
 -1      1218 3.85683E-01
 -1      1219 4.22038E-01
 -1      1220 5.08662E-01
 -1      1221 5.97835E-01
 -1      1222 7.03509E-01
 -1      1223 8.54645E-01
 -1      1224 9.46299E-01
 -1      1225 1.08412E+00
 -1      1226 1.27389E+00
 -1      1227 1.67921E+00
 -1      1228 2.19768E+00
 -1      1229 2.50542E+00
 -1      1230 2.64784E+00
 -1      1231 2.65908E+00
 -1      1232 2.39711E+00
 -1      1233 1.76530E+00
 -1      1234 1.16150E+00
 -1      1235 7.81112E-01
 -1      1236 6.61930E-01
 -1      1237 7.15160E-01
 -1      1238 7.41152E-01
 -1      1239 7.20455E-01
 -1      1240 6.53727E-01
 -1      1241 5.57606E-01
 -1      1242 4.59262E-01
 -1      1243 3.62903E-01
 -1      1244 2.87401E-01
 -1      1245 2.35123E-01
 -1      1246 1.84345E-01
 -1      1247 1.31384E-01
 -1      1248 8.71696E-02
 -1      1249 4.52642E-02
 -1      1250 2.51531E-02
 -1      1251 2.97995E-02
 -1      1252 2.89105E-02
 -1      1253 2.25568E-02
 -1      1254 1.39111E-02
 -1      1255 1.60122E-02
 -1      1256 2.49859E-02
 -1      1257 3.03045E-02
 -1      1258 3.19315E-02
 -1      1259 3.14959E-02
 -1      1260 2.80534E-02
 -1      1261 1.99407E-02
 -1      1262 1.64493E-02
 -1      1263 2.45360E-02
 -1      1264 3.74711E-02
 -1      1265 4.50892E-02
 -1      1266 3.61884E-02
 -1      1267 2.50965E+01
 -1      1268 3.55730E+01
 -1      1269 4.62093E+01
 -1      1270 3.33012E+01
 -1      1271 1.60783E+01
 -1      1272 1.20275E+01
 -1      1273 1.22915E+01
 -1      1274 1.25076E+01
 -1      1275 1.27236E+01
 -1      1276 1.23654E+01
 -1      1277 1.82059E+01
 -1      1278 2.80574E+01
 -1      1279 3.17100E+01
 -1      1280 2.80862E+01
 -1      1281 2.46020E+01
 -1      1282 2.47416E+01
 -1      1283 3.55592E+01
 -1      1284 4.63767E+01
 -1      1285 3.28168E+01
 -1      1286 1.56221E+01
 -1      1287 1.22516E+01
 -1      1288 1.25159E+01
 -1      1289 1.23505E+01
 -1      1290 1.21851E+01
 -1      1291 1.21300E+01
 -1      1292 1.80435E+01
 -1      1293 3.59941E+01
 -1      1294 4.79763E+01
 -1      1295 3.66162E+01
 -1      1296 2.52562E+01
 -1      1297 1.31501E+01
 -1      1298 4.86173E+00
 -1      1299 9.60919E+00
 -1      1300 2.05174E+00
 -1      1301 2.97216E+00
 -1      1302 4.17869E+00
 -1      1303 1.39463E+00
 -1      1304 1.65867E+00
 -1      1305 1.89606E+00
 -1      1306 1.09733E+00
 -1      1307 1.21970E+00
 -1      1308 1.32806E+00
 -1      1309 9.32707E-01
 -1      1310 1.00566E+00
 -1      1311 1.06146E+00
 -1      1312 8.33636E-01
 -1      1313 8.78528E-01
 -1      1314 9.15615E-01
 -1      1315 7.73197E-01
 -1      1316 7.99914E-01
 -1      1317 8.27714E-01
 -1      1318 7.54256E-01
 -1      1319 7.53329E-01
 -1      1320 7.74124E-01
 -1      1321 8.03615E-01
 -1      1322 7.75752E-01
 -1      1323 7.75752E-01
 -1      1324 8.80798E-01
 -1      1325 8.37226E-01
 -1      1326 8.30858E-01
 -1      1327 1.01281E+00
 -1      1328 9.37310E-01
 -1      1329 9.20982E-01
 -1      1330 1.23531E+00
 -1      1331 1.10813E+00
 -1      1332 1.07281E+00
 -1      1333 1.67429E+00
 -1      1334 1.41238E+00
 -1      1335 1.34520E+00
 -1      1336 2.87592E+00
 -1      1337 2.04059E+00
 -1      1338 1.88857E+00
 -1      1339 6.28316E+00
 -1      1340 3.71109E+00
 -1      1341 3.09004E+00
 -1      1342 1.40458E+01
 -1      1343 1.13435E+01
 -1      1344 8.98552E+00
 -1      1345 1.40458E+01
 -1      1346 8.74012E+00
 -1      1347 4.33014E+00
 -1      1348 3.84325E+00
 -1      1349 3.35637E+00
 -1      1350 3.84325E+00
 -1      1351 2.74261E+00
 -1      1352 2.12886E+00
 -1      1353 2.74261E+00
 -1      1354 1.79579E+00
 -1      1355 1.42256E+00
 -1      1356 1.79579E+00
 -1      1357 1.21265E+00
 -1      1358 1.04129E+00
 -1      1359 1.25280E+00
 -1      1360 9.23733E-01
 -1      1361 8.07774E-01
 -1      1362 9.25333E-01
 -1      1363 7.22386E-01
 -1      1364 6.36997E-01
 -1      1365 7.22386E-01
 -1      1366 5.72456E-01
 -1      1367 5.07914E-01
 -1      1368 5.72456E-01
 -1      1369 4.61107E-01
 -1      1370 4.12619E-01
 -1      1371 4.61107E-01
 -1      1372 3.75940E-01
 -1      1373 3.40590E-01
 -1      1374 3.77619E-01
 -1      1375 3.15810E-01
 -1      1376 2.91378E-01
 -1      1377 3.16159E-01
 -1      1378 2.75904E-01
 -1      1379 2.61103E-01
 -1      1380 2.75904E-01
 -1      1381 2.61776E-01
 -1      1382 2.84851E-01
 -1      1383 2.61103E-01
 -1      1384 3.07926E-01
 -1      1385 3.41076E-01
 -1      1386 2.84851E-01
 -1      1387 3.74225E-01
 -1      1388 4.18455E-01
 -1      1389 3.41076E-01
 -1      1390 4.62685E-01
 -1      1391 5.18066E-01
 -1      1392 4.18455E-01
 -1      1393 5.95350E-01
 -1      1394 6.60017E-01
 -1      1395 5.39969E-01
 -1      1396 7.64597E-01
 -1      1397 8.33136E-01
 -1      1398 7.21834E-01
 -1      1399 9.51632E-01
 -1      1400 1.08350E+00
 -1      1401 9.44910E-01
 -1      1402 1.20423E+00
 -1      1403 1.35771E+00
 -1      1404 1.18414E+00
 -1      1405 1.45701E+00
 -1      1406 1.64648E+00
 -1      1407 1.40417E+00
 -1      1408 1.78948E+00
 -1      1409 1.97242E+00
 -1      1410 1.64648E+00
 -1      1411 2.15536E+00
 -1      1412 2.22365E+00
 -1      1413 1.97242E+00
 -1      1414 2.29195E+00
 -1      1415 2.29195E+00
 -1      1416 2.22365E+00
 -1      1417 2.26615E+00
 -1      1418 2.24035E+00
 -1      1419 2.26615E+00
 -1      1420 2.11548E+00
 -1      1421 2.37271E+00
 -1      1422 2.11548E+00
 -1      1423 2.81331E+00
 -1      1424 3.99441E+00
 -1      1425 2.43122E+00
 -1      1426 5.11699E+00
 -1      1427 5.80852E+00
 -1      1428 3.99441E+00
 -1      1429 6.50005E+00
 -1      1430 6.50005E+00
 -1      1431 5.80852E+00
 -1      1432 6.49901E+00
 -1      1433 6.49797E+00
 -1      1434 6.49901E+00
 -1      1435 5.76393E+00
 -1      1436 5.02990E+00
 -1      1437 5.76393E+00
 -1      1438 3.91972E+00
 -1      1439 2.76894E+00
 -1      1440 3.91972E+00
 -1      1441 2.37108E+00
 -1      1442 2.12312E+00
 -1      1443 2.41169E+00
 -1      1444 2.23241E+00
 -1      1445 2.26205E+00
 -1      1446 2.12312E+00
 -1      1447 2.29168E+00
 -1      1448 2.29168E+00
 -1      1449 2.26205E+00
 -1      1450 2.21660E+00
 -1      1451 2.14151E+00
 -1      1452 2.21660E+00
 -1      1453 1.95575E+00
 -1      1454 1.76999E+00
 -1      1455 1.95575E+00
 -1      1456 1.63169E+00
 -1      1457 1.44345E+00
 -1      1458 1.63169E+00
 -1      1459 1.34229E+00
 -1      1460 1.18782E+00
 -1      1461 1.39222E+00
 -1      1462 1.06617E+00
 -1      1463 9.39960E-01
 -1      1464 1.16941E+00
 -1      1465 8.21142E-01
 -1      1466 7.50757E-01
 -1      1467 9.28944E-01
 -1      1468 6.46280E-01
 -1      1469 5.79098E-01
 -1      1470 7.05648E-01
 -1      1471 4.97907E-01
 -1      1472 4.38790E-01
 -1      1473 5.19980E-01
 -1      1474 3.88892E-01
 -1      1475 3.38995E-01
 -1      1476 3.88892E-01
 -1      1477 2.99613E-01
 -1      1478 2.57792E-01
 -1      1479 2.99613E-01
 -1      1480 2.31882E-01
 -1      1481 2.08412E-01
 -1      1482 2.34322E-01
 -1      1483 1.90781E-01
 -1      1484 1.73150E-01
 -1      1485 1.90781E-01
 -1      1486 1.37167E-01
 -1      1487 1.01183E-01
 -1      1488 1.37167E-01
 -1      1489 7.37138E-02
 -1      1490 7.37138E-02
 -1      1491 3.40509E+00
 -1      1492 8.72546E+00
 -1      1493 8.72546E+00
 -1      1494 2.42576E+00
 -1      1495 2.91542E+00
 -1      1496 2.91542E+00
 -1      1497 1.68059E+00
 -1      1498 2.05318E+00
 -1      1499 2.05318E+00
 -1      1500 1.16200E+00
 -1      1501 1.42130E+00
 -1      1502 1.42130E+00
 -1      1503 9.30120E-01
 -1      1504 1.04606E+00
 -1      1505 1.04606E+00
 -1      1506 7.63316E-01
 -1      1507 8.46718E-01
 -1      1508 8.46718E-01
 -1      1509 6.30054E-01
 -1      1510 6.96685E-01
 -1      1511 6.96685E-01
 -1      1512 5.23345E-01
 -1      1513 5.76699E-01
 -1      1514 5.76699E-01
 -1      1515 4.39544E-01
 -1      1516 4.81445E-01
 -1      1517 4.81445E-01
 -1      1518 3.76197E-01
 -1      1519 4.07871E-01
 -1      1520 4.07871E-01
 -1      1521 3.30889E-01
 -1      1522 3.53543E-01
 -1      1523 3.53543E-01
 -1      1524 3.00763E-01
 -1      1525 3.15826E-01
 -1      1526 3.15826E-01
 -1      1527 2.82216E-01
 -1      1528 2.91490E-01
 -1      1529 2.91490E-01
 -1      1530 2.82955E-01
 -1      1531 2.76403E-01
 -1      1532 2.76403E-01
 -1      1533 3.13053E-01
 -1      1534 2.95320E-01
 -1      1535 2.82955E-01
 -1      1536 3.46821E-01
 -1      1537 3.30785E-01
 -1      1538 3.13053E-01
 -1      1539 3.72186E-01
 -1      1540 3.62857E-01
 -1      1541 3.46821E-01
 -1      1542 3.85683E-01
 -1      1543 3.81515E-01
 -1      1544 3.72186E-01
 -1      1545 4.22038E-01
 -1      1546 3.89852E-01
 -1      1547 3.85683E-01
 -1      1548 5.09383E-01
 -1      1549 4.54944E-01
 -1      1550 4.22758E-01
 -1      1551 5.97835E-01
 -1      1552 5.63101E-01
 -1      1553 5.09383E-01
 -1      1554 7.03509E-01
 -1      1555 6.32569E-01
 -1      1556 5.97835E-01
 -1      1557 8.54645E-01
 -1      1558 7.74449E-01
 -1      1559 7.03509E-01
 -1      1560 9.46299E-01
 -1      1561 9.34841E-01
 -1      1562 8.54645E-01
 -1      1563 1.08412E+00
 -1      1564 9.57757E-01
 -1      1565 9.46299E-01
 -1      1566 1.27389E+00
 -1      1567 1.21048E+00
 -1      1568 1.08412E+00
 -1      1569 1.76322E+00
 -1      1570 1.42132E+00
 -1      1571 1.35790E+00
 -1      1572 2.19768E+00
 -1      1573 2.02112E+00
 -1      1574 1.76322E+00
 -1      1575 2.50542E+00
 -1      1576 2.37424E+00
 -1      1577 2.19768E+00
 -1      1578 2.64784E+00
 -1      1579 2.63660E+00
 -1      1580 2.50542E+00
 -1      1581 2.65908E+00
 -1      1582 2.65908E+00
 -1      1583 2.64784E+00
 -1      1584 2.13514E+00
 -1      1585 2.39711E+00
 -1      1586 2.39711E+00
 -1      1587 1.39546E+00
 -1      1588 1.76530E+00
 -1      1589 1.76530E+00
 -1      1590 9.27531E-01
 -1      1591 1.16150E+00
 -1      1592 1.16150E+00
 -1      1593 6.08037E-01
 -1      1594 7.54455E-01
 -1      1595 7.54455E-01
 -1      1596 6.61930E-01
 -1      1597 6.34693E-01
 -1      1598 6.08037E-01
 -1      1599 7.15160E-01
 -1      1600 6.89168E-01
 -1      1601 6.61930E-01
 -1      1602 7.41152E-01
 -1      1603 7.41152E-01
 -1      1604 7.15160E-01
 -1      1605 6.99757E-01
 -1      1606 7.20455E-01
 -1      1607 7.20455E-01
 -1      1608 6.07696E-01
 -1      1609 6.53727E-01
 -1      1610 6.53727E-01
 -1      1611 5.07515E-01
 -1      1612 5.57606E-01
 -1      1613 5.57606E-01
 -1      1614 4.13271E-01
 -1      1615 4.61524E-01
 -1      1616 4.61524E-01
 -1      1617 3.22021E-01
 -1      1618 3.70127E-01
 -1      1619 3.72389E-01
 -1      1620 2.60006E-01
 -1      1621 2.87401E-01
 -1      1622 2.94626E-01
 -1      1623 2.10239E-01
 -1      1624 2.35123E-01
 -1      1625 2.35123E-01
 -1      1626 1.58450E-01
 -1      1627 1.84345E-01
 -1      1628 1.84345E-01
 -1      1629 1.05422E-01
 -1      1630 1.32488E-01
 -1      1631 1.32488E-01
 -1      1632 7.00217E-02
 -1      1633 8.71696E-02
 -1      1634 8.82737E-02
 -1      1635 4.99106E-02
 -1      1636 3.64099E-02
 -1      1637 3.64099E-02
 -1      1638 3.67373E-02
 -1      1639 3.76263E-02
 -1      1640 4.42368E-02
 -1      1641 3.12726E-02
 -1      1642 3.67373E-02
 -1      1643 4.54532E-02
 -1      1644 1.73010E-02
 -1      1645 2.04820E-02
 -1      1646 3.46625E-02
 -1      1647 2.96805E-02
 -1      1648 2.43983E-02
 -1      1649 3.09692E-02
 -1      1650 4.09208E-02
 -1      1651 3.72293E-02
 -1      1652 4.56153E-02
 -1      1653 4.66209E-02
 -1      1654 4.49939E-02
 -1      1655 5.72372E-02
 -1      1656 4.71074E-02
 -1      1657 4.71074E-02
 -1      1658 6.17968E-02
 -1      1659 4.66718E-02
 -1      1660 4.71074E-02
 -1      1661 6.22833E-02
 -1      1662 4.19804E-02
 -1      1663 4.49873E-02
 -1      1664 6.05988E-02
 -1      1665 3.11379E-02
 -1      1666 3.62437E-02
 -1      1667 5.31776E-02
 -1      1668 2.27419E-02
 -1      1669 2.11276E-02
 -1      1670 3.74306E-02
 -1      1671 4.08445E-02
 -1      1672 3.43721E-02
 -1      1673 3.90505E-02
 -1      1674 4.73073E-02
 -1      1675 4.08445E-02
 -1      1676 5.06807E-02
 -1      1677 5.46236E-02
 -1      1678 5.34682E-02
 -1      1679 5.68417E-02
 -1      1680 8.20928E-02
 -1      1681 2.81662E+01
 -1      1682 2.83259E+01
 -1      1683 3.63421E+01
 -1      1684 2.57058E+01
 -1      1685 4.62093E+01
 -1      1686 4.62093E+01
 -1      1687 2.05244E+01
 -1      1688 3.34325E+01
 -1      1689 1.13599E+01
 -1      1690 1.56747E+01
 -1      1691 1.20275E+01
 -1      1692 1.17635E+01
 -1      1693 1.22915E+01
 -1      1694 1.22915E+01
 -1      1695 1.23149E+01
 -1      1696 1.20988E+01
 -1      1697 1.27236E+01
 -1      1698 1.27236E+01
 -1      1699 1.20072E+01
 -1      1700 1.23654E+01
 -1      1701 1.81663E+01
 -1      1702 1.19675E+01
 -1      1703 2.95249E+01
 -1      1704 2.58722E+01
 -1      1705 3.17100E+01
 -1      1706 3.17100E+01
 -1      1707 2.44624E+01
 -1      1708 2.80862E+01
 -1      1709 2.79205E+01
 -1      1710 2.77809E+01
 -1      1711 2.79205E+01
 -1      1712 2.79205E+01
 -1      1713 3.64886E+01
 -1      1714 2.56710E+01
 -1      1715 4.63767E+01
 -1      1716 4.63767E+01
 -1      1717 1.97856E+01
 -1      1718 3.33456E+01
 -1      1719 1.15252E+01
 -1      1720 1.51600E+01
 -1      1721 1.22516E+01
 -1      1722 1.19873E+01
 -1      1723 1.25159E+01
 -1      1724 1.25159E+01
 -1      1725 1.19784E+01
 -1      1726 1.21438E+01
 -1      1727 1.21851E+01
 -1      1728 1.21851E+01
 -1      1729 1.20750E+01
 -1      1730 1.21300E+01
 -1      1731 1.79484E+01
 -1      1732 1.19799E+01
 -1      1733 3.60856E+01
 -1      1734 2.41035E+01
 -1      1735 4.79763E+01
 -1      1736 4.79763E+01
 -1      1737 2.73064E+01
 -1      1738 3.86665E+01
 -1      1739 2.83259E+01
 -1      1740 2.83259E+01
 -1      1741 1.58060E+01
 -1      1742 3.34325E+01
 -1      1743 4.99106E-02
 -1      1744 5.65210E-02
 -1      1745 2.89352E+01
 -1      1746 3.63421E+01
 -1      1747 3.13956E+01
 -1      1748 1.13599E+01
 -1      1749 1.20275E+01
 -1      1750 1.20988E+01
 -1      1751 1.23149E+01
 -1      1752 1.23654E+01
 -1      1753 1.19675E+01
 -1      1754 1.96338E+01
 -1      1755 2.95249E+01
 -1      1756 2.80862E+01
 -1      1757 2.77809E+01
 -1      1758 3.10994E+01
 -1      1759 2.88499E+01
 -1      1760 3.64886E+01
 -1      1761 3.33456E+01
 -1      1762 1.56887E+01
 -1      1763 1.15252E+01
 -1      1764 1.22516E+01
 -1      1765 1.21438E+01
 -1      1766 1.19784E+01
 -1      1767 1.21300E+01
 -1      1768 1.19799E+01
 -1      1769 1.80399E+01
 -1      1770 3.60856E+01
 -1      1771 3.86665E+01
 -1      1772 3.03761E+01
 -1      1773 9.60919E+00
 -1      1774 1.27051E+00
 -1      1775 1.66358E+00
 -1      1776 2.37991E+00
 -1      1777 4.26947E+00
 -1      1778 1.75436E+00
 -1      1779 8.78775E-01
 -1      1780 9.70443E-01
 -1      1781 7.76146E-01
 -1      1782 8.30326E-01
 -1      1783 7.39306E-01
 -1      1784 7.11504E-01
 -1      1785 7.45226E-01
 -1      1786 6.59936E-01
 -1      1787 6.69815E-01
 -1      1788 6.89683E-01
 -1      1789 6.07195E-01
 -1      1790 6.92873E-01
 -1      1791 6.71377E-01
 -1      1792 5.86936E-01
 -1      1793 7.48090E-01
 -1      1794 7.14479E-01
 -1      1795 6.10105E-01
 -1      1796 8.37702E-01
 -1      1797 7.81190E-01
 -1      1798 6.64811E-01
 -1      1799 9.80377E-01
 -1      1800 8.85058E-01
 -1      1801 7.45266E-01
 -1      1802 1.22490E+00
 -1      1803 1.04784E+00
 -1      1804 8.60080E-01
 -1      1805 1.70315E+00
 -1      1806 1.33686E+00
 -1      1807 1.03949E+00
 -1      1808 2.62261E+00
 -1      1809 1.78744E+00
 -1      1810 1.23573E+00
 -1      1811 8.12435E+00
 -1      1812 3.06404E+00
 -1      1813 1.76145E+00
 -1      1814 2.80398E+00
 -1      1815 5.19920E+00
 -1      1816 2.17084E+00
 -1      1817 2.66050E+00
 -1      1818 2.05940E+00
 -1      1819 3.40041E+00
 -1      1820 2.54872E+00
 -1      1821 1.93497E+00
 -1      1822 1.70472E+00
 -1      1823 1.37164E+00
 -1      1824 1.51083E+00
 -1      1825 1.19201E+00
 -1      1826 9.82098E-01
 -1      1827 1.10094E+00
 -1      1828 8.56900E-01
 -1      1829 7.39342E-01
 -1      1830 7.96107E-01
 -1      1831 6.86933E-01
 -1      1832 6.01545E-01
 -1      1833 6.18501E-01
 -1      1834 5.55952E-01
 -1      1835 4.91410E-01
 -1      1836 5.20499E-01
 -1      1837 4.51939E-01
 -1      1838 4.05131E-01
 -1      1839 4.35435E-01
 -1      1840 3.71978E-01
 -1      1841 3.35298E-01
 -1      1842 3.62810E-01
 -1      1843 3.08146E-01
 -1      1844 2.83365E-01
 -1      1845 3.02505E-01
 -1      1846 2.61408E-01
 -1      1847 2.45934E-01
 -1      1848 2.53395E-01
 -1      1849 2.36312E-01
 -1      1850 2.36985E-01
 -1      1851 2.21816E-01
 -1      1852 2.55045E-01
 -1      1853 2.78120E-01
 -1      1854 2.30254E-01
 -1      1855 3.03062E-01
 -1      1856 3.36212E-01
 -1      1857 2.73256E-01
 -1      1858 3.86235E-01
 -1      1859 4.30465E-01
 -1      1860 3.48221E-01
 -1      1861 5.08580E-01
 -1      1862 5.85864E-01
 -1      1863 4.76360E-01
 -1      1864 6.79478E-01
 -1      1865 7.84058E-01
 -1      1866 6.48088E-01
 -1      1867 8.91667E-01
 -1      1868 1.01016E+00
 -1      1869 8.49311E-01
 -1      1870 1.12503E+00
 -1      1871 1.24576E+00
 -1      1872 1.07179E+00
 -1      1873 1.35274E+00
 -1      1874 1.45204E+00
 -1      1875 1.29363E+00
 -1      1876 1.53010E+00
 -1      1877 1.67311E+00
 -1      1878 1.47868E+00
 -1      1879 1.75651E+00
 -1      1880 1.93945E+00
 -1      1881 1.64014E+00
 -1      1882 2.02161E+00
 -1      1883 2.08991E+00
 -1      1884 1.80570E+00
 -1      1885 2.11992E+00
 -1      1886 2.09412E+00
 -1      1887 1.91788E+00
 -1      1888 2.15454E+00
 -1      1889 2.02966E+00
 -1      1890 2.00830E+00
 -1      1891 2.08446E+00
 -1      1892 2.52506E+00
 -1      1893 2.12351E+00
 -1      1894 2.76860E+00
 -1      1895 3.89118E+00
 -1      1896 2.42184E+00
 -1      1897 4.46281E+00
 -1      1898 5.15433E+00
 -1      1899 3.23700E+00
 -1      1900 5.59467E+00
 -1      1901 5.59363E+00
 -1      1902 4.24896E+00
 -1      1903 5.09022E+00
 -1      1904 4.35618E+00
 -1      1905 4.18588E+00
 -1      1906 3.82604E+00
 -1      1907 2.71586E+00
 -1      1908 3.15233E+00
 -1      1909 2.47020E+00
 -1      1910 2.07235E+00
 -1      1911 2.37652E+00
 -1      1912 2.03889E+00
 -1      1913 2.14818E+00
 -1      1914 2.09740E+00
 -1      1915 2.09527E+00
 -1      1916 2.12490E+00
 -1      1917 2.01103E+00
 -1      1918 2.08581E+00
 -1      1919 2.01073E+00
 -1      1920 1.91903E+00
 -1      1921 1.92742E+00
 -1      1922 1.74165E+00
 -1      1923 1.79663E+00
 -1      1924 1.65854E+00
 -1      1925 1.52024E+00
 -1      1926 1.63020E+00
 -1      1927 1.44195E+00
 -1      1928 1.34079E+00
 -1      1929 1.46881E+00
 -1      1930 1.23304E+00
 -1      1931 1.11139E+00
 -1      1932 1.28277E+00
 -1      1933 9.96634E-01
 -1      1934 8.77816E-01
 -1      1935 1.06026E+00
 -1      1936 7.71038E-01
 -1      1937 6.66561E-01
 -1      1938 8.38728E-01
 -1      1939 5.74554E-01
 -1      1940 4.93363E-01
 -1      1941 6.39944E-01
 -1      1942 4.17926E-01
 -1      1943 3.68028E-01
 -1      1944 4.72500E-01
 -1      1945 3.08424E-01
 -1      1946 2.69042E-01
 -1      1947 3.37457E-01
 -1      1948 2.27907E-01
 -1      1949 2.01997E-01
 -1      1950 2.36717E-01
 -1      1951 1.73646E-01
 -1      1952 1.56015E-01
 -1      1953 1.67231E-01
 -1      1954 1.32734E-01
 -1      1955 9.67503E-02
 -1      1956 7.76601E-02
 -1      1957 1.15599E-01
 -1      1958 1.41042E+00
 -1      1959 1.78301E+00
 -1      1960 1.52809E+00
 -1      1961 1.03171E+00
 -1      1962 1.29101E+00
 -1      1963 1.02084E+00
 -1      1964 8.21939E-01
 -1      1965 9.37881E-01
 -1      1966 8.07590E-01
 -1      1967 6.58626E-01
 -1      1968 7.42027E-01
 -1      1969 6.33847E-01
 -1      1970 5.44648E-01
 -1      1971 6.11279E-01
 -1      1972 5.06588E-01
 -1      1973 4.59332E-01
 -1      1974 5.12687E-01
 -1      1975 4.27281E-01
 -1      1976 3.90380E-01
 -1      1977 4.32280E-01
 -1      1978 3.68268E-01
 -1      1979 3.37951E-01
 -1      1980 3.69625E-01
 -1      1981 3.20460E-01
 -1      1982 2.98679E-01
 -1      1983 3.21333E-01
 -1      1984 2.83086E-01
 -1      1985 2.71015E-01
 -1      1986 2.86078E-01
 -1      1987 2.53867E-01
 -1      1988 2.52478E-01
 -1      1989 2.61752E-01
 -1      1990 2.32004E-01
 -1      1991 2.50014E-01
 -1      1992 2.55827E-01
 -1      1993 2.26090E-01
 -1      1994 2.75952E-01
 -1      1995 2.63586E-01
 -1      1996 2.43011E-01
 -1      1997 3.23602E-01
 -1      1998 3.05869E-01
 -1      1999 2.86501E-01
 -1      2000 3.72938E-01
 -1      2001 3.56902E-01
 -1      2002 3.49719E-01
 -1      2003 4.11696E-01
 -1      2004 4.02368E-01
 -1      2005 4.12448E-01
 -1      2006 4.39361E-01
 -1      2007 4.35192E-01
 -1      2008 4.65374E-01
 -1      2009 4.74892E-01
 -1      2010 4.41986E-01
 -1      2011 4.91495E-01
 -1      2012 5.28611E-01
 -1      2013 4.74892E-01
 -1      2014 4.94121E-01
 -1      2015 5.32393E-01
 -1      2016 4.97658E-01
 -1      2017 4.63168E-01
 -1      2018 5.79567E-01
 -1      2019 5.08627E-01
 -1      2020 4.08451E-01
 -1      2021 7.07482E-01
 -1      2022 6.27286E-01
 -1      2023 4.32404E-01
 -1      2024 8.99894E-01
 -1      2025 8.88437E-01
 -1      2026 6.61078E-01
 -1      2027 1.22690E+00
 -1      2028 1.10054E+00
 -1      2029 1.04268E+00
 -1      2030 1.49852E+00
 -1      2031 1.35109E+00
 -1      2032 1.36752E+00
 -1      2033 1.76076E+00
 -1      2034 1.50286E+00
 -1      2035 1.49606E+00
 -1      2036 1.93732E+00
 -1      2037 1.76076E+00
 -1      2038 1.50040E+00
 -1      2039 2.08533E+00
 -1      2040 1.95415E+00
 -1      2041 1.51723E+00
 -1      2042 2.17530E+00
 -1      2043 2.16406E+00
 -1      2044 1.61279E+00
 -1      2045 1.82208E+00
 -1      2046 2.08405E+00
 -1      2047 1.60027E+00
 -1      2048 1.24603E+00
 -1      2049 1.61587E+00
 -1      2050 1.30281E+00
 -1      2051 8.21695E-01
 -1      2052 1.05566E+00
 -1      2053 9.06232E-01
 -1      2054 5.21656E-01
 -1      2055 6.94731E-01
 -1      2056 5.88895E-01
 -1      2057 5.05815E-01
 -1      2058 4.79158E-01
 -1      2059 4.19434E-01
 -1      2060 5.82867E-01
 -1      2061 5.55630E-01
 -1      2062 4.26752E-01
 -1      2063 6.32265E-01
 -1      2064 6.06272E-01
 -1      2065 4.99972E-01
 -1      2066 6.17751E-01
 -1      2067 6.38449E-01
 -1      2068 5.29561E-01
 -1      2069 5.52171E-01
 -1      2070 5.98201E-01
 -1      2071 5.16195E-01
 -1      2072 4.74293E-01
 -1      2073 5.24384E-01
 -1      2074 4.68858E-01
 -1      2075 3.97854E-01
 -1      2076 4.43845E-01
 -1      2077 4.10623E-01
 -1      2078 3.19694E-01
 -1      2079 3.62838E-01
 -1      2080 3.45159E-01
 -1      2081 2.50021E-01
 -1      2082 2.84640E-01
 -1      2083 2.75089E-01
 -1      2084 2.02030E-01
 -1      2085 2.26913E-01
 -1      2086 2.16928E-01
 -1      2087 1.54788E-01
 -1      2088 1.80683E-01
 -1      2089 1.72474E-01
 -1      2090 1.06526E-01
 -1      2091 1.32488E-01
 -1      2092 1.28826E-01
 -1      2093 6.56060E-02
 -1      2094 8.38580E-02
 -1      2095 8.38580E-02
 -1      2096 5.21053E-02
 -1      2097 3.69625E-02
 -1      2098 4.77532E-02
 -1      2099 6.43531E-02
 -1      2100 6.43531E-02
 -1      2101 6.66531E-02
 -1      2102 6.43531E-02
 -1      2103 6.31367E-02
 -1      2104 7.22217E-02
 -1      2105 8.32530E-02
 -1      2106 4.38041E-02
 -1      2107 3.67068E-02
 -1      2108 4.97974E-02
 -1      2109 6.25874E-02
 -1      2110 5.50386E-02
 -1      2111 6.07762E-02
 -1      2112 7.36002E-02
 -1      2113 6.95271E-02
 -1      2114 7.89503E-02
 -1      2115 7.54089E-02
 -1      2116 7.49224E-02
 -1      2117 8.72122E-02
 -1      2118 7.61854E-02
 -1      2119 7.61854E-02
 -1      2120 8.93109E-02
 -1      2121 7.45009E-02
 -1      2122 7.61854E-02
 -1      2123 9.00874E-02
 -1      2124 6.59922E-02
 -1      2125 7.17290E-02
 -1      2126 8.73155E-02
 -1      2127 4.69606E-02
 -1      2128 5.69709E-02
 -1      2129 7.55222E-02
 -1      2130 5.35135E-02
 -1      2131 4.18832E-02
 -1      2132 6.14236E-02
 -1      2133 6.69243E-02
 -1      2134 6.69243E-02
 -1      2135 6.97571E-02
 -1      2136 3.63421E+01
 -1      2137 2.64749E+01
 -1      2138 3.26693E+01
 -1      2139 3.26693E+01
 -1      2140 2.81179E+01
 -1      2141 3.05783E+01
 -1      2142 3.18520E+01
 -1      2143 1.80779E+01
 -1      2144 3.08547E+01
 -1      2145 1.02364E+01
 -1      2146 1.50861E+01
 -1      2147 1.03357E+00
 -1      2148 1.20850E+00
 -1      2149 9.76025E-01
 -1      2150 8.50882E-01
 -1      2151 1.09936E+01
 -1      2152 1.07296E+01
 -1      2153 1.09374E+01
 -1      2154 1.11301E+01
 -1      2155 1.14809E+01
 -1      2156 1.10721E+01
 -1      2157 1.03445E+01
 -1      2158 1.07028E+01
 -1      2159 9.37805E+00
 -1      2160 9.41768E+00
 -1      2161 1.89700E+01
 -1      2162 1.12641E+01
 -1      2163 2.52903E+01
 -1      2164 2.31052E+01
 -1      2165 2.39455E+01
 -1      2166 2.75693E+01
 -1      2167 3.22777E+01
 -1      2168 2.89592E+01
 -1      2169 3.22777E+01
 -1      2170 3.22777E+01
 -1      2171 2.75903E+01
 -1      2172 2.98398E+01
 -1      2173 3.64886E+01
 -1      2174 2.66004E+01
 -1      2175 2.75903E+01
 -1      2176 1.81852E+01
 -1      2177 3.12163E+01
 -1      2178 9.87698E+00
 -1      2179 1.45027E+01
 -1      2180 1.23734E+01
 -1      2181 9.63851E+00
 -1      2182 9.17639E+00
 -1      2183 1.09040E+01
 -1      2184 1.06397E+01
 -1      2185 1.13212E+01
 -1      2186 1.16933E+01
 -1      2187 1.12298E+01
 -1      2188 1.10231E+01
 -1      2189 1.05488E+01
 -1      2190 1.06039E+01
 -1      2191 9.02228E+00
 -1      2192 9.11737E+00
 -1      2193 1.75110E+01
 -1      2194 1.13560E+01
 -1      2195 3.26512E+01
 -1      2196 2.07605E+01
 -1      2197 2.93567E+01
 -1      2198 3.86665E+01
 -1      2199 3.26693E+01
 -1      2200 3.16499E+01
 -1      2201 3.16499E+01
 -1      2202 9.53884E+00
 -1      2203 9.13525E+00
 -1      2204 8.41536E+00
 -1      2205 2.91353E+00
 -1      2206 8.50491E+00
 -1      2207 2.10588E+00
 -1      2208 2.81179E+01
 -1      2209 1.50184E+01
 -1      2210 3.03730E+01
 -1      2211 2.05058E+01
 -1      2212 7.30853E-02
 -1      2213 3.39430E+01
 -1      2214 1.25083E+01
 -1      2215 3.18723E+01
 -1      2216 1.65472E+01
 -1      2217 2.25625E+01
 -1      2218 1.40766E+01
 -1      2219 8.49343E+00
 -1      2220 7.59120E+00
 -1      2221 9.64858E+00
 -1      2222 1.05726E+01
 -1      2223 1.00815E+01
 -1      2224 7.99033E+00
 -1      2225 2.13281E+01
 -1      2226 3.10181E+01
 -1      2227 3.34560E+01
 -1      2228 2.84423E+01
 -1      2229 2.11496E+01
 -1      2230 1.47355E+01
 -1      2231 8.71424E+00
 -1      2232 7.75505E+00
 -1      2233 9.46002E+00
 -1      2234 9.83212E+00
 -1      2235 1.01034E+01
 -1      2236 8.29096E+00
 -1      2237 1.09894E+00
 -1      2238 1.48678E+00
 -1      2239 5.56067E-01
 -1      2240 5.86987E-01
 -1      2241 5.99257E-01
 -1      2242 6.47707E-01
 -1      2243 4.95388E-01
 -1      2244 5.08847E-01
 -1      2245 5.07285E-01
 -1      2246 5.43245E-01
 -1      2247 5.21638E-01
 -1      2248 4.41987E-01
 -1      2249 5.90960E-01
 -1      2250 5.57860E-01
 -1      2251 4.69393E-01
 -1      2252 6.50314E-01
 -1      2253 6.02959E-01
 -1      2254 4.96007E-01
 -1      2255 7.17772E-01
 -1      2256 6.50314E-01
 -1      2257 5.08007E-01
 -1      2258 8.74667E-01
 -1      2259 7.62715E-01
 -1      2260 5.52949E-01
 -1      2261 9.01423E-01
 -1      2262 1.02084E+00
 -1      2263 9.79527E-01
 -1      2264 1.27128E+00
 -1      2265 1.04104E+00
 -1      2266 7.50581E+00
 -1      2267 6.31508E+00
 -1      2268 9.96005E-01
 -1      2269 8.16369E-01
 -1      2270 7.56463E-01
 -1      2271 7.59038E-01
 -1      2272 6.33840E-01
 -1      2273 6.54101E-01
 -1      2274 5.76767E-01
 -1      2275 5.24358E-01
 -1      2276 5.39698E-01
 -1      2277 4.78158E-01
 -1      2278 4.32565E-01
 -1      2279 4.36424E-01
 -1      2280 4.09227E-01
 -1      2281 3.69755E-01
 -1      2282 3.66886E-01
 -1      2283 3.44956E-01
 -1      2284 3.11803E-01
 -1      2285 3.18748E-01
 -1      2286 2.87430E-01
 -1      2287 2.60278E-01
 -1      2288 2.69575E-01
 -1      2289 2.36906E-01
 -1      2290 2.14949E-01
 -1      2291 2.21831E-01
 -1      2292 1.92237E-01
 -1      2293 1.82616E-01
 -1      2294 1.75749E-01
 -1      2295 1.92264E-01
 -1      2296 2.10324E-01
 -1      2297 1.62685E-01
 -1      2298 2.29629E-01
 -1      2299 2.54571E-01
 -1      2300 1.91639E-01
 -1      2301 3.09486E-01
 -1      2302 3.59509E-01
 -1      2303 2.65859E-01
 -1      2304 4.26249E-01
 -1      2305 5.04364E-01
 -1      2306 3.87514E-01
 -1      2307 5.85301E-01
 -1      2308 6.78915E-01
 -1      2309 5.35191E-01
 -1      2310 7.75757E-01
 -1      2311 8.83365E-01
 -1      2312 7.12970E-01
 -1      2313 9.96204E-01
 -1      2314 1.11107E+00
 -1      2315 9.22650E-01
 -1      2316 1.23684E+00
 -1      2317 1.34382E+00
 -1      2318 1.16126E+00
 -1      2319 1.47392E+00
 -1      2320 1.55199E+00
 -1      2321 1.41713E+00
 -1      2322 1.66961E+00
 -1      2323 1.75300E+00
 -1      2324 1.66485E+00
 -1      2325 1.90152E+00
 -1      2326 1.98368E+00
 -1      2327 1.93099E+00
 -1      2328 2.24935E+00
 -1      2329 2.27936E+00
 -1      2330 2.34517E+00
 -1      2331 2.57013E+00
 -1      2332 2.63054E+00
 -1      2333 2.90160E+00
 -1      2334 3.09622E+00
 -1      2335 3.15102E+00
 -1      2336 3.65805E+00
 -1      2337 2.40261E+00
 -1      2338 2.64615E+00
 -1      2339 3.37532E+00
 -1      2340 3.70518E+00
 -1      2341 4.27681E+00
 -1      2342 3.68595E+00
 -1      2343 4.99193E+00
 -1      2344 5.43226E+00
 -1      2345 5.46011E+00
 -1      2346 5.38630E+00
 -1      2347 4.88289E+00
 -1      2348 6.12927E+00
 -1      2349 3.99637E+00
 -1      2350 3.46622E+00
 -1      2351 5.19679E+00
 -1      2352 3.23487E+00
 -1      2353 2.98920E+00
 -1      2354 4.07891E+00
 -1      2355 2.71606E+00
 -1      2356 2.68260E+00
 -1      2357 3.57441E+00
 -1      2358 2.62173E+00
 -1      2359 2.56882E+00
 -1      2360 3.24039E+00
 -1      2361 2.27321E+00
 -1      2362 2.23412E+00
 -1      2363 2.88391E+00
 -1      2364 1.97873E+00
 -1      2365 1.89542E+00
 -1      2366 2.33291E+00
 -1      2367 1.74350E+00
 -1      2368 1.66039E+00
 -1      2369 1.92560E+00
 -1      2370 1.54194E+00
 -1      2371 1.46366E+00
 -1      2372 1.65524E+00
 -1      2373 1.33349E+00
 -1      2374 1.22573E+00
 -1      2375 1.40662E+00
 -1      2376 1.10074E+00
 -1      2377 9.85981E-01
 -1      2378 1.15145E+00
 -1      2379 8.74546E-01
 -1      2380 7.67769E-01
 -1      2381 9.15021E-01
 -1      2382 6.73029E-01
 -1      2383 5.81022E-01
 -1      2384 7.08847E-01
 -1      2385 5.03113E-01
 -1      2386 4.27676E-01
 -1      2387 5.36198E-01
 -1      2388 3.65255E-01
 -1      2389 3.05651E-01
 -1      2390 3.95869E-01
 -1      2391 2.56739E-01
 -1      2392 2.15603E-01
 -1      2393 2.84537E-01
 -1      2394 1.78411E-01
 -1      2395 1.50061E-01
 -1      2396 1.98433E-01
 -1      2397 5.53935E-01
 -1      2398 6.33847E-01
 -1      2399 4.59241E-01
 -1      2400 5.06588E-01
 -1      2401 5.06588E-01
 -1      2402 3.95320E-01
 -1      2403 4.27281E-01
 -1      2404 4.27281E-01
 -1      2405 3.37390E-01
 -1      2406 3.64442E-01
 -1      2407 3.64442E-01
 -1      2408 2.88229E-01
 -1      2409 3.08984E-01
 -1      2410 3.05158E-01
 -1      2411 2.46012E-01
 -1      2412 2.62631E-01
 -1      2413 2.51154E-01
 -1      2414 2.10242E-01
 -1      2415 2.22843E-01
 -1      2416 2.02387E-01
 -1      2417 1.95533E-01
 -1      2418 2.04796E-01
 -1      2419 1.73771E-01
 -1      2420 2.08794E-01
 -1      2421 2.05445E-01
 -1      2422 1.78237E-01
 -1      2423 2.33684E-01
 -1      2424 2.20111E-01
 -1      2425 1.99466E-01
 -1      2426 2.95607E-01
 -1      2427 2.65689E-01
 -1      2428 2.42790E-01
 -1      2429 3.62060E-01
 -1      2430 3.28760E-01
 -1      2431 3.07948E-01
 -1      2432 4.20235E-01
 -1      2433 3.90806E-01
 -1      2434 3.69847E-01
 -1      2435 4.70063E-01
 -1      2436 4.46567E-01
 -1      2437 4.24924E-01
 -1      2438 4.91495E-01
 -1      2439 4.88870E-01
 -1      2440 4.70063E-01
 -1      2441 4.94121E-01
 -1      2442 4.94121E-01
 -1      2443 4.91495E-01
 -1      2444 4.48345E-01
 -1      2445 4.79297E-01
 -1      2446 4.79297E-01
 -1      2447 4.39612E-01
 -1      2448 4.63378E-01
 -1      2449 4.79507E-01
 -1      2450 5.09446E-01
 -1      2451 4.61727E-01
 -1      2452 5.16654E-01
 -1      2453 7.92756E-01
 -1      2454 6.11802E-01
 -1      2455 6.41124E-01
 -1      2456 1.14415E+00
 -1      2457 9.43503E-01
 -1      2458 8.94227E-01
 -1      2459 1.38381E+00
 -1      2460 1.25962E+00
 -1      2461 1.16044E+00
 -1      2462 1.49606E+00
 -1      2463 1.49171E+00
 -1      2464 1.38381E+00
 -1      2465 1.50040E+00
 -1      2466 1.50040E+00
 -1      2467 1.49606E+00
 -1      2468 1.48761E+00
 -1      2469 1.47078E+00
 -1      2470 1.47078E+00
 -1      2471 1.60454E+00
 -1      2472 1.52580E+00
 -1      2473 1.47936E+00
 -1      2474 1.43669E+00
 -1      2475 1.52795E+00
 -1      2476 1.44096E+00
 -1      2477 1.12832E+00
 -1      2478 1.33453E+00
 -1      2479 1.26221E+00
 -1      2480 7.73742E-01
 -1      2481 9.64114E-01
 -1      2482 9.95834E-01
 -1      2483 5.15935E-01
 -1      2484 6.42899E-01
 -1      2485 7.00781E-01
 -1      2486 4.48225E-01
 -1      2487 4.90723E-01
 -1      2488 5.44726E-01
 -1      2489 4.60853E-01
 -1      2490 4.11038E-01
 -1      2491 4.82327E-01
 -1      2492 5.05980E-01
 -1      2493 4.82574E-01
 -1      2494 4.66861E-01
 -1      2495 5.12748E-01
 -1      2496 5.06564E-01
 -1      2497 4.89167E-01
 -1      2498 4.77765E-01
 -1      2499 4.97316E-01
 -1      2500 4.74318E-01
 -1      2501 4.28765E-01
 -1      2502 4.56552E-01
 -1      2503 4.37672E-01
 -1      2504 3.72558E-01
 -1      2505 4.03006E-01
 -1      2506 3.90700E-01
 -1      2507 3.07831E-01
 -1      2508 3.42847E-01
 -1      2509 3.35230E-01
 -1      2510 2.41542E-01
 -1      2511 2.76596E-01
 -1      2512 2.74284E-01
 -1      2513 1.88996E-01
 -1      2514 2.12103E-01
 -1      2515 2.13610E-01
 -1      2516 1.41328E-01
 -1      2517 1.62675E-01
 -1      2518 1.57851E-01
 -1      2519 1.02655E-01
 -1      2520 1.24956E-01
 -1      2521 1.15158E-01
 -1      2522 9.48894E-02
 -1      2523 7.95248E-02
 -1      2524 6.82903E-02
 -1      2525 9.77283E-02
 -1      2526 9.07886E-02
 -1      2527 9.83028E-02
 -1      2528 6.47413E-02
 -1      2529 8.13413E-02
 -1      2530 6.05109E-02
 -1      2531 6.07666E-02
 -1      2532 7.54548E-02
 -1      2533 7.92596E-02
 -1      2534 1.03548E-01
 -1      2535 1.02226E-01
 -1      2536 1.14064E-01
 -1      2537 1.04325E-01
 -1      2538 1.03548E-01
 -1      2539 1.18562E-01
 -1      2540 1.06431E-01
 -1      2541 1.06431E-01
 -1      2542 1.20668E-01
 -1      2543 1.03659E-01
 -1      2544 1.06431E-01
 -1      2545 1.22774E-01
 -1      2546 8.86721E-02
 -1      2547 9.76935E-02
 -1      2548 1.16809E-01
 -1      2549 8.94444E-02
 -1      2550 9.45217E-02
 -1      2551 1.16693E-01
 -1      2552 9.57887E-02
 -1      2553 8.23779E-02
 -1      2554 1.15476E-01
 -1      2555 8.77428E-02
 -1      2556 3.39430E+01
 -1      2557 3.39430E+01
 -1      2558 7.13758E-01
 -1      2559 8.07590E-01
 -1      2560 6.33847E-01
 -1      2561 2.97610E+01
 -1      2562 3.18520E+01
 -1      2563 8.56533E+00
 -1      2564 1.15571E+01
 -1      2565 2.34980E+01
 -1      2566 2.51411E+01
 -1      2567 2.85803E+01
 -1      2568 3.10181E+01
 -1      2569 5.19990E-01
 -1      2570 5.41810E-01
 -1      2571 4.68861E-01
 -1      2572 4.41900E-01
 -1      2573 9.19284E+00
 -1      2574 9.05806E+00
 -1      2575 7.19256E+00
 -1      2576 6.19134E+00
 -1      2577 8.70128E+00
 -1      2578 8.56481E+00
 -1      2579 7.67484E+00
 -1      2580 8.45296E+00
 -1      2581 5.91736E+00
 -1      2582 6.84422E+00
 -1      2583 8.22149E+00
 -1      2584 6.33545E+00
 -1      2585 1.42230E+01
 -1      2586 1.00878E+01
 -1      2587 1.88940E+01
 -1      2588 1.66150E+01
 -1      2589 2.84423E+01
 -1      2590 2.34286E+01
 -1      2591 1.88940E+01
 -1      2592 3.34560E+01
 -1      2593 3.34560E+01
 -1      2594 2.23740E+01
 -1      2595 2.33639E+01
 -1      2596 1.48470E+01
 -1      2597 2.01193E+01
 -1      2598 8.78197E+00
 -1      2599 1.24645E+01
 -1      2600 6.42408E+00
 -1      2601 7.12467E+00
 -1      2602 8.84010E+00
 -1      2603 8.05078E+00
 -1      2604 5.95117E+00
 -1      2605 9.18586E+00
 -1      2606 9.48401E+00
 -1      2607 7.97678E+00
 -1      2608 8.60270E+00
 -1      2609 7.51406E+00
 -1      2610 5.28425E+00
 -1      2611 6.71571E+00
 -1      2612 7.78281E+00
 -1      2613 5.44912E+00
 -1      2614 1.44881E+01
 -1      2615 1.12386E+01
 -1      2616 8.19426E+00
 -1      2617 2.72860E+01
 -1      2618 2.49929E+01
 -1      2619 1.67320E+00
 -1      2620 1.30840E+00
 -1      2621 8.38607E-01
 -1      2622 9.56880E-01
 -1      2623 1.62214E+00
 -1      2624 1.76561E+00
 -1      2625 1.32419E+00
 -1      2626 1.19299E+00
 -1      2627 5.98674E+00
 -1      2628 7.08792E+00
 -1      2629 6.13672E+00
 -1      2630 4.98764E+00
 -1      2631 7.79075E+00
 -1      2632 6.09622E-01
 -1      2633 7.49671E-01
 -1      2634 8.12797E-01
 -1      2635 8.07590E-01
 -1      2636 1.23990E+00
 -1      2637 8.94863E-01
 -1      2638 1.37092E+01
 -1      2639 1.81987E+01
 -1      2640 5.66983E+00
 -1      2641 2.72860E+01
 -1      2642 1.18940E+01
 -1      2643 1.14123E+01
 -1      2644 7.95104E+00
 -1      2645 9.10190E-02
 -1      2646 9.10190E-02
 -1      2647 7.45331E+00
 -1      2648 9.23175E-02
 -1      2649 8.77428E-02
 -1      2650 1.00364E-01
 -1      2651 1.15599E-01
 -1      2652 1.31732E+01
 -1      2653 1.91423E+01
 -1      2654 1.61655E+01
 -1      2655 5.32568E+00
 -1      2656 3.18520E+01
 -1      2657 9.63122E-01
 -1      2658 2.51411E+01
 -1      2659 7.21572E+00
 -1      2660 3.10181E+01
 -1      2661 1.12556E+01
 -1      2662 1.58929E+01
 -1      2663 2.84423E+01
 -1      2664 1.41309E+01
 -1      2665 9.48319E+00
 -1      2666 1.18752E+01
 -1      2667 7.70899E+00
 -1      2668 5.42461E+00
 -1      2669 5.83715E+00
 -1      2670 2.33639E+01
 -1      2671 6.37497E+00
 -1      2672 7.40766E+00
 -1      2673 4.57363E+00
 -1      2674 8.91072E-02
 -1      2675 1.26780E-01
 -1      2676 4.20416E-01
 -1      2677 4.05801E-01
 -1      2678 3.97993E-01
 -1      2679 3.85202E-01
 -1      2680 3.49016E-01
 -1      2681 4.34117E-01
 -1      2682 4.34117E-01
 -1      2683 4.67248E-01
 -1      2684 4.22306E-01
 -1      2685 3.48416E-01
 -1      2686 7.21519E-01
 -1      2687 7.99624E-01
 -1      2688 1.74815E+01
 -1      2689 2.21014E+01
 -1      2690 6.17271E-01
 -1      2691 7.11103E-01
 -1      2692 5.31200E-01
 -1      2693 8.27762E-01
 -1      2694 6.77979E+00
 -1      2695 6.42301E+00
 -1      2696 5.56719E-01
 -1      2697 4.99388E-01
 -1      2698 4.91329E-01
 -1      2699 4.34255E-01
 -1      2700 3.93946E-01
 -1      2701 4.11870E-01
 -1      2702 3.65670E-01
 -1      2703 3.63501E-01
 -1      2704 3.37747E-01
 -1      2705 3.14409E-01
 -1      2706 3.13193E-01
 -1      2707 2.91209E-01
 -1      2708 2.66410E-01
 -1      2709 2.62071E-01
 -1      2710 2.48580E-01
 -1      2711 2.24207E-01
 -1      2712 2.21042E-01
 -1      2713 2.03675E-01
 -1      2714 1.80303E-01
 -1      2715 1.82679E-01
 -1      2716 1.57573E-01
 -1      2717 1.34862E-01
 -1      2718 1.39416E-01
 -1      2719 1.25339E-01
 -1      2720 1.34988E-01
 -1      2721 1.07164E-01
 -1      2722 1.56337E-01
 -1      2723 1.75643E-01
 -1      2724 1.18992E-01
 -1      2725 2.19117E-01
 -1      2726 2.74033E-01
 -1      2727 1.83816E-01
 -1      2728 3.26484E-01
 -1      2729 3.93224E-01
 -1      2730 2.79742E-01
 -1      2731 4.57309E-01
 -1      2732 5.38245E-01
 -1      2733 3.96278E-01
 -1      2734 6.17506E-01
 -1      2735 7.14348E-01
 -1      2736 5.39624E-01
 -1      2737 8.16885E-01
 -1      2738 9.29723E-01
 -1      2739 7.21421E-01
 -1      2740 1.06030E+00
 -1      2741 1.18607E+00
 -1      2742 9.54532E-01
 -1      2743 1.34809E+00
 -1      2744 1.47819E+00
 -1      2745 1.24713E+00
 -1      2746 1.69073E+00
 -1      2747 1.80835E+00
 -1      2748 1.62168E+00
 -1      2749 2.08283E+00
 -1      2750 2.23135E+00
 -1      2751 2.10871E+00
 -1      2752 2.55904E+00
 -1      2753 2.82470E+00
 -1      2754 2.71089E+00
 -1      2755 3.31913E+00
 -1      2756 3.60989E+00
 -1      2757 3.53300E+00
 -1      2758 4.19902E+00
 -1      2759 4.66471E+00
 -1      2760 4.61655E+00
 -1      2761 7.13623E+00
 -1      2762 7.09027E+00
 -1      2763 4.35951E+00
 -1      2764 4.12816E+00
 -1      2765 3.84657E+00
 -1      2766 3.57343E+00
 -1      2767 3.98893E+00
 -1      2768 3.92806E+00
 -1      2769 4.26110E+00
 -1      2770 3.21089E+00
 -1      2771 2.91528E+00
 -1      2772 3.95943E+00
 -1      2773 2.61962E+00
 -1      2774 2.36423E+00
 -1      2775 2.94660E+00
 -1      2776 2.07752E+00
 -1      2777 1.92560E+00
 -1      2778 2.36423E+00
 -1      2779 1.72670E+00
 -1      2780 1.60826E+00
 -1      2781 1.87862E+00
 -1      2782 1.43850E+00
 -1      2783 1.30833E+00
 -1      2784 1.50997E+00
 -1      2785 1.16090E+00
 -1      2786 1.03591E+00
 -1      2787 1.19279E+00
 -1      2788 9.15021E-01
 -1      2789 8.03586E-01
 -1      2790 9.24473E-01
 -1      2791 7.08847E-01
 -1      2792 6.14107E-01
 -1      2793 7.08847E-01
 -1      2794 5.36198E-01
 -1      2795 4.58289E-01
 -1      2796 5.36198E-01
 -1      2797 3.95869E-01
 -1      2798 3.33449E-01
 -1      2799 3.95869E-01
 -1      2800 2.84537E-01
 -1      2801 2.35625E-01
 -1      2802 2.84537E-01
 -1      2803 2.17046E-01
 -1      2804 1.79855E-01
 -1      2805 2.17046E-01
 -1      2806 3.59254E-01
 -1      2807 3.91214E-01
 -1      2808 4.28042E-01
 -1      2809 4.75389E-01
 -1      2810 3.60015E-01
 -1      2811 2.58200E-01
 -1      2812 2.86606E-01
 -1      2813 2.10881E-01
 -1      2814 2.36479E-01
 -1      2815 2.17927E-01
 -1      2816 1.65580E-01
 -1      2817 1.88749E-01
 -1      2818 1.74074E-01
 -1      2819 1.39211E-01
 -1      2820 1.44657E-01
 -1      2821 1.31020E-01
 -1      2822 1.56895E-01
 -1      2823 1.46983E-01
 -1      2824 1.17869E-01
 -1      2825 1.85959E-01
 -1      2826 1.74642E-01
 -1      2827 1.43388E-01
 -1      2828 2.52157E-01
 -1      2829 2.20151E-01
 -1      2830 1.95326E-01
 -1      2831 3.20481E-01
 -1      2832 2.87328E-01
 -1      2833 2.64690E-01
 -1      2834 3.83306E-01
 -1      2835 3.54560E-01
 -1      2836 3.33940E-01
 -1      2837 4.40159E-01
 -1      2838 4.13828E-01
 -1      2839 3.98541E-01
 -1      2840 4.86615E-01
 -1      2841 4.67807E-01
 -1      2842 4.56711E-01
 -1      2843 5.26297E-01
 -1      2844 5.23671E-01
 -1      2845 5.21416E-01
 -1      2846 5.39248E-01
 -1      2847 5.54071E-01
 -1      2848 5.86247E-01
 -1      2849 5.60761E-01
 -1      2850 5.45729E-01
 -1      2851 6.20502E-01
 -1      2852 6.68558E-01
 -1      2853 6.46443E-01
 -1      2854 7.12665E-01
 -1      2855 8.38251E-01
 -1      2856 7.35895E-01
 -1      2857 8.65684E-01
 -1      2858 1.07718E+00
 -1      2859 9.26434E-01
 -1      2860 1.02120E+00
 -1      2861 1.25693E+00
 -1      2862 1.14146E+00
 -1      2863 1.17367E+00
 -1      2864 1.44514E+00
 -1      2865 1.33724E+00
 -1      2866 1.31826E+00
 -1      2867 1.68945E+00
 -1      2868 1.68511E+00
 -1      2869 1.63854E+00
 -1      2870 1.60663E+00
 -1      2871 1.63625E+00
 -1      2872 1.82530E+00
 -1      2873 1.72509E+00
 -1      2874 1.68690E+00
 -1      2875 1.85236E+00
 -1      2876 1.45516E+00
 -1      2877 1.53175E+00
 -1      2878 1.73929E+00
 -1      2879 1.20203E+00
 -1      2880 1.30419E+00
 -1      2881 1.39498E+00
 -1      2882 1.01218E+00
 -1      2883 1.17639E+00
 -1      2884 1.21838E+00
 -1      2885 7.58299E-01
 -1      2886 8.89142E-01
 -1      2887 1.06970E+00
 -1      2888 6.93255E-01
 -1      2889 7.18467E-01
 -1      2890 9.06828E-01
 -1      2891 5.66251E-01
 -1      2892 6.03439E-01
 -1      2893 7.77180E-01
 -1      2894 5.57309E-01
 -1      2895 5.35587E-01
 -1      2896 6.56699E-01
 -1      2897 5.36876E-01
 -1      2898 5.36292E-01
 -1      2899 6.05018E-01
 -1      2900 4.86826E-01
 -1      2901 5.02258E-01
 -1      2902 5.49383E-01
 -1      2903 4.32668E-01
 -1      2904 4.53882E-01
 -1      2905 4.81822E-01
 -1      2906 3.80578E-01
 -1      2907 4.06337E-01
 -1      2908 4.22547E-01
 -1      2909 3.20138E-01
 -1      2910 3.49849E-01
 -1      2911 3.65487E-01
 -1      2912 2.56953E-01
 -1      2913 2.88187E-01
 -1      2914 3.02807E-01
 -1      2915 1.97277E-01
 -1      2916 2.26716E-01
 -1      2917 2.40619E-01
 -1      2918 1.43551E-01
 -1      2919 1.69871E-01
 -1      2920 1.82977E-01
 -1      2921 1.06321E-01
 -1      2922 1.22694E-01
 -1      2923 1.34714E-01
 -1      2924 9.66433E-02
 -1      2925 1.35165E-01
 -1      2926 1.35165E-01
 -1      2927 1.73432E-01
 -1      2928 1.38970E-01
 -1      2929 1.92045E-01
 -1      2930 1.21233E-01
 -1      2931 1.09970E-01
 -1      2932 1.40311E-01
 -1      2933 1.38205E-01
 -1      2934 1.54809E-01
 -1      2935 1.35165E-01
 -1      2936 1.30667E-01
 -1      2937 1.42334E-01
 -1      2938 1.51768E-01
 -1      2939 1.42116E-01
 -1      2940 1.42116E-01
 -1      2941 1.59653E-01
 -1      2942 1.36150E-01
 -1      2943 1.42116E-01
 -1      2944 1.61457E-01
 -1      2945 1.60505E-01
 -1      2946 1.54655E-01
 -1      2947 1.79962E-01
 -1      2948 5.10803E-01
 -1      2949 5.90714E-01
 -1      2950 4.94227E-01
 -1      2951 4.32257E-01
 -1      2952 6.49231E+00
 -1      2953 5.62058E+00
 -1      2954 1.63258E+01
 -1      2955 1.38954E+01
 -1      2956 5.64314E+00
 -1      2957 7.30044E+00
 -1      2958 4.13519E+00
 -1      2959 4.36793E+00
 -1      2960 4.45265E+00
 -1      2961 3.07050E-01
 -1      2962 3.37929E-01
 -1      2963 3.01862E-01
 -1      2964 2.60093E-01
 -1      2965 6.03293E-01
 -1      2966 5.58262E-01
 -1      2967 4.03548E-01
 -1      2968 4.34117E-01
 -1      2969 4.22118E-01
 -1      2970 3.58525E-01
 -1      2971 3.60227E-01
 -1      2972 1.47016E-01
 -1      2973 7.93652E-01
 -1      2974 4.21613E-01
 -1      2975 4.33883E-01
 -1      2976 2.13285E+01
 -1      2977 2.34196E+01
 -1      2978 6.23241E+00
 -1      2979 6.97228E+00
 -1      2980 1.65036E+01
 -1      2981 2.17200E+01
 -1      2982 4.38387E+00
 -1      2983 5.21450E+00
 -1      2984 4.64847E+00
 -1      2985 4.23038E+00
 -1      2986 7.07782E+00
 -1      2987 5.21153E+00
 -1      2988 4.01729E+00
 -1      2989 1.72759E+01
 -1      2990 1.27413E+01
 -1      2991 8.34575E+00
 -1      2992 1.07283E+01
 -1      2993 5.59722E+00
 -1      2994 4.53821E+00
 -1      2995 2.47303E+01
 -1      2996 1.97166E+01
 -1      2997 1.17878E+01
 -1      2998 1.40425E+01
 -1      2999 2.11700E+01
 -1      3000 2.36079E+01
 -1      3001 2.39450E+01
 -1      3002 1.72880E+01
 -1      3003 6.50710E+00
 -1      3004 7.74781E+00
 -1      3005 4.29204E+00
 -1      3006 4.60067E-01
 -1      3007 5.62031E-01
 -1      3008 3.86292E-01
 -1      3009 3.40959E-01
 -1      3010 3.84953E-01
 -1      3011 3.97657E-01
 -1      3012 5.69753E-01
 -1      3013 1.36690E+01
 -1      3014 4.64219E+00
 -1      3015 4.31386E+00
 -1      3016 5.60454E+00
 -1      3017 4.29302E+00
 -1      3018 1.54082E-01
 -1      3019 6.24300E+00
 -1      3020 6.57990E+00
 -1      3021 5.46676E+00
 -1      3022 4.92579E+00
 -1      3023 4.17738E+00
 -1      3024 2.90218E+00
 -1      3025 3.96121E+00
 -1      3026 1.18020E-01
 -1      3027 9.50893E-02
 -1      3028 8.73099E-02
 -1      3029 5.77719E+00
 -1      3030 9.88846E+00
 -1      3031 1.42442E+01
 -1      3032 1.12045E+01
 -1      3033 5.75336E-01
 -1      3034 6.57402E-01
 -1      3035 6.20290E-01
 -1      3036 4.25781E-01
 -1      3037 7.88744E-02
 -1      3038 8.28490E-02
 -1      3039 1.00063E-01
 -1      3040 9.47041E-02
 -1      3041 8.01484E+00
 -1      3042 5.51737E+00
 -1      3043 7.92275E+00
 -1      3044 4.77913E+00
 -1      3045 1.92045E-01
 -1      3046 1.12818E+01
 -1      3047 9.91827E+00
 -1      3048 8.15737E+00
 -1      3049 9.18942E+00
 -1      3050 1.08075E+01
 -1      3051 8.32340E+00
 -1      3052 1.34216E+01
 -1      3053 1.94590E+01
 -1      3054 1.20488E+01
 -1      3055 1.25987E+01
 -1      3056 8.87792E+00
 -1      3057 1.48822E+01
 -1      3058 4.58625E+00
 -1      3059 1.52189E+01
 -1      3060 1.09156E+01
 -1      3061 1.18779E+01
 -1      3062 6.77316E+00
 -1      3063 4.05260E-01
 -1      3064 4.19517E-01
 -1      3065 3.58012E-01
 -1      3066 3.48313E-01
 -1      3067 4.39110E-01
 -1      3068 4.84152E+00
 -1      3069 4.16774E+00
 -1      3070 4.06376E+00
 -1      3071 4.76558E+00
 -1      3072 4.91896E+00
 -1      3073 4.54152E+00
 -1      3074 3.91887E+00
 -1      3075 3.76538E+00
 -1      3076 1.23985E+01
 -1      3077 1.19378E+01
 -1      3078 9.87864E+00
 -1      3079 4.22088E-01
 -1      3080 1.35639E+01
 -1      3081 1.00649E+01
 -1      3082 1.17007E+01
 -1      3083 1.09279E+01
 -1      3084 2.90462E-01
 -1      3085 3.02274E-01
 -1      3086 4.88770E+00
 -1      3087 4.69520E+00
 -1      3088 6.51207E+00
 -1      3089 3.18944E-01
 -1      3090 2.96559E-01
 -1      3091 2.90434E-01
 -1      3092 2.62511E-01
 -1      3093 2.45876E-01
 -1      3094 2.47517E-01
 -1      3095 2.24318E-01
 -1      3096 2.24758E-01
 -1      3097 2.04343E-01
 -1      3098 1.86513E-01
 -1      3099 1.89789E-01
 -1      3100 1.72139E-01
 -1      3101 1.51606E-01
 -1      3102 1.55440E-01
 -1      3103 1.32822E-01
 -1      3104 1.10092E-01
 -1      3105 1.22282E-01
 -1      3106 1.02900E-01
 -1      3107 9.33781E-02
 -1      3108 9.63061E-02
 -1      3109 1.03557E-01
 -1      3110 1.24907E-01
 -1      3111 9.92935E-02
 -1      3112 1.62474E-01
 -1      3113 2.05949E-01
 -1      3114 1.47039E-01
 -1      3115 2.57471E-01
 -1      3116 3.09922E-01
 -1      3117 2.36128E-01
 -1      3118 3.74461E-01
 -1      3119 4.38546E-01
 -1      3120 3.52190E-01
 -1      3121 5.19818E-01
 -1      3122 5.99078E-01
 -1      3123 4.98000E-01
 -1      3124 7.01492E-01
 -1      3125 8.04029E-01
 -1      3126 6.81686E-01
 -1      3127 9.32390E-01
 -1      3128 1.06296E+00
 -1      3129 9.12461E-01
 -1      3130 1.22154E+00
 -1      3131 1.38356E+00
 -1      3132 1.19940E+00
 -1      3133 1.58443E+00
 -1      3134 1.79696E+00
 -1      3135 1.55884E+00
 -1      3136 2.09241E+00
 -1      3137 2.36690E+00
 -1      3138 2.05515E+00
 -1      3139 2.93015E+00
 -1      3140 3.25784E+00
 -1      3141 2.91386E+00
 -1      3142 3.71239E+00
 -1      3143 4.20681E+00
 -1      3144 3.93166E+00
 -1      3145 5.00993E+00
 -1      3146 5.59906E+00
 -1      3147 6.90546E+00
 -1      3148 5.18933E+00
 -1      3149 2.99515E-01
 -1      3150 2.97972E-01
 -1      3151 7.24269E+00
 -1      3152 6.52553E+00
 -1      3153 5.83890E+00
 -1      3154 5.54324E+00
 -1      3155 9.12217E+00
 -1      3156 3.14289E+00
 -1      3157 2.85619E+00
 -1      3158 6.03520E+00
 -1      3159 2.18420E+00
 -1      3160 1.98530E+00
 -1      3161 2.96286E+00
 -1      3162 1.69393E+00
 -1      3163 1.52418E+00
 -1      3164 1.99950E+00
 -1      3165 1.33061E+00
 -1      3166 1.18318E+00
 -1      3167 1.51457E+00
 -1      3168 1.02490E+00
 -1      3169 9.04015E-01
 -1      3170 1.16272E+00
 -1      3171 7.78545E-01
 -1      3172 6.83805E-01
 -1      3173 8.78973E-01
 -1      3174 5.85585E-01
 -1      3175 5.07676E-01
 -1      3176 6.55283E-01
 -1      3177 4.31299E-01
 -1      3178 3.68879E-01
 -1      3179 4.80686E-01
 -1      3180 3.10490E-01
 -1      3181 2.61578E-01
 -1      3182 3.45920E-01
 -1      3183 2.45411E-01
 -1      3184 2.26832E-01
 -1      3185 2.71364E-01
 -1      3186 1.25503E+01
 -1      3187 1.01096E+01
 -1      3188 1.36417E-01
 -1      3189 1.58548E-01
 -1      3190 1.78219E-01
 -1      3191 1.99941E-01
 -1      3192 1.40562E-01
 -1      3193 9.48562E-02
 -1      3194 8.70841E-02
 -1      3195 1.37157E-01
 -1      3196 1.19410E-01
 -1      3197 8.86254E-02
 -1      3198 2.03527E-01
 -1      3199 1.69336E-01
 -1      3200 1.45358E-01
 -1      3201 2.74497E-01
 -1      3202 2.39325E-01
 -1      3203 2.13334E-01
 -1      3204 3.48628E-01
 -1      3205 3.14549E-01
 -1      3206 2.89184E-01
 -1      3207 4.20713E-01
 -1      3208 3.90191E-01
 -1      3209 3.70799E-01
 -1      3210 4.89114E-01
 -1      3211 4.61466E-01
 -1      3212 4.53116E-01
 -1      3213 5.68326E-01
 -1      3214 5.31270E-01
 -1      3215 5.36025E-01
 -1      3216 6.61398E-01
 -1      3217 6.33623E-01
 -1      3218 6.43477E-01
 -1      3219 7.34208E-01
 -1      3220 7.27727E-01
 -1      3221 7.75104E-01
 -1      3222 8.72721E-01
 -1      3223 7.87039E-01
 -1      3224 8.94264E-01
 -1      3225 1.04165E+00
 -1      3226 9.74309E-01
 -1      3227 1.04868E+00
 -1      3228 1.34062E+00
 -1      3229 1.25244E+00
 -1      3230 1.36106E+00
 -1      3231 1.40963E+00
 -1      3232 1.34535E+00
 -1      3233 1.57658E+00
 -1      3234 2.22614E+00
 -1      3235 2.14583E+00
 -1      3236 2.31751E+00
 -1      3237 2.97751E+00
 -1      3238 2.73755E+00
 -1      3239 3.56512E+00
 -1      3240 2.59223E+00
 -1      3241 2.64543E+00
 -1      3242 3.74444E+00
 -1      3243 2.66353E+00
 -1      3244 2.58326E+00
 -1      3245 3.40339E+00
 -1      3246 2.95651E+00
 -1      3247 3.14985E+00
 -1      3248 3.88075E+00
 -1      3249 2.21378E+00
 -1      3250 2.36475E+00
 -1      3251 3.77531E+00
 -1      3252 1.33317E+00
 -1      3253 1.35881E+00
 -1      3254 2.32858E+00
 -1      3255 1.31820E+00
 -1      3256 1.44124E+00
 -1      3257 1.58168E+00
 -1      3258 1.12665E+00
 -1      3259 1.16648E+00
 -1      3260 1.53802E+00
 -1      3261 8.26819E-01
 -1      3262 9.16636E-01
 -1      3263 1.17629E+00
 -1      3264 7.58428E-01
 -1      3265 7.89092E-01
 -1      3266 9.28548E-01
 -1      3267 6.73132E-01
 -1      3268 6.94149E-01
 -1      3269 8.26542E-01
 -1      3270 5.70914E-01
 -1      3271 6.05532E-01
 -1      3272 6.94663E-01
 -1      3273 4.87583E-01
 -1      3274 5.20527E-01
 -1      3275 5.76675E-01
 -1      3276 4.22091E-01
 -1      3277 4.48422E-01
 -1      3278 4.87128E-01
 -1      3279 3.51617E-01
 -1      3280 3.82346E-01
 -1      3281 4.08221E-01
 -1      3282 2.81994E-01
 -1      3283 3.13945E-01
 -1      3284 3.30804E-01
 -1      3285 2.18493E-01
 -1      3286 2.48730E-01
 -1      3287 2.59868E-01
 -1      3288 1.62010E-01
 -1      3289 1.89416E-01
 -1      3290 1.97527E-01
 -1      3291 1.18136E-01
 -1      3292 1.38993E-01
 -1      3293 1.45432E-01
 -1      3294 1.04342E-01
 -1      3295 3.21739E-01
 -1      3296 3.13932E-01
 -1      3297 2.26832E-01
 -1      3298 2.08327E-01
 -1      3299 1.76305E-01
 -1      3300 1.73264E-01
 -1      3301 5.08667E+00
 -1      3302 6.79471E+00
 -1      3303 6.66414E+00
 -1      3304 1.99996E-01
 -1      3305 1.99996E-01
 -1      3306 2.46865E-01
 -1      3307 9.47165E-02
 -1      3308 1.15639E-01
 -1      3309 1.00114E-01
 -1      3310 7.17040E-02
 -1      3311 1.09279E+01
 -1      3312 1.14533E+01
 -1      3313 3.91887E+00
 -1      3314 4.93678E+00
 -1      3315 3.01200E-01
 -1      3316 3.38028E-01
 -1      3317 4.10536E-01
 -1      3318 3.08031E-01
 -1      3319 2.61888E-01
 -1      3320 4.00120E-01
 -1      3321 3.17908E-01
 -1      3322 3.09849E-01
 -1      3323 2.42906E-01
 -1      3324 4.42013E+00
 -1      3325 3.19890E-01
 -1      3326 3.02893E-01
 -1      3327 3.06585E-01
 -1      3328 7.96491E+00
 -1      3329 1.01376E+01
 -1      3330 1.25987E+01
 -1      3331 8.16513E+00
 -1      3332 4.37692E+00
 -1      3333 3.81386E+00
 -1      3334 1.10514E+01
 -1      3335 1.21738E+01
 -1      3336 1.09156E+01
 -1      3337 8.95802E+00
 -1      3338 7.01820E+00
 -1      3339 8.78959E+00
 -1      3340 4.88956E+00
 -1      3341 4.06376E+00
 -1      3342 4.88737E+00
 -1      3343 1.85815E-01
 -1      3344 1.84011E-01
 -1      3345 2.02467E-01
 -1      3346 2.24354E-01
 -1      3347 3.18234E+00
 -1      3348 3.63406E+00
 -1      3349 3.10346E-01
 -1      3350 3.10097E-01
 -1      3351 2.83069E-01
 -1      3352 2.60930E-01
 -1      3353 3.18884E-01
 -1      3354 3.18884E-01
 -1      3355 4.17272E+00
 -1      3356 3.81436E-01
 -1      3357 2.60772E-01
 -1      3358 3.54879E-01
 -1      3359 1.97316E-01
 -1      3360 3.23441E-01
 -1      3361 3.21739E-01
 -1      3362 2.86655E-01
 -1      3363 2.82098E-01
 -1      3364 2.81642E-01
 -1      3365 2.59655E-01
 -1      3366 2.60317E-01
 -1      3367 4.14581E+00
 -1      3368 4.36063E+00
 -1      3369 2.90802E+00
 -1      3370 1.03378E+01
 -1      3371 6.39193E+00
 -1      3372 8.95967E+00
 -1      3373 6.53912E+00
 -1      3374 9.77643E+00
 -1      3375 7.03536E+00
 -1      3376 2.80257E-01
 -1      3377 3.06441E-01
 -1      3378 2.00550E-01
 -1      3379 7.51617E+00
 -1      3380 8.52971E+00
 -1      3381 6.59599E+00
 -1      3382 8.71952E+00
 -1      3383 9.38423E+00
 -1      3384 1.18779E+01
 -1      3385 9.80879E+00
 -1      3386 9.09634E+00
 -1      3387 7.17507E+00
 -1      3388 7.20487E+00
 -1      3389 4.12500E+00
 -1      3390 1.77085E-01
 -1      3391 2.16793E-01
 -1      3392 2.37237E-01
 -1      3393 2.26832E-01
 -1      3394 2.55196E-01
 -1      3395 1.68294E-01
 -1      3396 1.58860E-01
 -1      3397 6.85505E+00
 -1      3398 1.98468E-01
 -1      3399 1.94760E-01
 -1      3400 1.73264E-01
 -1      3401 1.73264E-01
 -1      3402 3.35189E-01
 -1      3403 3.70602E-01
 -1      3404 2.57811E-01
 -1      3405 2.76374E-01
 -1      3406 2.96227E-01
 -1      3407 2.16376E-01
 -1      3408 2.94131E-01
 -1      3409 1.73536E-01
 -1      3410 1.47577E-01
 -1      3411 1.32697E-01
 -1      3412 4.07652E+00
 -1      3413 4.02744E+00
 -1      3414 9.80879E+00
 -1      3415 3.57598E+00
 -1      3416 2.78991E+00
 -1      3417 3.77531E+00
 -1      3418 1.10514E+01
 -1      3419 8.34299E+00
 -1      3420 9.34040E+00
 -1      3421 5.31394E+00
 -1      3422 2.13875E-01
 -1      3423 1.94948E-01
 -1      3424 2.04043E-01
 -1      3425 2.35286E-01
 -1      3426 1.99489E-01
 -1      3427 2.04684E-01
 -1      3428 1.89690E-01
 -1      3429 1.81745E-01
 -1      3430 1.61771E-01
 -1      3431 1.61672E-01
 -1      3432 1.48882E-01
 -1      3433 1.34508E-01
 -1      3434 1.40839E-01
 -1      3435 1.24340E-01
 -1      3436 1.05556E-01
 -1      3437 1.17782E-01
 -1      3438 1.08674E-01
 -1      3439 1.01483E-01
 -1      3440 1.10732E-01
 -1      3441 1.08722E-01
 -1      3442 1.18901E-01
 -1      3443 1.21090E-01
 -1      3444 1.37551E-01
 -1      3445 1.75118E-01
 -1      3446 1.46980E-01
 -1      3447 2.18555E-01
 -1      3448 2.70077E-01
 -1      3449 2.09067E-01
 -1      3450 3.24606E-01
 -1      3451 3.89145E-01
 -1      3452 3.07033E-01
 -1      3453 4.58496E-01
 -1      3454 5.39768E-01
 -1      3455 4.30913E-01
 -1      3456 6.29556E-01
 -1      3457 7.31970E-01
 -1      3458 5.90052E-01
 -1      3459 8.50768E-01
 -1      3460 9.79129E-01
 -1      3461 7.98638E-01
 -1      3462 1.14070E+00
 -1      3463 1.29928E+00
 -1      3464 1.07901E+00
 -1      3465 1.52662E+00
 -1      3466 1.72749E+00
 -1      3467 1.46793E+00
 -1      3468 2.05515E+00
 -1      3469 2.35060E+00
 -1      3470 2.02294E+00
 -1      3471 3.34377E+00
 -1      3472 3.90702E+00
 -1      3473 3.34377E+00
 -1      3474 3.96786E+00
 -1      3475 4.42241E+00
 -1      3476 4.39777E+00
 -1      3477 7.36201E+00
 -1      3478 7.37022E+00
 -1      3479 4.96987E+00
 -1      3480 3.48526E+00
 -1      3481 2.81327E+00
 -1      3482 4.82028E+00
 -1      3483 2.29087E+00
 -1      3484 1.99950E+00
 -1      3485 2.81327E+00
 -1      3486 1.68966E+00
 -1      3487 1.49610E+00
 -1      3488 1.98103E+00
 -1      3489 1.27634E+00
 -1      3490 1.11806E+00
 -1      3491 1.45144E+00
 -1      3492 9.59881E-01
 -1      3493 8.34412E-01
 -1      3494 1.07350E+00
 -1      3495 7.17511E-01
 -1      3496 6.19290E-01
 -1      3497 7.98419E-01
 -1      3498 5.30905E-01
 -1      3499 4.54529E-01
 -1      3500 5.93133E-01
 -1      3501 3.87314E-01
 -1      3502 3.28925E-01
 -1      3503 4.37533E-01
 -1      3504 2.83753E-01
 -1      3505 2.67585E-01
 -1      3506 2.67585E-01
 -1      3507 3.25147E-01
 -1      3508 1.89790E-01
 -1      3509 1.67723E-01
 -1      3510 1.35544E-01
 -1      3511 1.89675E-01
 -1      3512 1.09205E-01
 -1      3513 8.46515E-02
 -1      3514 1.31570E-01
 -1      3515 3.11264E-01
 -1      3516 2.71212E-01
 -1      3517 2.57367E-01
 -1      3518 3.92092E-01
 -1      3519 3.50529E-01
 -1      3520 3.32557E-01
 -1      3521 4.86223E-01
 -1      3522 4.45470E-01
 -1      3523 4.25199E-01
 -1      3524 5.93380E-01
 -1      3525 5.51225E-01
 -1      3526 5.43578E-01
 -1      3527 7.31713E-01
 -1      3528 6.66416E-01
 -1      3529 6.81616E-01
 -1      3530 8.85555E-01
 -1      3531 8.19225E-01
 -1      3532 8.42164E-01
 -1      3533 1.07099E+00
 -1      3534 1.01816E+00
 -1      3535 1.06228E+00
 -1      3536 1.31785E+00
 -1      3537 1.21626E+00
 -1      3538 1.34016E+00
 -1      3539 1.58216E+00
 -1      3540 1.37137E+00
 -1      3541 1.53895E+00
 -1      3542 2.15753E+00
 -1      3543 2.15280E+00
 -1      3544 2.16310E+00
 -1      3545 2.72324E+00
 -1      3546 1.98704E+00
 -1      3547 2.56326E+00
 -1      3548 3.74444E+00
 -1      3549 4.07652E+00
 -1      3550 3.68639E+00
 -1      3551 3.69536E+00
 -1      3552 4.36707E+00
 -1      3553 3.88075E+00
 -1      3554 3.77531E+00
 -1      3555 4.36707E+00
 -1      3556 2.12048E+00
 -1      3557 2.01241E+00
 -1      3558 2.18189E+00
 -1      3559 2.33361E+00
 -1      3560 2.76435E+00
 -1      3561 1.47602E+00
 -1      3562 1.68603E+00
 -1      3563 2.48162E+00
 -1      3564 1.07285E+00
 -1      3565 1.11057E+00
 -1      3566 1.62032E+00
 -1      3567 8.99354E-01
 -1      3568 9.63633E-01
 -1      3569 1.14566E+00
 -1      3570 7.18651E-01
 -1      3571 7.86252E-01
 -1      3572 9.23343E-01
 -1      3573 5.96021E-01
 -1      3574 6.46407E-01
 -1      3575 7.37997E-01
 -1      3576 4.88276E-01
 -1      3577 5.27437E-01
 -1      3578 5.97169E-01
 -1      3579 3.92596E-01
 -1      3580 4.32342E-01
 -1      3581 4.72651E-01
 -1      3582 3.11530E-01
 -1      3583 3.49202E-01
 -1      3584 3.73323E-01
 -1      3585 2.40438E-01
 -1      3586 2.73702E-01
 -1      3587 2.92100E-01
 -1      3588 1.91146E-01
 -1      3589 2.20223E-01
 -1      3590 2.34057E-01
 -1      3591 6.17787E+00
 -1      3592 5.77722E+00
 -1      3593 5.04283E+00
 -1      3594 6.40549E+00
 -1      3595 5.58356E+00
 -1      3596 2.00550E-01
 -1      3597 1.97172E-01
 -1      3598 2.17109E-01
 -1      3599 2.00406E-01
 -1      3600 9.14019E+00
 -1      3601 9.14019E+00
 -1      3602 2.66267E-01
 -1      3603 2.57936E-01
 -1      3604 2.78656E-01
 -1      3605 6.95113E+00
 -1      3606 7.32766E+00
 -1      3607 5.30287E+00
 -1      3608 3.03079E-01
 -1      3609 3.10682E-01
 -1      3610 2.48897E-01
 -1      3611 2.72466E-01
 -1      3612 1.20735E-01
 -1      3613 1.40406E-01
 -1      3614 2.22557E-01
 -1      3615 2.04989E-01
 -1      3616 2.03873E-01
 -1      3617 3.61360E+00
 -1      3618 3.56512E+00
 -1      3619 4.36707E+00
 -1      3620 2.09895E-01
 -1      3621 2.03770E-01
 -1      3622 1.68702E-01
 -1      3623 5.26274E+00
 -1      3624 4.12228E+00
 -1      3625 4.58556E+00
 -1      3626 4.07652E+00
 -1      3627 7.22598E+00
 -1      3628 7.22598E+00
 -1      3629 1.20862E-01
 -1      3630 1.12426E-01
 -1      3631 1.30499E-01
 -1      3632 1.50419E-01
 -1      3633 7.39822E+00
 -1      3634 3.56512E+00
 -1      3635 2.21599E-01
 -1      3636 9.90689E-02
 -1      3637 7.84890E-02
 -1      3638 8.61215E-02
 -1      3639 1.32647E-01
 -1      3640 1.52474E-01
 -1      3641 1.69325E-01
 -1      3642 2.21811E+00
 -1      3643 2.72986E+00
 -1      3644 2.61175E+00
 -1      3645 9.12217E+00
 -1      3646 8.05684E+00
 -1      3647 6.37866E+00
 -1      3648 4.95059E+00
 -1      3649 5.58654E+00
 -1      3650 2.77119E-01
 -1      3651 2.65836E-01
 -1      3652 6.54747E+00
 -1      3653 4.96758E+00
 -1      3654 4.77907E+00
 -1      3655 1.05382E-01
 -1      3656 1.05226E-01
 -1      3657 8.46047E-02
 -1      3658 7.53490E+00
 -1      3659 7.95946E+00
 -1      3660 5.80122E+00
 -1      3661 1.78246E-01
 -1      3662 2.32345E-01
 -1      3663 2.16376E-01
 -1      3664 1.61937E-01
 -1      3665 1.47360E+00
 -1      3666 2.32858E+00
 -1      3667 5.95245E+00
 -1      3668 4.87462E+00
 -1      3669 5.29274E+00
 -1      3670 1.53517E-01
 -1      3671 2.17017E-01
 -1      3672 3.05563E-01
 -1      3673 3.05563E-01
 -1      3674 2.36942E-01
 -1      3675 2.34102E-01
 -1      3676 2.16376E-01
 -1      3677 2.57019E-01
 -1      3678 2.37617E-01
 -1      3679 2.23437E-01
 -1      3680 7.27188E+00
 -1      3681 5.88001E+00
 -1      3682 7.27188E+00
 -1      3683 3.51671E+00
 -1      3684 4.45756E+00
 -1      3685 4.19891E+00
 -1      3686 4.84617E+00
 -1      3687 6.77048E+00
 -1      3688 5.03680E+00
 -1      3689 9.80879E+00
 -1      3690 8.14278E+00
 -1      3691 1.76213E-01
 -1      3692 3.05563E-01
 -1      3693 3.00592E-01
 -1      3694 3.92892E-01
 -1      3695 4.16366E-01
 -1      3696 2.50439E-01
 -1      3697 2.50439E-01
 -1      3698 2.98707E-01
 -1      3699 2.91000E-01
 -1      3700 4.01803E-01
 -1      3701 3.11970E-01
 -1      3702 2.14222E-01
 -1      3703 2.50439E-01
 -1      3704 2.46853E-01
 -1      3705 2.16155E-01
 -1      3706 2.35713E-01
 -1      3707 1.93441E-01
 -1      3708 2.01241E+00
 -1      3709 2.40762E-01
 -1      3710 2.45320E-01
 -1      3711 2.09103E-01
 -1      3712 7.07167E+00
 -1      3713 7.27188E+00
 -1      3714 1.34286E-01
 -1      3715 1.21397E-01
 -1      3716 1.18452E-01
 -1      3717 1.08284E-01
 -1      3718 1.11899E-01
 -1      3719 1.15868E-01
 -1      3720 1.18986E-01
 -1      3721 1.16537E-01
 -1      3722 1.27139E-01
 -1      3723 1.34378E-01
 -1      3724 1.32274E-01
 -1      3725 1.44486E-01
 -1      3726 1.63136E-01
 -1      3727 1.50534E-01
 -1      3728 1.83579E-01
 -1      3729 2.27016E-01
 -1      3730 1.81085E-01
 -1      3731 2.67864E-01
 -1      3732 3.22393E-01
 -1      3733 2.42376E-01
 -1      3734 3.73581E-01
 -1      3735 4.42932E-01
 -1      3736 3.34412E-01
 -1      3737 5.08791E-01
 -1      3738 5.98579E-01
 -1      3739 4.51459E-01
 -1      3740 6.86009E-01
 -1      3741 8.04808E-01
 -1      3742 6.04748E-01
 -1      3743 9.26531E-01
 -1      3744 1.08810E+00
 -1      3745 8.13902E-01
 -1      3746 1.26870E+00
 -1      3747 1.49604E+00
 -1      3748 1.11622E+00
 -1      3749 1.77707E+00
 -1      3750 2.10474E+00
 -1      3751 1.57784E+00
 -1      3752 3.20018E+00
 -1      3753 4.19335E+00
 -1      3754 2.95432E+00
 -1      3755 5.24404E+00
 -1      3756 3.75942E+00
 -1      3757 3.08542E+00
 -1      3758 2.56302E+00
 -1      3759 3.50918E+00
 -1      3760 2.10489E+00
 -1      3761 1.79505E+00
 -1      3762 2.37704E+00
 -1      3763 1.49580E+00
 -1      3764 1.27604E+00
 -1      3765 1.61966E+00
 -1      3766 1.09329E+00
 -1      3767 9.35110E-01
 -1      3768 1.13765E+00
 -1      3769 8.10882E-01
 -1      3770 6.93981E-01
 -1      3771 8.30673E-01
 -1      3772 6.05217E-01
 -1      3773 5.16832E-01
 -1      3774 6.17680E-01
 -1      3775 4.50925E-01
 -1      3776 3.83710E-01
 -1      3777 4.63009E-01
 -1      3778 3.42402E-01
 -1      3779 2.97230E-01
 -1      3780 2.95911E-01
 -1      3781 3.55794E-01
 -1      3782 2.32345E-01
 -1      3783 2.32345E-01
 -1      3784 2.48897E-01
 -1      3785 2.21441E-01
 -1      3786 1.89675E-01
 -1      3787 1.40610E-01
 -1      3788 1.46462E-01
 -1      3789 1.57909E-01
 -1      3790 1.31570E-01
 -1      3791 1.89675E-01
 -1      3792 4.74279E-01
 -1      3793 4.20902E-01
 -1      3794 5.99930E-01
 -1      3795 5.34929E-01
 -1      3796 5.30631E-01
 -1      3797 7.62879E-01
 -1      3798 6.89842E-01
 -1      3799 6.81193E-01
 -1      3800 9.86385E-01
 -1      3801 8.98873E-01
 -1      3802 9.07100E-01
 -1      3803 1.26586E+00
 -1      3804 1.13325E+00
 -1      3805 1.18996E+00
 -1      3806 1.60028E+00
 -1      3807 1.45501E+00
 -1      3808 1.52598E+00
 -1      3809 2.32745E+00
 -1      3810 2.27394E+00
 -1      3811 2.38879E+00
 -1      3812 3.23193E+00
 -1      3813 3.40241E+00
 -1      3814 1.94215E-01
 -1      3815 1.88048E-01
 -1      3816 1.84821E-01
 -1      3817 1.85182E-01
 -1      3818 2.08263E-01
 -1      3819 1.60571E-01
 -1      3820 3.29556E+00
 -1      3821 3.08243E+00
 -1      3822 1.49994E+00
 -1      3823 1.60915E+00
 -1      3824 1.00875E+00
 -1      3825 1.12185E+00
 -1      3826 1.58534E+00
 -1      3827 7.68687E-01
 -1      3828 8.40931E-01
 -1      3829 1.03944E+00
 -1      3830 5.85796E-01
 -1      3831 6.54380E-01
 -1      3832 7.57314E-01
 -1      3833 4.65068E-01
 -1      3834 5.21003E-01
 -1      3835 5.78213E-01
 -1      3836 3.73340E-01
 -1      3837 4.16734E-01
 -1      3838 4.65086E-01
 -1      3839 3.22092E-01
 -1      3840 3.59920E-01
 -1      3841 4.03332E-01
 -1      3842 3.01300E+00
 -1      3843 3.50885E+00
 -1      3844 3.82693E+00
 -1      3845 4.44923E+00
 -1      3846 5.24861E+00
 -1      3847 4.45220E+00
 -1      3848 2.91630E-01
 -1      3849 2.26514E-01
 -1      3850 2.10790E-01
 -1      3851 1.72575E-01
 -1      3852 1.87081E-01
 -1      3853 6.20059E+00
 -1      3854 3.18355E+00
 -1      3855 1.46362E-01
 -1      3856 1.38418E-01
 -1      3857 1.18977E-01
 -1      3858 3.05371E+00
 -1      3859 4.62322E+00
 -1      3860 4.10874E+00
 -1      3861 1.41991E-01
 -1      3862 1.42905E-01
 -1      3863 1.19651E-01
 -1      3864 3.28313E+00
 -1      3865 3.71822E-01
 -1      3866 3.32557E-01
 -1      3867 4.20902E-01
 -1      3868 2.93292E-01
 -1      3869 2.57367E-01
 -1      3870 2.57367E-01
 -1      3871 3.32557E-01
 -1      3872 3.44007E+00
 -1      3873 1.94215E-01
 -1      3874 1.56086E-01
 -1      3875 1.40610E-01
 -1      3876 1.94215E-01
 -1      3877 3.11845E-01
 -1      3878 5.32969E+00
 -1      3879 2.16007E+00
 -1      3880 2.52552E+00
 -1      3881 3.55275E+00
 -1      3882 2.51435E+00
 -1      3883 3.79665E-01
 -1      3884 1.16532E-01
 -1      3885 1.10370E-01
 -1      3886 1.42871E-01
 -1      3887 1.15789E-01
 -1      3888 1.27857E-01
 -1      3889 2.80959E-01
 -1      3890 2.62385E-01
 -1      3891 2.42067E-01
 -1      3892 6.20752E+00
 -1      3893 5.14666E+00
 -1      3894 5.26885E+00
 -1      3895 4.11618E+00
 -1      3896 4.27664E+00
 -1      3897 4.01176E+00
 -1      3898 6.20077E+00
 -1      3899 4.08055E+00
 -1      3900 5.04925E+00
 -1      3901 4.40571E+00
 -1      3902 9.13896E-02
 -1      3903 4.51950E+00
 -1      3904 4.82842E+00
 -1      3905 3.86495E+00
 -1      3906 9.90708E-02
 -1      3907 1.14424E-01
 -1      3908 1.09634E-01
 -1      3909 1.20665E-01
 -1      3910 2.86943E+00
 -1      3911 3.60442E+00
 -1      3912 2.72324E+00
 -1      3913 1.84320E-01
 -1      3914 4.94655E+00
 -1      3915 4.16636E+00
 -1      3916 1.71435E-01
 -1      3917 1.76554E-01
 -1      3918 4.39780E+00
 -1      3919 3.82595E-01
 -1      3920 3.92841E-01
 -1      3921 4.06068E-01
 -1      3922 2.29558E+00
 -1      3923 1.75677E+00
 -1      3924 1.81994E-01
 -1      3925 1.81994E-01
 -1      3926 1.44325E-01
 -1      3927 1.57711E-01
 -1      3928 1.50123E-01
 -1      3929 2.51098E-01
 -1      3930 2.44080E-01
 -1      3931 2.27528E-01
 -1      3932 2.18467E-01
 -1      3933 4.06400E+00
 -1      3934 4.51950E+00
 -1      3935 3.54671E+00
 -1      3936 4.16366E-01
 -1      3937 4.16366E-01
 -1      3938 4.06068E-01
 -1      3939 3.87239E-01
 -1      3940 4.01803E-01
 -1      3941 4.01803E-01
 -1      3942 5.26730E+00
 -1      3943 4.41220E+00
 -1      3944 1.67454E-01
 -1      3945 1.68683E-01
 -1      3946 1.31724E-01
 -1      3947 5.12527E+00
 -1      3948 4.07725E+00
 -1      3949 1.30856E-01
 -1      3950 1.26386E-01
 -1      3951 2.32858E+00
 -1      3952 3.55275E+00
 -1      3953 3.58978E+00
 -1      3954 3.06527E+00
 -1      3955 1.16879E-01
 -1      3956 1.24463E-01
 -1      3957 1.32328E-01
 -1      3958 1.40481E-01
 -1      3959 1.32670E-01
 -1      3960 1.50539E-01
 -1      3961 1.60646E-01
 -1      3962 1.50593E-01
 -1      3963 1.79203E-01
 -1      3964 1.99646E-01
 -1      3965 1.79208E-01
 -1      3966 2.24947E-01
 -1      3967 2.65796E-01
 -1      3968 2.23066E-01
 -1      3969 2.99821E-01
 -1      3970 3.51009E-01
 -1      3971 2.82392E-01
 -1      3972 3.99075E-01
 -1      3973 4.64934E-01
 -1      3974 3.64484E-01
 -1      3975 5.27972E-01
 -1      3976 6.15403E-01
 -1      3977 4.75589E-01
 -1      3978 7.04078E-01
 -1      3979 8.25801E-01
 -1      3980 6.27302E-01
 -1      3981 9.55585E-01
 -1      3982 1.13618E+00
 -1      3983 8.45762E-01
 -1      3984 1.32909E+00
 -1      3985 1.61012E+00
 -1      3986 1.16846E+00
 -1      3987 2.07832E+00
 -1      3988 3.17377E+00
 -1      3989 1.82957E+00
 -1      3990 2.39100E+00
 -1      3991 1.93287E+00
 -1      3992 1.63856E+00
 -1      3993 1.33931E+00
 -1      3994 1.65252E+00
 -1      3995 1.13776E+00
 -1      3996 9.55005E-01
 -1      3997 1.15666E+00
 -1      3998 8.26088E-01
 -1      3999 7.01860E-01
 -1      4000 8.26192E-01
 -1      4001 6.17489E-01
 -1      4002 5.28725E-01
 -1      4003 6.12905E-01
 -1      4004 4.61143E-01
 -1      4005 3.95236E-01
 -1      4006 4.60952E-01
 -1      4007 3.46943E-01
 -1      4008 3.05634E-01
 -1      4009 2.72108E-01
 -1      4010 3.45077E-01
 -1      4011 1.06709E-01
 -1      4012 1.05192E-01
 -1      4013 1.14390E-01
 -1      4014 1.24172E-01
 -1      4015 2.98549E+00
 -1      4016 1.20806E-01
 -1      4017 1.37663E-01
 -1      4018 1.53520E-01
 -1      4019 7.99951E-01
 -1      4020 7.10039E-01
 -1      4021 5.91280E-01
 -1      4022 5.30631E-01
 -1      4023 7.10039E-01
 -1      4024 1.55281E+00
 -1      4025 1.40594E+00
 -1      4026 2.42183E+00
 -1      4027 2.23268E+00
 -1      4028 2.44866E+00
 -1      4029 3.61232E+00
 -1      4030 2.93867E+00
 -1      4031 3.64537E+00
 -1      4032 7.33582E-01
 -1      4033 8.47890E-01
 -1      4034 1.62369E-01
 -1      4035 1.29819E-01
 -1      4036 1.01862E+00
 -1      4037 1.18644E+00
 -1      4038 9.94889E-01
 -1      4039 3.57571E+00
 -1      4040 3.91364E+00
 -1      4041 3.23969E+00
 -1      4042 3.05121E+00
 -1      4043 1.59109E+00
 -1      4044 1.96918E+00
 -1      4045 1.57027E+00
 -1      4046 5.78213E-01
 -1      4047 6.43007E-01
 -1      4048 7.33582E-01
 -1      4049 4.65086E-01
 -1      4050 5.13419E-01
 -1      4051 5.78213E-01
 -1      4052 4.03332E-01
 -1      4053 4.16752E-01
 -1      4054 4.65086E-01
 -1      4055 4.06261E-01
 -1      4056 3.90428E+00
 -1      4057 4.97978E+00
 -1      4058 4.97978E+00
 -1      4059 3.02829E+00
 -1      4060 1.91738E-01
 -1      4061 1.10286E-01
 -1      4062 1.19352E-01
 -1      4063 1.21257E-01
 -1      4064 3.04470E+00
 -1      4065 3.36294E+00
 -1      4066 2.68893E+00
 -1      4067 3.04470E+00
 -1      4068 4.15431E+00
 -1      4069 4.04632E+00
 -1      4070 1.15021E+00
 -1      4071 1.01421E+00
 -1      4072 1.04306E+00
 -1      4073 1.51305E+00
 -1      4074 1.09030E-01
 -1      4075 1.04898E-01
 -1      4076 2.13139E-01
 -1      4077 1.81372E-01
 -1      4078 1.00379E-01
 -1      4079 1.03836E-01
 -1      4080 8.97574E-02
 -1      4081 4.69981E-01
 -1      4082 4.20902E-01
 -1      4083 5.30631E-01
 -1      4084 1.12768E-01
 -1      4085 1.09822E-01
 -1      4086 1.17748E-01
 -1      4087 4.24803E+00
 -1      4088 4.08055E+00
 -1      4089 4.16221E+00
 -1      4090 1.58627E-01
 -1      4091 1.66519E-01
 -1      4092 1.41761E-01
 -1      4093 1.35719E-01
 -1      4094 2.24476E+00
 -1      4095 1.58676E-01
 -1      4096 1.43638E-01
 -1      4097 1.82140E-01
 -1      4098 1.17564E-01
 -1      4099 1.18499E-01
 -1      4100 9.70608E-02
 -1      4101 4.89512E-01
 -1      4102 4.79214E-01
 -1      4103 4.89705E-01
 -1      4104 4.01176E+00
 -1      4105 3.49447E+00
 -1      4106 3.44223E+00
 -1      4107 1.04917E-01
 -1      4108 1.14723E-01
 -1      4109 4.16377E-01
 -1      4110 3.67297E-01
 -1      4111 3.28032E-01
 -1      4112 3.14133E+00
 -1      4113 3.42885E+00
 -1      4114 1.91785E-01
 -1      4115 1.53655E-01
 -1      4116 1.86968E-01
 -1      4117 1.02821E-01
 -1      4118 1.46332E-01
 -1      4119 4.40571E+00
 -1      4120 4.74948E-01
 -1      4121 4.89512E-01
 -1      4122 5.62657E-01
 -1      4123 1.50495E-01
 -1      4124 1.82724E-01
 -1      4125 1.86968E-01
 -1      4126 1.10571E-01
 -1      4127 2.09707E+00
 -1      4128 2.64799E+00
 -1      4129 2.64799E+00
 -1      4130 2.10282E+00
 -1      4131 1.08528E-01
 -1      4132 1.09894E-01
 -1      4133 1.03811E-01
 -1      4134 4.16221E+00
 -1      4135 2.48597E-01
 -1      4136 2.40295E-01
 -1      4137 2.84523E-01
 -1      4138 3.34304E+00
 -1      4139 2.81511E-01
 -1      4140 3.56780E-01
 -1      4141 1.24792E-01
 -1      4142 2.86877E-01
 -1      4143 1.78732E+00
 -1      4144 1.49301E+00
 -1      4145 4.16221E+00
 -1      4146 1.50221E-01
 -1      4147 1.60279E-01
 -1      4148 1.72570E-01
 -1      4149 1.91128E-01
 -1      4150 1.72199E-01
 -1      4151 2.12602E-01
 -1      4152 2.37903E-01
 -1      4153 2.05964E-01
 -1      4154 2.68243E-01
 -1      4155 3.02268E-01
 -1      4156 2.57778E-01
 -1      4157 3.36105E-01
 -1      4158 3.84172E-01
 -1      4159 3.21956E-01
 -1      4160 4.25405E-01
 -1      4161 4.88443E-01
 -1      4162 3.97026E-01
 -1      4163 5.80972E-01
 -1      4164 6.69647E-01
 -1      4165 5.30788E-01
 -1      4166 8.14994E-01
 -1      4167 9.44778E-01
 -1      4168 7.68663E-01
 -1      4169 1.09145E+00
 -1      4170 1.28436E+00
 -1      4171 1.06068E+00
 -1      4172 1.75848E+00
 -1      4173 2.22668E+00
 -1      4174 1.68146E+00
 -1      4175 1.32958E-01
 -1      4176 1.40824E-01
 -1      4177 1.50510E-01
 -1      4178 1.52447E+00
 -1      4179 1.92912E+00
 -1      4180 8.71404E-01
 -1      4181 7.52645E-01
 -1      4182 1.18822E+00
 -1      4183 9.86670E-01
 -1      4184 1.32302E+00
 -1      4185 8.58321E-01
 -1      4186 7.29404E-01
 -1      4187 8.89882E-01
 -1      4188 6.67654E-01
 -1      4189 5.83284E-01
 -1      4190 6.99783E-01
 -1      4191 5.45596E-01
 -1      4192 4.78014E-01
 -1      4193 2.41082E+00
 -1      4194 1.17705E-01
 -1      4195 1.24761E-01
 -1      4196 1.32915E-01
 -1      4197 3.64537E+00
 -1      4198 5.69514E-01
 -1      4199 6.34308E-01
 -1      4200 7.33582E-01
 -1      4201 8.24158E-01
 -1      4202 7.24883E-01
 -1      4203 2.54270E+00
 -1      4204 2.24476E+00
 -1      4205 3.04470E+00
 -1      4206 1.36577E-01
 -1      4207 1.10571E-01
 -1      4208 1.01921E-01
 -1      4209 1.09792E-01
 -1      4210 1.16805E-01
 -1      4211 9.04258E-02
 -1      4212 9.56190E-02
 -1      4213 1.16432E-01
 -1      4214 6.07298E-01
 -1      4215 5.46649E-01
 -1      4216 7.68663E-01
 -1      4217 3.56780E-01
 -1      4218 1.09077E-01
 -1      4219 1.34051E-01
 -1      4220 1.43901E-01
 -1      4221 1.13468E-01
 -1      4222 1.18575E-01
 -1      4223 9.53133E-02
 -1      4224 9.75788E-02
 -1      4225 9.58125E-01
 -1      4226 1.12886E+00
 -1      4227 1.48771E+00
 -1      4228 9.58125E-01
 -1      4229 3.11552E-01
 -1      4230 3.55969E+00
 -1      4231 3.04285E+00
 -1      4232 2.36298E+00
 -1      4233 2.74051E+00
 -1      4234 2.33972E+00
 -1      4235 2.55637E+00
 -1      4236 2.08525E+00
 -1      4237 2.31135E+00
 -1      4238 1.71716E+00
 -1      4239 1.46143E+00
 -1      4240 1.91056E+00
 -1      4241 1.19669E-01
 -1      4242 1.19928E-01
 -1      4243 1.25790E-01
 -1      4244 1.92912E+00
 -1      4245 1.97492E+00
 -1      4246 2.10282E+00
 -1      4247 2.07740E-01
 -1      4248 1.85044E-01
 -1      4249 3.42011E-01
 -1      4250 1.51225E-01
 -1      4251 6.00345E-01
 -1      4252 5.38038E-01
 -1      4253 3.19262E-01
 -1      4254 1.02590E-01
 -1      4255 5.94133E-01
 -1      4256 2.99246E+00
 -1      4257 1.34780E-01
 -1      4258 1.43901E-01
 -1      4259 1.51608E-01
 -1      4260 1.47947E-01
 -1      4261 1.53226E-01
 -1      4262 1.67413E-01
 -1      4263 1.07604E-01
 -1      4264 1.02627E-01
 -1      4265 5.21404E-01
 -1      4266 4.44737E-01
 -1      4267 3.91132E-01
 -1      4268 2.57435E-01
 -1      4269 2.21976E-01
 -1      4270 2.24880E-01
 -1      4271 2.83647E+00
 -1      4272 3.25375E+00
 -1      4273 3.23969E+00
 -1      4274 2.70857E+00
 -1      4275 1.23233E+00
 -1      4276 1.01807E+00
 -1      4277 1.06068E+00
 -1      4278 1.43644E+00
 -1      4279 1.06319E-01
 -1      4280 1.01354E-01
 -1      4281 9.75604E-02
 -1      4282 9.63058E-02
 -1      4283 6.25971E-01
 -1      4284 6.25971E-01
 -1      4285 6.57447E-01
 -1      4286 6.63659E-01
 -1      4287 9.52950E-02
 -1      4288 1.07311E-01
 -1      4289 1.97567E-01
 -1      4290 2.19041E-01
 -1      4291 2.33277E-01
 -1      4292 2.63617E-01
 -1      4293 3.55794E-01
 -1      4294 3.97026E-01
 -1      4295 5.30788E-01
 -1      4296 6.23317E-01
 -1      4297 7.68663E-01
 -1      4298 9.14010E-01
 -1      4299 1.06068E+00
 -1      4300 1.20735E+00
 -1      4301 1.43644E+00
 -1      4302 3.44223E+00
 -1      4303 3.44223E+00
 -1      4304 9.89976E-01
 -1      4305 8.61627E-01
 -1      4306 7.25409E-01
 -1      4307 2.93376E+00
 -1      4308 2.48399E+00
 -1      4309 2.02655E+00
 -1      4310 2.93376E+00
 -1      4311 1.59832E-01
 -1      4312 1.69230E-01
 -1      4313 7.56721E-01
 -1      4314 9.63058E-02
 -1      4315 1.43901E-01
 -1      4316 3.90305E-01
 -1      4317 3.36561E-01
 -1      4318 2.93051E-01
 -1      4319 2.74733E-01
 -1      4320 1.27893E-01
 -1      4321 1.36091E-01
 -1      4322 1.54810E-01
 -1      4323 1.27456E-01
 -1      4324 1.94597E-01
 -1      4325 1.68998E-01
 -1      4326 1.76967E-01
 -1      4327 1.07657E-01
 -1      4328 1.15569E-01
 -1      4329 1.16432E-01
 -1      4330 9.62874E-02
 -1      4331 9.62874E-02
 -1      4332 1.02590E-01
 -1      4333 1.19928E-01
 -1      4334 1.18745E-01
 -1      4335 1.69230E-01
 -1      4336 1.81521E-01
 -1      4337 1.94597E-01
 -1      4338 1.78551E-01
 -1      4339 1.67800E+00
 -1      4340 1.37321E+00
 -1      4341 1.34496E+00
 -1      4342 2.07674E+00
 -1      4343 1.31069E-01
 -1      4344 2.99234E-01
 -1      4345 3.33072E-01
 -1      4346 3.64921E-01
 -1      4347 8.92939E-01
 -1      4348 1.02691E+00
 -1      4349 2.20010E+00
 -1      4350 8.25503E-01
 -1      4351 9.62874E-02
 -1      4352 2.10643E-01
 -1      4353 1.94597E-01
 -1      4354 1.41014E+00
 -1      4355 1.80576E+00
 -1      4356 4.89555E-01
 -1      4357 2.15430E+00
 -1      4358 2.24880E-01
 -1      4359 1.78551E-01
 -1      4360 1.54810E-01
 -1      4361 3.33072E-01
 -1      4362 1.76967E-01
 -1      4363 3.87643E-01
 -1      4364 1.78551E-01
 -3
 9999
