    1C
    1UUSER                                                              
    1UDATE              27.october.2022                                 
    1UTIME              00:39:32                                        
    1UHOST                                                              
    1UPGM               CalculiX                                        
    1UVERSION           Version 2.17                             
    1UCOMPILETIME       Thu Jul 23 21:43:50 CEST 2020                    
    1UDIR                                                               
    1UDBN                                                               
    1UMAT    1SOLIDMATERIAL                                             
    2C                          4336                                     1
 -1         1 3.64319E+01 4.06488E+01 0.00000E+00
 -1         2 4.34325E+01 3.36488E+01 0.00000E+00
 -1         3 1.50000E+02 0.00000E+00 0.00000E+00
 -1         4 1.50000E+02 5.00000E+01 0.00000E+00
 -1         5 0.00000E+00 0.00000E+00 0.00000E+00
 -1         6 0.00000E+00 5.00000E+01 0.00000E+00
 -1         7 0.00000E+00 4.70500E+01 0.00000E+00
 -1         8 0.00000E+00 4.41000E+01 0.00000E+00
 -1         9 0.00000E+00 4.11500E+01 0.00000E+00
 -1        10 0.00000E+00 3.82000E+01 0.00000E+00
 -1        11 0.00000E+00 3.52500E+01 0.00000E+00
 -1        12 0.00000E+00 3.23500E+01 0.00000E+00
 -1        13 0.00000E+00 2.94000E+01 0.00000E+00
 -1        14 0.00000E+00 2.64500E+01 0.00000E+00
 -1        15 0.00000E+00 2.35000E+01 0.00000E+00
 -1        16 0.00000E+00 2.05500E+01 0.00000E+00
 -1        17 0.00000E+00 1.76000E+01 0.00000E+00
 -1        18 0.00000E+00 1.47000E+01 0.00000E+00
 -1        19 0.00000E+00 1.17500E+01 0.00000E+00
 -1        20 0.00000E+00 8.80000E+00 0.00000E+00
 -1        21 0.00000E+00 5.85000E+00 0.00000E+00
 -1        22 0.00000E+00 2.90000E+00 0.00000E+00
 -1        23 3.15000E+00 5.00000E+01 0.00000E+00
 -1        24 6.15000E+00 5.00000E+01 0.00000E+00
 -1        25 9.15000E+00 5.00000E+01 0.00000E+00
 -1        26 1.21500E+01 5.00000E+01 0.00000E+00
 -1        27 1.51500E+01 5.00000E+01 0.00000E+00
 -1        28 1.81500E+01 5.00000E+01 0.00000E+00
 -1        29 2.13000E+01 5.00000E+01 0.00000E+00
 -1        30 2.43000E+01 5.00000E+01 0.00000E+00
 -1        31 2.73000E+01 5.00000E+01 0.00000E+00
 -1        32 3.03000E+01 5.00000E+01 0.00000E+00
 -1        33 3.33000E+01 5.00000E+01 0.00000E+00
 -1        34 3.58500E+01 5.00000E+01 0.00000E+00
 -1        35 3.84000E+01 5.00000E+01 0.00000E+00
 -1        36 4.14000E+01 5.00000E+01 0.00000E+00
 -1        37 4.42500E+01 5.00000E+01 0.00000E+00
 -1        38 4.74000E+01 5.00000E+01 0.00000E+00
 -1        39 5.04000E+01 5.00000E+01 0.00000E+00
 -1        40 5.34000E+01 5.00000E+01 0.00000E+00
 -1        41 5.64000E+01 5.00000E+01 0.00000E+00
 -1        42 5.94000E+01 5.00000E+01 0.00000E+00
 -1        43 6.24000E+01 5.00000E+01 0.00000E+00
 -1        44 6.54000E+01 5.00000E+01 0.00000E+00
 -1        45 6.85500E+01 5.00000E+01 0.00000E+00
 -1        46 7.15500E+01 5.00000E+01 0.00000E+00
 -1        47 7.45500E+01 5.00000E+01 0.00000E+00
 -1        48 7.75500E+01 5.00000E+01 0.00000E+00
 -1        49 8.05500E+01 5.00000E+01 0.00000E+00
 -1        50 8.35500E+01 5.00000E+01 0.00000E+00
 -1        51 8.65500E+01 5.00000E+01 0.00000E+00
 -1        52 8.97000E+01 5.00000E+01 0.00000E+00
 -1        53 9.27000E+01 5.00000E+01 0.00000E+00
 -1        54 9.57000E+01 5.00000E+01 0.00000E+00
 -1        55 9.87000E+01 5.00000E+01 0.00000E+00
 -1        56 1.01700E+02 5.00000E+01 0.00000E+00
 -1        57 1.04700E+02 5.00000E+01 0.00000E+00
 -1        58 1.07700E+02 5.00000E+01 0.00000E+00
 -1        59 1.10850E+02 5.00000E+01 0.00000E+00
 -1        60 1.13850E+02 5.00000E+01 0.00000E+00
 -1        61 1.16850E+02 5.00000E+01 0.00000E+00
 -1        62 1.19850E+02 5.00000E+01 0.00000E+00
 -1        63 1.22850E+02 5.00000E+01 0.00000E+00
 -1        64 1.25850E+02 5.00000E+01 0.00000E+00
 -1        65 1.28850E+02 5.00000E+01 0.00000E+00
 -1        66 1.32000E+02 5.00000E+01 0.00000E+00
 -1        67 1.35000E+02 5.00000E+01 0.00000E+00
 -1        68 1.38000E+02 5.00000E+01 0.00000E+00
 -1        69 1.41000E+02 5.00000E+01 0.00000E+00
 -1        70 1.44000E+02 5.00000E+01 0.00000E+00
 -1        71 1.47000E+02 5.00000E+01 0.00000E+00
 -1        72 3.15000E+00 0.00000E+00 0.00000E+00
 -1        73 6.15000E+00 0.00000E+00 0.00000E+00
 -1        74 9.15000E+00 0.00000E+00 0.00000E+00
 -1        75 1.21500E+01 0.00000E+00 0.00000E+00
 -1        76 1.51500E+01 0.00000E+00 0.00000E+00
 -1        77 1.81500E+01 0.00000E+00 0.00000E+00
 -1        78 2.11500E+01 0.00000E+00 0.00000E+00
 -1        79 2.41500E+01 0.00000E+00 0.00000E+00
 -1        80 2.71500E+01 0.00000E+00 0.00000E+00
 -1        81 3.01500E+01 0.00000E+00 0.00000E+00
 -1        82 3.31500E+01 0.00000E+00 0.00000E+00
 -1        83 3.61500E+01 0.00000E+00 0.00000E+00
 -1        84 3.91500E+01 0.00000E+00 0.00000E+00
 -1        85 4.21500E+01 0.00000E+00 0.00000E+00
 -1        86 4.51500E+01 0.00000E+00 0.00000E+00
 -1        87 4.81500E+01 0.00000E+00 0.00000E+00
 -1        88 5.11500E+01 0.00000E+00 0.00000E+00
 -1        89 5.41500E+01 0.00000E+00 0.00000E+00
 -1        90 5.71500E+01 0.00000E+00 0.00000E+00
 -1        91 6.01500E+01 0.00000E+00 0.00000E+00
 -1        92 6.31500E+01 0.00000E+00 0.00000E+00
 -1        93 6.61500E+01 0.00000E+00 0.00000E+00
 -1        94 6.91500E+01 0.00000E+00 0.00000E+00
 -1        95 7.21500E+01 0.00000E+00 0.00000E+00
 -1        96 7.51500E+01 0.00000E+00 0.00000E+00
 -1        97 7.81500E+01 0.00000E+00 0.00000E+00
 -1        98 8.11500E+01 0.00000E+00 0.00000E+00
 -1        99 8.41500E+01 0.00000E+00 0.00000E+00
 -1       100 8.71500E+01 0.00000E+00 0.00000E+00
 -1       101 9.01500E+01 0.00000E+00 0.00000E+00
 -1       102 9.31500E+01 0.00000E+00 0.00000E+00
 -1       103 9.61500E+01 0.00000E+00 0.00000E+00
 -1       104 9.91500E+01 0.00000E+00 0.00000E+00
 -1       105 1.02150E+02 0.00000E+00 0.00000E+00
 -1       106 1.05150E+02 0.00000E+00 0.00000E+00
 -1       107 1.08150E+02 0.00000E+00 0.00000E+00
 -1       108 1.11150E+02 0.00000E+00 0.00000E+00
 -1       109 1.14150E+02 0.00000E+00 0.00000E+00
 -1       110 1.17150E+02 0.00000E+00 0.00000E+00
 -1       111 1.20150E+02 0.00000E+00 0.00000E+00
 -1       112 1.23150E+02 0.00000E+00 0.00000E+00
 -1       113 1.26150E+02 0.00000E+00 0.00000E+00
 -1       114 1.29150E+02 0.00000E+00 0.00000E+00
 -1       115 1.32150E+02 0.00000E+00 0.00000E+00
 -1       116 1.35150E+02 0.00000E+00 0.00000E+00
 -1       117 1.38150E+02 0.00000E+00 0.00000E+00
 -1       118 1.41150E+02 0.00000E+00 0.00000E+00
 -1       119 1.44150E+02 0.00000E+00 0.00000E+00
 -1       120 1.47150E+02 0.00000E+00 0.00000E+00
 -1       121 1.50000E+02 2.95000E+00 0.00000E+00
 -1       122 1.50000E+02 5.90000E+00 0.00000E+00
 -1       123 1.50000E+02 8.85000E+00 0.00000E+00
 -1       124 1.50000E+02 1.18000E+01 0.00000E+00
 -1       125 1.50000E+02 1.47500E+01 0.00000E+00
 -1       126 1.50000E+02 1.76500E+01 0.00000E+00
 -1       127 1.50000E+02 2.06000E+01 0.00000E+00
 -1       128 1.50000E+02 2.35500E+01 0.00000E+00
 -1       129 1.50000E+02 2.65000E+01 0.00000E+00
 -1       130 1.50000E+02 2.94500E+01 0.00000E+00
 -1       131 1.50000E+02 3.24000E+01 0.00000E+00
 -1       132 1.50000E+02 3.53000E+01 0.00000E+00
 -1       133 1.50000E+02 3.82500E+01 0.00000E+00
 -1       134 1.50000E+02 4.12000E+01 0.00000E+00
 -1       135 1.50000E+02 4.41500E+01 0.00000E+00
 -1       136 1.50000E+02 4.71000E+01 0.00000E+00
 -1       137 4.32880E+01 3.22334E+01 0.00000E+00
 -1       138 4.28365E+01 3.08223E+01 0.00000E+00
 -1       139 4.20965E+01 2.95355E+01 0.00000E+00
 -1       140 4.11305E+01 2.84595E+01 0.00000E+00
 -1       141 3.98076E+01 2.75162E+01 0.00000E+00
 -1       142 3.84704E+01 2.69520E+01 0.00000E+00
 -1       143 3.70078E+01 2.66724E+01 0.00000E+00
 -1       144 3.55336E+01 2.67067E+01 0.00000E+00
 -1       145 3.40976E+01 2.70497E+01 0.00000E+00
 -1       146 3.28035E+01 2.76629E+01 0.00000E+00
 -1       147 3.14674E+01 2.87145E+01 0.00000E+00
 -1       148 3.05218E+01 2.98987E+01 0.00000E+00
 -1       149 2.98609E+01 3.12376E+01 0.00000E+00
 -1       150 2.95024E+01 3.26624E+01 0.00000E+00
 -1       151 2.94538E+01 3.41945E+01 0.00000E+00
 -1       152 2.97701E+01 3.57962E+01 0.00000E+00
 -1       153 3.03258E+01 3.70704E+01 0.00000E+00
 -1       154 3.11678E+01 3.82621E+01 0.00000E+00
 -1       155 3.22369E+01 3.92521E+01 0.00000E+00
 -1       156 3.35578E+01 4.00313E+01 0.00000E+00
 -1       157 3.49333E+01 4.04863E+01 0.00000E+00
 -1       158 3.78402E+01 4.05058E+01 0.00000E+00
 -1       159 3.91107E+01 4.01162E+01 0.00000E+00
 -1       160 4.02930E+01 3.94880E+01 0.00000E+00
 -1       161 4.13301E+01 3.86502E+01 0.00000E+00
 -1       162 4.22267E+01 3.75766E+01 0.00000E+00
 -1       163 4.28638E+01 3.64126E+01 0.00000E+00
 -1       164 4.32800E+01 3.51019E+01 0.00000E+00
 -1       165 2.59800E+00 4.55750E+01 0.00000E+00
 -1       166 2.59800E+00 4.26250E+01 0.00000E+00
 -1       167 2.59800E+00 3.96750E+01 0.00000E+00
 -1       168 2.59800E+00 3.67250E+01 0.00000E+00
 -1       169 2.59800E+00 3.38250E+01 0.00000E+00
 -1       170 2.59800E+00 3.08750E+01 0.00000E+00
 -1       171 2.59800E+00 2.79250E+01 0.00000E+00
 -1       172 2.59800E+00 2.49750E+01 0.00000E+00
 -1       173 2.59800E+00 2.20250E+01 0.00000E+00
 -1       174 2.59800E+00 1.90750E+01 0.00000E+00
 -1       175 2.59800E+00 1.61750E+01 0.00000E+00
 -1       176 2.59800E+00 1.32250E+01 0.00000E+00
 -1       177 2.59800E+00 1.02750E+01 0.00000E+00
 -1       178 2.59800E+00 7.32500E+00 0.00000E+00
 -1       179 2.59800E+00 4.37500E+00 0.00000E+00
 -1       180 2.87400E+00 2.18750E+00 0.00000E+00
 -1       181 4.65000E+00 4.74020E+01 0.00000E+00
 -1       182 7.65000E+00 4.74020E+01 0.00000E+00
 -1       183 1.06500E+01 4.74020E+01 0.00000E+00
 -1       184 1.36500E+01 4.74020E+01 0.00000E+00
 -1       185 1.66500E+01 4.74020E+01 0.00000E+00
 -1       186 1.98000E+01 4.74020E+01 0.00000E+00
 -1       187 2.28000E+01 4.74020E+01 0.00000E+00
 -1       188 2.58000E+01 4.74020E+01 0.00000E+00
 -1       189 2.88000E+01 4.74020E+01 0.00000E+00
 -1       190 3.18000E+01 4.74020E+01 0.00000E+00
 -1       191 3.43500E+01 4.74020E+01 0.00000E+00
 -1       192 3.69000E+01 4.74020E+01 0.00000E+00
 -1       193 3.99000E+01 4.74020E+01 0.00000E+00
 -1       194 4.27500E+01 4.74020E+01 0.00000E+00
 -1       195 4.59000E+01 4.74020E+01 0.00000E+00
 -1       196 4.89000E+01 4.74020E+01 0.00000E+00
 -1       197 5.19000E+01 4.74020E+01 0.00000E+00
 -1       198 5.49000E+01 4.74020E+01 0.00000E+00
 -1       199 5.79000E+01 4.74020E+01 0.00000E+00
 -1       200 6.09000E+01 4.74020E+01 0.00000E+00
 -1       201 6.39000E+01 4.74020E+01 0.00000E+00
 -1       202 6.70500E+01 4.74020E+01 0.00000E+00
 -1       203 7.00500E+01 4.74020E+01 0.00000E+00
 -1       204 7.30500E+01 4.74020E+01 0.00000E+00
 -1       205 7.60500E+01 4.74020E+01 0.00000E+00
 -1       206 7.90500E+01 4.74020E+01 0.00000E+00
 -1       207 8.20500E+01 4.74020E+01 0.00000E+00
 -1       208 8.50500E+01 4.74020E+01 0.00000E+00
 -1       209 8.82000E+01 4.74020E+01 0.00000E+00
 -1       210 9.12000E+01 4.74020E+01 0.00000E+00
 -1       211 9.42000E+01 4.74020E+01 0.00000E+00
 -1       212 9.72000E+01 4.74020E+01 0.00000E+00
 -1       213 1.00200E+02 4.74020E+01 0.00000E+00
 -1       214 1.03200E+02 4.74020E+01 0.00000E+00
 -1       215 1.06200E+02 4.74020E+01 0.00000E+00
 -1       216 1.09350E+02 4.74020E+01 0.00000E+00
 -1       217 1.12350E+02 4.74020E+01 0.00000E+00
 -1       218 1.15350E+02 4.74020E+01 0.00000E+00
 -1       219 1.18350E+02 4.74020E+01 0.00000E+00
 -1       220 1.21350E+02 4.74020E+01 0.00000E+00
 -1       221 1.24350E+02 4.74020E+01 0.00000E+00
 -1       222 1.27350E+02 4.74020E+01 0.00000E+00
 -1       223 1.30500E+02 4.74020E+01 0.00000E+00
 -1       224 1.33500E+02 4.74020E+01 0.00000E+00
 -1       225 1.36500E+02 4.74020E+01 0.00000E+00
 -1       226 1.39500E+02 4.74020E+01 0.00000E+00
 -1       227 1.42500E+02 4.74020E+01 0.00000E+00
 -1       228 1.45500E+02 4.74020E+01 0.00000E+00
 -1       229 1.47750E+02 4.72510E+01 0.00000E+00
 -1       230 5.87400E+00 2.18750E+00 0.00000E+00
 -1       231 8.87400E+00 2.18750E+00 0.00000E+00
 -1       232 1.18740E+01 2.18750E+00 0.00000E+00
 -1       233 1.48740E+01 2.18750E+00 0.00000E+00
 -1       234 1.78740E+01 2.18750E+00 0.00000E+00
 -1       235 2.08740E+01 2.18750E+00 0.00000E+00
 -1       236 2.38740E+01 2.18750E+00 0.00000E+00
 -1       237 2.68740E+01 2.18750E+00 0.00000E+00
 -1       238 2.98740E+01 2.18750E+00 0.00000E+00
 -1       239 3.28740E+01 2.18750E+00 0.00000E+00
 -1       240 3.58740E+01 2.18750E+00 0.00000E+00
 -1       241 3.88740E+01 2.18750E+00 0.00000E+00
 -1       242 4.18740E+01 2.18750E+00 0.00000E+00
 -1       243 4.48740E+01 2.18750E+00 0.00000E+00
 -1       244 4.78740E+01 2.18750E+00 0.00000E+00
 -1       245 5.08740E+01 2.18750E+00 0.00000E+00
 -1       246 5.38740E+01 2.18750E+00 0.00000E+00
 -1       247 5.68740E+01 2.18750E+00 0.00000E+00
 -1       248 5.98740E+01 2.18750E+00 0.00000E+00
 -1       249 6.28740E+01 2.18750E+00 0.00000E+00
 -1       250 6.58740E+01 2.18750E+00 0.00000E+00
 -1       251 6.88740E+01 2.18750E+00 0.00000E+00
 -1       252 7.18740E+01 2.18750E+00 0.00000E+00
 -1       253 7.48740E+01 2.18750E+00 0.00000E+00
 -1       254 7.78740E+01 2.18750E+00 0.00000E+00
 -1       255 8.08740E+01 2.18750E+00 0.00000E+00
 -1       256 8.38740E+01 2.18750E+00 0.00000E+00
 -1       257 8.68740E+01 2.18750E+00 0.00000E+00
 -1       258 8.98740E+01 2.18750E+00 0.00000E+00
 -1       259 9.28740E+01 2.18750E+00 0.00000E+00
 -1       260 9.58740E+01 2.18750E+00 0.00000E+00
 -1       261 9.88740E+01 2.18750E+00 0.00000E+00
 -1       262 1.01874E+02 2.18750E+00 0.00000E+00
 -1       263 1.04874E+02 2.18750E+00 0.00000E+00
 -1       264 1.07874E+02 2.18750E+00 0.00000E+00
 -1       265 1.10874E+02 2.18750E+00 0.00000E+00
 -1       266 1.13874E+02 2.18750E+00 0.00000E+00
 -1       267 1.16874E+02 2.18750E+00 0.00000E+00
 -1       268 1.19874E+02 2.18750E+00 0.00000E+00
 -1       269 1.22874E+02 2.18750E+00 0.00000E+00
 -1       270 1.25874E+02 2.18750E+00 0.00000E+00
 -1       271 1.28874E+02 2.18750E+00 0.00000E+00
 -1       272 1.31874E+02 2.18750E+00 0.00000E+00
 -1       273 1.34874E+02 2.18750E+00 0.00000E+00
 -1       274 1.37874E+02 2.18750E+00 0.00000E+00
 -1       275 1.40874E+02 2.18750E+00 0.00000E+00
 -1       276 1.43874E+02 2.18750E+00 0.00000E+00
 -1       277 1.46874E+02 2.18750E+00 0.00000E+00
 -1       278 1.47402E+02 4.42500E+00 0.00000E+00
 -1       279 1.47402E+02 7.37500E+00 0.00000E+00
 -1       280 1.47402E+02 1.03250E+01 0.00000E+00
 -1       281 1.47402E+02 1.32750E+01 0.00000E+00
 -1       282 1.47402E+02 1.61750E+01 0.00000E+00
 -1       283 1.47402E+02 1.91250E+01 0.00000E+00
 -1       284 1.47402E+02 2.20750E+01 0.00000E+00
 -1       285 1.47402E+02 2.50250E+01 0.00000E+00
 -1       286 1.47402E+02 2.79750E+01 0.00000E+00
 -1       287 1.47402E+02 3.09250E+01 0.00000E+00
 -1       288 1.47402E+02 3.38250E+01 0.00000E+00
 -1       289 1.47402E+02 3.67750E+01 0.00000E+00
 -1       290 1.47402E+02 3.97250E+01 0.00000E+00
 -1       291 1.47402E+02 4.26750E+01 0.00000E+00
 -1       292 1.47576E+02 4.49630E+01 0.00000E+00
 -1       293 4.45664E+01 3.28179E+01 0.00000E+00
 -1       294 4.42968E+01 3.11329E+01 0.00000E+00
 -1       295 4.35902E+01 2.95327E+01 0.00000E+00
 -1       296 4.25157E+01 2.81875E+01 0.00000E+00
 -1       297 4.13675E+01 2.67278E+01 0.00000E+00
 -1       298 3.96103E+01 2.61170E+01 0.00000E+00
 -1       299 3.79667E+01 2.56214E+01 0.00000E+00
 -1       300 3.62406E+01 2.53938E+01 0.00000E+00
 -1       301 3.45145E+01 2.56175E+01 0.00000E+00
 -1       302 3.29313E+01 2.62607E+01 0.00000E+00
 -1       303 3.11784E+01 2.69726E+01 0.00000E+00
 -1       304 3.00472E+01 2.85501E+01 0.00000E+00
 -1       305 2.91042E+01 3.00315E+01 0.00000E+00
 -1       306 2.84247E+01 3.16337E+01 0.00000E+00
 -1       307 2.80988E+01 3.33848E+01 0.00000E+00
 -1       308 2.80937E+01 3.52951E+01 0.00000E+00
 -1       309 2.89366E+01 3.69180E+01 0.00000E+00
 -1       310 2.97566E+01 3.83659E+01 0.00000E+00
 -1       311 3.08217E+01 3.97081E+01 0.00000E+00
 -1       312 3.22814E+01 4.06859E+01 0.00000E+00
 -1       313 3.38647E+01 4.14098E+01 0.00000E+00
 -1       314 3.55429E+01 4.18562E+01 0.00000E+00
 -1       315 3.72670E+01 4.18668E+01 0.00000E+00
 -1       316 3.88309E+01 4.14701E+01 0.00000E+00
 -1       317 4.02707E+01 4.08728E+01 0.00000E+00
 -1       318 4.15734E+01 4.00122E+01 0.00000E+00
 -1       319 4.28376E+01 3.89979E+01 0.00000E+00
 -1       320 4.36088E+01 3.75767E+01 0.00000E+00
 -1       321 4.43073E+01 3.61496E+01 0.00000E+00
 -1       322 4.47287E+01 3.45194E+01 0.00000E+00
 -1       323 5.19600E+00 4.11500E+01 0.00000E+00
 -1       324 5.19600E+00 4.41000E+01 0.00000E+00
 -1       325 5.19600E+00 3.52750E+01 0.00000E+00
 -1       326 5.19600E+00 3.23250E+01 0.00000E+00
 -1       327 5.19600E+00 2.93750E+01 0.00000E+00
 -1       328 5.19600E+00 2.64250E+01 0.00000E+00
 -1       329 5.19600E+00 2.34750E+01 0.00000E+00
 -1       330 5.19600E+00 2.05250E+01 0.00000E+00
 -1       331 5.19600E+00 1.76250E+01 0.00000E+00
 -1       332 5.19600E+00 1.46750E+01 0.00000E+00
 -1       333 5.19600E+00 1.17250E+01 0.00000E+00
 -1       334 5.19600E+00 8.77500E+00 0.00000E+00
 -1       335 5.19600E+00 5.82500E+00 0.00000E+00
 -1       336 5.53500E+00 4.00625E+00 0.00000E+00
 -1       337 8.53500E+00 4.00625E+00 0.00000E+00
 -1       338 9.15000E+00 4.48040E+01 0.00000E+00
 -1       339 1.21500E+01 4.48040E+01 0.00000E+00
 -1       340 1.51500E+01 4.48040E+01 0.00000E+00
 -1       341 1.83000E+01 4.48040E+01 0.00000E+00
 -1       342 2.13000E+01 4.48040E+01 0.00000E+00
 -1       343 2.43000E+01 4.48040E+01 0.00000E+00
 -1       344 2.73000E+01 4.48040E+01 0.00000E+00
 -1       345 3.03000E+01 4.48040E+01 0.00000E+00
 -1       346 3.56250E+01 4.55193E+01 0.00000E+00
 -1       347 3.86250E+01 4.55193E+01 0.00000E+00
 -1       348 4.13250E+01 4.51842E+01 0.00000E+00
 -1       349 4.44750E+01 4.51842E+01 0.00000E+00
 -1       350 4.74750E+01 4.51842E+01 0.00000E+00
 -1       351 5.04750E+01 4.51842E+01 0.00000E+00
 -1       352 5.34750E+01 4.51842E+01 0.00000E+00
 -1       353 5.64750E+01 4.51842E+01 0.00000E+00
 -1       354 5.94750E+01 4.51842E+01 0.00000E+00
 -1       355 6.24750E+01 4.51842E+01 0.00000E+00
 -1       356 6.56250E+01 4.51842E+01 0.00000E+00
 -1       357 6.86250E+01 4.51842E+01 0.00000E+00
 -1       358 7.16250E+01 4.51842E+01 0.00000E+00
 -1       359 7.46250E+01 4.51842E+01 0.00000E+00
 -1       360 7.76250E+01 4.51842E+01 0.00000E+00
 -1       361 8.06250E+01 4.51842E+01 0.00000E+00
 -1       362 8.36250E+01 4.51842E+01 0.00000E+00
 -1       363 8.67750E+01 4.51842E+01 0.00000E+00
 -1       364 8.97750E+01 4.51842E+01 0.00000E+00
 -1       365 9.27750E+01 4.51842E+01 0.00000E+00
 -1       366 9.57750E+01 4.51842E+01 0.00000E+00
 -1       367 9.87750E+01 4.51842E+01 0.00000E+00
 -1       368 1.01775E+02 4.51842E+01 0.00000E+00
 -1       369 1.04775E+02 4.51842E+01 0.00000E+00
 -1       370 1.07925E+02 4.51842E+01 0.00000E+00
 -1       371 1.10925E+02 4.51842E+01 0.00000E+00
 -1       372 1.13925E+02 4.51842E+01 0.00000E+00
 -1       373 1.16925E+02 4.51842E+01 0.00000E+00
 -1       374 1.19925E+02 4.51842E+01 0.00000E+00
 -1       375 1.22925E+02 4.51842E+01 0.00000E+00
 -1       376 1.25925E+02 4.51842E+01 0.00000E+00
 -1       377 1.29075E+02 4.51842E+01 0.00000E+00
 -1       378 1.32075E+02 4.51842E+01 0.00000E+00
 -1       379 1.35075E+02 4.51842E+01 0.00000E+00
 -1       380 1.38075E+02 4.51842E+01 0.00000E+00
 -1       381 1.41075E+02 4.51842E+01 0.00000E+00
 -1       382 1.44075E+02 4.51842E+01 0.00000E+00
 -1       383 1.33740E+01 4.78550E+00 0.00000E+00
 -1       384 1.63740E+01 4.78550E+00 0.00000E+00
 -1       385 1.93740E+01 4.78550E+00 0.00000E+00
 -1       386 2.23740E+01 4.78550E+00 0.00000E+00
 -1       387 2.53740E+01 4.78550E+00 0.00000E+00
 -1       388 2.83740E+01 4.78550E+00 0.00000E+00
 -1       389 3.13740E+01 4.78550E+00 0.00000E+00
 -1       390 3.43740E+01 4.78550E+00 0.00000E+00
 -1       391 3.73740E+01 4.78550E+00 0.00000E+00
 -1       392 4.03740E+01 4.78550E+00 0.00000E+00
 -1       393 4.33740E+01 4.78550E+00 0.00000E+00
 -1       394 4.63740E+01 4.78550E+00 0.00000E+00
 -1       395 4.93740E+01 4.78550E+00 0.00000E+00
 -1       396 5.23740E+01 4.78550E+00 0.00000E+00
 -1       397 5.53740E+01 4.78550E+00 0.00000E+00
 -1       398 5.83740E+01 4.78550E+00 0.00000E+00
 -1       399 6.13740E+01 4.78550E+00 0.00000E+00
 -1       400 6.43740E+01 4.78550E+00 0.00000E+00
 -1       401 6.73740E+01 4.78550E+00 0.00000E+00
 -1       402 7.03740E+01 4.78550E+00 0.00000E+00
 -1       403 7.33740E+01 4.78550E+00 0.00000E+00
 -1       404 7.63740E+01 4.78550E+00 0.00000E+00
 -1       405 7.93740E+01 4.78550E+00 0.00000E+00
 -1       406 8.23740E+01 4.78550E+00 0.00000E+00
 -1       407 8.53740E+01 4.78550E+00 0.00000E+00
 -1       408 8.83740E+01 4.78550E+00 0.00000E+00
 -1       409 9.13740E+01 4.78550E+00 0.00000E+00
 -1       410 9.43740E+01 4.78550E+00 0.00000E+00
 -1       411 9.73740E+01 4.78550E+00 0.00000E+00
 -1       412 1.00374E+02 4.78550E+00 0.00000E+00
 -1       413 1.03374E+02 4.78550E+00 0.00000E+00
 -1       414 1.06374E+02 4.78550E+00 0.00000E+00
 -1       415 1.09374E+02 4.78550E+00 0.00000E+00
 -1       416 1.12374E+02 4.78550E+00 0.00000E+00
 -1       417 1.15374E+02 4.78550E+00 0.00000E+00
 -1       418 1.18374E+02 4.78550E+00 0.00000E+00
 -1       419 1.21374E+02 4.78550E+00 0.00000E+00
 -1       420 1.24374E+02 4.78550E+00 0.00000E+00
 -1       421 1.27374E+02 4.78550E+00 0.00000E+00
 -1       422 1.30374E+02 4.78550E+00 0.00000E+00
 -1       423 1.33374E+02 4.78550E+00 0.00000E+00
 -1       424 1.36374E+02 4.78550E+00 0.00000E+00
 -1       425 1.39374E+02 4.78550E+00 0.00000E+00
 -1       426 1.42374E+02 4.78550E+00 0.00000E+00
 -1       427 1.44888E+02 4.60525E+00 0.00000E+00
 -1       428 1.44804E+02 1.18000E+01 0.00000E+00
 -1       429 1.44804E+02 8.85000E+00 0.00000E+00
 -1       430 1.44804E+02 1.47000E+01 0.00000E+00
 -1       431 1.44804E+02 1.76500E+01 0.00000E+00
 -1       432 1.44804E+02 2.06000E+01 0.00000E+00
 -1       433 1.44804E+02 2.35500E+01 0.00000E+00
 -1       434 1.44804E+02 2.65000E+01 0.00000E+00
 -1       435 1.44804E+02 2.94500E+01 0.00000E+00
 -1       436 1.44804E+02 3.23500E+01 0.00000E+00
 -1       437 1.44804E+02 3.53000E+01 0.00000E+00
 -1       438 1.44804E+02 3.82500E+01 0.00000E+00
 -1       439 1.44804E+02 4.12000E+01 0.00000E+00
 -1       440 1.09545E+01 4.39587E+00 0.00000E+00
 -1       441 4.54358E+01 2.96738E+01 0.00000E+00
 -1       442 4.30263E+01 2.66045E+01 0.00000E+00
 -1       443 4.61881E+01 3.35216E+01 0.00000E+00
 -1       444 4.41007E+01 2.79497E+01 0.00000E+00
 -1       445 5.19600E+00 3.82125E+01 0.00000E+00
 -1       446 4.10245E+01 2.48815E+01 0.00000E+00
 -1       447 3.93809E+01 2.43859E+01 0.00000E+00
 -1       448 3.72950E+01 2.40564E+01 0.00000E+00
 -1       449 3.51894E+01 2.40540E+01 0.00000E+00
 -1       450 3.31089E+01 2.44278E+01 0.00000E+00
 -1       451 3.13559E+01 2.51396E+01 0.00000E+00
 -1       452 2.94233E+01 2.69083E+01 0.00000E+00
 -1       453 2.84822E+01 2.85948E+01 0.00000E+00
 -1       454 2.72626E+01 3.01956E+01 0.00000E+00
 -1       455 2.69051E+01 3.22568E+01 0.00000E+00
 -1       456 2.64650E+01 3.43356E+01 0.00000E+00
 -1       457 2.73649E+01 3.67040E+01 0.00000E+00
 -1       458 2.82188E+01 3.82807E+01 0.00000E+00
 -1       459 2.92082E+01 3.98948E+01 0.00000E+00
 -1       460 3.06903E+01 4.14828E+01 0.00000E+00
 -1       461 3.24644E+01 4.23791E+01 0.00000E+00
 -1       462 3.43491E+01 4.29666E+01 0.00000E+00
 -1       463 3.63954E+01 4.34090E+01 0.00000E+00
 -1       464 3.83883E+01 4.30061E+01 0.00000E+00
 -1       465 4.00796E+01 4.24460E+01 0.00000E+00
 -1       466 4.16827E+01 4.15939E+01 0.00000E+00
 -1       467 4.30166E+01 4.05161E+01 0.00000E+00
 -1       468 4.47306E+01 3.91053E+01 0.00000E+00
 -1       469 4.54292E+01 3.76782E+01 0.00000E+00
 -1       470 4.58541E+01 3.56799E+01 0.00000E+00
 -1       471 4.59185E+01 3.18366E+01 0.00000E+00
 -1       472 4.26833E+01 2.47582E+01 0.00000E+00
 -1       473 3.35674E+01 4.54989E+01 0.00000E+00
 -1       474 1.44439E+02 4.31921E+01 0.00000E+00
 -1       475 2.57361E+01 3.57445E+01 0.00000E+00
 -1       476 2.96008E+01 2.50754E+01 0.00000E+00
 -1       477 7.79400E+00 3.08500E+01 0.00000E+00
 -1       478 7.79400E+00 3.38000E+01 0.00000E+00
 -1       479 7.79400E+00 2.49500E+01 0.00000E+00
 -1       480 7.79400E+00 2.20000E+01 0.00000E+00
 -1       481 7.79400E+00 1.91000E+01 0.00000E+00
 -1       482 7.79400E+00 1.61500E+01 0.00000E+00
 -1       483 7.79400E+00 1.32000E+01 0.00000E+00
 -1       484 7.79400E+00 1.02500E+01 0.00000E+00
 -1       485 7.79400E+00 7.30000E+00 0.00000E+00
 -1       486 8.16450E+00 5.65312E+00 0.00000E+00
 -1       487 4.29000E+01 4.31339E+01 0.00000E+00
 -1       488 1.06500E+01 4.22060E+01 0.00000E+00
 -1       489 4.63893E+01 2.75565E+01 0.00000E+00
 -1       490 1.36500E+01 4.22060E+01 0.00000E+00
 -1       491 1.68000E+01 4.22060E+01 0.00000E+00
 -1       492 1.98000E+01 4.22060E+01 0.00000E+00
 -1       493 2.28000E+01 4.22060E+01 0.00000E+00
 -1       494 2.58000E+01 4.22060E+01 0.00000E+00
 -1       495 2.88000E+01 4.27538E+01 0.00000E+00
 -1       496 4.59750E+01 4.27988E+01 0.00000E+00
 -1       497 4.89750E+01 4.27988E+01 0.00000E+00
 -1       498 5.19750E+01 4.27988E+01 0.00000E+00
 -1       499 5.49750E+01 4.27988E+01 0.00000E+00
 -1       500 5.79750E+01 4.27988E+01 0.00000E+00
 -1       501 6.09750E+01 4.27988E+01 0.00000E+00
 -1       502 6.41250E+01 4.27988E+01 0.00000E+00
 -1       503 6.71250E+01 4.27988E+01 0.00000E+00
 -1       504 7.01250E+01 4.27988E+01 0.00000E+00
 -1       505 7.31250E+01 4.27988E+01 0.00000E+00
 -1       506 7.61250E+01 4.27988E+01 0.00000E+00
 -1       507 7.91250E+01 4.27988E+01 0.00000E+00
 -1       508 8.21250E+01 4.27988E+01 0.00000E+00
 -1       509 8.52750E+01 4.27988E+01 0.00000E+00
 -1       510 8.82750E+01 4.27988E+01 0.00000E+00
 -1       511 9.12750E+01 4.27988E+01 0.00000E+00
 -1       512 9.42750E+01 4.27988E+01 0.00000E+00
 -1       513 9.72750E+01 4.27988E+01 0.00000E+00
 -1       514 1.00275E+02 4.27988E+01 0.00000E+00
 -1       515 1.03275E+02 4.27988E+01 0.00000E+00
 -1       516 1.06425E+02 4.27988E+01 0.00000E+00
 -1       517 1.09425E+02 4.27988E+01 0.00000E+00
 -1       518 1.12425E+02 4.27988E+01 0.00000E+00
 -1       519 1.15425E+02 4.27988E+01 0.00000E+00
 -1       520 1.18425E+02 4.27988E+01 0.00000E+00
 -1       521 1.21425E+02 4.27988E+01 0.00000E+00
 -1       522 1.24425E+02 4.27988E+01 0.00000E+00
 -1       523 1.27575E+02 4.27988E+01 0.00000E+00
 -1       524 1.30575E+02 4.27988E+01 0.00000E+00
 -1       525 1.33575E+02 4.27988E+01 0.00000E+00
 -1       526 1.36575E+02 4.27988E+01 0.00000E+00
 -1       527 1.39575E+02 4.27988E+01 0.00000E+00
 -1       528 1.42007E+02 4.29954E+01 0.00000E+00
 -1       529 2.08740E+01 7.38350E+00 0.00000E+00
 -1       530 1.78740E+01 7.38350E+00 0.00000E+00
 -1       531 1.48740E+01 7.38350E+00 0.00000E+00
 -1       532 2.38740E+01 7.38350E+00 0.00000E+00
 -1       533 2.68740E+01 7.38350E+00 0.00000E+00
 -1       534 2.98740E+01 7.38350E+00 0.00000E+00
 -1       535 3.28740E+01 7.38350E+00 0.00000E+00
 -1       536 3.58740E+01 7.38350E+00 0.00000E+00
 -1       537 3.88740E+01 7.38350E+00 0.00000E+00
 -1       538 4.18740E+01 7.38350E+00 0.00000E+00
 -1       539 4.48740E+01 7.38350E+00 0.00000E+00
 -1       540 4.78740E+01 7.38350E+00 0.00000E+00
 -1       541 5.08740E+01 7.38350E+00 0.00000E+00
 -1       542 5.38740E+01 7.38350E+00 0.00000E+00
 -1       543 5.68740E+01 7.38350E+00 0.00000E+00
 -1       544 5.98740E+01 7.38350E+00 0.00000E+00
 -1       545 6.28740E+01 7.38350E+00 0.00000E+00
 -1       546 6.58740E+01 7.38350E+00 0.00000E+00
 -1       547 6.88740E+01 7.38350E+00 0.00000E+00
 -1       548 7.18740E+01 7.38350E+00 0.00000E+00
 -1       549 7.48740E+01 7.38350E+00 0.00000E+00
 -1       550 7.78740E+01 7.38350E+00 0.00000E+00
 -1       551 8.08740E+01 7.38350E+00 0.00000E+00
 -1       552 8.38740E+01 7.38350E+00 0.00000E+00
 -1       553 8.68740E+01 7.38350E+00 0.00000E+00
 -1       554 8.98740E+01 7.38350E+00 0.00000E+00
 -1       555 9.28740E+01 7.38350E+00 0.00000E+00
 -1       556 9.58740E+01 7.38350E+00 0.00000E+00
 -1       557 9.88740E+01 7.38350E+00 0.00000E+00
 -1       558 1.01874E+02 7.38350E+00 0.00000E+00
 -1       559 1.04874E+02 7.38350E+00 0.00000E+00
 -1       560 1.07874E+02 7.38350E+00 0.00000E+00
 -1       561 1.10874E+02 7.38350E+00 0.00000E+00
 -1       562 1.13874E+02 7.38350E+00 0.00000E+00
 -1       563 1.16874E+02 7.38350E+00 0.00000E+00
 -1       564 1.19874E+02 7.38350E+00 0.00000E+00
 -1       565 1.22874E+02 7.38350E+00 0.00000E+00
 -1       566 1.25874E+02 7.38350E+00 0.00000E+00
 -1       567 1.28874E+02 7.38350E+00 0.00000E+00
 -1       568 1.31874E+02 7.38350E+00 0.00000E+00
 -1       569 1.34874E+02 7.38350E+00 0.00000E+00
 -1       570 1.37874E+02 7.38350E+00 0.00000E+00
 -1       571 1.40874E+02 7.38350E+00 0.00000E+00
 -1       572 1.42206E+02 1.61750E+01 0.00000E+00
 -1       573 1.42206E+02 1.32750E+01 0.00000E+00
 -1       574 1.42206E+02 1.03250E+01 0.00000E+00
 -1       575 4.73511E+01 3.03816E+01 0.00000E+00
 -1       576 1.42206E+02 1.91250E+01 0.00000E+00
 -1       577 1.42206E+02 2.20750E+01 0.00000E+00
 -1       578 1.42206E+02 2.50250E+01 0.00000E+00
 -1       579 1.42206E+02 2.79750E+01 0.00000E+00
 -1       580 1.42206E+02 3.08750E+01 0.00000E+00
 -1       581 1.42206E+02 3.38250E+01 0.00000E+00
 -1       582 1.42206E+02 3.67750E+01 0.00000E+00
 -1       583 1.42206E+02 3.97250E+01 0.00000E+00
 -1       584 7.92300E+00 4.16780E+01 0.00000E+00
 -1       585 4.77160E+01 3.48631E+01 0.00000E+00
 -1       586 4.49103E+01 4.10703E+01 0.00000E+00
 -1       587 3.38607E+01 2.26353E+01 0.00000E+00
 -1       588 4.53149E+01 2.62113E+01 0.00000E+00
 -1       589 7.79400E+00 2.79000E+01 0.00000E+00
 -1       590 3.62439E+01 2.25077E+01 0.00000E+00
 -1       591 4.06979E+01 2.29916E+01 0.00000E+00
 -1       592 2.75282E+01 2.69567E+01 0.00000E+00
 -1       593 3.85925E+01 2.26098E+01 0.00000E+00
 -1       594 3.15870E+01 2.31946E+01 0.00000E+00
 -1       595 2.63086E+01 2.85575E+01 0.00000E+00
 -1       596 2.53940E+01 3.09330E+01 0.00000E+00
 -1       597 2.49539E+01 3.30119E+01 0.00000E+00
 -1       598 2.63574E+01 3.82692E+01 0.00000E+00
 -1       599 2.73468E+01 3.98833E+01 0.00000E+00
 -1       600 4.39052E+01 4.21021E+01 0.00000E+00
 -1       601 4.67709E+01 3.92195E+01 0.00000E+00
 -1       602 4.72911E+01 3.68614E+01 0.00000E+00
 -1       603 4.74987E+01 3.24479E+01 0.00000E+00
 -1       604 7.79400E+00 3.67375E+01 0.00000E+00
 -1       605 1.05840E+01 6.04275E+00 0.00000E+00
 -1       606 4.23566E+01 2.28683E+01 0.00000E+00
 -1       607 3.97431E+01 4.34834E+01 0.00000E+00
 -1       608 3.21593E+01 4.36775E+01 0.00000E+00
 -1       609 1.27290E+01 6.71313E+00 0.00000E+00
 -1       610 4.49719E+01 2.43651E+01 0.00000E+00
 -1       611 2.42250E+01 3.44207E+01 0.00000E+00
 -1       612 2.98319E+01 2.31304E+01 0.00000E+00
 -1       613 2.77057E+01 2.51237E+01 0.00000E+00
 -1       614 1.03920E+01 2.05500E+01 0.00000E+00
 -1       615 1.03920E+01 2.35000E+01 0.00000E+00
 -1       616 1.03920E+01 1.46750E+01 0.00000E+00
 -1       617 1.03920E+01 1.17250E+01 0.00000E+00
 -1       618 1.02135E+01 7.68962E+00 0.00000E+00
 -1       619 3.75073E+01 2.05104E+01 0.00000E+00
 -1       620 1.52250E+01 3.96080E+01 0.00000E+00
 -1       621 1.82250E+01 3.96080E+01 0.00000E+00
 -1       622 2.12250E+01 3.96080E+01 0.00000E+00
 -1       623 4.90521E+01 3.12985E+01 0.00000E+00
 -1       624 4.70502E+01 4.13608E+01 0.00000E+00
 -1       625 5.04750E+01 4.05810E+01 0.00000E+00
 -1       626 5.34750E+01 4.05810E+01 0.00000E+00
 -1       627 5.64750E+01 4.05810E+01 0.00000E+00
 -1       628 5.94750E+01 4.05810E+01 0.00000E+00
 -1       629 6.26250E+01 4.05810E+01 0.00000E+00
 -1       630 6.56250E+01 4.05810E+01 0.00000E+00
 -1       631 6.86250E+01 4.05810E+01 0.00000E+00
 -1       632 7.16250E+01 4.05810E+01 0.00000E+00
 -1       633 7.46250E+01 4.05810E+01 0.00000E+00
 -1       634 7.76250E+01 4.05810E+01 0.00000E+00
 -1       635 8.06250E+01 4.05810E+01 0.00000E+00
 -1       636 8.37750E+01 4.05810E+01 0.00000E+00
 -1       637 8.67750E+01 4.05810E+01 0.00000E+00
 -1       638 8.97750E+01 4.05810E+01 0.00000E+00
 -1       639 9.27750E+01 4.05810E+01 0.00000E+00
 -1       640 9.57750E+01 4.05810E+01 0.00000E+00
 -1       641 9.87750E+01 4.05810E+01 0.00000E+00
 -1       642 1.01775E+02 4.05810E+01 0.00000E+00
 -1       643 1.04925E+02 4.05810E+01 0.00000E+00
 -1       644 1.07925E+02 4.05810E+01 0.00000E+00
 -1       645 1.10925E+02 4.05810E+01 0.00000E+00
 -1       646 1.13925E+02 4.05810E+01 0.00000E+00
 -1       647 1.16925E+02 4.05810E+01 0.00000E+00
 -1       648 1.19925E+02 4.05810E+01 0.00000E+00
 -1       649 1.22925E+02 4.05810E+01 0.00000E+00
 -1       650 1.26075E+02 4.05810E+01 0.00000E+00
 -1       651 1.29075E+02 4.05810E+01 0.00000E+00
 -1       652 1.32075E+02 4.05810E+01 0.00000E+00
 -1       653 1.35075E+02 4.05810E+01 0.00000E+00
 -1       654 1.38075E+02 4.05810E+01 0.00000E+00
 -1       655 1.93740E+01 9.98150E+00 0.00000E+00
 -1       656 2.23740E+01 9.98150E+00 0.00000E+00
 -1       657 1.63740E+01 9.98150E+00 0.00000E+00
 -1       658 2.83740E+01 9.98150E+00 0.00000E+00
 -1       659 3.13740E+01 9.98150E+00 0.00000E+00
 -1       660 3.43740E+01 9.98150E+00 0.00000E+00
 -1       661 3.73740E+01 9.98150E+00 0.00000E+00
 -1       662 4.03740E+01 9.98150E+00 0.00000E+00
 -1       663 4.33740E+01 9.98150E+00 0.00000E+00
 -1       664 4.63740E+01 9.98150E+00 0.00000E+00
 -1       665 4.93740E+01 9.98150E+00 0.00000E+00
 -1       666 5.23740E+01 9.98150E+00 0.00000E+00
 -1       667 5.53740E+01 9.98150E+00 0.00000E+00
 -1       668 5.83740E+01 9.98150E+00 0.00000E+00
 -1       669 6.13740E+01 9.98150E+00 0.00000E+00
 -1       670 6.43740E+01 9.98150E+00 0.00000E+00
 -1       671 6.73740E+01 9.98150E+00 0.00000E+00
 -1       672 7.03740E+01 9.98150E+00 0.00000E+00
 -1       673 7.33740E+01 9.98150E+00 0.00000E+00
 -1       674 7.63740E+01 9.98150E+00 0.00000E+00
 -1       675 7.93740E+01 9.98150E+00 0.00000E+00
 -1       676 8.23740E+01 9.98150E+00 0.00000E+00
 -1       677 8.53740E+01 9.98150E+00 0.00000E+00
 -1       678 8.83740E+01 9.98150E+00 0.00000E+00
 -1       679 9.13740E+01 9.98150E+00 0.00000E+00
 -1       680 9.43740E+01 9.98150E+00 0.00000E+00
 -1       681 9.73740E+01 9.98150E+00 0.00000E+00
 -1       682 1.00374E+02 9.98150E+00 0.00000E+00
 -1       683 1.03374E+02 9.98150E+00 0.00000E+00
 -1       684 1.06374E+02 9.98150E+00 0.00000E+00
 -1       685 1.09374E+02 9.98150E+00 0.00000E+00
 -1       686 1.12374E+02 9.98150E+00 0.00000E+00
 -1       687 1.15374E+02 9.98150E+00 0.00000E+00
 -1       688 1.18374E+02 9.98150E+00 0.00000E+00
 -1       689 1.21374E+02 9.98150E+00 0.00000E+00
 -1       690 1.24374E+02 9.98150E+00 0.00000E+00
 -1       691 1.27374E+02 9.98150E+00 0.00000E+00
 -1       692 1.30374E+02 9.98150E+00 0.00000E+00
 -1       693 1.33374E+02 9.98150E+00 0.00000E+00
 -1       694 1.36374E+02 9.98150E+00 0.00000E+00
 -1       695 1.39290E+02 1.01532E+01 0.00000E+00
 -1       696 1.39608E+02 1.47250E+01 0.00000E+00
 -1       697 1.39608E+02 2.06000E+01 0.00000E+00
 -1       698 1.39449E+02 1.24391E+01 0.00000E+00
 -1       699 2.53740E+01 9.98150E+00 0.00000E+00
 -1       700 1.39608E+02 1.76625E+01 0.00000E+00
 -1       701 1.39608E+02 2.65000E+01 0.00000E+00
 -1       702 1.39608E+02 2.94000E+01 0.00000E+00
 -1       703 1.39608E+02 3.23500E+01 0.00000E+00
 -1       704 1.39608E+02 3.53000E+01 0.00000E+00
 -1       705 1.39608E+02 3.82500E+01 0.00000E+00
 -1       706 9.78035E+00 3.93914E+01 0.00000E+00
 -1       707 4.92694E+01 3.37137E+01 0.00000E+00
 -1       708 3.51240E+01 2.06380E+01 0.00000E+00
 -1       709 2.45787E+01 4.02376E+01 0.00000E+00
 -1       710 1.39608E+02 2.35500E+01 0.00000E+00
 -1       711 4.75850E+01 2.54998E+01 0.00000E+00
 -1       712 1.25027E+01 3.94997E+01 0.00000E+00
 -1       713 4.85467E+01 2.83249E+01 0.00000E+00
 -1       714 1.03920E+01 1.76125E+01 0.00000E+00
 -1       715 2.55541E+01 2.67177E+01 0.00000E+00
 -1       716 1.03920E+01 3.23250E+01 0.00000E+00
 -1       717 2.39574E+01 3.77129E+01 0.00000E+00
 -1       718 3.22741E+01 2.10868E+01 0.00000E+00
 -1       719 2.31681E+01 3.15478E+01 0.00000E+00
 -1       720 2.40827E+01 2.91722E+01 0.00000E+00
 -1       721 4.90331E+01 3.84822E+01 0.00000E+00
 -1       722 4.94580E+01 3.64838E+01 0.00000E+00
 -1       723 3.99512E+01 2.11131E+01 0.00000E+00
 -1       724 1.03920E+01 2.64500E+01 0.00000E+00
 -1       725 4.16100E+01 2.09898E+01 0.00000E+00
 -1       726 1.03920E+01 3.52625E+01 0.00000E+00
 -1       727 1.33741E+01 9.98153E+00 0.00000E+00
 -1       728 2.24393E+01 3.29567E+01 0.00000E+00
 -1       729 2.79368E+01 2.31787E+01 0.00000E+00
 -1       730 3.05190E+01 2.10225E+01 0.00000E+00
 -1       731 1.03920E+01 2.93875E+01 0.00000E+00
 -1       732 1.29900E+01 1.32000E+01 0.00000E+00
 -1       733 3.33801E+01 1.88371E+01 0.00000E+00
 -1       734 5.00067E+01 2.62516E+01 0.00000E+00
 -1       735 1.29900E+01 2.20250E+01 0.00000E+00
 -1       736 1.67250E+01 3.70100E+01 0.00000E+00
 -1       737 3.62060E+01 1.85269E+01 0.00000E+00
 -1       738 1.97250E+01 3.70100E+01 0.00000E+00
 -1       739 1.48741E+01 1.25795E+01 0.00000E+00
 -1       740 2.17121E+01 2.96234E+01 0.00000E+00
 -1       741 2.32036E+01 2.69770E+01 0.00000E+00
 -1       742 5.49750E+01 3.81956E+01 0.00000E+00
 -1       743 5.79750E+01 3.81956E+01 0.00000E+00
 -1       744 6.11250E+01 3.81956E+01 0.00000E+00
 -1       745 6.41250E+01 3.81956E+01 0.00000E+00
 -1       746 6.71250E+01 3.81956E+01 0.00000E+00
 -1       747 7.01250E+01 3.81956E+01 0.00000E+00
 -1       748 7.31250E+01 3.81956E+01 0.00000E+00
 -1       749 7.61250E+01 3.81956E+01 0.00000E+00
 -1       750 7.91250E+01 3.81956E+01 0.00000E+00
 -1       751 8.22750E+01 3.81956E+01 0.00000E+00
 -1       752 8.52750E+01 3.81956E+01 0.00000E+00
 -1       753 8.82750E+01 3.81956E+01 0.00000E+00
 -1       754 9.12750E+01 3.81956E+01 0.00000E+00
 -1       755 9.42750E+01 3.81956E+01 0.00000E+00
 -1       756 9.72750E+01 3.81956E+01 0.00000E+00
 -1       757 1.00275E+02 3.81956E+01 0.00000E+00
 -1       758 1.03425E+02 3.81956E+01 0.00000E+00
 -1       759 1.06425E+02 3.81956E+01 0.00000E+00
 -1       760 1.09425E+02 3.81956E+01 0.00000E+00
 -1       761 1.12425E+02 3.81956E+01 0.00000E+00
 -1       762 1.15425E+02 3.81956E+01 0.00000E+00
 -1       763 1.18425E+02 3.81956E+01 0.00000E+00
 -1       764 1.21425E+02 3.81956E+01 0.00000E+00
 -1       765 1.24575E+02 3.81956E+01 0.00000E+00
 -1       766 1.27575E+02 3.81956E+01 0.00000E+00
 -1       767 1.30575E+02 3.81956E+01 0.00000E+00
 -1       768 1.33575E+02 3.81956E+01 0.00000E+00
 -1       769 1.36575E+02 3.81956E+01 0.00000E+00
 -1       770 2.08740E+01 1.25795E+01 0.00000E+00
 -1       771 1.78740E+01 1.25795E+01 0.00000E+00
 -1       772 3.28740E+01 1.25795E+01 0.00000E+00
 -1       773 2.98740E+01 1.25795E+01 0.00000E+00
 -1       774 3.88740E+01 1.25795E+01 0.00000E+00
 -1       775 4.18740E+01 1.25795E+01 0.00000E+00
 -1       776 4.48740E+01 1.25795E+01 0.00000E+00
 -1       777 4.78740E+01 1.25795E+01 0.00000E+00
 -1       778 5.08740E+01 1.25795E+01 0.00000E+00
 -1       779 5.38740E+01 1.25795E+01 0.00000E+00
 -1       780 5.68740E+01 1.25795E+01 0.00000E+00
 -1       781 5.98740E+01 1.25795E+01 0.00000E+00
 -1       782 6.28740E+01 1.25795E+01 0.00000E+00
 -1       783 6.58740E+01 1.25795E+01 0.00000E+00
 -1       784 6.88740E+01 1.25795E+01 0.00000E+00
 -1       785 7.18740E+01 1.25795E+01 0.00000E+00
 -1       786 7.48740E+01 1.25795E+01 0.00000E+00
 -1       787 7.78740E+01 1.25795E+01 0.00000E+00
 -1       788 8.08740E+01 1.25795E+01 0.00000E+00
 -1       789 8.38740E+01 1.25795E+01 0.00000E+00
 -1       790 8.68740E+01 1.25795E+01 0.00000E+00
 -1       791 8.98740E+01 1.25795E+01 0.00000E+00
 -1       792 9.28740E+01 1.25795E+01 0.00000E+00
 -1       793 9.58740E+01 1.25795E+01 0.00000E+00
 -1       794 9.88740E+01 1.25795E+01 0.00000E+00
 -1       795 1.01874E+02 1.25795E+01 0.00000E+00
 -1       796 1.04874E+02 1.25795E+01 0.00000E+00
 -1       797 1.07874E+02 1.25795E+01 0.00000E+00
 -1       798 1.10874E+02 1.25795E+01 0.00000E+00
 -1       799 1.13874E+02 1.25795E+01 0.00000E+00
 -1       800 1.16874E+02 1.25795E+01 0.00000E+00
 -1       801 1.19874E+02 1.25795E+01 0.00000E+00
 -1       802 1.22874E+02 1.25795E+01 0.00000E+00
 -1       803 1.25874E+02 1.25795E+01 0.00000E+00
 -1       804 1.28874E+02 1.25795E+01 0.00000E+00
 -1       805 1.31874E+02 1.25795E+01 0.00000E+00
 -1       806 1.34874E+02 1.25795E+01 0.00000E+00
 -1       807 1.37161E+02 1.25093E+01 0.00000E+00
 -1       808 1.37010E+02 3.08750E+01 0.00000E+00
 -1       809 3.91800E+01 1.89838E+01 0.00000E+00
 -1       810 5.12027E+01 3.23223E+01 0.00000E+00
 -1       811 1.37010E+02 3.38250E+01 0.00000E+00
 -1       812 1.37010E+02 2.79750E+01 0.00000E+00
 -1       813 1.37010E+02 2.20750E+01 0.00000E+00
 -1       814 4.47659E+01 2.16918E+01 0.00000E+00
 -1       815 3.58740E+01 1.25795E+01 0.00000E+00
 -1       816 4.73790E+01 2.28266E+01 0.00000E+00
 -1       817 2.36364E+01 3.56349E+01 0.00000E+00
 -1       818 2.55092E+01 2.44079E+01 0.00000E+00
 -1       819 1.37010E+02 2.50250E+01 0.00000E+00
 -1       820 5.09232E+01 3.78397E+01 0.00000E+00
 -1       821 5.13913E+01 3.50925E+01 0.00000E+00
 -1       822 5.06974E+01 2.93487E+01 0.00000E+00
 -1       823 2.18507E+01 3.41709E+01 0.00000E+00
 -1       824 2.16807E+01 3.63225E+01 0.00000E+00
 -1       825 3.16250E+01 1.87728E+01 0.00000E+00
 -1       826 1.29900E+01 2.49750E+01 0.00000E+00
 -1       827 4.08388E+01 1.88606E+01 0.00000E+00
 -1       828 2.09833E+01 3.10323E+01 0.00000E+00
 -1       829 1.29900E+01 3.37938E+01 0.00000E+00
 -1       830 2.31587E+01 2.46672E+01 0.00000E+00
 -1       831 1.37010E+02 1.61938E+01 0.00000E+00
 -1       832 2.38740E+01 1.25795E+01 0.00000E+00
 -1       833 2.68740E+01 1.25795E+01 0.00000E+00
 -1       834 1.29900E+01 1.61375E+01 0.00000E+00
 -1       835 2.86239E+01 2.10708E+01 0.00000E+00
 -1       836 1.29900E+01 1.90812E+01 0.00000E+00
 -1       837 1.40027E+01 3.69017E+01 0.00000E+00
 -1       838 4.98008E+01 2.35784E+01 0.00000E+00
 -1       839 1.29900E+01 3.08563E+01 0.00000E+00
 -1       840 1.37010E+02 1.91313E+01 0.00000E+00
 -1       841 4.69558E+01 2.02249E+01 0.00000E+00
 -1       842 2.05258E+01 2.72112E+01 0.00000E+00
 -1       843 3.45145E+01 1.61443E+01 0.00000E+00
 -1       844 5.95500E+01 3.55976E+01 0.00000E+00
 -1       845 6.25500E+01 3.55976E+01 0.00000E+00
 -1       846 6.55500E+01 3.55976E+01 0.00000E+00
 -1       847 6.85500E+01 3.55976E+01 0.00000E+00
 -1       848 7.15500E+01 3.55976E+01 0.00000E+00
 -1       849 7.45500E+01 3.55976E+01 0.00000E+00
 -1       850 7.75500E+01 3.55976E+01 0.00000E+00
 -1       851 8.07000E+01 3.55976E+01 0.00000E+00
 -1       852 8.37000E+01 3.55976E+01 0.00000E+00
 -1       853 8.67000E+01 3.55976E+01 0.00000E+00
 -1       854 8.97000E+01 3.55976E+01 0.00000E+00
 -1       855 9.27000E+01 3.55976E+01 0.00000E+00
 -1       856 9.57000E+01 3.55976E+01 0.00000E+00
 -1       857 9.87000E+01 3.55976E+01 0.00000E+00
 -1       858 1.01850E+02 3.55976E+01 0.00000E+00
 -1       859 1.04850E+02 3.55976E+01 0.00000E+00
 -1       860 1.07850E+02 3.55976E+01 0.00000E+00
 -1       861 1.10850E+02 3.55976E+01 0.00000E+00
 -1       862 1.13850E+02 3.55976E+01 0.00000E+00
 -1       863 1.16850E+02 3.55976E+01 0.00000E+00
 -1       864 1.19850E+02 3.55976E+01 0.00000E+00
 -1       865 1.23000E+02 3.55976E+01 0.00000E+00
 -1       866 1.26000E+02 3.55976E+01 0.00000E+00
 -1       867 1.29000E+02 3.55976E+01 0.00000E+00
 -1       868 1.32000E+02 3.55976E+01 0.00000E+00
 -1       869 1.34505E+02 3.47113E+01 0.00000E+00
 -1       870 3.13740E+01 1.51775E+01 0.00000E+00
 -1       871 4.33740E+01 1.51775E+01 0.00000E+00
 -1       872 4.03740E+01 1.51775E+01 0.00000E+00
 -1       873 4.93740E+01 1.51775E+01 0.00000E+00
 -1       874 5.23740E+01 1.51775E+01 0.00000E+00
 -1       875 5.53740E+01 1.51775E+01 0.00000E+00
 -1       876 5.83740E+01 1.51775E+01 0.00000E+00
 -1       877 6.13740E+01 1.51775E+01 0.00000E+00
 -1       878 6.43740E+01 1.51775E+01 0.00000E+00
 -1       879 6.73740E+01 1.51775E+01 0.00000E+00
 -1       880 7.03740E+01 1.51775E+01 0.00000E+00
 -1       881 7.33740E+01 1.51775E+01 0.00000E+00
 -1       882 7.63740E+01 1.51775E+01 0.00000E+00
 -1       883 7.93740E+01 1.51775E+01 0.00000E+00
 -1       884 8.23740E+01 1.51775E+01 0.00000E+00
 -1       885 8.53740E+01 1.51775E+01 0.00000E+00
 -1       886 8.83740E+01 1.51775E+01 0.00000E+00
 -1       887 9.13740E+01 1.51775E+01 0.00000E+00
 -1       888 9.43740E+01 1.51775E+01 0.00000E+00
 -1       889 9.73740E+01 1.51775E+01 0.00000E+00
 -1       890 1.00374E+02 1.51775E+01 0.00000E+00
 -1       891 1.03374E+02 1.51775E+01 0.00000E+00
 -1       892 1.06374E+02 1.51775E+01 0.00000E+00
 -1       893 1.09374E+02 1.51775E+01 0.00000E+00
 -1       894 1.12374E+02 1.51775E+01 0.00000E+00
 -1       895 1.15374E+02 1.51775E+01 0.00000E+00
 -1       896 1.18374E+02 1.51775E+01 0.00000E+00
 -1       897 1.21374E+02 1.51775E+01 0.00000E+00
 -1       898 1.24374E+02 1.51775E+01 0.00000E+00
 -1       899 1.27374E+02 1.51775E+01 0.00000E+00
 -1       900 1.30374E+02 1.51775E+01 0.00000E+00
 -1       901 1.33374E+02 1.51775E+01 0.00000E+00
 -1       902 3.80298E+01 1.65633E+01 0.00000E+00
 -1       903 1.98950E+01 3.48584E+01 0.00000E+00
 -1       904 1.34412E+02 2.06031E+01 0.00000E+00
 -1       905 1.34505E+02 3.17613E+01 0.00000E+00
 -1       906 1.34505E+02 2.88613E+01 0.00000E+00
 -1       907 4.38973E+01 1.95427E+01 0.00000E+00
 -1       908 5.35097E+01 3.35567E+01 0.00000E+00
 -1       909 5.30044E+01 3.05831E+01 0.00000E+00
 -1       910 4.63740E+01 1.51775E+01 0.00000E+00
 -1       911 2.04391E+01 3.29453E+01 0.00000E+00
 -1       912 1.48741E+01 1.55170E+01 0.00000E+00
 -1       913 1.29900E+01 2.79188E+01 0.00000E+00
 -1       914 5.65500E+01 3.55976E+01 0.00000E+00
 -1       915 5.25167E+01 2.73174E+01 0.00000E+00
 -1       916 1.68950E+01 3.48584E+01 0.00000E+00
 -1       917 2.57969E+01 2.19642E+01 0.00000E+00
 -1       918 1.34412E+02 1.76656E+01 0.00000E+00
 -1       919 5.39707E+01 3.53450E+01 0.00000E+00
 -1       920 1.55880E+01 2.35000E+01 0.00000E+00
 -1       921 2.04809E+01 2.49015E+01 0.00000E+00
 -1       922 2.23740E+01 1.51775E+01 0.00000E+00
 -1       923 1.34412E+02 2.35531E+01 0.00000E+00
 -1       924 2.83740E+01 1.51775E+01 0.00000E+00
 -1       925 4.06064E+01 1.70190E+01 0.00000E+00
 -1       926 5.23107E+01 2.46442E+01 0.00000E+00
 -1       927 1.97969E+01 2.86201E+01 0.00000E+00
 -1       928 1.55880E+01 2.05562E+01 0.00000E+00
 -1       929 1.93740E+01 1.51775E+01 0.00000E+00
 -1       930 4.93776E+01 2.09767E+01 0.00000E+00
 -1       931 2.97299E+01 1.88212E+01 0.00000E+00
 -1       932 2.34464E+01 2.22235E+01 0.00000E+00
 -1       933 1.34458E+02 2.62072E+01 0.00000E+00
 -1       934 1.55880E+01 3.23250E+01 0.00000E+00
 -1       935 1.55880E+01 2.93875E+01 0.00000E+00
 -1       936 6.40500E+01 3.29996E+01 0.00000E+00
 -1       937 6.70500E+01 3.29996E+01 0.00000E+00
 -1       938 7.00500E+01 3.29996E+01 0.00000E+00
 -1       939 7.30500E+01 3.29996E+01 0.00000E+00
 -1       940 7.60500E+01 3.29996E+01 0.00000E+00
 -1       941 7.92000E+01 3.29996E+01 0.00000E+00
 -1       942 8.22000E+01 3.29996E+01 0.00000E+00
 -1       943 8.52000E+01 3.29996E+01 0.00000E+00
 -1       944 8.82000E+01 3.29996E+01 0.00000E+00
 -1       945 9.12000E+01 3.29996E+01 0.00000E+00
 -1       946 9.42000E+01 3.29996E+01 0.00000E+00
 -1       947 9.72000E+01 3.29996E+01 0.00000E+00
 -1       948 1.00350E+02 3.29996E+01 0.00000E+00
 -1       949 1.03350E+02 3.29996E+01 0.00000E+00
 -1       950 1.06350E+02 3.29996E+01 0.00000E+00
 -1       951 1.09350E+02 3.29996E+01 0.00000E+00
 -1       952 1.12350E+02 3.29996E+01 0.00000E+00
 -1       953 1.15350E+02 3.29996E+01 0.00000E+00
 -1       954 1.18350E+02 3.29996E+01 0.00000E+00
 -1       955 1.21500E+02 3.29996E+01 0.00000E+00
 -1       956 1.24500E+02 3.29996E+01 0.00000E+00
 -1       957 1.27500E+02 3.29996E+01 0.00000E+00
 -1       958 1.30500E+02 3.29996E+01 0.00000E+00
 -1       959 1.32503E+02 3.23804E+01 0.00000E+00
 -1       960 5.38740E+01 1.77755E+01 0.00000E+00
 -1       961 5.08740E+01 1.77755E+01 0.00000E+00
 -1       962 5.98740E+01 1.77755E+01 0.00000E+00
 -1       963 6.28740E+01 1.77755E+01 0.00000E+00
 -1       964 6.58740E+01 1.77755E+01 0.00000E+00
 -1       965 6.88740E+01 1.77755E+01 0.00000E+00
 -1       966 7.18740E+01 1.77755E+01 0.00000E+00
 -1       967 7.48740E+01 1.77755E+01 0.00000E+00
 -1       968 7.78740E+01 1.77755E+01 0.00000E+00
 -1       969 8.08740E+01 1.77755E+01 0.00000E+00
 -1       970 8.38740E+01 1.77755E+01 0.00000E+00
 -1       971 8.68740E+01 1.77755E+01 0.00000E+00
 -1       972 8.98740E+01 1.77755E+01 0.00000E+00
 -1       973 9.28740E+01 1.77755E+01 0.00000E+00
 -1       974 9.58740E+01 1.77755E+01 0.00000E+00
 -1       975 9.88740E+01 1.77755E+01 0.00000E+00
 -1       976 1.01874E+02 1.77755E+01 0.00000E+00
 -1       977 1.04874E+02 1.77755E+01 0.00000E+00
 -1       978 1.07874E+02 1.77755E+01 0.00000E+00
 -1       979 1.10874E+02 1.77755E+01 0.00000E+00
 -1       980 1.13874E+02 1.77755E+01 0.00000E+00
 -1       981 1.16874E+02 1.77755E+01 0.00000E+00
 -1       982 1.19874E+02 1.77755E+01 0.00000E+00
 -1       983 1.22874E+02 1.77755E+01 0.00000E+00
 -1       984 1.25874E+02 1.77755E+01 0.00000E+00
 -1       985 1.28874E+02 1.77755E+01 0.00000E+00
 -1       986 1.31643E+02 1.77206E+01 0.00000E+00
 -1       987 1.32503E+02 2.94804E+01 0.00000E+00
 -1       988 5.56088E+01 3.16703E+01 0.00000E+00
 -1       989 1.52310E+01 1.80366E+01 0.00000E+00
 -1       990 1.55880E+01 2.64438E+01 0.00000E+00
 -1       991 5.68740E+01 1.77755E+01 0.00000E+00
 -1       992 5.80500E+01 3.29996E+01 0.00000E+00
 -1       993 5.57799E+01 3.32782E+01 0.00000E+00
 -1       994 1.80136E+01 3.26352E+01 0.00000E+00
 -1       995 6.10500E+01 3.29996E+01 0.00000E+00
 -1       996 2.53740E+01 1.51775E+01 0.00000E+00
 -1       997 2.65421E+01 1.94027E+01 0.00000E+00
 -1       998 5.51211E+01 2.84046E+01 0.00000E+00
 -1       999 1.81184E+01 2.61027E+01 0.00000E+00
 -1      1000 2.41917E+01 1.96621E+01 0.00000E+00
 -1      1001 1.31814E+02 2.20781E+01 0.00000E+00
 -1      1002 2.07685E+01 2.24577E+01 0.00000E+00
 -1      1003 1.85577E+01 3.07221E+01 0.00000E+00
 -1      1004 4.36649E+01 1.77012E+01 0.00000E+00
 -1      1005 1.32456E+02 2.68264E+01 0.00000E+00
 -1      1006 5.18876E+01 2.20425E+01 0.00000E+00
 -1      1007 5.49151E+01 2.57314E+01 0.00000E+00
 -1      1008 4.67234E+01 1.83833E+01 0.00000E+00
 -1      1009 2.08740E+01 1.77755E+01 0.00000E+00
 -1      1010 4.91452E+01 1.91352E+01 0.00000E+00
 -1      1011 1.81860E+01 2.20281E+01 0.00000E+00
 -1      1012 2.08213E+01 2.01166E+01 0.00000E+00
 -1      1013 1.73195E+01 1.79379E+01 0.00000E+00
 -1      1014 6.55500E+01 3.04016E+01 0.00000E+00
 -1      1015 5.53740E+01 2.03735E+01 0.00000E+00
 -1      1016 6.85500E+01 3.04016E+01 0.00000E+00
 -1      1017 7.15500E+01 3.04016E+01 0.00000E+00
 -1      1018 7.45500E+01 3.04016E+01 0.00000E+00
 -1      1019 7.77000E+01 3.04016E+01 0.00000E+00
 -1      1020 8.07000E+01 3.04016E+01 0.00000E+00
 -1      1021 8.37000E+01 3.04016E+01 0.00000E+00
 -1      1022 8.67000E+01 3.04016E+01 0.00000E+00
 -1      1023 8.97000E+01 3.04016E+01 0.00000E+00
 -1      1024 9.27000E+01 3.04016E+01 0.00000E+00
 -1      1025 9.57000E+01 3.04016E+01 0.00000E+00
 -1      1026 9.88500E+01 3.04016E+01 0.00000E+00
 -1      1027 1.01850E+02 3.04016E+01 0.00000E+00
 -1      1028 1.04850E+02 3.04016E+01 0.00000E+00
 -1      1029 1.07850E+02 3.04016E+01 0.00000E+00
 -1      1030 1.10850E+02 3.04016E+01 0.00000E+00
 -1      1031 1.13850E+02 3.04016E+01 0.00000E+00
 -1      1032 1.16850E+02 3.04016E+01 0.00000E+00
 -1      1033 1.20000E+02 3.04016E+01 0.00000E+00
 -1      1034 1.23000E+02 3.04016E+01 0.00000E+00
 -1      1035 1.26000E+02 3.04016E+01 0.00000E+00
 -1      1036 1.29000E+02 3.04016E+01 0.00000E+00
 -1      1037 1.30751E+02 2.99410E+01 0.00000E+00
 -1      1038 6.73740E+01 2.03735E+01 0.00000E+00
 -1      1039 6.43740E+01 2.03735E+01 0.00000E+00
 -1      1040 6.13740E+01 2.03735E+01 0.00000E+00
 -1      1041 7.03740E+01 2.03735E+01 0.00000E+00
 -1      1042 7.33740E+01 2.03735E+01 0.00000E+00
 -1      1043 7.63740E+01 2.03735E+01 0.00000E+00
 -1      1044 7.93740E+01 2.03735E+01 0.00000E+00
 -1      1045 8.23740E+01 2.03735E+01 0.00000E+00
 -1      1046 8.53740E+01 2.03735E+01 0.00000E+00
 -1      1047 8.83740E+01 2.03735E+01 0.00000E+00
 -1      1048 9.13740E+01 2.03735E+01 0.00000E+00
 -1      1049 9.43740E+01 2.03735E+01 0.00000E+00
 -1      1050 9.73740E+01 2.03735E+01 0.00000E+00
 -1      1051 1.00374E+02 2.03735E+01 0.00000E+00
 -1      1052 1.03374E+02 2.03735E+01 0.00000E+00
 -1      1053 1.06374E+02 2.03735E+01 0.00000E+00
 -1      1054 1.09374E+02 2.03735E+01 0.00000E+00
 -1      1055 1.12374E+02 2.03735E+01 0.00000E+00
 -1      1056 1.15374E+02 2.03735E+01 0.00000E+00
 -1      1057 1.18374E+02 2.03735E+01 0.00000E+00
 -1      1058 1.21374E+02 2.03735E+01 0.00000E+00
 -1      1059 1.24374E+02 2.03735E+01 0.00000E+00
 -1      1060 1.27374E+02 2.03735E+01 0.00000E+00
 -1      1061 1.29594E+02 2.12258E+01 0.00000E+00
 -1      1062 5.75623E+01 2.97339E+01 0.00000E+00
 -1      1063 5.83740E+01 2.03735E+01 0.00000E+00
 -1      1064 1.32135E+02 2.44522E+01 0.00000E+00
 -1      1065 6.25500E+01 3.04016E+01 0.00000E+00
 -1      1066 1.30705E+02 2.72869E+01 0.00000E+00
 -1      1067 1.29915E+02 2.35999E+01 0.00000E+00
 -1      1068 5.73563E+01 2.70606E+01 0.00000E+00
 -1      1069 5.51445E+01 2.30524E+01 0.00000E+00
 -1      1070 7.00500E+01 2.78036E+01 0.00000E+00
 -1      1071 7.30500E+01 2.78036E+01 0.00000E+00
 -1      1072 7.62000E+01 2.78036E+01 0.00000E+00
 -1      1073 7.92000E+01 2.78036E+01 0.00000E+00
 -1      1074 8.22000E+01 2.78036E+01 0.00000E+00
 -1      1075 8.52000E+01 2.78036E+01 0.00000E+00
 -1      1076 8.82000E+01 2.78036E+01 0.00000E+00
 -1      1077 9.12000E+01 2.78036E+01 0.00000E+00
 -1      1078 9.42000E+01 2.78036E+01 0.00000E+00
 -1      1079 9.73500E+01 2.78036E+01 0.00000E+00
 -1      1080 1.00350E+02 2.78036E+01 0.00000E+00
 -1      1081 1.03350E+02 2.78036E+01 0.00000E+00
 -1      1082 1.06350E+02 2.78036E+01 0.00000E+00
 -1      1083 1.09350E+02 2.78036E+01 0.00000E+00
 -1      1084 1.12350E+02 2.78036E+01 0.00000E+00
 -1      1085 1.15350E+02 2.78036E+01 0.00000E+00
 -1      1086 1.18500E+02 2.78036E+01 0.00000E+00
 -1      1087 1.21500E+02 2.78036E+01 0.00000E+00
 -1      1088 1.24500E+02 2.78036E+01 0.00000E+00
 -1      1089 1.27500E+02 2.78036E+01 0.00000E+00
 -1      1090 1.29102E+02 2.75453E+01 0.00000E+00
 -1      1091 6.58740E+01 2.29715E+01 0.00000E+00
 -1      1092 6.28740E+01 2.29715E+01 0.00000E+00
 -1      1093 7.48740E+01 2.29715E+01 0.00000E+00
 -1      1094 7.78740E+01 2.29715E+01 0.00000E+00
 -1      1095 8.08740E+01 2.29715E+01 0.00000E+00
 -1      1096 8.38740E+01 2.29715E+01 0.00000E+00
 -1      1097 8.68740E+01 2.29715E+01 0.00000E+00
 -1      1098 8.98740E+01 2.29715E+01 0.00000E+00
 -1      1099 9.28740E+01 2.29715E+01 0.00000E+00
 -1      1100 9.58740E+01 2.29715E+01 0.00000E+00
 -1      1101 9.88740E+01 2.29715E+01 0.00000E+00
 -1      1102 1.01874E+02 2.29715E+01 0.00000E+00
 -1      1103 1.04874E+02 2.29715E+01 0.00000E+00
 -1      1104 1.07874E+02 2.29715E+01 0.00000E+00
 -1      1105 1.10874E+02 2.29715E+01 0.00000E+00
 -1      1106 1.13874E+02 2.29715E+01 0.00000E+00
 -1      1107 1.16874E+02 2.29715E+01 0.00000E+00
 -1      1108 1.19874E+02 2.29715E+01 0.00000E+00
 -1      1109 1.22874E+02 2.29715E+01 0.00000E+00
 -1      1110 1.25874E+02 2.29715E+01 0.00000E+00
 -1      1111 1.27895E+02 2.32857E+01 0.00000E+00
 -1      1112 7.18740E+01 2.29715E+01 0.00000E+00
 -1      1113 5.98740E+01 2.29715E+01 0.00000E+00
 -1      1114 6.88740E+01 2.29715E+01 0.00000E+00
 -1      1115 1.30310E+02 2.54434E+01 0.00000E+00
 -1      1116 5.75093E+01 2.30120E+01 0.00000E+00
 -1      1117 6.70500E+01 2.78036E+01 0.00000E+00
 -1      1118 6.40500E+01 2.78036E+01 0.00000E+00
 -1      1119 5.74328E+01 2.50363E+01 0.00000E+00
 -1      1120 6.07032E+01 2.74321E+01 0.00000E+00
 -1      1121 6.85500E+01 2.52056E+01 0.00000E+00
 -1      1122 7.46250E+01 2.52056E+01 0.00000E+00
 -1      1123 6.43740E+01 2.55695E+01 0.00000E+00
 -1      1124 7.09620E+01 2.53875E+01 0.00000E+00
 -1      1125 1.28498E+02 2.54155E+01 0.00000E+00
 -1      1126 0.00000E+00 4.85250E+01 0.00000E+00
 -1      1127 0.00000E+00 4.55750E+01 0.00000E+00
 -1      1128 0.00000E+00 4.26250E+01 0.00000E+00
 -1      1129 0.00000E+00 3.96750E+01 0.00000E+00
 -1      1130 0.00000E+00 3.67250E+01 0.00000E+00
 -1      1131 0.00000E+00 3.38000E+01 0.00000E+00
 -1      1132 0.00000E+00 3.08750E+01 0.00000E+00
 -1      1133 0.00000E+00 2.79250E+01 0.00000E+00
 -1      1134 0.00000E+00 2.49750E+01 0.00000E+00
 -1      1135 0.00000E+00 2.20250E+01 0.00000E+00
 -1      1136 0.00000E+00 1.90750E+01 0.00000E+00
 -1      1137 0.00000E+00 1.61500E+01 0.00000E+00
 -1      1138 0.00000E+00 1.32250E+01 0.00000E+00
 -1      1139 0.00000E+00 1.02750E+01 0.00000E+00
 -1      1140 0.00000E+00 7.32500E+00 0.00000E+00
 -1      1141 0.00000E+00 4.37500E+00 0.00000E+00
 -1      1142 0.00000E+00 1.45000E+00 0.00000E+00
 -1      1143 1.57500E+00 5.00000E+01 0.00000E+00
 -1      1144 4.65000E+00 5.00000E+01 0.00000E+00
 -1      1145 7.65000E+00 5.00000E+01 0.00000E+00
 -1      1146 1.06500E+01 5.00000E+01 0.00000E+00
 -1      1147 1.36500E+01 5.00000E+01 0.00000E+00
 -1      1148 1.66500E+01 5.00000E+01 0.00000E+00
 -1      1149 1.97250E+01 5.00000E+01 0.00000E+00
 -1      1150 2.28000E+01 5.00000E+01 0.00000E+00
 -1      1151 2.58000E+01 5.00000E+01 0.00000E+00
 -1      1152 2.88000E+01 5.00000E+01 0.00000E+00
 -1      1153 3.18000E+01 5.00000E+01 0.00000E+00
 -1      1154 3.45750E+01 5.00000E+01 0.00000E+00
 -1      1155 3.71250E+01 5.00000E+01 0.00000E+00
 -1      1156 3.99000E+01 5.00000E+01 0.00000E+00
 -1      1157 4.28250E+01 5.00000E+01 0.00000E+00
 -1      1158 4.58250E+01 5.00000E+01 0.00000E+00
 -1      1159 4.89000E+01 5.00000E+01 0.00000E+00
 -1      1160 5.19000E+01 5.00000E+01 0.00000E+00
 -1      1161 5.49000E+01 5.00000E+01 0.00000E+00
 -1      1162 5.79000E+01 5.00000E+01 0.00000E+00
 -1      1163 6.09000E+01 5.00000E+01 0.00000E+00
 -1      1164 6.39000E+01 5.00000E+01 0.00000E+00
 -1      1165 6.69750E+01 5.00000E+01 0.00000E+00
 -1      1166 7.00500E+01 5.00000E+01 0.00000E+00
 -1      1167 7.30500E+01 5.00000E+01 0.00000E+00
 -1      1168 7.60500E+01 5.00000E+01 0.00000E+00
 -1      1169 7.90500E+01 5.00000E+01 0.00000E+00
 -1      1170 8.20500E+01 5.00000E+01 0.00000E+00
 -1      1171 8.50500E+01 5.00000E+01 0.00000E+00
 -1      1172 8.81250E+01 5.00000E+01 0.00000E+00
 -1      1173 9.12000E+01 5.00000E+01 0.00000E+00
 -1      1174 9.42000E+01 5.00000E+01 0.00000E+00
 -1      1175 9.72000E+01 5.00000E+01 0.00000E+00
 -1      1176 1.00200E+02 5.00000E+01 0.00000E+00
 -1      1177 1.03200E+02 5.00000E+01 0.00000E+00
 -1      1178 1.06200E+02 5.00000E+01 0.00000E+00
 -1      1179 1.09275E+02 5.00000E+01 0.00000E+00
 -1      1180 1.12350E+02 5.00000E+01 0.00000E+00
 -1      1181 1.15350E+02 5.00000E+01 0.00000E+00
 -1      1182 1.18350E+02 5.00000E+01 0.00000E+00
 -1      1183 1.21350E+02 5.00000E+01 0.00000E+00
 -1      1184 1.24350E+02 5.00000E+01 0.00000E+00
 -1      1185 1.27350E+02 5.00000E+01 0.00000E+00
 -1      1186 1.30425E+02 5.00000E+01 0.00000E+00
 -1      1187 1.33500E+02 5.00000E+01 0.00000E+00
 -1      1188 1.36500E+02 5.00000E+01 0.00000E+00
 -1      1189 1.39500E+02 5.00000E+01 0.00000E+00
 -1      1190 1.42500E+02 5.00000E+01 0.00000E+00
 -1      1191 1.45500E+02 5.00000E+01 0.00000E+00
 -1      1192 1.48500E+02 5.00000E+01 0.00000E+00
 -1      1193 1.57500E+00 0.00000E+00 0.00000E+00
 -1      1194 4.65000E+00 0.00000E+00 0.00000E+00
 -1      1195 7.65000E+00 0.00000E+00 0.00000E+00
 -1      1196 1.06500E+01 0.00000E+00 0.00000E+00
 -1      1197 1.36500E+01 0.00000E+00 0.00000E+00
 -1      1198 1.66500E+01 0.00000E+00 0.00000E+00
 -1      1199 1.96500E+01 0.00000E+00 0.00000E+00
 -1      1200 2.26500E+01 0.00000E+00 0.00000E+00
 -1      1201 2.56500E+01 0.00000E+00 0.00000E+00
 -1      1202 2.86500E+01 0.00000E+00 0.00000E+00
 -1      1203 3.16500E+01 0.00000E+00 0.00000E+00
 -1      1204 3.46500E+01 0.00000E+00 0.00000E+00
 -1      1205 3.76500E+01 0.00000E+00 0.00000E+00
 -1      1206 4.06500E+01 0.00000E+00 0.00000E+00
 -1      1207 4.36500E+01 0.00000E+00 0.00000E+00
 -1      1208 4.66500E+01 0.00000E+00 0.00000E+00
 -1      1209 4.96500E+01 0.00000E+00 0.00000E+00
 -1      1210 5.26500E+01 0.00000E+00 0.00000E+00
 -1      1211 5.56500E+01 0.00000E+00 0.00000E+00
 -1      1212 5.86500E+01 0.00000E+00 0.00000E+00
 -1      1213 6.16500E+01 0.00000E+00 0.00000E+00
 -1      1214 6.46500E+01 0.00000E+00 0.00000E+00
 -1      1215 6.76500E+01 0.00000E+00 0.00000E+00
 -1      1216 7.06500E+01 0.00000E+00 0.00000E+00
 -1      1217 7.36500E+01 0.00000E+00 0.00000E+00
 -1      1218 7.66500E+01 0.00000E+00 0.00000E+00
 -1      1219 7.96500E+01 0.00000E+00 0.00000E+00
 -1      1220 8.26500E+01 0.00000E+00 0.00000E+00
 -1      1221 8.56500E+01 0.00000E+00 0.00000E+00
 -1      1222 8.86500E+01 0.00000E+00 0.00000E+00
 -1      1223 9.16500E+01 0.00000E+00 0.00000E+00
 -1      1224 9.46500E+01 0.00000E+00 0.00000E+00
 -1      1225 9.76500E+01 0.00000E+00 0.00000E+00
 -1      1226 1.00650E+02 0.00000E+00 0.00000E+00
 -1      1227 1.03650E+02 0.00000E+00 0.00000E+00
 -1      1228 1.06650E+02 0.00000E+00 0.00000E+00
 -1      1229 1.09650E+02 0.00000E+00 0.00000E+00
 -1      1230 1.12650E+02 0.00000E+00 0.00000E+00
 -1      1231 1.15650E+02 0.00000E+00 0.00000E+00
 -1      1232 1.18650E+02 0.00000E+00 0.00000E+00
 -1      1233 1.21650E+02 0.00000E+00 0.00000E+00
 -1      1234 1.24650E+02 0.00000E+00 0.00000E+00
 -1      1235 1.27650E+02 0.00000E+00 0.00000E+00
 -1      1236 1.30650E+02 0.00000E+00 0.00000E+00
 -1      1237 1.33650E+02 0.00000E+00 0.00000E+00
 -1      1238 1.36650E+02 0.00000E+00 0.00000E+00
 -1      1239 1.39650E+02 0.00000E+00 0.00000E+00
 -1      1240 1.42650E+02 0.00000E+00 0.00000E+00
 -1      1241 1.45650E+02 0.00000E+00 0.00000E+00
 -1      1242 1.48575E+02 0.00000E+00 0.00000E+00
 -1      1243 1.50000E+02 1.47500E+00 0.00000E+00
 -1      1244 1.50000E+02 4.42500E+00 0.00000E+00
 -1      1245 1.50000E+02 7.37500E+00 0.00000E+00
 -1      1246 1.50000E+02 1.03250E+01 0.00000E+00
 -1      1247 1.50000E+02 1.32750E+01 0.00000E+00
 -1      1248 1.50000E+02 1.62000E+01 0.00000E+00
 -1      1249 1.50000E+02 1.91250E+01 0.00000E+00
 -1      1250 1.50000E+02 2.20750E+01 0.00000E+00
 -1      1251 1.50000E+02 2.50250E+01 0.00000E+00
 -1      1252 1.50000E+02 2.79750E+01 0.00000E+00
 -1      1253 1.50000E+02 3.09250E+01 0.00000E+00
 -1      1254 1.50000E+02 3.38500E+01 0.00000E+00
 -1      1255 1.50000E+02 3.67750E+01 0.00000E+00
 -1      1256 1.50000E+02 3.97250E+01 0.00000E+00
 -1      1257 1.50000E+02 4.26750E+01 0.00000E+00
 -1      1258 1.50000E+02 4.56250E+01 0.00000E+00
 -1      1259 1.50000E+02 4.85500E+01 0.00000E+00
 -1      1260 4.33963E+01 3.29374E+01 0.00000E+00
 -1      1261 4.30997E+01 3.15159E+01 0.00000E+00
 -1      1262 4.25007E+01 3.01592E+01 0.00000E+00
 -1      1263 4.16414E+01 2.89725E+01 0.00000E+00
 -1      1264 4.04965E+01 2.79493E+01 0.00000E+00
 -1      1265 3.91537E+01 2.71993E+01 0.00000E+00
 -1      1266 3.77466E+01 2.67732E+01 0.00000E+00
 -1      1267 3.62698E+01 2.66507E+01 0.00000E+00
 -1      1268 3.48065E+01 2.68402E+01 0.00000E+00
 -1      1269 3.34348E+01 2.73231E+01 0.00000E+00
 -1      1270 3.21034E+01 2.81480E+01 0.00000E+00
 -1      1271 3.09624E+01 2.92809E+01 0.00000E+00
 -1      1272 3.01556E+01 3.05505E+01 0.00000E+00
 -1      1273 2.96442E+01 3.19405E+01 0.00000E+00
 -1      1274 2.94360E+01 3.34271E+01 0.00000E+00
 -1      1275 2.95651E+01 3.50046E+01 0.00000E+00
 -1      1276 3.00162E+01 3.64471E+01 0.00000E+00
 -1      1277 3.07157E+01 3.76882E+01 0.00000E+00
 -1      1278 3.16765E+01 3.87850E+01 0.00000E+00
 -1      1279 3.28760E+01 3.96779E+01 0.00000E+00
 -1      1280 3.42337E+01 4.02945E+01 0.00000E+00
 -1      1281 3.56782E+01 4.06080E+01 0.00000E+00
 -1      1282 3.71397E+01 4.06130E+01 0.00000E+00
 -1      1283 3.84847E+01 4.03412E+01 0.00000E+00
 -1      1284 3.97169E+01 3.98304E+01 0.00000E+00
 -1      1285 4.08315E+01 3.90938E+01 0.00000E+00
 -1      1286 4.18053E+01 3.81358E+01 0.00000E+00
 -1      1287 4.25729E+01 3.70097E+01 0.00000E+00
 -1      1288 4.31042E+01 3.57675E+01 0.00000E+00
 -1      1289 4.33943E+01 3.43793E+01 0.00000E+00
 -1      1290 1.57500E+00 4.85250E+01 0.00000E+00
 -1      1291 1.29900E+00 4.48375E+01 0.00000E+00
 -1      1292 1.29900E+00 4.63125E+01 0.00000E+00
 -1      1293 1.29900E+00 4.18875E+01 0.00000E+00
 -1      1294 1.29900E+00 4.33625E+01 0.00000E+00
 -1      1295 2.59800E+00 4.41000E+01 0.00000E+00
 -1      1296 1.29900E+00 3.89375E+01 0.00000E+00
 -1      1297 1.29900E+00 4.04125E+01 0.00000E+00
 -1      1298 2.59800E+00 4.11500E+01 0.00000E+00
 -1      1299 1.29900E+00 3.59875E+01 0.00000E+00
 -1      1300 1.29900E+00 3.74625E+01 0.00000E+00
 -1      1301 2.59800E+00 3.82000E+01 0.00000E+00
 -1      1302 1.29900E+00 3.30875E+01 0.00000E+00
 -1      1303 1.29900E+00 3.45375E+01 0.00000E+00
 -1      1304 2.59800E+00 3.52750E+01 0.00000E+00
 -1      1305 1.29900E+00 3.01375E+01 0.00000E+00
 -1      1306 1.29900E+00 3.16125E+01 0.00000E+00
 -1      1307 2.59800E+00 3.23500E+01 0.00000E+00
 -1      1308 1.29900E+00 2.71875E+01 0.00000E+00
 -1      1309 1.29900E+00 2.86625E+01 0.00000E+00
 -1      1310 2.59800E+00 2.94000E+01 0.00000E+00
 -1      1311 1.29900E+00 2.42375E+01 0.00000E+00
 -1      1312 1.29900E+00 2.57125E+01 0.00000E+00
 -1      1313 2.59800E+00 2.64500E+01 0.00000E+00
 -1      1314 1.29900E+00 2.12875E+01 0.00000E+00
 -1      1315 1.29900E+00 2.27625E+01 0.00000E+00
 -1      1316 2.59800E+00 2.35000E+01 0.00000E+00
 -1      1317 1.29900E+00 1.83375E+01 0.00000E+00
 -1      1318 1.29900E+00 1.98125E+01 0.00000E+00
 -1      1319 2.59800E+00 2.05500E+01 0.00000E+00
 -1      1320 1.29900E+00 1.54375E+01 0.00000E+00
 -1      1321 1.29900E+00 1.68875E+01 0.00000E+00
 -1      1322 2.59800E+00 1.76250E+01 0.00000E+00
 -1      1323 1.29900E+00 1.24875E+01 0.00000E+00
 -1      1324 1.29900E+00 1.39625E+01 0.00000E+00
 -1      1325 2.59800E+00 1.47000E+01 0.00000E+00
 -1      1326 1.29900E+00 9.53750E+00 0.00000E+00
 -1      1327 1.29900E+00 1.10125E+01 0.00000E+00
 -1      1328 2.59800E+00 1.17500E+01 0.00000E+00
 -1      1329 1.29900E+00 6.58750E+00 0.00000E+00
 -1      1330 1.29900E+00 8.06250E+00 0.00000E+00
 -1      1331 2.59800E+00 8.80000E+00 0.00000E+00
 -1      1332 1.29900E+00 3.63750E+00 0.00000E+00
 -1      1333 1.29900E+00 5.11250E+00 0.00000E+00
 -1      1334 2.59800E+00 5.85000E+00 0.00000E+00
 -1      1335 1.43700E+00 1.09375E+00 0.00000E+00
 -1      1336 1.43700E+00 2.54375E+00 0.00000E+00
 -1      1337 2.73600E+00 3.28125E+00 0.00000E+00
 -1      1338 3.01200E+00 1.09375E+00 0.00000E+00
 -1      1339 3.90000E+00 4.87010E+01 0.00000E+00
 -1      1340 5.40000E+00 4.87010E+01 0.00000E+00
 -1      1341 6.90000E+00 4.87010E+01 0.00000E+00
 -1      1342 8.40000E+00 4.87010E+01 0.00000E+00
 -1      1343 6.15000E+00 4.74020E+01 0.00000E+00
 -1      1344 9.90000E+00 4.87010E+01 0.00000E+00
 -1      1345 1.14000E+01 4.87010E+01 0.00000E+00
 -1      1346 9.15000E+00 4.74020E+01 0.00000E+00
 -1      1347 1.29000E+01 4.87010E+01 0.00000E+00
 -1      1348 1.44000E+01 4.87010E+01 0.00000E+00
 -1      1349 1.21500E+01 4.74020E+01 0.00000E+00
 -1      1350 1.59000E+01 4.87010E+01 0.00000E+00
 -1      1351 1.74000E+01 4.87010E+01 0.00000E+00
 -1      1352 1.51500E+01 4.74020E+01 0.00000E+00
 -1      1353 1.89750E+01 4.87010E+01 0.00000E+00
 -1      1354 2.05500E+01 4.87010E+01 0.00000E+00
 -1      1355 1.82250E+01 4.74020E+01 0.00000E+00
 -1      1356 2.20500E+01 4.87010E+01 0.00000E+00
 -1      1357 2.35500E+01 4.87010E+01 0.00000E+00
 -1      1358 2.13000E+01 4.74020E+01 0.00000E+00
 -1      1359 2.50500E+01 4.87010E+01 0.00000E+00
 -1      1360 2.65500E+01 4.87010E+01 0.00000E+00
 -1      1361 2.43000E+01 4.74020E+01 0.00000E+00
 -1      1362 2.80500E+01 4.87010E+01 0.00000E+00
 -1      1363 2.95500E+01 4.87010E+01 0.00000E+00
 -1      1364 2.73000E+01 4.74020E+01 0.00000E+00
 -1      1365 3.10500E+01 4.87010E+01 0.00000E+00
 -1      1366 3.25500E+01 4.87010E+01 0.00000E+00
 -1      1367 3.03000E+01 4.74020E+01 0.00000E+00
 -1      1368 3.38250E+01 4.87010E+01 0.00000E+00
 -1      1369 3.51000E+01 4.87010E+01 0.00000E+00
 -1      1370 3.30750E+01 4.74020E+01 0.00000E+00
 -1      1371 3.63750E+01 4.87010E+01 0.00000E+00
 -1      1372 3.76500E+01 4.87010E+01 0.00000E+00
 -1      1373 3.56250E+01 4.74020E+01 0.00000E+00
 -1      1374 3.91500E+01 4.87010E+01 0.00000E+00
 -1      1375 4.06500E+01 4.87010E+01 0.00000E+00
 -1      1376 3.84000E+01 4.74020E+01 0.00000E+00
 -1      1377 4.20750E+01 4.87010E+01 0.00000E+00
 -1      1378 4.35000E+01 4.87010E+01 0.00000E+00
 -1      1379 4.13250E+01 4.74020E+01 0.00000E+00
 -1      1380 4.50750E+01 4.87010E+01 0.00000E+00
 -1      1381 4.66500E+01 4.87010E+01 0.00000E+00
 -1      1382 4.43250E+01 4.74020E+01 0.00000E+00
 -1      1383 4.81500E+01 4.87010E+01 0.00000E+00
 -1      1384 4.96500E+01 4.87010E+01 0.00000E+00
 -1      1385 4.74000E+01 4.74020E+01 0.00000E+00
 -1      1386 5.11500E+01 4.87010E+01 0.00000E+00
 -1      1387 5.26500E+01 4.87010E+01 0.00000E+00
 -1      1388 5.04000E+01 4.74020E+01 0.00000E+00
 -1      1389 5.41500E+01 4.87010E+01 0.00000E+00
 -1      1390 5.56500E+01 4.87010E+01 0.00000E+00
 -1      1391 5.34000E+01 4.74020E+01 0.00000E+00
 -1      1392 5.71500E+01 4.87010E+01 0.00000E+00
 -1      1393 5.86500E+01 4.87010E+01 0.00000E+00
 -1      1394 5.64000E+01 4.74020E+01 0.00000E+00
 -1      1395 6.01500E+01 4.87010E+01 0.00000E+00
 -1      1396 6.16500E+01 4.87010E+01 0.00000E+00
 -1      1397 5.94000E+01 4.74020E+01 0.00000E+00
 -1      1398 6.31500E+01 4.87010E+01 0.00000E+00
 -1      1399 6.46500E+01 4.87010E+01 0.00000E+00
 -1      1400 6.24000E+01 4.74020E+01 0.00000E+00
 -1      1401 6.62250E+01 4.87010E+01 0.00000E+00
 -1      1402 6.78000E+01 4.87010E+01 0.00000E+00
 -1      1403 6.54750E+01 4.74020E+01 0.00000E+00
 -1      1404 6.93000E+01 4.87010E+01 0.00000E+00
 -1      1405 7.08000E+01 4.87010E+01 0.00000E+00
 -1      1406 6.85500E+01 4.74020E+01 0.00000E+00
 -1      1407 7.23000E+01 4.87010E+01 0.00000E+00
 -1      1408 7.38000E+01 4.87010E+01 0.00000E+00
 -1      1409 7.15500E+01 4.74020E+01 0.00000E+00
 -1      1410 7.53000E+01 4.87010E+01 0.00000E+00
 -1      1411 7.68000E+01 4.87010E+01 0.00000E+00
 -1      1412 7.45500E+01 4.74020E+01 0.00000E+00
 -1      1413 7.83000E+01 4.87010E+01 0.00000E+00
 -1      1414 7.98000E+01 4.87010E+01 0.00000E+00
 -1      1415 7.75500E+01 4.74020E+01 0.00000E+00
 -1      1416 8.13000E+01 4.87010E+01 0.00000E+00
 -1      1417 8.28000E+01 4.87010E+01 0.00000E+00
 -1      1418 8.05500E+01 4.74020E+01 0.00000E+00
 -1      1419 8.43000E+01 4.87010E+01 0.00000E+00
 -1      1420 8.58000E+01 4.87010E+01 0.00000E+00
 -1      1421 8.35500E+01 4.74020E+01 0.00000E+00
 -1      1422 8.73750E+01 4.87010E+01 0.00000E+00
 -1      1423 8.89500E+01 4.87010E+01 0.00000E+00
 -1      1424 8.66250E+01 4.74020E+01 0.00000E+00
 -1      1425 9.04500E+01 4.87010E+01 0.00000E+00
 -1      1426 9.19500E+01 4.87010E+01 0.00000E+00
 -1      1427 8.97000E+01 4.74020E+01 0.00000E+00
 -1      1428 9.34500E+01 4.87010E+01 0.00000E+00
 -1      1429 9.49500E+01 4.87010E+01 0.00000E+00
 -1      1430 9.27000E+01 4.74020E+01 0.00000E+00
 -1      1431 9.64500E+01 4.87010E+01 0.00000E+00
 -1      1432 9.79500E+01 4.87010E+01 0.00000E+00
 -1      1433 9.57000E+01 4.74020E+01 0.00000E+00
 -1      1434 9.94500E+01 4.87010E+01 0.00000E+00
 -1      1435 1.00950E+02 4.87010E+01 0.00000E+00
 -1      1436 9.87000E+01 4.74020E+01 0.00000E+00
 -1      1437 1.02450E+02 4.87010E+01 0.00000E+00
 -1      1438 1.03950E+02 4.87010E+01 0.00000E+00
 -1      1439 1.01700E+02 4.74020E+01 0.00000E+00
 -1      1440 1.05450E+02 4.87010E+01 0.00000E+00
 -1      1441 1.06950E+02 4.87010E+01 0.00000E+00
 -1      1442 1.04700E+02 4.74020E+01 0.00000E+00
 -1      1443 1.08525E+02 4.87010E+01 0.00000E+00
 -1      1444 1.10100E+02 4.87010E+01 0.00000E+00
 -1      1445 1.07775E+02 4.74020E+01 0.00000E+00
 -1      1446 1.11600E+02 4.87010E+01 0.00000E+00
 -1      1447 1.13100E+02 4.87010E+01 0.00000E+00
 -1      1448 1.10850E+02 4.74020E+01 0.00000E+00
 -1      1449 1.14600E+02 4.87010E+01 0.00000E+00
 -1      1450 1.16100E+02 4.87010E+01 0.00000E+00
 -1      1451 1.13850E+02 4.74020E+01 0.00000E+00
 -1      1452 1.17600E+02 4.87010E+01 0.00000E+00
 -1      1453 1.19100E+02 4.87010E+01 0.00000E+00
 -1      1454 1.16850E+02 4.74020E+01 0.00000E+00
 -1      1455 1.20600E+02 4.87010E+01 0.00000E+00
 -1      1456 1.22100E+02 4.87010E+01 0.00000E+00
 -1      1457 1.19850E+02 4.74020E+01 0.00000E+00
 -1      1458 1.23600E+02 4.87010E+01 0.00000E+00
 -1      1459 1.25100E+02 4.87010E+01 0.00000E+00
 -1      1460 1.22850E+02 4.74020E+01 0.00000E+00
 -1      1461 1.26600E+02 4.87010E+01 0.00000E+00
 -1      1462 1.28100E+02 4.87010E+01 0.00000E+00
 -1      1463 1.25850E+02 4.74020E+01 0.00000E+00
 -1      1464 1.29675E+02 4.87010E+01 0.00000E+00
 -1      1465 1.31250E+02 4.87010E+01 0.00000E+00
 -1      1466 1.28925E+02 4.74020E+01 0.00000E+00
 -1      1467 1.32750E+02 4.87010E+01 0.00000E+00
 -1      1468 1.34250E+02 4.87010E+01 0.00000E+00
 -1      1469 1.32000E+02 4.74020E+01 0.00000E+00
 -1      1470 1.35750E+02 4.87010E+01 0.00000E+00
 -1      1471 1.37250E+02 4.87010E+01 0.00000E+00
 -1      1472 1.35000E+02 4.74020E+01 0.00000E+00
 -1      1473 1.38750E+02 4.87010E+01 0.00000E+00
 -1      1474 1.40250E+02 4.87010E+01 0.00000E+00
 -1      1475 1.38000E+02 4.74020E+01 0.00000E+00
 -1      1476 1.41750E+02 4.87010E+01 0.00000E+00
 -1      1477 1.43250E+02 4.87010E+01 0.00000E+00
 -1      1478 1.41000E+02 4.74020E+01 0.00000E+00
 -1      1479 1.44750E+02 4.87010E+01 0.00000E+00
 -1      1480 1.46250E+02 4.87010E+01 0.00000E+00
 -1      1481 1.44000E+02 4.74020E+01 0.00000E+00
 -1      1482 1.47375E+02 4.86255E+01 0.00000E+00
 -1      1483 1.48875E+02 4.86255E+01 0.00000E+00
 -1      1484 1.48875E+02 4.71755E+01 0.00000E+00
 -1      1485 1.46625E+02 4.73265E+01 0.00000E+00
 -1      1486 6.01200E+00 1.09375E+00 0.00000E+00
 -1      1487 4.51200E+00 1.09375E+00 0.00000E+00
 -1      1488 4.37400E+00 2.18750E+00 0.00000E+00
 -1      1489 9.01200E+00 1.09375E+00 0.00000E+00
 -1      1490 7.51200E+00 1.09375E+00 0.00000E+00
 -1      1491 7.37400E+00 2.18750E+00 0.00000E+00
 -1      1492 1.20120E+01 1.09375E+00 0.00000E+00
 -1      1493 1.05120E+01 1.09375E+00 0.00000E+00
 -1      1494 1.03740E+01 2.18750E+00 0.00000E+00
 -1      1495 1.50120E+01 1.09375E+00 0.00000E+00
 -1      1496 1.35120E+01 1.09375E+00 0.00000E+00
 -1      1497 1.33740E+01 2.18750E+00 0.00000E+00
 -1      1498 1.80120E+01 1.09375E+00 0.00000E+00
 -1      1499 1.65120E+01 1.09375E+00 0.00000E+00
 -1      1500 1.63740E+01 2.18750E+00 0.00000E+00
 -1      1501 2.10120E+01 1.09375E+00 0.00000E+00
 -1      1502 1.95120E+01 1.09375E+00 0.00000E+00
 -1      1503 1.93740E+01 2.18750E+00 0.00000E+00
 -1      1504 2.40120E+01 1.09375E+00 0.00000E+00
 -1      1505 2.25120E+01 1.09375E+00 0.00000E+00
 -1      1506 2.23740E+01 2.18750E+00 0.00000E+00
 -1      1507 2.70120E+01 1.09375E+00 0.00000E+00
 -1      1508 2.55120E+01 1.09375E+00 0.00000E+00
 -1      1509 2.53740E+01 2.18750E+00 0.00000E+00
 -1      1510 3.00120E+01 1.09375E+00 0.00000E+00
 -1      1511 2.85120E+01 1.09375E+00 0.00000E+00
 -1      1512 2.83740E+01 2.18750E+00 0.00000E+00
 -1      1513 3.30120E+01 1.09375E+00 0.00000E+00
 -1      1514 3.15120E+01 1.09375E+00 0.00000E+00
 -1      1515 3.13740E+01 2.18750E+00 0.00000E+00
 -1      1516 3.60120E+01 1.09375E+00 0.00000E+00
 -1      1517 3.45120E+01 1.09375E+00 0.00000E+00
 -1      1518 3.43740E+01 2.18750E+00 0.00000E+00
 -1      1519 3.90120E+01 1.09375E+00 0.00000E+00
 -1      1520 3.75120E+01 1.09375E+00 0.00000E+00
 -1      1521 3.73740E+01 2.18750E+00 0.00000E+00
 -1      1522 4.20120E+01 1.09375E+00 0.00000E+00
 -1      1523 4.05120E+01 1.09375E+00 0.00000E+00
 -1      1524 4.03740E+01 2.18750E+00 0.00000E+00
 -1      1525 4.50120E+01 1.09375E+00 0.00000E+00
 -1      1526 4.35120E+01 1.09375E+00 0.00000E+00
 -1      1527 4.33740E+01 2.18750E+00 0.00000E+00
 -1      1528 4.80120E+01 1.09375E+00 0.00000E+00
 -1      1529 4.65120E+01 1.09375E+00 0.00000E+00
 -1      1530 4.63740E+01 2.18750E+00 0.00000E+00
 -1      1531 5.10120E+01 1.09375E+00 0.00000E+00
 -1      1532 4.95120E+01 1.09375E+00 0.00000E+00
 -1      1533 4.93740E+01 2.18750E+00 0.00000E+00
 -1      1534 5.40120E+01 1.09375E+00 0.00000E+00
 -1      1535 5.25120E+01 1.09375E+00 0.00000E+00
 -1      1536 5.23740E+01 2.18750E+00 0.00000E+00
 -1      1537 5.70120E+01 1.09375E+00 0.00000E+00
 -1      1538 5.55120E+01 1.09375E+00 0.00000E+00
 -1      1539 5.53740E+01 2.18750E+00 0.00000E+00
 -1      1540 6.00120E+01 1.09375E+00 0.00000E+00
 -1      1541 5.85120E+01 1.09375E+00 0.00000E+00
 -1      1542 5.83740E+01 2.18750E+00 0.00000E+00
 -1      1543 6.30120E+01 1.09375E+00 0.00000E+00
 -1      1544 6.15120E+01 1.09375E+00 0.00000E+00
 -1      1545 6.13740E+01 2.18750E+00 0.00000E+00
 -1      1546 6.60120E+01 1.09375E+00 0.00000E+00
 -1      1547 6.45120E+01 1.09375E+00 0.00000E+00
 -1      1548 6.43740E+01 2.18750E+00 0.00000E+00
 -1      1549 6.90120E+01 1.09375E+00 0.00000E+00
 -1      1550 6.75120E+01 1.09375E+00 0.00000E+00
 -1      1551 6.73740E+01 2.18750E+00 0.00000E+00
 -1      1552 7.20120E+01 1.09375E+00 0.00000E+00
 -1      1553 7.05120E+01 1.09375E+00 0.00000E+00
 -1      1554 7.03740E+01 2.18750E+00 0.00000E+00
 -1      1555 7.50120E+01 1.09375E+00 0.00000E+00
 -1      1556 7.35120E+01 1.09375E+00 0.00000E+00
 -1      1557 7.33740E+01 2.18750E+00 0.00000E+00
 -1      1558 7.80120E+01 1.09375E+00 0.00000E+00
 -1      1559 7.65120E+01 1.09375E+00 0.00000E+00
 -1      1560 7.63740E+01 2.18750E+00 0.00000E+00
 -1      1561 8.10120E+01 1.09375E+00 0.00000E+00
 -1      1562 7.95120E+01 1.09375E+00 0.00000E+00
 -1      1563 7.93740E+01 2.18750E+00 0.00000E+00
 -1      1564 8.40120E+01 1.09375E+00 0.00000E+00
 -1      1565 8.25120E+01 1.09375E+00 0.00000E+00
 -1      1566 8.23740E+01 2.18750E+00 0.00000E+00
 -1      1567 8.70120E+01 1.09375E+00 0.00000E+00
 -1      1568 8.55120E+01 1.09375E+00 0.00000E+00
 -1      1569 8.53740E+01 2.18750E+00 0.00000E+00
 -1      1570 9.00120E+01 1.09375E+00 0.00000E+00
 -1      1571 8.85120E+01 1.09375E+00 0.00000E+00
 -1      1572 8.83740E+01 2.18750E+00 0.00000E+00
 -1      1573 9.30120E+01 1.09375E+00 0.00000E+00
 -1      1574 9.15120E+01 1.09375E+00 0.00000E+00
 -1      1575 9.13740E+01 2.18750E+00 0.00000E+00
 -1      1576 9.60120E+01 1.09375E+00 0.00000E+00
 -1      1577 9.45120E+01 1.09375E+00 0.00000E+00
 -1      1578 9.43740E+01 2.18750E+00 0.00000E+00
 -1      1579 9.90120E+01 1.09375E+00 0.00000E+00
 -1      1580 9.75120E+01 1.09375E+00 0.00000E+00
 -1      1581 9.73740E+01 2.18750E+00 0.00000E+00
 -1      1582 1.02012E+02 1.09375E+00 0.00000E+00
 -1      1583 1.00512E+02 1.09375E+00 0.00000E+00
 -1      1584 1.00374E+02 2.18750E+00 0.00000E+00
 -1      1585 1.05012E+02 1.09375E+00 0.00000E+00
 -1      1586 1.03512E+02 1.09375E+00 0.00000E+00
 -1      1587 1.03374E+02 2.18750E+00 0.00000E+00
 -1      1588 1.08012E+02 1.09375E+00 0.00000E+00
 -1      1589 1.06512E+02 1.09375E+00 0.00000E+00
 -1      1590 1.06374E+02 2.18750E+00 0.00000E+00
 -1      1591 1.11012E+02 1.09375E+00 0.00000E+00
 -1      1592 1.09512E+02 1.09375E+00 0.00000E+00
 -1      1593 1.09374E+02 2.18750E+00 0.00000E+00
 -1      1594 1.14012E+02 1.09375E+00 0.00000E+00
 -1      1595 1.12512E+02 1.09375E+00 0.00000E+00
 -1      1596 1.12374E+02 2.18750E+00 0.00000E+00
 -1      1597 1.17012E+02 1.09375E+00 0.00000E+00
 -1      1598 1.15512E+02 1.09375E+00 0.00000E+00
 -1      1599 1.15374E+02 2.18750E+00 0.00000E+00
 -1      1600 1.20012E+02 1.09375E+00 0.00000E+00
 -1      1601 1.18512E+02 1.09375E+00 0.00000E+00
 -1      1602 1.18374E+02 2.18750E+00 0.00000E+00
 -1      1603 1.23012E+02 1.09375E+00 0.00000E+00
 -1      1604 1.21512E+02 1.09375E+00 0.00000E+00
 -1      1605 1.21374E+02 2.18750E+00 0.00000E+00
 -1      1606 1.26012E+02 1.09375E+00 0.00000E+00
 -1      1607 1.24512E+02 1.09375E+00 0.00000E+00
 -1      1608 1.24374E+02 2.18750E+00 0.00000E+00
 -1      1609 1.29012E+02 1.09375E+00 0.00000E+00
 -1      1610 1.27512E+02 1.09375E+00 0.00000E+00
 -1      1611 1.27374E+02 2.18750E+00 0.00000E+00
 -1      1612 1.32012E+02 1.09375E+00 0.00000E+00
 -1      1613 1.30512E+02 1.09375E+00 0.00000E+00
 -1      1614 1.30374E+02 2.18750E+00 0.00000E+00
 -1      1615 1.35012E+02 1.09375E+00 0.00000E+00
 -1      1616 1.33512E+02 1.09375E+00 0.00000E+00
 -1      1617 1.33374E+02 2.18750E+00 0.00000E+00
 -1      1618 1.38012E+02 1.09375E+00 0.00000E+00
 -1      1619 1.36512E+02 1.09375E+00 0.00000E+00
 -1      1620 1.36374E+02 2.18750E+00 0.00000E+00
 -1      1621 1.41012E+02 1.09375E+00 0.00000E+00
 -1      1622 1.39512E+02 1.09375E+00 0.00000E+00
 -1      1623 1.39374E+02 2.18750E+00 0.00000E+00
 -1      1624 1.44012E+02 1.09375E+00 0.00000E+00
 -1      1625 1.42512E+02 1.09375E+00 0.00000E+00
 -1      1626 1.42374E+02 2.18750E+00 0.00000E+00
 -1      1627 1.47012E+02 1.09375E+00 0.00000E+00
 -1      1628 1.45512E+02 1.09375E+00 0.00000E+00
 -1      1629 1.45374E+02 2.18750E+00 0.00000E+00
 -1      1630 1.48575E+02 1.47500E+00 0.00000E+00
 -1      1631 1.48701E+02 5.16250E+00 0.00000E+00
 -1      1632 1.48701E+02 3.68750E+00 0.00000E+00
 -1      1633 1.48701E+02 8.11250E+00 0.00000E+00
 -1      1634 1.48701E+02 6.63750E+00 0.00000E+00
 -1      1635 1.47402E+02 5.90000E+00 0.00000E+00
 -1      1636 1.48701E+02 1.10625E+01 0.00000E+00
 -1      1637 1.48701E+02 9.58750E+00 0.00000E+00
 -1      1638 1.47402E+02 8.85000E+00 0.00000E+00
 -1      1639 1.48701E+02 1.40125E+01 0.00000E+00
 -1      1640 1.48701E+02 1.25375E+01 0.00000E+00
 -1      1641 1.47402E+02 1.18000E+01 0.00000E+00
 -1      1642 1.48701E+02 1.69125E+01 0.00000E+00
 -1      1643 1.48701E+02 1.54625E+01 0.00000E+00
 -1      1644 1.47402E+02 1.47250E+01 0.00000E+00
 -1      1645 1.48701E+02 1.98625E+01 0.00000E+00
 -1      1646 1.48701E+02 1.83875E+01 0.00000E+00
 -1      1647 1.47402E+02 1.76500E+01 0.00000E+00
 -1      1648 1.48701E+02 2.28125E+01 0.00000E+00
 -1      1649 1.48701E+02 2.13375E+01 0.00000E+00
 -1      1650 1.47402E+02 2.06000E+01 0.00000E+00
 -1      1651 1.48701E+02 2.57625E+01 0.00000E+00
 -1      1652 1.48701E+02 2.42875E+01 0.00000E+00
 -1      1653 1.47402E+02 2.35500E+01 0.00000E+00
 -1      1654 1.48701E+02 2.87125E+01 0.00000E+00
 -1      1655 1.48701E+02 2.72375E+01 0.00000E+00
 -1      1656 1.47402E+02 2.65000E+01 0.00000E+00
 -1      1657 1.48701E+02 3.16625E+01 0.00000E+00
 -1      1658 1.48701E+02 3.01875E+01 0.00000E+00
 -1      1659 1.47402E+02 2.94500E+01 0.00000E+00
 -1      1660 1.48701E+02 3.45625E+01 0.00000E+00
 -1      1661 1.48701E+02 3.31125E+01 0.00000E+00
 -1      1662 1.47402E+02 3.23750E+01 0.00000E+00
 -1      1663 1.48701E+02 3.75125E+01 0.00000E+00
 -1      1664 1.48701E+02 3.60375E+01 0.00000E+00
 -1      1665 1.47402E+02 3.53000E+01 0.00000E+00
 -1      1666 1.48701E+02 4.04625E+01 0.00000E+00
 -1      1667 1.48701E+02 3.89875E+01 0.00000E+00
 -1      1668 1.47402E+02 3.82500E+01 0.00000E+00
 -1      1669 1.48701E+02 4.34125E+01 0.00000E+00
 -1      1670 1.48701E+02 4.19375E+01 0.00000E+00
 -1      1671 1.47402E+02 4.12000E+01 0.00000E+00
 -1      1672 1.48788E+02 4.60315E+01 0.00000E+00
 -1      1673 1.48788E+02 4.45565E+01 0.00000E+00
 -1      1674 1.47489E+02 4.38190E+01 0.00000E+00
 -1      1675 1.47663E+02 4.61070E+01 0.00000E+00
 -1      1676 4.39272E+01 3.25257E+01 0.00000E+00
 -1      1677 4.39994E+01 3.32333E+01 0.00000E+00
 -1      1678 4.35666E+01 3.09776E+01 0.00000E+00
 -1      1679 4.37924E+01 3.16832E+01 0.00000E+00
 -1      1680 4.28433E+01 2.95341E+01 0.00000E+00
 -1      1681 4.32133E+01 3.01775E+01 0.00000E+00
 -1      1682 4.18231E+01 2.83235E+01 0.00000E+00
 -1      1683 4.23061E+01 2.88615E+01 0.00000E+00
 -1      1684 4.05876E+01 2.71220E+01 0.00000E+00
 -1      1685 4.12490E+01 2.75936E+01 0.00000E+00
 -1      1686 3.90404E+01 2.65345E+01 0.00000E+00
 -1      1687 3.97090E+01 2.68166E+01 0.00000E+00
 -1      1688 3.74873E+01 2.61469E+01 0.00000E+00
 -1      1689 3.82186E+01 2.62867E+01 0.00000E+00
 -1      1690 3.58871E+01 2.60502E+01 0.00000E+00
 -1      1691 3.66242E+01 2.60331E+01 0.00000E+00
 -1      1692 3.43060E+01 2.63336E+01 0.00000E+00
 -1      1693 3.50240E+01 2.61621E+01 0.00000E+00
 -1      1694 3.28674E+01 2.69618E+01 0.00000E+00
 -1      1695 3.35144E+01 2.66552E+01 0.00000E+00
 -1      1696 3.13229E+01 2.78435E+01 0.00000E+00
 -1      1697 3.19909E+01 2.73178E+01 0.00000E+00
 -1      1698 3.02845E+01 2.92244E+01 0.00000E+00
 -1      1699 3.07573E+01 2.86323E+01 0.00000E+00
 -1      1700 2.94826E+01 3.06345E+01 0.00000E+00
 -1      1701 2.98130E+01 2.99651E+01 0.00000E+00
 -1      1702 2.89635E+01 3.21480E+01 0.00000E+00
 -1      1703 2.91428E+01 3.14356E+01 0.00000E+00
 -1      1704 2.87763E+01 3.37896E+01 0.00000E+00
 -1      1705 2.88006E+01 3.30236E+01 0.00000E+00
 -1      1706 2.89319E+01 3.55457E+01 0.00000E+00
 -1      1707 2.87738E+01 3.47448E+01 0.00000E+00
 -1      1708 2.96312E+01 3.69942E+01 0.00000E+00
 -1      1709 2.93533E+01 3.63571E+01 0.00000E+00
 -1      1710 3.04622E+01 3.83140E+01 0.00000E+00
 -1      1711 3.00412E+01 3.77181E+01 0.00000E+00
 -1      1712 3.15293E+01 3.94801E+01 0.00000E+00
 -1      1713 3.09948E+01 3.89851E+01 0.00000E+00
 -1      1714 3.29196E+01 4.03586E+01 0.00000E+00
 -1      1715 3.22592E+01 3.99690E+01 0.00000E+00
 -1      1716 3.43990E+01 4.09481E+01 0.00000E+00
 -1      1717 3.37113E+01 4.07205E+01 0.00000E+00
 -1      1718 3.59874E+01 4.12525E+01 0.00000E+00
 -1      1719 3.52381E+01 4.11713E+01 0.00000E+00
 -1      1720 3.75536E+01 4.11863E+01 0.00000E+00
 -1      1721 3.68495E+01 4.12578E+01 0.00000E+00
 -1      1722 3.89708E+01 4.07931E+01 0.00000E+00
 -1      1723 3.83356E+01 4.09879E+01 0.00000E+00
 -1      1724 4.02818E+01 4.01804E+01 0.00000E+00
 -1      1725 3.96907E+01 4.04945E+01 0.00000E+00
 -1      1726 4.14517E+01 3.93312E+01 0.00000E+00
 -1      1727 4.09332E+01 3.97501E+01 0.00000E+00
 -1      1728 4.25321E+01 3.82873E+01 0.00000E+00
 -1      1729 4.20838E+01 3.88241E+01 0.00000E+00
 -1      1730 4.32363E+01 3.69947E+01 0.00000E+00
 -1      1731 4.29177E+01 3.75767E+01 0.00000E+00
 -1      1732 4.37937E+01 3.56258E+01 0.00000E+00
 -1      1733 4.35855E+01 3.62811E+01 0.00000E+00
 -1      1734 4.40806E+01 3.40841E+01 0.00000E+00
 -1      1735 4.40044E+01 3.48106E+01 0.00000E+00
 -1      1736 4.30529E+01 2.88601E+01 0.00000E+00
 -1      1737 4.46475E+01 3.36686E+01 0.00000E+00
 -1      1738 1.48437E+02 2.56875E+00 0.00000E+00
 -1      1739 1.47138E+02 3.30625E+00 0.00000E+00
 -1      1740 4.44316E+01 3.19754E+01 0.00000E+00
 -1      1741 4.39435E+01 3.03328E+01 0.00000E+00
 -1      1742 4.19416E+01 2.74577E+01 0.00000E+00
 -1      1743 4.04889E+01 2.64224E+01 0.00000E+00
 -1      1744 3.87885E+01 2.58692E+01 0.00000E+00
 -1      1745 3.71036E+01 2.55076E+01 0.00000E+00
 -1      1746 3.53775E+01 2.55056E+01 0.00000E+00
 -1      1747 3.37229E+01 2.59391E+01 0.00000E+00
 -1      1748 3.20549E+01 2.66167E+01 0.00000E+00
 -1      1749 3.06128E+01 2.77613E+01 0.00000E+00
 -1      1750 2.95757E+01 2.92908E+01 0.00000E+00
 -1      1751 2.87644E+01 3.08326E+01 0.00000E+00
 -1      1752 2.82617E+01 3.25092E+01 0.00000E+00
 -1      1753 2.80963E+01 3.43400E+01 0.00000E+00
 -1      1754 2.85152E+01 3.61066E+01 0.00000E+00
 -1      1755 2.93466E+01 3.76419E+01 0.00000E+00
 -1      1756 3.02892E+01 3.90370E+01 0.00000E+00
 -1      1757 3.15515E+01 4.01970E+01 0.00000E+00
 -1      1758 3.30730E+01 4.10479E+01 0.00000E+00
 -1      1759 3.47038E+01 4.16330E+01 0.00000E+00
 -1      1760 3.64050E+01 4.18615E+01 0.00000E+00
 -1      1761 3.80490E+01 4.16685E+01 0.00000E+00
 -1      1762 3.95508E+01 4.11714E+01 0.00000E+00
 -1      1763 4.09221E+01 4.04425E+01 0.00000E+00
 -1      1764 4.22055E+01 3.95051E+01 0.00000E+00
 -1      1765 4.32232E+01 3.82873E+01 0.00000E+00
 -1      1766 4.39580E+01 3.68632E+01 0.00000E+00
 -1      1767 4.45180E+01 3.53345E+01 0.00000E+00
 -1      1768 2.87400E+00 4.77875E+01 0.00000E+00
 -1      1769 3.89700E+00 4.04125E+01 0.00000E+00
 -1      1770 3.89700E+00 4.18875E+01 0.00000E+00
 -1      1771 3.89700E+00 4.33625E+01 0.00000E+00
 -1      1772 3.89700E+00 4.48375E+01 0.00000E+00
 -1      1773 5.19600E+00 4.26250E+01 0.00000E+00
 -1      1774 3.89700E+00 3.45500E+01 0.00000E+00
 -1      1775 3.89700E+00 3.60000E+01 0.00000E+00
 -1      1776 3.89700E+00 3.16000E+01 0.00000E+00
 -1      1777 3.89700E+00 3.30750E+01 0.00000E+00
 -1      1778 5.19600E+00 3.38000E+01 0.00000E+00
 -1      1779 3.89700E+00 2.86500E+01 0.00000E+00
 -1      1780 3.89700E+00 3.01250E+01 0.00000E+00
 -1      1781 5.19600E+00 3.08500E+01 0.00000E+00
 -1      1782 3.89700E+00 2.57000E+01 0.00000E+00
 -1      1783 3.89700E+00 2.71750E+01 0.00000E+00
 -1      1784 5.19600E+00 2.79000E+01 0.00000E+00
 -1      1785 3.89700E+00 2.27500E+01 0.00000E+00
 -1      1786 3.89700E+00 2.42250E+01 0.00000E+00
 -1      1787 5.19600E+00 2.49500E+01 0.00000E+00
 -1      1788 3.89700E+00 1.98000E+01 0.00000E+00
 -1      1789 3.89700E+00 2.12750E+01 0.00000E+00
 -1      1790 5.19600E+00 2.20000E+01 0.00000E+00
 -1      1791 3.89700E+00 1.69000E+01 0.00000E+00
 -1      1792 3.89700E+00 1.83500E+01 0.00000E+00
 -1      1793 5.19600E+00 1.90750E+01 0.00000E+00
 -1      1794 3.89700E+00 1.39500E+01 0.00000E+00
 -1      1795 3.89700E+00 1.54250E+01 0.00000E+00
 -1      1796 5.19600E+00 1.61500E+01 0.00000E+00
 -1      1797 3.89700E+00 1.10000E+01 0.00000E+00
 -1      1798 3.89700E+00 1.24750E+01 0.00000E+00
 -1      1799 5.19600E+00 1.32000E+01 0.00000E+00
 -1      1800 3.89700E+00 8.05000E+00 0.00000E+00
 -1      1801 3.89700E+00 9.52500E+00 0.00000E+00
 -1      1802 5.19600E+00 1.02500E+01 0.00000E+00
 -1      1803 3.89700E+00 5.10000E+00 0.00000E+00
 -1      1804 3.89700E+00 6.57500E+00 0.00000E+00
 -1      1805 5.19600E+00 7.30000E+00 0.00000E+00
 -1      1806 4.20450E+00 3.09687E+00 0.00000E+00
 -1      1807 4.06650E+00 4.19063E+00 0.00000E+00
 -1      1808 5.36550E+00 4.91563E+00 0.00000E+00
 -1      1809 5.70450E+00 3.09687E+00 0.00000E+00
 -1      1810 3.62400E+00 4.64885E+01 0.00000E+00
 -1      1811 8.70450E+00 3.09687E+00 0.00000E+00
 -1      1812 7.20450E+00 3.09687E+00 0.00000E+00
 -1      1813 7.03500E+00 4.00625E+00 0.00000E+00
 -1      1814 4.92300E+00 4.57510E+01 0.00000E+00
 -1      1815 8.40000E+00 4.61030E+01 0.00000E+00
 -1      1816 9.90000E+00 4.61030E+01 0.00000E+00
 -1      1817 1.14000E+01 4.61030E+01 0.00000E+00
 -1      1818 1.29000E+01 4.61030E+01 0.00000E+00
 -1      1819 1.06500E+01 4.48040E+01 0.00000E+00
 -1      1820 1.44000E+01 4.61030E+01 0.00000E+00
 -1      1821 1.59000E+01 4.61030E+01 0.00000E+00
 -1      1822 1.36500E+01 4.48040E+01 0.00000E+00
 -1      1823 1.74750E+01 4.61030E+01 0.00000E+00
 -1      1824 1.90500E+01 4.61030E+01 0.00000E+00
 -1      1825 1.67250E+01 4.48040E+01 0.00000E+00
 -1      1826 2.05500E+01 4.61030E+01 0.00000E+00
 -1      1827 2.20500E+01 4.61030E+01 0.00000E+00
 -1      1828 1.98000E+01 4.48040E+01 0.00000E+00
 -1      1829 2.35500E+01 4.61030E+01 0.00000E+00
 -1      1830 2.50500E+01 4.61030E+01 0.00000E+00
 -1      1831 2.28000E+01 4.48040E+01 0.00000E+00
 -1      1832 2.65500E+01 4.61030E+01 0.00000E+00
 -1      1833 2.80500E+01 4.61030E+01 0.00000E+00
 -1      1834 2.58000E+01 4.48040E+01 0.00000E+00
 -1      1835 2.95500E+01 4.61030E+01 0.00000E+00
 -1      1836 3.10500E+01 4.61030E+01 0.00000E+00
 -1      1837 2.88000E+01 4.48040E+01 0.00000E+00
 -1      1838 3.49875E+01 4.64607E+01 0.00000E+00
 -1      1839 3.62625E+01 4.64607E+01 0.00000E+00
 -1      1840 3.77625E+01 4.64607E+01 0.00000E+00
 -1      1841 3.92625E+01 4.64607E+01 0.00000E+00
 -1      1842 3.71250E+01 4.55193E+01 0.00000E+00
 -1      1843 4.06125E+01 4.62931E+01 0.00000E+00
 -1      1844 4.20375E+01 4.62931E+01 0.00000E+00
 -1      1845 4.36125E+01 4.62931E+01 0.00000E+00
 -1      1846 4.51875E+01 4.62931E+01 0.00000E+00
 -1      1847 4.29000E+01 4.51842E+01 0.00000E+00
 -1      1848 4.66875E+01 4.62931E+01 0.00000E+00
 -1      1849 4.81875E+01 4.62931E+01 0.00000E+00
 -1      1850 4.59750E+01 4.51842E+01 0.00000E+00
 -1      1851 4.96875E+01 4.62931E+01 0.00000E+00
 -1      1852 5.11875E+01 4.62931E+01 0.00000E+00
 -1      1853 4.89750E+01 4.51842E+01 0.00000E+00
 -1      1854 5.26875E+01 4.62931E+01 0.00000E+00
 -1      1855 5.41875E+01 4.62931E+01 0.00000E+00
 -1      1856 5.19750E+01 4.51842E+01 0.00000E+00
 -1      1857 5.56875E+01 4.62931E+01 0.00000E+00
 -1      1858 5.71875E+01 4.62931E+01 0.00000E+00
 -1      1859 5.49750E+01 4.51842E+01 0.00000E+00
 -1      1860 5.86875E+01 4.62931E+01 0.00000E+00
 -1      1861 6.01875E+01 4.62931E+01 0.00000E+00
 -1      1862 5.79750E+01 4.51842E+01 0.00000E+00
 -1      1863 6.16875E+01 4.62931E+01 0.00000E+00
 -1      1864 6.31875E+01 4.62931E+01 0.00000E+00
 -1      1865 6.09750E+01 4.51842E+01 0.00000E+00
 -1      1866 6.47625E+01 4.62931E+01 0.00000E+00
 -1      1867 6.63375E+01 4.62931E+01 0.00000E+00
 -1      1868 6.40500E+01 4.51842E+01 0.00000E+00
 -1      1869 6.78375E+01 4.62931E+01 0.00000E+00
 -1      1870 6.93375E+01 4.62931E+01 0.00000E+00
 -1      1871 6.71250E+01 4.51842E+01 0.00000E+00
 -1      1872 7.08375E+01 4.62931E+01 0.00000E+00
 -1      1873 7.23375E+01 4.62931E+01 0.00000E+00
 -1      1874 7.01250E+01 4.51842E+01 0.00000E+00
 -1      1875 7.38375E+01 4.62931E+01 0.00000E+00
 -1      1876 7.53375E+01 4.62931E+01 0.00000E+00
 -1      1877 7.31250E+01 4.51842E+01 0.00000E+00
 -1      1878 7.68375E+01 4.62931E+01 0.00000E+00
 -1      1879 7.83375E+01 4.62931E+01 0.00000E+00
 -1      1880 7.61250E+01 4.51842E+01 0.00000E+00
 -1      1881 7.98375E+01 4.62931E+01 0.00000E+00
 -1      1882 8.13375E+01 4.62931E+01 0.00000E+00
 -1      1883 7.91250E+01 4.51842E+01 0.00000E+00
 -1      1884 8.28375E+01 4.62931E+01 0.00000E+00
 -1      1885 8.43375E+01 4.62931E+01 0.00000E+00
 -1      1886 8.21250E+01 4.51842E+01 0.00000E+00
 -1      1887 8.59125E+01 4.62931E+01 0.00000E+00
 -1      1888 8.74875E+01 4.62931E+01 0.00000E+00
 -1      1889 8.52000E+01 4.51842E+01 0.00000E+00
 -1      1890 8.89875E+01 4.62931E+01 0.00000E+00
 -1      1891 9.04875E+01 4.62931E+01 0.00000E+00
 -1      1892 8.82750E+01 4.51842E+01 0.00000E+00
 -1      1893 9.19875E+01 4.62931E+01 0.00000E+00
 -1      1894 9.34875E+01 4.62931E+01 0.00000E+00
 -1      1895 9.12750E+01 4.51842E+01 0.00000E+00
 -1      1896 9.49875E+01 4.62931E+01 0.00000E+00
 -1      1897 9.64875E+01 4.62931E+01 0.00000E+00
 -1      1898 9.42750E+01 4.51842E+01 0.00000E+00
 -1      1899 9.79875E+01 4.62931E+01 0.00000E+00
 -1      1900 9.94875E+01 4.62931E+01 0.00000E+00
 -1      1901 9.72750E+01 4.51842E+01 0.00000E+00
 -1      1902 1.00988E+02 4.62931E+01 0.00000E+00
 -1      1903 1.02488E+02 4.62931E+01 0.00000E+00
 -1      1904 1.00275E+02 4.51842E+01 0.00000E+00
 -1      1905 1.03988E+02 4.62931E+01 0.00000E+00
 -1      1906 1.05488E+02 4.62931E+01 0.00000E+00
 -1      1907 1.03275E+02 4.51842E+01 0.00000E+00
 -1      1908 1.07063E+02 4.62931E+01 0.00000E+00
 -1      1909 1.08637E+02 4.62931E+01 0.00000E+00
 -1      1910 1.06350E+02 4.51842E+01 0.00000E+00
 -1      1911 1.10137E+02 4.62931E+01 0.00000E+00
 -1      1912 1.11637E+02 4.62931E+01 0.00000E+00
 -1      1913 1.09425E+02 4.51842E+01 0.00000E+00
 -1      1914 1.13137E+02 4.62931E+01 0.00000E+00
 -1      1915 1.14637E+02 4.62931E+01 0.00000E+00
 -1      1916 1.12425E+02 4.51842E+01 0.00000E+00
 -1      1917 1.16137E+02 4.62931E+01 0.00000E+00
 -1      1918 1.17637E+02 4.62931E+01 0.00000E+00
 -1      1919 1.15425E+02 4.51842E+01 0.00000E+00
 -1      1920 1.19137E+02 4.62931E+01 0.00000E+00
 -1      1921 1.20637E+02 4.62931E+01 0.00000E+00
 -1      1922 1.18425E+02 4.51842E+01 0.00000E+00
 -1      1923 1.22137E+02 4.62931E+01 0.00000E+00
 -1      1924 1.23637E+02 4.62931E+01 0.00000E+00
 -1      1925 1.21425E+02 4.51842E+01 0.00000E+00
 -1      1926 1.25137E+02 4.62931E+01 0.00000E+00
 -1      1927 1.26637E+02 4.62931E+01 0.00000E+00
 -1      1928 1.24425E+02 4.51842E+01 0.00000E+00
 -1      1929 1.28212E+02 4.62931E+01 0.00000E+00
 -1      1930 1.29788E+02 4.62931E+01 0.00000E+00
 -1      1931 1.27500E+02 4.51842E+01 0.00000E+00
 -1      1932 1.31288E+02 4.62931E+01 0.00000E+00
 -1      1933 1.32788E+02 4.62931E+01 0.00000E+00
 -1      1934 1.30575E+02 4.51842E+01 0.00000E+00
 -1      1935 1.34288E+02 4.62931E+01 0.00000E+00
 -1      1936 1.35788E+02 4.62931E+01 0.00000E+00
 -1      1937 1.33575E+02 4.51842E+01 0.00000E+00
 -1      1938 1.37288E+02 4.62931E+01 0.00000E+00
 -1      1939 1.38788E+02 4.62931E+01 0.00000E+00
 -1      1940 1.36575E+02 4.51842E+01 0.00000E+00
 -1      1941 1.40288E+02 4.62931E+01 0.00000E+00
 -1      1942 1.41788E+02 4.62931E+01 0.00000E+00
 -1      1943 1.39575E+02 4.51842E+01 0.00000E+00
 -1      1944 1.43288E+02 4.62931E+01 0.00000E+00
 -1      1945 1.44788E+02 4.62931E+01 0.00000E+00
 -1      1946 1.42575E+02 4.51842E+01 0.00000E+00
 -1      1947 1.46538E+02 4.61825E+01 0.00000E+00
 -1      1948 1.41240E+01 3.48650E+00 0.00000E+00
 -1      1949 1.26240E+01 3.48650E+00 0.00000E+00
 -1      1950 1.71240E+01 3.48650E+00 0.00000E+00
 -1      1951 1.56240E+01 3.48650E+00 0.00000E+00
 -1      1952 1.48740E+01 4.78550E+00 0.00000E+00
 -1      1953 2.01240E+01 3.48650E+00 0.00000E+00
 -1      1954 1.86240E+01 3.48650E+00 0.00000E+00
 -1      1955 1.78740E+01 4.78550E+00 0.00000E+00
 -1      1956 2.31240E+01 3.48650E+00 0.00000E+00
 -1      1957 2.16240E+01 3.48650E+00 0.00000E+00
 -1      1958 2.08740E+01 4.78550E+00 0.00000E+00
 -1      1959 2.61240E+01 3.48650E+00 0.00000E+00
 -1      1960 2.46240E+01 3.48650E+00 0.00000E+00
 -1      1961 2.38740E+01 4.78550E+00 0.00000E+00
 -1      1962 2.91240E+01 3.48650E+00 0.00000E+00
 -1      1963 2.76240E+01 3.48650E+00 0.00000E+00
 -1      1964 2.68740E+01 4.78550E+00 0.00000E+00
 -1      1965 3.21240E+01 3.48650E+00 0.00000E+00
 -1      1966 3.06240E+01 3.48650E+00 0.00000E+00
 -1      1967 2.98740E+01 4.78550E+00 0.00000E+00
 -1      1968 3.51240E+01 3.48650E+00 0.00000E+00
 -1      1969 3.36240E+01 3.48650E+00 0.00000E+00
 -1      1970 3.28740E+01 4.78550E+00 0.00000E+00
 -1      1971 3.81240E+01 3.48650E+00 0.00000E+00
 -1      1972 3.66240E+01 3.48650E+00 0.00000E+00
 -1      1973 3.58740E+01 4.78550E+00 0.00000E+00
 -1      1974 4.11240E+01 3.48650E+00 0.00000E+00
 -1      1975 3.96240E+01 3.48650E+00 0.00000E+00
 -1      1976 3.88740E+01 4.78550E+00 0.00000E+00
 -1      1977 4.41240E+01 3.48650E+00 0.00000E+00
 -1      1978 4.26240E+01 3.48650E+00 0.00000E+00
 -1      1979 4.18740E+01 4.78550E+00 0.00000E+00
 -1      1980 4.71240E+01 3.48650E+00 0.00000E+00
 -1      1981 4.56240E+01 3.48650E+00 0.00000E+00
 -1      1982 4.48740E+01 4.78550E+00 0.00000E+00
 -1      1983 5.01240E+01 3.48650E+00 0.00000E+00
 -1      1984 4.86240E+01 3.48650E+00 0.00000E+00
 -1      1985 4.78740E+01 4.78550E+00 0.00000E+00
 -1      1986 5.31240E+01 3.48650E+00 0.00000E+00
 -1      1987 5.16240E+01 3.48650E+00 0.00000E+00
 -1      1988 5.08740E+01 4.78550E+00 0.00000E+00
 -1      1989 5.61240E+01 3.48650E+00 0.00000E+00
 -1      1990 5.46240E+01 3.48650E+00 0.00000E+00
 -1      1991 5.38740E+01 4.78550E+00 0.00000E+00
 -1      1992 5.91240E+01 3.48650E+00 0.00000E+00
 -1      1993 5.76240E+01 3.48650E+00 0.00000E+00
 -1      1994 5.68740E+01 4.78550E+00 0.00000E+00
 -1      1995 6.21240E+01 3.48650E+00 0.00000E+00
 -1      1996 6.06240E+01 3.48650E+00 0.00000E+00
 -1      1997 5.98740E+01 4.78550E+00 0.00000E+00
 -1      1998 6.51240E+01 3.48650E+00 0.00000E+00
 -1      1999 6.36240E+01 3.48650E+00 0.00000E+00
 -1      2000 6.28740E+01 4.78550E+00 0.00000E+00
 -1      2001 6.81240E+01 3.48650E+00 0.00000E+00
 -1      2002 6.66240E+01 3.48650E+00 0.00000E+00
 -1      2003 6.58740E+01 4.78550E+00 0.00000E+00
 -1      2004 7.11240E+01 3.48650E+00 0.00000E+00
 -1      2005 6.96240E+01 3.48650E+00 0.00000E+00
 -1      2006 6.88740E+01 4.78550E+00 0.00000E+00
 -1      2007 7.41240E+01 3.48650E+00 0.00000E+00
 -1      2008 7.26240E+01 3.48650E+00 0.00000E+00
 -1      2009 7.18740E+01 4.78550E+00 0.00000E+00
 -1      2010 7.71240E+01 3.48650E+00 0.00000E+00
 -1      2011 7.56240E+01 3.48650E+00 0.00000E+00
 -1      2012 7.48740E+01 4.78550E+00 0.00000E+00
 -1      2013 8.01240E+01 3.48650E+00 0.00000E+00
 -1      2014 7.86240E+01 3.48650E+00 0.00000E+00
 -1      2015 7.78740E+01 4.78550E+00 0.00000E+00
 -1      2016 8.31240E+01 3.48650E+00 0.00000E+00
 -1      2017 8.16240E+01 3.48650E+00 0.00000E+00
 -1      2018 8.08740E+01 4.78550E+00 0.00000E+00
 -1      2019 8.61240E+01 3.48650E+00 0.00000E+00
 -1      2020 8.46240E+01 3.48650E+00 0.00000E+00
 -1      2021 8.38740E+01 4.78550E+00 0.00000E+00
 -1      2022 8.91240E+01 3.48650E+00 0.00000E+00
 -1      2023 8.76240E+01 3.48650E+00 0.00000E+00
 -1      2024 8.68740E+01 4.78550E+00 0.00000E+00
 -1      2025 9.21240E+01 3.48650E+00 0.00000E+00
 -1      2026 9.06240E+01 3.48650E+00 0.00000E+00
 -1      2027 8.98740E+01 4.78550E+00 0.00000E+00
 -1      2028 9.51240E+01 3.48650E+00 0.00000E+00
 -1      2029 9.36240E+01 3.48650E+00 0.00000E+00
 -1      2030 9.28740E+01 4.78550E+00 0.00000E+00
 -1      2031 9.81240E+01 3.48650E+00 0.00000E+00
 -1      2032 9.66240E+01 3.48650E+00 0.00000E+00
 -1      2033 9.58740E+01 4.78550E+00 0.00000E+00
 -1      2034 1.01124E+02 3.48650E+00 0.00000E+00
 -1      2035 9.96240E+01 3.48650E+00 0.00000E+00
 -1      2036 9.88740E+01 4.78550E+00 0.00000E+00
 -1      2037 1.04124E+02 3.48650E+00 0.00000E+00
 -1      2038 1.02624E+02 3.48650E+00 0.00000E+00
 -1      2039 1.01874E+02 4.78550E+00 0.00000E+00
 -1      2040 1.07124E+02 3.48650E+00 0.00000E+00
 -1      2041 1.05624E+02 3.48650E+00 0.00000E+00
 -1      2042 1.04874E+02 4.78550E+00 0.00000E+00
 -1      2043 1.10124E+02 3.48650E+00 0.00000E+00
 -1      2044 1.08624E+02 3.48650E+00 0.00000E+00
 -1      2045 1.07874E+02 4.78550E+00 0.00000E+00
 -1      2046 1.13124E+02 3.48650E+00 0.00000E+00
 -1      2047 1.11624E+02 3.48650E+00 0.00000E+00
 -1      2048 1.10874E+02 4.78550E+00 0.00000E+00
 -1      2049 1.16124E+02 3.48650E+00 0.00000E+00
 -1      2050 1.14624E+02 3.48650E+00 0.00000E+00
 -1      2051 1.13874E+02 4.78550E+00 0.00000E+00
 -1      2052 1.19124E+02 3.48650E+00 0.00000E+00
 -1      2053 1.17624E+02 3.48650E+00 0.00000E+00
 -1      2054 1.16874E+02 4.78550E+00 0.00000E+00
 -1      2055 1.22124E+02 3.48650E+00 0.00000E+00
 -1      2056 1.20624E+02 3.48650E+00 0.00000E+00
 -1      2057 1.19874E+02 4.78550E+00 0.00000E+00
 -1      2058 1.25124E+02 3.48650E+00 0.00000E+00
 -1      2059 1.23624E+02 3.48650E+00 0.00000E+00
 -1      2060 1.22874E+02 4.78550E+00 0.00000E+00
 -1      2061 1.28124E+02 3.48650E+00 0.00000E+00
 -1      2062 1.26624E+02 3.48650E+00 0.00000E+00
 -1      2063 1.25874E+02 4.78550E+00 0.00000E+00
 -1      2064 1.31124E+02 3.48650E+00 0.00000E+00
 -1      2065 1.29624E+02 3.48650E+00 0.00000E+00
 -1      2066 1.28874E+02 4.78550E+00 0.00000E+00
 -1      2067 1.34124E+02 3.48650E+00 0.00000E+00
 -1      2068 1.32624E+02 3.48650E+00 0.00000E+00
 -1      2069 1.31874E+02 4.78550E+00 0.00000E+00
 -1      2070 1.37124E+02 3.48650E+00 0.00000E+00
 -1      2071 1.35624E+02 3.48650E+00 0.00000E+00
 -1      2072 1.34874E+02 4.78550E+00 0.00000E+00
 -1      2073 1.40124E+02 3.48650E+00 0.00000E+00
 -1      2074 1.38624E+02 3.48650E+00 0.00000E+00
 -1      2075 1.37874E+02 4.78550E+00 0.00000E+00
 -1      2076 1.43124E+02 3.48650E+00 0.00000E+00
 -1      2077 1.41624E+02 3.48650E+00 0.00000E+00
 -1      2078 1.40874E+02 4.78550E+00 0.00000E+00
 -1      2079 1.45881E+02 3.39637E+00 0.00000E+00
 -1      2080 1.44381E+02 3.39637E+00 0.00000E+00
 -1      2081 1.43631E+02 4.69537E+00 0.00000E+00
 -1      2082 1.46145E+02 4.51512E+00 0.00000E+00
 -1      2083 1.46103E+02 1.25375E+01 0.00000E+00
 -1      2084 1.46103E+02 1.10625E+01 0.00000E+00
 -1      2085 1.46103E+02 9.58750E+00 0.00000E+00
 -1      2086 1.46103E+02 8.11250E+00 0.00000E+00
 -1      2087 1.44804E+02 1.03250E+01 0.00000E+00
 -1      2088 1.46145E+02 5.99013E+00 0.00000E+00
 -1      2089 1.46103E+02 1.54375E+01 0.00000E+00
 -1      2090 1.46103E+02 1.39875E+01 0.00000E+00
 -1      2091 1.44804E+02 1.32500E+01 0.00000E+00
 -1      2092 1.46103E+02 1.83875E+01 0.00000E+00
 -1      2093 1.46103E+02 1.69125E+01 0.00000E+00
 -1      2094 1.44804E+02 1.61750E+01 0.00000E+00
 -1      2095 1.46103E+02 2.13375E+01 0.00000E+00
 -1      2096 1.46103E+02 1.98625E+01 0.00000E+00
 -1      2097 1.44804E+02 1.91250E+01 0.00000E+00
 -1      2098 1.46103E+02 2.42875E+01 0.00000E+00
 -1      2099 1.46103E+02 2.28125E+01 0.00000E+00
 -1      2100 1.44804E+02 2.20750E+01 0.00000E+00
 -1      2101 1.46103E+02 2.72375E+01 0.00000E+00
 -1      2102 1.46103E+02 2.57625E+01 0.00000E+00
 -1      2103 1.44804E+02 2.50250E+01 0.00000E+00
 -1      2104 1.46103E+02 3.01875E+01 0.00000E+00
 -1      2105 1.46103E+02 2.87125E+01 0.00000E+00
 -1      2106 1.44804E+02 2.79750E+01 0.00000E+00
 -1      2107 1.46103E+02 3.30875E+01 0.00000E+00
 -1      2108 1.46103E+02 3.16375E+01 0.00000E+00
 -1      2109 1.44804E+02 3.09000E+01 0.00000E+00
 -1      2110 1.46103E+02 3.60375E+01 0.00000E+00
 -1      2111 1.46103E+02 3.45625E+01 0.00000E+00
 -1      2112 1.44804E+02 3.38250E+01 0.00000E+00
 -1      2113 1.46103E+02 3.89875E+01 0.00000E+00
 -1      2114 1.46103E+02 3.75125E+01 0.00000E+00
 -1      2115 1.44804E+02 3.67750E+01 0.00000E+00
 -1      2116 1.46103E+02 4.19375E+01 0.00000E+00
 -1      2117 1.46103E+02 4.04625E+01 0.00000E+00
 -1      2118 1.44804E+02 3.97250E+01 0.00000E+00
 -1      2119 1.14143E+01 3.29169E+00 0.00000E+00
 -1      2120 9.91425E+00 3.29169E+00 0.00000E+00
 -1      2121 9.74475E+00 4.20106E+00 0.00000E+00
 -1      2122 1.21643E+01 4.59069E+00 0.00000E+00
 -1      2123 4.45130E+01 2.96033E+01 0.00000E+00
 -1      2124 4.48663E+01 3.04034E+01 0.00000E+00
 -1      2125 4.21969E+01 2.66662E+01 0.00000E+00
 -1      2126 4.27710E+01 2.73960E+01 0.00000E+00
 -1      2127 4.53772E+01 3.31698E+01 0.00000E+00
 -1      2128 4.54584E+01 3.40205E+01 0.00000E+00
 -1      2129 4.33082E+01 2.80686E+01 0.00000E+00
 -1      2130 4.38454E+01 2.87412E+01 0.00000E+00
 -1      2131 4.35635E+01 2.72771E+01 0.00000E+00
 -1      2132 3.89700E+00 3.74688E+01 0.00000E+00
 -1      2133 3.89700E+00 3.89437E+01 0.00000E+00
 -1      2134 5.19600E+00 3.96813E+01 0.00000E+00
 -1      2135 5.19600E+00 3.67438E+01 0.00000E+00
 -1      2136 4.03174E+01 2.54993E+01 0.00000E+00
 -1      2137 4.11960E+01 2.58047E+01 0.00000E+00
 -1      2138 3.86738E+01 2.50036E+01 0.00000E+00
 -1      2139 3.94956E+01 2.52514E+01 0.00000E+00
 -1      2140 4.02027E+01 2.46337E+01 0.00000E+00
 -1      2141 3.67678E+01 2.47251E+01 0.00000E+00
 -1      2142 3.76309E+01 2.48389E+01 0.00000E+00
 -1      2143 3.48519E+01 2.48357E+01 0.00000E+00
 -1      2144 3.57150E+01 2.47239E+01 0.00000E+00
 -1      2145 3.30201E+01 2.53442E+01 0.00000E+00
 -1      2146 3.38117E+01 2.50226E+01 0.00000E+00
 -1      2147 3.12671E+01 2.60561E+01 0.00000E+00
 -1      2148 3.21436E+01 2.57002E+01 0.00000E+00
 -1      2149 3.22324E+01 2.47837E+01 0.00000E+00
 -1      2150 2.97352E+01 2.77292E+01 0.00000E+00
 -1      2151 3.03008E+01 2.69405E+01 0.00000E+00
 -1      2152 2.87932E+01 2.93131E+01 0.00000E+00
 -1      2153 2.92647E+01 2.85724E+01 0.00000E+00
 -1      2154 2.78436E+01 3.09146E+01 0.00000E+00
 -1      2155 2.81834E+01 3.01135E+01 0.00000E+00
 -1      2156 2.75019E+01 3.28208E+01 0.00000E+00
 -1      2157 2.76649E+01 3.19452E+01 0.00000E+00
 -1      2158 2.72793E+01 3.48154E+01 0.00000E+00
 -1      2159 2.72819E+01 3.38602E+01 0.00000E+00
 -1      2160 2.81508E+01 3.68110E+01 0.00000E+00
 -1      2161 2.77293E+01 3.59996E+01 0.00000E+00
 -1      2162 2.89877E+01 3.83233E+01 0.00000E+00
 -1      2163 2.85777E+01 3.75993E+01 0.00000E+00
 -1      2164 3.00149E+01 3.98015E+01 0.00000E+00
 -1      2165 2.94824E+01 3.91303E+01 0.00000E+00
 -1      2166 3.14858E+01 4.10843E+01 0.00000E+00
 -1      2167 3.07560E+01 4.05955E+01 0.00000E+00
 -1      2168 3.31646E+01 4.18944E+01 0.00000E+00
 -1      2169 3.23729E+01 4.15325E+01 0.00000E+00
 -1      2170 3.49460E+01 4.24114E+01 0.00000E+00
 -1      2171 3.41069E+01 4.21882E+01 0.00000E+00
 -1      2172 3.68312E+01 4.26379E+01 0.00000E+00
 -1      2173 3.59692E+01 4.26326E+01 0.00000E+00
 -1      2174 3.86096E+01 4.22381E+01 0.00000E+00
 -1      2175 3.78276E+01 4.24364E+01 0.00000E+00
 -1      2176 4.01752E+01 4.16594E+01 0.00000E+00
 -1      2177 3.94553E+01 4.19581E+01 0.00000E+00
 -1      2178 4.16281E+01 4.08030E+01 0.00000E+00
 -1      2179 4.09767E+01 4.12333E+01 0.00000E+00
 -1      2180 4.29271E+01 3.97570E+01 0.00000E+00
 -1      2181 4.22950E+01 4.02641E+01 0.00000E+00
 -1      2182 4.41697E+01 3.83410E+01 0.00000E+00
 -1      2183 4.37841E+01 3.90516E+01 0.00000E+00
 -1      2184 4.48682E+01 3.69139E+01 0.00000E+00
 -1      2185 4.45190E+01 3.76275E+01 0.00000E+00
 -1      2186 4.50799E+01 3.83918E+01 0.00000E+00
 -1      2187 4.52914E+01 3.50996E+01 0.00000E+00
 -1      2188 4.50807E+01 3.59147E+01 0.00000E+00
 -1      2189 4.51077E+01 3.14848E+01 0.00000E+00
 -1      2190 4.52424E+01 3.23273E+01 0.00000E+00
 -1      2191 4.60533E+01 3.26791E+01 0.00000E+00
 -1      2192 1.45826E+02 4.50736E+01 0.00000E+00
 -1      2193 6.42300E+00 4.57510E+01 0.00000E+00
 -1      2194 4.47683E+01 2.88118E+01 0.00000E+00
 -1      2195 4.18539E+01 2.48199E+01 0.00000E+00
 -1      2196 4.20254E+01 2.57430E+01 0.00000E+00
 -1      2197 4.28548E+01 2.56814E+01 0.00000E+00
 -1      2198 7.17300E+00 4.44520E+01 0.00000E+00
 -1      2199 3.39587E+01 4.64505E+01 0.00000E+00
 -1      2200 3.45962E+01 4.55091E+01 0.00000E+00
 -1      2201 3.26837E+01 4.64505E+01 0.00000E+00
 -1      2202 3.99750E+01 4.53517E+01 0.00000E+00
 -1      2203 1.44846E+02 6.72762E+00 0.00000E+00
 -1      2204 1.46008E+02 4.40775E+01 0.00000E+00
 -1      2205 1.45921E+02 4.29335E+01 0.00000E+00
 -1      2206 1.44622E+02 4.21960E+01 0.00000E+00
 -1      2207 1.44257E+02 4.41881E+01 0.00000E+00
 -1      2208 4.56772E+01 3.07552E+01 0.00000E+00
 -1      2209 4.60211E+01 3.46007E+01 0.00000E+00
 -1      2210 4.56416E+01 3.66790E+01 0.00000E+00
 -1      2211 4.38736E+01 3.98107E+01 0.00000E+00
 -1      2212 4.23497E+01 4.10550E+01 0.00000E+00
 -1      2213 4.08811E+01 4.20200E+01 0.00000E+00
 -1      2214 3.92340E+01 4.27261E+01 0.00000E+00
 -1      2215 3.73918E+01 4.32075E+01 0.00000E+00
 -1      2216 3.53723E+01 4.31878E+01 0.00000E+00
 -1      2217 3.34067E+01 4.26728E+01 0.00000E+00
 -1      2218 3.15774E+01 4.19309E+01 0.00000E+00
 -1      2219 2.99492E+01 4.06888E+01 0.00000E+00
 -1      2220 2.87135E+01 3.90877E+01 0.00000E+00
 -1      2221 2.77918E+01 3.74924E+01 0.00000E+00
 -1      2222 2.69149E+01 3.55198E+01 0.00000E+00
 -1      2223 2.61005E+01 3.50400E+01 0.00000E+00
 -1      2224 2.65505E+01 3.62242E+01 0.00000E+00
 -1      2225 2.66850E+01 3.32962E+01 0.00000E+00
 -1      2226 2.70838E+01 3.12262E+01 0.00000E+00
 -1      2227 2.78724E+01 2.93952E+01 0.00000E+00
 -1      2228 3.03896E+01 2.60240E+01 0.00000E+00
 -1      2229 3.04783E+01 2.51075E+01 0.00000E+00
 -1      2230 2.95120E+01 2.59919E+01 0.00000E+00
 -1      2231 3.41491E+01 2.42409E+01 0.00000E+00
 -1      2232 3.83379E+01 2.42211E+01 0.00000E+00
 -1      2233 3.62422E+01 2.40552E+01 0.00000E+00
 -1      2234 2.89527E+01 2.77516E+01 0.00000E+00
 -1      2235 3.19337E+01 4.51515E+01 0.00000E+00
 -1      2236 6.49500E+00 3.01125E+01 0.00000E+00
 -1      2237 6.49500E+00 3.15875E+01 0.00000E+00
 -1      2238 6.49500E+00 3.30625E+01 0.00000E+00
 -1      2239 6.49500E+00 3.45375E+01 0.00000E+00
 -1      2240 7.79400E+00 3.23250E+01 0.00000E+00
 -1      2241 6.49500E+00 2.42125E+01 0.00000E+00
 -1      2242 6.49500E+00 2.56875E+01 0.00000E+00
 -1      2243 6.49500E+00 2.12625E+01 0.00000E+00
 -1      2244 6.49500E+00 2.27375E+01 0.00000E+00
 -1      2245 7.79400E+00 2.34750E+01 0.00000E+00
 -1      2246 6.49500E+00 1.83625E+01 0.00000E+00
 -1      2247 6.49500E+00 1.98125E+01 0.00000E+00
 -1      2248 7.79400E+00 2.05500E+01 0.00000E+00
 -1      2249 6.49500E+00 1.54125E+01 0.00000E+00
 -1      2250 6.49500E+00 1.68875E+01 0.00000E+00
 -1      2251 7.79400E+00 1.76250E+01 0.00000E+00
 -1      2252 6.49500E+00 1.24625E+01 0.00000E+00
 -1      2253 6.49500E+00 1.39375E+01 0.00000E+00
 -1      2254 7.79400E+00 1.46750E+01 0.00000E+00
 -1      2255 6.49500E+00 9.51250E+00 0.00000E+00
 -1      2256 6.49500E+00 1.09875E+01 0.00000E+00
 -1      2257 7.79400E+00 1.17250E+01 0.00000E+00
 -1      2258 6.49500E+00 6.56250E+00 0.00000E+00
 -1      2259 6.49500E+00 8.03750E+00 0.00000E+00
 -1      2260 7.79400E+00 8.77500E+00 0.00000E+00
 -1      2261 6.84975E+00 4.82969E+00 0.00000E+00
 -1      2262 6.68025E+00 5.73906E+00 0.00000E+00
 -1      2263 7.97925E+00 6.47656E+00 0.00000E+00
 -1      2264 8.34975E+00 4.82969E+00 0.00000E+00
 -1      2265 4.21125E+01 4.41591E+01 0.00000E+00
 -1      2266 4.36875E+01 4.41591E+01 0.00000E+00
 -1      2267 9.90000E+00 4.35050E+01 0.00000E+00
 -1      2268 1.14000E+01 4.35050E+01 0.00000E+00
 -1      2269 4.52450E+01 2.77531E+01 0.00000E+00
 -1      2270 4.59126E+01 2.86152E+01 0.00000E+00
 -1      2271 1.29000E+01 4.35050E+01 0.00000E+00
 -1      2272 1.44000E+01 4.35050E+01 0.00000E+00
 -1      2273 1.21500E+01 4.22060E+01 0.00000E+00
 -1      2274 1.59750E+01 4.35050E+01 0.00000E+00
 -1      2275 1.75500E+01 4.35050E+01 0.00000E+00
 -1      2276 1.52250E+01 4.22060E+01 0.00000E+00
 -1      2277 1.90500E+01 4.35050E+01 0.00000E+00
 -1      2278 2.05500E+01 4.35050E+01 0.00000E+00
 -1      2279 1.83000E+01 4.22060E+01 0.00000E+00
 -1      2280 2.20500E+01 4.35050E+01 0.00000E+00
 -1      2281 2.35500E+01 4.35050E+01 0.00000E+00
 -1      2282 2.13000E+01 4.22060E+01 0.00000E+00
 -1      2283 2.50500E+01 4.35050E+01 0.00000E+00
 -1      2284 2.65500E+01 4.35050E+01 0.00000E+00
 -1      2285 2.43000E+01 4.22060E+01 0.00000E+00
 -1      2286 2.80500E+01 4.37789E+01 0.00000E+00
 -1      2287 2.95500E+01 4.37789E+01 0.00000E+00
 -1      2288 1.43589E+02 6.81775E+00 0.00000E+00
 -1      2289 3.39582E+01 4.42328E+01 0.00000E+00
 -1      2290 3.49870E+01 4.42430E+01 0.00000E+00
 -1      2291 4.52250E+01 4.39915E+01 0.00000E+00
 -1      2292 4.67250E+01 4.39915E+01 0.00000E+00
 -1      2293 4.82250E+01 4.39915E+01 0.00000E+00
 -1      2294 4.97250E+01 4.39915E+01 0.00000E+00
 -1      2295 4.74750E+01 4.27988E+01 0.00000E+00
 -1      2296 5.12250E+01 4.39915E+01 0.00000E+00
 -1      2297 5.27250E+01 4.39915E+01 0.00000E+00
 -1      2298 5.04750E+01 4.27988E+01 0.00000E+00
 -1      2299 5.42250E+01 4.39915E+01 0.00000E+00
 -1      2300 5.57250E+01 4.39915E+01 0.00000E+00
 -1      2301 5.34750E+01 4.27988E+01 0.00000E+00
 -1      2302 5.72250E+01 4.39915E+01 0.00000E+00
 -1      2303 5.87250E+01 4.39915E+01 0.00000E+00
 -1      2304 5.64750E+01 4.27988E+01 0.00000E+00
 -1      2305 6.02250E+01 4.39915E+01 0.00000E+00
 -1      2306 6.17250E+01 4.39915E+01 0.00000E+00
 -1      2307 5.94750E+01 4.27988E+01 0.00000E+00
 -1      2308 6.33000E+01 4.39915E+01 0.00000E+00
 -1      2309 6.48750E+01 4.39915E+01 0.00000E+00
 -1      2310 6.25500E+01 4.27988E+01 0.00000E+00
 -1      2311 6.63750E+01 4.39915E+01 0.00000E+00
 -1      2312 6.78750E+01 4.39915E+01 0.00000E+00
 -1      2313 6.56250E+01 4.27988E+01 0.00000E+00
 -1      2314 6.93750E+01 4.39915E+01 0.00000E+00
 -1      2315 7.08750E+01 4.39915E+01 0.00000E+00
 -1      2316 6.86250E+01 4.27988E+01 0.00000E+00
 -1      2317 7.23750E+01 4.39915E+01 0.00000E+00
 -1      2318 7.38750E+01 4.39915E+01 0.00000E+00
 -1      2319 7.16250E+01 4.27988E+01 0.00000E+00
 -1      2320 7.53750E+01 4.39915E+01 0.00000E+00
 -1      2321 7.68750E+01 4.39915E+01 0.00000E+00
 -1      2322 7.46250E+01 4.27988E+01 0.00000E+00
 -1      2323 7.83750E+01 4.39915E+01 0.00000E+00
 -1      2324 7.98750E+01 4.39915E+01 0.00000E+00
 -1      2325 7.76250E+01 4.27988E+01 0.00000E+00
 -1      2326 8.13750E+01 4.39915E+01 0.00000E+00
 -1      2327 8.28750E+01 4.39915E+01 0.00000E+00
 -1      2328 8.06250E+01 4.27988E+01 0.00000E+00
 -1      2329 8.44500E+01 4.39915E+01 0.00000E+00
 -1      2330 8.60250E+01 4.39915E+01 0.00000E+00
 -1      2331 8.37000E+01 4.27988E+01 0.00000E+00
 -1      2332 8.75250E+01 4.39915E+01 0.00000E+00
 -1      2333 8.90250E+01 4.39915E+01 0.00000E+00
 -1      2334 8.67750E+01 4.27988E+01 0.00000E+00
 -1      2335 9.05250E+01 4.39915E+01 0.00000E+00
 -1      2336 9.20250E+01 4.39915E+01 0.00000E+00
 -1      2337 8.97750E+01 4.27988E+01 0.00000E+00
 -1      2338 9.35250E+01 4.39915E+01 0.00000E+00
 -1      2339 9.50250E+01 4.39915E+01 0.00000E+00
 -1      2340 9.27750E+01 4.27988E+01 0.00000E+00
 -1      2341 9.65250E+01 4.39915E+01 0.00000E+00
 -1      2342 9.80250E+01 4.39915E+01 0.00000E+00
 -1      2343 9.57750E+01 4.27988E+01 0.00000E+00
 -1      2344 9.95250E+01 4.39915E+01 0.00000E+00
 -1      2345 1.01025E+02 4.39915E+01 0.00000E+00
 -1      2346 9.87750E+01 4.27988E+01 0.00000E+00
 -1      2347 1.02525E+02 4.39915E+01 0.00000E+00
 -1      2348 1.04025E+02 4.39915E+01 0.00000E+00
 -1      2349 1.01775E+02 4.27988E+01 0.00000E+00
 -1      2350 1.05600E+02 4.39915E+01 0.00000E+00
 -1      2351 1.07175E+02 4.39915E+01 0.00000E+00
 -1      2352 1.04850E+02 4.27988E+01 0.00000E+00
 -1      2353 1.08675E+02 4.39915E+01 0.00000E+00
 -1      2354 1.10175E+02 4.39915E+01 0.00000E+00
 -1      2355 1.07925E+02 4.27988E+01 0.00000E+00
 -1      2356 1.11675E+02 4.39915E+01 0.00000E+00
 -1      2357 1.13175E+02 4.39915E+01 0.00000E+00
 -1      2358 1.10925E+02 4.27988E+01 0.00000E+00
 -1      2359 1.14675E+02 4.39915E+01 0.00000E+00
 -1      2360 1.16175E+02 4.39915E+01 0.00000E+00
 -1      2361 1.13925E+02 4.27988E+01 0.00000E+00
 -1      2362 1.17675E+02 4.39915E+01 0.00000E+00
 -1      2363 1.19175E+02 4.39915E+01 0.00000E+00
 -1      2364 1.16925E+02 4.27988E+01 0.00000E+00
 -1      2365 1.20675E+02 4.39915E+01 0.00000E+00
 -1      2366 1.22175E+02 4.39915E+01 0.00000E+00
 -1      2367 1.19925E+02 4.27988E+01 0.00000E+00
 -1      2368 1.23675E+02 4.39915E+01 0.00000E+00
 -1      2369 1.25175E+02 4.39915E+01 0.00000E+00
 -1      2370 1.22925E+02 4.27988E+01 0.00000E+00
 -1      2371 1.26750E+02 4.39915E+01 0.00000E+00
 -1      2372 1.28325E+02 4.39915E+01 0.00000E+00
 -1      2373 1.26000E+02 4.27988E+01 0.00000E+00
 -1      2374 1.29825E+02 4.39915E+01 0.00000E+00
 -1      2375 1.31325E+02 4.39915E+01 0.00000E+00
 -1      2376 1.29075E+02 4.27988E+01 0.00000E+00
 -1      2377 1.32825E+02 4.39915E+01 0.00000E+00
 -1      2378 1.34325E+02 4.39915E+01 0.00000E+00
 -1      2379 1.32075E+02 4.27988E+01 0.00000E+00
 -1      2380 1.35825E+02 4.39915E+01 0.00000E+00
 -1      2381 1.37325E+02 4.39915E+01 0.00000E+00
 -1      2382 1.35075E+02 4.27988E+01 0.00000E+00
 -1      2383 1.38825E+02 4.39915E+01 0.00000E+00
 -1      2384 1.40325E+02 4.39915E+01 0.00000E+00
 -1      2385 1.38075E+02 4.27988E+01 0.00000E+00
 -1      2386 1.41541E+02 4.40898E+01 0.00000E+00
 -1      2387 1.43041E+02 4.40898E+01 0.00000E+00
 -1      2388 1.43223E+02 4.30938E+01 0.00000E+00
 -1      2389 1.40791E+02 4.28971E+01 0.00000E+00
 -1      2390 2.16240E+01 6.08450E+00 0.00000E+00
 -1      2391 2.01240E+01 6.08450E+00 0.00000E+00
 -1      2392 1.86240E+01 6.08450E+00 0.00000E+00
 -1      2393 1.71240E+01 6.08450E+00 0.00000E+00
 -1      2394 1.93740E+01 7.38350E+00 0.00000E+00
 -1      2395 1.56240E+01 6.08450E+00 0.00000E+00
 -1      2396 1.41240E+01 6.08450E+00 0.00000E+00
 -1      2397 1.63740E+01 7.38350E+00 0.00000E+00
 -1      2398 2.46240E+01 6.08450E+00 0.00000E+00
 -1      2399 2.31240E+01 6.08450E+00 0.00000E+00
 -1      2400 2.23740E+01 7.38350E+00 0.00000E+00
 -1      2401 2.76240E+01 6.08450E+00 0.00000E+00
 -1      2402 2.61240E+01 6.08450E+00 0.00000E+00
 -1      2403 2.53740E+01 7.38350E+00 0.00000E+00
 -1      2404 3.06240E+01 6.08450E+00 0.00000E+00
 -1      2405 2.91240E+01 6.08450E+00 0.00000E+00
 -1      2406 2.83740E+01 7.38350E+00 0.00000E+00
 -1      2407 3.36240E+01 6.08450E+00 0.00000E+00
 -1      2408 3.21240E+01 6.08450E+00 0.00000E+00
 -1      2409 3.13740E+01 7.38350E+00 0.00000E+00
 -1      2410 3.66240E+01 6.08450E+00 0.00000E+00
 -1      2411 3.51240E+01 6.08450E+00 0.00000E+00
 -1      2412 3.43740E+01 7.38350E+00 0.00000E+00
 -1      2413 3.96240E+01 6.08450E+00 0.00000E+00
 -1      2414 3.81240E+01 6.08450E+00 0.00000E+00
 -1      2415 3.73740E+01 7.38350E+00 0.00000E+00
 -1      2416 4.26240E+01 6.08450E+00 0.00000E+00
 -1      2417 4.11240E+01 6.08450E+00 0.00000E+00
 -1      2418 4.03740E+01 7.38350E+00 0.00000E+00
 -1      2419 4.56240E+01 6.08450E+00 0.00000E+00
 -1      2420 4.41240E+01 6.08450E+00 0.00000E+00
 -1      2421 4.33740E+01 7.38350E+00 0.00000E+00
 -1      2422 4.86240E+01 6.08450E+00 0.00000E+00
 -1      2423 4.71240E+01 6.08450E+00 0.00000E+00
 -1      2424 4.63740E+01 7.38350E+00 0.00000E+00
 -1      2425 5.16240E+01 6.08450E+00 0.00000E+00
 -1      2426 5.01240E+01 6.08450E+00 0.00000E+00
 -1      2427 4.93740E+01 7.38350E+00 0.00000E+00
 -1      2428 5.46240E+01 6.08450E+00 0.00000E+00
 -1      2429 5.31240E+01 6.08450E+00 0.00000E+00
 -1      2430 5.23740E+01 7.38350E+00 0.00000E+00
 -1      2431 5.76240E+01 6.08450E+00 0.00000E+00
 -1      2432 5.61240E+01 6.08450E+00 0.00000E+00
 -1      2433 5.53740E+01 7.38350E+00 0.00000E+00
 -1      2434 6.06240E+01 6.08450E+00 0.00000E+00
 -1      2435 5.91240E+01 6.08450E+00 0.00000E+00
 -1      2436 5.83740E+01 7.38350E+00 0.00000E+00
 -1      2437 6.36240E+01 6.08450E+00 0.00000E+00
 -1      2438 6.21240E+01 6.08450E+00 0.00000E+00
 -1      2439 6.13740E+01 7.38350E+00 0.00000E+00
 -1      2440 6.66240E+01 6.08450E+00 0.00000E+00
 -1      2441 6.51240E+01 6.08450E+00 0.00000E+00
 -1      2442 6.43740E+01 7.38350E+00 0.00000E+00
 -1      2443 6.96240E+01 6.08450E+00 0.00000E+00
 -1      2444 6.81240E+01 6.08450E+00 0.00000E+00
 -1      2445 6.73740E+01 7.38350E+00 0.00000E+00
 -1      2446 7.26240E+01 6.08450E+00 0.00000E+00
 -1      2447 7.11240E+01 6.08450E+00 0.00000E+00
 -1      2448 7.03740E+01 7.38350E+00 0.00000E+00
 -1      2449 7.56240E+01 6.08450E+00 0.00000E+00
 -1      2450 7.41240E+01 6.08450E+00 0.00000E+00
 -1      2451 7.33740E+01 7.38350E+00 0.00000E+00
 -1      2452 7.86240E+01 6.08450E+00 0.00000E+00
 -1      2453 7.71240E+01 6.08450E+00 0.00000E+00
 -1      2454 7.63740E+01 7.38350E+00 0.00000E+00
 -1      2455 8.16240E+01 6.08450E+00 0.00000E+00
 -1      2456 8.01240E+01 6.08450E+00 0.00000E+00
 -1      2457 7.93740E+01 7.38350E+00 0.00000E+00
 -1      2458 8.46240E+01 6.08450E+00 0.00000E+00
 -1      2459 8.31240E+01 6.08450E+00 0.00000E+00
 -1      2460 8.23740E+01 7.38350E+00 0.00000E+00
 -1      2461 8.76240E+01 6.08450E+00 0.00000E+00
 -1      2462 8.61240E+01 6.08450E+00 0.00000E+00
 -1      2463 8.53740E+01 7.38350E+00 0.00000E+00
 -1      2464 9.06240E+01 6.08450E+00 0.00000E+00
 -1      2465 8.91240E+01 6.08450E+00 0.00000E+00
 -1      2466 8.83740E+01 7.38350E+00 0.00000E+00
 -1      2467 9.36240E+01 6.08450E+00 0.00000E+00
 -1      2468 9.21240E+01 6.08450E+00 0.00000E+00
 -1      2469 9.13740E+01 7.38350E+00 0.00000E+00
 -1      2470 9.66240E+01 6.08450E+00 0.00000E+00
 -1      2471 9.51240E+01 6.08450E+00 0.00000E+00
 -1      2472 9.43740E+01 7.38350E+00 0.00000E+00
 -1      2473 9.96240E+01 6.08450E+00 0.00000E+00
 -1      2474 9.81240E+01 6.08450E+00 0.00000E+00
 -1      2475 9.73740E+01 7.38350E+00 0.00000E+00
 -1      2476 1.02624E+02 6.08450E+00 0.00000E+00
 -1      2477 1.01124E+02 6.08450E+00 0.00000E+00
 -1      2478 1.00374E+02 7.38350E+00 0.00000E+00
 -1      2479 1.05624E+02 6.08450E+00 0.00000E+00
 -1      2480 1.04124E+02 6.08450E+00 0.00000E+00
 -1      2481 1.03374E+02 7.38350E+00 0.00000E+00
 -1      2482 1.08624E+02 6.08450E+00 0.00000E+00
 -1      2483 1.07124E+02 6.08450E+00 0.00000E+00
 -1      2484 1.06374E+02 7.38350E+00 0.00000E+00
 -1      2485 1.11624E+02 6.08450E+00 0.00000E+00
 -1      2486 1.10124E+02 6.08450E+00 0.00000E+00
 -1      2487 1.09374E+02 7.38350E+00 0.00000E+00
 -1      2488 1.14624E+02 6.08450E+00 0.00000E+00
 -1      2489 1.13124E+02 6.08450E+00 0.00000E+00
 -1      2490 1.12374E+02 7.38350E+00 0.00000E+00
 -1      2491 1.17624E+02 6.08450E+00 0.00000E+00
 -1      2492 1.16124E+02 6.08450E+00 0.00000E+00
 -1      2493 1.15374E+02 7.38350E+00 0.00000E+00
 -1      2494 1.20624E+02 6.08450E+00 0.00000E+00
 -1      2495 1.19124E+02 6.08450E+00 0.00000E+00
 -1      2496 1.18374E+02 7.38350E+00 0.00000E+00
 -1      2497 1.23624E+02 6.08450E+00 0.00000E+00
 -1      2498 1.22124E+02 6.08450E+00 0.00000E+00
 -1      2499 1.21374E+02 7.38350E+00 0.00000E+00
 -1      2500 1.26624E+02 6.08450E+00 0.00000E+00
 -1      2501 1.25124E+02 6.08450E+00 0.00000E+00
 -1      2502 1.24374E+02 7.38350E+00 0.00000E+00
 -1      2503 1.29624E+02 6.08450E+00 0.00000E+00
 -1      2504 1.28124E+02 6.08450E+00 0.00000E+00
 -1      2505 1.27374E+02 7.38350E+00 0.00000E+00
 -1      2506 1.32624E+02 6.08450E+00 0.00000E+00
 -1      2507 1.31124E+02 6.08450E+00 0.00000E+00
 -1      2508 1.30374E+02 7.38350E+00 0.00000E+00
 -1      2509 1.35624E+02 6.08450E+00 0.00000E+00
 -1      2510 1.34124E+02 6.08450E+00 0.00000E+00
 -1      2511 1.33374E+02 7.38350E+00 0.00000E+00
 -1      2512 1.38624E+02 6.08450E+00 0.00000E+00
 -1      2513 1.37124E+02 6.08450E+00 0.00000E+00
 -1      2514 1.36374E+02 7.38350E+00 0.00000E+00
 -1      2515 1.41624E+02 6.08450E+00 0.00000E+00
 -1      2516 1.40124E+02 6.08450E+00 0.00000E+00
 -1      2517 1.39374E+02 7.38350E+00 0.00000E+00
 -1      2518 3.60102E+01 4.44642E+01 0.00000E+00
 -1      2519 1.43505E+02 1.69125E+01 0.00000E+00
 -1      2520 1.43505E+02 1.54375E+01 0.00000E+00
 -1      2521 1.43505E+02 1.39875E+01 0.00000E+00
 -1      2522 1.43505E+02 1.25375E+01 0.00000E+00
 -1      2523 1.42206E+02 1.47250E+01 0.00000E+00
 -1      2524 1.43505E+02 1.10625E+01 0.00000E+00
 -1      2525 1.43505E+02 9.58750E+00 0.00000E+00
 -1      2526 1.42206E+02 1.18000E+01 0.00000E+00
 -1      2527 4.63934E+01 3.00277E+01 0.00000E+00
 -1      2528 4.66348E+01 3.11091E+01 0.00000E+00
 -1      2529 1.43505E+02 1.98625E+01 0.00000E+00
 -1      2530 1.43505E+02 1.83875E+01 0.00000E+00
 -1      2531 1.42206E+02 1.76500E+01 0.00000E+00
 -1      2532 1.43505E+02 2.28125E+01 0.00000E+00
 -1      2533 1.43505E+02 2.13375E+01 0.00000E+00
 -1      2534 1.42206E+02 2.06000E+01 0.00000E+00
 -1      2535 1.43505E+02 2.57625E+01 0.00000E+00
 -1      2536 1.43505E+02 2.42875E+01 0.00000E+00
 -1      2537 1.42206E+02 2.35500E+01 0.00000E+00
 -1      2538 1.43505E+02 2.87125E+01 0.00000E+00
 -1      2539 1.43505E+02 2.72375E+01 0.00000E+00
 -1      2540 1.42206E+02 2.65000E+01 0.00000E+00
 -1      2541 1.43505E+02 3.16125E+01 0.00000E+00
 -1      2542 1.43505E+02 3.01625E+01 0.00000E+00
 -1      2543 1.42206E+02 2.94250E+01 0.00000E+00
 -1      2544 1.43505E+02 3.45625E+01 0.00000E+00
 -1      2545 1.43505E+02 3.30875E+01 0.00000E+00
 -1      2546 1.42206E+02 3.23500E+01 0.00000E+00
 -1      2547 1.43505E+02 3.75125E+01 0.00000E+00
 -1      2548 1.43505E+02 3.60375E+01 0.00000E+00
 -1      2549 1.42206E+02 3.53000E+01 0.00000E+00
 -1      2550 1.43505E+02 4.04625E+01 0.00000E+00
 -1      2551 1.43505E+02 3.89875E+01 0.00000E+00
 -1      2552 1.42206E+02 3.82500E+01 0.00000E+00
 -1      2553 6.55950E+00 4.28890E+01 0.00000E+00
 -1      2554 8.53650E+00 4.32410E+01 0.00000E+00
 -1      2555 9.28650E+00 4.19420E+01 0.00000E+00
 -1      2556 6.55950E+00 4.14140E+01 0.00000E+00
 -1      2557 4.69521E+01 3.41923E+01 0.00000E+00
 -1      2558 4.67851E+01 3.52715E+01 0.00000E+00
 -1      2559 4.48205E+01 4.00878E+01 0.00000E+00
 -1      2560 4.39635E+01 4.07932E+01 0.00000E+00
 -1      2561 3.34848E+01 2.35315E+01 0.00000E+00
 -1      2562 3.45250E+01 2.33446E+01 0.00000E+00
 -1      2563 4.41706E+01 2.64079E+01 0.00000E+00
 -1      2564 4.47078E+01 2.70805E+01 0.00000E+00
 -1      2565 4.58521E+01 2.68839E+01 0.00000E+00
 -1      2566 6.49500E+00 2.71625E+01 0.00000E+00
 -1      2567 6.49500E+00 2.86375E+01 0.00000E+00
 -1      2568 7.79400E+00 2.93750E+01 0.00000E+00
 -1      2569 7.79400E+00 2.64250E+01 0.00000E+00
 -1      2570 3.57167E+01 2.32808E+01 0.00000E+00
 -1      2571 3.67695E+01 2.32820E+01 0.00000E+00
 -1      2572 4.00394E+01 2.36887E+01 0.00000E+00
 -1      2573 4.08612E+01 2.39366E+01 0.00000E+00
 -1      2574 2.80052E+01 2.77757E+01 0.00000E+00
 -1      2575 2.84757E+01 2.69325E+01 0.00000E+00
 -1      2576 3.79437E+01 2.33331E+01 0.00000E+00
 -1      2577 3.89867E+01 2.34978E+01 0.00000E+00
 -1      2578 3.14715E+01 2.41671E+01 0.00000E+00
 -1      2579 3.23479E+01 2.38112E+01 0.00000E+00
 -1      2580 2.67856E+01 2.93765E+01 0.00000E+00
 -1      2581 2.73954E+01 2.85761E+01 0.00000E+00
 -1      2582 2.69184E+01 2.77571E+01 0.00000E+00
 -1      2583 2.61495E+01 3.15949E+01 0.00000E+00
 -1      2584 2.63283E+01 3.05643E+01 0.00000E+00
 -1      2585 2.57094E+01 3.36737E+01 0.00000E+00
 -1      2586 2.59295E+01 3.26343E+01 0.00000E+00
 -1      2587 2.51739E+01 3.19725E+01 0.00000E+00
 -1      2588 2.72881E+01 3.82750E+01 0.00000E+00
 -1      2589 2.68611E+01 3.74866E+01 0.00000E+00
 -1      2590 2.82775E+01 3.98890E+01 0.00000E+00
 -1      2591 2.77828E+01 3.90820E+01 0.00000E+00
 -1      2592 2.68521E+01 3.90762E+01 0.00000E+00
 -1      2593 2.97452E+01 4.21183E+01 0.00000E+00
 -1      2594 2.90041E+01 4.13243E+01 0.00000E+00
 -1      2595 4.22913E+01 4.23639E+01 0.00000E+00
 -1      2596 4.14898E+01 4.27900E+01 0.00000E+00
 -1      2597 4.34609E+01 4.13091E+01 0.00000E+00
 -1      2598 4.27939E+01 4.18480E+01 0.00000E+00
 -1      2599 4.34026E+01 4.26180E+01 0.00000E+00
 -1      2600 4.44077E+01 4.15862E+01 0.00000E+00
 -1      2601 4.61000E+01 3.84489E+01 0.00000E+00
 -1      2602 4.57508E+01 3.91624E+01 0.00000E+00
 -1      2603 4.65726E+01 3.62706E+01 0.00000E+00
 -1      2604 4.63602E+01 3.72698E+01 0.00000E+00
 -1      2605 4.75036E+01 3.58622E+01 0.00000E+00
 -1      2606 4.67086E+01 3.21423E+01 0.00000E+00
 -1      2607 4.68434E+01 3.29848E+01 0.00000E+00
 -1      2608 1.42839E+02 8.11675E+00 0.00000E+00
 -1      2609 7.79400E+00 3.52687E+01 0.00000E+00
 -1      2610 6.49500E+00 3.60062E+01 0.00000E+00
 -1      2611 6.49500E+00 3.74750E+01 0.00000E+00
 -1      2612 9.55950E+00 5.02450E+00 0.00000E+00
 -1      2613 9.37425E+00 5.84794E+00 0.00000E+00
 -1      2614 1.07692E+01 5.21931E+00 0.00000E+00
 -1      2615 4.76074E+01 3.36555E+01 0.00000E+00
 -1      2616 3.75102E+01 4.44642E+01 0.00000E+00
 -1      2617 4.16906E+01 2.38749E+01 0.00000E+00
 -1      2618 4.25200E+01 2.38133E+01 0.00000E+00
 -1      2619 4.15273E+01 2.29300E+01 0.00000E+00
 -1      2620 4.68702E+01 2.89691E+01 0.00000E+00
 -1      2621 2.73000E+01 4.24799E+01 0.00000E+00
 -1      2622 3.91840E+01 4.45014E+01 0.00000E+00
 -1      2623 4.05340E+01 4.43338E+01 0.00000E+00
 -1      2624 3.74182E+01 2.25587E+01 0.00000E+00
 -1      2625 3.50523E+01 2.25715E+01 0.00000E+00
 -1      2626 3.28634E+01 4.45882E+01 0.00000E+00
 -1      2627 3.32542E+01 4.33220E+01 0.00000E+00
 -1      2628 4.74249E+01 3.14148E+01 0.00000E+00
 -1      2629 1.43406E+02 4.20977E+01 0.00000E+00
 -1      2630 1.42107E+02 4.13602E+01 0.00000E+00
 -1      2631 6.55950E+00 3.99453E+01 0.00000E+00
 -1      2632 1.30515E+01 5.74931E+00 0.00000E+00
 -1      2633 1.18418E+01 5.55450E+00 0.00000E+00
 -1      2634 1.16565E+01 6.37794E+00 0.00000E+00
 -1      2635 1.38015E+01 7.04831E+00 0.00000E+00
 -1      2636 4.58406E+01 4.01449E+01 0.00000E+00
 -1      2637 4.38276E+01 2.45617E+01 0.00000E+00
 -1      2638 4.39991E+01 2.54848E+01 0.00000E+00
 -1      2639 4.51434E+01 2.52882E+01 0.00000E+00
 -1      2640 3.23119E+01 4.30283E+01 0.00000E+00
 -1      2641 4.70310E+01 3.80405E+01 0.00000E+00
 -1      2642 2.80734E+01 4.13185E+01 0.00000E+00
 -1      2643 2.53450E+01 3.43782E+01 0.00000E+00
 -1      2644 2.45894E+01 3.37163E+01 0.00000E+00
 -1      2645 2.49806E+01 3.50826E+01 0.00000E+00
 -1      2646 2.58513E+01 2.97453E+01 0.00000E+00
 -1      2647 3.05939E+01 2.41350E+01 0.00000E+00
 -1      2648 3.07095E+01 2.31625E+01 0.00000E+00
 -1      2649 2.97163E+01 2.41029E+01 0.00000E+00
 -1      2650 2.60467E+01 3.70068E+01 0.00000E+00
 -1      2651 3.27239E+01 2.29150E+01 0.00000E+00
 -1      2652 2.85645E+01 2.60160E+01 0.00000E+00
 -1      2653 2.86532E+01 2.50995E+01 0.00000E+00
 -1      2654 2.76169E+01 2.60402E+01 0.00000E+00
 -1      2655 4.44375E+01 4.29664E+01 0.00000E+00
 -1      2656 3.96452E+01 2.28007E+01 0.00000E+00
 -1      2657 3.12297E+01 4.42407E+01 0.00000E+00
 -1      2658 3.85066E+01 4.42627E+01 0.00000E+00
 -1      2659 3.04797E+01 4.32156E+01 0.00000E+00
 -1      2660 3.14248E+01 4.25801E+01 0.00000E+00
 -1      2661 1.41540E+02 8.85425E+00 0.00000E+00
 -1      2662 3.99114E+01 4.29647E+01 0.00000E+00
 -1      2663 3.90657E+01 4.32447E+01 0.00000E+00
 -1      2664 9.09300E+00 1.98250E+01 0.00000E+00
 -1      2665 9.09300E+00 2.12750E+01 0.00000E+00
 -1      2666 9.09300E+00 2.27500E+01 0.00000E+00
 -1      2667 9.09300E+00 2.42250E+01 0.00000E+00
 -1      2668 1.03920E+01 2.20250E+01 0.00000E+00
 -1      2669 9.09300E+00 1.39375E+01 0.00000E+00
 -1      2670 9.09300E+00 1.54125E+01 0.00000E+00
 -1      2671 9.09300E+00 1.09875E+01 0.00000E+00
 -1      2672 9.09300E+00 1.24625E+01 0.00000E+00
 -1      2673 1.03920E+01 1.32000E+01 0.00000E+00
 -1      2674 9.18900E+00 6.67137E+00 0.00000E+00
 -1      2675 9.00375E+00 7.49481E+00 0.00000E+00
 -1      2676 1.03988E+01 6.86619E+00 0.00000E+00
 -1      2677 4.13215E+01 4.33087E+01 0.00000E+00
 -1      2678 3.68756E+01 2.15090E+01 0.00000E+00
 -1      2679 3.80499E+01 2.15601E+01 0.00000E+00
 -1      2680 1.44375E+01 4.09070E+01 0.00000E+00
 -1      2681 1.60125E+01 4.09070E+01 0.00000E+00
 -1      2682 1.75125E+01 4.09070E+01 0.00000E+00
 -1      2683 1.90125E+01 4.09070E+01 0.00000E+00
 -1      2684 1.67250E+01 3.96080E+01 0.00000E+00
 -1      2685 2.05125E+01 4.09070E+01 0.00000E+00
 -1      2686 2.20125E+01 4.09070E+01 0.00000E+00
 -1      2687 1.97250E+01 3.96080E+01 0.00000E+00
 -1      2688 4.82016E+01 3.08401E+01 0.00000E+00
 -1      2689 4.82754E+01 3.18732E+01 0.00000E+00
 -1      2690 1.40891E+02 4.12619E+01 0.00000E+00
 -1      2691 4.69105E+01 4.02902E+01 0.00000E+00
 -1      2692 4.59802E+01 4.12155E+01 0.00000E+00
 -1      2693 4.97250E+01 4.16899E+01 0.00000E+00
 -1      2694 5.12250E+01 4.16899E+01 0.00000E+00
 -1      2695 5.27250E+01 4.16899E+01 0.00000E+00
 -1      2696 5.42250E+01 4.16899E+01 0.00000E+00
 -1      2697 5.19750E+01 4.05810E+01 0.00000E+00
 -1      2698 5.57250E+01 4.16899E+01 0.00000E+00
 -1      2699 5.72250E+01 4.16899E+01 0.00000E+00
 -1      2700 5.49750E+01 4.05810E+01 0.00000E+00
 -1      2701 5.87250E+01 4.16899E+01 0.00000E+00
 -1      2702 6.02250E+01 4.16899E+01 0.00000E+00
 -1      2703 5.79750E+01 4.05810E+01 0.00000E+00
 -1      2704 6.18000E+01 4.16899E+01 0.00000E+00
 -1      2705 6.33750E+01 4.16899E+01 0.00000E+00
 -1      2706 6.10500E+01 4.05810E+01 0.00000E+00
 -1      2707 6.48750E+01 4.16899E+01 0.00000E+00
 -1      2708 6.63750E+01 4.16899E+01 0.00000E+00
 -1      2709 6.41250E+01 4.05810E+01 0.00000E+00
 -1      2710 6.78750E+01 4.16899E+01 0.00000E+00
 -1      2711 6.93750E+01 4.16899E+01 0.00000E+00
 -1      2712 6.71250E+01 4.05810E+01 0.00000E+00
 -1      2713 7.08750E+01 4.16899E+01 0.00000E+00
 -1      2714 7.23750E+01 4.16899E+01 0.00000E+00
 -1      2715 7.01250E+01 4.05810E+01 0.00000E+00
 -1      2716 7.38750E+01 4.16899E+01 0.00000E+00
 -1      2717 7.53750E+01 4.16899E+01 0.00000E+00
 -1      2718 7.31250E+01 4.05810E+01 0.00000E+00
 -1      2719 7.68750E+01 4.16899E+01 0.00000E+00
 -1      2720 7.83750E+01 4.16899E+01 0.00000E+00
 -1      2721 7.61250E+01 4.05810E+01 0.00000E+00
 -1      2722 7.98750E+01 4.16899E+01 0.00000E+00
 -1      2723 8.13750E+01 4.16899E+01 0.00000E+00
 -1      2724 7.91250E+01 4.05810E+01 0.00000E+00
 -1      2725 8.29500E+01 4.16899E+01 0.00000E+00
 -1      2726 8.45250E+01 4.16899E+01 0.00000E+00
 -1      2727 8.22000E+01 4.05810E+01 0.00000E+00
 -1      2728 8.60250E+01 4.16899E+01 0.00000E+00
 -1      2729 8.75250E+01 4.16899E+01 0.00000E+00
 -1      2730 8.52750E+01 4.05810E+01 0.00000E+00
 -1      2731 8.90250E+01 4.16899E+01 0.00000E+00
 -1      2732 9.05250E+01 4.16899E+01 0.00000E+00
 -1      2733 8.82750E+01 4.05810E+01 0.00000E+00
 -1      2734 9.20250E+01 4.16899E+01 0.00000E+00
 -1      2735 9.35250E+01 4.16899E+01 0.00000E+00
 -1      2736 9.12750E+01 4.05810E+01 0.00000E+00
 -1      2737 9.50250E+01 4.16899E+01 0.00000E+00
 -1      2738 9.65250E+01 4.16899E+01 0.00000E+00
 -1      2739 9.42750E+01 4.05810E+01 0.00000E+00
 -1      2740 9.80250E+01 4.16899E+01 0.00000E+00
 -1      2741 9.95250E+01 4.16899E+01 0.00000E+00
 -1      2742 9.72750E+01 4.05810E+01 0.00000E+00
 -1      2743 1.01025E+02 4.16899E+01 0.00000E+00
 -1      2744 1.02525E+02 4.16899E+01 0.00000E+00
 -1      2745 1.00275E+02 4.05810E+01 0.00000E+00
 -1      2746 1.04100E+02 4.16899E+01 0.00000E+00
 -1      2747 1.05675E+02 4.16899E+01 0.00000E+00
 -1      2748 1.03350E+02 4.05810E+01 0.00000E+00
 -1      2749 1.07175E+02 4.16899E+01 0.00000E+00
 -1      2750 1.08675E+02 4.16899E+01 0.00000E+00
 -1      2751 1.06425E+02 4.05810E+01 0.00000E+00
 -1      2752 1.10175E+02 4.16899E+01 0.00000E+00
 -1      2753 1.11675E+02 4.16899E+01 0.00000E+00
 -1      2754 1.09425E+02 4.05810E+01 0.00000E+00
 -1      2755 1.13175E+02 4.16899E+01 0.00000E+00
 -1      2756 1.14675E+02 4.16899E+01 0.00000E+00
 -1      2757 1.12425E+02 4.05810E+01 0.00000E+00
 -1      2758 1.16175E+02 4.16899E+01 0.00000E+00
 -1      2759 1.17675E+02 4.16899E+01 0.00000E+00
 -1      2760 1.15425E+02 4.05810E+01 0.00000E+00
 -1      2761 1.19175E+02 4.16899E+01 0.00000E+00
 -1      2762 1.20675E+02 4.16899E+01 0.00000E+00
 -1      2763 1.18425E+02 4.05810E+01 0.00000E+00
 -1      2764 1.22175E+02 4.16899E+01 0.00000E+00
 -1      2765 1.23675E+02 4.16899E+01 0.00000E+00
 -1      2766 1.21425E+02 4.05810E+01 0.00000E+00
 -1      2767 1.25250E+02 4.16899E+01 0.00000E+00
 -1      2768 1.26825E+02 4.16899E+01 0.00000E+00
 -1      2769 1.24500E+02 4.05810E+01 0.00000E+00
 -1      2770 1.28325E+02 4.16899E+01 0.00000E+00
 -1      2771 1.29825E+02 4.16899E+01 0.00000E+00
 -1      2772 1.27575E+02 4.05810E+01 0.00000E+00
 -1      2773 1.31325E+02 4.16899E+01 0.00000E+00
 -1      2774 1.32825E+02 4.16899E+01 0.00000E+00
 -1      2775 1.30575E+02 4.05810E+01 0.00000E+00
 -1      2776 1.34325E+02 4.16899E+01 0.00000E+00
 -1      2777 1.35825E+02 4.16899E+01 0.00000E+00
 -1      2778 1.33575E+02 4.05810E+01 0.00000E+00
 -1      2779 1.37325E+02 4.16899E+01 0.00000E+00
 -1      2780 1.38825E+02 4.16899E+01 0.00000E+00
 -1      2781 1.36575E+02 4.05810E+01 0.00000E+00
 -1      2782 2.01240E+01 8.68250E+00 0.00000E+00
 -1      2783 1.86240E+01 8.68250E+00 0.00000E+00
 -1      2784 2.31240E+01 8.68250E+00 0.00000E+00
 -1      2785 2.16240E+01 8.68250E+00 0.00000E+00
 -1      2786 2.08740E+01 9.98150E+00 0.00000E+00
 -1      2787 1.71240E+01 8.68250E+00 0.00000E+00
 -1      2788 1.56240E+01 8.68250E+00 0.00000E+00
 -1      2789 1.78740E+01 9.98150E+00 0.00000E+00
 -1      2790 2.91240E+01 8.68250E+00 0.00000E+00
 -1      2791 2.76240E+01 8.68250E+00 0.00000E+00
 -1      2792 3.21240E+01 8.68250E+00 0.00000E+00
 -1      2793 3.06240E+01 8.68250E+00 0.00000E+00
 -1      2794 2.98740E+01 9.98150E+00 0.00000E+00
 -1      2795 3.51240E+01 8.68250E+00 0.00000E+00
 -1      2796 3.36240E+01 8.68250E+00 0.00000E+00
 -1      2797 3.28740E+01 9.98150E+00 0.00000E+00
 -1      2798 3.81240E+01 8.68250E+00 0.00000E+00
 -1      2799 3.66240E+01 8.68250E+00 0.00000E+00
 -1      2800 3.58740E+01 9.98150E+00 0.00000E+00
 -1      2801 4.11240E+01 8.68250E+00 0.00000E+00
 -1      2802 3.96240E+01 8.68250E+00 0.00000E+00
 -1      2803 3.88740E+01 9.98150E+00 0.00000E+00
 -1      2804 4.41240E+01 8.68250E+00 0.00000E+00
 -1      2805 4.26240E+01 8.68250E+00 0.00000E+00
 -1      2806 4.18740E+01 9.98150E+00 0.00000E+00
 -1      2807 4.71240E+01 8.68250E+00 0.00000E+00
 -1      2808 4.56240E+01 8.68250E+00 0.00000E+00
 -1      2809 4.48740E+01 9.98150E+00 0.00000E+00
 -1      2810 5.01240E+01 8.68250E+00 0.00000E+00
 -1      2811 4.86240E+01 8.68250E+00 0.00000E+00
 -1      2812 4.78740E+01 9.98150E+00 0.00000E+00
 -1      2813 5.31240E+01 8.68250E+00 0.00000E+00
 -1      2814 5.16240E+01 8.68250E+00 0.00000E+00
 -1      2815 5.08740E+01 9.98150E+00 0.00000E+00
 -1      2816 5.61240E+01 8.68250E+00 0.00000E+00
 -1      2817 5.46240E+01 8.68250E+00 0.00000E+00
 -1      2818 5.38740E+01 9.98150E+00 0.00000E+00
 -1      2819 5.91240E+01 8.68250E+00 0.00000E+00
 -1      2820 5.76240E+01 8.68250E+00 0.00000E+00
 -1      2821 5.68740E+01 9.98150E+00 0.00000E+00
 -1      2822 6.21240E+01 8.68250E+00 0.00000E+00
 -1      2823 6.06240E+01 8.68250E+00 0.00000E+00
 -1      2824 5.98740E+01 9.98150E+00 0.00000E+00
 -1      2825 6.51240E+01 8.68250E+00 0.00000E+00
 -1      2826 6.36240E+01 8.68250E+00 0.00000E+00
 -1      2827 6.28740E+01 9.98150E+00 0.00000E+00
 -1      2828 6.81240E+01 8.68250E+00 0.00000E+00
 -1      2829 6.66240E+01 8.68250E+00 0.00000E+00
 -1      2830 6.58740E+01 9.98150E+00 0.00000E+00
 -1      2831 7.11240E+01 8.68250E+00 0.00000E+00
 -1      2832 6.96240E+01 8.68250E+00 0.00000E+00
 -1      2833 6.88740E+01 9.98150E+00 0.00000E+00
 -1      2834 7.41240E+01 8.68250E+00 0.00000E+00
 -1      2835 7.26240E+01 8.68250E+00 0.00000E+00
 -1      2836 7.18740E+01 9.98150E+00 0.00000E+00
 -1      2837 7.71240E+01 8.68250E+00 0.00000E+00
 -1      2838 7.56240E+01 8.68250E+00 0.00000E+00
 -1      2839 7.48740E+01 9.98150E+00 0.00000E+00
 -1      2840 8.01240E+01 8.68250E+00 0.00000E+00
 -1      2841 7.86240E+01 8.68250E+00 0.00000E+00
 -1      2842 7.78740E+01 9.98150E+00 0.00000E+00
 -1      2843 8.31240E+01 8.68250E+00 0.00000E+00
 -1      2844 8.16240E+01 8.68250E+00 0.00000E+00
 -1      2845 8.08740E+01 9.98150E+00 0.00000E+00
 -1      2846 8.61240E+01 8.68250E+00 0.00000E+00
 -1      2847 8.46240E+01 8.68250E+00 0.00000E+00
 -1      2848 8.38740E+01 9.98150E+00 0.00000E+00
 -1      2849 8.91240E+01 8.68250E+00 0.00000E+00
 -1      2850 8.76240E+01 8.68250E+00 0.00000E+00
 -1      2851 8.68740E+01 9.98150E+00 0.00000E+00
 -1      2852 9.21240E+01 8.68250E+00 0.00000E+00
 -1      2853 9.06240E+01 8.68250E+00 0.00000E+00
 -1      2854 8.98740E+01 9.98150E+00 0.00000E+00
 -1      2855 9.51240E+01 8.68250E+00 0.00000E+00
 -1      2856 9.36240E+01 8.68250E+00 0.00000E+00
 -1      2857 9.28740E+01 9.98150E+00 0.00000E+00
 -1      2858 9.81240E+01 8.68250E+00 0.00000E+00
 -1      2859 9.66240E+01 8.68250E+00 0.00000E+00
 -1      2860 9.58740E+01 9.98150E+00 0.00000E+00
 -1      2861 1.01124E+02 8.68250E+00 0.00000E+00
 -1      2862 9.96240E+01 8.68250E+00 0.00000E+00
 -1      2863 9.88740E+01 9.98150E+00 0.00000E+00
 -1      2864 1.04124E+02 8.68250E+00 0.00000E+00
 -1      2865 1.02624E+02 8.68250E+00 0.00000E+00
 -1      2866 1.01874E+02 9.98150E+00 0.00000E+00
 -1      2867 1.07124E+02 8.68250E+00 0.00000E+00
 -1      2868 1.05624E+02 8.68250E+00 0.00000E+00
 -1      2869 1.04874E+02 9.98150E+00 0.00000E+00
 -1      2870 1.10124E+02 8.68250E+00 0.00000E+00
 -1      2871 1.08624E+02 8.68250E+00 0.00000E+00
 -1      2872 1.07874E+02 9.98150E+00 0.00000E+00
 -1      2873 1.13124E+02 8.68250E+00 0.00000E+00
 -1      2874 1.11624E+02 8.68250E+00 0.00000E+00
 -1      2875 1.10874E+02 9.98150E+00 0.00000E+00
 -1      2876 1.16124E+02 8.68250E+00 0.00000E+00
 -1      2877 1.14624E+02 8.68250E+00 0.00000E+00
 -1      2878 1.13874E+02 9.98150E+00 0.00000E+00
 -1      2879 1.19124E+02 8.68250E+00 0.00000E+00
 -1      2880 1.17624E+02 8.68250E+00 0.00000E+00
 -1      2881 1.16874E+02 9.98150E+00 0.00000E+00
 -1      2882 1.22124E+02 8.68250E+00 0.00000E+00
 -1      2883 1.20624E+02 8.68250E+00 0.00000E+00
 -1      2884 1.19874E+02 9.98150E+00 0.00000E+00
 -1      2885 1.25124E+02 8.68250E+00 0.00000E+00
 -1      2886 1.23624E+02 8.68250E+00 0.00000E+00
 -1      2887 1.22874E+02 9.98150E+00 0.00000E+00
 -1      2888 1.28124E+02 8.68250E+00 0.00000E+00
 -1      2889 1.26624E+02 8.68250E+00 0.00000E+00
 -1      2890 1.25874E+02 9.98150E+00 0.00000E+00
 -1      2891 1.31124E+02 8.68250E+00 0.00000E+00
 -1      2892 1.29624E+02 8.68250E+00 0.00000E+00
 -1      2893 1.28874E+02 9.98150E+00 0.00000E+00
 -1      2894 1.34124E+02 8.68250E+00 0.00000E+00
 -1      2895 1.32624E+02 8.68250E+00 0.00000E+00
 -1      2896 1.31874E+02 9.98150E+00 0.00000E+00
 -1      2897 1.37124E+02 8.68250E+00 0.00000E+00
 -1      2898 1.35624E+02 8.68250E+00 0.00000E+00
 -1      2899 1.34874E+02 9.98150E+00 0.00000E+00
 -1      2900 1.40082E+02 8.76838E+00 0.00000E+00
 -1      2901 1.38582E+02 8.76838E+00 0.00000E+00
 -1      2902 1.37832E+02 1.00674E+01 0.00000E+00
 -1      2903 1.40748E+02 1.02391E+01 0.00000E+00
 -1      2904 1.40907E+02 1.54500E+01 0.00000E+00
 -1      2905 1.40907E+02 1.40000E+01 0.00000E+00
 -1      2906 1.40907E+02 2.13375E+01 0.00000E+00
 -1      2907 1.40907E+02 1.98625E+01 0.00000E+00
 -1      2908 1.40827E+02 1.28571E+01 0.00000E+00
 -1      2909 1.40827E+02 1.13821E+01 0.00000E+00
 -1      2910 1.39370E+02 1.12962E+01 0.00000E+00
 -1      2911 1.39529E+02 1.35821E+01 0.00000E+00
 -1      2912 2.65734E+01 4.10446E+01 0.00000E+00
 -1      2913 2.61240E+01 8.68250E+00 0.00000E+00
 -1      2914 2.46240E+01 8.68250E+00 0.00000E+00
 -1      2915 2.38740E+01 9.98150E+00 0.00000E+00
 -1      2916 2.68740E+01 9.98150E+00 0.00000E+00
 -1      2917 1.40907E+02 1.83937E+01 0.00000E+00
 -1      2918 1.40907E+02 1.69188E+01 0.00000E+00
 -1      2919 1.39608E+02 1.61938E+01 0.00000E+00
 -1      2920 1.39608E+02 1.91313E+01 0.00000E+00
 -1      2921 1.40907E+02 2.72375E+01 0.00000E+00
 -1      2922 1.40907E+02 2.57625E+01 0.00000E+00
 -1      2923 1.40907E+02 3.01375E+01 0.00000E+00
 -1      2924 1.40907E+02 2.86875E+01 0.00000E+00
 -1      2925 1.39608E+02 2.79500E+01 0.00000E+00
 -1      2926 1.40907E+02 3.30875E+01 0.00000E+00
 -1      2927 1.40907E+02 3.16125E+01 0.00000E+00
 -1      2928 1.39608E+02 3.08750E+01 0.00000E+00
 -1      2929 1.40907E+02 3.60375E+01 0.00000E+00
 -1      2930 1.40907E+02 3.45625E+01 0.00000E+00
 -1      2931 1.39608E+02 3.38250E+01 0.00000E+00
 -1      2932 1.40907E+02 3.89875E+01 0.00000E+00
 -1      2933 1.40907E+02 3.75125E+01 0.00000E+00
 -1      2934 1.39608E+02 3.67750E+01 0.00000E+00
 -1      2935 8.85168E+00 4.05347E+01 0.00000E+00
 -1      2936 1.02152E+01 4.07987E+01 0.00000E+00
 -1      2937 4.83840E+01 3.30808E+01 0.00000E+00
 -1      2938 4.84927E+01 3.42884E+01 0.00000E+00
 -1      2939 4.91607E+01 3.25061E+01 0.00000E+00
 -1      2940 3.44924E+01 2.16366E+01 0.00000E+00
 -1      2941 3.56840E+01 2.15728E+01 0.00000E+00
 -1      2942 3.63156E+01 2.05742E+01 0.00000E+00
 -1      2943 2.51893E+01 4.12218E+01 0.00000E+00
 -1      2944 2.59627E+01 4.00604E+01 0.00000E+00
 -1      2945 2.54680E+01 3.92534E+01 0.00000E+00
 -1      2946 2.36893E+01 4.12218E+01 0.00000E+00
 -1      2947 1.40907E+02 2.42875E+01 0.00000E+00
 -1      2948 1.40907E+02 2.28125E+01 0.00000E+00
 -1      2949 1.39608E+02 2.50250E+01 0.00000E+00
 -1      2950 4.65126E+01 4.20798E+01 0.00000E+00
 -1      2951 4.80126E+01 4.20798E+01 0.00000E+00
 -1      2952 4.64499E+01 2.58556E+01 0.00000E+00
 -1      2953 4.69872E+01 2.65282E+01 0.00000E+00
 -1      2954 1.15763E+01 4.08528E+01 0.00000E+00
 -1      2955 1.30763E+01 4.08528E+01 0.00000E+00
 -1      2956 1.38638E+01 3.95538E+01 0.00000E+00
 -1      2957 1.11415E+01 3.94455E+01 0.00000E+00
 -1      2958 4.74680E+01 2.79407E+01 0.00000E+00
 -1      2959 4.79489E+01 2.93533E+01 0.00000E+00
 -1      2960 4.80659E+01 2.69123E+01 0.00000E+00
 -1      2961 9.09300E+00 1.68813E+01 0.00000E+00
 -1      2962 9.09300E+00 1.83563E+01 0.00000E+00
 -1      2963 1.03920E+01 1.90812E+01 0.00000E+00
 -1      2964 1.03920E+01 1.61437E+01 0.00000E+00
 -1      2965 2.59313E+01 2.76376E+01 0.00000E+00
 -1      2966 2.65411E+01 2.68372E+01 0.00000E+00
 -1      2967 9.09300E+00 3.15875E+01 0.00000E+00
 -1      2968 9.09300E+00 3.30625E+01 0.00000E+00
 -1      2969 2.51574E+01 3.79910E+01 0.00000E+00
 -1      2970 2.48468E+01 3.67287E+01 0.00000E+00
 -1      2971 2.42681E+01 3.89752E+01 0.00000E+00
 -1      2972 3.19306E+01 2.21407E+01 0.00000E+00
 -1      2973 3.30674E+01 2.18610E+01 0.00000E+00
 -1      2974 2.40610E+01 3.22798E+01 0.00000E+00
 -1      2975 2.42810E+01 3.12404E+01 0.00000E+00
 -1      2976 2.47383E+01 3.00526E+01 0.00000E+00
 -1      2977 2.51956E+01 2.88649E+01 0.00000E+00
 -1      2978 2.36254E+01 3.03600E+01 0.00000E+00
 -1      2979 4.81621E+01 3.76718E+01 0.00000E+00
 -1      2980 4.79020E+01 3.88508E+01 0.00000E+00
 -1      2981 4.85870E+01 3.56734E+01 0.00000E+00
 -1      2982 4.83746E+01 3.66726E+01 0.00000E+00
 -1      2983 4.92456E+01 3.74830E+01 0.00000E+00
 -1      2984 7.48818E+00 3.88019E+01 0.00000E+00
 -1      2985 3.92719E+01 2.18614E+01 0.00000E+00
 -1      2986 4.03246E+01 2.20524E+01 0.00000E+00
 -1      2987 1.40141E+02 4.01530E+01 0.00000E+00
 -1      2988 1.03920E+01 2.49750E+01 0.00000E+00
 -1      2989 9.09300E+00 2.57000E+01 0.00000E+00
 -1      2990 9.09300E+00 2.71750E+01 0.00000E+00
 -1      2991 9.00375E+00 8.96981E+00 0.00000E+00
 -1      2992 3.36991E+01 2.08624E+01 0.00000E+00
 -1      2993 4.11539E+01 2.19907E+01 0.00000E+00
 -1      2994 4.19833E+01 2.19291E+01 0.00000E+00
 -1      2995 4.07806E+01 2.10515E+01 0.00000E+00
 -1      2996 2.29018E+01 3.99228E+01 0.00000E+00
 -1      2997 1.39608E+02 2.20750E+01 0.00000E+00
 -1      2998 3.87293E+01 2.08118E+01 0.00000E+00
 -1      2999 9.09300E+00 3.45313E+01 0.00000E+00
 -1      3000 9.09300E+00 3.60000E+01 0.00000E+00
 -1      3001 1.03920E+01 3.37938E+01 0.00000E+00
 -1      3002 1.48740E+01 9.98151E+00 0.00000E+00
 -1      3003 1.41240E+01 8.68251E+00 0.00000E+00
 -1      3004 4.54427E+01 4.19345E+01 0.00000E+00
 -1      3005 4.36643E+01 2.36167E+01 0.00000E+00
 -1      3006 8.78718E+00 3.80644E+01 0.00000E+00
 -1      3007 4.87626E+01 4.09709E+01 0.00000E+00
 -1      3008 2.36966E+01 3.29843E+01 0.00000E+00
 -1      3009 2.28037E+01 3.22523E+01 0.00000E+00
 -1      3010 2.33322E+01 3.36887E+01 0.00000E+00
 -1      3011 1.38842E+02 3.94155E+01 0.00000E+00
 -1      3012 4.93637E+01 3.50987E+01 0.00000E+00
 -1      3013 1.30515E+01 8.34733E+00 0.00000E+00
 -1      3014 4.62784E+01 2.49324E+01 0.00000E+00
 -1      3015 2.87688E+01 2.41270E+01 0.00000E+00
 -1      3016 2.88844E+01 2.31545E+01 0.00000E+00
 -1      3017 2.78213E+01 2.41512E+01 0.00000E+00
 -1      3018 3.01754E+01 2.20764E+01 0.00000E+00
 -1      3019 3.10530E+01 2.21086E+01 0.00000E+00
 -1      3020 3.13965E+01 2.10547E+01 0.00000E+00
 -1      3021 2.66299E+01 2.59207E+01 0.00000E+00
 -1      3022 1.03027E+01 9.70731E+00 0.00000E+00
 -1      3023 9.09300E+00 2.86437E+01 0.00000E+00
 -1      3024 9.09300E+00 3.01187E+01 0.00000E+00
 -1      3025 1.03920E+01 3.08563E+01 0.00000E+00
 -1      3026 1.03920E+01 2.79188E+01 0.00000E+00
 -1      3027 4.80416E+01 3.99215E+01 0.00000E+00
 -1      3028 2.48184E+01 2.79450E+01 0.00000E+00
 -1      3029 4.49401E+01 4.24504E+01 0.00000E+00
 -1      3030 1.16910E+01 1.24625E+01 0.00000E+00
 -1      3031 1.16910E+01 1.39375E+01 0.00000E+00
 -1      3032 1.14712E+01 7.20138E+00 0.00000E+00
 -1      3033 3.28271E+01 1.99620E+01 0.00000E+00
 -1      3034 3.42521E+01 1.97376E+01 0.00000E+00
 -1      3035 4.87959E+01 2.58757E+01 0.00000E+00
 -1      3036 4.92767E+01 2.72883E+01 0.00000E+00
 -1      3037 1.16910E+01 2.12875E+01 0.00000E+00
 -1      3038 1.16910E+01 2.27625E+01 0.00000E+00
 -1      3039 1.59750E+01 3.83090E+01 0.00000E+00
 -1      3040 1.74750E+01 3.83090E+01 0.00000E+00
 -1      3041 3.56650E+01 1.95824E+01 0.00000E+00
 -1      3042 3.68566E+01 1.95186E+01 0.00000E+00
 -1      3043 1.89750E+01 3.83090E+01 0.00000E+00
 -1      3044 2.04750E+01 3.83090E+01 0.00000E+00
 -1      3045 1.82250E+01 3.70100E+01 0.00000E+00
 -1      3046 4.87994E+01 2.98117E+01 0.00000E+00
 -1      3047 1.56240E+01 1.12805E+01 0.00000E+00
 -1      3048 1.41241E+01 1.12805E+01 0.00000E+00
 -1      3049 2.24401E+01 3.05856E+01 0.00000E+00
 -1      3050 2.28974E+01 2.93978E+01 0.00000E+00
 -1      3051 2.36432E+01 2.80746E+01 0.00000E+00
 -1      3052 2.43789E+01 2.68473E+01 0.00000E+00
 -1      3053 4.97541E+01 3.95316E+01 0.00000E+00
 -1      3054 5.42250E+01 3.93883E+01 0.00000E+00
 -1      3055 5.57250E+01 3.93883E+01 0.00000E+00
 -1      3056 5.72250E+01 3.93883E+01 0.00000E+00
 -1      3057 5.87250E+01 3.93883E+01 0.00000E+00
 -1      3058 5.64750E+01 3.81956E+01 0.00000E+00
 -1      3059 6.03000E+01 3.93883E+01 0.00000E+00
 -1      3060 6.18750E+01 3.93883E+01 0.00000E+00
 -1      3061 5.95500E+01 3.81956E+01 0.00000E+00
 -1      3062 6.33750E+01 3.93883E+01 0.00000E+00
 -1      3063 6.48750E+01 3.93883E+01 0.00000E+00
 -1      3064 6.26250E+01 3.81956E+01 0.00000E+00
 -1      3065 6.63750E+01 3.93883E+01 0.00000E+00
 -1      3066 6.78750E+01 3.93883E+01 0.00000E+00
 -1      3067 6.56250E+01 3.81956E+01 0.00000E+00
 -1      3068 6.93750E+01 3.93883E+01 0.00000E+00
 -1      3069 7.08750E+01 3.93883E+01 0.00000E+00
 -1      3070 6.86250E+01 3.81956E+01 0.00000E+00
 -1      3071 7.23750E+01 3.93883E+01 0.00000E+00
 -1      3072 7.38750E+01 3.93883E+01 0.00000E+00
 -1      3073 7.16250E+01 3.81956E+01 0.00000E+00
 -1      3074 7.53750E+01 3.93883E+01 0.00000E+00
 -1      3075 7.68750E+01 3.93883E+01 0.00000E+00
 -1      3076 7.46250E+01 3.81956E+01 0.00000E+00
 -1      3077 7.83750E+01 3.93883E+01 0.00000E+00
 -1      3078 7.98750E+01 3.93883E+01 0.00000E+00
 -1      3079 7.76250E+01 3.81956E+01 0.00000E+00
 -1      3080 8.14500E+01 3.93883E+01 0.00000E+00
 -1      3081 8.30250E+01 3.93883E+01 0.00000E+00
 -1      3082 8.07000E+01 3.81956E+01 0.00000E+00
 -1      3083 8.45250E+01 3.93883E+01 0.00000E+00
 -1      3084 8.60250E+01 3.93883E+01 0.00000E+00
 -1      3085 8.37750E+01 3.81956E+01 0.00000E+00
 -1      3086 8.75250E+01 3.93883E+01 0.00000E+00
 -1      3087 8.90250E+01 3.93883E+01 0.00000E+00
 -1      3088 8.67750E+01 3.81956E+01 0.00000E+00
 -1      3089 9.05250E+01 3.93883E+01 0.00000E+00
 -1      3090 9.20250E+01 3.93883E+01 0.00000E+00
 -1      3091 8.97750E+01 3.81956E+01 0.00000E+00
 -1      3092 9.35250E+01 3.93883E+01 0.00000E+00
 -1      3093 9.50250E+01 3.93883E+01 0.00000E+00
 -1      3094 9.27750E+01 3.81956E+01 0.00000E+00
 -1      3095 9.65250E+01 3.93883E+01 0.00000E+00
 -1      3096 9.80250E+01 3.93883E+01 0.00000E+00
 -1      3097 9.57750E+01 3.81956E+01 0.00000E+00
 -1      3098 9.95250E+01 3.93883E+01 0.00000E+00
 -1      3099 1.01025E+02 3.93883E+01 0.00000E+00
 -1      3100 9.87750E+01 3.81956E+01 0.00000E+00
 -1      3101 1.02600E+02 3.93883E+01 0.00000E+00
 -1      3102 1.04175E+02 3.93883E+01 0.00000E+00
 -1      3103 1.01850E+02 3.81956E+01 0.00000E+00
 -1      3104 1.05675E+02 3.93883E+01 0.00000E+00
 -1      3105 1.07175E+02 3.93883E+01 0.00000E+00
 -1      3106 1.04925E+02 3.81956E+01 0.00000E+00
 -1      3107 1.08675E+02 3.93883E+01 0.00000E+00
 -1      3108 1.10175E+02 3.93883E+01 0.00000E+00
 -1      3109 1.07925E+02 3.81956E+01 0.00000E+00
 -1      3110 1.11675E+02 3.93883E+01 0.00000E+00
 -1      3111 1.13175E+02 3.93883E+01 0.00000E+00
 -1      3112 1.10925E+02 3.81956E+01 0.00000E+00
 -1      3113 1.14675E+02 3.93883E+01 0.00000E+00
 -1      3114 1.16175E+02 3.93883E+01 0.00000E+00
 -1      3115 1.13925E+02 3.81956E+01 0.00000E+00
 -1      3116 1.17675E+02 3.93883E+01 0.00000E+00
 -1      3117 1.19175E+02 3.93883E+01 0.00000E+00
 -1      3118 1.16925E+02 3.81956E+01 0.00000E+00
 -1      3119 1.20675E+02 3.93883E+01 0.00000E+00
 -1      3120 1.22175E+02 3.93883E+01 0.00000E+00
 -1      3121 1.19925E+02 3.81956E+01 0.00000E+00
 -1      3122 1.23750E+02 3.93883E+01 0.00000E+00
 -1      3123 1.25325E+02 3.93883E+01 0.00000E+00
 -1      3124 1.23000E+02 3.81956E+01 0.00000E+00
 -1      3125 1.26825E+02 3.93883E+01 0.00000E+00
 -1      3126 1.28325E+02 3.93883E+01 0.00000E+00
 -1      3127 1.26075E+02 3.81956E+01 0.00000E+00
 -1      3128 1.29825E+02 3.93883E+01 0.00000E+00
 -1      3129 1.31325E+02 3.93883E+01 0.00000E+00
 -1      3130 1.29075E+02 3.81956E+01 0.00000E+00
 -1      3131 1.32825E+02 3.93883E+01 0.00000E+00
 -1      3132 1.34325E+02 3.93883E+01 0.00000E+00
 -1      3133 1.32075E+02 3.81956E+01 0.00000E+00
 -1      3134 1.35825E+02 3.93883E+01 0.00000E+00
 -1      3135 1.37325E+02 3.93883E+01 0.00000E+00
 -1      3136 1.35075E+02 3.81956E+01 0.00000E+00
 -1      3137 2.16240E+01 1.12805E+01 0.00000E+00
 -1      3138 2.01240E+01 1.12805E+01 0.00000E+00
 -1      3139 1.86240E+01 1.12805E+01 0.00000E+00
 -1      3140 1.71240E+01 1.12805E+01 0.00000E+00
 -1      3141 1.63741E+01 1.25795E+01 0.00000E+00
 -1      3142 1.93740E+01 1.25795E+01 0.00000E+00
 -1      3143 3.36240E+01 1.12805E+01 0.00000E+00
 -1      3144 3.21240E+01 1.12805E+01 0.00000E+00
 -1      3145 3.06240E+01 1.12805E+01 0.00000E+00
 -1      3146 2.91240E+01 1.12805E+01 0.00000E+00
 -1      3147 3.13740E+01 1.25795E+01 0.00000E+00
 -1      3148 3.96240E+01 1.12805E+01 0.00000E+00
 -1      3149 3.81240E+01 1.12805E+01 0.00000E+00
 -1      3150 4.26240E+01 1.12805E+01 0.00000E+00
 -1      3151 4.11240E+01 1.12805E+01 0.00000E+00
 -1      3152 4.03740E+01 1.25795E+01 0.00000E+00
 -1      3153 4.56240E+01 1.12805E+01 0.00000E+00
 -1      3154 4.41240E+01 1.12805E+01 0.00000E+00
 -1      3155 4.33740E+01 1.25795E+01 0.00000E+00
 -1      3156 4.86240E+01 1.12805E+01 0.00000E+00
 -1      3157 4.71240E+01 1.12805E+01 0.00000E+00
 -1      3158 4.63740E+01 1.25795E+01 0.00000E+00
 -1      3159 5.16240E+01 1.12805E+01 0.00000E+00
 -1      3160 5.01240E+01 1.12805E+01 0.00000E+00
 -1      3161 4.93740E+01 1.25795E+01 0.00000E+00
 -1      3162 5.46240E+01 1.12805E+01 0.00000E+00
 -1      3163 5.31240E+01 1.12805E+01 0.00000E+00
 -1      3164 5.23740E+01 1.25795E+01 0.00000E+00
 -1      3165 5.76240E+01 1.12805E+01 0.00000E+00
 -1      3166 5.61240E+01 1.12805E+01 0.00000E+00
 -1      3167 5.53740E+01 1.25795E+01 0.00000E+00
 -1      3168 6.06240E+01 1.12805E+01 0.00000E+00
 -1      3169 5.91240E+01 1.12805E+01 0.00000E+00
 -1      3170 5.83740E+01 1.25795E+01 0.00000E+00
 -1      3171 6.36240E+01 1.12805E+01 0.00000E+00
 -1      3172 6.21240E+01 1.12805E+01 0.00000E+00
 -1      3173 6.13740E+01 1.25795E+01 0.00000E+00
 -1      3174 6.66240E+01 1.12805E+01 0.00000E+00
 -1      3175 6.51240E+01 1.12805E+01 0.00000E+00
 -1      3176 6.43740E+01 1.25795E+01 0.00000E+00
 -1      3177 6.96240E+01 1.12805E+01 0.00000E+00
 -1      3178 6.81240E+01 1.12805E+01 0.00000E+00
 -1      3179 6.73740E+01 1.25795E+01 0.00000E+00
 -1      3180 7.26240E+01 1.12805E+01 0.00000E+00
 -1      3181 7.11240E+01 1.12805E+01 0.00000E+00
 -1      3182 7.03740E+01 1.25795E+01 0.00000E+00
 -1      3183 7.56240E+01 1.12805E+01 0.00000E+00
 -1      3184 7.41240E+01 1.12805E+01 0.00000E+00
 -1      3185 7.33740E+01 1.25795E+01 0.00000E+00
 -1      3186 7.86240E+01 1.12805E+01 0.00000E+00
 -1      3187 7.71240E+01 1.12805E+01 0.00000E+00
 -1      3188 7.63740E+01 1.25795E+01 0.00000E+00
 -1      3189 8.16240E+01 1.12805E+01 0.00000E+00
 -1      3190 8.01240E+01 1.12805E+01 0.00000E+00
 -1      3191 7.93740E+01 1.25795E+01 0.00000E+00
 -1      3192 8.46240E+01 1.12805E+01 0.00000E+00
 -1      3193 8.31240E+01 1.12805E+01 0.00000E+00
 -1      3194 8.23740E+01 1.25795E+01 0.00000E+00
 -1      3195 8.76240E+01 1.12805E+01 0.00000E+00
 -1      3196 8.61240E+01 1.12805E+01 0.00000E+00
 -1      3197 8.53740E+01 1.25795E+01 0.00000E+00
 -1      3198 9.06240E+01 1.12805E+01 0.00000E+00
 -1      3199 8.91240E+01 1.12805E+01 0.00000E+00
 -1      3200 8.83740E+01 1.25795E+01 0.00000E+00
 -1      3201 9.36240E+01 1.12805E+01 0.00000E+00
 -1      3202 9.21240E+01 1.12805E+01 0.00000E+00
 -1      3203 9.13740E+01 1.25795E+01 0.00000E+00
 -1      3204 9.66240E+01 1.12805E+01 0.00000E+00
 -1      3205 9.51240E+01 1.12805E+01 0.00000E+00
 -1      3206 9.43740E+01 1.25795E+01 0.00000E+00
 -1      3207 9.96240E+01 1.12805E+01 0.00000E+00
 -1      3208 9.81240E+01 1.12805E+01 0.00000E+00
 -1      3209 9.73740E+01 1.25795E+01 0.00000E+00
 -1      3210 1.02624E+02 1.12805E+01 0.00000E+00
 -1      3211 1.01124E+02 1.12805E+01 0.00000E+00
 -1      3212 1.00374E+02 1.25795E+01 0.00000E+00
 -1      3213 1.05624E+02 1.12805E+01 0.00000E+00
 -1      3214 1.04124E+02 1.12805E+01 0.00000E+00
 -1      3215 1.03374E+02 1.25795E+01 0.00000E+00
 -1      3216 1.08624E+02 1.12805E+01 0.00000E+00
 -1      3217 1.07124E+02 1.12805E+01 0.00000E+00
 -1      3218 1.06374E+02 1.25795E+01 0.00000E+00
 -1      3219 1.11624E+02 1.12805E+01 0.00000E+00
 -1      3220 1.10124E+02 1.12805E+01 0.00000E+00
 -1      3221 1.09374E+02 1.25795E+01 0.00000E+00
 -1      3222 1.14624E+02 1.12805E+01 0.00000E+00
 -1      3223 1.13124E+02 1.12805E+01 0.00000E+00
 -1      3224 1.12374E+02 1.25795E+01 0.00000E+00
 -1      3225 1.17624E+02 1.12805E+01 0.00000E+00
 -1      3226 1.16124E+02 1.12805E+01 0.00000E+00
 -1      3227 1.15374E+02 1.25795E+01 0.00000E+00
 -1      3228 1.20624E+02 1.12805E+01 0.00000E+00
 -1      3229 1.19124E+02 1.12805E+01 0.00000E+00
 -1      3230 1.18374E+02 1.25795E+01 0.00000E+00
 -1      3231 1.23624E+02 1.12805E+01 0.00000E+00
 -1      3232 1.22124E+02 1.12805E+01 0.00000E+00
 -1      3233 1.21374E+02 1.25795E+01 0.00000E+00
 -1      3234 1.26624E+02 1.12805E+01 0.00000E+00
 -1      3235 1.25124E+02 1.12805E+01 0.00000E+00
 -1      3236 1.24374E+02 1.25795E+01 0.00000E+00
 -1      3237 1.29624E+02 1.12805E+01 0.00000E+00
 -1      3238 1.28124E+02 1.12805E+01 0.00000E+00
 -1      3239 1.27374E+02 1.25795E+01 0.00000E+00
 -1      3240 1.32624E+02 1.12805E+01 0.00000E+00
 -1      3241 1.31124E+02 1.12805E+01 0.00000E+00
 -1      3242 1.30374E+02 1.25795E+01 0.00000E+00
 -1      3243 1.35624E+02 1.12805E+01 0.00000E+00
 -1      3244 1.34124E+02 1.12805E+01 0.00000E+00
 -1      3245 1.33374E+02 1.25795E+01 0.00000E+00
 -1      3246 1.38226E+02 1.13313E+01 0.00000E+00
 -1      3247 1.36768E+02 1.12454E+01 0.00000E+00
 -1      3248 1.36018E+02 1.25444E+01 0.00000E+00
 -1      3249 1.38305E+02 1.24742E+01 0.00000E+00
 -1      3250 1.38309E+02 3.16125E+01 0.00000E+00
 -1      3251 1.38309E+02 3.01375E+01 0.00000E+00
 -1      3252 3.83436E+01 1.97471E+01 0.00000E+00
 -1      3253 3.95656E+01 2.00485E+01 0.00000E+00
 -1      3254 5.01274E+01 3.18104E+01 0.00000E+00
 -1      3255 5.02361E+01 3.30180E+01 0.00000E+00
 -1      3256 1.38309E+02 3.45625E+01 0.00000E+00
 -1      3257 1.38309E+02 3.30875E+01 0.00000E+00
 -1      3258 1.37010E+02 3.23500E+01 0.00000E+00
 -1      3259 1.38309E+02 2.86875E+01 0.00000E+00
 -1      3260 1.38309E+02 2.72375E+01 0.00000E+00
 -1      3261 1.37010E+02 2.94250E+01 0.00000E+00
 -1      3262 2.25912E+01 3.86604E+01 0.00000E+00
 -1      3263 1.00862E+01 3.73269E+01 0.00000E+00
 -1      3264 1.38309E+02 2.28125E+01 0.00000E+00
 -1      3265 1.38309E+02 2.13375E+01 0.00000E+00
 -1      3266 4.35613E+01 2.22801E+01 0.00000E+00
 -1      3267 4.48689E+01 2.30284E+01 0.00000E+00
 -1      3268 1.17938E+01 8.83558E+00 0.00000E+00
 -1      3269 3.66240E+01 1.12805E+01 0.00000E+00
 -1      3270 3.51240E+01 1.12805E+01 0.00000E+00
 -1      3271 3.43740E+01 1.25795E+01 0.00000E+00
 -1      3272 3.73740E+01 1.25795E+01 0.00000E+00
 -1      3273 4.61754E+01 2.35958E+01 0.00000E+00
 -1      3274 4.74820E+01 2.41632E+01 0.00000E+00
 -1      3275 4.60724E+01 2.22592E+01 0.00000E+00
 -1      3276 2.37969E+01 3.66739E+01 0.00000E+00
 -1      3277 2.46863E+01 3.56897E+01 0.00000E+00
 -1      3278 2.55316E+01 2.55628E+01 0.00000E+00
 -1      3279 2.66075E+01 2.47658E+01 0.00000E+00
 -1      3280 1.38092E+02 3.82228E+01 0.00000E+00
 -1      3281 1.38309E+02 2.57625E+01 0.00000E+00
 -1      3282 1.38309E+02 2.42875E+01 0.00000E+00
 -1      3283 1.37010E+02 2.35500E+01 0.00000E+00
 -1      3284 1.37010E+02 2.65000E+01 0.00000E+00
 -1      3285 1.18830E+01 1.08533E+01 0.00000E+00
 -1      3286 5.01906E+01 3.71618E+01 0.00000E+00
 -1      3287 4.99781E+01 3.81609E+01 0.00000E+00
 -1      3288 5.03304E+01 3.44031E+01 0.00000E+00
 -1      3289 5.04247E+01 3.57881E+01 0.00000E+00
 -1      3290 5.12970E+01 3.37074E+01 0.00000E+00
 -1      3291 2.39307E+01 3.50278E+01 0.00000E+00
 -1      3292 4.96221E+01 2.88368E+01 0.00000E+00
 -1      3293 4.98747E+01 3.03236E+01 0.00000E+00
 -1      3294 5.09501E+01 3.08355E+01 0.00000E+00
 -1      3295 5.06991E+01 3.92103E+01 0.00000E+00
 -1      3296 2.27435E+01 3.49029E+01 0.00000E+00
 -1      3297 2.30379E+01 3.42958E+01 0.00000E+00
 -1      3298 2.21450E+01 3.35638E+01 0.00000E+00
 -1      3299 2.14529E+01 3.79652E+01 0.00000E+00
 -1      3300 2.28191E+01 3.70177E+01 0.00000E+00
 -1      3301 2.26586E+01 3.59787E+01 0.00000E+00
 -1      3302 2.07029E+01 3.66662E+01 0.00000E+00
 -1      3303 3.19495E+01 1.99298E+01 0.00000E+00
 -1      3304 3.25026E+01 1.88050E+01 0.00000E+00
 -1      3305 3.10720E+01 1.98977E+01 0.00000E+00
 -1      3306 5.03521E+01 2.78002E+01 0.00000E+00
 -1      3307 1.29900E+01 2.35000E+01 0.00000E+00
 -1      3308 1.16910E+01 2.42375E+01 0.00000E+00
 -1      3309 1.16910E+01 2.57125E+01 0.00000E+00
 -1      3310 4.03950E+01 1.99868E+01 0.00000E+00
 -1      3311 4.12244E+01 1.99252E+01 0.00000E+00
 -1      3312 4.00094E+01 1.89222E+01 0.00000E+00
 -1      3313 3.76930E+01 1.87554E+01 0.00000E+00
 -1      3314 2.20757E+01 3.12900E+01 0.00000E+00
 -1      3315 2.13477E+01 3.03278E+01 0.00000E+00
 -1      3316 2.17113E+01 3.19945E+01 0.00000E+00
 -1      3317 1.16910E+01 3.30594E+01 0.00000E+00
 -1      3318 1.16910E+01 3.45281E+01 0.00000E+00
 -1      3319 2.24579E+01 2.83002E+01 0.00000E+00
 -1      3320 2.31812E+01 2.58221E+01 0.00000E+00
 -1      3321 2.43564E+01 2.56924E+01 0.00000E+00
 -1      3322 2.43340E+01 2.45376E+01 0.00000E+00
 -1      3323 2.17657E+01 3.52467E+01 0.00000E+00
 -1      3324 1.38309E+02 1.69281E+01 0.00000E+00
 -1      3325 1.38309E+02 1.54594E+01 0.00000E+00
 -1      3326 2.31240E+01 1.12805E+01 0.00000E+00
 -1      3327 2.23740E+01 1.25795E+01 0.00000E+00
 -1      3328 2.46240E+01 1.12805E+01 0.00000E+00
 -1      3329 2.83740E+01 1.25795E+01 0.00000E+00
 -1      3330 2.76240E+01 1.12805E+01 0.00000E+00
 -1      3331 2.61240E+01 1.12805E+01 0.00000E+00
 -1      3332 1.31820E+01 1.15908E+01 0.00000E+00
 -1      3333 1.14473E+01 3.73811E+01 0.00000E+00
 -1      3334 1.39320E+01 1.28898E+01 0.00000E+00
 -1      3335 1.38092E+02 3.67478E+01 0.00000E+00
 -1      3336 1.36792E+02 3.60103E+01 0.00000E+00
 -1      3337 4.31879E+01 2.13408E+01 0.00000E+00
 -1      3338 5.21991E+01 3.92103E+01 0.00000E+00
 -1      3339 5.29491E+01 3.80176E+01 0.00000E+00
 -1      3340 3.47931E+01 1.86820E+01 0.00000E+00
 -1      3341 2.67230E+01 2.37933E+01 0.00000E+00
 -1      3342 1.29900E+01 1.46687E+01 0.00000E+00
 -1      3343 1.16910E+01 1.54063E+01 0.00000E+00
 -1      3344 1.16910E+01 1.68750E+01 0.00000E+00
 -1      3345 2.92279E+01 2.21006E+01 0.00000E+00
 -1      3346 2.95714E+01 2.10467E+01 0.00000E+00
 -1      3347 2.82804E+01 2.21248E+01 0.00000E+00
 -1      3348 1.16910E+01 1.83469E+01 0.00000E+00
 -1      3349 1.16910E+01 1.98156E+01 0.00000E+00
 -1      3350 1.29900E+01 2.05531E+01 0.00000E+00
 -1      3351 1.29900E+01 1.76094E+01 0.00000E+00
 -1      3352 1.32527E+01 3.82007E+01 0.00000E+00
 -1      3353 1.46138E+01 3.82548E+01 0.00000E+00
 -1      3354 1.53638E+01 3.69558E+01 0.00000E+00
 -1      3355 1.38385E+02 1.36172E+01 0.00000E+00
 -1      3356 4.86929E+01 2.45391E+01 0.00000E+00
 -1      3357 4.99037E+01 2.49150E+01 0.00000E+00
 -1      3358 4.85899E+01 2.32025E+01 0.00000E+00
 -1      3359 1.16910E+01 3.01219E+01 0.00000E+00
 -1      3360 1.16910E+01 3.15906E+01 0.00000E+00
 -1      3361 1.29900E+01 3.23250E+01 0.00000E+00
 -1      3362 5.11573E+01 3.64661E+01 0.00000E+00
 -1      3363 1.38309E+02 1.98656E+01 0.00000E+00
 -1      3364 1.38309E+02 1.83969E+01 0.00000E+00
 -1      3365 1.37010E+02 1.76625E+01 0.00000E+00
 -1      3366 1.37086E+02 1.43515E+01 0.00000E+00
 -1      3367 1.37010E+02 2.06031E+01 0.00000E+00
 -1      3368 4.58608E+01 2.09584E+01 0.00000E+00
 -1      3369 4.71674E+01 2.15257E+01 0.00000E+00
 -1      3370 2.11189E+01 2.84173E+01 0.00000E+00
 -1      3371 2.18647E+01 2.70941E+01 0.00000E+00
 -1      3372 1.35942E+02 1.43866E+01 0.00000E+00
 -1      3373 3.39473E+01 1.74907E+01 0.00000E+00
 -1      3374 3.53603E+01 1.73356E+01 0.00000E+00
 -1      3375 5.87625E+01 3.68966E+01 0.00000E+00
 -1      3376 6.03375E+01 3.68966E+01 0.00000E+00
 -1      3377 6.18375E+01 3.68966E+01 0.00000E+00
 -1      3378 6.33375E+01 3.68966E+01 0.00000E+00
 -1      3379 6.10500E+01 3.55976E+01 0.00000E+00
 -1      3380 6.48375E+01 3.68966E+01 0.00000E+00
 -1      3381 6.63375E+01 3.68966E+01 0.00000E+00
 -1      3382 6.40500E+01 3.55976E+01 0.00000E+00
 -1      3383 6.78375E+01 3.68966E+01 0.00000E+00
 -1      3384 6.93375E+01 3.68966E+01 0.00000E+00
 -1      3385 6.70500E+01 3.55976E+01 0.00000E+00
 -1      3386 7.08375E+01 3.68966E+01 0.00000E+00
 -1      3387 7.23375E+01 3.68966E+01 0.00000E+00
 -1      3388 7.00500E+01 3.55976E+01 0.00000E+00
 -1      3389 7.38375E+01 3.68966E+01 0.00000E+00
 -1      3390 7.53375E+01 3.68966E+01 0.00000E+00
 -1      3391 7.30500E+01 3.55976E+01 0.00000E+00
 -1      3392 7.68375E+01 3.68966E+01 0.00000E+00
 -1      3393 7.83375E+01 3.68966E+01 0.00000E+00
 -1      3394 7.60500E+01 3.55976E+01 0.00000E+00
 -1      3395 7.99125E+01 3.68966E+01 0.00000E+00
 -1      3396 8.14875E+01 3.68966E+01 0.00000E+00
 -1      3397 7.91250E+01 3.55976E+01 0.00000E+00
 -1      3398 8.29875E+01 3.68966E+01 0.00000E+00
 -1      3399 8.44875E+01 3.68966E+01 0.00000E+00
 -1      3400 8.22000E+01 3.55976E+01 0.00000E+00
 -1      3401 8.59875E+01 3.68966E+01 0.00000E+00
 -1      3402 8.74875E+01 3.68966E+01 0.00000E+00
 -1      3403 8.52000E+01 3.55976E+01 0.00000E+00
 -1      3404 8.89875E+01 3.68966E+01 0.00000E+00
 -1      3405 9.04875E+01 3.68966E+01 0.00000E+00
 -1      3406 8.82000E+01 3.55976E+01 0.00000E+00
 -1      3407 9.19875E+01 3.68966E+01 0.00000E+00
 -1      3408 9.34875E+01 3.68966E+01 0.00000E+00
 -1      3409 9.12000E+01 3.55976E+01 0.00000E+00
 -1      3410 9.49875E+01 3.68966E+01 0.00000E+00
 -1      3411 9.64875E+01 3.68966E+01 0.00000E+00
 -1      3412 9.42000E+01 3.55976E+01 0.00000E+00
 -1      3413 9.79875E+01 3.68966E+01 0.00000E+00
 -1      3414 9.94875E+01 3.68966E+01 0.00000E+00
 -1      3415 9.72000E+01 3.55976E+01 0.00000E+00
 -1      3416 1.01063E+02 3.68966E+01 0.00000E+00
 -1      3417 1.02637E+02 3.68966E+01 0.00000E+00
 -1      3418 1.00275E+02 3.55976E+01 0.00000E+00
 -1      3419 1.04137E+02 3.68966E+01 0.00000E+00
 -1      3420 1.05637E+02 3.68966E+01 0.00000E+00
 -1      3421 1.03350E+02 3.55976E+01 0.00000E+00
 -1      3422 1.07137E+02 3.68966E+01 0.00000E+00
 -1      3423 1.08637E+02 3.68966E+01 0.00000E+00
 -1      3424 1.06350E+02 3.55976E+01 0.00000E+00
 -1      3425 1.10137E+02 3.68966E+01 0.00000E+00
 -1      3426 1.11637E+02 3.68966E+01 0.00000E+00
 -1      3427 1.09350E+02 3.55976E+01 0.00000E+00
 -1      3428 1.13137E+02 3.68966E+01 0.00000E+00
 -1      3429 1.14637E+02 3.68966E+01 0.00000E+00
 -1      3430 1.12350E+02 3.55976E+01 0.00000E+00
 -1      3431 1.16137E+02 3.68966E+01 0.00000E+00
 -1      3432 1.17637E+02 3.68966E+01 0.00000E+00
 -1      3433 1.15350E+02 3.55976E+01 0.00000E+00
 -1      3434 1.19137E+02 3.68966E+01 0.00000E+00
 -1      3435 1.20637E+02 3.68966E+01 0.00000E+00
 -1      3436 1.18350E+02 3.55976E+01 0.00000E+00
 -1      3437 1.22213E+02 3.68966E+01 0.00000E+00
 -1      3438 1.23787E+02 3.68966E+01 0.00000E+00
 -1      3439 1.21425E+02 3.55976E+01 0.00000E+00
 -1      3440 1.25287E+02 3.68966E+01 0.00000E+00
 -1      3441 1.26787E+02 3.68966E+01 0.00000E+00
 -1      3442 1.24500E+02 3.55976E+01 0.00000E+00
 -1      3443 1.28288E+02 3.68966E+01 0.00000E+00
 -1      3444 1.29788E+02 3.68966E+01 0.00000E+00
 -1      3445 1.27500E+02 3.55976E+01 0.00000E+00
 -1      3446 1.31288E+02 3.68966E+01 0.00000E+00
 -1      3447 1.32788E+02 3.68966E+01 0.00000E+00
 -1      3448 1.30500E+02 3.55976E+01 0.00000E+00
 -1      3449 1.34040E+02 3.64534E+01 0.00000E+00
 -1      3450 1.35540E+02 3.64534E+01 0.00000E+00
 -1      3451 1.35758E+02 3.42681E+01 0.00000E+00
 -1      3452 1.33253E+02 3.51544E+01 0.00000E+00
 -1      3453 1.21973E+01 3.60821E+01 0.00000E+00
 -1      3454 3.21240E+01 1.38785E+01 0.00000E+00
 -1      3455 3.06240E+01 1.38785E+01 0.00000E+00
 -1      3456 4.41240E+01 1.38785E+01 0.00000E+00
 -1      3457 4.26240E+01 1.38785E+01 0.00000E+00
 -1      3458 4.11240E+01 1.38785E+01 0.00000E+00
 -1      3459 3.96240E+01 1.38785E+01 0.00000E+00
 -1      3460 4.18740E+01 1.51775E+01 0.00000E+00
 -1      3461 5.01240E+01 1.38785E+01 0.00000E+00
 -1      3462 4.86240E+01 1.38785E+01 0.00000E+00
 -1      3463 5.31240E+01 1.38785E+01 0.00000E+00
 -1      3464 5.16240E+01 1.38785E+01 0.00000E+00
 -1      3465 5.08740E+01 1.51775E+01 0.00000E+00
 -1      3466 5.61240E+01 1.38785E+01 0.00000E+00
 -1      3467 5.46240E+01 1.38785E+01 0.00000E+00
 -1      3468 5.38740E+01 1.51775E+01 0.00000E+00
 -1      3469 5.91240E+01 1.38785E+01 0.00000E+00
 -1      3470 5.76240E+01 1.38785E+01 0.00000E+00
 -1      3471 5.68740E+01 1.51775E+01 0.00000E+00
 -1      3472 6.21240E+01 1.38785E+01 0.00000E+00
 -1      3473 6.06240E+01 1.38785E+01 0.00000E+00
 -1      3474 5.98740E+01 1.51775E+01 0.00000E+00
 -1      3475 6.51240E+01 1.38785E+01 0.00000E+00
 -1      3476 6.36240E+01 1.38785E+01 0.00000E+00
 -1      3477 6.28740E+01 1.51775E+01 0.00000E+00
 -1      3478 6.81240E+01 1.38785E+01 0.00000E+00
 -1      3479 6.66240E+01 1.38785E+01 0.00000E+00
 -1      3480 6.58740E+01 1.51775E+01 0.00000E+00
 -1      3481 7.11240E+01 1.38785E+01 0.00000E+00
 -1      3482 6.96240E+01 1.38785E+01 0.00000E+00
 -1      3483 6.88740E+01 1.51775E+01 0.00000E+00
 -1      3484 7.41240E+01 1.38785E+01 0.00000E+00
 -1      3485 7.26240E+01 1.38785E+01 0.00000E+00
 -1      3486 7.18740E+01 1.51775E+01 0.00000E+00
 -1      3487 7.71240E+01 1.38785E+01 0.00000E+00
 -1      3488 7.56240E+01 1.38785E+01 0.00000E+00
 -1      3489 7.48740E+01 1.51775E+01 0.00000E+00
 -1      3490 8.01240E+01 1.38785E+01 0.00000E+00
 -1      3491 7.86240E+01 1.38785E+01 0.00000E+00
 -1      3492 7.78740E+01 1.51775E+01 0.00000E+00
 -1      3493 8.31240E+01 1.38785E+01 0.00000E+00
 -1      3494 8.16240E+01 1.38785E+01 0.00000E+00
 -1      3495 8.08740E+01 1.51775E+01 0.00000E+00
 -1      3496 8.61240E+01 1.38785E+01 0.00000E+00
 -1      3497 8.46240E+01 1.38785E+01 0.00000E+00
 -1      3498 8.38740E+01 1.51775E+01 0.00000E+00
 -1      3499 8.91240E+01 1.38785E+01 0.00000E+00
 -1      3500 8.76240E+01 1.38785E+01 0.00000E+00
 -1      3501 8.68740E+01 1.51775E+01 0.00000E+00
 -1      3502 9.21240E+01 1.38785E+01 0.00000E+00
 -1      3503 9.06240E+01 1.38785E+01 0.00000E+00
 -1      3504 8.98740E+01 1.51775E+01 0.00000E+00
 -1      3505 9.51240E+01 1.38785E+01 0.00000E+00
 -1      3506 9.36240E+01 1.38785E+01 0.00000E+00
 -1      3507 9.28740E+01 1.51775E+01 0.00000E+00
 -1      3508 9.81240E+01 1.38785E+01 0.00000E+00
 -1      3509 9.66240E+01 1.38785E+01 0.00000E+00
 -1      3510 9.58740E+01 1.51775E+01 0.00000E+00
 -1      3511 1.01124E+02 1.38785E+01 0.00000E+00
 -1      3512 9.96240E+01 1.38785E+01 0.00000E+00
 -1      3513 9.88740E+01 1.51775E+01 0.00000E+00
 -1      3514 1.04124E+02 1.38785E+01 0.00000E+00
 -1      3515 1.02624E+02 1.38785E+01 0.00000E+00
 -1      3516 1.01874E+02 1.51775E+01 0.00000E+00
 -1      3517 1.07124E+02 1.38785E+01 0.00000E+00
 -1      3518 1.05624E+02 1.38785E+01 0.00000E+00
 -1      3519 1.04874E+02 1.51775E+01 0.00000E+00
 -1      3520 1.10124E+02 1.38785E+01 0.00000E+00
 -1      3521 1.08624E+02 1.38785E+01 0.00000E+00
 -1      3522 1.07874E+02 1.51775E+01 0.00000E+00
 -1      3523 1.13124E+02 1.38785E+01 0.00000E+00
 -1      3524 1.11624E+02 1.38785E+01 0.00000E+00
 -1      3525 1.10874E+02 1.51775E+01 0.00000E+00
 -1      3526 1.16124E+02 1.38785E+01 0.00000E+00
 -1      3527 1.14624E+02 1.38785E+01 0.00000E+00
 -1      3528 1.13874E+02 1.51775E+01 0.00000E+00
 -1      3529 1.19124E+02 1.38785E+01 0.00000E+00
 -1      3530 1.17624E+02 1.38785E+01 0.00000E+00
 -1      3531 1.16874E+02 1.51775E+01 0.00000E+00
 -1      3532 1.22124E+02 1.38785E+01 0.00000E+00
 -1      3533 1.20624E+02 1.38785E+01 0.00000E+00
 -1      3534 1.19874E+02 1.51775E+01 0.00000E+00
 -1      3535 1.25124E+02 1.38785E+01 0.00000E+00
 -1      3536 1.23624E+02 1.38785E+01 0.00000E+00
 -1      3537 1.22874E+02 1.51775E+01 0.00000E+00
 -1      3538 1.28124E+02 1.38785E+01 0.00000E+00
 -1      3539 1.26624E+02 1.38785E+01 0.00000E+00
 -1      3540 1.25874E+02 1.51775E+01 0.00000E+00
 -1      3541 1.31124E+02 1.38785E+01 0.00000E+00
 -1      3542 1.29624E+02 1.38785E+01 0.00000E+00
 -1      3543 1.28874E+02 1.51775E+01 0.00000E+00
 -1      3544 1.34124E+02 1.38785E+01 0.00000E+00
 -1      3545 1.32624E+02 1.38785E+01 0.00000E+00
 -1      3546 1.31874E+02 1.51775E+01 0.00000E+00
 -1      3547 3.71179E+01 1.75451E+01 0.00000E+00
 -1      3548 3.86049E+01 1.77736E+01 0.00000E+00
 -1      3549 1.98100E+01 3.59342E+01 0.00000E+00
 -1      3550 2.07878E+01 3.55905E+01 0.00000E+00
 -1      3551 2.08728E+01 3.45147E+01 0.00000E+00
 -1      3552 1.35711E+02 2.13391E+01 0.00000E+00
 -1      3553 1.35711E+02 1.98672E+01 0.00000E+00
 -1      3554 1.35758E+02 3.27931E+01 0.00000E+00
 -1      3555 1.35758E+02 3.13181E+01 0.00000E+00
 -1      3556 1.34505E+02 3.32363E+01 0.00000E+00
 -1      3557 1.35758E+02 2.98681E+01 0.00000E+00
 -1      3558 1.35758E+02 2.84181E+01 0.00000E+00
 -1      3559 1.34505E+02 3.03113E+01 0.00000E+00
 -1      3560 4.27536E+01 2.02663E+01 0.00000E+00
 -1      3561 4.43316E+01 2.06173E+01 0.00000E+00
 -1      3562 4.54266E+01 1.98838E+01 0.00000E+00
 -1      3563 4.23680E+01 1.92017E+01 0.00000E+00
 -1      3564 5.23562E+01 3.29395E+01 0.00000E+00
 -1      3565 5.24505E+01 3.43246E+01 0.00000E+00
 -1      3566 5.18509E+01 2.99659E+01 0.00000E+00
 -1      3567 5.21036E+01 3.14527E+01 0.00000E+00
 -1      3568 5.32571E+01 3.20699E+01 0.00000E+00
 -1      3569 4.71240E+01 1.38785E+01 0.00000E+00
 -1      3570 4.56240E+01 1.38785E+01 0.00000E+00
 -1      3571 4.48740E+01 1.51775E+01 0.00000E+00
 -1      3572 4.78740E+01 1.51775E+01 0.00000E+00
 -1      3573 2.11449E+01 3.35581E+01 0.00000E+00
 -1      3574 2.14392E+01 3.29510E+01 0.00000E+00
 -1      3575 2.07112E+01 3.19888E+01 0.00000E+00
 -1      3576 2.01670E+01 3.39019E+01 0.00000E+00
 -1      3577 1.48741E+01 1.40483E+01 0.00000E+00
 -1      3578 1.39320E+01 1.43585E+01 0.00000E+00
 -1      3579 1.39320E+01 1.58273E+01 0.00000E+00
 -1      3580 1.16910E+01 2.71844E+01 0.00000E+00
 -1      3581 1.16910E+01 2.86531E+01 0.00000E+00
 -1      3582 1.29900E+01 2.93875E+01 0.00000E+00
 -1      3583 5.57625E+01 3.68966E+01 0.00000E+00
 -1      3584 5.72625E+01 3.68966E+01 0.00000E+00
 -1      3585 5.80500E+01 3.55976E+01 0.00000E+00
 -1      3586 5.12617E+01 2.67845E+01 0.00000E+00
 -1      3587 5.16071E+01 2.83331E+01 0.00000E+00
 -1      3588 1.68100E+01 3.59342E+01 0.00000E+00
 -1      3589 1.83100E+01 3.59342E+01 0.00000E+00
 -1      3590 1.83950E+01 3.48584E+01 0.00000E+00
 -1      3591 2.56530E+01 2.31860E+01 0.00000E+00
 -1      3592 2.68669E+01 2.25714E+01 0.00000E+00
 -1      3593 1.35711E+02 1.83984E+01 0.00000E+00
 -1      3594 1.35711E+02 1.69297E+01 0.00000E+00
 -1      3595 1.34412E+02 1.91344E+01 0.00000E+00
 -1      3596 5.24469E+01 3.65924E+01 0.00000E+00
 -1      3597 5.44728E+01 3.67703E+01 0.00000E+00
 -1      3598 5.52603E+01 3.54713E+01 0.00000E+00
 -1      3599 5.26810E+01 3.52187E+01 0.00000E+00
 -1      3600 1.34963E+01 3.53477E+01 0.00000E+00
 -1      3601 1.42890E+01 2.27625E+01 0.00000E+00
 -1      3602 1.42890E+01 2.42375E+01 0.00000E+00
 -1      3603 1.63741E+01 1.40483E+01 0.00000E+00
 -1      3604 2.05033E+01 2.60564E+01 0.00000E+00
 -1      3605 2.18422E+01 2.59392E+01 0.00000E+00
 -1      3606 2.18198E+01 2.47844E+01 0.00000E+00
 -1      3607 1.35192E+02 1.56856E+01 0.00000E+00
 -1      3608 1.33893E+02 1.64216E+01 0.00000E+00
 -1      3609 2.53740E+01 1.25795E+01 0.00000E+00
 -1      3610 5.37402E+01 3.44509E+01 0.00000E+00
 -1      3611 3.23771E+01 1.70073E+01 0.00000E+00
 -1      3612 3.29442E+01 1.56609E+01 0.00000E+00
 -1      3613 2.31240E+01 1.38785E+01 0.00000E+00
 -1      3614 2.16240E+01 1.38785E+01 0.00000E+00
 -1      3615 1.35711E+02 2.42891E+01 0.00000E+00
 -1      3616 1.35711E+02 2.28141E+01 0.00000E+00
 -1      3617 1.34412E+02 2.20781E+01 0.00000E+00
 -1      3618 2.91240E+01 1.38785E+01 0.00000E+00
 -1      3619 2.76240E+01 1.38785E+01 0.00000E+00
 -1      3620 2.98740E+01 1.51775E+01 0.00000E+00
 -1      3621 3.36942E+01 1.43619E+01 0.00000E+00
 -1      3622 3.92019E+01 1.58704E+01 0.00000E+00
 -1      3623 3.84519E+01 1.45714E+01 0.00000E+00
 -1      3624 3.93181E+01 1.67912E+01 0.00000E+00
 -1      3625 3.98932E+01 1.80014E+01 0.00000E+00
 -1      3626 4.07226E+01 1.79398E+01 0.00000E+00
 -1      3627 4.04902E+01 1.60983E+01 0.00000E+00
 -1      3628 3.62722E+01 1.63538E+01 0.00000E+00
 -1      3629 5.10557E+01 2.41113E+01 0.00000E+00
 -1      3630 5.11587E+01 2.54479E+01 0.00000E+00
 -1      3631 5.24137E+01 2.59808E+01 0.00000E+00
 -1      3632 2.03901E+01 2.98262E+01 0.00000E+00
 -1      3633 2.07545E+01 2.91218E+01 0.00000E+00
 -1      3634 2.01614E+01 2.79157E+01 0.00000E+00
 -1      3635 5.27606E+01 2.89503E+01 0.00000E+00
 -1      3636 2.72104E+01 2.15175E+01 0.00000E+00
 -1      3637 1.29900E+01 2.64469E+01 0.00000E+00
 -1      3638 1.42890E+01 1.98188E+01 0.00000E+00
 -1      3639 1.42890E+01 2.12906E+01 0.00000E+00
 -1      3640 1.55880E+01 2.20281E+01 0.00000E+00
 -1      3641 2.01240E+01 1.38785E+01 0.00000E+00
 -1      3642 1.86240E+01 1.38785E+01 0.00000E+00
 -1      3643 2.08740E+01 1.51775E+01 0.00000E+00
 -1      3644 1.54488E+01 3.58801E+01 0.00000E+00
 -1      3645 4.83783E+01 2.19016E+01 0.00000E+00
 -1      3646 4.95892E+01 2.22775E+01 0.00000E+00
 -1      3647 4.81667E+01 2.06008E+01 0.00000E+00
 -1      3648 2.91769E+01 1.99460E+01 0.00000E+00
 -1      3649 3.01244E+01 1.99218E+01 0.00000E+00
 -1      3650 3.06775E+01 1.87970E+01 0.00000E+00
 -1      3651 2.33026E+01 2.34454E+01 0.00000E+00
 -1      3652 2.44778E+01 2.33157E+01 0.00000E+00
 -1      3653 2.46216E+01 2.20938E+01 0.00000E+00
 -1      3654 1.35734E+02 2.70911E+01 0.00000E+00
 -1      3655 1.35734E+02 2.56161E+01 0.00000E+00
 -1      3656 1.34435E+02 2.48802E+01 0.00000E+00
 -1      3657 1.34482E+02 2.75343E+01 0.00000E+00
 -1      3658 1.42890E+01 3.15906E+01 0.00000E+00
 -1      3659 1.42890E+01 3.30594E+01 0.00000E+00
 -1      3660 3.51942E+01 1.43619E+01 0.00000E+00
 -1      3661 3.69519E+01 1.45714E+01 0.00000E+00
 -1      3662 1.62415E+01 3.35917E+01 0.00000E+00
 -1      3663 1.49425E+01 3.43261E+01 0.00000E+00
 -1      3664 1.71241E+01 1.53473E+01 0.00000E+00
 -1      3665 1.42890E+01 3.01219E+01 0.00000E+00
 -1      3666 1.55880E+01 3.08563E+01 0.00000E+00
 -1      3667 1.42890E+01 2.86531E+01 0.00000E+00
 -1      3668 6.33000E+01 3.42986E+01 0.00000E+00
 -1      3669 6.48000E+01 3.42986E+01 0.00000E+00
 -1      3670 6.63000E+01 3.42986E+01 0.00000E+00
 -1      3671 6.78000E+01 3.42986E+01 0.00000E+00
 -1      3672 6.55500E+01 3.29996E+01 0.00000E+00
 -1      3673 6.93000E+01 3.42986E+01 0.00000E+00
 -1      3674 7.08000E+01 3.42986E+01 0.00000E+00
 -1      3675 6.85500E+01 3.29996E+01 0.00000E+00
 -1      3676 7.23000E+01 3.42986E+01 0.00000E+00
 -1      3677 7.38000E+01 3.42986E+01 0.00000E+00
 -1      3678 7.15500E+01 3.29996E+01 0.00000E+00
 -1      3679 7.53000E+01 3.42986E+01 0.00000E+00
 -1      3680 7.68000E+01 3.42986E+01 0.00000E+00
 -1      3681 7.45500E+01 3.29996E+01 0.00000E+00
 -1      3682 7.83750E+01 3.42986E+01 0.00000E+00
 -1      3683 7.99500E+01 3.42986E+01 0.00000E+00
 -1      3684 7.76250E+01 3.29996E+01 0.00000E+00
 -1      3685 8.14500E+01 3.42986E+01 0.00000E+00
 -1      3686 8.29500E+01 3.42986E+01 0.00000E+00
 -1      3687 8.07000E+01 3.29996E+01 0.00000E+00
 -1      3688 8.44500E+01 3.42986E+01 0.00000E+00
 -1      3689 8.59500E+01 3.42986E+01 0.00000E+00
 -1      3690 8.37000E+01 3.29996E+01 0.00000E+00
 -1      3691 8.74500E+01 3.42986E+01 0.00000E+00
 -1      3692 8.89500E+01 3.42986E+01 0.00000E+00
 -1      3693 8.67000E+01 3.29996E+01 0.00000E+00
 -1      3694 9.04500E+01 3.42986E+01 0.00000E+00
 -1      3695 9.19500E+01 3.42986E+01 0.00000E+00
 -1      3696 8.97000E+01 3.29996E+01 0.00000E+00
 -1      3697 9.34500E+01 3.42986E+01 0.00000E+00
 -1      3698 9.49500E+01 3.42986E+01 0.00000E+00
 -1      3699 9.27000E+01 3.29996E+01 0.00000E+00
 -1      3700 9.64500E+01 3.42986E+01 0.00000E+00
 -1      3701 9.79500E+01 3.42986E+01 0.00000E+00
 -1      3702 9.57000E+01 3.29996E+01 0.00000E+00
 -1      3703 9.95250E+01 3.42986E+01 0.00000E+00
 -1      3704 1.01100E+02 3.42986E+01 0.00000E+00
 -1      3705 9.87750E+01 3.29996E+01 0.00000E+00
 -1      3706 1.02600E+02 3.42986E+01 0.00000E+00
 -1      3707 1.04100E+02 3.42986E+01 0.00000E+00
 -1      3708 1.01850E+02 3.29996E+01 0.00000E+00
 -1      3709 1.05600E+02 3.42986E+01 0.00000E+00
 -1      3710 1.07100E+02 3.42986E+01 0.00000E+00
 -1      3711 1.04850E+02 3.29996E+01 0.00000E+00
 -1      3712 1.08600E+02 3.42986E+01 0.00000E+00
 -1      3713 1.10100E+02 3.42986E+01 0.00000E+00
 -1      3714 1.07850E+02 3.29996E+01 0.00000E+00
 -1      3715 1.11600E+02 3.42986E+01 0.00000E+00
 -1      3716 1.13100E+02 3.42986E+01 0.00000E+00
 -1      3717 1.10850E+02 3.29996E+01 0.00000E+00
 -1      3718 1.14600E+02 3.42986E+01 0.00000E+00
 -1      3719 1.16100E+02 3.42986E+01 0.00000E+00
 -1      3720 1.13850E+02 3.29996E+01 0.00000E+00
 -1      3721 1.17600E+02 3.42986E+01 0.00000E+00
 -1      3722 1.19100E+02 3.42986E+01 0.00000E+00
 -1      3723 1.16850E+02 3.29996E+01 0.00000E+00
 -1      3724 1.20675E+02 3.42986E+01 0.00000E+00
 -1      3725 1.22250E+02 3.42986E+01 0.00000E+00
 -1      3726 1.19925E+02 3.29996E+01 0.00000E+00
 -1      3727 1.23750E+02 3.42986E+01 0.00000E+00
 -1      3728 1.25250E+02 3.42986E+01 0.00000E+00
 -1      3729 1.23000E+02 3.29996E+01 0.00000E+00
 -1      3730 1.26750E+02 3.42986E+01 0.00000E+00
 -1      3731 1.28250E+02 3.42986E+01 0.00000E+00
 -1      3732 1.26000E+02 3.29996E+01 0.00000E+00
 -1      3733 1.29750E+02 3.42986E+01 0.00000E+00
 -1      3734 1.31250E+02 3.42986E+01 0.00000E+00
 -1      3735 1.29000E+02 3.29996E+01 0.00000E+00
 -1      3736 1.32251E+02 3.39890E+01 0.00000E+00
 -1      3737 1.33504E+02 3.35459E+01 0.00000E+00
 -1      3738 1.33504E+02 3.20709E+01 0.00000E+00
 -1      3739 1.31501E+02 3.26900E+01 0.00000E+00
 -1      3740 4.19902E+01 1.60983E+01 0.00000E+00
 -1      3741 5.46240E+01 1.64765E+01 0.00000E+00
 -1      3742 5.31240E+01 1.64765E+01 0.00000E+00
 -1      3743 5.16240E+01 1.64765E+01 0.00000E+00
 -1      3744 5.01240E+01 1.64765E+01 0.00000E+00
 -1      3745 5.23740E+01 1.77755E+01 0.00000E+00
 -1      3746 6.06240E+01 1.64765E+01 0.00000E+00
 -1      3747 5.91240E+01 1.64765E+01 0.00000E+00
 -1      3748 6.36240E+01 1.64765E+01 0.00000E+00
 -1      3749 6.21240E+01 1.64765E+01 0.00000E+00
 -1      3750 6.13740E+01 1.77755E+01 0.00000E+00
 -1      3751 6.66240E+01 1.64765E+01 0.00000E+00
 -1      3752 6.51240E+01 1.64765E+01 0.00000E+00
 -1      3753 6.43740E+01 1.77755E+01 0.00000E+00
 -1      3754 6.96240E+01 1.64765E+01 0.00000E+00
 -1      3755 6.81240E+01 1.64765E+01 0.00000E+00
 -1      3756 6.73740E+01 1.77755E+01 0.00000E+00
 -1      3757 7.26240E+01 1.64765E+01 0.00000E+00
 -1      3758 7.11240E+01 1.64765E+01 0.00000E+00
 -1      3759 7.03740E+01 1.77755E+01 0.00000E+00
 -1      3760 7.56240E+01 1.64765E+01 0.00000E+00
 -1      3761 7.41240E+01 1.64765E+01 0.00000E+00
 -1      3762 7.33740E+01 1.77755E+01 0.00000E+00
 -1      3763 7.86240E+01 1.64765E+01 0.00000E+00
 -1      3764 7.71240E+01 1.64765E+01 0.00000E+00
 -1      3765 7.63740E+01 1.77755E+01 0.00000E+00
 -1      3766 8.16240E+01 1.64765E+01 0.00000E+00
 -1      3767 8.01240E+01 1.64765E+01 0.00000E+00
 -1      3768 7.93740E+01 1.77755E+01 0.00000E+00
 -1      3769 8.46240E+01 1.64765E+01 0.00000E+00
 -1      3770 8.31240E+01 1.64765E+01 0.00000E+00
 -1      3771 8.23740E+01 1.77755E+01 0.00000E+00
 -1      3772 8.76240E+01 1.64765E+01 0.00000E+00
 -1      3773 8.61240E+01 1.64765E+01 0.00000E+00
 -1      3774 8.53740E+01 1.77755E+01 0.00000E+00
 -1      3775 9.06240E+01 1.64765E+01 0.00000E+00
 -1      3776 8.91240E+01 1.64765E+01 0.00000E+00
 -1      3777 8.83740E+01 1.77755E+01 0.00000E+00
 -1      3778 9.36240E+01 1.64765E+01 0.00000E+00
 -1      3779 9.21240E+01 1.64765E+01 0.00000E+00
 -1      3780 9.13740E+01 1.77755E+01 0.00000E+00
 -1      3781 9.66240E+01 1.64765E+01 0.00000E+00
 -1      3782 9.51240E+01 1.64765E+01 0.00000E+00
 -1      3783 9.43740E+01 1.77755E+01 0.00000E+00
 -1      3784 9.96240E+01 1.64765E+01 0.00000E+00
 -1      3785 9.81240E+01 1.64765E+01 0.00000E+00
 -1      3786 9.73740E+01 1.77755E+01 0.00000E+00
 -1      3787 1.02624E+02 1.64765E+01 0.00000E+00
 -1      3788 1.01124E+02 1.64765E+01 0.00000E+00
 -1      3789 1.00374E+02 1.77755E+01 0.00000E+00
 -1      3790 1.05624E+02 1.64765E+01 0.00000E+00
 -1      3791 1.04124E+02 1.64765E+01 0.00000E+00
 -1      3792 1.03374E+02 1.77755E+01 0.00000E+00
 -1      3793 1.08624E+02 1.64765E+01 0.00000E+00
 -1      3794 1.07124E+02 1.64765E+01 0.00000E+00
 -1      3795 1.06374E+02 1.77755E+01 0.00000E+00
 -1      3796 1.11624E+02 1.64765E+01 0.00000E+00
 -1      3797 1.10124E+02 1.64765E+01 0.00000E+00
 -1      3798 1.09374E+02 1.77755E+01 0.00000E+00
 -1      3799 1.14624E+02 1.64765E+01 0.00000E+00
 -1      3800 1.13124E+02 1.64765E+01 0.00000E+00
 -1      3801 1.12374E+02 1.77755E+01 0.00000E+00
 -1      3802 1.17624E+02 1.64765E+01 0.00000E+00
 -1      3803 1.16124E+02 1.64765E+01 0.00000E+00
 -1      3804 1.15374E+02 1.77755E+01 0.00000E+00
 -1      3805 1.20624E+02 1.64765E+01 0.00000E+00
 -1      3806 1.19124E+02 1.64765E+01 0.00000E+00
 -1      3807 1.18374E+02 1.77755E+01 0.00000E+00
 -1      3808 1.23624E+02 1.64765E+01 0.00000E+00
 -1      3809 1.22124E+02 1.64765E+01 0.00000E+00
 -1      3810 1.21374E+02 1.77755E+01 0.00000E+00
 -1      3811 1.26624E+02 1.64765E+01 0.00000E+00
 -1      3812 1.25124E+02 1.64765E+01 0.00000E+00
 -1      3813 1.24374E+02 1.77755E+01 0.00000E+00
 -1      3814 1.29624E+02 1.64765E+01 0.00000E+00
 -1      3815 1.28124E+02 1.64765E+01 0.00000E+00
 -1      3816 1.27374E+02 1.77755E+01 0.00000E+00
 -1      3817 1.32508E+02 1.64490E+01 0.00000E+00
 -1      3818 1.31008E+02 1.64490E+01 0.00000E+00
 -1      3819 1.30258E+02 1.77480E+01 0.00000E+00
 -1      3820 1.33027E+02 1.76931E+01 0.00000E+00
 -1      3821 1.33504E+02 3.06209E+01 0.00000E+00
 -1      3822 1.33504E+02 2.91709E+01 0.00000E+00
 -1      3823 1.32503E+02 3.09304E+01 0.00000E+00
 -1      3824 5.43066E+01 3.11267E+01 0.00000E+00
 -1      3825 5.45593E+01 3.26135E+01 0.00000E+00
 -1      3826 1.41105E+01 1.70871E+01 0.00000E+00
 -1      3827 1.41105E+01 1.85589E+01 0.00000E+00
 -1      3828 1.54095E+01 1.92964E+01 0.00000E+00
 -1      3829 1.50525E+01 1.67768E+01 0.00000E+00
 -1      3830 1.33027E+02 1.91618E+01 0.00000E+00
 -1      3831 1.42890E+01 2.57094E+01 0.00000E+00
 -1      3832 1.42890E+01 2.71812E+01 0.00000E+00
 -1      3833 1.55880E+01 2.79156E+01 0.00000E+00
 -1      3834 1.55880E+01 2.49719E+01 0.00000E+00
 -1      3835 5.76240E+01 1.64765E+01 0.00000E+00
 -1      3836 5.61240E+01 1.64765E+01 0.00000E+00
 -1      3837 5.53740E+01 1.77755E+01 0.00000E+00
 -1      3838 5.73000E+01 3.42986E+01 0.00000E+00
 -1      3839 5.88000E+01 3.42986E+01 0.00000E+00
 -1      3840 5.48753E+01 3.43116E+01 0.00000E+00
 -1      3841 5.61649E+01 3.44379E+01 0.00000E+00
 -1      3842 5.69149E+01 3.31389E+01 0.00000E+00
 -1      3843 5.46448E+01 3.34175E+01 0.00000E+00
 -1      3844 1.74543E+01 3.37468E+01 0.00000E+00
 -1      3845 1.89543E+01 3.37468E+01 0.00000E+00
 -1      3846 1.92263E+01 3.27903E+01 0.00000E+00
 -1      3847 1.68008E+01 3.24801E+01 0.00000E+00
 -1      3848 6.03000E+01 3.42986E+01 0.00000E+00
 -1      3849 6.18000E+01 3.42986E+01 0.00000E+00
 -1      3850 6.25500E+01 3.29996E+01 0.00000E+00
 -1      3851 5.95500E+01 3.29996E+01 0.00000E+00
 -1      3852 2.61240E+01 1.38785E+01 0.00000E+00
 -1      3853 2.46240E+01 1.38785E+01 0.00000E+00
 -1      3854 2.38740E+01 1.51775E+01 0.00000E+00
 -1      3855 2.68740E+01 1.51775E+01 0.00000E+00
 -1      3856 2.61695E+01 2.06835E+01 0.00000E+00
 -1      3857 2.75830E+01 2.02368E+01 0.00000E+00
 -1      3858 5.38189E+01 2.78610E+01 0.00000E+00
 -1      3859 5.40627E+01 2.94939E+01 0.00000E+00
 -1      3860 5.53649E+01 3.00375E+01 0.00000E+00
 -1      3861 5.83740E+01 1.77755E+01 0.00000E+00
 -1      3862 1.93221E+01 2.66570E+01 0.00000E+00
 -1      3863 1.92996E+01 2.55021E+01 0.00000E+00
 -1      3864 3.14995E+01 1.69752E+01 0.00000E+00
 -1      3865 2.49943E+01 2.08131E+01 0.00000E+00
 -1      3866 2.53669E+01 1.95324E+01 0.00000E+00
 -1      3867 2.38190E+01 2.09428E+01 0.00000E+00
 -1      3868 1.33113E+02 2.28156E+01 0.00000E+00
 -1      3869 1.33113E+02 2.13406E+01 0.00000E+00
 -1      3870 2.99995E+01 1.69752E+01 0.00000E+00
 -1      3871 5.56943E+01 3.24742E+01 0.00000E+00
 -1      3872 2.06247E+01 2.36796E+01 0.00000E+00
 -1      3873 2.19636E+01 2.35625E+01 0.00000E+00
 -1      3874 2.21075E+01 2.23406E+01 0.00000E+00
 -1      3875 1.94984E+01 3.18337E+01 0.00000E+00
 -1      3876 1.97705E+01 3.08772E+01 0.00000E+00
 -1      3877 1.82856E+01 3.16786E+01 0.00000E+00
 -1      3878 4.21356E+01 1.73601E+01 0.00000E+00
 -1      3879 4.22518E+01 1.82809E+01 0.00000E+00
 -1      3880 4.37811E+01 1.86220E+01 0.00000E+00
 -1      3881 1.32479E+02 2.81534E+01 0.00000E+00
 -1      3882 1.33480E+02 2.78438E+01 0.00000E+00
 -1      3883 1.33457E+02 2.65168E+01 0.00000E+00
 -1      3884 5.08442E+01 2.28105E+01 0.00000E+00
 -1      3885 5.20991E+01 2.33434E+01 0.00000E+00
 -1      3886 5.06326E+01 2.15096E+01 0.00000E+00
 -1      3887 5.36129E+01 2.51878E+01 0.00000E+00
 -1      3888 5.37159E+01 2.65244E+01 0.00000E+00
 -1      3889 5.50181E+01 2.70680E+01 0.00000E+00
 -1      3890 1.91773E+01 2.96711E+01 0.00000E+00
 -1      3891 1.31729E+02 1.98993E+01 0.00000E+00
 -1      3892 2.81360E+01 1.91120E+01 0.00000E+00
 -1      3893 4.53104E+01 1.89630E+01 0.00000E+00
 -1      3894 4.68396E+01 1.93041E+01 0.00000E+00
 -1      3895 4.51942E+01 1.80423E+01 0.00000E+00
 -1      3896 4.35195E+01 1.64393E+01 0.00000E+00
 -1      3897 4.80487E+01 1.67804E+01 0.00000E+00
 -1      3898 4.65487E+01 1.67804E+01 0.00000E+00
 -1      3899 1.68532E+01 2.48014E+01 0.00000E+00
 -1      3900 1.68532E+01 2.62732E+01 0.00000E+00
 -1      3901 2.16240E+01 1.64765E+01 0.00000E+00
 -1      3902 2.01240E+01 1.64765E+01 0.00000E+00
 -1      3903 4.80505E+01 1.96800E+01 0.00000E+00
 -1      3904 4.92614E+01 2.00559E+01 0.00000E+00
 -1      3905 4.79343E+01 1.87593E+01 0.00000E+00
 -1      3906 1.68008E+01 3.10113E+01 0.00000E+00
 -1      3907 1.68870E+01 2.12922E+01 0.00000E+00
 -1      3908 1.68870E+01 2.27641E+01 0.00000E+00
 -1      3909 1.89577E+01 2.73614E+01 0.00000E+00
 -1      3910 2.47828E+01 1.74198E+01 0.00000E+00
 -1      3911 2.32828E+01 1.74198E+01 0.00000E+00
 -1      3912 4.50195E+01 1.64393E+01 0.00000E+00
 -1      3913 1.81522E+01 2.40654E+01 0.00000E+00
 -1      3914 2.25328E+01 1.87188E+01 0.00000E+00
 -1      3915 5.68294E+01 3.23349E+01 0.00000E+00
 -1      3916 2.21338E+01 2.11700E+01 0.00000E+00
 -1      3917 2.25065E+01 1.98893E+01 0.00000E+00
 -1      3918 2.08477E+01 1.89461E+01 0.00000E+00
 -1      3919 2.07949E+01 2.12872E+01 0.00000E+00
 -1      3920 1.83468E+01 1.65577E+01 0.00000E+00
 -1      3921 1.60968E+01 1.67275E+01 0.00000E+00
 -1      3922 2.74581E+01 1.72901E+01 0.00000E+00
 -1      3923 2.59581E+01 1.72901E+01 0.00000E+00
 -1      3924 6.48000E+01 3.17006E+01 0.00000E+00
 -1      3925 6.63000E+01 3.17006E+01 0.00000E+00
 -1      3926 5.61240E+01 1.90745E+01 0.00000E+00
 -1      3927 5.46240E+01 1.90745E+01 0.00000E+00
 -1      3928 6.78000E+01 3.17006E+01 0.00000E+00
 -1      3929 6.93000E+01 3.17006E+01 0.00000E+00
 -1      3930 6.70500E+01 3.04016E+01 0.00000E+00
 -1      3931 7.08000E+01 3.17006E+01 0.00000E+00
 -1      3932 7.23000E+01 3.17006E+01 0.00000E+00
 -1      3933 7.00500E+01 3.04016E+01 0.00000E+00
 -1      3934 7.38000E+01 3.17006E+01 0.00000E+00
 -1      3935 7.53000E+01 3.17006E+01 0.00000E+00
 -1      3936 7.30500E+01 3.04016E+01 0.00000E+00
 -1      3937 7.68750E+01 3.17006E+01 0.00000E+00
 -1      3938 7.84500E+01 3.17006E+01 0.00000E+00
 -1      3939 7.61250E+01 3.04016E+01 0.00000E+00
 -1      3940 7.99500E+01 3.17006E+01 0.00000E+00
 -1      3941 8.14500E+01 3.17006E+01 0.00000E+00
 -1      3942 7.92000E+01 3.04016E+01 0.00000E+00
 -1      3943 8.29500E+01 3.17006E+01 0.00000E+00
 -1      3944 8.44500E+01 3.17006E+01 0.00000E+00
 -1      3945 8.22000E+01 3.04016E+01 0.00000E+00
 -1      3946 8.59500E+01 3.17006E+01 0.00000E+00
 -1      3947 8.74500E+01 3.17006E+01 0.00000E+00
 -1      3948 8.52000E+01 3.04016E+01 0.00000E+00
 -1      3949 8.89500E+01 3.17006E+01 0.00000E+00
 -1      3950 9.04500E+01 3.17006E+01 0.00000E+00
 -1      3951 8.82000E+01 3.04016E+01 0.00000E+00
 -1      3952 9.19500E+01 3.17006E+01 0.00000E+00
 -1      3953 9.34500E+01 3.17006E+01 0.00000E+00
 -1      3954 9.12000E+01 3.04016E+01 0.00000E+00
 -1      3955 9.49500E+01 3.17006E+01 0.00000E+00
 -1      3956 9.64500E+01 3.17006E+01 0.00000E+00
 -1      3957 9.42000E+01 3.04016E+01 0.00000E+00
 -1      3958 9.80250E+01 3.17006E+01 0.00000E+00
 -1      3959 9.96000E+01 3.17006E+01 0.00000E+00
 -1      3960 9.72750E+01 3.04016E+01 0.00000E+00
 -1      3961 1.01100E+02 3.17006E+01 0.00000E+00
 -1      3962 1.02600E+02 3.17006E+01 0.00000E+00
 -1      3963 1.00350E+02 3.04016E+01 0.00000E+00
 -1      3964 1.04100E+02 3.17006E+01 0.00000E+00
 -1      3965 1.05600E+02 3.17006E+01 0.00000E+00
 -1      3966 1.03350E+02 3.04016E+01 0.00000E+00
 -1      3967 1.07100E+02 3.17006E+01 0.00000E+00
 -1      3968 1.08600E+02 3.17006E+01 0.00000E+00
 -1      3969 1.06350E+02 3.04016E+01 0.00000E+00
 -1      3970 1.10100E+02 3.17006E+01 0.00000E+00
 -1      3971 1.11600E+02 3.17006E+01 0.00000E+00
 -1      3972 1.09350E+02 3.04016E+01 0.00000E+00
 -1      3973 1.13100E+02 3.17006E+01 0.00000E+00
 -1      3974 1.14600E+02 3.17006E+01 0.00000E+00
 -1      3975 1.12350E+02 3.04016E+01 0.00000E+00
 -1      3976 1.16100E+02 3.17006E+01 0.00000E+00
 -1      3977 1.17600E+02 3.17006E+01 0.00000E+00
 -1      3978 1.15350E+02 3.04016E+01 0.00000E+00
 -1      3979 1.19175E+02 3.17006E+01 0.00000E+00
 -1      3980 1.20750E+02 3.17006E+01 0.00000E+00
 -1      3981 1.18425E+02 3.04016E+01 0.00000E+00
 -1      3982 1.22250E+02 3.17006E+01 0.00000E+00
 -1      3983 1.23750E+02 3.17006E+01 0.00000E+00
 -1      3984 1.21500E+02 3.04016E+01 0.00000E+00
 -1      3985 1.25250E+02 3.17006E+01 0.00000E+00
 -1      3986 1.26750E+02 3.17006E+01 0.00000E+00
 -1      3987 1.24500E+02 3.04016E+01 0.00000E+00
 -1      3988 1.28250E+02 3.17006E+01 0.00000E+00
 -1      3989 1.29750E+02 3.17006E+01 0.00000E+00
 -1      3990 1.27500E+02 3.04016E+01 0.00000E+00
 -1      3991 1.30626E+02 3.14703E+01 0.00000E+00
 -1      3992 1.31627E+02 3.11607E+01 0.00000E+00
 -1      3993 1.31627E+02 2.97107E+01 0.00000E+00
 -1      3994 1.29876E+02 3.01713E+01 0.00000E+00
 -1      3995 6.81240E+01 1.90745E+01 0.00000E+00
 -1      3996 6.66240E+01 1.90745E+01 0.00000E+00
 -1      3997 5.28808E+01 1.99090E+01 0.00000E+00
 -1      3998 5.13808E+01 1.99090E+01 0.00000E+00
 -1      3999 4.87987E+01 1.80794E+01 0.00000E+00
 -1      4000 6.51240E+01 1.90745E+01 0.00000E+00
 -1      4001 6.36240E+01 1.90745E+01 0.00000E+00
 -1      4002 6.58740E+01 2.03735E+01 0.00000E+00
 -1      4003 6.21240E+01 1.90745E+01 0.00000E+00
 -1      4004 6.06240E+01 1.90745E+01 0.00000E+00
 -1      4005 6.28740E+01 2.03735E+01 0.00000E+00
 -1      4006 7.11240E+01 1.90745E+01 0.00000E+00
 -1      4007 6.96240E+01 1.90745E+01 0.00000E+00
 -1      4008 6.88740E+01 2.03735E+01 0.00000E+00
 -1      4009 7.41240E+01 1.90745E+01 0.00000E+00
 -1      4010 7.26240E+01 1.90745E+01 0.00000E+00
 -1      4011 7.18740E+01 2.03735E+01 0.00000E+00
 -1      4012 7.71240E+01 1.90745E+01 0.00000E+00
 -1      4013 7.56240E+01 1.90745E+01 0.00000E+00
 -1      4014 7.48740E+01 2.03735E+01 0.00000E+00
 -1      4015 8.01240E+01 1.90745E+01 0.00000E+00
 -1      4016 7.86240E+01 1.90745E+01 0.00000E+00
 -1      4017 7.78740E+01 2.03735E+01 0.00000E+00
 -1      4018 8.31240E+01 1.90745E+01 0.00000E+00
 -1      4019 8.16240E+01 1.90745E+01 0.00000E+00
 -1      4020 8.08740E+01 2.03735E+01 0.00000E+00
 -1      4021 8.61240E+01 1.90745E+01 0.00000E+00
 -1      4022 8.46240E+01 1.90745E+01 0.00000E+00
 -1      4023 8.38740E+01 2.03735E+01 0.00000E+00
 -1      4024 8.91240E+01 1.90745E+01 0.00000E+00
 -1      4025 8.76240E+01 1.90745E+01 0.00000E+00
 -1      4026 8.68740E+01 2.03735E+01 0.00000E+00
 -1      4027 9.21240E+01 1.90745E+01 0.00000E+00
 -1      4028 9.06240E+01 1.90745E+01 0.00000E+00
 -1      4029 8.98740E+01 2.03735E+01 0.00000E+00
 -1      4030 9.51240E+01 1.90745E+01 0.00000E+00
 -1      4031 9.36240E+01 1.90745E+01 0.00000E+00
 -1      4032 9.28740E+01 2.03735E+01 0.00000E+00
 -1      4033 9.81240E+01 1.90745E+01 0.00000E+00
 -1      4034 9.66240E+01 1.90745E+01 0.00000E+00
 -1      4035 9.58740E+01 2.03735E+01 0.00000E+00
 -1      4036 1.01124E+02 1.90745E+01 0.00000E+00
 -1      4037 9.96240E+01 1.90745E+01 0.00000E+00
 -1      4038 9.88740E+01 2.03735E+01 0.00000E+00
 -1      4039 1.04124E+02 1.90745E+01 0.00000E+00
 -1      4040 1.02624E+02 1.90745E+01 0.00000E+00
 -1      4041 1.01874E+02 2.03735E+01 0.00000E+00
 -1      4042 1.07124E+02 1.90745E+01 0.00000E+00
 -1      4043 1.05624E+02 1.90745E+01 0.00000E+00
 -1      4044 1.04874E+02 2.03735E+01 0.00000E+00
 -1      4045 1.10124E+02 1.90745E+01 0.00000E+00
 -1      4046 1.08624E+02 1.90745E+01 0.00000E+00
 -1      4047 1.07874E+02 2.03735E+01 0.00000E+00
 -1      4048 1.13124E+02 1.90745E+01 0.00000E+00
 -1      4049 1.11624E+02 1.90745E+01 0.00000E+00
 -1      4050 1.10874E+02 2.03735E+01 0.00000E+00
 -1      4051 1.16124E+02 1.90745E+01 0.00000E+00
 -1      4052 1.14624E+02 1.90745E+01 0.00000E+00
 -1      4053 1.13874E+02 2.03735E+01 0.00000E+00
 -1      4054 1.19124E+02 1.90745E+01 0.00000E+00
 -1      4055 1.17624E+02 1.90745E+01 0.00000E+00
 -1      4056 1.16874E+02 2.03735E+01 0.00000E+00
 -1      4057 1.22124E+02 1.90745E+01 0.00000E+00
 -1      4058 1.20624E+02 1.90745E+01 0.00000E+00
 -1      4059 1.19874E+02 2.03735E+01 0.00000E+00
 -1      4060 1.25124E+02 1.90745E+01 0.00000E+00
 -1      4061 1.23624E+02 1.90745E+01 0.00000E+00
 -1      4062 1.22874E+02 2.03735E+01 0.00000E+00
 -1      4063 1.28124E+02 1.90745E+01 0.00000E+00
 -1      4064 1.26624E+02 1.90745E+01 0.00000E+00
 -1      4065 1.25874E+02 2.03735E+01 0.00000E+00
 -1      4066 1.30618E+02 1.94732E+01 0.00000E+00
 -1      4067 1.29234E+02 1.95007E+01 0.00000E+00
 -1      4068 1.28484E+02 2.07997E+01 0.00000E+00
 -1      4069 1.30704E+02 2.16520E+01 0.00000E+00
 -1      4070 1.68532E+01 2.77451E+01 0.00000E+00
 -1      4071 1.62753E+01 1.79873E+01 0.00000E+00
 -1      4072 5.65855E+01 3.07021E+01 0.00000E+00
 -1      4073 5.78062E+01 3.13667E+01 0.00000E+00
 -1      4074 5.63417E+01 2.90692E+01 0.00000E+00
 -1      4075 1.90968E+01 1.78567E+01 0.00000E+00
 -1      4076 5.91240E+01 1.90745E+01 0.00000E+00
 -1      4077 5.76240E+01 1.90745E+01 0.00000E+00
 -1      4078 5.98740E+01 2.03735E+01 0.00000E+00
 -1      4079 1.64538E+01 1.92471E+01 0.00000E+00
 -1      4080 1.77528E+01 1.99830E+01 0.00000E+00
 -1      4081 1.76925E+01 2.90038E+01 0.00000E+00
 -1      4082 1.33297E+02 2.53297E+01 0.00000E+00
 -1      4083 1.33273E+02 2.40027E+01 0.00000E+00
 -1      4084 1.31975E+02 2.32652E+01 0.00000E+00
 -1      4085 1.32296E+02 2.56393E+01 0.00000E+00
 -1      4086 1.95300E+01 1.99018E+01 0.00000E+00
 -1      4087 1.93334E+01 2.34648E+01 0.00000E+00
 -1      4088 1.94773E+01 2.22429E+01 0.00000E+00
 -1      4089 6.33000E+01 3.17006E+01 0.00000E+00
 -1      4090 6.40500E+01 3.04016E+01 0.00000E+00
 -1      4091 6.18000E+01 3.17006E+01 0.00000E+00
 -1      4092 1.30728E+02 2.86140E+01 0.00000E+00
 -1      4093 1.31604E+02 2.83837E+01 0.00000E+00
 -1      4094 1.31580E+02 2.70566E+01 0.00000E+00
 -1      4095 5.36308E+01 2.12080E+01 0.00000E+00
 -1      4096 2.90520E+01 1.69993E+01 0.00000E+00
 -1      4097 1.70729E+01 3.00548E+01 0.00000E+00
 -1      4098 5.01258E+01 1.93761E+01 0.00000E+00
 -1      4099 1.30865E+02 2.28390E+01 0.00000E+00
 -1      4100 1.29755E+02 2.24129E+01 0.00000E+00
 -1      4101 1.31025E+02 2.40261E+01 0.00000E+00
 -1      4102 5.62387E+01 2.77326E+01 0.00000E+00
 -1      4103 5.74593E+01 2.83973E+01 0.00000E+00
 -1      4104 5.61357E+01 2.63960E+01 0.00000E+00
 -1      4105 5.68740E+01 2.03735E+01 0.00000E+00
 -1      4106 5.93062E+01 3.13667E+01 0.00000E+00
 -1      4107 5.35160E+01 2.25475E+01 0.00000E+00
 -1      4108 5.37276E+01 2.38483E+01 0.00000E+00
 -1      4109 5.50298E+01 2.43919E+01 0.00000E+00
 -1      4110 5.52593E+01 2.17130E+01 0.00000E+00
 -1      4111 5.00096E+01 1.84553E+01 0.00000E+00
 -1      4112 6.93000E+01 2.91026E+01 0.00000E+00
 -1      4113 7.08000E+01 2.91026E+01 0.00000E+00
 -1      4114 7.23000E+01 2.91026E+01 0.00000E+00
 -1      4115 7.38000E+01 2.91026E+01 0.00000E+00
 -1      4116 7.15500E+01 2.78036E+01 0.00000E+00
 -1      4117 7.53750E+01 2.91026E+01 0.00000E+00
 -1      4118 7.69500E+01 2.91026E+01 0.00000E+00
 -1      4119 7.46250E+01 2.78036E+01 0.00000E+00
 -1      4120 7.84500E+01 2.91026E+01 0.00000E+00
 -1      4121 7.99500E+01 2.91026E+01 0.00000E+00
 -1      4122 7.77000E+01 2.78036E+01 0.00000E+00
 -1      4123 8.14500E+01 2.91026E+01 0.00000E+00
 -1      4124 8.29500E+01 2.91026E+01 0.00000E+00
 -1      4125 8.07000E+01 2.78036E+01 0.00000E+00
 -1      4126 8.44500E+01 2.91026E+01 0.00000E+00
 -1      4127 8.59500E+01 2.91026E+01 0.00000E+00
 -1      4128 8.37000E+01 2.78036E+01 0.00000E+00
 -1      4129 8.74500E+01 2.91026E+01 0.00000E+00
 -1      4130 8.89500E+01 2.91026E+01 0.00000E+00
 -1      4131 8.67000E+01 2.78036E+01 0.00000E+00
 -1      4132 9.04500E+01 2.91026E+01 0.00000E+00
 -1      4133 9.19500E+01 2.91026E+01 0.00000E+00
 -1      4134 8.97000E+01 2.78036E+01 0.00000E+00
 -1      4135 9.34500E+01 2.91026E+01 0.00000E+00
 -1      4136 9.49500E+01 2.91026E+01 0.00000E+00
 -1      4137 9.27000E+01 2.78036E+01 0.00000E+00
 -1      4138 9.65250E+01 2.91026E+01 0.00000E+00
 -1      4139 9.81000E+01 2.91026E+01 0.00000E+00
 -1      4140 9.57750E+01 2.78036E+01 0.00000E+00
 -1      4141 9.96000E+01 2.91026E+01 0.00000E+00
 -1      4142 1.01100E+02 2.91026E+01 0.00000E+00
 -1      4143 9.88500E+01 2.78036E+01 0.00000E+00
 -1      4144 1.02600E+02 2.91026E+01 0.00000E+00
 -1      4145 1.04100E+02 2.91026E+01 0.00000E+00
 -1      4146 1.01850E+02 2.78036E+01 0.00000E+00
 -1      4147 1.05600E+02 2.91026E+01 0.00000E+00
 -1      4148 1.07100E+02 2.91026E+01 0.00000E+00
 -1      4149 1.04850E+02 2.78036E+01 0.00000E+00
 -1      4150 1.08600E+02 2.91026E+01 0.00000E+00
 -1      4151 1.10100E+02 2.91026E+01 0.00000E+00
 -1      4152 1.07850E+02 2.78036E+01 0.00000E+00
 -1      4153 1.11600E+02 2.91026E+01 0.00000E+00
 -1      4154 1.13100E+02 2.91026E+01 0.00000E+00
 -1      4155 1.10850E+02 2.78036E+01 0.00000E+00
 -1      4156 1.14600E+02 2.91026E+01 0.00000E+00
 -1      4157 1.16100E+02 2.91026E+01 0.00000E+00
 -1      4158 1.13850E+02 2.78036E+01 0.00000E+00
 -1      4159 1.17675E+02 2.91026E+01 0.00000E+00
 -1      4160 1.19250E+02 2.91026E+01 0.00000E+00
 -1      4161 1.16925E+02 2.78036E+01 0.00000E+00
 -1      4162 1.20750E+02 2.91026E+01 0.00000E+00
 -1      4163 1.22250E+02 2.91026E+01 0.00000E+00
 -1      4164 1.20000E+02 2.78036E+01 0.00000E+00
 -1      4165 1.23750E+02 2.91026E+01 0.00000E+00
 -1      4166 1.25250E+02 2.91026E+01 0.00000E+00
 -1      4167 1.23000E+02 2.78036E+01 0.00000E+00
 -1      4168 1.26750E+02 2.91026E+01 0.00000E+00
 -1      4169 1.28250E+02 2.91026E+01 0.00000E+00
 -1      4170 1.26000E+02 2.78036E+01 0.00000E+00
 -1      4171 1.29051E+02 2.89734E+01 0.00000E+00
 -1      4172 1.29927E+02 2.87431E+01 0.00000E+00
 -1      4173 1.29904E+02 2.74161E+01 0.00000E+00
 -1      4174 1.28301E+02 2.76744E+01 0.00000E+00
 -1      4175 6.66240E+01 2.16725E+01 0.00000E+00
 -1      4176 6.51240E+01 2.16725E+01 0.00000E+00
 -1      4177 6.36240E+01 2.16725E+01 0.00000E+00
 -1      4178 6.21240E+01 2.16725E+01 0.00000E+00
 -1      4179 6.43740E+01 2.29715E+01 0.00000E+00
 -1      4180 7.56240E+01 2.16725E+01 0.00000E+00
 -1      4181 7.41240E+01 2.16725E+01 0.00000E+00
 -1      4182 7.86240E+01 2.16725E+01 0.00000E+00
 -1      4183 7.71240E+01 2.16725E+01 0.00000E+00
 -1      4184 7.63740E+01 2.29715E+01 0.00000E+00
 -1      4185 8.16240E+01 2.16725E+01 0.00000E+00
 -1      4186 8.01240E+01 2.16725E+01 0.00000E+00
 -1      4187 7.93740E+01 2.29715E+01 0.00000E+00
 -1      4188 8.46240E+01 2.16725E+01 0.00000E+00
 -1      4189 8.31240E+01 2.16725E+01 0.00000E+00
 -1      4190 8.23740E+01 2.29715E+01 0.00000E+00
 -1      4191 8.76240E+01 2.16725E+01 0.00000E+00
 -1      4192 8.61240E+01 2.16725E+01 0.00000E+00
 -1      4193 8.53740E+01 2.29715E+01 0.00000E+00
 -1      4194 9.06240E+01 2.16725E+01 0.00000E+00
 -1      4195 8.91240E+01 2.16725E+01 0.00000E+00
 -1      4196 8.83740E+01 2.29715E+01 0.00000E+00
 -1      4197 9.36240E+01 2.16725E+01 0.00000E+00
 -1      4198 9.21240E+01 2.16725E+01 0.00000E+00
 -1      4199 9.13740E+01 2.29715E+01 0.00000E+00
 -1      4200 9.66240E+01 2.16725E+01 0.00000E+00
 -1      4201 9.51240E+01 2.16725E+01 0.00000E+00
 -1      4202 9.43740E+01 2.29715E+01 0.00000E+00
 -1      4203 9.96240E+01 2.16725E+01 0.00000E+00
 -1      4204 9.81240E+01 2.16725E+01 0.00000E+00
 -1      4205 9.73740E+01 2.29715E+01 0.00000E+00
 -1      4206 1.02624E+02 2.16725E+01 0.00000E+00
 -1      4207 1.01124E+02 2.16725E+01 0.00000E+00
 -1      4208 1.00374E+02 2.29715E+01 0.00000E+00
 -1      4209 1.05624E+02 2.16725E+01 0.00000E+00
 -1      4210 1.04124E+02 2.16725E+01 0.00000E+00
 -1      4211 1.03374E+02 2.29715E+01 0.00000E+00
 -1      4212 1.08624E+02 2.16725E+01 0.00000E+00
 -1      4213 1.07124E+02 2.16725E+01 0.00000E+00
 -1      4214 1.06374E+02 2.29715E+01 0.00000E+00
 -1      4215 1.11624E+02 2.16725E+01 0.00000E+00
 -1      4216 1.10124E+02 2.16725E+01 0.00000E+00
 -1      4217 1.09374E+02 2.29715E+01 0.00000E+00
 -1      4218 1.14624E+02 2.16725E+01 0.00000E+00
 -1      4219 1.13124E+02 2.16725E+01 0.00000E+00
 -1      4220 1.12374E+02 2.29715E+01 0.00000E+00
 -1      4221 1.17624E+02 2.16725E+01 0.00000E+00
 -1      4222 1.16124E+02 2.16725E+01 0.00000E+00
 -1      4223 1.15374E+02 2.29715E+01 0.00000E+00
 -1      4224 1.20624E+02 2.16725E+01 0.00000E+00
 -1      4225 1.19124E+02 2.16725E+01 0.00000E+00
 -1      4226 1.18374E+02 2.29715E+01 0.00000E+00
 -1      4227 1.23624E+02 2.16725E+01 0.00000E+00
 -1      4228 1.22124E+02 2.16725E+01 0.00000E+00
 -1      4229 1.21374E+02 2.29715E+01 0.00000E+00
 -1      4230 1.26624E+02 2.16725E+01 0.00000E+00
 -1      4231 1.25124E+02 2.16725E+01 0.00000E+00
 -1      4232 1.24374E+02 2.29715E+01 0.00000E+00
 -1      4233 1.28744E+02 2.22558E+01 0.00000E+00
 -1      4234 1.27634E+02 2.18296E+01 0.00000E+00
 -1      4235 1.26884E+02 2.31286E+01 0.00000E+00
 -1      4236 1.28905E+02 2.34428E+01 0.00000E+00
 -1      4237 7.26240E+01 2.16725E+01 0.00000E+00
 -1      4238 7.11240E+01 2.16725E+01 0.00000E+00
 -1      4239 7.33740E+01 2.29715E+01 0.00000E+00
 -1      4240 6.06240E+01 2.16725E+01 0.00000E+00
 -1      4241 5.91240E+01 2.16725E+01 0.00000E+00
 -1      4242 6.13740E+01 2.29715E+01 0.00000E+00
 -1      4243 6.96240E+01 2.16725E+01 0.00000E+00
 -1      4244 6.81240E+01 2.16725E+01 0.00000E+00
 -1      4245 7.03740E+01 2.29715E+01 0.00000E+00
 -1      4246 1.31383E+02 2.61349E+01 0.00000E+00
 -1      4247 1.31222E+02 2.49478E+01 0.00000E+00
 -1      4248 1.30112E+02 2.45217E+01 0.00000E+00
 -1      4249 1.30507E+02 2.63652E+01 0.00000E+00
 -1      4250 5.79416E+01 2.16927E+01 0.00000E+00
 -1      4251 5.64416E+01 2.16927E+01 0.00000E+00
 -1      4252 5.63269E+01 2.30322E+01 0.00000E+00
 -1      4253 5.86916E+01 2.29917E+01 0.00000E+00
 -1      4254 6.63000E+01 2.91026E+01 0.00000E+00
 -1      4255 6.78000E+01 2.91026E+01 0.00000E+00
 -1      4256 6.85500E+01 2.78036E+01 0.00000E+00
 -1      4257 1.95036E+01 2.10724E+01 0.00000E+00
 -1      4258 6.00562E+01 3.00677E+01 0.00000E+00
 -1      4259 6.73740E+01 2.29715E+01 0.00000E+00
 -1      4260 6.33000E+01 2.91026E+01 0.00000E+00
 -1      4261 6.48000E+01 2.91026E+01 0.00000E+00
 -1      4262 6.55500E+01 2.78036E+01 0.00000E+00
 -1      4263 5.62887E+01 2.40444E+01 0.00000E+00
 -1      4264 5.61739E+01 2.53838E+01 0.00000E+00
 -1      4265 5.73946E+01 2.60485E+01 0.00000E+00
 -1      4266 5.74710E+01 2.40241E+01 0.00000E+00
 -1      4267 5.91327E+01 2.85830E+01 0.00000E+00
 -1      4268 6.16266E+01 2.89168E+01 0.00000E+00
 -1      4269 6.23766E+01 2.76178E+01 0.00000E+00
 -1      4270 5.90297E+01 2.72464E+01 0.00000E+00
 -1      4271 6.78000E+01 2.65046E+01 0.00000E+00
 -1      4272 6.93000E+01 2.65046E+01 0.00000E+00
 -1      4273 7.38375E+01 2.65046E+01 0.00000E+00
 -1      4274 7.54125E+01 2.65046E+01 0.00000E+00
 -1      4275 7.70370E+01 2.53875E+01 0.00000E+00
 -1      4276 7.85370E+01 2.53875E+01 0.00000E+00
 -1      4277 8.00370E+01 2.53875E+01 0.00000E+00
 -1      4278 8.15370E+01 2.53875E+01 0.00000E+00
 -1      4279 8.30370E+01 2.53875E+01 0.00000E+00
 -1      4280 8.45370E+01 2.53875E+01 0.00000E+00
 -1      4281 8.60370E+01 2.53875E+01 0.00000E+00
 -1      4282 8.75370E+01 2.53875E+01 0.00000E+00
 -1      4283 8.90370E+01 2.53875E+01 0.00000E+00
 -1      4284 9.05370E+01 2.53875E+01 0.00000E+00
 -1      4285 9.20370E+01 2.53875E+01 0.00000E+00
 -1      4286 9.35370E+01 2.53875E+01 0.00000E+00
 -1      4287 9.50370E+01 2.53875E+01 0.00000E+00
 -1      4288 9.66120E+01 2.53875E+01 0.00000E+00
 -1      4289 9.81120E+01 2.53875E+01 0.00000E+00
 -1      4290 9.96120E+01 2.53875E+01 0.00000E+00
 -1      4291 1.01112E+02 2.53875E+01 0.00000E+00
 -1      4292 1.02612E+02 2.53875E+01 0.00000E+00
 -1      4293 1.04112E+02 2.53875E+01 0.00000E+00
 -1      4294 1.05612E+02 2.53875E+01 0.00000E+00
 -1      4295 1.07112E+02 2.53875E+01 0.00000E+00
 -1      4296 1.08612E+02 2.53875E+01 0.00000E+00
 -1      4297 1.10112E+02 2.53875E+01 0.00000E+00
 -1      4298 1.11612E+02 2.53875E+01 0.00000E+00
 -1      4299 1.13112E+02 2.53875E+01 0.00000E+00
 -1      4300 1.14612E+02 2.53875E+01 0.00000E+00
 -1      4301 1.16112E+02 2.53875E+01 0.00000E+00
 -1      4302 1.17687E+02 2.53875E+01 0.00000E+00
 -1      4303 1.19187E+02 2.53875E+01 0.00000E+00
 -1      4304 1.20687E+02 2.53875E+01 0.00000E+00
 -1      4305 1.22187E+02 2.53875E+01 0.00000E+00
 -1      4306 1.23687E+02 2.53875E+01 0.00000E+00
 -1      4307 1.25187E+02 2.53875E+01 0.00000E+00
 -1      4308 1.26687E+02 2.53875E+01 0.00000E+00
 -1      4309 6.51240E+01 2.42705E+01 0.00000E+00
 -1      4310 6.36240E+01 2.42705E+01 0.00000E+00
 -1      4311 7.62495E+01 2.40885E+01 0.00000E+00
 -1      4312 7.47495E+01 2.40885E+01 0.00000E+00
 -1      4313 7.32495E+01 2.40885E+01 0.00000E+00
 -1      4314 6.17886E+01 2.52018E+01 0.00000E+00
 -1      4315 6.02886E+01 2.52018E+01 0.00000E+00
 -1      4316 6.87120E+01 2.40885E+01 0.00000E+00
 -1      4317 6.72120E+01 2.40885E+01 0.00000E+00
 -1      4318 7.20060E+01 2.65956E+01 0.00000E+00
 -1      4319 7.27935E+01 2.52966E+01 0.00000E+00
 -1      4320 7.14180E+01 2.41795E+01 0.00000E+00
 -1      4321 7.05060E+01 2.65956E+01 0.00000E+00
 -1      4322 6.57120E+01 2.66865E+01 0.00000E+00
 -1      4323 6.64620E+01 2.53875E+01 0.00000E+00
 -1      4324 6.97560E+01 2.52966E+01 0.00000E+00
 -1      4325 6.42120E+01 2.66865E+01 0.00000E+00
 -1      4326 5.86152E+01 2.50161E+01 0.00000E+00
 -1      4327 6.99180E+01 2.41795E+01 0.00000E+00
 -1      4328 1.29706E+02 2.64943E+01 0.00000E+00
 -1      4329 1.29404E+02 2.54295E+01 0.00000E+00
 -1      4330 1.29207E+02 2.45077E+01 0.00000E+00
 -1      4331 1.28196E+02 2.43506E+01 0.00000E+00
 -1      4332 1.28800E+02 2.64804E+01 0.00000E+00
 -1      4333 6.25386E+01 2.65008E+01 0.00000E+00
 -1      4334 1.27186E+02 2.41935E+01 0.00000E+00
 -1      4335 1.27999E+02 2.66095E+01 0.00000E+00
 -1      4336 5.86534E+01 2.40039E+01 0.00000E+00
 -3
    3C                          2086                                     1
 -1       165    8    0    1
 -2         6         7        23      1126      1290      1143
 -1       166    8    0    1
 -2         7         8       165      1127      1291      1292
 -1       167    8    0    1
 -2         8         9       166      1128      1293      1294
 -1       168    8    0    1
 -2         8       166       165      1294      1295      1291
 -1       169    8    0    1
 -2         9        10       167      1129      1296      1297
 -1       170    8    0    1
 -2         9       167       166      1297      1298      1293
 -1       171    8    0    1
 -2        10        11       168      1130      1299      1300
 -1       172    8    0    1
 -2        10       168       167      1300      1301      1296
 -1       173    8    0    1
 -2        11        12       169      1131      1302      1303
 -1       174    8    0    1
 -2        11       169       168      1303      1304      1299
 -1       175    8    0    1
 -2        12        13       170      1132      1305      1306
 -1       176    8    0    1
 -2        12       170       169      1306      1307      1302
 -1       177    8    0    1
 -2        13        14       171      1133      1308      1309
 -1       178    8    0    1
 -2        13       171       170      1309      1310      1305
 -1       179    8    0    1
 -2        14        15       172      1134      1311      1312
 -1       180    8    0    1
 -2        14       172       171      1312      1313      1308
 -1       181    8    0    1
 -2        15        16       173      1135      1314      1315
 -1       182    8    0    1
 -2        15       173       172      1315      1316      1311
 -1       183    8    0    1
 -2        16        17       174      1136      1317      1318
 -1       184    8    0    1
 -2        16       174       173      1318      1319      1314
 -1       185    8    0    1
 -2        17        18       175      1137      1320      1321
 -1       186    8    0    1
 -2        17       175       174      1321      1322      1317
 -1       187    8    0    1
 -2        18        19       176      1138      1323      1324
 -1       188    8    0    1
 -2        18       176       175      1324      1325      1320
 -1       189    8    0    1
 -2        19        20       177      1139      1326      1327
 -1       190    8    0    1
 -2        19       177       176      1327      1328      1323
 -1       191    8    0    1
 -2        20        21       178      1140      1329      1330
 -1       192    8    0    1
 -2        20       178       177      1330      1331      1326
 -1       193    8    0    1
 -2        21        22       179      1141      1332      1333
 -1       194    8    0    1
 -2        21       179       178      1333      1334      1329
 -1       195    8    0    1
 -2        22         5       180      1142      1335      1336
 -1       196    8    0    1
 -2       179        22       180      1332      1336      1337
 -1       197    8    0    1
 -2         5        72       180      1193      1338      1335
 -1       198    8    0    1
 -2        24        23       181      1144      1339      1340
 -1       199    8    0    1
 -2        25        24       182      1145      1341      1342
 -1       200    8    0    1
 -2        24       181       182      1340      1343      1341
 -1       201    8    0    1
 -2        26        25       183      1146      1344      1345
 -1       202    8    0    1
 -2        25       182       183      1342      1346      1344
 -1       203    8    0    1
 -2        27        26       184      1147      1347      1348
 -1       204    8    0    1
 -2        26       183       184      1345      1349      1347
 -1       205    8    0    1
 -2        28        27       185      1148      1350      1351
 -1       206    8    0    1
 -2        27       184       185      1348      1352      1350
 -1       207    8    0    1
 -2        29        28       186      1149      1353      1354
 -1       208    8    0    1
 -2        28       185       186      1351      1355      1353
 -1       209    8    0    1
 -2        30        29       187      1150      1356      1357
 -1       210    8    0    1
 -2        29       186       187      1354      1358      1356
 -1       211    8    0    1
 -2        31        30       188      1151      1359      1360
 -1       212    8    0    1
 -2        30       187       188      1357      1361      1359
 -1       213    8    0    1
 -2        32        31       189      1152      1362      1363
 -1       214    8    0    1
 -2        31       188       189      1360      1364      1362
 -1       215    8    0    1
 -2        33        32       190      1153      1365      1366
 -1       216    8    0    1
 -2        32       189       190      1363      1367      1365
 -1       217    8    0    1
 -2        34        33       191      1154      1368      1369
 -1       218    8    0    1
 -2        33       190       191      1366      1370      1368
 -1       219    8    0    1
 -2        35        34       192      1155      1371      1372
 -1       220    8    0    1
 -2        34       191       192      1369      1373      1371
 -1       221    8    0    1
 -2        36        35       193      1156      1374      1375
 -1       222    8    0    1
 -2        35       192       193      1372      1376      1374
 -1       223    8    0    1
 -2        37        36       194      1157      1377      1378
 -1       224    8    0    1
 -2        36       193       194      1375      1379      1377
 -1       225    8    0    1
 -2        38        37       195      1158      1380      1381
 -1       226    8    0    1
 -2        37       194       195      1378      1382      1380
 -1       227    8    0    1
 -2        39        38       196      1159      1383      1384
 -1       228    8    0    1
 -2        38       195       196      1381      1385      1383
 -1       229    8    0    1
 -2        40        39       197      1160      1386      1387
 -1       230    8    0    1
 -2        39       196       197      1384      1388      1386
 -1       231    8    0    1
 -2        41        40       198      1161      1389      1390
 -1       232    8    0    1
 -2        40       197       198      1387      1391      1389
 -1       233    8    0    1
 -2        42        41       199      1162      1392      1393
 -1       234    8    0    1
 -2        41       198       199      1390      1394      1392
 -1       235    8    0    1
 -2        43        42       200      1163      1395      1396
 -1       236    8    0    1
 -2        42       199       200      1393      1397      1395
 -1       237    8    0    1
 -2        44        43       201      1164      1398      1399
 -1       238    8    0    1
 -2        43       200       201      1396      1400      1398
 -1       239    8    0    1
 -2        45        44       202      1165      1401      1402
 -1       240    8    0    1
 -2        44       201       202      1399      1403      1401
 -1       241    8    0    1
 -2        46        45       203      1166      1404      1405
 -1       242    8    0    1
 -2        45       202       203      1402      1406      1404
 -1       243    8    0    1
 -2        47        46       204      1167      1407      1408
 -1       244    8    0    1
 -2        46       203       204      1405      1409      1407
 -1       245    8    0    1
 -2        48        47       205      1168      1410      1411
 -1       246    8    0    1
 -2        47       204       205      1408      1412      1410
 -1       247    8    0    1
 -2        49        48       206      1169      1413      1414
 -1       248    8    0    1
 -2        48       205       206      1411      1415      1413
 -1       249    8    0    1
 -2        50        49       207      1170      1416      1417
 -1       250    8    0    1
 -2        49       206       207      1414      1418      1416
 -1       251    8    0    1
 -2        51        50       208      1171      1419      1420
 -1       252    8    0    1
 -2        50       207       208      1417      1421      1419
 -1       253    8    0    1
 -2        52        51       209      1172      1422      1423
 -1       254    8    0    1
 -2        51       208       209      1420      1424      1422
 -1       255    8    0    1
 -2        53        52       210      1173      1425      1426
 -1       256    8    0    1
 -2        52       209       210      1423      1427      1425
 -1       257    8    0    1
 -2        54        53       211      1174      1428      1429
 -1       258    8    0    1
 -2        53       210       211      1426      1430      1428
 -1       259    8    0    1
 -2        55        54       212      1175      1431      1432
 -1       260    8    0    1
 -2        54       211       212      1429      1433      1431
 -1       261    8    0    1
 -2        56        55       213      1176      1434      1435
 -1       262    8    0    1
 -2        55       212       213      1432      1436      1434
 -1       263    8    0    1
 -2        57        56       214      1177      1437      1438
 -1       264    8    0    1
 -2        56       213       214      1435      1439      1437
 -1       265    8    0    1
 -2        58        57       215      1178      1440      1441
 -1       266    8    0    1
 -2        57       214       215      1438      1442      1440
 -1       267    8    0    1
 -2        59        58       216      1179      1443      1444
 -1       268    8    0    1
 -2        58       215       216      1441      1445      1443
 -1       269    8    0    1
 -2        60        59       217      1180      1446      1447
 -1       270    8    0    1
 -2        59       216       217      1444      1448      1446
 -1       271    8    0    1
 -2        61        60       218      1181      1449      1450
 -1       272    8    0    1
 -2        60       217       218      1447      1451      1449
 -1       273    8    0    1
 -2        62        61       219      1182      1452      1453
 -1       274    8    0    1
 -2        61       218       219      1450      1454      1452
 -1       275    8    0    1
 -2        63        62       220      1183      1455      1456
 -1       276    8    0    1
 -2        62       219       220      1453      1457      1455
 -1       277    8    0    1
 -2        64        63       221      1184      1458      1459
 -1       278    8    0    1
 -2        63       220       221      1456      1460      1458
 -1       279    8    0    1
 -2        65        64       222      1185      1461      1462
 -1       280    8    0    1
 -2        64       221       222      1459      1463      1461
 -1       281    8    0    1
 -2        66        65       223      1186      1464      1465
 -1       282    8    0    1
 -2        65       222       223      1462      1466      1464
 -1       283    8    0    1
 -2        67        66       224      1187      1467      1468
 -1       284    8    0    1
 -2        66       223       224      1465      1469      1467
 -1       285    8    0    1
 -2        68        67       225      1188      1470      1471
 -1       286    8    0    1
 -2        67       224       225      1468      1472      1470
 -1       287    8    0    1
 -2        69        68       226      1189      1473      1474
 -1       288    8    0    1
 -2        68       225       226      1471      1475      1473
 -1       289    8    0    1
 -2        70        69       227      1190      1476      1477
 -1       290    8    0    1
 -2        69       226       227      1474      1478      1476
 -1       291    8    0    1
 -2        71        70       228      1191      1479      1480
 -1       292    8    0    1
 -2        70       227       228      1477      1481      1479
 -1       293    8    0    1
 -2         4        71       229      1192      1482      1483
 -1       294    8    0    1
 -2       136         4       229      1259      1483      1484
 -1       295    8    0    1
 -2        71       228       229      1480      1485      1482
 -1       296    8    0    1
 -2        72        73       230      1194      1486      1487
 -1       297    8    0    1
 -2        72       230       180      1487      1488      1338
 -1       298    8    0    1
 -2        73        74       231      1195      1489      1490
 -1       299    8    0    1
 -2        73       231       230      1490      1491      1486
 -1       300    8    0    1
 -2        74        75       232      1196      1492      1493
 -1       301    8    0    1
 -2        74       232       231      1493      1494      1489
 -1       302    8    0    1
 -2        75        76       233      1197      1495      1496
 -1       303    8    0    1
 -2        75       233       232      1496      1497      1492
 -1       304    8    0    1
 -2        76        77       234      1198      1498      1499
 -1       305    8    0    1
 -2        76       234       233      1499      1500      1495
 -1       306    8    0    1
 -2        77        78       235      1199      1501      1502
 -1       307    8    0    1
 -2        77       235       234      1502      1503      1498
 -1       308    8    0    1
 -2        78        79       236      1200      1504      1505
 -1       309    8    0    1
 -2        78       236       235      1505      1506      1501
 -1       310    8    0    1
 -2        79        80       237      1201      1507      1508
 -1       311    8    0    1
 -2        79       237       236      1508      1509      1504
 -1       312    8    0    1
 -2        80        81       238      1202      1510      1511
 -1       313    8    0    1
 -2        80       238       237      1511      1512      1507
 -1       314    8    0    1
 -2        81        82       239      1203      1513      1514
 -1       315    8    0    1
 -2        81       239       238      1514      1515      1510
 -1       316    8    0    1
 -2        82        83       240      1204      1516      1517
 -1       317    8    0    1
 -2        82       240       239      1517      1518      1513
 -1       318    8    0    1
 -2        83        84       241      1205      1519      1520
 -1       319    8    0    1
 -2        83       241       240      1520      1521      1516
 -1       320    8    0    1
 -2        84        85       242      1206      1522      1523
 -1       321    8    0    1
 -2        84       242       241      1523      1524      1519
 -1       322    8    0    1
 -2        85        86       243      1207      1525      1526
 -1       323    8    0    1
 -2        85       243       242      1526      1527      1522
 -1       324    8    0    1
 -2        86        87       244      1208      1528      1529
 -1       325    8    0    1
 -2        86       244       243      1529      1530      1525
 -1       326    8    0    1
 -2        87        88       245      1209      1531      1532
 -1       327    8    0    1
 -2        87       245       244      1532      1533      1528
 -1       328    8    0    1
 -2        88        89       246      1210      1534      1535
 -1       329    8    0    1
 -2        88       246       245      1535      1536      1531
 -1       330    8    0    1
 -2        89        90       247      1211      1537      1538
 -1       331    8    0    1
 -2        89       247       246      1538      1539      1534
 -1       332    8    0    1
 -2        90        91       248      1212      1540      1541
 -1       333    8    0    1
 -2        90       248       247      1541      1542      1537
 -1       334    8    0    1
 -2        91        92       249      1213      1543      1544
 -1       335    8    0    1
 -2        91       249       248      1544      1545      1540
 -1       336    8    0    1
 -2        92        93       250      1214      1546      1547
 -1       337    8    0    1
 -2        92       250       249      1547      1548      1543
 -1       338    8    0    1
 -2        93        94       251      1215      1549      1550
 -1       339    8    0    1
 -2        93       251       250      1550      1551      1546
 -1       340    8    0    1
 -2        94        95       252      1216      1552      1553
 -1       341    8    0    1
 -2        94       252       251      1553      1554      1549
 -1       342    8    0    1
 -2        95        96       253      1217      1555      1556
 -1       343    8    0    1
 -2        95       253       252      1556      1557      1552
 -1       344    8    0    1
 -2        96        97       254      1218      1558      1559
 -1       345    8    0    1
 -2        96       254       253      1559      1560      1555
 -1       346    8    0    1
 -2        97        98       255      1219      1561      1562
 -1       347    8    0    1
 -2        97       255       254      1562      1563      1558
 -1       348    8    0    1
 -2        98        99       256      1220      1564      1565
 -1       349    8    0    1
 -2        98       256       255      1565      1566      1561
 -1       350    8    0    1
 -2        99       100       257      1221      1567      1568
 -1       351    8    0    1
 -2        99       257       256      1568      1569      1564
 -1       352    8    0    1
 -2       100       101       258      1222      1570      1571
 -1       353    8    0    1
 -2       100       258       257      1571      1572      1567
 -1       354    8    0    1
 -2       101       102       259      1223      1573      1574
 -1       355    8    0    1
 -2       101       259       258      1574      1575      1570
 -1       356    8    0    1
 -2       102       103       260      1224      1576      1577
 -1       357    8    0    1
 -2       102       260       259      1577      1578      1573
 -1       358    8    0    1
 -2       103       104       261      1225      1579      1580
 -1       359    8    0    1
 -2       103       261       260      1580      1581      1576
 -1       360    8    0    1
 -2       104       105       262      1226      1582      1583
 -1       361    8    0    1
 -2       104       262       261      1583      1584      1579
 -1       362    8    0    1
 -2       105       106       263      1227      1585      1586
 -1       363    8    0    1
 -2       105       263       262      1586      1587      1582
 -1       364    8    0    1
 -2       106       107       264      1228      1588      1589
 -1       365    8    0    1
 -2       106       264       263      1589      1590      1585
 -1       366    8    0    1
 -2       107       108       265      1229      1591      1592
 -1       367    8    0    1
 -2       107       265       264      1592      1593      1588
 -1       368    8    0    1
 -2       108       109       266      1230      1594      1595
 -1       369    8    0    1
 -2       108       266       265      1595      1596      1591
 -1       370    8    0    1
 -2       109       110       267      1231      1597      1598
 -1       371    8    0    1
 -2       109       267       266      1598      1599      1594
 -1       372    8    0    1
 -2       110       111       268      1232      1600      1601
 -1       373    8    0    1
 -2       110       268       267      1601      1602      1597
 -1       374    8    0    1
 -2       111       112       269      1233      1603      1604
 -1       375    8    0    1
 -2       111       269       268      1604      1605      1600
 -1       376    8    0    1
 -2       112       113       270      1234      1606      1607
 -1       377    8    0    1
 -2       112       270       269      1607      1608      1603
 -1       378    8    0    1
 -2       113       114       271      1235      1609      1610
 -1       379    8    0    1
 -2       113       271       270      1610      1611      1606
 -1       380    8    0    1
 -2       114       115       272      1236      1612      1613
 -1       381    8    0    1
 -2       114       272       271      1613      1614      1609
 -1       382    8    0    1
 -2       115       116       273      1237      1615      1616
 -1       383    8    0    1
 -2       115       273       272      1616      1617      1612
 -1       384    8    0    1
 -2       116       117       274      1238      1618      1619
 -1       385    8    0    1
 -2       116       274       273      1619      1620      1615
 -1       386    8    0    1
 -2       117       118       275      1239      1621      1622
 -1       387    8    0    1
 -2       117       275       274      1622      1623      1618
 -1       388    8    0    1
 -2       118       119       276      1240      1624      1625
 -1       389    8    0    1
 -2       118       276       275      1625      1626      1621
 -1       390    8    0    1
 -2       119       120       277      1241      1627      1628
 -1       391    8    0    1
 -2       119       277       276      1628      1629      1624
 -1       392    8    0    1
 -2       120         3       121      1242      1243      1630
 -1       393    8    0    1
 -2       121       122       278      1244      1631      1632
 -1       394    8    0    1
 -2       122       123       279      1245      1633      1634
 -1       395    8    0    1
 -2       122       279       278      1634      1635      1631
 -1       396    8    0    1
 -2       123       124       280      1246      1636      1637
 -1       397    8    0    1
 -2       123       280       279      1637      1638      1633
 -1       398    8    0    1
 -2       124       125       281      1247      1639      1640
 -1       399    8    0    1
 -2       124       281       280      1640      1641      1636
 -1       400    8    0    1
 -2       125       126       282      1248      1642      1643
 -1       401    8    0    1
 -2       125       282       281      1643      1644      1639
 -1       402    8    0    1
 -2       126       127       283      1249      1645      1646
 -1       403    8    0    1
 -2       126       283       282      1646      1647      1642
 -1       404    8    0    1
 -2       127       128       284      1250      1648      1649
 -1       405    8    0    1
 -2       127       284       283      1649      1650      1645
 -1       406    8    0    1
 -2       128       129       285      1251      1651      1652
 -1       407    8    0    1
 -2       128       285       284      1652      1653      1648
 -1       408    8    0    1
 -2       129       130       286      1252      1654      1655
 -1       409    8    0    1
 -2       129       286       285      1655      1656      1651
 -1       410    8    0    1
 -2       130       131       287      1253      1657      1658
 -1       411    8    0    1
 -2       130       287       286      1658      1659      1654
 -1       412    8    0    1
 -2       131       132       288      1254      1660      1661
 -1       413    8    0    1
 -2       131       288       287      1661      1662      1657
 -1       414    8    0    1
 -2       132       133       289      1255      1663      1664
 -1       415    8    0    1
 -2       132       289       288      1664      1665      1660
 -1       416    8    0    1
 -2       133       134       290      1256      1666      1667
 -1       417    8    0    1
 -2       133       290       289      1667      1668      1663
 -1       418    8    0    1
 -2       134       135       291      1257      1669      1670
 -1       419    8    0    1
 -2       134       291       290      1670      1671      1666
 -1       420    8    0    1
 -2       135       136       292      1258      1672      1673
 -1       421    8    0    1
 -2       291       135       292      1669      1673      1674
 -1       422    8    0    1
 -2       136       229       292      1484      1675      1672
 -1       423    8    0    1
 -2         2       137       293      1260      1676      1677
 -1       424    8    0    1
 -2       137       138       294      1261      1678      1679
 -1       425    8    0    1
 -2       138       139       295      1262      1680      1681
 -1       426    8    0    1
 -2       139       140       296      1263      1682      1683
 -1       427    8    0    1
 -2       140       141       297      1264      1684      1685
 -1       428    8    0    1
 -2       141       142       298      1265      1686      1687
 -1       429    8    0    1
 -2       142       143       299      1266      1688      1689
 -1       430    8    0    1
 -2       143       144       300      1267      1690      1691
 -1       431    8    0    1
 -2       144       145       301      1268      1692      1693
 -1       432    8    0    1
 -2       145       146       302      1269      1694      1695
 -1       433    8    0    1
 -2       146       147       303      1270      1696      1697
 -1       434    8    0    1
 -2       147       148       304      1271      1698      1699
 -1       435    8    0    1
 -2       148       149       305      1272      1700      1701
 -1       436    8    0    1
 -2       149       150       306      1273      1702      1703
 -1       437    8    0    1
 -2       150       151       307      1274      1704      1705
 -1       438    8    0    1
 -2       151       152       308      1275      1706      1707
 -1       439    8    0    1
 -2       152       153       309      1276      1708      1709
 -1       440    8    0    1
 -2       153       154       310      1277      1710      1711
 -1       441    8    0    1
 -2       154       155       311      1278      1712      1713
 -1       442    8    0    1
 -2       155       156       312      1279      1714      1715
 -1       443    8    0    1
 -2       156       157       313      1280      1716      1717
 -1       444    8    0    1
 -2       157         1       314      1281      1718      1719
 -1       445    8    0    1
 -2         1       158       315      1282      1720      1721
 -1       446    8    0    1
 -2       158       159       316      1283      1722      1723
 -1       447    8    0    1
 -2       159       160       317      1284      1724      1725
 -1       448    8    0    1
 -2       160       161       318      1285      1726      1727
 -1       449    8    0    1
 -2       161       162       319      1286      1728      1729
 -1       450    8    0    1
 -2       162       163       320      1287      1730      1731
 -1       451    8    0    1
 -2       163       164       321      1288      1732      1733
 -1       452    8    0    1
 -2       164         2       322      1289      1734      1735
 -1       453    8    0    1
 -2       295       139       296      1680      1683      1736
 -1       454    8    0    1
 -2         2       293       322      1677      1737      1734
 -1       455    8    0    1
 -2       120       121       277      1630      1738      1627
 -1       456    8    0    1
 -2       121       278       277      1632      1739      1738
 -1       457    8    0    1
 -2       293       137       294      1676      1679      1740
 -1       458    8    0    1
 -2       294       138       295      1678      1681      1741
 -1       459    8    0    1
 -2       140       297       296      1685      1742      1682
 -1       460    8    0    1
 -2       141       298       297      1687      1743      1684
 -1       461    8    0    1
 -2       142       299       298      1689      1744      1686
 -1       462    8    0    1
 -2       143       300       299      1691      1745      1688
 -1       463    8    0    1
 -2       144       301       300      1693      1746      1690
 -1       464    8    0    1
 -2       145       302       301      1695      1747      1692
 -1       465    8    0    1
 -2       146       303       302      1697      1748      1694
 -1       466    8    0    1
 -2       147       304       303      1699      1749      1696
 -1       467    8    0    1
 -2       148       305       304      1701      1750      1698
 -1       468    8    0    1
 -2       149       306       305      1703      1751      1700
 -1       469    8    0    1
 -2       150       307       306      1705      1752      1702
 -1       470    8    0    1
 -2       151       308       307      1707      1753      1704
 -1       471    8    0    1
 -2       152       309       308      1709      1754      1706
 -1       472    8    0    1
 -2       153       310       309      1711      1755      1708
 -1       473    8    0    1
 -2       154       311       310      1713      1756      1710
 -1       474    8    0    1
 -2       155       312       311      1715      1757      1712
 -1       475    8    0    1
 -2       156       313       312      1717      1758      1714
 -1       476    8    0    1
 -2       157       314       313      1719      1759      1716
 -1       477    8    0    1
 -2         1       315       314      1721      1760      1718
 -1       478    8    0    1
 -2       158       316       315      1723      1761      1720
 -1       479    8    0    1
 -2       159       317       316      1725      1762      1722
 -1       480    8    0    1
 -2       160       318       317      1727      1763      1724
 -1       481    8    0    1
 -2       161       319       318      1729      1764      1726
 -1       482    8    0    1
 -2       162       320       319      1731      1765      1728
 -1       483    8    0    1
 -2       163       321       320      1733      1766      1730
 -1       484    8    0    1
 -2       164       322       321      1735      1767      1732
 -1       485    8    0    1
 -2        23         7       165      1290      1292      1768
 -1       486    8    0    1
 -2       166       167       323      1298      1769      1770
 -1       487    8    0    1
 -2       165       166       324      1295      1771      1772
 -1       488    8    0    1
 -2       166       323       324      1770      1773      1771
 -1       489    8    0    1
 -2       168       169       325      1304      1774      1775
 -1       490    8    0    1
 -2       169       170       326      1307      1776      1777
 -1       491    8    0    1
 -2       169       326       325      1777      1778      1774
 -1       492    8    0    1
 -2       170       171       327      1310      1779      1780
 -1       493    8    0    1
 -2       170       327       326      1780      1781      1776
 -1       494    8    0    1
 -2       171       172       328      1313      1782      1783
 -1       495    8    0    1
 -2       171       328       327      1783      1784      1779
 -1       496    8    0    1
 -2       172       173       329      1316      1785      1786
 -1       497    8    0    1
 -2       172       329       328      1786      1787      1782
 -1       498    8    0    1
 -2       173       174       330      1319      1788      1789
 -1       499    8    0    1
 -2       173       330       329      1789      1790      1785
 -1       500    8    0    1
 -2       174       175       331      1322      1791      1792
 -1       501    8    0    1
 -2       174       331       330      1792      1793      1788
 -1       502    8    0    1
 -2       175       176       332      1325      1794      1795
 -1       503    8    0    1
 -2       175       332       331      1795      1796      1791
 -1       504    8    0    1
 -2       176       177       333      1328      1797      1798
 -1       505    8    0    1
 -2       176       333       332      1798      1799      1794
 -1       506    8    0    1
 -2       177       178       334      1331      1800      1801
 -1       507    8    0    1
 -2       177       334       333      1801      1802      1797
 -1       508    8    0    1
 -2       178       179       335      1334      1803      1804
 -1       509    8    0    1
 -2       178       335       334      1804      1805      1800
 -1       510    8    0    1
 -2       179       180       336      1337      1806      1807
 -1       511    8    0    1
 -2       335       179       336      1803      1807      1808
 -1       512    8    0    1
 -2       180       230       336      1488      1809      1806
 -1       513    8    0    1
 -2       181        23       165      1339      1768      1810
 -1       514    8    0    1
 -2       230       231       337      1491      1811      1812
 -1       515    8    0    1
 -2       230       337       336      1812      1813      1809
 -1       516    8    0    1
 -2       181       165       324      1810      1772      1814
 -1       517    8    0    1
 -2       183       182       338      1346      1815      1816
 -1       518    8    0    1
 -2       184       183       339      1349      1817      1818
 -1       519    8    0    1
 -2       183       338       339      1816      1819      1817
 -1       520    8    0    1
 -2       185       184       340      1352      1820      1821
 -1       521    8    0    1
 -2       184       339       340      1818      1822      1820
 -1       522    8    0    1
 -2       186       185       341      1355      1823      1824
 -1       523    8    0    1
 -2       185       340       341      1821      1825      1823
 -1       524    8    0    1
 -2       187       186       342      1358      1826      1827
 -1       525    8    0    1
 -2       186       341       342      1824      1828      1826
 -1       526    8    0    1
 -2       188       187       343      1361      1829      1830
 -1       527    8    0    1
 -2       187       342       343      1827      1831      1829
 -1       528    8    0    1
 -2       189       188       344      1364      1832      1833
 -1       529    8    0    1
 -2       188       343       344      1830      1834      1832
 -1       530    8    0    1
 -2       190       189       345      1367      1835      1836
 -1       531    8    0    1
 -2       189       344       345      1833      1837      1835
 -1       532    8    0    1
 -2       192       191       346      1373      1838      1839
 -1       533    8    0    1
 -2       193       192       347      1376      1840      1841
 -1       534    8    0    1
 -2       192       346       347      1839      1842      1840
 -1       535    8    0    1
 -2       194       193       348      1379      1843      1844
 -1       536    8    0    1
 -2       195       194       349      1382      1845      1846
 -1       537    8    0    1
 -2       194       348       349      1844      1847      1845
 -1       538    8    0    1
 -2       196       195       350      1385      1848      1849
 -1       539    8    0    1
 -2       195       349       350      1846      1850      1848
 -1       540    8    0    1
 -2       197       196       351      1388      1851      1852
 -1       541    8    0    1
 -2       196       350       351      1849      1853      1851
 -1       542    8    0    1
 -2       198       197       352      1391      1854      1855
 -1       543    8    0    1
 -2       197       351       352      1852      1856      1854
 -1       544    8    0    1
 -2       199       198       353      1394      1857      1858
 -1       545    8    0    1
 -2       198       352       353      1855      1859      1857
 -1       546    8    0    1
 -2       200       199       354      1397      1860      1861
 -1       547    8    0    1
 -2       199       353       354      1858      1862      1860
 -1       548    8    0    1
 -2       201       200       355      1400      1863      1864
 -1       549    8    0    1
 -2       200       354       355      1861      1865      1863
 -1       550    8    0    1
 -2       202       201       356      1403      1866      1867
 -1       551    8    0    1
 -2       201       355       356      1864      1868      1866
 -1       552    8    0    1
 -2       203       202       357      1406      1869      1870
 -1       553    8    0    1
 -2       202       356       357      1867      1871      1869
 -1       554    8    0    1
 -2       204       203       358      1409      1872      1873
 -1       555    8    0    1
 -2       203       357       358      1870      1874      1872
 -1       556    8    0    1
 -2       205       204       359      1412      1875      1876
 -1       557    8    0    1
 -2       204       358       359      1873      1877      1875
 -1       558    8    0    1
 -2       206       205       360      1415      1878      1879
 -1       559    8    0    1
 -2       205       359       360      1876      1880      1878
 -1       560    8    0    1
 -2       207       206       361      1418      1881      1882
 -1       561    8    0    1
 -2       206       360       361      1879      1883      1881
 -1       562    8    0    1
 -2       208       207       362      1421      1884      1885
 -1       563    8    0    1
 -2       207       361       362      1882      1886      1884
 -1       564    8    0    1
 -2       209       208       363      1424      1887      1888
 -1       565    8    0    1
 -2       208       362       363      1885      1889      1887
 -1       566    8    0    1
 -2       210       209       364      1427      1890      1891
 -1       567    8    0    1
 -2       209       363       364      1888      1892      1890
 -1       568    8    0    1
 -2       211       210       365      1430      1893      1894
 -1       569    8    0    1
 -2       210       364       365      1891      1895      1893
 -1       570    8    0    1
 -2       212       211       366      1433      1896      1897
 -1       571    8    0    1
 -2       211       365       366      1894      1898      1896
 -1       572    8    0    1
 -2       213       212       367      1436      1899      1900
 -1       573    8    0    1
 -2       212       366       367      1897      1901      1899
 -1       574    8    0    1
 -2       214       213       368      1439      1902      1903
 -1       575    8    0    1
 -2       213       367       368      1900      1904      1902
 -1       576    8    0    1
 -2       215       214       369      1442      1905      1906
 -1       577    8    0    1
 -2       214       368       369      1903      1907      1905
 -1       578    8    0    1
 -2       216       215       370      1445      1908      1909
 -1       579    8    0    1
 -2       215       369       370      1906      1910      1908
 -1       580    8    0    1
 -2       217       216       371      1448      1911      1912
 -1       581    8    0    1
 -2       216       370       371      1909      1913      1911
 -1       582    8    0    1
 -2       218       217       372      1451      1914      1915
 -1       583    8    0    1
 -2       217       371       372      1912      1916      1914
 -1       584    8    0    1
 -2       219       218       373      1454      1917      1918
 -1       585    8    0    1
 -2       218       372       373      1915      1919      1917
 -1       586    8    0    1
 -2       220       219       374      1457      1920      1921
 -1       587    8    0    1
 -2       219       373       374      1918      1922      1920
 -1       588    8    0    1
 -2       221       220       375      1460      1923      1924
 -1       589    8    0    1
 -2       220       374       375      1921      1925      1923
 -1       590    8    0    1
 -2       222       221       376      1463      1926      1927
 -1       591    8    0    1
 -2       221       375       376      1924      1928      1926
 -1       592    8    0    1
 -2       223       222       377      1466      1929      1930
 -1       593    8    0    1
 -2       222       376       377      1927      1931      1929
 -1       594    8    0    1
 -2       224       223       378      1469      1932      1933
 -1       595    8    0    1
 -2       223       377       378      1930      1934      1932
 -1       596    8    0    1
 -2       225       224       379      1472      1935      1936
 -1       597    8    0    1
 -2       224       378       379      1933      1937      1935
 -1       598    8    0    1
 -2       226       225       380      1475      1938      1939
 -1       599    8    0    1
 -2       225       379       380      1936      1940      1938
 -1       600    8    0    1
 -2       227       226       381      1478      1941      1942
 -1       601    8    0    1
 -2       226       380       381      1939      1943      1941
 -1       602    8    0    1
 -2       228       227       382      1481      1944      1945
 -1       603    8    0    1
 -2       227       381       382      1942      1946      1944
 -1       604    8    0    1
 -2       229       228       292      1485      1947      1675
 -1       605    8    0    1
 -2       232       233       383      1497      1948      1949
 -1       606    8    0    1
 -2       233       234       384      1500      1950      1951
 -1       607    8    0    1
 -2       233       384       383      1951      1952      1948
 -1       608    8    0    1
 -2       234       235       385      1503      1953      1954
 -1       609    8    0    1
 -2       234       385       384      1954      1955      1950
 -1       610    8    0    1
 -2       235       236       386      1506      1956      1957
 -1       611    8    0    1
 -2       235       386       385      1957      1958      1953
 -1       612    8    0    1
 -2       236       237       387      1509      1959      1960
 -1       613    8    0    1
 -2       236       387       386      1960      1961      1956
 -1       614    8    0    1
 -2       237       238       388      1512      1962      1963
 -1       615    8    0    1
 -2       237       388       387      1963      1964      1959
 -1       616    8    0    1
 -2       238       239       389      1515      1965      1966
 -1       617    8    0    1
 -2       238       389       388      1966      1967      1962
 -1       618    8    0    1
 -2       239       240       390      1518      1968      1969
 -1       619    8    0    1
 -2       239       390       389      1969      1970      1965
 -1       620    8    0    1
 -2       240       241       391      1521      1971      1972
 -1       621    8    0    1
 -2       240       391       390      1972      1973      1968
 -1       622    8    0    1
 -2       241       242       392      1524      1974      1975
 -1       623    8    0    1
 -2       241       392       391      1975      1976      1971
 -1       624    8    0    1
 -2       242       243       393      1527      1977      1978
 -1       625    8    0    1
 -2       242       393       392      1978      1979      1974
 -1       626    8    0    1
 -2       243       244       394      1530      1980      1981
 -1       627    8    0    1
 -2       243       394       393      1981      1982      1977
 -1       628    8    0    1
 -2       244       245       395      1533      1983      1984
 -1       629    8    0    1
 -2       244       395       394      1984      1985      1980
 -1       630    8    0    1
 -2       245       246       396      1536      1986      1987
 -1       631    8    0    1
 -2       245       396       395      1987      1988      1983
 -1       632    8    0    1
 -2       246       247       397      1539      1989      1990
 -1       633    8    0    1
 -2       246       397       396      1990      1991      1986
 -1       634    8    0    1
 -2       247       248       398      1542      1992      1993
 -1       635    8    0    1
 -2       247       398       397      1993      1994      1989
 -1       636    8    0    1
 -2       248       249       399      1545      1995      1996
 -1       637    8    0    1
 -2       248       399       398      1996      1997      1992
 -1       638    8    0    1
 -2       249       250       400      1548      1998      1999
 -1       639    8    0    1
 -2       249       400       399      1999      2000      1995
 -1       640    8    0    1
 -2       250       251       401      1551      2001      2002
 -1       641    8    0    1
 -2       250       401       400      2002      2003      1998
 -1       642    8    0    1
 -2       251       252       402      1554      2004      2005
 -1       643    8    0    1
 -2       251       402       401      2005      2006      2001
 -1       644    8    0    1
 -2       252       253       403      1557      2007      2008
 -1       645    8    0    1
 -2       252       403       402      2008      2009      2004
 -1       646    8    0    1
 -2       253       254       404      1560      2010      2011
 -1       647    8    0    1
 -2       253       404       403      2011      2012      2007
 -1       648    8    0    1
 -2       254       255       405      1563      2013      2014
 -1       649    8    0    1
 -2       254       405       404      2014      2015      2010
 -1       650    8    0    1
 -2       255       256       406      1566      2016      2017
 -1       651    8    0    1
 -2       255       406       405      2017      2018      2013
 -1       652    8    0    1
 -2       256       257       407      1569      2019      2020
 -1       653    8    0    1
 -2       256       407       406      2020      2021      2016
 -1       654    8    0    1
 -2       257       258       408      1572      2022      2023
 -1       655    8    0    1
 -2       257       408       407      2023      2024      2019
 -1       656    8    0    1
 -2       258       259       409      1575      2025      2026
 -1       657    8    0    1
 -2       258       409       408      2026      2027      2022
 -1       658    8    0    1
 -2       259       260       410      1578      2028      2029
 -1       659    8    0    1
 -2       259       410       409      2029      2030      2025
 -1       660    8    0    1
 -2       260       261       411      1581      2031      2032
 -1       661    8    0    1
 -2       260       411       410      2032      2033      2028
 -1       662    8    0    1
 -2       261       262       412      1584      2034      2035
 -1       663    8    0    1
 -2       261       412       411      2035      2036      2031
 -1       664    8    0    1
 -2       262       263       413      1587      2037      2038
 -1       665    8    0    1
 -2       262       413       412      2038      2039      2034
 -1       666    8    0    1
 -2       263       264       414      1590      2040      2041
 -1       667    8    0    1
 -2       263       414       413      2041      2042      2037
 -1       668    8    0    1
 -2       264       265       415      1593      2043      2044
 -1       669    8    0    1
 -2       264       415       414      2044      2045      2040
 -1       670    8    0    1
 -2       265       266       416      1596      2046      2047
 -1       671    8    0    1
 -2       265       416       415      2047      2048      2043
 -1       672    8    0    1
 -2       266       267       417      1599      2049      2050
 -1       673    8    0    1
 -2       266       417       416      2050      2051      2046
 -1       674    8    0    1
 -2       267       268       418      1602      2052      2053
 -1       675    8    0    1
 -2       267       418       417      2053      2054      2049
 -1       676    8    0    1
 -2       268       269       419      1605      2055      2056
 -1       677    8    0    1
 -2       268       419       418      2056      2057      2052
 -1       678    8    0    1
 -2       269       270       420      1608      2058      2059
 -1       679    8    0    1
 -2       269       420       419      2059      2060      2055
 -1       680    8    0    1
 -2       270       271       421      1611      2061      2062
 -1       681    8    0    1
 -2       270       421       420      2062      2063      2058
 -1       682    8    0    1
 -2       271       272       422      1614      2064      2065
 -1       683    8    0    1
 -2       271       422       421      2065      2066      2061
 -1       684    8    0    1
 -2       272       273       423      1617      2067      2068
 -1       685    8    0    1
 -2       272       423       422      2068      2069      2064
 -1       686    8    0    1
 -2       273       274       424      1620      2070      2071
 -1       687    8    0    1
 -2       273       424       423      2071      2072      2067
 -1       688    8    0    1
 -2       274       275       425      1623      2073      2074
 -1       689    8    0    1
 -2       274       425       424      2074      2075      2070
 -1       690    8    0    1
 -2       275       276       426      1626      2076      2077
 -1       691    8    0    1
 -2       275       426       425      2077      2078      2073
 -1       692    8    0    1
 -2       276       277       427      1629      2079      2080
 -1       693    8    0    1
 -2       426       276       427      2076      2080      2081
 -1       694    8    0    1
 -2       277       278       427      1739      2082      2079
 -1       695    8    0    1
 -2       280       281       428      1641      2083      2084
 -1       696    8    0    1
 -2       279       280       429      1638      2085      2086
 -1       697    8    0    1
 -2       280       428       429      2084      2087      2085
 -1       698    8    0    1
 -2       278       279       427      1635      2088      2082
 -1       699    8    0    1
 -2       281       282       430      1644      2089      2090
 -1       700    8    0    1
 -2       281       430       428      2090      2091      2083
 -1       701    8    0    1
 -2       282       283       431      1647      2092      2093
 -1       702    8    0    1
 -2       282       431       430      2093      2094      2089
 -1       703    8    0    1
 -2       283       284       432      1650      2095      2096
 -1       704    8    0    1
 -2       283       432       431      2096      2097      2092
 -1       705    8    0    1
 -2       284       285       433      1653      2098      2099
 -1       706    8    0    1
 -2       284       433       432      2099      2100      2095
 -1       707    8    0    1
 -2       285       286       434      1656      2101      2102
 -1       708    8    0    1
 -2       285       434       433      2102      2103      2098
 -1       709    8    0    1
 -2       286       287       435      1659      2104      2105
 -1       710    8    0    1
 -2       286       435       434      2105      2106      2101
 -1       711    8    0    1
 -2       287       288       436      1662      2107      2108
 -1       712    8    0    1
 -2       287       436       435      2108      2109      2104
 -1       713    8    0    1
 -2       288       289       437      1665      2110      2111
 -1       714    8    0    1
 -2       288       437       436      2111      2112      2107
 -1       715    8    0    1
 -2       289       290       438      1668      2113      2114
 -1       716    8    0    1
 -2       289       438       437      2114      2115      2110
 -1       717    8    0    1
 -2       290       291       439      1671      2116      2117
 -1       718    8    0    1
 -2       290       439       438      2117      2118      2113
 -1       719    8    0    1
 -2       231       232       440      1494      2119      2120
 -1       720    8    0    1
 -2       337       231       440      1811      2120      2121
 -1       721    8    0    1
 -2       232       383       440      1949      2122      2119
 -1       722    8    0    1
 -2       294       295       441      1741      2123      2124
 -1       723    8    0    1
 -2       296       297       442      1742      2125      2126
 -1       724    8    0    1
 -2       322       293       443      1737      2127      2128
 -1       725    8    0    1
 -2       295       296       444      1736      2129      2130
 -1       726    8    0    1
 -2       296       442       444      2126      2131      2129
 -1       727    8    0    1
 -2       167       168       445      1301      2132      2133
 -1       728    8    0    1
 -2       323       167       445      1769      2133      2134
 -1       729    8    0    1
 -2       168       325       445      1775      2135      2132
 -1       730    8    0    1
 -2       297       298       446      1743      2136      2137
 -1       731    8    0    1
 -2       298       299       447      1744      2138      2139
 -1       732    8    0    1
 -2       298       447       446      2139      2140      2136
 -1       733    8    0    1
 -2       299       300       448      1745      2141      2142
 -1       734    8    0    1
 -2       300       301       449      1746      2143      2144
 -1       735    8    0    1
 -2       301       302       450      1747      2145      2146
 -1       736    8    0    1
 -2       302       303       451      1748      2147      2148
 -1       737    8    0    1
 -2       302       451       450      2148      2149      2145
 -1       738    8    0    1
 -2       303       304       452      1749      2150      2151
 -1       739    8    0    1
 -2       304       305       453      1750      2152      2153
 -1       740    8    0    1
 -2       305       306       454      1751      2154      2155
 -1       741    8    0    1
 -2       306       307       455      1752      2156      2157
 -1       742    8    0    1
 -2       307       308       456      1753      2158      2159
 -1       743    8    0    1
 -2       308       309       457      1754      2160      2161
 -1       744    8    0    1
 -2       309       310       458      1755      2162      2163
 -1       745    8    0    1
 -2       310       311       459      1756      2164      2165
 -1       746    8    0    1
 -2       311       312       460      1757      2166      2167
 -1       747    8    0    1
 -2       312       313       461      1758      2168      2169
 -1       748    8    0    1
 -2       313       314       462      1759      2170      2171
 -1       749    8    0    1
 -2       314       315       463      1760      2172      2173
 -1       750    8    0    1
 -2       315       316       464      1761      2174      2175
 -1       751    8    0    1
 -2       316       317       465      1762      2176      2177
 -1       752    8    0    1
 -2       317       318       466      1763      2178      2179
 -1       753    8    0    1
 -2       318       319       467      1764      2180      2181
 -1       754    8    0    1
 -2       319       320       468      1765      2182      2183
 -1       755    8    0    1
 -2       320       321       469      1766      2184      2185
 -1       756    8    0    1
 -2       320       469       468      2185      2186      2182
 -1       757    8    0    1
 -2       321       322       470      1767      2187      2188
 -1       758    8    0    1
 -2       293       294       471      1740      2189      2190
 -1       759    8    0    1
 -2       293       471       443      2190      2191      2127
 -1       760    8    0    1
 -2       228       382       292      1945      2192      1947
 -1       761    8    0    1
 -2       181       324       182      1814      2193      1343
 -1       762    8    0    1
 -2       441       295       444      2123      2130      2194
 -1       763    8    0    1
 -2       297       446       472      2137      2195      2196
 -1       764    8    0    1
 -2       297       472       442      2196      2197      2125
 -1       765    8    0    1
 -2       338       182       324      1815      2193      2198
 -1       766    8    0    1
 -2       346       191       473      1838      2199      2200
 -1       767    8    0    1
 -2       191       190       473      1370      2201      2199
 -1       768    8    0    1
 -2       193       347       348      1841      2202      1843
 -1       769    8    0    1
 -2       427       279       429      2088      2086      2203
 -1       770    8    0    1
 -2       291       292       474      1674      2204      2205
 -1       771    8    0    1
 -2       439       291       474      2116      2205      2206
 -1       772    8    0    1
 -2       292       382       474      2192      2207      2204
 -1       773    8    0    1
 -2       294       441       471      2124      2208      2189
 -1       774    8    0    1
 -2       322       443       470      2128      2209      2187
 -1       775    8    0    1
 -2       469       321       470      2184      2188      2210
 -1       776    8    0    1
 -2       467       319       468      2180      2183      2211
 -1       777    8    0    1
 -2       466       318       467      2178      2181      2212
 -1       778    8    0    1
 -2       465       317       466      2176      2179      2213
 -1       779    8    0    1
 -2       464       316       465      2174      2177      2214
 -1       780    8    0    1
 -2       463       315       464      2172      2175      2215
 -1       781    8    0    1
 -2       462       314       463      2170      2173      2216
 -1       782    8    0    1
 -2       461       313       462      2168      2171      2217
 -1       783    8    0    1
 -2       460       312       461      2166      2169      2218
 -1       784    8    0    1
 -2       459       311       460      2164      2167      2219
 -1       785    8    0    1
 -2       458       310       459      2162      2165      2220
 -1       786    8    0    1
 -2       457       309       458      2160      2163      2221
 -1       787    8    0    1
 -2       456       308       475      2158      2222      2223
 -1       788    8    0    1
 -2       308       457       475      2161      2224      2222
 -1       789    8    0    1
 -2       455       307       456      2156      2159      2225
 -1       790    8    0    1
 -2       454       306       455      2154      2157      2226
 -1       791    8    0    1
 -2       453       305       454      2152      2155      2227
 -1       792    8    0    1
 -2       451       303       476      2147      2228      2229
 -1       793    8    0    1
 -2       303       452       476      2151      2230      2228
 -1       794    8    0    1
 -2       449       301       450      2143      2146      2231
 -1       795    8    0    1
 -2       299       448       447      2142      2232      2138
 -1       796    8    0    1
 -2       448       300       449      2141      2144      2233
 -1       797    8    0    1
 -2       452       304       453      2150      2153      2234
 -1       798    8    0    1
 -2       473       190       345      2201      1836      2235
 -1       799    8    0    1
 -2       326       327       477      1781      2236      2237
 -1       800    8    0    1
 -2       325       326       478      1778      2238      2239
 -1       801    8    0    1
 -2       326       477       478      2237      2240      2238
 -1       802    8    0    1
 -2       328       329       479      1787      2241      2242
 -1       803    8    0    1
 -2       329       330       480      1790      2243      2244
 -1       804    8    0    1
 -2       329       480       479      2244      2245      2241
 -1       805    8    0    1
 -2       330       331       481      1793      2246      2247
 -1       806    8    0    1
 -2       330       481       480      2247      2248      2243
 -1       807    8    0    1
 -2       331       332       482      1796      2249      2250
 -1       808    8    0    1
 -2       331       482       481      2250      2251      2246
 -1       809    8    0    1
 -2       332       333       483      1799      2252      2253
 -1       810    8    0    1
 -2       332       483       482      2253      2254      2249
 -1       811    8    0    1
 -2       333       334       484      1802      2255      2256
 -1       812    8    0    1
 -2       333       484       483      2256      2257      2252
 -1       813    8    0    1
 -2       334       335       485      1805      2258      2259
 -1       814    8    0    1
 -2       334       485       484      2259      2260      2255
 -1       815    8    0    1
 -2       335       336       486      1808      2261      2262
 -1       816    8    0    1
 -2       485       335       486      2258      2262      2263
 -1       817    8    0    1
 -2       336       337       486      1813      2264      2261
 -1       818    8    0    1
 -2       349       348       487      1847      2265      2266
 -1       819    8    0    1
 -2       339       338       488      1819      2267      2268
 -1       820    8    0    1
 -2       441       444       489      2194      2269      2270
 -1       821    8    0    1
 -2       340       339       490      1822      2271      2272
 -1       822    8    0    1
 -2       339       488       490      2268      2273      2271
 -1       823    8    0    1
 -2       341       340       491      1825      2274      2275
 -1       824    8    0    1
 -2       340       490       491      2272      2276      2274
 -1       825    8    0    1
 -2       342       341       492      1828      2277      2278
 -1       826    8    0    1
 -2       341       491       492      2275      2279      2277
 -1       827    8    0    1
 -2       343       342       493      1831      2280      2281
 -1       828    8    0    1
 -2       342       492       493      2278      2282      2280
 -1       829    8    0    1
 -2       344       343       494      1834      2283      2284
 -1       830    8    0    1
 -2       343       493       494      2281      2285      2283
 -1       831    8    0    1
 -2       345       344       495      1837      2286      2287
 -1       832    8    0    1
 -2       427       429       426      2203      2288      2081
 -1       833    8    0    1
 -2       346       473       462      2200      2289      2290
 -1       834    8    0    1
 -2       350       349       496      1850      2291      2292
 -1       835    8    0    1
 -2       351       350       497      1853      2293      2294
 -1       836    8    0    1
 -2       350       496       497      2292      2295      2293
 -1       837    8    0    1
 -2       352       351       498      1856      2296      2297
 -1       838    8    0    1
 -2       351       497       498      2294      2298      2296
 -1       839    8    0    1
 -2       353       352       499      1859      2299      2300
 -1       840    8    0    1
 -2       352       498       499      2297      2301      2299
 -1       841    8    0    1
 -2       354       353       500      1862      2302      2303
 -1       842    8    0    1
 -2       353       499       500      2300      2304      2302
 -1       843    8    0    1
 -2       355       354       501      1865      2305      2306
 -1       844    8    0    1
 -2       354       500       501      2303      2307      2305
 -1       845    8    0    1
 -2       356       355       502      1868      2308      2309
 -1       846    8    0    1
 -2       355       501       502      2306      2310      2308
 -1       847    8    0    1
 -2       357       356       503      1871      2311      2312
 -1       848    8    0    1
 -2       356       502       503      2309      2313      2311
 -1       849    8    0    1
 -2       358       357       504      1874      2314      2315
 -1       850    8    0    1
 -2       357       503       504      2312      2316      2314
 -1       851    8    0    1
 -2       359       358       505      1877      2317      2318
 -1       852    8    0    1
 -2       358       504       505      2315      2319      2317
 -1       853    8    0    1
 -2       360       359       506      1880      2320      2321
 -1       854    8    0    1
 -2       359       505       506      2318      2322      2320
 -1       855    8    0    1
 -2       361       360       507      1883      2323      2324
 -1       856    8    0    1
 -2       360       506       507      2321      2325      2323
 -1       857    8    0    1
 -2       362       361       508      1886      2326      2327
 -1       858    8    0    1
 -2       361       507       508      2324      2328      2326
 -1       859    8    0    1
 -2       363       362       509      1889      2329      2330
 -1       860    8    0    1
 -2       362       508       509      2327      2331      2329
 -1       861    8    0    1
 -2       364       363       510      1892      2332      2333
 -1       862    8    0    1
 -2       363       509       510      2330      2334      2332
 -1       863    8    0    1
 -2       365       364       511      1895      2335      2336
 -1       864    8    0    1
 -2       364       510       511      2333      2337      2335
 -1       865    8    0    1
 -2       366       365       512      1898      2338      2339
 -1       866    8    0    1
 -2       365       511       512      2336      2340      2338
 -1       867    8    0    1
 -2       367       366       513      1901      2341      2342
 -1       868    8    0    1
 -2       366       512       513      2339      2343      2341
 -1       869    8    0    1
 -2       368       367       514      1904      2344      2345
 -1       870    8    0    1
 -2       367       513       514      2342      2346      2344
 -1       871    8    0    1
 -2       369       368       515      1907      2347      2348
 -1       872    8    0    1
 -2       368       514       515      2345      2349      2347
 -1       873    8    0    1
 -2       370       369       516      1910      2350      2351
 -1       874    8    0    1
 -2       369       515       516      2348      2352      2350
 -1       875    8    0    1
 -2       371       370       517      1913      2353      2354
 -1       876    8    0    1
 -2       370       516       517      2351      2355      2353
 -1       877    8    0    1
 -2       372       371       518      1916      2356      2357
 -1       878    8    0    1
 -2       371       517       518      2354      2358      2356
 -1       879    8    0    1
 -2       373       372       519      1919      2359      2360
 -1       880    8    0    1
 -2       372       518       519      2357      2361      2359
 -1       881    8    0    1
 -2       374       373       520      1922      2362      2363
 -1       882    8    0    1
 -2       373       519       520      2360      2364      2362
 -1       883    8    0    1
 -2       375       374       521      1925      2365      2366
 -1       884    8    0    1
 -2       374       520       521      2363      2367      2365
 -1       885    8    0    1
 -2       376       375       522      1928      2368      2369
 -1       886    8    0    1
 -2       375       521       522      2366      2370      2368
 -1       887    8    0    1
 -2       377       376       523      1931      2371      2372
 -1       888    8    0    1
 -2       376       522       523      2369      2373      2371
 -1       889    8    0    1
 -2       378       377       524      1934      2374      2375
 -1       890    8    0    1
 -2       377       523       524      2372      2376      2374
 -1       891    8    0    1
 -2       379       378       525      1937      2377      2378
 -1       892    8    0    1
 -2       378       524       525      2375      2379      2377
 -1       893    8    0    1
 -2       380       379       526      1940      2380      2381
 -1       894    8    0    1
 -2       379       525       526      2378      2382      2380
 -1       895    8    0    1
 -2       381       380       527      1943      2383      2384
 -1       896    8    0    1
 -2       380       526       527      2381      2385      2383
 -1       897    8    0    1
 -2       382       381       528      1946      2386      2387
 -1       898    8    0    1
 -2       474       382       528      2207      2387      2388
 -1       899    8    0    1
 -2       381       527       528      2384      2389      2386
 -1       900    8    0    1
 -2       385       386       529      1958      2390      2391
 -1       901    8    0    1
 -2       384       385       530      1955      2392      2393
 -1       902    8    0    1
 -2       385       529       530      2391      2394      2392
 -1       903    8    0    1
 -2       383       384       531      1952      2395      2396
 -1       904    8    0    1
 -2       384       530       531      2393      2397      2395
 -1       905    8    0    1
 -2       386       387       532      1961      2398      2399
 -1       906    8    0    1
 -2       386       532       529      2399      2400      2390
 -1       907    8    0    1
 -2       387       388       533      1964      2401      2402
 -1       908    8    0    1
 -2       387       533       532      2402      2403      2398
 -1       909    8    0    1
 -2       388       389       534      1967      2404      2405
 -1       910    8    0    1
 -2       388       534       533      2405      2406      2401
 -1       911    8    0    1
 -2       389       390       535      1970      2407      2408
 -1       912    8    0    1
 -2       389       535       534      2408      2409      2404
 -1       913    8    0    1
 -2       390       391       536      1973      2410      2411
 -1       914    8    0    1
 -2       390       536       535      2411      2412      2407
 -1       915    8    0    1
 -2       391       392       537      1976      2413      2414
 -1       916    8    0    1
 -2       391       537       536      2414      2415      2410
 -1       917    8    0    1
 -2       392       393       538      1979      2416      2417
 -1       918    8    0    1
 -2       392       538       537      2417      2418      2413
 -1       919    8    0    1
 -2       393       394       539      1982      2419      2420
 -1       920    8    0    1
 -2       393       539       538      2420      2421      2416
 -1       921    8    0    1
 -2       394       395       540      1985      2422      2423
 -1       922    8    0    1
 -2       394       540       539      2423      2424      2419
 -1       923    8    0    1
 -2       395       396       541      1988      2425      2426
 -1       924    8    0    1
 -2       395       541       540      2426      2427      2422
 -1       925    8    0    1
 -2       396       397       542      1991      2428      2429
 -1       926    8    0    1
 -2       396       542       541      2429      2430      2425
 -1       927    8    0    1
 -2       397       398       543      1994      2431      2432
 -1       928    8    0    1
 -2       397       543       542      2432      2433      2428
 -1       929    8    0    1
 -2       398       399       544      1997      2434      2435
 -1       930    8    0    1
 -2       398       544       543      2435      2436      2431
 -1       931    8    0    1
 -2       399       400       545      2000      2437      2438
 -1       932    8    0    1
 -2       399       545       544      2438      2439      2434
 -1       933    8    0    1
 -2       400       401       546      2003      2440      2441
 -1       934    8    0    1
 -2       400       546       545      2441      2442      2437
 -1       935    8    0    1
 -2       401       402       547      2006      2443      2444
 -1       936    8    0    1
 -2       401       547       546      2444      2445      2440
 -1       937    8    0    1
 -2       402       403       548      2009      2446      2447
 -1       938    8    0    1
 -2       402       548       547      2447      2448      2443
 -1       939    8    0    1
 -2       403       404       549      2012      2449      2450
 -1       940    8    0    1
 -2       403       549       548      2450      2451      2446
 -1       941    8    0    1
 -2       404       405       550      2015      2452      2453
 -1       942    8    0    1
 -2       404       550       549      2453      2454      2449
 -1       943    8    0    1
 -2       405       406       551      2018      2455      2456
 -1       944    8    0    1
 -2       405       551       550      2456      2457      2452
 -1       945    8    0    1
 -2       406       407       552      2021      2458      2459
 -1       946    8    0    1
 -2       406       552       551      2459      2460      2455
 -1       947    8    0    1
 -2       407       408       553      2024      2461      2462
 -1       948    8    0    1
 -2       407       553       552      2462      2463      2458
 -1       949    8    0    1
 -2       408       409       554      2027      2464      2465
 -1       950    8    0    1
 -2       408       554       553      2465      2466      2461
 -1       951    8    0    1
 -2       409       410       555      2030      2467      2468
 -1       952    8    0    1
 -2       409       555       554      2468      2469      2464
 -1       953    8    0    1
 -2       410       411       556      2033      2470      2471
 -1       954    8    0    1
 -2       410       556       555      2471      2472      2467
 -1       955    8    0    1
 -2       411       412       557      2036      2473      2474
 -1       956    8    0    1
 -2       411       557       556      2474      2475      2470
 -1       957    8    0    1
 -2       412       413       558      2039      2476      2477
 -1       958    8    0    1
 -2       412       558       557      2477      2478      2473
 -1       959    8    0    1
 -2       413       414       559      2042      2479      2480
 -1       960    8    0    1
 -2       413       559       558      2480      2481      2476
 -1       961    8    0    1
 -2       414       415       560      2045      2482      2483
 -1       962    8    0    1
 -2       414       560       559      2483      2484      2479
 -1       963    8    0    1
 -2       415       416       561      2048      2485      2486
 -1       964    8    0    1
 -2       415       561       560      2486      2487      2482
 -1       965    8    0    1
 -2       416       417       562      2051      2488      2489
 -1       966    8    0    1
 -2       416       562       561      2489      2490      2485
 -1       967    8    0    1
 -2       417       418       563      2054      2491      2492
 -1       968    8    0    1
 -2       417       563       562      2492      2493      2488
 -1       969    8    0    1
 -2       418       419       564      2057      2494      2495
 -1       970    8    0    1
 -2       418       564       563      2495      2496      2491
 -1       971    8    0    1
 -2       419       420       565      2060      2497      2498
 -1       972    8    0    1
 -2       419       565       564      2498      2499      2494
 -1       973    8    0    1
 -2       420       421       566      2063      2500      2501
 -1       974    8    0    1
 -2       420       566       565      2501      2502      2497
 -1       975    8    0    1
 -2       421       422       567      2066      2503      2504
 -1       976    8    0    1
 -2       421       567       566      2504      2505      2500
 -1       977    8    0    1
 -2       422       423       568      2069      2506      2507
 -1       978    8    0    1
 -2       422       568       567      2507      2508      2503
 -1       979    8    0    1
 -2       423       424       569      2072      2509      2510
 -1       980    8    0    1
 -2       423       569       568      2510      2511      2506
 -1       981    8    0    1
 -2       424       425       570      2075      2512      2513
 -1       982    8    0    1
 -2       424       570       569      2513      2514      2509
 -1       983    8    0    1
 -2       425       426       571      2078      2515      2516
 -1       984    8    0    1
 -2       425       571       570      2516      2517      2512
 -1       985    8    0    1
 -2       346       462       463      2290      2216      2518
 -1       986    8    0    1
 -2       430       431       572      2094      2519      2520
 -1       987    8    0    1
 -2       428       430       573      2091      2521      2522
 -1       988    8    0    1
 -2       430       572       573      2520      2523      2521
 -1       989    8    0    1
 -2       429       428       574      2087      2524      2525
 -1       990    8    0    1
 -2       428       573       574      2522      2526      2524
 -1       991    8    0    1
 -2       471       441       575      2208      2527      2528
 -1       992    8    0    1
 -2       431       432       576      2097      2529      2530
 -1       993    8    0    1
 -2       431       576       572      2530      2531      2519
 -1       994    8    0    1
 -2       432       433       577      2100      2532      2533
 -1       995    8    0    1
 -2       432       577       576      2533      2534      2529
 -1       996    8    0    1
 -2       433       434       578      2103      2535      2536
 -1       997    8    0    1
 -2       433       578       577      2536      2537      2532
 -1       998    8    0    1
 -2       434       435       579      2106      2538      2539
 -1       999    8    0    1
 -2       434       579       578      2539      2540      2535
 -1      1000    8    0    1
 -2       435       436       580      2109      2541      2542
 -1      1001    8    0    1
 -2       435       580       579      2542      2543      2538
 -1      1002    8    0    1
 -2       436       437       581      2112      2544      2545
 -1      1003    8    0    1
 -2       436       581       580      2545      2546      2541
 -1      1004    8    0    1
 -2       437       438       582      2115      2547      2548
 -1      1005    8    0    1
 -2       437       582       581      2548      2549      2544
 -1      1006    8    0    1
 -2       438       439       583      2118      2550      2551
 -1      1007    8    0    1
 -2       438       583       582      2551      2552      2547
 -1      1008    8    0    1
 -2       338       324       584      2198      2553      2554
 -1      1009    8    0    1
 -2       488       338       584      2267      2554      2555
 -1      1010    8    0    1
 -2       324       323       584      1773      2556      2553
 -1      1011    8    0    1
 -2       470       443       585      2209      2557      2558
 -1      1012    8    0    1
 -2       467       468       586      2211      2559      2560
 -1      1013    8    0    1
 -2       449       450       587      2231      2561      2562
 -1      1014    8    0    1
 -2       444       442       588      2131      2563      2564
 -1      1015    8    0    1
 -2       444       588       489      2564      2565      2269
 -1      1016    8    0    1
 -2       327       328       589      1784      2566      2567
 -1      1017    8    0    1
 -2       477       327       589      2236      2567      2568
 -1      1018    8    0    1
 -2       328       479       589      2242      2569      2566
 -1      1019    8    0    1
 -2       448       449       590      2233      2570      2571
 -1      1020    8    0    1
 -2       446       447       591      2140      2572      2573
 -1      1021    8    0    1
 -2       452       453       592      2234      2574      2575
 -1      1022    8    0    1
 -2       447       448       593      2232      2576      2577
 -1      1023    8    0    1
 -2       450       451       594      2149      2578      2579
 -1      1024    8    0    1
 -2       453       454       595      2227      2580      2581
 -1      1025    8    0    1
 -2       453       595       592      2581      2582      2574
 -1      1026    8    0    1
 -2       454       455       596      2226      2583      2584
 -1      1027    8    0    1
 -2       455       456       597      2225      2585      2586
 -1      1028    8    0    1
 -2       455       597       596      2586      2587      2583
 -1      1029    8    0    1
 -2       457       458       598      2221      2588      2589
 -1      1030    8    0    1
 -2       458       459       599      2220      2590      2591
 -1      1031    8    0    1
 -2       458       599       598      2591      2592      2588
 -1      1032    8    0    1
 -2       459       460       495      2219      2593      2594
 -1      1033    8    0    1
 -2       465       466       487      2213      2595      2596
 -1      1034    8    0    1
 -2       466       467       600      2212      2597      2598
 -1      1035    8    0    1
 -2       487       466       600      2595      2598      2599
 -1      1036    8    0    1
 -2       467       586       600      2560      2600      2597
 -1      1037    8    0    1
 -2       468       469       601      2186      2601      2602
 -1      1038    8    0    1
 -2       469       470       602      2210      2603      2604
 -1      1039    8    0    1
 -2       470       585       602      2558      2605      2603
 -1      1040    8    0    1
 -2       443       471       603      2191      2606      2607
 -1      1041    8    0    1
 -2       426       429       571      2288      2608      2515
 -1      1042    8    0    1
 -2       325       478       604      2239      2609      2610
 -1      1043    8    0    1
 -2       325       604       445      2610      2611      2135
 -1      1044    8    0    1
 -2       486       337       605      2264      2612      2613
 -1      1045    8    0    1
 -2       337       440       605      2121      2614      2612
 -1      1046    8    0    1
 -2       585       443       603      2557      2607      2615
 -1      1047    8    0    1
 -2       347       346       463      1842      2518      2616
 -1      1048    8    0    1
 -2       472       446       606      2195      2617      2618
 -1      1049    8    0    1
 -2       446       591       606      2573      2619      2617
 -1      1050    8    0    1
 -2       441       489       575      2270      2620      2527
 -1      1051    8    0    1
 -2       344       494       495      2284      2621      2286
 -1      1052    8    0    1
 -2       348       347       607      2202      2622      2623
 -1      1053    8    0    1
 -2       448       590       593      2571      2624      2576
 -1      1054    8    0    1
 -2       590       449       587      2570      2562      2625
 -1      1055    8    0    1
 -2       462       473       608      2289      2626      2627
 -1      1056    8    0    1
 -2       471       575       603      2528      2628      2606
 -1      1057    8    0    1
 -2       439       474       528      2206      2388      2629
 -1      1058    8    0    1
 -2       583       439       528      2550      2629      2630
 -1      1059    8    0    1
 -2       584       323       445      2556      2134      2631
 -1      1060    8    0    1
 -2       440       383       609      2122      2632      2633
 -1      1061    8    0    1
 -2       605       440       609      2614      2633      2634
 -1      1062    8    0    1
 -2       383       531       609      2396      2635      2632
 -1      1063    8    0    1
 -2       586       468       601      2559      2602      2636
 -1      1064    8    0    1
 -2       442       472       610      2197      2637      2638
 -1      1065    8    0    1
 -2       442       610       588      2638      2639      2563
 -1      1066    8    0    1
 -2       462       608       461      2627      2640      2217
 -1      1067    8    0    1
 -2       601       469       602      2601      2604      2641
 -1      1068    8    0    1
 -2       599       459       495      2590      2594      2642
 -1      1069    8    0    1
 -2       597       456       611      2585      2643      2644
 -1      1070    8    0    1
 -2       456       475       611      2223      2645      2643
 -1      1071    8    0    1
 -2       595       454       596      2580      2584      2646
 -1      1072    8    0    1
 -2       594       451       612      2578      2647      2648
 -1      1073    8    0    1
 -2       451       476       612      2229      2649      2647
 -1      1074    8    0    1
 -2       475       457       598      2224      2589      2650
 -1      1075    8    0    1
 -2       587       450       594      2561      2579      2651
 -1      1076    8    0    1
 -2       476       452       613      2230      2652      2653
 -1      1077    8    0    1
 -2       452       592       613      2575      2654      2652
 -1      1078    8    0    1
 -2       496       349       487      2291      2266      2655
 -1      1079    8    0    1
 -2       591       447       593      2572      2577      2656
 -1      1080    8    0    1
 -2       608       473       345      2626      2235      2657
 -1      1081    8    0    1
 -2       347       463       464      2616      2215      2658
 -1      1082    8    0    1
 -2       608       345       495      2657      2287      2659
 -1      1083    8    0    1
 -2       460       461       608      2218      2640      2660
 -1      1084    8    0    1
 -2       429       574       571      2525      2661      2608
 -1      1085    8    0    1
 -2       464       465       607      2214      2662      2663
 -1      1086    8    0    1
 -2       464       607       347      2663      2622      2658
 -1      1087    8    0    1
 -2       460       608       495      2660      2659      2593
 -1      1088    8    0    1
 -2       480       481       614      2248      2664      2665
 -1      1089    8    0    1
 -2       479       480       615      2245      2666      2667
 -1      1090    8    0    1
 -2       480       614       615      2665      2668      2666
 -1      1091    8    0    1
 -2       482       483       616      2254      2669      2670
 -1      1092    8    0    1
 -2       483       484       617      2257      2671      2672
 -1      1093    8    0    1
 -2       483       617       616      2672      2673      2669
 -1      1094    8    0    1
 -2       485       486       618      2263      2674      2675
 -1      1095    8    0    1
 -2       486       605       618      2613      2676      2674
 -1      1096    8    0    1
 -2       487       348       607      2265      2623      2677
 -1      1097    8    0    1
 -2       593       590       619      2624      2678      2679
 -1      1098    8    0    1
 -2       491       490       620      2276      2680      2681
 -1      1099    8    0    1
 -2       492       491       621      2279      2682      2683
 -1      1100    8    0    1
 -2       491       620       621      2681      2684      2682
 -1      1101    8    0    1
 -2       493       492       622      2282      2685      2686
 -1      1102    8    0    1
 -2       492       621       622      2683      2687      2685
 -1      1103    8    0    1
 -2       603       575       623      2628      2688      2689
 -1      1104    8    0    1
 -2       583       528       527      2630      2389      2690
 -1      1105    8    0    1
 -2       586       601       624      2636      2691      2692
 -1      1106    8    0    1
 -2       498       497       625      2298      2693      2694
 -1      1107    8    0    1
 -2       499       498       626      2301      2695      2696
 -1      1108    8    0    1
 -2       498       625       626      2694      2697      2695
 -1      1109    8    0    1
 -2       500       499       627      2304      2698      2699
 -1      1110    8    0    1
 -2       499       626       627      2696      2700      2698
 -1      1111    8    0    1
 -2       501       500       628      2307      2701      2702
 -1      1112    8    0    1
 -2       500       627       628      2699      2703      2701
 -1      1113    8    0    1
 -2       502       501       629      2310      2704      2705
 -1      1114    8    0    1
 -2       501       628       629      2702      2706      2704
 -1      1115    8    0    1
 -2       503       502       630      2313      2707      2708
 -1      1116    8    0    1
 -2       502       629       630      2705      2709      2707
 -1      1117    8    0    1
 -2       504       503       631      2316      2710      2711
 -1      1118    8    0    1
 -2       503       630       631      2708      2712      2710
 -1      1119    8    0    1
 -2       505       504       632      2319      2713      2714
 -1      1120    8    0    1
 -2       504       631       632      2711      2715      2713
 -1      1121    8    0    1
 -2       506       505       633      2322      2716      2717
 -1      1122    8    0    1
 -2       505       632       633      2714      2718      2716
 -1      1123    8    0    1
 -2       507       506       634      2325      2719      2720
 -1      1124    8    0    1
 -2       506       633       634      2717      2721      2719
 -1      1125    8    0    1
 -2       508       507       635      2328      2722      2723
 -1      1126    8    0    1
 -2       507       634       635      2720      2724      2722
 -1      1127    8    0    1
 -2       509       508       636      2331      2725      2726
 -1      1128    8    0    1
 -2       508       635       636      2723      2727      2725
 -1      1129    8    0    1
 -2       510       509       637      2334      2728      2729
 -1      1130    8    0    1
 -2       509       636       637      2726      2730      2728
 -1      1131    8    0    1
 -2       511       510       638      2337      2731      2732
 -1      1132    8    0    1
 -2       510       637       638      2729      2733      2731
 -1      1133    8    0    1
 -2       512       511       639      2340      2734      2735
 -1      1134    8    0    1
 -2       511       638       639      2732      2736      2734
 -1      1135    8    0    1
 -2       513       512       640      2343      2737      2738
 -1      1136    8    0    1
 -2       512       639       640      2735      2739      2737
 -1      1137    8    0    1
 -2       514       513       641      2346      2740      2741
 -1      1138    8    0    1
 -2       513       640       641      2738      2742      2740
 -1      1139    8    0    1
 -2       515       514       642      2349      2743      2744
 -1      1140    8    0    1
 -2       514       641       642      2741      2745      2743
 -1      1141    8    0    1
 -2       516       515       643      2352      2746      2747
 -1      1142    8    0    1
 -2       515       642       643      2744      2748      2746
 -1      1143    8    0    1
 -2       517       516       644      2355      2749      2750
 -1      1144    8    0    1
 -2       516       643       644      2747      2751      2749
 -1      1145    8    0    1
 -2       518       517       645      2358      2752      2753
 -1      1146    8    0    1
 -2       517       644       645      2750      2754      2752
 -1      1147    8    0    1
 -2       519       518       646      2361      2755      2756
 -1      1148    8    0    1
 -2       518       645       646      2753      2757      2755
 -1      1149    8    0    1
 -2       520       519       647      2364      2758      2759
 -1      1150    8    0    1
 -2       519       646       647      2756      2760      2758
 -1      1151    8    0    1
 -2       521       520       648      2367      2761      2762
 -1      1152    8    0    1
 -2       520       647       648      2759      2763      2761
 -1      1153    8    0    1
 -2       522       521       649      2370      2764      2765
 -1      1154    8    0    1
 -2       521       648       649      2762      2766      2764
 -1      1155    8    0    1
 -2       523       522       650      2373      2767      2768
 -1      1156    8    0    1
 -2       522       649       650      2765      2769      2767
 -1      1157    8    0    1
 -2       524       523       651      2376      2770      2771
 -1      1158    8    0    1
 -2       523       650       651      2768      2772      2770
 -1      1159    8    0    1
 -2       525       524       652      2379      2773      2774
 -1      1160    8    0    1
 -2       524       651       652      2771      2775      2773
 -1      1161    8    0    1
 -2       526       525       653      2382      2776      2777
 -1      1162    8    0    1
 -2       525       652       653      2774      2778      2776
 -1      1163    8    0    1
 -2       527       526       654      2385      2779      2780
 -1      1164    8    0    1
 -2       526       653       654      2777      2781      2779
 -1      1165    8    0    1
 -2       530       529       655      2394      2782      2783
 -1      1166    8    0    1
 -2       529       532       656      2400      2784      2785
 -1      1167    8    0    1
 -2       529       656       655      2785      2786      2782
 -1      1168    8    0    1
 -2       531       530       657      2397      2787      2788
 -1      1169    8    0    1
 -2       530       655       657      2783      2789      2787
 -1      1170    8    0    1
 -2       533       534       658      2406      2790      2791
 -1      1171    8    0    1
 -2       534       535       659      2409      2792      2793
 -1      1172    8    0    1
 -2       534       659       658      2793      2794      2790
 -1      1173    8    0    1
 -2       535       536       660      2412      2795      2796
 -1      1174    8    0    1
 -2       535       660       659      2796      2797      2792
 -1      1175    8    0    1
 -2       536       537       661      2415      2798      2799
 -1      1176    8    0    1
 -2       536       661       660      2799      2800      2795
 -1      1177    8    0    1
 -2       537       538       662      2418      2801      2802
 -1      1178    8    0    1
 -2       537       662       661      2802      2803      2798
 -1      1179    8    0    1
 -2       538       539       663      2421      2804      2805
 -1      1180    8    0    1
 -2       538       663       662      2805      2806      2801
 -1      1181    8    0    1
 -2       539       540       664      2424      2807      2808
 -1      1182    8    0    1
 -2       539       664       663      2808      2809      2804
 -1      1183    8    0    1
 -2       540       541       665      2427      2810      2811
 -1      1184    8    0    1
 -2       540       665       664      2811      2812      2807
 -1      1185    8    0    1
 -2       541       542       666      2430      2813      2814
 -1      1186    8    0    1
 -2       541       666       665      2814      2815      2810
 -1      1187    8    0    1
 -2       542       543       667      2433      2816      2817
 -1      1188    8    0    1
 -2       542       667       666      2817      2818      2813
 -1      1189    8    0    1
 -2       543       544       668      2436      2819      2820
 -1      1190    8    0    1
 -2       543       668       667      2820      2821      2816
 -1      1191    8    0    1
 -2       544       545       669      2439      2822      2823
 -1      1192    8    0    1
 -2       544       669       668      2823      2824      2819
 -1      1193    8    0    1
 -2       545       546       670      2442      2825      2826
 -1      1194    8    0    1
 -2       545       670       669      2826      2827      2822
 -1      1195    8    0    1
 -2       546       547       671      2445      2828      2829
 -1      1196    8    0    1
 -2       546       671       670      2829      2830      2825
 -1      1197    8    0    1
 -2       547       548       672      2448      2831      2832
 -1      1198    8    0    1
 -2       547       672       671      2832      2833      2828
 -1      1199    8    0    1
 -2       548       549       673      2451      2834      2835
 -1      1200    8    0    1
 -2       548       673       672      2835      2836      2831
 -1      1201    8    0    1
 -2       549       550       674      2454      2837      2838
 -1      1202    8    0    1
 -2       549       674       673      2838      2839      2834
 -1      1203    8    0    1
 -2       550       551       675      2457      2840      2841
 -1      1204    8    0    1
 -2       550       675       674      2841      2842      2837
 -1      1205    8    0    1
 -2       551       552       676      2460      2843      2844
 -1      1206    8    0    1
 -2       551       676       675      2844      2845      2840
 -1      1207    8    0    1
 -2       552       553       677      2463      2846      2847
 -1      1208    8    0    1
 -2       552       677       676      2847      2848      2843
 -1      1209    8    0    1
 -2       553       554       678      2466      2849      2850
 -1      1210    8    0    1
 -2       553       678       677      2850      2851      2846
 -1      1211    8    0    1
 -2       554       555       679      2469      2852      2853
 -1      1212    8    0    1
 -2       554       679       678      2853      2854      2849
 -1      1213    8    0    1
 -2       555       556       680      2472      2855      2856
 -1      1214    8    0    1
 -2       555       680       679      2856      2857      2852
 -1      1215    8    0    1
 -2       556       557       681      2475      2858      2859
 -1      1216    8    0    1
 -2       556       681       680      2859      2860      2855
 -1      1217    8    0    1
 -2       557       558       682      2478      2861      2862
 -1      1218    8    0    1
 -2       557       682       681      2862      2863      2858
 -1      1219    8    0    1
 -2       558       559       683      2481      2864      2865
 -1      1220    8    0    1
 -2       558       683       682      2865      2866      2861
 -1      1221    8    0    1
 -2       559       560       684      2484      2867      2868
 -1      1222    8    0    1
 -2       559       684       683      2868      2869      2864
 -1      1223    8    0    1
 -2       560       561       685      2487      2870      2871
 -1      1224    8    0    1
 -2       560       685       684      2871      2872      2867
 -1      1225    8    0    1
 -2       561       562       686      2490      2873      2874
 -1      1226    8    0    1
 -2       561       686       685      2874      2875      2870
 -1      1227    8    0    1
 -2       562       563       687      2493      2876      2877
 -1      1228    8    0    1
 -2       562       687       686      2877      2878      2873
 -1      1229    8    0    1
 -2       563       564       688      2496      2879      2880
 -1      1230    8    0    1
 -2       563       688       687      2880      2881      2876
 -1      1231    8    0    1
 -2       564       565       689      2499      2882      2883
 -1      1232    8    0    1
 -2       564       689       688      2883      2884      2879
 -1      1233    8    0    1
 -2       565       566       690      2502      2885      2886
 -1      1234    8    0    1
 -2       565       690       689      2886      2887      2882
 -1      1235    8    0    1
 -2       566       567       691      2505      2888      2889
 -1      1236    8    0    1
 -2       566       691       690      2889      2890      2885
 -1      1237    8    0    1
 -2       567       568       692      2508      2891      2892
 -1      1238    8    0    1
 -2       567       692       691      2892      2893      2888
 -1      1239    8    0    1
 -2       568       569       693      2511      2894      2895
 -1      1240    8    0    1
 -2       568       693       692      2895      2896      2891
 -1      1241    8    0    1
 -2       569       570       694      2514      2897      2898
 -1      1242    8    0    1
 -2       569       694       693      2898      2899      2894
 -1      1243    8    0    1
 -2       570       571       695      2517      2900      2901
 -1      1244    8    0    1
 -2       694       570       695      2897      2901      2902
 -1      1245    8    0    1
 -2       571       574       695      2661      2903      2900
 -1      1246    8    0    1
 -2       573       572       696      2523      2904      2905
 -1      1247    8    0    1
 -2       576       577       697      2534      2906      2907
 -1      1248    8    0    1
 -2       574       573       698      2526      2908      2909
 -1      1249    8    0    1
 -2       695       574       698      2903      2909      2910
 -1      1250    8    0    1
 -2       573       696       698      2905      2911      2908
 -1      1251    8    0    1
 -2       495       494       599      2621      2912      2642
 -1      1252    8    0    1
 -2       532       533       699      2403      2913      2914
 -1      1253    8    0    1
 -2       656       532       699      2784      2914      2915
 -1      1254    8    0    1
 -2       533       658       699      2791      2916      2913
 -1      1255    8    0    1
 -2       572       576       700      2531      2917      2918
 -1      1256    8    0    1
 -2       696       572       700      2904      2918      2919
 -1      1257    8    0    1
 -2       576       697       700      2907      2920      2917
 -1      1258    8    0    1
 -2       578       579       701      2540      2921      2922
 -1      1259    8    0    1
 -2       579       580       702      2543      2923      2924
 -1      1260    8    0    1
 -2       579       702       701      2924      2925      2921
 -1      1261    8    0    1
 -2       580       581       703      2546      2926      2927
 -1      1262    8    0    1
 -2       580       703       702      2927      2928      2923
 -1      1263    8    0    1
 -2       581       582       704      2549      2929      2930
 -1      1264    8    0    1
 -2       581       704       703      2930      2931      2926
 -1      1265    8    0    1
 -2       582       583       705      2552      2932      2933
 -1      1266    8    0    1
 -2       582       705       704      2933      2934      2929
 -1      1267    8    0    1
 -2       488       584       706      2555      2935      2936
 -1      1268    8    0    1
 -2       585       603       707      2615      2937      2938
 -1      1269    8    0    1
 -2       603       623       707      2689      2939      2937
 -1      1270    8    0    1
 -2       590       587       708      2625      2940      2941
 -1      1271    8    0    1
 -2       590       708       619      2941      2942      2678
 -1      1272    8    0    1
 -2       599       494       709      2912      2943      2944
 -1      1273    8    0    1
 -2       598       599       709      2592      2944      2945
 -1      1274    8    0    1
 -2       494       493       709      2285      2946      2943
 -1      1275    8    0    1
 -2       577       578       710      2537      2947      2948
 -1      1276    8    0    1
 -2       578       701       710      2922      2949      2947
 -1      1277    8    0    1
 -2       497       496       624      2295      2950      2951
 -1      1278    8    0    1
 -2       489       588       711      2565      2952      2953
 -1      1279    8    0    1
 -2       490       488       712      2273      2954      2955
 -1      1280    8    0    1
 -2       620       490       712      2680      2955      2956
 -1      1281    8    0    1
 -2       488       706       712      2936      2957      2954
 -1      1282    8    0    1
 -2       575       489       713      2620      2958      2959
 -1      1283    8    0    1
 -2       489       711       713      2953      2960      2958
 -1      1284    8    0    1
 -2       481       482       714      2251      2961      2962
 -1      1285    8    0    1
 -2       614       481       714      2664      2962      2963
 -1      1286    8    0    1
 -2       482       616       714      2670      2964      2961
 -1      1287    8    0    1
 -2       592       595       715      2582      2965      2966
 -1      1288    8    0    1
 -2       478       477       716      2240      2967      2968
 -1      1289    8    0    1
 -2       475       598       717      2650      2969      2970
 -1      1290    8    0    1
 -2       598       709       717      2945      2971      2969
 -1      1291    8    0    1
 -2       587       594       718      2651      2972      2973
 -1      1292    8    0    1
 -2       596       597       719      2587      2974      2975
 -1      1293    8    0    1
 -2       595       596       720      2646      2976      2977
 -1      1294    8    0    1
 -2       596       719       720      2975      2978      2976
 -1      1295    8    0    1
 -2       601       602       721      2641      2979      2980
 -1      1296    8    0    1
 -2       602       585       722      2605      2981      2982
 -1      1297    8    0    1
 -2       602       722       721      2982      2983      2979
 -1      1298    8    0    1
 -2       584       445       706      2631      2984      2935
 -1      1299    8    0    1
 -2       591       593       723      2656      2985      2986
 -1      1300    8    0    1
 -2       583       527       654      2690      2780      2987
 -1      1301    8    0    1
 -2       479       615       724      2667      2988      2989
 -1      1302    8    0    1
 -2       479       724       589      2989      2990      2569
 -1      1303    8    0    1
 -2       485       618       484      2675      2991      2260
 -1      1304    8    0    1
 -2       587       718       708      2973      2992      2940
 -1      1305    8    0    1
 -2       606       591       725      2619      2993      2994
 -1      1306    8    0    1
 -2       591       723       725      2986      2995      2993
 -1      1307    8    0    1
 -2       493       622       709      2686      2996      2946
 -1      1308    8    0    1
 -2       577       710       697      2948      2997      2906
 -1      1309    8    0    1
 -2       593       619       723      2679      2998      2985
 -1      1310    8    0    1
 -2       604       478       726      2609      2999      3000
 -1      1311    8    0    1
 -2       478       716       726      2968      3001      2999
 -1      1312    8    0    1
 -2       531       657       727      2788      3002      3003
 -1      1313    8    0    1
 -2       586       624       496      2692      2950      3004
 -1      1314    8    0    1
 -2       472       606       610      2618      3005      2637
 -1      1315    8    0    1
 -2       445       604       706      2611      3006      2984
 -1      1316    8    0    1
 -2       497       624       625      2951      3007      2693
 -1      1317    8    0    1
 -2       719       597       728      2974      3008      3009
 -1      1318    8    0    1
 -2       597       611       728      2644      3010      3008
 -1      1319    8    0    1
 -2       705       583       654      2932      2987      3011
 -1      1320    8    0    1
 -2       585       707       722      2938      3012      2981
 -1      1321    8    0    1
 -2       609       531       727      2635      3003      3013
 -1      1322    8    0    1
 -2       588       610       711      2639      3014      2952
 -1      1323    8    0    1
 -2       612       476       729      2649      3015      3016
 -1      1324    8    0    1
 -2       476       613       729      2653      3017      3015
 -1      1325    8    0    1
 -2       594       612       730      2648      3018      3019
 -1      1326    8    0    1
 -2       594       730       718      3019      3020      2972
 -1      1327    8    0    1
 -2       613       592       715      2654      2966      3021
 -1      1328    8    0    1
 -2       484       618       617      2991      3022      2671
 -1      1329    8    0    1
 -2       477       589       731      2568      3023      3024
 -1      1330    8    0    1
 -2       716       477       731      2967      3024      3025
 -1      1331    8    0    1
 -2       589       724       731      2990      3026      3023
 -1      1332    8    0    1
 -2       601       721       624      2980      3027      2691
 -1      1333    8    0    1
 -2       595       720       715      2977      3028      2965
 -1      1334    8    0    1
 -2       465       487       607      2596      2677      2662
 -1      1335    8    0    1
 -2       586       496       600      3004      3029      2600
 -1      1336    8    0    1
 -2       616       617       732      2673      3030      3031
 -1      1337    8    0    1
 -2       618       605       609      2676      2634      3032
 -1      1338    8    0    1
 -2       708       718       733      2992      3033      3034
 -1      1339    8    0    1
 -2       713       711       734      2960      3035      3036
 -1      1340    8    0    1
 -2       615       614       735      2668      3037      3038
 -1      1341    8    0    1
 -2       621       620       736      2684      3039      3040
 -1      1342    8    0    1
 -2       619       708       737      2942      3041      3042
 -1      1343    8    0    1
 -2       622       621       738      2687      3043      3044
 -1      1344    8    0    1
 -2       621       736       738      3040      3045      3043
 -1      1345    8    0    1
 -2       623       575       713      2688      2959      3046
 -1      1346    8    0    1
 -2       727       657       739      3002      3047      3048
 -1      1347    8    0    1
 -2       720       719       740      2978      3049      3050
 -1      1348    8    0    1
 -2       715       720       741      3028      3051      3052
 -1      1349    8    0    1
 -2       624       721       625      3027      3053      3007
 -1      1350    8    0    1
 -2       627       626       742      2700      3054      3055
 -1      1351    8    0    1
 -2       628       627       743      2703      3056      3057
 -1      1352    8    0    1
 -2       627       742       743      3055      3058      3056
 -1      1353    8    0    1
 -2       629       628       744      2706      3059      3060
 -1      1354    8    0    1
 -2       628       743       744      3057      3061      3059
 -1      1355    8    0    1
 -2       630       629       745      2709      3062      3063
 -1      1356    8    0    1
 -2       629       744       745      3060      3064      3062
 -1      1357    8    0    1
 -2       631       630       746      2712      3065      3066
 -1      1358    8    0    1
 -2       630       745       746      3063      3067      3065
 -1      1359    8    0    1
 -2       632       631       747      2715      3068      3069
 -1      1360    8    0    1
 -2       631       746       747      3066      3070      3068
 -1      1361    8    0    1
 -2       633       632       748      2718      3071      3072
 -1      1362    8    0    1
 -2       632       747       748      3069      3073      3071
 -1      1363    8    0    1
 -2       634       633       749      2721      3074      3075
 -1      1364    8    0    1
 -2       633       748       749      3072      3076      3074
 -1      1365    8    0    1
 -2       635       634       750      2724      3077      3078
 -1      1366    8    0    1
 -2       634       749       750      3075      3079      3077
 -1      1367    8    0    1
 -2       636       635       751      2727      3080      3081
 -1      1368    8    0    1
 -2       635       750       751      3078      3082      3080
 -1      1369    8    0    1
 -2       637       636       752      2730      3083      3084
 -1      1370    8    0    1
 -2       636       751       752      3081      3085      3083
 -1      1371    8    0    1
 -2       638       637       753      2733      3086      3087
 -1      1372    8    0    1
 -2       637       752       753      3084      3088      3086
 -1      1373    8    0    1
 -2       639       638       754      2736      3089      3090
 -1      1374    8    0    1
 -2       638       753       754      3087      3091      3089
 -1      1375    8    0    1
 -2       640       639       755      2739      3092      3093
 -1      1376    8    0    1
 -2       639       754       755      3090      3094      3092
 -1      1377    8    0    1
 -2       641       640       756      2742      3095      3096
 -1      1378    8    0    1
 -2       640       755       756      3093      3097      3095
 -1      1379    8    0    1
 -2       642       641       757      2745      3098      3099
 -1      1380    8    0    1
 -2       641       756       757      3096      3100      3098
 -1      1381    8    0    1
 -2       643       642       758      2748      3101      3102
 -1      1382    8    0    1
 -2       642       757       758      3099      3103      3101
 -1      1383    8    0    1
 -2       644       643       759      2751      3104      3105
 -1      1384    8    0    1
 -2       643       758       759      3102      3106      3104
 -1      1385    8    0    1
 -2       645       644       760      2754      3107      3108
 -1      1386    8    0    1
 -2       644       759       760      3105      3109      3107
 -1      1387    8    0    1
 -2       646       645       761      2757      3110      3111
 -1      1388    8    0    1
 -2       645       760       761      3108      3112      3110
 -1      1389    8    0    1
 -2       647       646       762      2760      3113      3114
 -1      1390    8    0    1
 -2       646       761       762      3111      3115      3113
 -1      1391    8    0    1
 -2       648       647       763      2763      3116      3117
 -1      1392    8    0    1
 -2       647       762       763      3114      3118      3116
 -1      1393    8    0    1
 -2       649       648       764      2766      3119      3120
 -1      1394    8    0    1
 -2       648       763       764      3117      3121      3119
 -1      1395    8    0    1
 -2       650       649       765      2769      3122      3123
 -1      1396    8    0    1
 -2       649       764       765      3120      3124      3122
 -1      1397    8    0    1
 -2       651       650       766      2772      3125      3126
 -1      1398    8    0    1
 -2       650       765       766      3123      3127      3125
 -1      1399    8    0    1
 -2       652       651       767      2775      3128      3129
 -1      1400    8    0    1
 -2       651       766       767      3126      3130      3128
 -1      1401    8    0    1
 -2       653       652       768      2778      3131      3132
 -1      1402    8    0    1
 -2       652       767       768      3129      3133      3131
 -1      1403    8    0    1
 -2       654       653       769      2781      3134      3135
 -1      1404    8    0    1
 -2       653       768       769      3132      3136      3134
 -1      1405    8    0    1
 -2       655       656       770      2786      3137      3138
 -1      1406    8    0    1
 -2       657       655       771      2789      3139      3140
 -1      1407    8    0    1
 -2       739       657       771      3047      3140      3141
 -1      1408    8    0    1
 -2       655       770       771      3138      3142      3139
 -1      1409    8    0    1
 -2       659       660       772      2797      3143      3144
 -1      1410    8    0    1
 -2       658       659       773      2794      3145      3146
 -1      1411    8    0    1
 -2       659       772       773      3144      3147      3145
 -1      1412    8    0    1
 -2       661       662       774      2803      3148      3149
 -1      1413    8    0    1
 -2       662       663       775      2806      3150      3151
 -1      1414    8    0    1
 -2       662       775       774      3151      3152      3148
 -1      1415    8    0    1
 -2       663       664       776      2809      3153      3154
 -1      1416    8    0    1
 -2       663       776       775      3154      3155      3150
 -1      1417    8    0    1
 -2       664       665       777      2812      3156      3157
 -1      1418    8    0    1
 -2       664       777       776      3157      3158      3153
 -1      1419    8    0    1
 -2       665       666       778      2815      3159      3160
 -1      1420    8    0    1
 -2       665       778       777      3160      3161      3156
 -1      1421    8    0    1
 -2       666       667       779      2818      3162      3163
 -1      1422    8    0    1
 -2       666       779       778      3163      3164      3159
 -1      1423    8    0    1
 -2       667       668       780      2821      3165      3166
 -1      1424    8    0    1
 -2       667       780       779      3166      3167      3162
 -1      1425    8    0    1
 -2       668       669       781      2824      3168      3169
 -1      1426    8    0    1
 -2       668       781       780      3169      3170      3165
 -1      1427    8    0    1
 -2       669       670       782      2827      3171      3172
 -1      1428    8    0    1
 -2       669       782       781      3172      3173      3168
 -1      1429    8    0    1
 -2       670       671       783      2830      3174      3175
 -1      1430    8    0    1
 -2       670       783       782      3175      3176      3171
 -1      1431    8    0    1
 -2       671       672       784      2833      3177      3178
 -1      1432    8    0    1
 -2       671       784       783      3178      3179      3174
 -1      1433    8    0    1
 -2       672       673       785      2836      3180      3181
 -1      1434    8    0    1
 -2       672       785       784      3181      3182      3177
 -1      1435    8    0    1
 -2       673       674       786      2839      3183      3184
 -1      1436    8    0    1
 -2       673       786       785      3184      3185      3180
 -1      1437    8    0    1
 -2       674       675       787      2842      3186      3187
 -1      1438    8    0    1
 -2       674       787       786      3187      3188      3183
 -1      1439    8    0    1
 -2       675       676       788      2845      3189      3190
 -1      1440    8    0    1
 -2       675       788       787      3190      3191      3186
 -1      1441    8    0    1
 -2       676       677       789      2848      3192      3193
 -1      1442    8    0    1
 -2       676       789       788      3193      3194      3189
 -1      1443    8    0    1
 -2       677       678       790      2851      3195      3196
 -1      1444    8    0    1
 -2       677       790       789      3196      3197      3192
 -1      1445    8    0    1
 -2       678       679       791      2854      3198      3199
 -1      1446    8    0    1
 -2       678       791       790      3199      3200      3195
 -1      1447    8    0    1
 -2       679       680       792      2857      3201      3202
 -1      1448    8    0    1
 -2       679       792       791      3202      3203      3198
 -1      1449    8    0    1
 -2       680       681       793      2860      3204      3205
 -1      1450    8    0    1
 -2       680       793       792      3205      3206      3201
 -1      1451    8    0    1
 -2       681       682       794      2863      3207      3208
 -1      1452    8    0    1
 -2       681       794       793      3208      3209      3204
 -1      1453    8    0    1
 -2       682       683       795      2866      3210      3211
 -1      1454    8    0    1
 -2       682       795       794      3211      3212      3207
 -1      1455    8    0    1
 -2       683       684       796      2869      3213      3214
 -1      1456    8    0    1
 -2       683       796       795      3214      3215      3210
 -1      1457    8    0    1
 -2       684       685       797      2872      3216      3217
 -1      1458    8    0    1
 -2       684       797       796      3217      3218      3213
 -1      1459    8    0    1
 -2       685       686       798      2875      3219      3220
 -1      1460    8    0    1
 -2       685       798       797      3220      3221      3216
 -1      1461    8    0    1
 -2       686       687       799      2878      3222      3223
 -1      1462    8    0    1
 -2       686       799       798      3223      3224      3219
 -1      1463    8    0    1
 -2       687       688       800      2881      3225      3226
 -1      1464    8    0    1
 -2       687       800       799      3226      3227      3222
 -1      1465    8    0    1
 -2       688       689       801      2884      3228      3229
 -1      1466    8    0    1
 -2       688       801       800      3229      3230      3225
 -1      1467    8    0    1
 -2       689       690       802      2887      3231      3232
 -1      1468    8    0    1
 -2       689       802       801      3232      3233      3228
 -1      1469    8    0    1
 -2       690       691       803      2890      3234      3235
 -1      1470    8    0    1
 -2       690       803       802      3235      3236      3231
 -1      1471    8    0    1
 -2       691       692       804      2893      3237      3238
 -1      1472    8    0    1
 -2       691       804       803      3238      3239      3234
 -1      1473    8    0    1
 -2       692       693       805      2896      3240      3241
 -1      1474    8    0    1
 -2       692       805       804      3241      3242      3237
 -1      1475    8    0    1
 -2       693       694       806      2899      3243      3244
 -1      1476    8    0    1
 -2       693       806       805      3244      3245      3240
 -1      1477    8    0    1
 -2       694       695       807      2902      3246      3247
 -1      1478    8    0    1
 -2       806       694       807      3243      3247      3248
 -1      1479    8    0    1
 -2       695       698       807      2910      3249      3246
 -1      1480    8    0    1
 -2       702       703       808      2928      3250      3251
 -1      1481    8    0    1
 -2       723       619       809      2998      3252      3253
 -1      1482    8    0    1
 -2       707       623       810      2939      3254      3255
 -1      1483    8    0    1
 -2       703       704       811      2931      3256      3257
 -1      1484    8    0    1
 -2       703       811       808      3257      3258      3250
 -1      1485    8    0    1
 -2       701       702       812      2925      3259      3260
 -1      1486    8    0    1
 -2       702       808       812      3251      3261      3259
 -1      1487    8    0    1
 -2       709       622       717      2996      3262      2971
 -1      1488    8    0    1
 -2       706       604       726      3006      3000      3263
 -1      1489    8    0    1
 -2       697       710       813      2997      3264      3265
 -1      1490    8    0    1
 -2       610       606       814      3005      3266      3267
 -1      1491    8    0    1
 -2       609       727       618      3013      3268      3032
 -1      1492    8    0    1
 -2       496       487       600      2655      2599      3029
 -1      1493    8    0    1
 -2       660       661       815      2800      3269      3270
 -1      1494    8    0    1
 -2       772       660       815      3143      3270      3271
 -1      1495    8    0    1
 -2       661       774       815      3149      3272      3269
 -1      1496    8    0    1
 -2       711       610       816      3014      3273      3274
 -1      1497    8    0    1
 -2       610       814       816      3267      3275      3273
 -1      1498    8    0    1
 -2       475       717       817      2970      3276      3277
 -1      1499    8    0    1
 -2       613       715       818      3021      3278      3279
 -1      1500    8    0    1
 -2       705       654       769      3011      3135      3280
 -1      1501    8    0    1
 -2       710       701       819      2949      3281      3282
 -1      1502    8    0    1
 -2       813       710       819      3264      3282      3283
 -1      1503    8    0    1
 -2       701       812       819      3260      3284      3281
 -1      1504    8    0    1
 -2       617       618       727      3022      3268      3285
 -1      1505    8    0    1
 -2       721       722       820      2983      3286      3287
 -1      1506    8    0    1
 -2       722       707       821      3012      3288      3289
 -1      1507    8    0    1
 -2       707       810       821      3255      3290      3288
 -1      1508    8    0    1
 -2       475       817       611      3277      3291      2645
 -1      1509    8    0    1
 -2       623       713       822      3046      3292      3293
 -1      1510    8    0    1
 -2       623       822       810      3293      3294      3254
 -1      1511    8    0    1
 -2       625       721       820      3053      3287      3295
 -1      1512    8    0    1
 -2       611       817       823      3291      3296      3297
 -1      1513    8    0    1
 -2       611       823       728      3297      3298      3010
 -1      1514    8    0    1
 -2       717       622       824      3262      3299      3300
 -1      1515    8    0    1
 -2       817       717       824      3276      3300      3301
 -1      1516    8    0    1
 -2       622       738       824      3044      3302      3299
 -1      1517    8    0    1
 -2       733       718       825      3033      3303      3304
 -1      1518    8    0    1
 -2       718       730       825      3020      3305      3303
 -1      1519    8    0    1
 -2       713       734       822      3036      3306      3292
 -1      1520    8    0    1
 -2       615       735       826      3038      3307      3308
 -1      1521    8    0    1
 -2       615       826       724      3308      3309      2988
 -1      1522    8    0    1
 -2       725       723       827      2995      3310      3311
 -1      1523    8    0    1
 -2       723       809       827      3253      3312      3310
 -1      1524    8    0    1
 -2       619       737       809      3042      3313      3252
 -1      1525    8    0    1
 -2       740       719       828      3049      3314      3315
 -1      1526    8    0    1
 -2       719       728       828      3009      3316      3314
 -1      1527    8    0    1
 -2       726       716       829      3001      3317      3318
 -1      1528    8    0    1
 -2       720       740       741      3050      3319      3051
 -1      1529    8    0    1
 -2       715       741       830      3052      3320      3321
 -1      1530    8    0    1
 -2       715       830       818      3321      3322      3278
 -1      1531    8    0    1
 -2       823       817       824      3296      3301      3323
 -1      1532    8    0    1
 -2       696       700       831      2919      3324      3325
 -1      1533    8    0    1
 -2       770       656       832      3137      3326      3327
 -1      1534    8    0    1
 -2       656       699       832      2915      3328      3326
 -1      1535    8    0    1
 -2       658       773       833      3146      3329      3330
 -1      1536    8    0    1
 -2       658       833       699      3330      3331      2916
 -1      1537    8    0    1
 -2       617       727       732      3285      3332      3030
 -1      1538    8    0    1
 -2       712       706       726      2957      3263      3333
 -1      1539    8    0    1
 -2       732       727       739      3332      3048      3334
 -1      1540    8    0    1
 -2       704       705       769      2934      3280      3335
 -1      1541    8    0    1
 -2       704       769       811      3335      3336      3256
 -1      1542    8    0    1
 -2       814       606       725      3266      2994      3337
 -1      1543    8    0    1
 -2       625       820       626      3295      3338      2697
 -1      1544    8    0    1
 -2       626       820       742      3338      3339      3054
 -1      1545    8    0    1
 -2       708       733       737      3034      3340      3041
 -1      1546    8    0    1
 -2       729       613       818      3017      3279      3341
 -1      1547    8    0    1
 -2       616       732       834      3031      3342      3343
 -1      1548    8    0    1
 -2       616       834       714      3343      3344      2964
 -1      1549    8    0    1
 -2       730       612       835      3018      3345      3346
 -1      1550    8    0    1
 -2       612       729       835      3016      3347      3345
 -1      1551    8    0    1
 -2       614       714       836      2963      3348      3349
 -1      1552    8    0    1
 -2       735       614       836      3037      3349      3350
 -1      1553    8    0    1
 -2       714       834       836      3344      3351      3348
 -1      1554    8    0    1
 -2       620       712       837      2956      3352      3353
 -1      1555    8    0    1
 -2       620       837       736      3353      3354      3039
 -1      1556    8    0    1
 -2       698       696       807      2911      3355      3249
 -1      1557    8    0    1
 -2       734       711       838      3035      3356      3357
 -1      1558    8    0    1
 -2       711       816       838      3274      3358      3356
 -1      1559    8    0    1
 -2       716       731       839      3025      3359      3360
 -1      1560    8    0    1
 -2       716       839       829      3360      3361      3317
 -1      1561    8    0    1
 -2       820       722       821      3286      3289      3362
 -1      1562    8    0    1
 -2       700       697       840      2920      3363      3364
 -1      1563    8    0    1
 -2       700       840       831      3364      3365      3324
 -1      1564    8    0    1
 -2       807       696       831      3355      3325      3366
 -1      1565    8    0    1
 -2       697       813       840      3265      3367      3363
 -1      1566    8    0    1
 -2       816       814       841      3275      3368      3369
 -1      1567    8    0    1
 -2       741       740       842      3319      3370      3371
 -1      1568    8    0    1
 -2       807       831       806      3366      3372      3248
 -1      1569    8    0    1
 -2       737       733       843      3340      3373      3374
 -1      1570    8    0    1
 -2       744       743       844      3061      3375      3376
 -1      1571    8    0    1
 -2       745       744       845      3064      3377      3378
 -1      1572    8    0    1
 -2       744       844       845      3376      3379      3377
 -1      1573    8    0    1
 -2       746       745       846      3067      3380      3381
 -1      1574    8    0    1
 -2       745       845       846      3378      3382      3380
 -1      1575    8    0    1
 -2       747       746       847      3070      3383      3384
 -1      1576    8    0    1
 -2       746       846       847      3381      3385      3383
 -1      1577    8    0    1
 -2       748       747       848      3073      3386      3387
 -1      1578    8    0    1
 -2       747       847       848      3384      3388      3386
 -1      1579    8    0    1
 -2       749       748       849      3076      3389      3390
 -1      1580    8    0    1
 -2       748       848       849      3387      3391      3389
 -1      1581    8    0    1
 -2       750       749       850      3079      3392      3393
 -1      1582    8    0    1
 -2       749       849       850      3390      3394      3392
 -1      1583    8    0    1
 -2       751       750       851      3082      3395      3396
 -1      1584    8    0    1
 -2       750       850       851      3393      3397      3395
 -1      1585    8    0    1
 -2       752       751       852      3085      3398      3399
 -1      1586    8    0    1
 -2       751       851       852      3396      3400      3398
 -1      1587    8    0    1
 -2       753       752       853      3088      3401      3402
 -1      1588    8    0    1
 -2       752       852       853      3399      3403      3401
 -1      1589    8    0    1
 -2       754       753       854      3091      3404      3405
 -1      1590    8    0    1
 -2       753       853       854      3402      3406      3404
 -1      1591    8    0    1
 -2       755       754       855      3094      3407      3408
 -1      1592    8    0    1
 -2       754       854       855      3405      3409      3407
 -1      1593    8    0    1
 -2       756       755       856      3097      3410      3411
 -1      1594    8    0    1
 -2       755       855       856      3408      3412      3410
 -1      1595    8    0    1
 -2       757       756       857      3100      3413      3414
 -1      1596    8    0    1
 -2       756       856       857      3411      3415      3413
 -1      1597    8    0    1
 -2       758       757       858      3103      3416      3417
 -1      1598    8    0    1
 -2       757       857       858      3414      3418      3416
 -1      1599    8    0    1
 -2       759       758       859      3106      3419      3420
 -1      1600    8    0    1
 -2       758       858       859      3417      3421      3419
 -1      1601    8    0    1
 -2       760       759       860      3109      3422      3423
 -1      1602    8    0    1
 -2       759       859       860      3420      3424      3422
 -1      1603    8    0    1
 -2       761       760       861      3112      3425      3426
 -1      1604    8    0    1
 -2       760       860       861      3423      3427      3425
 -1      1605    8    0    1
 -2       762       761       862      3115      3428      3429
 -1      1606    8    0    1
 -2       761       861       862      3426      3430      3428
 -1      1607    8    0    1
 -2       763       762       863      3118      3431      3432
 -1      1608    8    0    1
 -2       762       862       863      3429      3433      3431
 -1      1609    8    0    1
 -2       764       763       864      3121      3434      3435
 -1      1610    8    0    1
 -2       763       863       864      3432      3436      3434
 -1      1611    8    0    1
 -2       765       764       865      3124      3437      3438
 -1      1612    8    0    1
 -2       764       864       865      3435      3439      3437
 -1      1613    8    0    1
 -2       766       765       866      3127      3440      3441
 -1      1614    8    0    1
 -2       765       865       866      3438      3442      3440
 -1      1615    8    0    1
 -2       767       766       867      3130      3443      3444
 -1      1616    8    0    1
 -2       766       866       867      3441      3445      3443
 -1      1617    8    0    1
 -2       768       767       868      3133      3446      3447
 -1      1618    8    0    1
 -2       767       867       868      3444      3448      3446
 -1      1619    8    0    1
 -2       769       768       869      3136      3449      3450
 -1      1620    8    0    1
 -2       811       769       869      3336      3450      3451
 -1      1621    8    0    1
 -2       768       868       869      3447      3452      3449
 -1      1622    8    0    1
 -2       712       726       837      3333      3453      3352
 -1      1623    8    0    1
 -2       773       772       870      3147      3454      3455
 -1      1624    8    0    1
 -2       775       776       871      3155      3456      3457
 -1      1625    8    0    1
 -2       774       775       872      3152      3458      3459
 -1      1626    8    0    1
 -2       775       871       872      3457      3460      3458
 -1      1627    8    0    1
 -2       777       778       873      3161      3461      3462
 -1      1628    8    0    1
 -2       778       779       874      3164      3463      3464
 -1      1629    8    0    1
 -2       778       874       873      3464      3465      3461
 -1      1630    8    0    1
 -2       779       780       875      3167      3466      3467
 -1      1631    8    0    1
 -2       779       875       874      3467      3468      3463
 -1      1632    8    0    1
 -2       780       781       876      3170      3469      3470
 -1      1633    8    0    1
 -2       780       876       875      3470      3471      3466
 -1      1634    8    0    1
 -2       781       782       877      3173      3472      3473
 -1      1635    8    0    1
 -2       781       877       876      3473      3474      3469
 -1      1636    8    0    1
 -2       782       783       878      3176      3475      3476
 -1      1637    8    0    1
 -2       782       878       877      3476      3477      3472
 -1      1638    8    0    1
 -2       783       784       879      3179      3478      3479
 -1      1639    8    0    1
 -2       783       879       878      3479      3480      3475
 -1      1640    8    0    1
 -2       784       785       880      3182      3481      3482
 -1      1641    8    0    1
 -2       784       880       879      3482      3483      3478
 -1      1642    8    0    1
 -2       785       786       881      3185      3484      3485
 -1      1643    8    0    1
 -2       785       881       880      3485      3486      3481
 -1      1644    8    0    1
 -2       786       787       882      3188      3487      3488
 -1      1645    8    0    1
 -2       786       882       881      3488      3489      3484
 -1      1646    8    0    1
 -2       787       788       883      3191      3490      3491
 -1      1647    8    0    1
 -2       787       883       882      3491      3492      3487
 -1      1648    8    0    1
 -2       788       789       884      3194      3493      3494
 -1      1649    8    0    1
 -2       788       884       883      3494      3495      3490
 -1      1650    8    0    1
 -2       789       790       885      3197      3496      3497
 -1      1651    8    0    1
 -2       789       885       884      3497      3498      3493
 -1      1652    8    0    1
 -2       790       791       886      3200      3499      3500
 -1      1653    8    0    1
 -2       790       886       885      3500      3501      3496
 -1      1654    8    0    1
 -2       791       792       887      3203      3502      3503
 -1      1655    8    0    1
 -2       791       887       886      3503      3504      3499
 -1      1656    8    0    1
 -2       792       793       888      3206      3505      3506
 -1      1657    8    0    1
 -2       792       888       887      3506      3507      3502
 -1      1658    8    0    1
 -2       793       794       889      3209      3508      3509
 -1      1659    8    0    1
 -2       793       889       888      3509      3510      3505
 -1      1660    8    0    1
 -2       794       795       890      3212      3511      3512
 -1      1661    8    0    1
 -2       794       890       889      3512      3513      3508
 -1      1662    8    0    1
 -2       795       796       891      3215      3514      3515
 -1      1663    8    0    1
 -2       795       891       890      3515      3516      3511
 -1      1664    8    0    1
 -2       796       797       892      3218      3517      3518
 -1      1665    8    0    1
 -2       796       892       891      3518      3519      3514
 -1      1666    8    0    1
 -2       797       798       893      3221      3520      3521
 -1      1667    8    0    1
 -2       797       893       892      3521      3522      3517
 -1      1668    8    0    1
 -2       798       799       894      3224      3523      3524
 -1      1669    8    0    1
 -2       798       894       893      3524      3525      3520
 -1      1670    8    0    1
 -2       799       800       895      3227      3526      3527
 -1      1671    8    0    1
 -2       799       895       894      3527      3528      3523
 -1      1672    8    0    1
 -2       800       801       896      3230      3529      3530
 -1      1673    8    0    1
 -2       800       896       895      3530      3531      3526
 -1      1674    8    0    1
 -2       801       802       897      3233      3532      3533
 -1      1675    8    0    1
 -2       801       897       896      3533      3534      3529
 -1      1676    8    0    1
 -2       802       803       898      3236      3535      3536
 -1      1677    8    0    1
 -2       802       898       897      3536      3537      3532
 -1      1678    8    0    1
 -2       803       804       899      3239      3538      3539
 -1      1679    8    0    1
 -2       803       899       898      3539      3540      3535
 -1      1680    8    0    1
 -2       804       805       900      3242      3541      3542
 -1      1681    8    0    1
 -2       804       900       899      3542      3543      3538
 -1      1682    8    0    1
 -2       805       806       901      3245      3544      3545
 -1      1683    8    0    1
 -2       805       901       900      3545      3546      3541
 -1      1684    8    0    1
 -2       809       737       902      3313      3547      3548
 -1      1685    8    0    1
 -2       824       738       903      3302      3549      3550
 -1      1686    8    0    1
 -2       824       903       823      3550      3551      3323
 -1      1687    8    0    1
 -2       840       813       904      3367      3552      3553
 -1      1688    8    0    1
 -2       808       811       905      3258      3554      3555
 -1      1689    8    0    1
 -2       811       869       905      3451      3556      3554
 -1      1690    8    0    1
 -2       812       808       906      3261      3557      3558
 -1      1691    8    0    1
 -2       808       905       906      3555      3559      3557
 -1      1692    8    0    1
 -2       814       725       907      3337      3560      3561
 -1      1693    8    0    1
 -2       841       814       907      3368      3561      3562
 -1      1694    8    0    1
 -2       725       827       907      3311      3563      3560
 -1      1695    8    0    1
 -2       821       810       908      3290      3564      3565
 -1      1696    8    0    1
 -2       810       822       909      3294      3566      3567
 -1      1697    8    0    1
 -2       810       909       908      3567      3568      3564
 -1      1698    8    0    1
 -2       776       777       910      3158      3569      3570
 -1      1699    8    0    1
 -2       871       776       910      3456      3570      3571
 -1      1700    8    0    1
 -2       777       873       910      3462      3572      3569
 -1      1701    8    0    1
 -2       728       823       911      3298      3573      3574
 -1      1702    8    0    1
 -2       828       728       911      3316      3574      3575
 -1      1703    8    0    1
 -2       823       903       911      3551      3576      3573
 -1      1704    8    0    1
 -2       732       739       912      3334      3577      3578
 -1      1705    8    0    1
 -2       732       912       834      3578      3579      3342
 -1      1706    8    0    1
 -2       731       724       913      3026      3580      3581
 -1      1707    8    0    1
 -2       731       913       839      3581      3582      3359
 -1      1708    8    0    1
 -2       743       742       914      3058      3583      3584
 -1      1709    8    0    1
 -2       743       914       844      3584      3585      3375
 -1      1710    8    0    1
 -2       822       734       915      3306      3586      3587
 -1      1711    8    0    1
 -2       738       736       916      3045      3588      3589
 -1      1712    8    0    1
 -2       738       916       903      3589      3590      3549
 -1      1713    8    0    1
 -2       729       818       917      3341      3591      3592
 -1      1714    8    0    1
 -2       831       840       918      3365      3593      3594
 -1      1715    8    0    1
 -2       840       904       918      3553      3595      3593
 -1      1716    8    0    1
 -2       742       820       919      3339      3596      3597
 -1      1717    8    0    1
 -2       914       742       919      3583      3597      3598
 -1      1718    8    0    1
 -2       820       821       919      3362      3599      3596
 -1      1719    8    0    1
 -2       726       829       837      3318      3600      3453
 -1      1720    8    0    1
 -2       826       735       920      3307      3601      3602
 -1      1721    8    0    1
 -2       912       739       771      3577      3141      3603
 -1      1722    8    0    1
 -2       741       842       921      3371      3604      3605
 -1      1723    8    0    1
 -2       741       921       830      3605      3606      3320
 -1      1724    8    0    1
 -2       806       831       901      3372      3607      3544
 -1      1725    8    0    1
 -2       901       831       918      3607      3594      3608
 -1      1726    8    0    1
 -2       832       699       833      3328      3331      3609
 -1      1727    8    0    1
 -2       821       908       919      3565      3610      3599
 -1      1728    8    0    1
 -2       843       733       870      3373      3611      3612
 -1      1729    8    0    1
 -2       770       832       922      3327      3613      3614
 -1      1730    8    0    1
 -2       813       819       923      3283      3615      3616
 -1      1731    8    0    1
 -2       813       923       904      3616      3617      3552
 -1      1732    8    0    1
 -2       833       773       924      3329      3618      3619
 -1      1733    8    0    1
 -2       773       870       924      3455      3620      3618
 -1      1734    8    0    1
 -2       870       772       843      3454      3621      3612
 -1      1735    8    0    1
 -2       774       872       902      3459      3622      3623
 -1      1736    8    0    1
 -2       809       902       925      3548      3624      3625
 -1      1737    8    0    1
 -2       827       809       925      3312      3625      3626
 -1      1738    8    0    1
 -2       902       872       925      3622      3627      3624
 -1      1739    8    0    1
 -2       902       737       843      3547      3374      3628
 -1      1740    8    0    1
 -2       734       838       926      3357      3629      3630
 -1      1741    8    0    1
 -2       734       926       915      3630      3631      3586
 -1      1742    8    0    1
 -2       740       828       927      3315      3632      3633
 -1      1743    8    0    1
 -2       740       927       842      3633      3634      3370
 -1      1744    8    0    1
 -2       909       822       915      3566      3587      3635
 -1      1745    8    0    1
 -2       835       729       917      3347      3592      3636
 -1      1746    8    0    1
 -2       724       826       913      3309      3637      3580
 -1      1747    8    0    1
 -2       735       836       928      3350      3638      3639
 -1      1748    8    0    1
 -2       735       928       920      3639      3640      3601
 -1      1749    8    0    1
 -2       771       770       929      3142      3641      3642
 -1      1750    8    0    1
 -2       770       922       929      3614      3643      3641
 -1      1751    8    0    1
 -2       916       736       837      3588      3354      3644
 -1      1752    8    0    1
 -2       838       816       930      3358      3645      3646
 -1      1753    8    0    1
 -2       816       841       930      3369      3647      3645
 -1      1754    8    0    1
 -2       730       835       931      3346      3648      3649
 -1      1755    8    0    1
 -2       730       931       825      3649      3650      3305
 -1      1756    8    0    1
 -2       818       830       932      3322      3651      3652
 -1      1757    8    0    1
 -2       818       932       917      3652      3653      3591
 -1      1758    8    0    1
 -2       819       812       933      3284      3654      3655
 -1      1759    8    0    1
 -2       923       819       933      3615      3655      3656
 -1      1760    8    0    1
 -2       812       906       933      3558      3657      3654
 -1      1761    8    0    1
 -2       829       839       934      3361      3658      3659
 -1      1762    8    0    1
 -2       843       772       815      3621      3271      3660
 -1      1763    8    0    1
 -2       774       902       815      3623      3661      3272
 -1      1764    8    0    1
 -2       829       934       916      3659      3662      3663
 -1      1765    8    0    1
 -2       829       916       837      3663      3644      3600
 -1      1766    8    0    1
 -2       912       771       929      3603      3642      3664
 -1      1767    8    0    1
 -2       934       839       935      3658      3665      3666
 -1      1768    8    0    1
 -2       839       913       935      3582      3667      3665
 -1      1769    8    0    1
 -2       846       845       936      3382      3668      3669
 -1      1770    8    0    1
 -2       847       846       937      3385      3670      3671
 -1      1771    8    0    1
 -2       846       936       937      3669      3672      3670
 -1      1772    8    0    1
 -2       848       847       938      3388      3673      3674
 -1      1773    8    0    1
 -2       847       937       938      3671      3675      3673
 -1      1774    8    0    1
 -2       849       848       939      3391      3676      3677
 -1      1775    8    0    1
 -2       848       938       939      3674      3678      3676
 -1      1776    8    0    1
 -2       850       849       940      3394      3679      3680
 -1      1777    8    0    1
 -2       849       939       940      3677      3681      3679
 -1      1778    8    0    1
 -2       851       850       941      3397      3682      3683
 -1      1779    8    0    1
 -2       850       940       941      3680      3684      3682
 -1      1780    8    0    1
 -2       852       851       942      3400      3685      3686
 -1      1781    8    0    1
 -2       851       941       942      3683      3687      3685
 -1      1782    8    0    1
 -2       853       852       943      3403      3688      3689
 -1      1783    8    0    1
 -2       852       942       943      3686      3690      3688
 -1      1784    8    0    1
 -2       854       853       944      3406      3691      3692
 -1      1785    8    0    1
 -2       853       943       944      3689      3693      3691
 -1      1786    8    0    1
 -2       855       854       945      3409      3694      3695
 -1      1787    8    0    1
 -2       854       944       945      3692      3696      3694
 -1      1788    8    0    1
 -2       856       855       946      3412      3697      3698
 -1      1789    8    0    1
 -2       855       945       946      3695      3699      3697
 -1      1790    8    0    1
 -2       857       856       947      3415      3700      3701
 -1      1791    8    0    1
 -2       856       946       947      3698      3702      3700
 -1      1792    8    0    1
 -2       858       857       948      3418      3703      3704
 -1      1793    8    0    1
 -2       857       947       948      3701      3705      3703
 -1      1794    8    0    1
 -2       859       858       949      3421      3706      3707
 -1      1795    8    0    1
 -2       858       948       949      3704      3708      3706
 -1      1796    8    0    1
 -2       860       859       950      3424      3709      3710
 -1      1797    8    0    1
 -2       859       949       950      3707      3711      3709
 -1      1798    8    0    1
 -2       861       860       951      3427      3712      3713
 -1      1799    8    0    1
 -2       860       950       951      3710      3714      3712
 -1      1800    8    0    1
 -2       862       861       952      3430      3715      3716
 -1      1801    8    0    1
 -2       861       951       952      3713      3717      3715
 -1      1802    8    0    1
 -2       863       862       953      3433      3718      3719
 -1      1803    8    0    1
 -2       862       952       953      3716      3720      3718
 -1      1804    8    0    1
 -2       864       863       954      3436      3721      3722
 -1      1805    8    0    1
 -2       863       953       954      3719      3723      3721
 -1      1806    8    0    1
 -2       865       864       955      3439      3724      3725
 -1      1807    8    0    1
 -2       864       954       955      3722      3726      3724
 -1      1808    8    0    1
 -2       866       865       956      3442      3727      3728
 -1      1809    8    0    1
 -2       865       955       956      3725      3729      3727
 -1      1810    8    0    1
 -2       867       866       957      3445      3730      3731
 -1      1811    8    0    1
 -2       866       956       957      3728      3732      3730
 -1      1812    8    0    1
 -2       868       867       958      3448      3733      3734
 -1      1813    8    0    1
 -2       867       957       958      3731      3735      3733
 -1      1814    8    0    1
 -2       869       868       959      3452      3736      3737
 -1      1815    8    0    1
 -2       905       869       959      3556      3737      3738
 -1      1816    8    0    1
 -2       868       958       959      3734      3739      3736
 -1      1817    8    0    1
 -2       872       871       925      3460      3740      3627
 -1      1818    8    0    1
 -2       902       843       815      3628      3660      3661
 -1      1819    8    0    1
 -2       874       875       960      3468      3741      3742
 -1      1820    8    0    1
 -2       873       874       961      3465      3743      3744
 -1      1821    8    0    1
 -2       874       960       961      3742      3745      3743
 -1      1822    8    0    1
 -2       876       877       962      3474      3746      3747
 -1      1823    8    0    1
 -2       877       878       963      3477      3748      3749
 -1      1824    8    0    1
 -2       877       963       962      3749      3750      3746
 -1      1825    8    0    1
 -2       878       879       964      3480      3751      3752
 -1      1826    8    0    1
 -2       878       964       963      3752      3753      3748
 -1      1827    8    0    1
 -2       879       880       965      3483      3754      3755
 -1      1828    8    0    1
 -2       879       965       964      3755      3756      3751
 -1      1829    8    0    1
 -2       880       881       966      3486      3757      3758
 -1      1830    8    0    1
 -2       880       966       965      3758      3759      3754
 -1      1831    8    0    1
 -2       881       882       967      3489      3760      3761
 -1      1832    8    0    1
 -2       881       967       966      3761      3762      3757
 -1      1833    8    0    1
 -2       882       883       968      3492      3763      3764
 -1      1834    8    0    1
 -2       882       968       967      3764      3765      3760
 -1      1835    8    0    1
 -2       883       884       969      3495      3766      3767
 -1      1836    8    0    1
 -2       883       969       968      3767      3768      3763
 -1      1837    8    0    1
 -2       884       885       970      3498      3769      3770
 -1      1838    8    0    1
 -2       884       970       969      3770      3771      3766
 -1      1839    8    0    1
 -2       885       886       971      3501      3772      3773
 -1      1840    8    0    1
 -2       885       971       970      3773      3774      3769
 -1      1841    8    0    1
 -2       886       887       972      3504      3775      3776
 -1      1842    8    0    1
 -2       886       972       971      3776      3777      3772
 -1      1843    8    0    1
 -2       887       888       973      3507      3778      3779
 -1      1844    8    0    1
 -2       887       973       972      3779      3780      3775
 -1      1845    8    0    1
 -2       888       889       974      3510      3781      3782
 -1      1846    8    0    1
 -2       888       974       973      3782      3783      3778
 -1      1847    8    0    1
 -2       889       890       975      3513      3784      3785
 -1      1848    8    0    1
 -2       889       975       974      3785      3786      3781
 -1      1849    8    0    1
 -2       890       891       976      3516      3787      3788
 -1      1850    8    0    1
 -2       890       976       975      3788      3789      3784
 -1      1851    8    0    1
 -2       891       892       977      3519      3790      3791
 -1      1852    8    0    1
 -2       891       977       976      3791      3792      3787
 -1      1853    8    0    1
 -2       892       893       978      3522      3793      3794
 -1      1854    8    0    1
 -2       892       978       977      3794      3795      3790
 -1      1855    8    0    1
 -2       893       894       979      3525      3796      3797
 -1      1856    8    0    1
 -2       893       979       978      3797      3798      3793
 -1      1857    8    0    1
 -2       894       895       980      3528      3799      3800
 -1      1858    8    0    1
 -2       894       980       979      3800      3801      3796
 -1      1859    8    0    1
 -2       895       896       981      3531      3802      3803
 -1      1860    8    0    1
 -2       895       981       980      3803      3804      3799
 -1      1861    8    0    1
 -2       896       897       982      3534      3805      3806
 -1      1862    8    0    1
 -2       896       982       981      3806      3807      3802
 -1      1863    8    0    1
 -2       897       898       983      3537      3808      3809
 -1      1864    8    0    1
 -2       897       983       982      3809      3810      3805
 -1      1865    8    0    1
 -2       898       899       984      3540      3811      3812
 -1      1866    8    0    1
 -2       898       984       983      3812      3813      3808
 -1      1867    8    0    1
 -2       899       900       985      3543      3814      3815
 -1      1868    8    0    1
 -2       899       985       984      3815      3816      3811
 -1      1869    8    0    1
 -2       900       901       986      3546      3817      3818
 -1      1870    8    0    1
 -2       985       900       986      3814      3818      3819
 -1      1871    8    0    1
 -2       901       918       986      3608      3820      3817
 -1      1872    8    0    1
 -2       906       905       987      3559      3821      3822
 -1      1873    8    0    1
 -2       905       959       987      3738      3823      3821
 -1      1874    8    0    1
 -2       908       909       988      3568      3824      3825
 -1      1875    8    0    1
 -2       836       834       989      3351      3826      3827
 -1      1876    8    0    1
 -2       928       836       989      3638      3827      3828
 -1      1877    8    0    1
 -2       834       912       989      3579      3829      3826
 -1      1878    8    0    1
 -2       918       904       986      3595      3830      3820
 -1      1879    8    0    1
 -2       913       826       990      3637      3831      3832
 -1      1880    8    0    1
 -2       935       913       990      3667      3832      3833
 -1      1881    8    0    1
 -2       826       920       990      3602      3834      3831
 -1      1882    8    0    1
 -2       875       876       991      3471      3835      3836
 -1      1883    8    0    1
 -2       875       991       960      3836      3837      3741
 -1      1884    8    0    1
 -2       844       914       992      3585      3838      3839
 -1      1885    8    0    1
 -2       914       919       993      3598      3840      3841
 -1      1886    8    0    1
 -2       992       914       993      3838      3841      3842
 -1      1887    8    0    1
 -2       919       908       993      3610      3843      3840
 -1      1888    8    0    1
 -2       903       916       994      3590      3844      3845
 -1      1889    8    0    1
 -2       911       903       994      3576      3845      3846
 -1      1890    8    0    1
 -2       916       934       994      3662      3847      3844
 -1      1891    8    0    1
 -2       845       844       995      3379      3848      3849
 -1      1892    8    0    1
 -2       936       845       995      3668      3849      3850
 -1      1893    8    0    1
 -2       844       992       995      3839      3851      3848
 -1      1894    8    0    1
 -2       832       833       996      3609      3852      3853
 -1      1895    8    0    1
 -2       922       832       996      3613      3853      3854
 -1      1896    8    0    1
 -2       833       924       996      3619      3855      3852
 -1      1897    8    0    1
 -2       835       917       997      3636      3856      3857
 -1      1898    8    0    1
 -2       909       915       998      3635      3858      3859
 -1      1899    8    0    1
 -2       909       998       988      3859      3860      3824
 -1      1900    8    0    1
 -2       991       876       962      3835      3747      3861
 -1      1901    8    0    1
 -2       921       842       999      3604      3862      3863
 -1      1902    8    0    1
 -2       733       825       870      3304      3864      3611
 -1      1903    8    0    1
 -2       997       917      1000      3856      3865      3866
 -1      1904    8    0    1
 -2       917       932      1000      3653      3867      3865
 -1      1905    8    0    1
 -2       904       923      1001      3617      3868      3869
 -1      1906    8    0    1
 -2       924       870       825      3620      3864      3870
 -1      1907    8    0    1
 -2       908       988       993      3825      3871      3843
 -1      1908    8    0    1
 -2       830       921      1002      3606      3872      3873
 -1      1909    8    0    1
 -2       830      1002       932      3873      3874      3651
 -1      1910    8    0    1
 -2       828       911      1003      3575      3875      3876
 -1      1911    8    0    1
 -2       911       994      1003      3846      3877      3875
 -1      1912    8    0    1
 -2       827       925      1004      3626      3878      3879
 -1      1913    8    0    1
 -2       827      1004       907      3879      3880      3563
 -1      1914    8    0    1
 -2       906       987      1005      3822      3881      3882
 -1      1915    8    0    1
 -2       906      1005       933      3882      3883      3657
 -1      1916    8    0    1
 -2       926       838      1006      3629      3884      3885
 -1      1917    8    0    1
 -2       838       930      1006      3646      3886      3884
 -1      1918    8    0    1
 -2       915       926      1007      3631      3887      3888
 -1      1919    8    0    1
 -2       915      1007       998      3888      3889      3858
 -1      1920    8    0    1
 -2       927       828      1003      3632      3876      3890
 -1      1921    8    0    1
 -2       986       904      1001      3830      3869      3891
 -1      1922    8    0    1
 -2       835       997       931      3857      3892      3648
 -1      1923    8    0    1
 -2       841       907      1008      3562      3893      3894
 -1      1924    8    0    1
 -2       907      1004      1008      3880      3895      3893
 -1      1925    8    0    1
 -2       925       871      1004      3740      3896      3878
 -1      1926    8    0    1
 -2       910       873      1008      3572      3897      3898
 -1      1927    8    0    1
 -2       990       920       999      3834      3899      3900
 -1      1928    8    0    1
 -2       929       922      1009      3643      3901      3902
 -1      1929    8    0    1
 -2       930       841      1010      3647      3903      3904
 -1      1930    8    0    1
 -2       841      1008      1010      3894      3905      3903
 -1      1931    8    0    1
 -2       994       934       935      3847      3666      3906
 -1      1932    8    0    1
 -2       920       928      1011      3640      3907      3908
 -1      1933    8    0    1
 -2       842       927       999      3634      3909      3862
 -1      1934    8    0    1
 -2       922       996      1000      3854      3910      3911
 -1      1935    8    0    1
 -2      1004       871       910      3896      3571      3912
 -1      1936    8    0    1
 -2       920      1011       999      3908      3913      3899
 -1      1937    8    0    1
 -2       922      1000      1009      3911      3914      3901
 -1      1938    8    0    1
 -2       993       988       992      3871      3915      3842
 -1      1939    8    0    1
 -2      1000       932      1012      3867      3916      3917
 -1      1940    8    0    1
 -2      1009      1000      1012      3914      3917      3918
 -1      1941    8    0    1
 -2       932      1002      1012      3874      3919      3916
 -1      1942    8    0    1
 -2       912       929      1013      3664      3920      3921
 -1      1943    8    0    1
 -2       996       924       997      3855      3922      3923
 -1      1944    8    0    1
 -2       937       936      1014      3672      3924      3925
 -1      1945    8    0    1
 -2       960       991      1015      3837      3926      3927
 -1      1946    8    0    1
 -2       938       937      1016      3675      3928      3929
 -1      1947    8    0    1
 -2       937      1014      1016      3925      3930      3928
 -1      1948    8    0    1
 -2       939       938      1017      3678      3931      3932
 -1      1949    8    0    1
 -2       938      1016      1017      3929      3933      3931
 -1      1950    8    0    1
 -2       940       939      1018      3681      3934      3935
 -1      1951    8    0    1
 -2       939      1017      1018      3932      3936      3934
 -1      1952    8    0    1
 -2       941       940      1019      3684      3937      3938
 -1      1953    8    0    1
 -2       940      1018      1019      3935      3939      3937
 -1      1954    8    0    1
 -2       942       941      1020      3687      3940      3941
 -1      1955    8    0    1
 -2       941      1019      1020      3938      3942      3940
 -1      1956    8    0    1
 -2       943       942      1021      3690      3943      3944
 -1      1957    8    0    1
 -2       942      1020      1021      3941      3945      3943
 -1      1958    8    0    1
 -2       944       943      1022      3693      3946      3947
 -1      1959    8    0    1
 -2       943      1021      1022      3944      3948      3946
 -1      1960    8    0    1
 -2       945       944      1023      3696      3949      3950
 -1      1961    8    0    1
 -2       944      1022      1023      3947      3951      3949
 -1      1962    8    0    1
 -2       946       945      1024      3699      3952      3953
 -1      1963    8    0    1
 -2       945      1023      1024      3950      3954      3952
 -1      1964    8    0    1
 -2       947       946      1025      3702      3955      3956
 -1      1965    8    0    1
 -2       946      1024      1025      3953      3957      3955
 -1      1966    8    0    1
 -2       948       947      1026      3705      3958      3959
 -1      1967    8    0    1
 -2       947      1025      1026      3956      3960      3958
 -1      1968    8    0    1
 -2       949       948      1027      3708      3961      3962
 -1      1969    8    0    1
 -2       948      1026      1027      3959      3963      3961
 -1      1970    8    0    1
 -2       950       949      1028      3711      3964      3965
 -1      1971    8    0    1
 -2       949      1027      1028      3962      3966      3964
 -1      1972    8    0    1
 -2       951       950      1029      3714      3967      3968
 -1      1973    8    0    1
 -2       950      1028      1029      3965      3969      3967
 -1      1974    8    0    1
 -2       952       951      1030      3717      3970      3971
 -1      1975    8    0    1
 -2       951      1029      1030      3968      3972      3970
 -1      1976    8    0    1
 -2       953       952      1031      3720      3973      3974
 -1      1977    8    0    1
 -2       952      1030      1031      3971      3975      3973
 -1      1978    8    0    1
 -2       954       953      1032      3723      3976      3977
 -1      1979    8    0    1
 -2       953      1031      1032      3974      3978      3976
 -1      1980    8    0    1
 -2       955       954      1033      3726      3979      3980
 -1      1981    8    0    1
 -2       954      1032      1033      3977      3981      3979
 -1      1982    8    0    1
 -2       956       955      1034      3729      3982      3983
 -1      1983    8    0    1
 -2       955      1033      1034      3980      3984      3982
 -1      1984    8    0    1
 -2       957       956      1035      3732      3985      3986
 -1      1985    8    0    1
 -2       956      1034      1035      3983      3987      3985
 -1      1986    8    0    1
 -2       958       957      1036      3735      3988      3989
 -1      1987    8    0    1
 -2       957      1035      1036      3986      3990      3988
 -1      1988    8    0    1
 -2       959       958      1037      3739      3991      3992
 -1      1989    8    0    1
 -2       987       959      1037      3823      3992      3993
 -1      1990    8    0    1
 -2       958      1036      1037      3989      3994      3991
 -1      1991    8    0    1
 -2       964       965      1038      3756      3995      3996
 -1      1992    8    0    1
 -2       961       960      1006      3745      3997      3998
 -1      1993    8    0    1
 -2       910      1008      1004      3898      3895      3912
 -1      1994    8    0    1
 -2       873       961      1008      3744      3999      3897
 -1      1995    8    0    1
 -2       963       964      1039      3753      4000      4001
 -1      1996    8    0    1
 -2       964      1038      1039      3996      4002      4000
 -1      1997    8    0    1
 -2       962       963      1040      3750      4003      4004
 -1      1998    8    0    1
 -2       963      1039      1040      4001      4005      4003
 -1      1999    8    0    1
 -2       965       966      1041      3759      4006      4007
 -1      2000    8    0    1
 -2       965      1041      1038      4007      4008      3995
 -1      2001    8    0    1
 -2       966       967      1042      3762      4009      4010
 -1      2002    8    0    1
 -2       966      1042      1041      4010      4011      4006
 -1      2003    8    0    1
 -2       967       968      1043      3765      4012      4013
 -1      2004    8    0    1
 -2       967      1043      1042      4013      4014      4009
 -1      2005    8    0    1
 -2       968       969      1044      3768      4015      4016
 -1      2006    8    0    1
 -2       968      1044      1043      4016      4017      4012
 -1      2007    8    0    1
 -2       969       970      1045      3771      4018      4019
 -1      2008    8    0    1
 -2       969      1045      1044      4019      4020      4015
 -1      2009    8    0    1
 -2       970       971      1046      3774      4021      4022
 -1      2010    8    0    1
 -2       970      1046      1045      4022      4023      4018
 -1      2011    8    0    1
 -2       971       972      1047      3777      4024      4025
 -1      2012    8    0    1
 -2       971      1047      1046      4025      4026      4021
 -1      2013    8    0    1
 -2       972       973      1048      3780      4027      4028
 -1      2014    8    0    1
 -2       972      1048      1047      4028      4029      4024
 -1      2015    8    0    1
 -2       973       974      1049      3783      4030      4031
 -1      2016    8    0    1
 -2       973      1049      1048      4031      4032      4027
 -1      2017    8    0    1
 -2       974       975      1050      3786      4033      4034
 -1      2018    8    0    1
 -2       974      1050      1049      4034      4035      4030
 -1      2019    8    0    1
 -2       975       976      1051      3789      4036      4037
 -1      2020    8    0    1
 -2       975      1051      1050      4037      4038      4033
 -1      2021    8    0    1
 -2       976       977      1052      3792      4039      4040
 -1      2022    8    0    1
 -2       976      1052      1051      4040      4041      4036
 -1      2023    8    0    1
 -2       977       978      1053      3795      4042      4043
 -1      2024    8    0    1
 -2       977      1053      1052      4043      4044      4039
 -1      2025    8    0    1
 -2       978       979      1054      3798      4045      4046
 -1      2026    8    0    1
 -2       978      1054      1053      4046      4047      4042
 -1      2027    8    0    1
 -2       979       980      1055      3801      4048      4049
 -1      2028    8    0    1
 -2       979      1055      1054      4049      4050      4045
 -1      2029    8    0    1
 -2       980       981      1056      3804      4051      4052
 -1      2030    8    0    1
 -2       980      1056      1055      4052      4053      4048
 -1      2031    8    0    1
 -2       981       982      1057      3807      4054      4055
 -1      2032    8    0    1
 -2       981      1057      1056      4055      4056      4051
 -1      2033    8    0    1
 -2       982       983      1058      3810      4057      4058
 -1      2034    8    0    1
 -2       982      1058      1057      4058      4059      4054
 -1      2035    8    0    1
 -2       983       984      1059      3813      4060      4061
 -1      2036    8    0    1
 -2       983      1059      1058      4061      4062      4057
 -1      2037    8    0    1
 -2       984       985      1060      3816      4063      4064
 -1      2038    8    0    1
 -2       984      1060      1059      4064      4065      4060
 -1      2039    8    0    1
 -2       985       986      1061      3819      4066      4067
 -1      2040    8    0    1
 -2      1060       985      1061      4063      4067      4068
 -1      2041    8    0    1
 -2       986      1001      1061      3891      4069      4066
 -1      2042    8    0    1
 -2       935       990       999      3833      3900      4070
 -1      2043    8    0    1
 -2       989       912      1013      3829      3921      4071
 -1      2044    8    0    1
 -2       992       988      1062      3915      4072      4073
 -1      2045    8    0    1
 -2       988       998      1062      3860      4074      4072
 -1      2046    8    0    1
 -2      1013       929      1009      3920      3902      4075
 -1      2047    8    0    1
 -2       991       962      1063      3861      4076      4077
 -1      2048    8    0    1
 -2       962      1040      1063      4004      4078      4076
 -1      2049    8    0    1
 -2       928       989      1013      3828      4071      4079
 -1      2050    8    0    1
 -2      1011       928      1013      3907      4079      4080
 -1      2051    8    0    1
 -2       999       927       935      3909      4081      4070
 -1      2052    8    0    1
 -2       923       933      1064      3656      4082      4083
 -1      2053    8    0    1
 -2      1001       923      1064      3868      4083      4084
 -1      2054    8    0    1
 -2       933      1005      1064      3883      4085      4082
 -1      2055    8    0    1
 -2      1013      1009      1011      4075      4086      4080
 -1      2056    8    0    1
 -2       921       999      1011      3863      3913      4087
 -1      2057    8    0    1
 -2       921      1011      1002      4087      4088      3872
 -1      2058    8    0    1
 -2      1014       936      1065      3924      4089      4090
 -1      2059    8    0    1
 -2       936       995      1065      3850      4091      4089
 -1      2060    8    0    1
 -2       996       997      1000      3923      3866      3910
 -1      2061    8    0    1
 -2       987      1037      1066      3993      4092      4093
 -1      2062    8    0    1
 -2       987      1066      1005      4093      4094      3881
 -1      2063    8    0    1
 -2       960      1015      1006      3927      4095      3997
 -1      2064    8    0    1
 -2       924       825       931      3870      3650      4096
 -1      2065    8    0    1
 -2       935       927      1003      4081      3890      4097
 -1      2066    8    0    1
 -2       924       931       997      4096      3892      3922
 -1      2067    8    0    1
 -2       961      1006       930      3998      3886      4098
 -1      2068    8    0    1
 -2      1003       994       935      3877      3906      4097
 -1      2069    8    0    1
 -2      1061      1001      1067      4069      4099      4100
 -1      2070    8    0    1
 -2      1001      1064      1067      4084      4101      4099
 -1      2071    8    0    1
 -2      1062       998      1068      4074      4102      4103
 -1      2072    8    0    1
 -2       998      1007      1068      3889      4104      4102
 -1      2073    8    0    1
 -2       991      1063      1015      4077      4105      3926
 -1      2074    8    0    1
 -2       992      1062       995      4073      4106      3851
 -1      2075    8    0    1
 -2       926      1006      1069      3885      4107      4108
 -1      2076    8    0    1
 -2      1007       926      1069      3887      4108      4109
 -1      2077    8    0    1
 -2      1006      1015      1069      4095      4110      4107
 -1      2078    8    0    1
 -2       961       930      1010      4098      3904      4111
 -1      2079    8    0    1
 -2      1017      1016      1070      3933      4112      4113
 -1      2080    8    0    1
 -2      1018      1017      1071      3936      4114      4115
 -1      2081    8    0    1
 -2      1017      1070      1071      4113      4116      4114
 -1      2082    8    0    1
 -2      1019      1018      1072      3939      4117      4118
 -1      2083    8    0    1
 -2      1018      1071      1072      4115      4119      4117
 -1      2084    8    0    1
 -2      1020      1019      1073      3942      4120      4121
 -1      2085    8    0    1
 -2      1019      1072      1073      4118      4122      4120
 -1      2086    8    0    1
 -2      1021      1020      1074      3945      4123      4124
 -1      2087    8    0    1
 -2      1020      1073      1074      4121      4125      4123
 -1      2088    8    0    1
 -2      1022      1021      1075      3948      4126      4127
 -1      2089    8    0    1
 -2      1021      1074      1075      4124      4128      4126
 -1      2090    8    0    1
 -2      1023      1022      1076      3951      4129      4130
 -1      2091    8    0    1
 -2      1022      1075      1076      4127      4131      4129
 -1      2092    8    0    1
 -2      1024      1023      1077      3954      4132      4133
 -1      2093    8    0    1
 -2      1023      1076      1077      4130      4134      4132
 -1      2094    8    0    1
 -2      1025      1024      1078      3957      4135      4136
 -1      2095    8    0    1
 -2      1024      1077      1078      4133      4137      4135
 -1      2096    8    0    1
 -2      1026      1025      1079      3960      4138      4139
 -1      2097    8    0    1
 -2      1025      1078      1079      4136      4140      4138
 -1      2098    8    0    1
 -2      1027      1026      1080      3963      4141      4142
 -1      2099    8    0    1
 -2      1026      1079      1080      4139      4143      4141
 -1      2100    8    0    1
 -2      1028      1027      1081      3966      4144      4145
 -1      2101    8    0    1
 -2      1027      1080      1081      4142      4146      4144
 -1      2102    8    0    1
 -2      1029      1028      1082      3969      4147      4148
 -1      2103    8    0    1
 -2      1028      1081      1082      4145      4149      4147
 -1      2104    8    0    1
 -2      1030      1029      1083      3972      4150      4151
 -1      2105    8    0    1
 -2      1029      1082      1083      4148      4152      4150
 -1      2106    8    0    1
 -2      1031      1030      1084      3975      4153      4154
 -1      2107    8    0    1
 -2      1030      1083      1084      4151      4155      4153
 -1      2108    8    0    1
 -2      1032      1031      1085      3978      4156      4157
 -1      2109    8    0    1
 -2      1031      1084      1085      4154      4158      4156
 -1      2110    8    0    1
 -2      1033      1032      1086      3981      4159      4160
 -1      2111    8    0    1
 -2      1032      1085      1086      4157      4161      4159
 -1      2112    8    0    1
 -2      1034      1033      1087      3984      4162      4163
 -1      2113    8    0    1
 -2      1033      1086      1087      4160      4164      4162
 -1      2114    8    0    1
 -2      1035      1034      1088      3987      4165      4166
 -1      2115    8    0    1
 -2      1034      1087      1088      4163      4167      4165
 -1      2116    8    0    1
 -2      1036      1035      1089      3990      4168      4169
 -1      2117    8    0    1
 -2      1035      1088      1089      4166      4170      4168
 -1      2118    8    0    1
 -2      1037      1036      1090      3994      4171      4172
 -1      2119    8    0    1
 -2      1066      1037      1090      4092      4172      4173
 -1      2120    8    0    1
 -2      1036      1089      1090      4169      4174      4171
 -1      2121    8    0    1
 -2      1039      1038      1091      4002      4175      4176
 -1      2122    8    0    1
 -2      1040      1039      1092      4005      4177      4178
 -1      2123    8    0    1
 -2      1039      1091      1092      4176      4179      4177
 -1      2124    8    0    1
 -2      1042      1043      1093      4014      4180      4181
 -1      2125    8    0    1
 -2      1043      1044      1094      4017      4182      4183
 -1      2126    8    0    1
 -2      1043      1094      1093      4183      4184      4180
 -1      2127    8    0    1
 -2      1044      1045      1095      4020      4185      4186
 -1      2128    8    0    1
 -2      1044      1095      1094      4186      4187      4182
 -1      2129    8    0    1
 -2      1045      1046      1096      4023      4188      4189
 -1      2130    8    0    1
 -2      1045      1096      1095      4189      4190      4185
 -1      2131    8    0    1
 -2      1046      1047      1097      4026      4191      4192
 -1      2132    8    0    1
 -2      1046      1097      1096      4192      4193      4188
 -1      2133    8    0    1
 -2      1047      1048      1098      4029      4194      4195
 -1      2134    8    0    1
 -2      1047      1098      1097      4195      4196      4191
 -1      2135    8    0    1
 -2      1048      1049      1099      4032      4197      4198
 -1      2136    8    0    1
 -2      1048      1099      1098      4198      4199      4194
 -1      2137    8    0    1
 -2      1049      1050      1100      4035      4200      4201
 -1      2138    8    0    1
 -2      1049      1100      1099      4201      4202      4197
 -1      2139    8    0    1
 -2      1050      1051      1101      4038      4203      4204
 -1      2140    8    0    1
 -2      1050      1101      1100      4204      4205      4200
 -1      2141    8    0    1
 -2      1051      1052      1102      4041      4206      4207
 -1      2142    8    0    1
 -2      1051      1102      1101      4207      4208      4203
 -1      2143    8    0    1
 -2      1052      1053      1103      4044      4209      4210
 -1      2144    8    0    1
 -2      1052      1103      1102      4210      4211      4206
 -1      2145    8    0    1
 -2      1053      1054      1104      4047      4212      4213
 -1      2146    8    0    1
 -2      1053      1104      1103      4213      4214      4209
 -1      2147    8    0    1
 -2      1054      1055      1105      4050      4215      4216
 -1      2148    8    0    1
 -2      1054      1105      1104      4216      4217      4212
 -1      2149    8    0    1
 -2      1055      1056      1106      4053      4218      4219
 -1      2150    8    0    1
 -2      1055      1106      1105      4219      4220      4215
 -1      2151    8    0    1
 -2      1056      1057      1107      4056      4221      4222
 -1      2152    8    0    1
 -2      1056      1107      1106      4222      4223      4218
 -1      2153    8    0    1
 -2      1057      1058      1108      4059      4224      4225
 -1      2154    8    0    1
 -2      1057      1108      1107      4225      4226      4221
 -1      2155    8    0    1
 -2      1058      1059      1109      4062      4227      4228
 -1      2156    8    0    1
 -2      1058      1109      1108      4228      4229      4224
 -1      2157    8    0    1
 -2      1059      1060      1110      4065      4230      4231
 -1      2158    8    0    1
 -2      1059      1110      1109      4231      4232      4227
 -1      2159    8    0    1
 -2      1060      1061      1111      4068      4233      4234
 -1      2160    8    0    1
 -2      1110      1060      1111      4230      4234      4235
 -1      2161    8    0    1
 -2      1061      1067      1111      4100      4236      4233
 -1      2162    8    0    1
 -2      1041      1042      1112      4011      4237      4238
 -1      2163    8    0    1
 -2      1042      1093      1112      4181      4239      4237
 -1      2164    8    0    1
 -2      1063      1040      1113      4078      4240      4241
 -1      2165    8    0    1
 -2      1040      1092      1113      4178      4242      4240
 -1      2166    8    0    1
 -2      1038      1041      1114      4008      4243      4244
 -1      2167    8    0    1
 -2      1041      1112      1114      4238      4245      4243
 -1      2168    8    0    1
 -2      1064      1005      1115      4085      4246      4247
 -1      2169    8    0    1
 -2      1067      1064      1115      4101      4247      4248
 -1      2170    8    0    1
 -2      1005      1066      1115      4094      4249      4246
 -1      2171    8    0    1
 -2      1015      1063      1116      4105      4250      4251
 -1      2172    8    0    1
 -2      1069      1015      1116      4110      4251      4252
 -1      2173    8    0    1
 -2      1063      1113      1116      4241      4253      4250
 -1      2174    8    0    1
 -2      1016      1014      1117      3930      4254      4255
 -1      2175    8    0    1
 -2      1016      1117      1070      4255      4256      4112
 -1      2176    8    0    1
 -2      1002      1011      1012      4088      4257      3919
 -1      2177    8    0    1
 -2       995      1062      1065      4106      4258      4091
 -1      2178    8    0    1
 -2      1091      1038      1114      4175      4244      4259
 -1      2179    8    0    1
 -2      1014      1065      1118      4090      4260      4261
 -1      2180    8    0    1
 -2      1014      1118      1117      4261      4262      4254
 -1      2181    8    0    1
 -2      1011      1009      1012      4086      3918      4257
 -1      2182    8    0    1
 -2      1007      1069      1119      4109      4263      4264
 -1      2183    8    0    1
 -2      1068      1007      1119      4104      4264      4265
 -1      2184    8    0    1
 -2      1069      1116      1119      4252      4266      4263
 -1      2185    8    0    1
 -2      1008       961      1010      3999      4111      3905
 -1      2186    8    0    1
 -2      1065      1062      1120      4258      4267      4268
 -1      2187    8    0    1
 -2      1118      1065      1120      4260      4268      4269
 -1      2188    8    0    1
 -2      1062      1068      1120      4103      4270      4267
 -1      2189    8    0    1
 -2      1070      1117      1121      4256      4271      4272
 -1      2190    8    0    1
 -2      1072      1071      1122      4119      4273      4274
 -1      2191    8    0    1
 -2      1073      1072      1094      4122      4275      4276
 -1      2192    8    0    1
 -2      1074      1073      1095      4125      4277      4278
 -1      2193    8    0    1
 -2      1075      1074      1096      4128      4279      4280
 -1      2194    8    0    1
 -2      1076      1075      1097      4131      4281      4282
 -1      2195    8    0    1
 -2      1077      1076      1098      4134      4283      4284
 -1      2196    8    0    1
 -2      1078      1077      1099      4137      4285      4286
 -1      2197    8    0    1
 -2      1079      1078      1100      4140      4287      4288
 -1      2198    8    0    1
 -2      1080      1079      1101      4143      4289      4290
 -1      2199    8    0    1
 -2      1081      1080      1102      4146      4291      4292
 -1      2200    8    0    1
 -2      1082      1081      1103      4149      4293      4294
 -1      2201    8    0    1
 -2      1083      1082      1104      4152      4295      4296
 -1      2202    8    0    1
 -2      1084      1083      1105      4155      4297      4298
 -1      2203    8    0    1
 -2      1085      1084      1106      4158      4299      4300
 -1      2204    8    0    1
 -2      1086      1085      1107      4161      4301      4302
 -1      2205    8    0    1
 -2      1087      1086      1108      4164      4303      4304
 -1      2206    8    0    1
 -2      1088      1087      1109      4167      4305      4306
 -1      2207    8    0    1
 -2      1089      1088      1110      4170      4307      4308
 -1      2208    8    0    1
 -2      1092      1091      1123      4179      4309      4310
 -1      2209    8    0    1
 -2      1109      1087      1108      4305      4304      4229
 -1      2210    8    0    1
 -2      1094      1095      1073      4187      4277      4276
 -1      2211    8    0    1
 -2      1093      1094      1122      4184      4311      4312
 -1      2212    8    0    1
 -2      1096      1097      1075      4193      4281      4280
 -1      2213    8    0    1
 -2      1097      1098      1076      4196      4283      4282
 -1      2214    8    0    1
 -2      1098      1099      1077      4199      4285      4284
 -1      2215    8    0    1
 -2      1099      1100      1078      4202      4287      4286
 -1      2216    8    0    1
 -2      1100      1101      1079      4205      4289      4288
 -1      2217    8    0    1
 -2      1101      1102      1080      4208      4291      4290
 -1      2218    8    0    1
 -2      1102      1103      1081      4211      4293      4292
 -1      2219    8    0    1
 -2      1103      1104      1082      4214      4295      4294
 -1      2220    8    0    1
 -2      1104      1105      1083      4217      4297      4296
 -1      2221    8    0    1
 -2      1105      1106      1084      4220      4299      4298
 -1      2222    8    0    1
 -2      1106      1107      1085      4223      4301      4300
 -1      2223    8    0    1
 -2      1107      1108      1086      4226      4303      4302
 -1      2224    8    0    1
 -2      1109      1110      1088      4232      4307      4306
 -1      2225    8    0    1
 -2      1112      1093      1122      4239      4312      4313
 -1      2226    8    0    1
 -2      1096      1074      1095      4279      4278      4190
 -1      2227    8    0    1
 -2      1113      1092      1120      4242      4314      4315
 -1      2228    8    0    1
 -2      1091      1114      1121      4259      4316      4317
 -1      2229    8    0    1
 -2      1094      1072      1122      4275      4274      4311
 -1      2230    8    0    1
 -2      1122      1071      1124      4273      4318      4319
 -1      2231    8    0    1
 -2      1112      1122      1124      4313      4319      4320
 -1      2232    8    0    1
 -2      1071      1070      1124      4116      4321      4318
 -1      2233    8    0    1
 -2      1121      1117      1123      4271      4322      4323
 -1      2234    8    0    1
 -2      1124      1070      1121      4321      4272      4324
 -1      2235    8    0    1
 -2      1123      1117      1118      4322      4262      4325
 -1      2236    8    0    1
 -2      1123      1091      1121      4309      4317      4323
 -1      2237    8    0    1
 -2      1120      1068      1113      4270      4326      4315
 -1      2238    8    0    1
 -2      1121      1114      1124      4316      4327      4324
 -1      2239    8    0    1
 -2      1114      1112      1124      4245      4320      4327
 -1      2240    8    0    1
 -2      1115      1066      1090      4249      4173      4328
 -1      2241    8    0    1
 -2      1067      1115      1125      4248      4329      4330
 -1      2242    8    0    1
 -2      1111      1067      1125      4236      4330      4331
 -1      2243    8    0    1
 -2      1115      1090      1125      4328      4332      4329
 -1      2244    8    0    1
 -2      1120      1092      1123      4314      4310      4333
 -1      2245    8    0    1
 -2      1089      1110      1125      4308      4334      4335
 -1      2246    8    0    1
 -2      1089      1125      1090      4335      4332      4174
 -1      2247    8    0    1
 -2      1118      1120      1123      4269      4333      4325
 -1      2248    8    0    1
 -2      1116      1113      1119      4253      4336      4266
 -1      2249    8    0    1
 -2      1125      1110      1111      4334      4235      4331
 -1      2250    8    0    1
 -2      1113      1068      1119      4326      4265      4336
 -3
    1PSTEP                         1           1           1          
  100CL  101 1.000000000        4336                     0    1           1
 -4  DISP        4    1
 -5  D1          1    2    1    0
 -5  D2          1    2    2    0
 -5  D3          1    2    3    0
 -5  ALL         1    2    0    0    1ALL
 -1         1 4.29134E-03-1.75466E-03-9.29950E-15
 -1         2 6.45352E-03-8.02637E-04-1.36457E-14
 -1         3 1.41835E-02-4.20423E-03-1.28795E-13
 -1         4 1.63564E-02-5.63335E-03-1.28598E-13
 -1         5 0.00000E+00 0.00000E+00 0.00000E+00
 -1         6 0.00000E+00 0.00000E+00 0.00000E+00
 -1         7 0.00000E+00 0.00000E+00 0.00000E+00
 -1         8 0.00000E+00 0.00000E+00 0.00000E+00
 -1         9 0.00000E+00 0.00000E+00 0.00000E+00
 -1        10 0.00000E+00 0.00000E+00 0.00000E+00
 -1        11 0.00000E+00 0.00000E+00 0.00000E+00
 -1        12 0.00000E+00 0.00000E+00 0.00000E+00
 -1        13 0.00000E+00 0.00000E+00 0.00000E+00
 -1        14 0.00000E+00 0.00000E+00 0.00000E+00
 -1        15 0.00000E+00 0.00000E+00 0.00000E+00
 -1        16 0.00000E+00 0.00000E+00 0.00000E+00
 -1        17 0.00000E+00 0.00000E+00 0.00000E+00
 -1        18 0.00000E+00 0.00000E+00 0.00000E+00
 -1        19 0.00000E+00 0.00000E+00 0.00000E+00
 -1        20 0.00000E+00 0.00000E+00 0.00000E+00
 -1        21 0.00000E+00 0.00000E+00 0.00000E+00
 -1        22 0.00000E+00 0.00000E+00 0.00000E+00
 -1        23 4.30177E-04-2.43850E-04 3.92075E-17
 -1        24 7.57506E-04-3.63772E-04-6.91823E-17
 -1        25 1.07970E-03-4.48475E-04-3.19494E-16
 -1        26 1.41449E-03-5.17485E-04-7.09224E-16
 -1        27 1.77133E-03-5.86803E-04-1.23323E-15
 -1        28 2.15789E-03-6.73288E-04-1.88938E-15
 -1        29 2.59965E-03-8.05408E-04-2.72186E-15
 -1        30 3.04801E-03-9.94691E-04-3.65289E-15
 -1        31 3.49824E-03-1.26015E-03-4.71894E-15
 -1        32 3.90626E-03-1.58173E-03-5.93052E-15
 -1        33 4.23248E-03-1.88203E-03-7.30457E-15
 -1        34 4.44984E-03-2.03606E-03-8.60607E-15
 -1        35 4.65710E-03-2.05060E-03-1.00414E-14
 -1        36 4.95556E-03-1.91665E-03-1.18879E-14
 -1        37 5.32253E-03-1.73312E-03-1.37855E-14
 -1        38 5.79394E-03-1.57035E-03-1.60236E-14
 -1        39 6.25872E-03-1.49675E-03-1.82677E-14
 -1        40 6.70484E-03-1.49939E-03-2.06166E-14
 -1        41 7.11943E-03-1.55807E-03-2.30630E-14
 -1        42 7.50240E-03-1.65275E-03-2.55941E-14
 -1        43 7.85888E-03-1.76871E-03-2.82122E-14
 -1        44 8.19497E-03-1.89647E-03-3.09141E-14
 -1        45 8.53178E-03-2.03708E-03-3.38314E-14
 -1        46 8.84158E-03-2.17376E-03-3.66851E-14
 -1        47 9.14382E-03-2.31131E-03-3.96085E-14
 -1        48 9.44073E-03-2.44877E-03-4.25948E-14
 -1        49 9.73389E-03-2.58565E-03-4.56471E-14
 -1        50 1.00244E-02-2.72176E-03-4.87760E-14
 -1        51 1.03132E-02-2.85704E-03-5.19705E-14
 -1        52 1.06150E-02-2.99822E-03-5.53754E-14
 -1        53 1.09016E-02-3.13192E-03-5.86855E-14
 -1        54 1.11877E-02-3.26498E-03-6.20526E-14
 -1        55 1.14735E-02-3.39748E-03-6.54760E-14
 -1        56 1.17590E-02-3.52952E-03-6.89413E-14
 -1        57 1.20444E-02-3.66118E-03-7.24480E-14
 -1        58 1.23298E-02-3.79253E-03-7.59824E-14
 -1        59 1.26295E-02-3.93018E-03-7.97237E-14
 -1        60 1.29149E-02-4.06108E-03-8.33221E-14
 -1        61 1.32003E-02-4.19183E-03-8.69313E-14
 -1        62 1.34858E-02-4.32247E-03-9.05667E-14
 -1        63 1.37713E-02-4.45303E-03-9.42254E-14
 -1        64 1.40568E-02-4.58352E-03-9.79114E-14
 -1        65 1.43424E-02-4.71397E-03-1.01629E-13
 -1        66 1.46423E-02-4.85091E-03-1.05575E-13
 -1        67 1.49279E-02-4.98132E-03-1.09363E-13
 -1        68 1.52136E-02-5.11171E-03-1.13179E-13
 -1        69 1.54993E-02-5.24211E-03-1.17016E-13
 -1        70 1.57850E-02-5.37252E-03-1.20873E-13
 -1        71 1.60707E-02-5.50293E-03-1.24749E-13
 -1        72 4.25885E-04 2.59213E-04 5.89738E-17
 -1        73 7.31664E-04 3.97331E-04-2.33476E-17
 -1        74 1.02218E-03 4.93696E-04-2.43014E-16
 -1        75 1.30797E-03 5.68201E-04-6.01336E-16
 -1        76 1.59158E-03 6.29783E-04-1.10240E-15
 -1        77 1.87238E-03 6.83078E-04-1.74641E-15
 -1        78 2.14819E-03 7.29589E-04-2.53238E-15
 -1        79 2.41630E-03 7.67983E-04-3.45878E-15
 -1        80 2.67446E-03 7.94385E-04-4.52739E-15
 -1        81 2.92195E-03 8.03112E-04-5.74071E-15
 -1        82 3.16034E-03 7.88038E-04-7.09951E-15
 -1        83 3.39363E-03 7.44386E-04-8.59935E-15
 -1        84 3.62744E-03 6.70348E-04-1.02406E-14
 -1        85 3.86761E-03 5.67854E-04-1.20163E-14
 -1        86 4.11861E-03 4.42132E-04-1.39207E-14
 -1        87 4.38259E-03 3.00302E-04-1.59472E-14
 -1        88 4.65926E-03 1.49669E-04-1.80882E-14
 -1        89 4.94652E-03-3.64002E-06-2.03322E-14
 -1        90 5.24133E-03-1.55351E-04-2.26793E-14
 -1        91 5.54057E-03-3.03081E-04-2.51302E-14
 -1        92 5.84159E-03-4.45978E-04-2.76885E-14
 -1        93 6.14245E-03-5.84212E-04-3.03459E-14
 -1        94 6.44192E-03-7.18510E-04-3.30977E-14
 -1        95 6.73937E-03-8.49808E-04-3.59376E-14
 -1        96 7.03460E-03-9.79026E-04-3.88584E-14
 -1        97 7.32770E-03-1.10696E-03-4.18507E-14
 -1        98 7.61891E-03-1.23422E-03-4.49192E-14
 -1        99 7.90854E-03-1.36127E-03-4.80610E-14
 -1       100 8.19690E-03-1.48841E-03-5.12712E-14
 -1       101 8.48430E-03-1.61581E-03-5.45397E-14
 -1       102 8.77099E-03-1.74357E-03-5.78664E-14
 -1       103 9.05718E-03-1.87173E-03-6.12557E-14
 -1       104 9.34302E-03-2.00027E-03-6.46903E-14
 -1       105 9.62865E-03-2.12917E-03-6.81668E-14
 -1       106 9.91415E-03-2.25838E-03-7.16817E-14
 -1       107 1.01996E-02-2.38786E-03-7.52515E-14
 -1       108 1.04850E-02-2.51756E-03-7.88587E-14
 -1       109 1.07704E-02-2.64743E-03-8.25203E-14
 -1       110 1.10559E-02-2.77745E-03-8.62377E-14
 -1       111 1.13414E-02-2.90757E-03-8.99994E-14
 -1       112 1.16269E-02-3.03778E-03-9.38080E-14
 -1       113 1.19124E-02-3.16804E-03-9.76590E-14
 -1       114 1.21980E-02-3.29834E-03-1.01543E-13
 -1       115 1.24836E-02-3.42867E-03-1.05440E-13
 -1       116 1.27693E-02-3.55902E-03-1.09344E-13
 -1       117 1.30550E-02-3.68938E-03-1.13255E-13
 -1       118 1.33407E-02-3.81973E-03-1.17180E-13
 -1       119 1.36264E-02-3.95008E-03-1.21117E-13
 -1       120 1.39121E-02-4.08041E-03-1.25060E-13
 -1       121 1.43117E-02-4.28851E-03-1.28843E-13
 -1       122 1.44398E-02-4.37280E-03-1.28911E-13
 -1       123 1.45679E-02-4.45709E-03-1.28964E-13
 -1       124 1.46961E-02-4.54140E-03-1.29021E-13
 -1       125 1.48242E-02-4.62572E-03-1.29079E-13
 -1       126 1.49502E-02-4.70863E-03-1.29142E-13
 -1       127 1.50784E-02-4.79297E-03-1.29200E-13
 -1       128 1.52065E-02-4.87733E-03-1.29232E-13
 -1       129 1.53348E-02-4.96168E-03-1.29243E-13
 -1       130 1.54630E-02-5.04604E-03-1.29192E-13
 -1       131 1.55912E-02-5.13038E-03-1.29134E-13
 -1       132 1.57173E-02-5.21329E-03-1.29060E-13
 -1       133 1.58456E-02-5.29761E-03-1.28964E-13
 -1       134 1.59738E-02-5.38192E-03-1.28874E-13
 -1       135 1.61021E-02-5.46621E-03-1.28788E-13
 -1       136 1.62304E-02-5.55050E-03-1.28686E-13
 -1       137 6.35195E-03-6.25830E-04-1.35838E-14
 -1       138 6.15352E-03-4.47995E-04-1.33243E-14
 -1       139 5.86941E-03-2.79891E-04-1.28783E-14
 -1       140 5.52121E-03-1.32128E-04-1.22953E-14
 -1       141 5.06654E-03 8.45331E-06-1.15123E-14
 -1       142 4.61752E-03 1.03672E-04-1.07396E-14
 -1       143 4.13614E-03 1.67389E-04-9.91862E-15
 -1       144 3.65947E-03 1.93004E-04-9.11383E-15
 -1       145 3.20096E-03 1.80305E-04-8.35429E-15
 -1       146 2.79123E-03 1.32816E-04-7.68961E-15
 -1       147 2.37583E-03 3.38985E-05-7.02253E-15
 -1       148 2.08455E-03-8.70947E-05-6.55770E-15
 -1       149 1.88612E-03-2.32615E-04-6.22943E-15
 -1       150 1.78468E-03-3.96236E-04-6.03945E-15
 -1       151 1.78399E-03-5.84872E-04-5.98758E-15
 -1       152 1.90395E-03-7.98536E-04-6.09565E-15
 -1       153 2.10154E-03-9.91044E-04-6.31990E-15
 -1       154 2.39921E-03-1.19312E-03-6.68352E-15
 -1       155 2.77860E-03-1.38594E-03-7.17128E-15
 -1       156 3.25248E-03-1.56372E-03-7.80565E-15
 -1       157 3.75043E-03-1.68842E-03-8.50032E-15
 -1       158 4.79190E-03-1.75025E-03-1.00901E-14
 -1       159 5.23179E-03-1.69202E-03-1.08378E-14
 -1       160 5.62424E-03-1.59149E-03-1.15610E-14
 -1       161 5.94996E-03-1.46244E-03-1.22163E-14
 -1       162 6.21130E-03-1.30867E-03-1.27966E-14
 -1       163 6.37688E-03-1.15154E-03-1.32222E-14
 -1       164 6.46132E-03-9.83198E-04-1.35150E-14
 -1       165 2.58565E-04-1.01013E-04-2.80198E-17
 -1       166 2.35483E-04-6.64494E-05-4.89077E-17
 -1       167 2.19948E-04-4.62013E-05-6.05561E-17
 -1       168 2.08386E-04-3.46665E-05-6.69359E-17
 -1       169 2.00819E-04-2.84345E-05-7.03241E-17
 -1       170 1.97110E-04-2.44047E-05-7.17843E-17
 -1       171 1.97032E-04-2.02522E-05-7.20757E-17
 -1       172 1.99722E-04-1.41995E-05-7.17335E-17
 -1       173 2.04113E-04-5.27947E-06-7.04833E-17
 -1       174 2.09252E-04 6.76414E-06-6.83047E-17
 -1       175 2.14446E-04 2.14934E-05-6.48929E-17
 -1       176 2.19771E-04 3.92387E-05-5.98683E-17
 -1       177 2.25676E-04 6.00524E-05-5.18621E-17
 -1       178 2.33838E-04 8.54427E-05-3.83333E-17
 -1       179 2.49535E-04 1.20426E-04-1.51246E-17
 -1       180 3.09870E-04 1.80632E-04 9.65279E-18
 -1       181 5.09083E-04-2.26629E-04-7.43424E-17
 -1       182 8.43403E-04-3.25283E-04-2.82685E-16
 -1       183 1.17397E-03-3.97586E-04-6.23332E-16
 -1       184 1.51156E-03-4.60553E-04-1.09563E-15
 -1       185 1.86298E-03-5.30014E-04-1.69683E-15
 -1       186 2.25211E-03-6.31023E-04-2.46622E-15
 -1       187 2.64405E-03-7.79257E-04-3.33198E-15
 -1       188 3.05358E-03-1.00285E-03-4.32973E-15
 -1       189 3.46912E-03-1.30789E-03-5.46589E-15
 -1       190 3.87095E-03-1.64930E-03-6.75520E-15
 -1       191 4.19101E-03-1.88519E-03-7.98184E-15
 -1       192 4.49613E-03-1.98875E-03-9.33834E-15
 -1       193 4.86269E-03-1.91287E-03-1.10961E-14
 -1       194 5.23829E-03-1.72517E-03-1.29181E-14
 -1       195 5.67690E-03-1.52180E-03-1.50825E-14
 -1       196 6.09683E-03-1.40705E-03-1.72703E-14
 -1       197 6.50302E-03-1.37972E-03-1.95619E-14
 -1       198 6.88892E-03-1.42064E-03-2.19534E-14
 -1       199 7.25399E-03-1.50642E-03-2.44353E-14
 -1       200 7.60051E-03-1.61886E-03-2.70024E-14
 -1       201 7.93178E-03-1.74598E-03-2.96579E-14
 -1       202 8.26675E-03-1.88738E-03-3.25307E-14
 -1       203 8.57648E-03-2.02537E-03-3.53423E-14
 -1       204 8.87945E-03-2.16434E-03-3.82250E-14
 -1       205 9.17742E-03-2.30315E-03-4.11749E-14
 -1       206 9.47173E-03-2.44123E-03-4.41942E-14
 -1       207 9.76338E-03-2.57836E-03-4.72796E-14
 -1       208 1.00531E-02-2.71449E-03-5.04340E-14
 -1       209 1.03559E-02-2.85639E-03-5.38087E-14
 -1       210 1.06432E-02-2.99065E-03-5.70819E-14
 -1       211 1.09299E-02-3.12416E-03-6.04187E-14
 -1       212 1.12161E-02-3.25702E-03-6.38087E-14
 -1       213 1.15021E-02-3.38934E-03-6.72486E-14
 -1       214 1.17878E-02-3.52121E-03-7.07272E-14
 -1       215 1.20734E-02-3.65272E-03-7.42378E-14
 -1       216 1.23733E-02-3.79050E-03-7.79558E-14
 -1       217 1.26588E-02-3.92149E-03-8.15298E-14
 -1       218 1.29443E-02-4.05231E-03-8.51357E-14
 -1       219 1.32299E-02-4.18299E-03-8.87645E-14
 -1       220 1.35154E-02-4.31357E-03-9.24183E-14
 -1       221 1.38010E-02-4.44409E-03-9.61009E-14
 -1       222 1.40866E-02-4.57455E-03-9.98130E-14
 -1       223 1.43865E-02-4.71150E-03-1.03750E-13
 -1       224 1.46722E-02-4.84190E-03-1.07525E-13
 -1       225 1.49578E-02-4.97230E-03-1.11325E-13
 -1       226 1.52435E-02-5.10269E-03-1.15154E-13
 -1       227 1.55292E-02-5.23309E-03-1.18998E-13
 -1       228 1.58149E-02-5.36350E-03-1.22865E-13
 -1       229 1.60226E-02-5.45699E-03-1.25777E-13
 -1       230 6.31778E-04 3.21096E-04-9.26993E-17
 -1       231 9.37672E-04 4.21763E-04-3.24156E-16
 -1       232 1.23417E-03 4.98679E-04-6.89824E-16
 -1       233 1.52550E-03 5.61840E-04-1.19361E-15
 -1       234 1.81279E-03 6.16611E-04-1.83655E-15
 -1       235 2.09551E-03 6.65007E-04-2.61975E-15
 -1       236 2.37238E-03 7.06005E-04-3.54222E-15
 -1       237 2.64221E-03 7.35790E-04-4.60550E-15
 -1       238 2.90463E-03 7.48441E-04-5.81136E-15
 -1       239 3.16070E-03 7.37316E-04-7.16083E-15
 -1       240 3.41305E-03 6.96991E-04-8.65134E-15
 -1       241 3.66545E-03 6.25115E-04-1.02808E-14
 -1       242 3.92186E-03 5.23381E-04-1.20455E-14
 -1       243 4.18541E-03 3.97150E-04-1.39380E-14
 -1       244 4.45772E-03 2.53946E-04-1.59524E-14
 -1       245 4.73875E-03 1.01564E-04-1.80806E-14
 -1       246 5.02719E-03-5.34501E-05-2.03168E-14
 -1       247 5.32104E-03-2.06557E-04-2.26564E-14
 -1       248 5.61815E-03-3.55264E-04-2.50995E-14
 -1       249 5.91663E-03-4.98721E-04-2.76489E-14
 -1       250 6.21506E-03-6.37169E-04-3.02978E-14
 -1       251 6.51247E-03-7.71428E-04-3.30376E-14
 -1       252 6.80836E-03-9.02524E-04-3.58638E-14
 -1       253 7.10250E-03-1.03145E-03-3.87730E-14
 -1       254 7.39493E-03-1.15907E-03-4.17605E-14
 -1       255 7.68580E-03-1.28602E-03-4.48222E-14
 -1       256 7.97533E-03-1.41279E-03-4.79526E-14
 -1       257 8.26376E-03-1.53967E-03-5.11492E-14
 -1       258 8.55132E-03-1.66687E-03-5.44080E-14
 -1       259 8.83823E-03-1.79447E-03-5.77261E-14
 -1       260 9.12464E-03-1.92250E-03-6.11029E-14
 -1       261 9.41071E-03-2.05095E-03-6.45320E-14
 -1       262 9.69655E-03-2.17978E-03-6.80032E-14
 -1       263 9.98223E-03-2.30894E-03-7.15144E-14
 -1       264 1.02678E-02-2.43839E-03-7.50710E-14
 -1       265 1.05534E-02-2.56806E-03-7.86656E-14
 -1       266 1.08389E-02-2.69793E-03-8.23154E-14
 -1       267 1.11244E-02-2.82794E-03-8.60207E-14
 -1       268 1.14100E-02-2.95806E-03-8.97710E-14
 -1       269 1.16956E-02-3.08826E-03-9.35679E-14
 -1       270 1.19811E-02-3.21852E-03-9.74051E-14
 -1       271 1.22668E-02-3.34883E-03-1.01270E-13
 -1       272 1.25524E-02-3.47917E-03-1.05156E-13
 -1       273 1.28380E-02-3.60952E-03-1.09047E-13
 -1       274 1.31237E-02-3.73988E-03-1.12948E-13
 -1       275 1.34094E-02-3.87023E-03-1.16867E-13
 -1       276 1.36951E-02-4.00058E-03-1.20799E-13
 -1       277 1.39808E-02-4.13092E-03-1.24734E-13
 -1       278 1.41283E-02-4.21779E-03-1.25467E-13
 -1       279 1.42564E-02-4.30209E-03-1.25528E-13
 -1       280 1.43846E-02-4.38639E-03-1.25590E-13
 -1       281 1.45127E-02-4.47070E-03-1.25652E-13
 -1       282 1.46387E-02-4.55359E-03-1.25705E-13
 -1       283 1.47668E-02-4.63792E-03-1.25755E-13
 -1       284 1.48950E-02-4.72226E-03-1.25787E-13
 -1       285 1.50232E-02-4.80660E-03-1.25806E-13
 -1       286 1.51514E-02-4.89094E-03-1.25797E-13
 -1       287 1.52797E-02-4.97528E-03-1.25752E-13
 -1       288 1.54057E-02-5.05818E-03-1.25688E-13
 -1       289 1.55340E-02-5.14250E-03-1.25610E-13
 -1       290 1.56623E-02-5.22681E-03-1.25523E-13
 -1       291 1.57905E-02-5.31111E-03-1.25438E-13
 -1       292 1.59066E-02-5.38406E-03-1.25607E-13
 -1       293 6.43254E-03-7.92302E-04-1.44976E-14
 -1       294 6.23457E-03-6.84867E-04-1.43474E-14
 -1       295 5.92119E-03-5.37110E-04-1.38977E-14
 -1       296 5.54633E-03-3.48477E-04-1.32076E-14
 -1       297 5.08013E-03-1.55855E-04-1.25012E-14
 -1       298 4.67683E-03 5.49925E-05-1.14288E-14
 -1       299 4.27435E-03 1.94929E-04-1.04769E-14
 -1       300 3.88188E-03 2.65438E-04-9.52065E-15
 -1       301 3.50304E-03 2.49575E-04-8.60794E-15
 -1       302 3.12303E-03 1.61721E-04-7.80748E-15
 -1       303 2.73976E-03 1.16433E-05-6.98284E-15
 -1       304 2.32907E-03-1.37877E-04-6.44353E-15
 -1       305 2.02447E-03-2.73417E-04-6.01391E-15
 -1       306 1.82016E-03-3.86925E-04-5.70799E-15
 -1       307 1.74066E-03-4.81239E-04-5.54754E-15
 -1       308 1.82036E-03-5.76290E-04-5.51644E-15
 -1       309 2.04350E-03-7.37418E-04-5.80572E-15
 -1       310 2.36392E-03-9.18482E-04-6.11678E-15
 -1       311 2.77656E-03-1.14266E-03-6.55111E-15
 -1       312 3.21828E-03-1.41133E-03-7.19109E-15
 -1       313 3.67090E-03-1.64974E-03-7.93931E-15
 -1       314 4.10667E-03-1.80930E-03-8.79270E-15
 -1       315 4.51341E-03-1.84577E-03-9.73532E-15
 -1       316 4.89797E-03-1.76644E-03-1.06497E-14
 -1       317 5.27192E-03-1.61946E-03-1.15359E-14
 -1       318 5.63643E-03-1.44026E-03-1.23748E-14
 -1       319 5.96647E-03-1.25148E-03-1.32212E-14
 -1       320 6.24921E-03-1.10957E-03-1.37583E-14
 -1       321 6.42946E-03-9.87791E-04-1.42613E-14
 -1       322 6.50052E-03-8.90307E-04-1.45844E-14
 -1       323 4.64785E-04-1.16583E-04-2.02492E-16
 -1       324 5.05398E-04-1.64323E-04-1.67699E-16
 -1       325 4.11328E-04-6.84674E-05-2.36417E-16
 -1       326 3.98814E-04-5.67839E-05-2.43370E-16
 -1       327 3.95531E-04-4.68172E-05-2.46612E-16
 -1       328 3.99750E-04-3.47133E-05-2.46893E-16
 -1       329 4.08936E-04-1.80511E-05-2.44864E-16
 -1       330 4.20545E-04 4.15519E-06-2.40337E-16
 -1       331 4.32524E-04 3.13627E-05-2.32866E-16
 -1       332 4.44547E-04 6.41431E-05-2.21530E-16
 -1       333 4.57005E-04 1.02115E-04-2.04755E-16
 -1       334 4.72339E-04 1.46623E-04-1.79049E-16
 -1       335 4.96366E-04 2.01685E-04-1.39503E-16
 -1       336 5.56087E-04 2.57307E-04-1.23535E-16
 -1       337 8.63934E-04 3.58880E-04-3.60633E-16
 -1       338 9.32592E-04-2.86198E-04-5.22260E-16
 -1       339 1.25001E-03-3.49114E-04-9.47156E-16
 -1       340 1.57106E-03-4.09267E-04-1.49794E-15
 -1       341 1.91696E-03-4.86349E-04-2.21095E-15
 -1       342 2.26139E-03-5.94262E-04-3.01698E-15
 -1       343 2.62957E-03-7.61947E-04-3.94838E-15
 -1       344 3.03130E-03-1.01506E-03-5.00927E-15
 -1       345 3.46575E-03-1.35610E-03-6.21207E-15
 -1       346 4.28574E-03-1.90825E-03-8.72808E-15
 -1       347 4.70455E-03-1.91156E-03-1.04122E-14
 -1       348 5.10237E-03-1.73096E-03-1.20881E-14
 -1       349 5.56462E-03-1.49416E-03-1.41858E-14
 -1       350 5.98233E-03-1.34384E-03-1.63182E-14
 -1       351 6.36890E-03-1.28904E-03-1.85594E-14
 -1       352 6.72919E-03-1.31130E-03-2.09003E-14
 -1       353 7.07065E-03-1.38543E-03-2.33344E-14
 -1       354 7.39885E-03-1.49127E-03-2.58559E-14
 -1       355 7.71724E-03-1.61514E-03-2.84641E-14
 -1       356 8.04344E-03-1.75533E-03-3.12935E-14
 -1       357 8.34805E-03-1.89330E-03-3.40656E-14
 -1       358 8.64801E-03-2.03281E-03-3.69107E-14
 -1       359 8.94434E-03-2.17239E-03-3.98248E-14
 -1       360 9.23785E-03-2.31130E-03-4.28082E-14
 -1       361 9.52921E-03-2.44923E-03-4.58603E-14
 -1       362 9.81893E-03-2.58608E-03-4.89782E-14
 -1       363 1.01218E-02-2.72864E-03-5.23198E-14
 -1       364 1.04094E-02-2.86343E-03-5.55600E-14
 -1       365 1.06964E-02-2.99737E-03-5.88642E-14
 -1       366 1.09828E-02-3.13058E-03-6.22281E-14
 -1       367 1.12690E-02-3.26318E-03-6.56404E-14
 -1       368 1.15549E-02-3.39528E-03-6.90959E-14
 -1       369 1.18407E-02-3.52696E-03-7.25829E-14
 -1       370 1.21407E-02-3.66488E-03-7.62812E-14
 -1       371 1.24263E-02-3.79597E-03-7.98354E-14
 -1       372 1.27120E-02-3.92686E-03-8.34251E-14
 -1       373 1.29976E-02-4.05760E-03-8.70484E-14
 -1       374 1.32832E-02-4.18822E-03-9.06957E-14
 -1       375 1.35688E-02-4.31876E-03-9.43704E-14
 -1       376 1.38544E-02-4.44924E-03-9.80771E-14
 -1       377 1.41544E-02-4.58620E-03-1.02004E-13
 -1       378 1.44400E-02-4.71661E-03-1.05773E-13
 -1       379 1.47257E-02-4.84700E-03-1.09559E-13
 -1       380 1.50114E-02-4.97739E-03-1.13377E-13
 -1       381 1.52971E-02-5.10778E-03-1.17212E-13
 -1       382 1.55828E-02-5.23818E-03-1.21070E-13
 -1       383 1.33561E-03 4.55109E-04-1.05523E-15
 -1       384 1.63242E-03 5.13679E-04-1.64541E-15
 -1       385 1.92619E-03 5.65851E-04-2.37218E-15
 -1       386 2.21642E-03 6.12241E-04-3.23569E-15
 -1       387 2.50209E-03 6.50425E-04-4.23767E-15
 -1       388 2.78230E-03 6.75144E-04-5.37935E-15
 -1       389 3.05693E-03 6.79289E-04-6.66374E-15
 -1       390 3.32721E-03 6.55777E-04-8.08828E-15
 -1       391 3.59569E-03 5.99900E-04-9.65224E-15
 -1       392 3.86566E-03 5.11167E-04-1.13530E-14
 -1       393 4.14002E-03 3.93690E-04-1.31848E-14
 -1       394 4.42045E-03 2.54922E-04-1.51408E-14
 -1       395 4.70712E-03 1.03476E-04-1.72133E-14
 -1       396 4.99901E-03-5.28994E-05-1.93959E-14
 -1       397 5.29451E-03-2.08516E-04-2.16860E-14
 -1       398 5.59193E-03-3.60011E-04-2.40805E-14
 -1       399 5.88987E-03-5.05992E-04-2.65794E-14
 -1       400 6.18731E-03-6.46438E-04-2.91784E-14
 -1       401 6.48364E-03-7.82100E-04-3.18732E-14
 -1       402 6.77852E-03-9.14053E-04-3.46530E-14
 -1       403 7.07186E-03-1.04339E-03-3.75182E-14
 -1       404 7.36373E-03-1.17109E-03-4.04643E-14
 -1       405 7.65427E-03-1.29790E-03-4.34882E-14
 -1       406 7.94365E-03-1.42439E-03-4.65821E-14
 -1       407 8.23208E-03-1.55095E-03-4.97418E-14
 -1       408 8.51974E-03-1.67779E-03-5.29666E-14
 -1       409 8.80680E-03-1.80505E-03-5.62511E-14
 -1       410 9.09340E-03-1.93277E-03-5.95936E-14
 -1       411 9.37967E-03-2.06094E-03-6.29894E-14
 -1       412 9.66569E-03-2.18955E-03-6.64370E-14
 -1       413 9.95155E-03-2.31852E-03-6.99253E-14
 -1       414 1.02373E-02-2.44782E-03-7.34526E-14
 -1       415 1.05230E-02-2.57738E-03-7.70212E-14
 -1       416 1.08086E-02-2.70716E-03-8.06361E-14
 -1       417 1.10942E-02-2.83710E-03-8.43078E-14
 -1       418 1.13798E-02-2.96718E-03-8.80270E-14
 -1       419 1.16655E-02-3.09735E-03-9.17894E-14
 -1       420 1.19511E-02-3.22759E-03-9.56002E-14
 -1       421 1.22367E-02-3.35788E-03-9.94399E-14
 -1       422 1.25224E-02-3.48821E-03-1.03304E-13
 -1       423 1.28080E-02-3.61856E-03-1.07182E-13
 -1       424 1.30937E-02-3.74892E-03-1.11070E-13
 -1       425 1.33794E-02-3.87928E-03-1.14971E-13
 -1       426 1.36651E-02-4.00964E-03-1.18886E-13
 -1       427 1.38967E-02-4.11372E-03-1.22176E-13
 -1       428 1.42012E-02-4.31567E-03-1.22222E-13
 -1       429 1.40731E-02-4.23136E-03-1.22157E-13
 -1       430 1.43272E-02-4.39855E-03-1.22279E-13
 -1       431 1.44553E-02-4.48287E-03-1.22323E-13
 -1       432 1.45835E-02-4.56720E-03-1.22357E-13
 -1       433 1.47117E-02-4.65153E-03-1.22379E-13
 -1       434 1.48399E-02-4.73586E-03-1.22385E-13
 -1       435 1.49681E-02-4.82019E-03-1.22366E-13
 -1       436 1.50942E-02-4.90309E-03-1.22318E-13
 -1       437 1.52224E-02-4.98741E-03-1.22249E-13
 -1       438 1.53507E-02-5.07172E-03-1.22173E-13
 -1       439 1.54790E-02-5.15603E-03-1.22099E-13
 -1       440 1.10063E-03 4.12168E-04-6.62454E-16
 -1       441 6.05533E-03-7.19790E-04-1.51904E-14
 -1       442 5.27711E-03-3.47154E-04-1.35828E-14
 -1       443 6.49710E-03-8.77635E-04-1.56677E-14
 -1       444 5.64678E-03-5.27751E-04-1.42860E-14
 -1       445 4.33461E-04-8.65307E-05-2.23647E-16
 -1       446 4.72136E-03-4.77943E-05-1.23196E-14
 -1       447 4.40696E-03 1.26519E-04-1.13239E-14
 -1       448 4.04007E-03 2.67365E-04-1.01254E-14
 -1       449 3.68911E-03 3.00562E-04-8.98951E-15
 -1       450 3.33595E-03 2.28110E-04-7.94230E-15
 -1       451 3.00797E-03 9.82165E-05-7.11693E-15
 -1       452 2.52951E-03-1.17392E-04-6.25199E-15
 -1       453 2.19462E-03-2.54738E-04-5.83414E-15
 -1       454 1.91573E-03-3.63880E-04-5.34177E-15
 -1       455 1.74897E-03-4.31733E-04-5.16634E-15
 -1       456 1.73639E-03-4.72680E-04-4.97526E-15
 -1       457 1.95374E-03-5.83391E-04-5.24733E-15
 -1       458 2.23981E-03-7.21005E-04-5.53541E-15
 -1       459 2.63314E-03-9.19294E-04-5.89316E-15
 -1       460 3.12606E-03-1.21555E-03-6.47614E-15
 -1       461 3.55589E-03-1.51422E-03-7.24894E-15
 -1       462 3.95649E-03-1.75822E-03-8.14813E-15
 -1       463 4.34456E-03-1.88960E-03-9.21271E-15
 -1       464 4.70110E-03-1.84934E-03-1.03534E-14
 -1       465 5.03757E-03-1.70815E-03-1.13874E-14
 -1       466 5.39623E-03-1.50836E-03-1.24238E-14
 -1       467 5.73645E-03-1.31392E-03-1.33266E-14
 -1       468 6.11953E-03-1.10748E-03-1.45341E-14
 -1       469 6.33311E-03-1.01065E-03-1.50540E-14
 -1       470 6.49415E-03-9.31882E-04-1.53904E-14
 -1       471 6.36752E-03-8.23360E-04-1.54998E-14
 -1       472 4.95275E-03-2.15325E-04-1.33810E-14
 -1       473 3.99643E-03-1.76323E-03-7.67915E-15
 -1       474 1.55309E-02-5.19711E-03-1.21582E-13
 -1       475 1.80064E-03-4.76424E-04-4.70504E-15
 -1       476 2.75804E-03-7.40386E-06-6.36738E-15
 -1       477 5.96395E-04-8.23330E-05-5.17622E-16
 -1       478 6.08096E-04-9.89029E-05-5.07817E-16
 -1       479 6.12676E-04-4.10319E-05-5.20353E-16
 -1       480 6.31644E-04-1.00590E-05-5.14376E-16
 -1       481 6.51897E-04 2.79286E-05-5.03785E-16
 -1       482 6.71956E-04 7.34922E-05-4.87054E-16
 -1       483 6.91391E-04 1.25340E-04-4.62531E-16
 -1       484 7.12310E-04 1.83639E-04-4.27067E-16
 -1       485 7.39774E-04 2.50113E-04-3.75666E-16
 -1       486 7.98328E-04 3.02441E-04-3.73657E-16
 -1       487 5.44417E-03-1.48974E-03-1.31886E-14
 -1       488 1.00908E-03-2.54100E-04-7.89936E-16
 -1       489 5.80781E-03-6.81786E-04-1.58907E-14
 -1       490 1.30186E-03-3.10258E-04-1.29355E-15
 -1       491 1.60886E-03-3.72331E-04-1.95362E-15
 -1       492 1.90489E-03-4.48490E-04-2.70560E-15
 -1       493 2.21481E-03-5.60757E-04-3.57633E-15
 -1       494 2.55648E-03-7.37392E-04-4.56603E-15
 -1       495 3.02483E-03-1.05296E-03-5.66656E-15
 -1       496 5.90969E-03-1.27075E-03-1.53249E-14
 -1       497 6.28047E-03-1.19497E-03-1.75170E-14
 -1       498 6.61132E-03-1.20411E-03-1.98077E-14
 -1       499 6.92070E-03-1.26806E-03-2.21904E-14
 -1       500 7.22089E-03-1.36596E-03-2.46622E-14
 -1       501 7.51736E-03-1.48424E-03-2.72210E-14
 -1       502 7.82688E-03-1.62078E-03-3.00017E-14
 -1       503 8.12049E-03-1.75689E-03-3.27309E-14
 -1       504 8.41303E-03-1.89559E-03-3.55375E-14
 -1       505 8.70448E-03-2.03503E-03-3.84138E-14
 -1       506 8.99485E-03-2.17416E-03-4.13585E-14
 -1       507 9.28425E-03-2.31250E-03-4.43716E-14
 -1       508 9.57279E-03-2.44983E-03-4.74528E-14
 -1       509 9.87500E-03-2.59289E-03-5.07598E-14
 -1       510 1.01622E-02-2.72812E-03-5.39687E-14
 -1       511 1.04490E-02-2.86245E-03-5.72374E-14
 -1       512 1.07355E-02-2.99600E-03-6.05685E-14
 -1       513 1.10217E-02-3.12888E-03-6.39542E-14
 -1       514 1.13077E-02-3.26121E-03-6.73853E-14
 -1       515 1.15936E-02-3.39308E-03-7.08491E-14
 -1       516 1.18937E-02-3.53115E-03-7.45235E-14
 -1       517 1.21794E-02-3.66235E-03-7.80597E-14
 -1       518 1.24651E-02-3.79332E-03-8.16296E-14
 -1       519 1.27508E-02-3.92412E-03-8.52385E-14
 -1       520 1.30365E-02-4.05479E-03-8.88766E-14
 -1       521 1.33221E-02-4.18536E-03-9.25444E-14
 -1       522 1.36078E-02-4.31586E-03-9.62429E-14
 -1       523 1.39077E-02-4.45284E-03-1.00163E-13
 -1       524 1.41934E-02-4.58326E-03-1.03926E-13
 -1       525 1.44791E-02-4.71365E-03-1.07704E-13
 -1       526 1.47648E-02-4.84404E-03-1.11506E-13
 -1       527 1.50505E-02-4.97443E-03-1.15336E-13
 -1       528 1.52907E-02-5.08577E-03-1.18452E-13
 -1       529 2.05474E-03 5.10384E-04-2.92422E-15
 -1       530 1.75304E-03 4.60883E-04-2.11764E-15
 -1       531 1.45073E-03 4.07137E-04-1.44480E-15
 -1       532 2.35458E-03 5.54936E-04-3.86652E-15
 -1       533 2.65085E-03 5.90585E-04-4.94505E-15
 -1       534 2.94204E-03 6.10271E-04-6.16385E-15
 -1       535 3.22783E-03 6.05244E-04-7.52235E-15
 -1       536 3.50983E-03 5.67774E-04-9.02222E-15
 -1       537 3.79127E-03 4.94259E-04-1.06588E-14
 -1       538 4.07567E-03 3.86947E-04-1.24311E-14
 -1       539 4.36531E-03 2.53220E-04-1.43300E-14
 -1       540 4.66046E-03 1.02905E-04-1.63482E-14
 -1       541 4.95974E-03-5.46487E-05-1.84791E-14
 -1       542 5.26109E-03-2.12418E-04-2.07175E-14
 -1       543 5.56261E-03-3.66191E-04-2.30645E-14
 -1       544 5.86295E-03-5.14149E-04-2.55136E-14
 -1       545 6.16143E-03-6.56114E-04-2.80640E-14
 -1       546 6.45780E-03-7.92828E-04-3.07116E-14
 -1       547 6.75215E-03-9.25420E-04-3.34491E-14
 -1       548 7.04468E-03-1.05507E-03-3.62707E-14
 -1       549 7.33569E-03-1.18282E-03-3.91748E-14
 -1       550 7.62544E-03-1.30953E-03-4.21575E-14
 -1       551 7.91417E-03-1.43580E-03-4.52128E-14
 -1       552 8.20212E-03-1.56207E-03-4.83385E-14
 -1       553 8.48945E-03-1.68861E-03-5.15295E-14
 -1       554 8.77630E-03-1.81557E-03-5.47810E-14
 -1       555 9.06281E-03-1.94302E-03-5.80896E-14
 -1       556 9.34904E-03-2.07095E-03-6.14555E-14
 -1       557 9.63509E-03-2.19934E-03-6.48739E-14
 -1       558 9.92100E-03-2.32814E-03-6.83374E-14
 -1       559 1.02068E-02-2.45730E-03-7.18384E-14
 -1       560 1.04926E-02-2.58674E-03-7.53806E-14
 -1       561 1.07783E-02-2.71643E-03-7.89653E-14
 -1       562 1.10640E-02-2.84630E-03-8.26011E-14
 -1       563 1.13496E-02-2.97632E-03-8.62926E-14
 -1       564 1.16353E-02-3.10645E-03-9.00276E-14
 -1       565 1.19210E-02-3.23667E-03-9.38091E-14
 -1       566 1.22067E-02-3.36695E-03-9.76223E-14
 -1       567 1.24923E-02-3.49726E-03-1.01464E-13
 -1       568 1.27780E-02-3.62761E-03-1.05323E-13
 -1       569 1.30637E-02-3.75796E-03-1.09198E-13
 -1       570 1.33494E-02-3.88833E-03-1.13087E-13
 -1       571 1.36351E-02-4.01869E-03-1.16987E-13
 -1       572 1.41438E-02-4.32782E-03-1.18909E-13
 -1       573 1.40178E-02-4.24493E-03-1.18857E-13
 -1       574 1.38897E-02-4.16063E-03-1.18794E-13
 -1       575 6.25938E-03-8.40557E-04-1.65623E-14
 -1       576 1.42720E-02-4.41214E-03-1.18946E-13
 -1       577 1.44001E-02-4.49646E-03-1.18972E-13
 -1       578 1.45283E-02-4.58079E-03-1.18986E-13
 -1       579 1.46565E-02-4.66511E-03-1.18980E-13
 -1       580 1.47826E-02-4.74801E-03-1.18951E-13
 -1       581 1.49109E-02-4.83233E-03-1.18894E-13
 -1       582 1.50391E-02-4.91664E-03-1.18834E-13
 -1       583 1.51674E-02-5.00095E-03-1.18772E-13
 -1       584 7.31200E-04-1.87223E-04-4.48436E-16
 -1       585 6.55502E-03-9.32144E-04-1.67708E-14
 -1       586 5.91406E-03-1.21532E-03-1.46205E-14
 -1       587 3.50539E-03 2.96766E-04-8.33964E-15
 -1       588 5.49917E-03-5.36302E-04-1.51428E-14
 -1       589 5.99319E-04-6.44513E-05-5.21494E-16
 -1       590 3.83771E-03 3.13087E-04-9.57111E-15
 -1       591 4.48954E-03 4.90319E-05-1.21379E-14
 -1       592 2.30436E-03-2.07020E-04-5.51537E-15
 -1       593 4.16822E-03 2.18574E-04-1.08832E-14
 -1       594 3.16668E-03 1.89123E-04-7.25720E-15
 -1       595 2.02001E-03-3.09876E-04-5.04064E-15
 -1       596 1.76969E-03-3.85908E-04-4.68085E-15
 -1       597 1.68589E-03-4.14052E-04-4.49657E-15
 -1       598 2.10545E-03-5.79725E-04-4.86908E-15
 -1       599 2.42553E-03-7.27114E-04-5.18765E-15
 -1       600 5.67822E-03-1.34538E-03-1.38976E-14
 -1       601 6.28713E-03-1.05237E-03-1.59949E-14
 -1       602 6.48927E-03-9.66818E-04-1.64230E-14
 -1       603 6.46237E-03-8.91480E-04-1.66463E-14
 -1       604 6.36320E-04-1.20183E-04-4.90280E-16
 -1       605 1.03682E-03 3.55746E-04-6.71633E-16
 -1       606 4.71398E-03-9.57891E-05-1.31805E-14
 -1       607 4.91576E-03-1.78110E-03-1.11530E-14
 -1       608 3.65140E-03-1.53587E-03-7.07432E-15
 -1       609 1.24318E-03 3.84667E-04-1.02192E-15
 -1       610 5.22217E-03-4.02022E-04-1.49109E-14
 -1       611 1.68395E-03-4.11763E-04-4.23399E-15
 -1       612 2.92032E-03 1.03957E-04-6.49228E-15
 -1       613 2.49961E-03-9.64526E-05-5.61196E-15
 -1       614 8.71082E-04 1.10169E-05-8.74409E-16
 -1       615 8.40332E-04-3.74260E-05-8.86745E-16
 -1       616 9.27858E-04 1.31650E-04-8.24444E-16
 -1       617 9.54034E-04 2.01300E-04-7.81513E-16
 -1       618 9.77532E-04 3.01394E-04-6.69641E-16
 -1       619 3.95288E-03 2.93629E-04-1.02776E-14
 -1       620 1.33822E-03-2.85693E-04-1.67918E-15
 -1       621 1.59323E-03-3.43992E-04-2.37793E-15
 -1       622 1.84303E-03-4.18207E-04-3.19118E-15
 -1       623 6.43218E-03-9.12792E-04-1.78088E-14
 -1       624 6.14497E-03-1.15366E-03-1.61428E-14
 -1       625 6.53714E-03-1.10951E-03-1.87211E-14
 -1       626 6.80749E-03-1.16743E-03-2.10556E-14
 -1       627 7.07444E-03-1.25786E-03-2.34778E-14
 -1       628 7.34450E-03-1.36908E-03-2.59868E-14
 -1       629 7.63318E-03-1.49965E-03-2.87177E-14
 -1       630 7.91240E-03-1.63172E-03-3.14031E-14
 -1       631 8.19468E-03-1.76780E-03-3.41680E-14
 -1       632 8.47894E-03-1.90569E-03-3.70063E-14
 -1       633 8.76439E-03-2.04403E-03-3.99141E-14
 -1       634 9.05044E-03-2.18204E-03-4.28885E-14
 -1       635 9.33676E-03-2.31934E-03-4.59343E-14
 -1       636 9.63745E-03-2.46254E-03-4.92023E-14
 -1       637 9.92377E-03-2.59799E-03-5.23815E-14
 -1       638 1.02100E-02-2.73256E-03-5.56187E-14
 -1       639 1.04961E-02-2.86634E-03-5.89166E-14
 -1       640 1.07821E-02-2.99944E-03-6.22700E-14
 -1       641 1.10681E-02-3.13195E-03-6.56774E-14
 -1       642 1.13539E-02-3.26398E-03-6.91207E-14
 -1       643 1.16540E-02-3.40218E-03-7.27755E-14
 -1       644 1.19398E-02-3.53349E-03-7.62908E-14
 -1       645 1.22255E-02-3.66454E-03-7.98425E-14
 -1       646 1.25113E-02-3.79541E-03-8.34302E-14
 -1       647 1.27970E-02-3.92613E-03-8.70562E-14
 -1       648 1.30827E-02-4.05674E-03-9.07117E-14
 -1       649 1.33684E-02-4.18726E-03-9.44025E-14
 -1       650 1.36684E-02-4.32426E-03-9.83125E-14
 -1       651 1.39541E-02-4.45468E-03-1.02071E-13
 -1       652 1.42398E-02-4.58509E-03-1.05844E-13
 -1       653 1.45255E-02-4.71548E-03-1.09636E-13
 -1       654 1.48112E-02-4.84587E-03-1.13455E-13
 -1       655 1.88501E-03 4.02205E-04-2.61041E-15
 -1       656 2.19640E-03 4.49603E-04-3.49374E-15
 -1       657 1.57567E-03 3.53240E-04-1.85993E-15
 -1       658 2.81511E-03 5.28340E-04-5.66459E-15
 -1       659 3.11676E-03 5.43852E-04-6.95693E-15
 -1       660 3.41217E-03 5.28669E-04-8.38925E-15
 -1       661 3.70422E-03 4.74238E-04-9.96276E-15
 -1       662 3.99767E-03 3.79246E-04-1.16739E-14
 -1       663 4.29641E-03 2.50678E-04-1.35157E-14
 -1       664 4.60136E-03 1.00401E-04-1.54795E-14
 -1       665 4.91063E-03-5.95009E-05-1.75610E-14
 -1       666 5.22106E-03-2.19967E-04-1.97525E-14
 -1       667 5.52983E-03-3.75839E-04-2.20522E-14
 -1       668 5.83523E-03-5.25099E-04-2.44535E-14
 -1       669 6.13666E-03-6.67718E-04-2.69552E-14
 -1       670 6.43430E-03-8.04664E-04-2.95558E-14
 -1       671 6.72873E-03-9.37244E-04-3.22488E-14
 -1       672 7.02063E-03-1.06675E-03-3.50293E-14
 -1       673 7.31064E-03-1.19430E-03-3.78899E-14
 -1       674 7.59929E-03-1.32076E-03-4.08327E-14
 -1       675 7.88699E-03-1.44678E-03-4.38494E-14
 -1       676 8.17403E-03-1.57280E-03-4.69388E-14
 -1       677 8.46063E-03-1.69910E-03-5.00948E-14
 -1       678 8.74693E-03-1.82583E-03-5.33147E-14
 -1       679 9.03304E-03-1.95307E-03-5.65908E-14
 -1       680 9.31901E-03-2.08081E-03-5.99257E-14
 -1       681 9.60489E-03-2.20904E-03-6.33163E-14
 -1       682 9.89071E-03-2.33770E-03-6.67510E-14
 -1       683 1.01765E-02-2.46674E-03-7.02246E-14
 -1       684 1.04622E-02-2.59609E-03-7.37441E-14
 -1       685 1.07480E-02-2.72570E-03-7.73014E-14
 -1       686 1.10337E-02-2.85551E-03-8.09037E-14
 -1       687 1.13194E-02-2.98548E-03-8.45615E-14
 -1       688 1.16051E-02-3.11558E-03-8.82697E-14
 -1       689 1.18908E-02-3.24577E-03-9.20225E-14
 -1       690 1.21765E-02-3.37602E-03-9.58139E-14
 -1       691 1.24622E-02-3.50633E-03-9.96343E-14
 -1       692 1.27480E-02-3.63666E-03-1.03476E-13
 -1       693 1.30337E-02-3.76702E-03-1.07338E-13
 -1       694 1.33194E-02-3.89738E-03-1.11209E-13
 -1       695 1.36045E-02-4.02901E-03-1.14995E-13
 -1       696 1.38334E-02-4.17348E-03-1.15508E-13
 -1       697 1.40886E-02-4.34140E-03-1.15585E-13
 -1       698 1.37190E-02-4.10124E-03-1.15254E-13
 -1       699 2.50747E-03 4.93628E-04-4.51101E-15
 -1       700 1.39610E-02-4.25743E-03-1.15553E-13
 -1       701 1.43450E-02-4.51004E-03-1.15613E-13
 -1       702 1.44710E-02-4.59294E-03-1.15601E-13
 -1       703 1.45993E-02-4.67726E-03-1.15562E-13
 -1       704 1.47275E-02-4.76157E-03-1.15511E-13
 -1       705 1.48558E-02-4.84588E-03-1.15457E-13
 -1       706 8.53113E-04-1.86294E-04-7.17955E-16
 -1       707 6.58247E-03-9.50335E-04-1.79457E-14
 -1       708 3.66518E-03 3.37330E-04-8.99579E-15
 -1       709 2.19720E-03-5.65635E-04-4.21359E-15
 -1       710 1.42168E-02-4.42572E-03-1.15606E-13
 -1       711 5.67141E-03-6.41069E-04-1.67439E-14
 -1       712 1.09686E-03-2.36062E-04-1.14947E-15
 -1       713 6.09698E-03-8.15538E-04-1.74467E-14
 -1       714 9.00729E-04 6.79175E-05-8.54399E-16
 -1       715 2.11700E-03-2.30152E-04-4.80197E-15
 -1       716 8.00446E-04-1.26775E-04-8.77943E-16
 -1       717 1.88567E-03-4.56152E-04-4.07872E-15
 -1       718 3.30677E-03 2.81211E-04-7.59309E-15
 -1       719 1.64393E-03-3.56616E-04-3.94623E-15
 -1       720 1.80560E-03-3.22828E-04-4.27212E-15
 -1       721 6.51164E-03-1.02643E-03-1.76827E-14
 -1       722 6.60555E-03-9.88544E-04-1.80440E-14
 -1       723 4.27967E-03 1.54878E-04-1.16919E-14
 -1       724 8.13379E-04-7.57572E-05-8.91617E-16
 -1       725 4.48766E-03 3.63095E-05-1.27076E-14
 -1       726 8.27495E-04-1.49538E-04-8.57435E-16
 -1       727 1.26983E-03 3.01725E-04-1.23895E-15
 -1       728 1.59384E-03-3.55475E-04-3.69921E-15
 -1       729 2.65842E-03 2.11480E-05-5.72051E-15
 -1       730 3.07852E-03 2.21522E-04-6.80104E-15
 -1       731 7.97554E-04-1.04333E-04-8.88700E-16
 -1       732 1.19811E-03 2.03494E-04-1.24060E-15
 -1       733 3.43839E-03 3.52039E-04-8.12118E-15
 -1       734 6.00280E-03-7.86331E-04-1.85179E-14
 -1       735 1.08768E-03-2.05254E-05-1.34054E-15
 -1       736 1.35584E-03-2.74403E-04-2.07367E-15
 -1       737 3.75656E-03 3.48003E-04-9.56199E-15
 -1       738 1.56792E-03-3.33299E-04-2.83716E-15
 -1       739 1.39546E-03 2.48471E-04-1.60181E-15
 -1       740 1.62372E-03-2.94226E-04-3.52058E-15
 -1       741 1.87255E-03-2.39150E-04-4.00697E-15
 -1       742 6.95026E-03-1.16018E-03-2.23112E-14
 -1       743 7.18707E-03-1.26353E-03-2.47724E-14
 -1       744 7.44989E-03-1.38581E-03-2.74509E-14
 -1       745 7.71100E-03-1.51134E-03-3.00888E-14
 -1       746 7.97997E-03-1.64252E-03-3.28091E-14
 -1       747 8.25457E-03-1.77696E-03-3.56075E-14
 -1       748 8.53305E-03-1.91301E-03-3.84781E-14
 -1       749 8.81416E-03-2.04959E-03-4.14180E-14
 -1       750 9.09699E-03-2.18604E-03-4.44241E-14
 -1       751 9.39516E-03-2.32877E-03-4.76577E-14
 -1       752 9.67985E-03-2.46401E-03-5.08006E-14
 -1       753 9.96496E-03-2.59852E-03-5.40085E-14
 -1       754 1.02503E-02-2.73233E-03-5.72737E-14
 -1       755 1.05359E-02-2.86549E-03-6.05948E-14
 -1       756 1.08215E-02-2.99809E-03-6.39726E-14
 -1       757 1.11072E-02-3.13021E-03-6.73955E-14
 -1       758 1.14072E-02-3.26850E-03-7.10296E-14
 -1       759 1.16930E-02-3.39988E-03-7.45287E-14
 -1       760 1.19787E-02-3.53100E-03-7.80586E-14
 -1       761 1.22645E-02-3.66191E-03-8.16296E-14
 -1       762 1.25502E-02-3.79267E-03-8.52374E-14
 -1       763 1.28359E-02-3.92331E-03-8.88805E-14
 -1       764 1.31217E-02-4.05386E-03-9.25572E-14
 -1       765 1.34217E-02-4.19087E-03-9.64562E-14
 -1       766 1.37074E-02-4.32132E-03-1.00208E-13
 -1       767 1.39932E-02-4.45173E-03-1.03984E-13
 -1       768 1.42789E-02-4.58212E-03-1.07773E-13
 -1       769 1.45646E-02-4.71251E-03-1.11578E-13
 -1       770 2.02483E-03 3.36586E-04-3.12293E-15
 -1       771 1.70667E-03 2.91896E-04-2.29825E-15
 -1       772 3.30293E-03 4.79185E-04-7.75798E-15
 -1       773 2.99145E-03 4.67069E-04-6.39370E-15
 -1       774 3.90965E-03 3.72904E-04-1.09113E-14
 -1       775 4.21724E-03 2.50522E-04-1.26953E-14
 -1       776 4.53279E-03 9.82121E-05-1.46063E-14
 -1       777 4.85412E-03-6.68963E-05-1.66382E-14
 -1       778 5.17639E-03-2.32033E-04-1.87850E-14
 -1       779 5.49510E-03-3.90582E-04-2.10382E-14
 -1       780 5.80772E-03-5.40634E-04-2.33934E-14
 -1       781 6.11361E-03-6.82831E-04-2.58501E-14
 -1       782 6.41342E-03-8.18808E-04-2.84028E-14
 -1       783 6.70835E-03-9.50317E-04-3.10518E-14
 -1       784 6.99968E-03-1.07888E-03-3.37912E-14
 -1       785 7.28853E-03-1.20567E-03-3.66107E-14
 -1       786 7.57578E-03-1.33157E-03-3.95108E-14
 -1       787 7.86208E-03-1.45719E-03-4.24910E-14
 -1       788 8.14784E-03-1.58293E-03-4.55426E-14
 -1       789 8.43335E-03-1.70902E-03-4.86648E-14
 -1       790 8.71878E-03-1.83560E-03-5.18496E-14
 -1       791 9.00420E-03-1.96271E-03-5.50949E-14
 -1       792 9.28967E-03-2.09036E-03-5.83985E-14
 -1       793 9.57519E-03-2.21850E-03-6.17595E-14
 -1       794 9.86077E-03-2.34709E-03-6.51702E-14
 -1       795 1.01464E-02-2.47607E-03-6.86176E-14
 -1       796 1.04321E-02-2.60536E-03-7.21096E-14
 -1       797 1.07178E-02-2.73492E-03-7.56429E-14
 -1       798 1.10035E-02-2.86469E-03-7.92157E-14
 -1       799 1.12892E-02-2.99463E-03-8.28397E-14
 -1       800 1.15749E-02-3.12470E-03-8.65187E-14
 -1       801 1.18607E-02-3.25487E-03-9.02429E-14
 -1       802 1.21464E-02-3.38511E-03-9.40057E-14
 -1       803 1.24321E-02-3.51540E-03-9.78094E-14
 -1       804 1.27179E-02-3.64572E-03-1.01636E-13
 -1       805 1.30036E-02-3.77607E-03-1.05480E-13
 -1       806 1.32893E-02-3.90644E-03-1.09341E-13
 -1       807 1.35041E-02-4.00384E-03-1.12291E-13
 -1       808 1.42877E-02-4.52219E-03-1.12242E-13
 -1       809 4.10661E-03 2.39389E-04-1.12290E-14
 -1       810 6.60415E-03-9.80574E-04-1.94248E-14
 -1       811 1.44160E-02-4.60651E-03-1.12209E-13
 -1       812 1.41616E-02-4.43930E-03-1.12256E-13
 -1       813 1.39052E-02-4.27065E-03-1.12243E-13
 -1       814 4.94856E-03-2.42755E-04-1.47602E-14
 -1       815 3.60720E-03 4.50622E-04-9.26359E-15
 -1       816 5.37648E-03-4.84915E-04-1.65760E-14
 -1       817 1.71514E-03-4.09480E-04-4.02261E-15
 -1       818 2.27858E-03-1.10909E-04-4.80502E-15
 -1       819 1.40334E-02-4.35498E-03-1.12259E-13
 -1       820 6.66325E-03-1.04362E-03-1.91312E-14
 -1       821 6.70581E-03-1.01470E-03-1.95394E-14
 -1       822 6.35923E-03-9.14042E-04-1.90507E-14
 -1       823 1.58130E-03-3.51801E-04-3.50140E-15
 -1       824 1.65392E-03-3.68847E-04-3.40879E-15
 -1       825 3.23080E-03 3.23613E-04-7.29270E-15
 -1       826 1.04434E-03-7.78315E-05-1.35140E-15
 -1       827 4.29735E-03 1.48116E-04-1.22176E-14
 -1       828 1.53852E-03-3.02318E-04-3.29015E-15
 -1       829 1.00852E-03-1.78367E-04-1.32126E-15
 -1       830 1.99893E-03-1.42304E-04-4.00227E-15
 -1       831 1.36497E-02-4.10255E-03-1.12168E-13
 -1       832 2.34794E-03 3.83740E-04-4.07964E-15
 -1       833 2.67187E-03 4.30259E-04-5.16877E-15
 -1       834 1.16641E-03 1.23282E-04-1.28739E-15
 -1       835 2.82914E-03 1.50570E-04-6.00225E-15
 -1       836 1.12974E-03 4.75982E-05-1.31943E-15
 -1       837 1.14478E-03-2.25583E-04-1.48054E-15
 -1       838 5.72744E-03-6.55250E-04-1.83358E-14
 -1       839 9.92989E-04-1.53308E-04-1.34232E-15
 -1       840 1.37773E-02-4.18651E-03-1.12213E-13
 -1       841 5.12418E-03-3.24711E-04-1.62406E-14
 -1       842 1.62893E-03-2.15923E-04-3.18463E-15
 -1       843 3.52929E-03 4.00957E-04-8.65474E-15
 -1       844 7.26089E-03-1.27837E-03-2.61332E-14
 -1       845 7.50279E-03-1.39438E-03-2.87201E-14
 -1       846 7.75728E-03-1.51794E-03-3.13927E-14
 -1       847 8.02094E-03-1.64659E-03-3.41449E-14
 -1       848 8.29122E-03-1.77844E-03-3.69760E-14
 -1       849 8.56622E-03-1.91208E-03-3.98772E-14
 -1       850 8.84456E-03-2.04653E-03-4.28470E-14
 -1       851 9.13931E-03-2.18789E-03-4.60402E-14
 -1       852 9.42166E-03-2.32230E-03-4.91488E-14
 -1       853 9.70512E-03-2.45629E-03-5.23219E-14
 -1       854 9.98935E-03-2.58979E-03-5.55551E-14
 -1       855 1.02741E-02-2.72278E-03-5.88441E-14
 -1       856 1.05592E-02-2.85529E-03-6.21894E-14
 -1       857 1.08445E-02-2.98737E-03-6.55881E-14
 -1       858 1.11443E-02-3.12566E-03-6.92001E-14
 -1       859 1.14299E-02-3.25704E-03-7.26790E-14
 -1       860 1.17156E-02-3.38818E-03-7.61943E-14
 -1       861 1.20013E-02-3.51912E-03-7.97433E-14
 -1       862 1.22871E-02-3.64990E-03-8.33317E-14
 -1       863 1.25728E-02-3.78055E-03-8.69569E-14
 -1       864 1.28586E-02-3.91112E-03-9.06189E-14
 -1       865 1.31586E-02-4.04815E-03-9.45007E-14
 -1       866 1.34444E-02-4.17860E-03-9.82426E-14
 -1       867 1.37301E-02-4.30902E-03-1.02020E-13
 -1       868 1.40159E-02-4.43942E-03-1.05812E-13
 -1       869 1.42159E-02-4.52297E-03-1.09003E-13
 -1       870 3.17719E-03 4.11439E-04-7.12951E-15
 -1       871 4.45762E-03 1.00455E-04-1.37265E-14
 -1       872 4.13025E-03 2.57011E-04-1.18699E-14
 -1       873 5.13057E-03-2.48793E-04-1.78100E-14
 -1       874 5.46174E-03-4.11653E-04-2.00209E-14
 -1       875 5.78323E-03-5.62321E-04-2.23324E-14
 -1       876 6.09438E-03-7.02886E-04-2.47439E-14
 -1       877 6.39654E-03-8.36370E-04-2.72527E-14
 -1       878 6.69181E-03-9.65394E-04-2.98569E-14
 -1       879 6.98222E-03-1.09188E-03-3.25546E-14
 -1       880 7.26950E-03-1.21713E-03-3.53355E-14
 -1       881 7.55492E-03-1.34198E-03-3.81955E-14
 -1       882 7.83939E-03-1.46693E-03-4.11357E-14
 -1       883 8.12349E-03-1.59228E-03-4.41515E-14
 -1       884 8.40757E-03-1.71818E-03-4.72370E-14
 -1       885 8.69181E-03-1.84467E-03-5.03887E-14
 -1       886 8.97629E-03-1.97176E-03-5.36014E-14
 -1       887 9.26104E-03-2.09941E-03-5.68740E-14
 -1       888 9.54603E-03-2.22758E-03-6.02044E-14
 -1       889 9.83123E-03-2.35619E-03-6.35860E-14
 -1       890 1.01166E-02-2.48517E-03-6.70128E-14
 -1       891 1.04021E-02-2.61447E-03-7.04781E-14
 -1       892 1.06877E-02-2.74404E-03-7.39871E-14
 -1       893 1.09733E-02-2.87381E-03-7.75359E-14
 -1       894 1.12590E-02-3.00374E-03-8.11265E-14
 -1       895 1.15448E-02-3.13380E-03-8.47704E-14
 -1       896 1.18305E-02-3.26396E-03-8.84685E-14
 -1       897 1.21163E-02-3.39419E-03-9.22050E-14
 -1       898 1.24020E-02-3.52447E-03-9.59817E-14
 -1       899 1.26878E-02-3.65479E-03-9.97913E-14
 -1       900 1.29735E-02-3.78514E-03-1.03623E-13
 -1       901 1.32593E-02-3.91550E-03-1.07468E-13
 -1       902 3.91376E-03 3.25961E-04-1.05392E-14
 -1       903 1.49497E-03-3.14386E-04-2.92694E-15
 -1       904 1.35938E-02-4.11568E-03-1.08886E-13
 -1       905 1.40876E-02-4.43865E-03-1.09032E-13
 -1       906 1.39615E-02-4.35576E-03-1.09044E-13
 -1       907 4.70172E-03-8.29171E-05-1.41596E-14
 -1       908 6.78360E-03-1.05455E-03-2.12078E-14
 -1       909 6.60522E-03-1.00029E-03-2.08225E-14
 -1       910 4.79357E-03-7.48754E-05-1.57088E-14
 -1       911 1.49385E-03-3.10502E-04-3.10969E-15
 -1       912 1.36261E-03 1.59088E-04-1.65897E-15
 -1       913 1.00868E-03-1.21733E-04-1.35198E-15
 -1       914 7.03622E-03-1.17245E-03-2.36319E-14
 -1       915 6.32405E-03-9.08804E-04-2.04300E-14
 -1       916 1.30533E-03-2.55380E-04-2.15174E-15
 -1       917 2.43586E-03 2.35862E-05-4.91320E-15
 -1       918 1.34662E-02-4.03172E-03-1.08846E-13
 -1       919 6.85746E-03-1.08842E-03-2.15540E-14
 -1       920 1.29896E-03-6.61494E-05-1.89741E-15
 -1       921 1.71737E-03-1.42536E-04-3.17531E-15
 -1       922 2.16792E-03 2.63470E-04-3.65342E-15
 -1       923 1.37220E-02-4.20000E-03-1.08916E-13
 -1       924 2.84428E-03 3.68287E-04-5.83544E-15
 -1       925 4.20882E-03 2.04148E-04-1.20506E-14
 -1       926 6.08182E-03-8.07385E-04-2.02390E-14
 -1       927 1.52224E-03-2.38114E-04-2.97031E-15
 -1       928 1.35770E-03 1.30539E-05-1.87901E-15
 -1       929 1.83883E-03 2.21123E-04-2.75848E-15
 -1       930 5.46900E-03-5.06388E-04-1.79820E-14
 -1       931 3.00107E-03 2.74683E-04-6.45564E-15
 -1       932 2.14229E-03-2.65449E-05-4.09492E-15
 -1       933 1.38417E-02-4.27788E-03-1.08987E-13
 -1       934 1.18405E-03-2.09663E-04-1.87715E-15
 -1       935 1.19439E-03-1.78194E-04-1.89671E-15
 -1       936 7.53907E-03-1.40536E-03-3.00498E-14
 -1       937 7.79408E-03-1.52678E-03-3.27583E-14
 -1       938 8.05739E-03-1.65307E-03-3.55471E-14
 -1       939 8.32684E-03-1.78256E-03-3.84123E-14
 -1       940 8.60084E-03-1.91399E-03-4.13474E-14
 -1       941 8.89210E-03-2.05309E-03-4.45045E-14
 -1       942 9.17196E-03-2.18600E-03-4.75777E-14
 -1       943 9.45355E-03-2.31895E-03-5.07162E-14
 -1       944 9.73639E-03-2.45173E-03-5.39172E-14
 -1       945 1.00201E-02-2.58423E-03-5.71802E-14
 -1       946 1.03045E-02-2.71640E-03-6.04962E-14
 -1       947 1.05894E-02-2.84826E-03-6.38678E-14
 -1       948 1.08888E-02-2.98640E-03-6.74572E-14
 -1       949 1.11742E-02-3.11770E-03-7.09161E-14
 -1       950 1.14598E-02-3.24878E-03-7.44155E-14
 -1       951 1.17454E-02-3.37968E-03-7.79477E-14
 -1       952 1.20311E-02-3.51044E-03-8.15152E-14
 -1       953 1.23169E-02-3.64110E-03-8.51237E-14
 -1       954 1.26026E-02-3.77166E-03-8.87677E-14
 -1       955 1.29027E-02-3.90869E-03-9.26368E-14
 -1       956 1.31885E-02-4.03915E-03-9.63664E-14
 -1       957 1.34742E-02-4.16957E-03-1.00132E-13
 -1       958 1.37600E-02-4.29998E-03-1.03928E-13
 -1       959 1.39238E-02-4.36932E-03-1.06476E-13
 -1       960 5.76686E-03-5.91433E-04-2.12686E-14
 -1       961 5.43534E-03-4.40124E-04-1.89979E-14
 -1       962 6.38629E-03-8.58160E-04-2.61023E-14
 -1       963 6.68074E-03-9.82959E-04-2.86638E-14
 -1       964 6.96916E-03-1.10600E-03-3.13187E-14
 -1       965 7.25395E-03-1.22874E-03-3.40607E-14
 -1       966 7.53681E-03-1.35191E-03-3.68838E-14
 -1       967 7.81887E-03-1.47585E-03-3.97825E-14
 -1       968 8.10085E-03-1.60067E-03-4.27630E-14
 -1       969 8.38313E-03-1.72635E-03-4.58153E-14
 -1       970 8.66590E-03-1.85283E-03-4.89309E-14
 -1       971 8.94922E-03-1.98001E-03-5.21102E-14
 -1       972 9.23306E-03-2.10780E-03-5.53515E-14
 -1       973 9.51737E-03-2.23611E-03-5.86500E-14
 -1       974 9.80206E-03-2.36485E-03-6.20038E-14
 -1       975 1.00871E-02-2.49395E-03-6.54039E-14
 -1       976 1.03723E-02-2.62335E-03-6.88496E-14
 -1       977 1.06578E-02-2.75298E-03-7.23333E-14
 -1       978 1.09433E-02-2.88280E-03-7.58564E-14
 -1       979 1.12290E-02-3.01277E-03-7.94239E-14
 -1       980 1.15147E-02-3.14285E-03-8.30345E-14
 -1       981 1.18004E-02-3.27302E-03-8.66969E-14
 -1       982 1.20862E-02-3.40326E-03-9.04074E-14
 -1       983 1.23719E-02-3.53355E-03-9.41588E-14
 -1       984 1.26577E-02-3.66387E-03-9.79451E-14
 -1       985 1.29435E-02-3.79421E-03-1.01761E-13
 -1       986 1.32048E-02-3.91296E-03-1.05295E-13
 -1       987 1.37977E-02-4.28643E-03-1.06487E-13
 -1       988 6.83819E-03-1.08956E-03-2.28877E-14
 -1       989 1.36455E-03 8.61683E-05-1.77270E-15
 -1       990 1.23912E-03-1.31416E-04-1.90329E-15
 -1       991 6.08273E-03-7.29029E-04-2.36368E-14
 -1       992 7.06675E-03-1.18576E-03-2.48878E-14
 -1       993 6.91731E-03-1.11707E-03-2.30228E-14
 -1       994 1.34795E-03-2.57578E-04-2.45876E-15
 -1       995 7.29511E-03-1.29066E-03-2.74241E-14
 -1       996 2.50543E-03 3.14112E-04-4.67810E-15
 -1       997 2.60065E-03 1.64887E-04-5.17808E-15
 -1       998 6.61425E-03-1.01429E-03-2.24823E-14
 -1       999 1.46119E-03-1.54902E-04-2.52285E-15
 -1      1000 2.30971E-03 1.04312E-04-4.33105E-15
 -1      1001 1.34104E-02-4.04493E-03-1.05577E-13
 -1      1002 1.83658E-03-5.07338E-05-3.25352E-15
 -1      1003 1.39027E-03-2.48753E-04-2.61880E-15
 -1      1004 4.58634E-03 1.27893E-06-1.39771E-14
 -1      1005 1.36779E-02-4.20855E-03-1.06426E-13
 -1      1006 5.83174E-03-6.80429E-04-1.98680E-14
 -1      1007 6.40984E-03-9.35356E-04-2.22876E-14
 -1      1008 4.98535E-03-2.24950E-04-1.60409E-14
 -1      1009 1.96610E-03 1.40023E-04-3.23838E-15
 -1      1010 5.31765E-03-4.05630E-04-1.77716E-14
 -1      1011 1.58262E-03-3.43299E-05-2.52852E-15
 -1      1012 1.91053E-03 4.43053E-05-3.25193E-15
 -1      1013 1.57984E-03 1.02498E-04-2.26451E-15
 -1      1014 7.56079E-03-1.41231E-03-3.13745E-14
 -1      1015 6.08454E-03-7.62167E-04-2.25286E-14
 -1      1016 7.82016E-03-1.53248E-03-3.41209E-14
 -1      1017 8.08592E-03-1.65716E-03-3.69473E-14
 -1      1018 8.35666E-03-1.78488E-03-3.98465E-14
 -1      1019 8.64505E-03-1.92105E-03-4.29674E-14
 -1      1020 8.92268E-03-2.05190E-03-4.60089E-14
 -1      1021 9.20250E-03-2.18333E-03-4.91135E-14
 -1      1022 9.48397E-03-2.31500E-03-5.22807E-14
 -1      1023 9.76668E-03-2.44669E-03-5.55131E-14
 -1      1024 1.00503E-02-2.57829E-03-5.88037E-14
 -1      1025 1.03346E-02-2.70973E-03-6.21487E-14
 -1      1026 1.06336E-02-2.84756E-03-6.57142E-14
 -1      1027 1.09187E-02-2.97865E-03-6.91513E-14
 -1      1028 1.12041E-02-3.10959E-03-7.26298E-14
 -1      1029 1.14896E-02-3.24039E-03-7.61478E-14
 -1      1030 1.17753E-02-3.37109E-03-7.96976E-14
 -1      1031 1.20610E-02-3.50170E-03-8.32840E-14
 -1      1032 1.23467E-02-3.63224E-03-8.69131E-14
 -1      1033 1.26468E-02-3.76925E-03-9.07658E-14
 -1      1034 1.29326E-02-3.89970E-03-9.44842E-14
 -1      1035 1.32184E-02-4.03013E-03-9.82419E-14
 -1      1036 1.35041E-02-4.16053E-03-1.02033E-13
 -1      1037 1.36509E-02-4.22348E-03-1.04256E-13
 -1      1038 7.24243E-03-1.24024E-03-3.27846E-14
 -1      1039 6.96176E-03-1.12106E-03-3.00825E-14
 -1      1040 6.67750E-03-1.00297E-03-2.74703E-14
 -1      1041 7.52156E-03-1.36110E-03-3.55712E-14
 -1      1042 7.80041E-03-1.48369E-03-3.84345E-14
 -1      1043 8.07970E-03-1.60785E-03-4.13768E-14
 -1      1044 8.35980E-03-1.73333E-03-4.43915E-14
 -1      1045 8.64082E-03-1.85987E-03-4.74745E-14
 -1      1046 8.92278E-03-1.98728E-03-5.06222E-14
 -1      1047 9.20558E-03-2.11535E-03-5.38318E-14
 -1      1048 9.48909E-03-2.24396E-03-5.70984E-14
 -1      1049 9.77321E-03-2.37297E-03-6.04208E-14
 -1      1050 1.00578E-02-2.50231E-03-6.37950E-14
 -1      1051 1.03427E-02-2.63190E-03-6.72162E-14
 -1      1052 1.06280E-02-2.76169E-03-7.06770E-14
 -1      1053 1.09134E-02-2.89162E-03-7.41803E-14
 -1      1054 1.11990E-02-3.02168E-03-7.77226E-14
 -1      1055 1.14846E-02-3.15182E-03-8.13041E-14
 -1      1056 1.17703E-02-3.28203E-03-8.49336E-14
 -1      1057 1.20561E-02-3.41230E-03-8.86103E-14
 -1      1058 1.23419E-02-3.54260E-03-9.23343E-14
 -1      1059 1.26276E-02-3.67293E-03-9.60973E-14
 -1      1060 1.29134E-02-3.80328E-03-9.98959E-14
 -1      1061 1.31619E-02-3.92410E-03-1.02735E-13
 -1      1062 6.88152E-03-1.11561E-03-2.44730E-14
 -1      1063 6.38657E-03-8.84486E-04-2.49532E-14
 -1      1064 1.35441E-02-4.12674E-03-1.06008E-13
 -1      1065 7.30963E-03-1.29846E-03-2.87097E-14
 -1      1066 1.35311E-02-4.14560E-03-1.04197E-13
 -1      1067 1.32956E-02-4.00590E-03-1.03171E-13
 -1      1068 6.70933E-03-1.05049E-03-2.42741E-14
 -1      1069 6.24043E-03-8.52929E-04-2.24183E-14
 -1      1070 7.84020E-03-1.53446E-03-3.54841E-14
 -1      1071 8.10966E-03-1.65837E-03-3.83462E-14
 -1      1072 8.39651E-03-1.79136E-03-4.14288E-14
 -1      1073 8.67265E-03-1.91983E-03-4.44377E-14
 -1      1074 8.95116E-03-2.04941E-03-4.75114E-14
 -1      1075 9.23152E-03-2.17965E-03-5.06490E-14
 -1      1076 9.51332E-03-2.31026E-03-5.38490E-14
 -1      1077 9.79623E-03-2.44104E-03-5.71136E-14
 -1      1078 1.00800E-02-2.57186E-03-6.04326E-14
 -1      1079 1.03786E-02-2.70921E-03-6.39679E-14
 -1      1080 1.06634E-02-2.83997E-03-6.73874E-14
 -1      1081 1.09486E-02-2.97066E-03-7.08461E-14
 -1      1082 1.12340E-02-3.10130E-03-7.43410E-14
 -1      1083 1.15195E-02-3.23187E-03-7.78770E-14
 -1      1084 1.18052E-02-3.36239E-03-8.14448E-14
 -1      1085 1.20909E-02-3.49288E-03-8.50616E-14
 -1      1086 1.23909E-02-3.62985E-03-8.88959E-14
 -1      1087 1.26767E-02-3.76028E-03-9.25966E-14
 -1      1088 1.29625E-02-3.89069E-03-9.63449E-14
 -1      1089 1.32483E-02-4.02108E-03-1.00133E-13
 -1      1090 1.33897E-02-4.08335E-03-1.02163E-13
 -1      1091 7.23541E-03-1.25095E-03-3.15106E-14
 -1      1092 6.96141E-03-1.13622E-03-2.88490E-14
 -1      1093 8.05965E-03-1.61347E-03-3.99899E-14
 -1      1094 8.33717E-03-1.73882E-03-4.29689E-14
 -1      1095 8.61622E-03-1.86559E-03-4.60178E-14
 -1      1096 8.89667E-03-1.99339E-03-4.91321E-14
 -1      1097 9.17834E-03-2.12193E-03-5.23108E-14
 -1      1098 9.46102E-03-2.25100E-03-5.55488E-14
 -1      1099 9.74452E-03-2.38045E-03-5.88418E-14
 -1      1100 1.00287E-02-2.51016E-03-6.21857E-14
 -1      1101 1.03133E-02-2.64006E-03-6.55823E-14
 -1      1102 1.05983E-02-2.77009E-03-6.90222E-14
 -1      1103 1.08836E-02-2.90022E-03-7.24999E-14
 -1      1104 1.11690E-02-3.03043E-03-7.60207E-14
 -1      1105 1.14546E-02-3.16068E-03-7.95773E-14
 -1      1106 1.17403E-02-3.29097E-03-8.31777E-14
 -1      1107 1.20261E-02-3.42129E-03-8.68264E-14
 -1      1108 1.23118E-02-3.55162E-03-9.05158E-14
 -1      1109 1.25976E-02-3.68198E-03-9.42529E-14
 -1      1110 1.28834E-02-3.81234E-03-9.80323E-14
 -1      1111 1.30895E-02-3.90912E-03-1.00599E-13
 -1      1112 7.78370E-03-1.49003E-03-3.70858E-14
 -1      1113 6.68480E-03-1.02447E-03-2.62794E-14
 -1      1114 7.50912E-03-1.36901E-03-3.42586E-14
 -1      1115 1.34134E-02-4.07575E-03-1.03687E-13
 -1      1116 6.46559E-03-9.39148E-04-2.43204E-14
 -1      1117 7.57506E-03-1.41433E-03-3.26990E-14
 -1      1118 7.31501E-03-1.29943E-03-2.99953E-14
 -1      1119 6.58834E-03-9.98541E-04-2.43033E-14
 -1      1120 7.01181E-03-1.17062E-03-2.70786E-14
 -1      1121 7.58690E-03-1.41214E-03-3.40227E-14
 -1      1122 8.13789E-03-1.66000E-03-3.98136E-14
 -1      1123 7.23251E-03-1.25947E-03-3.02385E-14
 -1      1124 7.81276E-03-1.51352E-03-3.62892E-14
 -1      1125 1.32396E-02-3.99623E-03-1.01385E-13
 -1      1126 0.00000E+00 0.00000E+00 0.00000E+00
 -1      1127 0.00000E+00 0.00000E+00 0.00000E+00
 -1      1128 0.00000E+00 0.00000E+00 0.00000E+00
 -1      1129 0.00000E+00 0.00000E+00 0.00000E+00
 -1      1130 0.00000E+00 0.00000E+00 0.00000E+00
 -1      1131 0.00000E+00 0.00000E+00 0.00000E+00
 -1      1132 0.00000E+00 0.00000E+00 0.00000E+00
 -1      1133 0.00000E+00 0.00000E+00 0.00000E+00
 -1      1134 0.00000E+00 0.00000E+00 0.00000E+00
 -1      1135 0.00000E+00 0.00000E+00 0.00000E+00
 -1      1136 0.00000E+00 0.00000E+00 0.00000E+00
 -1      1137 0.00000E+00 0.00000E+00 0.00000E+00
 -1      1138 0.00000E+00 0.00000E+00 0.00000E+00
 -1      1139 0.00000E+00 0.00000E+00 0.00000E+00
 -1      1140 0.00000E+00 0.00000E+00 0.00000E+00
 -1      1141 0.00000E+00 0.00000E+00 0.00000E+00
 -1      1142 0.00000E+00 0.00000E+00 0.00000E+00
 -1      1143 2.19436E-04-1.41759E-04 1.71304E-17
 -1      1144 5.88562E-04-3.08303E-04-3.42879E-17
 -1      1145 9.15146E-04-4.10682E-04-2.10728E-16
 -1      1146 1.24619E-03-4.83410E-04-5.31693E-16
 -1      1147 1.59329E-03-5.47057E-04-9.89429E-16
 -1      1148 1.96518E-03-6.18357E-04-1.58006E-15
 -1      1149 2.37839E-03-7.20018E-04-2.32382E-15
 -1      1150 2.82360E-03-8.76911E-04-3.20798E-15
 -1      1151 3.27452E-03-1.10807E-03-4.20771E-15
 -1      1152 3.70768E-03-1.41894E-03-5.34661E-15
 -1      1153 4.07780E-03-1.75893E-03-6.64131E-15
 -1      1154 4.34483E-03-2.00461E-03-7.98350E-15
 -1      1155 4.55221E-03-2.09226E-03-9.35157E-15
 -1      1156 4.79848E-03-2.02056E-03-1.09873E-14
 -1      1157 5.13301E-03-1.83204E-03-1.28608E-14
 -1      1158 5.55511E-03-1.63473E-03-1.49225E-14
 -1      1159 6.02630E-03-1.50803E-03-1.71643E-14
 -1      1160 6.48183E-03-1.47419E-03-1.94577E-14
 -1      1161 6.91134E-03-1.51051E-03-2.18534E-14
 -1      1162 7.30945E-03-1.59301E-03-2.43415E-14
 -1      1163 7.67895E-03-1.70289E-03-2.69145E-14
 -1      1164 8.02533E-03-1.82789E-03-2.95760E-14
 -1      1165 8.36218E-03-1.96409E-03-3.23829E-14
 -1      1166 8.68561E-03-2.10405E-03-3.52692E-14
 -1      1167 8.99188E-03-2.24190E-03-3.81554E-14
 -1      1168 9.29166E-03-2.37982E-03-4.11106E-14
 -1      1169 9.58685E-03-2.51723E-03-4.41321E-14
 -1      1170 9.87883E-03-2.65385E-03-4.72206E-14
 -1      1171 1.01686E-02-2.78960E-03-5.03805E-14
 -1      1172 1.04639E-02-2.92785E-03-5.36826E-14
 -1      1173 1.07582E-02-3.06528E-03-5.70399E-14
 -1      1174 1.10446E-02-3.19864E-03-6.03775E-14
 -1      1175 1.13305E-02-3.33140E-03-6.37719E-14
 -1      1176 1.16162E-02-3.46365E-03-6.72130E-14
 -1      1177 1.19017E-02-3.59548E-03-7.06956E-14
 -1      1178 1.21871E-02-3.72696E-03-7.42166E-14
 -1      1179 1.24796E-02-3.86144E-03-7.78592E-14
 -1      1180 1.27722E-02-3.99570E-03-8.15332E-14
 -1      1181 1.30576E-02-4.12651E-03-8.51323E-14
 -1      1182 1.33430E-02-4.25719E-03-8.87511E-14
 -1      1183 1.36285E-02-4.38778E-03-9.24016E-14
 -1      1184 1.39140E-02-4.51829E-03-9.60707E-14
 -1      1185 1.41996E-02-4.64876E-03-9.97756E-14
 -1      1186 1.44924E-02-4.78245E-03-1.03604E-13
 -1      1187 1.47851E-02-4.91612E-03-1.07468E-13
 -1      1188 1.50708E-02-5.04652E-03-1.11273E-13
 -1      1189 1.53565E-02-5.17691E-03-1.15103E-13
 -1      1190 1.56422E-02-5.30731E-03-1.18946E-13
 -1      1191 1.59279E-02-5.43772E-03-1.22807E-13
 -1      1192 1.62136E-02-5.56814E-03-1.26673E-13
 -1      1193 2.34137E-04 1.60473E-04 3.03035E-17
 -1      1194 5.73871E-04 3.36845E-04 1.97867E-18
 -1      1195 8.72651E-04 4.53052E-04-1.49566E-16
 -1      1196 1.16251E-03 5.36796E-04-4.40471E-16
 -1      1197 1.44828E-03 6.03199E-04-8.71062E-16
 -1      1198 1.73100E-03 6.59801E-04-1.44431E-15
 -1      1199 2.00955E-03 7.09803E-04-2.16029E-15
 -1      1200 2.28165E-03 7.53234E-04-3.01606E-15
 -1      1201 2.54492E-03 7.87294E-04-4.01384E-15
 -1      1202 2.79790E-03 8.06834E-04-5.15446E-15
 -1      1203 3.04100E-03 8.05432E-04-6.44089E-15
 -1      1204 3.27699E-03 7.77097E-04-7.86967E-15
 -1      1205 3.51068E-03 7.18170E-04-9.44026E-15
 -1      1206 3.74781E-03 6.28664E-04-1.11479E-14
 -1      1207 3.99352E-03 5.12447E-04-1.29865E-14
 -1      1208 4.25110E-03 3.76183E-04-1.49528E-14
 -1      1209 4.52147E-03 2.27581E-04-1.70353E-14
 -1      1210 4.80341E-03 7.37074E-05-1.92259E-14
 -1      1211 5.09435E-03-8.00935E-05-2.15208E-14
 -1      1212 5.39125E-03-2.30520E-04-2.39203E-14
 -1      1213 5.69123E-03-3.76079E-04-2.64249E-14
 -1      1214 5.99205E-03-5.16583E-04-2.90321E-14
 -1      1215 6.29212E-03-6.52621E-04-3.17335E-14
 -1      1216 6.59051E-03-7.85127E-04-3.45288E-14
 -1      1217 6.88682E-03-9.15095E-04-3.74131E-14
 -1      1218 7.18097E-03-1.04342E-03-4.03665E-14
 -1      1219 7.47313E-03-1.17082E-03-4.33924E-14
 -1      1220 7.76357E-03-1.29783E-03-4.64968E-14
 -1      1221 8.05259E-03-1.42482E-03-4.96753E-14
 -1      1222 8.34049E-03-1.55203E-03-5.29170E-14
 -1      1223 8.62756E-03-1.67958E-03-5.62119E-14
 -1      1224 8.91402E-03-1.80752E-03-5.95697E-14
 -1      1225 9.20005E-03-1.93587E-03-6.29791E-14
 -1      1226 9.48580E-03-2.06460E-03-6.64333E-14
 -1      1227 9.77137E-03-2.19367E-03-6.99260E-14
 -1      1228 1.00569E-02-2.32303E-03-7.34679E-14
 -1      1229 1.03423E-02-2.45263E-03-7.70601E-14
 -1      1230 1.06277E-02-2.58244E-03-8.06979E-14
 -1      1231 1.09132E-02-2.71239E-03-8.43859E-14
 -1      1232 1.11986E-02-2.84247E-03-8.81262E-14
 -1      1233 1.14841E-02-2.97265E-03-9.19110E-14
 -1      1234 1.17697E-02-3.10289E-03-9.57377E-14
 -1      1235 1.20552E-02-3.23318E-03-9.96031E-14
 -1      1236 1.23408E-02-3.36350E-03-1.03492E-13
 -1      1237 1.26265E-02-3.49384E-03-1.07393E-13
 -1      1238 1.29121E-02-3.62420E-03-1.11303E-13
 -1      1239 1.31978E-02-3.75455E-03-1.15222E-13
 -1      1240 1.34835E-02-3.88491E-03-1.19152E-13
 -1      1241 1.37692E-02-4.01525E-03-1.23090E-13
 -1      1242 1.40478E-02-4.14232E-03-1.26931E-13
 -1      1243 1.42476E-02-4.24637E-03-1.28817E-13
 -1      1244 1.43757E-02-4.33066E-03-1.28877E-13
 -1      1245 1.45039E-02-4.41495E-03-1.28939E-13
 -1      1246 1.46320E-02-4.49925E-03-1.28988E-13
 -1      1247 1.47602E-02-4.58356E-03-1.29049E-13
 -1      1248 1.48872E-02-4.66718E-03-1.29112E-13
 -1      1249 1.50143E-02-4.75080E-03-1.29175E-13
 -1      1250 1.51424E-02-4.83515E-03-1.29217E-13
 -1      1251 1.52706E-02-4.91951E-03-1.29241E-13
 -1      1252 1.53989E-02-5.00386E-03-1.29217E-13
 -1      1253 1.55271E-02-5.08821E-03-1.29158E-13
 -1      1254 1.56543E-02-5.17184E-03-1.29099E-13
 -1      1255 1.57814E-02-5.25545E-03-1.29013E-13
 -1      1256 1.59097E-02-5.33976E-03-1.28919E-13
 -1      1257 1.60380E-02-5.42406E-03-1.28835E-13
 -1      1258 1.61662E-02-5.50835E-03-1.28738E-13
 -1      1259 1.62934E-02-5.59193E-03-1.28629E-13
 -1      1260 6.45597E-03-7.28930E-04-1.36427E-14
 -1      1261 6.28806E-03-5.72017E-04-1.34881E-14
 -1      1262 6.01901E-03-4.05792E-04-1.31432E-14
 -1      1263 5.67606E-03-2.38061E-04-1.26357E-14
 -1      1264 5.25860E-03-7.02154E-05-1.19640E-14
 -1      1265 4.80460E-03 7.59811E-05-1.11873E-14
 -1      1266 4.35506E-03 1.76524E-04-1.03923E-14
 -1      1267 3.89989E-03 2.27302E-04-9.57624E-15
 -1      1268 3.45460E-03 2.23745E-04-8.78776E-15
 -1      1269 3.03297E-03 1.70888E-04-8.06663E-15
 -1      1270 2.61277E-03 6.97678E-05-7.38138E-15
 -1      1271 2.23940E-03-6.18395E-05-6.80502E-15
 -1      1272 1.96629E-03-1.99935E-04-6.39787E-15
 -1      1273 1.79138E-03-3.42409E-04-6.13077E-15
 -1      1274 1.72599E-03-4.93690E-04-6.00496E-15
 -1      1275 1.78896E-03-6.66536E-04-6.03253E-15
 -1      1276 1.97172E-03-8.51354E-04-6.20967E-15
 -1      1277 2.24701E-03-1.04664E-03-6.51285E-15
 -1      1278 2.61253E-03-1.26056E-03-6.95280E-15
 -1      1279 3.05264E-03-1.47764E-03-7.52867E-15
 -1      1280 3.53509E-03-1.66207E-03-8.20619E-15
 -1      1281 4.03449E-03-1.77922E-03-8.95944E-15
 -1      1282 4.52960E-03-1.80995E-03-9.75817E-15
 -1      1283 4.98007E-03-1.75942E-03-1.05249E-14
 -1      1284 5.39006E-03-1.65008E-03-1.12566E-14
 -1      1285 5.75781E-03-1.50545E-03-1.19416E-14
 -1      1286 6.07340E-03-1.34422E-03-1.25525E-14
 -1      1287 6.31306E-03-1.18411E-03-1.30431E-14
 -1      1288 6.46173E-03-1.03250E-03-1.33973E-14
 -1      1289 6.51370E-03-8.81034E-04-1.36098E-14
 -1      1290 1.78267E-04-1.00842E-04-3.84892E-18
 -1      1291 1.20776E-04-4.25102E-05-2.88669E-17
 -1      1292 1.27112E-04-5.51501E-05-2.19686E-17
 -1      1293 1.12529E-04-2.68948E-05-4.02646E-17
 -1      1294 1.16502E-04-3.34734E-05-3.67816E-17
 -1      1295 2.41588E-04-7.84610E-05-8.60450E-17
 -1      1296 1.06435E-04-1.82605E-05-4.67156E-17
 -1      1297 1.09478E-04-2.19563E-05-4.49402E-17
 -1      1298 2.24781E-04-5.17551E-05-1.06835E-16
 -1      1299 1.01821E-04-1.39198E-05-5.05374E-17
 -1      1300 1.04035E-04-1.58399E-05-4.95209E-17
 -1      1301 2.11964E-04-3.66952E-05-1.19100E-16
 -1      1302 9.88981E-05-1.20529E-05-5.26516E-17
 -1      1303 1.00210E-04-1.29998E-05-5.22450E-17
 -1      1304 2.02759E-04-2.89263E-05-1.26337E-16
 -1      1305 9.76121E-05-1.10456E-05-5.37222E-17
 -1      1306 9.80737E-05-1.17577E-05-5.35731E-17
 -1      1307 1.97320E-04-2.50179E-05-1.30443E-16
 -1      1308 9.78443E-05-9.62923E-06-5.39933E-17
 -1      1309 9.75636E-05-1.06609E-05-5.40746E-17
 -1      1310 1.95581E-04-2.21133E-05-1.32340E-16
 -1      1311 9.92026E-05-6.90767E-06-5.39662E-17
 -1      1312 9.83983E-05-8.62211E-06-5.41559E-17
 -1      1313 1.96995E-04-1.79607E-05-1.32896E-16
 -1      1314 1.01226E-04-2.45749E-06-5.29633E-17
 -1      1315 1.00132E-04-5.00173E-06-5.33427E-17
 -1      1316 2.00583E-04-1.11007E-05-1.31920E-16
 -1      1317 1.03519E-04 3.75447E-06-5.13776E-17
 -1      1318 1.02317E-04 3.94854E-07-5.19197E-17
 -1      1319 2.05314E-04-9.35960E-07-1.29278E-16
 -1      1320 1.05803E-04 1.14094E-05-4.88704E-17
 -1      1321 1.04606E-04 7.39409E-06-4.97513E-17
 -1      1322 2.10342E-04 1.23633E-05-1.24941E-16
 -1      1323 1.08138E-04 2.06188E-05-4.53603E-17
 -1      1324 1.06872E-04 1.58401E-05-4.66207E-17
 -1      1325 2.15320E-04 2.85740E-05-1.18530E-16
 -1      1326 1.10739E-04 3.14052E-05-3.98309E-17
 -1      1327 1.09220E-04 2.57850E-05-4.19586E-17
 -1      1328 2.20406E-04 4.77726E-05-1.09206E-16
 -1      1329 1.14396E-04 4.47204E-05-3.05067E-17
 -1      1330 1.12046E-04 3.76327E-05-3.44912E-17
 -1      1331 2.26360E-04 7.05621E-05-9.47457E-17
 -1      1332 1.21846E-04 6.41825E-05-1.53008E-17
 -1      1333 1.16796E-04 5.32438E-05-2.26327E-17
 -1      1334 2.35613E-04 9.98250E-05-7.22214E-17
 -1      1335 1.63124E-04 1.08573E-04 8.82270E-18
 -1      1336 1.41364E-04 8.33739E-05-6.31548E-18
 -1      1337 2.67341E-04 1.45481E-04-4.50350E-17
 -1      1338 3.47822E-04 2.16800E-04-5.25838E-18
 -1      1339 4.55139E-04-2.33827E-04-5.15674E-17
 -1      1340 6.26154E-04-2.96818E-04-1.10833E-16
 -1      1341 7.94055E-04-3.46994E-04-2.07692E-16
 -1      1342 9.61122E-04-3.88056E-04-3.39396E-16
 -1      1343 6.72204E-04-2.80335E-04-1.98436E-16
 -1      1344 1.12863E-03-4.23568E-04-5.04330E-16
 -1      1345 1.29796E-03-4.55321E-04-7.03444E-16
 -1      1346 1.00730E-03-3.63373E-04-4.72333E-16
 -1      1347 1.47041E-03-4.85819E-04-9.35666E-16
 -1      1348 1.64693E-03-5.16718E-04-1.20105E-15
 -1      1349 1.34336E-03-4.26604E-04-8.78963E-16
 -1      1350 1.82843E-03-5.50486E-04-1.49881E-15
 -1      1351 2.01550E-03-5.89257E-04-1.82959E-15
 -1      1352 1.68865E-03-4.87043E-04-1.41576E-15
 -1      1353 2.21845E-03-6.38844E-04-2.21234E-15
 -1      1354 2.42798E-03-7.00732E-04-2.63129E-15
 -1      1355 2.05838E-03-5.64819E-04-2.10033E-15
 -1      1356 2.63339E-03-7.75286E-04-3.06438E-15
 -1      1357 2.84319E-03-8.68255E-04-3.53043E-15
 -1      1358 2.44817E-03-6.83143E-04-2.92111E-15
 -1      1359 3.05607E-03-9.82834E-04-4.02974E-15
 -1      1360 3.26877E-03-1.12000E-03-4.56314E-15
 -1      1361 2.84817E-03-8.66523E-04-3.85325E-15
 -1      1362 3.47884E-03-1.27824E-03-5.13265E-15
 -1      1363 3.68144E-03-1.45150E-03-5.74074E-15
 -1      1364 3.26212E-03-1.13935E-03-4.92031E-15
 -1      1365 3.87406E-03-1.62902E-03-6.38731E-15
 -1      1366 4.05392E-03-1.79530E-03-7.07390E-15
 -1      1367 3.67451E-03-1.48759E-03-6.13317E-15
 -1      1368 4.19655E-03-1.91558E-03-7.69235E-15
 -1      1369 4.33226E-03-2.00295E-03-8.34029E-15
 -1      1370 4.03586E-03-1.80389E-03-7.39837E-15
 -1      1371 4.46274E-03-2.05205E-03-9.02131E-15
 -1      1372 4.59475E-03-2.05870E-03-9.73508E-15
 -1      1373 4.34510E-03-1.99067E-03-8.69059E-15
 -1      1374 4.75478E-03-2.01785E-03-1.06138E-14
 -1      1375 4.92682E-03-1.93614E-03-1.15343E-14
 -1      1376 4.67524E-03-2.00417E-03-1.02413E-14
 -1      1377 5.10267E-03-1.83554E-03-1.24451E-14
 -1      1378 5.29009E-03-1.72932E-03-1.33905E-14
 -1      1379 5.04556E-03-1.84005E-03-1.20319E-14
 -1      1380 5.50855E-03-1.62027E-03-1.44703E-14
 -1      1381 5.73368E-03-1.53079E-03-1.55853E-14
 -1      1382 5.45544E-03-1.61305E-03-1.40200E-14
 -1      1383 5.95115E-03-1.46949E-03-1.66778E-14
 -1      1384 6.16766E-03-1.43233E-03-1.77980E-14
 -1      1385 5.88736E-03-1.43911E-03-1.61950E-14
 -1      1386 6.38131E-03-1.41744E-03-1.89451E-14
 -1      1387 6.59009E-03-1.42214E-03-2.01161E-14
 -1      1388 6.30015E-03-1.36705E-03-1.84331E-14
 -1      1389 6.79329E-03-1.44271E-03-2.13112E-14
 -1      1390 6.99031E-03-1.47627E-03-2.25308E-14
 -1      1391 6.69499E-03-1.37906E-03-2.07729E-14
 -1      1392 7.18123E-03-1.51966E-03-2.37740E-14
 -1      1393 7.36623E-03-1.57070E-03-2.50386E-14
 -1      1394 7.06959E-03-1.44865E-03-2.32088E-14
 -1      1395 7.54573E-03-1.62736E-03-2.63241E-14
 -1      1396 7.72021E-03-1.68814E-03-2.76310E-14
 -1      1397 7.42509E-03-1.55295E-03-2.57346E-14
 -1      1398 7.89020E-03-1.75195E-03-2.89578E-14
 -1      1399 8.05622E-03-1.81782E-03-3.03068E-14
 -1      1400 7.76412E-03-1.67644E-03-2.83439E-14
 -1      1401 8.22681E-03-1.88859E-03-3.17433E-14
 -1      1402 8.39411E-03-1.96034E-03-3.32008E-14
 -1      1403 8.09771E-03-1.81313E-03-3.11057E-14
 -1      1404 8.55082E-03-2.02933E-03-3.46083E-14
 -1      1405 8.70534E-03-2.09856E-03-3.60322E-14
 -1      1406 8.42029E-03-1.95447E-03-3.39478E-14
 -1      1407 8.85797E-03-2.16798E-03-3.74740E-14
 -1      1408 9.00902E-03-2.23735E-03-3.89324E-14
 -1      1409 8.72695E-03-2.09387E-03-3.67939E-14
 -1      1410 9.15870E-03-2.30667E-03-4.04100E-14
 -1      1411 9.30724E-03-2.37580E-03-4.19043E-14
 -1      1412 9.02768E-03-2.23331E-03-3.97110E-14
 -1      1413 9.45480E-03-2.44475E-03-4.34130E-14
 -1      1414 9.60153E-03-2.51346E-03-4.49405E-14
 -1      1415 9.32402E-03-2.37207E-03-4.26959E-14
 -1      1416 9.74757E-03-2.58195E-03-4.64848E-14
 -1      1417 9.89303E-03-2.65017E-03-4.80437E-14
 -1      1418 9.61715E-03-2.50986E-03-4.57479E-14
 -1      1419 1.00380E-02-2.71817E-03-4.96215E-14
 -1      1420 1.01825E-02-2.78592E-03-5.12148E-14
 -1      1421 9.90796E-03-2.64658E-03-4.88661E-14
 -1      1422 1.03339E-02-2.85682E-03-5.29043E-14
 -1      1423 1.04850E-02-2.92747E-03-5.46103E-14
 -1      1424 1.02043E-02-2.78565E-03-5.21296E-14
 -1      1425 1.06287E-02-2.99456E-03-5.62485E-14
 -1      1426 1.07722E-02-3.06145E-03-5.79005E-14
 -1      1427 1.04994E-02-2.92373E-03-5.54555E-14
 -1      1428 1.09155E-02-3.12817E-03-5.95666E-14
 -1      1429 1.10586E-02-3.19472E-03-6.12495E-14
 -1      1430 1.07864E-02-3.05760E-03-5.87590E-14
 -1      1431 1.12017E-02-3.26112E-03-6.29454E-14
 -1      1432 1.13447E-02-3.32738E-03-6.46535E-14
 -1      1433 1.10729E-02-3.19077E-03-6.21201E-14
 -1      1434 1.14876E-02-3.39352E-03-6.63734E-14
 -1      1435 1.16305E-02-3.45954E-03-6.81038E-14
 -1      1436 1.13590E-02-3.32333E-03-6.55343E-14
 -1      1437 1.17733E-02-3.52546E-03-6.98444E-14
 -1      1438 1.19161E-02-3.59129E-03-7.15908E-14
 -1      1439 1.16449E-02-3.45541E-03-6.89917E-14
 -1      1440 1.20589E-02-3.65704E-03-7.33489E-14
 -1      1441 1.22016E-02-3.72270E-03-7.51159E-14
 -1      1442 1.19306E-02-3.58708E-03-7.24853E-14
 -1      1443 1.23515E-02-3.79159E-03-7.69786E-14
 -1      1444 1.25014E-02-3.86041E-03-7.88509E-14
 -1      1445 1.22233E-02-3.72171E-03-7.61004E-14
 -1      1446 1.26441E-02-3.92589E-03-8.06406E-14
 -1      1447 1.27868E-02-3.99134E-03-8.24357E-14
 -1      1448 1.25160E-02-3.85607E-03-7.97501E-14
 -1      1449 1.29296E-02-4.05674E-03-8.42380E-14
 -1      1450 1.30723E-02-4.12211E-03-8.60407E-14
 -1      1451 1.28016E-02-3.98696E-03-8.33400E-14
 -1      1452 1.32151E-02-4.18745E-03-8.78525E-14
 -1      1453 1.33578E-02-4.25276E-03-8.96747E-14
 -1      1454 1.30871E-02-4.11769E-03-8.69555E-14
 -1      1455 1.35006E-02-4.31805E-03-9.15019E-14
 -1      1456 1.36434E-02-4.38332E-03-9.33328E-14
 -1      1457 1.33726E-02-4.24832E-03-9.05980E-14
 -1      1458 1.37861E-02-4.44858E-03-9.51709E-14
 -1      1459 1.39289E-02-4.51382E-03-9.70155E-14
 -1      1460 1.36582E-02-4.37886E-03-9.42667E-14
 -1      1461 1.40717E-02-4.57905E-03-9.88680E-14
 -1      1462 1.42145E-02-4.64427E-03-1.00733E-13
 -1      1463 1.39438E-02-4.50934E-03-9.79618E-14
 -1      1464 1.43645E-02-4.71274E-03-1.02698E-13
 -1      1465 1.45144E-02-4.78121E-03-1.04668E-13
 -1      1466 1.42366E-02-4.64304E-03-1.01785E-13
 -1      1467 1.46572E-02-4.84641E-03-1.06555E-13
 -1      1468 1.48001E-02-4.91161E-03-1.08449E-13
 -1      1469 1.45293E-02-4.77671E-03-1.05641E-13
 -1      1470 1.49429E-02-4.97681E-03-1.10349E-13
 -1      1471 1.50857E-02-5.04201E-03-1.12260E-13
 -1      1472 1.48150E-02-4.90710E-03-1.09428E-13
 -1      1473 1.52286E-02-5.10720E-03-1.14173E-13
 -1      1474 1.53714E-02-5.17240E-03-1.16090E-13
 -1      1475 1.51007E-02-5.03750E-03-1.13242E-13
 -1      1476 1.55143E-02-5.23760E-03-1.18015E-13
 -1      1477 1.56571E-02-5.30280E-03-1.19940E-13
 -1      1478 1.53864E-02-5.16789E-03-1.17080E-13
 -1      1479 1.58000E-02-5.36801E-03-1.21874E-13
 -1      1480 1.59428E-02-5.43321E-03-1.23807E-13
 -1      1481 1.56721E-02-5.29829E-03-1.20936E-13
 -1      1482 1.60467E-02-5.47996E-03-1.25256E-13
 -1      1483 1.61895E-02-5.54517E-03-1.27186E-13
 -1      1484 1.61265E-02-5.50374E-03-1.27228E-13
 -1      1485 1.59188E-02-5.41024E-03-1.24322E-13
 -1      1486 6.71529E-04 3.62950E-04-9.50574E-17
 -1      1487 5.13215E-04 2.96869E-04-3.26887E-17
 -1      1488 4.64531E-04 2.57542E-04-6.21248E-17
 -1      1489 9.74941E-04 4.62066E-04-3.22428E-16
 -1      1490 8.24964E-04 4.16337E-04-1.91768E-16
 -1      1491 7.80368E-04 3.78625E-04-2.26788E-16
 -1      1492 1.26846E-03 5.36910E-04-6.85948E-16
 -1      1493 1.12247E-03 5.01696E-04-4.86793E-16
 -1      1494 1.08349E-03 4.65817E-04-5.26529E-16
 -1      1495 1.55666E-03 5.98577E-04-1.18891E-15
 -1      1496 1.41304E-03 5.69057E-04-9.19905E-16
 -1      1497 1.37849E-03 5.34323E-04-9.61850E-16
 -1      1498 1.84059E-03 6.52439E-04-1.83310E-15
 -1      1499 1.69915E-03 6.26392E-04-1.49322E-15
 -1      1500 1.66824E-03 5.92492E-04-1.53596E-15
 -1      1501 2.11944E-03 7.00302E-04-2.61762E-15
 -1      1502 1.98073E-03 6.77212E-04-2.20775E-15
 -1      1503 1.95336E-03 6.44128E-04-2.24941E-15
 -1      1504 2.39159E-03 7.40909E-04-3.54176E-15
 -1      1505 2.25646E-03 7.21762E-04-3.06218E-15
 -1      1506 2.23319E-03 6.89722E-04-3.10192E-15
 -1      1507 2.65563E-03 7.70226E-04-4.60828E-15
 -1      1508 2.52470E-03 7.57344E-04-4.05708E-15
 -1      1509 2.50661E-03 7.26705E-04-4.09477E-15
 -1      1510 2.91118E-03 7.82162E-04-5.81794E-15
 -1      1511 2.78445E-03 7.78767E-04-5.19517E-15
 -1      1512 2.77287E-03 7.49879E-04-5.22908E-15
 -1      1513 3.15958E-03 7.69993E-04-7.17097E-15
 -1      1514 3.03614E-03 7.79410E-04-6.47678E-15
 -1      1515 3.03232E-03 7.52466E-04-6.50691E-15
 -1      1516 3.40392E-03 7.28330E-04-8.66642E-15
 -1      1517 3.28201E-03 7.52978E-04-7.90106E-15
 -1      1518 3.28679E-03 7.27888E-04-7.92632E-15
 -1      1519 3.64856E-03 6.54957E-04-1.03005E-14
 -1      1520 3.52591E-03 6.95487E-04-9.46588E-15
 -1      1521 3.53945E-03 6.71860E-04-9.48644E-15
 -1      1522 3.89803E-03 5.51753E-04-1.20680E-14
 -1      1523 3.77242E-03 6.06735E-04-1.11682E-14
 -1      1524 3.79412E-03 5.83965E-04-1.11825E-14
 -1      1525 4.15589E-03 4.24249E-04-1.39650E-14
 -1      1526 4.02573E-03 4.90553E-04-1.30007E-14
 -1      1527 4.05433E-03 4.67982E-04-1.30103E-14
 -1      1528 4.42397E-03 2.80082E-04-1.59846E-14
 -1      1529 4.28859E-03 3.53746E-04-1.49600E-14
 -1      1530 4.32239E-03 3.30830E-04-1.49635E-14
 -1      1531 4.70225E-03 1.27081E-04-1.81166E-14
 -1      1532 4.56189E-03 2.04264E-04-1.70372E-14
 -1      1533 4.59909E-03 1.80667E-04-1.70345E-14
 -1      1534 4.98925E-03-2.82373E-05-2.03543E-14
 -1      1535 4.84479E-03 4.94213E-05-1.92228E-14
 -1      1536 4.88375E-03 2.50262E-05-1.92155E-14
 -1      1537 5.28265E-03-1.81409E-04-2.26989E-14
 -1      1538 5.13530E-03-1.05248E-04-2.15135E-14
 -1      1539 5.17473E-03-1.30387E-04-2.15025E-14
 -1      1540 5.58000E-03-3.30031E-04-2.51471E-14
 -1      1541 5.43099E-03-2.56339E-04-2.39095E-14
 -1      1542 5.47000E-03-2.82067E-04-2.38949E-14
 -1      1543 5.87912E-03-4.73337E-04-2.76988E-14
 -1      1544 5.72946E-03-4.02329E-04-2.64096E-14
 -1      1545 5.76759E-03-4.28455E-04-2.63907E-14
 -1      1546 6.17833E-03-6.11626E-04-3.03485E-14
 -1      1547 6.02880E-03-5.43053E-04-2.90115E-14
 -1      1548 6.06588E-03-5.69395E-04-2.89877E-14
 -1      1549 6.47654E-03-7.45756E-04-3.30920E-14
 -1      1550 6.32762E-03-6.79144E-04-3.17100E-14
 -1      1551 6.36367E-03-7.05555E-04-3.16815E-14
 -1      1552 6.77311E-03-8.76769E-04-3.59259E-14
 -1      1553 6.62506E-03-8.11588E-04-3.44976E-14
 -1      1554 6.66024E-03-8.37962E-04-3.44640E-14
 -1      1555 7.06780E-03-1.00566E-03-3.88410E-14
 -1      1556 6.92070E-03-9.41427E-04-3.73732E-14
 -1      1557 6.95522E-03-9.67697E-04-3.73323E-14
 -1      1558 7.36063E-03-1.13328E-03-4.18258E-14
 -1      1559 7.21444E-03-1.06959E-03-4.03246E-14
 -1      1560 7.24850E-03-1.09572E-03-4.02786E-14
 -1      1561 7.65177E-03-1.26027E-03-4.48880E-14
 -1      1562 7.50640E-03-1.19682E-03-4.33481E-14
 -1      1563 7.54016E-03-1.22280E-03-4.33003E-14
 -1      1564 7.94145E-03-1.38708E-03-4.80256E-14
 -1      1565 7.79677E-03-1.32368E-03-4.64481E-14
 -1      1566 7.83039E-03-1.34951E-03-4.63961E-14
 -1      1567 8.22995E-03-1.51403E-03-5.12284E-14
 -1      1568 8.08583E-03-1.45053E-03-4.96183E-14
 -1      1569 8.11940E-03-1.47624E-03-4.95602E-14
 -1      1570 8.51753E-03-1.64129E-03-5.44924E-14
 -1      1571 8.37384E-03-1.57762E-03-5.28537E-14
 -1      1572 8.40742E-03-1.60321E-03-5.27887E-14
 -1      1573 8.80440E-03-1.76895E-03-5.78147E-14
 -1      1574 8.66104E-03-1.70507E-03-5.61461E-14
 -1      1575 8.69468E-03-1.73057E-03-5.60767E-14
 -1      1576 9.09076E-03-1.89703E-03-6.11933E-14
 -1      1577 8.94763E-03-1.83294E-03-5.94973E-14
 -1      1578 8.98137E-03-1.85837E-03-5.94239E-14
 -1      1579 9.37677E-03-2.02553E-03-6.46232E-14
 -1      1580 9.23380E-03-1.96123E-03-6.29027E-14
 -1      1581 9.26763E-03-1.98661E-03-6.28240E-14
 -1      1582 9.66254E-03-2.15440E-03-6.80960E-14
 -1      1583 9.51967E-03-2.08992E-03-6.63535E-14
 -1      1584 9.55360E-03-2.11525E-03-6.62723E-14
 -1      1585 9.94815E-03-2.28360E-03-7.16079E-14
 -1      1586 9.80536E-03-2.21896E-03-6.98472E-14
 -1      1587 9.83937E-03-2.24426E-03-6.97630E-14
 -1      1588 1.02337E-02-2.41307E-03-7.51679E-14
 -1      1589 1.00909E-02-2.34830E-03-7.33819E-14
 -1      1590 1.01250E-02-2.37358E-03-7.32957E-14
 -1      1591 1.05192E-02-2.54276E-03-7.87802E-14
 -1      1592 1.03764E-02-2.47789E-03-7.69679E-14
 -1      1593 1.04106E-02-2.50315E-03-7.68740E-14
 -1      1594 1.08047E-02-2.67264E-03-8.24331E-14
 -1      1595 1.06619E-02-2.60768E-03-8.05998E-14
 -1      1596 1.06961E-02-2.63294E-03-8.04996E-14
 -1      1597 1.10902E-02-2.80266E-03-8.61420E-14
 -1      1598 1.09474E-02-2.73764E-03-8.42814E-14
 -1      1599 1.09817E-02-2.76288E-03-8.41749E-14
 -1      1600 1.13757E-02-2.93279E-03-8.98992E-14
 -1      1601 1.12329E-02-2.86771E-03-8.80147E-14
 -1      1602 1.12672E-02-2.89296E-03-8.79027E-14
 -1      1603 1.16612E-02-3.06300E-03-9.37019E-14
 -1      1604 1.15185E-02-2.99789E-03-9.17951E-14
 -1      1605 1.15528E-02-3.02313E-03-9.16763E-14
 -1      1606 1.19468E-02-3.19327E-03-9.75392E-14
 -1      1607 1.18040E-02-3.12813E-03-9.56157E-14
 -1      1608 1.18383E-02-3.15337E-03-9.54917E-14
 -1      1609 1.22324E-02-3.32358E-03-1.01410E-13
 -1      1610 1.20896E-02-3.25842E-03-9.94715E-14
 -1      1611 1.21240E-02-3.28366E-03-9.93402E-14
 -1      1612 1.25180E-02-3.45392E-03-1.05298E-13
 -1      1613 1.23752E-02-3.38874E-03-1.03354E-13
 -1      1614 1.24096E-02-3.41399E-03-1.03215E-13
 -1      1615 1.28037E-02-3.58427E-03-1.09201E-13
 -1      1616 1.26608E-02-3.51909E-03-1.07249E-13
 -1      1617 1.26952E-02-3.54434E-03-1.07105E-13
 -1      1618 1.30893E-02-3.71463E-03-1.13109E-13
 -1      1619 1.29465E-02-3.64945E-03-1.11152E-13
 -1      1620 1.29809E-02-3.67469E-03-1.11004E-13
 -1      1621 1.33750E-02-3.84498E-03-1.17029E-13
 -1      1622 1.32322E-02-3.77980E-03-1.15067E-13
 -1      1623 1.32666E-02-3.80506E-03-1.14914E-13
 -1      1624 1.36607E-02-3.97533E-03-1.20960E-13
 -1      1625 1.35179E-02-3.91016E-03-1.18992E-13
 -1      1626 1.35523E-02-3.93541E-03-1.18835E-13
 -1      1627 1.39464E-02-4.10567E-03-1.24897E-13
 -1      1628 1.38036E-02-4.04050E-03-1.22930E-13
 -1      1629 1.38380E-02-4.06576E-03-1.22768E-13
 -1      1630 1.41119E-02-4.18447E-03-1.26952E-13
 -1      1631 1.42841E-02-4.29530E-03-1.27189E-13
 -1      1632 1.42200E-02-4.25315E-03-1.27158E-13
 -1      1633 1.44122E-02-4.37959E-03-1.27248E-13
 -1      1634 1.43481E-02-4.33745E-03-1.27219E-13
 -1      1635 1.41924E-02-4.25994E-03-1.25500E-13
 -1      1636 1.45403E-02-4.46390E-03-1.27303E-13
 -1      1637 1.44763E-02-4.42175E-03-1.27274E-13
 -1      1638 1.43205E-02-4.34424E-03-1.25559E-13
 -1      1639 1.46685E-02-4.54821E-03-1.27363E-13
 -1      1640 1.46044E-02-4.50606E-03-1.27334E-13
 -1      1641 1.44486E-02-4.42855E-03-1.25618E-13
 -1      1642 1.47944E-02-4.63111E-03-1.27422E-13
 -1      1643 1.47315E-02-4.58966E-03-1.27393E-13
 -1      1644 1.45757E-02-4.51215E-03-1.25677E-13
 -1      1645 1.49226E-02-4.71545E-03-1.27474E-13
 -1      1646 1.48585E-02-4.67328E-03-1.27451E-13
 -1      1647 1.47028E-02-4.59576E-03-1.25731E-13
 -1      1648 1.50508E-02-4.79979E-03-1.27506E-13
 -1      1649 1.49867E-02-4.75762E-03-1.27493E-13
 -1      1650 1.48309E-02-4.68009E-03-1.25771E-13
 -1      1651 1.51790E-02-4.88414E-03-1.27517E-13
 -1      1652 1.51149E-02-4.84197E-03-1.27515E-13
 -1      1653 1.49591E-02-4.76443E-03-1.25795E-13
 -1      1654 1.53072E-02-4.96848E-03-1.27487E-13
 -1      1655 1.52431E-02-4.92631E-03-1.27508E-13
 -1      1656 1.50873E-02-4.84877E-03-1.25796E-13
 -1      1657 1.54354E-02-5.05283E-03-1.27435E-13
 -1      1658 1.53713E-02-5.01066E-03-1.27464E-13
 -1      1659 1.52155E-02-4.93311E-03-1.25766E-13
 -1      1660 1.55615E-02-5.13573E-03-1.27374E-13
 -1      1661 1.54985E-02-5.09428E-03-1.27406E-13
 -1      1662 1.53427E-02-5.01673E-03-1.25716E-13
 -1      1663 1.56898E-02-5.22005E-03-1.27287E-13
 -1      1664 1.56256E-02-5.17789E-03-1.27334E-13
 -1      1665 1.54699E-02-5.10034E-03-1.25648E-13
 -1      1666 1.58181E-02-5.30436E-03-1.27204E-13
 -1      1667 1.57539E-02-5.26221E-03-1.27246E-13
 -1      1668 1.55981E-02-5.18466E-03-1.25570E-13
 -1      1669 1.59463E-02-5.38866E-03-1.27121E-13
 -1      1670 1.58822E-02-5.34651E-03-1.27163E-13
 -1      1671 1.57264E-02-5.26896E-03-1.25490E-13
 -1      1672 1.60685E-02-5.46728E-03-1.27155E-13
 -1      1673 1.60044E-02-5.42513E-03-1.27200E-13
 -1      1674 1.58486E-02-5.34758E-03-1.25533E-13
 -1      1675 1.59646E-02-5.42052E-03-1.25694E-13
 -1      1676 6.43453E-03-7.48965E-04-1.40463E-14
 -1      1677 6.49439E-03-7.97409E-04-1.40795E-14
 -1      1678 6.20805E-03-6.28268E-04-1.38462E-14
 -1      1679 6.32844E-03-6.89241E-04-1.39780E-14
 -1      1680 5.87583E-03-4.69268E-04-1.34073E-14
 -1      1681 6.03969E-03-5.46690E-04-1.36321E-14
 -1      1682 5.49096E-03-2.77999E-04-1.27842E-14
 -1      1683 5.67513E-03-3.66282E-04-1.30760E-14
 -1      1684 5.01754E-03-7.65810E-05-1.20492E-14
 -1      1685 5.23076E-03-1.79644E-04-1.24451E-14
 -1      1686 4.61095E-03 1.11296E-04-1.11370E-14
 -1      1687 4.80118E-03 3.62708E-05-1.15240E-14
 -1      1688 4.20137E-03 2.32464E-04-1.02569E-14
 -1      1689 4.38972E-03 1.84249E-04-1.06674E-14
 -1      1690 3.80447E-03 2.79751E-04-9.37897E-15
 -1      1691 3.98384E-03 2.69183E-04-9.78024E-15
 -1      1692 3.41472E-03 2.43592E-04-8.54183E-15
 -1      1693 3.59356E-03 2.70110E-04-8.91832E-15
 -1      1694 3.02724E-03 1.43839E-04-7.80355E-15
 -1      1695 3.20285E-03 1.95948E-04-8.13276E-15
 -1      1696 2.62067E-03-2.04411E-05-7.04757E-15
 -1      1697 2.82082E-03 6.03191E-05-7.37560E-15
 -1      1698 2.22754E-03-1.67194E-04-6.53292E-15
 -1      1699 2.38870E-03-9.75479E-05-6.76210E-15
 -1      1700 1.93932E-03-3.01322E-04-6.14457E-15
 -1      1701 2.06156E-03-2.42303E-04-6.30637E-15
 -1      1702 1.75886E-03-4.15060E-04-5.88981E-15
 -1      1703 1.82791E-03-3.67305E-04-5.98311E-15
 -1      1704 1.70884E-03-5.16574E-04-5.78029E-15
 -1      1705 1.71344E-03-4.70885E-04-5.80575E-15
 -1      1706 1.82389E-03-6.31181E-04-5.81911E-15
 -1      1707 1.74857E-03-5.73736E-04-5.76768E-15
 -1      1708 2.06478E-03-7.97322E-04-6.07966E-15
 -1      1709 1.94272E-03-7.25320E-04-5.96976E-15
 -1      1710 2.40757E-03-9.94881E-04-6.42635E-15
 -1      1711 2.23575E-03-8.96449E-04-6.24706E-15
 -1      1712 2.83024E-03-1.23065E-03-6.89902E-15
 -1      1713 2.63179E-03-1.11497E-03-6.65848E-15
 -1      1714 3.28761E-03-1.49866E-03-7.54979E-15
 -1      1715 3.06826E-03-1.37613E-03-7.23461E-15
 -1      1716 3.73978E-03-1.71753E-03-8.27935E-15
 -1      1717 3.53578E-03-1.62557E-03-7.93476E-15
 -1      1718 4.18522E-03-1.84818E-03-9.10995E-15
 -1      1719 3.98262E-03-1.80223E-03-8.71184E-15
 -1      1720 4.60029E-03-1.85258E-03-9.97583E-15
 -1      1721 4.41390E-03-1.86605E-03-9.58093E-15
 -1      1722 4.99284E-03-1.75262E-03-1.08000E-14
 -1      1723 4.81584E-03-1.80817E-03-1.04265E-14
 -1      1724 5.37555E-03-1.59032E-03-1.15993E-14
 -1      1725 5.19945E-03-1.67130E-03-1.12355E-14
 -1      1726 5.74098E-03-1.40641E-03-1.23372E-14
 -1      1727 5.57582E-03-1.49244E-03-1.20079E-14
 -1      1728 6.06736E-03-1.21816E-03-1.30406E-14
 -1      1729 5.91782E-03-1.29988E-03-1.27480E-14
 -1      1730 6.32961E-03-1.07797E-03-1.35082E-14
 -1      1731 6.22397E-03-1.14159E-03-1.32947E-14
 -1      1732 6.48794E-03-9.56473E-04-1.38997E-14
 -1      1733 6.42703E-03-1.00750E-03-1.37515E-14
 -1      1734 6.52979E-03-8.54299E-04-1.41222E-14
 -1      1735 6.52710E-03-8.99026E-04-1.40574E-14
 -1      1736 5.72410E-03-4.86208E-04-1.35766E-14
 -1      1737 6.52257E-03-8.45521E-04-1.45473E-14
 -1      1738 1.41462E-02-4.20972E-03-1.26792E-13
 -1      1739 1.40546E-02-4.17436E-03-1.25103E-13
 -1      1740 6.37850E-03-7.66373E-04-1.44313E-14
 -1      1741 6.09751E-03-6.55621E-04-1.41371E-14
 -1      1742 5.27658E-03-2.78199E-04-1.28908E-14
 -1      1743 4.84008E-03-4.49110E-05-1.20068E-14
 -1      1744 4.44217E-03 1.55674E-04-1.10028E-14
 -1      1745 4.06541E-03 2.75434E-04-1.00524E-14
 -1      1746 3.70897E-03 3.00532E-04-9.11744E-15
 -1      1747 3.35140E-03 2.30083E-04-8.25802E-15
 -1      1748 2.96915E-03 8.48475E-05-7.43435E-15
 -1      1749 2.56370E-03-9.51517E-05-6.74669E-15
 -1      1750 2.17573E-03-2.51173E-04-6.25179E-15
 -1      1751 1.89232E-03-3.72530E-04-5.87724E-15
 -1      1752 1.72790E-03-4.55852E-04-5.64030E-15
 -1      1753 1.72023E-03-5.20675E-04-5.54470E-15
 -1      1754 1.88828E-03-6.13881E-04-5.67471E-15
 -1      1755 2.18843E-03-7.76487E-04-5.98169E-15
 -1      1756 2.58536E-03-9.85635E-04-6.36441E-15
 -1      1757 3.03425E-03-1.25761E-03-6.91118E-15
 -1      1758 3.48773E-03-1.54752E-03-7.61533E-15
 -1      1759 3.91896E-03-1.77825E-03-8.42143E-15
 -1      1760 4.31020E-03-1.88882E-03-9.31994E-15
 -1      1761 4.67632E-03-1.85461E-03-1.02455E-14
 -1      1762 5.04186E-03-1.71276E-03-1.11404E-14
 -1      1763 5.41234E-03-1.51652E-03-1.19967E-14
 -1      1764 5.77723E-03-1.30618E-03-1.28297E-14
 -1      1765 6.10930E-03-1.12951E-03-1.35127E-14
 -1      1766 6.36817E-03-1.00105E-03-1.40223E-14
 -1      1767 6.51448E-03-9.11077E-04-1.44308E-14
 -1      1768 3.09482E-04-1.53805E-04-4.83148E-17
 -1      1769 3.36143E-04-7.58092E-05-1.70288E-16
 -1      1770 3.48329E-04-9.06840E-05-1.58565E-16
 -1      1771 3.62250E-04-1.10040E-04-1.44605E-16
 -1      1772 3.78730E-04-1.34348E-04-1.25442E-16
 -1      1773 4.79906E-04-1.35511E-04-2.29051E-16
 -1      1774 3.02694E-04-4.49965E-05-1.94953E-16
 -1      1775 3.08613E-04-4.95605E-05-1.90942E-16
 -1      1776 2.95515E-04-3.84267E-05-2.00090E-16
 -1      1777 2.98294E-04-4.13931E-05-1.97894E-16
 -1      1778 4.01479E-04-6.04735E-05-2.89346E-16
 -1      1779 2.94441E-04-3.24432E-05-2.02380E-16
 -1      1780 2.94299E-04-3.55633E-05-2.01553E-16
 -1      1781 3.93899E-04-5.11275E-05-2.95581E-16
 -1      1782 2.98169E-04-2.40980E-05-2.02610E-16
 -1      1783 2.95839E-04-2.86950E-05-2.02692E-16
 -1      1784 3.94780E-04-4.13523E-05-2.98061E-16
 -1      1785 3.04937E-04-1.16699E-05-2.00415E-16
 -1      1786 3.01313E-04-1.84441E-05-2.01851E-16
 -1      1787 4.01891E-04-2.78316E-05-2.97397E-16
 -1      1788 3.13072E-04 5.41764E-06-1.96105E-16
 -1      1789 3.08940E-04-3.69459E-06-1.98788E-16
 -1      1790 4.12572E-04-8.83235E-06-2.93859E-16
 -1      1791 3.21283E-04 2.65940E-05-1.89004E-16
 -1      1792 3.17197E-04 1.55088E-05-1.92988E-16
 -1      1793 4.24430E-04 1.57999E-05-2.86948E-16
 -1      1794 3.29478E-04 5.22636E-05-1.78798E-16
 -1      1795 3.25378E-04 3.89587E-05-1.84504E-16
 -1      1796 4.36212E-04 4.58677E-05-2.76336E-16
 -1      1797 3.38069E-04 8.22910E-05-1.63362E-16
 -1      1798 3.33619E-04 6.67552E-05-1.72036E-16
 -1      1799 4.47856E-04 8.13918E-05-2.60588E-16
 -1      1800 3.48999E-04 1.18372E-04-1.39672E-16
 -1      1801 3.43025E-04 9.95135E-05-1.53116E-16
 -1      1802 4.60545E-04 1.22720E-04-2.37074E-16
 -1      1803 3.67653E-04 1.65487E-04-1.03406E-16
 -1      1804 3.56781E-04 1.40281E-04-1.23884E-16
 -1      1805 4.77793E-04 1.72482E-04-2.02028E-16
 -1      1806 4.26068E-04 2.24181E-04-7.84420E-17
 -1      1807 3.95020E-04 1.91635E-04-9.50981E-17
 -1      1808 5.18228E-04 2.29138E-04-1.70762E-16
 -1      1809 5.84478E-04 2.90347E-04-1.45310E-16
 -1      1810 3.70605E-04-1.57907E-04-8.89046E-17
 -1      1811 8.95437E-04 3.93255E-04-3.81138E-16
 -1      1812 7.40941E-04 3.45697E-04-2.46724E-16
 -1      1813 7.05156E-04 3.13539E-04-2.62960E-16
 -1      1814 4.99100E-04-1.90646E-04-1.61722E-16
 -1      1815 8.86487E-04-3.04829E-04-4.36242E-16
 -1      1816 1.05106E-03-3.39256E-04-6.11653E-16
 -1      1817 1.21516E-03-3.70211E-04-8.18911E-16
 -1      1818 1.38087E-03-3.99021E-04-1.05890E-15
 -1      1819 1.09011E-03-3.16427E-04-7.56516E-16
 -1      1820 1.54789E-03-4.28263E-04-1.33061E-15
 -1      1821 1.71760E-03-4.59388E-04-1.63414E-15
 -1      1822 1.41012E-03-3.73607E-04-1.24361E-15
 -1      1823 1.89897E-03-4.97288E-04-1.98736E-15
 -1      1824 2.08440E-03-5.43310E-04-2.37565E-15
 -1      1825 1.74326E-03-4.36119E-04-1.87384E-15
 -1      1826 2.26599E-03-5.98145E-04-2.77727E-15
 -1      1827 2.45187E-03-6.67698E-04-3.21154E-15
 -1      1828 2.08765E-03-5.21974E-04-2.63488E-15
 -1      1829 2.64516E-03-7.54841E-04-3.67775E-15
 -1      1830 2.84266E-03-8.64702E-04-4.17612E-15
 -1      1831 2.44341E-03-6.53296E-04-3.50357E-15
 -1      1832 3.04994E-03-9.97425E-04-4.70937E-15
 -1      1833 3.25903E-03-1.15569E-03-5.27718E-15
 -1      1834 2.83100E-03-8.61864E-04-4.50074E-15
 -1      1835 3.47535E-03-1.33276E-03-5.88235E-15
 -1      1836 3.68862E-03-1.52001E-03-6.52610E-15
 -1      1837 3.25792E-03-1.17172E-03-5.63353E-15
 -1      1838 4.23570E-03-1.93439E-03-8.40286E-15
 -1      1839 4.39947E-03-1.98955E-03-9.08056E-15
 -1      1840 4.58554E-03-1.99373E-03-9.91801E-15
 -1      1841 4.78219E-03-1.94059E-03-1.07991E-14
 -1      1842 4.49140E-03-1.97612E-03-9.59717E-15
 -1      1843 4.96500E-03-1.84657E-03-1.16345E-14
 -1      1844 5.16474E-03-1.73548E-03-1.25438E-14
 -1      1845 5.39142E-03-1.60979E-03-1.35875E-14
 -1      1846 5.61525E-03-1.49821E-03-1.46696E-14
 -1      1847 5.32224E-03-1.60858E-03-1.31572E-14
 -1      1848 5.82846E-03-1.41614E-03-1.57322E-14
 -1      1849 6.03321E-03-1.35845E-03-1.68237E-14
 -1      1850 5.77118E-03-1.39389E-03-1.52719E-14
 -1      1851 6.23437E-03-1.32693E-03-1.79435E-14
 -1      1852 6.42785E-03-1.31709E-03-1.90892E-14
 -1      1853 6.17718E-03-1.28836E-03-1.74571E-14
 -1      1854 6.61689E-03-1.32665E-03-2.02592E-14
 -1      1855 6.80015E-03-1.35151E-03-2.14516E-14
 -1      1856 6.55036E-03-1.27680E-03-1.97468E-14
 -1      1857 6.97906E-03-1.38860E-03-2.26687E-14
 -1      1858 7.15379E-03-1.43516E-03-2.39092E-14
 -1      1859 6.89997E-03-1.33124E-03-2.21331E-14
 -1      1860 7.32462E-03-1.48871E-03-2.51696E-14
 -1      1861 7.49230E-03-1.54761E-03-2.64534E-14
 -1      1862 7.23385E-03-1.42671E-03-2.46095E-14
 -1      1863 7.65665E-03-1.61024E-03-2.77582E-14
 -1      1864 7.81854E-03-1.67565E-03-2.90829E-14
 -1      1865 7.55674E-03-1.54568E-03-2.71730E-14
 -1      1866 7.98561E-03-1.74629E-03-3.04959E-14
 -1      1867 8.15054E-03-1.81832E-03-3.19311E-14
 -1      1868 7.87909E-03-1.68052E-03-2.98900E-14
 -1      1869 8.30544E-03-1.88769E-03-3.33181E-14
 -1      1870 8.45884E-03-1.95748E-03-3.47228E-14
 -1      1871 8.19457E-03-1.82158E-03-3.26897E-14
 -1      1872 8.61061E-03-2.02748E-03-3.61464E-14
 -1      1873 8.76120E-03-2.09750E-03-3.75861E-14
 -1      1874 8.49706E-03-1.96150E-03-3.54990E-14
 -1      1875 8.91057E-03-2.16743E-03-3.90431E-14
 -1      1876 9.05904E-03-2.23718E-03-4.05188E-14
 -1      1877 8.79541E-03-2.10177E-03-3.83789E-14
 -1      1878 9.20659E-03-2.30672E-03-4.20108E-14
 -1      1879 9.35347E-03-2.37598E-03-4.35199E-14
 -1      1880 9.09051E-03-2.24147E-03-4.13268E-14
 -1      1881 9.49966E-03-2.44499E-03-4.50453E-14
 -1      1882 9.64535E-03-2.51370E-03-4.65879E-14
 -1      1883 9.38309E-03-2.38016E-03-4.43442E-14
 -1      1884 9.79054E-03-2.58214E-03-4.81474E-14
 -1      1885 9.93535E-03-2.65029E-03-4.97216E-14
 -1      1886 9.67374E-03-2.51770E-03-4.74288E-14
 -1      1887 1.00870E-02-2.72158E-03-5.13911E-14
 -1      1888 1.02384E-02-2.79259E-03-5.30794E-14
 -1      1889 9.97016E-03-2.65750E-03-5.06572E-14
 -1      1890 1.03823E-02-2.85997E-03-5.47021E-14
 -1      1891 1.05260E-02-2.92714E-03-5.63397E-14
 -1      1892 1.02655E-02-2.79619E-03-5.39500E-14
 -1      1893 1.06695E-02-2.99410E-03-5.79914E-14
 -1      1894 1.08129E-02-3.06087E-03-5.96564E-14
 -1      1895 1.05528E-02-2.93056E-03-5.72236E-14
 -1      1896 1.09562E-02-3.12746E-03-6.13365E-14
 -1      1897 1.10993E-02-3.19390E-03-6.30301E-14
 -1      1898 1.08395E-02-3.06413E-03-6.05547E-14
 -1      1899 1.12424E-02-3.26019E-03-6.47355E-14
 -1      1900 1.13854E-02-3.32635E-03-6.64536E-14
 -1      1901 1.11258E-02-3.19702E-03-6.39397E-14
 -1      1902 1.15284E-02-3.39239E-03-6.81823E-14
 -1      1903 1.16713E-02-3.45833E-03-6.99185E-14
 -1      1904 1.14119E-02-3.32936E-03-6.73728E-14
 -1      1905 1.18142E-02-3.52416E-03-7.16637E-14
 -1      1906 1.19570E-02-3.58991E-03-7.34166E-14
 -1      1907 1.16978E-02-3.46123E-03-7.08438E-14
 -1      1908 1.21070E-02-3.65887E-03-7.52676E-14
 -1      1909 1.22570E-02-3.72775E-03-7.71287E-14
 -1      1910 1.19907E-02-3.59602E-03-7.44371E-14
 -1      1911 1.23998E-02-3.79329E-03-7.89066E-14
 -1      1912 1.25426E-02-3.85878E-03-8.06942E-14
 -1      1913 1.22835E-02-3.73050E-03-7.80657E-14
 -1      1914 1.26854E-02-3.92422E-03-8.24884E-14
 -1      1915 1.28281E-02-3.98962E-03-8.42892E-14
 -1      1916 1.25691E-02-3.86147E-03-8.16366E-14
 -1      1917 1.29709E-02-4.05499E-03-8.60988E-14
 -1      1918 1.31137E-02-4.12032E-03-8.79145E-14
 -1      1919 1.28548E-02-3.99228E-03-8.52422E-14
 -1      1920 1.32565E-02-4.18563E-03-8.97368E-14
 -1      1921 1.33993E-02-4.25092E-03-9.15676E-14
 -1      1922 1.31404E-02-4.12295E-03-8.88762E-14
 -1      1923 1.35421E-02-4.31619E-03-9.34039E-14
 -1      1924 1.36849E-02-4.38144E-03-9.52456E-14
 -1      1925 1.34260E-02-4.25352E-03-9.25386E-14
 -1      1926 1.38277E-02-4.44668E-03-9.70971E-14
 -1      1927 1.39705E-02-4.51191E-03-9.89558E-14
 -1      1928 1.37116E-02-4.38402E-03-9.62305E-14
 -1      1929 1.41205E-02-4.58039E-03-1.00914E-13
 -1      1930 1.42705E-02-4.64886E-03-1.02884E-13
 -1      1931 1.40044E-02-4.51773E-03-1.00045E-13
 -1      1932 1.44133E-02-4.71406E-03-1.04767E-13
 -1      1933 1.45561E-02-4.77926E-03-1.06654E-13
 -1      1934 1.42972E-02-4.65141E-03-1.03891E-13
 -1      1935 1.46989E-02-4.84446E-03-1.08548E-13
 -1      1936 1.48418E-02-4.90965E-03-1.10449E-13
 -1      1937 1.45829E-02-4.78181E-03-1.07668E-13
 -1      1938 1.49846E-02-4.97485E-03-1.12356E-13
 -1      1939 1.51275E-02-5.04004E-03-1.14271E-13
 -1      1940 1.48685E-02-4.91220E-03-1.11471E-13
 -1      1941 1.52703E-02-5.10524E-03-1.16189E-13
 -1      1942 1.54132E-02-5.17044E-03-1.18112E-13
 -1      1943 1.51542E-02-5.04259E-03-1.15299E-13
 -1      1944 1.55560E-02-5.23564E-03-1.20043E-13
 -1      1945 1.56989E-02-5.30084E-03-1.21976E-13
 -1      1946 1.54399E-02-5.17298E-03-1.19148E-13
 -1      1947 1.58608E-02-5.37377E-03-1.24240E-13
 -1      1948 1.42882E-03 5.11298E-04-1.16457E-15
 -1      1949 1.28086E-03 4.80020E-04-9.07667E-16
 -1      1950 1.72146E-03 5.68011E-04-1.78132E-15
 -1      1951 1.57573E-03 5.40581E-04-1.45561E-15
 -1      1952 1.48272E-03 4.87515E-04-1.37244E-15
 -1      1953 2.00990E-03 6.18801E-04-2.53552E-15
 -1      1954 1.86631E-03 5.94119E-04-2.14088E-15
 -1      1955 1.77846E-03 5.42712E-04-2.03056E-15
 -1      1956 2.29359E-03 6.63460E-04-3.42849E-15
 -1      1957 2.15247E-03 6.42036E-04-2.96467E-15
 -1      1958 2.07076E-03 5.92557E-04-2.82542E-15
 -1      1959 2.57164E-03 6.98700E-04-4.46079E-15
 -1      1960 2.43342E-03 6.82555E-04-3.92714E-15
 -1      1961 2.35898E-03 6.36148E-04-3.75825E-15
 -1      1962 2.84353E-03 7.18644E-04-5.63525E-15
 -1      1963 2.70836E-03 7.10994E-04-5.03045E-15
 -1      1964 2.64216E-03 6.69455E-04-4.83026E-15
 -1      1965 3.10974E-03 7.16078E-04-6.95074E-15
 -1      1966 2.97721E-03 7.20595E-04-6.27521E-15
 -1      1967 2.91975E-03 6.85888E-04-6.04291E-15
 -1      1968 3.37208E-03 6.84478E-04-8.40800E-15
 -1      1969 3.24113E-03 7.04206E-04-7.66173E-15
 -1      1970 3.19224E-03 6.77799E-04-7.39668E-15
 -1      1971 3.63355E-03 6.20201E-04-1.00039E-14
 -1      1972 3.50259E-03 6.56491E-04-9.18888E-15
 -1      1973 3.46154E-03 6.38765E-04-8.89061E-15
 -1      1974 3.89751E-03 5.23929E-04-1.17350E-14
 -1      1975 3.76490E-03 5.75864E-04-1.08528E-14
 -1      1976 3.73066E-03 5.65914E-04-1.05226E-14
 -1      1977 4.16681E-03 4.00618E-04-1.35950E-14
 -1      1978 4.03128E-03 4.65245E-04-1.26491E-14
 -1      1979 4.00278E-03 4.61162E-04-1.22884E-14
 -1      1980 4.44302E-03 2.58029E-04-1.55785E-14
 -1      1981 4.30398E-03 3.31235E-04-1.45715E-14
 -1      1982 4.28025E-03 3.30717E-04-1.41805E-14
 -1      1983 4.72628E-03 1.04616E-04-1.76775E-14
 -1      1984 4.58383E-03 1.82208E-04-1.66142E-14
 -1      1985 4.56394E-03 1.83150E-04-1.61947E-14
 -1      1986 5.01559E-03-5.23057E-05-1.98853E-14
 -1      1987 4.87032E-03 2.62347E-05-1.87689E-14
 -1      1988 4.85336E-03 2.70890E-05-1.83220E-14
 -1      1989 5.30933E-03-2.07547E-04-2.22021E-14
 -1      1990 5.16207E-03-1.30363E-04-2.10309E-14
 -1      1991 5.14711E-03-1.30505E-04-2.05592E-14
 -1      1992 5.60574E-03-3.58187E-04-2.46204E-14
 -1      1993 5.45736E-03-2.83550E-04-2.33974E-14
 -1      1994 5.44355E-03-2.85062E-04-2.29022E-14
 -1      1995 5.90327E-03-5.03162E-04-2.71430E-14
 -1      1996 5.75449E-03-4.31404E-04-2.58693E-14
 -1      1997 5.74115E-03-4.34290E-04-2.53475E-14
 -1      1998 6.20074E-03-6.42660E-04-2.97647E-14
 -1      1999 6.05211E-03-5.73565E-04-2.84417E-14
 -1      2000 6.03874E-03-5.77623E-04-2.78961E-14
 -1      2001 6.49734E-03-7.77545E-04-3.24788E-14
 -1      2002 6.34920E-03-7.10625E-04-3.11100E-14
 -1      2003 6.33551E-03-7.15567E-04-3.05412E-14
 -1      2004 6.79261E-03-9.08930E-04-3.52819E-14
 -1      2005 6.64517E-03-8.43615E-04-3.38694E-14
 -1      2006 6.63103E-03-8.49150E-04-3.32761E-14
 -1      2007 7.08635E-03-1.03791E-03-3.81684E-14
 -1      2008 6.93967E-03-9.73665E-04-3.67143E-14
 -1      2009 6.92508E-03-9.79536E-04-3.60990E-14
 -1      2010 7.37857E-03-1.16541E-03-4.11318E-14
 -1      2011 7.23264E-03-1.10180E-03-3.96409E-14
 -1      2012 7.21765E-03-1.10781E-03-3.90035E-14
 -1      2013 7.66937E-03-1.29217E-03-4.41722E-14
 -1      2014 7.52413E-03-1.22885E-03-4.26428E-14
 -1      2015 7.50884E-03-1.23485E-03-4.19857E-14
 -1      2016 7.95894E-03-1.41869E-03-4.72842E-14
 -1      2017 7.81429E-03-1.35543E-03-4.57192E-14
 -1      2018 7.79881E-03-1.36134E-03-4.50438E-14
 -1      2019 8.24749E-03-1.54534E-03-5.04626E-14
 -1      2020 8.10333E-03-1.48199E-03-4.88659E-14
 -1      2021 8.08773E-03-1.48774E-03-4.81709E-14
 -1      2022 8.53520E-03-1.67231E-03-5.37029E-14
 -1      2023 8.39143E-03-1.60878E-03-5.20745E-14
 -1      2024 8.37579E-03-1.61435E-03-5.13635E-14
 -1      2025 8.82227E-03-1.79971E-03-5.70041E-14
 -1      2026 8.67880E-03-1.73595E-03-5.53457E-14
 -1      2027 8.66317E-03-1.74135E-03-5.46166E-14
 -1      2028 9.10885E-03-1.92757E-03-6.03614E-14
 -1      2029 8.96561E-03-1.86358E-03-5.86773E-14
 -1      2030 8.95002E-03-1.86881E-03-5.79309E-14
 -1      2031 9.39508E-03-2.05588E-03-6.37725E-14
 -1      2032 9.25200E-03-1.99167E-03-6.20604E-14
 -1      2033 9.23648E-03-1.99675E-03-6.12990E-14
 -1      2034 9.68105E-03-2.18459E-03-6.72309E-14
 -1      2035 9.53809E-03-2.12018E-03-6.54961E-14
 -1      2036 9.52264E-03-2.12514E-03-6.47196E-14
 -1      2037 9.96685E-03-2.31367E-03-7.07284E-14
 -1      2038 9.82397E-03-2.24909E-03-6.89737E-14
 -1      2039 9.80859E-03-2.25394E-03-6.81864E-14
 -1      2040 1.02525E-02-2.44305E-03-7.42683E-14
 -1      2041 1.01097E-02-2.37832E-03-7.24948E-14
 -1      2042 1.00944E-02-2.38309E-03-7.16917E-14
 -1      2043 1.05382E-02-2.57267E-03-7.78577E-14
 -1      2044 1.03954E-02-2.50783E-03-7.60555E-14
 -1      2045 1.03801E-02-2.51253E-03-7.52412E-14
 -1      2046 1.08238E-02-2.70250E-03-8.14895E-14
 -1      2047 1.06810E-02-2.63757E-03-7.96678E-14
 -1      2048 1.06658E-02-2.64221E-03-7.88351E-14
 -1      2049 1.11093E-02-2.83249E-03-8.51753E-14
 -1      2050 1.09666E-02-2.76748E-03-8.33262E-14
 -1      2051 1.09514E-02-2.77208E-03-8.24786E-14
 -1      2052 1.13949E-02-2.96259E-03-8.89096E-14
 -1      2053 1.12521E-02-2.89752E-03-8.70370E-14
 -1      2054 1.12370E-02-2.90210E-03-8.61741E-14
 -1      2055 1.16805E-02-3.09278E-03-9.26911E-14
 -1      2056 1.15377E-02-3.02768E-03-9.07945E-14
 -1      2057 1.15227E-02-3.03223E-03-8.99155E-14
 -1      2058 1.19661E-02-3.22304E-03-9.65066E-14
 -1      2059 1.18233E-02-3.15791E-03-9.45943E-14
 -1      2060 1.18083E-02-3.16244E-03-9.37008E-14
 -1      2061 1.22518E-02-3.35335E-03-1.00358E-13
 -1      2062 1.21089E-02-3.28819E-03-9.84304E-14
 -1      2063 1.20939E-02-3.29272E-03-9.75225E-14
 -1      2064 1.25374E-02-3.48368E-03-1.04231E-13
 -1      2065 1.23946E-02-3.41851E-03-1.02293E-13
 -1      2066 1.23796E-02-3.42303E-03-1.01373E-13
 -1      2067 1.28231E-02-3.61403E-03-1.08118E-13
 -1      2068 1.26802E-02-3.54886E-03-1.06171E-13
 -1      2069 1.26652E-02-3.55338E-03-1.05244E-13
 -1      2070 1.31087E-02-3.74440E-03-1.12015E-13
 -1      2071 1.29659E-02-3.67921E-03-1.10066E-13
 -1      2072 1.29509E-02-3.68373E-03-1.09128E-13
 -1      2073 1.33944E-02-3.87476E-03-1.15923E-13
 -1      2074 1.32516E-02-3.80958E-03-1.13967E-13
 -1      2075 1.32366E-02-3.81410E-03-1.13025E-13
 -1      2076 1.36801E-02-4.00511E-03-1.19846E-13
 -1      2077 1.35373E-02-3.93994E-03-1.17885E-13
 -1      2078 1.35223E-02-3.94446E-03-1.16934E-13
 -1      2079 1.39388E-02-4.12232E-03-1.23457E-13
 -1      2080 1.37959E-02-4.05715E-03-1.21489E-13
 -1      2081 1.37809E-02-4.06168E-03-1.20537E-13
 -1      2082 1.40125E-02-4.16576E-03-1.23825E-13
 -1      2083 1.43570E-02-4.39319E-03-1.23936E-13
 -1      2084 1.42929E-02-4.35103E-03-1.23904E-13
 -1      2085 1.42288E-02-4.30888E-03-1.23875E-13
 -1      2086 1.41648E-02-4.26673E-03-1.23846E-13
 -1      2087 1.41371E-02-4.27351E-03-1.22191E-13
 -1      2088 1.40766E-02-4.20790E-03-1.23855E-13
 -1      2089 1.44829E-02-4.47607E-03-1.23992E-13
 -1      2090 1.44199E-02-4.43463E-03-1.23964E-13
 -1      2091 1.42642E-02-4.35711E-03-1.22253E-13
 -1      2092 1.46111E-02-4.56040E-03-1.24039E-13
 -1      2093 1.45470E-02-4.51824E-03-1.24015E-13
 -1      2094 1.43912E-02-4.44071E-03-1.22304E-13
 -1      2095 1.47392E-02-4.64473E-03-1.24071E-13
 -1      2096 1.46752E-02-4.60256E-03-1.24057E-13
 -1      2097 1.45194E-02-4.52503E-03-1.22343E-13
 -1      2098 1.48674E-02-4.72906E-03-1.24091E-13
 -1      2099 1.48033E-02-4.68690E-03-1.24085E-13
 -1      2100 1.46476E-02-4.60936E-03-1.22374E-13
 -1      2101 1.49956E-02-4.81340E-03-1.24085E-13
 -1      2102 1.49315E-02-4.77123E-03-1.24091E-13
 -1      2103 1.47758E-02-4.69369E-03-1.22386E-13
 -1      2104 1.51239E-02-4.89773E-03-1.24055E-13
 -1      2105 1.50597E-02-4.85556E-03-1.24074E-13
 -1      2106 1.49040E-02-4.77802E-03-1.22378E-13
 -1      2107 1.52499E-02-4.98063E-03-1.24005E-13
 -1      2108 1.51869E-02-4.93918E-03-1.24031E-13
 -1      2109 1.50311E-02-4.86164E-03-1.22347E-13
 -1      2110 1.53782E-02-5.06495E-03-1.23934E-13
 -1      2111 1.53141E-02-5.02279E-03-1.23971E-13
 -1      2112 1.51583E-02-4.94525E-03-1.22291E-13
 -1      2113 1.55065E-02-5.14926E-03-1.23856E-13
 -1      2114 1.54423E-02-5.10711E-03-1.23893E-13
 -1      2115 1.52866E-02-5.02956E-03-1.22221E-13
 -1      2116 1.56348E-02-5.23357E-03-1.23782E-13
 -1      2117 1.55706E-02-5.19142E-03-1.23818E-13
 -1      2118 1.54148E-02-5.11387E-03-1.22147E-13
 -1      2119 1.16433E-03 4.58330E-04-7.16292E-16
 -1      2120 1.01377E-03 4.21113E-04-5.21406E-16
 -1      2121 9.78957E-04 3.89627E-04-5.37995E-16
 -1      2122 1.21586E-03 4.37015E-04-8.85915E-16
 -1      2123 5.98639E-03-6.85895E-04-1.45601E-14
 -1      2124 6.15476E-03-7.45835E-04-1.47881E-14
 -1      2125 5.13948E-03-2.75473E-04-1.30772E-14
 -1      2126 5.36388E-03-3.87566E-04-1.34333E-14
 -1      2127 6.50448E-03-8.54001E-04-1.50920E-14
 -1      2128 6.54058E-03-8.71796E-04-1.51368E-14
 -1      2129 5.56758E-03-4.86176E-04-1.37739E-14
 -1      2130 5.76455E-03-5.80958E-04-1.41191E-14
 -1      2131 5.43763E-03-4.71957E-04-1.39640E-14
 -1      2132 3.16220E-04-5.58960E-05-1.85588E-16
 -1      2133 3.25342E-04-6.43799E-05-1.78609E-16
 -1      2134 4.44740E-04-9.70073E-05-2.59179E-16
 -1      2135 4.18501E-04-7.39837E-05-2.77922E-16
 -1      2136 4.65350E-03 1.21631E-05-1.19203E-14
 -1      2137 4.83968E-03-1.09486E-04-1.24572E-14
 -1      2138 4.31857E-03 1.94045E-04-1.09510E-14
 -1      2139 4.48370E-03 1.08961E-04-1.14290E-14
 -1      2140 4.52840E-03 5.47525E-05-1.18631E-14
 -1      2141 3.96941E-03 3.09643E-04-9.87822E-15
 -1      2142 4.12293E-03 2.69877E-04-1.03565E-14
 -1      2143 3.63573E-03 3.10068E-04-8.85625E-15
 -1      2144 3.78449E-03 3.25111E-04-9.31048E-15
 -1      2145 3.29175E-03 2.06934E-04-7.92972E-15
 -1      2146 3.44784E-03 2.66152E-04-8.32507E-15
 -1      2147 2.93246E-03 3.97812E-05-7.09728E-15
 -1      2148 3.11191E-03 1.30811E-04-7.50710E-15
 -1      2149 3.20941E-03 1.73388E-04-7.57093E-15
 -1      2150 2.47052E-03-1.72779E-04-6.38485E-15
 -1      2151 2.67017E-03-8.40905E-05-6.64953E-15
 -1      2152 2.11704E-03-3.13042E-04-5.95256E-15
 -1      2153 2.28047E-03-2.48358E-04-6.16448E-15
 -1      2154 1.84783E-03-4.12730E-04-5.54793E-15
 -1      2155 1.96317E-03-3.75546E-04-5.69779E-15
 -1      2156 1.70428E-03-4.64998E-04-5.37486E-15
 -1      2157 1.75171E-03-4.46431E-04-5.45403E-15
 -1      2158 1.73724E-03-4.98944E-04-5.26263E-15
 -1      2159 1.69709E-03-4.84065E-04-5.27867E-15
 -1      2160 1.98063E-03-6.06857E-04-5.54487E-15
 -1      2161 1.85342E-03-5.51424E-04-5.40246E-15
 -1      2162 2.30870E-03-7.59798E-04-5.84946E-15
 -1      2163 2.13495E-03-6.79672E-04-5.69596E-15
 -1      2164 2.73735E-03-9.83573E-04-6.25371E-15
 -1      2165 2.52517E-03-8.66355E-04-6.03987E-15
 -1      2166 3.22236E-03-1.29716E-03-6.87621E-15
 -1      2167 3.00792E-03-1.14639E-03-6.55917E-15
 -1      2168 3.65303E-03-1.60301E-03-7.64514E-15
 -1      2169 3.45413E-03-1.46241E-03-7.27464E-15
 -1      2170 4.04348E-03-1.83171E-03-8.52809E-15
 -1      2171 3.86721E-03-1.73753E-03-8.10365E-15
 -1      2172 4.40535E-03-1.92032E-03-9.53268E-15
 -1      2173 4.24919E-03-1.90157E-03-9.06228E-15
 -1      2174 4.74843E-03-1.84360E-03-1.05565E-14
 -1      2175 4.59510E-03-1.89580E-03-1.00996E-14
 -1      2176 5.08966E-03-1.66753E-03-1.15123E-14
 -1      2177 4.92805E-03-1.76059E-03-1.10667E-14
 -1      2178 5.45740E-03-1.44814E-03-1.24428E-14
 -1      2179 5.28501E-03-1.55402E-03-1.20215E-14
 -1      2180 5.81649E-03-1.23728E-03-1.33102E-14
 -1      2181 5.64497E-03-1.33814E-03-1.28854E-14
 -1      2182 6.17360E-03-1.05320E-03-1.41716E-14
 -1      2183 6.02566E-03-1.11940E-03-1.39014E-14
 -1      2184 6.40029E-03-9.57658E-04-1.46762E-14
 -1      2185 6.29613E-03-9.99401E-04-1.44226E-14
 -1      2186 6.23671E-03-1.01350E-03-1.48176E-14
 -1      2187 6.53626E-03-8.96667E-04-1.49991E-14
 -1      2188 6.49257E-03-9.18151E-04-1.48368E-14
 -1      2189 6.32881E-03-7.98471E-04-1.49348E-14
 -1      2190 6.43450E-03-8.27031E-04-1.50120E-14
 -1      2191 6.47603E-03-8.65626E-04-1.55982E-14
 -1      2192 1.57447E-02-5.31112E-03-1.23345E-13
 -1      2193 6.62543E-04-2.40228E-04-2.63949E-16
 -1      2194 5.85680E-03-6.69402E-04-1.47583E-14
 -1      2195 4.80290E-03-1.37755E-04-1.28870E-14
 -1      2196 4.95506E-03-2.06927E-04-1.29842E-14
 -1      2197 5.06950E-03-2.99552E-04-1.35212E-14
 -1      2198 7.13418E-04-2.26853E-04-3.59128E-16
 -1      2199 4.10539E-03-1.85650E-03-7.87995E-15
 -1      2200 4.15052E-03-1.88157E-03-8.24295E-15
 -1      2201 3.93571E-03-1.72956E-03-7.25993E-15
 -1      2202 4.88642E-03-1.85563E-03-1.12786E-14
 -1      2203 1.39849E-02-4.17254E-03-1.22169E-13
 -1      2204 1.57187E-02-5.29058E-03-1.23604E-13
 -1      2205 1.56607E-02-5.25411E-03-1.23521E-13
 -1      2206 1.55049E-02-5.17657E-03-1.21855E-13
 -1      2207 1.55568E-02-5.21764E-03-1.21340E-13
 -1      2208 6.24459E-03-8.06769E-04-1.53632E-14
 -1      2209 6.55002E-03-8.91756E-04-1.55421E-14
 -1      2210 6.45127E-03-9.35624E-04-1.52394E-14
 -1      2211 5.92199E-03-1.16213E-03-1.39559E-14
 -1      2212 5.53315E-03-1.38535E-03-1.29107E-14
 -1      2213 5.17523E-03-1.60991E-03-1.19450E-14
 -1      2214 4.83474E-03-1.81197E-03-1.09142E-14
 -1      2215 4.50652E-03-1.92615E-03-9.82816E-15
 -1      2216 4.16741E-03-1.88072E-03-8.72669E-15
 -1      2217 3.79066E-03-1.66868E-03-7.74424E-15
 -1      2218 3.37947E-03-1.36310E-03-6.90259E-15
 -1      2219 2.90675E-03-1.03407E-03-6.21882E-15
 -1      2220 2.43821E-03-7.71659E-04-5.74237E-15
 -1      2221 2.07310E-03-6.06077E-04-5.41389E-15
 -1      2222 1.78435E-03-4.97557E-04-5.12934E-15
 -1      2223 1.73313E-03-4.62665E-04-4.86384E-15
 -1      2224 1.84676E-03-4.94910E-04-4.99673E-15
 -1      2225 1.68982E-03-4.61309E-04-5.09085E-15
 -1      2226 1.79366E-03-4.28457E-04-5.27568E-15
 -1      2227 2.04125E-03-3.55260E-04-5.61029E-15
 -1      2228 2.80766E-03-2.72764E-05-6.71708E-15
 -1      2229 2.91527E-03 3.23061E-05-6.77911E-15
 -1      2230 2.68430E-03-8.62134E-05-6.35006E-15
 -1      2231 3.53761E-03 2.98405E-04-8.50860E-15
 -1      2232 4.20154E-03 2.34929E-04-1.07663E-14
 -1      2233 3.86643E-03 3.29046E-04-9.60129E-15
 -1      2234 2.37888E-03-2.25103E-04-6.07319E-15
 -1      2235 3.75193E-03-1.58740E-03-6.96679E-15
 -1      2236 4.92981E-04-6.30249E-05-4.19884E-16
 -1      2237 4.94743E-04-6.91190E-05-4.16916E-16
 -1      2238 4.99533E-04-7.52954E-05-4.12715E-16
 -1      2239 5.07516E-04-8.22752E-05-4.07009E-16
 -1      2240 5.97006E-04-8.93952E-05-5.60912E-16
 -1      2241 5.08770E-04-2.91811E-05-4.20128E-16
 -1      2242 5.02350E-04-3.97778E-05-4.21606E-16
 -1      2243 5.24051E-04-2.69971E-06-4.14409E-16
 -1      2244 5.16204E-04-1.68026E-05-4.17852E-16
 -1      2245 6.19291E-04-2.76553E-05-5.66550E-16
 -1      2246 5.39931E-04 3.00608E-05-4.04299E-16
 -1      2247 5.32046E-04 1.29090E-05-4.10045E-16
 -1      2248 6.39442E-04 6.77362E-06-5.57944E-16
 -1      2249 5.55578E-04 6.96394E-05-3.88646E-16
 -1      2250 5.47873E-04 4.91373E-05-3.97279E-16
 -1      2251 6.59722E-04 4.87457E-05-5.43592E-16
 -1      2252 5.71010E-04 1.15216E-04-3.65823E-16
 -1      2253 5.63265E-04 9.17109E-05-3.78481E-16
 -1      2254 6.79120E-04 9.78139E-05-5.21881E-16
 -1      2255 5.88518E-04 1.67622E-04-3.32362E-16
 -1      2256 5.79308E-04 1.40506E-04-3.50861E-16
 -1      2257 6.98429E-04 1.53290E-04-4.90507E-16
 -1      2258 6.13369E-04 2.29706E-04-2.83180E-16
 -1      2259 5.99687E-04 1.97278E-04-3.10258E-16
 -1      2260 7.21182E-04 2.16123E-04-4.45295E-16
 -1      2261 6.71847E-04 2.84621E-04-2.71294E-16
 -1      2262 6.41923E-04 2.55462E-04-2.80442E-16
 -1      2263 7.63985E-04 2.76890E-04-4.15195E-16
 -1      2264 8.25812E-04 3.32319E-04-4.06616E-16
 -1      2265 5.24074E-03-1.61556E-03-1.26759E-14
 -1      2266 5.48281E-03-1.48043E-03-1.37232E-14
 -1      2267 9.70936E-04-2.66760E-04-6.91463E-16
 -1      2268 1.12471E-03-2.96066E-04-9.07531E-16
 -1      2269 5.71404E-03-6.49748E-04-1.51095E-14
 -1      2270 5.92374E-03-7.38024E-04-1.55671E-14
 -1      2271 1.27796E-03-3.23886E-04-1.15468E-15
 -1      2272 1.43193E-03-3.51206E-04-1.43359E-15
 -1      2273 1.15346E-03-2.78383E-04-1.06486E-15
 -1      2274 1.59389E-03-3.81709E-04-1.75883E-15
 -1      2275 1.75767E-03-4.16030E-04-2.11894E-15
 -1      2276 1.45313E-03-3.33344E-04-1.64373E-15
 -1      2277 1.91572E-03-4.54678E-04-2.49277E-15
 -1      2278 2.07750E-03-5.02451E-04-2.89706E-15
 -1      2279 1.75348E-03-3.96855E-04-2.35065E-15
 -1      2280 2.24489E-03-5.61426E-04-3.33144E-15
 -1      2281 2.41938E-03-6.37514E-04-3.79745E-15
 -1      2282 2.05487E-03-4.83390E-04-3.16156E-15
 -1      2283 2.60555E-03-7.31293E-04-4.29416E-15
 -1      2284 2.80268E-03-8.53056E-04-4.82391E-15
 -1      2285 2.38139E-03-6.18328E-04-4.09154E-15
 -1      2286 3.04814E-03-1.01822E-03-5.37703E-15
 -1      2287 3.27337E-03-1.19851E-03-5.97746E-15
 -1      2288 1.38691E-02-4.12050E-03-1.20528E-13
 -1      2289 3.99937E-03-1.79010E-03-7.97049E-15
 -1      2290 4.15731E-03-1.87970E-03-8.49242E-15
 -1      2291 5.72294E-03-1.36404E-03-1.47882E-14
 -1      2292 5.93225E-03-1.28856E-03-1.58530E-14
 -1      2293 6.13121E-03-1.24521E-03-1.69466E-14
 -1      2294 6.31665E-03-1.22385E-03-1.80668E-14
 -1      2295 6.09641E-03-1.19902E-03-1.64380E-14
 -1      2296 6.49411E-03-1.22487E-03-1.92116E-14
 -1      2297 6.66385E-03-1.24193E-03-2.03798E-14
 -1      2298 6.45003E-03-1.17314E-03-1.86786E-14
 -1      2299 6.82865E-03-1.27303E-03-2.15715E-14
 -1      2300 6.98971E-03-1.31433E-03-2.27861E-14
 -1      2301 6.76885E-03-1.21716E-03-2.10140E-14
 -1      2302 7.14790E-03-1.36380E-03-2.40240E-14
 -1      2303 7.30431E-03-1.41945E-03-2.52821E-14
 -1      2304 7.07194E-03-1.30395E-03-2.34407E-14
 -1      2305 7.45886E-03-1.47959E-03-2.65633E-14
 -1      2306 7.61241E-03-1.54321E-03-2.78661E-14
 -1      2307 7.36910E-03-1.41636E-03-2.59562E-14
 -1      2308 7.77217E-03-1.61251E-03-2.92553E-14
 -1      2309 7.93111E-03-1.68373E-03-3.06664E-14
 -1      2310 7.67154E-03-1.54676E-03-2.86234E-14
 -1      2311 8.08137E-03-1.75262E-03-3.20321E-14
 -1      2312 8.23103E-03-1.82224E-03-3.34177E-14
 -1      2313 7.97289E-03-1.68531E-03-3.13776E-14
 -1      2314 8.37978E-03-1.89221E-03-3.48205E-14
 -1      2315 8.52800E-03-1.96237E-03-3.62423E-14
 -1      2316 8.26598E-03-1.82408E-03-3.41447E-14
 -1      2317 8.67547E-03-2.03252E-03-3.76816E-14
 -1      2318 8.82248E-03-2.10256E-03-3.91373E-14
 -1      2319 8.55807E-03-1.96404E-03-3.69854E-14
 -1      2320 8.96889E-03-2.17243E-03-4.06121E-14
 -1      2321 9.11490E-03-2.24205E-03-4.21021E-14
 -1      2322 8.84909E-03-2.10390E-03-3.98973E-14
 -1      2323 9.26044E-03-2.31141E-03-4.36090E-14
 -1      2324 9.40565E-03-2.38048E-03-4.51342E-14
 -1      2325 9.13909E-03-2.24300E-03-4.28759E-14
 -1      2326 9.55049E-03-2.44927E-03-4.66767E-14
 -1      2327 9.69507E-03-2.51776E-03-4.82340E-14
 -1      2328 9.42816E-03-2.38105E-03-4.59249E-14
 -1      2329 9.84658E-03-2.58938E-03-4.98855E-14
 -1      2330 9.99786E-03-2.66069E-03-5.15546E-14
 -1      2331 9.72363E-03-2.52139E-03-4.91157E-14
 -1      2332 1.01417E-02-2.72836E-03-5.31600E-14
 -1      2333 1.02854E-02-2.79577E-03-5.47817E-14
 -1      2334 1.00184E-02-2.66059E-03-5.23731E-14
 -1      2335 1.04290E-02-2.86297E-03-5.64174E-14
 -1      2336 1.05724E-02-2.92994E-03-5.80677E-14
 -1      2337 1.03055E-02-2.79540E-03-5.56118E-14
 -1      2338 1.07157E-02-2.99674E-03-5.97332E-14
 -1      2339 1.08590E-02-3.06334E-03-6.14120E-14
 -1      2340 1.05921E-02-2.92935E-03-5.89127E-14
 -1      2341 1.10021E-02-3.12979E-03-6.31020E-14
 -1      2342 1.11452E-02-3.19609E-03-6.48063E-14
 -1      2343 1.08785E-02-3.06257E-03-6.22668E-14
 -1      2344 1.12882E-02-3.26226E-03-6.65218E-14
 -1      2345 1.14312E-02-3.32830E-03-6.82479E-14
 -1      2346 1.11646E-02-3.19516E-03-6.56732E-14
 -1      2347 1.15742E-02-3.39424E-03-6.99821E-14
 -1      2348 1.17171E-02-3.46008E-03-7.17229E-14
 -1      2349 1.14506E-02-3.32725E-03-6.91208E-14
 -1      2350 1.18671E-02-3.52912E-03-7.35628E-14
 -1      2351 1.20172E-02-3.59807E-03-7.54131E-14
 -1      2352 1.17436E-02-3.46221E-03-7.26914E-14
 -1      2353 1.21600E-02-3.66367E-03-7.71801E-14
 -1      2354 1.23029E-02-3.72920E-03-7.89574E-14
 -1      2355 1.20365E-02-3.59682E-03-7.62977E-14
 -1      2356 1.24457E-02-3.79469E-03-8.07444E-14
 -1      2357 1.25885E-02-3.86013E-03-8.25375E-14
 -1      2358 1.23222E-02-3.72789E-03-7.98511E-14
 -1      2359 1.27314E-02-3.92553E-03-8.43390E-14
 -1      2360 1.28742E-02-3.99089E-03-8.61501E-14
 -1      2361 1.26079E-02-3.85877E-03-8.34387E-14
 -1      2362 1.30170E-02-4.05622E-03-8.79711E-14
 -1      2363 1.31598E-02-4.12153E-03-8.97965E-14
 -1      2364 1.28936E-02-3.98949E-03-8.70622E-14
 -1      2365 1.33026E-02-4.18682E-03-9.16292E-14
 -1      2366 1.34455E-02-4.25208E-03-9.34695E-14
 -1      2367 1.31793E-02-4.12011E-03-9.07183E-14
 -1      2368 1.35883E-02-4.31733E-03-9.53154E-14
 -1      2369 1.37311E-02-4.38257E-03-9.71717E-14
 -1      2370 1.34650E-02-4.25064E-03-9.44007E-14
 -1      2371 1.38811E-02-4.45105E-03-9.91301E-14
 -1      2372 1.40311E-02-4.51953E-03-1.01093E-13
 -1      2373 1.37578E-02-4.38437E-03-9.82088E-14
 -1      2374 1.41739E-02-4.58474E-03-1.02969E-13
 -1      2375 1.43167E-02-4.64994E-03-1.04853E-13
 -1      2376 1.40506E-02-4.51806E-03-1.02049E-13
 -1      2377 1.44596E-02-4.71514E-03-1.06745E-13
 -1      2378 1.46024E-02-4.78033E-03-1.08639E-13
 -1      2379 1.43363E-02-4.64846E-03-1.05818E-13
 -1      2380 1.47453E-02-4.84553E-03-1.10541E-13
 -1      2381 1.48881E-02-4.91072E-03-1.12448E-13
 -1      2382 1.46220E-02-4.77885E-03-1.09609E-13
 -1      2383 1.50310E-02-4.97591E-03-1.14363E-13
 -1      2384 1.51738E-02-5.04111E-03-1.16282E-13
 -1      2385 1.49077E-02-4.90924E-03-1.13426E-13
 -1      2386 1.52939E-02-5.09678E-03-1.17839E-13
 -1      2387 1.54367E-02-5.16197E-03-1.19771E-13
 -1      2388 1.54108E-02-5.14143E-03-1.20027E-13
 -1      2389 1.51706E-02-5.03010E-03-1.16901E-13
 -1      2390 2.13576E-03 5.64975E-04-3.11985E-15
 -1      2391 1.98787E-03 5.41155E-04-2.68522E-15
 -1      2392 1.83914E-03 5.16070E-04-2.28479E-15
 -1      2393 1.68997E-03 4.89930E-04-1.91855E-15
 -1      2394 1.90333E-03 4.88262E-04-2.54397E-15
 -1      2395 1.54015E-03 4.62483E-04-1.58584E-15
 -1      2396 1.38993E-03 4.33625E-04-1.28651E-15
 -1      2397 1.60066E-03 4.36330E-04-1.80465E-15
 -1      2398 2.42902E-03 6.07595E-04-4.09166E-15
 -1      2399 2.28295E-03 5.87313E-04-3.58857E-15
 -1      2400 2.20473E-03 5.36289E-04-3.41803E-15
 -1      2401 2.71765E-03 6.39103E-04-5.20263E-15
 -1      2402 2.57400E-03 6.25167E-04-4.62934E-15
 -1      2403 2.50335E-03 5.78105E-04-4.42842E-15
 -1      2404 3.00085E-03 6.52083E-04-6.45289E-15
 -1      2405 2.85989E-03 6.48446E-04-5.81028E-15
 -1      2406 2.79744E-03 6.07963E-04-5.57697E-15
 -1      2407 3.27911E-03 6.38311E-04-7.84430E-15
 -1      2408 3.14040E-03 6.49024E-04-7.13091E-15
 -1      2409 3.08591E-03 6.17430E-04-6.86515E-15
 -1      2410 3.55457E-03 5.91444E-04-9.37477E-15
 -1      2411 3.41686E-03 6.19269E-04-8.59207E-15
 -1      2412 3.36934E-03 5.97585E-04-8.29289E-15
 -1      2413 3.83049E-03 5.09500E-04-1.10431E-14
 -1      2414 3.69211E-03 5.54765E-04-1.01921E-14
 -1      2415 3.65034E-03 5.42216E-04-9.86082E-15
 -1      2416 4.11003E-03 3.95887E-04-1.28423E-14
 -1      2417 3.96954E-03 4.56247E-04-1.19263E-14
 -1      2418 3.93264E-03 4.50532E-04-1.15642E-14
 -1      2419 4.39510E-03 2.58247E-04-1.47673E-14
 -1      2420 4.25179E-03 3.29488E-04-1.37896E-14
 -1      2421 4.21940E-03 3.27729E-04-1.33978E-14
 -1      2422 4.68584E-03 1.06011E-04-1.68117E-14
 -1      2423 4.53983E-03 1.83374E-04-1.57752E-14
 -1      2424 4.51193E-03 1.83060E-04-1.53553E-14
 -1      2425 4.98105E-03-5.21388E-05-1.89675E-14
 -1      2426 4.83304E-03 2.72205E-05-1.78761E-14
 -1      2427 4.80951E-03 2.67073E-05-1.74303E-14
 -1      2428 5.27898E-03-2.09770E-04-2.12338E-14
 -1      2429 5.12986E-03-1.31306E-04-2.00872E-14
 -1      2430 5.11021E-03-1.32803E-04-1.96162E-14
 -1      2431 5.57791E-03-3.63072E-04-2.36027E-14
 -1      2432 5.42848E-03-2.87099E-04-2.24051E-14
 -1      2433 5.41193E-03-2.89774E-04-2.19091E-14
 -1      2434 5.87658E-03-5.10459E-04-2.60763E-14
 -1      2435 5.72740E-03-4.37534E-04-2.48268E-14
 -1      2436 5.71300E-03-4.41279E-04-2.43071E-14
 -1      2437 6.17416E-03-6.51874E-04-2.86491E-14
 -1      2438 6.02558E-03-5.81878E-04-2.73503E-14
 -1      2439 6.01243E-03-5.86466E-04-2.68055E-14
 -1      2440 6.47025E-03-7.88121E-04-3.13167E-14
 -1      2441 6.32243E-03-7.20580E-04-2.99720E-14
 -1      2442 6.30980E-03-7.25768E-04-2.94035E-14
 -1      2443 6.76472E-03-9.20354E-04-3.40747E-14
 -1      2444 6.61770E-03-8.54669E-04-3.26844E-14
 -1      2445 6.60508E-03-8.60242E-04-3.20941E-14
 -1      2446 7.05761E-03-1.04976E-03-3.69173E-14
 -1      2447 6.91136E-03-9.85346E-04-3.54856E-14
 -1      2448 6.89844E-03-9.91129E-04-3.48738E-14
 -1      2449 7.34906E-03-1.17737E-03-3.98406E-14
 -1      2450 7.20350E-03-1.11373E-03-3.83698E-14
 -1      2451 7.19015E-03-1.11959E-03-3.77363E-14
 -1      2452 7.63925E-03-1.30401E-03-4.28414E-14
 -1      2453 7.49430E-03-1.24077E-03-4.13320E-14
 -1      2454 7.48048E-03-1.24661E-03-4.06787E-14
 -1      2455 7.92839E-03-1.43030E-03-4.59147E-14
 -1      2456 7.78394E-03-1.36717E-03-4.43690E-14
 -1      2457 7.76970E-03-1.37292E-03-4.36967E-14
 -1      2458 8.21667E-03-1.55663E-03-4.90587E-14
 -1      2459 8.07262E-03-1.49344E-03-4.74778E-14
 -1      2460 8.05804E-03-1.49906E-03-4.67864E-14
 -1      2461 8.50425E-03-1.68326E-03-5.22641E-14
 -1      2462 8.36053E-03-1.61989E-03-5.06537E-14
 -1      2463 8.34568E-03-1.62538E-03-4.99443E-14
 -1      2464 8.79128E-03-1.81032E-03-5.55308E-14
 -1      2465 8.64782E-03-1.74673E-03-5.38897E-14
 -1      2466 8.63278E-03-1.75206E-03-5.31649E-14
 -1      2467 9.07790E-03-1.93787E-03-5.88563E-14
 -1      2468 8.93463E-03-1.87404E-03-5.71864E-14
 -1      2469 8.91947E-03-1.87923E-03-5.64436E-14
 -1      2470 9.36421E-03-2.06591E-03-6.22357E-14
 -1      2471 9.22109E-03-2.00183E-03-6.05398E-14
 -1      2472 9.20585E-03-2.00690E-03-5.97812E-14
 -1      2473 9.65029E-03-2.19440E-03-6.56661E-14
 -1      2474 9.50727E-03-2.13010E-03-6.39444E-14
 -1      2475 9.49201E-03-2.13506E-03-6.31717E-14
 -1      2476 9.93621E-03-2.32329E-03-6.91387E-14
 -1      2477 9.79326E-03-2.25880E-03-6.73984E-14
 -1      2478 9.77800E-03-2.26365E-03-6.66104E-14
 -1      2479 1.02220E-02-2.45251E-03-7.26544E-14
 -1      2480 1.00791E-02-2.38786E-03-7.08907E-14
 -1      2481 1.00639E-02-2.39264E-03-7.00907E-14
 -1      2482 1.05077E-02-2.58202E-03-7.62105E-14
 -1      2483 1.03649E-02-2.51723E-03-7.44268E-14
 -1      2484 1.03497E-02-2.52195E-03-7.36144E-14
 -1      2485 1.07934E-02-2.71176E-03-7.98140E-14
 -1      2486 1.06506E-02-2.64686E-03-7.80069E-14
 -1      2487 1.06354E-02-2.65152E-03-7.71791E-14
 -1      2488 1.10791E-02-2.84167E-03-8.34682E-14
 -1      2489 1.09363E-02-2.77669E-03-8.16343E-14
 -1      2490 1.09211E-02-2.78131E-03-8.07910E-14
 -1      2491 1.13647E-02-2.97172E-03-8.71693E-14
 -1      2492 1.12219E-02-2.90668E-03-8.53124E-14
 -1      2493 1.12068E-02-2.91127E-03-8.44547E-14
 -1      2494 1.16504E-02-3.10188E-03-9.09210E-14
 -1      2495 1.15076E-02-3.03679E-03-8.90398E-14
 -1      2496 1.14925E-02-3.04135E-03-8.81655E-14
 -1      2497 1.19360E-02-3.23211E-03-9.47102E-14
 -1      2498 1.17932E-02-3.16699E-03-9.28107E-14
 -1      2499 1.17781E-02-3.17154E-03-9.19232E-14
 -1      2500 1.22217E-02-3.36240E-03-9.85363E-14
 -1      2501 1.20789E-02-3.29725E-03-9.66192E-14
 -1      2502 1.20638E-02-3.30179E-03-9.57185E-14
 -1      2503 1.25074E-02-3.49273E-03-1.02384E-13
 -1      2504 1.23645E-02-3.42756E-03-1.00458E-13
 -1      2505 1.23495E-02-3.43209E-03-9.95446E-14
 -1      2506 1.27930E-02-3.62308E-03-1.06256E-13
 -1      2507 1.26502E-02-3.55790E-03-1.04320E-13
 -1      2508 1.26352E-02-3.56242E-03-1.03395E-13
 -1      2509 1.30787E-02-3.75344E-03-1.10139E-13
 -1      2510 1.29359E-02-3.68826E-03-1.08194E-13
 -1      2511 1.29209E-02-3.69278E-03-1.07266E-13
 -1      2512 1.33644E-02-3.88380E-03-1.14033E-13
 -1      2513 1.32216E-02-3.81862E-03-1.12085E-13
 -1      2514 1.32066E-02-3.82314E-03-1.11145E-13
 -1      2515 1.36501E-02-4.01416E-03-1.17945E-13
 -1      2516 1.35073E-02-3.94898E-03-1.15988E-13
 -1      2517 1.34923E-02-3.95351E-03-1.15042E-13
 -1      2518 4.31231E-03-1.94093E-03-9.02555E-15
 -1      2519 1.42996E-02-4.40534E-03-1.20616E-13
 -1      2520 1.42355E-02-4.36319E-03-1.20594E-13
 -1      2521 1.41725E-02-4.32174E-03-1.20569E-13
 -1      2522 1.41095E-02-4.28030E-03-1.20539E-13
 -1      2523 1.40808E-02-4.28637E-03-1.18887E-13
 -1      2524 1.40455E-02-4.23815E-03-1.20511E-13
 -1      2525 1.39814E-02-4.19600E-03-1.20480E-13
 -1      2526 1.39538E-02-4.20278E-03-1.18831E-13
 -1      2527 6.17328E-03-8.19344E-04-1.58913E-14
 -1      2528 6.33171E-03-8.56865E-04-1.60496E-14
 -1      2529 1.44277E-02-4.48967E-03-1.20651E-13
 -1      2530 1.43636E-02-4.44751E-03-1.20635E-13
 -1      2531 1.42079E-02-4.36998E-03-1.18931E-13
 -1      2532 1.45559E-02-4.57399E-03-1.20679E-13
 -1      2533 1.44918E-02-4.53183E-03-1.20666E-13
 -1      2534 1.43360E-02-4.45430E-03-1.18965E-13
 -1      2535 1.46841E-02-4.65832E-03-1.20685E-13
 -1      2536 1.46200E-02-4.61616E-03-1.20685E-13
 -1      2537 1.44642E-02-4.53862E-03-1.18987E-13
 -1      2538 1.48123E-02-4.74265E-03-1.20673E-13
 -1      2539 1.47482E-02-4.70049E-03-1.20681E-13
 -1      2540 1.45924E-02-4.62295E-03-1.18991E-13
 -1      2541 1.49384E-02-4.82555E-03-1.20637E-13
 -1      2542 1.48753E-02-4.78410E-03-1.20658E-13
 -1      2543 1.47196E-02-4.70656E-03-1.18973E-13
 -1      2544 1.50666E-02-4.90987E-03-1.20582E-13
 -1      2545 1.50025E-02-4.86771E-03-1.20611E-13
 -1      2546 1.48467E-02-4.79017E-03-1.18934E-13
 -1      2547 1.51949E-02-4.99418E-03-1.20516E-13
 -1      2548 1.51308E-02-4.95203E-03-1.20551E-13
 -1      2549 1.49750E-02-4.87449E-03-1.18881E-13
 -1      2550 1.53232E-02-5.07849E-03-1.20446E-13
 -1      2551 1.52591E-02-5.03633E-03-1.20477E-13
 -1      2552 1.51033E-02-4.95880E-03-1.18817E-13
 -1      2553 6.18058E-04-1.75789E-04-3.33514E-16
 -1      2554 8.25075E-04-2.31042E-04-5.28399E-16
 -1      2555 8.66173E-04-2.18393E-04-6.47621E-16
 -1      2556 5.93039E-04-1.49592E-04-3.55930E-16
 -1      2557 6.56054E-03-9.04421E-04-1.62334E-14
 -1      2558 6.55608E-03-9.09529E-04-1.60939E-14
 -1      2559 6.00009E-03-1.12164E-03-1.46095E-14
 -1      2560 5.80211E-03-1.22260E-03-1.40024E-14
 -1      2561 3.45910E-03 2.84827E-04-8.19215E-15
 -1      2562 3.61005E-03 3.27000E-04-8.71384E-15
 -1      2563 5.36362E-03-4.77232E-04-1.43885E-14
 -1      2564 5.54212E-03-5.68520E-04-1.47449E-14
 -1      2565 5.64515E-03-6.39275E-04-1.55429E-14
 -1      2566 4.97197E-04-4.87908E-05-4.21985E-16
 -1      2567 4.93972E-04-5.64062E-05-4.21416E-16
 -1      2568 5.93273E-04-7.37843E-05-5.68325E-16
 -1      2569 6.02297E-04-5.42799E-05-5.70019E-16
 -1      2570 3.78042E-03 3.41171E-04-9.33186E-15
 -1      2571 3.92619E-03 3.25128E-04-9.89755E-15
 -1      2572 4.41882E-03 1.02270E-04-1.17755E-14
 -1      2573 4.56020E-03 9.29084E-06-1.22742E-14
 -1      2574 2.27154E-03-2.70462E-04-5.70801E-15
 -1      2575 2.43552E-03-2.00029E-04-5.91164E-15
 -1      2576 4.09568E-03 2.74057E-04-1.05515E-14
 -1      2577 4.25137E-03 1.98361E-04-1.11515E-14
 -1      2578 3.13353E-03 1.46524E-04-7.23614E-15
 -1      2579 3.28174E-03 2.18242E-04-7.64495E-15
 -1      2580 1.96465E-03-3.72322E-04-5.22024E-15
 -1      2581 2.11049E-03-3.29614E-04-5.46060E-15
 -1      2582 2.16106E-03-2.94280E-04-5.30634E-15
 -1      2583 1.73590E-03-4.29007E-04-4.94768E-15
 -1      2584 1.82119E-03-4.11048E-04-5.03270E-15
 -1      2585 1.67645E-03-4.39828E-04-4.75862E-15
 -1      2586 1.68709E-03-4.39950E-04-4.85186E-15
 -1      2587 1.68982E-03-4.16235E-04-4.61543E-15
 -1      2588 2.16681E-03-6.02061E-04-5.22538E-15
 -1      2589 2.01689E-03-5.45753E-04-5.08541E-15
 -1      2590 2.54105E-03-7.76431E-04-5.56760E-15
 -1      2591 2.34331E-03-6.80886E-04-5.39298E-15
 -1      2592 2.25554E-03-6.13257E-04-5.05733E-15
 -1      2593 3.11031E-03-1.10997E-03-6.10802E-15
 -1      2594 2.87507E-03-9.54131E-04-5.82364E-15
 -1      2595 5.37860E-03-1.48335E-03-1.28456E-14
 -1      2596 5.21408E-03-1.59522E-03-1.23149E-14
 -1      2597 5.66986E-03-1.29841E-03-1.36487E-14
 -1      2598 5.50805E-03-1.39976E-03-1.31895E-14
 -1      2599 5.53623E-03-1.39948E-03-1.35780E-14
 -1      2600 5.77918E-03-1.25049E-03-1.42906E-14
 -1      2601 6.31117E-03-9.92816E-04-1.55487E-14
 -1      2602 6.20334E-03-1.03307E-03-1.52868E-14
 -1      2603 6.51411E-03-9.24409E-04-1.59244E-14
 -1      2604 6.43446E-03-9.47242E-04-1.57559E-14
 -1      2605 6.55979E-03-9.28962E-04-1.66172E-14
 -1      2606 6.44341E-03-8.78863E-04-1.60867E-14
 -1      2607 6.51124E-03-8.90016E-04-1.61714E-14
 -1      2608 1.38541E-02-4.12503E-03-1.19577E-13
 -1      2609 6.16783E-04-1.06514E-04-5.45909E-16
 -1      2610 5.18792E-04-9.07495E-05-3.99325E-16
 -1      2611 5.33139E-04-1.01597E-04-3.89500E-16
 -1      2612 9.45711E-04 3.60787E-04-5.45774E-16
 -1      2613 9.14033E-04 3.32369E-04-5.50517E-16
 -1      2614 1.06523E-03 3.85897E-04-7.07144E-16
 -1      2615 6.55624E-03-9.13341E-04-1.67260E-14
 -1      2616 4.53454E-03-1.95206E-03-9.85540E-15
 -1      2617 4.67718E-03-7.42063E-05-1.27932E-14
 -1      2618 4.79411E-03-1.58452E-04-1.33217E-14
 -1      2619 4.57632E-03-1.72883E-05-1.26953E-14
 -1      2620 6.05371E-03-7.97450E-04-1.62484E-14
 -1      2621 2.79308E-03-8.57924E-04-5.13675E-15
 -1      2622 4.77672E-03-1.87818E-03-1.08302E-14
 -1      2623 4.98680E-03-1.76903E-03-1.16628E-14
 -1      2624 3.99482E-03 3.04502E-04-1.02629E-14
 -1      2625 3.68261E-03 3.42266E-04-8.99210E-15
 -1      2626 3.85659E-03-1.67616E-03-7.42310E-15
 -1      2627 3.82475E-03-1.67687E-03-7.65279E-15
 -1      2628 6.39369E-03-8.86118E-04-1.66225E-14
 -1      2629 1.53848E-02-5.12089E-03-1.20282E-13
 -1      2630 1.52291E-02-5.04336E-03-1.18622E-13
 -1      2631 5.70451E-04-1.28682E-04-3.73724E-16
 -1      2632 1.28693E-03 4.21764E-04-1.07968E-15
 -1      2633 1.16813E-03 4.01237E-04-8.75209E-16
 -1      2634 1.13735E-03 3.72861E-04-8.77255E-16
 -1      2635 1.34491E-03 3.98152E-04-1.26445E-15
 -1      2636 6.10984E-03-1.08820E-03-1.53318E-14
 -1      2637 5.06309E-03-3.27649E-04-1.41740E-14
 -1      2638 5.20389E-03-4.03757E-04-1.42823E-14
 -1      2639 5.33550E-03-4.88941E-04-1.50593E-14
 -1      2640 3.64345E-03-1.53463E-03-7.21339E-15
 -1      2641 6.41318E-03-9.74495E-04-1.62341E-14
 -1      2642 2.74221E-03-8.55107E-04-5.46107E-15
 -1      2643 1.68564E-03-4.35439E-04-4.62519E-15
 -1      2644 1.65307E-03-4.13788E-04-4.39226E-15
 -1      2645 1.70942E-03-4.28756E-04-4.49382E-15
 -1      2646 1.86777E-03-3.81424E-04-4.88741E-15
 -1      2647 3.00487E-03 9.22276E-05-6.84870E-15
 -1      2648 3.06876E-03 1.47285E-04-6.91327E-15
 -1      2649 2.87654E-03 4.08802E-05-6.47365E-15
 -1      2650 1.91382E-03-4.94231E-04-4.81410E-15
 -1      2651 3.36232E-03 2.64507E-04-7.83510E-15
 -1      2652 2.55186E-03-1.39052E-04-5.96784E-15
 -1      2653 2.65003E-03-7.43295E-05-6.02182E-15
 -1      2654 2.42373E-03-1.77162E-04-5.60000E-15
 -1      2655 5.66775E-03-1.34802E-03-1.42747E-14
 -1      2656 4.30531E-03 1.58434E-04-1.15456E-14
 -1      2657 3.57998E-03-1.45020E-03-6.68325E-15
 -1      2658 4.67803E-03-1.91445E-03-1.04370E-14
 -1      2659 3.35976E-03-1.28705E-03-6.38823E-15
 -1      2660 3.44185E-03-1.37750E-03-6.81910E-15
 -1      2661 1.37624E-02-4.08966E-03-1.17900E-13
 -1      2662 4.93685E-03-1.76032E-03-1.13187E-14
 -1      2663 4.78495E-03-1.84640E-03-1.07997E-14
 -1      2664 7.59369E-04 1.98666E-05-7.23556E-16
 -1      2665 7.46784E-04-2.65135E-06-7.30481E-16
 -1      2666 7.33912E-04-2.34492E-05-7.35536E-16
 -1      2667 7.21734E-04-4.18705E-05-7.39304E-16
 -1      2668 8.53120E-04-1.58805E-05-9.26939E-16
 -1      2669 8.06947E-04 1.29863E-04-6.75228E-16
 -1      2670 7.95651E-04 9.98684E-05-6.91084E-16
 -1      2671 8.30036E-04 1.94659E-04-6.33947E-16
 -1      2672 8.18341E-04 1.61484E-04-6.56525E-16
 -1      2673 9.38570E-04 1.65503E-04-8.48239E-16
 -1      2674 8.83769E-04 3.04829E-04-5.52374E-16
 -1      2675 8.54941E-04 2.78074E-04-5.52035E-16
 -1      2676 1.00362E-03 3.29743E-04-7.11752E-16
 -1      2677 5.15665E-03-1.64235E-03-1.21926E-14
 -1      2678 3.89812E-03 3.30188E-04-9.97097E-15
 -1      2679 4.04197E-03 2.82389E-04-1.06251E-14
 -1      2680 1.31929E-03-2.90723E-04-1.52077E-15
 -1      2681 1.46373E-03-3.18648E-04-1.85315E-15
 -1      2682 1.59987E-03-3.47677E-04-2.19986E-15
 -1      2683 1.73658E-03-3.80402E-04-2.57678E-15
 -1      2684 1.46128E-03-3.06220E-04-2.05090E-15
 -1      2685 1.87349E-03-4.18543E-04-2.98249E-15
 -1      2686 2.01408E-03-4.64979E-04-3.41708E-15
 -1      2687 1.71134E-03-3.66737E-04-2.80563E-15
 -1      2688 6.36714E-03-8.97761E-04-1.72018E-14
 -1      2689 6.46750E-03-9.13917E-04-1.72444E-14
 -1      2690 1.51090E-02-4.98769E-03-1.17060E-13
 -1      2691 6.21349E-03-1.07199E-03-1.60993E-14
 -1      2692 6.02345E-03-1.14779E-03-1.54064E-14
 -1      2693 6.41824E-03-1.12544E-03-1.81442E-14
 -1      2694 6.57158E-03-1.13899E-03-1.92890E-14
 -1      2695 6.71848E-03-1.16671E-03-2.04567E-14
 -1      2696 6.86244E-03-1.20421E-03-2.16466E-14
 -1      2697 6.67842E-03-1.11767E-03-1.99017E-14
 -1      2698 7.00420E-03-1.24998E-03-2.28597E-14
 -1      2699 7.14572E-03-1.30194E-03-2.40939E-14
 -1      2700 6.94444E-03-1.19877E-03-2.22811E-14
 -1      2701 7.28689E-03-1.35869E-03-2.53498E-14
 -1      2702 7.42870E-03-1.41936E-03-2.66282E-14
 -1      2703 7.21097E-03-1.30415E-03-2.47481E-14
 -1      2704 7.57782E-03-1.48600E-03-2.79931E-14
 -1      2705 7.72774E-03-1.55510E-03-2.93808E-14
 -1      2706 7.48909E-03-1.42796E-03-2.73655E-14
 -1      2707 7.87076E-03-1.62235E-03-3.07241E-14
 -1      2708 8.01433E-03-1.69075E-03-3.20874E-14
 -1      2709 7.77250E-03-1.56155E-03-3.00740E-14
 -1      2710 8.15801E-03-1.75978E-03-3.34694E-14
 -1      2711 8.30202E-03-1.82929E-03-3.48706E-14
 -1      2712 8.05302E-03-1.69708E-03-3.27970E-14
 -1      2713 8.44602E-03-1.89897E-03-3.62901E-14
 -1      2714 8.59018E-03-1.96875E-03-3.77274E-14
 -1      2715 8.33624E-03-1.83506E-03-3.55976E-14
 -1      2716 8.73427E-03-2.03846E-03-3.91824E-14
 -1      2717 8.87839E-03-2.10805E-03-4.06549E-14
 -1      2718 8.62114E-03-1.97384E-03-3.84699E-14
 -1      2719 9.02240E-03-2.17745E-03-4.21439E-14
 -1      2720 9.16638E-03-2.24662E-03-4.36487E-14
 -1      2721 8.90696E-03-2.11246E-03-4.14127E-14
 -1      2722 9.31024E-03-2.31553E-03-4.51716E-14
 -1      2723 9.45403E-03-2.38419E-03-4.67125E-14
 -1      2724 9.19322E-03-2.25040E-03-4.44222E-14
 -1      2725 9.60489E-03-2.45599E-03-4.83468E-14
 -1      2726 9.75567E-03-2.52750E-03-4.99970E-14
 -1      2727 9.48680E-03-2.39085E-03-4.75786E-14
 -1      2728 9.89916E-03-2.59535E-03-5.15854E-14
 -1      2729 1.00426E-02-2.66294E-03-5.31903E-14
 -1      2730 9.78037E-03-2.53027E-03-5.08004E-14
 -1      2731 1.01859E-02-2.73031E-03-5.48097E-14
 -1      2732 1.03292E-02-2.79746E-03-5.64441E-14
 -1      2733 1.00667E-02-2.66533E-03-5.40095E-14
 -1      2734 1.04724E-02-2.86441E-03-5.80936E-14
 -1      2735 1.06156E-02-2.93117E-03-5.97568E-14
 -1      2736 1.03529E-02-2.79954E-03-5.72765E-14
 -1      2737 1.07587E-02-2.99776E-03-6.14340E-14
 -1      2738 1.09017E-02-3.06418E-03-6.31234E-14
 -1      2739 1.06390E-02-2.93299E-03-6.06008E-14
 -1      2740 1.10448E-02-3.13046E-03-6.48245E-14
 -1      2741 1.11878E-02-3.19661E-03-6.65381E-14
 -1      2742 1.09250E-02-3.06579E-03-6.39794E-14
 -1      2743 1.13307E-02-3.26265E-03-6.82618E-14
 -1      2744 1.14737E-02-3.32857E-03-6.99929E-14
 -1      2745 1.12109E-02-3.19806E-03-6.74026E-14
 -1      2746 1.16237E-02-3.39769E-03-7.18206E-14
 -1      2747 1.17738E-02-3.46671E-03-7.36591E-14
 -1      2748 1.15039E-02-3.33317E-03-7.09519E-14
 -1      2749 1.19167E-02-3.53236E-03-7.54190E-14
 -1      2750 1.20596E-02-3.59795E-03-7.71849E-14
 -1      2751 1.17969E-02-3.46791E-03-7.45388E-14
 -1      2752 1.22024E-02-3.66349E-03-7.89607E-14
 -1      2753 1.23453E-02-3.72897E-03-8.07465E-14
 -1      2754 1.20826E-02-3.59908E-03-7.80736E-14
 -1      2755 1.24882E-02-3.79440E-03-8.25419E-14
 -1      2756 1.26310E-02-3.85979E-03-8.43436E-14
 -1      2757 1.23684E-02-3.73003E-03-8.16431E-14
 -1      2758 1.27739E-02-3.92515E-03-8.61532E-14
 -1      2759 1.29167E-02-3.99048E-03-8.79749E-14
 -1      2760 1.26541E-02-3.86081E-03-8.52497E-14
 -1      2761 1.30596E-02-4.05579E-03-8.98041E-14
 -1      2762 1.32024E-02-4.12107E-03-9.16401E-14
 -1      2763 1.29398E-02-3.99146E-03-8.88895E-14
 -1      2764 1.33452E-02-4.18633E-03-9.34833E-14
 -1      2765 1.34881E-02-4.25158E-03-9.53331E-14
 -1      2766 1.32255E-02-4.12202E-03-9.25636E-14
 -1      2767 1.36381E-02-4.32007E-03-9.72862E-14
 -1      2768 1.37881E-02-4.38856E-03-9.92500E-14
 -1      2769 1.35184E-02-4.25578E-03-9.63625E-14
 -1      2770 1.39309E-02-4.45377E-03-1.01123E-13
 -1      2771 1.40738E-02-4.51898E-03-1.03002E-13
 -1      2772 1.38112E-02-4.38948E-03-1.00196E-13
 -1      2773 1.42166E-02-4.58418E-03-1.04887E-13
 -1      2774 1.43595E-02-4.64938E-03-1.06779E-13
 -1      2775 1.40969E-02-4.51990E-03-1.03959E-13
 -1      2776 1.45023E-02-4.71457E-03-1.08678E-13
 -1      2777 1.46452E-02-4.77977E-03-1.10580E-13
 -1      2778 1.43826E-02-4.65029E-03-1.07743E-13
 -1      2779 1.47880E-02-4.84496E-03-1.12490E-13
 -1      2780 1.49309E-02-4.91015E-03-1.14405E-13
 -1      2781 1.46684E-02-4.78068E-03-1.11552E-13
 -1      2782 1.97063E-03 4.58850E-04-2.80758E-15
 -1      2783 1.81722E-03 4.34047E-04-2.40187E-15
 -1      2784 2.27726E-03 5.06234E-04-3.72010E-15
 -1      2785 2.12415E-03 4.83032E-04-3.24696E-15
 -1      2786 2.04074E-03 4.28061E-04-3.07587E-15
 -1      2787 1.66387E-03 4.08565E-04-2.02885E-15
 -1      2788 1.51091E-03 3.82370E-04-1.68940E-15
 -1      2789 1.72939E-03 3.79246E-04-2.25911E-15
 -1      2790 2.88121E-03 5.76380E-04-5.95371E-15
 -1      2791 2.73212E-03 5.64259E-04-5.34360E-15
 -1      2792 3.17465E-03 5.82535E-04-7.27872E-15
 -1      2793 3.02864E-03 5.83005E-04-6.59873E-15
 -1      2794 2.96818E-03 5.44871E-04-6.33295E-15
 -1      2795 3.46272E-03 5.56246E-04-8.74477E-15
 -1      2796 3.31904E-03 5.73997E-04-7.99461E-15
 -1      2797 3.26612E-03 5.47532E-04-7.69522E-15
 -1      2798 3.74882E-03 4.91509E-04-1.03489E-14
 -1      2799 3.60557E-03 5.28817E-04-9.52892E-15
 -1      2800 3.55848E-03 5.13877E-04-9.19764E-15
 -1      2801 4.03729E-03 3.89125E-04-1.20875E-14
 -1      2802 3.89235E-03 4.44654E-04-1.12019E-14
 -1      2803 3.84967E-03 4.38460E-04-1.08381E-14
 -1      2804 4.33131E-03 2.56547E-04-1.39553E-14
 -1      2805 4.18344E-03 3.25885E-04-1.30056E-14
 -1      2806 4.14477E-03 3.24297E-04-1.26130E-14
 -1      2807 4.63132E-03 1.04916E-04-1.59457E-14
 -1      2808 4.48064E-03 1.82350E-04-1.49361E-14
 -1      2809 4.44651E-03 1.81725E-04-1.45149E-14
 -1      2810 4.93556E-03-5.49649E-05-1.80507E-14
 -1      2811 4.78312E-03 2.53999E-05-1.69838E-14
 -1      2812 4.75416E-03 2.36833E-05-1.65375E-14
 -1      2813 5.24136E-03-2.15017E-04-2.02672E-14
 -1      2814 5.08850E-03-1.35338E-04-1.91453E-14
 -1      2815 5.06479E-03-1.38729E-04-1.86742E-14
 -1      2816 5.54634E-03-3.70550E-04-2.25872E-14
 -1      2817 5.39414E-03-2.93509E-04-2.14142E-14
 -1      2818 5.37507E-03-2.98297E-04-2.09191E-14
 -1      2819 5.84903E-03-5.19655E-04-2.50128E-14
 -1      2820 5.69809E-03-4.45927E-04-2.37873E-14
 -1      2821 5.68260E-03-4.51580E-04-2.32688E-14
 -1      2822 6.14881E-03-6.62257E-04-2.75375E-14
 -1      2823 5.99934E-03-5.91715E-04-2.62633E-14
 -1      2824 5.98623E-03-5.97766E-04-2.57203E-14
 -1      2825 6.44567E-03-7.99245E-04-3.01596E-14
 -1      2826 6.29762E-03-7.31370E-04-2.88369E-14
 -1      2827 6.28581E-03-7.37518E-04-2.82712E-14
 -1      2828 6.73996E-03-9.31879E-04-3.28730E-14
 -1      2829 6.59313E-03-8.66021E-04-3.15049E-14
 -1      2830 6.58180E-03-8.72107E-04-3.09171E-14
 -1      2831 7.03213E-03-1.06143E-03-3.56717E-14
 -1      2832 6.88629E-03-9.96965E-04-3.42609E-14
 -1      2833 6.87488E-03-1.00292E-03-3.36512E-14
 -1      2834 7.32263E-03-1.18901E-03-3.85557E-14
 -1      2835 7.17757E-03-1.12541E-03-3.71047E-14
 -1      2836 7.16574E-03-1.13122E-03-3.64719E-14
 -1      2837 7.61186E-03-1.31551E-03-4.15158E-14
 -1      2838 7.46738E-03-1.25235E-03-4.00260E-14
 -1      2839 7.45499E-03-1.25801E-03-3.93751E-14
 -1      2840 7.90012E-03-1.44156E-03-4.45501E-14
 -1      2841 7.75609E-03-1.37856E-03-4.30239E-14
 -1      2842 7.74311E-03-1.38408E-03-4.23524E-14
 -1      2843 8.18768E-03-1.56763E-03-4.76569E-14
 -1      2844 8.04397E-03-1.50458E-03-4.60950E-14
 -1      2845 8.03044E-03-1.50996E-03-4.54048E-14
 -1      2846 8.47470E-03-1.69398E-03-5.08294E-14
 -1      2847 8.33124E-03-1.63076E-03-4.92347E-14
 -1      2848 8.31725E-03-1.63603E-03-4.85269E-14
 -1      2849 8.76135E-03-1.82078E-03-5.40631E-14
 -1      2850 8.61806E-03-1.75732E-03-5.24390E-14
 -1      2851 8.60369E-03-1.76247E-03-5.17136E-14
 -1      2852 9.04771E-03-1.94808E-03-5.73547E-14
 -1      2853 8.90455E-03-1.88436E-03-5.57020E-14
 -1      2854 8.88990E-03-1.88941E-03-5.49604E-14
 -1      2855 9.33386E-03-2.07589E-03-6.07050E-14
 -1      2856 9.19080E-03-2.01192E-03-5.90224E-14
 -1      2857 9.17595E-03-2.01688E-03-5.82653E-14
 -1      2858 9.61986E-03-2.20418E-03-6.41057E-14
 -1      2859 9.47687E-03-2.13998E-03-6.23993E-14
 -1      2860 9.46188E-03-2.14485E-03-6.16276E-14
 -1      2861 9.90576E-03-2.33290E-03-6.75515E-14
 -1      2862 9.76282E-03-2.26849E-03-6.58236E-14
 -1      2863 9.74774E-03-2.27330E-03-6.50383E-14
 -1      2864 1.01916E-02-2.46199E-03-7.10409E-14
 -1      2865 1.00487E-02-2.39740E-03-6.92912E-14
 -1      2866 1.00336E-02-2.40215E-03-6.84917E-14
 -1      2867 1.04774E-02-2.59139E-03-7.45699E-14
 -1      2868 1.03345E-02-2.52665E-03-7.28001E-14
 -1      2869 1.03193E-02-2.53135E-03-7.19882E-14
 -1      2870 1.07631E-02-2.72103E-03-7.81476E-14
 -1      2871 1.06202E-02-2.65618E-03-7.63534E-14
 -1      2872 1.06051E-02-2.66083E-03-7.55277E-14
 -1      2873 1.10488E-02-2.85088E-03-8.17670E-14
 -1      2874 1.09060E-02-2.78593E-03-7.99507E-14
 -1      2875 1.08908E-02-2.79055E-03-7.91120E-14
 -1      2876 1.13345E-02-2.98088E-03-8.54373E-14
 -1      2877 1.11917E-02-2.91586E-03-8.35962E-14
 -1      2878 1.11765E-02-2.92045E-03-8.27397E-14
 -1      2879 1.16202E-02-3.11100E-03-8.91604E-14
 -1      2880 1.14774E-02-3.04592E-03-8.72924E-14
 -1      2881 1.14623E-02-3.05050E-03-8.64214E-14
 -1      2882 1.19059E-02-3.24120E-03-9.29216E-14
 -1      2883 1.17631E-02-3.17609E-03-9.10361E-14
 -1      2884 1.17480E-02-3.18065E-03-9.01495E-14
 -1      2885 1.21916E-02-3.37147E-03-9.67226E-14
 -1      2886 1.20488E-02-3.30633E-03-9.48194E-14
 -1      2887 1.20337E-02-3.31087E-03-9.39202E-14
 -1      2888 1.24773E-02-3.50178E-03-1.00549E-13
 -1      2889 1.23344E-02-3.43662E-03-9.86321E-14
 -1      2890 1.23194E-02-3.44116E-03-9.77227E-14
 -1      2891 1.27630E-02-3.63213E-03-1.04404E-13
 -1      2892 1.26201E-02-3.56695E-03-1.02474E-13
 -1      2893 1.26051E-02-3.57148E-03-1.01555E-13
 -1      2894 1.30487E-02-3.76248E-03-1.08269E-13
 -1      2895 1.29058E-02-3.69730E-03-1.06334E-13
 -1      2896 1.28908E-02-3.70183E-03-1.05406E-13
 -1      2897 1.33344E-02-3.89285E-03-1.12150E-13
 -1      2898 1.31915E-02-3.82767E-03-1.10209E-13
 -1      2899 1.31765E-02-3.83219E-03-1.09274E-13
 -1      2900 1.36198E-02-4.02385E-03-1.15995E-13
 -1      2901 1.34770E-02-3.95866E-03-1.14043E-13
 -1      2902 1.34620E-02-3.96319E-03-1.13102E-13
 -1      2903 1.37471E-02-4.09482E-03-1.16896E-13
 -1      2904 1.39886E-02-4.25065E-03-1.17207E-13
 -1      2905 1.39256E-02-4.20921E-03-1.17182E-13
 -1      2906 1.42443E-02-4.41893E-03-1.17281E-13
 -1      2907 1.41803E-02-4.37677E-03-1.17266E-13
 -1      2908 1.38684E-02-4.17309E-03-1.17054E-13
 -1      2909 1.38043E-02-4.13093E-03-1.17024E-13
 -1      2910 1.36618E-02-4.06512E-03-1.15124E-13
 -1      2911 1.37762E-02-4.13736E-03-1.15381E-13
 -1      2912 2.51158E-03-7.01976E-04-4.91198E-15
 -1      2913 2.58159E-03 5.47697E-04-4.76789E-15
 -1      2914 2.42992E-03 5.28093E-04-4.22686E-15
 -1      2915 2.35301E-03 4.75243E-04-4.02589E-15
 -1      2916 2.66322E-03 5.16936E-04-5.11044E-15
 -1      2917 1.41165E-02-4.33479E-03-1.17249E-13
 -1      2918 1.40524E-02-4.29263E-03-1.17230E-13
 -1      2919 1.38972E-02-4.21545E-03-1.15531E-13
 -1      2920 1.40248E-02-4.29941E-03-1.15572E-13
 -1      2921 1.45007E-02-4.58758E-03-1.17298E-13
 -1      2922 1.44366E-02-4.54542E-03-1.17301E-13
 -1      2923 1.46268E-02-4.67047E-03-1.17278E-13
 -1      2924 1.45638E-02-4.62903E-03-1.17291E-13
 -1      2925 1.44080E-02-4.55149E-03-1.15612E-13
 -1      2926 1.47551E-02-4.75479E-03-1.17236E-13
 -1      2927 1.46909E-02-4.71263E-03-1.17257E-13
 -1      2928 1.45351E-02-4.63510E-03-1.15588E-13
 -1      2929 1.48833E-02-4.83911E-03-1.17183E-13
 -1      2930 1.48192E-02-4.79695E-03-1.17210E-13
 -1      2931 1.46634E-02-4.71942E-03-1.15545E-13
 -1      2932 1.50116E-02-4.92342E-03-1.17123E-13
 -1      2933 1.49475E-02-4.88126E-03-1.17156E-13
 -1      2934 1.47917E-02-4.80373E-03-1.15494E-13
 -1      2935 7.90914E-04-1.83807E-04-6.18049E-16
 -1      2936 9.24492E-04-2.14526E-04-7.96767E-16
 -1      2937 6.55068E-03-9.27823E-04-1.73113E-14
 -1      2938 6.59611E-03-9.34679E-04-1.73757E-14
 -1      2939 6.54245E-03-9.39705E-04-1.78991E-14
 -1      2940 3.60639E-03 3.43724E-04-8.71506E-15
 -1      2941 3.75190E-03 3.51043E-04-9.33064E-15
 -1      2942 3.81024E-03 3.46742E-04-9.67016E-15
 -1      2943 2.37234E-03-6.21520E-04-4.42318E-15
 -1      2944 2.31113E-03-6.06641E-04-4.72239E-15
 -1      2945 2.15474E-03-5.42270E-04-4.57142E-15
 -1      2946 2.21034E-03-5.42116E-04-3.92641E-15
 -1      2947 1.43725E-02-4.50325E-03-1.17299E-13
 -1      2948 1.43084E-02-4.46109E-03-1.17293E-13
 -1      2949 1.42809E-02-4.46788E-03-1.15617E-13
 -1      2950 6.02273E-03-1.18393E-03-1.57637E-14
 -1      2951 6.20628E-03-1.14970E-03-1.68555E-14
 -1      2952 5.57294E-03-6.15386E-04-1.59666E-14
 -1      2953 5.72451E-03-6.85734E-04-1.63459E-14
 -1      2954 1.05261E-03-2.40086E-04-1.00335E-15
 -1      2955 1.19195E-03-2.66065E-04-1.26165E-15
 -1      2956 1.21382E-03-2.55704E-04-1.44089E-15
 -1      2957 9.71625E-04-2.08047E-04-9.61823E-16
 -1      2958 5.95953E-03-7.79914E-04-1.66877E-14
 -1      2959 6.18359E-03-8.51939E-04-1.70281E-14
 -1      2960 5.88660E-03-7.54583E-04-1.71214E-14
 -1      2961 7.84011E-04 7.14878E-05-7.04162E-16
 -1      2962 7.71943E-04 4.47524E-05-7.15058E-16
 -1      2963 8.84024E-04 3.72084E-05-9.10730E-16
 -1      2964 9.12461E-04 9.81470E-05-8.85373E-16
 -1      2965 2.07425E-03-2.97667E-04-4.95456E-15
 -1      2966 2.21781E-03-2.49901E-04-5.18650E-15
 -1      2967 6.94295E-04-1.02840E-04-7.33124E-16
 -1      2968 7.00817E-04-1.11879E-04-7.26361E-16
 -1      2969 1.97816E-03-4.83593E-04-4.49537E-15
 -1      2970 1.82655E-03-4.45485E-04-4.41843E-15
 -1      2971 2.02286E-03-4.82517E-04-4.17936E-15
 -1      2972 3.26885E-03 2.48997E-04-7.47258E-15
 -1      2973 3.42259E-03 3.04844E-04-8.01051E-15
 -1      2974 1.64312E-03-3.92542E-04-4.24808E-15
 -1      2975 1.68626E-03-3.89330E-04-4.33659E-15
 -1      2976 1.77605E-03-3.75551E-04-4.50633E-15
 -1      2977 1.90062E-03-3.47469E-04-4.68006E-15
 -1      2978 1.69680E-03-3.59482E-04-4.13986E-15
 -1      2979 6.51001E-03-9.71616E-04-1.70739E-14
 -1      2980 6.41513E-03-1.00430E-03-1.68581E-14
 -1      2981 6.60240E-03-9.47853E-04-1.74246E-14
 -1      2982 6.56702E-03-9.54304E-04-1.72504E-14
 -1      2983 6.58189E-03-9.86038E-04-1.78875E-14
 -1      2984 6.35848E-04-1.32756E-04-4.81047E-16
 -1      2985 4.20902E-03 2.05608E-04-1.13293E-14
 -1      2986 4.35502E-03 1.19039E-04-1.19567E-14
 -1      2987 1.49893E-02-4.92341E-03-1.16119E-13
 -1      2988 8.22976E-04-5.91953E-05-9.35463E-16
 -1      2989 7.10624E-04-5.79739E-05-7.41364E-16
 -1      2990 7.01633E-04-7.17769E-05-7.41784E-16
 -1      2991 8.39451E-04 2.40805E-04-5.85537E-16
 -1      2992 3.50149E-03 3.38606E-04-8.32327E-15
 -1      2993 4.46286E-03 5.04822E-05-1.24653E-14
 -1      2994 4.57189E-03-2.15335E-05-1.29836E-14
 -1      2995 4.36632E-03 1.08919E-04-1.22345E-14
 -1      2996 2.00591E-03-4.62762E-04-3.71915E-15
 -1      2997 1.41527E-02-4.38356E-03-1.15602E-13
 -1      2998 4.10186E-03 2.53051E-04-1.10150E-14
 -1      2999 7.12558E-04-1.21466E-04-7.17457E-16
 -1      3000 7.29583E-04-1.32763E-04-7.05477E-16
 -1      3001 8.06520E-04-1.36167E-04-9.12844E-16
 -1      3002 1.42087E-03 3.28849E-04-1.57375E-15
 -1      3003 1.35828E-03 3.55046E-04-1.38313E-15
 -1      3004 5.89240E-03-1.21543E-03-1.50052E-14
 -1      3005 4.94243E-03-2.56087E-04-1.40684E-14
 -1      3006 7.36075E-04-1.47926E-04-6.44016E-16
 -1      3007 6.35499E-03-1.09269E-03-1.74437E-14
 -1      3008 1.62227E-03-3.88569E-04-4.11959E-15
 -1      3009 1.59519E-03-3.62770E-04-3.85342E-15
 -1      3010 1.61396E-03-3.81326E-04-3.99306E-15
 -1      3011 1.48335E-02-4.84588E-03-1.14465E-13
 -1      3012 6.63236E-03-9.60184E-04-1.80178E-14
 -1      3013 1.25341E-03 3.44561E-04-1.17304E-15
 -1      3014 5.43988E-03-5.46481E-04-1.58467E-14
 -1      3015 2.73948E-03-9.28127E-06-6.08271E-15
 -1      3016 2.80894E-03 5.38302E-05-6.14060E-15
 -1      3017 2.60392E-03-5.07063E-05-5.70572E-15
 -1      3018 3.02915E-03 1.67832E-04-6.69049E-15
 -1      3019 3.14974E-03 2.09208E-04-7.07537E-15
 -1      3020 3.21020E-03 2.61409E-04-7.23499E-15
 -1      3021 2.31193E-03-1.93089E-04-5.23321E-15
 -1      3022 9.61498E-04 2.50859E-04-7.71627E-16
 -1      3023 6.95327E-04-8.34981E-05-7.40524E-16
 -1      3024 6.92693E-04-9.37095E-05-7.37678E-16
 -1      3025 7.92190E-04-1.15713E-04-9.28958E-16
 -1      3026 8.00018E-04-9.18270E-05-9.36222E-16
 -1      3027 6.35268E-03-1.04912E-03-1.69367E-14
 -1      3028 1.94570E-03-3.07005E-04-4.56602E-15
 -1      3029 5.77888E-03-1.27892E-03-1.46378E-14
 -1      3030 1.07361E-03 2.04105E-04-1.04066E-15
 -1      3031 1.05952E-03 1.65655E-04-1.06577E-15
 -1      3032 1.10758E-03 3.44860E-04-8.76401E-16
 -1      3033 3.39199E-03 3.34595E-04-7.90180E-15
 -1      3034 3.55725E-03 3.62538E-04-8.59940E-15
 -1      3035 5.84034E-03-7.35376E-04-1.76500E-14
 -1      3036 6.04583E-03-8.18427E-04-1.80089E-14
 -1      3037 9.77525E-04-4.70823E-06-1.14040E-15
 -1      3038 9.58784E-04-3.25952E-05-1.14748E-15
 -1      3039 1.34123E-03-2.72650E-04-1.91097E-15
 -1      3040 1.45902E-03-2.99111E-04-2.26166E-15
 -1      3041 3.71756E-03 3.63193E-04-9.32471E-15
 -1      3042 3.84911E-03 3.41869E-04-9.96218E-15
 -1      3043 1.57243E-03-3.27959E-04-2.64055E-15
 -1      3044 1.68322E-03-3.59146E-04-3.04772E-15
 -1      3045 1.45489E-03-2.96122E-04-2.47719E-15
 -1      3046 6.29057E-03-8.88057E-04-1.76523E-14
 -1      3047 1.48474E-03 3.00678E-04-1.77106E-15
 -1      3048 1.33098E-03 2.76610E-04-1.45791E-15
 -1      3049 1.62011E-03-3.36044E-04-3.76502E-15
 -1      3050 1.70172E-03-3.25189E-04-3.92129E-15
 -1      3051 1.83602E-03-2.99659E-04-4.17426E-15
 -1      3052 1.99052E-03-2.58202E-04-4.43019E-15
 -1      3053 6.52703E-03-1.04670E-03-1.82257E-14
 -1      3054 6.89217E-03-1.14990E-03-2.17075E-14
 -1      3055 7.01500E-03-1.19872E-03-2.29182E-14
 -1      3056 7.13943E-03-1.25164E-03-2.41502E-14
 -1      3057 7.26685E-03-1.30857E-03-2.54041E-14
 -1      3058 7.07220E-03-1.20314E-03-2.35553E-14
 -1      3059 7.40278E-03-1.37137E-03-2.67443E-14
 -1      3060 7.54146E-03-1.43709E-03-2.81073E-14
 -1      3061 7.31988E-03-1.31833E-03-2.61245E-14
 -1      3062 7.67530E-03-1.50144E-03-2.94265E-14
 -1      3063 7.81103E-03-1.56742E-03-3.07673E-14
 -1      3064 7.58090E-03-1.44425E-03-2.87828E-14
 -1      3065 7.94804E-03-1.63437E-03-3.21285E-14
 -1      3066 8.08639E-03-1.70222E-03-3.35082E-14
 -1      3067 7.84540E-03-1.57395E-03-3.14611E-14
 -1      3068 8.22563E-03-1.77053E-03-3.49078E-14
 -1      3069 8.36578E-03-1.83925E-03-3.63253E-14
 -1      3070 8.11694E-03-1.70774E-03-3.42193E-14
 -1      3071 8.50649E-03-1.90812E-03-3.77601E-14
 -1      3072 8.64781E-03-1.97709E-03-3.92133E-14
 -1      3073 8.39341E-03-1.84369E-03-3.70527E-14
 -1      3074 8.78947E-03-2.04601E-03-4.06856E-14
 -1      3075 8.93150E-03-2.11485E-03-4.21735E-14
 -1      3076 8.67320E-03-1.98049E-03-3.99589E-14
 -1      3077 9.07374E-03-2.18353E-03-4.36764E-14
 -1      3078 9.21621E-03-2.25205E-03-4.51977E-14
 -1      3079 8.95521E-03-2.11734E-03-4.29330E-14
 -1      3080 9.36592E-03-2.32377E-03-4.68131E-14
 -1      3081 9.51577E-03-2.39525E-03-4.84469E-14
 -1      3082 9.24576E-03-2.25716E-03-4.60506E-14
 -1      3083 9.65854E-03-2.46311E-03-5.00199E-14
 -1      3084 9.80138E-03-2.53075E-03-5.16071E-14
 -1      3085 9.53725E-03-2.39629E-03-4.92392E-14
 -1      3086 9.94425E-03-2.59817E-03-5.32093E-14
 -1      3087 1.00872E-02-2.66539E-03-5.48288E-14
 -1      3088 9.82220E-03-2.53125E-03-5.24136E-14
 -1      3089 1.02301E-02-2.73242E-03-5.64632E-14
 -1      3090 1.03730E-02-2.79926E-03-5.81098E-14
 -1      3091 1.01075E-02-2.66546E-03-5.56497E-14
 -1      3092 1.05159E-02-2.86593E-03-5.97713E-14
 -1      3093 1.06588E-02-2.93243E-03-6.14468E-14
 -1      3094 1.03930E-02-2.79898E-03-5.89431E-14
 -1      3095 1.08017E-02-2.99879E-03-6.31356E-14
 -1      3096 1.09447E-02-3.06502E-03-6.48343E-14
 -1      3097 1.06786E-02-2.93187E-03-6.22926E-14
 -1      3098 1.10876E-02-3.13112E-03-6.65456E-14
 -1      3099 1.12305E-02-3.19711E-03-6.82675E-14
 -1      3100 1.09643E-02-3.06423E-03-6.56914E-14
 -1      3101 1.13805E-02-3.26629E-03-7.00843E-14
 -1      3102 1.15306E-02-3.33536E-03-7.19119E-14
 -1      3103 1.12572E-02-3.19943E-03-6.92178E-14
 -1      3104 1.16735E-02-3.40107E-03-7.36617E-14
 -1      3105 1.18163E-02-3.46671E-03-7.54205E-14
 -1      3106 1.15501E-02-3.33426E-03-7.27847E-14
 -1      3107 1.19592E-02-3.53228E-03-7.71864E-14
 -1      3108 1.21021E-02-3.59780E-03-7.89620E-14
 -1      3109 1.18358E-02-3.46549E-03-7.63005E-14
 -1      3110 1.22450E-02-3.66326E-03-8.07478E-14
 -1      3111 1.23878E-02-3.72868E-03-8.25426E-14
 -1      3112 1.21216E-02-3.59650E-03-7.98533E-14
 -1      3113 1.25307E-02-3.79407E-03-8.43444E-14
 -1      3114 1.26736E-02-3.85942E-03-8.61552E-14
 -1      3115 1.24073E-02-3.72733E-03-8.34398E-14
 -1      3116 1.28164E-02-3.92474E-03-8.79769E-14
 -1      3117 1.29593E-02-3.99004E-03-8.98069E-14
 -1      3118 1.26931E-02-3.85802E-03-8.70648E-14
 -1      3119 1.31022E-02-4.05532E-03-9.16455E-14
 -1      3120 1.32450E-02-4.12058E-03-9.34902E-14
 -1      3121 1.29788E-02-3.98861E-03-9.07254E-14
 -1      3122 1.33950E-02-4.18908E-03-9.54378E-14
 -1      3123 1.35450E-02-4.25758E-03-9.73962E-14
 -1      3124 1.32717E-02-4.12239E-03-9.45122E-14
 -1      3125 1.36879E-02-4.32280E-03-9.92688E-14
 -1      3126 1.38308E-02-4.38801E-03-1.01147E-13
 -1      3127 1.35646E-02-4.25611E-03-9.83382E-14
 -1      3128 1.39736E-02-4.45321E-03-1.03028E-13
 -1      3129 1.41165E-02-4.51842E-03-1.04916E-13
 -1      3130 1.38503E-02-4.38653E-03-1.02098E-13
 -1      3131 1.42593E-02-4.58361E-03-1.06811E-13
 -1      3132 1.44022E-02-4.64881E-03-1.08712E-13
 -1      3133 1.41360E-02-4.51693E-03-1.05880E-13
 -1      3134 1.45450E-02-4.71400E-03-1.10617E-13
 -1      3135 1.46879E-02-4.77919E-03-1.12527E-13
 -1      3136 1.44217E-02-4.64732E-03-1.09682E-13
 -1      3137 2.11311E-03 3.95503E-04-3.34861E-15
 -1      3138 1.95451E-03 3.71617E-04-2.90521E-15
 -1      3139 1.79665E-03 3.47948E-04-2.49494E-15
 -1      3140 1.64010E-03 3.24370E-04-2.11667E-15
 -1      3141 1.54939E-03 2.70298E-04-1.97501E-15
 -1      3142 1.86527E-03 3.14683E-04-2.73541E-15
 -1      3143 3.36062E-03 5.13113E-04-8.11340E-15
 -1      3144 3.21039E-03 5.18147E-04-7.39626E-15
 -1      3145 3.05843E-03 5.13877E-04-6.71430E-15
 -1      3146 2.90422E-03 5.02721E-04-6.06814E-15
 -1      3147 3.15093E-03 4.84116E-04-7.09818E-15
 -1      3148 3.95321E-03 3.83196E-04-1.13301E-14
 -1      3149 3.80433E-03 4.32668E-04-1.04740E-14
 -1      3150 4.25551E-03 2.55799E-04-1.31391E-14
 -1      3151 4.10327E-03 3.23496E-04-1.22180E-14
 -1      3152 4.06003E-03 3.23891E-04-1.18227E-14
 -1      3153 4.56556E-03 1.02877E-04-1.50764E-14
 -1      3154 4.40962E-03 1.81429E-04-1.40928E-14
 -1      3155 4.37079E-03 1.82317E-04-1.36686E-14
 -1      3156 4.88102E-03-6.08834E-05-1.71316E-14
 -1      3157 4.72294E-03 2.14911E-05-1.60901E-14
 -1      3158 4.68987E-03 1.95619E-05-1.56400E-14
 -1      3159 5.19763E-03-2.24648E-04-1.92996E-14
 -1      3160 5.03954E-03-1.43267E-04-1.82008E-14
 -1      3161 5.01297E-03-1.48507E-04-1.77284E-14
 -1      3162 5.51163E-03-3.82575E-04-2.15741E-14
 -1      3163 5.35523E-03-3.04520E-04-2.04242E-14
 -1      3164 5.33470E-03-3.12031E-04-1.99273E-14
 -1      3165 5.82082E-03-5.32732E-04-2.39521E-14
 -1      3166 5.66696E-03-4.58607E-04-2.27504E-14
 -1      3167 5.65124E-03-4.67065E-04-2.22317E-14
 -1      3168 6.12459E-03-6.75473E-04-2.64303E-14
 -1      3169 5.97342E-03-6.04928E-04-2.51786E-14
 -1      3170 5.96097E-03-6.13337E-04-2.46371E-14
 -1      3171 6.42338E-03-8.12132E-04-2.90059E-14
 -1      3172 6.27459E-03-7.44442E-04-2.77060E-14
 -1      3173 6.26399E-03-7.52288E-04-2.71413E-14
 -1      3174 6.71809E-03-9.44269E-04-3.16759E-14
 -1      3175 6.57120E-03-8.78656E-04-3.03299E-14
 -1      3176 6.56135E-03-8.85787E-04-2.97427E-14
 -1      3177 7.00971E-03-1.07332E-03-3.44306E-14
 -1      3178 6.86423E-03-1.00909E-03-3.30430E-14
 -1      3179 6.85439E-03-1.01556E-03-3.24348E-14
 -1      3180 7.29916E-03-1.20045E-03-3.72728E-14
 -1      3181 7.15466E-03-1.13706E-03-3.58410E-14
 -1      3182 7.14436E-03-1.14298E-03-3.52135E-14
 -1      3183 7.58713E-03-1.32657E-03-4.01937E-14
 -1      3184 7.44329E-03-1.26359E-03-3.87240E-14
 -1      3185 7.43230E-03-1.26912E-03-3.80732E-14
 -1      3186 7.87416E-03-1.45232E-03-4.31892E-14
 -1      3187 7.73074E-03-1.38946E-03-4.16820E-14
 -1      3188 7.71898E-03-1.39471E-03-4.10127E-14
 -1      3189 8.16060E-03-1.57812E-03-4.62585E-14
 -1      3190 8.01743E-03-1.51520E-03-4.47150E-14
 -1      3191 8.00495E-03-1.52026E-03-4.40268E-14
 -1      3192 8.44670E-03-1.70425E-03-4.93963E-14
 -1      3193 8.30368E-03-1.64114E-03-4.78191E-14
 -1      3194 8.29055E-03-1.64608E-03-4.71125E-14
 -1      3195 8.73261E-03-1.83085E-03-5.25974E-14
 -1      3196 8.58967E-03-1.76749E-03-5.09893E-14
 -1      3197 8.57599E-03-1.77234E-03-5.02655E-14
 -1      3198 9.01841E-03-1.95798E-03-5.58575E-14
 -1      3199 8.87551E-03-1.89435E-03-5.42200E-14
 -1      3200 8.86140E-03-1.89914E-03-5.34807E-14
 -1      3201 9.30417E-03-2.08564E-03-5.91756E-14
 -1      3202 9.16129E-03-2.02174E-03-5.75092E-14
 -1      3203 9.14685E-03-2.02649E-03-5.67539E-14
 -1      3204 9.58991E-03-2.21380E-03-6.25491E-14
 -1      3205 9.44704E-03-2.14966E-03-6.08560E-14
 -1      3206 9.43235E-03-2.15437E-03-6.00850E-14
 -1      3207 9.87564E-03-2.34241E-03-6.59667E-14
 -1      3208 9.73277E-03-2.27805E-03-6.42523E-14
 -1      3209 9.71791E-03-2.28274E-03-6.34680E-14
 -1      3210 1.01614E-02-2.47140E-03-6.94317E-14
 -1      3211 1.00185E-02-2.40686E-03-6.76953E-14
 -1      3212 1.00035E-02-2.41152E-03-6.68982E-14
 -1      3213 1.04471E-02-2.60071E-03-7.29351E-14
 -1      3214 1.03042E-02-2.53602E-03-7.11776E-14
 -1      3215 1.02892E-02-2.54065E-03-7.03685E-14
 -1      3216 1.07328E-02-2.73029E-03-7.64839E-14
 -1      3217 1.05900E-02-2.66547E-03-7.47028E-14
 -1      3218 1.05749E-02-2.67009E-03-7.38823E-14
 -1      3219 1.10186E-02-2.86008E-03-8.00742E-14
 -1      3220 1.08757E-02-2.79516E-03-7.82743E-14
 -1      3221 1.08606E-02-2.79976E-03-7.74369E-14
 -1      3222 1.13043E-02-2.99004E-03-8.37140E-14
 -1      3223 1.11614E-02-2.92504E-03-8.18891E-14
 -1      3224 1.11463E-02-2.92962E-03-8.10368E-14
 -1      3225 1.15900E-02-3.12012E-03-8.74050E-14
 -1      3226 1.14472E-02-3.05507E-03-8.55526E-14
 -1      3227 1.14321E-02-3.05963E-03-8.46870E-14
 -1      3228 1.18757E-02-3.25030E-03-9.11384E-14
 -1      3229 1.17329E-02-3.18520E-03-8.92665E-14
 -1      3230 1.17178E-02-3.18976E-03-8.83849E-14
 -1      3231 1.21615E-02-3.38055E-03-9.49164E-14
 -1      3232 1.20186E-02-3.31542E-03-9.30229E-14
 -1      3233 1.20035E-02-3.31997E-03-9.21275E-14
 -1      3234 1.24472E-02-3.51085E-03-9.87225E-14
 -1      3235 1.23043E-02-3.44570E-03-9.68161E-14
 -1      3236 1.22893E-02-3.45024E-03-9.59087E-14
 -1      3237 1.27329E-02-3.64119E-03-1.02556E-13
 -1      3238 1.25901E-02-3.57602E-03-1.00636E-13
 -1      3239 1.25750E-02-3.58055E-03-9.97206E-14
 -1      3240 1.30186E-02-3.77154E-03-1.06409E-13
 -1      3241 1.28758E-02-3.70636E-03-1.04481E-13
 -1      3242 1.28607E-02-3.71089E-03-1.03554E-13
 -1      3243 1.33044E-02-3.90191E-03-1.10277E-13
 -1      3244 1.31615E-02-3.83672E-03-1.08341E-13
 -1      3245 1.31465E-02-3.84125E-03-1.07409E-13
 -1      3246 1.35543E-02-4.01642E-03-1.13642E-13
 -1      3247 1.34118E-02-3.95061E-03-1.11754E-13
 -1      3248 1.33967E-02-3.95514E-03-1.10813E-13
 -1      3249 1.36116E-02-4.05254E-03-1.13771E-13
 -1      3250 1.44435E-02-4.59972E-03-1.13907E-13
 -1      3251 1.43793E-02-4.55756E-03-1.13921E-13
 -1      3252 4.02481E-03 2.85681E-04-1.07928E-14
 -1      3253 4.17583E-03 2.14931E-04-1.15023E-14
 -1      3254 6.53765E-03-9.55502E-04-1.86331E-14
 -1      3255 6.61219E-03-9.66753E-04-1.87045E-14
 -1      3256 1.45718E-02-4.68404E-03-1.13864E-13
 -1      3257 1.45076E-02-4.64188E-03-1.13887E-13
 -1      3258 1.43518E-02-4.56435E-03-1.12231E-13
 -1      3259 1.43163E-02-4.51612E-03-1.13930E-13
 -1      3260 1.42533E-02-4.47467E-03-1.13935E-13
 -1      3261 1.42246E-02-4.48074E-03-1.12254E-13
 -1      3262 1.86322E-03-4.18230E-04-3.65819E-15
 -1      3263 8.32227E-04-1.62280E-04-8.32166E-16
 -1      3264 1.40610E-02-4.34819E-03-1.13926E-13
 -1      3265 1.39969E-02-4.30602E-03-1.13914E-13
 -1      3266 4.81168E-03-1.75340E-04-1.40008E-14
 -1      3267 5.05456E-03-3.27901E-04-1.48729E-14
 -1      3268 1.12058E-03 3.05245E-04-9.74793E-16
 -1      3269 3.65692E-03 4.70956E-04-9.65196E-15
 -1      3270 3.50891E-03 4.97744E-04-8.86564E-15
 -1      3271 3.45703E-03 4.78979E-04-8.53273E-15
 -1      3272 3.75737E-03 4.26494E-04-1.01090E-14
 -1      3273 5.28267E-03-4.59544E-04-1.57709E-14
 -1      3274 5.50721E-03-5.76467E-04-1.66918E-14
 -1      3275 5.14967E-03-3.73968E-04-1.56902E-14
 -1      3276 1.77234E-03-4.14763E-04-4.08138E-15
 -1      3277 1.73654E-03-4.26002E-04-4.38634E-15
 -1      3278 2.20963E-03-1.89580E-04-4.84045E-15
 -1      3279 2.40167E-03-1.25006E-04-5.23851E-15
 -1      3280 1.47102E-02-4.77920E-03-1.13526E-13
 -1      3281 1.41892E-02-4.43251E-03-1.13937E-13
 -1      3282 1.41251E-02-4.39035E-03-1.13934E-13
 -1      3283 1.39693E-02-4.31281E-03-1.12254E-13
 -1      3284 1.40975E-02-4.39714E-03-1.12262E-13
 -1      3285 1.10841E-03 2.50737E-04-1.03993E-15
 -1      3286 6.64725E-03-1.00097E-03-1.86080E-14
 -1      3287 6.60252E-03-1.01408E-03-1.84274E-14
 -1      3288 6.66255E-03-9.78246E-04-1.87596E-14
 -1      3289 6.67780E-03-9.89411E-04-1.88114E-14
 -1      3290 6.68462E-03-9.96769E-04-1.95079E-14
 -1      3291 1.67336E-03-4.02679E-04-4.15680E-15
 -1      3292 6.24171E-03-8.84401E-04-1.82658E-14
 -1      3293 6.40626E-03-9.26900E-04-1.84504E-14
 -1      3294 6.50839E-03-9.59892E-04-1.92627E-14
 -1      3295 6.61623E-03-1.05513E-03-1.89525E-14
 -1      3296 1.62331E-03-3.72610E-04-3.78889E-15
 -1      3297 1.61500E-03-3.77108E-04-3.89069E-15
 -1      3298 1.56589E-03-3.53533E-04-3.63151E-15
 -1      3299 1.72872E-03-3.76215E-04-3.33641E-15
 -1      3300 1.74678E-03-3.93074E-04-3.76847E-15
 -1      3301 1.66952E-03-3.78318E-04-3.74138E-15
 -1      3302 1.60052E-03-3.41241E-04-3.15071E-15
 -1      3303 3.28462E-03 3.12418E-04-7.48928E-15
 -1      3304 3.34461E-03 3.51791E-04-7.74343E-15
 -1      3305 3.17555E-03 2.85140E-04-7.08933E-15
 -1      3306 6.19289E-03-8.70195E-04-1.88104E-14
 -1      3307 1.06289E-03-5.27926E-05-1.39067E-15
 -1      3308 9.40197E-04-5.77361E-05-1.15220E-15
 -1      3309 9.23044E-04-7.97796E-05-1.15473E-15
 -1      3310 4.27370E-03 1.62849E-04-1.19969E-14
 -1      3311 4.37268E-03 1.05159E-04-1.25023E-14
 -1      3312 4.19207E-03 2.08776E-04-1.17587E-14
 -1      3313 3.92564E-03 3.21646E-04-1.04194E-14
 -1      3314 1.57896E-03-3.36845E-04-3.64484E-15
 -1      3315 1.56520E-03-3.07469E-04-3.43869E-15
 -1      3316 1.54773E-03-3.33662E-04-3.52581E-15
 -1      3317 8.98935E-04-1.50624E-04-1.13233E-15
 -1      3318 9.14057E-04-1.62013E-04-1.11978E-15
 -1      3319 1.72912E-03-2.87238E-04-3.79511E-15
 -1      3320 1.93754E-03-2.05990E-04-4.04226E-15
 -1      3321 2.06909E-03-2.03854E-04-4.43225E-15
 -1      3322 2.14005E-03-1.43995E-04-4.43149E-15
 -1      3323 1.59275E-03-3.52993E-04-3.48823E-15
 -1      3324 1.38053E-02-4.17999E-03-1.13862E-13
 -1      3325 1.37416E-02-4.13801E-03-1.13838E-13
 -1      3326 2.27240E-03 4.19544E-04-3.82519E-15
 -1      3327 2.18738E-03 3.61584E-04-3.62557E-15
 -1      3328 2.43157E-03 4.43121E-04-4.33501E-15
 -1      3329 2.83544E-03 4.55623E-04-5.80348E-15
 -1      3330 2.74808E-03 4.85950E-04-5.45583E-15
 -1      3331 2.59041E-03 4.65745E-04-4.87791E-15
 -1      3332 1.23201E-03 2.52108E-04-1.28467E-15
 -1      3333 9.46381E-04-1.85307E-04-1.04464E-15
 -1      3334 1.29493E-03 2.25668E-04-1.45709E-15
 -1      3335 1.46461E-02-4.73704E-03-1.13551E-13
 -1      3336 1.44903E-02-4.65951E-03-1.11902E-13
 -1      3337 4.69859E-03-9.96723E-05-1.37525E-14
 -1      3338 6.73442E-03-1.08899E-03-2.01110E-14
 -1      3339 6.81012E-03-1.08628E-03-2.07255E-14
 -1      3340 3.60389E-03 3.75684E-04-8.86843E-15
 -1      3341 2.47880E-03-6.26135E-05-5.28956E-15
 -1      3342 1.18110E-03 1.62376E-04-1.30852E-15
 -1      3343 1.04502E-03 1.28478E-04-1.08697E-15
 -1      3344 1.02976E-03 9.26808E-05-1.10482E-15
 -1      3345 2.89867E-03 1.24177E-04-6.28948E-15
 -1      3346 2.97008E-03 1.88002E-04-6.43653E-15
 -1      3347 2.76721E-03 8.36751E-05-5.90175E-15
 -1      3348 1.01336E-03 5.82179E-05-1.11934E-15
 -1      3349 9.95982E-04 2.57623E-05-1.13109E-15
 -1      3350 1.10719E-03 1.05773E-05-1.37485E-15
 -1      3351 1.14717E-03 8.34725E-05-1.34821E-15
 -1      3352 1.11650E-03-2.25430E-04-1.35094E-15
 -1      3353 1.23011E-03-2.48572E-04-1.61928E-15
 -1      3354 1.24492E-03-2.44942E-04-1.80316E-15
 -1      3355 1.36688E-02-4.08866E-03-1.13899E-13
 -1      3356 5.68828E-03-6.62307E-04-1.75654E-14
 -1      3357 5.86001E-03-7.34687E-04-1.84576E-14
 -1      3358 5.54847E-03-5.84100E-04-1.74777E-14
 -1      3359 8.91181E-04-1.28068E-04-1.14844E-15
 -1      3360 8.91513E-04-1.39857E-04-1.14173E-15
 -1      3361 9.90835E-04-1.65451E-04-1.37496E-15
 -1      3362 6.71108E-03-1.01604E-03-1.93610E-14
 -1      3363 1.39329E-02-4.26395E-03-1.13901E-13
 -1      3364 1.38691E-02-4.22197E-03-1.13882E-13
 -1      3365 1.37135E-02-4.14453E-03-1.12197E-13
 -1      3366 1.35769E-02-4.05319E-03-1.12235E-13
 -1      3367 1.38413E-02-4.22858E-03-1.12231E-13
 -1      3368 5.02375E-03-2.89594E-04-1.55308E-14
 -1      3369 5.23289E-03-4.08983E-04-1.64429E-14
 -1      3370 1.62039E-03-2.65676E-04-3.38831E-15
 -1      3371 1.74377E-03-2.41636E-04-3.62098E-15
 -1      3372 1.34695E-02-4.00449E-03-1.10759E-13
 -1      3373 3.49301E-03 3.91649E-04-8.43214E-15
 -1      3374 3.64253E-03 3.89458E-04-9.14823E-15
 -1      3375 7.23311E-03-1.26586E-03-2.54770E-14
 -1      3376 7.35871E-03-1.32671E-03-2.68149E-14
 -1      3377 7.48195E-03-1.38661E-03-2.81111E-14
 -1      3378 7.60851E-03-1.44874E-03-2.94262E-14
 -1      3379 7.38325E-03-1.33246E-03-2.74399E-14
 -1      3380 7.73765E-03-1.51219E-03-3.07636E-14
 -1      3381 7.86921E-03-1.57709E-03-3.21215E-14
 -1      3382 7.63056E-03-1.45327E-03-3.00694E-14
 -1      3383 8.00262E-03-1.64283E-03-3.34988E-14
 -1      3384 8.13776E-03-1.70944E-03-3.48960E-14
 -1      3385 7.88917E-03-1.58017E-03-3.27799E-14
 -1      3386 8.27420E-03-1.77650E-03-3.63115E-14
 -1      3387 8.41185E-03-1.84402E-03-3.77449E-14
 -1      3388 8.15591E-03-1.71106E-03-3.55717E-14
 -1      3389 8.55039E-03-1.91172E-03-3.91964E-14
 -1      3390 8.68978E-03-1.97961E-03-4.06663E-14
 -1      3391 8.42845E-03-1.84429E-03-3.84369E-14
 -1      3392 8.82977E-03-2.04751E-03-4.21534E-14
 -1      3393 8.97034E-03-2.11542E-03-4.36557E-14
 -1      3394 8.70509E-03-1.97868E-03-4.13727E-14
 -1      3395 9.11837E-03-2.18663E-03-4.52511E-14
 -1      3396 9.26682E-03-2.25774E-03-4.68652E-14
 -1      3397 8.99163E-03-2.11684E-03-4.44529E-14
 -1      3398 9.40848E-03-2.32532E-03-4.84204E-14
 -1      3399 9.55039E-03-2.39275E-03-4.99923E-14
 -1      3400 9.28023E-03-2.25489E-03-4.76038E-14
 -1      3401 9.69248E-03-2.46003E-03-5.15797E-14
 -1      3402 9.83474E-03-2.52714E-03-5.31806E-14
 -1      3403 9.56318E-03-2.38920E-03-5.07439E-14
 -1      3404 9.97711E-03-2.59410E-03-5.47966E-14
 -1      3405 1.01196E-02-2.66089E-03-5.64295E-14
 -1      3406 9.84705E-03-2.52302E-03-5.39466E-14
 -1      3407 1.02622E-02-2.72754E-03-5.80759E-14
 -1      3408 1.04048E-02-2.79403E-03-5.97359E-14
 -1      3409 1.01316E-02-2.65631E-03-5.72088E-14
 -1      3410 1.05475E-02-2.86040E-03-6.14086E-14
 -1      3411 1.06902E-02-2.92663E-03-6.30940E-14
 -1      3412 1.04165E-02-2.78908E-03-6.05257E-14
 -1      3413 1.08330E-02-2.99275E-03-6.47927E-14
 -1      3414 1.09758E-02-3.05876E-03-6.65027E-14
 -1      3415 1.07018E-02-2.92138E-03-6.38959E-14
 -1      3416 1.11257E-02-3.12797E-03-6.83086E-14
 -1      3417 1.12757E-02-3.19707E-03-7.01250E-14
 -1      3418 1.09943E-02-3.05657E-03-6.73996E-14
 -1      3419 1.14185E-02-3.26280E-03-7.18635E-14
 -1      3420 1.15614E-02-3.32846E-03-7.36127E-14
 -1      3421 1.12871E-02-3.19140E-03-7.09441E-14
 -1      3422 1.17042E-02-3.39406E-03-7.53714E-14
 -1      3423 1.18471E-02-3.45960E-03-7.71368E-14
 -1      3424 1.15727E-02-3.32266E-03-7.44410E-14
 -1      3425 1.19900E-02-3.52508E-03-7.89122E-14
 -1      3426 1.21329E-02-3.59053E-03-8.06987E-14
 -1      3427 1.18584E-02-3.45369E-03-7.79747E-14
 -1      3428 1.22757E-02-3.65593E-03-8.24925E-14
 -1      3429 1.24186E-02-3.72130E-03-8.42935E-14
 -1      3430 1.21442E-02-3.58454E-03-8.15426E-14
 -1      3431 1.25615E-02-3.78663E-03-8.61066E-14
 -1      3432 1.27044E-02-3.85195E-03-8.79283E-14
 -1      3433 1.24299E-02-3.71525E-03-8.51494E-14
 -1      3434 1.28472E-02-3.91724E-03-8.97594E-14
 -1      3435 1.29901E-02-3.98251E-03-9.15982E-14
 -1      3436 1.27157E-02-3.84586E-03-8.87928E-14
 -1      3437 1.31401E-02-4.05102E-03-9.35405E-14
 -1      3438 1.32902E-02-4.11952E-03-9.54922E-14
 -1      3439 1.30086E-02-3.97966E-03-9.25668E-14
 -1      3440 1.34330E-02-4.18475E-03-9.73590E-14
 -1      3441 1.35759E-02-4.24997E-03-9.92349E-14
 -1      3442 1.33015E-02-4.11339E-03-9.63802E-14
 -1      3443 1.37188E-02-4.31518E-03-1.01118E-13
 -1      3444 1.38616E-02-4.38038E-03-1.03005E-13
 -1      3445 1.35872E-02-4.24382E-03-1.00133E-13
 -1      3446 1.40045E-02-4.44558E-03-1.04897E-13
 -1      3447 1.41474E-02-4.51078E-03-1.06797E-13
 -1      3448 1.38730E-02-4.37423E-03-1.03917E-13
 -1      3449 1.42474E-02-4.55255E-03-1.08390E-13
 -1      3450 1.43903E-02-4.61774E-03-1.10298E-13
 -1      3451 1.43159E-02-4.56474E-03-1.10605E-13
 -1      3452 1.41159E-02-4.48120E-03-1.07405E-13
 -1      3453 9.78622E-04-1.83523E-04-1.19096E-15
 -1      3454 3.24622E-03 4.56132E-04-7.48322E-15
 -1      3455 3.08717E-03 4.45094E-04-6.80087E-15
 -1      3456 4.49125E-03 1.03248E-04-1.42017E-14
 -1      3457 4.32965E-03 1.84624E-04-1.32437E-14
 -1      3458 4.17085E-03 2.60325E-04-1.23180E-14
 -1      3459 4.01447E-03 3.26059E-04-1.14266E-14
 -1      3460 4.28761E-03 1.89654E-04-1.28184E-14
 -1      3461 5.15044E-03-2.39188E-04-1.83286E-14
 -1      3462 4.98566E-03-1.54794E-04-1.72542E-14
 -1      3463 5.47615E-03-4.00664E-04-2.05582E-14
 -1      3464 5.31428E-03-3.21249E-04-1.94297E-14
 -1      3465 5.29416E-03-3.31834E-04-1.89321E-14
 -1      3466 5.79386E-03-5.51482E-04-2.28918E-14
 -1      3467 5.63619E-03-4.77301E-04-2.17127E-14
 -1      3468 5.62200E-03-4.89331E-04-2.11923E-14
 -1      3469 6.10288E-03-6.93135E-04-2.53249E-14
 -1      3470 5.94947E-03-6.23251E-04-2.40960E-14
 -1      3471 5.93913E-03-6.34821E-04-2.35545E-14
 -1      3472 6.40422E-03-8.28023E-04-2.78540E-14
 -1      3473 6.25444E-03-7.61231E-04-2.65770E-14
 -1      3474 6.24611E-03-7.71438E-04-2.60134E-14
 -1      3475 6.69953E-03-9.58365E-04-3.04805E-14
 -1      3476 6.55253E-03-8.93611E-04-2.91557E-14
 -1      3477 6.54486E-03-9.02260E-04-2.85688E-14
 -1      3478 6.99053E-03-1.08590E-03-3.31951E-14
 -1      3479 6.84548E-03-1.02238E-03-3.18269E-14
 -1      3480 6.83759E-03-1.02964E-03-3.12189E-14
 -1      3481 7.27867E-03-1.21190E-03-3.59951E-14
 -1      3482 7.13488E-03-1.14902E-03-3.45847E-14
 -1      3483 7.12628E-03-1.15522E-03-3.39572E-14
 -1      3484 7.56505E-03-1.33722E-03-3.88757E-14
 -1      3485 7.42202E-03-1.27460E-03-3.74251E-14
 -1      3486 7.41248E-03-1.28004E-03-3.67779E-14
 -1      3487 7.85046E-03-1.46244E-03-4.18333E-14
 -1      3488 7.70783E-03-1.39981E-03-4.03458E-14
 -1      3489 7.69730E-03-1.40477E-03-3.96780E-14
 -1      3490 8.13541E-03-1.58791E-03-4.48654E-14
 -1      3491 7.99297E-03-1.52513E-03-4.33400E-14
 -1      3492 7.98149E-03-1.52980E-03-4.26551E-14
 -1      3493 8.42023E-03-1.71384E-03-4.79665E-14
 -1      3494 8.27782E-03-1.65081E-03-4.64075E-14
 -1      3495 8.26551E-03-1.65533E-03-4.57040E-14
 -1      3496 8.70509E-03-1.84031E-03-5.11356E-14
 -1      3497 8.56264E-03-1.77700E-03-4.95441E-14
 -1      3498 8.54963E-03-1.78146E-03-4.88223E-14
 -1      3499 8.99007E-03-1.96737E-03-5.43624E-14
 -1      3500 8.84756E-03-1.90377E-03-5.27417E-14
 -1      3501 8.83397E-03-1.90821E-03-5.20037E-14
 -1      3502 9.27520E-03-2.09498E-03-5.76504E-14
 -1      3503 9.13261E-03-2.03110E-03-5.59992E-14
 -1      3504 9.11858E-03-2.03555E-03-5.52452E-14
 -1      3505 9.56048E-03-2.22310E-03-6.09933E-14
 -1      3506 9.41782E-03-2.15898E-03-5.93141E-14
 -1      3507 9.40345E-03-2.16345E-03-5.85448E-14
 -1      3508 9.84589E-03-2.35167E-03-6.43853E-14
 -1      3509 9.70317E-03-2.28733E-03-6.26847E-14
 -1      3510 9.68855E-03-2.29183E-03-6.18996E-14
 -1      3511 1.01314E-02-2.48064E-03-6.78252E-14
 -1      3512 9.98864E-03-2.41611E-03-6.60988E-14
 -1      3513 9.97384E-03-2.42062E-03-6.53021E-14
 -1      3514 1.04170E-02-2.60992E-03-7.13024E-14
 -1      3515 1.02742E-02-2.54524E-03-6.95595E-14
 -1      3516 1.02593E-02-2.54977E-03-6.87482E-14
 -1      3517 1.07027E-02-2.73948E-03-7.48248E-14
 -1      3518 1.05598E-02-2.67467E-03-7.30585E-14
 -1      3519 1.05448E-02-2.67921E-03-7.22361E-14
 -1      3520 1.09884E-02-2.86924E-03-7.83885E-14
 -1      3521 1.08455E-02-2.80433E-03-7.66002E-14
 -1      3522 1.08305E-02-2.80888E-03-7.57654E-14
 -1      3523 1.12741E-02-2.99918E-03-8.19971E-14
 -1      3524 1.11312E-02-2.93419E-03-8.01866E-14
 -1      3525 1.11162E-02-2.93874E-03-7.93374E-14
 -1      3526 1.15598E-02-3.12924E-03-8.56579E-14
 -1      3527 1.14170E-02-3.06419E-03-8.38234E-14
 -1      3528 1.14019E-02-3.06874E-03-8.29577E-14
 -1      3529 1.18456E-02-3.25940E-03-8.93625E-14
 -1      3530 1.17027E-02-3.19431E-03-8.75043E-14
 -1      3531 1.16876E-02-3.19886E-03-8.66259E-14
 -1      3532 1.21313E-02-3.38964E-03-9.31133E-14
 -1      3533 1.19885E-02-3.32451E-03-9.12332E-14
 -1      3534 1.19734E-02-3.32906E-03-9.03399E-14
 -1      3535 1.24171E-02-3.51993E-03-9.68998E-14
 -1      3536 1.22742E-02-3.45478E-03-9.50026E-14
 -1      3537 1.22591E-02-3.45932E-03-9.40959E-14
 -1      3538 1.27028E-02-3.65025E-03-1.00712E-13
 -1      3539 1.25600E-02-3.58509E-03-9.88033E-14
 -1      3540 1.25449E-02-3.58962E-03-9.78863E-14
 -1      3541 1.29886E-02-3.78060E-03-1.04551E-13
 -1      3542 1.28457E-02-3.71543E-03-1.02629E-13
 -1      3543 1.28307E-02-3.71996E-03-1.01704E-13
 -1      3544 1.32743E-02-3.91097E-03-1.08404E-13
 -1      3545 1.31314E-02-3.84578E-03-1.06476E-13
 -1      3546 1.31164E-02-3.85032E-03-1.05542E-13
 -1      3547 3.83600E-03 3.53766E-04-1.00890E-14
 -1      3548 4.00134E-03 2.98493E-04-1.09250E-14
 -1      3549 1.51366E-03-3.16558E-04-2.91724E-15
 -1      3550 1.55587E-03-3.33438E-04-3.19720E-15
 -1      3551 1.52441E-03-3.29265E-04-3.24142E-15
 -1      3552 1.37495E-02-4.19316E-03-1.10566E-13
 -1      3553 1.36856E-02-4.15109E-03-1.10552E-13
 -1      3554 1.42518E-02-4.52258E-03-1.10623E-13
 -1      3555 1.41877E-02-4.48042E-03-1.10636E-13
 -1      3556 1.41518E-02-4.48081E-03-1.09021E-13
 -1      3557 1.41246E-02-4.43898E-03-1.10645E-13
 -1      3558 1.40616E-02-4.39753E-03-1.10650E-13
 -1      3559 1.40246E-02-4.39721E-03-1.09040E-13
 -1      3560 4.58038E-03-2.08480E-05-1.34654E-14
 -1      3561 4.80369E-03-1.59613E-04-1.44962E-14
 -1      3562 4.90077E-03-2.05368E-04-1.52196E-14
 -1      3563 4.48377E-03 4.46124E-05-1.32089E-14
 -1      3564 6.70799E-03-1.01767E-03-2.03327E-14
 -1      3565 6.76025E-03-1.03019E-03-2.03934E-14
 -1      3566 6.49658E-03-9.66858E-04-1.99528E-14
 -1      3567 6.61633E-03-9.95384E-04-2.01460E-14
 -1      3568 6.71629E-03-1.03137E-03-2.10410E-14
 -1      3569 4.82002E-03-6.86724E-05-1.62073E-14
 -1      3570 4.65511E-03 1.77494E-05-1.51891E-14
 -1      3571 4.61936E-03 1.73563E-05-1.47370E-14
 -1      3572 4.95785E-03-1.61380E-04-1.67777E-14
 -1      3573 1.51983E-03-3.30206E-04-3.33592E-15
 -1      3574 1.52948E-03-3.34200E-04-3.43113E-15
 -1      3575 1.49618E-03-3.10851E-04-3.23346E-15
 -1      3576 1.47537E-03-3.10793E-04-3.05186E-15
 -1      3577 1.37878E-03 2.03398E-04-1.67432E-15
 -1      3578 1.27931E-03 1.82392E-04-1.48587E-15
 -1      3579 1.26246E-03 1.39818E-04-1.51008E-15
 -1      3580 9.08138E-04-9.86934E-05-1.15482E-15
 -1      3581 8.97239E-04-1.14667E-04-1.15289E-15
 -1      3582 9.92764E-04-1.39689E-04-1.39076E-15
 -1      3583 7.00779E-03-1.15869E-03-2.29953E-14
 -1      3584 7.11815E-03-1.21110E-03-2.42247E-14
 -1      3585 7.15155E-03-1.22031E-03-2.48952E-14
 -1      3586 6.17235E-03-8.62693E-04-1.94929E-14
 -1      3587 6.34383E-03-9.22214E-04-1.97629E-14
 -1      3588 1.31847E-03-2.59869E-04-2.15054E-15
 -1      3589 1.41960E-03-2.86721E-04-2.52048E-15
 -1      3590 1.39272E-03-2.80341E-04-2.56102E-15
 -1      3591 2.37344E-03-5.34445E-05-4.89855E-15
 -1      3592 2.56065E-03 1.14394E-05-5.34949E-15
 -1      3593 1.36218E-02-4.10911E-03-1.10532E-13
 -1      3594 1.35580E-02-4.06713E-03-1.10510E-13
 -1      3595 1.35300E-02-4.07370E-03-1.08871E-13
 -1      3596 6.78536E-03-1.05108E-03-2.03574E-14
 -1      3597 6.91681E-03-1.11537E-03-2.19573E-14
 -1      3598 6.95266E-03-1.12430E-03-2.26075E-14
 -1      3599 6.79098E-03-1.04417E-03-2.05619E-14
 -1      3600 1.06422E-03-1.98023E-04-1.44256E-15
 -1      3601 1.19174E-03-4.42345E-05-1.65058E-15
 -1      3602 1.16536E-03-7.67734E-05-1.65620E-15
 -1      3603 1.53377E-03 2.22264E-04-2.00937E-15
 -1      3604 1.67002E-03-1.89504E-04-3.21948E-15
 -1      3605 1.79976E-03-2.01280E-04-3.61954E-15
 -1      3606 1.85426E-03-1.55177E-04-3.61561E-15
 -1      3607 1.34545E-02-4.00902E-03-1.09818E-13
 -1      3608 1.33627E-02-3.97361E-03-1.08159E-13
 -1      3609 2.51249E-03 4.10591E-04-4.64705E-15
 -1      3610 6.83500E-03-1.06801E-03-2.14040E-14
 -1      3611 3.31290E-03 3.88937E-04-7.66683E-15
 -1      3612 3.35689E-03 4.21002E-04-7.91331E-15
 -1      3613 2.26273E-03 3.25834E-04-3.90596E-15
 -1      3614 2.09782E-03 3.01712E-04-3.42705E-15
 -1      3615 1.38777E-02-4.27749E-03-1.10588E-13
 -1      3616 1.38136E-02-4.23533E-03-1.10579E-13
 -1      3617 1.36579E-02-4.15784E-03-1.08905E-13
 -1      3618 2.92561E-03 4.26088E-04-6.15416E-15
 -1      3619 2.76146E-03 4.03041E-04-5.54125E-15
 -1      3620 3.01714E-03 3.98866E-04-6.50580E-15
 -1      3621 3.41690E-03 4.47850E-04-8.24865E-15
 -1      3622 4.01928E-03 3.04497E-04-1.12341E-14
 -1      3623 3.90989E-03 3.56962E-04-1.07730E-14
 -1      3624 4.05441E-03 2.82758E-04-1.13206E-14
 -1      3625 4.15077E-03 2.33183E-04-1.16780E-14
 -1      3626 4.24248E-03 1.87307E-04-1.21738E-14
 -1      3627 4.16290E-03 2.40393E-04-1.19984E-14
 -1      3628 3.72101E-03 3.87649E-04-9.61298E-15
 -1      3629 5.90774E-03-7.44323E-04-1.93078E-14
 -1      3630 6.03870E-03-8.07205E-04-1.94018E-14
 -1      3631 6.20587E-03-8.69370E-04-2.03646E-14
 -1      3632 1.51878E-03-2.78168E-04-3.16532E-15
 -1      3633 1.56631E-03-2.74166E-04-3.27613E-15
 -1      3634 1.56665E-03-2.36291E-04-3.11388E-15
 -1      3635 6.48064E-03-9.66997E-04-2.06546E-14
 -1      3636 2.64463E-03 7.98110E-05-5.48255E-15
 -1      3637 1.02100E-03-1.03305E-04-1.39576E-15
 -1      3638 1.24238E-03 3.00835E-05-1.63059E-15
 -1      3639 1.21784E-03-8.32198E-06-1.64216E-15
 -1      3640 1.32703E-03-3.08263E-05-1.93170E-15
 -1      3641 1.93438E-03 2.79034E-04-2.98104E-15
 -1      3642 1.77317E-03 2.57834E-04-2.56689E-15
 -1      3643 2.00353E-03 2.41256E-04-3.23095E-15
 -1      3644 1.22023E-03-2.35839E-04-1.84015E-15
 -1      3645 5.41261E-03-5.03228E-04-1.73071E-14
 -1      3646 5.58846E-03-5.88426E-04-1.81907E-14
 -1      3647 5.29000E-03-4.22305E-04-1.71343E-14
 -1      3648 2.93462E-03 2.19037E-04-6.26945E-15
 -1      3649 3.05614E-03 2.53016E-04-6.67270E-15
 -1      3650 3.12707E-03 3.08033E-04-6.90909E-15
 -1      3651 2.07756E-03-9.48105E-05-4.08792E-15
 -1      3652 2.22245E-03-7.91898E-05-4.48373E-15
 -1      3653 2.29377E-03-1.20144E-05-4.53343E-15
 -1      3654 1.40017E-02-4.35859E-03-1.10623E-13
 -1      3655 1.39376E-02-4.31643E-03-1.10623E-13
 -1      3656 1.37818E-02-4.23894E-03-1.08954E-13
 -1      3657 1.39016E-02-4.31682E-03-1.09019E-13
 -1      3658 1.08262E-03-1.80581E-04-1.64041E-15
 -1      3659 1.08975E-03-1.92664E-04-1.62815E-15
 -1      3660 3.57200E-03 4.36407E-04-9.00420E-15
 -1      3661 3.75518E-03 4.00790E-04-9.94011E-15
 -1      3662 1.23106E-03-2.30670E-04-2.05197E-15
 -1      3663 1.15142E-03-2.13508E-04-1.75229E-15
 -1      3664 1.59713E-03 1.87858E-04-2.21558E-15
 -1      3665 1.08607E-03-1.67264E-04-1.64959E-15
 -1      3666 1.17650E-03-1.96002E-04-1.92824E-15
 -1      3667 1.09773E-03-1.50537E-04-1.65543E-15
 -1      3668 7.52555E-03-1.39841E-03-2.94091E-14
 -1      3669 7.65077E-03-1.45918E-03-3.07431E-14
 -1      3670 7.77868E-03-1.52123E-03-3.20990E-14
 -1      3671 7.90892E-03-1.58468E-03-3.34736E-14
 -1      3672 7.66709E-03-1.46421E-03-3.14169E-14
 -1      3673 8.04110E-03-1.64898E-03-3.48677E-14
 -1      3674 8.17499E-03-1.71418E-03-3.62813E-14
 -1      3675 7.92586E-03-1.58851E-03-3.41649E-14
 -1      3676 8.31027E-03-1.77989E-03-3.77126E-14
 -1      3677 8.44679E-03-1.84611E-03-3.91624E-14
 -1      3678 8.19203E-03-1.71679E-03-3.69898E-14
 -1      3679 8.58430E-03-1.91260E-03-4.06291E-14
 -1      3680 8.72271E-03-1.97936E-03-4.21155E-14
 -1      3681 8.46366E-03-1.84757E-03-3.98881E-14
 -1      3682 8.86880E-03-2.04954E-03-4.36948E-14
 -1      3683 9.01558E-03-2.11983E-03-4.52898E-14
 -1      3684 8.74621E-03-1.98307E-03-4.29336E-14
 -1      3685 9.15589E-03-2.18676E-03-4.68265E-14
 -1      3686 9.29664E-03-2.25368E-03-4.83799E-14
 -1      3687 9.03180E-03-2.11926E-03-4.60510E-14
 -1      3688 9.43774E-03-2.32052E-03-4.99498E-14
 -1      3689 9.57915E-03-2.38729E-03-5.15357E-14
 -1      3690 9.31254E-03-2.25231E-03-4.91563E-14
 -1      3691 9.72081E-03-2.45396E-03-5.31372E-14
 -1      3692 9.86269E-03-2.52053E-03-5.47523E-14
 -1      3693 9.59479E-03-2.38526E-03-5.23262E-14
 -1      3694 1.00047E-02-2.58699E-03-5.63813E-14
 -1      3695 1.01470E-02-2.65335E-03-5.80267E-14
 -1      3696 9.87811E-03-2.51795E-03-5.55572E-14
 -1      3697 1.02893E-02-2.71960E-03-5.96870E-14
 -1      3698 1.04317E-02-2.78575E-03-6.13585E-14
 -1      3699 1.01622E-02-2.65032E-03-5.88454E-14
 -1      3700 1.05742E-02-2.85180E-03-6.30421E-14
 -1      3701 1.07168E-02-2.91775E-03-6.47387E-14
 -1      3702 1.04469E-02-2.78236E-03-6.21904E-14
 -1      3703 1.08666E-02-2.98692E-03-6.65338E-14
 -1      3704 1.10165E-02-3.05599E-03-6.83396E-14
 -1      3705 1.07390E-02-2.91737E-03-6.56679E-14
 -1      3706 1.11592E-02-3.12171E-03-7.00681E-14
 -1      3707 1.13020E-02-3.18735E-03-7.18069E-14
 -1      3708 1.10315E-02-3.05209E-03-6.91925E-14
 -1      3709 1.14448E-02-3.25294E-03-7.35545E-14
 -1      3710 1.15876E-02-3.31847E-03-7.53135E-14
 -1      3711 1.13169E-02-3.18327E-03-7.26693E-14
 -1      3712 1.17305E-02-3.38396E-03-7.70795E-14
 -1      3713 1.18733E-02-3.44940E-03-7.88550E-14
 -1      3714 1.16025E-02-3.31426E-03-7.61838E-14
 -1      3715 1.20162E-02-3.51480E-03-8.06402E-14
 -1      3716 1.21591E-02-3.58017E-03-8.24329E-14
 -1      3717 1.18882E-02-3.44509E-03-7.97347E-14
 -1      3718 1.23019E-02-3.64552E-03-8.42350E-14
 -1      3719 1.24448E-02-3.71083E-03-8.60487E-14
 -1      3720 1.21740E-02-3.57579E-03-8.33213E-14
 -1      3721 1.25877E-02-3.77613E-03-8.78727E-14
 -1      3722 1.27306E-02-3.84140E-03-8.97042E-14
 -1      3723 1.24597E-02-3.70640E-03-8.69498E-14
 -1      3724 1.28806E-02-3.90992E-03-9.16386E-14
 -1      3725 1.30306E-02-3.97843E-03-9.35845E-14
 -1      3726 1.27526E-02-3.84019E-03-9.07102E-14
 -1      3727 1.31735E-02-4.04366E-03-9.54441E-14
 -1      3728 1.33164E-02-4.10888E-03-9.73140E-14
 -1      3729 1.30456E-02-3.97393E-03-9.45078E-14
 -1      3730 1.34593E-02-4.17410E-03-9.91970E-14
 -1      3731 1.36022E-02-4.23930E-03-1.01084E-13
 -1      3732 1.33313E-02-4.10437E-03-9.82550E-14
 -1      3733 1.37450E-02-4.30451E-03-1.02976E-13
 -1      3734 1.38879E-02-4.36970E-03-1.04874E-13
 -1      3735 1.36171E-02-4.23478E-03-1.02034E-13
 -1      3736 1.39698E-02-4.40437E-03-1.06144E-13
 -1      3737 1.40699E-02-4.44615E-03-1.07741E-13
 -1      3738 1.40057E-02-4.40399E-03-1.07752E-13
 -1      3739 1.38419E-02-4.33465E-03-1.05200E-13
 -1      3740 4.32801E-03 1.59437E-04-1.29149E-14
 -1      3741 5.77197E-03-5.77504E-04-2.18290E-14
 -1      3742 5.60994E-03-5.03517E-04-2.06709E-14
 -1      3743 5.44402E-03-4.26167E-04-1.95384E-14
 -1      3744 5.27539E-03-3.44491E-04-1.84324E-14
 -1      3745 5.60017E-03-5.20029E-04-2.01492E-14
 -1      3746 6.39023E-03-8.47969E-04-2.67050E-14
 -1      3747 6.23966E-03-7.82975E-04-2.54505E-14
 -1      3748 6.68557E-03-9.74852E-04-2.92868E-14
 -1      3749 6.53876E-03-9.11748E-04-2.79835E-14
 -1      3750 6.53447E-03-9.22218E-04-2.73989E-14
 -1      3751 6.97527E-03-1.09956E-03-3.19612E-14
 -1      3752 6.83097E-03-1.03734E-03-3.06132E-14
 -1      3753 6.82577E-03-1.04556E-03-3.00060E-14
 -1      3754 7.26145E-03-1.22349E-03-3.47206E-14
 -1      3755 7.11868E-03-1.16155E-03-3.33301E-14
 -1      3756 7.11216E-03-1.16806E-03-3.27040E-14
 -1      3757 7.54567E-03-1.34743E-03-3.75614E-14
 -1      3758 7.40372E-03-1.28542E-03-3.61308E-14
 -1      3759 7.39579E-03-1.29075E-03-3.54847E-14
 -1      3760 7.82897E-03-1.47180E-03-4.04817E-14
 -1      3761 7.68738E-03-1.40954E-03-3.90123E-14
 -1      3762 7.67808E-03-1.41413E-03-3.83464E-14
 -1      3763 8.11202E-03-1.59682E-03-4.34758E-14
 -1      3764 7.97049E-03-1.53422E-03-4.19681E-14
 -1      3765 7.95997E-03-1.53840E-03-4.12840E-14
 -1      3766 8.39521E-03-1.72254E-03-4.65414E-14
 -1      3767 8.25358E-03-1.65959E-03-4.50008E-14
 -1      3768 8.24201E-03-1.66358E-03-4.42971E-14
 -1      3769 8.67872E-03-1.84896E-03-4.96774E-14
 -1      3770 8.53691E-03-1.78566E-03-4.81015E-14
 -1      3771 8.52448E-03-1.78961E-03-4.73813E-14
 -1      3772 8.96263E-03-1.97605E-03-5.28713E-14
 -1      3773 8.82062E-03-1.91243E-03-5.12664E-14
 -1      3774 8.80749E-03-1.91641E-03-5.05301E-14
 -1      3775 9.24693E-03-2.10373E-03-5.61277E-14
 -1      3776 9.10473E-03-2.03982E-03-5.44920E-14
 -1      3777 9.09105E-03-2.04387E-03-5.37393E-14
 -1      3778 9.53159E-03-2.23193E-03-5.94391E-14
 -1      3779 9.38922E-03-2.16777E-03-5.77771E-14
 -1      3780 9.37512E-03-2.17191E-03-5.70085E-14
 -1      3781 9.81655E-03-2.36058E-03-6.28053E-14
 -1      3782 9.67404E-03-2.29620E-03-6.11162E-14
 -1      3783 9.65963E-03-2.30044E-03-6.03332E-14
 -1      3784 1.01018E-02-2.48960E-03-6.62162E-14
 -1      3785 9.95913E-03-2.42505E-03-6.45043E-14
 -1      3786 9.94449E-03-2.42936E-03-6.37081E-14
 -1      3787 1.03871E-02-2.61893E-03-6.96730E-14
 -1      3788 1.02444E-02-2.55423E-03-6.79399E-14
 -1      3789 1.02296E-02-2.55861E-03-6.71304E-14
 -1      3790 1.06727E-02-2.74852E-03-7.31685E-14
 -1      3791 1.05299E-02-2.68370E-03-7.14150E-14
 -1      3792 1.05150E-02-2.68813E-03-7.05938E-14
 -1      3793 1.09583E-02-2.87831E-03-7.67051E-14
 -1      3794 1.08155E-02-2.81339E-03-7.49309E-14
 -1      3795 1.08005E-02-2.81786E-03-7.40982E-14
 -1      3796 1.12440E-02-3.00825E-03-8.02862E-14
 -1      3797 1.11011E-02-2.94326E-03-7.84903E-14
 -1      3798 1.10861E-02-2.94776E-03-7.76441E-14
 -1      3799 1.15297E-02-3.13832E-03-8.39170E-14
 -1      3800 1.13868E-02-3.07327E-03-8.20953E-14
 -1      3801 1.13718E-02-3.07779E-03-8.12349E-14
 -1      3802 1.18154E-02-3.26849E-03-8.75915E-14
 -1      3803 1.16726E-02-3.20339E-03-8.57494E-14
 -1      3804 1.16575E-02-3.20792E-03-8.48721E-14
 -1      3805 1.21012E-02-3.39872E-03-9.13151E-14
 -1      3806 1.19583E-02-3.33360E-03-8.94482E-14
 -1      3807 1.19433E-02-3.33813E-03-8.85575E-14
 -1      3808 1.23870E-02-3.52900E-03-9.50768E-14
 -1      3809 1.22441E-02-3.46386E-03-9.31906E-14
 -1      3810 1.22290E-02-3.46839E-03-9.22867E-14
 -1      3811 1.26727E-02-3.65932E-03-9.88709E-14
 -1      3812 1.25299E-02-3.59416E-03-9.69706E-14
 -1      3813 1.25148E-02-3.59870E-03-9.60527E-14
 -1      3814 1.29585E-02-3.78967E-03-1.02694E-13
 -1      3815 1.28156E-02-3.72449E-03-1.00779E-13
 -1      3816 1.28006E-02-3.72903E-03-9.98540E-14
 -1      3817 1.32321E-02-3.91423E-03-1.06381E-13
 -1      3818 1.30892E-02-3.84905E-03-1.04461E-13
 -1      3819 1.30741E-02-3.85358E-03-1.03529E-13
 -1      3820 1.33355E-02-3.97234E-03-1.07071E-13
 -1      3821 1.39427E-02-4.36254E-03-1.07759E-13
 -1      3822 1.38796E-02-4.32110E-03-1.07764E-13
 -1      3823 1.38608E-02-4.32788E-03-1.06479E-13
 -1      3824 6.73137E-03-1.04694E-03-2.18708E-14
 -1      3825 6.82087E-03-1.07201E-03-2.20684E-14
 -1      3826 1.26461E-03 1.05205E-04-1.56393E-15
 -1      3827 1.24428E-03 6.39787E-05-1.58132E-15
 -1      3828 1.36131E-03 4.75543E-05-1.86919E-15
 -1      3829 1.36360E-03 1.21533E-04-1.75923E-15
 -1      3830 1.33993E-02-4.01432E-03-1.07095E-13
 -1      3831 1.13957E-03-1.05591E-04-1.65880E-15
 -1      3832 1.11653E-03-1.30193E-04-1.65859E-15
 -1      3833 1.20827E-03-1.59580E-04-1.94213E-15
 -1      3834 1.26519E-03-1.04049E-04-1.94319E-15
 -1      3835 6.08663E-03-7.16654E-04-2.42190E-14
 -1      3836 5.93091E-03-6.48224E-04-2.30119E-14
 -1      3837 5.92517E-03-6.63644E-04-2.24687E-14
 -1      3838 7.06255E-03-1.17664E-03-2.42841E-14
 -1      3839 7.17130E-03-1.22871E-03-2.55329E-14
 -1      3840 6.90056E-03-1.09948E-03-2.23102E-14
 -1      3841 6.98814E-03-1.14144E-03-2.33520E-14
 -1      3842 6.99726E-03-1.14917E-03-2.39728E-14
 -1      3843 6.85810E-03-1.08358E-03-2.21325E-14
 -1      3844 1.31291E-03-2.54944E-04-2.34048E-15
 -1      3845 1.40477E-03-2.83876E-04-2.72460E-15
 -1      3846 1.41117E-03-2.83926E-04-2.81030E-15
 -1      3847 1.25888E-03-2.32865E-04-2.19658E-15
 -1      3848 7.28515E-03-1.28269E-03-2.68031E-14
 -1      3849 7.40351E-03-1.33965E-03-2.80955E-14
 -1      3850 7.41830E-03-1.34580E-03-2.87491E-14
 -1      3851 7.18333E-03-1.23577E-03-2.61685E-14
 -1      3852 2.59542E-03 3.77327E-04-4.96231E-15
 -1      3853 2.42918E-03 3.51395E-04-4.41799E-15
 -1      3854 2.33897E-03 2.88817E-04-4.19018E-15
 -1      3855 2.67986E-03 3.44573E-04-5.28081E-15
 -1      3856 2.53457E-03 9.27004E-05-5.08603E-15
 -1      3857 2.72642E-03 1.54841E-04-5.62485E-15
 -1      3858 6.47814E-03-9.69422E-04-2.14734E-14
 -1      3859 6.61425E-03-1.01273E-03-2.16743E-14
 -1      3860 6.74075E-03-1.05782E-03-2.27125E-14
 -1      3861 6.23541E-03-7.96046E-04-2.48866E-14
 -1      3862 1.54287E-03-1.91669E-04-2.88395E-15
 -1      3863 1.58190E-03-1.58381E-04-2.87965E-15
 -1      3864 3.21446E-03 3.76338E-04-7.25922E-15
 -1      3865 2.38381E-03 5.97197E-05-4.66029E-15
 -1      3866 2.46170E-03 1.30867E-04-4.78481E-15
 -1      3867 2.23566E-03 3.37153E-05-4.25331E-15
 -1      3868 1.35662E-02-4.12246E-03-1.07247E-13
 -1      3869 1.35021E-02-4.08031E-03-1.07232E-13
 -1      3870 3.04289E-03 3.48201E-04-6.59356E-15
 -1      3871 6.88787E-03-1.10326E-03-2.29802E-14
 -1      3872 1.77756E-03-1.05414E-04-3.25529E-15
 -1      3873 1.92384E-03-1.04046E-04-3.65982E-15
 -1      3874 1.98864E-03-4.85632E-05-3.70172E-15
 -1      3875 1.42812E-03-2.82241E-04-2.89609E-15
 -1      3876 1.45540E-03-2.79453E-04-2.98129E-15
 -1      3877 1.35515E-03-2.55873E-04-2.57535E-15
 -1      3878 4.38600E-03 1.15634E-04-1.30331E-14
 -1      3879 4.43271E-03 8.17848E-05-1.31228E-14
 -1      3880 4.63028E-03-3.56396E-05-1.41067E-14
 -1      3881 1.37378E-02-4.24749E-03-1.06459E-13
 -1      3882 1.38197E-02-4.28216E-03-1.07740E-13
 -1      3883 1.37598E-02-4.24322E-03-1.07710E-13
 -1      3884 5.77463E-03-6.75203E-04-1.91279E-14
 -1      3885 5.95395E-03-7.52451E-04-2.00839E-14
 -1      3886 5.64860E-03-6.02309E-04-1.89455E-14
 -1      3887 6.25189E-03-8.80557E-04-2.12814E-14
 -1      3888 6.36680E-03-9.28407E-04-2.13797E-14
 -1      3889 6.51825E-03-9.82396E-04-2.24126E-14
 -1      3890 1.44117E-03-2.50856E-04-2.82946E-15
 -1      3891 1.33076E-02-3.97894E-03-1.05442E-13
 -1      3892 2.81209E-03 2.21854E-04-5.83813E-15
 -1      3893 4.83486E-03-1.55852E-04-1.51253E-14
 -1      3894 5.04286E-03-2.75111E-04-1.61765E-14
 -1      3895 4.77552E-03-1.09437E-04-1.50283E-14
 -1      3896 4.51165E-03 5.74633E-05-1.38909E-14
 -1      3897 5.05195E-03-2.37349E-04-1.69555E-14
 -1      3898 4.87722E-03-1.45836E-04-1.59129E-14
 -1      3899 1.38105E-03-1.13058E-04-2.24191E-15
 -1      3900 1.34473E-03-1.47529E-04-2.24305E-15
 -1      3901 2.07186E-03 2.00671E-04-3.48498E-15
 -1      3902 1.90497E-03 1.80961E-04-3.03727E-15
 -1      3903 5.21408E-03-3.69426E-04-1.70333E-14
 -1      3904 5.38515E-03-4.59164E-04-1.79091E-14
 -1      3905 5.14440E-03-3.18148E-04-1.69300E-14
 -1      3906 1.26015E-03-2.19669E-04-2.21008E-15
 -1      3907 1.46947E-03-1.22569E-05-2.23449E-15
 -1      3908 1.43513E-03-5.70373E-05-2.24358E-15
 -1      3909 1.48863E-03-2.03161E-04-2.78239E-15
 -1      3910 2.42391E-03 2.13164E-04-4.55007E-15
 -1      3911 2.24863E-03 1.86225E-04-4.03441E-15
 -1      3912 4.68418E-03-3.60655E-05-1.48714E-14
 -1      3913 1.52088E-03-1.03825E-04-2.56927E-15
 -1      3914 2.13969E-03 1.19073E-04-3.80760E-15
 -1      3915 6.95923E-03-1.13592E-03-2.39042E-14
 -1      3916 2.03128E-03 4.16413E-06-3.70343E-15
 -1      3917 2.11011E-03 6.66071E-05-3.81229E-15
 -1      3918 1.94203E-03 8.95638E-05-3.28737E-15
 -1      3919 1.87747E-03-8.43013E-06-3.29463E-15
 -1      3920 1.71045E-03 1.58334E-04-2.54874E-15
 -1      3921 1.47130E-03 1.31551E-04-1.99355E-15
 -1      3922 2.74337E-03 2.76798E-04-5.54746E-15
 -1      3923 2.56516E-03 2.42924E-04-4.97398E-15
 -1      3924 7.55319E-03-1.40859E-03-3.07352E-14
 -1      3925 7.68013E-03-1.46833E-03-3.20894E-14
 -1      3926 6.08073E-03-7.47144E-04-2.31111E-14
 -1      3927 5.92324E-03-6.81121E-04-2.19244E-14
 -1      3928 7.80933E-03-1.52934E-03-3.34628E-14
 -1      3929 7.94040E-03-1.59166E-03-3.48547E-14
 -1      3930 7.69095E-03-1.47127E-03-3.27608E-14
 -1      3931 8.07315E-03-1.65485E-03-3.62672E-14
 -1      3932 8.20732E-03-1.71890E-03-3.76980E-14
 -1      3933 7.95321E-03-1.59392E-03-3.55454E-14
 -1      3934 8.34274E-03-1.78351E-03-3.91481E-14
 -1      3935 8.47925E-03-1.84865E-03-4.06146E-14
 -1      3936 8.22128E-03-1.72034E-03-3.84072E-14
 -1      3937 8.62358E-03-1.91739E-03-4.21744E-14
 -1      3938 8.76879E-03-1.98646E-03-4.37541E-14
 -1      3939 8.50070E-03-1.85246E-03-4.14160E-14
 -1      3940 8.90779E-03-2.05240E-03-4.52740E-14
 -1      3941 9.04738E-03-2.11848E-03-4.68097E-14
 -1      3942 8.78370E-03-1.98615E-03-4.44969E-14
 -1      3943 9.18747E-03-2.18461E-03-4.83629E-14
 -1      3944 9.32800E-03-2.25079E-03-4.99317E-14
 -1      3945 9.06241E-03-2.11741E-03-4.75702E-14
 -1      3946 9.46889E-03-2.31695E-03-5.15172E-14
 -1      3947 9.61011E-03-2.38311E-03-5.31171E-14
 -1      3948 9.34306E-03-2.24905E-03-5.07074E-14
 -1      3949 9.75160E-03-2.44921E-03-5.47330E-14
 -1      3950 9.89332E-03-2.51528E-03-5.63622E-14
 -1      3951 9.62517E-03-2.38078E-03-5.39075E-14
 -1      3952 1.00352E-02-2.58127E-03-5.80058E-14
 -1      3953 1.01773E-02-2.64722E-03-5.96662E-14
 -1      3954 9.90835E-03-2.51247E-03-5.71687E-14
 -1      3955 1.03195E-02-2.71309E-03-6.13374E-14
 -1      3956 1.04619E-02-2.77891E-03-6.30204E-14
 -1      3957 1.01923E-02-2.64401E-03-6.04846E-14
 -1      3958 1.06115E-02-2.84795E-03-6.48030E-14
 -1      3959 1.07611E-02-2.91692E-03-6.65973E-14
 -1      3960 1.04840E-02-2.77866E-03-6.39373E-14
 -1      3961 1.09037E-02-2.98255E-03-6.83155E-14
 -1      3962 1.10464E-02-3.04814E-03-7.00430E-14
 -1      3963 1.07761E-02-2.91312E-03-6.74387E-14
 -1      3964 1.11891E-02-3.11367E-03-7.17831E-14
 -1      3965 1.13319E-02-3.17916E-03-7.35323E-14
 -1      3966 1.10613E-02-3.04414E-03-7.08956E-14
 -1      3967 1.14747E-02-3.24461E-03-7.52880E-14
 -1      3968 1.16175E-02-3.31002E-03-7.70542E-14
 -1      3969 1.13468E-02-3.17501E-03-7.43927E-14
 -1      3970 1.17603E-02-3.37541E-03-7.88310E-14
 -1      3971 1.19032E-02-3.44076E-03-8.06162E-14
 -1      3972 1.16324E-02-3.30576E-03-7.79265E-14
 -1      3973 1.20460E-02-3.50609E-03-8.24106E-14
 -1      3974 1.21889E-02-3.57140E-03-8.42130E-14
 -1      3975 1.19181E-02-3.43641E-03-8.14964E-14
 -1      3976 1.23318E-02-3.63668E-03-8.60282E-14
 -1      3977 1.24747E-02-3.70196E-03-8.78524E-14
 -1      3978 1.22038E-02-3.56699E-03-8.51078E-14
 -1      3979 1.26247E-02-3.77047E-03-8.97795E-14
 -1      3980 1.27747E-02-3.83898E-03-9.17182E-14
 -1      3981 1.24967E-02-3.70076E-03-8.88483E-14
 -1      3982 1.29176E-02-3.90421E-03-9.35731E-14
 -1      3983 1.30605E-02-3.96943E-03-9.54370E-14
 -1      3984 1.27897E-02-3.83449E-03-9.26349E-14
 -1      3985 1.32034E-02-4.03465E-03-9.73104E-14
 -1      3986 1.33463E-02-4.09985E-03-9.91974E-14
 -1      3987 1.30755E-02-3.96492E-03-9.63691E-14
 -1      3988 1.34892E-02-4.16506E-03-1.01090E-13
 -1      3989 1.36321E-02-4.23026E-03-1.02985E-13
 -1      3990 1.33612E-02-4.09533E-03-1.00141E-13
 -1      3991 1.37054E-02-4.26173E-03-1.04096E-13
 -1      3992 1.37874E-02-4.29640E-03-1.05368E-13
 -1      3993 1.37243E-02-4.25496E-03-1.05371E-13
 -1      3994 1.35775E-02-4.19201E-03-1.03149E-13
 -1      3995 7.24804E-03-1.23516E-03-3.34462E-14
 -1      3996 7.10687E-03-1.17463E-03-3.20760E-14
 -1      3997 5.78832E-03-6.37064E-04-2.06011E-14
 -1      3998 5.62165E-03-5.64559E-04-1.94653E-14
 -1      3999 5.20807E-03-3.38739E-04-1.75260E-14
 -1      4000 6.96507E-03-1.11436E-03-3.07271E-14
 -1      4001 6.82229E-03-1.05416E-03-2.93990E-14
 -1      4002 7.10293E-03-1.18129E-03-3.14484E-14
 -1      4003 6.67828E-03-9.94026E-04-2.80943E-14
 -1      4004 6.53257E-03-9.33520E-04-2.68142E-14
 -1      4005 6.82075E-03-1.06321E-03-2.87927E-14
 -1      4006 7.52914E-03-1.35705E-03-3.62493E-14
 -1      4007 7.38871E-03-1.29594E-03-3.48373E-14
 -1      4008 7.38255E-03-1.30099E-03-3.41912E-14
 -1      4009 7.80963E-03-1.48022E-03-3.91310E-14
 -1      4010 7.66939E-03-1.41847E-03-3.76799E-14
 -1      4011 7.66132E-03-1.42254E-03-3.70147E-14
 -1      4012 8.09026E-03-1.60462E-03-4.20880E-14
 -1      4013 7.94989E-03-1.54227E-03-4.06011E-14
 -1      4014 7.94022E-03-1.54582E-03-3.99160E-14
 -1      4015 8.37143E-03-1.73013E-03-4.51192E-14
 -1      4016 8.23076E-03-1.66725E-03-4.35946E-14
 -1      4017 8.21980E-03-1.67059E-03-4.28928E-14
 -1      4018 8.65332E-03-1.85658E-03-4.82203E-14
 -1      4019 8.51228E-03-1.79325E-03-4.66619E-14
 -1      4020 8.50029E-03-1.79657E-03-4.59425E-14
 -1      4021 8.93594E-03-1.98382E-03-5.13829E-14
 -1      4022 8.79453E-03-1.92012E-03-4.97935E-14
 -1      4023 8.78173E-03-1.92354E-03-4.90572E-14
 -1      4024 9.21925E-03-2.11171E-03-5.46056E-14
 -1      4025 9.07751E-03-2.04770E-03-5.29864E-14
 -1      4026 9.06409E-03-2.05127E-03-5.22350E-14
 -1      4027 9.50316E-03-2.24014E-03-5.78881E-14
 -1      4028 9.36113E-03-2.17587E-03-5.62404E-14
 -1      4029 9.34724E-03-2.17961E-03-5.54721E-14
 -1      4030 9.78757E-03-2.36899E-03-6.12245E-14
 -1      4031 9.64530E-03-2.30452E-03-5.95498E-14
 -1      4032 9.63105E-03-2.30842E-03-5.87671E-14
 -1      4033 1.00724E-02-2.49819E-03-6.46092E-14
 -1      4034 9.92992E-03-2.43355E-03-6.29111E-14
 -1      4035 9.91541E-03-2.43760E-03-6.21135E-14
 -1      4036 1.03575E-02-2.62766E-03-6.80411E-14
 -1      4037 1.02149E-02-2.56289E-03-6.63189E-14
 -1      4038 1.02002E-02-2.56707E-03-6.55094E-14
 -1      4039 1.06428E-02-2.75736E-03-7.15147E-14
 -1      4040 1.05001E-02-2.69248E-03-6.97733E-14
 -1      4041 1.04853E-02-2.69676E-03-6.89503E-14
 -1      4042 1.09283E-02-2.88723E-03-7.50260E-14
 -1      4043 1.07855E-02-2.82227E-03-7.32655E-14
 -1      4044 1.07706E-02-2.82663E-03-7.24330E-14
 -1      4045 1.12139E-02-3.01723E-03-7.85823E-14
 -1      4046 1.10711E-02-2.95221E-03-7.67981E-14
 -1      4047 1.10561E-02-2.95663E-03-7.59531E-14
 -1      4048 1.14996E-02-3.14734E-03-8.21813E-14
 -1      4049 1.13568E-02-3.08227E-03-8.03757E-14
 -1      4050 1.13418E-02-3.08673E-03-7.95169E-14
 -1      4051 1.17853E-02-3.27753E-03-8.58269E-14
 -1      4052 1.16425E-02-3.21243E-03-8.39998E-14
 -1      4053 1.16274E-02-3.21691E-03-8.31252E-14
 -1      4054 1.20711E-02-3.40778E-03-8.95202E-14
 -1      4055 1.19282E-02-3.34265E-03-8.76686E-14
 -1      4056 1.19132E-02-3.34715E-03-8.67810E-14
 -1      4057 1.23569E-02-3.53807E-03-9.32549E-14
 -1      4058 1.22140E-02-3.47292E-03-9.13814E-14
 -1      4059 1.21990E-02-3.47744E-03-9.04784E-14
 -1      4060 1.26427E-02-3.66839E-03-9.70259E-14
 -1      4061 1.24998E-02-3.60323E-03-9.51357E-14
 -1      4062 1.24847E-02-3.60776E-03-9.42194E-14
 -1      4063 1.29284E-02-3.79874E-03-1.00833E-13
 -1      4064 1.27855E-02-3.73356E-03-9.89262E-14
 -1      4065 1.27705E-02-3.73810E-03-9.79981E-14
 -1      4066 1.31834E-02-3.91853E-03-1.04016E-13
 -1      4067 1.30527E-02-3.85915E-03-1.02252E-13
 -1      4068 1.30377E-02-3.86369E-03-1.01317E-13
 -1      4069 1.32862E-02-3.98452E-03-1.04156E-13
 -1      4070 1.31128E-03-1.76621E-04-2.24083E-15
 -1      4071 1.47068E-03 9.22201E-05-2.05326E-15
 -1      4072 6.86520E-03-1.10419E-03-2.37028E-14
 -1      4073 6.98573E-03-1.15205E-03-2.47075E-14
 -1      4074 6.75542E-03-1.06788E-03-2.34953E-14
 -1      4075 1.77073E-03 1.17251E-04-2.77096E-15
 -1      4076 6.38479E-03-8.72619E-04-2.55549E-14
 -1      4077 6.23433E-03-8.10522E-04-2.43209E-14
 -1      4078 6.53339E-03-9.45791E-04-2.62272E-14
 -1      4079 1.46746E-03 5.26168E-05-2.11068E-15
 -1      4080 1.58634E-03 3.19960E-05-2.44035E-15
 -1      4081 1.34911E-03-2.12475E-04-2.44412E-15
 -1      4082 1.36929E-02-4.20231E-03-1.07498E-13
 -1      4083 1.36331E-02-4.16337E-03-1.07461E-13
 -1      4084 1.34773E-02-4.08584E-03-1.05795E-13
 -1      4085 1.36110E-02-4.16765E-03-1.06221E-13
 -1      4086 1.77586E-03 4.22355E-05-2.91680E-15
 -1      4087 1.65429E-03-9.21696E-05-2.88583E-15
 -1      4088 1.70816E-03-4.79895E-05-2.92065E-15
 -1      4089 7.42866E-03-1.35069E-03-2.94039E-14
 -1      4090 7.43620E-03-1.35403E-03-3.00566E-14
 -1      4091 7.30719E-03-1.29452E-03-2.80925E-14
 -1      4092 1.35910E-02-4.18455E-03-1.04233E-13
 -1      4093 1.36644E-02-4.21602E-03-1.05343E-13
 -1      4094 1.36045E-02-4.17708E-03-1.05316E-13
 -1      4095 5.95674E-03-7.25295E-04-2.12139E-14
 -1      4096 2.93293E-03 3.25749E-04-6.19078E-15
 -1      4097 1.28734E-03-2.14828E-04-2.28347E-15
 -1      4098 5.44217E-03-4.74806E-04-1.85217E-14
 -1      4099 1.33530E-02-4.02542E-03-1.04375E-13
 -1      4100 1.32288E-02-3.96500E-03-1.02955E-13
 -1      4101 1.34199E-02-4.06632E-03-1.04589E-13
 -1      4102 6.66378E-03-1.03557E-03-2.33995E-14
 -1      4103 6.80257E-03-1.08719E-03-2.44016E-14
 -1      4104 6.56613E-03-9.98343E-04-2.32995E-14
 -1      4105 6.23693E-03-8.26643E-04-2.37560E-14
 -1      4106 7.09799E-03-1.20165E-03-2.59596E-14
 -1      4107 6.04007E-03-7.75627E-04-2.11563E-14
 -1      4108 6.15924E-03-8.35479E-04-2.13475E-14
 -1      4109 6.32557E-03-9.00580E-04-2.23809E-14
 -1      4110 6.16042E-03-8.11872E-04-2.25028E-14
 -1      4111 5.37149E-03-4.25448E-04-1.84122E-14
 -1      4112 7.83164E-03-1.53364E-03-3.48250E-14
 -1      4113 7.96460E-03-1.59533E-03-3.62359E-14
 -1      4114 8.09882E-03-1.65785E-03-3.76650E-14
 -1      4115 8.23413E-03-1.72113E-03-3.91141E-14
 -1      4116 7.97511E-03-1.59589E-03-3.69253E-14
 -1      4117 8.37726E-03-1.78817E-03-4.06560E-14
 -1      4118 8.52134E-03-1.85576E-03-4.22170E-14
 -1      4119 8.25306E-03-1.72442E-03-3.98948E-14
 -1      4120 8.65932E-03-1.92047E-03-4.37194E-14
 -1      4121 8.79798E-03-1.98549E-03-4.52388E-14
 -1      4122 8.53451E-03-1.85529E-03-4.29420E-14
 -1      4123 8.93722E-03-2.05069E-03-4.67770E-14
 -1      4124 9.07698E-03-2.11606E-03-4.83303E-14
 -1      4125 8.81179E-03-1.98441E-03-4.59829E-14
 -1      4126 9.21719E-03-2.18153E-03-4.98974E-14
 -1      4127 9.35780E-03-2.24708E-03-5.14830E-14
 -1      4128 9.09120E-03-2.11439E-03-4.90886E-14
 -1      4129 9.49875E-03-2.31267E-03-5.30827E-14
 -1      4130 9.64000E-03-2.37829E-03-5.46979E-14
 -1      4131 9.37228E-03-2.24487E-03-5.22579E-14
 -1      4132 9.78150E-03-2.44391E-03-5.63277E-14
 -1      4133 9.92322E-03-2.50952E-03-5.79731E-14
 -1      4134 9.65464E-03-2.37560E-03-5.54880E-14
 -1      4135 1.00651E-02-2.57512E-03-5.96310E-14
 -1      4136 1.02072E-02-2.64069E-03-6.13017E-14
 -1      4137 9.93798E-03-2.50642E-03-5.87773E-14
 -1      4138 1.03566E-02-2.70952E-03-6.30717E-14
 -1      4139 1.05060E-02-2.77831E-03-6.48539E-14
 -1      4140 1.02292E-02-2.64053E-03-6.22045E-14
 -1      4141 1.06485E-02-2.84380E-03-6.65604E-14
 -1      4142 1.07910E-02-2.90926E-03-6.82780E-14
 -1      4143 1.05209E-02-2.77459E-03-6.56813E-14
 -1      4144 1.09336E-02-2.97469E-03-7.00084E-14
 -1      4145 1.10763E-02-3.04009E-03-7.17471E-14
 -1      4146 1.08059E-02-2.90532E-03-6.91200E-14
 -1      4147 1.12190E-02-3.10547E-03-7.34955E-14
 -1      4148 1.13617E-02-3.17082E-03-7.52514E-14
 -1      4149 1.10912E-02-3.03599E-03-7.25960E-14
 -1      4150 1.15045E-02-3.23615E-03-7.70190E-14
 -1      4151 1.16474E-02-3.30147E-03-7.87970E-14
 -1      4152 1.13767E-02-3.16659E-03-7.61120E-14
 -1      4153 1.17902E-02-3.36676E-03-8.05837E-14
 -1      4154 1.19330E-02-3.43204E-03-8.23781E-14
 -1      4155 1.16623E-02-3.29714E-03-7.96664E-14
 -1      4156 1.20759E-02-3.49730E-03-8.41841E-14
 -1      4157 1.22188E-02-3.56256E-03-8.60008E-14
 -1      4158 1.19480E-02-3.42764E-03-8.32606E-14
 -1      4159 1.23688E-02-3.63106E-03-8.79163E-14
 -1      4160 1.25188E-02-3.69955E-03-8.98454E-14
 -1      4161 1.22409E-02-3.56137E-03-8.69855E-14
 -1      4162 1.26617E-02-3.76478E-03-9.16963E-14
 -1      4163 1.28046E-02-3.82999E-03-9.35556E-14
 -1      4164 1.25338E-02-3.69507E-03-9.07545E-14
 -1      4165 1.29475E-02-3.89520E-03-9.54265E-14
 -1      4166 1.30904E-02-3.96041E-03-9.73043E-14
 -1      4167 1.28196E-02-3.82549E-03-9.44796E-14
 -1      4168 1.32333E-02-4.02561E-03-9.91909E-14
 -1      4169 1.33762E-02-4.09081E-03-1.01089E-13
 -1      4170 1.31054E-02-3.95589E-03-9.82421E-14
 -1      4171 1.34469E-02-4.12194E-03-1.02101E-13
 -1      4172 1.35203E-02-4.15342E-03-1.03212E-13
 -1      4173 1.34604E-02-4.11448E-03-1.03182E-13
 -1      4174 1.33190E-02-4.05222E-03-1.01149E-13
 -1      4175 7.23902E-03-1.24644E-03-3.21724E-14
 -1      4176 7.10041E-03-1.18779E-03-3.08215E-14
 -1      4177 6.96137E-03-1.12983E-03-2.94924E-14
 -1      4178 6.82143E-03-1.07235E-03-2.81856E-14
 -1      4179 7.09944E-03-1.19410E-03-3.01945E-14
 -1      4180 8.06984E-03-1.61103E-03-4.07034E-14
 -1      4181 7.93090E-03-1.54895E-03-3.92333E-14
 -1      4182 8.34860E-03-1.73637E-03-4.36982E-14
 -1      4183 8.20906E-03-1.67353E-03-4.21924E-14
 -1      4184 8.19850E-03-1.67604E-03-4.14910E-14
 -1      4185 8.62859E-03-1.86296E-03-4.67630E-14
 -1      4186 8.48843E-03-1.79953E-03-4.52214E-14
 -1      4187 8.47667E-03-1.80209E-03-4.45031E-14
 -1      4188 8.90975E-03-1.99052E-03-4.98929E-14
 -1      4189 8.76903E-03-1.92664E-03-4.83199E-14
 -1      4190 8.75637E-03-1.92939E-03-4.75823E-14
 -1      4191 9.19195E-03-2.11879E-03-5.30864E-14
 -1      4192 9.05073E-03-2.05457E-03-5.14826E-14
 -1      4193 9.03740E-03-2.05758E-03-5.07289E-14
 -1      4194 9.47503E-03-2.24759E-03-5.63370E-14
 -1      4195 9.33339E-03-2.18313E-03-5.47040E-14
 -1      4196 9.31957E-03-2.18641E-03-5.39357E-14
 -1      4197 9.75882E-03-2.37679E-03-5.96441E-14
 -1      4198 9.61685E-03-2.31215E-03-5.79841E-14
 -1      4199 9.60266E-03-2.31568E-03-5.72004E-14
 -1      4200 1.00432E-02-2.50630E-03-6.30006E-14
 -1      4201 9.90094E-03-2.44152E-03-6.13164E-14
 -1      4202 9.88649E-03-2.44527E-03-6.05189E-14
 -1      4203 1.03280E-02-2.63603E-03-6.64077E-14
 -1      4204 1.01855E-02-2.57114E-03-6.46993E-14
 -1      4205 1.01709E-02-2.57508E-03-6.38884E-14
 -1      4206 1.06131E-02-2.76592E-03-6.98585E-14
 -1      4207 1.04705E-02-2.70096E-03-6.81277E-14
 -1      4208 1.04557E-02-2.70506E-03-6.73071E-14
 -1      4209 1.08984E-02-2.89595E-03-7.33489E-14
 -1      4210 1.07557E-02-2.83092E-03-7.15987E-14
 -1      4211 1.07409E-02-2.83514E-03-7.07650E-14
 -1      4212 1.11840E-02-3.02607E-03-7.68807E-14
 -1      4213 1.10412E-02-2.96100E-03-7.51102E-14
 -1      4214 1.10263E-02-2.96531E-03-7.42661E-14
 -1      4215 1.14696E-02-3.15626E-03-8.04526E-14
 -1      4216 1.13268E-02-3.09116E-03-7.86610E-14
 -1      4217 1.13118E-02-3.09554E-03-7.78070E-14
 -1      4218 1.17553E-02-3.28651E-03-8.40689E-14
 -1      4219 1.16124E-02-3.22138E-03-8.22536E-14
 -1      4220 1.15974E-02-3.22582E-03-8.13858E-14
 -1      4221 1.20410E-02-3.41680E-03-8.77297E-14
 -1      4222 1.18982E-02-3.35165E-03-8.58940E-14
 -1      4223 1.18832E-02-3.35612E-03-8.50094E-14
 -1      4224 1.23268E-02-3.54711E-03-9.14350E-14
 -1      4225 1.21839E-02-3.48195E-03-8.95783E-14
 -1      4226 1.21689E-02-3.48645E-03-8.86786E-14
 -1      4227 1.26126E-02-3.67745E-03-9.51851E-14
 -1      4228 1.24697E-02-3.61228E-03-9.33062E-14
 -1      4229 1.24547E-02-3.61680E-03-9.23926E-14
 -1      4230 1.28984E-02-3.80781E-03-9.89697E-14
 -1      4231 1.27555E-02-3.74263E-03-9.70716E-14
 -1      4232 1.27405E-02-3.74715E-03-9.61481E-14
 -1      4233 1.31257E-02-3.91661E-03-1.01666E-13
 -1      4234 1.30015E-02-3.85619E-03-1.00251E-13
 -1      4235 1.29864E-02-3.86073E-03-9.93172E-14
 -1      4236 1.31926E-02-3.95751E-03-1.01885E-13
 -1      4237 7.79226E-03-1.48733E-03-3.77807E-14
 -1      4238 7.65380E-03-1.42623E-03-3.63484E-14
 -1      4239 7.92189E-03-1.55162E-03-3.85496E-14
 -1      4240 6.68044E-03-1.01546E-03-2.69034E-14
 -1      4241 6.53763E-03-9.58618E-04-2.56421E-14
 -1      4242 6.82458E-03-1.08169E-03-2.75796E-14
 -1      4243 7.51555E-03-1.36567E-03-3.49366E-14
 -1      4244 7.37729E-03-1.30572E-03-3.35447E-14
 -1      4245 7.64684E-03-1.42946E-03-3.56840E-14
 -1      4246 1.35456E-02-4.14215E-03-1.05060E-13
 -1      4247 1.34787E-02-4.10125E-03-1.04847E-13
 -1      4248 1.33545E-02-4.04083E-03-1.03431E-13
 -1      4249 1.34722E-02-4.11068E-03-1.03946E-13
 -1      4250 6.42486E-03-9.14538E-04-2.46645E-14
 -1      4251 6.27750E-03-8.56932E-04-2.34466E-14
 -1      4252 6.35466E-03-8.99844E-04-2.33884E-14
 -1      4253 6.57681E-03-9.84292E-04-2.53197E-14
 -1      4254 7.56995E-03-1.41371E-03-3.20600E-14
 -1      4255 7.70000E-03-1.47308E-03-3.34323E-14
 -1      4256 7.70807E-03-1.47379E-03-3.41036E-14
 -1      4257 1.74455E-03-3.20685E-06-2.92018E-15
 -1      4258 7.09637E-03-1.20390E-03-2.65861E-14
 -1      4259 7.37296E-03-1.31007E-03-3.28985E-14
 -1      4260 7.31506E-03-1.29963E-03-2.93787E-14
 -1      4261 7.44153E-03-1.35588E-03-3.07084E-14
 -1      4262 7.44586E-03-1.35634E-03-3.13603E-14
 -1      4263 6.41954E-03-9.32204E-04-2.33806E-14
 -1      4264 6.50072E-03-9.70554E-04-2.33138E-14
 -1      4265 6.65215E-03-1.02856E-03-2.43163E-14
 -1      4266 6.52843E-03-9.72610E-04-2.43390E-14
 -1      4267 6.94725E-03-1.14428E-03-2.57923E-14
 -1      4268 7.16710E-03-1.23559E-03-2.79187E-14
 -1      4269 7.16509E-03-1.23464E-03-2.85490E-14
 -1      4270 6.86384E-03-1.11176E-03-2.56884E-14
 -1      4271 7.58211E-03-1.41383E-03-3.33831E-14
 -1      4272 7.71547E-03-1.47348E-03-3.47746E-14
 -1      4273 8.12439E-03-1.65944E-03-3.90983E-14
 -1      4274 8.26800E-03-1.72549E-03-4.06404E-14
 -1      4275 8.36780E-03-1.76582E-03-4.22230E-14
 -1      4276 8.50622E-03-1.82938E-03-4.37270E-14
 -1      4277 8.64518E-03-1.89325E-03-4.52471E-14
 -1      4278 8.78460E-03-1.95743E-03-4.67872E-14
 -1      4279 8.92446E-03-2.02181E-03-4.83417E-14
 -1      4280 9.06470E-03-2.08639E-03-4.99130E-14
 -1      4281 9.20531E-03-2.15111E-03-5.15009E-14
 -1      4282 9.34622E-03-2.21595E-03-5.31027E-14
 -1      4283 9.48742E-03-2.28087E-03-5.47190E-14
 -1      4284 9.62886E-03-2.34588E-03-5.63498E-14
 -1      4285 9.77052E-03-2.41093E-03-5.79959E-14
 -1      4286 9.91237E-03-2.47603E-03-5.96545E-14
 -1      4287 1.00544E-02-2.54116E-03-6.13250E-14
 -1      4288 1.02037E-02-2.60957E-03-6.30939E-14
 -1      4289 1.03460E-02-2.67474E-03-6.47904E-14
 -1      4290 1.04884E-02-2.73992E-03-6.64974E-14
 -1      4291 1.06308E-02-2.80511E-03-6.82176E-14
 -1      4292 1.07734E-02-2.87030E-03-6.99474E-14
 -1      4293 1.09160E-02-2.93550E-03-7.16856E-14
 -1      4294 1.10587E-02-3.00070E-03-7.34339E-14
 -1      4295 1.12015E-02-3.06590E-03-7.51942E-14
 -1      4296 1.13442E-02-3.13111E-03-7.69619E-14
 -1      4297 1.14870E-02-3.19631E-03-7.87392E-14
 -1      4298 1.16299E-02-3.26151E-03-8.05296E-14
 -1      4299 1.17727E-02-3.32671E-03-8.23275E-14
 -1      4300 1.19156E-02-3.39190E-03-8.41361E-14
 -1      4301 1.20584E-02-3.45710E-03-8.59564E-14
 -1      4302 1.22085E-02-3.52555E-03-8.78787E-14
 -1      4303 1.23513E-02-3.59075E-03-8.97215E-14
 -1      4304 1.24942E-02-3.65594E-03-9.15753E-14
 -1      4305 1.26371E-02-3.72113E-03-9.34401E-14
 -1      4306 1.27800E-02-3.78633E-03-9.53147E-14
 -1      4307 1.29229E-02-3.85152E-03-9.71988E-14
 -1      4308 1.30658E-02-3.91671E-03-9.90915E-14
 -1      4309 7.23467E-03-1.25625E-03-3.08998E-14
 -1      4310 7.10001E-03-1.19978E-03-2.95684E-14
 -1      4311 8.23739E-03-1.69956E-03-4.14020E-14
 -1      4312 8.09937E-03-1.63698E-03-3.99240E-14
 -1      4313 7.96185E-03-1.57491E-03-3.84637E-14
 -1      4314 6.98664E-03-1.15638E-03-2.79924E-14
 -1      4315 6.85416E-03-1.10344E-03-2.67110E-14
 -1      4316 7.54903E-03-1.39123E-03-3.41642E-14
 -1      4317 7.41344E-03-1.33216E-03-3.27832E-14
 -1      4318 7.96249E-03-1.58573E-03-3.73339E-14
 -1      4319 7.97532E-03-1.58635E-03-3.80586E-14
 -1      4320 7.79891E-03-1.50223E-03-3.67089E-14
 -1      4321 7.82753E-03-1.52432E-03-3.59092E-14
 -1      4322 7.40675E-03-1.33715E-03-3.14843E-14
 -1      4323 7.40997E-03-1.33512E-03-3.21335E-14
 -1      4324 7.70044E-03-1.46271E-03-3.51713E-14
 -1      4325 7.27591E-03-1.28050E-03-3.01437E-14
 -1      4326 6.69511E-03-1.04108E-03-2.53041E-14
 -1      4327 7.66260E-03-1.44164E-03-3.52920E-14
 -1      4328 1.34015E-02-4.07955E-03-1.02925E-13
 -1      4329 1.33265E-02-4.03599E-03-1.02536E-13
 -1      4330 1.32676E-02-4.00107E-03-1.02279E-13
 -1      4331 1.31645E-02-3.95267E-03-1.00993E-13
 -1      4332 1.33146E-02-4.03979E-03-1.01775E-13
 -1      4333 7.12166E-03-1.21506E-03-2.86699E-14
 -1      4334 1.30615E-02-3.90428E-03-9.97122E-14
 -1      4335 1.32439E-02-4.00866E-03-1.00761E-13
 -1      4336 6.63595E-03-1.01352E-03-2.53131E-14
 -3
    1PSTEP                         2           1           1          
  100CL  101 1.000000000        4336                     0    1           1
 -4  STRESS      6    1
 -5  SXX         1    4    1    1
 -5  SYY         1    4    2    2
 -5  SZZ         1    4    3    3
 -5  SXY         1    4    1    2
 -5  SYZ         1    4    2    3
 -5  SZX         1    4    3    1
 -1         1 7.55453E+01 1.14089E+00 4.78112E+00 7.97712E-02-8.90815E-14-4.00773E-13
 -1         2-7.42687E-01-2.60647E+01-3.45279E+00 2.27699E-01 6.45137E-13 1.81591E-14
 -1         3 1.99998E+01 3.37797E-05-7.22572E-05 3.34980E-05-5.11716E-13-4.76431E-13
 -1         4 1.99998E+01 4.97754E-05-6.47483E-05-5.13834E-05 2.85154E-13-4.40063E-13
 -1         5 3.35053E+01 6.29585E+00 2.72053E+00 6.26346E+00-4.17236E-14 2.98793E-12
 -1         6 3.62789E+01 1.23420E+01 4.86108E+00-8.43305E+00-1.71696E-13 2.77772E-12
 -1         7 2.25249E+01 6.55857E+00 1.23204E-02-4.11139E+00-2.61874E-14 4.83839E-13
 -1         8 2.08834E+01 6.27963E+00 1.03982E-01-2.32713E+00-3.29389E-14-2.30229E-13
 -1         9 1.96533E+01 5.91907E+00 5.09626E-02-1.49329E+00-3.24463E-14-6.22440E-13
 -1        10 1.86806E+01 5.62580E+00 1.54643E-02-1.04430E+00-2.15036E-14-8.06112E-13
 -1        11 1.79589E+01 5.40840E+00-7.24691E-03-8.27322E-01-1.33296E-14-9.09545E-13
 -1        12 1.75222E+01 5.27644E+00-1.57634E-02-7.36253E-01-9.93823E-15-9.44309E-13
 -1        13 1.73583E+01 5.22653E+00-1.10887E-02-6.75363E-01-4.99861E-15-9.52565E-13
 -1        14 1.74370E+01 5.24940E+00 3.17478E-03-5.71152E-01 1.43982E-15-9.39745E-13
 -1        15 1.76899E+01 5.32470E+00 2.18311E-02-3.75843E-01 5.88071E-15-9.22607E-13
 -1        16 1.80421E+01 5.43023E+00 4.00340E-02-7.04765E-02 8.50188E-15-8.83937E-13
 -1        17 1.84330E+01 5.54793E+00 5.45469E-02 3.42239E-01 1.41762E-14-8.31115E-13
 -1        18 1.88234E+01 5.66713E+00 6.39712E-02 8.39877E-01 1.88981E-14-7.44053E-13
 -1        19 1.92317E+01 5.79339E+00 6.84298E-02 1.43239E+00 2.73913E-14-6.19012E-13
 -1        20 1.97073E+01 5.94290E+00 6.80232E-02 2.12592E+00 3.35877E-14-3.92800E-13
 -1        21 2.04120E+01 6.16826E+00 6.94407E-02 2.99562E+00 4.19734E-14 5.55836E-14
 -1        22 2.20402E+01 6.61493E+00 1.66713E-01 4.36912E+00 5.34295E-15 9.54518E-13
 -1        23 2.49807E+01-1.49980E+00-9.95306E-01-5.26498E-01-1.13992E-13 2.16928E-12
 -1        24 2.24611E+01-1.09350E-01-3.10240E-01 9.62420E-02-3.28930E-14 1.63233E-12
 -1        25 2.29312E+01-7.08605E-02-8.95308E-02 8.88706E-02-1.58415E-14 1.11821E-12
 -1        26 2.41465E+01-3.98972E-02-4.46173E-02 7.97604E-02-1.96761E-15 7.66491E-13
 -1        27 2.59618E+01-2.40180E-02-3.58548E-02 9.69319E-02-3.27722E-14 5.53134E-13
 -1        28 2.82216E+01 2.79578E-03 1.80313E-03 1.18766E-01 7.21149E-15 3.72487E-13
 -1        29 3.05741E+01 4.23618E-02 1.05806E-01 1.11107E-01 2.76140E-14 3.28230E-13
 -1        30 3.18134E+01 9.00587E-02 2.61188E-01 1.08960E-02 6.93976E-15 3.58151E-13
 -1        31 3.05777E+01 9.87876E-02 3.31855E-01-2.41204E-01-6.30225E-15 4.14391E-13
 -1        32 2.59649E+01 2.30683E-02 7.43016E-02-5.45554E-01 1.71855E-14 3.11667E-13
 -1        33 1.98281E+01-6.11978E-02-4.73065E-01-5.17471E-01-1.34172E-14 2.20129E-13
 -1        34 1.67494E+01-1.64521E-01-8.19485E-01-7.32897E-02-5.43142E-15-2.96842E-13
 -1        35 1.81520E+01-1.50585E-01-6.92671E-01 3.96021E-01-3.66599E-14-9.06483E-13
 -1        36 2.40173E+01-1.98638E-02-1.12902E-01 6.07301E-01 2.16395E-14-1.20887E-12
 -1        37 2.96689E+01 9.79809E-02 2.89024E-01 3.90384E-01-4.14339E-15-1.21468E-12
 -1        38 3.24810E+01 9.62259E-02 3.05241E-01 6.67186E-02 1.61381E-14-9.09106E-13
 -1        39 3.20875E+01 6.46082E-02 1.59247E-01-8.26115E-02-7.60936E-15-6.53469E-13
 -1        40 3.01547E+01 2.05388E-02 3.30184E-02-1.11628E-01-1.41056E-14-6.40928E-13
 -1        41 2.78691E+01-6.95687E-03-2.78472E-02-9.11067E-02 2.98633E-14-6.03812E-13
 -1        42 2.58194E+01-1.83761E-02-4.32705E-02-6.21142E-02-2.95865E-14-5.87180E-13
 -1        43 2.41861E+01-2.02596E-02-3.91651E-02-3.87407E-02-4.34208E-14-7.15768E-13
 -1        44 2.29565E+01-1.88001E-02-3.06118E-02-2.39641E-02 5.28246E-14-6.64994E-13
 -1        45 2.20291E+01-1.38418E-02-2.08986E-02-1.26477E-02 3.64453E-14-5.91908E-13
 -1        46 2.14013E+01-1.11254E-02-1.47761E-02-7.08752E-03-8.46091E-14-5.39549E-13
 -1        47 2.09562E+01-8.31493E-03-1.02058E-02-3.76110E-03 4.31892E-14-7.75501E-13
 -1        48 2.06426E+01-6.14083E-03-7.04088E-03-1.82601E-03-5.97437E-14-9.86827E-13
 -1        49 2.04229E+01-4.50135E-03-4.86965E-03-7.23545E-04-5.54432E-14-8.69568E-13
 -1        50 2.02699E+01-3.26910E-03-3.37594E-03-1.00730E-04 1.29179E-14-8.50305E-13
 -1        51 2.01643E+01-2.46424E-03-2.38881E-03 1.02038E-04-1.32917E-14-9.20566E-13
 -1        52 2.00898E+01-1.65756E-03-1.57517E-03 4.23029E-04-5.20150E-14-8.38763E-13
 -1        53 2.00430E+01-1.22989E-03-1.10155E-03 4.55543E-04 3.15557E-14-8.36203E-13
 -1        54 2.00127E+01-8.78921E-04-7.51462E-04 4.61999E-04 4.75500E-14-7.27602E-13
 -1        55 1.99941E+01-6.21990E-04-5.02641E-04 4.37595E-04-3.41467E-14-5.00231E-13
 -1        56 1.99834E+01-4.33773E-04-3.26704E-04 3.96682E-04 3.47713E-14-6.37626E-13
 -1        57 1.99781E+01-2.94346E-04-2.02971E-04 3.49438E-04-7.53791E-14-9.64179E-13
 -1        58 1.99763E+01-2.01620E-04-1.19067E-04 2.88964E-04-2.20078E-14-1.68596E-12
 -1        59 1.99769E+01-1.22288E-04-5.69208E-05 2.52644E-04 7.36248E-14-1.44953E-12
 -1        60 1.99787E+01-7.41118E-05-1.96035E-05 2.06018E-04 9.59916E-14-4.28847E-13
 -1        61 1.99812E+01-4.02960E-05 3.78564E-06 1.68036E-04-1.28603E-13-1.78928E-13
 -1        62 1.99840E+01-1.76222E-05 1.74624E-05 1.35276E-04 9.27887E-14-1.20117E-13
 -1        63 1.99868E+01-2.97391E-06 2.43858E-05 1.07906E-04-1.00822E-13 1.56183E-13
 -1        64 1.99894E+01 6.22098E-06 2.68991E-05 8.56873E-05-1.38025E-13-3.26375E-13
 -1        65 1.99918E+01 1.23510E-05 2.74563E-05 6.86248E-05 5.29670E-14-2.50089E-13
 -1        66 1.99941E+01 1.37671E-05 2.52194E-05 5.39261E-05-8.37124E-14-4.13802E-13
 -1        67 1.99959E+01 1.69431E-05 2.52838E-05 4.35955E-05 5.45915E-14-9.44424E-13
 -1        68 1.99974E+01 1.90730E-05 2.73273E-05 3.50947E-05-1.01795E-13-1.02527E-12
 -1        69 1.99987E+01 2.15902E-05 3.34493E-05 2.54404E-05 2.27440E-14-2.93415E-13
 -1        70 1.99995E+01 2.48424E-05 4.02189E-05 9.78984E-06 2.49053E-14-6.98306E-13
 -1        71 1.99999E+01 8.37228E-06 1.20179E-05-3.37726E-05 9.00941E-14-1.11125E-12
 -1        72 2.20245E+01-4.12915E-01-1.00472E+00-3.51330E-01 3.85247E-14 2.71815E-12
 -1        73 2.06259E+01-6.20825E-02-2.81568E-01-6.88920E-02 2.84508E-14 2.02283E-12
 -1        74 2.01399E+01-1.49375E-02-4.95717E-02-3.13917E-02 1.23463E-14 1.52927E-12
 -1        75 1.99451E+01-2.88405E-03 7.33336E-03-2.34348E-02 6.53446E-15 1.23009E-12
 -1        76 1.97836E+01 2.90961E-03 1.98379E-02-1.56576E-02 1.18022E-14 8.99277E-13
 -1        77 1.95123E+01 5.00289E-03 2.24075E-02-6.22157E-03-1.71369E-15 7.11488E-13
 -1        78 1.90609E+01 3.90980E-03 2.03490E-02 5.44220E-03-1.05621E-14 6.70519E-13
 -1        79 1.84259E+01-3.01143E-05 1.25310E-02 1.81994E-02 1.40713E-14 5.91842E-13
 -1        80 1.76786E+01-5.81039E-03-1.30098E-03 2.89044E-02 1.74915E-14 4.81377E-13
 -1        81 1.69590E+01-1.15435E-02-1.83117E-02 3.33760E-02 9.65932E-15 2.95850E-13
 -1        82 1.64424E+01-1.50166E-02-3.29032E-02 2.85957E-02 1.26810E-14 2.50181E-13
 -1        83 1.62798E+01-1.47541E-02-3.92471E-02 1.49549E-02 1.24348E-14 7.54877E-14
 -1        84 1.65379E+01-1.08160E-02-3.46030E-02-3.27008E-03 3.10012E-14 2.67399E-14
 -1        85 1.71700E+01-4.72444E-03-2.10558E-02-1.99357E-02-1.89884E-14-7.59393E-14
 -1        86 1.80363E+01 1.43742E-03-4.15781E-03-3.02050E-02-8.87658E-15-1.33286E-13
 -1        87 1.89597E+01 6.02149E-03 1.02477E-02-3.25392E-02-2.88955E-14-7.53009E-14
 -1        88 1.97860E+01 8.33705E-03 1.87706E-02-2.84893E-02 4.45379E-15 5.51746E-14
 -1        89 2.04200E+01 8.56875E-03 2.10557E-02-2.10539E-02 3.49518E-14-7.85743E-14
 -1        90 2.08310E+01 7.38355E-03 1.87837E-02-1.30409E-02-5.26625E-14-2.08179E-13
 -1        91 2.10371E+01 5.52956E-03 1.42246E-02-6.23678E-03 1.08229E-14-2.45254E-13
 -1        92 2.10826E+01 3.59277E-03 9.24403E-03-1.35507E-03-1.35922E-14-3.32290E-13
 -1        93 2.10193E+01 1.92186E-03 4.94891E-03 1.63255E-03-1.99759E-14-2.28299E-13
 -1        94 2.08935E+01 6.59587E-04 1.77089E-03 3.11372E-03 5.01645E-14-4.21228E-13
 -1        95 2.07412E+01-1.87775E-04-2.91108E-04 3.56128E-03-4.79192E-15-5.10336E-13
 -1        96 2.05869E+01-6.84342E-04-1.44258E-03 3.39034E-03-8.22386E-14 5.41683E-14
 -1        97 2.04454E+01-9.17851E-04-1.94203E-03 2.90924E-03 2.84057E-14 3.67328E-14
 -1        98 2.03241E+01-9.72895E-04-2.02303E-03 2.32092E-03-1.66709E-15-3.80156E-13
 -1        99 2.02253E+01-9.18979E-04-1.86589E-03 1.74431E-03-8.18236E-15-8.88978E-13
 -1       100 2.01481E+01-8.07578E-04-1.59589E-03 1.23941E-03-4.94906E-14-6.68142E-13
 -1       101 2.00901E+01-6.73715E-04-1.29260E-03 8.28690E-04 5.08681E-15-6.47702E-13
 -1       102 2.00483E+01-5.39274E-04-1.00188E-03 5.12889E-04-6.79485E-14-5.55385E-13
 -1       103 2.00193E+01-4.16522E-04-7.46705E-04 2.81734E-04-6.13219E-14-4.36256E-13
 -1       104 2.00002E+01-3.11185E-04-5.35562E-04 1.20574E-04 1.70869E-14-4.53278E-13
 -1       105 1.99886E+01-2.24839E-04-3.68526E-04 1.42051E-05-9.23427E-14-1.36233E-13
 -1       106 1.99822E+01-1.56640E-04-2.41291E-04-5.11736E-05 2.93449E-14-3.89944E-13
 -1       107 1.99795E+01-1.04510E-04-1.47710E-04-8.71498E-05-1.65014E-14-1.04681E-12
 -1       108 1.99792E+01-6.58780E-05-8.12920E-05-1.02947E-04 1.97544E-14-9.10366E-13
 -1       109 1.99804E+01-3.81412E-05-3.59985E-05-1.05608E-04 5.67007E-14-9.40446E-13
 -1       110 1.99825E+01-1.88998E-05-6.60114E-06-1.00323E-04-3.80105E-14-1.01566E-12
 -1       111 1.99849E+01-6.06815E-06 1.12171E-05-9.07970E-05 1.27696E-14-1.17155E-12
 -1       112 1.99875E+01 2.10074E-06 2.09092E-05-7.95895E-05 7.16831E-14-1.04123E-12
 -1       113 1.99899E+01 7.03795E-06 2.51904E-05-6.84125E-05 1.06737E-14-1.40519E-12
 -1       114 1.99922E+01 9.90406E-06 2.62149E-05-5.83642E-05-1.07704E-13-1.18041E-12
 -1       115 1.99943E+01 1.16422E-05 2.58153E-05-5.00890E-05 2.85549E-14-1.15228E-12
 -1       116 1.99961E+01 1.30008E-05 2.58286E-05-4.38164E-05-5.98302E-14-1.30541E-12
 -1       117 1.99976E+01 1.45272E-05 2.84168E-05-3.91755E-05-8.42051E-14-1.40476E-12
 -1       118 1.99987E+01 1.60329E-05 3.54155E-05-3.45783E-05-2.42490E-14-1.13205E-12
 -1       119 1.99995E+01 1.53071E-05 4.08164E-05-2.31545E-05 2.24441E-14-1.34754E-12
 -1       120 1.99999E+01-1.45025E-05 4.26289E-06 1.14971E-05 1.68203E-13-1.11557E-12
 -1       121 1.99998E+01 2.88680E-05 5.22511E-06 2.21645E-05-1.00636E-12 1.70999E-13
 -1       122 1.99998E+01-2.92723E-04 3.72676E-05-1.24056E-05-5.86051E-13 1.50230E-13
 -1       123 1.99998E+01-1.05527E-03 2.33573E-05-3.30791E-05 2.44873E-13 3.66726E-14
 -1       124 1.99998E+01-2.03909E-03 3.91547E-06-3.73266E-05-3.37855E-13-1.23220E-13
 -1       125 1.99998E+01-3.05310E-03-1.06852E-05-3.45620E-05-3.44315E-13-1.47789E-13
 -1       126 1.99998E+01-3.93405E-03-2.10681E-05-2.76925E-05-9.15846E-13-6.45919E-14
 -1       127 1.99998E+01-4.59620E-03-2.76574E-05-1.76585E-05-1.06829E-12 3.06235E-13
 -1       128 1.99998E+01-4.94683E-03-3.09536E-05-6.05784E-06-9.37181E-13-2.78598E-14
 -1       129 1.99998E+01-4.94707E-03-3.10252E-05 6.05983E-06 5.57314E-13 2.30893E-13
 -1       130 1.99998E+01-4.59618E-03-2.78417E-05 1.77087E-05 5.48018E-13-2.35268E-13
 -1       131 1.99998E+01-3.93220E-03-2.10824E-05 2.81447E-05-2.64181E-14-5.55026E-14
 -1       132 1.99998E+01-3.04777E-03-1.07327E-05 3.49389E-05 4.81945E-13 3.12407E-13
 -1       133 1.99998E+01-2.02869E-03 4.33436E-06 3.76563E-05 1.68192E-13-1.19274E-13
 -1       134 1.99998E+01-1.04323E-03 2.32678E-05 3.25430E-05 1.42275E-13-1.23250E-15
 -1       135 1.99998E+01-2.82335E-04 3.57017E-05 8.45643E-06 9.50368E-13 2.93953E-13
 -1       136 1.99998E+01 7.07877E-05 1.44021E-05-3.89940E-05 1.99685E-12-1.79007E-13
 -1       137-1.30490E+00-2.01075E+01-3.03026E+00-3.68371E+00 2.18919E-12 5.74638E-13
 -1       138-1.28662E+00-7.80582E+00-2.16034E+00-2.55865E+00 2.95020E-12 1.35580E-12
 -1       139 3.55648E+00 4.62182E+00-9.41127E-01 4.30913E+00 2.66215E-12 1.93423E-12
 -1       140 1.62230E+01 1.12859E+01 4.78282E-01 1.33725E+01 2.21495E-12 2.33608E-12
 -1       141 3.66185E+01 1.07297E+01 1.90750E+00 1.92555E+01 1.18774E-12 2.18719E-12
 -1       142 5.57240E+01 5.44030E+00 2.94709E+00 1.63034E+01 4.48530E-13 1.18988E-12
 -1       143 6.71354E+01 1.23359E+00 3.49631E+00 5.26810E+00-6.02331E-14-3.86025E-13
 -1       144 6.54829E+01 1.87023E+00 3.41676E+00-8.13724E+00 2.88086E-13-1.93912E-12
 -1       145 5.18886E+01 6.59957E+00 2.75613E+00-1.74988E+01 1.13122E-12-3.10174E-12
 -1       146 3.22600E+01 1.13200E+01 1.63251E+00-1.86183E+01 2.27285E-12-3.57542E-12
 -1       147 1.20656E+01 1.00828E+01 8.15676E-02-1.09819E+01 3.13799E-12-3.19644E-12
 -1       148 1.16882E+00 1.07873E+00-1.37546E+00-1.54485E+00 3.30952E-12-2.07978E-12
 -1       149-1.65358E+00-1.21917E+01-2.51555E+00 3.68050E+00 2.65649E-12-1.00742E-12
 -1       150-1.07384E+00-2.29337E+01-3.24203E+00 2.73703E+00 1.17972E-12-2.60011E-13
 -1       151-1.09052E+00-2.57798E+01-3.49490E+00-2.03342E+00-7.40630E-13-1.11244E-13
 -1       152-2.10520E+00-1.86142E+01-3.19215E+00-4.98551E+00-2.35989E-12-7.89618E-13
 -1       153-1.65641E+00-6.53826E+00-2.43572E+00-2.76952E+00-3.48988E-12-2.02743E-12
 -1       154 5.40959E+00 5.05349E+00-1.15298E+00 5.48368E+00-3.62343E-12-3.21515E-12
 -1       155 2.15626E+01 1.06595E+01 5.27166E-01 1.50970E+01-2.87370E-12-3.78975E-12
 -1       156 4.57211E+01 8.97599E+00 2.54009E+00 1.95109E+01-1.52700E-12-3.22753E-12
 -1       157 6.68895E+01 3.80386E+00 4.15709E+00 1.37508E+01-4.75044E-13-1.91791E-12
 -1       158 6.73519E+01 3.44776E+00 4.14672E+00-1.28933E+01-2.98365E-13 1.29607E-12
 -1       159 4.85186E+01 8.06221E+00 2.72569E+00-1.89254E+01-8.78131E-13 2.20657E-12
 -1       160 2.68601E+01 1.05096E+01 9.86460E-01-1.65749E+01-1.81122E-12 2.66320E-12
 -1       161 9.75507E+00 7.23236E+00-6.75477E-01-8.57953E+00-2.72615E-12 2.69529E-12
 -1       162-2.05481E-02-2.00478E+00-2.02415E+00 2.75436E-01-3.21315E-12 2.27018E-12
 -1       163-2.45604E+00-1.36455E+01-2.91807E+00 4.99762E+00-2.64200E-12 1.14203E-12
 -1       164-1.63124E+00-2.31738E+01-3.40039E+00 4.40828E+00-1.27354E-12 3.39071E-13
 -1       165 2.27224E+01 3.71193E+00-4.36400E-02-2.68777E+00-4.08049E-13 1.06172E-13
 -1       166 2.09202E+01 4.39766E+00-3.78629E-02-1.79448E+00-3.82952E-13-3.44542E-13
 -1       167 1.95265E+01 4.78091E+00-2.79968E-02-1.25183E+00-3.25370E-13-5.92068E-13
 -1       168 1.84843E+01 4.96376E+00-2.05007E-02-9.60887E-01-2.40478E-13-7.26814E-13
 -1       169 1.78023E+01 5.02726E+00-1.55980E-02-8.29161E-01-1.71035E-13-7.80881E-13
 -1       170 1.74740E+01 5.00130E+00-1.33239E-02-7.59478E-01-1.12150E-13-8.08503E-13
 -1       171 1.74781E+01 4.91637E+00-1.26472E-02-6.71511E-01-4.38997E-14-8.04307E-13
 -1       172 1.77333E+01 4.80598E+00-1.31858E-02-5.06149E-01 1.42282E-14-7.85611E-13
 -1       173 1.81398E+01 4.69962E+00-1.46523E-02-2.35030E-01 7.79728E-14-7.74239E-13
 -1       174 1.86093E+01 4.61442E+00-1.69383E-02 1.43718E-01 1.32027E-13-7.32525E-13
 -1       175 1.90780E+01 4.55196E+00-2.02580E-02 6.07843E-01 1.96969E-13-6.56162E-13
 -1       176 1.95521E+01 4.49301E+00-2.54020E-02 1.15871E+00 2.87923E-13-5.51448E-13
 -1       177 2.00700E+01 4.39710E+00-3.43989E-02 1.78571E+00 3.71763E-13-3.92514E-13
 -1       178 2.07715E+01 4.17057E+00-4.82749E-02 2.50662E+00 4.19853E-13-9.85115E-14
 -1       179 2.20551E+01 3.47013E+00-5.98752E-02 3.28797E+00 4.11188E-13 4.37636E-13
 -1       180 2.34264E+01 1.11561E+00-3.40492E-01 2.83700E+00 3.11841E-13 1.16393E-12
 -1       181 2.42145E+01 8.35807E-01 6.29681E-03-1.20556E+00-3.54931E-13 6.42462E-13
 -1       182 2.33442E+01 2.42928E-01-5.17685E-03 1.08726E-01-2.89156E-13 4.67725E-13
 -1       183 2.34266E+01 2.04812E-01 1.62143E-02 7.85626E-01-2.18698E-13 3.35083E-13
 -1       184 2.41355E+01 1.64660E-01 8.81541E-03 1.27143E+00-1.40578E-13 2.04186E-13
 -1       185 2.52471E+01 9.41563E-02-1.44986E-04 1.60681E+00-8.52341E-14 1.59099E-13
 -1       186 2.66525E+01-1.00827E-01-4.74303E-03 1.62936E+00 9.36881E-15 1.75306E-13
 -1       187 2.79332E+01-4.63729E-01-2.99758E-03 1.01300E+00 4.78480E-14 2.80313E-13
 -1       188 2.87540E+01-9.10015E-01 2.84139E-03-5.19935E-01 6.16313E-14 3.78627E-13
 -1       189 2.85999E+01-9.51514E-01-1.70723E-02-2.65094E+00-6.78563E-14 4.70169E-13
 -1       190 2.72345E+01 3.88030E-02-1.06709E-01-3.71781E+00-1.78010E-13 2.73243E-13
 -1       191 2.59309E+01 1.36009E+00-1.44016E-01-2.34271E+00-4.35089E-13-2.85657E-14
 -1       192 2.55378E+01 1.83926E+00-1.74641E-01 7.78371E-01-4.79616E-13-3.98985E-13
 -1       193 2.67856E+01 6.43309E-01-1.26459E-01 3.60931E+00-2.67203E-13-7.58638E-13
 -1       194 2.84470E+01-6.95259E-01-4.50550E-02 3.48809E+00-2.23918E-14-9.01581E-13
 -1       195 2.92482E+01-1.02996E+00 1.75921E-04 1.38078E+00 1.82538E-13-7.92547E-13
 -1       196 2.87849E+01-6.42126E-01 1.27958E-04-4.90883E-01 7.75924E-14-8.12065E-13
 -1       197 2.76456E+01-2.24431E-01-5.59699E-03-1.44635E+00 9.91715E-14-7.06519E-13
 -1       198 2.62578E+01 1.84915E-02-6.05934E-03-1.66310E+00 1.05302E-14-5.69792E-13
 -1       199 2.49084E+01 1.12189E-01-2.44659E-03-1.50179E+00 2.57596E-14-5.56040E-13
 -1       200 2.37360E+01 1.27029E-01 1.04796E-03-1.21551E+00-3.37356E-14-4.40203E-13
 -1       201 2.27819E+01 1.10947E-01 2.80464E-03-9.29053E-01 4.38694E-14-3.81832E-13
 -1       202 2.20074E+01 8.59836E-02 3.45397E-03-6.77775E-01 1.93419E-14-4.83871E-13
 -1       203 2.14532E+01 6.39740E-02 3.06256E-03-4.92368E-01-6.70870E-14-5.14208E-13
 -1       204 2.10392E+01 4.66008E-02 2.53703E-03-3.54283E-01-1.33682E-13-5.56348E-13
 -1       205 2.07342E+01 3.35552E-02 1.98602E-03-2.53165E-01-1.49035E-13-6.94149E-13
 -1       206 2.05115E+01 2.40473E-02 1.50810E-03-1.79824E-01-2.24715E-14-6.87493E-13
 -1       207 2.03502E+01 1.72066E-02 1.12506E-03-1.26858E-01 1.01373E-15-5.70002E-13
 -1       208 2.02341E+01 1.23166E-02 8.22980E-04-8.87094E-02 6.23166E-14-5.91208E-13
 -1       209 2.01483E+01 8.64996E-03 6.16252E-04-6.01375E-02 5.92611E-14-4.86928E-13
 -1       210 2.00915E+01 6.13166E-03 4.37079E-04-4.07293E-02 8.95292E-14-1.75031E-13
 -1       211 2.00523E+01 4.32903E-03 3.18523E-04-2.69325E-02 7.98355E-15-1.92024E-13
 -1       212 2.00258E+01 3.02236E-03 2.29747E-04-1.71662E-02 1.71302E-14-1.76429E-13
 -1       213 2.00085E+01 2.07720E-03 1.64232E-04-1.03413E-02-1.78742E-13-2.30156E-13
 -1       214 1.99977E+01 1.39605E-03 1.15699E-04-5.65240E-03-3.90012E-13-5.25312E-13
 -1       215 1.99914E+01 9.10070E-04 7.99460E-05-2.50907E-03-3.60935E-13-8.71232E-13
 -1       216 1.99882E+01 5.51736E-04 5.49499E-05-3.91034E-04 2.54459E-14-7.86682E-13
 -1       217 1.99871E+01 3.14987E-04 3.50709E-05 8.38936E-04 4.63210E-13-8.46019E-13
 -1       218 1.99874E+01 1.55632E-04 2.22391E-05 1.53139E-03 2.71610E-13-7.63931E-13
 -1       219 1.99883E+01 5.10601E-05 1.30698E-05 1.86581E-03-3.05291E-14-4.50557E-13
 -1       220 1.99898E+01-1.42202E-05 6.77435E-06 1.96528E-03 2.97191E-14-5.82371E-13
 -1       221 1.99913E+01-5.22623E-05 2.49656E-06 1.91853E-03-8.78395E-14-2.94998E-13
 -1       222 1.99929E+01-7.22183E-05-2.30064E-07 1.78661E-03 2.64397E-14-2.38727E-13
 -1       223 1.99945E+01-8.17247E-05-2.19775E-06 1.59949E-03-2.95331E-13-4.37505E-13
 -1       224 1.99959E+01-8.57389E-05-3.40576E-06 1.39683E-03-2.58303E-13-3.54480E-13
 -1       225 1.99971E+01-9.07923E-05-4.07865E-06 1.17871E-03 7.02391E-15-3.68771E-13
 -1       226 1.99981E+01-1.01901E-04-4.14989E-06 9.39650E-04 1.29101E-13-3.13963E-13
 -1       227 1.99989E+01-1.22922E-04-3.52391E-06 6.64988E-04-1.18023E-13-3.34565E-13
 -1       228 1.99994E+01-1.47085E-04-3.60058E-06 3.49399E-04-1.77687E-13-3.78464E-13
 -1       229 1.99997E+01-1.28823E-04 2.74697E-06 1.17918E-04 1.46287E-13-2.15582E-13
 -1       230 2.20826E+01 2.53416E-01-4.99153E-02 1.02315E+00 3.39249E-13 9.98274E-13
 -1       231 2.10805E+01 1.01007E-01 1.02085E-02 3.81079E-01 2.19978E-13 7.74632E-13
 -1       232 2.05804E+01 1.96607E-02 1.28464E-02 1.83531E-01 1.65121E-13 5.75451E-13
 -1       233 2.02573E+01-2.05749E-02 7.00629E-03 1.65499E-01 1.56368E-13 4.72678E-13
 -1       234 1.99529E+01-3.73886E-02 3.48941E-03 2.37719E-01 9.93865E-14 3.80141E-13
 -1       235 1.95854E+01-4.02456E-02 1.91485E-03 3.46786E-01 5.31760E-14 3.03242E-13
 -1       236 1.91310E+01-2.76911E-02 1.17733E-03 4.44732E-01 5.37403E-14 2.14730E-13
 -1       237 1.86214E+01 5.78773E-05 5.78583E-04 4.83035E-01 7.65495E-14 1.57222E-13
 -1       238 1.81369E+01 3.69848E-02-3.68341E-05 4.23373E-01 6.96305E-14 9.91481E-14
 -1       239 1.77839E+01 7.09678E-02-4.43304E-04 2.55441E-01 5.10052E-14 4.73857E-14
 -1       240 1.76583E+01 8.84073E-02-3.61025E-04 8.50178E-03 1.10020E-13-1.29583E-14
 -1       241 1.78062E+01 8.16673E-02 2.38246E-04-2.55281E-01 4.01892E-14-3.72178E-14
 -1       242 1.82036E+01 5.37580E-02 1.00826E-03-4.66154E-01 2.67837E-14 5.75017E-15
 -1       243 1.87656E+01 1.63205E-02 1.47298E-03-5.76489E-01 7.42039E-15-4.05062E-14
 -1       244 1.93797E+01-1.74159E-02 1.35627E-03-5.76709E-01-6.23223E-14-5.84580E-14
 -1       245 1.99435E+01-3.89803E-02 7.65790E-04-4.90676E-01-5.19567E-14 3.05459E-14
 -1       246 2.03891E+01-4.66603E-02 1.67837E-06-3.58200E-01 1.00238E-13 2.03088E-14
 -1       247 2.06888E+01-4.35692E-02-6.39587E-04-2.17345E-01 5.40655E-14 1.45651E-14
 -1       248 2.08481E+01-3.45073E-02-1.00000E-03-9.43393E-02 5.53299E-14-5.33115E-14
 -1       249 2.08921E+01-2.36815E-02-1.07069E-03-1.69088E-03 1.79287E-14-2.93969E-14
 -1       250 2.08535E+01-1.37897E-02-9.33740E-04 5.87876E-02-4.49116E-14-1.27017E-13
 -1       251 2.07638E+01-6.06835E-03-6.93519E-04 9.15282E-02 1.31428E-13-9.66194E-14
 -1       252 2.06492E+01-7.46017E-04-4.34965E-04 1.03430E-01-4.61192E-14-5.72773E-14
 -1       253 2.05285E+01 2.48328E-03-2.09795E-04 1.01438E-01-2.77626E-13-1.59109E-14
 -1       254 2.04140E+01 4.12026E-03-3.99909E-05 9.13574E-02 1.64500E-13-8.12549E-14
 -1       255 2.03128E+01 4.66687E-03 7.25074E-05 7.74851E-02 1.90157E-13-2.27504E-13
 -1       256 2.02277E+01 4.53985E-03 1.36226E-04 6.26997E-02 1.53217E-13-2.71726E-13
 -1       257 2.01591E+01 4.04803E-03 1.63345E-04 4.87358E-02-1.32030E-13-3.62805E-13
 -1       258 2.01058E+01 3.40118E-03 1.65757E-04 3.64946E-02-1.30113E-14-3.67109E-13
 -1       259 2.00658E+01 2.73024E-03 1.53287E-04 2.63193E-02-1.39476E-13-9.89728E-14
 -1       260 2.00367E+01 2.10903E-03 1.33229E-04 1.82096E-02 4.56740E-14-5.51202E-15
 -1       261 2.00165E+01 1.57277E-03 1.10542E-04 1.19767E-02 5.69447E-14-2.50496E-13
 -1       262 2.00030E+01 1.13241E-03 8.83141E-05 7.34583E-03-5.07107E-14-2.16210E-13
 -1       263 1.99946E+01 7.84855E-04 6.82538E-05 4.02125E-03 1.73762E-13-2.69687E-13
 -1       264 1.99898E+01 5.19823E-04 5.11302E-05 1.72275E-03 3.79947E-13-3.53436E-13
 -1       265 1.99876E+01 3.24178E-04 3.71144E-05 2.04054E-04-1.11114E-13-5.61789E-13
 -1       266 1.99870E+01 1.84481E-04 2.60293E-05-7.40430E-04-7.30249E-15-5.30027E-13
 -1       267 1.99876E+01 8.83567E-05 1.75193E-05-1.27570E-03 2.91056E-14-5.12955E-13
 -1       268 1.99888E+01 2.50960E-05 1.11600E-05-1.52978E-03 1.60226E-13-5.15579E-13
 -1       269 1.99903E+01-1.42034E-05 6.52297E-06-1.59881E-03 2.80276E-14-6.15337E-13
 -1       270 1.99919E+01-3.67628E-05 3.21193E-06-1.55245E-03 1.52621E-13-5.03785E-13
 -1       271 1.99935E+01-4.83991E-05 8.85673E-07-1.43875E-03-1.50682E-13-3.78517E-13
 -1       272 1.99950E+01-5.38916E-05-7.13836E-07-1.28819E-03 1.88151E-14-4.75410E-13
 -1       273 1.99964E+01-5.74165E-05-1.68256E-06-1.11652E-03 1.76948E-14-5.93725E-13
 -1       274 1.99975E+01-6.29525E-05-1.81567E-06-9.26722E-04-2.15094E-13-3.82519E-13
 -1       275 1.99985E+01-7.38228E-05-6.11660E-07-7.10690E-04 2.42385E-14-3.69322E-13
 -1       276 1.99992E+01-9.57456E-05 3.40795E-07-4.51258E-04 6.12944E-14-4.61407E-13
 -1       277 1.99996E+01-1.04054E-04-3.40702E-06-1.60745E-04-6.78663E-14-3.11684E-13
 -1       278 1.99997E+01-3.64430E-04-2.77599E-06-3.41017E-04-1.00287E-13 2.72956E-13
 -1       279 1.99997E+01-8.63021E-04-1.02682E-06-6.09112E-04-3.09596E-13 4.04002E-13
 -1       280 1.99998E+01-1.51091E-03-7.14113E-07-7.59876E-04-1.12920E-13-1.40198E-13
 -1       281 1.99998E+01-2.21087E-03 4.08561E-07-7.80413E-04-1.97600E-13-5.94802E-14
 -1       282 1.99999E+01-2.86164E-03 1.85875E-06-6.89472E-04-4.18767E-13-5.08585E-13
 -1       283 1.99999E+01-3.40152E-03 3.09014E-06-5.09707E-04-6.15839E-13-3.98888E-13
 -1       284 1.99999E+01-3.75255E-03 3.93595E-06-2.70154E-04-6.05951E-13 3.22121E-13
 -1       285 1.99999E+01-3.87462E-03 4.22696E-06-3.36834E-07-3.66758E-14 8.55627E-13
 -1       286 1.99999E+01-3.75365E-03 3.94702E-06 2.70005E-04-6.18543E-14 7.06584E-14
 -1       287 1.99999E+01-3.40277E-03 3.11074E-06 5.10965E-04 1.32429E-13-1.71533E-13
 -1       288 1.99999E+01-2.87273E-03 1.81781E-06 6.89935E-04 5.40149E-14 4.43138E-14
 -1       289 1.99998E+01-2.20929E-03 4.89010E-07 7.83717E-04 2.85315E-13-1.30525E-13
 -1       290 1.99998E+01-1.50640E-03-5.79910E-07 7.62400E-04 3.87217E-13-1.39966E-13
 -1       291 1.99997E+01-8.63726E-04-1.08429E-06 6.06086E-04 2.19683E-13 2.40320E-13
 -1       292 1.99997E+01-4.49742E-04-7.32749E-07 3.70707E-04 4.71065E-14 4.86831E-13
 -1       293-8.04134E-01-1.13177E+01-9.64381E-01 1.93106E+00 4.85931E-13 8.67070E-13
 -1       294 3.07757E+00-8.36773E+00-7.19305E-01 4.30386E+00 7.68718E-13 7.41664E-13
 -1       295 1.00731E+01-4.67906E+00-4.36790E-01 6.34477E+00 9.63174E-13 5.34961E-13
 -1       296 1.89324E+01-2.91805E-01-6.74549E-02 7.90867E+00 9.53904E-13 8.24618E-13
 -1       297 3.04275E+01 1.74703E+00 2.41077E-01 6.79460E+00 7.18092E-13 3.47666E-13
 -1       298 3.98056E+01 5.53552E+00 7.10527E-01 6.89023E+00 8.53642E-13 2.49217E-13
 -1       299 4.65152E+01 6.72404E+00 9.91378E-01 3.85374E+00 7.51191E-13-1.60955E-13
 -1       300 4.76218E+01 7.15111E+00 9.54914E-01-3.95250E-01 7.68691E-13-6.88363E-13
 -1       301 4.46569E+01 6.56822E+00 8.53673E-01-4.15476E+00 9.60010E-13-1.13023E-12
 -1       302 3.79274E+01 5.08375E+00 6.41949E-01-7.21899E+00 1.14784E-12-1.39994E-12
 -1       303 2.83238E+01 8.45628E-01 1.74387E-01-7.02399E+00 1.01645E-12-1.15935E-12
 -1       304 1.60421E+01-1.47980E+00-1.95938E-01-7.45232E+00 1.31928E-12-1.45287E-12
 -1       305 7.16794E+00-5.95147E+00-6.09180E-01-5.37546E+00 1.13898E-12-1.14452E-12
 -1       306 1.52508E+00-9.27330E+00-7.94743E-01-3.51078E+00 5.97494E-13-9.88987E-13
 -1       307-1.22121E+00-1.04647E+01-8.26891E-01-1.25205E+00 2.55282E-14-9.79050E-13
 -1       308 2.30334E-01-9.19850E+00-6.56791E-01 1.94519E+00-4.24216E-13-1.00657E-12
 -1       309 4.31131E+00-8.66390E+00-8.78878E-01 3.38761E+00-1.08677E-12-1.28685E-12
 -1       310 1.22652E+01-5.06833E+00-5.85866E-01 5.57163E+00-1.40327E-12-1.46541E-12
 -1       311 2.36915E+01-1.69539E+00-1.24231E-01 6.75633E+00-1.34995E-12-1.34634E-12
 -1       312 3.54875E+01 2.24315E+00 4.66275E-01 6.70691E+00-1.32541E-12-1.32666E-12
 -1       313 4.58478E+01 5.07153E+00 1.05988E+00 4.67476E+00-1.11040E-12-1.16585E-12
 -1       314 5.05251E+01 6.99836E+00 1.31097E+00 1.50568E+00-9.04943E-13-6.86465E-13
 -1       315 5.04111E+01 6.94424E+00 1.28680E+00-1.08517E+00-8.51791E-13-1.91056E-13
 -1       316 4.62785E+01 5.08878E+00 1.05534E+00-4.04513E+00-7.45487E-13 3.68428E-13
 -1       317 3.75002E+01 2.57438E+00 5.69262E-01-6.03036E+00-8.94396E-13 7.21256E-13
 -1       318 2.67153E+01-5.24626E-01 2.04916E-02-6.71981E+00-1.09232E-12 8.72524E-13
 -1       319 1.69486E+01-4.56663E+00-3.80103E-01-6.02164E+00-9.65450E-13 7.73881E-13
 -1       320 7.26802E+00-7.41748E+00-7.44722E-01-4.25773E+00-8.60645E-13 1.01170E-12
 -1       321 1.64316E+00-9.91516E+00-8.71280E-01-2.39463E+00-6.16757E-13 9.98646E-13
 -1       322-1.16969E+00-1.07312E+01-8.56515E-01-2.48080E-01-7.85205E-14 1.09762E-12
 -1       323 2.05355E+01 3.45375E+00-1.50382E-02-9.41907E-01-3.93466E-13-3.35802E-13
 -1       324 2.22129E+01 2.38443E+00-1.23995E-02-1.19068E+00-4.29429E-13-7.71553E-14
 -1       325 1.81564E+01 4.46357E+00-9.99825E-03-7.50755E-01-2.59736E-13-5.99096E-13
 -1       326 1.76057E+01 4.58950E+00-7.23270E-03-7.95035E-01-1.83501E-13-6.45662E-13
 -1       327 1.74895E+01 4.52226E+00-6.53253E-03-8.22208E-01-1.05550E-13-6.44966E-13
 -1       328 1.77219E+01 4.32874E+00-7.34025E-03-7.50329E-01-3.15580E-14-6.26816E-13
 -1       329 1.81757E+01 4.08136E+00-9.08384E-03-5.40238E-01 4.54240E-14-5.96380E-13
 -1       330 1.87257E+01 3.83634E+00-1.13378E-02-1.94543E-01 1.14226E-13-5.79648E-13
 -1       331 1.92740E+01 3.62174E+00-1.39180E-02 2.47424E-01 1.97242E-13-5.38158E-13
 -1       332 1.98040E+01 3.41747E+00-1.69850E-02 7.60048E-01 2.93637E-13-4.31909E-13
 -1       333 2.03262E+01 3.17330E+00-2.10734E-02 1.29388E+00 3.82709E-13-3.18862E-13
 -1       334 2.09218E+01 2.77659E+00-2.54235E-02 1.78715E+00 4.49904E-13-1.41596E-13
 -1       335 2.16783E+01 2.00290E+00-3.14762E-02 2.05168E+00 4.65242E-13 2.01911E-13
 -1       336 2.21105E+01 1.11909E+00-2.52057E-02 1.70880E+00 4.21158E-13 5.27584E-13
 -1       337 2.14628E+01 4.00555E-01 6.62435E-03 8.17831E-01 2.96298E-13 4.00552E-13
 -1       338 2.25332E+01 1.00010E+00 1.62630E-02 4.68981E-01-3.04760E-13-3.18430E-15
 -1       339 2.25621E+01 7.50605E-01 9.85576E-03 1.41624E+00-2.31750E-13-4.95372E-15
 -1       340 2.28747E+01 5.50593E-01 4.74254E-03 2.13757E+00-1.14787E-13-1.26756E-14
 -1       341 2.35368E+01 1.19492E-01-1.19342E-03 2.61670E+00-3.30075E-15 4.86076E-14
 -1       342 2.46010E+01-7.36498E-01-5.73764E-03 2.56882E+00 8.88001E-14 9.27643E-14
 -1       343 2.62922E+01-2.08414E+00-8.08230E-03 1.62745E+00 1.42075E-13 1.52894E-13
 -1       344 2.86310E+01-3.23624E+00-2.21233E-02-5.55143E-01 1.12382E-13 2.45114E-13
 -1       345 3.08356E+01-2.08453E+00-1.10360E-01-3.24427E+00-2.03669E-13 3.14127E-13
 -1       346 3.00102E+01 4.32086E+00-2.48995E-01-1.09945E+00-7.66456E-13-2.23581E-13
 -1       347 3.01793E+01 3.19877E+00-2.12163E-01 3.31693E+00-6.48412E-13-5.82891E-13
 -1       348 3.10161E+01-5.49094E-01-1.18898E-01 4.24224E+00-2.53797E-13-8.73298E-13
 -1       349 2.95703E+01-2.93251E+00-4.78702E-02 1.95277E+00 1.03446E-13-9.58813E-13
 -1       350 2.75147E+01-2.35952E+00-1.18878E-02-6.43397E-01 1.72607E-13-9.86880E-13
 -1       351 2.57171E+01-1.09888E+00-6.34156E-03-2.11288E+00 1.65311E-13-7.28846E-13
 -1       352 2.44038E+01-1.82371E-01-5.47784E-03-2.55311E+00 8.33903E-14-6.26933E-13
 -1       353 2.34502E+01 2.56984E-01-1.41465E-03-2.40836E+00 1.18086E-13-4.17265E-13
 -1       354 2.27133E+01 3.90971E-01 2.20908E-03-2.02980E+00-2.44596E-16-3.88663E-13
 -1       355 2.21177E+01 3.79985E-01 3.66063E-03-1.60816E+00 3.81030E-14-3.81222E-13
 -1       356 2.16124E+01 3.13274E-01 3.89171E-03-1.21193E+00-9.42790E-14-4.85241E-13
 -1       357 2.12273E+01 2.43166E-01 3.35020E-03-9.05393E-01-9.63650E-14-6.55181E-13
 -1       358 2.09209E+01 1.82146E-01 2.65737E-03-6.67268E-01-2.99945E-15-6.63312E-13
 -1       359 2.06816E+01 1.33995E-01 2.01891E-03-4.87287E-01-1.58816E-13-4.30308E-13
 -1       360 2.04973E+01 9.76757E-02 1.49432E-03-3.53262E-01-9.30163E-14-2.61542E-13
 -1       361 2.03573E+01 7.08864E-02 1.09073E-03-2.54285E-01 4.41813E-14-3.69229E-13
 -1       362 2.02520E+01 5.13556E-02 7.81483E-04-1.81535E-01 2.56750E-14-3.10753E-13
 -1       363 2.01708E+01 3.64623E-02 5.68486E-04-1.26038E-01 1.38392E-13-4.82638E-13
 -1       364 2.01147E+01 2.62591E-02 4.00770E-04-8.78053E-02 2.54005E-13-3.21748E-13
 -1       365 2.00742E+01 1.87991E-02 2.87361E-04-6.00476E-02 1.59721E-13-2.14902E-13
 -1       366 2.00454E+01 1.33464E-02 2.04421E-04-4.00433E-02-6.69865E-14-1.56735E-13
 -1       367 2.00254E+01 9.36116E-03 1.44037E-04-2.57649E-02-8.55640E-14-3.66367E-13
 -1       368 2.00120E+01 6.45621E-03 9.98351E-05-1.57064E-02-3.88776E-13-2.88877E-13
 -1       369 2.00031E+01 4.35390E-03 6.75007E-05-8.74592E-03-6.95688E-13-4.16114E-13
 -1       370 1.99975E+01 2.77437E-03 4.53339E-05-3.85392E-03-8.60593E-15-3.89533E-13
 -1       371 1.99945E+01 1.72075E-03 2.80585E-05-8.46957E-04 1.98191E-13-3.68119E-13
 -1       372 1.99931E+01 9.87709E-04 1.70622E-05 1.02339E-03 2.43555E-13-7.26350E-13
 -1       373 1.99927E+01 4.89849E-04 9.31859E-06 2.10070E-03 1.09414E-13-9.61224E-13
 -1       374 1.99930E+01 1.62886E-04 4.13288E-06 2.63846E-03 6.64098E-14-7.00221E-13
 -1       375 1.99937E+01-4.23274E-05 7.18137E-07 2.82075E-03 3.08452E-14-6.00480E-13
 -1       376 1.99945E+01-1.63494E-04-1.34081E-06 2.77805E-03-2.22948E-14-5.89852E-13
 -1       377 1.99955E+01-2.32229E-04-2.61383E-06 2.58888E-03-1.18013E-14-4.93994E-13
 -1       378 1.99964E+01-2.66450E-04-3.46665E-06 2.32956E-03-1.16404E-13-1.25675E-13
 -1       379 1.99973E+01-2.89300E-04-3.96395E-06 2.02495E-03-1.06189E-13 1.87108E-13
 -1       380 1.99980E+01-3.17603E-04-4.16262E-06 1.68500E-03 1.05470E-13 1.29779E-13
 -1       381 1.99987E+01-3.64777E-04-4.63773E-06 1.30529E-03 5.63613E-14 1.63483E-13
 -1       382 1.99992E+01-4.24133E-04-4.39642E-06 8.80300E-04-1.82292E-13 4.02671E-13
 -1       383 2.09080E+01 4.04638E-02 4.33728E-03 4.33974E-01 2.17300E-13 2.00071E-13
 -1       384 2.06516E+01-1.01320E-01 8.69171E-04 4.37366E-01 1.66424E-13 1.76316E-13
 -1       385 2.04063E+01-1.59589E-01-7.00237E-04 5.65899E-01 1.35124E-13 1.49166E-13
 -1       386 2.01284E+01-1.44996E-01-6.62989E-04 7.31572E-01 9.34340E-14 1.40290E-13
 -1       387 1.98011E+01-5.46589E-02 3.37705E-04 8.44929E-01 7.38038E-14 8.78584E-14
 -1       388 1.94491E+01 9.59845E-02 1.78860E-03 8.21990E-01 7.73681E-14 1.10193E-13
 -1       389 1.91361E+01 2.63011E-01 3.10346E-03 6.12481E-01 1.07267E-13 1.25932E-13
 -1       390 1.89444E+01 3.83580E-01 3.92766E-03 2.30652E-01 1.05009E-13 5.29567E-14
 -1       391 1.89378E+01 4.05718E-01 4.04499E-03-2.37261E-01 9.46240E-14 1.58508E-14
 -1       392 1.91268E+01 3.18779E-01 3.40718E-03-6.65068E-01 4.23884E-14-2.02461E-14
 -1       393 1.94610E+01 1.59925E-01 2.13720E-03-9.43347E-01 1.39406E-14-5.65815E-14
 -1       394 1.98544E+01-9.91265E-03 4.75796E-04-1.02459E+00-4.45339E-14-1.43509E-14
 -1       395 2.02234E+01-1.39482E-01-1.03675E-03-9.29861E-01-5.92145E-14-1.18748E-13
 -1       396 2.05121E+01-2.06352E-01-2.06845E-03-7.22764E-01 2.61459E-14-1.63331E-13
 -1       397 2.06991E+01-2.15372E-01-2.50207E-03-4.74798E-01 7.48379E-14-1.12485E-13
 -1       398 2.07888E+01-1.85755E-01-2.41536E-03-2.41431E-01-4.29855E-14 1.25444E-14
 -1       399 2.07999E+01-1.38513E-01-1.99247E-03-5.40704E-02 6.13967E-14 9.80425E-14
 -1       400 2.07553E+01-8.94973E-02-1.43257E-03 7.70463E-02 4.44676E-14 1.50680E-13
 -1       401 2.06766E+01-4.76994E-02-8.83304E-04 1.55570E-01 1.41522E-13 8.55577E-14
 -1       402 2.05811E+01-1.65078E-02-4.27022E-04 1.91926E-01-2.37802E-14 1.89542E-13
 -1       403 2.04818E+01 4.18586E-03-9.29028E-05 1.98259E-01-2.13603E-13 3.13089E-13
 -1       404 2.03871E+01 1.61730E-02 1.23514E-04 1.85596E-01-3.56634E-14 2.66765E-14
 -1       405 2.03020E+01 2.17337E-02 2.43459E-04 1.62652E-01 1.86724E-13 1.60540E-13
 -1       406 2.02290E+01 2.29946E-02 2.92850E-04 1.35649E-01 2.60919E-13 1.13020E-13
 -1       407 2.01685E+01 2.16647E-02 2.95687E-04 1.08620E-01 1.13397E-13 9.25967E-14
 -1       408 2.01200E+01 1.89888E-02 2.71202E-04 8.39049E-02-1.55208E-13-3.55456E-14
 -1       409 2.00823E+01 1.58021E-02 2.33335E-04 6.26329E-02-2.08815E-13-1.94379E-15
 -1       410 2.00537E+01 1.26199E-02 1.91339E-04 4.51397E-02-7.34105E-14-3.01662E-14
 -1       411 2.00327E+01 9.72699E-03 1.50824E-04 3.12817E-02 1.91586E-13-1.45850E-15
 -1       412 2.00177E+01 7.25311E-03 1.14777E-04 2.06613E-02 4.95901E-14 2.72017E-14
 -1       413 2.00074E+01 5.23118E-03 8.44365E-05 1.27745E-02 2.09585E-13-1.19452E-13
 -1       414 2.00006E+01 3.63828E-03 5.99659E-05 7.10371E-03 2.80286E-13-1.01675E-13
 -1       415 1.99964E+01 2.42345E-03 4.09222E-05 3.16912E-03 1.60318E-13 1.40633E-13
 -1       416 1.99942E+01 1.52519E-03 2.65748E-05 5.53537E-04 4.60287E-14-6.88275E-14
 -1       417 1.99932E+01 8.81777E-04 1.61022E-05-1.08937E-03 8.09221E-14-1.46553E-13
 -1       418 1.99930E+01 4.36739E-04 8.70494E-06-2.03676E-03 9.74673E-14-4.24203E-13
 -1       419 1.99935E+01 1.41252E-04 3.66328E-06-2.50332E-03 8.49427E-14-3.54263E-13
 -1       420 1.99942E+01-4.54175E-05 3.58431E-07-2.65009E-03-1.48699E-13-1.09762E-13
 -1       421 1.99950E+01-1.56556E-04-1.72875E-06-2.59333E-03-1.12678E-13 7.97358E-15
 -1       422 1.99959E+01-2.19248E-04-3.02466E-06-2.41271E-03 6.68599E-14-1.36946E-13
 -1       423 1.99968E+01-2.55875E-04-3.87897E-06-2.15808E-03 4.06614E-14-1.53039E-13
 -1       424 1.99976E+01-2.85494E-04-4.50380E-06-1.85495E-03-1.80405E-13 1.65892E-13
 -1       425 1.99983E+01-3.23632E-04-5.18207E-06-1.51041E-03-1.69761E-13-7.66981E-14
 -1       426 1.99989E+01-3.76461E-04-5.91964E-06-1.12425E-03-8.78653E-14 1.47938E-13
 -1       427 1.99993E+01-3.97383E-04-4.46762E-06-7.36308E-04-5.98508E-14 2.11579E-13
 -1       428 1.99998E+01-1.66029E-03-6.31497E-07-1.33084E-03-2.17042E-13-3.68475E-13
 -1       429 1.99996E+01-1.10799E-03-2.64059E-06-1.23370E-03-9.19456E-14 2.67455E-13
 -1       430 1.99999E+01-2.17504E-03 1.25609E-06-1.25429E-03-5.13637E-13-5.49221E-13
 -1       431 2.00001E+01-2.62433E-03 2.62439E-06-1.01754E-03-2.35865E-13-4.58374E-13
 -1       432 2.00002E+01-2.95245E-03 3.66175E-06-6.60613E-04-6.74520E-14 1.63892E-13
 -1       433 2.00002E+01-3.12620E-03 4.18760E-06-2.29568E-04-1.83497E-13 7.49914E-13
 -1       434 2.00002E+01-3.12795E-03 4.20173E-06 2.27077E-04-3.42345E-13 7.37073E-13
 -1       435 2.00002E+01-2.95704E-03 3.68965E-06 6.60053E-04-1.13102E-13-1.35476E-13
 -1       436 2.00001E+01-2.63698E-03 2.64157E-06 1.01479E-03-4.82241E-14-5.09550E-14
 -1       437 2.00000E+01-2.18866E-03 1.24409E-06 1.25607E-03 9.57295E-14 4.82798E-13
 -1       438 1.99998E+01-1.66321E-03-4.44940E-07 1.33549E-03 2.94168E-13-2.65561E-14
 -1       439 1.99996E+01-1.11351E-03-2.16060E-06 1.21973E-03 1.64136E-13-1.84569E-13
 -1       440 2.11247E+01 1.95436E-01 8.56318E-03 5.41946E-01 2.75099E-13 2.87395E-13
 -1       441 1.12660E+01-5.26624E+00 1.43341E-02 7.82220E+00-3.12389E-14 1.80377E-13
 -1       442 2.65330E+01-3.29469E+00-1.82540E-02 5.25488E+00 2.04156E-13-1.27981E-13
 -1       443 1.30759E+00-4.05029E+00 1.93902E-03 1.51386E+00 1.52621E-14 1.03101E-12
 -1       444 1.97642E+01-5.00407E+00 1.45716E-03 7.34456E+00 1.27509E-13 1.11008E-13
 -1       445 1.91503E+01 4.10025E+00-1.43057E-02-7.95612E-01-3.40235E-13-5.04324E-13
 -1       446 3.28175E+01 1.66089E+00-3.25217E-02 1.22565E+00 5.62904E-13-4.04593E-13
 -1       447 3.52646E+01 5.49977E+00-7.21034E-03 2.74438E-01 8.09561E-13-3.87176E-13
 -1       448 3.68524E+01 8.35878E+00 4.18348E-02-2.00134E-03 8.33417E-13-3.49207E-13
 -1       449 3.65445E+01 8.02152E+00 2.83918E-02 1.23950E-01 9.00668E-13-2.72178E-13
 -1       450 3.47449E+01 4.60893E+00-1.99626E-02-2.38560E-01 8.10269E-13-1.62870E-13
 -1       451 3.19125E+01 3.37735E-01-4.10585E-02-1.80351E+00 5.09488E-13-2.09208E-13
 -1       452 2.48200E+01-3.99244E+00 2.07800E-03-5.89845E+00 2.29053E-13-4.91551E-13
 -1       453 1.62962E+01-5.23318E+00-4.65644E-02-7.67948E+00 2.47247E-13-7.48682E-13
 -1       454 9.02993E+00-4.94336E+00 1.02222E-02-7.37980E+00 2.39808E-14-8.82766E-13
 -1       455 2.61842E+00-4.42393E+00-3.24346E-02-4.15506E+00-7.56339E-15-1.11047E-12
 -1       456 2.07695E+00-3.11651E+00 9.46425E-02 5.21155E-01-8.21045E-15-1.07367E-12
 -1       457 6.23375E+00-5.47623E+00-8.14737E-02 5.27911E+00-1.31686E-13-9.82298E-13
 -1       458 1.33069E+01-6.45494E+00-1.24033E-01 6.58613E+00-1.67144E-13-8.49720E-13
 -1       459 2.28442E+01-6.11980E+00-8.32938E-02 5.65354E+00-2.93959E-13-4.70290E-13
 -1       460 3.20257E+01-3.64548E+00 6.15901E-03 2.05830E+00-5.21638E-13-1.57985E-13
 -1       461 3.69761E+01 8.82196E-01 8.07991E-02-6.84772E-01-7.91325E-13-1.92624E-13
 -1       462 3.89250E+01 5.62863E+00 1.48413E-01-1.43546E+00-9.63507E-13-2.75321E-13
 -1       463 3.82161E+01 7.47251E+00 1.00062E-01 1.68721E-01-9.69419E-13-3.90358E-13
 -1       464 3.90819E+01 5.51519E+00 1.33139E-01 1.60005E+00-8.85098E-13-4.44672E-13
 -1       465 3.72912E+01 1.68558E+00 1.24448E-01 1.06078E+00-6.29136E-13-2.09333E-13
 -1       466 3.29676E+01-2.88955E+00-3.06038E-02-1.42334E+00-4.53068E-13-1.33338E-13
 -1       467 2.64008E+01-5.53893E+00-5.30498E-02-4.25385E+00-3.35190E-13-8.06716E-14
 -1       468 1.74237E+01-6.60536E+00-2.93661E-02-6.33876E+00 1.27967E-13 2.61086E-13
 -1       469 1.02956E+01-5.66298E+00 2.11241E-02-6.26645E+00 6.12010E-14 4.73593E-13
 -1       470 3.12215E+00-4.95940E+00-3.54012E-02-3.28583E+00 3.55271E-14 1.14166E-12
 -1       471 3.65328E+00-4.70468E+00-2.12499E-02 5.12612E+00-2.48551E-14 8.13238E-13
 -1       472 2.98279E+01-1.93439E+00-4.21235E-02 1.58962E+00 9.66883E-14-4.93397E-13
 -1       473 3.05316E+01 2.33712E+00-1.32759E-01-3.66575E+00-5.75387E-13 7.53321E-14
 -1       474 1.99994E+01-7.53319E-04-4.15833E-06 1.09515E-03-1.04909E-13-1.86655E-13
 -1       475 5.87596E+00-2.02161E+00 1.60173E-01 3.51848E+00 1.08878E-13-1.02093E-12
 -1       476 2.88625E+01-3.19847E+00-3.63164E-02-2.41291E+00 9.90024E-14-7.08739E-14
 -1       477 1.73976E+01 4.08248E+00-2.51552E-03-8.94729E-01-1.51197E-13-5.84831E-13
 -1       478 1.76809E+01 4.06270E+00-2.68011E-03-6.31418E-01-2.11569E-13-5.72643E-13
 -1       479 1.81076E+01 3.51863E+00-3.23148E-03-9.37602E-01-2.97276E-14-5.51219E-13
 -1       480 1.87635E+01 3.14512E+00-4.08535E-03-6.51838E-01 4.47899E-14-5.25735E-13
 -1       481 1.94104E+01 2.81187E+00-5.13059E-03-2.25172E-01 1.34617E-13-5.02400E-13
 -1       482 1.99980E+01 2.51671E+00-6.20334E-03 2.79386E-01 2.19690E-13-4.12836E-13
 -1       483 2.05066E+01 2.22408E+00-7.31763E-03 7.74075E-01 2.93384E-13-3.05509E-13
 -1       484 2.09723E+01 1.85746E+00-6.95371E-03 1.17221E+00 3.77622E-13-1.93064E-13
 -1       485 2.13871E+01 1.32362E+00-5.11712E-03 1.33550E+00 4.10816E-13 1.91774E-15
 -1       486 2.15263E+01 8.32124E-01 1.86833E-03 1.14477E+00 3.66300E-13 1.60999E-13
 -1       487 3.12841E+01-4.11752E+00-9.79821E-02 1.38136E+00-3.96402E-14-7.62709E-13
 -1       488 2.10643E+01 1.71663E+00 4.29955E-03 9.13235E-01-2.54667E-13-2.23628E-13
 -1       489 1.91251E+01-5.02989E+00 1.13822E-01 7.15516E+00-3.49262E-13-2.43645E-13
 -1       490 2.08732E+01 1.37174E+00 3.63684E-03 1.86186E+00-1.70378E-13-2.02536E-13
 -1       491 2.07780E+01 9.01457E-01 3.62828E-03 2.73311E+00-2.49878E-14-1.64462E-13
 -1       492 2.10178E+01-1.62513E-02 7.63512E-03 3.41970E+00 7.83776E-14-1.27014E-13
 -1       493 2.20684E+01-1.75398E+00 2.92927E-02 3.77491E+00 1.75381E-13-6.36930E-14
 -1       494 2.46079E+01-4.25497E+00 2.86625E-02 3.30669E+00 2.45012E-13 8.85627E-14
 -1       495 2.98540E+01-5.14262E+00-2.24293E-02 5.29312E-01 3.72306E-14 2.19234E-13
 -1       496 2.66718E+01-4.79073E+00 3.13132E-03-1.90124E+00 1.49443E-13-7.44843E-13
 -1       497 2.36108E+01-2.57261E+00 3.72643E-02-3.22065E+00 3.35801E-13-4.84525E-13
 -1       498 2.19898E+01-6.97259E-01 7.00620E-03-3.41012E+00 2.40436E-13-3.19746E-13
 -1       499 2.13110E+01 3.21817E-01 1.35900E-03-3.08253E+00 2.00558E-13-3.17681E-13
 -1       500 2.10384E+01 7.09272E-01 1.80291E-03-2.59929E+00 6.55152E-14-3.15880E-13
 -1       501 2.09011E+01 7.62143E-01 2.06457E-03-2.09723E+00 3.98690E-14-2.95710E-13
 -1       502 2.07876E+01 6.67074E-01 2.24476E-03-1.62363E+00-3.41310E-14-3.18513E-13
 -1       503 2.06785E+01 5.37918E-01 1.98689E-03-1.24663E+00-1.57074E-13-3.50658E-13
 -1       504 2.05667E+01 4.14937E-01 1.58109E-03-9.43549E-01-1.57492E-13-4.73003E-13
 -1       505 2.04597E+01 3.12343E-01 1.20355E-03-7.06527E-01 1.55723E-13-5.35795E-13
 -1       506 2.03633E+01 2.31991E-01 8.90733E-04-5.24381E-01 7.07723E-14-3.24834E-13
 -1       507 2.02803E+01 1.71053E-01 6.50242E-04-3.86010E-01-1.14421E-13-1.58209E-13
 -1       508 2.02114E+01 1.25602E-01 4.60160E-04-2.81661E-01-5.89673E-14-2.49466E-13
 -1       509 2.01536E+01 9.04665E-02 3.37414E-04-2.00231E-01-3.14354E-14-1.81725E-13
 -1       510 2.01107E+01 6.59676E-02 2.36329E-04-1.42908E-01 2.23826E-13-3.56980E-13
 -1       511 2.00777E+01 4.78567E-02 1.68641E-04-1.00450E-01 2.06493E-13-2.93740E-13
 -1       512 2.00529E+01 3.44726E-02 1.20002E-04-6.92375E-02-3.17161E-15-4.17244E-13
 -1       513 2.00347E+01 2.45857E-02 8.47119E-05-4.65014E-02-9.40196E-14-3.33869E-13
 -1       514 2.00215E+01 1.72989E-02 5.89030E-05-3.01278E-02-1.60639E-13-4.73999E-13
 -1       515 2.00122E+01 1.19547E-02 3.94826E-05-1.85029E-02-6.15230E-13-4.71911E-13
 -1       516 2.00056E+01 7.89470E-03 2.71699E-05-1.00813E-02-2.61306E-13-2.26846E-13
 -1       517 2.00015E+01 5.13601E-03 1.66733E-05-4.69130E-03 1.30481E-13-2.98118E-13
 -1       518 1.99990E+01 3.17727E-03 1.02505E-05-1.15072E-03 1.62989E-14-2.12481E-13
 -1       519 1.99975E+01 1.81389E-03 5.72082E-06 1.06753E-03 2.80229E-13-3.05042E-13
 -1       520 1.99969E+01 8.88477E-04 2.66614E-06 2.35829E-03 2.71158E-14-3.06776E-13
 -1       521 1.99967E+01 2.80923E-04 6.35340E-07 3.01475E-03 1.13195E-13-2.05869E-13
 -1       522 1.99968E+01-1.01215E-04-5.88626E-07 3.25023E-03-1.23888E-13-1.81352E-13
 -1       523 1.99971E+01-3.37550E-04-1.29433E-06 3.20933E-03 3.17497E-14-1.62837E-13
 -1       524 1.99975E+01-4.63478E-04-1.81673E-06 3.00210E-03-6.91084E-14-3.27321E-13
 -1       525 1.99980E+01-5.37505E-04-2.03188E-06 2.69722E-03 1.04174E-13-1.98526E-13
 -1       526 1.99984E+01-5.95301E-04-2.45876E-06 2.33094E-03 1.40947E-13-1.22747E-13
 -1       527 1.99988E+01-6.65480E-04-3.26173E-06 1.91700E-03-7.12849E-14 1.45498E-13
 -1       528 1.99991E+01-7.07183E-04-3.56791E-06 1.52398E-03 7.26543E-14-1.70666E-13
 -1       529 2.09857E+01-3.27012E-01-4.52529E-04 8.26606E-01 1.38871E-13 4.08558E-14
 -1       530 2.10885E+01-2.57399E-01-2.00757E-04 6.39681E-01 1.47978E-13 7.78298E-14
 -1       531 2.11729E+01-3.64036E-02-3.64407E-04 5.75817E-01 1.74667E-13 1.13732E-14
 -1       532 2.08254E+01-2.30929E-01 2.71986E-05 1.02876E+00 8.50617E-14 1.99250E-14
 -1       533 2.05890E+01 2.67275E-02 7.26313E-04 1.12287E+00 8.31659E-14 2.66487E-14
 -1       534 2.03053E+01 3.85814E-01 1.33734E-03 9.97687E-01 7.82713E-14 2.86793E-14
 -1       535 2.00545E+01 7.21899E-01 1.46194E-03 6.06662E-01 1.41399E-13 6.48817E-14
 -1       536 1.99358E+01 8.90926E-01 1.46787E-03 1.48252E-02 1.68921E-13 4.29402E-14
 -1       537 2.00038E+01 8.12633E-01 1.55136E-03-6.12778E-01 8.74894E-14 3.30210E-15
 -1       538 2.02304E+01 5.20792E-01 1.49707E-03-1.08892E+00 5.47153E-14 2.75886E-14
 -1       539 2.05204E+01 1.40740E-01 8.05573E-04-1.30020E+00 6.79844E-15-4.79275E-14
 -1       540 2.07738E+01-1.92561E-01 3.32018E-05-1.24527E+00 3.93380E-14-1.80829E-13
 -1       541 2.09305E+01-3.99295E-01-6.36119E-04-1.00437E+00 2.86034E-15-1.94789E-13
 -1       542 2.09806E+01-4.68648E-01-1.06014E-03-6.82369E-01 1.70667E-14-2.25668E-13
 -1       543 2.09461E+01-4.34694E-01-1.18293E-03-3.64650E-01-4.37361E-14-1.40955E-13
 -1       544 2.08587E+01-3.44470E-01-1.05558E-03-1.01629E-01-9.39226E-14-6.04369E-14
 -1       545 2.07466E+01-2.37797E-01-8.05865E-04 8.78603E-02-2.96524E-14 2.77254E-14
 -1       546 2.06291E+01-1.39900E-01-5.33278E-04 2.05923E-01 7.57923E-14 1.24379E-13
 -1       547 2.05174E+01-6.24959E-02-2.93858E-04 2.65130E-01-5.48352E-14 2.71662E-13
 -1       548 2.04173E+01-8.06889E-03-1.10458E-04 2.81214E-01-1.22939E-13 2.60071E-13
 -1       549 2.03306E+01 2.59029E-02 1.40072E-05 2.68967E-01-5.39802E-14 4.39648E-14
 -1       550 2.02575E+01 4.39207E-02 8.81133E-05 2.40432E-01 3.21896E-14 8.00237E-14
 -1       551 2.01972E+01 5.06808E-02 1.24027E-04 2.04476E-01 2.21130E-13 9.42678E-14
 -1       552 2.01482E+01 5.02184E-02 1.33786E-04 1.67077E-01 1.64883E-13 1.39199E-13
 -1       553 2.01092E+01 4.56290E-02 1.27431E-04 1.31890E-01 1.01252E-13 1.66458E-13
 -1       554 2.00786E+01 3.90949E-02 1.12467E-04 1.00860E-01-1.77886E-13 3.71928E-14
 -1       555 2.00551E+01 3.20387E-02 9.40026E-05 7.47596E-02-1.06042E-13-1.79976E-14
 -1       556 2.00372E+01 2.53087E-02 7.52680E-05 5.36190E-02-3.74607E-14-9.36416E-14
 -1       557 2.00240E+01 1.93486E-02 5.80834E-05 3.70413E-02 8.77811E-14 1.82824E-14
 -1       558 2.00145E+01 1.43358E-02 4.33095E-05 2.44224E-02 2.97147E-13-2.69394E-14
 -1       559 2.00078E+01 1.02846E-02 3.11970E-05 1.50924E-02 2.57217E-13-1.40256E-13
 -1       560 2.00032E+01 7.11864E-03 2.16399E-05 8.40086E-03 1.28581E-13-2.38798E-13
 -1       561 2.00002E+01 4.71869E-03 1.43486E-05 3.76254E-03 3.42544E-14 4.75654E-14
 -1       562 1.99984E+01 2.95256E-03 8.96119E-06 6.77702E-04 3.39517E-14 7.85358E-14
 -1       563 1.99974E+01 1.69236E-03 5.10798E-06-1.26399E-03 2.87012E-13 5.23514E-14
 -1       564 1.99970E+01 8.23285E-04 2.44740E-06-2.38852E-03-1.10475E-13 1.81933E-13
 -1       565 1.99969E+01 2.47026E-04 6.80743E-07-2.94706E-03-2.57797E-13 2.04215E-13
 -1       566 1.99971E+01-1.18062E-04-4.42666E-07-3.12708E-03-1.50720E-13 1.86178E-13
 -1       567 1.99974E+01-3.38679E-04-1.13393E-06-3.06328E-03-7.34087E-14 1.89770E-14
 -1       568 1.99978E+01-4.69099E-04-1.56107E-06-2.84737E-03 1.33219E-13-1.14490E-13
 -1       569 1.99983E+01-5.53703E-04-1.90913E-06-2.53694E-03-3.01287E-13-1.66585E-13
 -1       570 1.99987E+01-6.28737E-04-2.35374E-06-2.16283E-03-1.03224E-13-2.62327E-14
 -1       571 1.99990E+01-7.19234E-04-2.19786E-06-1.73735E-03-1.04804E-13 2.12740E-13
 -1       572 2.00003E+01-2.08713E-03 8.77443E-07-1.50696E-03-1.22622E-13-2.32085E-13
 -1       573 2.00000E+01-1.69585E-03 3.79189E-07-1.73201E-03-5.52548E-13-6.59634E-13
 -1       574 1.99996E+01-1.23613E-03-1.07063E-06-1.74777E-03-1.61922E-13-3.40619E-13
 -1       575 9.87584E+00-2.88157E+00 1.45026E-01 6.80571E+00-3.20431E-13 2.45130E-13
 -1       576 2.00005E+01-2.39745E-03 1.46122E-06-1.10723E-03 2.20307E-13-3.98891E-15
 -1       577 2.00006E+01-2.59481E-03 1.80134E-06-5.86490E-04-4.44461E-14 3.45682E-13
 -1       578 2.00007E+01-2.66479E-03 1.92858E-06-3.72934E-06-1.22886E-13 6.91591E-13
 -1       579 2.00007E+01-2.60160E-03 1.84549E-06 5.80831E-04-2.00409E-13 5.57690E-13
 -1       580 2.00005E+01-2.41351E-03 1.51065E-06 1.09796E-03 1.83374E-13-3.75428E-13
 -1       581 2.00003E+01-2.10724E-03 8.74745E-07 1.50631E-03 3.48347E-13 9.00505E-14
 -1       582 2.00000E+01-1.70796E-03 1.39721E-07 1.74020E-03 1.17623E-13 1.20965E-13
 -1       583 1.99996E+01-1.24303E-03-1.03254E-06 1.76350E-03-1.79283E-13-2.16009E-13
 -1       584 2.08946E+01 2.37680E+00-4.65948E-03-6.70241E-02-3.51223E-13-2.94808E-13
 -1       585 5.13350E+00-1.09049E+00 1.91757E-01-1.38402E+00 2.52329E-13 1.09669E-12
 -1       586 2.49365E+01-6.13672E+00 5.83348E-02-3.99822E+00 1.87503E-13-3.63796E-13
 -1       587 3.09608E+01 5.93006E+00-1.61381E-01 1.51813E+00 7.40380E-13-1.67852E-14
 -1       588 2.37690E+01-5.27657E+00 2.04634E-02 5.36884E+00-2.98650E-13-4.24548E-13
 -1       589 1.75928E+01 3.86532E+00-2.59422E-03-1.01892E+00-8.24175E-14-5.95091E-13
 -1       590 3.10943E+01 8.07338E+00-1.74690E-01 1.69683E-01 7.91284E-13-2.25890E-13
 -1       591 3.06169E+01 2.77469E+00-1.57218E-01-1.44114E+00 4.70624E-13-6.00277E-13
 -1       592 2.18706E+01-5.22341E+00 4.10787E-02-6.40197E+00-1.94282E-13-3.20607E-13
 -1       593 3.09681E+01 6.57082E+00-1.73566E-01-1.31379E+00 7.32289E-13-5.06983E-13
 -1       594 3.05538E+01 1.52189E+00-1.44931E-01 1.16345E+00 4.38552E-13 7.98250E-14
 -1       595 1.57262E+01-4.36681E+00 1.25181E-01-7.64292E+00-2.78104E-13-5.19279E-13
 -1       596 8.43028E+00-2.06461E+00 1.61118E-01-6.04212E+00-2.38178E-13-9.19778E-13
 -1       597 5.49666E+00-5.46556E-01 2.04652E-01-2.35286E+00-7.91329E-14-1.03736E-12
 -1       598 1.35943E+01-4.24885E+00 1.39590E-01 6.45509E+00 2.35034E-13-5.98480E-13
 -1       599 2.05885E+01-5.93858E+00 4.72359E-02 5.90521E+00 2.32148E-13-2.73512E-13
 -1       600 2.87490E+01-5.54767E+00-3.67398E-02-1.50037E+00 3.12250E-14-5.35579E-13
 -1       601 1.67332E+01-4.49006E+00 1.08860E-01-6.09756E+00 4.90503E-13 1.76845E-13
 -1       602 8.88298E+00-2.54827E+00 1.71177E-01-4.86505E+00 4.64545E-13 5.49158E-13
 -1       603 5.19657E+00-1.59168E+00 1.78945E-01 3.66547E+00-7.46625E-14 7.55604E-13
 -1       604 1.85005E+01 3.72550E+00-5.58808E-03-3.62575E-01-2.83071E-13-5.19482E-13
 -1       605 2.12896E+01 4.29913E-01 4.10607E-03 7.61616E-01 2.79681E-13 5.68813E-14
 -1       606 2.94235E+01-3.69970E-01-7.93706E-02-9.03794E-01 1.57065E-13-6.67869E-13
 -1       607 3.52527E+01 2.21853E+00-8.46009E-02 3.10032E+00-6.57016E-13-6.30482E-13
 -1       608 3.38948E+01 2.70213E-01-1.34344E-01-3.13795E+00-5.67220E-13 4.86000E-14
 -1       609 2.11898E+01 1.86489E-01 2.20802E-03 6.16867E-01 2.46909E-13 3.27088E-14
 -1       610 2.68654E+01-4.50911E+00-3.39331E-02 2.44778E+00-2.80331E-13-5.24466E-13
 -1       611 6.85594E+00 2.59353E-01 1.93160E-01 4.46739E-01 1.31752E-15-9.75456E-13
 -1       612 2.90466E+01-1.48012E+00-7.51230E-02 2.65996E-01 1.29535E-13 9.81958E-14
 -1       613 2.59472E+01-4.75010E+00 1.16006E-02-3.73381E+00-2.12524E-13-1.26364E-13
 -1       614 1.95040E+01 2.06381E+00-1.34684E-03-7.81909E-01 4.12284E-14-4.34272E-13
 -1       615 1.86858E+01 2.51123E+00-1.00476E-03-1.20044E+00-2.80262E-14-4.78428E-13
 -1       616 2.06927E+01 1.42598E+00-1.89215E-03 2.79811E-01 2.03132E-13-2.99693E-13
 -1       617 2.10575E+01 1.14431E+00-2.37950E-03 6.96840E-01 2.72813E-13-1.87215E-13
 -1       618 2.13321E+01 7.12484E-01 2.61164E-03 9.14198E-01 3.18753E-13-3.79099E-14
 -1       619 2.71050E+01 6.38625E+00-1.51645E-01-8.24216E-01 5.58456E-13-2.31047E-13
 -1       620 1.86616E+01 1.92461E+00 3.17070E-03 1.97596E+00-5.41401E-14-3.41463E-13
 -1       621 1.79400E+01 1.29990E+00 1.07711E-02 2.90781E+00 4.46711E-14-3.17378E-13
 -1       622 1.73770E+01 1.90125E-02 4.16288E-02 4.04200E+00 1.65370E-13-3.00379E-13
 -1       623 9.44721E+00-7.06934E-01 1.40471E-01 4.74366E+00-2.70360E-13 3.09919E-13
 -1       624 2.26848E+01-4.47594E+00 7.37748E-02-4.34236E+00 3.59945E-13-2.39189E-13
 -1       625 1.89527E+01-1.26482E+00 5.94765E-02-4.35037E+00 3.34722E-13 2.05409E-14
 -1       626 1.87510E+01 3.39049E-01 1.17609E-02-3.49904E+00 1.89401E-13-3.71985E-14
 -1       627 1.90108E+01 9.91962E-01 4.06214E-03-2.82372E+00 8.33647E-14-2.86446E-15
 -1       628 1.93849E+01 1.14233E+00 1.36333E-03-2.26171E+00 1.79299E-13-1.32105E-14
 -1       629 1.97100E+01 1.04679E+00 9.63292E-04-1.78106E+00-5.29230E-14-5.86501E-14
 -1       630 1.99206E+01 8.73009E-01 9.06604E-04-1.40341E+00-6.01251E-14-2.44360E-14
 -1       631 2.00451E+01 6.92187E-01 7.32199E-04-1.09283E+00-2.32813E-13-4.15323E-14
 -1       632 2.01074E+01 5.33105E-01 5.67755E-04-8.41636E-01-8.67522E-14-1.54119E-13
 -1       633 2.01295E+01 4.03688E-01 4.22965E-04-6.41490E-01 3.68756E-14-3.90403E-13
 -1       634 2.01281E+01 3.02637E-01 3.12003E-04-4.84099E-01 1.52373E-13-3.60296E-13
 -1       635 2.01147E+01 2.25466E-01 2.16223E-04-3.61585E-01-1.26597E-13-2.42969E-13
 -1       636 2.00956E+01 1.64687E-01 1.59429E-04-2.63198E-01 1.03365E-14-3.76321E-14
 -1       637 2.00768E+01 1.21622E-01 1.12587E-04-1.92162E-01-2.88070E-15-1.79510E-13
 -1       638 2.00595E+01 8.93435E-02 7.95286E-05-1.38294E-01 2.89248E-13-2.35101E-13
 -1       639 2.00448E+01 6.51988E-02 5.65928E-05-9.78457E-02 8.32000E-14-3.32032E-13
 -1       640 2.00327E+01 4.71616E-02 4.01149E-05-6.77709E-02-5.23954E-15-2.69135E-13
 -1       641 2.00231E+01 3.37202E-02 2.80890E-05-4.56627E-02-1.89230E-13-2.14389E-13
 -1       642 2.00158E+01 2.37467E-02 1.81734E-05-2.96203E-02-3.91307E-13-2.59316E-13
 -1       643 2.00101E+01 1.60794E-02 1.33966E-05-1.77121E-02-2.77280E-13 4.32152E-14
 -1       644 2.00062E+01 1.07976E-02 8.04732E-06-9.87058E-03 9.48091E-14 3.39792E-13
 -1       645 2.00034E+01 6.98624E-03 5.00337E-06-4.52953E-03 1.12939E-13 3.70819E-13
 -1       646 2.00016E+01 4.28250E-03 2.85281E-06-1.01780E-03 1.36146E-13 4.35223E-13
 -1       647 2.00003E+01 2.40381E-03 1.41571E-06 1.18164E-03 1.48965E-13 1.33832E-13
 -1       648 1.99996E+01 1.13266E-03 4.26639E-07 2.45911E-03 1.35685E-13 5.46877E-14
 -1       649 1.99992E+01 3.00896E-04-1.99885E-07 3.10493E-03-1.65161E-14 2.42785E-14
 -1       650 1.99990E+01-2.40663E-04-4.26940E-07 3.33249E-03-2.43639E-13-2.08786E-14
 -1       651 1.99989E+01-5.44853E-04-7.74221E-07 3.27492E-03-1.03665E-13-2.26908E-13
 -1       652 1.99990E+01-7.23744E-04-8.48331E-07 3.05286E-03 4.75783E-14-1.23712E-13
 -1       653 1.99991E+01-8.37298E-04-7.66132E-07 2.72819E-03 1.54845E-13-2.43364E-13
 -1       654 1.99992E+01-9.38580E-04-6.15640E-07 2.34005E-03 1.65003E-13-4.29525E-13
 -1       655 2.16195E+01-4.94985E-01-3.26760E-04 7.25489E-01 1.36141E-13-1.02229E-13
 -1       656 2.16856E+01-5.13575E-01 8.55740E-05 9.99066E-01 9.43382E-14-3.14899E-14
 -1       657 2.14970E+01-2.31927E-01-4.05972E-04 5.69282E-01 1.24906E-13-1.10058E-13
 -1       658 2.14367E+01 2.90982E-01 6.51500E-04 1.32867E+00 4.24469E-14-2.84562E-14
 -1       659 2.11502E+01 9.34236E-01 4.08814E-04 1.06740E+00 8.14387E-14-1.36839E-14
 -1       660 2.09098E+01 1.42242E+00-6.63347E-04 4.47509E-01 1.63968E-13-8.25978E-15
 -1       661 2.08571E+01 1.51187E+00-5.27700E-04-3.62432E-01 1.82420E-13 7.41792E-15
 -1       662 2.10209E+01 1.14641E+00 6.00532E-04-1.07928E+00 7.56715E-14-1.29846E-13
 -1       663 2.12858E+01 5.10861E-01 9.39183E-05-1.46891E+00 9.61220E-14-1.39839E-13
 -1       664 2.15001E+01-1.27572E-01 1.71323E-04-1.47705E+00 1.18675E-13-1.99561E-13
 -1       665 2.15669E+01-5.73993E-01 9.55140E-05-1.20417E+00 6.31257E-14-3.01599E-13
 -1       666 2.14793E+01-7.69593E-01-1.77881E-04-8.05794E-01-5.64345E-14-1.44511E-13
 -1       667 2.12886E+01-7.60987E-01-4.26136E-04-4.09136E-01-5.55403E-14-9.18917E-14
 -1       668 2.10561E+01-6.30727E-01-4.45735E-04-8.46158E-02-1.20848E-13-1.42279E-13
 -1       669 2.08282E+01-4.54537E-01-3.54332E-04 1.44569E-01-1.03921E-13-6.05692E-14
 -1       670 2.06302E+01-2.83066E-01-2.40510E-04 2.83947E-01-8.06897E-14 1.65751E-15
 -1       671 2.04705E+01-1.41841E-01-1.38827E-04 3.51374E-01-4.00573E-14 7.88793E-14
 -1       672 2.03475E+01-3.86541E-02-6.00657E-05 3.67173E-01-3.95659E-14-1.90279E-14
 -1       673 2.02554E+01 2.87850E-02-7.46976E-06 3.49519E-01 8.28482E-14-1.25286E-13
 -1       674 2.01877E+01 6.72264E-02 2.42388E-05 3.12781E-01 1.20429E-13-1.99074E-13
 -1       675 2.01381E+01 8.44459E-02 4.04010E-05 2.67384E-01 2.84867E-14-1.16024E-13
 -1       676 2.01017E+01 8.74809E-02 4.59370E-05 2.20323E-01 1.65525E-13-7.10725E-14
 -1       677 2.00749E+01 8.19398E-02 4.48912E-05 1.75904E-01 1.54277E-13-6.76425E-15
 -1       678 2.00551E+01 7.19190E-02 4.02968E-05 1.36458E-01 2.94096E-14 8.94803E-14
 -1       679 2.00402E+01 6.01941E-02 3.40730E-05 1.02959E-01 3.42645E-14-5.97162E-14
 -1       680 2.00291E+01 4.85017E-02 2.75292E-05 7.55041E-02-5.14914E-14-2.76726E-13
 -1       681 2.00208E+01 3.78208E-02 2.14089E-05 5.36757E-02-1.41933E-14-2.32619E-13
 -1       682 2.00145E+01 2.86134E-02 1.60785E-05 3.67905E-02 1.81432E-13-1.63395E-13
 -1       683 2.00099E+01 2.10104E-02 1.16672E-05 2.40686E-02 1.03368E-13 2.31386E-14
 -1       684 2.00065E+01 1.49476E-02 8.15960E-06 1.47367E-02 1.51943E-13 2.38341E-13
 -1       685 2.00040E+01 1.02584E-02 5.46485E-06 8.08603E-03-7.00504E-14 3.41913E-13
 -1       686 2.00023E+01 6.73374E-03 3.46025E-06 3.50073E-03 4.30960E-14 4.84242E-13
 -1       687 2.00010E+01 4.15897E-03 2.01671E-06 4.66443E-04 1.40991E-13 3.86385E-13
 -1       688 2.00002E+01 2.33409E-03 1.01287E-06-1.43279E-03-6.10275E-14 5.89880E-13
 -1       689 1.99997E+01 1.08335E-03 3.41867E-07-2.52376E-03-2.62370E-14 4.33634E-13
 -1       690 1.99994E+01 2.58195E-04-8.88961E-08-3.05607E-03-8.55815E-14 1.46617E-13
 -1       691 1.99993E+01-2.63856E-04-3.49130E-07-3.21464E-03 9.21825E-14-4.82467E-14
 -1       692 1.99992E+01-5.82441E-04-5.11295E-07-3.13149E-03-1.26113E-13-4.80780E-14
 -1       693 1.99993E+01-7.78380E-04-4.72287E-07-2.89543E-03-9.89803E-14 8.97244E-14
 -1       694 1.99993E+01-9.16256E-04-6.27006E-07-2.56397E-03-1.67460E-13-1.85889E-13
 -1       695 1.99995E+01-1.06858E-03-1.07103E-06-2.18416E-03-4.73992E-13-3.93633E-13
 -1       696 2.00004E+01-1.67809E-03 2.06657E-07-1.96262E-03 1.24711E-13 1.49263E-13
 -1       697 2.00011E+01-2.18774E-03 5.55601E-07-1.01571E-03 1.13069E-13-8.87383E-14
 -1       698 1.99999E+01-1.38428E-03-5.16027E-07-2.14840E-03-2.61614E-13-6.77418E-13
 -1       699 2.16336E+01-2.42429E-01 8.15664E-04 1.25645E+00 1.09491E-13-6.25842E-15
 -1       700 2.00008E+01-1.97916E-03 4.02620E-07-1.57321E-03 2.85718E-13 1.56759E-13
 -1       701 2.00013E+01-2.30467E-03 7.67190E-07 3.40475E-04-9.84124E-14 4.84108E-13
 -1       702 2.00011E+01-2.20706E-03 6.96814E-07 9.95352E-04 3.51579E-14 3.76904E-13
 -1       703 2.00008E+01-2.00551E-03 4.84479E-07 1.56564E-03 2.44785E-13-7.29990E-14
 -1       704 2.00004E+01-1.70670E-03-7.57037E-07 1.97110E-03 2.32049E-13 8.10815E-14
 -1       705 1.99998E+01-1.32297E-03-3.02294E-07 2.15645E-03 2.12122E-13-4.80931E-13
 -1       706 1.95196E+01 2.74308E+00 2.53054E-03 3.65209E-01-2.70417E-13-3.78635E-13
 -1       707 7.44142E+00 3.94715E-01 1.63514E-01 8.88895E-01 1.47504E-13 7.79259E-13
 -1       708 2.73500E+01 6.31424E+00-1.49205E-01 1.01776E+00 6.38503E-13-6.34085E-14
 -1       709 1.92999E+01-2.97965E+00 1.02107E-01 5.19547E+00 2.85258E-13-2.03802E-13
 -1       710 2.00012E+01-2.29864E-03 6.65911E-07-3.55693E-04-1.04133E-13 5.34039E-13
 -1       711 2.23875E+01-4.66032E+00 4.06776E-02 4.94707E+00-3.86380E-13-5.40548E-13
 -1       712 1.91418E+01 2.32650E+00 1.39811E-05 1.16791E+00-2.06612E-13-3.69228E-13
 -1       713 1.59029E+01-3.12769E+00 1.04721E-01 6.66947E+00-4.58855E-13-8.37420E-14
 -1       714 2.01831E+01 1.71097E+00-1.56263E-03-2.46399E-01 1.39287E-13-3.83035E-13
 -1       715 2.04721E+01-4.40436E+00 7.25953E-02-6.16891E+00-3.43395E-13-2.71655E-13
 -1       716 1.71173E+01 3.64520E+00-1.24850E-03-7.80669E-01-1.71833E-13-5.26428E-13
 -1       717 1.27446E+01-1.02204E+00 1.27923E-01 4.79909E+00 2.52482E-13-6.28830E-13
 -1       718 2.80225E+01 3.15272E+00-1.30567E-01 2.13156E+00 4.54421E-13 1.42282E-13
 -1       719 9.96407E+00 3.50119E-01 1.41926E-01-3.97259E+00-2.71828E-13-8.34048E-13
 -1       720 1.38493E+01-1.96239E+00 1.07429E-01-6.43328E+00-3.69267E-13-5.72948E-13
 -1       721 1.44477E+01-1.62724E+00 1.06025E-01-5.00191E+00 3.89161E-13 2.65413E-13
 -1       722 1.03371E+01-4.29794E-02 1.52851E-01-3.29021E+00 2.68514E-13 5.18890E-13
 -1       723 2.80012E+01 4.08552E+00-1.45304E-01-2.02753E+00 5.21132E-13-4.89615E-13
 -1       724 1.78599E+01 3.00996E+00-6.97531E-04-1.37425E+00-6.99702E-14-5.41978E-13
 -1       725 2.77722E+01 1.57254E+00-8.19712E-02-2.06723E+00 2.88804E-13-5.39808E-13
 -1       726 1.76046E+01 3.51482E+00-1.45569E-03-1.91615E-01-2.07232E-13-4.98704E-13
 -1       727 2.13635E+01 2.53458E-01 1.19486E-03 5.98870E-01 1.87285E-13-1.06364E-13
 -1       728 9.69236E+00 1.29043E+00 1.22931E-01-1.83558E+00-1.38907E-13-8.38496E-13
 -1       729 2.72878E+01-3.42147E+00-2.60977E-02-1.16556E+00-1.01699E-13 3.30205E-14
 -1       730 2.77189E+01 6.33618E-01-7.23997E-02 1.81989E+00 2.53433E-13 1.61746E-13
 -1       731 1.72527E+01 3.44095E+00-5.74479E-04-1.22462E+00-1.10127E-13-5.23072E-13
 -1       732 2.12539E+01 5.04734E-01-2.64350E-04 3.13577E-01 1.65137E-13-1.98017E-13
 -1       733 2.55002E+01 3.96234E+00-7.97777E-02 1.71661E+00 3.70825E-13-5.20825E-14
 -1       734 1.93132E+01-3.07204E+00 4.34868E-02 5.14406E+00-3.81925E-13-3.38441E-13
 -1       735 1.95225E+01 1.33969E+00-9.69863E-04-1.43503E+00-4.58647E-14-4.07817E-13
 -1       736 1.62227E+01 2.37063E+00 1.11967E-02 1.46658E+00-2.61447E-14-4.76429E-13
 -1       737 2.49528E+01 5.26942E+00-7.94321E-02 1.26611E-01 4.72986E-13-2.54916E-13
 -1       738 1.45013E+01 1.74033E+00 4.42446E-02 2.25726E+00 5.32813E-14-5.30390E-13
 -1       739 2.15163E+01 1.92021E-02-1.13566E-04 3.32635E-01 1.57655E-13-1.58533E-13
 -1       740 1.39289E+01 2.75241E-02 6.54188E-02-4.70138E+00-3.75241E-13-5.91012E-13
 -1       741 1.83442E+01-2.45792E+00 5.38082E-02-5.58845E+00-3.68644E-13-3.26655E-13
 -1       742 1.63785E+01 1.31192E+00 7.16946E-03-2.55903E+00 2.17816E-13 7.27103E-14
 -1       743 1.74647E+01 1.52228E+00 1.02863E-03-1.99273E+00 1.00224E-13 2.11749E-13
 -1       744 1.83382E+01 1.42924E+00-5.12757E-06-1.59524E+00 9.92192E-15 1.59497E-13
 -1       745 1.89292E+01 1.22534E+00 2.11900E-04-1.30327E+00-1.05502E-13 2.04153E-13
 -1       746 1.93358E+01 9.98086E-01 1.98854E-04-1.05797E+00-2.25316E-13 9.44156E-14
 -1       747 1.96054E+01 7.88106E-01 1.92409E-04-8.49321E-01-2.95656E-13 1.05485E-13
 -1       748 1.97783E+01 6.10345E-01 1.57310E-04-6.72833E-01-1.10686E-13 2.14356E-14
 -1       749 1.98854E+01 4.66822E-01 1.24589E-04-5.25823E-01 1.27781E-14-5.63152E-14
 -1       750 1.99492E+01 3.54034E-01 8.64375E-05-4.05304E-01 6.30672E-14 8.61194E-14
 -1       751 1.99867E+01 2.63044E-01 6.14175E-05-3.04035E-01 3.93662E-14 7.06877E-14
 -1       752 2.00052E+01 1.97169E-01 4.72215E-05-2.27984E-01-6.49781E-14-5.85605E-15
 -1       753 2.00137E+01 1.46908E-01 3.24336E-05-1.68353E-01 8.36025E-14-1.66072E-13
 -1       754 2.00166E+01 1.08713E-01 2.33664E-05-1.22257E-01 1.07572E-13-3.95597E-13
 -1       755 2.00164E+01 7.97689E-02 1.68427E-05-8.70773E-02 1.65697E-13-2.30848E-13
 -1       756 2.00148E+01 5.79104E-02 1.22068E-05-6.05832E-02-3.96047E-14-2.49656E-13
 -1       757 2.00125E+01 4.14795E-02 7.50561E-06-4.09021E-02-2.64846E-13-2.10707E-14
 -1       758 2.00101E+01 2.86849E-02 6.21436E-06-2.59385E-02-8.25163E-14 6.73106E-14
 -1       759 2.00080E+01 1.97456E-02 3.57181E-06-1.58254E-02-1.47183E-14 3.48411E-13
 -1       760 2.00061E+01 1.32006E-02 2.23744E-06-8.73282E-03 2.15063E-13 4.03761E-13
 -1       761 2.00046E+01 8.47932E-03 1.32271E-06-3.89941E-03 1.59063E-13 6.32422E-13
 -1       762 2.00034E+01 5.13384E-03 7.09144E-07-7.22514E-04 1.45483E-13 6.96134E-13
 -1       763 2.00024E+01 2.81545E-03 2.64799E-07 1.26263E-03-1.55661E-13 6.31543E-13
 -1       764 2.00016E+01 1.25247E-03-4.71718E-08 2.40940E-03-9.00349E-14 2.16543E-13
 -1       765 2.00010E+01 1.95092E-04-3.75749E-08 2.99606E-03-2.07564E-13 1.32945E-13
 -1       766 2.00006E+01-4.25604E-04-2.98116E-07 3.16545E-03-3.90928E-13 5.80826E-14
 -1       767 2.00003E+01-7.99778E-04-4.18758E-07 3.09332E-03-2.14612E-13-5.37458E-13
 -1       768 2.00001E+01-1.02790E-03-1.20057E-06 2.87479E-03 2.18822E-13-5.43781E-13
 -1       769 1.99999E+01-1.19007E-03-4.46323E-07 2.56132E-03 2.34286E-13-3.54569E-13
 -1       770 2.22670E+01-8.16593E-01-8.27716E-04 6.91087E-01 8.74574E-14-6.15326E-14
 -1       771 2.19155E+01-5.50391E-01 4.01464E-04 4.09845E-01 9.78544E-14-1.50270E-13
 -1       772 2.20076E+01 1.79992E+00 8.12543E-04 1.03602E+00 1.51024E-13-6.70906E-14
 -1       773 2.23456E+01 8.15773E-01-1.68328E-03 1.50679E+00 6.96210E-14 1.26938E-15
 -1       774 2.18610E+01 2.06126E+00-2.88647E-04-9.06522E-01 2.32978E-13-1.68460E-13
 -1       775 2.21402E+01 1.18348E+00-2.77378E-03-1.56945E+00 1.65906E-13-2.98404E-13
 -1       776 2.23817E+01 1.18109E-01-2.38047E-03-1.67733E+00 1.38997E-13-3.86831E-13
 -1       777 2.23989E+01-6.98826E-01 1.36295E-04-1.35112E+00 5.45178E-14-3.19903E-13
 -1       778 2.21683E+01-1.10478E+00 5.40775E-04-8.36125E-01-8.01777E-14-2.56602E-13
 -1       779 2.17860E+01-1.15527E+00-1.60891E-05-3.39348E-01-5.70886E-14-2.60922E-13
 -1       780 2.13629E+01-9.86725E-01-1.86105E-04 4.45659E-02-8.91753E-14-1.72321E-13
 -1       781 2.09766E+01-7.28065E-01-1.60840E-04 2.94339E-01-1.58666E-13-1.06694E-13
 -1       782 2.06642E+01-4.66745E-01-1.05745E-04 4.29254E-01-1.51688E-13-1.11842E-13
 -1       783 2.04317E+01-2.46814E-01-5.81379E-05 4.80188E-01-3.82294E-14-1.73472E-13
 -1       784 2.02694E+01-8.28733E-02-1.78799E-05 4.75840E-01 2.07771E-14-1.24555E-13
 -1       785 2.01622E+01 2.69635E-02 1.63899E-06 4.38740E-01 8.80365E-15-1.97590E-13
 -1       786 2.00947E+01 9.20265E-02 1.07808E-05 3.85009E-01 4.09431E-14-6.67552E-14
 -1       787 2.00544E+01 1.23650E-01 1.42010E-05 3.25449E-01 9.41107E-14-7.35931E-16
 -1       788 2.00314E+01 1.32386E-01 1.45185E-05 2.66824E-01 4.71869E-14-1.40359E-13
 -1       789 2.00190E+01 1.26816E-01 1.32271E-05 2.13013E-01 8.74456E-14-7.22665E-14
 -1       790 2.00127E+01 1.13340E-01 1.15986E-05 1.65941E-01 9.42173E-14 5.40574E-14
 -1       791 2.00097E+01 9.64085E-02 9.60879E-06 1.26241E-01 1.37531E-13-5.81278E-14
 -1       792 2.00083E+01 7.88930E-02 7.63661E-06 9.37419E-02-2.73798E-16 3.22216E-14
 -1       793 2.00075E+01 6.24871E-02 5.86018E-06 6.78191E-02-1.04950E-13-5.65300E-14
 -1       794 2.00069E+01 4.80601E-02 4.34637E-06 4.76273E-02 6.59351E-14-1.87586E-13
 -1       795 2.00063E+01 3.59368E-02 3.11363E-06 3.22556E-02-4.90684E-14-1.41766E-14
 -1       796 2.00057E+01 2.61087E-02 2.14906E-06 2.08219E-02 4.72175E-14 1.83016E-14
 -1       797 2.00050E+01 1.83816E-02 1.41862E-06 1.25243E-02 1.04809E-13-2.81461E-14
 -1       798 2.00042E+01 1.24733E-02 8.81998E-07 6.66669E-03-1.06073E-13-9.15208E-14
 -1       799 2.00035E+01 8.07596E-03 4.99453E-07 2.66483E-03 1.01617E-14 1.24962E-13
 -1       800 2.00028E+01 4.89248E-03 2.35831E-07 4.26767E-05-5.65275E-14 2.94601E-13
 -1       801 2.00022E+01 2.65552E-03 6.06188E-08-1.57797E-03-2.96730E-14 1.57833E-13
 -1       802 2.00017E+01 1.13510E-03-5.17874E-08-2.49028E-03-8.87765E-14 2.00461E-13
 -1       803 2.00012E+01 1.39367E-04-1.29649E-07-2.91568E-03-1.28643E-13 4.91932E-13
 -1       804 2.00008E+01-4.88352E-04-1.60037E-07-3.01661E-03 4.99398E-15 3.96457E-13
 -1       805 2.00005E+01-8.74080E-04-2.89527E-07-2.90869E-03 7.11403E-14 5.66822E-14
 -1       806 2.00002E+01-1.12313E-03-1.01350E-06-2.66878E-03-3.42694E-14-1.13054E-14
 -1       807 2.00001E+01-1.25668E-03-8.16260E-07-2.43010E-03-1.38825E-13-7.19264E-14
 -1       808 2.00015E+01-1.86537E-03 1.46687E-07 1.45775E-03 4.74083E-14 1.17454E-13
 -1       809 2.55361E+01 4.30230E+00-8.87323E-02-1.66038E+00 4.04465E-13-3.68678E-13
 -1       810 1.07381E+01 8.95135E-01 8.64965E-02 2.42673E+00-1.26687E-13 1.97758E-13
 -1       811 2.00010E+01-1.66361E-03-3.47447E-07 2.04075E-03 4.54073E-13 3.90114E-13
 -1       812 2.00018E+01-1.97964E-03 2.39166E-07 7.58990E-04-2.02943E-14 8.29033E-13
 -1       813 2.00018E+01-1.96116E-03 3.06724E-08-7.83912E-04-6.69863E-14 1.30349E-13
 -1       814 2.69627E+01-2.48041E+00-5.07100E-02-2.74662E-01-1.00202E-13-5.03575E-13
 -1       815 2.17645E+01 2.33547E+00-4.78060E-03 1.13617E-01 1.65101E-13-1.51925E-13
 -1       816 2.48801E+01-3.99031E+00-3.78088E-03 2.14457E+00-2.97312E-13-3.97736E-13
 -1       817 9.05629E+00 3.35663E-01 1.52207E-01 2.35042E+00 6.86395E-14-8.38149E-13
 -1       818 2.39614E+01-4.21338E+00 3.96005E-03-3.72243E+00-3.04066E-13-1.39240E-13
 -1       819 2.00019E+01-2.01151E-03 3.34457E-07-1.48517E-05-1.58625E-13 4.08898E-13
 -1       820 1.39221E+01 1.75638E-01 6.17370E-02-3.67592E+00 2.31879E-13 2.32595E-13
 -1       821 1.09936E+01 1.25055E+00 9.41501E-02-9.83908E-01 9.56411E-14 6.90992E-13
 -1       822 1.40503E+01-1.00832E+00 6.68239E-02 5.12630E+00-4.05060E-13-5.67116E-14
 -1       823 1.03505E+01 1.63184E+00 9.47277E-02-8.45044E-02-7.60685E-14-8.22755E-13
 -1       824 1.21342E+01 1.26107E+00 8.51541E-02 2.42848E+00 8.11781E-14-6.43707E-13
 -1       825 2.56917E+01 2.19149E+00-5.73618E-02 2.06586E+00 2.74700E-13 7.15816E-14
 -1       826 1.84340E+01 1.91440E+00 1.39588E-03-1.82832E+00-7.18689E-14-4.77572E-13
 -1       827 2.56736E+01 2.62671E+00-5.54648E-02-2.14152E+00 3.32132E-13-4.52611E-13
 -1       828 1.27049E+01 1.13230E+00 5.93172E-02-3.38467E+00-2.76386E-13-6.37801E-13
 -1       829 1.66001E+01 3.25091E+00-4.81241E-04-3.96429E-01-1.59317E-13-4.88868E-13
 -1       830 2.16276E+01-3.03568E+00 1.47327E-02-4.12199E+00-2.92540E-13-1.99641E-13
 -1       831 2.00010E+01-1.61894E-03 5.43745E-07-2.04453E-03-1.26553E-13 2.98343E-13
 -1       832 2.25209E+01-7.09687E-01 2.26694E-04 1.09954E+00 4.54158E-14-1.81481E-14
 -1       833 2.25630E+01-1.42119E-01 2.18788E-04 1.45631E+00 8.41962E-14 4.49427E-14
 -1       834 2.09472E+01 6.78058E-01-7.98272E-04-1.91905E-01 1.28392E-13-2.99233E-13
 -1       835 2.71085E+01-1.53028E+00-3.91396E-02 8.68452E-01 2.72759E-14 1.73883E-13
 -1       836 2.03887E+01 9.30972E-01 1.60234E-04-8.23008E-01 5.66410E-14-3.17029E-13
 -1       837 1.72395E+01 2.77844E+00-3.90346E-03 8.47222E-01-1.25636E-13-4.29766E-13
 -1       838 2.24294E+01-3.56411E+00 4.86642E-03 3.34981E+00-2.41393E-13-3.76862E-13
 -1       839 1.65778E+01 3.09388E+00-6.24324E-04-1.28765E+00-1.39324E-13-5.06335E-13
 -1       840 2.00015E+01-1.82923E-03 2.05827E-07-1.47963E-03 3.89109E-14-9.53540E-14
 -1       841 2.52090E+01-2.73511E+00-1.44073E-02 8.69130E-02-7.93490E-14-3.26854E-13
 -1       842 1.73975E+01-5.87706E-01 2.79819E-02-4.40587E+00-3.13563E-13-4.05787E-13
 -1       843 2.34500E+01 3.50630E+00-3.26853E-02 9.00781E-01 2.91919E-13-6.37264E-14
 -1       844 1.68472E+01 1.71034E+00 8.34307E-04-8.92432E-01-1.52392E-14-1.43420E-14
 -1       845 1.78341E+01 1.50355E+00-2.47933E-04-8.27366E-01-1.14199E-13-7.52049E-14
 -1       846 1.85268E+01 1.26276E+00-2.71338E-04-7.48063E-01-1.67490E-13-3.75510E-14
 -1       847 1.90090E+01 1.02798E+00-1.04384E-04-6.59529E-01-2.20582E-13 7.49945E-14
 -1       848 1.93417E+01 8.19194E-01-2.48507E-05-5.64607E-01-2.06325E-13 1.38765E-13
 -1       849 1.95688E+01 6.43066E-01 4.64447E-06-4.70373E-01-1.12895E-13 2.62213E-13
 -1       850 1.97222E+01 4.99187E-01 1.12467E-05-3.82323E-01 7.48693E-14 3.35112E-13
 -1       851 1.98286E+01 3.79153E-01-4.85621E-07-3.00565E-01-6.50369E-14 2.65395E-13
 -1       852 1.98948E+01 2.89634E-01 9.48697E-06-2.34205E-01-1.38210E-13 1.72178E-13
 -1       853 1.99379E+01 2.19599E-01 4.01526E-06-1.78930E-01-1.92734E-13 9.69541E-14
 -1       854 1.99657E+01 1.65197E-01 2.89678E-06-1.34086E-01-3.45710E-14 6.14038E-14
 -1       855 1.99832E+01 1.23165E-01 2.28363E-06-9.84590E-02-4.09630E-14-8.63770E-14
 -1       856 1.99939E+01 9.08654E-02 2.31990E-06-7.06918E-02-3.04645E-14-2.47307E-13
 -1       857 2.00002E+01 6.61878E-02 9.06230E-07-4.94244E-02 4.20336E-14-8.46524E-14
 -1       858 2.00038E+01 4.66791E-02 1.08385E-06-3.27930E-02-1.93748E-13 1.29239E-13
 -1       859 2.00055E+01 3.28360E-02 7.16802E-07-2.12353E-02 5.35154E-15-3.81359E-14
 -1       860 2.00060E+01 2.25448E-02 4.24298E-07-1.28971E-02 2.88264E-13 2.53225E-13
 -1       861 2.00058E+01 1.49999E-02 2.91504E-07-7.03505E-03 2.81585E-13 2.45771E-13
 -1       862 2.00053E+01 9.55627E-03 2.13246E-07-3.03432E-03 1.19510E-13 3.74268E-13
 -1       863 2.00047E+01 5.70443E-03 1.54307E-07-4.05992E-04-1.51116E-13 1.36883E-13
 -1       864 2.00039E+01 3.04163E-03 2.63615E-08 1.23277E-03-2.10359E-13 1.61212E-13
 -1       865 2.00031E+01 1.18413E-03 1.70029E-07 2.20254E-03-2.23226E-13-4.90445E-15
 -1       866 2.00025E+01 5.25682E-05 4.26043E-10 2.63876E-03-4.80741E-13 2.55681E-15
 -1       867 2.00018E+01-6.54553E-04 3.09405E-08 2.76210E-03-6.44517E-13 2.23846E-13
 -1       868 2.00013E+01-1.08448E-03 1.01180E-06 2.68343E-03-6.20138E-14 6.29883E-14
 -1       869 2.00012E+01-1.39007E-03 1.19263E-06 2.38719E-03 3.90945E-13 1.69871E-13
 -1       870 2.33466E+01 1.68736E+00-9.92328E-03 1.67864E+00 1.60992E-13 1.42985E-14
 -1       871 2.34521E+01 6.42729E-01-7.58049E-03-1.88634E+00 1.79773E-13-4.15366E-13
 -1       872 2.31599E+01 2.28047E+00-8.52390E-03-1.58806E+00 2.50483E-13-2.75880E-13
 -1       873 2.30495E+01-1.50215E+00 5.89354E-04-7.68425E-01-1.40337E-14-2.61072E-13
 -1       874 2.24148E+01-1.63066E+00 8.63358E-04-1.20027E-01-1.79383E-13-2.88284E-13
 -1       875 2.17356E+01-1.41160E+00-1.00642E-04 3.33619E-01-1.35812E-13-1.19042E-13
 -1       876 2.11443E+01-1.04443E+00-1.24504E-04 5.82499E-01-1.67462E-13-3.81405E-14
 -1       877 2.06907E+01-6.72367E-01-6.42471E-05 6.78564E-01-1.83399E-13 1.76127E-14
 -1       878 2.03715E+01-3.59707E-01-4.65994E-05 6.78424E-01-7.79725E-14-6.68404E-14
 -1       879 2.01641E+01-1.26660E-01 6.23145E-06 6.25142E-01-1.56175E-14-1.54921E-13
 -1       880 2.00401E+01 3.02024E-02 1.88542E-05 5.47355E-01-2.81726E-14-1.45652E-13
 -1       881 1.99739E+01 1.24293E-01 1.71436E-05 4.62461E-01 2.87437E-15-9.52899E-14
 -1       882 1.99448E+01 1.71389E-01 1.11975E-05 3.80235E-01 2.98449E-14 7.14940E-16
 -1       883 1.99379E+01 1.86094E-01 6.30189E-06 3.05707E-01-9.26006E-14 2.11704E-13
 -1       884 1.99428E+01 1.80283E-01 2.56123E-06 2.40930E-01 1.16607E-13 7.72793E-14
 -1       885 1.99531E+01 1.62811E-01 1.86359E-06 1.86342E-01 2.66990E-14-1.82131E-14
 -1       886 1.99647E+01 1.39931E-01 1.31834E-06 1.41465E-01 2.80103E-14 1.09050E-13
 -1       887 1.99756E+01 1.15743E-01 8.83733E-07 1.05334E-01-2.53192E-14 2.83582E-13
 -1       888 1.99848E+01 9.27278E-02 5.83947E-07 7.67912E-02-4.30853E-16 1.45169E-13
 -1       889 1.99919E+01 7.22139E-02 3.60196E-07 5.46494E-02 1.99427E-13-8.01915E-14
 -1       890 1.99970E+01 5.47582E-02 1.82228E-07 3.77802E-02-9.65776E-14-1.60172E-14
 -1       891 2.00006E+01 4.04306E-02 5.82527E-08 2.51684E-02-3.88852E-15-7.99116E-14
 -1       892 2.00027E+01 2.90214E-02-1.33185E-08 1.59296E-02 6.79556E-14-8.04979E-14
 -1       893 2.00039E+01 2.01791E-02-5.03304E-08 9.31451E-03 1.75323E-14 1.88166E-13
 -1       894 2.00044E+01 1.35000E-02-6.72327E-08 4.70326E-03-1.03776E-13 2.00528E-13
 -1       895 2.00044E+01 8.58301E-03-7.39992E-08 1.59368E-03-6.38391E-14 1.65640E-13
 -1       896 2.00040E+01 5.06022E-03-7.66826E-08-4.13105E-04 3.28373E-15 1.70725E-13
 -1       897 2.00036E+01 2.61031E-03-7.99986E-08-1.62791E-03-8.39105E-14 1.49658E-13
 -1       898 2.00030E+01 9.62301E-04-9.38686E-08-2.28793E-03-3.24276E-13-1.03572E-13
 -1       899 2.00024E+01-1.07196E-04-9.20247E-08-2.57012E-03-1.37670E-13-1.31054E-13
 -1       900 2.00018E+01-7.77944E-04 1.37578E-07-2.60199E-03 3.30873E-14 1.64112E-13
 -1       901 2.00013E+01-1.19797E-03 8.63441E-07-2.47708E-03 2.32991E-13 1.45915E-13
 -1       902 2.36277E+01 3.82715E+00-3.39629E-02-8.74504E-01 3.15891E-13-2.97423E-13
 -1       903 1.27285E+01 2.17055E+00 4.37951E-02 5.12496E-01-2.44416E-14-6.56503E-13
 -1       904 2.00023E+01-1.58807E-03-1.12716E-07-1.24455E-03 2.16867E-13-1.40297E-13
 -1       905 2.00019E+01-1.55844E-03-1.42888E-07 1.78525E-03 2.25824E-13 4.34120E-13
 -1       906 2.00024E+01-1.65342E-03-4.72544E-08 1.05312E-03-1.20712E-13 6.88773E-13
 -1       907 2.60876E+01-6.23484E-01-3.78092E-02-1.61458E+00-7.70998E-15-4.18375E-13
 -1       908 1.27678E+01 1.59506E+00 3.61545E-02 5.87898E-01-1.00049E-13 2.71548E-13
 -1       909 1.37149E+01 5.82675E-01 3.37369E-02 3.15036E+00-2.43815E-13-2.67095E-14
 -1       910 2.34387E+01-7.55830E-01-3.54404E-03-1.46925E+00 3.56093E-14-2.85051E-13
 -1       911 1.20163E+01 1.95026E+00 5.50596E-02-1.41664E+00-1.49857E-13-7.10269E-13
 -1       912 2.14155E+01 4.94358E-02 5.48404E-04-1.66493E-01 1.04587E-13-2.58203E-13
 -1       913 1.73226E+01 2.57021E+00 8.01263E-04-1.80487E+00-1.25015E-13-5.12134E-13
 -1       914 1.54409E+01 1.78643E+00 5.28973E-03-9.91608E-01 1.22331E-13 1.29741E-13
 -1       915 1.71834E+01-1.25095E+00 2.65690E-02 4.34753E+00-2.08161E-13-1.23490E-13
 -1       916 1.50021E+01 2.71586E+00 7.65339E-03 2.68034E-01-7.43520E-14-5.25098E-13
 -1       917 2.54414E+01-3.30161E+00-1.65929E-02-1.29134E+00-1.68093E-13 3.56269E-15
 -1       918 2.00018E+01-1.45068E-03-2.82788E-07-1.93861E-03 2.52158E-14 2.97954E-13
 -1       919 1.35913E+01 1.70882E+00 3.07812E-02-9.58820E-01 1.17038E-13 3.88272E-13
 -1       920 1.94404E+01 5.98739E-01 7.29640E-04-2.19779E+00-1.11542E-13-3.93641E-13
 -1       921 1.98987E+01-1.41482E+00 9.24943E-03-3.74938E+00-2.48560E-13-3.08710E-13
 -1       922 2.30660E+01-1.23767E+00-1.29126E-03 5.42519E-01 1.39444E-14-8.66165E-14
 -1       923 2.00026E+01-1.65689E-03-6.06460E-08-4.45407E-04-2.03376E-14 3.03211E-13
 -1       924 2.36223E+01 1.38038E-01-6.33895E-03 1.70113E+00 8.45549E-14 4.17479E-14
 -1       925 2.42580E+01 2.53489E+00-2.80961E-02-1.87812E+00 3.17485E-13-4.10416E-13
 -1       926 2.00566E+01-2.32413E+00 5.60120E-03 3.72068E+00-1.61494E-13-2.96830E-13
 -1       927 1.58115E+01 4.83836E-01 2.34889E-02-3.96183E+00-3.09192E-13-5.01062E-13
 -1       928 2.06349E+01 1.10907E-01 9.29542E-04-1.48912E+00-2.06525E-14-2.90291E-13
 -1       929 2.24104E+01-9.92483E-01 7.35988E-04 7.35464E-02 3.06650E-14-1.30194E-13
 -1       930 2.38345E+01-3.14989E+00 8.61904E-03 1.41559E+00-2.05881E-13-1.77416E-13
 -1       931 2.58693E+01 3.71503E-01-2.79421E-02 1.91718E+00 1.50342E-13 1.18905E-13
 -1       932 2.35891E+01-2.99564E+00 2.86291E-04-2.28979E+00-2.20471E-13-1.10266E-13
 -1       933 2.00026E+01-1.67822E-03 5.17968E-08 3.12557E-04-1.07625E-13 5.89085E-13
 -1       934 1.55168E+01 2.81267E+00 1.15403E-02-1.10223E+00-1.54158E-13-4.81422E-13
 -1       935 1.62915E+01 2.24741E+00 3.21822E-03-2.21404E+00-1.69188E-13-5.11101E-13
 -1       936 1.78785E+01 1.35616E+00-2.05026E-04-1.60886E-01-2.21470E-13-1.71073E-13
 -1       937 1.84973E+01 1.15294E+00-2.14750E-04-2.62663E-01-1.00973E-13-1.30492E-13
 -1       938 1.89428E+01 9.54481E-01-7.95158E-05-3.01117E-01-1.59797E-13 4.08709E-14
 -1       939 1.92620E+01 7.74913E-01-3.79754E-05-2.99336E-01-1.07179E-13 1.84539E-13
 -1       940 1.94898E+01 6.19613E-01-7.24220E-06-2.74196E-01-9.26593E-14-2.22369E-14
 -1       941 1.96575E+01 4.83599E-01-2.66212E-05-2.35953E-01 2.27473E-14-1.16800E-13
 -1       942 1.97690E+01 3.77994E-01-9.94574E-06-1.96258E-01-1.06612E-13-1.23529E-13
 -1       943 1.98470E+01 2.92512E-01-1.48807E-05-1.57908E-01-1.90734E-13-1.46653E-13
 -1       944 1.99011E+01 2.24160E-01-1.28833E-05-1.23541E-01-1.58659E-13-2.39931E-15
 -1       945 1.99383E+01 1.70022E-01-1.01626E-05-9.41790E-02-7.24308E-14-8.08697E-14
 -1       946 1.99635E+01 1.27514E-01-6.87872E-06-6.99866E-02-2.64493E-14 2.31567E-13
 -1       947 1.99804E+01 9.44030E-02-5.85783E-06-5.06109E-02 6.80180E-14 8.28201E-14
 -1       948 1.99918E+01 6.77671E-02-4.69190E-06-3.48832E-02-1.46084E-14 1.39434E-13
 -1       949 1.99985E+01 4.85566E-02-2.60706E-06-2.35933E-02-1.16675E-13 3.68784E-13
 -1       950 2.00025E+01 3.40517E-02-1.99021E-06-1.51995E-02 2.77876E-13 3.32800E-13
 -1       951 2.00047E+01 2.32530E-02-1.31496E-06-9.12406E-03 1.56709E-13 2.11536E-13
 -1       952 2.00056E+01 1.53357E-02-8.13054E-07-4.84570E-03 2.35508E-13-1.31722E-14
 -1       953 2.00057E+01 9.63450E-03-4.09185E-07-1.92926E-03 3.30586E-14 1.64808E-13
 -1       954 2.00054E+01 5.61309E-03-2.79937E-07-1.98472E-05-2.52616E-13 1.03200E-13
 -1       955 2.00048E+01 2.73996E-03-7.86370E-09 1.19979E-03-3.45555E-13 2.23903E-13
 -1       956 2.00041E+01 9.39915E-04 2.06806E-08 1.83782E-03-1.99386E-13 4.60561E-14
 -1       957 2.00033E+01-2.19057E-04 1.47603E-07 2.13086E-03-4.12997E-13 3.78070E-13
 -1       958 2.00026E+01-9.35791E-04 9.64088E-07 2.19314E-03-4.21641E-13 5.88496E-13
 -1       959 2.00023E+01-1.27723E-03-3.25013E-07 2.00719E-03-1.60468E-13 5.46793E-13
 -1       960 2.21077E+01-1.90328E+00-2.36733E-03 8.30195E-01-1.92676E-13-1.65663E-13
 -1       961 2.31507E+01-2.22815E+00 3.55687E-03 3.12868E-01-6.64481E-14-1.10903E-13
 -1       962 2.06408E+01-8.72919E-01 2.54295E-05 1.06488E+00-1.66188E-13-3.74237E-14
 -1       963 2.02370E+01-4.52765E-01-1.35976E-04 9.65912E-01-7.80235E-14-8.13714E-14
 -1       964 1.99954E+01-1.46982E-01 2.43567E-05 8.26089E-01 8.76688E-14-2.27070E-13
 -1       965 1.98669E+01 5.55891E-02 4.39425E-05 6.80601E-01 1.12783E-14 6.71123E-15
 -1       966 1.98128E+01 1.75352E-01 3.81066E-05 5.46774E-01-8.39284E-14 6.59953E-14
 -1       967 1.98038E+01 2.34561E-01 2.19198E-05 4.31105E-01-7.60375E-14 2.20230E-13
 -1       968 1.98198E+01 2.52115E-01-2.20947E-06 3.34983E-01-1.33143E-13 2.50110E-13
 -1       969 1.98472E+01 2.43697E-01-1.41628E-05 2.56946E-01 3.95481E-14 1.33442E-13
 -1       970 1.98779E+01 2.20378E-01-1.17268E-05 1.94644E-01 1.25383E-13 2.23838E-13
 -1       971 1.99073E+01 1.90111E-01-9.21621E-06 1.45614E-01-7.94729E-14 1.60032E-13
 -1       972 1.99330E+01 1.58121E-01-7.22982E-06 1.07453E-01-4.68301E-15 1.16836E-13
 -1       973 1.99541E+01 1.27578E-01-5.52995E-06 7.80629E-02 2.91013E-14 2.43485E-13
 -1       974 1.99705E+01 1.00207E-01-4.22539E-06 5.56753E-02 1.16311E-13 5.43528E-13
 -1       975 1.99828E+01 7.67646E-02-3.01527E-06 3.88193E-02 2.81079E-15 5.23201E-13
 -1       976 1.99916E+01 5.73715E-02-2.23638E-06 2.62922E-02-1.64623E-14 3.86534E-13
 -1       977 1.99976E+01 4.17914E-02-1.58548E-06 1.71235E-02 4.93744E-14 4.01315E-13
 -1       978 2.00014E+01 2.95956E-02-1.07911E-06 1.05303E-02 6.31613E-14 1.84953E-13
 -1       979 2.00037E+01 2.02784E-02-7.00673E-07 5.88890E-03-2.07997E-13 8.09270E-14
 -1       980 2.00048E+01 1.33294E-02-4.24056E-07 2.70694E-03-2.80883E-14 8.50898E-14
 -1       981 2.00051E+01 8.27414E-03-2.45376E-07 5.99729E-04-3.43588E-14 1.48587E-13
 -1       982 2.00049E+01 4.69486E-03-1.27296E-07-7.30154E-04 1.17939E-13 1.04609E-13
 -1       983 2.00044E+01 2.23537E-03-6.90439E-08-1.50935E-03 9.89487E-15 1.07182E-14
 -1       984 2.00038E+01 6.01553E-04 4.18687E-08-1.90732E-03-2.79655E-13 1.45004E-13
 -1       985 2.00031E+01-4.42473E-04-2.74060E-07-2.05085E-03-1.73791E-13 2.10097E-13
 -1       986 2.00024E+01-1.06580E-03-7.15312E-08-2.04836E-03 1.40928E-13 2.77107E-13
 -1       987 2.00029E+01-1.33524E-03-1.87038E-07 1.25618E-03-3.48130E-13 8.82478E-13
 -1       988 1.46730E+01 1.35884E+00 6.58665E-03 1.52807E+00-1.36320E-13-5.79623E-14
 -1       989 2.11368E+01 6.27998E-02 5.95737E-05-7.55564E-01 3.17312E-14-2.50247E-13
 -1       990 1.78471E+01 1.35428E+00-2.03334E-04-2.56041E+00-1.51305E-13-4.61864E-13
 -1       991 2.12533E+01-1.38477E+00 5.12114E-04 1.05621E+00-2.28907E-13-1.42826E-13
 -1       992 1.58046E+01 1.66476E+00 1.08883E-02 3.12243E-01-1.42535E-13 1.92076E-14
 -1       993 1.45568E+01 1.67766E+00 2.01937E-02 4.77876E-01-6.21384E-14 4.52928E-14
 -1       994 1.40673E+01 2.45739E+00 1.82954E-02-1.28185E+00-1.72894E-13-5.75008E-13
 -1       995 1.69966E+01 1.55536E+00 2.02981E-03 1.58046E-02-2.02266E-13-9.38732E-14
 -1       996 2.35615E+01-8.90460E-01-1.04840E-03 1.19167E+00 2.35778E-14-3.25236E-14
 -1       997 2.54354E+01-1.85890E+00-1.24767E-02 6.14515E-01-5.99477E-14 9.28871E-14
 -1       998 1.63863E+01 1.14296E-01 9.75956E-03 3.05903E+00-1.67842E-13-4.89843E-14
 -1       999 1.82496E+01 2.02333E-01 9.86307E-03-3.36357E+00-2.31599E-13-4.27645E-13
 -1      1000 2.44401E+01-2.37920E+00 2.72377E-03-4.64624E-01-9.87838E-14 8.71815E-15
 -1      1001 2.00032E+01-1.17540E-03-1.47285E-06-9.06418E-04 1.71398E-13-3.41349E-13
 -1      1002 2.17893E+01-1.92047E+00-3.15276E-03-2.67070E+00-1.65779E-13-1.94036E-13
 -1      1003 1.45303E+01 1.84328E+00 3.08766E-02-2.56532E+00-2.30839E-13-5.41673E-13
 -1      1004 2.49064E+01 1.39929E-01-1.65473E-02-1.90776E+00 6.96860E-14-3.48791E-13
 -1      1005 2.00032E+01-1.33985E-03-2.90729E-07 4.94901E-04-1.33111E-13 4.60448E-13
 -1      1006 2.20422E+01-2.74484E+00 2.68413E-03 2.45498E+00-9.60135E-14-2.64830E-13
 -1      1007 1.84801E+01-9.63456E-01 4.86541E-03 3.23885E+00-2.26330E-13-1.60547E-13
 -1      1008 2.46900E+01-1.85863E+00-7.91027E-03-7.78287E-01-6.47789E-15-2.46648E-13
 -1      1009 2.29823E+01-1.59952E+00 7.87353E-03-5.13645E-01-3.33893E-14-1.23099E-13
 -1      1010 2.39218E+01-2.61685E+00-1.08497E-02 4.27907E-01-1.15448E-13-1.22211E-13
 -1      1011 2.09502E+01-8.63531E-01-8.69123E-03-2.26573E+00-1.09152E-13-2.46783E-13
 -1      1012 2.26897E+01-1.82495E+00 1.53253E-02-1.43200E+00-1.13677E-13-1.40558E-13
 -1      1013 2.17483E+01-6.56711E-01-4.62104E-03-7.88872E-01-1.09705E-14-2.20243E-13
 -1      1014 1.82014E+01 1.10089E+00 3.13418E-04 2.86364E-01-2.23882E-13-4.72357E-14
 -1      1015 2.11698E+01-1.72289E+00 2.74920E-03 1.79487E+00-2.00668E-13-1.57607E-13
 -1      1016 1.86749E+01 9.67582E-01 4.34022E-05 8.60428E-02 7.36448E-15-1.44137E-13
 -1      1017 1.90308E+01 8.26011E-01 1.42484E-05-2.94758E-02-1.00523E-13-1.52200E-13
 -1      1018 1.92982E+01 6.88141E-01 3.92602E-05-8.87031E-02-1.44777E-13-1.78992E-13
 -1      1019 1.95054E+01 5.56561E-01-3.27608E-05-1.12392E-01-4.14028E-14-1.66174E-13
 -1      1020 1.96496E+01 4.48109E-01-6.17619E-05-1.13397E-01-9.62392E-14-8.14007E-14
 -1      1021 1.97559E+01 3.55536E-01-5.92533E-05-1.03122E-01-1.43419E-13-2.32812E-13
 -1      1022 1.98330E+01 2.78467E-01-5.17350E-05-8.79657E-02-4.97216E-14-8.63186E-14
 -1      1023 1.98885E+01 2.15370E-01-4.18591E-05-7.15672E-02-1.03328E-13 2.23475E-13
 -1      1024 1.99280E+01 1.64427E-01-3.19038E-05-5.60287E-02 8.60898E-14 2.54142E-13
 -1      1025 1.99557E+01 1.23797E-01-2.50731E-05-4.23484E-02-1.90285E-14 2.98836E-13
 -1      1026 1.99756E+01 9.04210E-02-1.97249E-05-3.04700E-02-1.11517E-13 3.25203E-13
 -1      1027 1.99881E+01 6.58973E-02-1.31667E-05-2.14876E-02 3.86192E-14 2.16078E-13
 -1      1028 1.99963E+01 4.70718E-02-9.87025E-06-1.45222E-02-1.93450E-14 2.49494E-13
 -1      1029 2.00013E+01 3.28350E-02-6.96217E-06-9.29701E-03 1.61809E-13 1.61394E-13
 -1      1030 2.00042E+01 2.22341E-02-4.77531E-06-5.49170E-03 8.86575E-14 1.86180E-13
 -1      1031 2.00056E+01 1.44774E-02-3.13736E-06-2.80722E-03 1.76041E-13-5.47318E-14
 -1      1032 2.00060E+01 8.90871E-03-2.24399E-06-9.77043E-04-1.11402E-13-1.79183E-13
 -1      1033 2.00058E+01 4.85197E-03-1.10449E-06 2.54100E-04-1.60961E-13-1.71053E-13
 -1      1034 2.00053E+01 2.24956E-03-5.34785E-07 9.54448E-04-3.35912E-13-4.30661E-14
 -1      1035 2.00045E+01 5.32184E-04-3.91825E-08 1.33548E-03-2.39676E-14-3.91550E-15
 -1      1036 2.00037E+01-5.53648E-04 1.34861E-06 1.49475E-03-6.93417E-14 5.10423E-13
 -1      1037 2.00033E+01-9.88462E-04-4.14575E-07 1.39159E-03-3.01470E-13 9.21884E-13
 -1      1038 1.96092E+01 1.27591E-01 2.26678E-04 8.32897E-01-1.39238E-13 1.34388E-13
 -1      1039 1.97107E+01-1.12322E-01 1.40820E-04 1.07556E+00-5.30316E-14-1.62304E-13
 -1      1040 1.99465E+01-4.85092E-01-5.73032E-04 1.34746E+00-7.80456E-14-2.85358E-13
 -1      1041 1.95934E+01 2.61099E-01 1.34988E-04 6.31424E-01-7.54041E-14 2.65914E-13
 -1      1042 1.96227E+01 3.23131E-01 1.08619E-04 4.72495E-01-1.08927E-13 2.06131E-13
 -1      1043 1.96742E+01 3.35709E-01-3.06554E-05 3.49420E-01-5.19137E-14 1.66673E-13
 -1      1044 1.97324E+01 3.19578E-01-7.40848E-05 2.56642E-01-2.11628E-14-4.01763E-14
 -1      1045 1.97894E+01 2.86607E-01-5.10256E-05 1.87028E-01 8.28778E-14-3.00504E-14
 -1      1046 1.98403E+01 2.46417E-01-4.26694E-05 1.35430E-01 8.96002E-14 1.67072E-13
 -1      1047 1.98831E+01 2.04956E-01-3.54402E-05 9.73185E-02-1.69885E-14 9.90004E-14
 -1      1048 1.99178E+01 1.65788E-01-2.92194E-05 6.92772E-02-1.91404E-13 1.23277E-13
 -1      1049 1.99447E+01 1.30824E-01-2.31731E-05 4.87164E-02-1.24751E-13 3.10937E-13
 -1      1050 1.99650E+01 1.00875E-01-1.78111E-05 3.37294E-02 1.90626E-13 2.50047E-13
 -1      1051 1.99798E+01 7.60383E-02-1.39402E-05 2.28445E-02-2.13505E-14 1.81147E-13
 -1      1052 1.99902E+01 5.59892E-02-1.04400E-05 1.50192E-02 8.61700E-14 2.66476E-13
 -1      1053 1.99971E+01 4.01962E-02-7.65988E-06 9.45193E-03 8.02503E-14 2.90068E-13
 -1      1054 2.00015E+01 2.80342E-02-5.46285E-06 5.54905E-03-1.52240E-13 4.68891E-13
 -1      1055 2.00041E+01 1.88751E-02-3.78310E-06 2.86667E-03-3.73723E-14 2.46108E-13
 -1      1056 2.00053E+01 1.21338E-02-2.48390E-06 1.07154E-03-1.66980E-14 2.44446E-13
 -1      1057 2.00057E+01 7.29323E-03-1.58035E-06-8.44279E-05-3.61314E-14 3.86282E-13
 -1      1058 2.00054E+01 3.91109E-03-9.46617E-07-7.89345E-04 1.87049E-13 5.25442E-13
 -1      1059 2.00049E+01 1.61941E-03-3.86410E-07-1.17935E-03-1.36174E-13 1.82512E-13
 -1      1060 2.00042E+01 1.26573E-04 1.18487E-06-1.35568E-03-2.26796E-13-6.25014E-14
 -1      1061 2.00037E+01-6.15298E-04 1.83614E-06-1.16202E-03-1.73338E-13-7.25999E-14
 -1      1062 1.62999E+01 9.71501E-01 3.81710E-03 1.78925E+00-1.61771E-13-3.81652E-14
 -1      1063 2.04023E+01-1.02852E+00 2.81197E-04 1.61476E+00-2.10814E-13-2.54232E-13
 -1      1064 2.00033E+01-1.26526E-03-2.01663E-07-2.07590E-04 3.61048E-14 3.62979E-13
 -1      1065 1.75747E+01 1.19530E+00-1.89711E-03 6.11037E-01-1.89291E-13-9.93133E-14
 -1      1066 2.00036E+01-9.50575E-04-3.05520E-07 6.26265E-04 8.63641E-14 1.95879E-13
 -1      1067 2.00039E+01-7.08815E-04-1.12169E-07-4.78484E-04-9.97207E-15-4.94364E-14
 -1      1068 1.76201E+01 8.84070E-02 9.17655E-04 2.44856E+00-1.17694E-13-2.09576E-13
 -1      1069 2.01407E+01-1.54638E+00-9.85130E-05 2.63332E+00-2.01157E-13-2.69546E-13
 -1      1070 1.89382E+01 7.64617E-01-1.60896E-04 2.99328E-01-4.37701E-14-2.47007E-13
 -1      1071 1.91941E+01 6.80024E-01 1.89551E-04 1.51303E-01-1.10752E-13-1.55693E-13
 -1      1072 1.94054E+01 5.78677E-01 2.45079E-04 6.10197E-02-1.75824E-13-1.19745E-13
 -1      1073 1.95582E+01 4.86126E-01-3.89950E-05 1.12957E-02-7.81695E-14-2.50143E-13
 -1      1074 1.96797E+01 3.98167E-01-5.60566E-05-1.56083E-02-2.05142E-13-1.85946E-13
 -1      1075 1.97720E+01 3.20481E-01-3.40065E-05-2.69852E-02 1.29017E-13 1.30312E-14
 -1      1076 1.98412E+01 2.53724E-01-1.73814E-05-2.95188E-02 1.57685E-13 1.23930E-13
 -1      1077 1.98924E+01 1.97712E-01-7.34392E-06-2.74125E-02 3.15263E-14 1.86525E-13
 -1      1078 1.99297E+01 1.51611E-01-9.31562E-06-2.32347E-02-4.58002E-14 1.54786E-13
 -1      1079 1.99574E+01 1.12772E-01-5.31278E-06-1.83111E-02-1.50910E-13 4.39107E-14
 -1      1080 1.99758E+01 8.35848E-02 3.90586E-06-1.38252E-02 2.37680E-14 1.37619E-13
 -1      1081 1.99882E+01 6.07454E-02 4.45653E-06-9.94937E-03-7.88764E-14 1.02788E-13
 -1      1082 1.99964E+01 4.31769E-02 4.08634E-06-6.80848E-03 3.60110E-14 1.09034E-13
 -1      1083 2.00015E+01 2.98854E-02 3.53945E-06-4.37917E-03-1.08696E-13-1.46203E-13
 -1      1084 2.00044E+01 2.00059E-02 2.88308E-06-2.57549E-03 3.40551E-14-1.90187E-13
 -1      1085 2.00058E+01 1.28017E-02 2.19795E-06-1.28727E-03 1.68794E-14-8.18971E-14
 -1      1086 2.00062E+01 7.45201E-03 1.26027E-06-3.75830E-04 2.84496E-15-3.30288E-16
 -1      1087 2.00060E+01 3.95469E-03 1.29025E-06 1.83630E-04-1.03627E-13 1.81358E-13
 -1      1088 2.00054E+01 1.59322E-03 9.73795E-07 5.23315E-04-7.55884E-14 5.05871E-13
 -1      1089 2.00045E+01 5.20466E-05-1.69261E-06 7.03653E-04 1.91709E-13 4.47533E-13
 -1      1090 2.00041E+01-5.04001E-04-8.48480E-07 6.79398E-04 1.87931E-13 1.45621E-13
 -1      1091 1.92261E+01 2.73908E-01 2.09020E-04 9.79138E-01-2.22393E-13-9.16156E-14
 -1      1092 1.92393E+01 1.24253E-02-2.05844E-03 1.35614E+00-2.03234E-13-1.72730E-13
 -1      1093 1.95020E+01 4.41546E-01 1.99202E-04 3.38951E-01-1.30353E-13-1.73375E-13
 -1      1094 1.95985E+01 4.10765E-01-6.97690E-05 2.35033E-01 1.72730E-14-6.39375E-14
 -1      1095 1.96881E+01 3.62843E-01-1.99476E-06 1.60134E-01-6.09457E-16 1.36566E-13
 -1      1096 1.97651E+01 3.09090E-01 1.49852E-05 1.08404E-01 6.42263E-14 2.49866E-14
 -1      1097 1.98281E+01 2.55827E-01 1.20058E-05 7.29682E-02 1.67286E-13 8.56279E-14
 -1      1098 1.98779E+01 2.06603E-01 7.61709E-06 4.88452E-02-9.42219E-14 7.69947E-14
 -1      1099 1.99164E+01 1.63212E-01 7.76523E-06 3.24926E-02-1.44840E-13-4.49873E-14
 -1      1100 1.99453E+01 1.26283E-01 1.22913E-05 2.13841E-02-4.39427E-14-1.00584E-13
 -1      1101 1.99664E+01 9.57051E-02 5.34861E-06 1.38757E-02 7.20103E-14 8.40213E-14
 -1      1102 1.99814E+01 7.10087E-02 1.32274E-06 8.83889E-03-1.34106E-13 1.40462E-13
 -1      1103 1.99917E+01 5.15047E-02 1.44898E-06 5.44178E-03 8.73522E-14 1.50604E-13
 -1      1104 1.99984E+01 3.64095E-02 1.49419E-06 3.16703E-03-2.36911E-13 2.74135E-13
 -1      1105 2.00025E+01 2.49627E-02 1.46444E-06 1.65926E-03-2.65147E-14 3.56754E-13
 -1      1106 2.00048E+01 1.64639E-02 1.58901E-06 6.77295E-04 2.48263E-14 2.86995E-13
 -1      1107 2.00059E+01 1.02903E-02 1.66296E-06 5.12444E-05-1.69930E-13 3.39977E-13
 -1      1108 2.00060E+01 5.92308E-03 1.56436E-06-3.27531E-04 8.74546E-14 1.16366E-13
 -1      1109 2.00057E+01 2.91349E-03 1.08922E-06-5.37755E-04 2.74292E-13 1.11534E-13
 -1      1110 2.00050E+01 9.00467E-04-1.09406E-06-6.40703E-04 1.71948E-14 1.75040E-13
 -1      1111 2.00044E+01-7.05208E-06-3.94486E-07-5.66288E-04-3.08616E-13-1.36506E-13
 -1      1112 1.93925E+01 4.47230E-01 3.54432E-05 4.88353E-01-9.30752E-14-1.10857E-13
 -1      1113 1.94139E+01-4.31227E-01-5.58331E-03 1.81633E+00-1.51113E-13-3.21250E-13
 -1      1114 1.92936E+01 3.98458E-01-3.59690E-04 6.96568E-01-7.72942E-14-1.19186E-13
 -1      1115 2.00038E+01-8.36733E-04-2.34458E-07 7.03809E-05 1.64228E-14 4.74495E-13
 -1      1116 1.96471E+01-9.03401E-01-4.84541E-03 2.21062E+00-1.79266E-13-2.74964E-13
 -1      1117 1.86229E+01 8.26466E-01 1.14222E-03 5.31532E-01-2.23951E-13-1.75039E-13
 -1      1118 1.82437E+01 8.15666E-01-1.77059E-03 8.84776E-01-2.51611E-13-1.34982E-13
 -1      1119 1.87504E+01-4.66484E-01 1.48288E-02 2.45081E+00-1.71867E-13-2.66067E-13
 -1      1120 1.78794E+01 6.13014E-01-7.88651E-04 1.53759E+00-2.73467E-13-8.01546E-14
 -1      1121 1.90262E+01 5.84075E-01-4.01110E-04 6.18916E-01-7.63126E-14-7.42397E-14
 -1      1122 1.93818E+01 5.38583E-01-4.80356E-04 2.49559E-01-8.25767E-14-2.16905E-13
 -1      1123 1.87112E+01 5.10646E-01 1.29037E-03 1.05622E+00-2.58929E-13-2.35988E-13
 -1      1124 1.91637E+01 5.97923E-01 2.04838E-04 4.27769E-01-8.11729E-14-1.41774E-13
 -1      1125 2.00044E+01-2.64710E-04 1.75726E-06 2.85215E-05-1.71009E-13 5.97851E-13
 -1      1126 2.91563E+01 9.44194E+00 2.31658E+00-6.33472E+00-4.79616E-14 1.60108E-12
 -1      1127 2.19762E+01 6.68319E+00 3.01018E-01-3.09874E+00-2.75335E-14 1.99660E-13
 -1      1128 2.03084E+01 6.12580E+00 1.10881E-01-1.88205E+00-2.03171E-14-4.10977E-13
 -1      1129 1.91814E+01 5.76783E+00 4.46490E-02-1.25339E+00-1.38084E-14-7.00719E-13
 -1      1130 1.83246E+01 5.49938E+00 6.69479E-03-9.26454E-01-8.42382E-15-8.40312E-13
 -1      1131 1.77416E+01 5.31859E+00-1.30048E-02-7.77688E-01-5.32907E-15-9.15235E-13
 -1      1132 1.74386E+01 5.22666E+00-1.64511E-02-7.06636E-01-2.78944E-15-9.32414E-13
 -1      1133 1.73945E+01 5.21625E+00-7.01221E-03-6.27523E-01-8.93383E-16-9.27914E-13
 -1      1134 1.75599E+01 5.27121E+00 1.07567E-02-4.79509E-01 1.54737E-15-9.17832E-13
 -1      1135 1.78633E+01 5.36840E+00 3.13450E-02-2.29371E-01 3.84415E-15-8.89404E-13
 -1      1136 1.82367E+01 5.48609E+00 5.02511E-02 1.30379E-01 4.46865E-15-8.41566E-13
 -1      1137 1.86304E+01 5.60862E+00 6.49796E-02 5.86806E-01 8.12544E-15-7.70207E-13
 -1      1138 1.90330E+01 5.73227E+00 7.45710E-02 1.13241E+00 1.12896E-14-6.65905E-13
 -1      1139 1.94815E+01 5.86887E+00 8.13263E-02 1.77461E+00 1.61329E-14-4.89050E-13
 -1      1140 2.00916E+01 6.05622E+00 9.58031E-02 2.55129E+00 2.16771E-14-1.49524E-13
 -1      1141 2.12588E+01 6.43427E+00 1.88741E-01 3.64092E+00 2.57017E-14 5.10814E-13
 -1      1142 2.60342E+01 8.24796E+00 1.45887E+00 5.78180E+00 5.20695E-14 1.88938E-12
 -1      1143 2.99808E+01 3.49135E+00 1.07528E+00-3.99051E+00-1.95760E-13 2.49167E-12
 -1      1144 2.26896E+01-2.05889E-01-6.53227E-01-2.20437E-02-6.41778E-14 2.01270E-12
 -1      1145 2.24728E+01-1.20549E-01-2.59285E-01 9.36116E-02-2.58023E-14 1.38458E-12
 -1      1146 2.33991E+01-8.13175E-02-1.08508E-01 7.94949E-02-1.81495E-14 9.25815E-13
 -1      1147 2.49502E+01-5.97861E-02-7.38230E-02 8.82599E-02-1.71920E-14 6.75140E-13
 -1      1148 2.70397E+01-3.37468E-02-3.59731E-02 1.07446E-01-2.15166E-14 4.71234E-13
 -1      1149 2.94704E+01 2.56457E-02 6.80915E-02 1.15658E-01 5.70204E-15 3.34205E-13
 -1      1150 3.14823E+01 1.20950E-01 2.60368E-01 5.96566E-02 2.28290E-15 3.38819E-13
 -1      1151 3.17010E+01 2.29062E-01 4.43703E-01-1.14774E-01 9.77343E-15 4.21746E-13
 -1      1152 2.87308E+01 2.31745E-01 3.51766E-01-3.98771E-01 2.34014E-15 3.64264E-13
 -1      1153 2.27687E+01-2.49592E-02-2.22951E-01-5.60018E-01-3.14245E-15 2.89380E-13
 -1      1154 1.75372E+01-3.44462E-01-8.94360E-01-2.85622E-01-8.06993E-15 2.96985E-14
 -1      1155 1.66185E+01-4.91022E-01-1.04722E+00 1.84749E-01-3.81639E-15-6.57752E-13
 -1      1156 2.07018E+01-1.51896E-01-5.07577E-01 5.32901E-01 6.85216E-15-1.07292E-12
 -1      1157 2.71488E+01 1.66407E-01 1.96618E-01 5.00394E-01-1.65909E-14-1.25722E-12
 -1      1158 3.16237E+01 2.48026E-01 4.54426E-01 2.42810E-01 1.61191E-14-1.12765E-12
 -1      1159 3.26674E+01 1.68266E-01 3.39361E-01-6.78958E-03-4.82427E-15-7.31339E-13
 -1      1160 3.12733E+01 6.27742E-02 1.34458E-01-9.57765E-02-1.98331E-14-6.58085E-13
 -1      1161 2.90151E+01-3.83341E-03 6.07319E-05-1.01242E-01 9.15517E-15-6.34576E-13
 -1      1162 2.67833E+01-3.23731E-02-5.48748E-02-7.75994E-02 8.59772E-15-6.38517E-13
 -1      1163 2.49275E+01-3.88694E-02-6.39769E-02-5.19318E-02-3.07536E-14-6.61408E-13
 -1      1164 2.35047E+01-3.58061E-02-5.52867E-02-3.25206E-02 1.39979E-14-6.97997E-13
 -1      1165 2.24383E+01-2.72761E-02-4.12776E-02-2.06954E-02 2.48586E-14-6.58650E-13
 -1      1166 2.16744E+01-2.20663E-02-3.04745E-02-1.08591E-02-3.51353E-14-5.64652E-13
 -1      1167 2.11488E+01-1.64915E-02-2.17487E-02-6.12578E-03-1.13535E-14-6.23606E-13
 -1      1168 2.07777E+01-1.21543E-02-1.53998E-02-3.28611E-03-4.68570E-15-8.91568E-13
 -1      1169 2.05171E+01-8.88953E-03-1.08802E-02-1.61774E-03-3.62654E-14-8.90795E-13
 -1      1170 2.03351E+01-6.47693E-03-7.69349E-03-6.52315E-04-2.88377E-14-8.34900E-13
 -1      1171 2.02091E+01-4.77200E-03-5.46612E-03-1.14541E-04-7.91993E-15-9.51970E-13
 -1      1172 2.01212E+01-3.20878E-03-3.74949E-03 5.98766E-05-1.32106E-14-8.10450E-13
 -1      1173 2.00624E+01-2.41397E-03-2.65718E-03 3.51928E-04-1.33116E-14-8.93078E-13
 -1      1174 2.00250E+01-1.72982E-03-1.86115E-03 4.12413E-04 4.18005E-14-6.66936E-13
 -1      1175 2.00014E+01-1.22678E-03-1.28668E-03 4.20431E-04-8.46731E-15-7.28088E-13
 -1      1176 1.99873E+01-8.58417E-04-8.73701E-04 3.99096E-04-3.91321E-14-5.18530E-13
 -1      1177 1.99798E+01-5.89968E-04-5.78559E-04 3.62031E-04 1.22239E-14-7.82890E-13
 -1      1178 1.99766E+01-4.03126E-04-3.71170E-04 3.17960E-04-3.57982E-14-1.33421E-12
 -1      1179 1.99762E+01-2.39988E-04-2.17073E-04 2.65601E-04 6.92569E-15-1.65624E-12
 -1      1180 1.99776E+01-1.51801E-04-1.15485E-04 2.26772E-04 2.79508E-14-9.58158E-13
 -1      1181 1.99799E+01-8.53318E-05-5.02555E-05 1.88237E-04 1.24702E-14-5.79330E-14
 -1      1182 1.99826E+01-4.00790E-05-7.84617E-06 1.53488E-04-4.79401E-15-3.33961E-13
 -1      1183 1.99854E+01-1.05853E-05 1.78264E-05 1.23703E-04-2.75865E-14 4.55633E-15
 -1      1184 1.99881E+01 7.74750E-06 3.19296E-05 9.89145E-05-5.23602E-14 9.23401E-16
 -1      1185 1.99907E+01 1.82757E-05 3.85211E-05 7.90650E-05-4.67179E-14-3.73111E-13
 -1      1186 1.99930E+01 2.36882E-05 3.97291E-05 6.47121E-05 3.24784E-15-3.20228E-13
 -1      1187 1.99950E+01 2.83728E-05 4.18709E-05 5.01004E-05-3.99663E-14-6.27866E-13
 -1      1188 1.99967E+01 3.11925E-05 4.39316E-05 4.05654E-05-5.87104E-15-1.07830E-12
 -1      1189 1.99981E+01 3.50356E-05 5.01296E-05 3.11557E-05-4.51110E-14-6.64253E-13
 -1      1190 1.99992E+01 4.01734E-05 5.96889E-05 1.79351E-05 8.53488E-14-3.93863E-13
 -1      1191 1.99998E+01 3.94119E-05 5.43637E-05-7.81660E-06 8.48344E-14-8.82755E-13
 -1      1192 1.99999E+01 3.52396E-05-1.82648E-05-4.17003E-05 1.93558E-13-8.93469E-13
 -1      1193 2.85820E+01 5.34933E-01 3.18045E-01 1.96943E+00-3.58116E-14 3.03690E-12
 -1      1194 2.12344E+01-6.21476E-02-5.75626E-01 1.12002E-01 2.08410E-14 2.39891E-12
 -1      1195 2.02943E+01-3.22576E-02-1.76801E-01 5.84304E-03 1.54451E-14 1.78288E-12
 -1      1196 2.00061E+01-8.99793E-03-2.79735E-02-1.05914E-02 6.04183E-15 1.40497E-12
 -1      1197 1.98621E+01 3.82827E-03 1.42574E-02-1.41499E-02 1.75466E-14 1.08779E-12
 -1      1198 1.96677E+01 1.15745E-02 2.75264E-02-1.16510E-02 2.45214E-15 8.04473E-13
 -1      1199 1.93188E+01 1.36198E-02 3.08251E-02-4.98717E-03-1.03650E-15 6.86895E-13
 -1      1200 1.87771E+01 9.57350E-03 2.55241E-02 5.29203E-03-3.68965E-15 6.62859E-13
 -1      1201 1.80749E+01-1.30459E-04 1.05864E-02 1.73716E-02-3.68211E-15 5.36581E-13
 -1      1202 1.73192E+01-1.30143E-02-1.19622E-02 2.77738E-02 3.35850E-14 4.10248E-13
 -1      1203 1.66737E+01-2.47012E-02-3.58000E-02 3.23486E-02 4.43525E-15 2.73653E-13
 -1      1204 1.63107E+01-3.06829E-02-5.23861E-02 2.83453E-02 1.00475E-14 1.64419E-13
 -1      1205 1.63475E+01-2.86864E-02-5.52332E-02 1.62821E-02 2.26867E-14 4.97657E-14
 -1      1206 1.67971E+01-1.99115E-02-4.36064E-02 4.40290E-05-2.41127E-16-2.44110E-14
 -1      1207 1.75630E+01-8.11357E-03-2.27825E-02-1.50469E-02-7.26914E-15-9.17807E-14
 -1      1208 1.84792E+01 2.65009E-03-7.63800E-04-2.48660E-02-7.80651E-15-1.34281E-13
 -1      1209 1.93731E+01 9.84432E-03 1.59154E-02-2.80016E-02 2.79963E-15-2.74780E-14
 -1      1210 2.01160E+01 1.29146E-02 2.44899E-02-2.55564E-02 1.62327E-15 3.25226E-14
 -1      1211 2.06443E+01 1.26940E-02 2.56724E-02-1.98705E-02 1.01676E-15-1.78029E-13
 -1      1212 2.09531E+01 1.05183E-02 2.19984E-02-1.32518E-02-5.50970E-15-1.85023E-13
 -1      1213 2.10759E+01 7.59786E-03 1.61939E-02-7.28371E-03-7.88432E-16-3.05998E-13
 -1      1214 2.10628E+01 4.75237E-03 1.02703E-02-2.71717E-03-5.33091E-15-2.05769E-13
 -1      1215 2.09641E+01 2.40475E-03 5.32355E-03 3.21788E-04 1.17985E-14-2.96894E-13
 -1      1216 2.08215E+01 6.87760E-04 1.72368E-03 2.05133E-03 2.23605E-14-5.10737E-13
 -1      1217 2.06656E+01-4.34879E-04-5.92675E-04 2.81261E-03-2.52502E-14-3.30285E-13
 -1      1218 2.05160E+01-1.07526E-03-1.88056E-03 2.93937E-03-3.40317E-14 1.77735E-13
 -1      1219 2.03835E+01-1.36315E-03-2.43532E-03 2.70078E-03 1.50814E-14-1.61129E-13
 -1      1220 2.02729E+01-1.41599E-03-2.51779E-03 2.28885E-03 8.96551E-15-6.91144E-13
 -1      1221 2.01848E+01-1.32719E-03-2.32852E-03 1.82732E-03-9.53499E-15-8.31191E-13
 -1      1222 2.01173E+01-1.16472E-03-2.00769E-03 1.38781E-03-3.71268E-14-6.12011E-13
 -1      1223 2.00676E+01-9.74382E-04-1.64549E-03 1.00585E-03 6.24608E-15-6.23679E-13
 -1      1224 2.00324E+01-7.84694E-04-1.29497E-03 6.94053E-04-8.35187E-14-5.22711E-13
 -1      1225 2.00086E+01-6.11624E-04-9.83618E-04 4.51665E-04-1.46221E-14-4.64056E-13
 -1      1226 1.99935E+01-4.62635E-04-7.22422E-04 2.71103E-04-5.36199E-14-3.71792E-13
 -1      1227 1.99847E+01-3.39788E-04-5.12547E-04 1.42043E-04-4.53294E-14-1.09111E-13
 -1      1228 1.99803E+01-2.41978E-04-3.49829E-04 5.38226E-05 4.60023E-14-7.48861E-13
 -1      1229 1.99790E+01-1.66450E-04-2.27688E-04-3.31141E-06-3.21598E-14-1.10626E-12
 -1      1230 1.99795E+01-1.09785E-04-1.38874E-04-3.76554E-05 5.52116E-14-8.55603E-13
 -1      1231 1.99813E+01-6.84771E-05-7.64511E-05-5.59273E-05-1.57272E-14-9.85545E-13
 -1      1232 1.99836E+01-3.92648E-05-3.42685E-05-6.33669E-05 1.86597E-14-1.16629E-12
 -1      1233 1.99861E+01-1.92678E-05-7.12017E-06-6.39413E-05 5.63231E-15-1.12963E-12
 -1      1234 1.99887E+01-6.02017E-06 9.28001E-06-6.05825E-05 4.09984E-14-1.08318E-12
 -1      1235 1.99911E+01 2.57160E-06 1.84413E-05-5.54179E-05-2.89451E-14-1.30233E-12
 -1      1236 1.99932E+01 8.31079E-06 2.33297E-05-4.99678E-05-8.17948E-14-1.18192E-12
 -1      1237 1.99952E+01 1.28179E-05 2.67070E-05-4.52729E-05-1.84903E-14-1.23010E-12
 -1      1238 1.99968E+01 1.75756E-05 3.14955E-05-4.18744E-05 3.54789E-14-1.37077E-12
 -1      1239 1.99982E+01 2.37637E-05 4.06080E-05-3.95156E-05-7.80489E-14-1.34684E-12
 -1      1240 1.99992E+01 3.07533E-05 5.30721E-05-3.49611E-05 4.10692E-14-1.20326E-12
 -1      1241 1.99998E+01 2.76309E-05 4.73488E-05-1.79324E-05 5.96964E-14-1.26158E-12
 -1      1242 1.99998E+01-1.63492E-05-3.78650E-05 1.71086E-05-5.19762E-14-8.23577E-13
 -1      1243 1.99998E+01 4.85560E-05-3.58898E-05 1.57332E-05-8.25192E-13-4.41567E-14
 -1      1244 1.99998E+01-4.44542E-05 4.78988E-05 7.85689E-06-9.55093E-13 7.03347E-14
 -1      1245 1.99998E+01-6.16121E-04 4.82116E-05-2.31590E-05-1.11182E-13 1.49561E-13
 -1      1246 1.99998E+01-1.52470E-03 1.99707E-05-3.48962E-05-6.59256E-14-1.55134E-13
 -1      1247 1.99998E+01-2.55597E-03-6.75704E-06-3.58873E-05-1.38791E-13-1.04633E-13
 -1      1248 1.99998E+01-3.52888E-03-2.73024E-05-3.08058E-05-6.81909E-13-5.87256E-15
 -1      1249 1.99998E+01-4.31909E-03-4.14509E-05-2.26838E-05-1.10265E-12-1.42788E-13
 -1      1250 1.99998E+01-4.83706E-03-5.00781E-05-1.18546E-05-8.28491E-13 6.69937E-15
 -1      1251 1.99998E+01-5.01643E-03-5.30019E-05 5.08382E-09-3.91546E-13 1.69025E-13
 -1      1252 1.99998E+01-4.83742E-03-5.02764E-05 1.19090E-05 9.47379E-13-2.66831E-14
 -1      1253 1.99998E+01-4.31850E-03-4.16795E-05 2.28127E-05 1.42579E-13-8.90977E-14
 -1      1254 1.99998E+01-3.52501E-03-2.73208E-05 3.15240E-05 1.47708E-13 1.83283E-13
 -1      1255 1.99998E+01-2.54789E-03-6.56536E-06 3.62489E-05 4.28463E-13-4.10837E-14
 -1      1256 1.99998E+01-1.51292E-03 2.02820E-05 3.47965E-05 1.67687E-13-3.69928E-14
 -1      1257 1.99998E+01-6.07526E-04 4.58267E-05 2.09709E-05 3.96919E-13 1.08381E-13
 -1      1258 1.99998E+01-3.12545E-05 4.80068E-05-1.92139E-05 1.70777E-12 4.41044E-14
 -1      1259 1.99998E+01 5.99763E-05-2.31093E-05-3.89414E-05 1.29028E-12-3.22285E-13
 -1      1260-1.03658E+00-2.49269E+01-3.74917E+00-2.05019E+00 1.47016E-12 3.13485E-13
 -1      1261-1.60272E+00-1.49961E+01-2.95333E+00-3.77119E+00 2.69540E-12 1.00014E-12
 -1      1262 5.62579E-01-1.75697E+00-1.74916E+00 3.37494E-01 2.91078E-12 1.72584E-12
 -1      1263 9.50180E+00 8.63474E+00-1.29401E-01 8.86081E+00 2.50777E-12 2.27240E-12
 -1      1264 2.66407E+01 1.19231E+01 1.50526E+00 1.68568E+01 1.77669E-12 2.36478E-12
 -1      1265 4.74740E+01 8.63585E+00 2.93765E+00 1.87266E+01 8.05911E-13 1.83009E-12
 -1      1266 6.35939E+01 3.51756E+00 3.87060E+00 1.13808E+01 1.64521E-13 4.47087E-13
 -1      1267 6.87311E+01 1.71035E+00 4.17327E+00-1.53011E+00 9.39596E-14-1.19715E-12
 -1      1268 6.06766E+01 4.60803E+00 3.74445E+00-1.34894E+01 6.84619E-13-2.56839E-12
 -1      1269 4.32604E+01 9.60588E+00 2.70231E+00-1.90233E+01 1.73117E-12-3.48477E-12
 -1      1270 2.21854E+01 1.16104E+01 1.11031E+00-1.52778E+01 2.75446E-12-3.53073E-12
 -1      1271 6.13057E+00 6.10638E+00-6.09846E-01-6.07137E+00 3.34532E-12-2.75002E-12
 -1      1272-7.37497E-01-6.03417E+00-2.20524E+00 1.72300E+00 3.09175E-12-1.61438E-12
 -1      1273-1.60827E+00-1.89676E+01-3.33108E+00 3.81669E+00 1.99862E-12-6.43818E-13
 -1      1274-1.10495E+00-2.65362E+01-3.96798E+00 4.91911E-01 1.98785E-13-1.82937E-13
 -1      1275-1.84216E+00-2.39987E+01-3.87949E+00-4.01485E+00-1.58884E-12-4.66516E-13
 -1      1276-2.40503E+00-1.37337E+01-3.28991E+00-4.70690E+00-3.00027E-12-1.46905E-12
 -1      1277 1.19507E+00-8.25541E-01-1.98906E+00 7.91934E-01-3.67240E-12-2.73448E-12
 -1      1278 1.29796E+01 8.44196E+00-2.80114E-01 1.02966E+01-3.33733E-12-3.62821E-12
 -1      1279 3.39706E+01 1.05944E+01 1.83461E+00 1.80931E+01-2.25686E-12-3.68527E-12
 -1      1280 5.81885E+01 6.91332E+00 4.02091E+00 1.76175E+01-9.78551E-13-2.56062E-12
 -1      1281 7.42809E+01 2.67940E+00 5.36713E+00 7.35249E+00-2.33966E-13-1.18805E-12
 -1      1282 7.43698E+01 2.62991E+00 5.37347E+00-6.85190E+00-1.99951E-13 5.06040E-13
 -1      1283 5.98560E+01 6.32884E+00 4.14320E+00-1.67968E+01-5.72487E-13 1.80789E-12
 -1      1284 3.83003E+01 1.00427E+01 2.24361E+00-1.84851E+01-1.35214E-12 2.50377E-12
 -1      1285 1.79560E+01 9.48458E+00 2.28824E-01-1.27958E+01-2.30305E-12 2.79554E-12
 -1      1286 4.14973E+00 2.76100E+00-1.49923E+00-3.81676E+00-3.11529E-12 2.56017E-12
 -1      1287-1.85910E+00-8.48419E+00-2.82140E+00 3.37759E+00-3.04423E-12 1.81333E-12
 -1      1288-2.42445E+00-1.98360E+01-3.66050E+00 5.35972E+00-2.05125E-12 7.80015E-13
 -1      1289-1.33705E+00-2.64146E+01-3.95221E+00 2.56309E+00-2.79193E-13 1.78677E-13
 -1      1290 2.40409E+01 1.93015E+00-7.07255E-01-2.39117E+00-7.29694E-14 1.30362E-12
 -1      1291 2.17744E+01 4.83537E+00-3.76133E-02-2.40605E+00-2.09971E-13-8.30100E-14
 -1      1292 2.25671E+01 4.99535E+00-5.70761E-02-3.36443E+00-2.69729E-13 2.37504E-13
 -1      1293 2.02264E+01 5.14264E+00-2.79183E-02-1.63945E+00-2.12899E-13-5.36838E-13
 -1      1294 2.09218E+01 5.34786E+00 3.48625E-02-2.05998E+00-2.42598E-13-3.39742E-13
 -1      1295 2.18486E+01 4.08816E+00-8.97106E-03-2.11532E+00-3.71540E-13-8.36137E-14
 -1      1296 1.90689E+01 5.19916E+00-2.48943E-02-1.14783E+00-1.77622E-13-7.59743E-13
 -1      1297 1.96237E+01 5.37089E+00 2.32338E-02-1.37577E+00-2.04253E-13-6.60697E-13
 -1      1298 2.02301E+01 4.62353E+00-1.58083E-02-1.50263E+00-3.34711E-13-4.60847E-13
 -1      1299 1.82032E+01 5.19143E+00-2.23804E-02-8.91024E-01-1.29383E-13-8.78011E-13
 -1      1300 1.86069E+01 5.31572E+00 7.74304E-03-1.00743E+00-1.48694E-13-8.23053E-13
 -1      1301 1.90082E+01 4.88071E+00-1.63007E-02-1.09786E+00-2.67692E-13-6.52634E-13
 -1      1302 1.76583E+01 5.16373E+00-1.67935E-02-7.77346E-01-9.24018E-14-9.26863E-13
 -1      1303 1.78956E+01 5.23678E+00-4.16085E-03-8.33311E-01-1.04812E-13-9.01885E-13
 -1      1304 1.81431E+01 4.99350E+00-1.42071E-02-8.89944E-01-1.96204E-13-7.44163E-13
 -1      1305 1.74228E+01 5.12862E+00-8.67393E-03-7.10566E-01-5.69284E-14-9.41004E-13
 -1      1306 1.75023E+01 5.15340E+00-1.15697E-02-7.52088E-01-7.02598E-14-9.35735E-13
 -1      1307 1.76351E+01 5.00653E+00-1.31933E-02-7.93646E-01-1.36752E-13-7.94956E-13
 -1      1308 1.74704E+01 5.09713E+00 6.82068E-04-6.14442E-01-1.77393E-14-9.33337E-13
 -1      1309 1.74133E+01 5.08034E+00-1.34858E-02-6.76653E-01-3.37807E-14-9.36315E-13
 -1      1310 1.74720E+01 4.94826E+00-1.33388E-02-7.18110E-01-7.69944E-14-7.96571E-13
 -1      1311 1.77262E+01 5.07664E+00 9.20482E-03-4.35224E-01 1.53558E-14-9.14512E-13
 -1      1312 1.75741E+01 5.03076E+00-1.06420E-02-5.40828E-01 4.39579E-15-9.25138E-13
 -1      1313 1.76015E+01 4.85021E+00-1.40167E-02-5.93329E-01-1.09114E-14-7.93927E-13
 -1      1314 1.81040E+01 5.07228E+00 1.55275E-02-1.48773E-01 4.97762E-14-8.88348E-13
 -1      1315 1.79006E+01 5.01035E+00-5.00703E-03-3.06747E-01 3.80460E-14-9.06159E-13
 -1      1316 1.79332E+01 4.74363E+00-1.48005E-02-3.75576E-01 4.13940E-14-7.69803E-13
 -1      1317 1.85309E+01 5.08509E+00 1.90973E-02 2.45011E-01 8.59937E-14-8.41766E-13
 -1      1318 1.83106E+01 5.01728E+00 1.04382E-03 3.58543E-02 7.13977E-14-8.69986E-13
 -1      1319 1.83729E+01 4.65136E+00-1.55438E-02-5.02115E-02 9.91906E-14-7.52051E-13
 -1      1320 1.89580E+01 5.11198E+00 2.03361E-02 7.24626E-01 1.23339E-13-7.57967E-13
 -1      1321 1.87405E+01 5.04314E+00 5.32347E-03 4.74722E-01 1.06942E-13-8.05167E-13
 -1      1322 1.88443E+01 4.58219E+00-1.63448E-02 3.72155E-01 1.55932E-13-6.87436E-13
 -1      1323 1.93988E+01 5.14776E+00 1.97099E-02 1.29569E+00 1.79204E-13-6.41365E-13
 -1      1324 1.91715E+01 5.07354E+00 5.99260E-03 9.98570E-01 1.59803E-13-7.08968E-13
 -1      1325 1.93177E+01 4.52661E+00-1.80905E-02 8.79957E-01 2.32692E-13-5.97189E-13
 -1      1326 1.98982E+01 5.18185E+00 1.68906E-02 1.95626E+00 2.30468E-13-4.46490E-13
 -1      1327 1.96293E+01 5.09073E+00 7.08584E-04 1.60705E+00 2.07875E-13-5.65353E-13
 -1      1328 1.98164E+01 4.45701E+00-2.09863E-02 1.46822E+00 3.13638E-13-4.65378E-13
 -1      1329 2.06048E+01 5.19483E+00 1.40751E-02 2.75339E+00 2.66107E-13-7.38506E-14
 -1      1330 2.02022E+01 5.05622E+00-1.43630E-02 2.30923E+00 2.33494E-13-2.98584E-13
 -1      1331 2.04282E+01 4.31397E+00-2.41878E-02 2.13816E+00 3.74306E-13-2.34007E-13
 -1      1332 2.19831E+01 5.00930E+00 1.61311E-02 3.84918E+00 2.32592E-13 6.33021E-13
 -1      1333 2.11625E+01 4.83438E+00-4.11548E-02 3.14043E+00 2.27943E-13 2.00326E-13
 -1      1334 2.14063E+01 3.92532E+00-1.93774E-02 2.88457E+00 3.98990E-13 1.81397E-13
 -1      1335 2.80904E+01 3.25119E+00 9.16279E-01 4.51308E+00 1.16324E-13 1.98996E-12
 -1      1336 2.29331E+01 3.59760E+00-1.80100E-01 3.73001E+00 1.18960E-13 1.04716E-12
 -1      1337 2.30828E+01 2.57046E+00-2.72351E-02 3.24159E+00 3.81150E-13 8.24785E-13
 -1      1338 2.24251E+01 3.46024E-01-7.73879E-01 1.06449E+00 2.06529E-13 1.91253E-12
 -1      1339 2.42016E+01 1.16137E-01-3.90865E-01-8.36520E-01-2.18200E-13 1.37820E-12
 -1      1340 2.33781E+01 2.96974E-01-1.46619E-01-4.09844E-01-2.05905E-13 1.11975E-12
 -1      1341 2.31001E+01 1.77819E-01-6.94303E-02 4.33122E-02-1.56444E-13 1.02146E-12
 -1      1342 2.32043E+01 1.21584E-01-1.02876E-02 1.24131E-01-1.49578E-13 7.90187E-13
 -1      1343 2.35147E+01 3.84717E-01-1.04168E-01-4.60886E-01-3.43808E-13 5.70020E-13
 -1      1344 2.32880E+01 1.11296E-01-1.18027E-03 4.04149E-01-1.25849E-13 7.11951E-13
 -1      1345 2.38332E+01 8.91415E-02 1.00836E-02 4.49766E-01-1.09626E-13 5.43378E-13
 -1      1346 2.32096E+01 1.95000E-01-4.69405E-02 4.62771E-01-2.62138E-13 4.15789E-13
 -1      1347 2.42179E+01 8.94955E-02 1.71715E-03 6.51912E-01-6.84452E-14 4.77653E-13
 -1      1348 2.50690E+01 6.55546E-02 2.78921E-03 6.94520E-01-8.57352E-14 3.64549E-13
 -1      1349 2.36831E+01 1.46692E-01-2.38076E-02 1.03439E+00-1.76945E-13 2.76355E-13
 -1      1350 2.56607E+01 6.32801E-02-4.74504E-03 8.32205E-01-6.21751E-14 3.44738E-13
 -1      1351 2.67091E+01 1.96397E-02-6.86711E-04 8.62005E-01-3.71474E-14 2.62013E-13
 -1      1352 2.46290E+01 9.93389E-02-2.00492E-02 1.44810E+00-1.24695E-13 1.87440E-13
 -1      1353 2.74533E+01-9.29830E-03 1.69091E-03 8.65658E-01 3.89445E-16 2.70055E-13
 -1      1354 2.85131E+01-8.66018E-02 1.45759E-02 8.47168E-01 1.30018E-14 2.40787E-13
 -1      1355 2.59325E+01-1.31678E-02-1.00412E-02 1.64330E+00-4.15254E-14 1.61419E-13
 -1      1356 2.91738E+01-1.61175E-01 3.48270E-02 5.75809E-01 4.53162E-14 3.07206E-13
 -1      1357 2.96819E+01-2.54644E-01 4.93466E-02 4.60462E-01 9.87405E-15 3.33157E-13
 -1      1358 2.73503E+01-2.64864E-01 1.70976E-02 1.36323E+00 3.94580E-14 2.12160E-13
 -1      1359 3.00726E+01-3.71387E-01 8.72162E-02-2.02490E-01 4.21919E-14 3.67040E-13
 -1      1360 2.94639E+01-4.12317E-01 7.45211E-02-4.50415E-01 1.00961E-14 3.82430E-13
 -1      1361 2.84857E+01-6.24678E-01 5.72959E-02 3.00788E-01 4.33820E-14 3.59031E-13
 -1      1362 2.92897E+01-4.63159E-01 9.19462E-02-1.35611E+00-3.83929E-14 3.96849E-13
 -1      1363 2.72659E+01-3.14065E-01 9.70201E-03-1.63004E+00-5.65381E-14 3.58547E-13
 -1      1364 2.88655E+01-8.20331E-01 7.81405E-02-1.57983E+00-3.12250E-15 4.33445E-13
 -1      1365 2.64251E+01-1.31236E-01-4.67811E-02-2.07801E+00-6.23598E-14 3.04257E-13
 -1      1366 2.38409E+01 2.00337E-01-1.77222E-01-2.05190E+00-1.22596E-13 2.43444E-13
 -1      1367 2.80328E+01-3.53989E-01 2.03026E-03-3.34621E+00-1.17663E-13 3.92443E-13
 -1      1368 2.30731E+01 4.95478E-01-2.48012E-01-1.47194E+00-1.96287E-13 6.94167E-14
 -1      1369 2.17849E+01 7.19466E-01-3.21134E-01-1.10023E+00-2.42556E-13-1.40318E-13
 -1      1370 2.64595E+01 5.45392E-01-2.02700E-01-3.15412E+00-2.92544E-13 1.16351E-13
 -1      1371 2.15648E+01 8.15348E-01-3.51066E-01 2.47530E-01-2.25486E-13-3.82954E-13
 -1      1372 2.21175E+01 7.30521E-01-3.31002E-01 6.84846E-01-2.37727E-13-6.42139E-13
 -1      1373 2.54516E+01 1.43963E+00-3.00574E-01-8.30615E-01-4.82447E-13-2.21323E-13
 -1      1374 2.28454E+01 4.34144E-01-2.70180E-01 1.91171E+00-1.65062E-13-8.13571E-13
 -1      1375 2.53304E+01 1.04070E-01-1.26832E-01 2.08511E+00-9.02958E-14-9.62869E-13
 -1      1376 2.59278E+01 1.17542E+00-2.45537E-01 2.34070E+00-3.75755E-13-5.76320E-13
 -1      1377 2.63151E+01-1.66677E-01-5.46627E-02 2.05232E+00-3.10914E-14-1.04786E-12
 -1      1378 2.87479E+01-3.91821E-01 5.51539E-02 1.85308E+00-3.95777E-15-1.03978E-12
 -1      1379 2.76593E+01-1.27177E-02-6.57322E-02 3.70967E+00-1.45231E-13-8.50084E-13
 -1      1380 2.93307E+01-4.16988E-01 7.18729E-02 9.68842E-01 6.56385E-14-9.60260E-13
 -1      1381 3.06037E+01-4.49482E-01 9.54288E-02 6.62466E-01 1.08549E-13-8.62199E-13
 -1      1382 2.90383E+01-7.54008E-01 6.26935E-02 2.48318E+00 8.19882E-14-8.58341E-13
 -1      1383 3.04239E+01-3.25331E-01 6.29281E-02-1.46104E-01 5.45154E-14-8.28775E-13
 -1      1384 3.02995E+01-2.43572E-01 4.94197E-02-3.10947E-01 4.30454E-14-7.35613E-13
 -1      1385 2.91851E+01-7.45301E-01 7.58128E-02 3.97353E-01 1.34448E-13-8.21098E-13
 -1      1386 2.97294E+01-1.44187E-01 2.37655E-02-7.31072E-01 4.39856E-14-6.72878E-13
 -1      1387 2.88751E+01-6.45854E-02 7.24564E-03-7.79999E-01 5.02844E-14-6.40731E-13
 -1      1388 2.83115E+01-3.92741E-01 3.53199E-02-1.01484E+00 6.40842E-14-7.98854E-13
 -1      1389 2.81523E+01-1.97839E-02-1.85797E-03-8.80120E-01 4.38473E-15-5.40790E-13
 -1      1390 2.70959E+01 2.91204E-02-1.09703E-02-8.68204E-01 2.12961E-14-5.13867E-13
 -1      1391 2.69758E+01-9.88867E-02 1.50848E-03-1.58116E+00 7.32730E-14-6.17430E-13
 -1      1392 2.63872E+01 3.71751E-02-9.11576E-03-8.02634E-01 2.93168E-14-5.70058E-13
 -1      1393 2.54141E+01 6.04412E-02-1.26141E-02-7.70579E-01-1.47920E-14-5.54806E-13
 -1      1394 2.55640E+01 5.19447E-02-1.34361E-02-1.59328E+00 1.37021E-14-5.82933E-13
 -1      1395 2.47991E+01 5.27804E-02-7.27042E-03-6.49632E-01-2.65924E-14-5.21118E-13
 -1      1396 2.40093E+01 6.13533E-02-8.71213E-03-6.16592E-01-2.47458E-14-5.71876E-13
 -1      1397 2.42849E+01 1.00594E-01-1.61530E-02-1.36149E+00-2.60399E-14-4.73106E-13
 -1      1398 2.35119E+01 4.99726E-02-3.59961E-03-4.94748E-01-2.34014E-15-5.40151E-13
 -1      1399 2.29091E+01 5.10459E-02-5.17163E-03-4.67341E-01 3.74735E-14-5.30253E-13
 -1      1400 2.32191E+01 1.00370E-01-1.40560E-02-1.07192E+00 3.13083E-14-4.14438E-13
 -1      1401 2.25055E+01 3.96032E-02-1.30561E-03-3.60558E-01 2.86620E-14-5.76435E-13
 -1      1402 2.20472E+01 3.88613E-02-2.08259E-03-3.38445E-01 3.31445E-14-5.36973E-13
 -1      1403 2.23588E+01 8.39025E-02-1.00038E-02-8.02380E-01-1.37633E-14-4.48478E-13
 -1      1404 2.17619E+01 3.09296E-02 6.09275E-04-2.59799E-01-9.10036E-15-5.67930E-13
 -1      1405 2.14488E+01 2.87818E-02-5.51556E-04-2.44786E-01-6.95659E-14-5.41281E-13
 -1      1406 2.17015E+01 6.24921E-02-7.96875E-03-5.83504E-01-8.75602E-15-4.97371E-13
 -1      1407 2.12362E+01 2.28014E-02 1.05701E-03-1.86219E-01-6.88659E-14-5.39090E-13
 -1      1408 2.10131E+01 2.08516E-02 1.14622E-04-1.75364E-01-6.89305E-14-6.80166E-13
 -1      1409 2.12233E+01 4.60064E-02-5.74779E-03-4.22113E-01-4.91178E-14-5.33649E-13
 -1      1410 2.08572E+01 1.66341E-02 1.13867E-03-1.32564E-01-7.16738E-14-7.55642E-13
 -1      1411 2.06994E+01 1.49596E-02 3.85903E-04-1.24814E-01-1.30403E-13-8.96603E-13
 -1      1412 2.08693E+01 3.31334E-02-4.17519E-03-3.02781E-01-1.95361E-13-6.29726E-13
 -1      1413 2.05860E+01 1.20469E-02 1.03176E-03-9.38337E-02 5.93124E-15-8.19951E-13
 -1      1414 2.04749E+01 1.06919E-02 4.56762E-04-8.83154E-02 2.13154E-16-8.10108E-13
 -1      1415 2.06098E+01 2.36552E-02-3.03955E-03-2.15790E-01-7.75393E-14-7.03049E-13
 -1      1416 2.03931E+01 8.70011E-03 8.62554E-04-6.59871E-02-4.10863E-14-6.93388E-13
 -1      1417 2.03155E+01 7.62332E-03 4.31688E-04-6.20537E-02 1.15424E-15-6.99029E-13
 -1      1418 2.04212E+01 1.68320E-02-2.21791E-03-1.52824E-01 6.36362E-15-6.21511E-13
 -1      1419 2.02569E+01 6.32852E-03 7.05334E-04-4.59945E-02 1.87114E-14-7.40455E-13
 -1      1420 2.02031E+01 5.37417E-03 3.38274E-04-4.31920E-02 1.14654E-14-7.85247E-13
 -1      1421 2.02851E+01 1.19318E-02-1.63263E-03-1.07404E-01 1.52981E-14-6.36603E-13
 -1      1422 2.01598E+01 4.43126E-03 5.21075E-04-3.12258E-02 4.53147E-14-6.95286E-13
 -1      1423 2.01217E+01 3.74204E-03 3.01902E-04-2.91086E-02 9.01292E-15-7.07730E-13
 -1      1424 2.01859E+01 8.60862E-03-1.09906E-03-7.41674E-02 9.82416E-14-5.33057E-13
 -1      1425 2.00932E+01 3.21900E-03 4.20298E-04-2.09852E-02 1.28236E-14-5.51422E-13
 -1      1426 2.00691E+01 2.68823E-03 2.57748E-04-1.96107E-02 6.10718E-14-4.97367E-13
 -1      1427 2.01162E+01 5.87372E-03-8.56979E-04-5.02213E-02 4.49532E-14-3.86757E-13
 -1      1428 2.00495E+01 2.27468E-03 3.09947E-04-1.38316E-02 4.19707E-14-5.69607E-13
 -1      1429 2.00338E+01 1.88644E-03 2.06362E-04-1.28564E-02 5.90951E-14-4.90944E-13
 -1      1430 2.00692E+01 4.16983E-03-6.11412E-04-3.36799E-02 5.23636E-14-1.78896E-13
 -1      1431 2.00206E+01 1.60900E-03 2.33270E-04-8.77505E-03 2.26243E-15-5.04983E-13
 -1      1432 2.00108E+01 1.30647E-03 1.63434E-04-8.09744E-03-6.86354E-16-3.86340E-13
 -1      1433 2.00371E+01 2.91296E-03-4.37444E-04-2.19325E-02-4.58889E-15-2.00229E-13
 -1      1434 2.00023E+01 1.12380E-03 1.74699E-04-5.25026E-03-7.37879E-14-3.68107E-13
 -1      1435 1.99965E+01 8.88400E-04 1.28266E-04-4.78743E-03-9.20088E-14-4.42209E-13
 -1      1436 2.00158E+01 2.00799E-03-3.09132E-04-1.36657E-02-2.65299E-14-2.55695E-13
 -1      1437 1.99912E+01 7.71114E-04 1.29937E-04-2.83531E-03-1.37901E-13-5.52778E-13
 -1      1438 1.99883E+01 5.87348E-04 9.88810E-05-2.52635E-03-2.22022E-13-7.40659E-13
 -1      1439 2.00021E+01 1.35726E-03-2.14835E-04-7.93098E-03-2.84159E-13-3.48748E-13
 -1      1440 1.99852E+01 5.23277E-04 9.80044E-05-1.22089E-03-2.33596E-13-9.21340E-13
 -1      1441 1.99841E+01 3.67720E-04 7.41801E-05-1.02095E-03-2.04990E-13-1.20972E-12
 -1      1442 1.99939E+01 8.87202E-04-1.47209E-04-4.03088E-03-3.96083E-13-7.25396E-13
 -1      1443 1.99826E+01 3.31426E-04 7.12319E-05-1.49044E-04 8.93741E-15-1.30353E-12
 -1      1444 1.99826E+01 2.11148E-04 5.65220E-05-1.89451E-05 8.89119E-14-1.13049E-12
 -1      1445 1.99893E+01 5.74017E-04-9.08310E-05-1.41279E-03-1.66599E-13-8.88784E-13
 -1      1446 1.99822E+01 2.02782E-04 5.05703E-05 4.86620E-04 2.77707E-13-1.15930E-12
 -1      1447 1.99830E+01 1.19025E-04 4.37022E-05 5.50830E-04 3.01608E-13-6.88666E-13
 -1      1448 1.99874E+01 3.19274E-04-5.94076E-05 2.50489E-04 2.27040E-13-8.45258E-13
 -1      1449 1.99832E+01 1.11431E-04 3.49355E-05 8.34589E-04 1.97242E-13-6.65214E-13
 -1      1450 1.99843E+01 5.15598E-05 3.26803E-05 8.64463E-04 2.66104E-14-4.48550E-13
 -1      1451 1.99871E+01 1.70309E-04-3.38053E-05 1.20390E-03 4.30578E-13-7.95876E-13
 -1      1452 1.99849E+01 5.23451E-05 2.40999E-05 9.98931E-04-4.39699E-14-3.67843E-13
 -1      1453 1.99862E+01 8.16890E-06 2.39871E-05 1.00582E-03 8.02513E-14-2.86955E-13
 -1      1454 1.99877E+01 6.79317E-05-1.70421E-05 1.71245E-03 3.89557E-14-5.51473E-13
 -1      1455 1.99869E+01 1.40183E-05 1.60981E-05 1.04301E-03 8.47258E-14-3.20354E-13
 -1      1456 1.99882E+01-1.81842E-05 1.72353E-05 1.03590E-03-2.03515E-14-2.89007E-13
 -1      1457 1.99890E+01 2.96071E-06-6.00517E-06 1.92522E-03 3.50092E-16-5.33314E-13
 -1      1458 1.99891E+01-9.64691E-06 1.02040E-05 1.01278E-03-8.41876E-14-5.06410E-14
 -1      1459 1.99903E+01-3.30002E-05 1.19214E-05 9.97842E-04-1.31972E-13-2.35374E-13
 -1      1460 1.99905E+01-3.58504E-05 9.27770E-07 1.94849E-03-1.78865E-14-5.05516E-13
 -1      1461 1.99912E+01-2.29155E-05 6.02658E-06 9.39592E-04-6.17118E-14-2.47517E-13
 -1      1462 1.99923E+01-4.04108E-05 8.29794E-06 9.21081E-04 3.67312E-14-2.98346E-13
 -1      1463 1.99921E+01-5.72695E-05 5.02002E-06 1.85706E-03-8.46805E-14-1.51929E-13
 -1      1464 1.99932E+01-2.90845E-05 3.47245E-06 8.40281E-04-8.33103E-14-3.07302E-13
 -1      1465 1.99943E+01-4.37697E-05 4.80511E-06 8.19002E-04-1.31115E-13-4.21774E-13
 -1      1466 1.99937E+01-6.69207E-05 6.53891E-06 1.69700E-03-1.31963E-13-3.36384E-13
 -1      1467 1.99950E+01-3.45924E-05 4.72752E-07 7.32563E-04-1.59062E-13-3.62420E-13
 -1      1468 1.99959E+01-4.43345E-05 2.63255E-06 7.11868E-04-1.59771E-13-5.87682E-13
 -1      1469 1.99952E+01-7.09701E-05 8.57188E-06 1.50018E-03-2.13112E-13-4.52063E-13
 -1      1470 1.99965E+01-3.80356E-05-5.76988E-07 6.19291E-04-7.84043E-15-6.86390E-13
 -1      1471 1.99972E+01-4.65707E-05 1.73819E-06 5.97634E-04-4.70748E-14-7.74983E-13
 -1      1472 1.99965E+01-7.36250E-05 9.38370E-06 1.28974E-03-2.13863E-13-3.18016E-13
 -1      1473 1.99977E+01-4.33830E-05-1.33609E-07 4.96301E-04 5.70205E-14-6.51716E-13
 -1      1474 1.99983E+01-5.17241E-05 2.48379E-06 4.71865E-04 7.50704E-14-3.91235E-13
 -1      1475 1.99976E+01-7.98279E-05 1.06635E-05 1.06156E-03 9.00749E-14-3.71300E-13
 -1      1476 1.99987E+01-5.29343E-05 2.37990E-06 3.55296E-04 2.25452E-15-2.96901E-13
 -1      1477 1.99991E+01-6.04657E-05 3.80222E-06 3.24661E-04-3.40971E-14-4.99603E-13
 -1      1478 1.99985E+01-9.34621E-05 1.27047E-05 8.05411E-04-9.32971E-15-2.92574E-13
 -1      1479 1.99994E+01-6.24187E-05 5.91749E-06 1.90109E-04-1.01189E-13-5.75826E-13
 -1      1480 1.99996E+01-7.29167E-05-5.86970E-06 1.48631E-04-8.98885E-15-6.33214E-13
 -1      1481 1.99992E+01-1.13336E-04 1.46376E-05 5.09373E-04-1.80366E-13-4.77949E-13
 -1      1482 1.99997E+01-6.02126E-05-5.37205E-08 4.47203E-05 7.20515E-14-7.44786E-13
 -1      1483 1.99998E+01-4.44092E-05-3.49846E-05 2.94348E-05 1.72087E-13-4.23289E-13
 -1      1484 1.99998E+01-5.03664E-05 6.00719E-06 4.37406E-05 1.06022E-12-2.26124E-13
 -1      1485 1.99996E+01-1.27611E-04 9.49429E-06 2.31646E-04 5.33716E-14-1.72731E-13
 -1      1486 2.14633E+01 6.59629E-02-1.46447E-01 4.06888E-01 1.99573E-13 1.48910E-12
 -1      1487 2.26062E+01 2.10470E-01-2.31938E-01 6.34552E-01 1.67158E-13 1.79187E-12
 -1      1488 2.27732E+01 8.58663E-01-9.05228E-02 1.90532E+00 3.23422E-13 1.16521E-12
 -1      1489 2.06505E+01 2.29019E-02-1.50765E-02 1.52388E-01 1.27631E-13 1.13418E-12
 -1      1490 2.10027E+01 1.00101E-01-5.94567E-02 1.95527E-01 1.26722E-13 1.35593E-12
 -1      1491 2.14692E+01 1.60591E-01-5.36485E-02 6.83276E-01 2.79325E-13 9.04284E-13
 -1      1492 2.02720E+01 2.95258E-03 1.12674E-02 7.32383E-02 9.29768E-14 8.92598E-13
 -1      1493 2.04135E+01 3.17510E-02 3.94928E-03 8.70172E-02 8.79908E-14 1.03439E-12
 -1      1494 2.07768E+01 3.80943E-02-1.07069E-02 2.79539E-01 1.88509E-13 6.94417E-13
 -1      1495 2.00166E+01-7.81720E-03 1.27286E-02 7.68308E-02 8.43650E-14 6.83172E-13
 -1      1496 2.01209E+01 8.60388E-05 1.31655E-02 7.37227E-02 7.80446E-14 8.24240E-13
 -1      1497 2.03952E+01-1.16078E-02-2.16958E-04 1.70908E-01 1.62353E-13 5.27533E-13
 -1      1498 1.97224E+01-1.36041E-02 1.06714E-02 1.21032E-01 5.33971E-14 5.40329E-13
 -1      1499 1.98680E+01-1.62421E-02 1.00490E-02 1.07246E-01 4.92492E-14 6.14854E-13
 -1      1500 2.01034E+01-2.80884E-02 4.63808E-03 1.98579E-01 1.22055E-13 4.32678E-13
 -1      1501 1.93111E+01-1.39468E-02 8.36896E-03 1.82096E-01 2.05144E-14 4.78814E-13
 -1      1502 1.95350E+01-2.33357E-02 6.59170E-03 1.62991E-01 1.77766E-14 4.93613E-13
 -1      1503 1.97816E+01-3.25716E-02 7.45806E-03 2.90232E-01 8.46797E-14 3.55698E-13
 -1      1504 1.87692E+01-8.31654E-03 4.82931E-03 2.35434E-01 4.60231E-14 4.04564E-13
 -1      1505 1.90736E+01-2.11370E-02 3.86428E-03 2.17436E-01 2.37063E-14 4.36064E-13
 -1      1506 1.93748E+01-2.57644E-02 8.06113E-03 3.95559E-01 5.26651E-14 2.68808E-13
 -1      1507 1.81480E+01 2.88764E-03-5.85447E-04 2.55507E-01 5.19674E-14 2.99795E-13
 -1      1508 1.84996E+01-9.28793E-03 1.06789E-03 2.46065E-01 4.03870E-14 3.61249E-13
 -1      1509 1.88874E+01-7.59638E-03 5.59596E-03 4.66184E-01 6.72737E-14 2.09074E-13
 -1      1510 1.75556E+01 1.69997E-02-7.10095E-03 2.22254E-01 4.03132E-14 2.02924E-13
 -1      1511 1.78900E+01 1.00548E-02-2.04487E-03 2.27678E-01 5.73075E-14 2.80602E-13
 -1      1512 1.83768E+01 1.89377E-02 2.53838E-05 4.57814E-01 7.97344E-14 1.09595E-13
 -1      1513 1.71297E+01 2.91815E-02-1.26136E-02 1.30970E-01 4.03332E-14 1.61031E-13
 -1      1514 1.73672E+01 3.11608E-02-4.85924E-03 1.53305E-01 2.33446E-14 1.77428E-13
 -1      1515 1.79403E+01 4.63282E-02-7.21892E-03 3.45000E-01 4.95298E-14 8.05848E-14
 -1      1516 1.69907E+01 3.43622E-02-1.47394E-02-1.62288E-03 6.10892E-14 2.03586E-14
 -1      1517 1.70631E+01 4.63408E-02-6.28925E-03 3.34174E-02 6.51250E-14 9.88272E-14
 -1      1518 1.76853E+01 6.47602E-02-1.34820E-02 1.36555E-01 9.06194E-14 1.88495E-14
 -1      1519 1.71935E+01 3.00982E-02-1.23023E-02-1.41479E-01 4.78029E-14-4.78784E-15
 -1      1520 1.70709E+01 4.96654E-02-5.54017E-03-1.03048E-01 2.49349E-14 1.17441E-14
 -1      1521 1.76887E+01 6.66743E-02-1.62148E-02-1.21392E-01 6.00717E-14-1.45947E-14
 -1      1522 1.77034E+01 1.81182E-02-6.23313E-03-2.51306E-01 7.32053E-16-3.69635E-14
 -1      1523 1.74071E+01 4.02320E-02-2.76987E-03-2.19824E-01 3.74509E-14 1.20442E-14
 -1      1524 1.79642E+01 5.10527E-02-1.44504E-02-3.61581E-01 4.17418E-14-1.88712E-14
 -1      1525 1.84103E+01 3.24325E-03 9.74193E-04-3.06509E-01-9.48959E-15-9.99409E-14
 -1      1526 1.80039E+01 2.24465E-02 8.85659E-04-2.88824E-01-5.73283E-15-5.77420E-14
 -1      1527 1.84556E+01 2.40457E-02-9.30683E-03-5.24025E-01 5.63351E-15 5.50428E-15
 -1      1528 1.91720E+01-9.47127E-03 6.72756E-03-3.03207E-01-5.26697E-14-7.98563E-14
 -1      1529 1.87365E+01 3.16668E-03 3.99266E-03-3.00574E-01-2.47122E-14-1.03476E-13
 -1      1530 1.90595E+01-4.55740E-03-3.11628E-03-5.79643E-01-1.02197E-14-7.31741E-14
 -1      1531 1.98619E+01-1.70607E-02 9.64515E-03-2.55130E-01-2.11701E-14 1.94723E-14
 -1      1532 1.94691E+01-1.19090E-02 5.59361E-03-2.64169E-01-4.16206E-14-7.69523E-15
 -1      1533 1.96633E+01-2.62653E-02 2.04573E-03-5.35952E-01-6.43817E-14-1.62509E-14
 -1      1534 2.03988E+01-1.92045E-02 9.77024E-03-1.83894E-01 7.12069E-14-2.19564E-14
 -1      1535 2.00942E+01-2.02143E-02 5.56756E-03-1.99224E-01 5.97127E-14 4.39770E-14
 -1      1536 2.01784E+01-3.71977E-02 5.14391E-03-4.25512E-01 3.61274E-14 2.08635E-14
 -1      1537 2.07533E+01-1.73290E-02 8.04144E-03-1.09587E-01-1.27060E-14-1.17835E-13
 -1      1538 2.05530E+01-2.21372E-02 4.40960E-03-1.26231E-01 4.66341E-14-5.28154E-14
 -1      1539 2.05561E+01-3.80918E-02 6.18429E-03-2.87830E-01 8.22151E-14 8.89891E-15
 -1      1540 2.09365E+01-1.33683E-02 5.57221E-03-4.56526E-02 6.33259E-14-1.84604E-13
 -1      1541 2.08334E+01-1.96657E-02 2.81095E-03-6.02785E-02 5.55112E-15-1.44500E-13
 -1      1542 2.07861E+01-3.23048E-02 5.75442E-03-1.55288E-01 2.86797E-14-2.52667E-14
 -1      1543 2.09826E+01-8.93032E-03 3.19374E-03 1.81856E-03-9.14655E-15-2.43135E-13
 -1      1544 2.09567E+01-1.50489E-02 1.32088E-03-9.23800E-03 1.12020E-15-1.83807E-13
 -1      1545 2.08854E+01-2.35947E-02 4.55831E-03-4.72322E-02 4.56193E-14-4.55211E-14
 -1      1546 2.09331E+01-5.00090E-03 1.33120E-03 3.22913E-02-4.29733E-14-2.10035E-13
 -1      1547 2.09605E+01-1.00283E-02 2.22698E-04 2.50249E-02-4.10889E-14-2.47094E-13
 -1      1548 2.08843E+01-1.47996E-02 3.15143E-03 2.93051E-02-1.51728E-14-6.10660E-14
 -1      1549 2.08267E+01-2.00007E-03 8.74199E-05 4.83629E-02 9.87897E-14-2.40013E-13
 -1      1550 2.08853E+01-5.62820E-03-4.29984E-04 4.43585E-02 4.91269E-14-1.78987E-13
 -1      1551 2.08162E+01-7.49034E-03 1.86799E-03 7.57669E-02 3.56930E-14-1.19787E-13
 -1      1552 2.06942E+01 2.72795E-05-6.16116E-04 5.37793E-02-4.42901E-14-2.84417E-13
 -1      1553 2.07667E+01-2.26948E-03-7.14689E-04 5.22244E-02 1.13738E-14-2.58840E-13
 -1      1554 2.07106E+01-2.20051E-03 8.55756E-04 9.79112E-02 7.14008E-14-6.13355E-14
 -1      1555 2.05575E+01 1.22685E-03-9.23706E-04 5.22052E-02-1.73611E-13-7.55125E-15
 -1      1556 2.06318E+01 1.43665E-05-7.52140E-04 5.22892E-02-1.34648E-13-2.40376E-13
 -1      1557 2.05903E+01 1.17003E-03 1.41957E-04 1.02709E-01-1.66471E-13-8.68882E-14
 -1      1558 2.04300E+01 1.80745E-03-9.78041E-04 4.66462E-02 1.07683E-13-1.93450E-14
 -1      1559 2.04988E+01 1.38465E-03-6.53666E-04 4.76951E-02 3.64382E-14 3.26857E-14
 -1      1560 2.04709E+01 3.00589E-03-3.08558E-04 9.65535E-02-7.91998E-14-1.45099E-15
 -1      1561 2.03190E+01 1.97058E-03-8.91917E-04 3.92940E-02 9.63540E-14-3.13839E-13
 -1      1562 2.03784E+01 2.06701E-03-5.00632E-04 4.08095E-02 1.18729E-13-1.43155E-13
 -1      1563 2.03619E+01 3.75276E-03-5.54075E-04 8.44954E-02 1.95564E-13-1.51548E-13
 -1      1564 2.02271E+01 1.88028E-03-7.43114E-04 3.15946E-02 7.40732E-14-5.61775E-13
 -1      1565 2.02759E+01 2.27934E-03-3.43089E-04 3.32419E-02 8.55687E-14-3.61221E-13
 -1      1566 2.02682E+01 3.80483E-03-6.54094E-04 7.01160E-02 1.57147E-13-2.85913E-13
 -1      1567 2.01543E+01 1.65657E-03-5.79576E-04 2.44035E-02-8.94866E-14-5.16564E-13
 -1      1568 2.01925E+01 2.20058E-03-2.06611E-04 2.59788E-02-7.49515E-14-5.78635E-13
 -1      1569 2.01912E+01 3.46487E-03-6.59362E-04 5.57133E-02-7.23667E-15-2.91662E-13
 -1      1570 2.00986E+01 1.38004E-03-4.27473E-04 1.81522E-02-1.16496E-14-4.70778E-13
 -1      1571 2.01275E+01 1.96337E-03-1.00602E-04 1.95474E-02-2.90547E-14-5.04418E-13
 -1      1572 2.01303E+01 2.94345E-03-6.08899E-04 4.25977E-02-4.47893E-14-4.13791E-13
 -1      1573 2.00576E+01 1.10037E-03-2.98661E-04 1.29924E-02-9.30453E-14-3.12812E-13
 -1      1574 2.00786E+01 1.65837E-03-2.52287E-05 1.41636E-02-4.04514E-14-4.14580E-13
 -1      1575 2.00839E+01 2.37466E-03-5.30499E-04 3.13854E-02-7.47458E-14-2.89779E-13
 -1      1576 2.00285E+01 8.45028E-04-1.96398E-04 8.90661E-03 7.94750E-15-2.42160E-13
 -1      1577 2.00432E+01 1.34281E-03 2.37706E-05 9.84958E-03-4.44084E-14-2.58955E-13
 -1      1578 2.00496E+01 1.83584E-03-4.42629E-04 2.22438E-02-6.51104E-14-9.38591E-15
 -1      1579 2.00087E+01 6.26614E-04-1.19285E-04 5.78609E-03 9.42370E-15-3.42521E-13
 -1      1580 2.00185E+01 1.04942E-03 5.21521E-05 6.51910E-03-1.83779E-14-3.60418E-13
 -1      1581 2.00253E+01 1.36547E-03-3.56645E-04 1.50757E-02 7.27389E-14-1.85309E-13
 -1      1582 1.99961E+01 4.48472E-04-6.37822E-05 3.48288E-03-8.73272E-14-1.76959E-13
 -1      1583 2.00022E+01 7.94276E-04 6.55772E-05 4.03470E-03-3.50396E-14-2.98028E-13
 -1      1584 2.00087E+01 9.77332E-04-2.78820E-04 9.64770E-03-3.34644E-15-2.31852E-13
 -1      1585 1.99886E+01 3.08647E-04-2.56925E-05 1.84146E-03 8.32962E-14-3.00566E-13
 -1      1586 1.99920E+01 5.82731E-04 6.88871E-05 2.24403E-03 2.39249E-14-1.95184E-13
 -1      1587 1.99980E+01 6.70734E-04-2.12003E-04 5.67378E-03 4.88478E-14-2.08540E-13
 -1      1588 1.99848E+01 2.02548E-04-9.70177E-07 7.16572E-04 1.47426E-13-6.43820E-13
 -1      1589 1.99864E+01 4.13843E-04 6.58780E-05 1.00068E-03 1.89289E-13-4.19621E-13
 -1      1590 1.99916E+01 4.37418E-04-1.56880E-04 2.86551E-03 3.06195E-13-2.77547E-13
 -1      1591 1.99835E+01 1.24602E-04 1.39070E-05-1.81992E-05-2.17864E-14-7.57826E-13
 -1      1592 1.99838E+01 2.83326E-04 5.93379E-05 1.74850E-04-7.41800E-14-8.19192E-13
 -1      1593 1.99882E+01 2.65971E-04-1.12867E-04 9.59521E-04 8.55601E-14-4.64752E-13
 -1      1594 1.99838E+01 6.92287E-05 2.18142E-05-4.67593E-04 5.50665E-14-7.51954E-13
 -1      1595 1.99833E+01 1.85465E-04 5.11980E-05-3.42442E-04 3.90316E-14-6.94543E-13
 -1      1596 1.99870E+01 1.44426E-04-7.87250E-05-2.70100E-04-1.91607E-14-5.02220E-13
 -1      1597 1.99851E+01 3.13458E-05 2.49920E-05-7.15114E-04 1.39061E-14-7.33009E-13
 -1      1598 1.99842E+01 1.14272E-04 4.27165E-05-6.39066E-04 1.47785E-14-7.05210E-13
 -1      1599 1.99871E+01 6.16649E-05-5.29513E-05-1.00857E-03-4.34807E-14-5.71037E-13
 -1      1600 1.99869E+01 6.58736E-06 2.51218E-05-8.25157E-04 8.92081E-14-8.63194E-13
 -1      1601 1.99858E+01 6.41252E-05 3.46518E-05-7.83453E-04 6.91202E-14-8.06517E-13
 -1      1602 1.99880E+01 8.04719E-06-3.40186E-05-1.40230E-03 1.47217E-13-5.49747E-13
 -1      1603 1.99889E+01-8.65623E-06 2.34260E-05-8.45798E-04 4.81913E-14-8.77388E-13
 -1      1604 1.99877E+01 3.00591E-05 2.74092E-05-8.27208E-04-2.59754E-14-9.20641E-13
 -1      1605 1.99895E+01-2.44130E-05-2.05055E-05-1.56326E-03 4.20824E-14-5.77200E-13
 -1      1606 1.99909E+01-1.72991E-05 2.07724E-05-8.11638E-04 2.47417E-14-9.62855E-13
 -1      1607 1.99898E+01 7.84973E-06 2.11572E-05-8.07905E-04 9.96060E-14-7.91351E-13
 -1      1608 1.99911E+01-4.21410E-05-1.11553E-05-1.57430E-03 1.55632E-13-5.21033E-13
 -1      1609 1.99929E+01-2.16738E-05 1.77814E-05-7.46338E-04-1.00198E-13-7.15142E-13
 -1      1610 1.99918E+01-6.04162E-06 1.59189E-05-7.51682E-04-7.41974E-14-8.89170E-13
 -1      1611 1.99927E+01-5.02369E-05-4.88595E-06-1.49422E-03-6.04690E-14-4.01108E-13
 -1      1612 1.99947E+01-2.36735E-05 1.49534E-05-6.64667E-04 4.42668E-16-7.78037E-13
 -1      1613 1.99937E+01-1.46114E-05 1.16552E-05-6.75382E-04-3.34589E-14-7.81869E-13
 -1      1614 1.99943E+01-5.27862E-05-7.59764E-07-1.36230E-03-6.26466E-14-3.80732E-13
 -1      1615 1.99962E+01-2.49058E-05 1.28553E-05-5.73916E-04-5.87013E-14-9.29645E-13
 -1      1616 1.99954E+01-2.05231E-05 8.37575E-06-5.88151E-04 2.68897E-14-8.52247E-13
 -1      1617 1.99957E+01-5.32330E-05 2.09140E-06-1.20173E-03 2.23726E-14-5.55926E-13
 -1      1618 1.99975E+01-2.67989E-05 1.23275E-05-4.74720E-04-7.53826E-14-8.98458E-13
 -1      1619 1.99968E+01-2.63364E-05 6.29789E-06-4.92440E-04-5.10522E-14-9.55002E-13
 -1      1620 1.99970E+01-5.47090E-05 4.60661E-06-1.02201E-03-1.18067E-13-5.76493E-13
 -1      1621 1.99986E+01-3.05592E-05 1.41666E-05-3.61755E-04-1.74678E-14-8.48292E-13
 -1      1622 1.99980E+01-3.45050E-05 5.94048E-06-3.84749E-04-7.22539E-14-8.96551E-13
 -1      1623 1.99980E+01-6.02164E-05 7.83790E-06-8.20634E-04-7.02044E-14-3.17932E-13
 -1      1624 1.99993E+01-3.63120E-05 1.55085E-05-2.24662E-04 3.93775E-14-9.62722E-13
 -1      1625 1.99989E+01-4.71037E-05 6.98513E-06-2.57382E-04 3.80758E-14-8.04681E-13
 -1      1626 1.99989E+01-7.25112E-05 1.16494E-05-5.85765E-04 5.14378E-14-5.39692E-13
 -1      1627 1.99997E+01-4.20347E-05-1.46178E-06-6.92155E-05-4.67187E-14-6.51963E-13
 -1      1628 1.99995E+01-5.76766E-05 4.59330E-06-1.08644E-04-1.30911E-15-8.20748E-13
 -1      1629 1.99994E+01-8.94792E-05 1.15336E-05-3.09043E-04 4.78518E-14-4.56475E-13
 -1      1630 1.99998E+01-2.00098E-05-8.28654E-06 3.79486E-06-3.82827E-13-3.98447E-13
 -1      1631 1.99997E+01-3.58472E-04 8.50509E-06-1.85129E-04-3.80825E-13 1.60147E-13
 -1      1632 1.99997E+01-1.80133E-04-3.32379E-06-1.45167E-04-5.33439E-13 1.53054E-13
 -1      1633 1.99998E+01-9.75344E-04 4.76722E-06-3.25404E-04-1.20546E-13 1.89152E-13
 -1      1634 1.99997E+01-6.14407E-04 5.40845E-06-2.98003E-04-4.10678E-13 3.20042E-13
 -1      1635 1.99997E+01-5.81191E-04 1.14151E-05-4.76594E-04-2.19173E-13 3.77247E-13
 -1      1636 1.99998E+01-1.77181E-03 9.06460E-07-3.97686E-04-3.19074E-13-2.09522E-13
 -1      1637 1.99998E+01-1.30856E-03 3.63123E-06-3.89065E-04 2.11128E-14-4.78512E-14
 -1      1638 1.99997E+01-1.16554E-03 8.21741E-06-6.92840E-04-2.08990E-13 7.21379E-14
 -1      1639 1.99998E+01-2.61456E-03-1.03649E-06-4.02066E-04-2.26499E-13-1.00172E-13
 -1      1640 1.99998E+01-2.13483E-03 9.59290E-07-4.06707E-04-1.86266E-13 3.96313E-14
 -1      1641 1.99998E+01-1.85855E-03 6.86355E-07-7.76793E-04-1.72974E-13-6.76179E-14
 -1      1642 1.99998E+01-3.37006E-03-1.56630E-06-3.49886E-04-5.74780E-13-1.66036E-13
 -1      1643 1.99998E+01-2.95185E-03-8.38039E-08-3.64280E-04-3.88296E-13-3.12062E-13
 -1      1644 1.99998E+01-2.55371E-03-5.71568E-06-7.39940E-04-3.13347E-13-4.30408E-13
 -1      1645 1.99998E+01-3.96550E-03-1.52459E-06-2.52953E-04-8.11324E-13 3.51774E-14
 -1      1646 1.99998E+01-3.65042E-03-5.91652E-07-2.74958E-04-7.91582E-13-2.44928E-13
 -1      1647 1.99999E+01-3.16516E-03-1.04107E-05-6.03527E-04-6.67473E-13-4.53528E-13
 -1      1648 1.99999E+01-4.31459E-03-1.23600E-06-1.26653E-04-7.34892E-13 1.52366E-15
 -1      1649 1.99998E+01-4.14756E-03-7.66168E-07-1.53034E-04-8.78261E-13 3.13178E-13
 -1      1650 1.99999E+01-3.62183E-03-1.36629E-05-3.92293E-04-5.54025E-13 8.18322E-14
 -1      1651 1.99999E+01-4.37795E-03-9.65817E-07 1.37850E-05 1.82089E-13 5.15770E-13
 -1      1652 1.99999E+01-4.37788E-03-9.75439E-07-1.40975E-05-4.78169E-13 4.57555E-13
 -1      1653 1.99999E+01-3.86424E-03-1.52984E-05-1.36053E-04-3.00852E-13 5.09914E-13
 -1      1654 1.99998E+01-4.14794E-03-7.50604E-07 1.53046E-04 2.70537E-13-1.32155E-13
 -1      1655 1.99999E+01-4.31521E-03-1.26924E-06 1.26562E-04 2.24614E-13 2.47940E-13
 -1      1656 1.99999E+01-3.86489E-03-1.53344E-05 1.35605E-04-1.13114E-13 6.12859E-13
 -1      1657 1.99998E+01-3.64996E-03-5.14096E-07 2.75655E-04 6.95573E-14-1.37868E-13
 -1      1658 1.99998E+01-3.96601E-03-1.63150E-06 2.53551E-04 2.76015E-13-1.85897E-13
 -1      1659 1.99999E+01-3.62334E-03-1.37239E-05 3.92839E-04 1.50561E-13-1.65073E-13
 -1      1660 1.99998E+01-2.95536E-03-1.32514E-07 3.64863E-04 2.40188E-13 1.74267E-13
 -1      1661 1.99998E+01-3.37491E-03-1.65477E-06 3.50387E-04 8.31146E-14-6.28843E-14
 -1      1662 1.99999E+01-3.17109E-03-1.06009E-05 6.04233E-04 2.11667E-14-9.29781E-14
 -1      1663 1.99998E+01-2.12897E-03 1.08068E-06 4.08386E-04 1.90759E-13-1.90733E-13
 -1      1664 1.99998E+01-2.61097E-03-9.99031E-07 4.03802E-04 3.33634E-13 8.22427E-14
 -1      1665 1.99998E+01-2.55863E-03-5.68285E-06 7.42159E-04 7.69708E-14 5.30321E-14
 -1      1666 1.99998E+01-1.30036E-03 3.41874E-06 3.89861E-04 2.41372E-13-2.34150E-14
 -1      1667 1.99998E+01-1.76442E-03 1.14035E-06 3.98905E-04 2.41352E-13-2.91614E-14
 -1      1668 1.99998E+01-1.85544E-03 7.57275E-07 7.79664E-04 3.49062E-13-1.67874E-13
 -1      1669 1.99997E+01-6.06540E-04 5.24501E-06 2.97824E-04 4.88812E-13 2.63716E-13
 -1      1670 1.99998E+01-9.65903E-04 5.60048E-06 3.24886E-04 1.92672E-13 7.39140E-14
 -1      1671 1.99997E+01-1.16044E-03 8.09790E-06 6.92184E-04 2.55738E-13-2.63721E-14
 -1      1672 1.99997E+01-2.02648E-04-6.85731E-07 1.53208E-04 8.24351E-13 1.62391E-13
 -1      1673 1.99998E+01-3.92846E-04 1.06860E-05 1.94971E-04 5.02138E-13 3.97504E-13
 -1      1674 1.99997E+01-6.25808E-04 1.35130E-05 4.88035E-04 1.52810E-13 3.39714E-13
 -1      1675 1.99997E+01-2.72979E-04 4.17506E-06 2.44133E-04 1.53852E-13 2.38883E-13
 -1      1676-5.64245E-01-1.52186E+01-1.67886E+00-5.94524E-01 1.30174E-12 6.85063E-13
 -1      1677-6.26020E-01-1.78455E+01-1.91618E+00 7.88547E-01 5.71709E-13 4.68459E-13
 -1      1678 1.58074E+00-7.91035E+00-1.13851E+00 9.88534E-01 1.82965E-12 9.87849E-13
 -1      1679 7.58364E-01-1.34034E+01-1.69136E+00 3.28070E-01 1.45661E-12 6.95694E-13
 -1      1680 7.32893E+00-2.80355E-02-4.82717E-01 5.10016E+00 1.81677E-12 1.16285E-12
 -1      1681 4.20015E+00-5.69279E+00-1.23879E+00 2.18918E+00 1.87317E-12 9.50517E-13
 -1      1682 1.73234E+01 5.55544E+00 1.99022E-01 1.01901E+01 1.58118E-12 1.53189E-12
 -1      1683 1.09309E+01 2.19469E+00-6.31409E-01 6.43945E+00 1.70308E-12 1.36668E-12
 -1      1684 3.27786E+01 6.30046E+00 9.32990E-01 1.24859E+01 9.76774E-13 1.17872E-12
 -1      1685 2.34872E+01 5.85575E+00 1.33215E-01 1.04136E+01 1.37845E-12 1.26787E-12
 -1      1686 4.67858E+01 5.75397E+00 1.63752E+00 1.16278E+01 6.99191E-13 7.42073E-13
 -1      1687 3.78666E+01 7.36325E+00 9.31235E-01 1.30444E+01 9.51295E-13 1.18572E-12
 -1      1688 5.57230E+01 3.78848E+00 1.86485E+00 4.88664E+00 3.42948E-13-2.25042E-13
 -1      1689 5.05975E+01 5.28250E+00 1.54574E+00 9.67556E+00 5.75928E-13 4.53859E-13
 -1      1690 5.56095E+01 3.95810E+00 1.72710E+00-3.75917E+00 5.02237E-13-1.26560E-12
 -1      1691 5.63964E+01 3.78055E+00 1.80261E+00 1.94596E+00 3.47000E-13-5.91638E-13
 -1      1692 4.77860E+01 5.73186E+00 1.36973E+00-1.04246E+01 9.96772E-13-2.04525E-12
 -1      1693 5.38573E+01 4.12699E+00 1.76003E+00-6.37111E+00 6.72712E-13-1.54099E-12
 -1      1694 3.47707E+01 7.46065E+00 7.72415E-01-1.29639E+01 1.62420E-12-2.44493E-12
 -1      1695 4.39010E+01 6.07844E+00 1.49465E+00-1.23167E+01 1.18175E-12-2.23244E-12
 -1      1696 2.03585E+01 4.95011E+00-6.13729E-02-9.45306E+00 1.97375E-12-2.13429E-12
 -1      1697 2.96808E+01 6.13641E+00 8.01188E-01-1.22633E+01 1.68854E-12-2.29261E-12
 -1      1698 8.27001E+00-3.62035E-02-8.77912E-01-4.83790E+00 2.26197E-12-1.79357E-12
 -1      1699 1.39418E+01 4.33799E+00-2.28747E-02-8.77569E+00 2.24887E-12-2.25120E-12
 -1      1700 2.51595E+00-8.37319E+00-1.46391E+00-9.99399E-01 1.86273E-12-1.09646E-12
 -1      1701 4.71233E+00-2.35687E+00-7.59649E-01-3.30258E+00 2.21689E-12-1.53610E-12
 -1      1702 2.16112E-01-1.51352E+01-1.75410E+00-2.94785E-01 8.93619E-13-6.24528E-13
 -1      1703 6.17921E-01-1.04272E+01-1.32248E+00-1.45242E-01 1.58806E-12-9.22984E-13
 -1      1704-8.24638E-01-1.71457E+01-1.76925E+00-1.25982E+00-3.22270E-13-5.23803E-13
 -1      1705-7.16083E-01-1.59773E+01-1.66917E+00 3.87569E-01 5.70988E-13-6.01436E-13
 -1      1706-2.85973E-01-1.33859E+01-1.52217E+00-1.14353E+00-1.33871E-12-8.53609E-13
 -1      1707-3.61791E-01-1.63671E+01-1.71235E+00-2.72583E-01-5.98160E-13-5.81174E-13
 -1      1708 2.02171E+00-7.31937E+00-1.32930E+00 3.85853E-01-2.25908E-12-1.58729E-12
 -1      1709 9.96009E-01-1.26375E+01-1.80034E+00-6.84860E-01-1.71019E-12-1.05629E-12
 -1      1710 9.22969E+00 7.62214E-02-6.70236E-01 5.25865E+00-2.51776E-12-2.26075E-12
 -1      1711 5.08560E+00-5.33330E+00-1.47675E+00 1.77656E+00-2.38765E-12-1.76437E-12
 -1      1712 2.25514E+01 4.55360E+00 2.70542E-01 1.04352E+01-2.13141E-12-2.49600E-12
 -1      1713 1.45519E+01 1.51455E+00-7.46748E-01 6.61638E+00-2.39320E-12-2.27995E-12
 -1      1714 3.97243E+01 5.87862E+00 1.37015E+00 1.28460E+01-1.48093E-12-2.29838E-12
 -1      1715 2.84239E+01 5.84575E+00 2.24360E-01 1.11588E+01-2.02172E-12-2.55440E-12
 -1      1716 5.49177E+01 4.45468E+00 2.21190E+00 9.32737E+00-8.10154E-13-1.55131E-12
 -1      1717 4.54730E+01 6.08677E+00 1.37778E+00 1.18599E+01-1.25230E-12-2.12386E-12
 -1      1718 6.15730E+01 3.70812E+00 2.49924E+00 1.32377E+00-5.13811E-13-5.58303E-13
 -1      1719 5.78688E+01 4.64193E+00 2.22158E+00 7.04342E+00-6.92585E-13-1.28320E-12
 -1      1720 5.79476E+01 4.45627E+00 2.18618E+00-6.44722E+00-5.62606E-13 5.25358E-13
 -1      1721 6.14827E+01 3.70942E+00 2.48968E+00-1.03487E+00-4.88054E-13-2.55185E-13
 -1      1722 4.69871E+01 5.70216E+00 1.46256E+00-1.12188E+01-7.83984E-13 1.25477E-12
 -1      1723 5.53656E+01 4.26355E+00 2.19594E+00-8.55872E+00-5.41404E-13 8.22120E-13
 -1      1724 3.21006E+01 5.81929E+00 4.82737E-01-1.14155E+01-1.31084E-12 1.65912E-12
 -1      1725 4.20689E+01 5.44303E+00 1.45009E+00-1.21868E+01-9.02167E-13 1.44107E-12
 -1      1726 1.81767E+01 3.16342E+00-4.54341E-01-8.05414E+00-1.84963E-12 1.79390E-12
 -1      1727 2.65108E+01 5.17102E+00 5.26688E-01-1.12396E+01-1.48237E-12 1.72884E-12
 -1      1728 8.51176E+00-3.07042E+00-1.18268E+00-3.39531E+00-1.99329E-12 1.52323E-12
 -1      1729 1.37941E+01 1.26626E+00-3.52822E-01-6.92917E+00-1.84186E-12 1.64646E-12
 -1      1730 2.15326E+00-9.81929E+00-1.71989E+00 1.93114E-01-1.74383E-12 1.08413E-12
 -1      1731 4.18499E+00-4.48175E+00-1.10046E+00-1.89456E+00-2.01617E-12 1.57030E-12
 -1      1732 1.61745E-02-1.55720E+01-1.85809E+00 1.02891E+00-9.49130E-13 6.66189E-13
 -1      1733 3.27483E-01-1.13928E+01-1.52479E+00 1.05233E+00-1.58307E-12 9.72583E-13
 -1      1734-7.46086E-01-1.74982E+01-1.81903E+00 2.80026E-01 2.64466E-13 5.30964E-13
 -1      1735-8.83400E-01-1.62450E+01-1.74625E+00 1.70232E+00-5.99132E-13 7.11209E-13
 -1      1736 1.43369E+01-2.62425E+00-3.17041E-01 7.02666E+00 1.00076E-12 7.29750E-13
 -1      1737-1.53406E+00-1.20227E+01-1.32696E+00 8.49773E-01 1.99757E-13 9.65950E-13
 -1      1738 1.99997E+01-6.09959E-05 4.06365E-06-6.43222E-05-4.89738E-13-5.85829E-14
 -1      1739 1.99996E+01-2.26421E-04 8.87367E-07-2.43944E-04-6.35833E-14 1.79230E-14
 -1      1740 6.56569E-01-1.06572E+01-1.19054E+00 3.05395E+00 6.92113E-13 8.35221E-13
 -1      1741 6.26062E+00-7.02981E+00-7.97416E-01 5.24742E+00 9.00946E-13 6.83162E-13
 -1      1742 2.52502E+01 1.17516E+00 3.38621E-01 7.83888E+00 9.11660E-13 6.40044E-13
 -1      1743 3.53538E+01 4.06342E+00 6.77234E-01 6.82865E+00 7.84039E-13 3.48832E-13
 -1      1744 4.43865E+01 6.78015E+00 1.36627E+00 5.60901E+00 8.44103E-13 7.23865E-14
 -1      1745 4.85314E+01 7.61863E+00 1.56428E+00 1.77131E+00 7.37410E-13-4.26381E-13
 -1      1746 4.75258E+01 7.55764E+00 1.48335E+00-2.36637E+00 8.89566E-13-9.33476E-13
 -1      1747 4.25177E+01 6.46411E+00 1.25704E+00-5.90769E+00 1.06021E-12-1.31073E-12
 -1      1748 3.33165E+01 3.34291E+00 5.88867E-01-7.08547E+00 1.13082E-12-1.37912E-12
 -1      1749 2.26649E+01 1.04882E-01 2.08906E-01-7.69753E+00 1.20148E-12-1.38445E-12
 -1      1750 1.13825E+01-3.91227E+00-5.00919E-01-6.34557E+00 1.29841E-12-1.35775E-12
 -1      1751 3.92129E+00-8.31441E+00-1.00141E+00-4.33481E+00 8.93174E-13-1.10338E-12
 -1      1752-3.61517E-01-1.08898E+01-1.22042E+00-2.32425E+00 3.20022E-13-1.01796E-12
 -1      1753-1.13057E+00-1.08093E+01-1.16018E+00 2.87966E-01-2.51424E-13-1.02079E-12
 -1      1754 1.72992E+00-9.99554E+00-1.16935E+00 2.49802E+00-7.58560E-13-1.14858E-12
 -1      1755 7.86734E+00-7.33696E+00-9.71918E-01 4.37048E+00-1.28730E-12-1.42866E-12
 -1      1756 1.79687E+01-3.39415E+00-3.56622E-01 6.25222E+00-1.44407E-12-1.47904E-12
 -1      1757 2.98615E+01 4.68897E-01 3.14900E-01 6.75798E+00-1.37979E-12-1.39844E-12
 -1      1758 4.16801E+01 4.23357E+00 1.20027E+00 5.89631E+00-1.24890E-12-1.27220E-12
 -1      1759 4.98023E+01 6.76784E+00 1.82844E+00 3.20132E+00-1.01619E-12-9.92206E-13
 -1      1760 5.20996E+01 7.92157E+00 2.01672E+00 2.12395E-01-8.82461E-13-4.09839E-13
 -1      1761 4.99226E+01 6.77319E+00 1.82191E+00-2.66418E+00-8.01637E-13 9.23706E-14
 -1      1762 4.29100E+01 4.40258E+00 1.26187E+00-5.21848E+00-8.04676E-13 5.98410E-13
 -1      1763 3.25710E+01 1.34823E+00 5.15891E-01-6.53551E+00-1.03434E-12 8.26006E-13
 -1      1764 2.16860E+01-2.63142E+00-2.24044E-01-6.25779E+00-1.10190E-12 9.06830E-13
 -1      1765 1.18567E+01-6.20858E+00-7.02166E-01-5.19554E+00-9.51017E-13 9.56235E-13
 -1      1766 3.92015E+00-9.43656E+00-1.15974E+00-3.12983E+00-8.12239E-13 9.93428E-13
 -1      1767-2.66982E-01-1.13177E+01-1.26769E+00-1.20269E+00-3.41283E-13 1.15780E-12
 -1      1768 2.47480E+01 1.97009E+00-2.39819E-02-2.13986E+00-2.64927E-13 1.05216E-12
 -1      1769 2.00013E+01 4.07058E+00-4.46524E-02-1.10258E+00-3.54137E-13-4.13919E-13
 -1      1770 2.07442E+01 3.88334E+00-2.51185E-02-1.35489E+00-3.91052E-13-2.98758E-13
 -1      1771 2.15269E+01 3.34640E+00-5.20844E-02-1.51221E+00-3.95121E-13-1.50047E-13
 -1      1772 2.22133E+01 2.91751E+00-1.17629E-01-1.81909E+00-4.15955E-13 6.40946E-14
 -1      1773 2.13721E+01 3.01055E+00 6.27332E-03-1.05631E+00-4.08965E-13-2.02210E-13
 -1      1774 1.79690E+01 4.73836E+00-1.97981E-02-7.93295E-01-2.17402E-13-6.33325E-13
 -1      1775 1.83327E+01 4.71390E+00-1.05918E-02-8.58083E-01-2.52539E-13-6.05127E-13
 -1      1776 1.75425E+01 4.79710E+00-1.05189E-02-7.76692E-01-1.49750E-13-6.68886E-13
 -1      1777 1.77066E+01 4.80826E+00-1.08344E-02-8.13176E-01-1.81439E-13-6.54297E-13
 -1      1778 1.78880E+01 4.54134E+00 7.75225E-04-7.71147E-01-2.21655E-13-6.27528E-13
 -1      1779 1.74962E+01 4.72766E+00-4.30268E-03-7.42746E-01-7.58269E-14-6.64557E-13
 -1      1780 1.74748E+01 4.76017E+00-1.31850E-02-7.91040E-01-1.08908E-13-6.66254E-13
 -1      1781 1.75505E+01 4.56199E+00-1.23917E-03-8.11813E-01-1.40074E-13-6.49141E-13
 -1      1782 1.77446E+01 4.57921E+00-1.64104E-03-6.22180E-01-6.91114E-15-6.44504E-13
 -1      1783 1.75872E+01 4.62032E+00-1.51469E-02-7.10561E-01-3.48718E-14-6.56723E-13
 -1      1784 1.76051E+01 4.42399E+00-5.01759E-03-7.92174E-01-6.92317E-14-6.40403E-13
 -1      1785 1.81748E+01 4.40245E+00-2.26244E-03-3.81376E-01 6.55938E-14-6.25203E-13
 -1      1786 1.79402E+01 4.44164E+00-1.63606E-02-5.22575E-01 2.90948E-14-6.30170E-13
 -1      1787 1.79457E+01 4.19863E+00-9.19901E-03-6.51796E-01 5.10789E-15-6.12297E-13
 -1      1788 1.86812E+01 4.23461E+00-5.43316E-03-2.04158E-02 1.20022E-13-5.96252E-13
 -1      1789 1.84200E+01 4.26630E+00-1.72369E-02-2.13942E-01 9.82231E-14-6.21534E-13
 -1      1790 1.84470E+01 3.95145E+00-1.24331E-02-3.72890E-01 8.05445E-14-5.90061E-13
 -1      1791 1.91854E+01 4.09167E+00-1.01839E-02 4.30656E-01 1.98842E-13-5.39133E-13
 -1      1792 1.89315E+01 4.11593E+00-1.86203E-02 1.97235E-01 1.63689E-13-5.77064E-13
 -1      1793 1.89978E+01 3.72517E+00-1.39827E-02 2.28695E-02 1.53226E-13-5.61750E-13
 -1      1794 1.96830E+01 3.95360E+00-1.66210E-02 9.60075E-01 2.95680E-13-4.35540E-13
 -1      1795 1.94327E+01 3.98101E+00-2.16406E-02 6.86319E-01 2.46555E-13-4.89745E-13
 -1      1796 1.95396E+01 3.52314E+00-1.42489E-02 5.01748E-01 2.37178E-13-4.86404E-13
 -1      1797 2.01969E+01 3.77105E+00-2.71162E-02 1.53688E+00 3.82234E-13-3.08586E-13
 -1      1798 1.99312E+01 3.82440E+00-2.78899E-02 1.23016E+00 3.31391E-13-3.84224E-13
 -1      1799 2.00699E+01 3.31206E+00-1.30018E-02 1.02644E+00 3.32016E-13-3.74848E-13
 -1      1800 2.08286E+01 3.42511E+00-4.71736E-02 2.13561E+00 4.38420E-13-7.57103E-14
 -1      1801 2.04887E+01 3.56430E+00-3.91357E-02 1.79405E+00 4.03094E-13-2.11577E-13
 -1      1802 2.06351E+01 3.01627E+00-8.75657E-03 1.54197E+00 4.09710E-13-2.30219E-13
 -1      1803 2.18352E+01 2.61915E+00-6.45122E-02 2.60169E+00 4.43077E-13 3.47306E-13
 -1      1804 2.12529E+01 3.03828E+00-5.08001E-02 2.31792E+00 4.32702E-13 9.64437E-14
 -1      1805 2.13331E+01 2.47362E+00-1.56041E-03 1.94395E+00 4.52974E-13 3.20230E-14
 -1      1806 2.27357E+01 1.17267E+00-1.26718E-01 2.13701E+00 3.72632E-13 8.84320E-13
 -1      1807 2.22424E+01 2.24027E+00 2.81081E-03 2.51557E+00 4.08652E-13 5.33185E-13
 -1      1808 2.19266E+01 1.60490E+00-1.46780E-02 1.91410E+00 4.54676E-13 3.67460E-13
 -1      1809 2.20272E+01 7.32066E-01-6.04032E-02 1.34809E+00 3.86094E-13 7.73314E-13
 -1      1810 2.37200E+01 2.43512E+00 8.08552E-02-2.19701E+00-3.60505E-13 4.33736E-13
 -1      1811 2.12586E+01 2.34499E-01-6.88323E-03 5.78769E-01 2.59150E-13 5.93386E-13
 -1      1812 2.17480E+01 3.79648E-01-1.62153E-02 9.08396E-01 3.06505E-13 6.98729E-13
 -1      1813 2.17984E+01 7.68985E-01 5.11028E-03 1.25074E+00 3.51445E-13 4.76305E-13
 -1      1814 2.33499E+01 1.81558E+00 7.74070E-02-1.35496E+00-3.84054E-13 2.78527E-13
 -1      1815 2.30204E+01 6.81163E-01 3.33070E-02 2.50669E-01-2.86694E-13 2.27104E-13
 -1      1816 2.30318E+01 5.84013E-01 2.71491E-02 6.58027E-01-2.48957E-13 1.55063E-13
 -1      1817 2.30476E+01 5.13851E-01 2.61859E-02 1.07519E+00-2.22662E-13 1.60599E-13
 -1      1818 2.33850E+01 4.50753E-01 2.42707E-02 1.36149E+00-1.83466E-13 9.85306E-14
 -1      1819 2.24801E+01 8.42664E-01-1.21953E-02 9.56929E-01-2.68476E-13 4.19109E-15
 -1      1820 2.35427E+01 3.92266E-01 1.55100E-02 1.68509E+00-1.30800E-13 1.12320E-13
 -1      1821 2.40808E+01 2.96141E-01 1.11038E-02 1.88310E+00-9.27106E-14 7.97296E-14
 -1      1822 2.26642E+01 6.29167E-01-1.24192E-02 1.78447E+00-1.83053E-13-1.04977E-14
 -1      1823 2.44260E+01 1.67191E-01 1.29790E-02 2.09444E+00-4.21674E-14 1.13857E-13
 -1      1824 2.50958E+01-5.87029E-02-8.69887E-03 2.12388E+00 1.61702E-14 1.12521E-13
 -1      1825 2.31521E+01 3.23904E-01-1.68147E-02 2.39423E+00-6.43083E-14 6.48179E-15
 -1      1826 2.56590E+01-3.22110E-01 2.24546E-02 2.07994E+00 6.03042E-14 1.58975E-13
 -1      1827 2.62507E+01-7.20557E-01-3.32126E-02 1.78179E+00 7.65325E-14 1.67099E-13
 -1      1828 2.40032E+01-3.29299E-01-2.73042E-02 2.62442E+00 4.31322E-14 7.23328E-14
 -1      1829 2.71482E+01-1.14319E+00 4.05886E-02 1.29618E+00 9.99444E-14 2.12302E-13
 -1      1830 2.74937E+01-1.63409E+00-5.54527E-02 5.36578E-01 1.01131E-13 2.77440E-13
 -1      1831 2.53373E+01-1.44207E+00-4.10446E-02 2.15755E+00 1.14058E-13 1.00991E-13
 -1      1832 2.87091E+01-2.00222E+00 3.03745E-02-5.57287E-01 1.05548E-13 2.99797E-13
 -1      1833 2.86229E+01-2.05573E+00-5.18536E-02-1.65919E+00 1.87836E-14 3.73956E-13
 -1      1834 2.73339E+01-2.71426E+00-4.77773E-02 6.20833E-01 1.28474E-13 2.02050E-13
 -1      1835 2.96441E+01-1.73990E+00-8.69496E-02-2.91818E+00-1.14485E-13 3.86653E-13
 -1      1836 2.91707E+01-6.25999E-01-4.76887E-02-3.60411E+00-2.10110E-13 2.95854E-13
 -1      1837 2.96669E+01-2.65014E+00-3.51335E-02-1.93116E+00-5.95739E-14 2.86222E-13
 -1      1838 2.79516E+01 2.71710E+00-2.00266E-01-1.67345E+00-5.98244E-13-1.27818E-13
 -1      1839 2.78458E+01 3.06544E+00-1.99901E-01-1.35366E-01-6.20781E-13-2.96395E-13
 -1      1840 2.79013E+01 2.79217E+00-1.43594E-01 1.96832E+00-5.80758E-13-4.62744E-13
 -1      1841 2.84787E+01 1.54406E+00-2.36204E-01 3.40525E+00-4.38816E-13-6.64011E-13
 -1      1842 3.03973E+01 4.06145E+00-1.07076E-01 1.05486E+00-7.19425E-13-3.92558E-13
 -1      1843 2.89474E+01 4.67311E-01-6.19589E-02 3.92576E+00-3.00079E-13-8.42694E-13
 -1      1844 2.96455E+01-9.35344E-01-1.34721E-01 3.81914E+00-1.07886E-13-8.75099E-13
 -1      1845 2.90642E+01-1.66123E+00-4.58119E-02 2.75135E+00 2.45416E-14-9.24739E-13
 -1      1846 2.94178E+01-2.01879E+00-7.59051E-03 1.63498E+00 1.79693E-13-9.07619E-13
 -1      1847 3.03134E+01-1.77497E+00-5.39166E-02 3.23119E+00-5.51642E-14-8.71227E-13
 -1      1848 2.83433E+01-1.79200E+00-5.72008E-02 3.72683E-01 1.74236E-13-9.04787E-13
 -1      1849 2.81883E+01-1.39610E+00 4.03183E-02-5.69424E-01 1.47278E-13-8.94115E-13
 -1      1850 2.84734E+01-2.66373E+00-3.56615E-02 6.03107E-01 1.31055E-13-1.00697E-12
 -1      1851 2.72187E+01-1.00446E+00-4.51677E-02-1.29236E+00 9.13193E-14-7.45282E-13
 -1      1852 2.67154E+01-5.59674E-01 2.82989E-02-1.77179E+00 1.36759E-13-7.22020E-13
 -1      1853 2.65371E+01-1.75004E+00-3.07541E-02-1.43957E+00 1.56323E-13-8.51609E-13
 -1      1854 2.60078E+01-2.89196E-01-2.34797E-02-1.99219E+00 1.13628E-13-6.62102E-13
 -1      1855 2.53483E+01-1.99402E-02 9.20608E-03-2.09719E+00 5.85721E-14-6.58496E-13
 -1      1856 2.50145E+01-6.55995E-01-2.35812E-02-2.37075E+00 1.62793E-13-6.85684E-13
 -1      1857 2.48522E+01 1.02016E-01-4.17726E-03-2.03311E+00 4.47569E-14-6.07001E-13
 -1      1858 2.41873E+01 2.13553E-01 8.52332E-04-1.94336E+00 9.97043E-14-5.38581E-13
 -1      1859 2.39026E+01 2.96248E-02-1.39916E-02-2.49760E+00 5.28293E-14-5.37972E-13
 -1      1860 2.38184E+01 2.45594E-01 7.76526E-03-1.76823E+00 3.27230E-14-4.84671E-13
 -1      1861 2.32292E+01 2.69374E-01-5.94932E-04-1.61136E+00-1.74535E-14-4.10656E-13
 -1      1862 2.30651E+01 3.17122E-01-7.07502E-03-2.22473E+00 8.85524E-14-3.49264E-13
 -1      1863 2.29394E+01 2.60951E-01 1.27873E-02-1.41716E+00-2.74520E-15-4.07455E-13
 -1      1864 2.24532E+01 2.47030E-01-3.49122E-04-1.25883E+00 6.25854E-14-3.60264E-13
 -1      1865 2.24005E+01 3.78352E-01-3.54440E-03-1.81932E+00 2.23866E-14-3.89382E-13
 -1      1866 2.22077E+01 2.23321E-01 1.29928E-02-1.07658E+00-3.98024E-14-4.08291E-13
 -1      1867 2.18128E+01 1.98334E-01 6.04217E-04-9.36416E-01-5.73196E-14-4.94676E-13
 -1      1868 2.18506E+01 3.40794E-01-1.39901E-03-1.40837E+00-4.78571E-14-4.21471E-13
 -1      1869 2.16295E+01 1.76456E-01 1.17449E-02-7.97392E-01-1.70723E-14-5.61322E-13
 -1      1870 2.13435E+01 1.51297E-01 1.12254E-03-6.92445E-01-7.96446E-14-5.66483E-13
 -1      1871 2.14057E+01 2.72072E-01-1.71482E-03-1.05626E+00-8.48367E-14-5.61481E-13
 -1      1872 2.11966E+01 1.33045E-01 9.38601E-03-5.84992E-01-5.63195E-14-5.71961E-13
 -1      1873 2.09829E+01 1.12320E-01 1.23673E-03-5.05841E-01-5.32022E-14-5.41047E-13
 -1      1874 2.10613E+01 2.07442E-01-1.52671E-03-7.84170E-01-7.15981E-14-7.06167E-13
 -1      1875 2.08680E+01 9.82212E-02 7.22381E-03-4.25018E-01-2.19135E-13-4.62468E-13
 -1      1876 2.07104E+01 8.21498E-02 1.17326E-03-3.66497E-01-1.89849E-13-4.97526E-13
 -1      1877 2.07904E+01 1.53793E-01-1.42024E-03-5.75518E-01-7.58631E-14-5.21726E-13
 -1      1878 2.06217E+01 7.16963E-02 5.41426E-03-3.06570E-01-7.66900E-14-4.66881E-13
 -1      1879 2.05065E+01 5.96527E-02 1.02981E-03-2.63754E-01-1.06422E-13-4.97792E-13
 -1      1880 2.05806E+01 1.12401E-01-1.28376E-03-4.18910E-01-9.03516E-14-3.59074E-13
 -1      1881 2.04389E+01 5.20505E-02 3.99687E-03-2.19665E-01-4.81232E-14-4.89873E-13
 -1      1882 2.03554E+01 4.31657E-02 8.61288E-04-1.88503E-01 3.04539E-14-4.49138E-13
 -1      1883 2.04203E+01 8.15738E-02-1.11848E-03-3.02743E-01-6.40059E-14-3.02793E-13
 -1      1884 2.03046E+01 3.77311E-02 2.93926E-03-1.56212E-01 3.80208E-14-4.35329E-13
 -1      1885 2.02444E+01 3.11254E-02 6.47895E-04-1.33577E-01 7.83384E-14-3.62980E-13
 -1      1886 2.02992E+01 5.89782E-02-9.49939E-04-2.17155E-01 2.10575E-14-3.94137E-13
 -1      1887 2.02049E+01 2.69035E-02 2.10490E-03-1.08917E-01 1.16036E-13-4.99667E-13
 -1      1888 2.01605E+01 2.20547E-02 5.19836E-04-9.19257E-02 1.20419E-13-4.60597E-13
 -1      1889 2.02072E+01 4.24827E-02-6.68566E-04-1.53222E-01 7.61090E-14-3.65304E-13
 -1      1890 2.01334E+01 1.93639E-02 1.53845E-03-7.51016E-02 1.11778E-13-3.42779E-13
 -1      1891 2.01039E+01 1.58547E-02 4.28097E-04-6.34633E-02 1.93431E-13-2.50412E-13
 -1      1892 2.01396E+01 3.01114E-02-6.25718E-04-1.06503E-01 1.92414E-13-4.17651E-13
 -1      1893 2.00842E+01 1.38396E-02 1.09146E-03-5.12444E-02 1.09060E-13-1.69892E-13
 -1      1894 2.00638E+01 1.13194E-02 3.34804E-04-4.29101E-02 4.20101E-14-9.73501E-14
 -1      1895 2.00920E+01 2.16057E-02-4.85255E-04-7.36115E-02 2.03216E-13-3.52003E-13
 -1      1896 2.00499E+01 9.84935E-03 7.80785E-04-3.41239E-02-4.05796E-14 6.30449E-15
 -1      1897 2.00361E+01 7.99872E-03 2.55395E-04-2.81904E-02 1.60656E-14-8.90173E-14
 -1      1898 2.00580E+01 1.53848E-02-3.74615E-04-4.98091E-02 1.88257E-14-1.31966E-13
 -1      1899 2.00264E+01 6.93445E-03 5.54244E-04-2.19357E-02-4.61692E-14-1.91415E-13
 -1      1900 2.00173E+01 5.57649E-03 1.92474E-04-1.77613E-02-1.53335E-13-3.06581E-13
 -1      1901 2.00341E+01 1.08450E-02-2.85444E-04-3.27272E-02-7.36165E-14-2.85668E-13
 -1      1902 2.00108E+01 4.80851E-03 3.88882E-04-1.33681E-02-2.77786E-13-2.19998E-13
 -1      1903 2.00051E+01 3.81400E-03 1.42286E-04-1.04778E-02-3.87355E-13-3.53989E-13
 -1      1904 2.00177E+01 7.53686E-03-2.14433E-04-2.06041E-02-2.02437E-13-3.97008E-13
 -1      1905 2.00008E+01 3.27278E-03 2.71134E-04-7.44970E-03-5.83245E-13-4.31027E-13
 -1      1906 1.99975E+01 2.53377E-03 9.90236E-05-5.48675E-03-5.03416E-13-6.16452E-13
 -1      1907 2.00068E+01 5.13051E-03-1.59860E-04-1.21293E-02-5.79200E-13-2.85628E-13
 -1      1908 1.99947E+01 2.12615E-03 1.82071E-04-3.36353E-03-1.50759E-13-6.24092E-13
 -1      1909 1.99930E+01 1.58540E-03 7.03058E-05-2.02948E-03 1.01487E-14-5.28141E-13
 -1      1910 1.99998E+01 3.39883E-03-1.05862E-04-6.22623E-03-3.55828E-13-4.34512E-13
 -1      1911 1.99915E+01 1.33571E-03 1.18583E-04-7.40784E-04 7.79839E-14-4.68784E-13
 -1      1912 1.99909E+01 9.64814E-04 5.16382E-05 4.93659E-05 2.78634E-13-5.48186E-13
 -1      1913 1.99957E+01 2.11460E-03-8.17993E-05-2.29937E-03 1.17279E-13-3.81117E-13
 -1      1914 1.99902E+01 7.83156E-04 7.20931E-05 8.48515E-04 3.15592E-13-6.58714E-13
 -1      1915 1.99903E+01 5.32328E-04 3.62332E-05 1.30778E-03 3.27184E-13-7.33980E-13
 -1      1916 1.99936E+01 1.26817E-03-5.61531E-05 1.25393E-04 2.37955E-13-4.60175E-13
 -1      1917 1.99901E+01 4.10234E-04 4.15139E-05 1.76200E-03 2.59908E-13-8.20311E-13
 -1      1918 1.99906E+01 2.40488E-04 2.42830E-05 1.99801E-03 1.83737E-14-6.22945E-13
 -1      1919 1.99928E+01 6.83668E-04-3.77517E-05 1.58852E-03 2.40179E-13-9.59043E-13
 -1      1920 1.99907E+01 1.62807E-04 2.07499E-05 2.21822E-03-1.47531E-14-6.57008E-13
 -1      1921 1.99914E+01 5.17457E-05 1.56802E-05 2.30630E-03 5.57640E-14-6.01132E-13
 -1      1922 1.99928E+01 2.92985E-04-2.44716E-05 2.38791E-03 3.24496E-14-8.14470E-13
 -1      1923 1.99917E+01 5.28296E-06 7.01418E-06 2.37320E-03-3.70560E-14-5.49723E-13
 -1      1924 1.99925E+01-6.44546E-05 9.39668E-06 2.36754E-03 6.57096E-15-4.96876E-13
 -1      1925 1.99933E+01 4.19724E-05-1.49915E-05 2.74191E-03 1.69031E-14-5.59500E-13
 -1      1926 1.99929E+01-8.88432E-05-1.49307E-06 2.33786E-03-6.62607E-14-4.28934E-13
 -1      1927 1.99937E+01-1.31986E-04 4.88308E-06 2.27676E-03-1.75141E-14-4.34695E-13
 -1      1928 1.99941E+01-1.11532E-04-8.40883E-06 2.80747E-03 3.46488E-14-6.32771E-13
 -1      1929 1.99942E+01-1.41821E-04-6.24135E-06 2.18368E-03 2.76885E-14-4.09912E-13
 -1      1930 1.99950E+01-1.68924E-04 1.37270E-06 2.08579E-03-2.07034E-13-5.13311E-13
 -1      1931 1.99950E+01-1.98105E-04-3.98360E-06 2.68952E-03 2.95537E-14-4.85466E-13
 -1      1932 1.99955E+01-1.71384E-04-9.81754E-06 1.96498E-03-2.34667E-13-2.70480E-13
 -1      1933 1.99962E+01-1.85752E-04-1.24292E-06 1.85340E-03-1.06296E-13-2.48493E-13
 -1      1934 1.99960E+01-2.46300E-04-5.51806E-07 2.46235E-03-1.08257E-13-3.14319E-13
 -1      1935 1.99966E+01-1.88037E-04-1.10716E-05 1.71450E-03-2.61066E-13-1.02945E-13
 -1      1936 1.99972E+01-2.00198E-04-3.67487E-06 1.59125E-03-6.86573E-14-8.35501E-14
 -1      1937 1.99969E+01-2.71608E-04 1.39164E-06 2.17968E-03-8.11962E-14-1.95287E-15
 -1      1938 1.99976E+01-2.05354E-04-1.09604E-05 1.43749E-03 1.32912E-13-5.47793E-14
 -1      1939 1.99981E+01-2.21583E-04-5.86438E-06 1.30126E-03 1.31570E-13-6.63145E-14
 -1      1940 1.99977E+01-2.95427E-04 2.63971E-06 1.85735E-03 6.57846E-14 1.36506E-13
 -1      1941 1.99984E+01-2.33353E-04-9.93255E-06 1.13017E-03 1.84405E-14-2.77166E-14
 -1      1942 1.99988E+01-2.56413E-04-7.65087E-06 9.75180E-04-8.31765E-14-2.90053E-14
 -1      1943 1.99984E+01-3.30968E-04 3.27547E-06 1.49767E-03 3.27427E-14 1.07591E-13
 -1      1944 1.99990E+01-2.74082E-04-8.24379E-06 7.80866E-04-1.80437E-13 2.69921E-14
 -1      1945 1.99993E+01-2.95744E-04-8.05848E-06 6.07879E-04-1.76897E-13-1.10022E-15
 -1      1946 1.99990E+01-3.86013E-04 3.02969E-06 1.09370E-03-8.97834E-14 2.56718E-13
 -1      1947 1.99995E+01-3.02617E-04-4.08575E-06 3.77502E-04-2.46046E-15 1.46211E-13
 -1      1948 2.05864E+01-7.70257E-03 2.85902E-03 2.95495E-01 1.84321E-13 3.39693E-13
 -1      1949 2.07586E+01 4.96282E-02 1.43289E-02 3.16962E-01 1.80943E-13 3.89385E-13
 -1      1950 2.02978E+01-7.78142E-02-1.58108E-03 3.40855E-01 1.22478E-13 2.80296E-13
 -1      1951 2.04602E+01-4.66158E-02 8.98074E-03 3.04714E-01 1.58723E-13 3.23535E-13
 -1      1952 2.07679E+01-3.99986E-02-1.62148E-03 4.26772E-01 1.97657E-13 1.86987E-13
 -1      1953 1.99912E+01-1.02103E-01-2.91001E-03 4.62057E-01 1.01215E-13 2.27774E-13
 -1      1954 2.01774E+01-9.38012E-02 3.08044E-03 4.02044E-01 1.15080E-13 2.72252E-13
 -1      1955 2.05274E+01-1.28815E-01 9.15244E-04 4.98216E-01 1.48054E-13 1.64440E-13
 -1      1956 1.96301E+01-8.05975E-02-1.21156E-03 5.92888E-01 6.74356E-14 1.69171E-13
 -1      1957 1.98522E+01-9.66109E-02 7.45784E-05 5.37866E-01 8.47339E-14 2.08004E-13
 -1      1958 2.02729E+01-1.47823E-01 2.70598E-03 6.49233E-01 1.22810E-13 1.51545E-13
 -1      1959 1.92205E+01-1.34865E-02 2.52752E-03 6.64451E-01 8.16659E-14 1.28339E-13
 -1      1960 1.94640E+01-5.24917E-02-7.36952E-04 6.43317E-01 5.76345E-14 1.52438E-13
 -1      1961 1.99698E+01-9.56716E-02 2.91210E-03 7.92981E-01 8.08232E-14 1.24850E-13
 -1      1962 1.88119E+01 8.53561E-02 6.71924E-03 6.16711E-01 7.47276E-14 9.54094E-14
 -1      1963 1.90403E+01 3.28047E-02 2.99496E-04 6.52250E-01 8.20476E-14 1.30288E-13
 -1      1964 1.96223E+01 2.09592E-02 8.22788E-04 8.41733E-01 8.76339E-14 9.96213E-14
 -1      1965 1.84855E+01 1.84806E-01 9.52023E-03 4.21714E-01 6.32116E-14 7.48217E-14
 -1      1966 1.86510E+01 1.36611E-01 2.89557E-03 5.20169E-01 7.58183E-14 1.17490E-13
 -1      1967 1.92770E+01 1.73154E-01-3.32381E-03 7.26674E-01 8.47584E-14 1.19250E-13
 -1      1968 1.83271E+01 2.46095E-01 9.77543E-03 1.03919E-01 9.78341E-14 1.70523E-14
 -1      1969 1.83873E+01 2.21927E-01 6.34960E-03 2.48158E-01 7.71995E-14 2.36972E-14
 -1      1970 1.90119E+01 3.09941E-01-7.91461E-03 4.28490E-01 1.13107E-13 8.29929E-14
 -1      1971 1.83912E+01 2.42512E-01 7.65355E-03-2.60992E-01 6.68111E-14 4.53630E-16
 -1      1972 1.83251E+01 2.53158E-01 9.23053E-03-1.07454E-01 1.08720E-13 2.21944E-14
 -1      1973 1.89063E+01 3.77593E-01-1.03837E-02-2.04818E-03 9.29109E-14 3.28445E-14
 -1      1974 1.86735E+01 1.75319E-01 4.38782E-03-5.75697E-01 1.70606E-14-2.30115E-14
 -1      1975 1.84904E+01 2.16163E-01 9.95579E-03-4.53531E-01 4.44896E-14-2.82604E-14
 -1      1976 1.90008E+01 3.46896E-01-9.24026E-03-4.56237E-01 7.95618E-14 3.00866E-15
 -1      1977 1.91104E+01 7.26956E-02 1.35189E-03-7.63933E-01 7.29755E-15-3.13681E-14
 -1      1978 1.88469E+01 1.26828E-01 7.76620E-03-7.00404E-01 3.83313E-14-7.04905E-15
 -1      1979 1.92742E+01 2.30337E-01-5.05989E-03-8.13318E-01 3.19137E-14-4.10657E-14
 -1      1980 1.96060E+01-2.78464E-02-7.51042E-04-7.99370E-01-6.25346E-14-1.00401E-14
 -1      1981 1.93125E+01 2.05894E-02 3.32488E-03-7.99407E-01-5.15842E-15-8.68663E-15
 -1      1982 1.96530E+01 7.36050E-02-1.86406E-04-9.93491E-01-3.36683E-14-4.32209E-14
 -1      1983 2.00683E+01-9.86299E-02-1.81600E-03-7.05642E-01-7.35774E-14-2.72169E-14
 -1      1984 1.97932E+01-6.79397E-02-1.66936E-03-7.55025E-01-6.41891E-14-3.85568E-14
 -1      1985 2.00469E+01-7.00311E-02 3.43027E-03-9.84295E-01-4.57886E-14-4.61168E-14
 -1      1986 2.04351E+01-1.30402E-01-2.14628E-03-5.34520E-01 6.24362E-14-5.15629E-14
 -1      1987 2.02125E+01-1.19848E-01-5.59716E-03-6.10259E-01 8.52747E-15-4.92930E-14
 -1      1988 2.03835E+01-1.65031E-01 5.06510E-03-8.29833E-01-1.60917E-14-1.66149E-13
 -1      1989 2.06807E+01-1.29048E-01-2.05862E-03-3.40251E-01 7.13197E-14-2.39441E-14
 -1      1990 2.05263E+01-1.34144E-01-7.64573E-03-4.20664E-01 7.47232E-14-4.08762E-14
 -1      1991 2.06238E+01-2.02327E-01 5.04477E-03-5.99180E-01 5.20976E-14-1.57383E-13
 -1      1992 2.08085E+01-1.07216E-01-1.75864E-03-1.63042E-01-1.46146E-14 3.53272E-14
 -1      1993 2.07222E+01-1.21053E-01-7.85941E-03-2.33295E-01 1.44515E-14 5.65942E-14
 -1      1994 2.07608E+01-1.93029E-01 4.10913E-03-3.56513E-01 2.51266E-14-4.08820E-14
 -1      1995 2.08395E+01-7.72910E-02-1.36195E-03-2.43311E-02 3.46585E-14 9.23604E-14
 -1      1996 2.08107E+01-9.37639E-02-6.78805E-03-7.73536E-02 3.90174E-14 8.39332E-14
 -1      1997 2.08079E+01-1.56361E-01 2.88813E-03-1.45278E-01-5.35227E-15 4.13819E-14
 -1      1998 2.08009E+01-4.79901E-02-9.41114E-04 7.01931E-02 1.08639E-14 3.42776E-14
 -1      1999 2.08144E+01-6.31243E-02-5.09465E-03 3.54557E-02 4.10923E-14 1.04047E-13
 -1      2000 2.07872E+01-1.10128E-01 1.74903E-03 1.40193E-02 4.24970E-14 1.40486E-13
 -1      2001 2.07189E+01-2.38902E-02-5.46004E-04 1.24748E-01 1.12639E-13-2.61510E-14
 -1      2002 2.07595E+01-3.58084E-02-3.31216E-03 1.05834E-01 5.82875E-14-7.00134E-15
 -1      2003 2.07218E+01-6.64011E-02 8.39526E-04 1.18454E-01 1.14420E-13 1.26992E-13
 -1      2004 2.06154E+01-6.42760E-03-2.10485E-04 1.48058E-01-2.36044E-14 1.26803E-13
 -1      2005 2.06699E+01-1.47303E-02-1.76320E-03 1.41100E-01 7.64092E-14 5.38384E-14
 -1      2006 2.06315E+01-3.12247E-02 1.82977E-04 1.75348E-01 5.91797E-14 1.25105E-13
 -1      2007 2.05063E+01 4.80813E-03 4.77138E-05 1.49669E-01-2.38690E-13 1.22820E-13
 -1      2008 2.05651E+01-2.89635E-04-5.84342E-04 1.50741E-01-1.14578E-13 1.12348E-13
 -1      2009 2.05319E+01-6.21576E-03-2.50604E-04 1.96159E-01-1.13379E-13 2.32146E-13
 -1      2010 2.04022E+01 1.10449E-02 2.25704E-04 1.37956E-01 7.53301E-14-3.96608E-14
 -1      2011 2.04588E+01 8.42471E-03 2.12838E-04 1.43755E-01-1.49124E-13 2.91805E-14
 -1      2012 2.04333E+01 9.53248E-03-5.07527E-04 1.92551E-01-1.37165E-13 2.39148E-13
 -1      2013 2.03092E+01 1.36846E-02 3.31586E-04 1.19376E-01 1.72393E-13-1.07836E-14
 -1      2014 2.03598E+01 1.27897E-02 6.83154E-04 1.27434E-01 1.84658E-13-1.18918E-14
 -1      2015 2.03425E+01 1.79858E-02-6.33775E-04 1.74420E-01 8.75213E-14 6.42572E-14
 -1      2016 2.02301E+01 1.39770E-02 3.79326E-04 9.84301E-02 1.88168E-13-1.10325E-13
 -1      2017 2.02729E+01 1.41676E-02 9.05489E-04 1.07078E-01 2.20556E-13-5.19301E-14
 -1      2018 2.02631E+01 2.12732E-02-6.69031E-04 1.49226E-01 2.41800E-13 1.84501E-13
 -1      2019 2.01654E+01 1.28983E-02 3.84539E-04 7.79598E-02-2.98877E-14-1.54310E-13
 -1      2020 2.02001E+01 1.36904E-02 9.57741E-04 8.61789E-02 1.47946E-13-5.39489E-14
 -1      2021 2.01963E+01 2.12471E-02-6.45086E-04 1.22075E-01 1.83671E-13 6.64841E-14
 -1      2022 2.01142E+01 1.11444E-02 3.61691E-04 5.95521E-02-8.15887E-14-1.89654E-13
 -1      2023 2.01414E+01 1.22025E-02 9.05036E-04 6.68019E-02-1.24923E-13-2.34166E-13
 -1      2024 2.01419E+01 1.93318E-02-5.86139E-04 9.61313E-02-3.03555E-14-7.22536E-17
 -1      2025 2.00751E+01 9.17275E-03 3.22675E-04 4.39198E-02-2.30546E-13-3.98488E-14
 -1      2026 2.00956E+01 1.02826E-02 7.96294E-04 4.99844E-02-1.21112E-13-1.49985E-13
 -1      2027 2.00991E+01 1.65285E-02-5.09797E-04 7.31087E-02-1.55307E-13 1.28195E-14
 -1      2028 2.00461E+01 7.25852E-03 2.76409E-04 3.12147E-02-2.40936E-14 8.98082E-15
 -1      2029 2.00610E+01 8.29627E-03 6.65228E-04 3.60807E-02-1.24783E-13-1.09428E-14
 -1      2030 2.00662E+01 1.34859E-02-4.28218E-04 5.37239E-02-1.69105E-13-8.67855E-14
 -1      2031 2.00252E+01 5.54840E-03 2.29049E-04 2.12610E-02 1.90746E-13-1.24875E-13
 -1      2032 2.00357E+01 6.45251E-03 5.33161E-04 2.50284E-02 1.56020E-13-2.34958E-14
 -1      2033 2.00417E+01 1.05871E-02-3.49234E-04 3.80614E-02 6.12708E-14-2.19743E-14
 -1      2034 2.00108E+01 4.10410E-03 1.84466E-04 1.37170E-02 1.08702E-14-1.65405E-13
 -1      2035 2.00179E+01 4.85314E-03 4.12209E-04 1.65394E-02 1.09686E-13-1.45208E-13
 -1      2036 2.00240E+01 8.02963E-03-2.77418E-04 2.58424E-02 1.53997E-13-1.40567E-14
 -1      2037 2.00013E+01 2.93514E-03 1.44799E-04 8.18083E-03 1.82561E-13-2.47494E-13
 -1      2038 2.00058E+01 3.53156E-03 3.08134E-04 1.02269E-02 7.39086E-14-1.87903E-13
 -1      2039 2.00116E+01 5.89046E-03-2.15010E-04 1.66112E-02 1.01984E-13 1.24873E-14
 -1      2040 1.99954E+01 2.02190E-03 1.10963E-04 4.25319E-03 4.08048E-13-2.26271E-13
 -1      2041 1.99980E+01 2.48084E-03 2.22615E-04 5.68490E-03 2.73643E-13-2.00640E-13
 -1      2042 2.00033E+01 4.17327E-03-1.62669E-04 9.85418E-03 2.30135E-13-1.30200E-13
 -1      2043 1.99922E+01 1.33077E-03 8.30607E-05 1.57186E-03 1.62453E-14-2.34257E-13
 -1      2044 1.99934E+01 1.67284E-03 1.54922E-04 2.53301E-03 3.03303E-13-1.42216E-13
 -1      2045 1.99980E+01 2.84190E-03-1.20058E-04 5.07089E-03 2.53660E-13 3.02413E-14
 -1      2046 1.99907E+01 8.23657E-04 6.07057E-05-1.73143E-04 3.91267E-14-2.43909E-13
 -1      2047 1.99911E+01 1.07054E-03 1.03071E-04 4.38510E-04-1.92725E-14-2.52030E-13
 -1      2048 1.99950E+01 1.84198E-03-8.62697E-05 1.81223E-03 7.08065E-14 6.51385E-14
 -1      2049 1.99904E+01 4.63380E-04 4.32468E-05-1.23585E-03 3.10046E-14-3.41755E-13
 -1      2050 1.99902E+01 6.35431E-04 6.45667E-05-8.75782E-04-9.78854E-15-2.96707E-13
 -1      2051 1.99934E+01 1.11421E-03-6.01214E-05-3.03641E-04 4.78452E-14-1.07296E-13
 -1      2052 1.99909E+01 2.16504E-04 2.99202E-05-1.81722E-03 9.37397E-14-3.73244E-13
 -1      2053 1.99904E+01 3.31591E-04 3.68542E-05-1.63219E-03 3.68572E-14-4.32314E-13
 -1      2054 1.99930E+01 6.01909E-04-4.03553E-05-1.58826E-03 1.00686E-13-3.25629E-13
 -1      2055 1.99919E+01 5.44122E-05 1.99423E-05-2.07116E-03 1.02491E-13-4.63434E-13
 -1      2056 1.99911E+01 1.27554E-04 1.75705E-05-2.00323E-03 1.72175E-13-3.37619E-13
 -1      2057 1.99932E+01 2.54695E-04-2.57596E-05-2.28720E-03 1.00507E-13-3.34835E-13
 -1      2058 1.99930E+01-4.66201E-05 1.25594E-05-2.11169E-03 5.04200E-14-2.76976E-13
 -1      2059 1.99922E+01-3.13531E-06 4.65903E-06-2.11851E-03-1.54923E-14-3.10676E-13
 -1      2060 1.99938E+01 2.98057E-05-1.52363E-05-2.58794E-03-3.81036E-14-2.94218E-13
 -1      2061 1.99943E+01-1.05946E-04 7.07149E-06-2.01982E-03-1.20030E-13-2.48860E-13
 -1      2062 1.99935E+01-8.21841E-05-3.59394E-06-2.07186E-03 7.10331E-14-1.61554E-13
 -1      2063 1.99946E+01-1.08041E-04-7.83437E-06-2.62875E-03-1.36493E-13-1.37775E-14
 -1      2064 1.99955E+01-1.39380E-04 2.84819E-06-1.84960E-03 3.45021E-14-3.37382E-13
 -1      2065 1.99947E+01-1.27255E-04-8.56176E-06-1.92784E-03-3.85608E-14-3.59205E-13
 -1      2066 1.99955E+01-1.87594E-04-2.75956E-06-2.50730E-03-2.47159E-14-1.34944E-13
 -1      2067 1.99966E+01-1.60165E-04-6.29680E-07-1.63302E-03 6.61844E-14-3.29658E-13
 -1      2068 1.99959E+01-1.52888E-04-1.12891E-05-1.72715E-03 6.63514E-14-3.72319E-13
 -1      2069 1.99964E+01-2.32404E-04 6.27802E-07-2.28807E-03 3.46918E-14-1.53222E-13
 -1      2070 1.99976E+01-1.79630E-04-3.56941E-06-1.38359E-03-2.87104E-13-6.87590E-14
 -1      2071 1.99970E+01-1.71457E-04-1.24444E-05-1.49082E-03-7.73862E-14-2.90462E-13
 -1      2072 1.99972E+01-2.62316E-04 2.81632E-06-2.00859E-03-8.96298E-14 4.50477E-14
 -1      2073 1.99984E+01-2.07030E-04-5.95225E-06-1.10013E-03-5.28434E-14-1.18445E-13
 -1      2074 1.99979E+01-1.93656E-04-1.22763E-05-1.22400E-03-2.88733E-13-1.72901E-13
 -1      2075 1.99980E+01-2.93663E-04 4.25573E-06-1.68474E-03-2.09642E-13-2.75021E-14
 -1      2076 1.99990E+01-2.48502E-04-6.80369E-06-7.71930E-04-6.49843E-14-7.75451E-14
 -1      2077 1.99987E+01-2.26987E-04-9.90111E-06-9.20179E-04-2.98419E-15-1.08718E-13
 -1      2078 1.99987E+01-3.37484E-04 6.58762E-06-1.32042E-03-4.80298E-14-5.21179E-14
 -1      2079 1.99995E+01-2.58260E-04-7.11319E-06-4.29776E-04-6.61008E-14-5.45506E-14
 -1      2080 1.99992E+01-2.46467E-04-6.92763E-06-5.87848E-04-1.43540E-14-2.12138E-14
 -1      2081 1.99992E+01-3.74895E-04 1.89772E-06-9.27930E-04-1.23036E-13 1.70871E-13
 -1      2082 1.99995E+01-3.78644E-04-2.97493E-06-5.32034E-04-8.74592E-14 2.59679E-13
 -1      2083 1.99998E+01-1.92809E-03 3.50587E-06-1.05175E-03-2.24422E-13-2.15166E-13
 -1      2084 1.99998E+01-1.59235E-03-4.53588E-06-1.04189E-03-1.68719E-13-2.21850E-13
 -1      2085 1.99997E+01-1.31153E-03 1.24654E-06-9.89495E-04-3.92879E-14-4.29255E-15
 -1      2086 1.99996E+01-9.96003E-04-7.15293E-06-9.11989E-04-2.23972E-13 3.14834E-13
 -1      2087 1.99997E+01-1.38275E-03 5.91069E-07-1.28512E-03-1.31928E-13-1.23711E-13
 -1      2088 1.99995E+01-6.31078E-04-2.08505E-06-6.85729E-04-1.54833E-13 3.40991E-13
 -1      2089 1.99999E+01-2.50508E-03 6.45653E-06-9.64842E-04-4.47919E-13-5.67108E-13
 -1      2090 1.99999E+01-2.19135E-03 6.09004E-07-1.01826E-03-3.91097E-13-2.33971E-13
 -1      2091 1.99999E+01-1.92592E-03-2.92987E-06-1.30037E-03-4.33735E-13-3.32478E-13
 -1      2092 2.00000E+01-2.99474E-03 9.05143E-06-7.53864E-04-4.95601E-13-5.71597E-13
 -1      2093 2.00000E+01-2.73435E-03 4.92726E-06-8.58839E-04-4.37431E-13-4.72367E-13
 -1      2094 2.00000E+01-2.41895E-03-5.54095E-06-1.14259E-03-3.68551E-13-5.66995E-13
 -1      2095 2.00001E+01-3.33148E-03 1.07667E-05-4.54016E-04-3.39000E-13 2.77498E-13
 -1      2096 2.00000E+01-3.16178E-03 8.36212E-06-5.93770E-04-3.07210E-13-1.67115E-13
 -1      2097 2.00001E+01-2.81644E-03-7.75535E-06-8.43646E-04-9.93406E-14-2.17938E-13
 -1      2098 2.00001E+01-3.47886E-03 1.13424E-05-1.03202E-04-1.37614E-13 7.62828E-13
 -1      2099 2.00001E+01-3.41985E-03 1.05001E-05-2.60650E-04-3.32255E-13 5.78990E-13
 -1      2100 2.00002E+01-3.07310E-03-9.11930E-06-4.47413E-04-1.35687E-13 4.48208E-13
 -1      2101 2.00001E+01-3.42113E-03 1.06328E-05 2.59411E-04-1.86792E-13 3.58508E-13
 -1      2102 2.00001E+01-3.47981E-03 1.12612E-05 1.01645E-04-2.14399E-13 8.04209E-13
 -1      2103 2.00002E+01-3.16288E-03-9.61251E-06-1.28534E-06-3.30059E-13 7.75803E-13
 -1      2104 2.00000E+01-3.16452E-03 8.58086E-06 5.94134E-04 6.58729E-14-1.28509E-13
 -1      2105 2.00001E+01-3.33439E-03 1.06792E-05 4.53651E-04-9.85287E-14 1.67308E-14
 -1      2106 2.00002E+01-3.07656E-03-9.15820E-06 4.45844E-04-2.54681E-13 3.71287E-13
 -1      2107 2.00000E+01-2.74575E-03 5.05603E-06 8.57592E-04 1.41761E-14 3.57209E-14
 -1      2108 2.00000E+01-3.00171E-03 9.05554E-06 7.53202E-04-6.71166E-14-2.56768E-14
 -1      2109 2.00001E+01-2.82511E-03-7.94577E-06 8.41816E-04-9.13426E-14-1.97944E-13
 -1      2110 1.99999E+01-2.19791E-03 5.16087E-07 1.02096E-03 2.87625E-13 2.29656E-13
 -1      2111 1.99999E+01-2.51712E-03 6.59686E-06 9.65788E-04 5.34783E-14 3.47093E-13
 -1      2112 2.00000E+01-2.43254E-03-5.74506E-06 1.14214E-03 5.20069E-14 1.24472E-13
 -1      2113 1.99997E+01-1.59194E-03-4.46249E-06 1.04526E-03 4.22509E-13-9.11088E-14
 -1      2114 1.99998E+01-1.92879E-03 3.78216E-06 1.05590E-03 4.34837E-13-4.50973E-14
 -1      2115 1.99999E+01-1.93451E-03-2.99462E-06 1.30422E-03 2.52016E-13 2.56311E-13
 -1      2116 1.99996E+01-1.00227E-03-7.95488E-06 9.04088E-04 2.54336E-13 4.11936E-14
 -1      2117 1.99997E+01-1.30897E-03 6.12531E-07 9.92869E-04 3.75816E-13-2.57073E-13
 -1      2118 1.99997E+01-1.38479E-03 2.24747E-07 1.28942E-03 2.07384E-13-2.14006E-13
 -1      2119 2.08632E+01 8.79334E-02 7.63870E-03 3.52087E-01 2.18346E-13 4.37653E-13
 -1      2120 2.11196E+01 1.74890E-01 1.44390E-02 4.73098E-01 2.31971E-13 5.41183E-13
 -1      2121 2.12678E+01 3.06951E-01 1.47422E-03 6.79136E-01 2.85966E-13 3.52898E-13
 -1      2122 2.09940E+01 1.11293E-01-9.70085E-04 4.82781E-01 2.52414E-13 2.49790E-13
 -1      2123 1.09243E+01-4.93905E+00-8.73978E-02 7.25087E+00 4.58966E-13 3.09225E-13
 -1      2124 7.22645E+00-6.55330E+00-3.25323E-01 6.07832E+00 3.01204E-13 4.39843E-13
 -1      2125 2.78433E+01-8.37780E-01-3.93275E-02 5.92585E+00 5.02737E-13 1.39333E-13
 -1      2126 2.28670E+01-2.01085E+00-1.30095E-01 6.53691E+00 5.85643E-13 3.60822E-13
 -1      2127 4.14933E-01-7.35064E+00-3.59764E-01 1.98124E+00 2.34868E-13 8.85181E-13
 -1      2128 1.86596E-01-7.03881E+00-3.06658E-01 4.44742E-01-5.75512E-14 1.05316E-12
 -1      2129 1.94388E+01-2.63547E+00 4.20066E-02 7.62533E+00 5.53557E-13 4.51306E-13
 -1      2130 1.48065E+01-4.74284E+00-2.82865E-01 6.85887E+00 5.33240E-13 3.22548E-13
 -1      2131 2.34085E+01-4.00452E+00 9.94576E-02 6.39774E+00 1.79301E-13 6.05072E-14
 -1      2132 1.87973E+01 4.51528E+00-2.96600E-02-8.75962E-01-2.85185E-13-5.61381E-13
 -1      2133 1.93574E+01 4.43421E+00-1.32878E-02-1.01892E+00-3.40335E-13-4.89969E-13
 -1      2134 1.98154E+01 3.79096E+00-1.80661E-02-8.63527E-01-3.58779E-13-4.21926E-13
 -1      2135 1.86623E+01 4.31225E+00 2.06598E-03-7.59043E-01-2.84522E-13-5.54776E-13
 -1      2136 3.61664E+01 3.70247E+00 3.84043E-01 4.05797E+00 6.81108E-13-7.01661E-14
 -1      2137 3.17245E+01 1.60810E+00 3.74673E-02 3.97250E+00 5.97140E-13-1.32117E-14
 -1      2138 4.01946E+01 6.14174E+00 3.42167E-01 2.19789E+00 8.02025E-13-2.73725E-13
 -1      2139 3.72406E+01 5.03673E+00 1.09308E-01 3.22488E+00 7.99805E-13-1.29619E-13
 -1      2140 3.44765E+01 3.82014E+00 1.72454E-01 7.71921E-01 6.69131E-13-3.70648E-13
 -1      2141 4.16164E+01 7.59142E+00 2.89450E-01 9.53878E-02 7.93587E-13-5.21732E-13
 -1      2142 4.11919E+01 7.29740E+00 3.09997E-01 1.51074E+00 7.81930E-13-3.11556E-13
 -1      2143 4.01342E+01 7.00970E+00 2.23038E-01-1.64912E+00 8.97116E-13-6.84286E-13
 -1      2144 4.15022E+01 7.49947E+00 3.26546E-01-4.18081E-01 8.70803E-13-4.93328E-13
 -1      2145 3.61905E+01 4.36185E+00 9.96424E-02-3.35980E+00 9.30131E-13-7.34746E-13
 -1      2146 3.90489E+01 5.58139E+00 2.76023E-01-2.28390E+00 8.88178E-13-6.24611E-13
 -1      2147 3.01865E+01 5.18079E-01 2.55315E-04-4.40025E+00 7.37688E-13-6.69964E-13
 -1      2148 3.47644E+01 2.79362E+00 3.42196E-01-4.50472E+00 8.63115E-13-7.83262E-13
 -1      2149 3.37933E+01 2.68858E+00 1.52320E-01-1.04423E+00 6.65829E-13-2.26152E-13
 -1      2150 2.06259E+01-2.99742E+00-1.82091E-01-6.61261E+00 7.21090E-13-9.54792E-13
 -1      2151 2.59958E+01-1.70897E+00-5.14526E-02-6.31405E+00 6.32938E-13-7.99638E-13
 -1      2152 1.16331E+01-5.43759E+00-3.64756E-01-6.53101E+00 6.81122E-13-9.56721E-13
 -1      2153 1.62069E+01-3.36435E+00-6.65778E-02-7.55521E+00 7.92477E-13-1.04181E-12
 -1      2154 5.32540E+00-6.73023E+00-3.35271E-01-5.44168E+00 2.89713E-13-9.46132E-13
 -1      2155 8.45773E+00-5.41554E+00-1.56290E-01-6.62510E+00 5.65992E-13-9.73388E-13
 -1      2156 7.54181E-01-7.13690E+00-3.54491E-01-2.52196E+00 5.60663E-15-1.01097E-12
 -1      2157 2.22827E+00-6.63512E+00-3.00724E-01-4.06009E+00 3.01870E-13-1.01852E-12
 -1      2158 1.22702E+00-5.93255E+00-2.01806E-01 1.40984E+00-1.79967E-13-9.98368E-13
 -1      2159 4.42021E-01-6.60390E+00-3.17433E-01-6.08013E-01 2.09555E-14-1.01835E-12
 -1      2160 5.56332E+00-7.14979E+00-4.02433E-01 4.55265E+00-6.16174E-13-1.11544E-12
 -1      2161 3.22424E+00-7.06400E+00-3.31782E-01 3.60354E+00-3.21687E-13-9.69058E-13
 -1      2162 1.30072E+01-5.71461E+00-2.37181E-01 6.14449E+00-7.91922E-13-1.10348E-12
 -1      2163 8.72942E+00-7.36604E+00-5.23649E-01 4.96938E+00-6.16840E-13-1.07136E-12
 -1      2164 2.30862E+01-3.85860E+00-7.24565E-02 6.20991E+00-8.48210E-13-8.50986E-13
 -1      2165 1.74871E+01-5.67525E+00-4.27487E-01 5.64316E+00-8.16680E-13-9.35585E-13
 -1      2166 3.34789E+01-8.36992E-01 2.17057E-01 4.27341E+00-9.18599E-13-6.95666E-13
 -1      2167 2.77924E+01-2.98603E+00-2.26956E-01 4.24026E+00-8.66529E-13-7.15428E-13
 -1      2168 4.08202E+01 3.00575E+00 4.82850E-01 2.06932E+00-9.69419E-13-6.62581E-13
 -1      2169 3.60132E+01 1.20723E+00 5.81958E-02 2.68526E+00-1.00294E-12-6.76570E-13
 -1      2170 4.40086E+01 6.09090E+00 4.87297E-01 3.82774E-01-9.08662E-13-5.30409E-13
 -1      2171 4.20959E+01 4.98100E+00 3.83357E-01 1.26075E+00-1.00836E-12-7.29083E-13
 -1      2172 4.37581E+01 6.94506E+00 4.61661E-01-6.99161E-03-9.05054E-13-3.38479E-13
 -1      2173 4.38638E+01 6.98986E+00 4.96005E-01 3.56886E-01-8.97282E-13-5.06317E-13
 -1      2174 4.23503E+01 5.06245E+00 4.08039E-01-8.65783E-01-8.00915E-13-7.18314E-14
 -1      2175 4.40110E+01 6.13126E+00 5.07015E-01-7.33377E-03-8.56537E-13-3.14915E-13
 -1      2176 3.72281E+01 1.75790E+00 1.30682E-01-2.17170E+00-7.00912E-13 2.32703E-13
 -1      2177 4.12956E+01 3.25402E+00 4.52795E-01-1.53869E+00-6.77514E-13 9.59233E-14
 -1      2178 2.98457E+01-1.98293E+00-1.68484E-01-3.98436E+00-7.10876E-13 3.37508E-13
 -1      2179 3.50101E+01-4.29224E-02 2.80616E-01-3.76482E+00-6.99912E-13 2.95985E-13
 -1      2180 2.14875E+01-4.98296E+00-3.07938E-01-5.13485E+00-6.37712E-13 3.36675E-13
 -1      2181 2.66690E+01-2.94192E+00 7.91594E-02-5.49900E+00-7.06102E-13 3.65374E-13
 -1      2182 1.24969E+01-6.94549E+00-3.98882E-01-5.42379E+00-2.92988E-13 6.38170E-13
 -1      2183 1.73349E+01-5.55826E+00-9.02627E-02-6.24368E+00-4.18776E-13 4.56218E-13
 -1      2184 5.97086E+00-7.41427E+00-3.72403E-01-4.38690E+00-2.80498E-13 6.98691E-13
 -1      2185 9.21220E+00-6.47208E+00-2.02662E-01-5.46428E+00-3.86469E-13 7.09238E-13
 -1      2186 1.38730E+01-6.32076E+00-6.69040E-02-6.28148E+00 6.75571E-14 3.99222E-13
 -1      2187 9.78341E-01-7.52004E+00-3.76424E-01-1.60948E+00-3.22242E-14 1.13165E-12
 -1      2188 2.61817E+00-7.25361E+00-3.35098E-01-3.05914E+00-2.96652E-13 1.05588E-12
 -1      2189 3.48028E+00-6.32565E+00-2.45677E-01 4.91032E+00 3.53273E-13 6.98441E-13
 -1      2190 1.48503E+00-7.64977E+00-4.13578E-01 3.40073E+00 1.97536E-13 8.63087E-13
 -1      2191 2.29728E+00-4.73959E+00-1.56845E-01 3.30662E+00-1.11022E-16 9.32199E-13
 -1      2192 1.99995E+01-4.41722E-04 1.23593E-06 6.27568E-04 2.14071E-14 4.73396E-13
 -1      2193 2.29000E+01 1.22920E+00-8.88437E-03-5.58085E-01-3.54300E-13 1.86434E-13
 -1      2194 1.54887E+01-5.44234E+00-4.67264E-02 7.53758E+00 9.75886E-14 1.61701E-13
 -1      2195 3.11026E+01-3.98441E-01-1.53584E-01 1.31945E+00 3.37189E-13-4.38372E-13
 -1      2196 3.03882E+01-3.09912E-01 1.36638E-01 3.92071E+00 3.88162E-13-5.66769E-14
 -1      2197 2.86847E+01-2.40917E+00 1.29345E-01 3.53937E+00 1.74083E-13-3.21548E-13
 -1      2198 2.23367E+01 1.57694E+00-2.49299E-02-3.45337E-01-3.75646E-13-2.24664E-14
 -1      2199 2.81105E+01 2.17294E+00-8.83152E-02-2.93661E+00-4.99267E-13 5.42413E-14
 -1      2200 3.03310E+01 3.41619E+00-1.54353E-01-2.45077E+00-6.90670E-13-6.63150E-14
 -1      2201 2.86867E+01 8.35607E-01-2.16532E-01-3.63776E+00-3.36231E-13 1.55126E-13
 -1      2202 3.08814E+01 1.26185E+00-1.24538E-01 3.96575E+00-4.69125E-13-7.58102E-13
 -1      2203 1.99995E+01-7.43896E-04-1.11163E-06-9.99177E-04-7.04887E-14 2.50495E-13
 -1      2204 1.99995E+01-6.16632E-04-7.17745E-06 7.21914E-04 1.87457E-14 1.70208E-13
 -1      2205 1.99996E+01-8.18785E-04-3.81658E-06 8.52035E-04 1.20134E-13 5.51056E-14
 -1      2206 1.99995E+01-9.22396E-04 2.68407E-06 1.16026E-03 1.33038E-14-2.16769E-13
 -1      2207 1.99993E+01-5.83363E-04-3.09803E-06 9.89221E-04-1.60913E-13 1.73207E-13
 -1      2208 7.26736E+00-5.22094E+00-8.84427E-02 6.60208E+00-1.33227E-15 4.83641E-13
 -1      2209 1.87666E+00-4.88633E+00-1.60111E-01-8.63336E-01 1.85962E-14 1.18761E-12
 -1      2210 6.44139E+00-5.63616E+00-1.46335E-01-4.86367E+00 2.74780E-14 7.83207E-13
 -1      2211 2.18591E+01-6.29880E+00-6.42443E-02-5.25403E+00-1.07414E-13 1.21125E-13
 -1      2212 2.99835E+01-4.08065E+00 5.58947E-02-2.90359E+00-4.06453E-13-7.70495E-14
 -1      2213 3.55548E+01-3.38113E-01 2.29121E-01-3.11672E-01-5.65929E-13-1.52489E-13
 -1      2214 3.89292E+01 3.92176E+00 3.88492E-01 1.27830E+00-7.55951E-13-2.92655E-13
 -1      2215 3.93485E+01 6.98808E+00 4.27787E-01 9.17397E-01-9.30755E-13-4.16972E-13
 -1      2216 3.95339E+01 7.02551E+00 4.69657E-01-7.43339E-01-9.71778E-13-3.37452E-13
 -1      2217 3.86180E+01 3.58485E+00 3.81281E-01-8.86276E-01-8.94257E-13-2.68563E-13
 -1      2218 3.47536E+01-1.07539E+00 1.89365E-01 6.03555E-01-6.74960E-13-1.94067E-13
 -1      2219 2.78918E+01-4.91911E+00 8.14669E-02 3.83270E+00-4.09950E-13-3.60156E-13
 -1      2220 1.81108E+01-6.38635E+00-9.47154E-02 6.24544E+00-2.64622E-13-7.09544E-13
 -1      2221 9.60310E+00-6.28367E+00-2.07503E-01 5.89610E+00-1.62537E-13-9.72611E-13
 -1      2222 3.39575E+00-5.15605E+00-1.14123E-01 2.81997E+00-1.13631E-13-1.04133E-12
 -1      2223 3.97500E+00-2.59046E+00 1.01787E-01 2.10834E+00 6.75848E-15-1.04228E-12
 -1      2224 5.82557E+00-3.81307E+00-2.61837E-02 4.42087E+00 1.30174E-14-9.83269E-13
 -1      2225 1.97231E+00-4.18059E+00-1.28962E-01-1.78390E+00-2.87548E-14-1.12588E-12
 -1      2226 5.59939E+00-4.97551E+00-1.35202E-01-5.85638E+00 2.53686E-14-1.04161E-12
 -1      2227 1.25312E+01-5.46387E+00-1.14871E-01-7.47629E+00 1.61149E-13-8.47850E-13
 -1      2228 2.88099E+01-1.43602E+00 8.41260E-02-4.44759E+00 5.13589E-13-5.51503E-13
 -1      2229 3.01210E+01-1.72522E+00-1.69345E-01-2.03502E+00 2.87381E-13-1.50380E-13
 -1      2230 2.72969E+01-3.35037E+00 1.43470E-01-4.24265E+00 1.82299E-13-2.80137E-13
 -1      2231 3.63041E+01 6.67801E+00 2.67197E-01-6.97843E-02 8.68805E-13-2.46692E-13
 -1      2232 3.67862E+01 7.34426E+00 3.07232E-01 1.60027E-01 8.47766E-13-3.77420E-13
 -1      2233 3.74232E+01 8.60426E+00 3.19698E-01 6.42886E-02 8.75522E-13-3.21805E-13
 -1      2234 2.08326E+01-4.49637E+00 7.05394E-02-6.91489E+00 2.62290E-13-6.53172E-13
 -1      2235 3.09245E+01 4.19143E-02-1.30213E-01-3.71413E+00-3.66651E-13 2.03129E-13
 -1      2236 1.74571E+01 4.30331E+00-2.06703E-03-8.58075E-01-1.24957E-13-6.16799E-13
 -1      2237 1.74900E+01 4.32389E+00-1.26061E-02-8.39388E-01-1.69689E-13-6.20003E-13
 -1      2238 1.76429E+01 4.31536E+00-1.00374E-02-7.18334E-01-1.91808E-13-6.15523E-13
 -1      2239 1.79210E+01 4.25067E+00-9.70722E-03-6.84748E-01-2.42112E-13-5.88446E-13
 -1      2240 1.75493E+01 4.09547E+00 1.00633E-02-7.67616E-01-1.76700E-13-5.86145E-13
 -1      2241 1.81639E+01 3.81154E+00 3.21705E-03-7.32858E-01 1.14610E-14-5.77063E-13
 -1      2242 1.78937E+01 3.91574E+00-1.41048E-02-8.41531E-01-3.43818E-14-5.94547E-13
 -1      2243 1.87617E+01 3.50051E+00 4.91670E-04-4.17834E-01 8.71199E-14-5.57981E-13
 -1      2244 1.84527E+01 3.60863E+00-1.29537E-02-5.95431E-01 4.26441E-14-5.67663E-13
 -1      2245 1.84318E+01 3.32504E+00-5.86433E-03-8.03129E-01 5.87041E-15-5.37470E-13
 -1      2246 1.93513E+01 3.22130E+00-4.39826E-03 1.38507E-02 1.71073E-13-5.25896E-13
 -1      2247 1.90577E+01 3.32160E+00-1.19280E-02-2.09721E-01 1.23139E-13-5.46754E-13
 -1      2248 1.90828E+01 2.97176E+00-7.77062E-03-4.43325E-01 9.00204E-14-5.15259E-13
 -1      2249 1.99010E+01 2.96327E+00-1.06850E-02 5.18470E-01 2.60053E-13-4.20839E-13
 -1      2250 1.96318E+01 3.06635E+00-1.20715E-02 2.63848E-01 2.02986E-13-4.78280E-13
 -1      2251 1.97028E+01 2.66372E+00-6.92345E-03 2.58050E-02 1.73564E-13-4.60724E-13
 -1      2252 2.04049E+01 2.68194E+00-1.92910E-02 1.02709E+00 3.46717E-13-3.10214E-13
 -1      2253 2.01569E+01 2.81417E+00-1.37194E-02 7.69635E-01 2.90953E-13-3.73781E-13
 -1      2254 2.02556E+01 2.38190E+00-3.69776E-03 5.28808E-01 2.53783E-13-3.60766E-13
 -1      2255 2.09100E+01 2.28082E+00-3.18947E-02 1.45751E+00 4.19119E-13-1.81409E-13
 -1      2256 2.06528E+01 2.50136E+00-1.68104E-02 1.23894E+00 3.75915E-13-2.55769E-13
 -1      2257 2.07455E+01 2.06994E+00 1.78610E-03 9.81154E-01 3.34158E-13-2.39279E-13
 -1      2258 2.14947E+01 1.63355E+00-2.94461E-02 1.65786E+00 4.28147E-13 9.78106E-14
 -1      2259 2.11965E+01 2.02891E+00-1.02449E-02 1.58225E+00 4.21605E-13-7.12295E-14
 -1      2260 2.12238E+01 1.63284E+00 1.41053E-02 1.27246E+00 3.95091E-13-9.60863E-14
 -1      2261 2.17954E+01 9.56064E-01-1.97142E-02 1.41111E+00 3.84491E-13 3.43163E-13
 -1      2262 2.16350E+01 1.40670E+00 3.74858E-04 1.58593E+00 4.08408E-13 1.97682E-13
 -1      2263 2.14519E+01 1.08744E+00-2.35323E-03 1.24030E+00 3.93852E-13 8.10675E-14
 -1      2264 2.14824E+01 6.13327E-01-5.07137E-03 9.82733E-01 3.34600E-13 2.80331E-13
 -1      2265 3.13764E+01-1.98193E+00-4.87458E-02 2.80377E+00-1.48548E-13-7.99583E-13
 -1      2266 3.05132E+01-3.68142E+00-8.66481E-02 1.63152E+00 5.28744E-14-8.41924E-13
 -1      2267 2.18063E+01 1.38379E+00 1.14928E-02 6.72183E-01-2.76362E-13-1.11865E-13
 -1      2268 2.18235E+01 1.21814E+00 1.00312E-02 1.17063E+00-2.36367E-13-1.12027E-13
 -1      2269 1.93448E+01-5.17458E+00 1.81167E-02 7.28632E+00-9.33420E-14-9.79494E-14
 -1      2270 1.54541E+01-5.00214E+00 1.16995E-01 7.45143E+00-1.73084E-13-4.52693E-14
 -1      2271 2.17380E+01 1.08573E+00 1.15544E-02 1.62562E+00-1.96846E-13-9.52244E-14
 -1      2272 2.18918E+01 9.45515E-01 1.29096E-02 2.00432E+00-1.40413E-13-1.01408E-13
 -1      2273 2.09571E+01 1.53452E+00-1.09404E-03 1.39280E+00-2.15303E-13-2.17730E-13
 -1      2274 2.18605E+01 7.61921E-01 1.32194E-02 2.42149E+00-6.99658E-14-8.78892E-14
 -1      2275 2.21863E+01 4.82305E-01 1.25840E-02 2.68143E+00-1.01772E-14-6.88984E-14
 -1      2276 2.08043E+01 1.13654E+00-3.85725E-03 2.30375E+00-1.06282E-13-1.77836E-13
 -1      2277 2.23427E+01 1.11983E-01 2.75270E-02 2.99167E+00 4.08189E-14-2.18336E-14
 -1      2278 2.28642E+01-4.41568E-01 9.55045E-03 3.01399E+00 8.86877E-14-1.07108E-14
 -1      2279 2.08442E+01 4.33782E-01-1.42190E-02 3.08114E+00 2.32522E-14-1.51061E-13
 -1      2280 2.34690E+01-1.12646E+00 6.66603E-02 3.10691E+00 1.35588E-13 2.88597E-14
 -1      2281 2.42660E+01-2.03293E+00 4.94922E-03 2.74787E+00 1.65312E-13 3.66985E-14
 -1      2282 2.14058E+01-9.44700E-01-3.69301E-02 3.62533E+00 1.14127E-13-1.05863E-13
 -1      2283 2.56359E+01-2.98976E+00 9.52458E-02 2.37535E+00 1.79275E-13 1.26250E-13
 -1      2284 2.67127E+01-3.87341E+00-2.16426E-02 1.48966E+00 1.66187E-13 1.44783E-13
 -1      2285 2.30295E+01-3.04850E+00-5.42301E-02 3.60241E+00 2.04874E-13 1.95087E-14
 -1      2286 2.92866E+01-4.21277E+00 1.56569E-02-4.23397E-02 8.28226E-14 2.13010E-13
 -1      2287 3.03921E+01-3.26674E+00 1.02740E-02-1.39021E+00-1.18048E-13 2.27429E-13
 -1      2288 1.99993E+01-7.28834E-04-4.69185E-06-1.20085E-03-1.15777E-13 3.39950E-13
 -1      2289 3.42812E+01 3.62128E+00-1.37321E-01-2.61511E+00-7.83817E-13-8.07965E-14
 -1      2290 3.42225E+01 5.10485E+00-1.19132E-01-1.51894E+00-8.70026E-13-2.32342E-13
 -1      2291 2.82914E+01-3.89368E+00-2.37097E-02-2.29737E-02 9.32171E-14-8.78062E-13
 -1      2292 2.72537E+01-3.45158E+00 5.49515E-02-1.20390E+00 1.62623E-13-8.55184E-13
 -1      2293 2.56315E+01-2.58735E+00-9.40657E-03-1.96735E+00 2.42507E-13-7.54662E-13
 -1      2294 2.47909E+01-1.70700E+00 7.12429E-02-2.59815E+00 2.62970E-13-6.28414E-13
 -1      2295 2.49115E+01-3.65587E+00-1.92310E-02-2.63011E+00 2.58356E-13-5.94073E-13
 -1      2296 2.38865E+01-9.85056E-01-5.39908E-03-2.78579E+00 2.07834E-13-5.39963E-13
 -1      2297 2.32624E+01-3.62586E-01 3.15745E-02-2.95527E+00 1.67539E-13-4.51799E-13
 -1      2298 2.26518E+01-1.70130E+00-3.83801E-02-3.36077E+00 2.85064E-13-4.10560E-13
 -1      2299 2.28731E+01 3.20789E-02 2.36628E-03-2.82561E+00 1.15455E-13-4.40768E-13
 -1      2300 2.24071E+01 3.21560E-01 8.76713E-03-2.73883E+00 1.42810E-13-3.53272E-13
 -1      2301 2.15868E+01-2.00283E-01-2.04755E-02-3.25751E+00 2.00724E-13-2.81115E-13
 -1      2302 2.22514E+01 4.70829E-01 7.44852E-03-2.50694E+00 1.00357E-13-3.30475E-13
 -1      2303 2.18851E+01 5.58777E-01 4.80603E-04-2.31389E+00 2.68117E-14-3.56621E-13
 -1      2304 2.11589E+01 5.14668E-01-5.79121E-03-2.84478E+00 1.41762E-13-3.33668E-13
 -1      2305 2.18133E+01 5.77800E-01 1.04349E-02-2.06640E+00 8.95594E-15-3.58029E-13
 -1      2306 2.15120E+01 5.68592E-01-2.36411E-03-1.85373E+00 4.59225E-14-3.66831E-13
 -1      2307 2.09698E+01 7.37067E-01 4.99653E-04-2.34814E+00 4.94370E-14-3.15402E-13
 -1      2308 2.14568E+01 5.30968E-01 1.07822E-02-1.61879E+00-1.56090E-14-3.87595E-13
 -1      2309 2.12010E+01 4.84204E-01-2.26669E-03-1.41819E+00-6.04204E-14-4.08397E-13
 -1      2310 2.08481E+01 7.16457E-01 2.88004E-03-1.85837E+00-4.70717E-15-3.23452E-13
 -1      2311 2.11529E+01 4.34959E-01 1.01060E-02-1.23303E+00-1.09018E-13-4.44667E-13
 -1      2312 2.09545E+01 3.84017E-01-1.55893E-03-1.07579E+00-1.63507E-13-5.00703E-13
 -1      2313 2.07338E+01 6.02084E-01 1.94034E-03-1.43273E+00-5.92551E-14-3.06025E-13
 -1      2314 2.09039E+01 3.38047E-01 8.51877E-03-9.28170E-01-1.18495E-13-6.26506E-13
 -1      2315 2.07456E+01 2.92801E-01-1.01879E-03-8.04822E-01-4.83307E-14-6.31103E-13
 -1      2316 2.06210E+01 4.75270E-01 1.12721E-03-1.09272E+00-2.13954E-13-4.43591E-13
 -1      2317 2.06966E+01 2.54976E-01 6.82748E-03-6.90220E-01 8.20871E-14-6.46514E-13
 -1      2318 2.05726E+01 2.18566E-01-5.81757E-04-5.96133E-01 6.69690E-15-5.07719E-13
 -1      2319 2.05103E+01 3.62114E-01 4.00952E-04-8.23005E-01 3.69249E-14-5.07675E-13
 -1      2320 2.05279E+01 1.89285E-01 5.30842E-03-5.08650E-01 9.14622E-15-3.68676E-13
 -1      2321 2.04321E+01 1.61307E-01-2.84975E-04-4.38011E-01 3.39347E-14-2.65682E-13
 -1      2322 2.04081E+01 2.70560E-01-8.98981E-05-6.13796E-01 7.18857E-14-3.99696E-13
 -1      2323 2.03934E+01 1.39328E-01 4.04733E-03-3.71940E-01-1.16121E-13-1.89052E-13
 -1      2324 2.03204E+01 1.18330E-01-1.00787E-04-3.19389E-01-1.33804E-14-2.95733E-13
 -1      2325 2.03183E+01 2.00009E-01-3.62250E-04-4.53889E-01 2.22763E-14-2.40944E-13
 -1      2326 2.02881E+01 1.02100E-01 3.05252E-03-2.69839E-01 1.81121E-15-3.18184E-13
 -1      2327 2.02330E+01 8.64110E-02-6.80454E-05-2.30936E-01-5.40122E-14-2.93800E-13
 -1      2328 2.02427E+01 1.46985E-01-4.79962E-04-3.32861E-01-1.17849E-13-2.00980E-13
 -1      2329 2.02055E+01 7.38454E-02 2.24820E-03-1.92278E-01 1.49175E-14-2.65059E-13
 -1      2330 2.01632E+01 6.19634E-02 2.09996E-06-1.62544E-01 6.50827E-14-3.13680E-13
 -1      2331 2.01798E+01 1.07092E-01-3.74682E-04-2.40142E-01 4.39140E-15-2.14713E-13
 -1      2332 2.01431E+01 5.34715E-02 1.67982E-03-1.35581E-01 1.50221E-13-4.15876E-13
 -1      2333 2.01136E+01 4.50585E-02 7.15497E-05-1.14902E-01 2.58331E-13-3.49804E-13
 -1      2334 2.01299E+01 7.72759E-02-4.69202E-04-1.71000E-01 4.17903E-14-2.77751E-13
 -1      2335 2.00980E+01 3.87366E-02 1.22834E-03-9.49697E-02 1.90656E-13-3.56964E-13
 -1      2336 2.00767E+01 3.25496E-02 7.66310E-05-7.98881E-02 2.10371E-13-3.41420E-13
 -1      2337 2.00924E+01 5.61714E-02-4.07025E-04-1.21235E-01 2.22469E-13-3.44954E-13
 -1      2338 2.00649E+01 2.79018E-02 9.00743E-04-6.52810E-02 1.23575E-13-3.86975E-13
 -1      2339 2.00497E+01 2.33312E-02 7.04999E-05-5.43595E-02-8.41528E-14-3.80573E-13
 -1      2340 2.00639E+01 4.05827E-02-3.40033E-04-8.45048E-02 1.32556E-13-4.12770E-13
 -1      2341 2.00410E+01 1.99170E-02 6.56225E-04-4.37512E-02-1.32206E-13-3.86836E-13
 -1      2342 2.00305E+01 1.65428E-02 6.03239E-05-3.59182E-02-9.52879E-14-4.55188E-13
 -1      2343 2.00426E+01 2.90786E-02-2.75570E-04-5.76125E-02-6.21317E-14-3.24695E-13
 -1      2344 2.00242E+01 1.40403E-02 4.73723E-04-2.83018E-02-8.83820E-14-4.67610E-13
 -1      2345 2.00170E+01 1.15557E-02 4.84792E-05-2.27556E-02-2.57401E-13-4.58221E-13
 -1      2346 2.00272E+01 2.05986E-02-2.18087E-04-3.81209E-02-1.32347E-13-4.34098E-13
 -1      2347 2.00126E+01 9.73773E-03 3.39976E-04-1.73689E-02-5.61175E-13-4.07137E-13
 -1      2348 2.00079E+01 7.89881E-03 3.00666E-05-1.35019E-02-6.66146E-13-4.66177E-13
 -1      2349 2.00162E+01 1.43636E-02-1.70013E-04-2.41730E-02-3.99751E-13-4.27116E-13
 -1      2350 2.00048E+01 6.51683E-03 2.37208E-04-9.60140E-03-5.01948E-13-3.50639E-13
 -1      2351 2.00017E+01 5.14553E-03 2.19760E-05-6.87698E-03-1.56227E-13-3.49270E-13
 -1      2352 2.00084E+01 9.76299E-03-1.14400E-04-1.41784E-02-4.70414E-13-3.43267E-13
 -1      2353 1.99998E+01 4.23855E-03 1.62462E-04-4.40552E-03 3.43711E-14-2.98417E-13
 -1      2354 1.99981E+01 3.30069E-03 2.06810E-05-2.70850E-03 9.95461E-14-3.86436E-13
 -1      2355 2.00032E+01 6.37428E-03-9.55156E-05-7.30949E-03 2.50944E-14-2.50895E-13
 -1      2356 1.99970E+01 2.64566E-03 1.06606E-04-1.08980E-03 9.85892E-14-3.81897E-13
 -1      2357 1.99961E+01 1.99103E-03 1.54599E-05-2.14630E-05 1.09429E-13-5.54968E-13
 -1      2358 2.00000E+01 4.05974E-03-6.93149E-05-2.86379E-03 3.30182E-14-2.26912E-13
 -1      2359 1.99955E+01 1.53811E-03 6.82914E-05 9.84200E-04 2.40791E-13-6.44813E-13
 -1      2360 1.99952E+01 1.08691E-03 1.09500E-05 1.61248E-03 1.38091E-13-7.19830E-13
 -1      2361 1.99981E+01 2.42856E-03-4.95540E-05-1.48589E-07 1.80430E-13-3.22047E-13
 -1      2362 1.99949E+01 7.82721E-04 4.12260E-05 2.18977E-03 3.08982E-14-7.17591E-13
 -1      2363 1.99950E+01 4.80377E-04 7.53223E-06 2.51668E-03 1.01072E-13-5.47644E-13
 -1      2364 1.99971E+01 1.30617E-03-3.45931E-05 1.74207E-03 1.20602E-13-3.04344E-13
 -1      2365 1.99949E+01 2.83639E-04 2.24892E-05 2.80222E-03 9.06537E-14-4.72680E-13
 -1      2366 1.99952E+01 8.81430E-05 4.83835E-06 2.92883E-03 7.69581E-14-4.03057E-13
 -1      2367 1.99967E+01 5.55681E-04-2.34379E-05 2.70651E-03 1.14723E-13-2.37550E-13
 -1      2368 1.99953E+01-3.18455E-05 1.01394E-05 3.02148E-03-4.47189E-14-4.11751E-13
 -1      2369 1.99957E+01-1.54738E-04 2.58760E-06 3.02057E-03-8.17957E-14-4.71987E-13
 -1      2370 1.99967E+01 7.17115E-05-1.53160E-05 3.14579E-03-3.73117E-14-1.41161E-13
 -1      2371 1.99958E+01-2.25314E-04 2.31638E-06 2.98704E-03 2.35600E-14-4.14972E-13
 -1      2372 1.99963E+01-3.00589E-04 8.44767E-07 2.90157E-03 1.49905E-14-3.11409E-13
 -1      2373 1.99969E+01-2.26999E-04-8.96391E-06 3.23940E-03-4.46886E-16-2.23262E-13
 -1      2374 1.99965E+01-3.34393E-04-3.28044E-06 2.79389E-03-3.73124E-14-3.84663E-13
 -1      2375 1.99970E+01-3.75087E-04-3.40080E-07 2.66535E-03-1.15190E-13-2.37889E-13
 -1      2376 1.99973E+01-4.04561E-04-4.99827E-06 3.11092E-03-8.46430E-14-2.12887E-13
 -1      2377 1.99972E+01-3.95144E-04-6.11119E-06 2.51515E-03-1.25448E-14-1.90129E-13
 -1      2378 1.99976E+01-4.21755E-04-1.79935E-06 2.35880E-03 8.77558E-14-9.00384E-15
 -1      2379 1.99978E+01-5.00348E-04-2.13834E-06 2.85320E-03-1.73045E-14-2.88310E-13
 -1      2380 1.99978E+01-4.38386E-04-7.15579E-06 2.18137E-03 5.80594E-14 1.20189E-13
 -1      2381 1.99982E+01-4.65166E-04-3.49867E-06 2.00442E-03 8.37511E-14 5.16678E-14
 -1      2382 1.99982E+01-5.63834E-04-4.35285E-07 2.51661E-03 1.78443E-13-2.18419E-13
 -1      2383 1.99984E+01-4.88398E-04-6.46156E-06 1.80519E-03-8.14048E-14 1.08891E-13
 -1      2384 1.99988E+01-5.23976E-04-4.29963E-06 1.60657E-03 5.15190E-14 1.61555E-13
 -1      2385 1.99986E+01-6.26713E-04 4.10545E-07 2.12758E-03 1.80923E-14-5.67482E-14
 -1      2386 1.99989E+01-5.33742E-04-6.40375E-06 1.41289E-03 1.01074E-13-2.48852E-14
 -1      2387 1.99992E+01-5.74762E-04-6.71315E-06 1.19365E-03-7.83966E-14 2.94326E-14
 -1      2388 1.99993E+01-7.29501E-04-4.80520E-06 1.30499E-03-4.84220E-14-2.51311E-13
 -1      2389 1.99990E+01-6.84506E-04-3.24488E-06 1.72023E-03 1.75201E-14 9.79782E-14
 -1      2390 2.05558E+01-2.34737E-01-2.99928E-03 7.80133E-01 1.04669E-13 8.74090E-14
 -1      2391 2.06986E+01-2.39751E-01 2.43919E-03 6.96278E-01 1.34668E-13 8.95633E-14
 -1      2392 2.07451E+01-2.18520E-01-5.59338E-03 6.03767E-01 1.41026E-13 1.12115E-13
 -1      2393 2.08808E+01-1.63086E-01 8.17964E-03 5.42866E-01 1.53183E-13 1.36525E-13
 -1      2394 2.10347E+01-2.92322E-01 4.36513E-04 7.29853E-01 1.58300E-13 6.30377E-14
 -1      2395 2.09128E+01-8.57501E-02-5.02829E-03 5.05408E-01 1.83588E-13 8.99490E-14
 -1      2396 2.10507E+01 2.31972E-02 1.00461E-02 5.14886E-01 2.02626E-13 9.92268E-14
 -1      2397 2.11191E+01-1.51611E-01-2.74818E-03 5.97553E-01 1.60404E-13 4.41146E-14
 -1      2398 2.03166E+01-1.28512E-01 2.01252E-03 9.36033E-01 7.30832E-14 6.14720E-14
 -1      2399 2.04735E+01-1.97805E-01-1.93340E-03 8.76992E-01 7.44988E-14 8.10521E-14
 -1      2400 2.09094E+01-2.75877E-01 3.00733E-03 9.29831E-01 1.08781E-13 2.04962E-14
 -1      2401 2.00291E+01 8.68417E-02 7.98225E-03 9.68161E-01 7.56261E-14 6.07731E-14
 -1      2402 2.01887E+01-3.51869E-02-4.64791E-03 9.79471E-01 8.28092E-14 6.68054E-14
 -1      2403 2.07123E+01-9.81901E-02 3.84804E-03 1.08390E+00 9.42290E-14 4.13693E-14
 -1      2404 1.97366E+01 3.53576E-01 1.22198E-02 7.96967E-01 9.50871E-14 7.54080E-14
 -1      2405 1.98724E+01 2.15035E-01-4.55514E-03 9.07031E-01 5.95372E-14 8.19761E-14
 -1      2406 2.04466E+01 2.07352E-01 1.55848E-03 1.07282E+00 7.45945E-14 2.78474E-14
 -1      2407 1.95169E+01 5.73946E-01 1.21916E-02 4.08598E-01 1.40861E-13 8.50328E-14
 -1      2408 1.95968E+01 4.72718E-01-1.07530E-03 6.11206E-01 1.47997E-13 1.10655E-13
 -1      2409 2.01688E+01 5.49028E-01-3.46938E-03 8.14730E-01 1.12013E-13 4.59981E-14
 -1      2410 1.94495E+01 6.52265E-01 7.76410E-03-1.19497E-01 1.01240E-13 1.56341E-14
 -1      2411 1.94500E+01 6.33770E-01 4.90268E-03 1.29556E-01 1.40791E-13 6.55717E-14
 -1      2412 1.99744E+01 7.95682E-01-8.38019E-03 3.17198E-01 1.58730E-13 5.05566E-14
 -1      2413 1.95692E+01 5.50943E-01 1.35348E-03-6.42155E-01 7.43906E-14-2.13328E-15
 -1      2414 1.94868E+01 6.24640E-01 1.03560E-02-4.15166E-01 1.09482E-13-3.00809E-15
 -1      2415 1.99476E+01 8.39914E-01-9.22632E-03-3.02083E-01 1.27288E-13 1.01615E-14
 -1      2416 1.98411E+01 3.14479E-01-3.74946E-03-1.01388E+00 2.48664E-14-3.84469E-14
 -1      2417 1.96948E+01 4.47791E-01 1.21061E-02-8.68064E-01 5.96138E-14 3.32492E-15
 -1      2418 2.01033E+01 6.60038E-01-4.98503E-03-8.62038E-01 6.27757E-14 2.57115E-14
 -1      2419 2.01780E+01 3.90733E-02-5.96219E-03-1.15668E+00-4.20830E-14-5.82475E-14
 -1      2420 2.00018E+01 1.79493E-01 9.09878E-03-1.11656E+00-6.70351E-15-5.27609E-14
 -1      2421 2.03742E+01 3.30791E-01 6.86321E-04-1.20832E+00 3.08934E-14-2.00068E-14
 -1      2422 2.04884E+01-1.84998E-01-5.32178E-03-1.08111E+00-1.76633E-14-1.71329E-13
 -1      2423 2.03175E+01-8.02425E-02 3.27658E-03-1.13398E+00 2.08422E-14-1.30807E-13
 -1      2424 2.06560E+01-2.08200E-02 4.75338E-03-1.28387E+00 2.77264E-14-1.41551E-13
 -1      2425 2.07132E+01-3.11841E-01-3.27597E-03-8.58259E-01-8.19267E-15-2.00533E-13
 -1      2426 2.05735E+01-2.60119E-01-2.51885E-03-9.69346E-01-1.83408E-14-2.01434E-13
 -1      2427 2.08653E+01-2.89236E-01 5.91038E-03-1.13091E+00 5.32376E-15-1.75839E-13
 -1      2428 2.08346E+01-3.42598E-01-1.17876E-03-5.75047E-01 5.63902E-14-2.10050E-13
 -1      2429 2.07388E+01-3.38411E-01-6.39886E-03-7.06395E-01 4.42331E-14-2.27486E-13
 -1      2430 2.09680E+01-4.28173E-01 4.83355E-03-8.44720E-01 2.58995E-14-2.19025E-13
 -1      2431 2.08649E+01-3.05578E-01 3.06760E-04-3.01117E-01-3.62171E-14-1.10559E-13
 -1      2432 2.08138E+01-3.32253E-01-7.89311E-03-4.23891E-01 2.94894E-14-1.23409E-13
 -1      2433 2.09726E+01-4.47617E-01 2.96535E-03-5.21759E-01-2.32848E-14-1.77007E-13
 -1      2434 2.08286E+01-2.34661E-01 1.08445E-03-7.70927E-02-9.77712E-15-2.64806E-14
 -1      2435 2.08156E+01-2.74807E-01-7.50730E-03-1.75243E-01-7.51062E-14-6.53101E-14
 -1      2436 2.09082E+01-3.87211E-01 1.28187E-03-2.29962E-01-7.50459E-14-1.08807E-13
 -1      2437 2.07513E+01-1.56749E-01 1.32159E-03 8.24793E-02-1.11296E-14 7.60159E-14
 -1      2438 2.07668E+01-1.97604E-01-6.05990E-03 1.40052E-02 4.95409E-14 4.79135E-14
 -1      2439 2.08056E+01-2.90035E-01 1.41557E-04-3.49023E-03-4.54746E-14-6.63007E-15
 -1      2440 2.06538E+01-8.79509E-02 1.24806E-03 1.80359E-01 1.24298E-13 1.17666E-13
 -1      2441 2.06877E+01-1.22459E-01-4.26498E-03 1.39501E-01 6.93315E-14 1.16659E-13
 -1      2442 2.06888E+01-1.88605E-01-4.90266E-04 1.49841E-01 5.21328E-15 4.09239E-14
 -1      2443 2.05505E+01-3.50862E-02 1.04420E-03 2.27933E-01-6.84958E-14 2.04890E-13
 -1      2444 2.05943E+01-6.06985E-02-2.57688E-03 2.09194E-01 5.03271E-14 1.81782E-13
 -1      2445 2.05729E+01-1.01498E-01-7.75238E-04 2.37780E-01 3.85846E-14 1.98616E-13
 -1      2446 2.04508E+01 1.08523E-03 8.17035E-04 2.39059E-01-1.85838E-13 2.57025E-13
 -1      2447 2.04980E+01-1.58391E-02-1.21307E-03 2.36085E-01-8.14526E-14 2.00432E-13
 -1      2448 2.04661E+01-3.59082E-02-8.60939E-04 2.74720E-01-1.01977E-13 2.80040E-13
 -1      2449 2.03600E+01 2.29159E-02 6.16009E-04 2.26596E-01-7.35048E-14 6.04346E-14
 -1      2450 2.04061E+01 1.31644E-02-2.31275E-04 2.33620E-01-1.44569E-13 1.86245E-13
 -1      2451 2.03722E+01 8.11360E-03-8.46350E-04 2.76037E-01-7.63268E-14 1.23545E-13
 -1      2452 2.02809E+01 3.38485E-02 4.56681E-04 2.00894E-01 6.99190E-14 1.26990E-13
 -1      2453 2.03229E+01 2.93873E-02 3.99822E-04 2.13345E-01-2.09279E-14 4.48745E-14
 -1      2454 2.02921E+01 3.40348E-02-7.86573E-04 2.55188E-01-6.60171E-16 6.02575E-14
 -1      2455 2.02140E+01 3.72714E-02 3.37665E-04 1.69476E-01 2.64929E-13 1.00628E-13
 -1      2456 2.02506E+01 3.63540E-02 7.49849E-04 1.84081E-01 2.37891E-13 1.11148E-13
 -1      2457 2.02253E+01 4.64224E-02-7.08947E-04 2.22623E-01 1.26177E-13 1.10218E-13
 -1      2458 2.01592E+01 3.60044E-02 2.51383E-04 1.37337E-01 1.28983E-13 8.98151E-14
 -1      2459 2.01898E+01 3.72260E-02 8.95972E-04 1.51959E-01 1.99664E-13 1.00903E-13
 -1      2460 2.01708E+01 4.96184E-02-6.26027E-04 1.85743E-01 1.77829E-13 1.05776E-13
 -1      2461 2.01153E+01 3.21605E-02 1.89437E-04 1.07463E-01-4.98942E-14 5.95776E-14
 -1      2462 2.01401E+01 3.44949E-02 9.07112E-04 1.20858E-01 1.16605E-13 1.20591E-13
 -1      2463 2.01269E+01 4.71700E-02-5.43390E-04 1.49334E-01 1.66142E-13 1.16963E-13
 -1      2464 2.00811E+01 2.71981E-02 1.44726E-04 8.13875E-02-1.79023E-13 7.85540E-15
 -1      2465 2.01005E+01 2.99534E-02 8.37865E-04 9.29452E-02-1.78090E-13 2.76068E-15
 -1      2466 2.00923E+01 4.17018E-02-4.63927E-04 1.16171E-01-5.35264E-14 9.05964E-14
 -1      2467 2.00549E+01 2.20467E-02 1.11911E-04 5.96597E-02-1.16724E-13-4.90731E-14
 -1      2468 2.00697E+01 2.47937E-02 7.27930E-04 6.91938E-02-1.13524E-13-3.06560E-14
 -1      2469 2.00655E+01 3.50054E-02-3.89561E-04 8.75924E-02-1.23585E-13 1.74247E-14
 -1      2470 2.00353E+01 1.72440E-02 8.72754E-05 4.22212E-02 2.16311E-14-3.04552E-14
 -1      2471 2.00463E+01 1.97437E-02 6.04052E-04 4.98011E-02-1.78880E-14-2.14495E-14
 -1      2472 2.00450E+01 2.82084E-02-3.21631E-04 6.39824E-02-9.76804E-14-1.13776E-13
 -1      2473 2.00212E+01 1.30572E-02 6.83451E-05 2.86741E-02 6.53627E-14 2.82162E-14
 -1      2474 2.00291E+01 1.51995E-02 4.82805E-04 3.45072E-02 1.22310E-13-1.28558E-14
 -1      2475 2.00297E+01 2.19521E-02-2.61007E-04 4.51464E-02 3.45749E-14-5.31589E-14
 -1      2476 2.00112E+01 9.57861E-03 5.35162E-05 1.84645E-02 2.39373E-13-5.48201E-14
 -1      2477 2.00166E+01 1.13347E-02 3.73362E-04 2.28169E-02 1.19819E-13 3.96592E-14
 -1      2478 2.00185E+01 1.65442E-02-2.08116E-04 3.05765E-02 1.63251E-13 1.27273E-14
 -1      2479 2.00044E+01 6.79647E-03 4.17542E-05 1.09991E-02 2.16398E-13-1.47466E-13
 -1      2480 2.00080E+01 8.18480E-03 2.79857E-04 1.41464E-02 2.64911E-13-1.40469E-13
 -1      2481 2.00105E+01 1.20794E-02-1.62971E-04 1.96310E-02 2.88341E-13-7.49686E-14
 -1      2482 1.99999E+01 4.64289E-03 3.23747E-05 5.71366E-03 1.43982E-13-3.45820E-14
 -1      2483 2.00022E+01 5.70599E-03 2.03229E-04 7.91297E-03 1.68870E-13-1.38474E-13
 -1      2484 2.00050E+01 8.52678E-03-1.25247E-04 1.16470E-02 2.00980E-13-1.95608E-13
 -1      2485 1.99973E+01 3.02556E-03 2.48993E-05 2.10814E-03 2.24215E-14-4.96591E-14
 -1      2486 1.99986E+01 3.81531E-03 1.42553E-04 3.58386E-03 7.07188E-14 9.37734E-14
 -1      2487 2.00013E+01 5.78920E-03-9.43619E-05 6.00533E-03 4.80065E-14-1.61931E-13
 -1      2488 1.99958E+01 1.84695E-03 1.89678E-05-2.39505E-04 4.99618E-14-9.59467E-14
 -1      2489 1.99964E+01 2.41578E-03 9.59517E-05 6.99865E-04 4.90505E-14-7.01721E-14
 -1      2490 1.99990E+01 3.74213E-03-6.95711E-05 2.16321E-03 4.58328E-14 1.19895E-13
 -1      2491 1.99953E+01 1.01504E-03 1.42855E-05-1.67201E-03 2.14608E-13-2.40905E-13
 -1      2492 1.99954E+01 1.41116E-03 6.11828E-05-1.11852E-03 2.00247E-13-7.62386E-14
 -1      2493 1.99977E+01 2.25687E-03-5.00507E-05-3.34374E-04 1.81837E-13 4.47089E-14
 -1      2494 1.99952E+01 4.48545E-04 1.05928E-05-2.45883E-03-7.65936E-14-1.64934E-13
 -1      2495 1.99951E+01 7.13877E-04 3.59974E-05-2.17412E-03 3.09849E-14-3.09057E-13
 -1      2496 1.99970E+01 1.21341E-03-3.49680E-05-1.85524E-03 7.89827E-14 8.66505E-14
 -1      2497 1.99956E+01 7.86183E-05 7.64776E-06-2.80526E-03-2.30306E-13 7.02253E-14
 -1      2498 1.99952E+01 2.48249E-04 1.83355E-05-2.70109E-03-1.73604E-13-5.70420E-14
 -1      2499 1.99969E+01 5.06505E-04-2.35313E-05-2.68751E-03-1.94805E-13 2.50774E-13
 -1      2500 1.99961E+01-1.51557E-04 5.21512E-06-2.86252E-03-1.56877E-13 1.39946E-14
 -1      2501 1.99957E+01-4.88937E-05 6.42094E-06-2.87481E-03-9.93163E-14-4.87987E-15
 -1      2502 1.99970E+01 4.73168E-05-1.50240E-05-3.05000E-03-1.52092E-13 2.05068E-13
 -1      2503 1.99967E+01-2.88304E-04 3.06447E-06-2.73725E-03-5.27328E-15-3.25634E-15
 -1      2504 1.99963E+01-2.29281E-04-1.21272E-06-2.82170E-03-7.56059E-14 4.94326E-14
 -1      2505 1.99973E+01-2.37327E-04-8.82873E-06-3.10336E-03-1.01251E-13 1.18280E-13
 -1      2506 1.99973E+01-3.69433E-04 9.94144E-07-2.49979E-03 6.00989E-14-1.63437E-13
 -1      2507 1.99969E+01-3.35049E-04-5.72324E-06-2.62825E-03 1.28547E-13-6.21058E-14
 -1      2508 1.99976E+01-4.07118E-04-4.44427E-06-2.96040E-03 1.44029E-14-9.06250E-14
 -1      2509 1.99979E+01-4.26280E-04-1.15237E-06-2.19145E-03-1.89149E-13 9.98238E-14
 -1      2510 1.99975E+01-4.00809E-04-8.02650E-06-2.34873E-03-1.45989E-13-3.34007E-14
 -1      2511 1.99980E+01-5.10585E-04-1.46206E-06-2.69539E-03-1.24357E-13-7.42987E-14
 -1      2512 1.99985E+01-4.84330E-04-3.69542E-06-1.83075E-03-1.42459E-13 3.00516E-14
 -1      2513 1.99981E+01-4.55539E-04-8.87130E-06-2.01128E-03-8.94391E-14 1.33477E-13
 -1      2514 1.99985E+01-5.87360E-04 4.99291E-07-2.35206E-03-1.24483E-13-2.40392E-13
 -1      2515 1.99990E+01-5.56929E-04-8.68481E-06-1.42422E-03-7.53565E-14 1.85727E-13
 -1      2516 1.99987E+01-5.18920E-04-9.70824E-06-1.62248E-03-9.34389E-14 1.20581E-13
 -1      2517 1.99989E+01-6.67532E-04 2.25379E-06-1.94960E-03-1.62966E-13 9.92412E-14
 -1      2518 3.36705E+01 5.78438E+00-1.96731E-01-3.27423E-01-8.82516E-13-3.20792E-13
 -1      2519 2.00002E+01-2.34137E-03 9.03298E-06-1.25472E-03-1.32920E-13-2.65276E-13
 -1      2520 2.00001E+01-2.13054E-03-7.56337E-07-1.38073E-03-2.99239E-13-5.16901E-13
 -1      2521 2.00000E+01-1.92402E-03 7.70633E-06-1.48697E-03-5.11350E-13-5.85363E-13
 -1      2522 1.99998E+01-1.68200E-03-4.59715E-06-1.52916E-03-3.13335E-13-5.82814E-13
 -1      2523 2.00001E+01-1.90296E-03-3.82271E-06-1.62779E-03-4.04647E-13-3.92290E-13
 -1      2524 1.99997E+01-1.44223E-03 5.28265E-06-1.53356E-03-1.63950E-13-3.47990E-13
 -1      2525 1.99996E+01-1.18498E-03-9.60465E-06-1.47679E-03-1.36764E-13-9.04155E-15
 -1      2526 1.99998E+01-1.47385E-03-3.11925E-06-1.75024E-03-3.41164E-13-6.26229E-13
 -1      2527 1.03031E+01-4.12507E+00 1.02066E-02 7.38406E+00-1.63258E-13 2.27041E-13
 -1      2528 6.95144E+00-3.63575E+00 1.12416E-01 5.88323E+00-1.65867E-13 4.97630E-13
 -1      2529 2.00004E+01-2.65967E-03 9.46853E-06-8.75748E-04 1.51615E-13 6.89077E-14
 -1      2530 2.00003E+01-2.50547E-03 2.57794E-06-1.06547E-03 4.15109E-14-1.64241E-13
 -1      2531 2.00004E+01-2.25861E-03-5.63495E-06-1.31408E-03 3.34684E-14-6.35412E-14
 -1      2532 2.00004E+01-2.84559E-03 9.08382E-06-4.00026E-04-6.25943E-14 5.16997E-13
 -1      2533 2.00004E+01-2.76381E-03 5.59204E-06-6.28894E-04-7.55080E-14 3.36642E-13
 -1      2534 2.00006E+01-2.51643E-03-6.66301E-06-8.50984E-04 4.99298E-14 1.59156E-13
 -1      2535 2.00005E+01-2.88318E-03 7.90205E-06 1.18786E-04-2.53543E-13 8.19068E-13
 -1      2536 2.00005E+01-2.88250E-03 7.70655E-06-1.23670E-04-2.34765E-13 7.44929E-13
 -1      2537 2.00007E+01-2.65225E-03-7.26994E-06-2.96559E-04-5.79767E-14 4.31770E-13
 -1      2538 2.00004E+01-2.76918E-03 5.91462E-06 6.25860E-04-1.43717E-13 1.85964E-13
 -1      2539 2.00005E+01-2.85001E-03 8.93408E-06 3.95977E-04-3.08357E-13 6.03481E-13
 -1      2540 2.00007E+01-2.65588E-03-7.28655E-06 2.89884E-04-1.63460E-13 6.76367E-13
 -1      2541 2.00003E+01-2.51942E-03 2.86044E-06 1.05951E-03 6.06698E-14-1.54037E-13
 -1      2542 2.00004E+01-2.66998E-03 9.42730E-06 8.70910E-04-5.10361E-15-2.96808E-13
 -1      2543 2.00006E+01-2.52798E-03-6.84985E-06 8.43283E-04-7.28378E-14 1.25847E-13
 -1      2544 2.00001E+01-2.14717E-03-9.80290E-07 1.38151E-03 1.53239E-13 1.93703E-13
 -1      2545 2.00002E+01-2.35725E-03 9.17467E-06 1.25264E-03 1.51441E-13-5.34634E-14
 -1      2546 2.00004E+01-2.27720E-03-5.79553E-06 1.30876E-03 3.42125E-13-1.75971E-13
 -1      2547 1.99998E+01-1.69015E-03-5.10046E-06 1.53536E-03 1.77690E-13 1.58780E-13
 -1      2548 2.00000E+01-1.93507E-03 8.31416E-06 1.49122E-03 2.15272E-14 4.22546E-13
 -1      2549 2.00001E+01-1.91863E-03-4.05991E-06 1.63227E-03 2.23987E-13 1.40729E-13
 -1      2550 1.99995E+01-1.18765E-03-8.81667E-06 1.48503E-03-8.40228E-14-1.18504E-13
 -1      2551 1.99997E+01-1.44386E-03 6.67757E-06 1.54079E-03-6.61831E-14-2.15211E-13
 -1      2552 1.99998E+01-1.48001E-03-9.50514E-07 1.76071E-03 1.85959E-14-1.50452E-13
 -1      2553 2.15527E+01 2.35588E+00-7.64198E-03-5.85075E-01-3.79682E-13-1.96995E-13
 -1      2554 2.17125E+01 1.68790E+00 3.69937E-03 2.12859E-01-3.29710E-13-1.56208E-13
 -1      2555 2.09728E+01 2.05445E+00 2.33116E-03 4.21765E-01-3.03165E-13-2.50859E-13
 -1      2556 2.07288E+01 2.92852E+00 6.79996E-05-5.25016E-01-3.73604E-13-3.08316E-13
 -1      2557 3.18962E+00-2.49066E+00 1.02403E-01 9.46323E-02 1.50439E-13 1.08735E-12
 -1      2558 4.13366E+00-2.94627E+00 8.55627E-02-2.39478E+00 1.33366E-13 1.12899E-12
 -1      2559 2.12374E+01-6.25475E+00 1.72847E-02-5.14949E+00 1.70308E-13-6.46774E-14
 -1      2560 2.55728E+01-5.98000E+00-2.54893E-02-4.12795E+00-9.60898E-14-2.38531E-13
 -1      2561 3.28046E+01 5.26202E+00-1.22018E-01 7.45146E-01 7.59393E-13-6.70852E-14
 -1      2562 3.35145E+01 6.85578E+00-1.30238E-01 6.80202E-01 8.27061E-13-1.26649E-13
 -1      2563 2.48587E+01-4.44156E+00-6.20685E-02 5.26257E+00-7.93254E-14-2.79290E-13
 -1      2564 2.18617E+01-5.19674E+00-2.28642E-02 6.20002E+00-1.11106E-13-1.83242E-13
 -1      2565 2.16076E+01-5.20951E+00 9.37922E-02 6.17368E+00-3.12639E-13-3.11187E-13
 -1      2566 1.76790E+01 4.10555E+00 2.56166E-03-8.80288E-01-5.68011E-14-6.18519E-13
 -1      2567 1.75216E+01 4.18294E+00-1.41053E-02-9.16198E-01-1.01825E-13-6.20645E-13
 -1      2568 1.75003E+01 3.98501E+00 4.88020E-03-9.65362E-01-1.16862E-13-5.85282E-13
 -1      2569 1.78498E+01 3.69190E+00-1.16688E-03-9.88280E-01-5.30227E-14-5.80714E-13
 -1      2570 3.36565E+01 8.00052E+00-1.28457E-01 2.95196E-01 8.39384E-13-2.20768E-13
 -1      2571 3.38018E+01 8.14694E+00-1.22565E-01-7.47739E-02 8.26450E-13-2.76189E-13
 -1      2572 3.28173E+01 4.03100E+00-1.04058E-01-4.75423E-01 6.40127E-13-4.68292E-13
 -1      2573 3.16925E+01 2.19140E+00-1.33501E-01-1.93549E-01 5.29521E-13-5.19695E-13
 -1      2574 1.93202E+01-5.23734E+00 7.74888E-03-6.96260E+00-9.10383E-15-5.21874E-13
 -1      2575 2.30522E+01-4.68996E+00-4.31457E-02-6.12091E+00 1.12410E-14-3.90243E-13
 -1      2576 3.36731E+01 7.38022E+00-1.25789E-01-5.04014E-01 7.83207E-13-4.00846E-13
 -1      2577 3.30562E+01 5.97367E+00-1.41019E-01-6.46914E-01 7.89535E-13-4.38150E-13
 -1      2578 3.12757E+01 9.22579E-01-1.14153E-01-2.37890E-01 4.67515E-13-3.76921E-14
 -1      2579 3.25000E+01 2.96231E+00-1.10422E-01 3.25742E-01 6.32661E-13-1.02973E-14
 -1      2580 1.25177E+01-4.50262E+00 1.05624E-01-7.43649E+00-1.33060E-13-6.78901E-13
 -1      2581 1.59491E+01-4.95223E+00 1.19050E-02-7.74283E+00-1.43774E-14-6.14016E-13
 -1      2582 1.89637E+01-4.91873E+00 1.07782E-01-7.00480E+00-2.27734E-13-4.49106E-13
 -1      2583 5.65587E+00-3.09510E+00 9.42439E-02-5.02515E+00-1.27148E-13-1.01669E-12
 -1      2584 8.55427E+00-3.48385E+00 5.84423E-02-6.77004E+00-9.75886E-14-8.87568E-13
 -1      2585 3.74143E+00-1.75916E+00 1.57784E-01-8.95703E-01-1.86691E-14-1.04683E-12
 -1      2586 4.05607E+00-2.40444E+00 1.04642E-01-3.31999E+00-2.99205E-14-1.07075E-12
 -1      2587 6.86655E+00-1.40495E+00 1.62330E-01-4.19390E+00-1.59858E-13-1.00842E-12
 -1      2588 1.34312E+01-5.41610E+00-7.51135E-03 6.59890E+00 3.54716E-14-6.89185E-13
 -1      2589 9.99183E+00-4.73379E+00 6.25813E-02 5.79120E+00 8.05189E-14-8.01331E-13
 -1      2590 2.14746E+01-6.24518E+00-1.11843E-01 5.83814E+00-3.03091E-14-3.73701E-13
 -1      2591 1.70486E+01-6.04882E+00-1.17280E-03 6.11288E+00 6.73905E-14-5.42941E-13
 -1      2592 1.71014E+01-5.14080E+00 1.06457E-01 6.15908E+00 2.26569E-13-4.53249E-13
 -1      2593 3.07293E+01-4.79602E+00-1.33992E-01 1.31044E+00-2.39309E-13 4.88498E-14
 -1      2594 2.69420E+01-5.47970E+00 3.68979E-02 2.95828E+00-8.95117E-14-9.03722E-14
 -1      2595 3.19879E+01-3.73833E+00-1.38818E-01 2.07343E-01-2.35714E-13-4.69902E-13
 -1      2596 3.38051E+01-1.66315E+00-1.26163E-01 1.18595E+00-3.39152E-13-4.67626E-13
 -1      2597 2.75977E+01-5.63502E+00-1.02311E-01-2.68111E+00-1.29952E-13-3.10474E-13
 -1      2598 3.05494E+01-4.34624E+00-7.37189E-02-1.36164E+00-1.98869E-13-3.26378E-13
 -1      2599 3.01475E+01-4.53511E+00 5.44448E-02-2.18140E-01-5.73708E-14-6.70103E-13
 -1      2600 2.70488E+01-5.81298E+00 5.51642E-02-2.72834E+00 9.12326E-14-4.37581E-13
 -1      2601 1.37480E+01-4.97617E+00 1.03108E-01-6.06204E+00 2.95097E-13 3.07754E-13
 -1      2602 1.69659E+01-5.53421E+00 1.26357E-02-6.27963E+00 3.01703E-13 2.17937E-13
 -1      2603 6.13501E+00-3.64078E+00 9.81974E-02-3.97846E+00 2.80470E-13 8.13682E-13
 -1      2604 9.34694E+00-4.16481E+00 4.59669E-02-5.59191E+00 2.60125E-13 4.96880E-13
 -1      2605 7.01829E+00-1.90616E+00 1.78491E-01-3.11779E+00 3.43864E-13 8.47378E-13
 -1      2606 4.42678E+00-3.12196E+00 6.54272E-02 4.46354E+00-2.98095E-14 8.11184E-13
 -1      2607 3.32475E+00-2.72884E+00 1.08656E-01 2.51076E+00-2.94487E-14 8.82183E-13
 -1      2608 1.99993E+01-9.04807E-04 4.73569E-06-1.49274E-03-1.26327E-13 2.59542E-13
 -1      2609 1.81156E+01 3.92401E+00 1.39089E-02-4.89248E-01-2.45390E-13-5.44810E-13
 -1      2610 1.83179E+01 4.06633E+00-2.05287E-02-5.64245E-01-2.64457E-13-5.58007E-13
 -1      2611 1.88187E+01 3.88307E+00-1.91168E-02-5.72633E-01-3.14396E-13-5.12435E-13
 -1      2612 2.13818E+01 4.34527E-01 7.96856E-03 7.99530E-01 2.83717E-13 2.29610E-13
 -1      2613 2.14041E+01 6.49446E-01 7.47674E-03 9.52603E-01 3.24393E-13 1.05008E-13
 -1      2614 2.12110E+01 3.03891E-01 3.15055E-03 6.49833E-01 2.76071E-13 1.75512E-13
 -1      2615 4.97837E+00-1.40022E+00 1.73662E-01 1.14159E+00 1.01610E-13 9.33309E-13
 -1      2616 3.36062E+01 5.31277E+00-1.74453E-01 1.67063E+00-8.08464E-13-4.63296E-13
 -1      2617 3.10417E+01 4.59096E-01-8.79454E-02 7.36617E-02 3.54827E-13-5.56333E-13
 -1      2618 2.97255E+01-9.60584E-01 3.92262E-03 3.06331E-01 1.13014E-13-6.26832E-13
 -1      2619 2.99450E+01 1.23300E+00-1.18044E-01-1.20237E+00 3.22839E-13-5.99798E-13
 -1      2620 1.45335E+01-4.08595E+00 1.37130E-01 7.20660E+00-3.29542E-13 2.19547E-14
 -1      2621 2.68089E+01-4.87142E+00-9.03092E-02 2.08585E+00 1.55619E-13 1.63439E-13
 -1      2622 3.28220E+01 3.16566E+00-3.84735E-02 3.26760E+00-6.78513E-13-6.40848E-13
 -1      2623 3.30124E+01 4.75702E-01-1.86785E-01 3.62166E+00-4.42535E-13-7.63084E-13
 -1      2624 3.13372E+01 7.53680E+00-6.13784E-02-6.04313E-01 7.71272E-13-3.99139E-13
 -1      2625 3.13214E+01 7.20230E+00-6.35178E-02 8.96852E-01 7.66609E-13-1.15366E-13
 -1      2626 3.22140E+01 1.85355E+00-1.84957E-02-3.44300E+00-6.08930E-13 6.35048E-14
 -1      2627 3.60354E+01 3.02622E+00-8.89368E-03-2.25163E+00-7.65055E-13-1.06692E-13
 -1      2628 7.55196E+00-2.26927E+00 1.67497E-01 5.28052E+00-1.85157E-13 5.28688E-13
 -1      2629 1.99994E+01-9.03219E-04 1.42607E-06 1.37427E-03 6.99596E-14-1.22474E-13
 -1      2630 1.99994E+01-9.75116E-04-4.96717E-07 1.65632E-03-4.17306E-14-8.46487E-14
 -1      2631 2.00144E+01 3.27209E+00-6.05971E-03-4.70290E-01-3.50299E-13-3.96747E-13
 -1      2632 2.10551E+01 1.08329E-01 2.70111E-03 5.21857E-01 2.34973E-13 1.04913E-13
 -1      2633 2.11599E+01 2.11634E-01 1.01734E-02 5.86579E-01 2.62657E-13 1.52061E-13
 -1      2634 2.12227E+01 2.99271E-01-3.45999E-03 6.82229E-01 2.61089E-13 5.02588E-14
 -1      2635 2.11628E+01 6.47629E-02-7.28929E-03 5.92481E-01 2.15229E-13 2.52272E-14
 -1      2636 2.08968E+01-5.43693E+00 1.08245E-01-5.07950E+00 3.68178E-13-6.56124E-14
 -1      2637 2.79149E+01-3.53519E+00-2.19305E-01 2.00405E+00-1.19458E-13-4.95853E-13
 -1      2638 2.69465E+01-3.98427E+00 2.28124E-02 3.76051E+00-8.74856E-14-3.99514E-13
 -1      2639 2.55233E+01-4.70557E+00 9.00509E-02 3.97877E+00-2.89324E-13-4.85285E-13
 -1      2640 3.54857E+01 3.82123E-01-7.59265E-02-1.89594E+00-6.56114E-13-1.03140E-13
 -1      2641 1.28005E+01-3.58994E+00 1.37778E-01-5.65912E+00 4.38094E-13 3.60184E-13
 -1      2642 2.56809E+01-5.61271E+00 6.35404E-02 3.50819E+00 1.14159E-13-3.74145E-14
 -1      2643 4.75311E+00-1.36958E+00 1.88329E-01 4.84748E-01 1.04153E-14-1.03845E-12
 -1      2644 6.08146E+00-2.34829E-01 1.51443E-01-8.18670E-01-6.52525E-14-1.01219E-12
 -1      2645 6.26295E+00-8.62803E-01 1.66714E-01 1.82724E+00 7.75421E-14-9.81382E-13
 -1      2646 1.20120E+01-3.32942E+00 1.33263E-01-6.98356E+00-2.57905E-13-7.38770E-13
 -1      2647 3.05060E+01-7.58519E-01-5.83043E-02-6.87462E-01 3.21861E-13-2.71727E-14
 -1      2648 2.97946E+01-3.29689E-02-1.06451E-01 7.43404E-01 2.81303E-13 1.03528E-13
 -1      2649 2.90157E+01-2.15520E+00-1.26849E-02-1.15119E+00 1.41599E-13 1.43913E-14
 -1      2650 9.53795E+00-3.24045E+00 1.39227E-01 5.17164E+00 1.45856E-13-8.46795E-13
 -1      2651 3.10595E+01 3.76976E+00-7.86123E-02 1.40010E+00 5.83228E-13 1.79856E-14
 -1      2652 2.56143E+01-4.44842E+00 3.85770E-02-4.75760E+00-1.17406E-14-3.02758E-13
 -1      2653 2.70579E+01-4.10160E+00-1.31333E-01-2.98146E+00-5.94247E-14-1.03667E-13
 -1      2654 2.41477E+01-4.86734E+00 1.04745E-01-5.09234E+00-1.99590E-13-2.16681E-13
 -1      2655 2.89273E+01-4.58682E+00-3.30468E-02-3.65979E-01 4.28477E-14-7.88231E-13
 -1      2656 3.10804E+01 4.75124E+00-8.32001E-02-1.42965E+00 6.07098E-13-5.63605E-13
 -1      2657 3.22217E+01-1.39793E+00-2.35926E-01-3.04363E+00-3.70731E-13 1.87239E-13
 -1      2658 3.42457E+01 4.14827E+00-1.56658E-01 2.70180E+00-7.82041E-13-5.42039E-13
 -1      2659 3.20113E+01-2.78227E+00-1.01853E-01-1.49524E+00-2.75176E-13 1.22707E-13
 -1      2660 3.33661E+01-1.32833E+00 3.05530E-02-6.36981E-01-5.63355E-13-4.10227E-14
 -1      2661 1.99993E+01-9.69127E-04-9.00055E-07-1.75329E-03-1.20785E-13-3.63217E-14
 -1      2662 3.63935E+01 1.99284E+00 6.25192E-02 2.16932E+00-6.53533E-13-4.21052E-13
 -1      2663 3.69913E+01 3.75695E+00-5.88436E-02 2.22959E+00-7.86482E-13-5.30742E-13
 -1      2664 1.94695E+01 2.44549E+00 2.66165E-03-4.98936E-01 9.07218E-14-4.63370E-13
 -1      2665 1.91178E+01 2.60133E+00-7.65814E-03-7.17064E-01 4.32468E-14-4.74943E-13
 -1      2666 1.87500E+01 2.84133E+00 7.76133E-03-9.18707E-01 8.79128E-15-4.99799E-13
 -1      2667 1.83691E+01 3.00558E+00-1.23933E-02-1.06703E+00-3.21850E-14-5.12575E-13
 -1      2668 1.90886E+01 2.27611E+00-6.42289E-03-9.99505E-01 9.23361E-15-4.60134E-13
 -1      2669 2.05841E+01 1.81276E+00-1.09493E-02 5.21249E-01 2.51090E-13-3.06686E-13
 -1      2670 2.03520E+01 1.97018E+00-2.21006E-03 2.79885E-01 2.11528E-13-3.57272E-13
 -1      2671 2.09796E+01 1.47337E+00-2.06963E-02 9.24330E-01 3.31626E-13-1.93949E-13
 -1      2672 2.08009E+01 1.68091E+00 4.06080E-04 7.34348E-01 2.77515E-13-2.42959E-13
 -1      2673 2.08797E+01 1.30194E+00 2.56400E-03 4.91929E-01 2.39933E-13-2.40230E-13
 -1      2674 2.14216E+01 7.80093E-01 1.30362E-03 1.02904E+00 3.44500E-13 4.92034E-14
 -1      2675 2.13353E+01 1.00570E+00-1.00565E-02 1.11223E+00 3.73643E-13-1.60011E-14
 -1      2676 2.13092E+01 5.74054E-01 3.46617E-03 8.34606E-01 3.05498E-13 3.54773E-15
 -1      2677 3.35259E+01-1.02215E+00-2.04276E-02 2.40654E+00-3.23713E-13-6.56308E-13
 -1      2678 2.89384E+01 7.17699E+00-1.91197E-01-2.71016E-01 6.71158E-13-2.30638E-13
 -1      2679 2.89451E+01 6.51968E+00-1.70059E-01-1.13249E+00 6.50591E-13-3.62516E-13
 -1      2680 1.97641E+01 1.65002E+00-3.54024E-03 1.92047E+00-1.09752E-13-2.74384E-13
 -1      2681 1.97223E+01 1.41657E+00 1.50912E-02 2.35026E+00-3.55055E-14-2.58718E-13
 -1      2682 1.93736E+01 1.09546E+00 2.30439E-03 2.81796E+00 1.43982E-14-2.38734E-13
 -1      2683 1.95118E+01 6.46697E-01 3.40195E-02 3.16679E+00 6.43756E-14-2.41107E-13
 -1      2684 1.83328E+01 1.62965E+00 1.57415E-02 2.43185E+00-9.51886E-15-3.26471E-13
 -1      2685 1.92730E+01 3.99788E-02 4.30953E-02 3.69075E+00 1.15249E-13-2.11456E-13
 -1      2686 1.97239E+01-9.19288E-01 4.61230E-02 3.97038E+00 1.66880E-13-2.06739E-13
 -1      2687 1.76824E+01 6.69284E-01 2.78907E-02 3.44910E+00 8.73503E-14-3.07823E-13
 -1      2688 9.34971E+00-1.89036E+00 2.56077E-02 5.77979E+00-2.84800E-13 2.48745E-13
 -1      2689 7.49755E+00-1.10357E+00 1.90926E-01 4.13100E+00-1.85421E-13 5.00572E-13
 -1      2690 1.99992E+01-9.38592E-04 1.12907E-07 1.84707E-03-4.38227E-14 5.69753E-14
 -1      2691 1.99091E+01-4.41598E+00 1.43708E-01-5.14732E+00 4.35971E-13-3.61378E-14
 -1      2692 2.36627E+01-5.41597E+00 3.96086E-03-4.17025E+00 2.74544E-13-3.22751E-13
 -1      2693 2.12355E+01-2.02888E+00 2.31927E-02-3.87599E+00 3.12916E-13-1.93415E-13
 -1      2694 2.05526E+01-8.87433E-01 6.41046E-02-3.80983E+00 2.96249E-13-1.83242E-13
 -1      2695 2.03979E+01-1.93813E-01 2.94452E-02-3.47231E+00 2.14566E-13-1.90929E-13
 -1      2696 2.00498E+01 3.48200E-01 1.37911E-02-3.27790E+00 2.03121E-13-1.60838E-13
 -1      2697 1.87590E+01-5.08058E-01-2.01669E-02-3.90843E+00 2.39433E-13-4.13350E-14
 -1      2698 2.01765E+01 6.53465E-01 1.56097E-02-2.94848E+00 1.56588E-13-2.02276E-13
 -1      2699 2.00249E+01 8.47847E-01-3.52418E-03-2.71009E+00 1.02536E-13-1.96866E-13
 -1      2700 1.88766E+01 6.67695E-01 7.25174E-03-3.15715E+00 1.21726E-13 2.78926E-14
 -1      2701 2.02158E+01 9.28224E-01 1.03894E-02-2.42300E+00 7.86537E-14-1.64537E-13
 -1      2702 2.01334E+01 9.43483E-01-7.82536E-03-2.18304E+00 7.91767E-14-1.32301E-13
 -1      2703 1.92209E+01 1.07934E+00 8.95662E-03-2.53773E+00 1.37396E-13-3.12065E-14
 -1      2704 2.03044E+01 9.09510E-01 7.69328E-03-1.93193E+00 7.99252E-15-1.28477E-13
 -1      2705 2.02386E+01 8.47361E-01-7.29145E-03-1.70531E+00-1.80878E-14-1.95603E-13
 -1      2706 1.95732E+01 1.10615E+00 9.24680E-03-2.01834E+00 6.25242E-14-2.11666E-14
 -1      2707 2.03554E+01 7.75612E-01 6.65283E-03-1.50971E+00-5.63772E-14-1.48614E-13
 -1      2708 2.02917E+01 6.96458E-01-5.77393E-03-1.32665E+00-9.29418E-14-1.71070E-13
 -1      2709 1.98338E+01 9.67106E-01 7.11564E-03-1.59029E+00-5.17282E-14-5.80083E-14
 -1      2710 2.03635E+01 6.21415E-01 5.81702E-03-1.16780E+00-1.68683E-13-1.83812E-13
 -1      2711 2.03002E+01 5.45806E-01-4.45692E-03-1.01896E+00-1.99208E-13-1.91753E-13
 -1      2712 1.99951E+01 7.87200E-01 5.13018E-03-1.24611E+00-1.40214E-13-5.23600E-14
 -1      2713 2.03394E+01 4.80145E-01 4.92110E-03-8.91943E-01-1.41906E-13-2.56090E-13
 -1      2714 2.02797E+01 4.16435E-01-3.29386E-03-7.74253E-01 5.23300E-14-3.43354E-13
 -1      2715 2.00836E+01 6.15302E-01 3.36483E-03-9.65439E-01-1.71814E-13-7.15614E-14
 -1      2716 2.02972E+01 3.63505E-01 4.05450E-03-6.74111E-01 1.00494E-13-4.26946E-13
 -1      2717 2.02439E+01 3.12908E-01-2.37719E-03-5.82764E-01 2.49704E-14-3.89517E-13
 -1      2718 2.01223E+01 4.69749E-01 2.02962E-03-7.40002E-01-5.74429E-15-2.73758E-13
 -1      2719 2.02483E+01 2.72004E-01 3.26559E-03-5.04730E-01 1.16005E-13-3.41732E-13
 -1      2720 2.02027E+01 2.33063E-01-1.68421E-03-4.34724E-01 4.25550E-14-2.51008E-13
 -1      2721 2.01304E+01 3.53709E-01 1.11506E-03-5.61483E-01 9.00517E-14-3.68796E-13
 -1      2722 2.01999E+01 2.02124E-01 2.57664E-03-3.74484E-01-1.53080E-13-1.69873E-13
 -1      2723 2.01620E+01 1.72549E-01-1.26017E-03-3.21284E-01-9.42640E-14-2.03998E-13
 -1      2724 2.01217E+01 2.64166E-01 5.42757E-04-4.21819E-01-1.05618E-15-3.37211E-13
 -1      2725 2.01553E+01 1.48268E-01 1.98670E-03-2.72971E-01-8.70926E-15-1.80707E-13
 -1      2726 2.01239E+01 1.25370E-01-8.78083E-04-2.31330E-01-2.87870E-14-1.47325E-13
 -1      2727 2.01049E+01 1.95043E-01 3.03961E-04-3.11479E-01-6.02312E-14-7.58418E-14
 -1      2728 2.01169E+01 1.08541E-01 1.54606E-03-1.96839E-01-5.16796E-14-2.01173E-13
 -1      2729 2.00935E+01 9.21817E-02-5.72903E-04-1.67200E-01 1.35315E-13-2.14609E-13
 -1      2730 2.00855E+01 1.42880E-01-2.32177E-05-2.27032E-01 3.85956E-15-1.77279E-13
 -1      2731 2.00865E+01 7.96068E-02 1.17479E-03-1.41144E-01 2.85425E-13-2.96750E-13
 -1      2732 2.00685E+01 6.73907E-02-3.98630E-04-1.19092E-01 2.56438E-13-2.27506E-13
 -1      2733 2.00673E+01 1.05167E-01-1.16917E-04-1.64696E-01 1.58311E-13-1.56429E-13
 -1      2734 2.00623E+01 5.80499E-02 8.90046E-04-9.96051E-02 2.06964E-13-3.06409E-13
 -1      2735 2.00488E+01 4.89260E-02-2.77852E-04-8.33147E-02 9.50178E-14-2.70903E-13
 -1      2736 2.00513E+01 7.69706E-02-1.52472E-04-1.17655E-01 1.54374E-13-3.37563E-13
 -1      2737 2.00437E+01 4.19951E-02 6.69234E-04-6.88794E-02-5.12107E-15-2.53448E-13
 -1      2738 2.00336E+01 3.51900E-02-1.93287E-04-5.69577E-02-4.30065E-14-1.86025E-13
 -1      2739 2.00380E+01 5.59135E-02-1.56215E-04-8.24862E-02 7.27875E-14-2.71562E-13
 -1      2740 2.00295E+01 3.00573E-02 4.98539E-04-4.63834E-02-1.24948E-13-2.36940E-13
 -1      2741 2.00223E+01 2.49960E-02-1.34462E-04-3.77586E-02-1.77706E-13-3.56227E-13
 -1      2742 2.00273E+01 4.02153E-02-1.43696E-04-5.64689E-02-1.34596E-13-2.07229E-13
 -1      2743 2.00191E+01 2.12156E-02 3.68887E-04-3.01178E-02-3.02495E-13-3.48288E-13
 -1      2744 2.00140E+01 1.74467E-02-1.03540E-04-2.39591E-02-5.08511E-13-3.28067E-13
 -1      2745 2.00189E+01 2.85473E-02-1.24192E-04-3.74572E-02-2.53114E-13-2.87453E-13
 -1      2746 2.00115E+01 1.45406E-02 2.66835E-04-1.82833E-02-4.24535E-13-2.43540E-13
 -1      2747 2.00078E+01 1.16886E-02-7.17526E-05-1.38179E-02-2.56105E-13-7.26679E-14
 -1      2748 2.00125E+01 1.97970E-02-8.48542E-05-2.35148E-02-3.98778E-13-1.13780E-13
 -1      2749 2.00062E+01 9.73415E-03 1.90754E-04-1.01187E-02-6.03041E-14 8.51875E-14
 -1      2750 2.00039E+01 7.75971E-03-4.24152E-05-7.22765E-03 1.46347E-13 4.36077E-14
 -1      2751 2.00078E+01 1.33226E-02-8.29074E-05-1.36889E-02-4.97379E-14 1.88393E-13
 -1      2752 2.00027E+01 6.34017E-03 1.31731E-04-4.71510E-03 1.50691E-13-6.18779E-17
 -1      2753 2.00012E+01 4.93264E-03-2.72441E-05-2.80297E-03 7.87062E-14 1.29223E-13
 -1      2754 2.00046E+01 8.80526E-03-6.45454E-05-7.12154E-03 9.84438E-14 3.47831E-13
 -1      2755 2.00004E+01 3.93122E-03 8.99191E-05-1.16151E-03 6.85565E-14 1.04055E-13
 -1      2756 1.99996E+01 2.94163E-03-1.70984E-05 4.99485E-05 2.39541E-13 7.96870E-14
 -1      2757 2.00023E+01 5.56994E-03-4.93595E-05-2.71612E-03 9.19623E-14 3.81660E-13
 -1      2758 1.99990E+01 2.25142E-03 5.94433E-05 1.06846E-03 2.44905E-13 4.15391E-15
 -1      2759 1.99986E+01 1.57144E-03-1.00276E-05 1.78615E-03 4.17992E-14-8.73842E-14
 -1      2760 2.00008E+01 3.29601E-03-3.70118E-05 1.23197E-04 1.99338E-13 2.98503E-13
 -1      2761 1.99983E+01 1.10921E-03 3.75011E-05 2.36874E-03 2.35599E-14-6.91686E-14
 -1      2762 1.99981E+01 6.55349E-04-5.36508E-06 2.74665E-03 8.55194E-14-8.91875E-14
 -1      2763 1.99999E+01 1.73450E-03-2.71643E-05 1.84930E-03 1.17767E-13 4.00574E-14
 -1      2764 1.99980E+01 3.58395E-04 2.23444E-05 3.03152E-03 8.06652E-14-7.69180E-14
 -1      2765 1.99980E+01 6.33179E-05-2.94642E-06 3.18325E-03-4.72220E-14-5.29976E-14
 -1      2766 1.99993E+01 6.92889E-04-1.95228E-05 2.80158E-03 5.56073E-14 7.28337E-14
 -1      2767 1.99979E+01-1.26202E-04 1.19576E-05 3.27256E-03-1.53817E-13-4.27566E-14
 -1      2768 1.99980E+01-3.13644E-04-1.09501E-06 3.27324E-03-4.50905E-14-7.02919E-14
 -1      2769 1.99990E+01 1.69022E-05-1.25650E-05 3.23288E-03-1.62137E-13 8.02531E-14
 -1      2770 1.99980E+01-4.13671E-04 4.47395E-06 3.22984E-03-2.11826E-14-1.67994E-13
 -1      2771 1.99982E+01-5.18950E-04 3.70944E-07 3.13803E-03-6.61697E-14-2.22937E-13
 -1      2772 1.99989E+01-4.02947E-04-9.02609E-06 3.31181E-03-1.41199E-13-1.85189E-13
 -1      2773 1.99983E+01-5.77451E-04-3.20304E-08 3.02021E-03-6.75157E-14-1.72595E-13
 -1      2774 1.99985E+01-6.40749E-04 5.45994E-07 2.87298E-03-3.75063E-15-1.03815E-13
 -1      2775 1.99989E+01-6.39864E-04-5.79800E-06 3.16929E-03-7.37063E-14-1.44309E-13
 -1      2776 1.99985E+01-6.77669E-04-2.14663E-06 2.70862E-03 1.51860E-13-1.56851E-13
 -1      2777 1.99988E+01-7.24930E-04-2.99497E-07 2.52680E-03 1.12821E-13-1.55897E-13
 -1      2778 1.99990E+01-7.83051E-04-3.30791E-06 2.89367E-03 1.24944E-13-2.17309E-13
 -1      2779 1.99988E+01-7.58352E-04-3.11839E-06 2.33047E-03 1.55657E-13-2.62248E-13
 -1      2780 1.99990E+01-8.10175E-04-2.53456E-06 2.12421E-03 7.31799E-14-1.48931E-13
 -1      2781 1.99992E+01-8.89494E-04-2.07675E-06 2.53528E-03 1.22829E-13-3.28913E-13
 -1      2782 2.12990E+01-4.19236E-01-6.47581E-03 7.77166E-01 1.45274E-13-9.70548E-15
 -1      2783 2.13629E+01-3.60016E-01 7.47687E-03 6.86914E-01 1.44285E-13-1.33906E-14
 -1      2784 2.12545E+01-3.65647E-01-1.79671E-03 1.01475E+00 8.93924E-14 9.09071E-15
 -1      2785 2.13361E+01-4.19831E-01 1.51305E-03 9.12151E-01 1.16737E-13 1.65848E-14
 -1      2786 2.16522E+01-5.04111E-01 2.03608E-03 8.59604E-01 1.21618E-13-7.90982E-14
 -1      2787 2.12897E+01-2.62302E-01-8.34618E-03 6.04007E-01 1.26194E-13-2.40403E-14
 -1      2788 2.13525E+01-1.11349E-01 1.11997E-02 5.76347E-01 1.36628E-13-3.65218E-14
 -1      2789 2.15478E+01-3.67401E-01-2.25883E-03 6.39646E-01 1.28592E-13-1.19254E-13
 -1      2790 2.08833E+01 3.75490E-01 1.17285E-02 1.15843E+00 6.37837E-14-9.59096E-15
 -1      2791 2.09989E+01 1.25208E-01-9.88167E-03 1.21733E+00 6.29624E-14-4.11390E-15
 -1      2792 2.06187E+01 8.63521E-01 1.37681E-02 8.28638E-01 1.03277E-13 9.88424E-15
 -1      2793 2.07156E+01 6.22610E-01-1.01928E-02 1.02619E+00 8.16366E-14 1.28532E-15
 -1      2794 2.13004E+01 6.16869E-01 3.18563E-03 1.21650E+00 4.66939E-14-1.15201E-14
 -1      2795 2.04360E+01 1.17108E+00 8.49652E-03 2.22941E-01 1.71796E-13 2.64050E-14
 -1      2796 2.04798E+01 1.04859E+00-4.68402E-03 5.27512E-01 1.42149E-13 1.07107E-14
 -1      2797 2.10249E+01 1.17538E+00-4.43387E-03 7.73498E-01 1.27288E-13-1.28922E-14
 -1      2798 2.04318E+01 1.14733E+00-1.03710E-03-4.90641E-01 1.10005E-13 1.46774E-15
 -1      2799 2.04061E+01 1.20510E+00 4.88088E-03-1.66663E-01 1.86555E-13 2.53608E-14
 -1      2800 2.08712E+01 1.45712E+00-9.84222E-03 4.54301E-02 1.71927E-13 1.58096E-14
 -1      2801 2.06151E+01 7.97879E-01-8.71525E-03-1.07937E+00 5.07261E-14-2.77859E-14
 -1      2802 2.05281E+01 1.00963E+00 1.24952E-02-8.37410E-01 7.29349E-14-5.30713E-14
 -1      2803 2.09309E+01 1.32532E+00-5.83227E-03-7.33618E-01 1.28405E-13-7.97649E-14
 -1      2804 2.08865E+01 2.85969E-01-1.18259E-02-1.37505E+00 4.68965E-14-4.58387E-14
 -1      2805 2.07718E+01 5.55423E-01 1.27399E-02-1.27294E+00 6.08374E-14-2.37081E-14
 -1      2806 2.11581E+01 8.30895E-01 9.62089E-04-1.29316E+00 7.40218E-14-1.43274E-13
 -1      2807 2.11215E+01-1.89609E-01-9.25932E-03-1.35195E+00 6.45327E-14-1.63692E-13
 -1      2808 2.10167E+01 3.89251E-02 7.42234E-03-1.38701E+00 9.36177E-14-1.02279E-13
 -1      2809 2.14087E+01 2.00092E-01 7.06293E-03-1.48971E+00 1.25629E-13-1.85846E-13
 -1      2810 2.12392E+01-5.00455E-01-4.16974E-03-1.09837E+00 2.41922E-14-2.36755E-13
 -1      2811 2.11694E+01-3.66384E-01 6.00614E-04-1.22611E+00 4.92896E-14-2.03896E-13
 -1      2812 2.15508E+01-3.41976E-01 8.61997E-03-1.34995E+00 7.04822E-14-2.49824E-13
 -1      2813 2.12270E+01-6.19642E-01 4.02122E-04-7.41973E-01-1.36867E-14-1.76879E-13
 -1      2814 2.11997E+01-5.82098E-01-4.47150E-03-9.07463E-01 1.11943E-14-1.89914E-13
 -1      2815 2.15345E+01-6.66625E-01 6.03708E-03-1.00696E+00 5.27996E-15-2.62781E-13
 -1      2816 2.11192E+01-5.90352E-01 3.19525E-03-3.87453E-01-8.40198E-14-1.07434E-13
 -1      2817 2.11284E+01-6.21545E-01-6.70988E-03-5.48011E-01-5.37431E-14-1.30943E-13
 -1      2818 2.13876E+01-7.64064E-01 2.24105E-03-6.05078E-01-4.68837E-14-1.07375E-13
 -1      2819 2.09617E+01-4.77019E-01 4.27618E-03-9.50230E-02-1.20592E-13-9.97373E-14
 -1      2820 2.09957E+01-5.43203E-01-6.69787E-03-2.26330E-01-8.61738E-14-1.64461E-13
 -1      2821 2.11701E+01-6.97248E-01-7.11344E-04-2.42670E-01-8.47172E-14-1.34484E-13
 -1      2822 2.07923E+01-3.35746E-01 4.15710E-03 1.13971E-01-8.15933E-14 3.23496E-15
 -1      2823 2.08396E+01-4.10097E-01-5.46150E-03 2.03492E-02-1.08500E-13-4.95884E-14
 -1      2824 2.09368E+01-5.45181E-01-2.25731E-03 3.42830E-02-1.27711E-13-1.24442E-13
 -1      2825 2.06341E+01-2.02811E-01 3.42973E-03 2.42882E-01-2.04260E-14 7.96305E-14
 -1      2826 2.06860E+01-2.69267E-01-3.86017E-03 1.85244E-01-4.50605E-14 2.69056E-14
 -1      2827 2.07231E+01-3.71505E-01-2.69368E-03 2.17860E-01-6.68741E-14-2.23445E-15
 -1      2828 2.04975E+01-9.57189E-02 2.52961E-03 3.06585E-01-5.78534E-14 1.91942E-13
 -1      2829 2.05486E+01-1.47359E-01-2.36908E-03 2.78342E-01 9.42974E-15 1.49840E-13
 -1      2830 2.05448E+01-2.14841E-01-2.50877E-03 3.20339E-01-7.58709E-14 2.35621E-14
 -1      2831 2.03850E+01-1.90035E-02 1.69892E-03 3.22927E-01-8.96238E-14 1.51397E-13
 -1      2832 2.04321E+01-5.48142E-02-1.17539E-03 3.16116E-01-4.65835E-14 1.72798E-13
 -1      2833 2.04043E+01-9.21733E-02-2.07101E-03 3.61081E-01-3.49137E-14 3.68477E-14
 -1      2834 2.02949E+01 2.99972E-02 1.03563E-03 3.08314E-01 3.05820E-15 1.88609E-14
 -1      2835 2.03366E+01 7.97392E-03-3.13965E-04 3.15533E-01-1.36702E-14 8.57395E-14
 -1      2836 2.02978E+01-6.42349E-03-1.59917E-03 3.59442E-01 2.96164E-14-9.65826E-14
 -1      2837 2.02239E+01 5.69648E-02 5.56750E-04 2.75935E-01 6.14621E-14-6.23264E-14
 -1      2838 2.02598E+01 4.55629E-02 2.50885E-04 2.91182E-01 8.13844E-15-4.35532E-14
 -1      2839 2.02188E+01 4.68708E-02-1.19117E-03 3.31714E-01 1.12002E-13-1.80902E-13
 -1      2840 2.01685E+01 6.80927E-02 2.38950E-04 2.35445E-01 1.10257E-13 2.48639E-14
 -1      2841 2.01987E+01 6.41244E-02 5.79765E-04 2.54305E-01 7.19031E-14-6.75932E-15
 -1      2842 2.01608E+01 7.49667E-02-8.74427E-04 2.90278E-01 6.44104E-14-1.70154E-13
 -1      2843 2.01255E+01 6.88370E-02 4.54130E-05 1.93346E-01 1.66687E-13 9.38390E-14
 -1      2844 2.01504E+01 6.96046E-02 7.35516E-04 2.12840E-01 1.62885E-13 4.36599E-14
 -1      2845 2.01182E+01 8.52856E-02-6.43549E-04 2.43814E-01 9.16978E-14-9.78140E-14
 -1      2846 2.00925E+01 6.34653E-02-6.01120E-05 1.53634E-01 1.42483E-13 1.27055E-13
 -1      2847 2.01126E+01 6.69146E-02 7.73322E-04 1.71938E-01 1.62789E-13 9.21646E-14
 -1      2848 2.00870E+01 8.41710E-02-4.80422E-04 1.97938E-01 1.60493E-13-4.62965E-14
 -1      2849 2.00671E+01 5.50437E-02-1.07625E-04 1.18460E-01-7.30015E-14 1.08971E-13
 -1      2850 2.00831E+01 5.97314E-02 7.37066E-04 1.34602E-01 6.55223E-14 1.69468E-13
 -1      2851 2.00639E+01 7.64928E-02-3.65873E-04 1.55940E-01 1.25758E-13-1.34003E-15
 -1      2852 2.00479E+01 4.56135E-02-1.19791E-04 8.87069E-02-3.39059E-14 2.69814E-14
 -1      2853 2.00603E+01 5.06002E-02 6.59441E-04 1.02300E-01-5.85510E-14 2.84007E-14
 -1      2854 2.00468E+01 6.56989E-02-2.84590E-04 1.19448E-01 1.87757E-14 3.81830E-15
 -1      2855 2.00333E+01 3.64243E-02-1.12408E-04 6.44435E-02-8.22714E-14-1.96672E-13
 -1      2856 2.00429E+01 4.11514E-02 5.63430E-04 7.54761E-02-6.06403E-14-1.60081E-13
 -1      2857 2.00340E+01 5.40535E-02-2.25335E-04 8.89807E-02 2.67731E-15-1.83160E-13
 -1      2858 2.00225E+01 2.81581E-02-9.58271E-05 4.52665E-02 3.32190E-15-7.94542E-14
 -1      2859 2.00297E+01 3.23346E-02 4.64124E-04 5.39408E-02-3.56516E-14-1.35250E-13
 -1      2860 2.00244E+01 4.29194E-02-1.80517E-04 6.43645E-02-3.91704E-14-2.93027E-13
 -1      2861 2.00146E+01 2.11152E-02-7.63707E-05 3.05348E-02 2.40213E-13-1.43739E-13
 -1      2862 2.00198E+01 2.46267E-02 3.70627E-04 3.71594E-02 1.34297E-13-8.31552E-14
 -1      2863 2.00172E+01 3.30196E-02-1.45349E-04 4.50399E-02 9.41029E-14-1.93156E-13
 -1      2864 2.00089E+01 1.53565E-02-5.75732E-05 1.95250E-02 2.07285E-13-3.15534E-14
 -1      2865 2.00126E+01 1.81972E-02 2.87766E-04 2.44426E-02 3.04304E-13-4.15405E-14
 -1      2866 2.00118E+01 2.46523E-02-1.16912E-04 3.02700E-02 1.25073E-13-1.09882E-13
 -1      2867 2.00049E+01 1.08053E-02-4.11606E-05 1.15261E-02 2.04632E-13 5.15677E-14
 -1      2868 2.00075E+01 1.30294E-02 2.17487E-04 1.50704E-02 2.20313E-13 1.37662E-13
 -1      2869 2.00079E+01 1.78516E-02-9.34777E-05 1.92749E-02 1.11198E-13 1.65609E-13
 -1      2870 2.00021E+01 7.31549E-03-2.77579E-05 5.89195E-03-4.07858E-14 2.46120E-13
 -1      2871 2.00038E+01 9.00594E-03 1.59918E-04 8.36398E-03-2.03483E-14 9.63491E-14
 -1      2872 2.00050E+01 1.25028E-02-7.40197E-05 1.13118E-02 3.16854E-14 2.25331E-13
 -1      2873 2.00004E+01 4.71548E-03-1.73677E-05 2.06512E-03-3.18536E-14 3.56680E-13
 -1      2874 2.00014E+01 5.96378E-03 1.14135E-04 3.72279E-03 4.75211E-14 3.63051E-13
 -1      2875 2.00029E+01 8.41856E-03-5.78752E-05 5.71772E-03 3.36095E-14 4.69586E-13
 -1      2876 1.99992E+01 2.83427E-03-9.68052E-06-4.16354E-04 2.52434E-13 2.35572E-13
 -1      2877 1.99998E+01 3.72890E-03 7.86886E-05 6.39400E-04 1.42301E-13 2.44851E-13
 -1      2878 2.00015E+01 5.38748E-03-4.45674E-05 1.92756E-03 7.03987E-14 4.16495E-13
 -1      2879 1.99986E+01 1.51533E-03-4.26735E-06-1.92312E-03-6.00044E-14 5.36030E-13
 -1      2880 1.99989E+01 2.13580E-03 5.19438E-05-1.29993E-03 1.33507E-13 3.56612E-13
 -1      2881 2.00005E+01 3.20271E-03-3.37112E-05-5.23582E-04 3.06355E-14 4.51424E-13
 -1      2882 1.99983E+01 6.22798E-04-6.91217E-07-2.74388E-03-1.51552E-13 3.39493E-13
 -1      2883 1.99984E+01 1.03729E-03 3.22966E-05-2.42230E-03-7.52341E-14 4.52846E-13
 -1      2884 1.99999E+01 1.67689E-03-2.49679E-05-2.00660E-03-5.87884E-14 5.35559E-13
 -1      2885 1.99983E+01 4.27443E-05 1.43908E-06-3.09694E-03-1.65672E-13 2.20960E-13
 -1      2886 1.99982E+01 3.07943E-04 1.82905E-05-2.97880E-03-1.46849E-13 1.49575E-13
 -1      2887 1.99995E+01 6.48329E-04-1.80300E-05-2.80916E-03-4.18252E-14 2.79255E-13
 -1      2888 1.99984E+01-3.18332E-04 2.44765E-06-3.14190E-03 9.39178E-15-8.88523E-14
 -1      2889 1.99982E+01-1.56153E-04 8.67882E-06-3.15629E-03-4.11094E-14 9.29112E-14
 -1      2890 1.99993E+01-1.80363E-05-1.26193E-05-3.14799E-03 2.57688E-15 5.88863E-14
 -1      2891 1.99985E+01-5.36496E-04 2.55863E-06-2.99050E-03 6.46008E-15-1.37993E-13
 -1      2892 1.99984E+01-4.39772E-04 2.43195E-06-3.08868E-03-9.07692E-14-8.54566E-14
 -1      2893 1.99992E+01-4.32841E-04-8.49742E-06-3.18109E-03-2.32740E-14-1.02458E-13
 -1      2894 1.99988E+01-6.72976E-04 2.12547E-06-2.71575E-03-2.12896E-13-4.89540E-14
 -1      2895 1.99986E+01-6.11775E-04-1.24805E-06-2.86679E-03 2.75607E-14 5.16847E-14
 -1      2896 1.99992E+01-6.86150E-04-5.48136E-06-3.01870E-03-1.35826E-13 3.16030E-14
 -1      2897 1.99990E+01-7.78056E-04 8.20292E-07-2.36046E-03-1.28959E-13-2.15944E-13
 -1      2898 1.99988E+01-7.28914E-04-3.64771E-06-2.54804E-03-2.03119E-13-2.72317E-13
 -1      2899 1.99993E+01-8.48876E-04-3.03778E-06-2.73263E-03-1.09422E-13-9.70414E-15
 -1      2900 1.99992E+01-9.03943E-04-2.24751E-06-1.95882E-03-2.87761E-13-1.16330E-13
 -1      2901 1.99991E+01-8.44690E-04-4.87350E-06-2.17519E-03-3.43318E-13-1.89610E-13
 -1      2902 1.99994E+01-9.91059E-04-8.44552E-08-2.37534E-03-4.03575E-13-2.29287E-13
 -1      2903 1.99995E+01-1.14392E-03 3.92566E-06-1.96741E-03-2.67938E-13-4.15915E-13
 -1      2904 2.00003E+01-1.86904E-03 8.51381E-06-1.73012E-03 6.95193E-15 1.44046E-14
 -1      2905 2.00001E+01-1.69054E-03-2.87801E-06-1.84230E-03-2.81087E-13-1.98330E-13
 -1      2906 2.00009E+01-2.37998E-03 7.13736E-06-7.95395E-04 1.43248E-14 1.05881E-13
 -1      2907 2.00008E+01-2.28993E-03 6.09087E-07-1.06289E-03 2.13359E-13-1.02299E-13
 -1      2908 2.00000E+01-1.53071E-03 7.00737E-06-1.93769E-03-4.04799E-13-6.68201E-13
 -1      2909 1.99997E+01-1.31742E-03-2.27073E-06-1.94699E-03-2.05040E-13-6.30834E-13
 -1      2910 1.99997E+01-1.22699E-03-3.82904E-06-2.16604E-03-3.61210E-13-6.16135E-13
 -1      2911 2.00002E+01-1.53639E-03-8.24241E-07-2.06101E-03-1.22641E-13-2.21819E-13
 -1      2912 2.29835E+01-4.98775E+00 1.28645E-01 4.52326E+00 2.52437E-13-6.86066E-14
 -1      2913 2.11161E+01-8.37054E-02 5.18409E-03 1.18866E+00 9.08995E-14 1.80281E-15
 -1      2914 2.12210E+01-2.54702E-01-4.83961E-03 1.13697E+00 1.00459E-13 1.50510E-14
 -1      2915 2.16689E+01-3.72759E-01 6.46324E-03 1.13208E+00 1.06177E-13-2.02518E-15
 -1      2916 2.15483E+01 3.23282E-02 7.75371E-03 1.30537E+00 8.26745E-14-2.48965E-14
 -1      2917 2.00007E+01-2.17535E-03 8.44083E-06-1.33383E-03 2.73947E-13 8.70104E-14
 -1      2918 2.00005E+01-2.03459E-03-2.40528E-06-1.54003E-03 1.50355E-13-3.63188E-14
 -1      2919 2.00006E+01-1.83739E-03-4.36580E-06-1.78016E-03 2.25833E-13 1.97659E-13
 -1      2920 2.00009E+01-2.09411E-03-4.72055E-06-1.30020E-03 2.18051E-13 4.47941E-14
 -1      2921 2.00010E+01-2.44667E-03 3.54801E-06 4.64002E-04-1.51167E-13 5.56278E-13
 -1      2922 2.00010E+01-2.47584E-03 5.22960E-06 1.63723E-04-8.68952E-14 5.97013E-13
 -1      2923 2.00008E+01-2.30709E-03 1.03247E-06 1.04830E-03 1.26043E-13-2.96833E-14
 -1      2924 2.00009E+01-2.39317E-03 7.00134E-06 7.82506E-04-8.60873E-14 5.50349E-13
 -1      2925 2.00012E+01-2.26801E-03-5.11978E-06 6.70619E-04-7.65548E-14 5.27093E-13
 -1      2926 2.00005E+01-2.05790E-03-2.38382E-06 1.53599E-03 2.65744E-13 5.77964E-14
 -1      2927 2.00007E+01-2.19654E-03 8.51310E-06 1.32535E-03 3.09794E-13-2.33531E-13
 -1      2928 2.00010E+01-2.11793E-03-4.87688E-06 1.28612E-03 2.45907E-13 1.06225E-13
 -1      2929 2.00001E+01-1.71549E-03-6.87116E-06 1.85116E-03 1.44001E-13-7.32193E-14
 -1      2930 2.00003E+01-1.89207E-03 9.10335E-06 1.73209E-03 3.50218E-13 1.50482E-13
 -1      2931 2.00006E+01-1.86401E-03-4.73085E-06 1.77976E-03 2.73152E-13 5.38472E-14
 -1      2932 1.99997E+01-1.29504E-03-6.14980E-06 1.95013E-03-2.13640E-14-4.19084E-13
 -1      2933 1.99999E+01-1.50801E-03 8.33717E-06 1.94465E-03 1.82763E-13-2.99244E-13
 -1      2934 2.00001E+01-1.52294E-03 1.16733E-06 2.07639E-03 1.83160E-13-1.37215E-13
 -1      2935 2.01940E+01 2.54702E+00-1.18782E-02 1.46265E-01-3.09495E-13-3.40294E-13
 -1      2936 2.02861E+01 2.24344E+00 5.97660E-03 6.37938E-01-2.67194E-13-3.09178E-13
 -1      2937 6.21626E+00-6.03780E-01 1.38918E-01 2.27679E+00 4.02595E-14 7.32664E-13
 -1      2938 6.24095E+00-3.68670E-01 1.48826E-01-2.62369E-01 2.12039E-13 9.27119E-13
 -1      2939 8.44904E+00-1.13769E-01 1.95055E-01 2.84339E+00-5.85643E-14 5.41955E-13
 -1      2940 2.90950E+01 6.24423E+00-1.44893E-01 1.33247E+00 7.08961E-13-3.74284E-14
 -1      2941 2.90682E+01 7.08879E+00-2.02877E-01 5.23340E-01 7.08905E-13-1.39855E-13
 -1      2942 2.73552E+01 6.39495E+00-1.15681E-01 8.81370E-02 5.90999E-13-1.61017E-13
 -1      2943 2.20977E+01-3.71243E+00 8.57616E-02 4.30670E+00 2.64747E-13-6.65856E-14
 -1      2944 1.96316E+01-4.50960E+00-2.20901E-03 5.58314E+00 2.56739E-13-2.21642E-13
 -1      2945 1.66898E+01-3.48646E+00 1.69471E-01 5.69907E+00 2.73975E-13-3.81722E-13
 -1      2946 2.08274E+01-2.23297E+00 1.28354E-01 4.37038E+00 2.34496E-13-1.17188E-13
 -1      2947 2.00010E+01-2.47251E-03 5.49539E-06-1.74985E-04-5.50013E-14 5.74716E-13
 -1      2948 2.00009E+01-2.44068E-03 3.07620E-06-4.74288E-04-9.97525E-15 4.90876E-13
 -1      2949 2.00012E+01-2.31422E-03-5.19725E-06-7.72441E-06-1.26699E-13 4.89753E-13
 -1      2950 2.47254E+01-4.66281E+00 1.97766E-02-3.13578E+00 2.40571E-13-4.60422E-13
 -1      2951 2.32829E+01-3.34482E+00 1.32924E-01-3.64182E+00 3.52759E-13-3.53672E-13
 -1      2952 2.29864E+01-5.03645E+00-1.70866E-03 5.25172E+00-3.18162E-13-4.74596E-13
 -1      2953 2.10145E+01-4.67750E+00 1.56556E-01 5.89370E+00-3.81833E-13-3.94271E-13
 -1      2954 2.01022E+01 2.01414E+00-7.83063E-03 1.05452E+00-2.24216E-13-2.96906E-13
 -1      2955 2.00189E+01 1.83786E+00 5.45652E-03 1.51653E+00-1.81565E-13-3.08089E-13
 -1      2956 1.89489E+01 2.13478E+00 1.52329E-02 1.57263E+00-1.38023E-13-3.60981E-13
 -1      2957 1.93465E+01 2.56794E+00 1.49285E-02 7.73152E-01-2.45807E-13-3.60655E-13
 -1      2958 1.71050E+01-4.25168E+00-2.89215E-02 6.95521E+00-4.09520E-13-1.46175E-13
 -1      2959 1.32139E+01-2.86838E+00 2.23888E-01 6.69852E+00-4.11907E-13 6.02851E-14
 -1      2960 1.92535E+01-4.00002E+00 7.01181E-02 5.92350E+00-4.12115E-13-2.89144E-13
 -1      2961 2.00891E+01 2.11254E+00-3.72844E-03 1.62558E-02 1.84904E-13-4.02307E-13
 -1      2962 1.97931E+01 2.26099E+00-4.08502E-03-2.36790E-01 1.37167E-13-4.37450E-13
 -1      2963 1.98392E+01 1.87995E+00-5.85722E-03-5.16187E-01 9.14295E-14-4.10389E-13
 -1      2964 2.04389E+01 1.57126E+00-2.21272E-03 1.95389E-02 1.69836E-13-3.44505E-13
 -1      2965 1.82419E+01-4.24413E+00 1.45110E-01-6.81685E+00-3.20272E-13-3.95808E-13
 -1      2966 2.10346E+01-4.91493E+00 8.40334E-03-6.38897E+00-2.58460E-13-3.17042E-13
 -1      2967 1.72722E+01 3.85956E+00-1.09936E-03-8.41489E-01-1.59717E-13-5.59955E-13
 -1      2968 1.73837E+01 3.83575E+00-1.29701E-02-6.97113E-01-1.98275E-13-5.49605E-13
 -1      2969 1.29443E+01-2.69394E+00 6.82461E-02 5.66687E+00 2.36713E-13-6.01380E-13
 -1      2970 9.42647E+00-1.40701E+00 1.76510E-01 4.19131E+00 1.92193E-13-8.12489E-13
 -1      2971 1.61099E+01-2.10813E+00 1.23095E-01 5.14371E+00 2.51410E-13-4.40190E-13
 -1      2972 2.93031E+01 2.42625E+00-1.27853E-01 1.69554E+00 4.44922E-13 7.99499E-14
 -1      2973 2.93609E+01 4.37961E+00-1.95187E-01 1.76786E+00 6.03628E-13 5.44148E-14
 -1      2974 7.75147E+00-5.95822E-02 1.65400E-01-3.16396E+00-1.76525E-13-9.27231E-13
 -1      2975 9.11814E+00-8.16454E-01 1.32861E-01-5.01020E+00-2.37657E-13-8.73968E-13
 -1      2976 1.12667E+01-1.93660E+00 1.55452E-01-6.19733E+00-3.11418E-13-7.22422E-13
 -1      2977 1.45226E+01-3.24831E+00 3.53091E-02-7.08682E+00-3.13180E-13-5.42677E-13
 -1      2978 1.18754E+01-7.89860E-01 1.53171E-01-5.23069E+00-3.25073E-13-7.17343E-13
 -1      2979 1.19088E+01-1.94950E+00 1.95856E-01-4.84587E+00 4.40842E-13 4.03177E-13
 -1      2980 1.52723E+01-3.18725E+00-3.79685E-03-5.60563E+00 4.36096E-13 2.43638E-13
 -1      2981 7.82971E+00-5.15199E-01 1.80205E-01-2.35118E+00 2.87145E-13 7.91978E-13
 -1      2982 9.56194E+00-1.30890E+00 1.16223E-01-4.06555E+00 3.81542E-13 5.04485E-13
 -1      2983 1.25339E+01-8.28443E-01 1.71033E-01-4.11907E+00 3.12937E-13 3.56090E-13
 -1      2984 1.93893E+01 3.39798E+00 1.11734E-03-2.44639E-01-3.09224E-13-4.30479E-13
 -1      2985 2.93729E+01 5.21544E+00-1.95150E-01-1.61495E+00 6.11455E-13-5.11785E-13
 -1      2986 2.93124E+01 3.50431E+00-1.47325E-01-1.77315E+00 4.82892E-13-5.84893E-13
 -1      2987 1.99994E+01-1.08624E-03 5.04778E-07 2.05452E-03 1.02616E-13-2.87116E-13
 -1      2988 1.82680E+01 2.75346E+00-3.09904E-03-1.30128E+00-4.83606E-14-5.08073E-13
 -1      2989 1.80163E+01 3.27763E+00 9.60542E-03-1.14853E+00-4.94444E-14-5.46997E-13
 -1      2990 1.76929E+01 3.42168E+00-1.60253E-02-1.19054E+00-7.59621E-14-5.70067E-13
 -1      2991 2.11959E+01 1.28083E+00 4.79816E-03 1.06374E+00 3.45567E-13-1.02779E-13
 -1      2992 2.78510E+01 4.81902E+00-1.08677E-01 1.66129E+00 5.56874E-13 5.37070E-14
 -1      2993 2.91528E+01 2.05676E+00-1.39665E-01-1.70814E+00 3.78100E-13-5.78898E-13
 -1      2994 2.86002E+01 8.32808E-01-3.22054E-02-1.51506E+00 2.57655E-13-6.15272E-13
 -1      2995 2.78958E+01 2.87218E+00-9.64516E-02-2.06382E+00 4.05523E-13-5.17308E-13
 -1      2996 1.80208E+01-1.48745E+00-8.72147E-03 4.61354E+00 2.30552E-13-2.45713E-13
 -1      2997 2.00012E+01-2.25519E-03-5.12679E-06-6.88845E-04-3.33974E-14 2.20971E-13
 -1      2998 2.77131E+01 5.30737E+00-1.17980E-01-1.47123E+00 5.46646E-13-3.49179E-13
 -1      2999 1.76475E+01 3.76556E+00-1.11282E-02-4.18850E-01-2.10039E-13-5.23261E-13
 -1      3000 1.80820E+01 3.63441E+00 6.10466E-03-2.58990E-01-2.48628E-13-5.09439E-13
 -1      3001 1.73888E+01 3.60269E+00 1.52351E-02-4.87043E-01-1.91150E-13-5.06977E-13
 -1      3002 2.14140E+01 1.48679E-03-4.00181E-03 5.72119E-01 1.65149E-13-8.68779E-14
 -1      3003 2.12771E+01 9.91586E-02-1.55011E-03 5.87973E-01 1.73086E-13-4.36865E-14
 -1      3004 2.58716E+01-5.26879E+00 7.06313E-02-2.80462E+00 1.66714E-13-5.66255E-13
 -1      3005 2.83862E+01-2.54840E+00-3.62319E-02 7.88191E-01-6.01828E-14-5.86309E-13
 -1      3006 1.89885E+01 3.24112E+00-3.81411E-03-1.38044E-02-2.71255E-13-4.48608E-13
 -1      3007 2.04725E+01-2.89634E+00 2.62037E-03-4.42468E+00 3.63098E-13-8.30239E-14
 -1      3008 7.82644E+00 4.30568E-01 2.00921E-01-2.11121E+00-1.11355E-13-9.30755E-13
 -1      3009 9.75836E+00 7.79749E-01 1.05499E-01-2.81267E+00-2.07676E-13-8.33861E-13
 -1      3010 8.23373E+00 7.89833E-01 1.45318E-01-7.63093E-01-7.13492E-14-9.02695E-13
 -1      3011 1.99995E+01-1.12099E-03-4.33381E-08 2.24808E-03 1.92120E-13-4.86746E-13
 -1      3012 8.79313E+00 2.03141E-01 1.79117E-01-1.29511E+00 2.06418E-13 7.56617E-13
 -1      3013 2.12750E+01 2.42506E-01 5.29624E-03 6.22238E-01 2.16964E-13-4.26256E-14
 -1      3014 2.45044E+01-4.65495E+00-5.39261E-03 3.72726E+00-3.37105E-13-4.92405E-13
 -1      3015 2.80442E+01-3.31696E+00-3.01952E-02-1.78736E+00-6.25541E-15-5.45397E-15
 -1      3016 2.80769E+01-2.47503E+00-7.45880E-02-4.04671E-01 9.22873E-15 3.37647E-14
 -1      3017 2.66638E+01-3.91898E+00 3.07725E-02-2.46996E+00-1.44267E-13-2.30788E-14
 -1      3018 2.83957E+01-3.47164E-01-7.54130E-02 1.02587E+00 1.94414E-13 1.21299E-13
 -1      3019 2.91134E+01 9.63367E-01-1.16247E-01 1.46278E+00 3.40547E-13 8.31696E-14
 -1      3020 2.79391E+01 1.91232E+00-6.61418E-02 2.00526E+00 3.52565E-13 1.48589E-13
 -1      3021 2.31858E+01-4.74519E+00 2.40128E-02-4.99371E+00-2.88131E-13-2.27922E-13
 -1      3022 2.12107E+01 9.59938E-01 6.85201E-03 8.32210E-01 2.97576E-13-1.06456E-13
 -1      3023 1.74519E+01 3.65999E+00 6.60149E-03-1.11850E+00-9.30463E-14-5.54462E-13
 -1      3024 1.72959E+01 3.74191E+00-1.64546E-02-1.05047E+00-1.37083E-13-5.48511E-13
 -1      3025 1.71966E+01 3.56670E+00 1.28286E-02-1.01416E+00-1.41810E-13-5.27915E-13
 -1      3026 1.75592E+01 3.23215E+00 4.66773E-03-1.31502E+00-8.68761E-14-5.38069E-13
 -1      3027 1.85098E+01-3.14787E+00 1.02139E-01-4.89341E+00 3.91062E-13 8.07271E-14
 -1      3028 1.71616E+01-3.20985E+00 1.21689E-01-6.43926E+00-3.55563E-13-4.50105E-13
 -1      3029 2.76235E+01-5.33660E+00-6.21975E-02-1.75298E+00 8.45157E-14-6.88651E-13
 -1      3030 2.11266E+01 8.07117E-01-1.19333E-02 4.93519E-01 2.17857E-13-1.88286E-13
 -1      3031 2.09935E+01 9.60573E-01 4.76572E-03 2.93964E-01 1.76531E-13-2.40286E-13
 -1      3032 2.12769E+01 4.44223E-01 8.87595E-03 7.55462E-01 2.74518E-13 9.38377E-16
 -1      3033 2.67828E+01 3.66460E+00-8.65172E-02 1.94957E+00 4.14974E-13 5.28362E-14
 -1      3034 2.63595E+01 5.07445E+00-1.40236E-01 1.35724E+00 5.03236E-13-7.68465E-14
 -1      3035 2.05849E+01-3.93410E+00-3.29569E-02 5.08151E+00-4.06498E-13-4.49092E-13
 -1      3036 1.79247E+01-2.98128E+00 1.68114E-01 5.82761E+00-4.38358E-13-1.78996E-13
 -1      3037 1.95356E+01 1.71654E+00 8.71894E-03-1.10060E+00 1.96349E-15-4.19173E-13
 -1      3038 1.90764E+01 1.92123E+00-8.52953E-03-1.31749E+00-4.03648E-14-4.39177E-13
 -1      3039 1.73800E+01 2.12917E+00-1.77040E-02 1.73344E+00-3.65385E-14-3.98998E-13
 -1      3040 1.70261E+01 1.87001E+00 1.76423E-02 2.16425E+00 1.37876E-14-4.02507E-13
 -1      3041 2.61343E+01 5.79487E+00-9.92953E-02 5.94175E-01 5.49449E-13-1.50066E-13
 -1      3042 2.60092E+01 5.82296E+00-1.12025E-01-3.68760E-01 5.08621E-13-2.58333E-13
 -1      3043 1.61426E+01 1.47257E+00-1.49078E-02 2.61918E+00 4.84552E-14-4.08271E-13
 -1      3044 1.57895E+01 8.33471E-01 1.67528E-02 3.17751E+00 1.10920E-13-4.25705E-13
 -1      3045 1.54591E+01 2.07985E+00 4.63578E-02 1.82248E+00 9.69884E-15-5.03862E-13
 -1      3046 1.27036E+01-1.87947E+00 1.71534E-01 5.85003E+00-3.86316E-13 8.90260E-14
 -1      3047 2.15032E+01-1.35373E-01-1.10146E-02 4.42436E-01 1.40635E-13-1.41563E-13
 -1      3048 2.14444E+01 1.48806E-01 4.66007E-03 4.72274E-01 1.62911E-13-1.32387E-13
 -1      3049 1.19545E+01 1.79701E-01 9.03151E-02-4.34882E+00-3.26256E-13-7.01106E-13
 -1      3050 1.37791E+01-9.65598E-01 5.45615E-02-5.55737E+00-3.59199E-13-5.79981E-13
 -1      3051 1.61889E+01-2.18765E+00 9.57906E-02-6.00688E+00-3.78517E-13-4.48530E-13
 -1      3052 1.91919E+01-3.48410E+00 3.64814E-03-5.89411E+00-3.53800E-13-2.84286E-13
 -1      3053 1.68976E+01-1.35969E+00 1.46768E-01-4.65533E+00 3.83672E-13 1.28453E-13
 -1      3054 1.75980E+01 8.47567E-01 3.26884E-02-2.99979E+00 2.15225E-13-7.08439E-15
 -1      3055 1.76669E+01 1.11614E+00-1.45668E-02-2.70212E+00 1.46351E-13 6.37207E-14
 -1      3056 1.82263E+01 1.26830E+00 1.10556E-02-2.39360E+00 9.47144E-14 1.46443E-13
 -1      3057 1.84007E+01 1.30757E+00-1.61790E-02-2.14297E+00 1.59142E-13 1.17063E-13
 -1      3058 1.70036E+01 1.45248E+00 3.35987E-02-2.26524E+00 1.71229E-13 1.66402E-13
 -1      3059 1.88465E+01 1.29094E+00 3.84125E-03-1.91566E+00 1.42829E-13 3.94769E-14
 -1      3060 1.90033E+01 1.22147E+00-1.26862E-02-1.69978E+00-2.18907E-14 9.32914E-14
 -1      3061 1.79652E+01 1.50061E+00 2.06441E-02-1.78948E+00 3.15664E-14 1.27523E-13
 -1      3062 1.93087E+01 1.13712E+00 1.73443E-03-1.53414E+00-8.30310E-14 1.07031E-13
 -1      3063 1.94099E+01 1.03711E+00-9.23814E-03-1.36102E+00-6.43244E-14 1.03132E-13
 -1      3064 1.86781E+01 1.34416E+00 1.52019E-02-1.44816E+00-3.55302E-14 2.44006E-13
 -1      3065 1.96206E+01 9.37515E-01 1.65604E-03-1.22531E+00-1.18252E-13 2.59889E-14
 -1      3066 1.96796E+01 8.35732E-01-6.94009E-03-1.08058E+00-2.25969E-13 3.95718E-15
 -1      3067 1.91635E+01 1.12339E+00 1.09722E-02-1.17948E+00-1.55610E-13 1.02598E-13
 -1      3068 1.98209E+01 7.42733E-01 1.76674E-03-9.67864E-01-3.14949E-13-1.18054E-14
 -1      3069 1.98489E+01 6.53183E-01-5.14659E-03-8.48806E-01-1.97922E-13-3.14987E-14
 -1      3070 1.94914E+01 9.00867E-01 7.62057E-03-9.52621E-01-2.77688E-13 9.69818E-14
 -1      3071 1.99408E+01 5.74706E-01 1.83288E-03-7.55513E-01-9.91823E-14-8.48853E-14
 -1      3072 1.99488E+01 5.01149E-01-3.79358E-03-6.59224E-01-1.98106E-14-1.97535E-13
 -1      3073 1.97053E+01 7.04215E-01 5.10153E-03-7.60043E-01-2.15885E-13 9.33061E-14
 -1      3074 2.00069E+01 4.38313E-01 1.77626E-03-5.82888E-01 5.60828E-14-2.53575E-13
 -1      3075 2.00034E+01 3.80134E-01-2.76825E-03-5.06198E-01 1.19316E-13-2.30342E-13
 -1      3076 1.98402E+01 5.41677E-01 3.29667E-03-5.98317E-01-3.47100E-14-1.10595E-13
 -1      3077 2.00389E+01 3.31182E-01 1.60010E-03-4.44554E-01 9.40290E-14-2.06029E-13
 -1      3078 2.00297E+01 2.86063E-01-2.08466E-03-3.84228E-01-1.11616E-14-1.87293E-13
 -1      3079 1.99223E+01 4.12357E-01 2.08140E-03-4.64687E-01 6.70229E-14 5.51683E-14
 -1      3080 2.00512E+01 2.46820E-01 1.38693E-03-3.32726E-01-1.99141E-15-9.13729E-14
 -1      3081 2.00396E+01 2.11071E-01-1.49917E-03-2.84002E-01 3.23778E-14 6.47198E-14
 -1      3082 1.99710E+01 3.09610E-01 1.33494E-03-3.53785E-01 6.95530E-14 5.40734E-14
 -1      3083 2.00513E+01 1.83135E-01 1.18400E-03-2.45897E-01-3.72394E-15 8.90926E-16
 -1      3084 2.00401E+01 1.57280E-01-1.04086E-03-2.10247E-01-2.85635E-14-1.05057E-13
 -1      3085 1.99973E+01 2.30663E-01 6.89521E-04-2.65343E-01-5.59251E-14-1.45423E-14
 -1      3086 2.00462E+01 1.36121E-01 9.78374E-04-1.80578E-01 2.48607E-14-1.84583E-13
 -1      3087 2.00361E+01 1.16502E-01-7.51984E-04-1.53393E-01 2.06863E-13-2.24179E-13
 -1      3088 2.00101E+01 1.72254E-01 3.57510E-04-1.97582E-01 3.34557E-15-4.40312E-14
 -1      3089 2.00389E+01 1.00550E-01 7.87730E-04-1.30596E-01 2.10132E-13-3.20638E-13
 -1      3090 2.00303E+01 8.57147E-02-5.40913E-04-1.10062E-01 5.45376E-14-3.73393E-13
 -1      3091 2.00153E+01 1.27860E-01 1.63342E-04-1.44827E-01 8.59220E-14-3.61525E-13
 -1      3092 2.00313E+01 7.37096E-02 6.23512E-04-9.27548E-02 1.03122E-13-2.72765E-13
 -1      3093 2.00243E+01 6.25206E-02-3.87762E-04-7.74051E-02 1.33788E-13-2.55270E-13
 -1      3094 2.00164E+01 9.42018E-02 5.19458E-05-1.04282E-01 1.50879E-13-3.07975E-13
 -1      3095 2.00243E+01 5.35092E-02 4.85849E-04-6.44317E-02-4.09882E-14-3.32726E-13
 -1      3096 2.00188E+01 4.50999E-02-2.76654E-04-5.30921E-02-1.27533E-13-2.37693E-13
 -1      3097 2.00154E+01 6.87597E-02-8.28076E-06-7.35235E-02 4.70970E-14-2.34775E-13
 -1      3098 2.00183E+01 3.83647E-02 3.73094E-04-4.35039E-02-2.30177E-13-1.59114E-13
 -1      3099 2.00141E+01 3.20523E-02-2.08517E-04-3.52302E-02-2.99376E-13-1.47570E-13
 -1      3100 2.00134E+01 4.96045E-02-3.61465E-05-5.05093E-02-1.51903E-13-9.87719E-14
 -1      3101 2.00133E+01 2.68085E-02 2.80131E-04-2.79344E-02-2.60855E-13-1.05110E-13
 -1      3102 2.00100E+01 2.19673E-02-1.46511E-04-2.17903E-02-2.39408E-13 4.27587E-14
 -1      3103 2.00111E+01 3.50185E-02-2.77420E-05-3.32234E-02-1.91329E-13-2.27598E-14
 -1      3104 2.00093E+01 1.83624E-02 2.08350E-04-1.69109E-02-8.13039E-14 1.76584E-13
 -1      3105 2.00071E+01 1.49791E-02-9.38457E-05-1.28189E-02 1.15338E-13 3.01426E-13
 -1      3106 2.00088E+01 2.41320E-02-5.09535E-05-2.07464E-02-4.49426E-14 2.10735E-13
 -1      3107 2.00064E+01 1.23327E-02 1.50945E-04-9.40825E-03 1.33341E-13 3.71834E-13
 -1      3108 2.00048E+01 9.88133E-03-6.30374E-05-6.60688E-03 1.11161E-13 4.45465E-13
 -1      3109 2.00069E+01 1.64007E-02-4.74620E-05-1.21727E-02 1.36252E-13 3.30646E-13
 -1      3110 2.00042E+01 7.97957E-03 1.07972E-04-4.29603E-03 1.59745E-13 5.22826E-13
 -1      3111 2.00031E+01 6.22908E-03-4.12868E-05-2.43888E-03 1.80364E-13 6.18389E-13
 -1      3112 2.00052E+01 1.07801E-02-4.12753E-05-6.23685E-03 1.59002E-13 4.97111E-13
 -1      3113 2.00026E+01 4.88757E-03 7.54804E-05-9.31541E-04 1.42992E-13 6.45946E-13
 -1      3114 2.00019E+01 3.66228E-03-2.58264E-05 2.45175E-04 1.27310E-13 5.05200E-13
 -1      3115 2.00039E+01 6.75840E-03-3.44967E-05-2.25303E-03 1.65434E-13 7.10884E-13
 -1      3116 2.00015E+01 2.73745E-03 5.12260E-05 1.17676E-03-5.48133E-14 3.93038E-13
 -1      3117 2.00010E+01 1.90089E-03-1.51550E-05 1.87284E-03 2.21299E-14 3.41176E-13
 -1      3118 2.00028E+01 3.93679E-03-2.79616E-05 3.11527E-04-4.17695E-15 6.01686E-13
 -1      3119 2.00007E+01 1.28267E-03 3.36999E-05 2.40061E-03 1.11263E-13 8.77417E-14
 -1      3120 2.00004E+01 7.25589E-04-8.77509E-06 2.76659E-03-5.95580E-14 7.39655E-14
 -1      3121 2.00019E+01 2.00478E-03-2.20384E-05 1.86454E-03-9.33033E-14 4.19555E-13
 -1      3122 2.00001E+01 3.09225E-04 2.09547E-05 3.02788E-03-8.26986E-14-2.04411E-14
 -1      3123 2.00000E+01-5.60026E-05-3.88179E-06 3.17130E-03-2.07370E-13 1.90085E-14
 -1      3124 2.00013E+01 7.04727E-04-1.53987E-05 2.72365E-03-1.36556E-13 1.84399E-13
 -1      3125 1.99998E+01-2.93188E-04 1.17106E-05 3.23273E-03-2.73252E-13 1.39107E-14
 -1      3126 1.99998E+01-5.04345E-04-1.40638E-07 3.22449E-03-1.81239E-13-6.91877E-14
 -1      3127 2.00008E+01-1.31296E-04-1.27818E-05 3.09320E-03-3.32714E-13 1.62957E-13
 -1      3128 1.99996E+01-6.47873E-04 5.47402E-06 3.17374E-03-2.35409E-13-2.95935E-13
 -1      3129 1.99996E+01-7.72994E-04 1.63590E-06 3.07559E-03-3.69607E-14-3.38843E-13
 -1      3130 2.00004E+01-6.23932E-04-9.44168E-06 3.13769E-03-2.94332E-13-2.63756E-13
 -1      3131 1.99995E+01-8.62183E-04 1.22316E-06 2.95569E-03 2.26002E-13-4.11162E-13
 -1      3132 1.99996E+01-9.41124E-04 2.61600E-06 2.80005E-03 1.92456E-13-4.60054E-13
 -1      3133 2.00002E+01-9.18599E-04-6.22007E-06 2.98828E-03 4.83268E-14-5.47733E-13
 -1      3134 1.99995E+01-9.99818E-04 6.66918E-07 2.63323E-03 1.26132E-13-3.06924E-13
 -1      3135 1.99996E+01-1.07174E-03 6.36208E-07 2.44546E-03 1.06225E-13-4.40152E-13
 -1      3136 2.00000E+01-1.11236E-03-2.65291E-06 2.72090E-03 1.69531E-13-3.52486E-13
 -1      3137 2.19706E+01-6.73018E-01-8.06745E-03 8.46024E-01 8.90772E-14-6.88880E-14
 -1      3138 2.19527E+01-6.39611E-01 7.45085E-03 7.12143E-01 1.12933E-13-8.68195E-14
 -1      3139 2.17570E+01-5.32375E-01-9.01927E-03 5.67627E-01 1.13955E-13-1.33077E-13
 -1      3140 2.17226E+01-3.56148E-01 1.45357E-02 5.03426E-01 1.10407E-13-1.47427E-13
 -1      3141 2.16984E+01-2.99642E-01-1.14460E-02 3.56598E-01 1.34054E-13-1.51687E-13
 -1      3142 2.20736E+01-6.80989E-01-1.98072E-03 5.39246E-01 1.02714E-13-9.82220E-14
 -1      3143 2.14753E+01 1.65295E+00 1.33652E-02 7.34893E-01 1.44322E-13-5.37604E-14
 -1      3144 2.15594E+01 1.31730E+00-1.70098E-02 1.04310E+00 1.09679E-13-4.38065E-14
 -1      3145 2.17633E+01 9.27065E-01 1.51807E-02 1.28198E+00 7.35397E-14-4.65860E-15
 -1      3146 2.18666E+01 4.99562E-01-1.84596E-02 1.40266E+00 4.88685E-14-7.77438E-15
 -1      3147 2.21945E+01 1.31971E+00 3.39656E-03 1.29944E+00 1.11412E-13-2.55811E-14
 -1      3148 2.14264E+01 1.56389E+00-1.40907E-02-9.88629E-01 1.48362E-13-1.58492E-13
 -1      3149 2.13757E+01 1.82208E+00 1.07846E-02-6.33736E-01 2.19629E-13-7.44234E-14
 -1      3150 2.16868E+01 7.89368E-01-2.01852E-02-1.50400E+00 1.44884E-13-2.48496E-13
 -1      3151 2.15959E+01 1.21824E+00 1.56966E-02-1.31780E+00 1.28530E-13-2.11433E-13
 -1      3152 2.20124E+01 1.63570E+00-1.04302E-03-1.26309E+00 1.75871E-13-2.40822E-13
 -1      3153 2.19161E+01-4.89531E-02-1.63952E-02-1.56157E+00 1.14323E-13-3.07382E-13
 -1      3154 2.18421E+01 3.63666E-01 1.05178E-02-1.57176E+00 1.41256E-13-3.09006E-13
 -1      3155 2.22865E+01 6.61604E-01 6.60185E-03-1.64919E+00 1.68830E-13-3.65634E-13
 -1      3156 2.19682E+01-6.56183E-01-6.70020E-03-1.26865E+00 5.74423E-14-2.36140E-13
 -1      3157 2.19482E+01-3.86020E-01 2.37028E-03-1.41616E+00 9.43290E-14-2.43265E-13
 -1      3158 2.24168E+01-2.77292E-01 1.14441E-02-1.52874E+00 8.58991E-14-3.89886E-13
 -1      3159 2.18216E+01-9.36241E-01 1.64764E-03-8.19739E-01-1.01686E-13-1.64113E-13
 -1      3160 2.18619E+01-8.35054E-01-4.36387E-03-1.02290E+00 6.01147E-15-2.55614E-13
 -1      3161 2.22983E+01-8.94517E-01 9.13019E-03-1.09574E+00-1.23155E-15-2.65195E-13
 -1      3162 2.15435E+01-9.45710E-01 6.14764E-03-3.77477E-01-4.06403E-14-1.54469E-13
 -1      3163 2.16272E+01-9.70669E-01-7.08174E-03-5.73878E-01-7.64417E-14-1.77491E-13
 -1      3164 2.19764E+01-1.13113E+00 1.99784E-03-5.83495E-01-7.81792E-14-2.77214E-13
 -1      3165 2.12193E+01-7.92758E-01 7.55945E-03-2.51226E-02-8.62145E-14-1.50726E-13
 -1      3166 2.13226E+01-8.86489E-01-6.72940E-03-1.82123E-01-3.61201E-14-1.35643E-13
 -1      3167 2.15631E+01-1.07693E+00-3.32201E-03-1.41086E-01-5.81163E-14-2.01132E-13
 -1      3168 2.09126E+01-5.76622E-01 6.99808E-03 2.14371E-01-1.72995E-13-1.41641E-13
 -1      3169 2.10156E+01-6.91419E-01-4.94220E-03 1.05838E-01-1.48561E-13-1.20902E-13
 -1      3170 2.11541E+01-8.64521E-01-5.61714E-03 1.75245E-01-1.12118E-13-1.72121E-13
 -1      3171 2.06558E+01-3.63359E-01 5.54957E-03 3.52407E-01-1.17620E-13-5.93477E-14
 -1      3172 2.07470E+01-4.69991E-01-3.03116E-03 2.88112E-01-1.16540E-13-5.52425E-14
 -1      3173 2.08052E+01-6.03899E-01-5.80905E-03 3.66137E-01-1.89892E-13-1.07975E-13
 -1      3174 2.04576E+01-1.86148E-01 3.94354E-03 4.12679E-01-5.61550E-14-6.09336E-14
 -1      3175 2.05324E+01-2.71374E-01-1.52761E-03 3.83188E-01-6.15232E-14-8.48236E-14
 -1      3176 2.05354E+01-3.61957E-01-4.98297E-03 4.57658E-01-6.40955E-14-1.41463E-13
 -1      3177 2.03129E+01-5.54864E-02 2.54037E-03 4.19386E-01-4.02887E-14-1.09546E-13
 -1      3178 2.03716E+01-1.16309E-01-4.91086E-04 4.14539E-01-2.72602E-15-2.94197E-14
 -1      3179 2.03412E+01-1.68611E-01-3.82350E-03 4.79825E-01-2.95833E-14-1.81850E-13
 -1      3180 2.02117E+01 3.09214E-02 1.45408E-03 3.92772E-01 5.66812E-14-1.83633E-13
 -1      3181 2.02564E+01-7.91378E-03 1.57269E-04 4.03697E-01-9.76615E-16-1.72708E-13
 -1      3182 2.02093E+01-3.05293E-02-2.71995E-03 4.58283E-01 1.16804E-14-1.73057E-13
 -1      3183 2.01429E+01 8.10912E-02 6.87543E-04 3.48080E-01 1.19132E-13-9.79460E-14
 -1      3184 2.01765E+01 5.96612E-02 5.25869E-04 3.67853E-01 9.99815E-14-1.11067E-13
 -1      3185 2.01242E+01 5.78229E-02-1.82680E-03 4.12309E-01 4.02831E-14-1.04323E-13
 -1      3186 2.00971E+01 1.04469E-01 1.89998E-04 2.95960E-01 2.33249E-14-3.18987E-14
 -1      3187 2.01222E+01 9.55611E-02 7.06596E-04 3.19596E-01 1.01523E-13-6.28207E-14
 -1      3188 2.00718E+01 1.06796E-01-1.16791E-03 3.55304E-01 4.09659E-14-4.97478E-15
 -1      3189 2.00669E+01 1.09719E-01-1.04131E-04 2.43340E-01 1.05278E-13-1.26478E-13
 -1      3190 2.00858E+01 1.09059E-01 7.65827E-04 2.67511E-01 6.53587E-14-1.35807E-13
 -1      3191 2.00412E+01 1.27389E-01-7.15115E-04 2.95997E-01 1.18203E-13-7.69492E-14
 -1      3192 2.00471E+01 1.03817E-01-2.55850E-04 1.94355E-01 1.30509E-13-4.66257E-14
 -1      3193 2.00613E+01 1.08064E-01 7.50397E-04 2.17024E-01 1.39364E-13-9.62533E-14
 -1      3194 2.00242E+01 1.29226E-01-4.22243E-04 2.39663E-01 3.06607E-14-1.26061E-13
 -1      3195 2.00339E+01 9.19196E-02-3.13948E-04 1.51165E-01 6.00784E-14 4.86508E-14
 -1      3196 2.00446E+01 9.86569E-02 6.91661E-04 1.71237E-01 1.34949E-13-1.83952E-15
 -1      3197 2.00153E+01 1.19854E-01-2.41474E-04 1.89172E-01 1.03981E-13-1.29298E-14
 -1      3198 2.00249E+01 7.75659E-02-3.15414E-04 1.14598E-01 7.36201E-14-4.26947E-14
 -1      3199 2.00331E+01 8.51709E-02 6.10476E-04 1.31629E-01 6.38942E-14 5.31384E-14
 -1      3200 2.00108E+01 1.04734E-01-1.36256E-04 1.45780E-01 8.75868E-14 1.57473E-14
 -1      3201 2.00186E+01 6.30084E-02-2.86017E-04 8.46340E-02-2.18180E-14-1.04538E-13
 -1      3202 2.00249E+01 7.04743E-02 5.21049E-04 9.85979E-02 3.39024E-14-4.99132E-14
 -1      3203 2.00087E+01 8.75543E-02-7.87585E-05 1.09699E-01 7.97599E-14-2.03942E-14
 -1      3204 2.00140E+01 4.95483E-02-2.42767E-04 6.07599E-02-3.55180E-14-1.46733E-13
 -1      3205 2.00188E+01 5.63143E-02 4.32528E-04 7.18775E-02-5.10084E-14-1.70914E-13
 -1      3206 2.00077E+01 7.06159E-02-4.94402E-05 8.05207E-02-4.90532E-14-3.49320E-14
 -1      3207 2.00107E+01 3.78278E-02-1.96192E-04 4.22182E-02 8.42671E-14-1.18113E-13
 -1      3208 2.00143E+01 4.36368E-02 3.50379E-04 5.08367E-02 4.58090E-15-1.51558E-13
 -1      3209 2.00070E+01 5.52108E-02-3.56890E-05 5.75013E-02-1.93951E-14-1.09819E-13
 -1      3210 2.00081E+01 2.80610E-02-1.52245E-04 2.81670E-02-3.31481E-14 1.75737E-14
 -1      3211 2.00108E+01 3.28490E-02 2.77520E-04 3.46790E-02 8.90792E-14-3.94118E-14
 -1      3212 2.00065E+01 4.19421E-02-2.97628E-05 3.97578E-02 1.74703E-14-1.23547E-13
 -1      3213 2.00060E+01 2.02037E-02-1.13844E-04 1.77800E-02 8.30545E-14 9.74718E-14
 -1      3214 2.00081E+01 2.40204E-02 2.15098E-04 2.25742E-02 3.84674E-14 5.08256E-14
 -1      3215 2.00059E+01 3.09713E-02-2.71875E-05 2.63908E-02-3.88414E-14 1.73014E-14
 -1      3216 2.00045E+01 1.40718E-02-8.20342E-05 1.03026E-02 1.85751E-14 2.96536E-14
 -1      3217 2.00060E+01 1.70259E-02 1.63119E-04 1.37351E-02 6.87496E-14 3.77256E-14
 -1      3218 2.00052E+01 2.21984E-02-2.56661E-05 1.65568E-02 8.90492E-14 6.02663E-14
 -1      3219 2.00032E+01 9.41862E-03-5.67607E-05 5.07900E-03-5.52427E-15 1.44128E-13
 -1      3220 2.00043E+01 1.16427E-02 1.20904E-04 7.45964E-03-3.59266E-14 9.52624E-14
 -1      3221 2.00045E+01 1.53857E-02-2.41339E-05 9.50611E-03 1.22046E-14-7.68402E-14
 -1      3222 2.00023E+01 5.98347E-03-3.73909E-05 1.55980E-03 1.89289E-14 2.75974E-13
 -1      3223 2.00030E+01 7.61221E-03 8.73900E-05 3.14782E-03 7.44390E-14 2.57551E-13
 -1      3224 2.00038E+01 1.02381E-02-2.22207E-05 4.59859E-03-1.39913E-14 3.84270E-14
 -1      3225 2.00015E+01 3.51901E-03-2.30458E-05-7.01223E-04-1.07758E-13 3.97309E-13
 -1      3226 2.00020E+01 4.67736E-03 6.13554E-05 3.04346E-04 5.45073E-15 3.73275E-13
 -1      3227 2.00031E+01 6.45302E-03-1.99105E-05 1.30444E-03-3.84107E-14 2.29634E-13
 -1      3228 2.00010E+01 1.80528E-03-1.28024E-05-2.05677E-03-1.86328E-14 3.02244E-13
 -1      3229 2.00013E+01 2.60284E-03 4.15715E-05-1.46808E-03-4.41884E-14 3.50308E-13
 -1      3230 2.00024E+01 3.74801E-03-1.73404E-05-8.02953E-04-5.03947E-14 2.09054E-13
 -1      3231 2.00006E+01 6.54607E-04-5.80430E-06-2.77843E-03-3.65125E-14 2.60549E-13
 -1      3232 2.00008E+01 1.18400E-03 2.68939E-05-2.47971E-03 2.56300E-14 3.24992E-13
 -1      3233 2.00019E+01 1.87419E-03-1.46874E-05-2.05872E-03-5.25399E-14 2.09407E-13
 -1      3234 2.00002E+01-8.86293E-05-1.30266E-06-3.06952E-03-3.26856E-14 3.72520E-13
 -1      3235 2.00004E+01 2.48868E-04 1.63056E-05-2.96641E-03-1.21242E-13 3.56952E-13
 -1      3236 2.00014E+01 6.20509E-04-1.21219E-05-2.71961E-03-1.76031E-13 2.99872E-13
 -1      3237 2.00000E+01-5.51189E-04 1.35960E-06-3.07739E-03-1.11742E-13 2.22286E-13
 -1      3238 2.00001E+01-3.43739E-04 8.95716E-06-3.10216E-03 5.12627E-15 2.01552E-13
 -1      3239 2.00010E+01-1.87420E-04-9.77234E-06-2.97705E-03-1.07076E-14 4.36803E-13
 -1      3240 1.99999E+01-8.35697E-04 2.75923E-06-2.90460E-03-1.16255E-14-2.16611E-14
 -1      3241 1.99999E+01-7.08231E-04 4.11485E-06-3.01099E-03-5.48075E-14 5.73805E-14
 -1      3242 2.00006E+01-6.90936E-04-7.70093E-06-2.96941E-03 1.08145E-14 2.78837E-13
 -1      3243 1.99998E+01-1.02360E-03 3.72167E-06-2.61841E-03-1.10431E-14-1.18664E-13
 -1      3244 1.99998E+01-9.38178E-04 1.27994E-06-2.77650E-03-2.67817E-14-7.28588E-14
 -1      3245 2.00003E+01-1.00434E-03-6.14945E-06-2.79374E-03-1.54979E-14-4.20240E-15
 -1      3246 1.99997E+01-1.16650E-03 2.29028E-07-2.30408E-03-3.34247E-13-2.92600E-13
 -1      3247 1.99997E+01-1.08232E-03-1.77991E-06-2.49164E-03-1.59205E-13-1.59378E-13
 -1      3248 2.00001E+01-1.19843E-03-6.65626E-06-2.55015E-03-7.84793E-14 5.57481E-15
 -1      3249 2.00000E+01-1.32058E-03-2.93963E-06-2.28458E-03-2.05747E-13-3.12162E-13
 -1      3250 2.00011E+01-1.93561E-03-1.78583E-06 1.51020E-03 1.36200E-13 1.01501E-14
 -1      3251 2.00013E+01-2.02846E-03 5.84066E-06 1.22170E-03 5.26411E-14 2.15112E-13
 -1      3252 2.62840E+01 5.30846E+00-1.34470E-01-1.23284E+00 4.75897E-13-2.89267E-13
 -1      3253 2.67743E+01 4.22902E+00-1.06505E-01-1.86436E+00 4.84945E-13-3.92592E-13
 -1      3254 9.93355E+00 4.50241E-02 4.41622E-02 3.57076E+00-1.80238E-13 2.54560E-13
 -1      3255 9.10826E+00 6.43676E-01 1.03437E-01 1.66046E+00 8.08034E-15 4.48849E-13
 -1      3256 2.00007E+01-1.69142E-03-7.80726E-06 2.00836E-03 4.03024E-13 2.50754E-13
 -1      3257 2.00009E+01-1.82414E-03 9.70161E-06 1.79420E-03 3.27218E-13 2.07258E-13
 -1      3258 2.00013E+01-1.76980E-03-3.98493E-06 1.75025E-03 2.26251E-13 2.68446E-13
 -1      3259 2.00015E+01-2.09123E-03 6.40968E-07 8.76647E-04-1.15856E-13 5.22169E-13
 -1      3260 2.00015E+01-2.13717E-03 3.80781E-06 5.46837E-04-3.03785E-14 5.55194E-13
 -1      3261 2.00017E+01-1.92632E-03-2.95864E-06 1.11045E-03-6.32283E-14 4.73514E-13
 -1      3262 1.53915E+01-3.80348E-01 1.65876E-01 4.33027E+00 2.14759E-13-4.53387E-13
 -1      3263 1.84939E+01 3.14493E+00-8.88971E-03 1.12560E-01-2.32261E-13-4.53470E-13
 -1      3264 2.00015E+01-2.12351E-03 4.44439E-06-5.66919E-04-1.42368E-13 3.20564E-13
 -1      3265 2.00014E+01-2.07443E-03-5.49405E-07-8.99630E-04-1.46369E-14 1.88062E-14
 -1      3266 2.80007E+01-1.65171E+00-1.54187E-01-5.08420E-01 3.41636E-14-5.56354E-13
 -1      3267 2.69983E+01-3.21205E+00 1.48643E-02 1.03734E+00-1.45512E-13-5.27460E-13
 -1      3268 2.13009E+01 4.73780E-01-1.12527E-02 7.37709E-01 2.48390E-13-8.91309E-14
 -1      3269 2.13172E+01 1.91541E+00-4.43830E-03-1.25957E-01 1.79197E-13-6.67128E-14
 -1      3270 2.13460E+01 1.85386E+00-7.51917E-03 2.79645E-01 1.73118E-13-6.03414E-14
 -1      3271 2.19010E+01 2.05546E+00-6.13648E-03 5.89283E-01 1.60430E-13-1.05193E-13
 -1      3272 2.18178E+01 2.20994E+00-3.96088E-03-4.14881E-01 2.05698E-13-1.69770E-13
 -1      3273 2.57146E+01-4.27438E+00-5.25146E-02 2.39813E+00-2.81102E-13-4.36772E-13
 -1      3274 2.36567E+01-4.30007E+00 5.68991E-03 3.51732E+00-3.47000E-13-4.55931E-13
 -1      3275 2.60509E+01-3.25103E+00 1.38582E-02 9.14494E-01-2.03272E-13-4.52766E-13
 -1      3276 1.08467E+01-3.68316E-01 1.38783E-01 3.62005E+00 1.66721E-13-7.49484E-13
 -1      3277 7.56943E+00-8.35440E-01 1.52016E-01 2.89779E+00 8.80546E-14-9.07746E-13
 -1      3278 2.23230E+01-4.24718E+00 5.52084E-02-4.93510E+00-3.08475E-13-2.06245E-13
 -1      3279 2.48099E+01-4.52941E+00-2.04869E-02-3.83250E+00-2.55532E-13-1.39885E-13
 -1      3280 1.99998E+01-1.25877E-03-6.78562E-06 2.35631E-03 2.97824E-13-4.34409E-13
 -1      3281 2.00016E+01-2.15428E-03 2.68818E-06 1.64123E-04-1.74146E-13 3.32848E-13
 -1      3282 2.00016E+01-2.15253E-03 1.80403E-06-1.86572E-04-1.83790E-13 4.00300E-13
 -1      3283 2.00019E+01-1.98933E-03-2.57519E-06-4.00973E-04-1.16657E-13 3.56642E-13
 -1      3284 2.00019E+01-1.99920E-03-2.40272E-06 3.72606E-04-1.91598E-14 6.19637E-13
 -1      3285 2.12453E+01 6.93191E-01 8.82048E-03 6.49190E-01 2.22579E-13-1.41345E-13
 -1      3286 1.22895E+01 9.57362E-02 1.55353E-01-3.41525E+00 2.46379E-13 3.69066E-13
 -1      3287 1.40148E+01-8.38916E-01-1.40262E-03-4.34681E+00 2.60347E-13 2.43375E-13
 -1      3288 9.30514E+00 8.51394E-01 1.40441E-01-7.77036E-02 1.21725E-13 7.65721E-13
 -1      3289 1.04603E+01 5.11300E-01 4.45531E-02-2.16343E+00 1.74537E-13 6.54657E-13
 -1      3290 1.08588E+01 1.13303E+00 1.29045E-01 7.02679E-01-2.29812E-14 5.17926E-13
 -1      3291 7.82281E+00 2.55593E-01 1.29619E-01 1.45438E+00 2.23849E-14-8.91259E-13
 -1      3292 1.46193E+01-2.18995E+00-4.05630E-02 5.90538E+00-4.12309E-13-1.02668E-13
 -1      3293 1.19560E+01-7.76207E-01 1.58998E-01 4.92891E+00-3.28904E-13 1.25344E-13
 -1      3294 1.24041E+01 1.06622E-02 1.26749E-01 3.84303E+00-2.55837E-13 7.15469E-14
 -1      3295 1.66074E+01-6.02502E-01 9.70191E-02-4.08549E+00 2.49935E-13 1.59654E-13
 -1      3296 9.56754E+00 1.00997E+00 9.31648E-02 1.05397E+00 6.45144E-15-8.22106E-13
 -1      3297 8.80015E+00 9.88988E-01 1.83016E-01 1.24613E-01-3.55076E-14-8.92689E-13
 -1      3298 9.97097E+00 1.40818E+00 8.58854E-02-8.99371E-01-1.23904E-13-8.32098E-13
 -1      3299 1.47495E+01 5.70077E-01 4.80824E-02 3.38198E+00 1.25306E-13-4.74176E-13
 -1      3300 1.22112E+01 1.23323E-01 5.17045E-02 3.58335E+00 1.53273E-13-6.27248E-13
 -1      3301 1.07810E+01 8.83069E-01 1.85124E-01 2.32673E+00 7.32903E-14-7.46445E-13
 -1      3302 1.34892E+01 1.58512E+00 1.29760E-01 2.34078E+00 7.91710E-14-5.90708E-13
 -1      3303 2.68305E+01 2.59522E+00-1.11218E-01 2.04878E+00 3.60739E-13 7.85379E-14
 -1      3304 2.56714E+01 3.07903E+00-5.08315E-02 1.93496E+00 3.16198E-13 4.44783E-15
 -1      3305 2.67073E+01 1.51307E+00-6.58167E-02 1.94378E+00 2.82885E-13 1.37845E-13
 -1      3306 1.67765E+01-2.09710E+00 7.61288E-02 5.24983E+00-4.08146E-13-1.76879E-13
 -1      3307 1.89680E+01 1.60831E+00-8.28902E-03-1.64537E+00-6.15786E-14-4.39556E-13
 -1      3308 1.86004E+01 2.23326E+00 1.56808E-02-1.50194E+00-4.65740E-14-4.73150E-13
 -1      3309 1.80997E+01 2.44618E+00-1.65469E-02-1.59720E+00-7.24305E-14-5.06642E-13
 -1      3310 2.67760E+01 3.25331E+00-1.17258E-01-2.02365E+00 4.43215E-13-4.34573E-13
 -1      3311 2.67010E+01 2.29668E+00-2.76235E-02-2.11081E+00 3.24081E-13-4.69916E-13
 -1      3312 2.56421E+01 3.43126E+00-6.67823E-02-1.89985E+00 3.52787E-13-3.89591E-13
 -1      3313 2.52851E+01 4.85488E+00-8.54489E-02-7.88636E-01 4.38025E-13-3.12893E-13
 -1      3314 1.15213E+01 7.49985E-01 1.33965E-01-3.68353E+00-2.69233E-13-7.31762E-13
 -1      3315 1.32540E+01 5.82081E-01 4.65328E-02-3.98213E+00-3.31714E-13-6.17381E-13
 -1      3316 1.11132E+01 1.16524E+00 5.68901E-02-2.64698E+00-1.99226E-13-7.44432E-13
 -1      3317 1.68689E+01 3.43787E+00-1.07734E-03-5.89432E-01-1.60897E-13-5.00057E-13
 -1      3318 1.70821E+01 3.34039E+00-2.15857E-02-2.87608E-01-1.80051E-13-4.95182E-13
 -1      3319 1.61065E+01-1.20981E+00 9.11606E-02-5.24142E+00-3.76379E-13-4.73885E-13
 -1      3320 2.00895E+01-2.78329E+00 3.81274E-02-4.90985E+00-3.17003E-13-2.70636E-13
 -1      3321 2.11947E+01-3.65096E+00 6.66537E-02-5.04675E+00-3.29639E-13-2.08355E-13
 -1      3322 2.26555E+01-3.61280E+00-1.52211E-02-3.91136E+00-3.08302E-13-1.74478E-13
 -1      3323 1.11726E+01 1.39635E+00 7.37833E-02 1.19988E+00 1.56992E-15-7.29347E-13
 -1      3324 2.00009E+01-1.78732E-03 8.93083E-06-1.79995E-03 5.78939E-14 2.68869E-13
 -1      3325 2.00006E+01-1.65786E-03-7.38126E-06-2.00202E-03 8.06991E-14 1.53109E-13
 -1      3326 2.20997E+01-6.14737E-01-4.46156E-05 1.04600E+00 6.53429E-14-3.09656E-14
 -1      3327 2.23971E+01-7.64049E-01 3.55200E-03 8.91080E-01 6.10029E-14-4.67053E-14
 -1      3328 2.20737E+01-4.62481E-01-1.38672E-03 1.18040E+00 8.13647E-14-3.12505E-15
 -1      3329 2.24809E+01 3.52323E-01 1.14959E-02 1.50475E+00 7.98051E-14 3.08616E-14
 -1      3330 2.20037E+01 1.14410E-01 7.97116E-03 1.39341E+00 5.49719E-14 1.56226E-14
 -1      3331 2.20797E+01-2.20888E-01-9.89089E-03 1.34523E+00 8.13876E-14 2.56338E-14
 -1      3332 2.13214E+01 3.83862E-01 2.12890E-03 4.69713E-01 1.83322E-13-1.41270E-13
 -1      3333 1.83078E+01 2.94041E+00-1.91741E-03 4.63477E-01-2.04914E-13-4.37500E-13
 -1      3334 2.13876E+01 2.84076E-01 6.82189E-03 3.32697E-01 1.59177E-13-1.76918E-13
 -1      3335 2.00002E+01-1.43354E-03 7.79203E-06 2.26144E-03 2.55483E-13-1.11455E-13
 -1      3336 2.00005E+01-1.43075E-03-1.76037E-06 2.32476E-03 4.31855E-13-5.37262E-14
 -1      3337 2.74865E+01-5.70485E-01-6.36318E-02-1.22625E+00 7.93324E-14-5.29937E-13
 -1      3338 1.64888E+01 2.50987E-01 3.39774E-02-3.62512E+00 1.98970E-13 7.88640E-14
 -1      3339 1.53057E+01 8.30499E-01 5.92473E-02-3.05171E+00 2.28739E-13 1.02295E-13
 -1      3340 2.52910E+01 4.63641E+00-8.07758E-02 9.56397E-01 4.31571E-13-1.57050E-13
 -1      3341 2.56886E+01-3.94838E+00-7.43524E-03-2.45917E+00-2.23727E-13-5.44079E-14
 -1      3342 2.11035E+01 5.90841E-01-2.04296E-03 6.53917E-02 1.45982E-13-2.57586E-13
 -1      3343 2.08067E+01 1.04631E+00-5.27821E-03 3.90853E-02 1.59472E-13-3.07159E-13
 -1      3344 2.05745E+01 1.19424E+00 2.78387E-03-2.21689E-01 1.24383E-13-3.39541E-13
 -1      3345 2.80485E+01-1.53270E+00-6.78749E-02 5.49775E-01 6.30294E-14 9.73110E-14
 -1      3346 2.74236E+01-4.04431E-01-3.80921E-02 1.37093E+00 1.32200E-13 1.78163E-13
 -1      3347 2.72121E+01-2.36881E+00-2.01799E-02-1.39479E-01-1.59178E-14 8.14140E-14
 -1      3348 2.02873E+01 1.32489E+00 1.31721E-03-5.33269E-01 9.79475E-14-3.45981E-13
 -1      3349 1.99382E+01 1.49812E+00-1.12655E-03-8.05859E-01 4.04174E-14-3.70794E-13
 -1      3350 1.99485E+01 1.11897E+00-8.54700E-03-1.13455E+00 4.56005E-15-3.63355E-13
 -1      3351 2.06719E+01 7.96538E-01-3.60817E-03-5.04301E-01 9.99612E-14-3.07850E-13
 -1      3352 1.81354E+01 2.53317E+00-2.25157E-02 1.00519E+00-1.64696E-13-4.00672E-13
 -1      3353 1.79191E+01 2.35474E+00 9.58832E-04 1.40133E+00-9.19059E-14-3.88471E-13
 -1      3354 1.67698E+01 2.57058E+00 7.28868E-03 1.17414E+00-7.91108E-14-4.47643E-13
 -1      3355 2.00002E+01-1.45661E-03 6.87582E-06-2.19380E-03 1.35115E-14 5.19533E-14
 -1      3356 2.25185E+01-4.03243E+00 5.96449E-02 4.05743E+00-3.38219E-13-4.42763E-13
 -1      3357 2.08643E+01-3.38979E+00-1.12398E-02 4.27674E+00-3.01995E-13-3.96932E-13
 -1      3358 2.35988E+01-3.75333E+00 2.66514E-03 2.75100E+00-2.80546E-13-3.74377E-13
 -1      3359 1.69573E+01 3.27236E+00 9.59499E-03-1.25450E+00-1.24142E-13-5.13256E-13
 -1      3360 1.68124E+01 3.34232E+00-2.02503E-02-1.01932E+00-1.58132E-13-5.15231E-13
 -1      3361 1.65920E+01 3.20384E+00 1.66993E-02-8.45036E-01-1.52806E-13-4.96927E-13
 -1      3362 1.22714E+01 6.86025E-01 5.46185E-02-2.42177E+00 2.06377E-13 4.26964E-13
 -1      3363 2.00013E+01-1.99947E-03 6.43688E-06-1.24321E-03 3.89267E-14-7.25342E-14
 -1      3364 2.00011E+01-1.90722E-03-2.85702E-06-1.52447E-03 1.25771E-13 1.48178E-15
 -1      3365 2.00012E+01-1.72446E-03-8.14613E-07-1.76700E-03-5.29494E-14 1.83819E-13
 -1      3366 2.00005E+01-1.44110E-03 1.50745E-06-2.25328E-03-1.29890E-13 8.04390E-14
 -1      3367 2.00016E+01-1.89792E-03-2.75124E-06-1.13641E-03 2.79451E-14-6.68826E-14
 -1      3368 2.59803E+01-2.72877E+00-8.40050E-02-3.01920E-02-1.05329E-13-4.14823E-13
 -1      3369 2.50844E+01-3.28338E+00 3.28140E-03 1.06557E+00-1.78176E-13-3.61747E-13
 -1      3370 1.57279E+01-3.09246E-01 4.87117E-02-4.58201E+00-3.57329E-13-4.95159E-13
 -1      3371 1.77542E+01-1.51563E+00 2.02531E-02-4.98755E+00-3.42025E-13-3.64229E-13
 -1      3372 2.00007E+01-1.35566E-03 4.04597E-06-2.35868E-03-1.48424E-13 1.16796E-13
 -1      3373 2.44684E+01 3.78613E+00-4.15517E-02 1.30912E+00 3.32824E-13-7.01982E-14
 -1      3374 2.41794E+01 4.35965E+00-6.25575E-02 4.99646E-01 3.87419E-13-1.63296E-13
 -1      3375 1.71061E+01 1.61484E+00-6.66336E-03-1.42337E+00 4.97345E-14 7.46885E-14
 -1      3376 1.75511E+01 1.54753E+00-1.87246E-02-1.26595E+00-4.40316E-15 9.62738E-14
 -1      3377 1.80549E+01 1.45887E+00-6.44460E-03-1.19723E+00-4.46080E-14 6.27378E-14
 -1      3378 1.83542E+01 1.35125E+00-1.26574E-02-1.07892E+00-9.57771E-14 5.89393E-14
 -1      3379 1.74188E+01 1.63361E+00 2.61645E-02-8.60918E-01-5.60299E-14-2.61505E-14
 -1      3380 1.87060E+01 1.23953E+00-4.46976E-03-1.01593E+00-1.60157E-13 8.91355E-14
 -1      3381 1.89121E+01 1.12163E+00-9.01387E-03-9.12830E-01-1.81536E-13 5.44972E-14
 -1      3382 1.82325E+01 1.40183E+00 1.73442E-02-7.87887E-01-1.52899E-13-5.50775E-14
 -1      3383 1.91576E+01 1.01024E+00-2.81082E-03-8.52396E-01-2.74976E-13 8.38915E-14
 -1      3384 1.92941E+01 9.01396E-01-6.52582E-03-7.61112E-01-2.59757E-13 1.03723E-13
 -1      3385 1.88029E+01 1.15818E+00 1.19887E-02-7.04450E-01-1.58075E-13-1.85594E-15
 -1      3386 1.94642E+01 8.02589E-01-1.44039E-03-7.02970E-01-2.39515E-13 1.44390E-13
 -1      3387 1.95511E+01 7.09412E-01-4.81240E-03-6.23271E-01-1.71260E-13 1.46773E-13
 -1      3388 1.91991E+01 9.32288E-01 8.33995E-03-6.12296E-01-2.21274E-13 1.07040E-13
 -1      3389 1.96679E+01 6.26914E-01-5.02173E-04-5.69220E-01-1.10644E-13 1.86105E-13
 -1      3390 1.97211E+01 5.50558E-01-3.56504E-03-5.01184E-01-7.62659E-14 1.19792E-13
 -1      3391 1.94711E+01 7.36960E-01 5.72600E-03-5.17366E-01-1.85856E-13 1.85592E-13
 -1      3392 1.98005E+01 4.83914E-01 3.69747E-05-4.52801E-01 6.54437E-15 2.64949E-13
 -1      3393 1.98316E+01 4.22945E-01-2.69861E-03-3.95987E-01 8.33592E-14 3.42252E-13
 -1      3394 1.96560E+01 5.75116E-01 3.90374E-03-4.26059E-01 6.78009E-15 2.81286E-13
 -1      3395 1.98871E+01 3.67911E-01 3.64316E-04-3.52027E-01-1.71839E-14 3.13085E-13
 -1      3396 1.99049E+01 3.18169E-01-1.99199E-03-3.03704E-01-1.32957E-14 2.25327E-13
 -1      3397 1.97826E+01 4.41531E-01 2.61204E-03-3.40940E-01 1.17288E-14 3.19694E-13
 -1      3398 1.99401E+01 2.77770E-01 5.17555E-04-2.68927E-01-6.57467E-14 1.16921E-13
 -1      3399 1.99483E+01 2.41048E-01-1.43866E-03-2.32000E-01-9.36540E-14 6.14462E-14
 -1      3400 1.98660E+01 3.36028E-01 1.66906E-03-2.66932E-01-1.04563E-13 1.80200E-13
 -1      3401 1.99714E+01 2.09808E-01 5.67207E-04-2.03438E-01-1.04761E-13 3.11030E-14
 -1      3402 1.99747E+01 1.81369E-01-1.06640E-03-1.74246E-01-2.93372E-14 3.66539E-14
 -1      3403 1.99190E+01 2.55575E-01 1.06240E-03-2.06100E-01-1.69373E-13 9.23737E-14
 -1      3404 1.99899E+01 1.57340E-01 5.34762E-04-1.51318E-01 1.79884E-14-6.14563E-14
 -1      3405 1.99904E+01 1.35466E-01-7.84188E-04-1.28571E-01 1.94764E-14-1.23933E-13
 -1      3406 1.99534E+01 1.92976E-01 6.70945E-04-1.56091E-01-1.05760E-13 6.08705E-14
 -1      3407 2.00002E+01 1.17053E-01 4.72965E-04-1.10508E-01 9.36862E-14-1.50110E-13
 -1      3408 1.99993E+01 1.00301E-01-5.73727E-04-9.30296E-02 9.77010E-14-1.58790E-13
 -1      3409 1.99754E+01 1.44515E-01 4.15258E-04-1.15911E-01-1.96254E-14 7.78785E-14
 -1      3410 2.00055E+01 8.62509E-02 4.00588E-04-7.90484E-02-8.15817E-15-2.37323E-13
 -1      3411 2.00040E+01 7.34856E-02-4.16427E-04-6.58072E-02-1.66246E-14-2.36464E-13
 -1      3412 1.99891E+01 1.07196E-01 2.49948E-04-8.42715E-02-8.00225E-14-2.12256E-13
 -1      3413 2.00078E+01 6.28122E-02 3.26302E-04-5.51715E-02 5.48621E-14-1.29432E-13
 -1      3414 2.00062E+01 5.31174E-02-3.13636E-04-4.52775E-02-9.67241E-14 1.93862E-14
 -1      3415 1.99973E+01 7.86258E-02 1.47630E-04-5.98190E-02 7.92687E-14-1.74106E-13
 -1      3416 2.00085E+01 4.46911E-02 2.59089E-04-3.69586E-02-2.37992E-13 1.05719E-13
 -1      3417 2.00068E+01 3.71447E-02-2.23621E-04-2.94288E-02-8.91307E-14 1.68975E-13
 -1      3418 2.00022E+01 5.64804E-02 9.82330E-05-4.08978E-02-1.38470E-13 4.15282E-15
 -1      3419 2.00080E+01 3.12394E-02 2.02528E-04-2.37136E-02 3.87949E-14 8.23468E-14
 -1      3420 2.00066E+01 2.59026E-02-1.48633E-04-1.85674E-02-4.66009E-14 1.65608E-13
 -1      3421 2.00047E+01 3.97597E-02 3.58315E-05-2.68651E-02-7.52909E-14 7.98900E-14
 -1      3422 2.00072E+01 2.15125E-02 1.54470E-04-1.44593E-02 8.00981E-14 2.96355E-13
 -1      3423 2.00060E+01 1.75870E-02-1.02170E-04-1.08347E-02 3.13578E-13 2.89692E-13
 -1      3424 2.00057E+01 2.76703E-02 1.02207E-05-1.69463E-02 1.23963E-13 3.16176E-14
 -1      3425 2.00062E+01 1.43790E-02 1.15496E-04-7.96270E-03 2.52757E-13 3.19901E-13
 -1      3426 2.00052E+01 1.15324E-02-6.85601E-05-5.47575E-03 1.40552E-13 3.67839E-13
 -1      3427 2.00058E+01 1.87449E-02-3.48043E-06-9.87505E-03 3.27478E-13 2.71976E-13
 -1      3428 2.00051E+01 9.22555E-03 8.45460E-05-3.52880E-03 1.48989E-13 5.21379E-13
 -1      3429 2.00043E+01 7.19778E-03-4.43263E-05-1.87994E-03 2.05235E-13 5.21881E-13
 -1      3430 2.00055E+01 1.22487E-02-1.05986E-05-4.96689E-03 1.86386E-13 3.65865E-13
 -1      3431 2.00041E+01 5.57100E-03 6.04228E-05-6.12012E-04-2.48547E-14 4.10780E-13
 -1      3432 2.00035E+01 4.15766E-03-2.71940E-05 4.30804E-04-1.73860E-13 3.73937E-13
 -1      3433 2.00049E+01 7.60214E-03-1.36743E-05-1.67067E-03-9.90525E-15 2.58642E-13
 -1      3434 2.00032E+01 3.03827E-03 4.20519E-05 1.21057E-03-1.25436E-13 4.11721E-13
 -1      3435 2.00028E+01 2.07528E-03-1.64838E-05 1.82596E-03-1.75735E-13 2.13195E-13
 -1      3436 2.00042E+01 4.34850E-03-1.41026E-05 4.47866E-04-1.64395E-13 1.46697E-13
 -1      3437 2.00025E+01 1.29435E-03 2.81475E-05 2.28090E-03-1.43261E-13 1.30724E-13
 -1      3438 2.00021E+01 6.42933E-04-8.19854E-06 2.60567E-03-1.81030E-13 1.34020E-13
 -1      3439 2.00035E+01 2.09309E-03-1.14848E-05 1.74334E-03-2.49834E-13 4.52621E-14
 -1      3440 2.00018E+01 1.75613E-04 1.79618E-05 2.79766E-03-4.17902E-13 7.55955E-14
 -1      3441 2.00015E+01-2.13913E-04-1.96196E-06 2.90773E-03-5.19367E-13 4.01098E-14
 -1      3442 2.00028E+01 6.00362E-04-1.21546E-05 2.43640E-03-3.42151E-13-3.62474E-14
 -1      3443 2.00013E+01-5.06834E-04 1.06204E-05 2.95033E-03-5.04005E-13 2.37629E-14
 -1      3444 2.00011E+01-7.43089E-04 1.02726E-06 2.93262E-03-3.48491E-13-2.28128E-13
 -1      3445 2.00021E+01-3.15500E-04-1.04527E-05 2.71120E-03-5.50885E-13 1.03656E-13
 -1      3446 2.00008E+01-9.24161E-04 4.54720E-06 2.87680E-03-1.05673E-13-2.85578E-13
 -1      3447 2.00007E+01-1.06153E-03 2.74692E-06 2.77660E-03 7.90730E-14-2.17538E-13
 -1      3448 2.00016E+01-8.78780E-04-6.93562E-06 2.72987E-03-3.47574E-13 2.00662E-13
 -1      3449 2.00006E+01-1.20241E-03-1.45236E-06 2.63326E-03 2.79511E-13-2.76490E-13
 -1      3450 2.00006E+01-1.30470E-03-3.31759E-07 2.48763E-03 3.64283E-13-1.26068E-13
 -1      3451 2.00011E+01-1.51903E-03 5.66213E-06 2.21659E-03 4.48885E-13 3.56849E-13
 -1      3452 2.00013E+01-1.23969E-03 3.82828E-07 2.53598E-03 1.23104E-13 9.59003E-14
 -1      3453 1.74667E+01 3.16004E+00 1.36016E-02 3.02873E-01-1.68844E-13-4.58361E-13
 -1      3454 2.27018E+01 1.83366E+00 1.53952E-02 1.34563E+00 1.71219E-13-5.54461E-15
 -1      3455 2.28260E+01 1.18471E+00-3.42619E-02 1.56851E+00 1.06009E-13 1.20923E-14
 -1      3456 2.28816E+01 3.17796E-01-2.81683E-02-1.76540E+00 1.61724E-13-3.69098E-13
 -1      3457 2.28020E+01 9.92793E-01 1.04938E-02-1.72015E+00 1.76652E-13-3.30947E-13
 -1      3458 2.26156E+01 1.65976E+00-2.82644E-02-1.56627E+00 1.89747E-13-2.67942E-13
 -1      3459 2.24931E+01 2.23197E+00 9.84929E-03-1.22176E+00 2.50064E-13-2.13408E-13
 -1      3460 2.33332E+01 1.43742E+00-1.12996E-02-1.76214E+00 2.11546E-13-3.56881E-13
 -1      3461 2.26068E+01-1.29446E+00 2.22667E-03-8.00296E-01-6.35644E-14-2.90581E-13
 -1      3462 2.27217E+01-1.08938E+00-5.04478E-03-1.06494E+00 3.11528E-14-3.15908E-13
 -1      3463 2.21123E+01-1.37091E+00 1.07046E-02-2.36481E-01-1.24092E-13-3.00028E-13
 -1      3464 2.22849E+01-1.37974E+00-8.82549E-03-4.79218E-01-1.19225E-13-2.87774E-13
 -1      3465 2.27234E+01-1.56219E+00 1.08100E-03-4.36470E-01-1.04070E-13-2.88358E-13
 -1      3466 2.15663E+01-1.17386E+00 1.18723E-02 1.79715E-01-1.20976E-13-1.35353E-13
 -1      3467 2.17591E+01-1.30092E+00-8.01623E-03-2.21616E-04-9.18326E-14-2.09173E-13
 -1      3468 2.20487E+01-1.53605E+00-8.28074E-03 1.17482E-01-1.59362E-13-2.18450E-13
 -1      3469 2.10775E+01-8.65761E-01 1.02597E-02 4.29627E-01-1.47034E-13-5.84595E-14
 -1      3470 2.12568E+01-1.03052E+00-4.68584E-03 3.17259E-01-1.56749E-13-8.55382E-14
 -1      3471 2.14092E+01-1.24111E+00-1.07201E-02 4.66692E-01-1.41251E-13-9.32862E-14
 -1      3472 2.06911E+01-5.54870E-01 7.65075E-03 5.47082E-01-1.68545E-13-7.63969E-14
 -1      3473 2.08387E+01-7.10054E-01-1.85105E-03 4.90102E-01-1.47505E-13-7.71524E-15
 -1      3474 2.08906E+01-8.69717E-01-1.00536E-02 6.35782E-01-1.75717E-13-4.44285E-14
 -1      3475 2.04114E+01-2.93786E-01 5.12104E-03 5.74536E-01-4.09136E-14-1.27372E-13
 -1      3476 2.05231E+01-4.18813E-01-9.12152E-05 5.56902E-01-8.74021E-14-1.05206E-13
 -1      3477 2.05100E+01-5.24604E-01-8.16607E-03 6.81506E-01-1.39321E-13-2.95263E-14
 -1      3478 2.02232E+01-9.92487E-02 3.11041E-03 5.47421E-01-1.56275E-14-1.14256E-13
 -1      3479 2.03024E+01-1.89355E-01 8.29990E-04 5.54977E-01-3.93981E-14-1.52613E-13
 -1      3480 2.02528E+01-2.49073E-01-5.95356E-03 6.53269E-01-3.14629E-14-1.23305E-13
 -1      3481 2.01050E+01 3.13595E-02 1.64325E-03 4.91236E-01-2.66265E-14-1.26018E-13
 -1      3482 2.01583E+01-2.70926E-02 1.19372E-03 5.13230E-01 4.38871E-14-7.28144E-14
 -1      3483 2.00922E+01-5.20470E-02-4.02758E-03 5.86805E-01-3.66162E-15-1.83897E-13
 -1      3484 2.00364E+01 1.09156E-01 6.56899E-04 4.22774E-01 2.44217E-14-9.03975E-14
 -1      3485 2.00707E+01 7.59486E-02 1.24724E-03 4.51698E-01-1.31877E-15-1.01993E-13
 -1      3486 2.00009E+01 7.49704E-02-2.53742E-03 5.04935E-01-4.20789E-14-1.08245E-13
 -1      3487 2.00005E+01 1.47438E-01 4.36154E-05 3.52426E-01 3.50919E-14-6.00980E-14
 -1      3488 2.00217E+01 1.32605E-01 1.15850E-03 3.83343E-01 9.80672E-15-1.01039E-13
 -1      3489 1.99559E+01 1.46586E-01-1.48761E-03 4.21090E-01 5.28445E-14-4.54483E-14
 -1      3490 1.99848E+01 1.58564E-01-3.00609E-04 2.86167E-01 8.86040E-15 3.20835E-14
 -1      3491 1.99975E+01 1.56028E-01 1.01545E-03 3.16046E-01 7.04069E-14 1.18065E-14
 -1      3492 1.99397E+01 1.78151E-01-7.81140E-04 3.42584E-01-3.85160E-14 8.40364E-14
 -1      3493 1.99807E+01 1.52591E-01-4.65318E-04 2.27043E-01 7.30107E-14-4.77430E-14
 -1      3494 1.99881E+01 1.57563E-01 8.63420E-04 2.54191E-01 5.51985E-14-8.76417E-15
 -1      3495 1.99397E+01 1.82978E-01-3.45054E-04 2.72892E-01 2.98650E-14 2.40563E-13
 -1      3496 1.99825E+01 1.37035E-01-5.14336E-04 1.76288E-01 5.84369E-14-1.42462E-14
 -1      3497 1.99867E+01 1.46009E-01 7.22213E-04 1.99899E-01 2.81056E-14-3.43331E-14
 -1      3498 1.99479E+01 1.71550E-01-8.77032E-05 2.13214E-01 5.35110E-14-7.74831E-14
 -1      3499 1.99868E+01 1.17165E-01-4.95791E-04 1.34019E-01 8.54817E-14-2.02583E-15
 -1      3500 1.99893E+01 1.27736E-01 5.96136E-04 1.53870E-01 7.24578E-14 5.79735E-14
 -1      3501 1.99591E+01 1.51470E-01 4.67453E-05 1.63515E-01 3.90262E-14-7.21634E-15
 -1      3502 1.99915E+01 9.64130E-02-4.41847E-04 9.96939E-02-2.23528E-14 1.85262E-13
 -1      3503 1.99931E+01 1.07051E-01 4.86798E-04 1.15923E-01 6.73741E-14 6.99881E-14
 -1      3504 1.99705E+01 1.27965E-01 1.04092E-04 1.23057E-01-1.03686E-14 1.95793E-13
 -1      3505 1.99958E+01 7.68294E-02-3.73228E-04 7.24376E-02-8.63432E-14 6.38462E-14
 -1      3506 1.99969E+01 8.66500E-02 3.93574E-04 8.53837E-02-1.03652E-14 1.11883E-13
 -1      3507 1.99805E+01 1.04357E-01 1.16992E-04 9.07705E-02 1.70167E-14 2.17132E-13
 -1      3508 1.99991E+01 5.94917E-02-3.02589E-04 5.12429E-02 1.68667E-13-1.54688E-13
 -1      3509 2.00000E+01 6.80559E-02 3.14852E-04 6.13377E-02 2.92283E-14-1.58105E-14
 -1      3510 1.99885E+01 8.25703E-02 1.06934E-04 6.54772E-02 1.02533E-13 1.19624E-14
 -1      3511 2.00015E+01 4.48277E-02-2.37073E-04 3.50959E-02-5.67352E-14-5.70266E-14
 -1      3512 2.00022E+01 5.19893E-02 2.49025E-04 4.27960E-02 5.06047E-14-1.48378E-13
 -1      3513 1.99946E+01 6.35586E-02 8.67935E-05 4.60167E-02 5.48299E-14-6.19151E-14
 -1      3514 2.00030E+01 3.28616E-02-1.80043E-04 2.30501E-02-1.44303E-14-1.13667E-13
 -1      3515 2.00036E+01 3.86517E-02 1.94511E-04 2.87935E-02-7.68459E-15-7.78462E-14
 -1      3516 1.99989E+01 4.76419E-02 6.45515E-05 3.13158E-02-4.80188E-14-3.22031E-14
 -1      3517 2.00037E+01 2.33888E-02-1.32614E-04 1.42634E-02 1.38064E-13 5.36514E-15
 -1      3518 2.00044E+01 2.79355E-02 1.49807E-04 1.84468E-02 8.52249E-14-6.47476E-14
 -1      3519 2.00017E+01 3.47526E-02 4.40824E-05 2.04246E-02 1.89193E-14-1.20552E-13
 -1      3520 2.00040E+01 1.60922E-02-9.45850E-05 8.01298E-03-1.09201E-14 4.02641E-14
 -1      3521 2.00046E+01 1.95683E-02 1.13592E-04 1.09803E-02 9.80722E-14 6.12263E-14
 -1      3522 2.00034E+01 2.46109E-02 2.71342E-05 1.25262E-02 1.16984E-14 2.70683E-14
 -1      3523 2.00039E+01 1.06170E-02-6.50392E-05 3.69617E-03-5.94516E-14 7.04444E-14
 -1      3524 2.00044E+01 1.32062E-02 8.46305E-05 5.73616E-03-9.06022E-14 5.36747E-15
 -1      3525 2.00042E+01 1.68390E-02 1.41460E-05 6.93642E-03-1.14023E-14 2.48368E-13
 -1      3526 2.00036E+01 6.61616E-03-4.27441E-05 8.23228E-04-3.95323E-14 1.81309E-13
 -1      3527 2.00040E+01 8.49367E-03 6.17861E-05 2.17143E-03-2.93380E-14 8.76324E-14
 -1      3528 2.00044E+01 1.10338E-02 4.84964E-06 3.09473E-03-5.91366E-14 1.65594E-13
 -1      3529 2.00031E+01 3.77394E-03-2.64096E-05-9.95072E-04-3.52299E-14 8.98193E-14
 -1      3530 2.00035E+01 5.09655E-03 4.40383E-05-1.51158E-04-2.57889E-14 1.54033E-13
 -1      3531 2.00042E+01 6.80994E-03-1.33154E-06 5.51273E-04-6.77849E-14 1.36732E-13
 -1      3532 2.00026E+01 1.81679E-03-1.48228E-05-2.06133E-03-1.22953E-13 6.42613E-14
 -1      3533 2.00029E+01 2.71889E-03 3.04879E-05-1.57599E-03-3.61978E-14 2.91579E-14
 -1      3534 2.00038E+01 3.82191E-03-5.08191E-06-1.04816E-03-1.79895E-14 1.64566E-13
 -1      3535 2.00021E+01 5.15117E-04-6.92889E-06-2.60541E-03-2.47023E-13 1.29658E-13
 -1      3536 2.00024E+01 1.10863E-03 2.03540E-05-2.36822E-03-2.65635E-13-8.83460E-16
 -1      3537 2.00032E+01 1.77289E-03-7.02560E-06-1.97700E-03-2.07671E-13 5.97555E-14
 -1      3538 2.00016E+01-3.19399E-04-1.83023E-06-2.79744E-03-1.44821E-15 1.62259E-13
 -1      3539 2.00018E+01 5.68456E-05 1.29721E-05-2.72703E-03-4.44563E-14 1.54505E-13
 -1      3540 2.00026E+01 4.15164E-04-7.75440E-06-2.44186E-03-2.32682E-13-1.31966E-13
 -1      3541 2.00012E+01-8.38690E-04 9.08190E-07-2.75898E-03 5.30246E-14 2.11572E-13
 -1      3542 2.00013E+01-6.06478E-04 7.84136E-06-2.79744E-03-2.40184E-14 2.99939E-13
 -1      3543 2.00021E+01-4.54189E-04-7.77222E-06-2.59418E-03-1.07815E-13-3.92399E-14
 -1      3544 2.00008E+01-1.16672E-03 2.18493E-06-2.57274E-03 1.63218E-14 6.71754E-14
 -1      3545 2.00009E+01-1.01823E-03 4.13568E-06-2.68131E-03 1.75524E-13 1.66951E-13
 -1      3546 2.00015E+01-9.97944E-04-6.47699E-06-2.54437E-03 2.03371E-13 3.14327E-13
 -1      3547 2.42748E+01 4.58042E+00-5.11335E-02-3.73442E-01 3.91742E-13-2.80472E-13
 -1      3548 2.45819E+01 4.09524E+00-5.56197E-02-1.27645E+00 3.57971E-13-3.64916E-13
 -1      3549 1.35423E+01 1.91819E+00 1.95510E-02 1.46119E+00 9.46812E-15-5.79876E-13
 -1      3550 1.22893E+01 1.65516E+00 7.82600E-03 1.43045E+00 3.09778E-14-6.37074E-13
 -1      3551 1.16526E+01 1.95832E+00 1.14376E-01 2.19755E-01-4.92043E-14-7.55951E-13
 -1      3552 2.00021E+01-1.77030E-03 3.67781E-06-1.01314E-03 1.20103E-13-6.58810E-14
 -1      3553 2.00019E+01-1.71879E-03-4.93255E-06-1.35763E-03 1.47796E-13-1.71396E-13
 -1      3554 2.00015E+01-1.61553E-03-1.28033E-06 1.90710E-03 3.14855E-13 4.30086E-13
 -1      3555 2.00017E+01-1.70926E-03 3.28133E-06 1.62203E-03 1.39279E-13 2.69661E-13
 -1      3556 2.00016E+01-1.47148E-03-4.02657E-06 2.08703E-03 3.06585E-13 4.59437E-13
 -1      3557 2.00020E+01-1.76288E-03 9.04984E-07 1.25495E-03-2.15630E-14 2.99498E-13
 -1      3558 2.00021E+01-1.81754E-03 9.32109E-07 9.07707E-04-7.76011E-14 7.91984E-13
 -1      3559 2.00022E+01-1.60344E-03-1.53380E-06 1.41933E-03 8.48057E-14 4.28470E-13
 -1      3560 2.68211E+01 3.03074E-01-1.19331E-01-1.80832E+00 1.30972E-13-4.45945E-13
 -1      3561 2.65875E+01-1.33798E+00 1.65643E-02-9.81857E-01-3.53120E-14-4.69746E-13
 -1      3562 2.57234E+01-1.71979E+00-1.01937E-02-7.88712E-01-4.96001E-14-3.95892E-13
 -1      3563 2.59304E+01 9.59317E-01-6.23255E-02-1.93830E+00 1.59681E-13-4.26322E-13
 -1      3564 1.17231E+01 1.25457E+00 4.76761E-02 1.46316E+00-1.35767E-13 2.72386E-13
 -1      3565 1.18302E+01 1.43773E+00 4.44016E-02-1.57075E-01-1.54065E-15 5.02688E-13
 -1      3566 1.36532E+01-2.78665E-01-2.97099E-02 4.11904E+00-3.33497E-13-4.72122E-14
 -1      3567 1.22967E+01 7.46157E-01 6.98483E-02 2.78894E+00-1.77624E-13 4.16611E-14
 -1      3568 1.32341E+01 1.14865E+00 7.10659E-02 1.86944E+00-1.80988E-13 1.07907E-13
 -1      3569 2.28998E+01-7.50341E-01-1.27734E-02-1.39877E+00 2.91117E-14-3.33353E-13
 -1      3570 2.29229E+01-2.70641E-01 4.28452E-03-1.57402E+00 9.84174E-14-3.17250E-13
 -1      3571 2.34938E+01-8.93467E-02 2.26136E-03-1.69973E+00 1.08737E-13-3.62302E-13
 -1      3572 2.32715E+01-1.10942E+00 1.40498E-02-1.13807E+00 1.23043E-14-2.58096E-13
 -1      3573 1.10998E+01 1.74272E+00 3.56531E-02-7.51490E-01-1.14003E-13-7.75414E-13
 -1      3574 1.09820E+01 1.64621E+00 1.28496E-01-1.62656E+00-1.49301E-13-7.80986E-13
 -1      3575 1.22664E+01 1.53845E+00 4.52297E-02-2.37361E+00-2.19507E-13-6.78305E-13
 -1      3576 1.23053E+01 2.04485E+00 3.60806E-02-4.06429E-01-8.21314E-14-7.07358E-13
 -1      3577 2.14951E+01 5.53778E-02 1.11394E-02 9.90938E-02 1.41954E-13-2.09881E-13
 -1      3578 2.13237E+01 2.82726E-01-3.18415E-03 7.90112E-02 1.38462E-13-2.45722E-13
 -1      3579 2.11740E+01 3.79007E-01 1.79404E-03-1.71465E-01 1.17848E-13-2.69909E-13
 -1      3580 1.76418E+01 2.80879E+00 1.69459E-02-1.58085E+00-9.26611E-14-5.24355E-13
 -1      3581 1.72375E+01 2.98048E+00-2.14046E-02-1.50405E+00-1.18750E-13-5.13664E-13
 -1      3582 1.69581E+01 2.84214E+00 9.08208E-03-1.56959E+00-1.33296E-13-5.06167E-13
 -1      3583 1.58017E+01 1.55306E+00-6.41345E-03-1.76730E+00 1.65360E-13 1.52671E-13
 -1      3584 1.63794E+01 1.62550E+00-2.64069E-02-1.52624E+00 1.35822E-13 1.48506E-13
 -1      3585 1.62560E+01 1.78930E+00 3.82724E-02-9.38542E-01 4.34331E-14-6.70124E-15
 -1      3586 1.80193E+01-2.23498E+00-3.62066E-02 4.75730E+00-2.72699E-13-2.55702E-13
 -1      3587 1.58445E+01-1.04688E+00 1.14188E-01 4.71406E+00-3.09260E-13-1.15324E-13
 -1      3588 1.55610E+01 2.53277E+00-2.69271E-03 8.84199E-01-5.05984E-14-5.03546E-13
 -1      3589 1.46749E+01 2.24313E+00 1.11412E-02 1.18993E+00-1.09782E-14-5.34576E-13
 -1      3590 1.40163E+01 2.50888E+00 7.39379E-02 3.59125E-01-4.91720E-14-5.80088E-13
 -1      3591 2.47678E+01-3.71866E+00 2.18246E-03-2.48861E+00-2.35279E-13-7.67155E-14
 -1      3592 2.62693E+01-3.43257E+00-5.05004E-02-1.29162E+00-1.38754E-13-9.10383E-15
 -1      3593 2.00017E+01-1.63850E-03 5.62806E-06-1.71008E-03 7.05559E-15 1.60613E-13
 -1      3594 2.00014E+01-1.54720E-03-3.08303E-06-1.98299E-03-7.26932E-14 2.79623E-13
 -1      3595 2.00021E+01-1.51809E-03 1.92678E-06-1.60350E-03 9.14834E-14 1.55180E-13
 -1      3596 1.35299E+01 1.02713E+00 2.97710E-02-2.24320E+00 1.88672E-13 3.02536E-13
 -1      3597 1.48467E+01 1.47883E+00-2.29244E-02-1.83826E+00 1.39401E-13 2.36386E-13
 -1      3598 1.46874E+01 1.80466E+00 7.34461E-02-9.60527E-01 1.15384E-13 2.67416E-13
 -1      3599 1.24768E+01 1.57181E+00 1.22006E-01-9.24285E-01 1.14974E-13 4.90798E-13
 -1      3600 1.69409E+01 3.03961E+00 1.71652E-02 2.01992E-01-1.42891E-13-4.64272E-13
 -1      3601 1.95075E+01 9.96745E-01 1.50498E-02-1.80239E+00-7.77363E-14-4.04466E-13
 -1      3602 1.88841E+01 1.24584E+00-1.28386E-02-2.00846E+00-9.47226E-14-4.39720E-13
 -1      3603 2.16814E+01-3.03488E-01-1.00632E-02 1.06885E-01 1.00471E-13-1.96674E-13
 -1      3604 1.86643E+01-1.03021E+00 1.44977E-02-4.13280E+00-2.70235E-13-3.64517E-13
 -1      3605 1.92512E+01-1.86989E+00 5.76479E-02-4.59433E+00-3.02163E-13-3.08048E-13
 -1      3606 2.05994E+01-2.24948E+00-2.89600E-02-3.92231E+00-2.67542E-13-2.40722E-13
 -1      3607 2.00011E+01-1.41258E-03-2.10247E-06-2.26290E-03-1.11052E-14 1.73307E-13
 -1      3608 2.00015E+01-1.31284E-03 1.60423E-06-2.20318E-03 1.37836E-13 1.42380E-13
 -1      3609 2.25589E+01-4.16166E-01 1.01930E-02 1.28404E+00 6.96027E-14 2.52485E-14
 -1      3610 1.31489E+01 1.56861E+00-5.37773E-04-2.53202E-01 4.34834E-14 3.52725E-13
 -1      3611 2.43408E+01 2.69190E+00-6.22544E-02 1.66023E+00 2.58829E-13-2.73843E-14
 -1      3612 2.34384E+01 2.59096E+00-1.44086E-02 1.34612E+00 2.31326E-13-2.74884E-14
 -1      3613 2.27725E+01-9.87315E-01-1.36511E-02 8.07689E-01 3.66962E-14-6.56931E-14
 -1      3614 2.26685E+01-1.00231E+00 9.26403E-03 6.11793E-01 4.87960E-14-6.01823E-14
 -1      3615 2.00023E+01-1.83347E-03 2.51422E-06-2.30111E-04-2.85518E-14 4.30470E-13
 -1      3616 2.00022E+01-1.81376E-03-1.61375E-06-6.12648E-04-2.22391E-14 2.69248E-13
 -1      3617 2.00025E+01-1.61413E-03 6.96257E-08-8.49598E-04 9.05823E-14 3.96419E-14
 -1      3618 2.30143E+01 5.43323E-01 1.02019E-02 1.59301E+00 6.95017E-14 1.97203E-14
 -1      3619 2.30854E+01-5.20277E-02-2.03459E-02 1.54779E+00 8.34820E-14 2.49618E-14
 -1      3620 2.35666E+01 8.89433E-01 7.72350E-03 1.71171E+00 1.06510E-13 5.02909E-14
 -1      3621 2.27035E+01 2.56779E+00-2.55859E-02 9.53617E-01 2.28344E-13-6.81062E-14
 -1      3622 2.34002E+01 3.04084E+00-2.23894E-02-1.26385E+00 2.83331E-13-2.86212E-13
 -1      3623 2.27107E+01 2.84981E+00-2.25187E-02-8.65394E-01 2.84299E-13-2.29434E-13
 -1      3624 2.39710E+01 3.20402E+00-3.53743E-02-1.39818E+00 2.91454E-13-3.59944E-13
 -1      3625 2.48648E+01 3.35949E+00-6.49012E-02-1.72105E+00 3.40641E-13-3.83728E-13
 -1      3626 2.49851E+01 2.65319E+00-1.17334E-02-2.01058E+00 3.06598E-13-4.19437E-13
 -1      3627 2.37307E+01 2.43557E+00-5.52636E-03-1.74153E+00 2.65784E-13-3.81898E-13
 -1      3628 2.35511E+01 3.73767E+00-3.70814E-02 2.56048E-02 3.13347E-13-1.54736E-13
 -1      3629 2.11552E+01-2.95438E+00-9.18521E-03 3.55098E+00-1.71714E-13-3.34491E-13
 -1      3630 1.98266E+01-2.60998E+00 7.74687E-02 4.35921E+00-2.57976E-13-3.29430E-13
 -1      3631 1.86100E+01-1.85532E+00-8.81086E-03 4.07998E+00-2.18821E-13-2.33460E-13
 -1      3632 1.42330E+01 7.59002E-01 1.80808E-02-3.73569E+00-3.03452E-13-5.65936E-13
 -1      3633 1.50075E+01 2.47468E-01 6.55274E-02-4.32595E+00-3.47677E-13-5.51486E-13
 -1      3634 1.66126E+01-4.09819E-02 3.30451E-02-4.12884E+00-3.18174E-13-4.61201E-13
 -1      3635 1.54928E+01-3.27606E-01 5.88794E-02 3.83993E+00-2.29769E-13-5.62432E-14
 -1      3636 2.63706E+01-2.51918E+00-1.43776E-02-2.01460E-01-7.26862E-14 9.65408E-14
 -1      3637 1.78737E+01 2.23415E+00-5.07831E-04-1.84127E+00-9.53144E-14-5.03973E-13
 -1      3638 2.05128E+01 5.29040E-01 3.49530E-03-1.15216E+00 1.78672E-14-3.11560E-13
 -1      3639 2.00496E+01 7.30258E-01-3.07163E-03-1.46805E+00-3.92227E-14-3.50878E-13
 -1      3640 1.99914E+01 3.36887E-01-1.65273E-02-1.85589E+00-6.93159E-14-3.32518E-13
 -1      3641 2.23282E+01-9.30497E-01-1.56489E-02 3.84373E-01 5.35462E-14-1.03395E-13
 -1      3642 2.21898E+01-7.35815E-01 1.83137E-02 2.49114E-01 5.75049E-14-1.39474E-13
 -1      3643 2.27054E+01-1.12843E+00-8.93778E-03 2.98770E-01 3.04072E-14-9.54809E-14
 -1      3644 1.61297E+01 2.73636E+00-1.01860E-02 5.97425E-01-9.63285E-14-4.75031E-13
 -1      3645 2.43329E+01-3.55539E+00 9.21615E-04 1.77865E+00-2.42888E-13-3.06631E-13
 -1      3646 2.30741E+01-3.39556E+00-2.91781E-02 2.40354E+00-2.00924E-13-3.09926E-13
 -1      3647 2.45447E+01-2.93535E+00 1.14991E-02 7.56478E-01-1.60543E-13-2.29497E-13
 -1      3648 2.64512E+01-4.68486E-01-3.40375E-02 1.41255E+00 9.65998E-14 1.50747E-13
 -1      3649 2.67381E+01 4.67877E-01-7.20475E-02 1.83810E+00 1.94653E-13 1.36720E-13
 -1      3650 2.58174E+01 1.25849E+00-3.86889E-02 1.97820E+00 2.14596E-13 1.13277E-13
 -1      3651 2.26491E+01-3.05430E+00 1.79284E-03-3.23559E+00-2.49209E-13-1.68503E-13
 -1      3652 2.38506E+01-3.55807E+00 2.36385E-02-2.95864E+00-2.60479E-13-1.22576E-13
 -1      3653 2.44587E+01-3.11401E+00-5.66682E-03-1.79444E+00-1.89493E-13-4.97736E-14
 -1      3654 2.00022E+01-1.83053E-03 1.75321E-06 5.35672E-04-6.50089E-15 8.50809E-13
 -1      3655 2.00023E+01-1.84750E-03 4.49975E-08 1.50940E-04-1.07192E-13 4.79679E-13
 -1      3656 2.00026E+01-1.66108E-03 5.65817E-07-6.76637E-05-8.96443E-14 3.32255E-13
 -1      3657 2.00025E+01-1.66046E-03 1.14900E-07 6.81031E-04-1.20955E-13 8.50952E-13
 -1      3658 1.60738E+01 2.94539E+00 6.64631E-03-1.18037E+00-1.44416E-13-4.90446E-13
 -1      3659 1.59995E+01 3.00674E+00-2.39255E-02-7.30895E-01-1.62363E-13-4.87426E-13
 -1      3660 2.25894E+01 2.94102E+00-9.67055E-03 4.91172E-01 2.13916E-13-1.01110E-13
 -1      3661 2.26511E+01 3.09336E+00-1.48801E-02-3.41883E-01 2.43654E-13-2.21614E-13
 -1      3662 1.52308E+01 2.75394E+00 6.17201E-03-4.50371E-01-1.15815E-13-5.14853E-13
 -1      3663 1.58968E+01 2.98473E+00 1.76731E-02-6.38124E-02-1.21175E-13-5.02995E-13
 -1      3664 2.18803E+01-5.15940E-01-1.09713E-02-7.83828E-02 6.50856E-14-1.85436E-13
 -1      3665 1.63895E+01 2.64711E+00-1.79205E-02-1.72814E+00-1.52355E-13-5.12509E-13
 -1      3666 1.58673E+01 2.52874E+00 3.76115E-03-1.67065E+00-1.66225E-13-4.96622E-13
 -1      3667 1.69028E+01 2.42197E+00 2.81099E-02-1.97646E+00-1.45034E-13-5.14535E-13
 -1      3668 1.78205E+01 1.41482E+00-1.21122E-02-4.77115E-01-1.59233E-13-1.46964E-13
 -1      3669 1.81774E+01 1.30610E+00-8.01014E-03-4.66149E-01-1.77653E-13-1.31853E-13
 -1      3670 1.84887E+01 1.19579E+00-8.46087E-03-4.94350E-01-1.51040E-13-1.43628E-13
 -1      3671 1.87364E+01 1.08800E+00-5.70878E-03-4.68647E-01-1.01091E-13-3.18005E-14
 -1      3672 1.82305E+01 1.27051E+00 1.45237E-02-2.15853E-01-1.90995E-13-1.54561E-13
 -1      3673 1.89602E+01 9.83180E-01-5.49306E-03-4.72779E-01-2.10114E-13 3.13545E-14
 -1      3674 1.91306E+01 8.84564E-01-4.28937E-03-4.38056E-01-1.84747E-13 8.49312E-14
 -1      3675 1.87500E+01 1.06486E+00 1.03283E-02-2.84068E-01-1.36459E-13-4.70305E-14
 -1      3676 1.92914E+01 7.92133E-01-3.42693E-03-4.26921E-01-1.86280E-13 1.31077E-13
 -1      3677 1.94072E+01 7.06764E-01-3.31954E-03-3.88481E-01-1.25182E-13 1.99227E-13
 -1      3678 1.91234E+01 8.72493E-01 7.36490E-03-3.01518E-01-1.37610E-13 1.47802E-13
 -1      3679 1.95223E+01 6.28549E-01-2.07334E-03-3.69007E-01-9.66308E-14 1.17349E-13
 -1      3680 1.96001E+01 5.57270E-01-2.59460E-03-3.30890E-01-1.02041E-14 2.19587E-14
 -1      3681 1.93904E+01 7.02943E-01 5.28862E-03-2.87474E-01-8.82564E-14 1.35814E-13
 -1      3682 1.96855E+01 4.90116E-01-1.11387E-03-3.06767E-01 6.91015E-14 3.94441E-14
 -1      3683 1.97389E+01 4.29424E-01-2.02912E-03-2.70070E-01 1.66326E-14 2.45785E-14
 -1      3684 1.95840E+01 5.55103E-01 3.64631E-03-2.55299E-01-1.14230E-14-1.11770E-13
 -1      3685 1.97961E+01 3.78233E-01-5.26977E-04-2.47178E-01-1.00117E-13 3.36108E-14
 -1      3686 1.98290E+01 3.31990E-01-1.58155E-03-2.16433E-01-1.45822E-13 3.44459E-14
 -1      3687 1.97200E+01 4.33502E-01 2.56618E-03-2.16131E-01-5.87599E-14-1.19944E-13
 -1      3688 1.98693E+01 2.91342E-01-1.42812E-04-1.95288E-01-1.44673E-13-9.95524E-16
 -1      3689 1.98904E+01 2.54455E-01-1.23688E-03-1.69260E-01-1.98651E-13-6.08787E-14
 -1      3690 1.98126E+01 3.37027E-01 1.76669E-03-1.76936E-01-1.62791E-13-1.04369E-13
 -1      3691 1.99186E+01 2.22408E-01 4.78932E-05-1.50802E-01-2.09441E-13 5.55354E-14
 -1      3692 1.99319E+01 1.93326E-01-9.51965E-04-1.29398E-01-6.93374E-14 1.43298E-14
 -1      3693 1.98772E+01 2.59539E-01 1.21660E-03-1.40520E-01-1.89479E-13-1.01860E-13
 -1      3694 1.99515E+01 1.68233E-01 1.42676E-04-1.13908E-01-2.93645E-14-2.10328E-14
 -1      3695 1.99597E+01 1.45478E-01-7.25332E-04-9.67223E-02-8.71374E-14-5.65355E-14
 -1      3696 1.99218E+01 1.97899E-01 8.32688E-04-1.08636E-01-9.19626E-14-6.02247E-14
 -1      3697 1.99732E+01 1.25963E-01 1.79118E-04-8.41259E-02-1.14634E-13-5.59932E-14
 -1      3698 1.99780E+01 1.08290E-01-5.45571E-04-7.06161E-02 2.64521E-15 4.08678E-15
 -1      3699 1.99523E+01 1.49305E-01 5.65893E-04-8.18657E-02-6.09806E-14 5.71800E-14
 -1      3700 1.99871E+01 9.32020E-02 1.77057E-04-6.06403E-02 7.40874E-14-5.92144E-14
 -1      3701 1.99898E+01 7.95644E-02-4.17279E-04-5.02163E-02 7.81079E-14 8.67510E-15
 -1      3702 1.99728E+01 1.11330E-01 3.85398E-04-6.01135E-02 7.34519E-15 2.02833E-13
 -1      3703 1.99960E+01 6.74680E-02 1.62759E-04-4.21332E-02-6.07036E-14 1.07530E-14
 -1      3704 1.99974E+01 5.66616E-02-3.05989E-04-3.39625E-02-9.30779E-14 1.24940E-13
 -1      3705 1.99867E+01 8.13023E-02 2.66940E-04-4.25688E-02 1.92383E-14 1.16337E-13
 -1      3706 2.00013E+01 4.80299E-02 1.41291E-04-2.82429E-02-1.36754E-13 2.03693E-13
 -1      3707 2.00017E+01 4.02748E-02-2.13975E-04-2.24925E-02-7.34116E-14 1.50584E-13
 -1      3708 1.99955E+01 5.83088E-02 1.62335E-04-2.91076E-02-1.10871E-14 2.55060E-13
 -1      3709 2.00041E+01 3.37787E-02 1.18091E-04-1.82644E-02 1.17296E-13 1.26679E-13
 -1      3710 2.00041E+01 2.79815E-02-1.52103E-04-1.40972E-02 2.99413E-13 2.76596E-13
 -1      3711 2.00007E+01 4.13808E-02 1.00149E-04-1.92860E-02 2.87728E-14 3.71185E-13
 -1      3712 2.00054E+01 2.31638E-02 9.42985E-05-1.10578E-02 1.84387E-13 2.82793E-13
 -1      3713 2.00051E+01 1.88928E-02-1.05670E-04-8.10802E-03 2.27480E-13 2.05250E-13
 -1      3714 2.00037E+01 2.86920E-02 5.98386E-05-1.20757E-02 2.34460E-13 2.65396E-13
 -1      3715 2.00058E+01 1.53725E-02 7.32281E-05-5.98400E-03 2.82317E-13 1.39372E-13
 -1      3716 2.00054E+01 1.22773E-02-7.12671E-05-3.95472E-03 1.49742E-13 2.13558E-13
 -1      3717 2.00052E+01 1.93103E-02 3.30620E-05-6.91903E-03 1.88409E-13 6.68455E-14
 -1      3718 2.00056E+01 9.75018E-03 5.54230E-05-2.52013E-03-1.70986E-14 1.51872E-13
 -1      3719 2.00052E+01 7.55056E-03-4.61692E-05-1.17347E-03-6.53849E-14 1.20826E-13
 -1      3720 2.00057E+01 1.24865E-02 1.56055E-05-3.33822E-03 1.21658E-13 1.00977E-13
 -1      3721 2.00051E+01 5.77412E-03 4.06702E-05-2.46625E-04-1.41969E-13 8.33599E-14
 -1      3722 2.00047E+01 4.24339E-03-2.95359E-05 6.06103E-04-2.32887E-13 1.64412E-13
 -1      3723 2.00056E+01 7.61895E-03 5.04133E-06-9.39623E-04-1.29591E-13 2.01657E-13
 -1      3724 2.00044E+01 2.97236E-03 2.89610E-05 1.19254E-03-2.98127E-13 4.45311E-14
 -1      3725 2.00040E+01 1.90696E-03-1.66734E-05 1.70513E-03-3.56485E-13 1.34801E-13
 -1      3726 2.00051E+01 4.16547E-03 1.68299E-07 6.16448E-04-2.73909E-13 5.64459E-14
 -1      3727 2.00036E+01 1.12067E-03 2.02760E-05 1.99798E-03-2.85029E-13-3.28930E-14
 -1      3728 2.00033E+01 4.62690E-04-7.14657E-06 2.24306E-03-2.91240E-13 8.44510E-14
 -1      3729 2.00044E+01 1.82794E-03-5.82228E-06 1.53558E-03-3.31365E-13 1.74032E-13
 -1      3730 2.00029E+01-4.36465E-05 1.35394E-05 2.36831E-03-4.32963E-13 1.89368E-13
 -1      3731 2.00026E+01-4.56264E-04-1.61622E-06 2.45175E-03-6.16210E-13 3.27616E-13
 -1      3732 2.00036E+01 3.47453E-04-7.60380E-06 1.99628E-03-2.50228E-13 2.09214E-13
 -1      3733 2.00022E+01-7.73605E-04 7.34932E-06 2.46499E-03-5.87013E-13 5.01763E-13
 -1      3734 2.00019E+01-1.01970E-03 2.03719E-06 2.44200E-03-2.32939E-13 3.50386E-13
 -1      3735 2.00029E+01-5.89438E-04-7.14344E-06 2.17076E-03-4.44465E-13 5.40580E-13
 -1      3736 2.00018E+01-1.17127E-03-4.62656E-07 2.34716E-03-1.42887E-13 4.12035E-13
 -1      3737 2.00017E+01-1.33619E-03 1.19530E-06 2.19410E-03 8.16879E-14 4.85539E-13
 -1      3738 2.00021E+01-1.41958E-03-1.12085E-07 1.89812E-03 1.14891E-14 4.89216E-13
 -1      3739 2.00024E+01-1.11256E-03-3.81190E-06 2.10330E-03-2.77148E-13 5.70369E-13
 -1      3740 2.38266E+01 1.51465E+00-3.47041E-02-1.88155E+00 2.63845E-13-4.23345E-13
 -1      3741 2.19435E+01-1.61634E+00 1.84826E-02 5.75411E-01-1.77436E-13-1.39515E-13
 -1      3742 2.22608E+01-1.79489E+00-8.71343E-03 3.78399E-01-1.92211E-13-2.20661E-13
 -1      3743 2.28158E+01-1.89187E+00 2.23389E-02 8.02948E-02-1.61669E-13-1.91571E-13
 -1      3744 2.30895E+01-1.89070E+00-9.24520E-03-2.23106E-01-5.07858E-14-1.83126E-13
 -1      3745 2.25841E+01-2.10245E+00-2.17240E-02 5.87516E-01-1.28638E-13-1.27546E-13
 -1      3746 2.06855E+01-7.54567E-01 9.80701E-03 8.61500E-01-1.70664E-13 1.55163E-14
 -1      3747 2.09039E+01-9.69093E-01 5.81316E-05 8.30454E-01-1.51821E-13-1.72414E-14
 -1      3748 2.03176E+01-3.96292E-01 5.85959E-03 8.15655E-01-1.07063E-13-3.29763E-14
 -1      3749 2.04744E+01-5.66314E-01 2.18462E-03 8.27760E-01-1.59753E-13 8.50855E-15
 -1      3750 2.04074E+01-6.75187E-01-1.20410E-02 1.01805E+00-1.36119E-13-6.96063E-14
 -1      3751 2.00879E+01-1.32132E-01 3.16936E-03 7.21717E-01-7.87711E-15-1.47815E-13
 -1      3752 2.01918E+01-2.53354E-01 2.89867E-03 7.56215E-01-4.25427E-14-1.44253E-13
 -1      3753 2.00953E+01-3.07696E-01-8.19731E-03 8.96616E-01 1.19160E-14-1.85194E-13
 -1      3754 1.99580E+01 4.43674E-02 1.36377E-03 6.11899E-01-3.15821E-14-1.02371E-13
 -1      3755 2.00216E+01-3.38480E-02 2.81775E-03 6.55582E-01 3.47815E-14-1.17078E-13
 -1      3756 1.99181E+01-5.06076E-02-5.25109E-03 7.53046E-01 9.11841E-14-9.42439E-14
 -1      3757 1.98954E+01 1.49531E-01 2.65992E-04 5.03680E-01-7.45855E-14-3.62747E-14
 -1      3758 1.99307E+01 1.05085E-01 2.40520E-03 5.48763E-01-5.90687E-14-6.69110E-14
 -1      3759 1.98325E+01 1.12837E-01-3.06026E-03 6.12941E-01-5.70960E-14 5.18982E-14
 -1      3760 1.98749E+01 2.01766E-01-3.60695E-04 4.05423E-01 1.31276E-14 1.27740E-13
 -1      3761 1.98916E+01 1.81756E-01 1.90727E-03 4.47815E-01-2.58132E-16 4.90701E-14
 -1      3762 1.98046E+01 2.03667E-01-1.63646E-03 4.88117E-01-7.41101E-14 1.24452E-13
 -1      3763 1.98786E+01 2.17556E-01-6.67194E-04 3.20472E-01-1.57941E-13 2.40747E-13
 -1      3764 1.98840E+01 2.13887E-01 1.45682E-03 3.58168E-01-1.99688E-14 1.76888E-13
 -1      3765 1.98104E+01 2.42936E-01-7.07700E-04 3.82220E-01-1.04366E-13 2.49209E-13
 -1      3766 1.98943E+01 2.10374E-01-7.79287E-04 2.49247E-01 1.10329E-13 2.19887E-13
 -1      3767 1.98936E+01 2.16724E-01 1.08594E-03 2.81620E-01-6.25488E-14 2.59209E-13
 -1      3768 1.98334E+01 2.47935E-01-1.86960E-04 2.95259E-01-8.24810E-14 1.51776E-13
 -1      3769 1.99147E+01 1.90072E-01-7.70349E-04 1.90864E-01 4.89592E-14 1.30065E-13
 -1      3770 1.99110E+01 2.01871E-01 8.10262E-04 2.17916E-01 1.07505E-13 1.50861E-13
 -1      3771 1.98631E+01 2.32343E-01 1.28255E-04 2.25185E-01 1.30506E-13 1.76391E-13
 -1      3772 1.99352E+01 1.63672E-01-6.99913E-04 1.43902E-01-3.34771E-14 1.97188E-13
 -1      3773 1.99306E+01 1.77732E-01 6.02745E-04 1.66024E-01-3.13874E-15 1.94433E-13
 -1      3774 1.98935E+01 2.05633E-01 2.74938E-04 1.69628E-01 1.13929E-14 1.56447E-13
 -1      3775 1.99536E+01 1.35783E-01-6.02751E-04 1.06714E-01-2.95423E-14 2.56268E-13
 -1      3776 1.99491E+01 1.50064E-01 4.50579E-04 1.24470E-01 2.05198E-14 2.17862E-13
 -1      3777 1.99211E+01 1.74505E-01 3.20575E-04 1.26127E-01-3.00331E-14 1.08284E-13
 -1      3778 1.99688E+01 1.09202E-01-4.99218E-04 7.76934E-02 2.44172E-14 2.12972E-13
 -1      3779 1.99650E+01 1.22504E-01 3.39523E-04 9.16991E-02 1.86909E-14 2.38200E-13
 -1      3780 1.99443E+01 1.43196E-01 3.09572E-04 9.24326E-02 9.29670E-15 1.25722E-13
 -1      3781 1.99807E+01 8.54432E-02-4.00458E-04 5.53728E-02 1.42962E-13 2.63245E-13
 -1      3782 1.99777E+01 9.71482E-02 2.57895E-04 6.62361E-02 4.34988E-14 2.91477E-13
 -1      3783 1.99630E+01 1.14178E-01 2.70532E-04 6.66105E-02 5.53483E-14 3.70692E-13
 -1      3784 1.99895E+01 6.51546E-02-3.12590E-04 3.84590E-02-2.84390E-14 2.58731E-13
 -1      3785 1.99874E+01 7.50346E-02 1.97108E-04 4.67441E-02 1.34481E-13 2.64147E-13
 -1      3786 1.99772E+01 8.87070E-02 2.21093E-04 4.70447E-02 8.82328E-14 5.98471E-13
 -1      3787 1.99958E+01 4.84304E-02-2.37907E-04 2.58463E-02-2.19706E-14 2.41938E-13
 -1      3788 1.99944E+01 5.64988E-02 1.51353E-04 3.20530E-02-1.07844E-13 1.96324E-13
 -1      3789 1.99876E+01 6.72315E-02 1.71479E-04 3.23974E-02-4.26680E-14 4.08326E-13
 -1      3790 2.00000E+01 3.50484E-02-1.76498E-04 1.66077E-02 2.97603E-14 2.05878E-13
 -1      3791 1.99991E+01 4.14529E-02 1.16214E-04 2.11682E-02 5.35398E-14 2.33524E-13
 -1      3792 1.99948E+01 4.96958E-02 1.26852E-04 2.15858E-02 4.13948E-14 3.66938E-13
 -1      3793 2.00025E+01 2.46202E-02-1.27481E-04 9.97651E-03 6.72341E-15 1.31702E-13
 -1      3794 2.00021E+01 2.95749E-02 8.89794E-05 1.32555E-02 7.78042E-14 1.06904E-13
 -1      3795 1.99997E+01 3.57688E-02 8.94985E-05 1.37338E-02 8.09128E-14 4.05229E-13
 -1      3796 2.00039E+01 1.66940E-02-8.93618E-05 5.33000E-03-1.39109E-13 2.11359E-13
 -1      3797 2.00038E+01 2.04338E-02 6.76979E-05 7.62832E-03-9.44245E-14 1.71438E-13
 -1      3798 2.00026E+01 2.49828E-02 5.98750E-05 8.13948E-03-1.06603E-13 5.87558E-15
 -1      3799 2.00045E+01 1.08168E-02-6.04388E-05 2.16973E-03-3.18818E-14 2.08343E-13
 -1      3800 2.00046E+01 1.35703E-02 5.09961E-05 3.73107E-03-7.23675E-14 2.06499E-13
 -1      3801 2.00043E+01 1.68282E-02 3.73952E-05 4.24586E-03-1.68974E-13 7.93105E-14
 -1      3802 2.00045E+01 6.57031E-03-3.90225E-05 1.02731E-04-1.44094E-14 2.47280E-13
 -1      3803 2.00048E+01 8.54483E-03 3.78891E-05 1.12080E-03-7.42231E-14 2.28899E-13
 -1      3804 2.00049E+01 1.08112E-02 2.10374E-05 1.61531E-03 1.91086E-14 1.25833E-13
 -1      3805 2.00042E+01 3.58736E-03-2.35972E-05-1.17620E-03-2.53174E-14 2.46220E-13
 -1      3806 2.00045E+01 4.96282E-03 2.76571E-05-5.50152E-04 6.66532E-14 1.82767E-13
 -1      3807 2.00050E+01 6.48435E-03 9.63372E-06-9.23952E-05 8.76888E-15 8.62898E-14
 -1      3808 2.00037E+01 1.55666E-03-1.28346E-05-1.89981E-03-1.53383E-13-7.66191E-15
 -1      3809 2.00040E+01 2.48419E-03 1.97561E-05-1.55014E-03-5.51763E-14 1.22962E-13
 -1      3810 2.00046E+01 3.45921E-03 2.08590E-06-1.13880E-03 7.87535E-14 1.69461E-14
 -1      3811 2.00031E+01 2.21700E-04-5.31977E-06-2.24217E-03-2.20424E-13-2.00845E-14
 -1      3812 2.00034E+01 8.25033E-04 1.37400E-05-2.08229E-03-2.58979E-13-1.84924E-14
 -1      3813 2.00041E+01 1.40944E-03-2.57012E-06-1.72140E-03-1.61871E-13 1.35929E-13
 -1      3814 2.00025E+01-6.27765E-04-9.86589E-07-2.33212E-03-6.49315E-14 8.23988E-14
 -1      3815 2.00028E+01-2.47450E-04 9.07721E-06-2.29897E-03-1.94725E-13-5.17483E-14
 -1      3816 2.00034E+01 6.81590E-05-5.64562E-06-1.98709E-03-2.34663E-13 1.56449E-13
 -1      3817 2.00019E+01-1.13911E-03 1.77017E-06-2.26547E-03 2.18213E-13 1.50031E-13
 -1      3818 2.00021E+01-8.96445E-04 7.72497E-06-2.31084E-03 1.28324E-13 2.13120E-13
 -1      3819 2.00027E+01-7.68470E-04-8.71168E-06-2.05791E-03-1.57219E-14 3.03009E-13
 -1      3820 2.00021E+01-1.26826E-03-7.88307E-06-1.99317E-03 1.07136E-13 2.56610E-13
 -1      3821 2.00024E+01-1.44900E-03 1.83269E-06 1.51922E-03-1.29407E-14 4.12350E-13
 -1      3822 2.00026E+01-1.49965E-03-2.62867E-06 1.15803E-03-2.16257E-13 7.14750E-13
 -1      3823 2.00026E+01-1.29894E-03 4.24991E-07 1.62884E-03-2.14503E-13 5.06964E-13
 -1      3824 1.41290E+01 9.54028E-01-8.45372E-03 2.30489E+00-2.12619E-13 8.91301E-15
 -1      3825 1.37463E+01 1.46732E+00 2.11908E-02 1.09621E+00-1.28920E-13 4.10314E-14
 -1      3826 2.10425E+01 3.70694E-01-1.02744E-05-4.74249E-01 8.82110E-14-2.77369E-13
 -1      3827 2.07724E+01 5.03885E-01 6.43089E-03-7.84561E-01 4.24908E-14-2.88806E-13
 -1      3828 2.09138E+01 8.37914E-02 5.08791E-03-1.11181E+00 2.34567E-15-2.65065E-13
 -1      3829 2.12666E+01 5.99694E-02-4.57472E-03-4.59534E-01 7.46025E-14-2.59334E-13
 -1      3830 2.00024E+01-1.32311E-03 3.38951E-06-1.64586E-03 1.42394E-13 1.69411E-13
 -1      3831 1.82153E+01 1.66768E+00 2.67091E-02-2.18174E+00-1.10297E-13-4.70061E-13
 -1      3832 1.75077E+01 1.95012E+00-2.31667E-02-2.17627E+00-1.40908E-13-4.99557E-13
 -1      3833 1.70283E+01 1.77727E+00-6.51001E-03-2.40895E+00-1.60569E-13-4.96097E-13
 -1      3834 1.87010E+01 9.57461E-01 7.13342E-03-2.39599E+00-1.26971E-13-4.28143E-13
 -1      3835 2.12248E+01-1.18633E+00 1.45580E-02 8.05291E-01-1.95834E-13-6.29452E-14
 -1      3836 2.15048E+01-1.41794E+00-3.51860E-03 7.03386E-01-1.74331E-13-1.07238E-13
 -1      3837 2.16108E+01-1.67034E+00-2.28337E-02 9.55694E-01-2.08109E-13-1.74013E-13
 -1      3838 1.55580E+01 1.70044E+00-1.18571E-02-3.09242E-01-1.21925E-14 2.93775E-14
 -1      3839 1.62613E+01 1.68537E+00-1.16394E-02-3.20498E-01-4.90658E-14 5.89676E-15
 -1      3840 1.40168E+01 1.64809E+00-3.22245E-03-1.95529E-01 1.66226E-14 2.19479E-13
 -1      3841 1.49075E+01 1.71114E+00-1.38441E-02-2.87221E-01 1.03147E-14 1.21708E-13
 -1      3842 1.52654E+01 1.68853E+00 4.04308E-02 3.85068E-01-1.13984E-13 4.35697E-15
 -1      3843 1.37697E+01 1.63366E+00 4.67929E-02 5.65577E-01-5.98553E-14 1.36929E-13
 -1      3844 1.44426E+01 2.54990E+00-1.45994E-02-4.36392E-01-1.23374E-13-5.57289E-13
 -1      3845 1.33340E+01 2.30600E+00 1.22474E-02-4.32663E-01-9.38832E-14-6.27214E-13
 -1      3846 1.31913E+01 2.26230E+00 8.68396E-02-1.35963E+00-1.58200E-13-6.34603E-13
 -1      3847 1.48725E+01 2.65653E+00 4.02847E-02-1.19629E+00-1.62494E-13-5.21133E-13
 -1      3848 1.68702E+01 1.59162E+00-2.16928E-02-3.99134E-01-1.19328E-13-5.79989E-14
 -1      3849 1.73864E+01 1.50474E+00-1.36925E-02-4.17815E-01-1.76738E-13-9.16602E-14
 -1      3850 1.75169E+01 1.47297E+00 2.49283E-02-7.83024E-02-2.01241E-13-1.95241E-13
 -1      3851 1.64819E+01 1.66535E+00 4.17755E-02 1.56334E-01-1.65349E-13 2.44275E-14
 -1      3852 2.30381E+01-4.99495E-01-3.55731E-03 1.30724E+00 7.02375E-14-1.36473E-14
 -1      3853 2.30319E+01-8.10131E-01 2.77279E-03 1.12684E+00 3.62478E-14-2.39836E-14
 -1      3854 2.33169E+01-1.07363E+00 1.98829E-03 8.61298E-01 2.19243E-14-6.23633E-14
 -1      3855 2.36300E+01-3.41903E-01 1.03909E-02 1.46068E+00 5.89242E-14 8.45634E-15
 -1      3856 2.54494E+01-2.55660E+00-1.70311E-02-3.44041E-01-9.35493E-14 6.62899E-14
 -1      3857 2.61870E+01-1.81143E+00-5.95039E-02 6.74813E-01-1.68320E-14 1.32106E-13
 -1      3858 1.66404E+01-6.17078E-01-3.25828E-02 3.69372E+00-1.84914E-13-3.50553E-14
 -1      3859 1.51666E+01 3.79102E-01 4.80534E-02 3.11286E+00-2.09071E-13-3.92048E-15
 -1      3860 1.55538E+01 7.66868E-01 3.75572E-02 2.32820E+00-1.76565E-13-6.50521E-15
 -1      3861 2.09045E+01-1.14666E+00-1.54270E-02 1.06647E+00-1.94299E-13-1.20965E-13
 -1      3862 1.79295E+01-1.76702E-01 4.73406E-02-3.86519E+00-2.66801E-13-4.12309E-13
 -1      3863 1.89606E+01-6.59993E-01-2.69487E-02-3.56601E+00-2.46111E-13-3.69639E-13
 -1      3864 2.44639E+01 1.98089E+00-1.78834E-02 1.86394E+00 2.19770E-13 2.67165E-14
 -1      3865 2.49671E+01-2.82451E+00 1.69390E-03-8.74037E-01-1.37174E-13 2.49141E-14
 -1      3866 2.49360E+01-2.08475E+00 9.89400E-03 7.08360E-02-8.04062E-14 8.13811E-14
 -1      3867 2.40210E+01-2.72946E+00-1.46797E-02-1.40365E+00-1.43044E-13-5.37864E-14
 -1      3868 2.00029E+01-1.42140E-03 2.12753E-06-6.76184E-04 5.78456E-14-6.65221E-14
 -1      3869 2.00028E+01-1.39193E-03-5.53867E-06-1.07275E-03 1.88151E-13-2.04140E-13
 -1      3870 2.45508E+01 1.05026E+00-3.53431E-02 1.84611E+00 1.72626E-13 7.48806E-14
 -1      3871 1.46361E+01 1.49487E+00 1.19047E-02 9.89295E-01-6.32293E-14-5.56681E-14
 -1      3872 2.09218E+01-1.70347E+00 1.29930E-02-3.23718E+00-2.04829E-13-2.65806E-13
 -1      3873 2.17863E+01-2.41286E+00 3.98847E-02-3.34951E+00-2.26674E-13-1.88688E-13
 -1      3874 2.26092E+01-2.44709E+00-9.43186E-03-2.47711E+00-2.08411E-13-1.36748E-13
 -1      3875 1.31910E+01 1.86502E+00 5.02195E-03-2.05339E+00-1.96107E-13-6.18106E-13
 -1      3876 1.37213E+01 1.52386E+00 7.84125E-02-2.97473E+00-2.53925E-13-5.79717E-13
 -1      3877 1.42083E+01 2.13317E+00-1.61515E-03-1.91895E+00-2.02026E-13-5.67938E-13
 -1      3878 2.45966E+01 1.32141E+00-3.78975E-02-1.93111E+00 2.36313E-13-3.70622E-13
 -1      3879 2.52431E+01 1.29207E+00-6.78046E-02-2.02253E+00 2.16570E-13-4.28765E-13
 -1      3880 2.55662E+01-1.10007E-01 2.44244E-02-1.78539E+00 2.55837E-14-3.90766E-13
 -1      3881 2.00030E+01-1.32787E-03 2.33348E-06 8.72024E-04-3.19116E-13 8.54539E-13
 -1      3882 2.00028E+01-1.49827E-03 2.10007E-06 7.72493E-04-1.94978E-13 7.61754E-13
 -1      3883 2.00029E+01-1.51554E-03-2.97697E-06 4.07652E-04-1.06802E-13 5.81965E-13
 -1      3884 2.22705E+01-3.08962E+00 3.66015E-02 2.89443E+00-1.88264E-13-3.18541E-13
 -1      3885 2.09958E+01-2.58324E+00-2.38654E-02 3.12668E+00-1.52942E-13-3.03379E-13
 -1      3886 2.28983E+01-2.97834E+00-8.38045E-03 1.96731E+00-1.28073E-13-2.05106E-13
 -1      3887 1.91813E+01-1.64083E+00-1.15846E-02 3.48174E+00-2.20936E-13-2.34431E-13
 -1      3888 1.79593E+01-1.04203E+00 5.78052E-02 3.73511E+00-2.25277E-13-1.50188E-13
 -1      3889 1.74450E+01-4.64520E-01 8.53808E-04 3.19124E+00-1.89388E-13-1.26743E-13
 -1      3890 1.51377E+01 1.15899E+00 2.97096E-02-3.26787E+00-2.70142E-13-5.17399E-13
 -1      3891 2.00029E+01-1.10261E-03 3.96205E-06-1.48543E-03 1.52776E-13 7.80114E-14
 -1      3892 2.57402E+01-7.56800E-01 6.47815E-03 1.31070E+00 4.02161E-14 1.12434E-13
 -1      3893 2.53125E+01-1.35378E+00-6.01524E-02-1.14082E+00-2.09377E-14-3.35652E-13
 -1      3894 2.50023E+01-2.19045E+00 2.59064E-02-3.70231E-01-2.96083E-14-2.96273E-13
 -1      3895 2.48685E+01-9.13104E-01-9.86680E-03-1.37350E+00 3.34672E-15-2.84606E-13
 -1      3896 2.41798E+01 4.80824E-01 1.10193E-02-1.90141E+00 1.21708E-13-3.83684E-13
 -1      3897 2.38386E+01-1.68410E+00-3.96106E-03-7.62213E-01-1.00241E-14-2.33296E-13
 -1      3898 2.40660E+01-1.22329E+00 3.62193E-03-1.14960E+00 1.65631E-14-2.75992E-13
 -1      3899 1.89388E+01 4.26390E-01 2.51492E-02-2.76019E+00-1.71184E-13-4.14036E-13
 -1      3900 1.79952E+01 8.18832E-01 6.62993E-03-2.94094E+00-1.92499E-13-4.44325E-13
 -1      3901 2.30250E+01-1.43624E+00-8.27076E-03 3.61795E-02-1.61121E-14-1.02425E-13
 -1      3902 2.27476E+01-1.21393E+00 3.92941E-02-1.80400E-01-3.41675E-15-1.16722E-13
 -1      3903 2.45153E+01-2.71193E+00-3.12798E-02 3.03441E-01-7.76375E-14-2.35363E-13
 -1      3904 2.39116E+01-2.85289E+00 1.11470E-02 8.92789E-01-1.71441E-13-1.20745E-13
 -1      3905 2.43294E+01-2.26944E+00-1.02363E-02-1.60283E-01-6.05020E-14-1.98478E-13
 -1      3906 1.51964E+01 2.30853E+00-4.55794E-03-1.83727E+00-1.78851E-13-5.32611E-13
 -1      3907 2.07638E+01-3.55562E-01-5.56727E-03-1.86782E+00-5.88691E-14-2.78667E-13
 -1      3908 2.01085E+01-1.22084E-01-1.71011E-02-2.24973E+00-1.07895E-13-3.20977E-13
 -1      3909 1.70450E+01 3.26718E-01 7.21285E-03-3.64573E+00-2.63845E-13-4.56871E-13
 -1      3910 2.40454E+01-1.62975E+00-1.59041E-02 4.37156E-01-3.71678E-14-1.45332E-14
 -1      3911 2.37534E+01-1.73182E+00 1.05129E-02 9.86634E-02-4.26516E-14-5.38933E-14
 -1      3912 2.41092E+01-4.04501E-01-3.57758E-02-1.64650E+00 3.71695E-14-2.97397E-13
 -1      3913 1.96463E+01-3.51611E-01 7.57184E-04-2.84927E+00-1.58939E-13-3.53839E-13
 -1      3914 2.35947E+01-1.99773E+00-1.23304E-02-5.27654E-01-5.95596E-14-6.21456E-14
 -1      3915 1.52093E+01 1.47875E+00-1.45359E-02 9.12716E-01-1.42902E-13-4.62816E-14
 -1      3916 2.31376E+01-2.38712E+00 1.52891E-02-1.84232E+00-1.70786E-13-1.25274E-13
 -1      3917 2.35749E+01-2.14815E+00 1.94616E-02-9.87432E-01-1.13422E-13-7.71746E-14
 -1      3918 2.28975E+01-1.68007E+00 3.75095E-02-9.65569E-01-6.66134E-14-1.36001E-13
 -1      3919 2.21890E+01-1.87411E+00-1.19084E-02-2.06281E+00-1.36096E-13-1.63633E-13
 -1      3920 2.20732E+01-8.79431E-01-1.76750E-02-3.89581E-01 1.99892E-14-1.80321E-13
 -1      3921 2.15926E+01-2.61785E-01 1.52435E-02-4.71617E-01 4.04292E-14-2.34852E-13
 -1      3922 2.45956E+01-7.86386E-01-1.26408E-02 1.24147E+00 2.17448E-14 4.58219E-14
 -1      3923 2.44986E+01-1.34552E+00-6.92172E-03 9.38876E-01-3.14974E-14 2.37210E-14
 -1      3924 1.80125E+01 1.20562E+00-1.32166E-02 7.41796E-02-2.71074E-13-4.61938E-14
 -1      3925 1.83347E+01 1.13107E+00-2.12982E-03 4.89888E-03-1.44361E-13-9.34482E-14
 -1      3926 2.12580E+01-1.52368E+00 2.00630E-02 1.40064E+00-2.10323E-13-1.60801E-13
 -1      3927 2.17028E+01-1.82564E+00 1.09653E-02 1.29706E+00-1.77814E-13-1.49913E-13
 -1      3928 1.85667E+01 1.04497E+00-9.06667E-03-7.89926E-02-6.01672E-14-7.43247E-14
 -1      3929 1.87981E+01 9.63763E-01-1.97921E-03-1.12764E-01-7.00431E-14-3.09302E-14
 -1      3930 1.84679E+01 1.04537E+00 1.03239E-02 1.82645E-01-8.78561E-14-7.67466E-14
 -1      3931 1.89731E+01 8.79830E-01-6.17283E-03-1.58849E-01-1.21694E-13-2.94147E-14
 -1      3932 1.91385E+01 8.01677E-01-1.83644E-03-1.68266E-01-1.01449E-13 1.79241E-14
 -1      3933 1.88743E+01 9.04912E-01 7.47189E-03 2.53175E-02-5.45333E-14-1.52285E-13
 -1      3934 1.92705E+01 7.24564E-01-4.13556E-03-1.89488E-01-1.06518E-13 1.80991E-14
 -1      3935 1.93881E+01 6.54217E-01-1.59144E-03-1.84370E-01-1.60983E-13-7.73104E-15
 -1      3936 1.91804E+01 7.63203E-01 5.67853E-03-6.09463E-02-1.10800E-13-1.82622E-13
 -1      3937 1.94911E+01 5.83854E-01-2.65844E-03-1.89970E-01-9.15508E-14-7.41215E-14
 -1      3938 1.95772E+01 5.19901E-01-1.42102E-03-1.76307E-01-1.13830E-14-1.15777E-13
 -1      3939 1.94136E+01 6.26552E-01 4.08239E-03-1.01562E-01-1.42566E-13-1.77918E-13
 -1      3940 1.96492E+01 4.63247E-01-1.71931E-03-1.72657E-01-6.57805E-14-9.55971E-14
 -1      3941 1.97061E+01 4.12262E-01-1.28706E-03-1.56314E-01-8.22780E-14-1.16189E-13
 -1      3942 1.95856E+01 5.05651E-01 2.99299E-03-1.13663E-01-2.53511E-14-1.09002E-13
 -1      3943 1.97596E+01 3.65454E-01-1.00173E-03-1.48304E-01-9.91478E-14-1.81334E-13
 -1      3944 1.97990E+01 3.23076E-01-1.10438E-03-1.31610E-01-1.97011E-13-1.62350E-13
 -1      3945 1.97088E+01 4.04118E-01 2.18385E-03-1.08564E-01-1.29429E-13-1.60103E-13
 -1      3946 1.98381E+01 2.84896E-01-5.78814E-04-1.22030E-01-1.61720E-13-1.03901E-13
 -1      3947 1.98653E+01 2.50365E-01-9.10451E-04-1.06551E-01-1.24617E-13-3.50779E-14
 -1      3948 1.97988E+01 3.18647E-01 1.58237E-03-9.56605E-02-9.53952E-14-1.81626E-13
 -1      3949 1.98936E+01 2.19603E-01-3.07595E-04-9.69719E-02-1.48031E-13 1.58026E-13
 -1      3950 1.99121E+01 1.91821E-01-7.33595E-04-8.34508E-02-1.23031E-13 7.47147E-14
 -1      3951 1.98639E+01 2.48094E-01 1.13939E-03-7.97612E-02-5.97990E-14 5.14070E-14
 -1      3952 1.99324E+01 1.67305E-01-1.41005E-04-7.47388E-02-1.86215E-14 1.20472E-13
 -1      3953 1.99448E+01 1.45210E-01-5.77088E-04-6.34235E-02 6.28586E-14 2.22107E-13
 -1      3954 1.99105E+01 1.90730E-01 8.15148E-04-6.37270E-02-4.41835E-14 2.57850E-13
 -1      3955 1.99592E+01 1.25848E-01-5.10170E-05-5.59591E-02-5.63764E-14 3.19555E-13
 -1      3956 1.99673E+01 1.08453E-01-4.53434E-04-4.67895E-02-4.70925E-14 2.27417E-13
 -1      3957 1.99434E+01 1.44722E-01 5.83000E-04-4.91006E-02 5.87718E-14 2.25854E-13
 -1      3958 1.99777E+01 9.26436E-02 5.04297E-06-4.03715E-02-2.73693E-14 1.64366E-13
 -1      3959 1.99832E+01 7.85764E-02-3.43432E-04-3.28873E-02-1.68038E-14 1.89011E-13
 -1      3960 1.99667E+01 1.07477E-01 4.11182E-04-3.62981E-02-7.41551E-14 3.20402E-13
 -1      3961 1.99898E+01 6.70744E-02 3.18669E-05-2.81346E-02-9.08187E-16 1.63043E-13
 -1      3962 1.99930E+01 5.68197E-02-2.50653E-04-2.26797E-02-4.06502E-14 2.24602E-13
 -1      3963 1.99825E+01 7.84457E-02 2.78496E-04-2.58891E-02-2.26901E-14 3.29787E-13
 -1      3964 1.99974E+01 4.80407E-02 4.56350E-05-1.90329E-02-1.10115E-13 3.25076E-13
 -1      3965 1.99992E+01 4.02473E-02-1.83591E-04-1.49545E-02 9.86698E-14 3.36368E-13
 -1      3966 1.99926E+01 5.66582E-02 1.85450E-04-1.79213E-02-6.31237E-15 1.46679E-13
 -1      3967 2.00019E+01 3.36387E-02 4.59831E-05-1.22459E-02 2.01024E-13 3.07331E-13
 -1      3968 2.00028E+01 2.78076E-02-1.31010E-04-9.27088E-03 1.64814E-13 2.09492E-13
 -1      3969 1.99991E+01 4.00624E-02 1.21683E-04-1.18413E-02 9.20152E-14 1.99326E-13
 -1      3970 2.00045E+01 2.29050E-02 4.17885E-05-7.31794E-03 1.24206E-13 2.52827E-13
 -1      3971 2.00048E+01 1.86116E-02-9.09583E-05-5.20552E-03 1.45700E-13 8.43475E-14
 -1      3972 2.00029E+01 2.75988E-02 7.69046E-05-7.33993E-03 1.09651E-13 1.54813E-13
 -1      3973 2.00056E+01 1.50356E-02 3.56961E-05-3.84265E-03 1.64569E-13 4.58190E-14
 -1      3974 2.00056E+01 1.19324E-02-6.09051E-05-2.38879E-03 1.48853E-13 6.45448E-14
 -1      3975 2.00050E+01 1.83897E-02 4.58444E-05-4.10736E-03 1.16445E-13 1.28809E-13
 -1      3976 2.00059E+01 9.37291E-03 2.86128E-05-1.47321E-03-5.21714E-14 5.89465E-14
 -1      3977 2.00057E+01 7.17382E-03-4.01073E-05-5.08810E-04-2.69464E-13-1.51452E-14
 -1      3978 2.00059E+01 1.17107E-02 2.51347E-05-1.86150E-03 1.31350E-14-1.64500E-13
 -1      3979 2.00057E+01 5.30565E-03 2.23133E-05 1.02547E-04-2.46432E-13-5.58454E-14
 -1      3980 2.00053E+01 3.73839E-03-2.40653E-05 7.25175E-04-2.52632E-13 4.26248E-14
 -1      3981 2.00059E+01 6.87922E-03 1.26025E-05-3.38382E-04-1.71085E-13-1.70893E-13
 -1      3982 2.00051E+01 2.55140E-03 1.74518E-05 1.05872E-03-3.60992E-13 1.23354E-13
 -1      3983 2.00047E+01 1.55889E-03-1.22296E-05 1.39805E-03-2.95278E-13 5.51885E-15
 -1      3984 2.00055E+01 3.54686E-03 1.83061E-06 6.19666E-04-2.13239E-13-1.07398E-13
 -1      3985 2.00043E+01 7.76134E-04 1.31731E-05 1.57165E-03-8.73585E-14 4.82193E-14
 -1      3986 2.00039E+01 1.35235E-04-4.80315E-06 1.73732E-03-1.75250E-13 1.42310E-13
 -1      3987 2.00049E+01 1.38089E-03-3.48267E-06 1.15599E-03-1.28631E-13 1.54194E-14
 -1      3988 2.00035E+01-3.64282E-04 8.56942E-06 1.80150E-03-2.50617E-13 3.76057E-13
 -1      3989 2.00031E+01-7.55339E-04 9.63807E-07 1.84818E-03-2.67980E-13 4.67006E-13
 -1      3990 2.00041E+01-2.41186E-05-5.70086E-06 1.42381E-03-6.69457E-14 1.38399E-13
 -1      3991 2.00029E+01-9.45872E-04 3.03306E-06 1.78831E-03-3.72094E-13 5.53545E-13
 -1      3992 2.00028E+01-1.13585E-03 2.20686E-06 1.69761E-03-2.33377E-13 5.71217E-13
 -1      3993 2.00031E+01-1.17125E-03-5.57360E-06 1.32945E-03-3.55116E-13 1.02982E-12
 -1      3994 2.00035E+01-7.81994E-04-7.47319E-06 1.44887E-03-1.44842E-13 6.53833E-13
 -1      3995 1.97423E+01 8.99276E-02 3.38024E-04 7.54760E-01-6.29334E-14 5.49809E-14
 -1      3996 1.98113E+01-4.66214E-03 5.02933E-03 8.33325E-01 5.20190E-14-4.93486E-14
 -1      3997 2.21666E+01-2.27905E+00 1.79705E-02 1.56923E+00-1.11282E-13-2.05936E-13
 -1      3998 2.27160E+01-2.55403E+00-6.34483E-03 1.34832E+00-4.38202E-14-1.24018E-13
 -1      3999 2.38745E+01-2.10960E+00-6.53564E-03-1.91168E-01-3.82150E-14-1.93900E-13
 -1      4000 1.98618E+01-1.27511E-01 2.34563E-03 9.46723E-01 3.90002E-14-2.20666E-13
 -1      4001 1.99867E+01-2.77944E-01 5.93269E-03 1.02646E+00-6.16861E-14-1.84791E-13
 -1      4002 1.96457E+01 2.71333E-03-5.56009E-03 9.52886E-01-5.92595E-14 1.22451E-14
 -1      4003 2.01084E+01-4.60800E-01 5.53158E-03 1.14913E+00-6.31381E-14-2.13807E-13
 -1      4004 2.03118E+01-6.78718E-01 6.04660E-03 1.21475E+00-1.27665E-13-1.86165E-13
 -1      4005 1.98034E+01-3.07319E-01-9.87672E-03 1.21011E+00-8.10647E-14-2.60117E-13
 -1      4006 1.97044E+01 2.15348E-01-6.98674E-04 5.88552E-01-9.80778E-14 1.95067E-13
 -1      4007 1.97361E+01 1.63513E-01 3.95773E-03 6.58198E-01-6.93460E-14 1.54140E-13
 -1      4008 1.95947E+01 1.92308E-01-2.68146E-03 7.30011E-01-1.37360E-13 1.94107E-13
 -1      4009 1.97129E+01 2.75646E-01-1.14814E-03 4.51911E-01-1.17829E-13 2.45274E-13
 -1      4010 1.97214E+01 2.53477E-01 2.87348E-03 5.10848E-01-7.85546E-14 1.68945E-13
 -1      4011 1.96057E+01 2.91379E-01-1.12200E-03 5.50313E-01-6.04664E-14 2.29200E-13
 -1      4012 1.97459E+01 2.90943E-01-1.31130E-03 3.42749E-01-1.29958E-13 2.12265E-13
 -1      4013 1.97411E+01 2.88722E-01 2.01726E-03 3.90809E-01-1.40946E-13 1.88411E-13
 -1      4014 1.96484E+01 3.29697E-01-2.25186E-04 4.09430E-01-8.77271E-14 1.71880E-13
 -1      4015 1.97884E+01 2.78969E-01-1.30130E-03 2.57462E-01-1.96513E-14 3.03313E-14
 -1      4016 1.97772E+01 2.88459E-01 1.34034E-03 2.96084E-01-5.78570E-14 9.30924E-14
 -1      4017 1.97044E+01 3.27869E-01 1.05341E-04 3.02002E-01-1.88223E-14 6.43373E-14
 -1      4018 1.98322E+01 2.51245E-01-1.15561E-03 1.91500E-01 9.69038E-14 1.32970E-13
 -1      4019 1.98188E+01 2.67180E-01 9.19165E-04 2.21982E-01 3.58282E-14 2.64587E-14
 -1      4020 1.97627E+01 3.03944E-01 5.15407E-04 2.20888E-01 2.89267E-14-9.14440E-14
 -1      4021 1.98725E+01 2.16439E-01-9.76126E-04 1.41119E-01-1.50189E-14 1.10543E-13
 -1      4022 1.98593E+01 2.34895E-01 6.01067E-04 1.64931E-01 1.11344E-13 1.46170E-13
 -1      4023 1.98167E+01 2.67348E-01 6.13839E-04 1.60541E-01 6.25734E-14 5.09386E-14
 -1      4024 1.99069E+01 1.80086E-01-7.99565E-04 1.02892E-01-2.77813E-14 6.59532E-14
 -1      4025 1.98952E+01 1.98643E-01 3.92322E-04 1.21326E-01-5.21390E-14 4.52625E-14
 -1      4026 1.98634E+01 2.26440E-01 6.02387E-04 1.15863E-01 6.36265E-14 1.37650E-13
 -1      4027 1.99350E+01 1.45545E-01-6.39112E-04 7.40805E-02-9.78289E-14 1.63192E-13
 -1      4028 1.99253E+01 1.62780E-01 2.56348E-04 8.82273E-02-1.01213E-13 9.75686E-14
 -1      4029 1.99019E+01 1.86008E-01 5.38283E-04 8.29203E-02-1.00464E-13 1.38539E-13
 -1      4030 1.99569E+01 1.14634E-01-5.00350E-04 5.25174E-02 2.96761E-15 4.31089E-13
 -1      4031 1.99493E+01 1.29821E-01 1.69549E-04 6.32742E-02-6.40298E-14 3.41414E-13
 -1      4032 1.99325E+01 1.48819E-01 4.52775E-04 5.87190E-02-1.98565E-13 1.96837E-13
 -1      4033 1.99733E+01 8.81491E-02-3.83487E-04 3.65158E-02 6.15127E-14 3.57568E-13
 -1      4034 1.99676E+01 1.01009E-01 1.14489E-04 4.46121E-02 1.81966E-13 3.86763E-13
 -1      4035 1.99558E+01 1.16248E-01 3.65708E-04 4.10183E-02 7.43072E-14 2.55519E-13
 -1      4036 1.99853E+01 6.61989E-02-2.88644E-04 2.47465E-02-4.36165E-15 2.60220E-13
 -1      4037 1.99812E+01 7.67601E-02 8.03510E-05 3.07689E-02-3.27315E-14 3.71658E-13
 -1      4038 1.99731E+01 8.87543E-02 2.81640E-04 2.81357E-02 9.89406E-14 2.79749E-13
 -1      4039 1.99936E+01 4.85145E-02-2.12882E-04 1.61979E-02 2.55859E-14 2.57541E-13
 -1      4040 1.99908E+01 5.69557E-02 5.83005E-05 2.06161E-02 6.66182E-14 2.86645E-13
 -1      4041 1.99855E+01 6.62263E-02 2.09848E-04 1.88208E-02 1.11164E-14 1.98179E-13
 -1      4042 1.99991E+01 3.46207E-02-1.53607E-04 1.00778E-02 1.00632E-13 2.80893E-13
 -1      4043 1.99973E+01 4.12059E-02 4.39600E-05 1.32667E-02 5.08536E-14 3.34541E-13
 -1      4044 1.99940E+01 4.82395E-02 1.50912E-04 1.21541E-02 4.93532E-14 2.56310E-13
 -1      4045 2.00024E+01 2.39582E-02-1.08094E-04 5.77572E-03-1.43453E-13 2.81330E-13
 -1      4046 2.00015E+01 2.89783E-02 3.41827E-05 8.03230E-03-5.47737E-14 2.92976E-13
 -1      4047 1.99995E+01 3.42118E-02 1.04409E-04 7.44079E-03-7.97158E-15 3.95550E-13
 -1      4048 2.00043E+01 1.59625E-02-7.37951E-05 2.82177E-03-3.30263E-14 1.37808E-13
 -1      4049 2.00039E+01 1.97021E-02 2.70827E-05 4.37977E-03-1.15221E-13 2.47219E-13
 -1      4050 2.00029E+01 2.35141E-02 6.89150E-05 4.16447E-03-9.19181E-14 3.85685E-13
 -1      4051 2.00051E+01 1.01078E-02-4.84510E-05 8.55283E-04-2.20686E-14 1.54543E-13
 -1      4052 2.00050E+01 1.28271E-02 2.16353E-05 1.89718E-03 5.02209E-15 1.96748E-13
 -1      4053 2.00048E+01 1.55375E-02 4.26965E-05 1.93788E-03-3.32088E-14 2.10278E-13
 -1      4054 2.00053E+01 5.92998E-03-3.01184E-05-3.98228E-04 1.06826E-13 2.12190E-13
 -1      4055 2.00054E+01 7.85561E-03 1.72128E-05 2.68638E-04-2.30824E-15 2.13781E-13
 -1      4056 2.00055E+01 9.72861E-03 2.41238E-05 4.71507E-04-4.08797E-14 2.91082E-13
 -1      4057 2.00049E+01 3.03219E-03-1.72505E-05-1.14694E-03 1.09925E-13 2.66648E-13
 -1      4058 2.00052E+01 4.35660E-03 1.36172E-05-7.47429E-04 1.98463E-13 3.36994E-13
 -1      4059 2.00056E+01 5.60501E-03 1.10359E-05-4.52203E-04 8.06793E-14 4.84958E-13
 -1      4060 2.00043E+01 1.08563E-03-8.33327E-06-1.54498E-03-2.12582E-13 1.58079E-13
 -1      4061 2.00047E+01 1.96666E-03 1.06614E-05-1.33211E-03-3.90425E-14 2.03626E-13
 -1      4062 2.00052E+01 2.76080E-03 2.65801E-06-9.94761E-04 2.34703E-14 4.20597E-13
 -1      4063 2.00036E+01-1.70428E-04-4.88193E-07-1.70093E-03-1.72866E-13 7.54409E-14
 -1      4064 2.00040E+01 3.87184E-04 8.27358E-06-1.62001E-03-2.06311E-13 7.55642E-14
 -1      4065 2.00045E+01 8.60736E-04-2.16191E-06-1.27458E-03-1.56362E-13-1.97677E-14
 -1      4066 2.00031E+01-8.57595E-04-2.07298E-07-1.61032E-03 5.85204E-15 1.68228E-13
 -1      4067 2.00034E+01-5.05480E-04 6.89729E-06-1.59744E-03-1.00223E-13 1.85637E-13
 -1      4068 2.00039E+01-2.53855E-04-5.34147E-06-1.26816E-03-1.72569E-13-3.70081E-14
 -1      4069 2.00035E+01-9.01629E-04-2.90174E-06-1.04170E-03-6.29818E-15-2.51653E-13
 -1      4070 1.71495E+01 1.25709E+00 6.57559E-03-2.80677E+00-1.98454E-13-4.76215E-13
 -1      4071 2.14081E+01-2.94086E-01-9.31618E-03-7.68223E-01 7.99339E-15-2.28637E-13
 -1      4072 1.55375E+01 1.18143E+00 2.52297E-02 1.68308E+00-1.10762E-13-3.84762E-14
 -1      4073 1.59842E+01 1.31200E+00-2.19010E-03 1.08439E+00-1.53506E-13-1.05970E-14
 -1      4074 1.62726E+01 5.04192E-01-1.98797E-02 2.41757E+00-1.49013E-13-2.55308E-14
 -1      4075 2.23010E+01-1.19009E+00-2.79555E-02-6.86472E-01-1.64868E-14-1.75012E-13
 -1      4076 2.05484E+01-9.31828E-01 1.09404E-02 1.32597E+00-2.01318E-13-1.54207E-13
 -1      4077 2.08524E+01-1.21521E+00 5.16761E-03 1.34290E+00-2.27770E-13-2.07671E-13
 -1      4078 2.01308E+01-7.71696E-01-1.64425E-02 1.48367E+00-1.40852E-13-3.16513E-13
 -1      4079 2.12464E+01-2.61787E-01 1.37362E-02-1.11990E+00-1.73331E-14-2.55632E-13
 -1      4080 2.14477E+01-7.22806E-01 2.03668E-02-1.48278E+00-7.08023E-14-2.31860E-13
 -1      4081 1.60040E+01 1.42080E+00 1.18705E-02-3.03242E+00-2.28119E-13-4.99165E-13
 -1      4082 2.00030E+01-1.47541E-03 1.23299E-06 5.19589E-05-4.38436E-14 4.19074E-13
 -1      4083 2.00029E+01-1.46865E-03-2.62394E-06-3.21361E-04-5.00106E-14 3.23594E-13
 -1      4084 2.00033E+01-1.20735E-03 2.89810E-06-5.54789E-04 5.57020E-14-5.20646E-14
 -1      4085 2.00032E+01-1.29148E-03 2.44589E-06 1.42246E-04 1.84095E-14 3.65707E-13
 -1      4086 2.20547E+01-1.30750E+00 9.57062E-04-1.40719E+00-8.15719E-14-1.91564E-13
 -1      4087 2.05343E+01-1.04940E+00 4.63549E-02-2.95839E+00-1.77076E-13-2.75694E-13
 -1      4088 2.12895E+01-1.41055E+00-2.97077E-02-2.46711E+00-1.39243E-13-2.11347E-13
 -1      4089 1.77035E+01 1.28530E+00-1.84640E-03 2.15738E-01-2.31802E-13-8.40317E-14
 -1      4090 1.79270E+01 1.16128E+00 1.31357E-02 4.45050E-01-2.29999E-13-6.01331E-14
 -1      4091 1.72334E+01 1.35226E+00-2.08923E-02 3.25296E-01-2.00125E-13-8.14847E-14
 -1      4092 2.00035E+01-9.59275E-04 3.16785E-06 1.00163E-03-1.16741E-13 8.15876E-13
 -1      4093 2.00033E+01-1.14718E-03 2.50469E-06 9.37281E-04-1.92335E-13 7.81068E-13
 -1      4094 2.00034E+01-1.15608E-03-4.13890E-06 5.64250E-04-3.89225E-15 2.96334E-13
 -1      4095 2.15348E+01-2.21486E+00-9.14437E-03 2.11120E+00-1.18236E-13-2.25214E-13
 -1      4096 2.46632E+01 2.39034E-01-2.45225E-02 1.78857E+00 1.26742E-13 6.85112E-14
 -1      4097 1.55122E+01 2.05877E+00 3.64774E-02-2.37776E+00-1.98357E-13-5.13903E-13
 -1      4098 2.35498E+01-2.62315E+00 2.83558E-02 8.34908E-01-1.16721E-13-1.36348E-13
 -1      4099 2.00036E+01-9.52312E-04-2.45500E-06-6.84585E-04 1.01434E-13-2.41039E-13
 -1      4100 2.00038E+01-6.40823E-04 5.19664E-06-8.12871E-04-1.09936E-13-2.11173E-13
 -1      4101 2.00036E+01-9.94002E-04-1.36415E-06-3.47459E-04 3.16421E-14 1.32048E-13
 -1      4102 1.70730E+01 1.43438E-01 3.29361E-02 2.72898E+00-1.54141E-13-1.53702E-13
 -1      4103 1.70122E+01 5.15012E-01 1.92907E-02 2.16365E+00-1.78243E-13-1.33080E-13
 -1      4104 1.79656E+01-4.42830E-01-1.50195E-02 2.83348E+00-1.41708E-13-1.60981E-13
 -1      4105 2.07254E+01-1.38992E+00-1.69927E-02 1.71319E+00-2.13979E-13-2.07220E-13
 -1      4106 1.65792E+01 1.31228E+00 2.13136E-03 8.48952E-01-1.86131E-13-3.40201E-14
 -1      4107 2.10303E+01-2.12115E+00 7.24167E-03 2.56703E+00-1.45061E-13-2.91977E-13
 -1      4108 2.01666E+01-1.87913E+00 3.23610E-02 3.13604E+00-1.64781E-13-2.66147E-13
 -1      4109 1.92979E+01-1.30906E+00-2.12916E-02 2.96020E+00-2.20329E-13-2.08859E-13
 -1      4110 2.06332E+01-1.64889E+00-1.05967E-02 2.21014E+00-2.16606E-13-2.33641E-13
 -1      4111 2.34993E+01-2.38116E+00 2.53153E-03 3.75541E-01-9.13408E-14-1.21732E-13
 -1      4112 1.87925E+01 8.51536E-01-7.89313E-03 1.99574E-01-1.88725E-14-2.52333E-13
 -1      4113 1.89794E+01 8.01194E-01 6.52132E-04 1.31615E-01-4.99381E-14-2.08219E-13
 -1      4114 1.91020E+01 7.41857E-01-5.68477E-03 6.65700E-02-7.43554E-14-1.86469E-13
 -1      4115 1.92417E+01 6.86404E-01-1.82995E-04 2.88452E-02-1.05594E-13-1.85169E-13
 -1      4116 1.90809E+01 7.30165E-01 5.78238E-03 2.21646E-01-6.81673E-14-2.14248E-13
 -1      4117 1.93457E+01 6.26151E-01-3.56748E-03-1.20026E-02-1.70065E-13-2.09076E-13
 -1      4118 1.94524E+01 5.69330E-01-3.52388E-04-3.01849E-02-1.15605E-13-1.37566E-13
 -1      4119 1.93134E+01 6.33296E-01 4.60600E-03 1.04060E-01-1.54017E-13-1.21477E-13
 -1      4120 1.95269E+01 5.15582E-01-3.18580E-03-4.91434E-02 8.02947E-15-2.11464E-13
 -1      4121 1.96033E+01 4.67261E-01-5.01542E-04-5.39635E-02-5.53768E-14-1.51324E-13
 -1      4122 1.94907E+01 5.37990E-01 3.92329E-03 3.42884E-02-9.21386E-14-1.75150E-13
 -1      4123 1.96615E+01 4.19121E-01-2.22475E-03-6.30799E-02-1.73048E-13-2.15223E-13
 -1      4124 1.97173E+01 3.76272E-01-6.64834E-04-6.12391E-02-1.83651E-13-1.96750E-13
 -1      4125 1.96299E+01 4.45947E-01 3.78134E-03-3.84127E-03-1.71837E-13-3.00043E-13
 -1      4126 1.97619E+01 3.35318E-01-1.46494E-03-6.39375E-02-5.45747E-15-1.44134E-13
 -1      4127 1.98020E+01 2.98583E-01-6.73650E-04-5.87489E-02 8.09800E-14-6.70202E-14
 -1      4128 1.97345E+01 3.62516E-01 3.09263E-03-2.23119E-02-4.22086E-14-1.06604E-14
 -1      4129 1.98359E+01 2.64343E-01-9.45441E-04-5.78939E-02 4.21525E-14 2.87450E-15
 -1      4130 1.98644E+01 2.33571E-01-6.18167E-04-5.14082E-02 5.01409E-14 1.25446E-13
 -1      4131 1.98132E+01 2.89603E-01 2.43969E-03-2.88501E-02 1.37520E-13 5.65771E-14
 -1      4132 1.98897E+01 2.05429E-01-5.96496E-04-4.88635E-02-4.18348E-14 1.53157E-13
 -1      4133 1.99098E+01 1.80135E-01-5.33396E-04-4.23012E-02 3.88516E-14 2.33511E-13
 -1      4134 1.98718E+01 2.27627E-01 1.88153E-03-2.87984E-02 1.11397E-13 1.12581E-13
 -1      4135 1.99284E+01 1.57346E-01-3.69483E-04-3.91909E-02 3.74821E-14 1.90596E-13
 -1      4136 1.99424E+01 1.36903E-01-4.38064E-04-3.31817E-02 5.47695E-15 2.14900E-13
 -1      4137 1.99147E+01 1.76102E-01 1.42103E-03-2.54983E-02 6.10926E-15 2.08126E-13
 -1      4138 1.99563E+01 1.17863E-01-2.17547E-04-2.99467E-02-5.33637E-14 1.33979E-13
 -1      4139 1.99662E+01 1.00915E-01-3.52280E-04-2.46215E-02-1.62287E-13 1.98938E-13
 -1      4140 1.99463E+01 1.33168E-01 1.04484E-03-2.08386E-02-1.05795E-13 1.74056E-13
 -1      4141 1.99755E+01 8.67761E-02-1.21217E-04-2.19298E-02-5.50209E-14 2.71659E-13
 -1      4142 1.99817E+01 7.41785E-02-2.71325E-04-1.77938E-02 9.68927E-14 2.77370E-13
 -1      4143 1.99685E+01 9.89581E-02 7.69184E-04-1.60748E-02-8.39872E-14 7.09528E-14
 -1      4144 1.99881E+01 6.32164E-02-5.66606E-05-1.55693E-02 3.11520E-14 1.08781E-13
 -1      4145 1.99921E+01 5.34702E-02-2.03674E-04-1.23153E-02 1.88439E-14 2.07546E-13
 -1      4146 1.99833E+01 7.26835E-02 5.42616E-04-1.18685E-02-2.49535E-14 6.60779E-14
 -1      4147 1.99963E+01 4.50862E-02-2.27366E-05-1.05739E-02-1.53534E-14 1.38554E-13
 -1      4148 1.99987E+01 3.76759E-02-1.47700E-04-8.09420E-03 9.03619E-14 7.98341E-14
 -1      4149 1.99932E+01 5.23060E-02 3.73456E-04-8.34994E-03-3.24967E-14 2.15789E-13
 -1      4150 2.00014E+01 3.13600E-02-3.41203E-06-6.78692E-03 4.78778E-14-8.83784E-15
 -1      4151 2.00027E+01 2.58186E-02-1.03673E-04-4.95240E-03 3.43581E-14-2.89317E-14
 -1      4152 1.99995E+01 3.67504E-02 2.48466E-04-5.56261E-03-1.32745E-14-3.30072E-14
 -1      4153 2.00043E+01 2.11398E-02 6.84267E-06-4.00977E-03 3.19824E-14-1.81068E-14
 -1      4154 2.00049E+01 1.70708E-02-7.01192E-05-2.69303E-03 9.16843E-14-9.72520E-14
 -1      4155 2.00033E+01 2.50756E-02 1.57872E-04-3.44854E-03-2.76559E-15-1.66781E-13
 -1      4156 2.00057E+01 1.36698E-02 1.15113E-05-2.04260E-03 1.05408E-13-1.89754E-13
 -1      4157 2.00059E+01 1.07395E-02-4.56640E-05-1.12397E-03 5.06932E-14-9.93397E-14
 -1      4158 2.00053E+01 1.64731E-02 9.36707E-05-1.90800E-03-1.93689E-14-1.98340E-13
 -1      4159 2.00061E+01 8.20701E-03 1.24544E-05-6.74648E-04-4.02858E-14-6.47745E-14
 -1      4160 2.00060E+01 6.07858E-03-2.74256E-05-4.65647E-05-1.16081E-13-5.33347E-15
 -1      4161 2.00061E+01 1.01441E-02 4.93199E-05-8.08875E-04 3.77205E-14 4.35473E-14
 -1      4162 2.00059E+01 4.43442E-03 1.31731E-05 2.07473E-04-1.35693E-13-1.31997E-14
 -1      4163 2.00056E+01 3.05647E-03-1.43026E-05 5.83585E-04-2.51229E-13 9.21216E-14
 -1      4164 2.00061E+01 5.70740E-03 1.91336E-05-7.72665E-05-4.34821E-14 1.17857E-13
 -1      4165 2.00053E+01 1.94826E-03 1.20861E-05 7.25102E-04-1.57703E-13 2.17669E-13
 -1      4166 2.00049E+01 1.03699E-03-5.83240E-06 9.42160E-04 6.15459E-15 2.77659E-13
 -1      4167 2.00056E+01 2.76001E-03 1.05008E-06 3.67745E-04-1.26940E-13 3.17182E-13
 -1      4168 2.00045E+01 3.12172E-04 9.85091E-06 1.00290E-03 1.28136E-13 2.39954E-13
 -1      4169 2.00041E+01-2.55449E-04 8.80059E-07 1.10023E-03 1.55460E-13 5.67901E-13
 -1      4170 2.00049E+01 8.04248E-04-6.55301E-06 6.26251E-04 6.62972E-14 4.73416E-13
 -1      4171 2.00039E+01-5.06604E-04 6.20802E-06 1.07661E-03 9.30902E-14 5.84460E-13
 -1      4172 2.00037E+01-7.48505E-04 3.26723E-06 1.03067E-03 7.49615E-15 6.93865E-13
 -1      4173 2.00038E+01-7.36509E-04-5.86252E-06 6.54342E-04 1.20939E-13 7.05786E-14
 -1      4174 2.00043E+01-2.31226E-04-9.47861E-06 6.98829E-04 1.91448E-13 3.06874E-13
 -1      4175 1.94206E+01 1.92203E-01-2.14384E-03 9.07216E-01-1.93164E-13 7.62415E-14
 -1      4176 1.94816E+01 8.85085E-02 7.62062E-03 1.03160E+00-1.31718E-13-3.77550E-14
 -1      4177 1.94815E+01-5.19334E-02-4.85822E-04 1.20973E+00-1.22711E-13-1.41042E-13
 -1      4178 1.96154E+01-2.22912E-01 1.11473E-02 1.35566E+00-1.39563E-13-1.70449E-13
 -1      4179 1.92206E+01 1.44190E-01-3.91058E-03 1.16208E+00-2.23003E-13-1.44642E-13
 -1      4180 1.95851E+01 3.84196E-01-2.08361E-03 3.45196E-01-8.18336E-14 2.99181E-14
 -1      4181 1.95630E+01 3.88517E-01 2.64045E-03 4.05482E-01-1.45192E-13 1.32616E-14
 -1      4182 1.96628E+01 3.60742E-01-2.40973E-03 2.46112E-01-3.90603E-15-2.13226E-14
 -1      4183 1.96375E+01 3.76181E-01 1.26902E-03 2.91511E-01 4.60160E-14 5.49183E-14
 -1      4184 1.95526E+01 4.24193E-01-5.85130E-04 2.85460E-01-3.56041E-14-1.30955E-13
 -1      4185 1.97372E+01 3.20418E-01-2.07648E-03 1.73917E-01 6.18252E-14 4.09921E-14
 -1      4186 1.97127E+01 3.43302E-01 1.19422E-03 2.06892E-01-1.54412E-14 9.52412E-15
 -1      4187 1.96506E+01 3.90616E-01 2.88126E-03 1.95304E-01 8.94532E-15 3.43450E-14
 -1      4188 1.98014E+01 2.74376E-01-1.60405E-03 1.22311E-01 4.17926E-14 8.20179E-14
 -1      4189 1.97788E+01 2.99088E-01 7.04782E-04 1.46515E-01 5.31477E-14 1.48711E-14
 -1      4190 1.97338E+01 3.39252E-01 2.72345E-03 1.32870E-01 2.98775E-14 8.96548E-14
 -1      4191 1.98546E+01 2.27803E-01-1.22130E-03 8.55278E-02 1.15178E-13 1.08297E-13
 -1      4192 1.98351E+01 2.51815E-01 3.83227E-04 1.03265E-01 1.58005E-13 1.24111E-13
 -1      4193 1.98026E+01 2.85153E-01 2.31619E-03 8.97540E-02 8.77203E-14-1.99999E-14
 -1      4194 1.98971E+01 1.84239E-01-9.19247E-04 5.93981E-02-1.63502E-13 1.29016E-13
 -1      4195 1.98811E+01 2.06139E-01 1.87820E-04 7.23754E-02-7.74761E-14 1.27491E-13
 -1      4196 1.98578E+01 2.33346E-01 1.88113E-03 6.02887E-02 4.64383E-14 1.14343E-13
 -1      4197 1.99300E+01 1.45562E-01-6.80432E-04 4.08797E-02-1.46400E-13 1.67854E-13
 -1      4198 1.99174E+01 1.64664E-01 7.68834E-05 5.03618E-02-1.53913E-13 1.13930E-13
 -1      4199 1.99009E+01 1.86541E-01 1.48208E-03 4.02607E-02-1.25802E-13 1.20172E-14
 -1      4200 1.99547E+01 1.12472E-01-5.03924E-04 2.77907E-02 9.68330E-14 1.39419E-13
 -1      4201 1.99451E+01 1.28581E-01 9.63541E-06 3.46779E-02-2.56776E-14 1.25438E-13
 -1      4202 1.99337E+01 1.45994E-01 1.14765E-03 2.66715E-02-8.08274E-14-4.76298E-14
 -1      4203 1.99728E+01 8.50833E-02-3.57566E-04 1.85324E-02 2.07008E-14 1.20360E-13
 -1      4204 1.99657E+01 9.83016E-02-1.10621E-05 2.35540E-02 1.27769E-13 1.89683E-13
 -1      4205 1.99579E+01 1.11920E-01 8.63205E-04 1.74632E-02 3.32792E-15 1.39800E-14
 -1      4206 1.99855E+01 6.29315E-02-2.54957E-04 1.20467E-02-5.54646E-14 1.70147E-13
 -1      4207 1.99806E+01 7.35122E-02-2.13992E-05 1.56754E-02-1.02795E-13 1.11685E-13
 -1      4208 1.99754E+01 8.39889E-02 6.21720E-04 1.12541E-02-2.92636E-14 1.71776E-13
 -1      4209 1.99942E+01 4.54470E-02-1.78179E-04 7.52292E-03 1.06711E-13 1.85941E-13
 -1      4210 1.99909E+01 5.37356E-02-1.90096E-05 1.01242E-02 1.44015E-13 2.74730E-13
 -1      4211 1.99876E+01 6.16920E-02 4.39856E-04 7.07234E-03-4.77270E-14 1.86845E-13
 -1      4212 1.99998E+01 3.19398E-02-1.21682E-04 4.40286E-03-1.94800E-13 3.89282E-13
 -1      4213 1.99977E+01 3.82972E-02-1.36374E-05 6.24607E-03-5.21828E-14 3.00240E-13
 -1      4214 1.99957E+01 4.42429E-02 3.01828E-04 4.26009E-03-7.32396E-14 1.92650E-13
 -1      4215 2.00032E+01 2.17260E-02-8.06332E-05 2.28551E-03-1.35356E-14 2.57897E-13
 -1      4216 2.00020E+01 2.65000E-02-7.71297E-06 3.57071E-03-8.57544E-14 4.16720E-13
 -1      4217 2.00009E+01 3.08636E-02 1.99013E-04 2.38375E-03-1.16061E-13 3.22729E-13
 -1      4218 2.00050E+01 1.41711E-02-5.09550E-05 8.81904E-04 1.11182E-14 2.52105E-13
 -1      4219 2.00044E+01 1.76772E-02-2.54416E-06 1.75866E-03 3.68182E-14 2.23972E-13
 -1      4220 2.00039E+01 2.08142E-02 1.24283E-04 1.14826E-03 5.48200E-15 3.14569E-13
 -1      4221 2.00057E+01 8.71058E-03-2.99013E-05-1.70981E-05-1.66473E-13 3.41584E-13
 -1      4222 2.00056E+01 1.12239E-02 6.70229E-07 5.61612E-04-7.26526E-14 2.87008E-13
 -1      4223 2.00055E+01 1.34296E-02 7.19343E-05 3.50992E-04-8.47216E-14 3.29044E-13
 -1      4224 2.00057E+01 4.86885E-03-1.52670E-05-5.64612E-04 1.10103E-13 3.55782E-13
 -1      4225 2.00058E+01 6.62254E-03 3.08217E-06-1.96706E-04-1.52714E-14 3.38176E-13
 -1      4226 2.00060E+01 8.12226E-03 3.50165E-05-1.43667E-04-8.13356E-14 3.05025E-13
 -1      4227 2.00053E+01 2.24004E-03-6.14993E-06-8.67710E-04 3.52057E-14 1.82504E-13
 -1      4228 2.00056E+01 3.42710E-03 4.51767E-06-6.50606E-04 2.50348E-13 2.87509E-13
 -1      4229 2.00059E+01 4.40986E-03 1.08392E-05-4.35850E-04 1.86854E-13 5.97133E-14
 -1      4230 2.00046E+01 5.08399E-04 1.91818E-06-1.00174E-03-2.18638E-13-7.74670E-14
 -1      4231 2.00050E+01 1.27671E-03 5.35799E-06-8.94231E-04-1.16738E-13 6.13231E-14
 -1      4232 2.00053E+01 1.89175E-03-2.59803E-06-5.91153E-04 1.43240E-13 1.58362E-13
 -1      4233 2.00041E+01-3.21871E-04-3.65948E-07-8.60450E-04-3.00001E-13-1.68360E-13
 -1      4234 2.00043E+01 7.67755E-05 2.48638E-06-9.49610E-04-3.21763E-13-1.64655E-13
 -1      4235 2.00047E+01 4.22992E-04-7.66575E-06-6.02770E-04-1.77583E-13 2.60379E-14
 -1      4236 2.00042E+01-3.65881E-04-2.70086E-06-5.31367E-04-1.24586E-13-1.09684E-13
 -1      4237 1.95059E+01 3.77873E-01-2.70190E-03 4.82772E-01-8.96709E-14 1.81926E-14
 -1      4238 1.94968E+01 3.59549E-01 3.47919E-03 5.60847E-01-4.21985E-14 4.44306E-14
 -1      4239 1.94505E+01 4.48998E-01 1.90680E-03 4.11167E-01-1.04486E-13-1.53368E-13
 -1      4240 1.96835E+01-4.39357E-01 3.33886E-03 1.56234E+00-1.38818E-13-2.48319E-13
 -1      4241 1.99165E+01-7.04941E-01 1.12697E-02 1.72106E+00-1.74545E-13-2.63158E-13
 -1      4242 1.92910E+01-2.20217E-01-1.47236E-02 1.58233E+00-1.90608E-13-2.36804E-13
 -1      4243 1.94437E+01 3.21971E-01-2.77468E-03 6.65376E-01-9.16478E-14 6.10797E-14
 -1      4244 1.94591E+01 2.71799E-01 5.53885E-03 7.65540E-01-1.35787E-13 4.30134E-14
 -1      4245 1.93465E+01 4.25156E-01 9.79159E-04 5.89635E-01-8.42459E-14-1.29198E-13
 -1      4246 2.00035E+01-1.09597E-03-6.33858E-07 2.79507E-04 5.17656E-14 2.68713E-13
 -1      4247 2.00036E+01-1.06096E-03-3.22888E-06-6.50850E-05 3.61986E-14 4.35590E-13
 -1      4248 2.00039E+01-7.60543E-04 2.82527E-06-2.00161E-04-8.14132E-14 3.59673E-13
 -1      4249 2.00037E+01-8.85827E-04 3.05827E-06 3.48271E-04 1.10136E-13 1.38943E-13
 -1      4250 2.00554E+01-9.64904E-01 4.38369E-03 1.90348E+00-1.65072E-13-2.23696E-13
 -1      4251 2.04249E+01-1.30355E+00 1.17912E-02 2.03063E+00-2.00830E-13-1.82859E-13
 -1      4252 1.98755E+01-1.21303E+00-2.43463E-03 2.42256E+00-2.37129E-13-2.75914E-13
 -1      4253 1.94801E+01-6.74454E-01-2.21443E-02 2.00202E+00-1.42946E-13-3.55102E-13
 -1      4254 1.83934E+01 9.40168E-01-1.10299E-02 4.21765E-01-2.08286E-13-1.03877E-13
 -1      4255 1.86424E+01 9.01065E-01 1.00039E-03 3.05424E-01-7.83772E-14-1.60181E-13
 -1      4256 1.87982E+01 7.99448E-01 5.60413E-03 4.11076E-01-1.31829E-13-2.13776E-13
 -1      4257 2.17564E+01-1.43719E+00-3.46566E-02-1.90351E+00-1.21144E-13-1.89084E-13
 -1      4258 1.69947E+01 1.11684E+00 1.18105E-02 1.15286E+00-2.20024E-13-8.53961E-14
 -1      4259 1.92623E+01 3.43036E-01 1.87372E-03 8.32259E-01-1.23998E-13-8.90437E-14
 -1      4260 1.78847E+01 9.71191E-01-1.63896E-02 7.63524E-01-2.13876E-13-1.17091E-13
 -1      4261 1.82138E+01 9.75781E-01 4.00441E-03 5.78046E-01-2.71559E-13-8.46745E-14
 -1      4262 1.84555E+01 8.42763E-01 1.13598E-02 7.00951E-01-2.54569E-13-1.44715E-13
 -1      4263 1.94180E+01-1.00618E+00 6.90852E-03 2.56784E+00-2.00255E-13-2.83514E-13
 -1      4264 1.86432E+01-6.83196E-01 2.60494E-02 2.82351E+00-2.05221E-13-2.02863E-13
 -1      4265 1.81746E+01-1.93604E-01 2.44628E-03 2.45084E+00-1.24033E-13-2.16416E-13
 -1      4266 1.91800E+01-6.89230E-01-1.56096E-03 2.33545E+00-1.95069E-13-2.98935E-13
 -1      4267 1.71175E+01 7.76125E-01-6.45110E-03 1.65590E+00-2.44464E-13-7.91160E-14
 -1      4268 1.77304E+01 9.39675E-01 1.39642E-02 1.05461E+00-1.84407E-13-1.10691E-13
 -1      4269 1.80578E+01 7.29805E-01 1.26658E-03 1.18545E+00-2.07887E-13-1.13585E-13
 -1      4270 1.77139E+01 3.15426E-01-2.17297E-02 1.99209E+00-2.29431E-13-1.57754E-13
 -1      4271 1.88122E+01 6.86008E-01-9.23897E-03 5.81504E-01-1.57267E-13-1.87509E-13
 -1      4272 1.89816E+01 6.82200E-01 3.02662E-03 4.59883E-01-4.28618E-14-1.92503E-13
 -1      4273 1.92790E+01 6.00356E-01-5.16952E-03 2.04735E-01-1.17575E-13-1.80131E-13
 -1      4274 1.93865E+01 5.59695E-01-1.35179E-03 1.57431E-01-1.34367E-13-1.62382E-13
 -1      4275 1.94931E+01 4.89069E-01-2.95272E-03 1.55541E-01-1.06585E-13-8.40806E-14
 -1      4276 1.95675E+01 4.52209E-01-7.51831E-04 1.25406E-01-7.83979E-14-1.04370E-13
 -1      4277 1.96130E+01 4.19539E-01-3.43434E-03 9.09439E-02-1.00085E-13-3.82670E-14
 -1      4278 1.96744E+01 3.82999E-01-1.18113E-03 7.34032E-02-9.34013E-14 4.98425E-15
 -1      4279 1.97137E+01 3.50291E-01-2.78960E-03 4.99683E-02-1.90302E-15 6.36738E-15
 -1      4280 1.97608E+01 3.16358E-01-1.20558E-03 4.11596E-02 1.21992E-13 8.41699E-14
 -1      4281 1.97930E+01 2.85953E-01-2.15047E-03 2.54447E-02 1.27450E-13 7.42790E-14
 -1      4282 1.98285E+01 2.55760E-01-1.08537E-03 2.17816E-02 1.68537E-13 1.66721E-13
 -1      4283 1.98541E+01 2.28749E-01-1.62184E-03 1.13412E-02 8.44101E-14 1.06614E-13
 -1      4284 1.98805E+01 2.02767E-01-9.17735E-04 1.05779E-02 1.45100E-14 9.13207E-14
 -1      4285 1.99003E+01 1.79575E-01-1.20300E-03 3.67941E-03-7.54071E-14-9.58509E-15
 -1      4286 1.99196E+01 1.57783E-01-7.50299E-04 4.42251E-03-1.00645E-13-5.75393E-14
 -1      4287 1.99345E+01 1.38438E-01-8.69291E-04-1.55305E-04-1.08577E-13-5.14022E-14
 -1      4288 1.99489E+01 1.19720E-01-5.88858E-04 1.24087E-03-1.30185E-13-5.31398E-14
 -1      4289 1.99598E+01 1.03983E-01-6.24766E-04-1.76919E-03-4.15559E-14 3.03150E-14
 -1      4290 1.99693E+01 8.97364E-02-4.52191E-04-2.16991E-04 1.04918E-14 7.40840E-14
 -1      4291 1.99771E+01 7.71858E-02-4.31019E-04-2.19596E-03-5.94390E-14 1.08140E-13
 -1      4292 1.99836E+01 6.59329E-02-3.31902E-04-7.52681E-04-1.23428E-13 1.17712E-13
 -1      4293 1.99890E+01 5.60899E-02-2.94881E-04-2.06527E-03-8.35277E-14 1.54903E-13
 -1      4294 1.99932E+01 4.73787E-02-2.34277E-04-8.34229E-04 3.88346E-14 1.40193E-13
 -1      4295 1.99968E+01 3.98006E-02-1.95752E-04-1.70373E-03-9.37052E-14 1.93871E-13
 -1      4296 1.99995E+01 3.31770E-02-1.59102E-04-7.15323E-04-2.42236E-13 4.99714E-14
 -1      4297 2.00016E+01 2.74526E-02-1.24755E-04-1.29034E-03-1.11923E-13 1.23722E-13
 -1      4298 2.00032E+01 2.25101E-02-1.02890E-04-5.33037E-04 2.30820E-14 9.78425E-14
 -1      4299 2.00044E+01 1.82716E-02-7.48429E-05-9.10561E-04 2.82892E-14 7.23288E-14
 -1      4300 2.00052E+01 1.46555E-02-6.27439E-05-3.52877E-04-3.82422E-14 7.90014E-14
 -1      4301 2.00058E+01 1.15860E-02-3.94917E-05-6.00369E-04-7.66068E-14 1.48523E-13
 -1      4302 2.00060E+01 8.88398E-03-3.43523E-05-1.98736E-04-1.38817E-14 3.21829E-14
 -1      4303 2.00061E+01 6.73226E-03-1.57781E-05-3.54841E-04 7.80048E-14-6.13384E-14
 -1      4304 2.00060E+01 4.95086E-03-1.48830E-05-9.23186E-05 8.84444E-14-1.55780E-14
 -1      4305 2.00059E+01 3.47106E-03-1.76250E-06-1.83846E-04 9.13679E-14 1.10566E-13
 -1      4306 2.00056E+01 2.26521E-03-3.09056E-06-1.58165E-05 3.87974E-14 2.87230E-13
 -1      4307 2.00053E+01 1.27789E-03 3.99108E-06-6.85665E-05-2.21462E-14 3.92465E-13
 -1      4308 2.00048E+01 4.93134E-04 1.11151E-06 2.82005E-05 9.17842E-14 3.46032E-13
 -1      4309 1.89540E+01 3.75995E-01-8.05075E-03 1.01857E+00-2.54892E-13-1.75681E-13
 -1      4310 1.89737E+01 2.76876E-01 5.25951E-03 1.20987E+00-2.40153E-13-1.79528E-13
 -1      4311 1.95009E+01 4.75613E-01 2.68187E-03 2.42323E-01-4.75632E-14-1.61929E-13
 -1      4312 1.94415E+01 4.86127E-01-1.23663E-03 2.95833E-01-8.03138E-14-2.03036E-13
 -1      4313 1.93850E+01 4.99243E-01 1.12740E-03 3.66227E-01-1.02315E-13-1.26319E-13
 -1      4314 1.85979E+01 2.87103E-01-2.54336E-04 1.47810E+00-2.74058E-13-1.51261E-13
 -1      4315 1.86594E+01 1.03692E-01 1.23052E-02 1.73921E+00-2.46644E-13-1.71330E-13
 -1      4316 1.91447E+01 4.77448E-01-8.19467E-03 6.61585E-01-7.42492E-14-6.83687E-14
 -1      4317 1.91229E+01 4.44370E-01 4.15341E-03 7.96051E-01-1.36852E-13-1.01700E-13
 -1      4318 1.91762E+01 6.44680E-01 1.25203E-03 2.86369E-01-1.14050E-13-1.64607E-13
 -1      4319 1.92841E+01 5.73205E-01 3.39799E-03 3.33792E-01-1.00277E-13-2.09940E-13
 -1      4320 1.92701E+01 5.13543E-01-4.81474E-03 4.60922E-01-1.10514E-13-1.38828E-13
 -1      4321 1.90397E+01 6.67867E-01-6.81794E-03 3.68728E-01-4.01721E-14-1.56221E-13
 -1      4322 1.86557E+01 6.82916E-01 3.93677E-03 7.89892E-01-2.55087E-13-2.47437E-13
 -1      4323 1.88814E+01 5.55318E-01 4.39604E-03 8.26982E-01-1.86160E-13-1.45879E-13
 -1      4324 1.91052E+01 5.99120E-01 5.45383E-03 5.21867E-01-6.02018E-14-4.08781E-14
 -1      4325 1.84754E+01 6.48205E-01-5.79985E-03 9.80941E-01-2.22655E-13-2.34108E-13
 -1      4326 1.85938E+01-1.93276E-01 1.52626E-03 2.13739E+00-1.12604E-13-2.78469E-13
 -1      4327 1.92254E+01 5.05760E-01 2.14159E-03 5.64056E-01-6.32007E-14-1.24158E-13
 -1      4328 2.00040E+01-6.70052E-04-4.41423E-09 3.71887E-04 4.92691E-14 2.32622E-13
 -1      4329 2.00041E+01-5.56613E-04-4.51072E-06 5.21300E-05-1.69341E-13 6.01105E-13
 -1      4330 2.00041E+01-4.96251E-04-2.89015E-06-2.23148E-04-9.69726E-14 3.20566E-13
 -1      4331 2.00044E+01-1.18108E-04 7.11645E-06-2.75687E-04-1.22010E-13 3.02324E-13
 -1      4332 2.00042E+01-3.78604E-04 2.89255E-06 3.65574E-04-1.11358E-13 2.65540E-13
 -1      4333 1.83297E+01 5.50018E-01 2.57213E-04 1.28430E+00-2.43448E-13-1.68672E-13
 -1      4334 2.00047E+01 3.06721E-04-4.63305E-06-3.16589E-04 3.44832E-14 4.75315E-13
 -1      4335 2.00045E+01-1.00542E-04 1.43259E-06 3.65545E-04-1.04744E-13 4.92839E-13
 -1      4336 1.91087E+01-4.76509E-01-4.40399E-03 2.11195E+00-1.43855E-13-3.35568E-13
 -3
    1PSTEP                         3           1           1          
  100CL  101 1.000000000        4336                     0    1           1
 -4  TOSTRAIN    6    1
 -5  EXX         1    4    1    1
 -5  EYY         1    4    2    2
 -5  EZZ         1    4    3    3
 -5  EXY         1    4    1    2
 -5  EYZ         1    4    2    3
 -5  EZX         1    4    3    1
 -1         1 3.51280E-04-1.09319E-04-8.67845E-05 4.93822E-07-5.51604E-19-2.48099E-18
 -1         2 3.86312E-05-1.18124E-04 2.18543E-05 1.40956E-06 3.99365E-18 1.12258E-19
 -1         3 9.52373E-05-2.85709E-05-2.85716E-05 2.07369E-10-3.16777E-18-2.94934E-18
 -1         4 9.52373E-05-2.85709E-05-2.85716E-05-3.18087E-10 1.76524E-18-2.72420E-18
 -1         5 1.46669E-04-2.17710E-05-4.39039E-05 3.87738E-05-2.57922E-19 1.84967E-17
 -1         6 1.48181E-04 2.77405E-10-4.63105E-05-5.22046E-05-1.06260E-18 1.71943E-17
 -1         7 9.78746E-05-9.64802E-07-4.14892E-05-2.54515E-05-1.62419E-19 2.99511E-18
 -1         8 9.03251E-05-7.89038E-08-3.83091E-05-1.44060E-05-2.03870E-19-1.42519E-18
 -1         9 8.50586E-05 3.70741E-08-3.62893E-05-9.24416E-06-2.01012E-19-3.85322E-18
 -1        10 8.08963E-05 8.08703E-08-3.46498E-05-6.46470E-06-1.33222E-19-4.99023E-18
 -1        11 7.78027E-05 1.09066E-07-3.34164E-05-5.12152E-06-8.24534E-20-5.63052E-18
 -1        12 7.59239E-05 1.16685E-07-3.26446E-05-4.55776E-06-6.14496E-20-5.84573E-18
 -1        13 7.52079E-05 1.06542E-07-3.23168E-05-4.18082E-06-3.09465E-20-5.89683E-18
 -1        14 7.55296E-05 8.26318E-08-3.23940E-05-3.53571E-06 8.91370E-21-5.81746E-18
 -1        15 7.65995E-05 5.32863E-08-3.27740E-05-2.32665E-06 3.63959E-20-5.71138E-18
 -1        16 7.80999E-05 2.66885E-08-3.33412E-05-4.36283E-07 5.25557E-20-5.47199E-18
 -1        17 7.97728E-05 7.88987E-09-3.39988E-05 2.11863E-06 8.77341E-20-5.14500E-18
 -1        18 8.14481E-05 4.35291E-09-3.46819E-05 5.19924E-06 1.16983E-19-4.60604E-18
 -1        19 8.32056E-05 1.59319E-08-3.54243E-05 8.86718E-06 1.69539E-19-3.83199E-18
 -1        20 8.52574E-05 4.90010E-08-3.63193E-05 1.31604E-05 2.07841E-19-2.43162E-18
 -1        21 8.82888E-05 1.13502E-07-3.76411E-05 1.85443E-05 2.59774E-19 3.44087E-19
 -1        22 9.52654E-05-2.24539E-07-4.01421E-05 2.70469E-05 3.37754E-20 5.90889E-18
 -1        23 1.22520E-04-4.14068E-05-3.82837E-05-3.25927E-06-7.05764E-19 1.34288E-17
 -1        24 1.07557E-04-3.21648E-05-3.34084E-05 5.95784E-07-2.03606E-19 1.01049E-17
 -1        25 1.09425E-04-3.29684E-05-3.30839E-05 5.50151E-07-9.80805E-20 6.92227E-18
 -1        26 1.15104E-04-3.46213E-05-3.46505E-05 4.93755E-07-1.21678E-20 4.74503E-18
 -1        27 1.23713E-04-3.71514E-05-3.72246E-05 6.00054E-07-2.02878E-19 3.42418E-18
 -1        28 1.34382E-04-4.03059E-05-4.03120E-05 7.35220E-07 4.46431E-20 2.30586E-18
 -1        29 1.45379E-04-4.36268E-05-4.32340E-05 6.87803E-07 1.70940E-19 2.03187E-18
 -1        30 1.50991E-04-4.53920E-05-4.43326E-05 6.74516E-08 4.29505E-20 2.21715E-18
 -1        31 1.44993E-04-4.36861E-05-4.22433E-05-1.49317E-06-3.89900E-20 2.56529E-18
 -1        32 1.23503E-04-3.70890E-05-3.67718E-05-3.37724E-06 1.06382E-19 1.92954E-18
 -1        33 9.51829E-05-2.79415E-05-3.04912E-05-3.20339E-06-8.30026E-20 1.36298E-18
 -1        34 8.11647E-05-2.35404E-05-2.75950E-05-4.53698E-07-3.36696E-20-1.83759E-18
 -1        35 8.76426E-05-2.56589E-05-2.90147E-05 2.45156E-06-2.26992E-19-5.61181E-18
 -1        36 1.14558E-04-3.42438E-05-3.48197E-05 3.75948E-06 1.33951E-19-7.48343E-18
 -1        37 1.40728E-04-4.23304E-05-4.11478E-05 2.41666E-06-2.56294E-20-7.51953E-18
 -1        38 1.54098E-04-4.63792E-05-4.50853E-05 4.13020E-07 9.99036E-20-5.62793E-18
 -1        39 1.52478E-04-4.57592E-05-4.51733E-05-5.11404E-07-4.71129E-20-4.04527E-18
 -1        40 1.43518E-04-4.30276E-05-4.29503E-05-6.91033E-07-8.73172E-20-3.96766E-18
 -1        41 1.32760E-04-3.98064E-05-3.99357E-05-5.63994E-07 1.84872E-19-3.73774E-18
 -1        42 1.23037E-04-3.69105E-05-3.70646E-05-3.84517E-07-1.83161E-19-3.63499E-18
 -1        43 1.15257E-04-3.45921E-05-3.47091E-05-2.39824E-07-2.68796E-19-4.43092E-18
 -1        44 1.09387E-04-3.28408E-05-3.29139E-05-1.48349E-07 3.27005E-19-4.11663E-18
 -1        45 1.04950E-04-3.15062E-05-3.15499E-05-7.82954E-08 2.25617E-19-3.66418E-18
 -1        46 1.01948E-04-3.06051E-05-3.06277E-05-4.38751E-08-5.23773E-19-3.34006E-18
 -1        47 9.98178E-05-2.99624E-05-2.99741E-05-2.32830E-08 2.67362E-19-4.80072E-18
 -1        48 9.83170E-05-2.95086E-05-2.95142E-05-1.13039E-08-3.69842E-19-6.10893E-18
 -1        49 9.72651E-05-2.91900E-05-2.91923E-05-4.47909E-09-3.43219E-19-5.38304E-18
 -1        50 9.65329E-05-2.89678E-05-2.89684E-05-6.23568E-10 7.99676E-20-5.26379E-18
 -1        51 9.60272E-05-2.88144E-05-2.88139E-05 6.31664E-10-8.22823E-20-5.69874E-18
 -1        52 9.56702E-05-2.87053E-05-2.87048E-05 2.61875E-09-3.21997E-19-5.19234E-18
 -1        53 9.54462E-05-2.86371E-05-2.86363E-05 2.82003E-09 1.95345E-19-5.17649E-18
 -1        54 9.53011E-05-2.85927E-05-2.85920E-05 2.86000E-09 2.94357E-19-4.50420E-18
 -1        55 9.52114E-05-2.85652E-05-2.85645E-05 2.70892E-09-2.11384E-19-3.09667E-18
 -1        56 9.51600E-05-2.85493E-05-2.85486E-05 2.45565E-09 2.15251E-19-3.94721E-18
 -1        57 9.51344E-05-2.85412E-05-2.85407E-05 2.16319E-09-4.66633E-19-5.96873E-18
 -1        58 9.51259E-05-2.85384E-05-2.85379E-05 1.78883E-09-1.36239E-19-1.04369E-17
 -1        59 9.51282E-05-2.85389E-05-2.85385E-05 1.56399E-09 4.55773E-19-8.97329E-18
 -1        60 9.51369E-05-2.85414E-05-2.85410E-05 1.27535E-09 5.94234E-19-2.65477E-18
 -1        61 9.51488E-05-2.85448E-05-2.85446E-05 1.04023E-09-7.96115E-19-1.10765E-18
 -1        62 9.51620E-05-2.85487E-05-2.85485E-05 8.37422E-10 5.74406E-19-7.43584E-19
 -1        63 9.51752E-05-2.85526E-05-2.85525E-05 6.67987E-10-6.24139E-19 9.66850E-19
 -1        64 9.51878E-05-2.85564E-05-2.85562E-05 5.30445E-10-8.54442E-19-2.02042E-18
 -1        65 9.51992E-05-2.85598E-05-2.85597E-05 4.24820E-10 3.27891E-19-1.54817E-18
 -1        66 9.52098E-05-2.85629E-05-2.85629E-05 3.33828E-10-5.18220E-19-2.56163E-18
 -1        67 9.52185E-05-2.85655E-05-2.85655E-05 2.69877E-10 3.37948E-19-5.84643E-18
 -1        68 9.52258E-05-2.85677E-05-2.85677E-05 2.17253E-10-6.30157E-19-6.34689E-18
 -1        69 9.52316E-05-2.85695E-05-2.85694E-05 1.57488E-10 1.40796E-19-1.81638E-18
 -1        70 9.52356E-05-2.85706E-05-2.85706E-05 6.06037E-11 1.54175E-19-4.32285E-18
 -1        71 9.52374E-05-2.85712E-05-2.85712E-05-2.09068E-10 5.57725E-19-6.87916E-18
 -1        72 1.06904E-04-3.19945E-05-3.56581E-05-2.17490E-06 2.38572E-19 1.68263E-17
 -1        73 9.87096E-05-2.93590E-05-3.07177E-05-4.26474E-07 1.76127E-19 1.25223E-17
 -1        74 9.59965E-05-2.87716E-05-2.89860E-05-1.94329E-07 7.64245E-20 9.46693E-18
 -1        75 9.49701E-05-2.85171E-05-2.84539E-05-1.45072E-07 4.04508E-20 7.61487E-18
 -1        76 9.41750E-05-2.82767E-05-2.81719E-05-9.69282E-08 7.30607E-20 5.56695E-18
 -1        77 9.28768E-05-2.78830E-05-2.77752E-05-3.85145E-08-1.06088E-20 4.40445E-18
 -1        78 9.07314E-05-2.72403E-05-2.71385E-05 3.36898E-08-6.53849E-20 4.15082E-18
 -1        79 8.77243E-05-2.63407E-05-2.62629E-05 1.12663E-07 8.71077E-20 3.66375E-18
 -1        80 8.41938E-05-2.52809E-05-2.52530E-05 1.78932E-07 1.08281E-19 2.97996E-18
 -1        81 8.08000E-05-2.42560E-05-2.42979E-05 2.06613E-07 5.97965E-20 1.83146E-18
 -1        82 7.83657E-05-2.35137E-05-2.36244E-05 1.77021E-07 7.85036E-20 1.54873E-18
 -1        83 7.76001E-05-2.32711E-05-2.34227E-05 9.25781E-08 7.69774E-20 4.67305E-19
 -1        84 7.88169E-05-2.36277E-05-2.37749E-05-2.02434E-08 1.91913E-19 1.65516E-19
 -1        85 8.17989E-05-2.45210E-05-2.46221E-05-1.23411E-07-1.17547E-19-4.70077E-19
 -1        86 8.58909E-05-2.57533E-05-2.57879E-05-1.86983E-07-5.49498E-20-8.25089E-19
 -1        87 9.02608E-05-2.70712E-05-2.70450E-05-2.01433E-07-1.78877E-19-4.66173E-19
 -1        88 9.41802E-05-2.82528E-05-2.81882E-05-1.76362E-07 2.75703E-20 3.41599E-19
 -1        89 9.71958E-05-2.91607E-05-2.90834E-05-1.30334E-07 2.16369E-19-4.86442E-19
 -1        90 9.91579E-05-2.97502E-05-2.96797E-05-8.07291E-08-3.26004E-19-1.28872E-18
 -1        91 1.00148E-04-3.00469E-05-2.99931E-05-3.86086E-08 6.69981E-20-1.51824E-18
 -1        92 1.00375E-04-3.01141E-05-3.00792E-05-8.38854E-09-8.41408E-20-2.05703E-18
 -1        93 1.00082E-04-3.00255E-05-3.00068E-05 1.01063E-08-1.23660E-19-1.41328E-18
 -1        94 9.94894E-05-2.98473E-05-2.98404E-05 1.92754E-08 3.10542E-19-2.60759E-18
 -1        95 9.87682E-05-2.96307E-05-2.96314E-05 2.20460E-08-2.96642E-20-3.15922E-18
 -1        96 9.80359E-05-2.94111E-05-2.94157E-05 2.09878E-08-5.09096E-19 3.35327E-19
 -1        97 9.73633E-05-2.92093E-05-2.92157E-05 1.80096E-08 1.75845E-19 2.27392E-19
 -1        98 9.67858E-05-2.90362E-05-2.90427E-05 1.43676E-08-1.03202E-20-2.35335E-18
 -1        99 9.63147E-05-2.88949E-05-2.89008E-05 1.07981E-08-5.06524E-20-5.50319E-18
 -1       100 9.59467E-05-2.87845E-05-2.87894E-05 7.67256E-09-3.06370E-19-4.13612E-18
 -1       101 9.56701E-05-2.87015E-05-2.87054E-05 5.12998E-09 3.14897E-20-4.00958E-18
 -1       102 9.54702E-05-2.86415E-05-2.86444E-05 3.17503E-09-4.20633E-19-3.43810E-18
 -1       103 9.53316E-05-2.85999E-05-2.86020E-05 1.74407E-09-3.79612E-19-2.70063E-18
 -1       104 9.52405E-05-2.85725E-05-2.85739E-05 7.46412E-10 1.05776E-19-2.80601E-18
 -1       105 9.51845E-05-2.85557E-05-2.85565E-05 8.79363E-11-5.71645E-19-8.43350E-19
 -1       106 9.51539E-05-2.85464E-05-2.85469E-05-3.16789E-10 1.81659E-19-2.41394E-18
 -1       107 9.51408E-05-2.85424E-05-2.85427E-05-5.39499E-10-1.02151E-19-6.48022E-18
 -1       108 9.51393E-05-2.85419E-05-2.85420E-05-6.37291E-10 1.22289E-19-5.63560E-18
 -1       109 9.51450E-05-2.85436E-05-2.85436E-05-6.53763E-10 3.51005E-19-5.82181E-18
 -1       110 9.51547E-05-2.85465E-05-2.85464E-05-6.21049E-10-2.35303E-19-6.28744E-18
 -1       111 9.51663E-05-2.85499E-05-2.85498E-05-5.62077E-10 7.90502E-20-7.25243E-18
 -1       112 9.51784E-05-2.85535E-05-2.85534E-05-4.92697E-10 4.43753E-19-6.44571E-18
 -1       113 9.51901E-05-2.85571E-05-2.85569E-05-4.23506E-10 6.60751E-20-8.69882E-18
 -1       114 9.52010E-05-2.85603E-05-2.85602E-05-3.61302E-10-6.66741E-19-7.30731E-18
 -1       115 9.52108E-05-2.85632E-05-2.85631E-05-3.10075E-10 1.76769E-19-7.13314E-18
 -1       116 9.52192E-05-2.85658E-05-2.85657E-05-2.71244E-10-3.70378E-19-8.08111E-18
 -1       117 9.52264E-05-2.85679E-05-2.85678E-05-2.42515E-10-5.21270E-19-8.69614E-18
 -1       118 9.52320E-05-2.85696E-05-2.85695E-05-2.14056E-10-1.50113E-19-7.00793E-18
 -1       119 9.52358E-05-2.85708E-05-2.85706E-05-1.43338E-10 1.38940E-19-8.34189E-18
 -1       120 9.52374E-05-2.85713E-05-2.85712E-05 7.11725E-11 1.04126E-18-6.90588E-18
 -1       121 9.52371E-05-2.85710E-05-2.85712E-05 1.37209E-10-6.22985E-18 1.05857E-18
 -1       122 9.52376E-05-2.85726E-05-2.85706E-05-7.67963E-11-3.62794E-18 9.29995E-19
 -1       123 9.52387E-05-2.85762E-05-2.85695E-05-2.04775E-10 1.51588E-18 2.27021E-19
 -1       124 9.52401E-05-2.85809E-05-2.85682E-05-2.31070E-10-2.09148E-18-7.62791E-19
 -1       125 9.52415E-05-2.85857E-05-2.85668E-05-2.13955E-10-2.13147E-18-9.14884E-19
 -1       126 9.52427E-05-2.85898E-05-2.85656E-05-1.71430E-10-5.66952E-18-3.99855E-19
 -1       127 9.52437E-05-2.85930E-05-2.85647E-05-1.09314E-10-6.61321E-18 1.89574E-18
 -1       128 9.52442E-05-2.85946E-05-2.85642E-05-3.75009E-11-5.80160E-18-1.72466E-19
 -1       129 9.52442E-05-2.85946E-05-2.85642E-05 3.75132E-11 3.45004E-18 1.42934E-18
 -1       130 9.52437E-05-2.85930E-05-2.85647E-05 1.09625E-10 3.39249E-18-1.45642E-18
 -1       131 9.52427E-05-2.85898E-05-2.85656E-05 1.74229E-10-1.63540E-19-3.43588E-19
 -1       132 9.52415E-05-2.85856E-05-2.85668E-05 2.16288E-10 2.98347E-18 1.93395E-18
 -1       133 9.52400E-05-2.85808E-05-2.85682E-05 2.33110E-10 1.04119E-18-7.38362E-19
 -1       134 9.52387E-05-2.85762E-05-2.85696E-05 2.01456E-10 8.80751E-19-7.62977E-21
 -1       135 9.52375E-05-2.85726E-05-2.85706E-05 5.23493E-11 5.88323E-18 1.81971E-18
 -1       136 9.52371E-05-2.85708E-05-2.85712E-05-2.41391E-10 1.23615E-17-1.10814E-18
 -1       137 2.68401E-05-8.95567E-05 1.61593E-05-2.28039E-05 1.35525E-17 3.55722E-18
 -1       138 8.11058E-06-3.22463E-05 2.70190E-06-1.58393E-05 1.82625E-17 8.39304E-18
 -1       139 1.16775E-05 1.82724E-05-1.61648E-05 2.66756E-05 1.64794E-17 1.19737E-17
 -1       140 6.04466E-05 2.98833E-05-3.70209E-05 8.27824E-05 1.37101E-17 1.44610E-17
 -1       141 1.56320E-04-3.94303E-06-5.85570E-05 1.19201E-04 7.35225E-18 1.35415E-17
 -1       142 2.53371E-04-5.79097E-05-7.33439E-05 1.00926E-04 2.77657E-18 7.36749E-18
 -1       143 3.12935E-04-9.50282E-05-8.10209E-05 3.26120E-05-3.72774E-19-2.38980E-18
 -1       144 3.04271E-04-8.95223E-05-7.99485E-05-5.03734E-05 1.78339E-18-1.20035E-17
 -1       145 2.33723E-04-4.66374E-05-7.04301E-05-1.08326E-04 7.00284E-18-1.92027E-17
 -1       146 1.35115E-04 5.48699E-06-5.44832E-05-1.15256E-04 1.40701E-17-2.21347E-17
 -1       147 4.29346E-05 3.06604E-05-3.12522E-05-6.79831E-05 1.94271E-17-1.97867E-17
 -1       148 5.98969E-06 5.43200E-06-9.76058E-06-9.56338E-06 2.04885E-17-1.28760E-17
 -1       149 1.31361E-05-5.20996E-05 7.80011E-06 2.27841E-05 1.64439E-17-6.23702E-18
 -1       150 3.22804E-05-1.03043E-04 1.88583E-05 1.69435E-05 7.30397E-18-1.60953E-18
 -1       151 3.66280E-05-1.16210E-04 2.17438E-05-1.25878E-05-4.58483E-18-6.88664E-19
 -1       152 2.11271E-05-8.10712E-05 1.43984E-05-3.08627E-05-1.46096E-17-4.88807E-18
 -1       153 4.93231E-06-2.52887E-05 1.08017E-07-1.71446E-05-2.16053E-17-1.25511E-17
 -1       154 2.01878E-05 1.79834E-05-2.04376E-05 3.39466E-05-2.24320E-17-1.99006E-17
 -1       155 8.66980E-05 1.92029E-05-4.35213E-05 9.34573E-05-1.77902E-17-2.34594E-17
 -1       156 2.01268E-04-2.62017E-05-6.60430E-05 1.20782E-04-9.45183E-18-1.99785E-17
 -1       157 3.07149E-04-8.33815E-05-8.11949E-05 8.51242E-05-2.94079E-18-1.18733E-17
 -1       158 3.09874E-04-8.57230E-05-8.13960E-05-7.98159E-05-1.84706E-18 8.02437E-18
 -1       159 2.15630E-04-3.48146E-05-6.78503E-05-1.17157E-04-5.43520E-18 1.36631E-17
 -1       160 1.11482E-04 1.02651E-05-4.86879E-05-1.02607E-04-1.12126E-17 1.64892E-17
 -1       161 3.70857E-05 2.14690E-05-2.74843E-05-5.31114E-05-1.68780E-17 1.66840E-17
 -1       162 5.65777E-06-6.62557E-06-6.74550E-06 1.70508E-06-1.98926E-17 1.40540E-17
 -1       163 1.19669E-05-5.73015E-05 9.10669E-06 3.09376E-05-1.63549E-17 7.07008E-18
 -1       164 3.01954E-05-1.03164E-04 1.92435E-05 2.72893E-05-7.88376E-18 2.09895E-18
 -1       165 1.02961E-04-1.47223E-05-3.79711E-05-1.66386E-05-2.52608E-18 6.57351E-19
 -1       166 9.33916E-05-8.89061E-06-3.63486E-05-1.11087E-05-2.37066E-18-2.13287E-18
 -1       167 8.61937E-05-5.08884E-06-3.48582E-05-7.74940E-06-2.01418E-18-3.66514E-18
 -1       168 8.09587E-05-2.73993E-06-3.35949E-05-5.94835E-06-1.48867E-18-4.49931E-18
 -1       169 7.76135E-05-1.47030E-06-3.26880E-05-5.13290E-06-1.05878E-18-4.83403E-18
 -1       170 7.60837E-05-1.12809E-06-3.21710E-05-4.70153E-06-6.94265E-19-5.00502E-18
 -1       171 7.62236E-05-1.53934E-06-3.20523E-05-4.15697E-06-2.71763E-19-4.97905E-18
 -1       172 7.75972E-05-2.42874E-06-3.22617E-05-3.13331E-06 8.80848E-20-4.86330E-18
 -1       173 7.96874E-05-3.51401E-06-3.26976E-05-1.45494E-06 4.82678E-19-4.79291E-18
 -1       174 8.20478E-05-4.58708E-06-3.32574E-05 8.89683E-07 8.17314E-19-4.53469E-18
 -1       175 8.43738E-05-5.54935E-06-3.38536E-05 3.76284E-06 1.21932E-18-4.06195E-18
 -1       176 8.67231E-05-6.50003E-06-3.44712E-05 7.17299E-06 1.78239E-18-3.41373E-18
 -1       177 8.93388E-05-7.68368E-06-3.51167E-05 1.10544E-05 2.30139E-18-2.42983E-18
 -1       178 9.30228E-05-9.74471E-06-3.58614E-05 1.55172E-05 2.59907E-18-6.09811E-19
 -1       179 1.00153E-04-1.48973E-05-3.67498E-05 2.03541E-05 2.54544E-18 2.70926E-18
 -1       180 1.10447E-04-2.76674E-05-3.66813E-05 1.75624E-05 1.93046E-18 7.20534E-18
 -1       181 1.14104E-04-3.06211E-05-3.57562E-05-7.46299E-06-2.19715E-18 3.97727E-18
 -1       182 1.10823E-04-3.21847E-05-3.37206E-05 6.73066E-07-1.79001E-18 2.89545E-18
 -1       183 1.11239E-04-3.25144E-05-3.36819E-05 4.86340E-06-1.35384E-18 2.07431E-18
 -1       184 1.14683E-04-3.37077E-05-3.46725E-05 7.87078E-06-8.70244E-19 1.26400E-18
 -1       185 1.20090E-04-3.56187E-05-3.62025E-05 9.94694E-06-5.27637E-19 9.84874E-19
 -1       186 1.27068E-04-3.85484E-05-3.79536E-05 1.00865E-05 5.79953E-20 1.08521E-18
 -1       187 1.33682E-04-4.21086E-05-3.92564E-05 6.27097E-06 2.96197E-19 1.73526E-18
 -1       188 1.38220E-04-4.54146E-05-3.97635E-05-3.21865E-06 3.81522E-19 2.34389E-18
 -1       189 1.37574E-04-4.53636E-05-3.95790E-05-1.64106E-05-4.20046E-19 2.91051E-18
 -1       190 1.29785E-04-3.85693E-05-3.94701E-05-2.30150E-05-1.10204E-18 1.69137E-18
 -1       191 1.21743E-04-3.03618E-05-3.96730E-05-1.45025E-05-2.69362E-18-1.76858E-19
 -1       192 1.19231E-04-2.74747E-05-3.99417E-05 4.81849E-06-2.96922E-18-2.46988E-18
 -1       193 1.26812E-04-3.50211E-05-3.97863E-05 2.23433E-05-1.65404E-18-4.69633E-18
 -1       194 1.36520E-04-4.38850E-05-3.98600E-05 2.15929E-05-1.38645E-19-5.58118E-18
 -1       195 1.40748E-04-4.66879E-05-4.03109E-05 8.54771E-06 1.13001E-18-4.90627E-18
 -1       196 1.37988E-04-4.41792E-05-4.02034E-05-3.03880E-06 4.80347E-19-5.02707E-18
 -1       197 1.31974E-04-4.05545E-05-3.91998E-05-8.95357E-06 6.13930E-19-4.37368E-18
 -1       198 1.25019E-04-3.74144E-05-3.75663E-05-1.02954E-05 6.51868E-20-3.52729E-18
 -1       199 1.18454E-04-3.50456E-05-3.57553E-05-9.29677E-06 1.59464E-19-3.44215E-18
 -1       200 1.12846E-04-3.33052E-05-3.40850E-05-7.52458E-06-2.08833E-19-2.72508E-18
 -1       201 1.08323E-04-3.20212E-05-3.26907E-05-5.75128E-06 2.71570E-19-2.36372E-18
 -1       202 1.04670E-04-3.10347E-05-3.15456E-05-4.19575E-06 1.19739E-19-2.99539E-18
 -1       203 1.02062E-04-3.03471E-05-3.07242E-05-3.04799E-06-4.15299E-19-3.18319E-18
 -1       204 1.00116E-04-2.98377E-05-3.01105E-05-2.19318E-06-8.27557E-19-3.44406E-18
 -1       205 9.86836E-05-2.94634E-05-2.96588E-05-1.56721E-06-9.22595E-19-4.29711E-18
 -1       206 9.76373E-05-2.91898E-05-2.93293E-05-1.11319E-06-1.39111E-19-4.25591E-18
 -1       207 9.68794E-05-2.89913E-05-2.90909E-05-7.85311E-07 6.27623E-21-3.52858E-18
 -1       208 9.63342E-05-2.88484E-05-2.89196E-05-5.49153E-07 3.85770E-19-3.65986E-18
 -1       209 9.59312E-05-2.87430E-05-2.87927E-05-3.72280E-07 3.66854E-19-3.01432E-18
 -1       210 9.56646E-05-2.86736E-05-2.87089E-05-2.52134E-07 5.54229E-19-1.08352E-18
 -1       211 9.54806E-05-2.86260E-05-2.86508E-05-1.66725E-07 4.94218E-20-1.18872E-18
 -1       212 9.53565E-05-2.85943E-05-2.86116E-05-1.06267E-07 1.06044E-19-1.09218E-18
 -1       213 9.52755E-05-2.85740E-05-2.85858E-05-6.40175E-08-1.10650E-18-1.42478E-18
 -1       214 9.52251E-05-2.85617E-05-2.85696E-05-3.49910E-08-2.41436E-18-3.25193E-18
 -1       215 9.51959E-05-2.85550E-05-2.85601E-05-1.55324E-08-2.23436E-18-5.39334E-18
 -1       216 9.51809E-05-2.85520E-05-2.85550E-05-2.42068E-09 1.57522E-19-4.86994E-18
 -1       217 9.51763E-05-2.85516E-05-2.85533E-05 5.19341E-09 2.86749E-18-5.23726E-18
 -1       218 9.51776E-05-2.85527E-05-2.85535E-05 9.48005E-09 1.68140E-18-4.72910E-18
 -1       219 9.51825E-05-2.85546E-05-2.85548E-05 1.15502E-08-1.88990E-19-2.78916E-18
 -1       220 9.51893E-05-2.85569E-05-2.85567E-05 1.21660E-08 1.83975E-19-3.60516E-18
 -1       221 9.51969E-05-2.85593E-05-2.85590E-05 1.18766E-08-5.43768E-19-1.82618E-18
 -1       222 9.52045E-05-2.85617E-05-2.85612E-05 1.10599E-08 1.63674E-19-1.47784E-18
 -1       223 9.52121E-05-2.85640E-05-2.85635E-05 9.90161E-09-1.82824E-18-2.70837E-18
 -1       224 9.52186E-05-2.85660E-05-2.85654E-05 8.64704E-09-1.59902E-18-2.19440E-18
 -1       225 9.52243E-05-2.85677E-05-2.85672E-05 7.29677E-09 4.34813E-20-2.28287E-18
 -1       226 9.52291E-05-2.85692E-05-2.85686E-05 5.81688E-09 7.99196E-19-1.94358E-18
 -1       227 9.52329E-05-2.85704E-05-2.85697E-05 4.11659E-09-7.30618E-19-2.07111E-18
 -1       228 9.52355E-05-2.85713E-05-2.85704E-05 2.16295E-09-1.09997E-18-2.34287E-18
 -1       229 9.52368E-05-2.85716E-05-2.85708E-05 7.29966E-10 9.05587E-19-1.33456E-18
 -1       230 1.04865E-04-3.02686E-05-3.21463E-05 6.33379E-06 2.10009E-18 6.17979E-18
 -1       231 1.00225E-04-2.96487E-05-3.02107E-05 2.35906E-06 1.36178E-18 4.79532E-18
 -1       232 9.79553E-05-2.93252E-05-2.93674E-05 1.13615E-06 1.02218E-18 3.56232E-18
 -1       233 9.64829E-05-2.90470E-05-2.88763E-05 1.02452E-06 9.67991E-19 2.92610E-18
 -1       234 9.50623E-05-2.86872E-05-2.84341E-05 1.47160E-06 6.15249E-19 2.35325E-18
 -1       235 9.33186E-05-2.81735E-05-2.79125E-05 2.14677E-06 3.29184E-19 1.87721E-18
 -1       236 9.11377E-05-2.74635E-05-2.72848E-05 2.75310E-06 3.32677E-19 1.32927E-18
 -1       237 8.86724E-05-2.66025E-05-2.65993E-05 2.99022E-06 4.73878E-19 9.73276E-19
 -1       238 8.63133E-05-2.57337E-05-2.59629E-05 2.62088E-06 4.31048E-19 6.13775E-19
 -1       239 8.45847E-05-2.50671E-05-2.55091E-05 1.58130E-06 3.15745E-19 2.93338E-19
 -1       240 8.39615E-05-2.48047E-05-2.53542E-05 5.26301E-08 6.81059E-19-8.02180E-20
 -1       241 8.46746E-05-2.50489E-05-2.55530E-05-1.58031E-06 2.48788E-19-2.30396E-19
 -1       242 8.66056E-05-2.57506E-05-2.60771E-05-2.88571E-06 1.65802E-19 3.55919E-20
 -1       243 8.93344E-05-2.67323E-05-2.68242E-05-3.56874E-06 4.59350E-20-2.50745E-19
 -1       244 9.23072E-05-2.77701E-05-2.76539E-05-3.57011E-06-3.85805E-19-3.61878E-19
 -1       245 9.50238E-05-2.86775E-05-2.84314E-05-3.03752E-06-3.21637E-19 1.89092E-19
 -1       246 9.71574E-05-2.93494E-05-2.90606E-05-2.21743E-06 6.20526E-19 1.25722E-19
 -1       247 9.85812E-05-2.97620E-05-2.94962E-05-1.34547E-06 3.34689E-19 9.01632E-20
 -1       248 9.93273E-05-2.99459E-05-2.97384E-05-5.84005E-07 3.42521E-19-3.30024E-19
 -1       249 9.95215E-05-2.99571E-05-2.98171E-05-1.04673E-08 1.10992E-19-1.81981E-19
 -1       250 9.93234E-05-2.98550E-05-2.97754E-05 3.63923E-07-2.78025E-19-7.86295E-19
 -1       251 9.88851E-05-2.96905E-05-2.96573E-05 5.66603E-07 8.13602E-19-5.98119E-19
 -1       252 9.83311E-05-2.95018E-05-2.94998E-05 6.40278E-07-2.85500E-19-3.54575E-19
 -1       253 9.77514E-05-2.93143E-05-2.93309E-05 6.27950E-07-1.71863E-18-9.84963E-20
 -1       254 9.72038E-05-2.91432E-05-2.91690E-05 5.65546E-07 1.01833E-18-5.03006E-19
 -1       255 9.67208E-05-2.89961E-05-2.90246E-05 4.79670E-07 1.17716E-18-1.40835E-18
 -1       256 9.63156E-05-2.88753E-05-2.89025E-05 3.88141E-07 9.48486E-19-1.68211E-18
 -1       257 9.59896E-05-2.87797E-05-2.88037E-05 3.01698E-07-8.17326E-19-2.24593E-18
 -1       258 9.57367E-05-2.87066E-05-2.87266E-05 2.25919E-07-8.05464E-20-2.27258E-18
 -1       259 9.55471E-05-2.86526E-05-2.86685E-05 1.62929E-07-8.63420E-19-6.12689E-19
 -1       260 9.54098E-05-2.86140E-05-2.86263E-05 1.12726E-07 2.82744E-19-3.41219E-20
 -1       261 9.53142E-05-2.85876E-05-2.85967E-05 7.41414E-08 3.52515E-19-1.55069E-18
 -1       262 9.52506E-05-2.85704E-05-2.85769E-05 4.54742E-08-3.13924E-19-1.33844E-18
 -1       263 9.52110E-05-2.85600E-05-2.85645E-05 2.48935E-08 1.07567E-18-1.66949E-18
 -1       264 9.51886E-05-2.85544E-05-2.85573E-05 1.06646E-08 2.35206E-18-2.18794E-18
 -1       265 9.51783E-05-2.85522E-05-2.85539E-05 1.26319E-09-6.87847E-19-3.47774E-18
 -1       266 9.51760E-05-2.85521E-05-2.85530E-05-4.58361E-09-4.52059E-20-3.28112E-18
 -1       267 9.51788E-05-2.85533E-05-2.85537E-05-7.89722E-09 1.80178E-19-3.17544E-18
 -1       268 9.51846E-05-2.85553E-05-2.85554E-05-9.47008E-09 9.91874E-19-3.19168E-18
 -1       269 9.51919E-05-2.85576E-05-2.85575E-05-9.89740E-09 1.73504E-19-3.80923E-18
 -1       270 9.51997E-05-2.85601E-05-2.85598E-05-9.61040E-09 9.44796E-19-3.11867E-18
 -1       271 9.52074E-05-2.85624E-05-2.85621E-05-8.90657E-09-9.32790E-19-2.34320E-18
 -1       272 9.52145E-05-2.85646E-05-2.85643E-05-7.97450E-09 1.16474E-19-2.94301E-18
 -1       273 9.52210E-05-2.85665E-05-2.85662E-05-6.91182E-09 1.09539E-19-3.67544E-18
 -1       274 9.52265E-05-2.85682E-05-2.85678E-05-5.73685E-09-1.33153E-18-2.36798E-18
 -1       275 9.52310E-05-2.85696E-05-2.85692E-05-4.39951E-09 1.50048E-19-2.28628E-18
 -1       276 9.52343E-05-2.85707E-05-2.85701E-05-2.79350E-09 3.79441E-19-2.85633E-18
 -1       277 9.52364E-05-2.85714E-05-2.85707E-05-9.95088E-10-4.20124E-19-1.92947E-18
 -1       278 9.52370E-05-2.85727E-05-2.85704E-05-2.11106E-09-6.20825E-19 1.68973E-18
 -1       279 9.52379E-05-2.85751E-05-2.85698E-05-3.77069E-09-1.91655E-18 2.50096E-18
 -1       280 9.52391E-05-2.85783E-05-2.85689E-05-4.70399E-09-6.99027E-19-8.67892E-19
 -1       281 9.52404E-05-2.85817E-05-2.85680E-05-4.83113E-09-1.22324E-18-3.68211E-19
 -1       282 9.52415E-05-2.85849E-05-2.85671E-05-4.26816E-09-2.59237E-18-3.14839E-18
 -1       283 9.52424E-05-2.85875E-05-2.85664E-05-3.15533E-09-3.81233E-18-2.46931E-18
 -1       284 9.52430E-05-2.85892E-05-2.85659E-05-1.67238E-09-3.75112E-18 1.99408E-18
 -1       285 9.52432E-05-2.85898E-05-2.85657E-05-2.08516E-12-2.27040E-19 5.29674E-18
 -1       286 9.52430E-05-2.85892E-05-2.85659E-05 1.67146E-09-3.82908E-19 4.37409E-19
 -1       287 9.52424E-05-2.85875E-05-2.85664E-05 3.16312E-09 8.19798E-19-1.06187E-18
 -1       288 9.52415E-05-2.85849E-05-2.85671E-05 4.27103E-09 3.34378E-19 2.74324E-19
 -1       289 9.52404E-05-2.85817E-05-2.85680E-05 4.85158E-09 1.76624E-18-8.08013E-19
 -1       290 9.52391E-05-2.85783E-05-2.85689E-05 4.71962E-09 2.39706E-18-8.66457E-19
 -1       291 9.52379E-05-2.85751E-05-2.85698E-05 3.75196E-09 1.35994E-18 1.48769E-18
 -1       292 9.52372E-05-2.85731E-05-2.85703E-05 2.29485E-09 2.91612E-19 3.01372E-18
 -1       293 1.37166E-05-5.13673E-05 1.27246E-05 1.19542E-05 3.00803E-18 5.36754E-18
 -1       294 2.76366E-05-4.32153E-05 4.13211E-06 2.66430E-05 4.75927E-18 4.59108E-18
 -1       295 5.52756E-05-3.60474E-05-9.78575E-06 3.92771E-05 5.96354E-18 3.31148E-18
 -1       296 9.06675E-05-2.83395E-05-2.69506E-05 4.89584E-05 5.90551E-18 5.10486E-18
 -1       297 1.42053E-04-3.54931E-05-4.48156E-05 4.20618E-05 4.44523E-18 2.15210E-18
 -1       298 1.80628E-04-3.15206E-05-6.13896E-05 4.26538E-05 5.28445E-18 1.54287E-18
 -1       299 2.10479E-04-3.58473E-05-7.13352E-05 2.38565E-05 4.65021E-18-9.96534E-19
 -1       300 2.15190E-04-3.53424E-05-7.36998E-05-2.44678E-06 4.75853E-18-4.26133E-18
 -1       301 2.02049E-04-3.37378E-05-6.91136E-05-2.57199E-05 5.94299E-18-6.99639E-18
 -1       302 1.72427E-04-3.08908E-05-5.83876E-05-4.46890E-05 7.10568E-18-8.66642E-18
 -1       303 1.33418E-04-3.66849E-05-4.08402E-05-4.34819E-05 6.29229E-18-7.17649E-18
 -1       304 7.87850E-05-2.96841E-05-2.17364E-05-4.61334E-05 8.16730E-18-8.99443E-18
 -1       305 4.35054E-05-3.77100E-05-4.63866E-06-3.32767E-05 7.05007E-18-7.08527E-18
 -1       306 2.16452E-05-4.52019E-05 7.28439E-06-2.17334E-05 3.69899E-18-6.12214E-18
 -1       307 1.03155E-05-4.69060E-05 1.27565E-05-7.75080E-06 1.58025E-19-6.06105E-18
 -1       308 1.51758E-05-4.31931E-05 9.68409E-06 1.20417E-05-2.62623E-18-6.23099E-18
 -1       309 3.41626E-05-4.61601E-05 2.03286E-06 2.09710E-05-6.72798E-18-7.96624E-18
 -1       310 6.64832E-05-4.08197E-05-1.30711E-05 3.44910E-05-8.68738E-18-9.07162E-18
 -1       311 1.15416E-04-4.17407E-05-3.20145E-05 4.18249E-05-8.35619E-18-8.33480E-18
 -1       312 1.65117E-04-4.06808E-05-5.16805E-05 4.15190E-05-8.20500E-18-8.21283E-18
 -1       313 2.09564E-04-4.28609E-05-6.76949E-05 2.89390E-05-6.87394E-18-7.21693E-18
 -1       314 2.28725E-04-4.07260E-05-7.59336E-05 9.32089E-06-5.60164E-18-4.24914E-18
 -1       315 2.28294E-04-4.07863E-05-7.58086E-05-6.71770E-06-5.27278E-18-1.18256E-18
 -1       316 2.11597E-04-4.33876E-05-6.83565E-05-2.50413E-05-4.61495E-18 2.28148E-18
 -1       317 1.74082E-04-4.21260E-05-5.45387E-05-3.73308E-05-5.53615E-18 4.46513E-18
 -1       318 1.27936E-04-4.06922E-05-3.73176E-05-4.15988E-05-6.76250E-18 5.40089E-18
 -1       319 8.77745E-05-4.54152E-05-1.94986E-05-3.72768E-05-5.97582E-18 4.79092E-18
 -1       320 4.62699E-05-4.46403E-05-3.33279E-06-2.63574E-05-5.32784E-18 6.26286E-18
 -1       321 2.32337E-05-4.83177E-05 7.66819E-06-1.48239E-05-3.81821E-18 6.18218E-18
 -1       322 1.09838E-05-4.82061E-05 1.29226E-05-1.53574E-06-4.85985E-19 6.79511E-18
 -1       323 9.28757E-05-1.28685E-05-3.43420E-05-5.83086E-06-2.43574E-18-2.07879E-18
 -1       324 1.02387E-04-2.03606E-05-3.51981E-05-7.37085E-06-2.65838E-18-4.77614E-19
 -1       325 8.00969E-05-4.66838E-06-3.23619E-05-4.64753E-06-1.60789E-18-3.70869E-18
 -1       326 7.72908E-05-3.28597E-06-3.17419E-05-4.92164E-06-1.13596E-18-3.99696E-18
 -1       327 7.68322E-05-3.44109E-06-3.14765E-05-5.08986E-06-6.53404E-19-3.99265E-18
 -1       328 7.82166E-05-4.69349E-06-3.15359E-05-4.64490E-06-1.95359E-19-3.88030E-18
 -1       329 8.07334E-05-6.51726E-06-3.18390E-05-3.34433E-06 2.81196E-19-3.69188E-18
 -1       330 8.37058E-05-8.46654E-06-3.22855E-05-1.20431E-06 7.07115E-19-3.58830E-18
 -1       331 8.66271E-05-1.02681E-05-3.27745E-05 1.53167E-06 1.22103E-18-3.33146E-18
 -1       332 8.94470E-05-1.19936E-05-3.32544E-05 4.70506E-06 1.81775E-18-2.67372E-18
 -1       333 9.22882E-05-1.38964E-05-3.36711E-05 8.00974E-06 2.36915E-18-1.97392E-18
 -1       334 9.56973E-05-1.66301E-05-3.39759E-05 1.10633E-05 2.78512E-18-8.76553E-19
 -1       335 1.00414E-04-2.13864E-05-3.39802E-05 1.27008E-05 2.88007E-18 1.24995E-18
 -1       336 1.03725E-04-2.62214E-05-3.33051E-05 1.05783E-05 2.60717E-18 3.26601E-18
 -1       337 1.01622E-04-2.87631E-05-3.12018E-05 5.06276E-06 1.83420E-18 2.47961E-18
 -1       338 1.05849E-04-2.74511E-05-3.35415E-05 2.90322E-06-1.88660E-18-1.97154E-20
 -1       339 1.06352E-04-2.86713E-05-3.32569E-05 8.76717E-06-1.43464E-18-3.06652E-20
 -1       340 1.08134E-04-3.00631E-05-3.34422E-05 1.32326E-05-7.10585E-19-7.84713E-20
 -1       341 1.11911E-04-3.30533E-05-3.38004E-05 1.61986E-05-2.04347E-20 3.00907E-19
 -1       342 1.18208E-04-3.86433E-05-3.41195E-05 1.59022E-05 5.49731E-19 5.74255E-19
 -1       343 1.28190E-04-4.74732E-05-3.46214E-05 1.00747E-05 8.79525E-19 9.46481E-19
 -1       344 1.40993E-04-5.62805E-05-3.63836E-05-3.43660E-06 6.95659E-19 1.51739E-18
 -1       345 1.49972E-04-5.38195E-05-4.15984E-05-2.00836E-05-1.26082E-18 1.94455E-18
 -1       346 1.37089E-04-2.19404E-05-5.02300E-05-6.80612E-06-4.74466E-18-1.38406E-18
 -1       347 1.39444E-04-2.75779E-05-4.86932E-05 2.05334E-05-4.01420E-18-3.60839E-18
 -1       348 1.48650E-04-4.67536E-05-4.40905E-05 2.62615E-05-1.57117E-18-5.40611E-18
 -1       349 1.45069E-04-5.61392E-05-3.82819E-05 1.20886E-05 6.40350E-19-5.93550E-18
 -1       350 1.34410E-04-5.05255E-05-3.59926E-05-3.98294E-06 1.06853E-18-6.10926E-18
 -1       351 1.24041E-04-4.19625E-05-3.51991E-05-1.30797E-05 1.02334E-18-4.51190E-18
 -1       352 1.16477E-04-3.57232E-05-3.46282E-05-1.58050E-05 5.16229E-19-3.88102E-18
 -1       353 1.11303E-04-3.22746E-05-3.38742E-05-1.49089E-05 7.31008E-19-2.58307E-18
 -1       354 1.07597E-04-3.05890E-05-3.29956E-05-1.25654E-05-1.51126E-21-2.40601E-18
 -1       355 1.04774E-04-2.97924E-05-3.21221E-05-9.95529E-06 2.35876E-19-2.35995E-18
 -1       356 1.02463E-04-2.93886E-05-3.13038E-05-7.50244E-06-5.83631E-19-3.00387E-18
 -1       357 1.00730E-04-2.91715E-05-3.06561E-05-5.60482E-06-5.96545E-19-4.05588E-18
 -1       358 9.93593E-05-2.90234E-05-3.01346E-05-4.13070E-06-1.85677E-20-4.10622E-18
 -1       359 9.82894E-05-2.89099E-05-2.97269E-05-3.01654E-06-9.83146E-19-2.66381E-18
 -1       360 9.74647E-05-2.88189E-05-2.94143E-05-2.18686E-06-5.75816E-19-1.61907E-18
 -1       361 9.68368E-05-2.87459E-05-2.91779E-05-1.57414E-06 2.73503E-19-2.28570E-18
 -1       362 9.63638E-05-2.86880E-05-2.90011E-05-1.12379E-06 1.58941E-19-1.92371E-18
 -1       363 9.59986E-05-2.86426E-05-2.88648E-05-7.80237E-07 8.56711E-19-2.98776E-18
 -1       364 9.57462E-05-2.86108E-05-2.87709E-05-5.43557E-07 1.57241E-18-1.99177E-18
 -1       365 9.55640E-05-2.85883E-05-2.87029E-05-3.71723E-07 9.88748E-19-1.33034E-18
 -1       366 9.54350E-05-2.85730E-05-2.86544E-05-2.47887E-07-4.14678E-19-9.70267E-19
 -1       367 9.53457E-05-2.85634E-05-2.86205E-05-1.59497E-07-5.29682E-19-2.26799E-18
 -1       368 9.52857E-05-2.85579E-05-2.85973E-05-9.72304E-08-2.40671E-18-1.78829E-18
 -1       369 9.52468E-05-2.85553E-05-2.85818E-05-5.41414E-08-4.30664E-18-2.57595E-18
 -1       370 9.52222E-05-2.85547E-05-2.85716E-05-2.38576E-08-5.32748E-20-2.41140E-18
 -1       371 9.52095E-05-2.85554E-05-2.85659E-05-5.24307E-09 1.22690E-18-2.27883E-18
 -1       372 9.52038E-05-2.85569E-05-2.85629E-05 6.33530E-09 1.50772E-18-4.49645E-18
 -1       373 9.52027E-05-2.85587E-05-2.85617E-05 1.30043E-08 6.77326E-19-5.95043E-18
 -1       374 9.52045E-05-2.85607E-05-2.85616E-05 1.63333E-08 4.11108E-19-4.33470E-18
 -1       375 9.52080E-05-2.85626E-05-2.85623E-05 1.74618E-08 1.90947E-19-3.71726E-18
 -1       376 9.52123E-05-2.85644E-05-2.85634E-05 1.71975E-08-1.38015E-19-3.65146E-18
 -1       377 9.52170E-05-2.85661E-05-2.85647E-05 1.60264E-08-7.30554E-20-3.05806E-18
 -1       378 9.52215E-05-2.85676E-05-2.85660E-05 1.44211E-08-7.20599E-19-7.77989E-19
 -1       379 9.52256E-05-2.85689E-05-2.85672E-05 1.25354E-08-6.57360E-19 1.15829E-18
 -1       380 9.52292E-05-2.85701E-05-2.85682E-05 1.04310E-08 6.52912E-19 8.03392E-19
 -1       381 9.52324E-05-2.85713E-05-2.85691E-05 8.08036E-09 3.48903E-19 1.01204E-18
 -1       382 9.52350E-05-2.85723E-05-2.85697E-05 5.44948E-09-1.12847E-18 2.49273E-18
 -1       383 9.94978E-05-2.96820E-05-2.99057E-05 2.68650E-06 1.34519E-18 1.23853E-18
 -1       384 9.84844E-05-2.99860E-05-2.93534E-05 2.70750E-06 1.03024E-18 1.09148E-18
 -1       385 9.74017E-05-2.99108E-05-2.89272E-05 3.50318E-06 8.36483E-19 9.23407E-19
 -1       386 9.60578E-05-2.94444E-05-2.85509E-05 4.52878E-06 5.78400E-19 8.68461E-19
 -1       387 9.43687E-05-2.85481E-05-2.82076E-05 5.23051E-06 4.56881E-19 5.43886E-19
 -1       388 9.24751E-05-2.73299E-05-2.79130E-05 5.08851E-06 4.78946E-19 6.82146E-19
 -1       389 9.07439E-05-2.60892E-05-2.76982E-05 3.79155E-06 6.64032E-19 7.79578E-19
 -1       390 8.96580E-05-2.52425E-05-2.75927E-05 1.42785E-06 6.50058E-19 3.27828E-19
 -1       391 8.95948E-05-2.51278E-05-2.76144E-05-1.46876E-06 5.85765E-19 9.81230E-20
 -1       392 9.06195E-05-2.58108E-05-2.77631E-05-4.11709E-06 2.62403E-19-1.25332E-19
 -1       393 9.24397E-05-2.70429E-05-2.80197E-05-5.83977E-06 8.62993E-20-3.50268E-19
 -1       394 9.45584E-05-2.84114E-05-2.83471E-05-6.34270E-06-2.75686E-19-8.88380E-20
 -1       395 9.65026E-05-2.95533E-05-2.86962E-05-5.75628E-06-3.66567E-19-7.35107E-19
 -1       396 9.79745E-05-3.02827E-05-2.90181E-05-4.47425E-06 1.61854E-19-1.01110E-18
 -1       397 9.88784E-05-3.05921E-05-2.92744E-05-2.93922E-06 4.63281E-19-6.96334E-19
 -1       398 9.92633E-05-3.05794E-05-2.94445E-05-1.49457E-06-2.66102E-19 7.76556E-20
 -1       399 9.92479E-05-3.03709E-05-2.95258E-05-3.34721E-07 3.80075E-19 6.06930E-19
 -1       400 9.89647E-05-3.00746E-05-2.95294E-05 4.76953E-07 2.75276E-19 9.32781E-19
 -1       401 9.85292E-05-2.97638E-05-2.94740E-05 9.63054E-07 8.76091E-19 5.29643E-19
 -1       402 9.80295E-05-2.94796E-05-2.93800E-05 1.18811E-06-1.47211E-19 1.17336E-18
 -1       403 9.75264E-05-2.92396E-05-2.92661E-05 1.22732E-06-1.32230E-18 1.93817E-18
 -1       404 9.70580E-05-2.90476E-05-2.91469E-05 1.14893E-06-2.20774E-19 1.65140E-19
 -1       405 9.66449E-05-2.88997E-05-2.90328E-05 1.00689E-06 1.15591E-18 9.93821E-19
 -1       406 9.62952E-05-2.87895E-05-2.89300E-05 8.39729E-07 1.61521E-18 6.99645E-19
 -1       407 9.60092E-05-2.87094E-05-2.88417E-05 6.72410E-07 7.01982E-19 5.73218E-19
 -1       408 9.57822E-05-2.86529E-05-2.87688E-05 5.19411E-07-9.60811E-19-2.20044E-19
 -1       409 9.56070E-05-2.86141E-05-2.87104E-05 3.87728E-07-1.29266E-18-1.20330E-20
 -1       410 9.54755E-05-2.85883E-05-2.86653E-05 2.79436E-07-4.54446E-19-1.86743E-19
 -1       411 9.53795E-05-2.85720E-05-2.86313E-05 1.93649E-07 1.18601E-18-9.02881E-21
 -1       412 9.53117E-05-2.85623E-05-2.86065E-05 1.27903E-07 3.06986E-19 1.68391E-19
 -1       413 9.52655E-05-2.85571E-05-2.85890E-05 7.90800E-08 1.29743E-18-7.39465E-19
 -1       414 9.52356E-05-2.85550E-05-2.85772E-05 4.39753E-08 1.73510E-18-6.29419E-19
 -1       415 9.52176E-05-2.85549E-05-2.85696E-05 1.96184E-08 9.92443E-19 8.70586E-19
 -1       416 9.52081E-05-2.85559E-05-2.85651E-05 3.42666E-09 2.84939E-19-4.26075E-19
 -1       417 9.52043E-05-2.85575E-05-2.85629E-05-6.74373E-09 5.00946E-19-9.07234E-19
 -1       418 9.52043E-05-2.85594E-05-2.85621E-05-1.26085E-08 6.03369E-19-2.62602E-18
 -1       419 9.52067E-05-2.85614E-05-2.85623E-05-1.54968E-08 5.25836E-19-2.19306E-18
 -1       420 9.52104E-05-2.85633E-05-2.85630E-05-1.64053E-08-9.20517E-19-6.79481E-19
 -1       421 9.52147E-05-2.85651E-05-2.85641E-05-1.60539E-08-6.97530E-19 4.93603E-20
 -1       422 9.52191E-05-2.85667E-05-2.85653E-05-1.49358E-08 4.13895E-19-8.47762E-19
 -1       423 9.52234E-05-2.85681E-05-2.85665E-05-1.33596E-08 2.51713E-19-9.47385E-19
 -1       424 9.52272E-05-2.85694E-05-2.85677E-05-1.14830E-08-1.11679E-18 1.02695E-18
 -1       425 9.52307E-05-2.85706E-05-2.85686E-05-9.35015E-09-1.05090E-18-4.74797E-19
 -1       426 9.52336E-05-2.85717E-05-2.85694E-05-6.95962E-09-5.43928E-19 9.15808E-19
 -1       427 9.52355E-05-2.85724E-05-2.85699E-05-4.55810E-09-3.70505E-19 1.30978E-18
 -1       428 9.52394E-05-2.85790E-05-2.85687E-05-8.23851E-09-1.34359E-18-2.28104E-18
 -1       429 9.52377E-05-2.85761E-05-2.85693E-05-7.63719E-09-5.69187E-19 1.65567E-18
 -1       430 9.52410E-05-2.85817E-05-2.85682E-05-7.76467E-09-3.17966E-18-3.39994E-18
 -1       431 9.52422E-05-2.85841E-05-2.85678E-05-6.29908E-09-1.46011E-18-2.83755E-18
 -1       432 9.52432E-05-2.85857E-05-2.85675E-05-4.08951E-09-4.17560E-19 1.01457E-18
 -1       433 9.52436E-05-2.85866E-05-2.85673E-05-1.42113E-09-1.13594E-18 4.64232E-18
 -1       434 9.52436E-05-2.85867E-05-2.85673E-05 1.40572E-09-2.11928E-18 4.56283E-18
 -1       435 9.52432E-05-2.85858E-05-2.85674E-05 4.08604E-09-7.00158E-19-8.38662E-19
 -1       436 9.52423E-05-2.85841E-05-2.85678E-05 6.28200E-09-2.98530E-19-3.15435E-19
 -1       437 9.52410E-05-2.85818E-05-2.85682E-05 7.77566E-09 5.92611E-19 2.98875E-18
 -1       438 9.52394E-05-2.85790E-05-2.85687E-05 8.26733E-09 1.82104E-18-1.64395E-19
 -1       439 9.52377E-05-2.85761E-05-2.85692E-05 7.55070E-09 1.01608E-18-1.14257E-18
 -1       440 1.00302E-04-2.92597E-05-3.04165E-05 3.35490E-06 1.70300E-18 1.77911E-18
 -1       441 6.11504E-05-4.11921E-05-8.50286E-06 4.84231E-05-1.93018E-19 1.11655E-18
 -1       442 1.31080E-04-5.35672E-05-3.32845E-05 3.25302E-05 1.26409E-18-7.92505E-19
 -1       443 1.20100E-05-2.11579E-05 3.92738E-06 9.37152E-06 9.45236E-20 6.38292E-18
 -1       444 1.01262E-04-5.20656E-05-2.10790E-05 4.54663E-05 7.89329E-19 6.87367E-19
 -1       445 8.53546E-05-7.81206E-06-3.32831E-05-4.92521E-06-2.10621E-18-3.12200E-18
 -1       446 1.53947E-04-3.89266E-05-4.94096E-05 7.58735E-06 3.48467E-18-2.50446E-18
 -1       447 1.60080E-04-2.41784E-05-5.82692E-05 1.69890E-06 5.01147E-18-2.39657E-18
 -1       448 1.63487E-04-1.29023E-05-6.43881E-05-1.23892E-08 5.15960E-18-2.16179E-18
 -1       449 1.62522E-04-1.40493E-05-6.35305E-05 7.67310E-07 5.57602E-18-1.68475E-18
 -1       450 1.58896E-04-2.76598E-05-5.63148E-05-1.47680E-06 5.01576E-18-1.00850E-18
 -1       451 1.51540E-04-4.39223E-05-4.62672E-05-1.11646E-05 3.15401E-18-1.29564E-18
 -1       452 1.23891E-04-5.44717E-05-2.97437E-05-3.65142E-05 1.41804E-18-3.04297E-18
 -1       453 8.51433E-05-4.81337E-05-1.60260E-05-4.75397E-05 1.53038E-18-4.63470E-18
 -1       454 5.00470E-05-3.64543E-05-5.78927E-06-4.56845E-05 1.48548E-19-5.46463E-18
 -1       455 1.88349E-05-2.47606E-05 2.42485E-06-2.57218E-05-4.66927E-20-6.87441E-18
 -1       456 1.42072E-05-1.79428E-05 1.93577E-06 3.22620E-06-5.08087E-20-6.64624E-18
 -1       457 3.76241E-05-3.48662E-05-1.47014E-06 3.26802E-05-8.15269E-19-6.08085E-18
 -1       458 7.27649E-05-4.95705E-05-1.03792E-05 4.07713E-05-1.03433E-18-5.26010E-18
 -1       459 1.17643E-04-6.16574E-05-2.42886E-05 3.49981E-05-1.81964E-18-2.91120E-18
 -1       460 1.57702E-04-6.31192E-05-4.05138E-05 1.27419E-05-3.22900E-18-9.78111E-19
 -1       461 1.74701E-04-4.87375E-05-5.36986E-05-4.23906E-06-4.89874E-18-1.19326E-18
 -1       462 1.77104E-04-2.90161E-05-6.29413E-05-8.88617E-06-5.96428E-18-1.70476E-18
 -1       463 1.71163E-04-1.91540E-05-6.47929E-05 1.04446E-06-6.00038E-18-2.41655E-18
 -1       464 1.78035E-04-2.97587E-05-6.30761E-05 9.90505E-06-5.47935E-18-2.75265E-18
 -1       465 1.74991E-04-4.54244E-05-5.50885E-05 6.56672E-06-3.89482E-18-1.29533E-18
 -1       466 1.61160E-04-6.08126E-05-4.31144E-05-8.81117E-06-2.80463E-18-8.25645E-19
 -1       467 1.33706E-04-6.40154E-05-3.00552E-05-2.63333E-05-2.07512E-18-4.99432E-19
 -1       468 9.24483E-05-5.63032E-05-1.55947E-05-3.92399E-05 7.92399E-19 1.61628E-18
 -1       469 5.70863E-05-4.17047E-05-6.51740E-06-3.87923E-05 3.78941E-19 2.93216E-18
 -1       470 2.20028E-05-2.80259E-05 2.45606E-06-2.03408E-05 2.20017E-19 7.06754E-18
 -1       471 2.41479E-05-2.75918E-05 1.40080E-06 3.17331E-05-1.53789E-19 5.03423E-18
 -1       472 1.44861E-04-5.17625E-05-4.00485E-05 9.84049E-06 5.98508E-19-3.05435E-18
 -1       473 1.42239E-04-3.22977E-05-4.75875E-05-2.26927E-05-3.56183E-18 4.66477E-19
 -1       474 9.52363E-05-2.85741E-05-2.85695E-05 6.77951E-09-6.49438E-19-1.15548E-18
 -1       475 3.06400E-05-1.82497E-05-4.74349E-06 2.17811E-05 6.74079E-19-6.32045E-18
 -1       476 1.42062E-04-5.64111E-05-3.68359E-05-1.49371E-05 6.12895E-19-4.38710E-19
 -1       477 7.70173E-05-5.40976E-06-3.06978E-05-5.53880E-06-9.35981E-19-3.62038E-18
 -1       478 7.83947E-05-5.90838E-06-3.10750E-05-3.90877E-06-1.30971E-18-3.54493E-18
 -1       479 8.12047E-05-9.10801E-06-3.09100E-05-5.80420E-06-1.84028E-19-3.41231E-18
 -1       480 8.48630E-05-1.18225E-05-3.13175E-05-4.03519E-06 2.77271E-19-3.25455E-18
 -1       481 8.84210E-05-1.43320E-05-3.17706E-05-1.39392E-06 8.33341E-19-3.11009E-18
 -1       482 9.16423E-05-1.65754E-05-3.21934E-05 1.72953E-06 1.35998E-18-2.55565E-18
 -1       483 9.44838E-05-1.86939E-05-3.25073E-05 4.79189E-06 1.81619E-18-1.89124E-18
 -1       484 9.72244E-05-2.11054E-05-3.26470E-05 7.25652E-06 2.33766E-18-1.19515E-18
 -1       485 9.99596E-05-2.42427E-05-3.24682E-05 8.26738E-06 2.54315E-18 1.18717E-20
 -1       486 1.01315E-04-2.67920E-05-3.19317E-05 7.08668E-06 2.26755E-18 9.96663E-19
 -1       487 1.54994E-04-6.41589E-05-3.92760E-05 8.55130E-06-2.45401E-19-4.72173E-18
 -1       488 9.78478E-05-2.19236E-05-3.25238E-05 5.65336E-06-1.57650E-18-1.38437E-18
 -1       489 9.80948E-05-5.14360E-05-1.95940E-05 4.42939E-05-2.16205E-18-1.50829E-18
 -1       490 9.74311E-05-2.32919E-05-3.17611E-05 1.15258E-05-1.05472E-18-1.25379E-18
 -1       491 9.76498E-05-2.53954E-05-3.09534E-05 1.69193E-05-1.54686E-19-1.01810E-18
 -1       492 1.00097E-04-3.01138E-05-2.99659E-05 2.11696E-05 4.85201E-19-7.86275E-19
 -1       493 1.07552E-04-3.99205E-05-2.88812E-05 2.33685E-05 1.08566E-18-3.94300E-19
 -1       494 1.23218E-04-5.54569E-05-2.89392E-05 2.04700E-05 1.51672E-18 5.48265E-19
 -1       495 1.49541E-04-6.71052E-05-3.54088E-05 3.27669E-06 2.30446E-19 1.35721E-18
 -1       496 1.33848E-04-6.09201E-05-3.12438E-05-1.17696E-05 9.25092E-19-4.61094E-18
 -1       497 1.16054E-04-4.60335E-05-2.98771E-05-1.99374E-05 2.07879E-18-2.99942E-18
 -1       498 1.05699E-04-3.47443E-05-3.03845E-05-2.11103E-05 1.48843E-18-1.97939E-18
 -1       499 1.01019E-04-2.89138E-05-3.08976E-05-1.90823E-05 1.24155E-18-1.96660E-18
 -1       500 9.91671E-05-2.66800E-05-3.10595E-05-1.60908E-05 4.05571E-19-1.95545E-18
 -1       501 9.84371E-05-2.62323E-05-3.09376E-05-1.29828E-05 2.46810E-19-1.83059E-18
 -1       502 9.80324E-05-2.65232E-05-3.06388E-05-1.00510E-05-2.11288E-19-1.97175E-18
 -1       503 9.76978E-05-2.69820E-05-3.02997E-05-7.71726E-06-9.72366E-19-2.17074E-18
 -1       504 9.73415E-05-2.74073E-05-2.99662E-05-5.84102E-06-9.74949E-19-2.92811E-18
 -1       505 9.69793E-05-2.77426E-05-2.96687E-05-4.37374E-06 9.64000E-19-3.31683E-18
 -1       506 9.66353E-05-2.79869E-05-2.94176E-05-3.24617E-06 4.38114E-19-2.01088E-18
 -1       507 9.63276E-05-2.81583E-05-2.92131E-05-2.38958E-06-7.08318E-19-9.79386E-19
 -1       508 9.60645E-05-2.82759E-05-2.90506E-05-1.74362E-06-3.65036E-19-1.54431E-18
 -1       509 9.58397E-05-2.83605E-05-2.89185E-05-1.23953E-06-1.94600E-19-1.12496E-18
 -1       510 9.56707E-05-2.84158E-05-2.88227E-05-8.84671E-07 1.38559E-18-2.20988E-18
 -1       511 9.55397E-05-2.84548E-05-2.87501E-05-6.21831E-07 1.27829E-18-1.81839E-18
 -1       512 9.54408E-05-2.84831E-05-2.86957E-05-4.28613E-07-1.96338E-20-2.58294E-18
 -1       513 9.53679E-05-2.85040E-05-2.86557E-05-2.87866E-07-5.82026E-19-2.06681E-18
 -1       514 9.53155E-05-2.85198E-05-2.86265E-05-1.86506E-07-9.94430E-19-2.93428E-18
 -1       515 9.52790E-05-2.85320E-05-2.86057E-05-1.14542E-07-3.80857E-18-2.92135E-18
 -1       516 9.52534E-05-2.85419E-05-2.85906E-05-6.24080E-08-1.61761E-18-1.40428E-18
 -1       517 9.52380E-05-2.85492E-05-2.85809E-05-2.90414E-08 8.07742E-19-1.84549E-18
 -1       518 9.52287E-05-2.85549E-05-2.85745E-05-7.12349E-09 1.00898E-19-1.31536E-18
 -1       519 9.52238E-05-2.85593E-05-2.85705E-05 6.60853E-09 1.73475E-18-1.88835E-18
 -1       520 9.52218E-05-2.85627E-05-2.85682E-05 1.45990E-08 1.67860E-19-1.89909E-18
 -1       521 9.52218E-05-2.85653E-05-2.85671E-05 1.86628E-08 7.00729E-19-1.27443E-18
 -1       522 9.52230E-05-2.85673E-05-2.85667E-05 2.01205E-08-7.66925E-19-1.12266E-18
 -1       523 9.52249E-05-2.85689E-05-2.85668E-05 1.98673E-08 1.96546E-19-1.00804E-18
 -1       524 9.52270E-05-2.85701E-05-2.85673E-05 1.85844E-08-4.27814E-19-2.02627E-18
 -1       525 9.52293E-05-2.85711E-05-2.85678E-05 1.66970E-08 6.44887E-19-1.22897E-18
 -1       526 9.52314E-05-2.85720E-05-2.85683E-05 1.44296E-08 8.72530E-19-7.59863E-19
 -1       527 9.52335E-05-2.85729E-05-2.85688E-05 1.18671E-08-4.41288E-19 9.00700E-19
 -1       528 9.52349E-05-2.85735E-05-2.85692E-05 9.43417E-09 4.49765E-19-1.05650E-18
 -1       529 1.00400E-04-3.15361E-05-2.95145E-05 5.11708E-06 8.59678E-19 2.52917E-19
 -1       530 1.00789E-04-3.13518E-05-2.97596E-05 3.95993E-06 9.16057E-19 4.81804E-19
 -1       531 1.00876E-04-3.04198E-05-3.01967E-05 3.56458E-06 1.08127E-18 7.04069E-20
 -1       532 9.94985E-05-3.08503E-05-2.94206E-05 6.36853E-06 5.26573E-19 1.23345E-19
 -1       533 9.80037E-05-2.92866E-05-2.94476E-05 6.95110E-06 5.14837E-19 1.64969E-19
 -1       534 9.61388E-05-2.71723E-05-2.95524E-05 6.17616E-06 4.84536E-19 1.77538E-19
 -1       535 9.44643E-05-2.52138E-05-2.96736E-05 3.75553E-06 8.75322E-19 4.01649E-19
 -1       536 9.36576E-05-2.42393E-05-2.97455E-05 9.17747E-08 1.04570E-18 2.65820E-19
 -1       537 9.40932E-05-2.47094E-05-2.97304E-05-3.79339E-06 5.41601E-19 2.04407E-20
 -1       538 9.55890E-05-2.64227E-05-2.96374E-05-6.74092E-06 3.38714E-19 1.70785E-19
 -1       539 9.75142E-05-2.86459E-05-2.95121E-05-8.04888E-06 4.20851E-20-2.96693E-19
 -1       540 9.91978E-05-3.05938E-05-2.94016E-05-7.70879E-06 2.43521E-19-1.11942E-18
 -1       541 1.00240E-04-3.18012E-05-2.93333E-05-6.21754E-06 1.77068E-20-1.20584E-18
 -1       542 1.00579E-04-3.22024E-05-2.93078E-05-4.22419E-06 1.05651E-19-1.39699E-18
 -1       543 1.00366E-04-3.19912E-05-2.93076E-05-2.25736E-06-2.70748E-19-8.72578E-19
 -1       544 9.98209E-05-3.14370E-05-2.93111E-05-6.29132E-07-5.81426E-19-3.74133E-19
 -1       545 9.91343E-05-3.07692E-05-2.93021E-05 5.43897E-07-1.83562E-19 1.71634E-19
 -1       546 9.84344E-05-3.01356E-05-2.92728E-05 1.27476E-06 4.69191E-19 7.69967E-19
 -1       547 9.77918E-05-2.96078E-05-2.92228E-05 1.64128E-06-3.39456E-19 1.68171E-18
 -1       548 9.72367E-05-2.92058E-05-2.91565E-05 1.74085E-06-7.61049E-19 1.60996E-18
 -1       549 9.67752E-05-2.89203E-05-2.90806E-05 1.66503E-06-3.34163E-19 2.72163E-19
 -1       550 9.64014E-05-2.87303E-05-2.90016E-05 1.48839E-06 1.99269E-19 4.95385E-19
 -1       551 9.61043E-05-2.86119E-05-2.89249E-05 1.26580E-06 1.36890E-18 5.83563E-19
 -1       552 9.58720E-05-2.85442E-05-2.88543E-05 1.03428E-06 1.02070E-18 8.61709E-19
 -1       553 9.56927E-05-2.85103E-05-2.87920E-05 8.16460E-07 6.26800E-19 1.03045E-18
 -1       554 9.55564E-05-2.84977E-05-2.87390E-05 6.24370E-07-1.10120E-18 2.30241E-19
 -1       555 9.54544E-05-2.84976E-05-2.86954E-05 4.62798E-07-6.56451E-19-1.11414E-19
 -1       556 9.53792E-05-2.85042E-05-2.86604E-05 3.31927E-07-2.31900E-19-5.79686E-19
 -1       557 9.53248E-05-2.85137E-05-2.86331E-05 2.29303E-07 5.43407E-19 1.13177E-19
 -1       558 9.52865E-05-2.85239E-05-2.86124E-05 1.51187E-07 1.83948E-18-1.66768E-19
 -1       559 9.52603E-05-2.85336E-05-2.85970E-05 9.34294E-08 1.59230E-18-8.68249E-19
 -1       560 9.52430E-05-2.85421E-05-2.85860E-05 5.20053E-08 7.95980E-19-1.47828E-18
 -1       561 9.52322E-05-2.85492E-05-2.85784E-05 2.32919E-08 2.12051E-19 2.94452E-19
 -1       562 9.52261E-05-2.85550E-05-2.85733E-05 4.19530E-09 2.10177E-19 4.86174E-19
 -1       563 9.52232E-05-2.85596E-05-2.85701E-05-7.82468E-09 1.77674E-18 3.24080E-19
 -1       564 9.52224E-05-2.85632E-05-2.85682E-05-1.47861E-08-6.83895E-19 1.12625E-18
 -1       565 9.52231E-05-2.85659E-05-2.85674E-05-1.82437E-08-1.59588E-18 1.26419E-18
 -1       566 9.52245E-05-2.85679E-05-2.85671E-05-1.93581E-08-9.33030E-19 1.15253E-18
 -1       567 9.52264E-05-2.85694E-05-2.85673E-05-1.89632E-08-4.54435E-19 1.17476E-19
 -1       568 9.52285E-05-2.85706E-05-2.85677E-05-1.76266E-08 8.24689E-19-7.08749E-19
 -1       569 9.52306E-05-2.85716E-05-2.85682E-05-1.57049E-08-1.86511E-18-1.03124E-18
 -1       570 9.52326E-05-2.85725E-05-2.85686E-05-1.33889E-08-6.39005E-19-1.62393E-19
 -1       571 9.52346E-05-2.85735E-05-2.85690E-05-1.07550E-08-6.48786E-19 1.31696E-18
 -1       572 9.52424E-05-2.85818E-05-2.85688E-05-9.32879E-09-7.59086E-19-1.43671E-18
 -1       573 9.52403E-05-2.85794E-05-2.85689E-05-1.07220E-08-3.42054E-18-4.08345E-18
 -1       574 9.52378E-05-2.85767E-05-2.85691E-05-1.08195E-08-1.00237E-18-2.10859E-18
 -1       575 5.09372E-05-2.80373E-05-9.30122E-06 4.21306E-05-1.98354E-18 1.51714E-18
 -1       576 9.52439E-05-2.85836E-05-2.85687E-05-6.85428E-09 1.36381E-18-2.46933E-20
 -1       577 9.52449E-05-2.85847E-05-2.85686E-05-3.63065E-09-2.75142E-19 2.13993E-18
 -1       578 9.52452E-05-2.85851E-05-2.85686E-05-2.30864E-11-7.60725E-19 4.28128E-18
 -1       579 9.52449E-05-2.85848E-05-2.85686E-05 3.59562E-09-1.24063E-18 3.45236E-18
 -1       580 9.52440E-05-2.85837E-05-2.85687E-05 6.79693E-09 1.13517E-18-2.32408E-18
 -1       581 9.52424E-05-2.85819E-05-2.85688E-05 9.32475E-09 2.15643E-18 5.57455E-19
 -1       582 9.52404E-05-2.85795E-05-2.85689E-05 1.07726E-08 7.28143E-19 7.48834E-19
 -1       583 9.52379E-05-2.85768E-05-2.85691E-05 1.09169E-08-1.10985E-18-1.33720E-18
 -1       584 9.61094E-05-1.85247E-05-3.32671E-05-4.14911E-07-2.17423E-18-1.82500E-18
 -1       585 2.57291E-05-1.28003E-05-4.86260E-06-8.56774E-06 1.56205E-18 6.78907E-18
 -1       586 1.27429E-04-6.49295E-05-2.65791E-05-2.47509E-05 1.16065E-18-2.25204E-18
 -1       587 1.39192E-04-1.57608E-05-5.34697E-05 9.39797E-06 4.58340E-18-1.03973E-19
 -1       588 1.20694E-04-5.91115E-05-2.63203E-05 3.32357E-05-1.84865E-18-2.62812E-18
 -1       589 7.82572E-05-6.72260E-06-3.06669E-05-6.30758E-06-5.10205E-19-3.68390E-18
 -1       590 1.36784E-04-5.72617E-06-5.67857E-05 1.05042E-06 4.89871E-18-1.39835E-18
 -1       591 1.42056E-04-3.03011E-05-4.84510E-05-8.92136E-06 2.91342E-18-3.71599E-18
 -1       592 1.11549E-04-5.61757E-05-2.35860E-05-3.96312E-05-1.20284E-18-1.98469E-18
 -1       593 1.38328E-04-1.27025E-05-5.44535E-05-8.13301E-06 4.53332E-18-3.13857E-18
 -1       594 1.43527E-04-3.61941E-05-4.65125E-05 7.20228E-06 2.71482E-18 4.94244E-19
 -1       595 8.09461E-05-4.34392E-05-1.56316E-05-4.73133E-05-1.72149E-18-3.21454E-18
 -1       596 4.28635E-05-2.21049E-05-8.32658E-06-3.74036E-05-1.47437E-18-5.69402E-18
 -1       597 2.66630E-05-1.07474E-05-6.09705E-06-1.45653E-05-4.89810E-19-6.42199E-18
 -1       598 7.06050E-05-3.98524E-05-1.26859E-05 3.99601E-05 1.45510E-18-3.70476E-18
 -1       599 1.06457E-04-5.77586E-05-2.07036E-05 3.65561E-05 1.43741E-18-1.69314E-18
 -1       600 1.44878E-04-6.74351E-05-3.33198E-05-9.28802E-06 1.93494E-19-3.31553E-18
 -1       601 8.59407E-05-4.54413E-05-1.69718E-05-3.77468E-05 3.03640E-18 1.09453E-18
 -1       602 4.56957E-05-2.50691E-05-8.23446E-06-3.01170E-05 2.87552E-18 3.39920E-18
 -1       603 2.67637E-05-1.52587E-05-4.29772E-06 2.26910E-05-4.62189E-19 4.67763E-18
 -1       604 8.27833E-05-8.68080E-06-3.17780E-05-2.24451E-06-1.75235E-18-3.21584E-18
 -1       605 1.00759E-04-2.83724E-05-3.10084E-05 4.71477E-06 1.73135E-18 3.52118E-19
 -1       606 1.40754E-04-4.36819E-05-4.18830E-05-5.59491E-06 9.72314E-19-4.13463E-18
 -1       607 1.64822E-04-3.96758E-05-5.39332E-05 1.91924E-05-4.06745E-18-3.90281E-18
 -1       608 1.61210E-04-4.69425E-05-4.94469E-05-1.94254E-05-3.51138E-18 3.00803E-19
 -1       609 1.00634E-04-2.93862E-05-3.05270E-05 3.81870E-06 1.52848E-18 2.02484E-19
 -1       610 1.34421E-04-5.98027E-05-3.20992E-05 1.51529E-05-1.73540E-18-3.24684E-18
 -1       611 3.20009E-05-8.83513E-06-9.24489E-06 2.76553E-06 8.14607E-21-6.03850E-18
 -1       612 1.40539E-04-4.84360E-05-3.97385E-05 1.64664E-06 8.01928E-19 6.07958E-19
 -1       613 1.30327E-04-5.97035E-05-3.02263E-05-2.31140E-05-1.31563E-18-7.82261E-19
 -1       614 8.99298E-05-1.80333E-05-3.08176E-05-4.84039E-06 2.55224E-19-2.68835E-18
 -1       615 8.53938E-05-1.47343E-05-3.02862E-05-7.43132E-06-1.73496E-19-2.96170E-18
 -1       616 9.65023E-05-2.27679E-05-3.16071E-05 1.73217E-06 1.25749E-18-1.85524E-18
 -1       617 9.86423E-05-2.46296E-05-3.17281E-05 4.31377E-06 1.68884E-18-1.15895E-18
 -1       618 1.00560E-04-2.70854E-05-3.14798E-05 5.65932E-06 1.97324E-18-2.34681E-19
 -1       619 1.20165E-04-8.09413E-06-4.85668E-05-5.10229E-06 3.45706E-18-1.43031E-18
 -1       620 8.61107E-05-1.74991E-05-2.93938E-05 1.22322E-05-3.35155E-19-2.11382E-18
 -1       621 8.35563E-05-1.94540E-05-2.74343E-05 1.80007E-05 2.76528E-19-1.96471E-18
 -1       622 8.26609E-05-2.47932E-05-2.46532E-05 2.50219E-05 1.02370E-18-1.85948E-18
 -1       623 4.57960E-05-1.70630E-05-1.18172E-05 2.93655E-05-1.67367E-18 1.91864E-18
 -1       624 1.14311E-04-5.38262E-05-2.56613E-05-2.68813E-05 2.22844E-18-1.48063E-18
 -1       625 9.19731E-05-3.31833E-05-2.49852E-05-2.69309E-05 2.07213E-18 1.27161E-19
 -1       626 8.87893E-05-2.51894E-05-2.72155E-05-2.16607E-05 1.17248E-18-2.30284E-19
 -1       627 8.91046E-05-2.24404E-05-2.85560E-05-1.74802E-05 5.16069E-19-1.77372E-20
 -1       628 9.06752E-05-2.22550E-05-2.93181E-05-1.40010E-05 1.10995E-18-8.17796E-20
 -1       629 9.23603E-05-2.31738E-05-2.96479E-05-1.10256E-05-3.27619E-19-3.63074E-19
 -1       630 9.36114E-05-2.43021E-05-2.97008E-05-8.68779E-06-3.72204E-19-1.51270E-19
 -1       631 9.44628E-05-2.53407E-05-2.96212E-05-6.76514E-06-1.44122E-18-2.57105E-19
 -1       632 9.49870E-05-2.61870E-05-2.94837E-05-5.21013E-06-5.37037E-19-9.54073E-19
 -1       633 9.52772E-05-2.68346E-05-2.93310E-05-3.97113E-06 2.28277E-19-2.41678E-18
 -1       634 9.54154E-05-2.73138E-05-2.91853E-05-2.99680E-06 9.43262E-19-2.23040E-18
 -1       635 9.54617E-05-2.76619E-05-2.90563E-05-2.23838E-06-7.83694E-19-1.50409E-18
 -1       636 9.54577E-05-2.79239E-05-2.89425E-05-1.62932E-06 6.39878E-20-2.32960E-19
 -1       637 9.54299E-05-2.81021E-05-2.88544E-05-1.18958E-06-1.78328E-20-1.11125E-18
 -1       638 9.53939E-05-2.82312E-05-2.87837E-05-8.56106E-07 1.79058E-18-1.45539E-18
 -1       639 9.53580E-05-2.83250E-05-2.87282E-05-6.05711E-07 5.15048E-19-2.05543E-18
 -1       640 9.53262E-05-2.83936E-05-2.86853E-05-4.19534E-07-3.24353E-20-1.66607E-18
 -1       641 9.52999E-05-2.84439E-05-2.86525E-05-2.82674E-07-1.17143E-18-1.32717E-18
 -1       642 9.52792E-05-2.84809E-05-2.86278E-05-1.83364E-07-2.42237E-18-1.60529E-18
 -1       643 9.52631E-05-2.85093E-05-2.86087E-05-1.09646E-07-1.71649E-18 2.67523E-19
 -1       644 9.52521E-05-2.85289E-05-2.85956E-05-6.11036E-08 5.86914E-19 2.10348E-18
 -1       645 9.52444E-05-2.85431E-05-2.85863E-05-2.80399E-08 6.99147E-19 2.29555E-18
 -1       646 9.52394E-05-2.85533E-05-2.85798E-05-6.30067E-09 8.42810E-19 2.69424E-18
 -1       647 9.52362E-05-2.85605E-05-2.85753E-05 7.31491E-09 9.22164E-19 8.28482E-19
 -1       648 9.52344E-05-2.85654E-05-2.85724E-05 1.52231E-08 8.39958E-19 3.38543E-19
 -1       649 9.52336E-05-2.85688E-05-2.85706E-05 1.92210E-08-1.02242E-19 1.50296E-19
 -1       650 9.52335E-05-2.85711E-05-2.85696E-05 2.06297E-08-1.50824E-18-1.29248E-19
 -1       651 9.52337E-05-2.85725E-05-2.85691E-05 2.02733E-08-6.41738E-19-1.40467E-18
 -1       652 9.52342E-05-2.85734E-05-2.85689E-05 1.88987E-08 2.94532E-19-7.65835E-19
 -1       653 9.52349E-05-2.85741E-05-2.85689E-05 1.68888E-08 9.58566E-19-1.50654E-18
 -1       654 9.52358E-05-2.85748E-05-2.85690E-05 1.44860E-08 1.02145E-18-2.65896E-18
 -1       655 1.03657E-04-3.32415E-05-3.01794E-05 4.49112E-06 8.42775E-19-6.32844E-19
 -1       656 1.03998E-04-3.34252E-05-3.02454E-05 6.18469E-06 5.83999E-19-1.94937E-19
 -1       657 1.02699E-04-3.18138E-05-3.03806E-05 3.52413E-06 7.73225E-19-6.81310E-19
 -1       658 1.01663E-04-2.92392E-05-3.10365E-05 8.22512E-06 2.62766E-19-1.76158E-19
 -1       659 9.93798E-05-2.57663E-05-3.15472E-05 6.60774E-06 5.04143E-19-8.47095E-20
 -1       660 9.75395E-05-2.30968E-05-3.19064E-05 2.77029E-06 1.01504E-18-5.11326E-20
 -1       661 9.71603E-05-2.25957E-05-3.19581E-05-2.24363E-06 1.12927E-18 4.59205E-20
 -1       662 9.84609E-05-2.45716E-05-3.16647E-05-6.68126E-06 4.68444E-19-8.03806E-19
 -1       663 1.00631E-04-2.79758E-05-3.11377E-05-9.09324E-06 5.95042E-19-8.65668E-19
 -1       664 1.02564E-04-3.13222E-05-3.05314E-05-9.14365E-06 7.34658E-19-1.23538E-18
 -1       665 1.03519E-04-3.35433E-05-2.99894E-05-7.45439E-06 3.90778E-19-1.86704E-18
 -1       666 1.03382E-04-3.43492E-05-2.95862E-05-4.98825E-06-3.49356E-19-8.94590E-19
 -1       667 1.02462E-04-3.40355E-05-2.93272E-05-2.53274E-06-3.43821E-19-5.68854E-19
 -1       668 1.01169E-04-3.30830E-05-2.91812E-05-5.23812E-07-7.48109E-19-8.80775E-19
 -1       669 9.98319E-05-3.19186E-05-2.91070E-05 8.94951E-07-6.43322E-19-3.74952E-19
 -1       670 9.86440E-05-3.08194E-05-2.90685E-05 1.75777E-06-4.99507E-19 1.02612E-20
 -1       671 9.76813E-05-2.99188E-05-2.90416E-05 2.17517E-06-2.47974E-19 4.88300E-19
 -1       672 9.69480E-05-2.92518E-05-2.90129E-05 2.27298E-06-2.44932E-19-1.17792E-19
 -1       673 9.64133E-05-2.87992E-05-2.89775E-05 2.16369E-06 5.12870E-19-7.75582E-19
 -1       674 9.60357E-05-2.85194E-05-2.89354E-05 1.93626E-06 7.45515E-19-1.23237E-18
 -1       675 9.57748E-05-2.83666E-05-2.88891E-05 1.65523E-06 1.76346E-19-7.18241E-19
 -1       676 9.55974E-05-2.83002E-05-2.88415E-05 1.36391E-06 1.02468E-18-4.39973E-19
 -1       677 9.54778E-05-2.82883E-05-2.87953E-05 1.08893E-06 9.55050E-19-4.18739E-20
 -1       678 9.53975E-05-2.83077E-05-2.87526E-05 8.44738E-07 1.82059E-19 5.53926E-19
 -1       679 9.53437E-05-2.83423E-05-2.87147E-05 6.37363E-07 2.12113E-19-3.69672E-19
 -1       680 9.53075E-05-2.83821E-05-2.86822E-05 4.67407E-07-3.18756E-19-1.71306E-18
 -1       681 9.52830E-05-2.84211E-05-2.86551E-05 3.32278E-07-8.78635E-20-1.44003E-18
 -1       682 9.52665E-05-2.84560E-05-2.86330E-05 2.27751E-07 1.12315E-18-1.01149E-18
 -1       683 9.52552E-05-2.84855E-05-2.86155E-05 1.48996E-07 6.39897E-19 1.43239E-19
 -1       684 9.52476E-05-2.85095E-05-2.86020E-05 9.12272E-08 9.40602E-19 1.47544E-18
 -1       685 9.52426E-05-2.85283E-05-2.85918E-05 5.00564E-08-4.33645E-19 2.11661E-18
 -1       686 9.52392E-05-2.85426E-05-2.85843E-05 2.16712E-08 2.66784E-19 2.99769E-18
 -1       687 9.52371E-05-2.85531E-05-2.85789E-05 2.88750E-09 8.72802E-19 2.39191E-18
 -1       688 9.52359E-05-2.85607E-05-2.85751E-05-8.86966E-09-3.77789E-19 3.65164E-18
 -1       689 9.52353E-05-2.85659E-05-2.85726E-05-1.56233E-08-1.62419E-19 2.68440E-18
 -1       690 9.52350E-05-2.85694E-05-2.85710E-05-1.89185E-08-5.29790E-19 9.07629E-19
 -1       691 9.52351E-05-2.85717E-05-2.85700E-05-1.99001E-08 5.70654E-19-2.98670E-19
 -1       692 9.52353E-05-2.85731E-05-2.85695E-05-1.93854E-08-7.80701E-19-2.97626E-19
 -1       693 9.52357E-05-2.85741E-05-2.85693E-05-1.79241E-08-6.12735E-19 5.55437E-19
 -1       694 9.52362E-05-2.85748E-05-2.85692E-05-1.58722E-08-1.03666E-18-1.15074E-18
 -1       695 9.52370E-05-2.85757E-05-2.85691E-05-1.35210E-08-2.93423E-18-2.43678E-18
 -1       696 9.52422E-05-2.85799E-05-2.85695E-05-1.21496E-08 7.72018E-19 9.24010E-19
 -1       697 9.52464E-05-2.85834E-05-2.85699E-05-6.28773E-09 6.99949E-19-5.49333E-19
 -1       698 9.52398E-05-2.85779E-05-2.85694E-05-1.32996E-08-1.61952E-18-4.19354E-18
 -1       699 1.03362E-04-3.20607E-05-3.05549E-05 7.77804E-06 6.77800E-19-3.87427E-20
 -1       700 9.52447E-05-2.85820E-05-2.85697E-05-9.73890E-09 1.76873E-18 9.70410E-19
 -1       701 9.52473E-05-2.85842E-05-2.85699E-05 2.10770E-09-6.09219E-19 2.99686E-18
 -1       702 9.52465E-05-2.85835E-05-2.85699E-05 6.16170E-09 2.17644E-19 2.33321E-18
 -1       703 9.52448E-05-2.85821E-05-2.85697E-05 9.69206E-09 1.51534E-18-4.51898E-19
 -1       704 9.52423E-05-2.85801E-05-2.85695E-05 1.22020E-08 1.43649E-18 5.01933E-19
 -1       705 9.52391E-05-2.85775E-05-2.85693E-05 1.33495E-08 1.31314E-18-2.97719E-18
 -1       706 8.90283E-05-1.48265E-05-3.17918E-05 2.26082E-06-1.67401E-18-2.34394E-18
 -1       707 3.46379E-05-8.98459E-06-1.04158E-05 5.50268E-06 9.13135E-19 4.82401E-18
 -1       708 1.21431E-04-8.79050E-06-4.88023E-05 6.30042E-06 3.95268E-18-3.92527E-19
 -1       709 9.60152E-05-4.19060E-05-2.28285E-05 3.21625E-05 1.76588E-18-1.26158E-18
 -1       710 9.52473E-05-2.85842E-05-2.85699E-05-2.20191E-09-6.44631E-19 3.30595E-18
 -1       711 1.13207E-04-5.42322E-05-2.51308E-05 3.06247E-05-2.39190E-18-3.34625E-18
 -1       712 8.78277E-05-1.62668E-05-3.06689E-05 7.22992E-06-1.27903E-18-2.28569E-18
 -1       713 8.00464E-05-3.77617E-05-1.77516E-05 4.12872E-05-2.84052E-18-5.18305E-19
 -1       714 9.36682E-05-2.06834E-05-3.12847E-05-1.52533E-06 8.62253E-19-2.37117E-18
 -1       715 1.03675E-04-5.03227E-05-2.26083E-05-3.81885E-05-2.12579E-18-1.68166E-18
 -1       716 7.63052E-05-7.09338E-06-2.96666E-05-4.83272E-06-1.06373E-18-3.25884E-18
 -1       717 6.19658E-05-2.32562E-05-1.61373E-05 2.97087E-05 1.56301E-18-3.89280E-18
 -1       718 1.29123E-04-2.48327E-05-4.51578E-05 1.31954E-05 2.81316E-18 8.80755E-19
 -1       719 4.67450E-05-1.27699E-05-1.40587E-05-2.45922E-05-1.68272E-18-5.16304E-18
 -1       720 6.85992E-05-2.92830E-05-1.64698E-05-3.98251E-05-2.28593E-18-3.54677E-18
 -1       721 7.09716E-05-2.85397E-05-1.78100E-05-3.09642E-05 2.40913E-18 1.64301E-18
 -1       722 4.90673E-05-1.51903E-05-1.39780E-05-2.03680E-05 1.66222E-18 3.21227E-18
 -1       723 1.27710E-04-2.03392E-05-4.65300E-05-1.25514E-05 3.22608E-18-3.03099E-18
 -1       724 8.07482E-05-1.11800E-05-2.98174E-05-8.50728E-06-4.33148E-19-3.35510E-18
 -1       725 1.30119E-04-3.20692E-05-4.23114E-05-1.27971E-05 1.78785E-18-3.34166E-18
 -1       726 7.88126E-05-8.41020E-06-3.01776E-05-1.18619E-06-1.28286E-18-3.08721E-18
 -1       727 1.01367E-04-2.93141E-05-3.08757E-05 3.70729E-06 1.15938E-18-6.58445E-19
 -1       728 4.41350E-05-7.87695E-06-1.51043E-05-1.13631E-05-8.59914E-19-5.19064E-18
 -1       729 1.34867E-04-5.52380E-05-3.42191E-05-7.21540E-06-6.29580E-19 2.04453E-19
 -1       730 1.31193E-04-3.64778E-05-4.08484E-05 1.12660E-05 1.56884E-18 1.00131E-18
 -1       731 7.72409E-05-8.26042E-06-2.95651E-05-7.58099E-06-6.81737E-19-3.23807E-18
 -1       732 1.00488E-04-2.79588E-05-3.10850E-05 1.94119E-06 1.02228E-18-1.22582E-18
 -1       733 1.15883E-04-1.74466E-05-4.24693E-05 1.06266E-05 2.29558E-18-3.22413E-19
 -1       734 9.62939E-05-4.22811E-05-2.29945E-05 3.18442E-05-2.36427E-18-2.09514E-18
 -1       735 9.10518E-05-2.15084E-05-2.98077E-05-8.88352E-06-2.83922E-19-2.52458E-18
 -1       736 7.38483E-05-1.19026E-05-2.65086E-05 9.07880E-06-1.61843E-19-2.94932E-18
 -1       737 1.11408E-04-1.04409E-05-4.35528E-05 7.83784E-07 2.92809E-18-1.57805E-18
 -1       738 6.65044E-05-1.24921E-05-2.29916E-05 1.39735E-05 3.29828E-19-3.28336E-18
 -1       739 1.02431E-04-3.06459E-05-3.07655E-05 2.05917E-06 9.75962E-19-9.81393E-19
 -1       740 6.61951E-05-1.98608E-05-1.96262E-05-2.91038E-05-2.32291E-18-3.65860E-18
 -1       741 9.07880E-05-3.79873E-05-2.24385E-05-3.45952E-05-2.28209E-18-2.02215E-18
 -1       742 7.61083E-05-1.71608E-05-2.52378E-05-1.58416E-05 1.34839E-18 4.50112E-19
 -1       743 8.09892E-05-1.77021E-05-2.71194E-05-1.23360E-05 6.20435E-19 1.31083E-18
 -1       744 8.52831E-05-1.93915E-05-2.82393E-05-9.87528E-06 6.14212E-20 9.87364E-19
 -1       745 8.83884E-05-2.12071E-05-2.87912E-05-8.06786E-06-6.53106E-19 1.26380E-18
 -1       746 9.06489E-05-2.28700E-05-2.90474E-05-6.54935E-06-1.39481E-18 5.84477E-19
 -1       747 9.22331E-05-2.42552E-05-2.91327E-05-5.25770E-06-1.83025E-18 6.53003E-19
 -1       748 9.33104E-05-2.53486E-05-2.91259E-05-4.16516E-06-6.85201E-19 1.32696E-19
 -1       749 9.40254E-05-2.61850E-05-2.90740E-05-3.25509E-06 7.91029E-20-3.48618E-19
 -1       750 9.44902E-05-2.68131E-05-2.90042E-05-2.50902E-06 3.90416E-19 5.33120E-19
 -1       751 9.47987E-05-2.72999E-05-2.89279E-05-1.88212E-06 2.43696E-19 4.37590E-19
 -1       752 9.49811E-05-2.76400E-05-2.88603E-05-1.41133E-06-4.02245E-19-3.62517E-20
 -1       753 9.50936E-05-2.78915E-05-2.88008E-05-1.04218E-06 5.17539E-19-1.02806E-18
 -1       754 9.51618E-05-2.80775E-05-2.87503E-05-7.56832E-07 6.65922E-19-2.44893E-18
 -1       755 9.52023E-05-2.82151E-05-2.87088E-05-5.39050E-07 1.02575E-18-1.42906E-18
 -1       756 9.52256E-05-2.83168E-05-2.86752E-05-3.75039E-07-2.45172E-19-1.54549E-18
 -1       757 9.52384E-05-2.83918E-05-2.86485E-05-2.53204E-07-1.63952E-18-1.30438E-19
 -1       758 9.52451E-05-2.84492E-05-2.86268E-05-1.60571E-07-5.10815E-19 4.16685E-19
 -1       759 9.52478E-05-2.84888E-05-2.86110E-05-9.79669E-08-9.11133E-20 2.15683E-18
 -1       760 9.52484E-05-2.85173E-05-2.85990E-05-5.40603E-08 1.33135E-18 2.49947E-18
 -1       761 9.52479E-05-2.85376E-05-2.85901E-05-2.41392E-08 9.84677E-19 3.91500E-18
 -1       762 9.52468E-05-2.85518E-05-2.85836E-05-4.47270E-09 9.00608E-19 4.30940E-18
 -1       763 9.52455E-05-2.85614E-05-2.85789E-05 7.81630E-09-9.63617E-19 3.90955E-18
 -1       764 9.52441E-05-2.85678E-05-2.85756E-05 1.49153E-08-5.57359E-19 1.34050E-18
 -1       765 9.52428E-05-2.85720E-05-2.85732E-05 1.85471E-08-1.28492E-18 8.22992E-19
 -1       766 9.52416E-05-2.85743E-05-2.85717E-05 1.95956E-08-2.42003E-18 3.59559E-19
 -1       767 9.52407E-05-2.85757E-05-2.85707E-05 1.91491E-08-1.32855E-18-3.32712E-18
 -1       768 9.52399E-05-2.85764E-05-2.85701E-05 1.77963E-08 1.35461E-18-3.36626E-18
 -1       769 9.52394E-05-2.85770E-05-2.85696E-05 1.58558E-08 1.45034E-18-2.19495E-18
 -1       770 1.07201E-04-3.56974E-05-3.06474E-05 4.27816E-06 5.41403E-19-3.80915E-19
 -1       771 1.05145E-04-3.39293E-05-3.05197E-05 2.53713E-06 6.05765E-19-9.30243E-19
 -1       772 1.02225E-04-2.28695E-05-3.40068E-05 6.41348E-06 9.34910E-19-4.15322E-19
 -1       773 1.05245E-04-2.80353E-05-3.30957E-05 9.32772E-06 4.30988E-19 7.85739E-21
 -1       774 1.01156E-04-2.14140E-05-3.41760E-05-5.61180E-06 1.44225E-18-1.04284E-18
 -1       775 1.03743E-04-2.59893E-05-3.33328E-05-9.71561E-06 1.02704E-18-1.84726E-18
 -1       776 1.06414E-04-3.14080E-05-3.21539E-05-1.03835E-05 8.60459E-19-2.39467E-18
 -1       777 1.07659E-04-3.53263E-05-3.09994E-05-8.36410E-06 3.37491E-19-1.98035E-18
 -1       778 1.07141E-04-3.69307E-05-3.00882E-05-5.17601E-06-4.96338E-19-1.58849E-18
 -1       779 1.05393E-04-3.66242E-05-2.94726E-05-2.10073E-06-3.53406E-19-1.61523E-18
 -1       780 1.03138E-04-3.52168E-05-2.91097E-05 2.75884E-07-5.52038E-19-1.06675E-18
 -1       781 1.00929E-04-3.34333E-05-2.89272E-05 1.82210E-06-9.82215E-19-6.60484E-19
 -1       782 9.90678E-05-3.17427E-05-2.88540E-05 2.65729E-06-9.39019E-19-6.92358E-19
 -1       783 9.76463E-05-3.03633E-05-2.88358E-05 2.97259E-06-2.36658E-19-1.07387E-18
 -1       784 9.66394E-05-2.93509E-05-2.88380E-05 2.94568E-06 1.28620E-19-7.71056E-19
 -1       785 9.59718E-05-2.86747E-05-2.88416E-05 2.71601E-06 5.44989E-20-1.22318E-18
 -1       786 9.55577E-05-2.82686E-05-2.88382E-05 2.38339E-06 2.53457E-19-4.13247E-19
 -1       787 9.53203E-05-2.80603E-05-2.88257E-05 2.01469E-06 5.82590E-19-4.55579E-21
 -1       788 9.51983E-05-2.79859E-05-2.88053E-05 1.65177E-06 2.92110E-19-8.68889E-19
 -1       789 9.51473E-05-2.79947E-05-2.87797E-05 1.31865E-06 5.41330E-19-4.47364E-19
 -1       790 9.51367E-05-2.80499E-05-2.87514E-05 1.02725E-06 5.83250E-19 3.34641E-19
 -1       791 9.51465E-05-2.81262E-05-2.87230E-05 7.81490E-07 8.51384E-19-3.59839E-19
 -1       792 9.51648E-05-2.82076E-05-2.86959E-05 5.80307E-07-1.69492E-21 1.99467E-19
 -1       793 9.51846E-05-2.82846E-05-2.86714E-05 4.19833E-07-6.49689E-19-3.49948E-19
 -1       794 9.52024E-05-2.83525E-05-2.86500E-05 2.94836E-07 4.08170E-19-1.16125E-18
 -1       795 9.52169E-05-2.84094E-05-2.86318E-05 1.99678E-07-3.03757E-19-8.77597E-20
 -1       796 9.52278E-05-2.84552E-05-2.86168E-05 1.28897E-07 2.92299E-19 1.13295E-19
 -1       797 9.52355E-05-2.84910E-05-2.86048E-05 7.75315E-08 6.48817E-19-1.74238E-19
 -1       798 9.52404E-05-2.85181E-05-2.85953E-05 4.12700E-08-6.56640E-19-5.66557E-19
 -1       799 9.52432E-05-2.85380E-05-2.85880E-05 1.64966E-08 6.29055E-20 7.73572E-19
 -1       800 9.52445E-05-2.85522E-05-2.85824E-05 2.64189E-10-3.49932E-19 1.82372E-18
 -1       801 9.52448E-05-2.85619E-05-2.85784E-05-9.76841E-09-1.83690E-19 9.77063E-19
 -1       802 9.52444E-05-2.85684E-05-2.85754E-05-1.54160E-08-5.49569E-19 1.24095E-18
 -1       803 9.52436E-05-2.85725E-05-2.85733E-05-1.80494E-08-7.96359E-19 3.04529E-18
 -1       804 9.52427E-05-2.85749E-05-2.85719E-05-1.86743E-08 3.09151E-20 2.45426E-18
 -1       805 9.52417E-05-2.85763E-05-2.85709E-05-1.80062E-08 4.40392E-19 3.50890E-19
 -1       806 9.52409E-05-2.85771E-05-2.85702E-05-1.65210E-08-2.12144E-19-6.99856E-20
 -1       807 9.52402E-05-2.85775E-05-2.85697E-05-1.50434E-08-8.59394E-19-4.45259E-19
 -1       808 9.52480E-05-2.85825E-05-2.85709E-05 9.02416E-09 2.93480E-19 7.27099E-19
 -1       809 1.15581E-04-1.58663E-05-4.30489E-05-1.02785E-05 2.50378E-18-2.28228E-18
 -1       810 4.97315E-05-1.12012E-05-1.62070E-05 1.50226E-05-7.84257E-19 1.22423E-18
 -1       811 9.52453E-05-2.85808E-05-2.85705E-05 1.26332E-08 2.81093E-18 2.41499E-18
 -1       812 9.52496E-05-2.85835E-05-2.85712E-05 4.69851E-09-1.25632E-19 5.13211E-18
 -1       813 9.52495E-05-2.85834E-05-2.85712E-05-4.85279E-09-4.14677E-19 8.06924E-19
 -1       814 1.32010E-04-5.02571E-05-3.52161E-05-1.70029E-06-6.20316E-19-3.11735E-18
 -1       815 1.00311E-04-1.99640E-05-3.44513E-05 7.03343E-07 1.02205E-18-9.40486E-19
 -1       816 1.24183E-04-5.45391E-05-2.98606E-05 1.32759E-05-1.84051E-18-2.46217E-18
 -1       817 4.24282E-05-1.15566E-05-1.26923E-05 1.45502E-05 4.24906E-19-5.18861E-18
 -1       818 1.20115E-04-5.42999E-05-2.81926E-05-2.30436E-05-1.88233E-18-8.61959E-19
 -1       819 9.52501E-05-2.85838E-05-2.85713E-05-9.19389E-11-9.81964E-19 2.53127E-18
 -1       820 6.59566E-05-1.91405E-05-1.98456E-05-2.27557E-05 1.43544E-18 1.43992E-18
 -1       821 5.04295E-05-9.88464E-06-1.70433E-05-6.09086E-06 5.92068E-19 4.27762E-18
 -1       822 6.82514E-05-2.49689E-05-1.83132E-05 3.17342E-05-2.50748E-18-3.51095E-19
 -1       823 4.68215E-05-7.15107E-06-1.66665E-05-5.23123E-07-4.70894E-19-5.09329E-18
 -1       824 5.58587E-05-1.14511E-05-1.87306E-05 1.50335E-05 5.02506E-19-3.98484E-18
 -1       825 1.19293E-04-2.61848E-05-4.01063E-05 1.27887E-05 1.70052E-18 4.43117E-19
 -1       826 8.50441E-05-1.72201E-05-2.90625E-05-1.13182E-05-4.44900E-19-2.95639E-18
 -1       827 1.18582E-04-2.40892E-05-4.06932E-05-1.32570E-05 2.05604E-18-2.80190E-18
 -1       828 5.87973E-05-1.28427E-05-1.94850E-05-2.09527E-05-1.71095E-18-3.94834E-18
 -1       829 7.44045E-05-8.23319E-06-2.83609E-05-2.45408E-06-9.86249E-19-3.02632E-18
 -1       830 1.07304E-04-4.53732E-05-2.64897E-05-2.55171E-05-1.81095E-18-1.23587E-18
 -1       831 9.52451E-05-2.85805E-05-2.85705E-05-1.26566E-08-7.83423E-19 1.84689E-18
 -1       832 1.08256E-04-3.55525E-05-3.11578E-05 6.80665E-06 2.81145E-19-1.12345E-19
 -1       833 1.07645E-04-3.29099E-05-3.20287E-05 9.01524E-06 5.21212E-19 2.78214E-19
 -1       834 9.87809E-05-2.66945E-05-3.08970E-05-1.18798E-06 7.94806E-19-1.85240E-18
 -1       835 1.31330E-04-4.59576E-05-3.67267E-05 5.37613E-06 1.68854E-19 1.07646E-18
 -1       836 9.57591E-05-2.46938E-05-3.04560E-05-5.09481E-06 3.50634E-19-1.96256E-18
 -1       837 7.81291E-05-1.13916E-05-2.86156E-05 5.24470E-06-7.77748E-19-2.66046E-18
 -1       838 1.11891E-04-4.90209E-05-2.69272E-05 2.07369E-05-1.49433E-18-2.33295E-18
 -1       839 7.45229E-05-8.94892E-06-2.81054E-05-7.97114E-06-8.62485E-19-3.13445E-18
 -1       840 9.52478E-05-2.85823E-05-2.85709E-05-9.15961E-09 2.40877E-19-5.90287E-19
 -1       841 1.23971E-04-4.90167E-05-3.21742E-05 5.38033E-07-4.91205E-19-2.02339E-18
 -1       842 8.36447E-05-2.76921E-05-2.38807E-05-2.72745E-05-1.94108E-18-2.51204E-18
 -1       843 1.06704E-04-1.67567E-05-3.86646E-05 5.57626E-06 1.80709E-18-3.94492E-19
 -1       844 7.77804E-05-1.59242E-05-2.65069E-05-5.52458E-06-9.43384E-20-8.87854E-20
 -1       845 8.27765E-05-1.83171E-05-2.76263E-05-5.12179E-06-7.06944E-19-4.65556E-19
 -1       846 8.64192E-05-2.04533E-05-2.82721E-05-4.63087E-06-1.03684E-18-2.32459E-19
 -1       847 8.90505E-05-2.22604E-05-2.86247E-05-4.08280E-06-1.36551E-18 4.64252E-19
 -1       848 9.09330E-05-2.37300E-05-2.88014E-05-3.49519E-06-1.27725E-18 8.59022E-19
 -1       849 9.22662E-05-2.48932E-05-2.88741E-05-2.91183E-06-6.98876E-19 1.62322E-18
 -1       850 9.32021E-05-2.57975E-05-2.88877E-05-2.36676E-06 4.63476E-19 2.07450E-18
 -1       851 9.38803E-05-2.65211E-05-2.88682E-05-1.86064E-06-4.02609E-19 1.64292E-18
 -1       852 9.43233E-05-2.70419E-05-2.88348E-05-1.44984E-06-8.55584E-19 1.06586E-18
 -1       853 9.46289E-05-2.74371E-05-2.87965E-05-1.10766E-06-1.19311E-18 6.00192E-19
 -1       854 9.48387E-05-2.77358E-05-2.87584E-05-8.30059E-07-2.14011E-19 3.80119E-19
 -1       855 9.49820E-05-2.79609E-05-2.87233E-05-6.09508E-07-2.53580E-19-5.34715E-19
 -1       856 9.50793E-05-2.81301E-05-2.86925E-05-4.37616E-07-1.88590E-19-1.53095E-18
 -1       857 9.51447E-05-2.82566E-05-2.86663E-05-3.05961E-07 2.60208E-19-5.24039E-19
 -1       858 9.51897E-05-2.83546E-05-2.86436E-05-2.03005E-07-1.19939E-18 8.00054E-19
 -1       859 9.52171E-05-2.84229E-05-2.86261E-05-1.31456E-07 3.31286E-20-2.36080E-19
 -1       860 9.52343E-05-2.84726E-05-2.86122E-05-7.98389E-08 1.78449E-18 1.56758E-18
 -1       861 9.52444E-05-2.85083E-05-2.86012E-05-4.35503E-08 1.74314E-18 1.52144E-18
 -1       862 9.52498E-05-2.85335E-05-2.85927E-05-1.87839E-08 7.39823E-19 2.31690E-18
 -1       863 9.52521E-05-2.85509E-05-2.85862E-05-2.51328E-09-9.35480E-19 8.47371E-19
 -1       864 9.52524E-05-2.85625E-05-2.85814E-05 7.63143E-09-1.30222E-18 9.97977E-19
 -1       865 9.52514E-05-2.85703E-05-2.85776E-05 1.36347E-08-1.38188E-18-3.03609E-20
 -1       866 9.52497E-05-2.85747E-05-2.85750E-05 1.63352E-08-2.97602E-18 1.58279E-20
 -1       867 9.52478E-05-2.85772E-05-2.85731E-05 1.70987E-08-3.98987E-18 1.38571E-18
 -1       868 9.52459E-05-2.85785E-05-2.85718E-05 1.66117E-08-3.83895E-19 3.89927E-19
 -1       869 9.52458E-05-2.85798E-05-2.85712E-05 1.47779E-08 2.42014E-18 1.05158E-18
 -1       870 1.08778E-04-2.53031E-05-3.58101E-05 1.03916E-05 9.96612E-19 8.85183E-20
 -1       871 1.10769E-04-3.04315E-05-3.44572E-05-1.16774E-05 1.11289E-18-2.57131E-18
 -1       872 1.07040E-04-2.22141E-05-3.63840E-05-9.83086E-06 1.55062E-18-1.70784E-18
 -1       873 1.11905E-04-4.00818E-05-3.07792E-05-4.75691E-06-8.68738E-20-1.61616E-18
 -1       874 1.09065E-04-3.97874E-05-2.96875E-05-7.43024E-07-1.11047E-18-1.78461E-18
 -1       875 1.05519E-04-3.77726E-05-2.90347E-05 2.06526E-06-8.40743E-19-7.36927E-19
 -1       876 1.02179E-04-3.51794E-05-2.87147E-05 3.60594E-06-1.03667E-18-2.36107E-19
 -1       877 9.94878E-05-3.27598E-05-2.85979E-05 4.20063E-06-1.13533E-18 1.09031E-19
 -1       878 9.75210E-05-3.08150E-05-2.85885E-05 4.19977E-06-4.82687E-19-4.13774E-19
 -1       879 9.62003E-05-2.94090E-05-2.86248E-05 3.86993E-06-9.66797E-20-9.59034E-19
 -1       880 9.53859E-05-2.84849E-05-2.86718E-05 3.38839E-06-1.74402E-19-9.01658E-19
 -1       881 9.49361E-05-2.79422E-05-2.87116E-05 2.86285E-06 1.77938E-20-5.89890E-19
 -1       882 9.47304E-05-2.76764E-05-2.87374E-05 2.35384E-06 1.84754E-19 4.42578E-21
 -1       883 9.46764E-05-2.75965E-05-2.87485E-05 1.89247E-06-5.73242E-19 1.31055E-18
 -1       884 9.47083E-05-2.76313E-05-2.87473E-05 1.49147E-06 7.21851E-19 4.78396E-19
 -1       885 9.47821E-05-2.77291E-05-2.87370E-05 1.15355E-06 1.65280E-19-1.12748E-19
 -1       886 9.48703E-05-2.78547E-05-2.87209E-05 8.75734E-07 1.73397E-19 6.75071E-19
 -1       887 9.49567E-05-2.79854E-05-2.87019E-05 6.52066E-07-1.56738E-19 1.75551E-18
 -1       888 9.50331E-05-2.81081E-05-2.86821E-05 4.75374E-07-2.66718E-21 8.98664E-19
 -1       889 9.50962E-05-2.82159E-05-2.86630E-05 3.38306E-07 1.23455E-18-4.96424E-19
 -1       890 9.51458E-05-2.83065E-05-2.86454E-05 2.33878E-07-5.97861E-19-9.91544E-20
 -1       891 9.51830E-05-2.83797E-05-2.86300E-05 1.55804E-07-2.40718E-20-4.94691E-19
 -1       892 9.52097E-05-2.84371E-05-2.86168E-05 9.86116E-08 4.20677E-19-4.98320E-19
 -1       893 9.52280E-05-2.84809E-05-2.86059E-05 5.76613E-08 1.08533E-19 1.16484E-18
 -1       894 9.52397E-05-2.85134E-05-2.85970E-05 2.91154E-08-6.42424E-19 1.24136E-18
 -1       895 9.52467E-05-2.85368E-05-2.85899E-05 9.86564E-09-3.95194E-19 1.02539E-18
 -1       896 9.52501E-05-2.85531E-05-2.85844E-05-2.55732E-09 2.03278E-20 1.05687E-18
 -1       897 9.52513E-05-2.85641E-05-2.85802E-05-1.00775E-08-5.19446E-19 9.26457E-19
 -1       898 9.52509E-05-2.85711E-05-2.85771E-05-1.41634E-08-2.00742E-18-6.41159E-19
 -1       899 9.52496E-05-2.85753E-05-2.85747E-05-1.59103E-08-8.52243E-19-8.11284E-19
 -1       900 9.52478E-05-2.85777E-05-2.85729E-05-1.61075E-08 2.04826E-19 1.01593E-18
 -1       901 9.52460E-05-2.85790E-05-2.85716E-05-1.53343E-08 1.44233E-18 9.03282E-19
 -1       902 1.07094E-04-1.54807E-05-3.93829E-05-5.41360E-06 1.95555E-18-1.84119E-18
 -1       903 5.74486E-05-7.91019E-06-2.10758E-05 3.17260E-06-1.51305E-19-4.06406E-18
 -1       904 9.52515E-05-2.85823E-05-2.85725E-05-7.70438E-09 1.34251E-18-8.68504E-19
 -1       905 9.52495E-05-2.85816E-05-2.85720E-05 1.10515E-08 1.39796E-18 2.68741E-18
 -1       906 9.52519E-05-2.85827E-05-2.85725E-05 6.51930E-09-7.47263E-19 4.26383E-18
 -1       907 1.25172E-04-4.01830E-05-3.65574E-05-9.99504E-06-4.77349E-20-2.58995E-18
 -1       908 5.84685E-05-1.06958E-05-2.03462E-05 3.63937E-06-6.19348E-19 1.68102E-18
 -1       909 6.44286E-05-1.68663E-05-2.02645E-05 1.95023E-05-1.50933E-18-1.65324E-19
 -1       910 1.12698E-04-3.70780E-05-3.24210E-05-9.09538E-06 2.20435E-19-1.76461E-18
 -1       911 5.43557E-05-7.95784E-06-1.96900E-05-8.76967E-06-9.27684E-19-4.39690E-18
 -1       912 1.01907E-04-3.03590E-05-3.06616E-05-1.03067E-06 6.47445E-19-1.59840E-18
 -1       913 7.88156E-05-1.25086E-05-2.84145E-05-1.11730E-05-7.73904E-19-3.17035E-18
 -1       914 7.09684E-05-1.35592E-05-2.45852E-05-6.13853E-06 7.57290E-19 8.03155E-19
 -1       915 8.35749E-05-3.05426E-05-2.26341E-05 2.69133E-05-1.28862E-18-7.64454E-19
 -1       916 6.75478E-05-8.50982E-06-2.52749E-05 1.65926E-06-4.60277E-19-3.25062E-18
 -1       917 1.25890E-04-5.20431E-05-3.17073E-05-7.99404E-06-1.04057E-18 2.20394E-20
 -1       918 9.52486E-05-2.85809E-05-2.85719E-05-1.20009E-08 1.56098E-19 1.84448E-18
 -1       919 6.22352E-05-1.13228E-05-2.17107E-05-5.93555E-06 7.24538E-19 2.40359E-18
 -1       920 9.17170E-05-2.49219E-05-2.86239E-05-1.36054E-05-6.90498E-19-2.43682E-18
 -1       921 9.67635E-05-3.51771E-05-2.63614E-05-2.32104E-05-1.53871E-18-1.91106E-18
 -1       922 1.11608E-04-3.88432E-05-3.11894E-05 3.35845E-06 8.63252E-20-5.36198E-19
 -1       923 9.52528E-05-2.85830E-05-2.85728E-05-2.75728E-09-1.25899E-19 1.87702E-18
 -1       924 1.12299E-04-3.30798E-05-3.39735E-05 1.05308E-05 5.23433E-19 2.58441E-19
 -1       925 1.11933E-04-2.25433E-05-3.84094E-05-1.16264E-05 1.96539E-18-2.54066E-18
 -1       926 9.88200E-05-3.97276E-05-2.53055E-05 2.30328E-05-9.99719E-19-1.83752E-18
 -1       927 7.45682E-05-2.03175E-05-2.31672E-05-2.45256E-05-1.91405E-18-3.10179E-18
 -1       928 9.81017E-05-2.89516E-05-2.96324E-05-9.21835E-06-1.27847E-19-1.79704E-18
 -1       929 1.08133E-04-3.67420E-05-3.05935E-05 4.55287E-07 1.89831E-19-8.05964E-19
 -1       930 1.17985E-04-4.90610E-05-2.95084E-05 8.76320E-06-1.27450E-18-1.09830E-18
 -1       931 1.22696E-04-3.51472E-05-3.76199E-05 1.18683E-05 9.30681E-19 7.36138E-19
 -1       932 1.16608E-04-4.79641E-05-2.94178E-05-1.41749E-05-1.36482E-18-6.82599E-19
 -1       933 9.52529E-05-2.85831E-05-2.85728E-05 1.93488E-09-6.66250E-19 3.64672E-18
 -1       934 6.98551E-05-8.78973E-06-2.61300E-05-6.82332E-06-9.54310E-19-2.98023E-18
 -1       935 7.43634E-05-1.25762E-05-2.64688E-05-1.37059E-05-1.04735E-18-3.16396E-18
 -1       936 8.31986E-05-1.90825E-05-2.74791E-05-9.95960E-07-1.37101E-18-1.05902E-18
 -1       937 8.64356E-05-2.09342E-05-2.80728E-05-1.62601E-06-6.25070E-19-8.07810E-19
 -1       938 8.88404E-05-2.25159E-05-2.84251E-05-1.86406E-06-9.89222E-19 2.53010E-19
 -1       939 9.06170E-05-2.38271E-05-2.86244E-05-1.85303E-06-6.63487E-19 1.14238E-18
 -1       940 9.19232E-05-2.48920E-05-2.87277E-05-1.69740E-06-5.73605E-19-1.37657E-19
 -1       941 9.29165E-05-2.57793E-05-2.87732E-05-1.46066E-06 1.40817E-19-7.23045E-19
 -1       942 9.35980E-05-2.64414E-05-2.87814E-05-1.21493E-06-6.59981E-19-7.64703E-19
 -1       943 9.40915E-05-2.69599E-05-2.87708E-05-9.77526E-07-1.18074E-18-9.07850E-19
 -1       944 9.44469E-05-2.73627E-05-2.87504E-05-7.64777E-07-9.82175E-19-1.48529E-20
 -1       945 9.47013E-05-2.76736E-05-2.87262E-05-5.83013E-07-4.48381E-19-5.00622E-19
 -1       946 9.48822E-05-2.79121E-05-2.87015E-05-4.33251E-07-1.63734E-19 1.43351E-18
 -1       947 9.50097E-05-2.80938E-05-2.86783E-05-3.13306E-07 4.21064E-19 5.12696E-19
 -1       948 9.51020E-05-2.82369E-05-2.86565E-05-2.15944E-07-9.04329E-20 8.63161E-19
 -1       949 9.51616E-05-2.83381E-05-2.86387E-05-1.46054E-07-7.22276E-19 2.28295E-18
 -1       950 9.52014E-05-2.84128E-05-2.86237E-05-9.40924E-08 1.72018E-18 2.06019E-18
 -1       951 9.52270E-05-2.84673E-05-2.86113E-05-5.64823E-08 9.70106E-19 1.30951E-18
 -1       952 9.52428E-05-2.85064E-05-2.86013E-05-2.99972E-08 1.45791E-18-8.15423E-20
 -1       953 9.52517E-05-2.85337E-05-2.85934E-05-1.19430E-08 2.04649E-19 1.02024E-18
 -1       954 9.52559E-05-2.85524E-05-2.85872E-05-1.22864E-10-1.56381E-18 6.38854E-19
 -1       955 9.52570E-05-2.85652E-05-2.85822E-05 7.42729E-09-2.13915E-18 1.38607E-18
 -1       956 9.52561E-05-2.85728E-05-2.85786E-05 1.13770E-08-1.23429E-18 2.85109E-19
 -1       957 9.52541E-05-2.85772E-05-2.85758E-05 1.31911E-08-2.55665E-18 2.34043E-18
 -1       958 9.52516E-05-2.85795E-05-2.85737E-05 1.35766E-08-2.61016E-18 3.64307E-18
 -1       959 9.52507E-05-2.85807E-05-2.85728E-05 1.24255E-08-9.93372E-19 3.38491E-18
 -1       960 1.07997E-04-4.06423E-05-2.88747E-05 5.13930E-06-1.19276E-18-1.02553E-18
 -1       961 1.13419E-04-4.36877E-05-2.98724E-05 1.93680E-06-4.11348E-19-6.86540E-19
 -1       962 9.95366E-05-3.36437E-05-2.82397E-05 6.59211E-06-1.02878E-18-2.31670E-19
 -1       963 9.70138E-05-3.10659E-05-2.82639E-05 5.97945E-06-4.83003E-19-5.03728E-19
 -1       964 9.54260E-05-2.92648E-05-2.83547E-05 5.11388E-06 5.42711E-19-1.40567E-18
 -1       965 9.45247E-05-2.81166E-05-2.84605E-05 4.21324E-06 6.98178E-20 4.15460E-20
 -1       966 9.40963E-05-2.74691E-05-2.85544E-05 3.38479E-06-5.19557E-19 4.08542E-19
 -1       967 9.39687E-05-2.71742E-05-2.86261E-05 2.66875E-06-4.70708E-19 1.36333E-18
 -1       968 9.40196E-05-2.71134E-05-2.86741E-05 2.07370E-06-8.24216E-19 1.54830E-18
 -1       969 9.41621E-05-2.71926E-05-2.87013E-05 1.59062E-06 2.44822E-19 8.26073E-19
 -1       970 9.43421E-05-2.73476E-05-2.87119E-05 1.20494E-06 7.76183E-19 1.38566E-18
 -1       971 9.45253E-05-2.75338E-05-2.87107E-05 9.01417E-07-4.91975E-19 9.90672E-19
 -1       972 9.46932E-05-2.77228E-05-2.87016E-05 6.65183E-07-2.89900E-20 7.23270E-19
 -1       973 9.48370E-05-2.78983E-05-2.86881E-05 4.83247E-07 1.80151E-19 1.50729E-18
 -1       974 9.49544E-05-2.80521E-05-2.86724E-05 3.44657E-07 7.20019E-19 3.36470E-18
 -1       975 9.50464E-05-2.81813E-05-2.86565E-05 2.40310E-07 1.74001E-20 3.23886E-18
 -1       976 9.51160E-05-2.82862E-05-2.86414E-05 1.62761E-07-1.01909E-19 2.39283E-18
 -1       977 9.51668E-05-2.83689E-05-2.86277E-05 1.06003E-07 3.05651E-19 2.48433E-18
 -1       978 9.52025E-05-2.84325E-05-2.86157E-05 6.51878E-08 3.90998E-19 1.14495E-18
 -1       979 9.52265E-05-2.84801E-05-2.86056E-05 3.64551E-08-1.28760E-18 5.00977E-19
 -1       980 9.52417E-05-2.85147E-05-2.85973E-05 1.67572E-08-1.73880E-19 5.26747E-19
 -1       981 9.52505E-05-2.85393E-05-2.85905E-05 3.71261E-09-2.12698E-19 9.19824E-19
 -1       982 9.52547E-05-2.85561E-05-2.85851E-05-4.52000E-09 7.30096E-19 6.47579E-19
 -1       983 9.52560E-05-2.85671E-05-2.85809E-05-9.34359E-09 6.12540E-20 6.63507E-20
 -1       984 9.52553E-05-2.85740E-05-2.85777E-05-1.18072E-08-1.73120E-18 8.97645E-19
 -1       985 9.52534E-05-2.85779E-05-2.85752E-05-1.26957E-08-1.07585E-18 1.30060E-18
 -1       986 9.52512E-05-2.85800E-05-2.85734E-05-1.26803E-08 8.72412E-19 1.71543E-18
 -1       987 9.52536E-05-2.85819E-05-2.85736E-05 7.77634E-09-2.15509E-18 5.46296E-18
 -1       988 6.79208E-05-1.45002E-05-2.28713E-05 9.45949E-06-8.43885E-19-3.58811E-19
 -1       989 1.00562E-04-2.98965E-05-3.02849E-05-4.67730E-06 1.96432E-19-1.54915E-18
 -1       990 8.30517E-05-1.90466E-05-2.74315E-05-1.58501E-05-9.36660E-19-2.85915E-18
 -1       991 1.03184E-04-3.69567E-05-2.83811E-05 6.53845E-06-1.41705E-18-8.84161E-19
 -1       992 7.28660E-05-1.46661E-05-2.49043E-05 1.93293E-06-8.82356E-19 1.18905E-19
 -1       993 6.68924E-05-1.28354E-05-2.30959E-05 2.95828E-06-3.84665E-19 2.80370E-19
 -1       994 6.34504E-05-8.42038E-06-2.35196E-05-7.93529E-06-1.07029E-18-3.55957E-18
 -1       995 7.87114E-05-1.68773E-05-2.64931E-05 9.78380E-08-1.25212E-18-5.81120E-19
 -1       996 1.13471E-04-3.78980E-05-3.23922E-05 7.37702E-06 1.45959E-19-2.01336E-19
 -1       997 1.23794E-04-4.51704E-05-3.37402E-05 3.80414E-06-3.71100E-19 5.75020E-19
 -1       998 7.78529E-05-2.28787E-05-2.35258E-05 1.89368E-05-1.03903E-18-3.03238E-19
 -1       999 8.65996E-05-2.51214E-05-2.63129E-05-2.08221E-05-1.43370E-18-2.64732E-18
 -1      1000 1.19776E-04-4.62478E-05-3.15026E-05-2.87624E-06-6.11520E-19 5.39708E-20
 -1      1001 9.52551E-05-2.85816E-05-2.85744E-05-5.61116E-09 1.06104E-18-2.11312E-18
 -1      1002 1.06506E-04-4.02681E-05-2.83990E-05-1.65329E-05-1.02625E-18-1.20117E-18
 -1      1003 6.65148E-05-1.20242E-05-2.32439E-05-1.58806E-05-1.42900E-18-3.35321E-18
 -1      1004 1.18426E-04-3.48906E-05-3.58593E-05-1.18099E-05 4.31375E-19-2.15918E-18
 -1      1005 9.52550E-05-2.85823E-05-2.85740E-05 3.06368E-09-8.24023E-19 2.85039E-18
 -1      1006 1.08880E-04-4.45633E-05-2.75549E-05 1.51975E-05-5.94373E-19-1.63942E-18
 -1      1007 8.93698E-05-3.09950E-05-2.50006E-05 2.00500E-05-1.40110E-18-9.93858E-19
 -1      1008 1.20238E-04-4.41107E-05-3.26539E-05-4.81796E-06-4.01017E-20-1.52686E-18
 -1      1009 1.11713E-04-4.04598E-05-3.05093E-05-3.17971E-06-2.06694E-19-7.62046E-19
 -1      1010 1.17667E-04-4.66198E-05-3.04874E-05 2.64895E-06-7.14681E-19-7.56550E-19
 -1      1011 1.01009E-04-3.40285E-05-2.87367E-05-1.40259E-05-6.75708E-19-1.52770E-18
 -1      1012 1.10631E-04-4.11260E-05-2.97338E-05-8.86476E-06-7.03714E-19-8.70118E-19
 -1      1013 1.04508E-04-3.41895E-05-3.01528E-05-4.88349E-06-6.79148E-20-1.36341E-18
 -1      1014 8.51000E-05-2.07601E-05-2.75731E-05 1.77273E-06-1.38593E-18-2.92411E-19
 -1      1015 1.03266E-04-3.84508E-05-2.77682E-05 1.11111E-05-1.24223E-18-9.75667E-19
 -1      1016 8.75456E-05-2.20709E-05-2.80604E-05 5.32646E-07 4.55898E-20-8.92278E-19
 -1      1017 8.94429E-05-2.32535E-05-2.83668E-05-1.82469E-07-6.22288E-19-9.42192E-19
 -1      1018 9.09131E-05-2.42920E-05-2.85517E-05-5.49115E-07-8.96236E-19-1.10804E-18
 -1      1019 9.20879E-05-2.52145E-05-2.86601E-05-6.95757E-07-2.56303E-19-1.02870E-18
 -1      1020 9.29295E-05-2.59369E-05-2.87113E-05-7.01979E-07-5.95766E-19-5.03909E-19
 -1      1021 9.35677E-05-2.65296E-05-2.87309E-05-6.38373E-07-8.87829E-19-1.44122E-18
 -1      1022 9.40453E-05-2.70068E-05-2.87310E-05-5.44550E-07-3.07800E-19-5.34353E-19
 -1      1023 9.43998E-05-2.73866E-05-2.87201E-05-4.43035E-07-6.39649E-19 1.38342E-18
 -1      1024 9.46606E-05-2.76856E-05-2.87037E-05-3.46844E-07 5.32937E-19 1.57326E-18
 -1      1025 9.48505E-05-2.79187E-05-2.86852E-05-2.62157E-07-1.17796E-19 1.84994E-18
 -1      1026 9.49927E-05-2.81059E-05-2.86658E-05-1.88624E-07-6.90341E-19 2.01316E-18
 -1      1027 9.50875E-05-2.82407E-05-2.86487E-05-1.33018E-07 2.39071E-19 1.33762E-18
 -1      1028 9.51532E-05-2.83420E-05-2.86334E-05-8.98992E-08-1.19755E-19 1.54449E-18
 -1      1029 9.51976E-05-2.84170E-05-2.86203E-05-5.75529E-08 1.00168E-18 9.99107E-19
 -1      1030 9.52264E-05-2.84716E-05-2.86092E-05-3.39963E-08 5.48832E-19 1.15254E-18
 -1      1031 9.52441E-05-2.85105E-05-2.86001E-05-1.73780E-08 1.08978E-18-3.38816E-19
 -1      1032 9.52541E-05-2.85376E-05-2.85928E-05-6.04836E-09-6.89629E-19-1.10923E-18
 -1      1033 9.52589E-05-2.85566E-05-2.85867E-05 1.57300E-09-9.96422E-19-1.05890E-18
 -1      1034 9.52599E-05-2.85682E-05-2.85822E-05 5.90849E-09-2.07945E-18-2.66599E-19
 -1      1035 9.52588E-05-2.85753E-05-2.85786E-05 8.26723E-09-1.48371E-19-2.42388E-20
 -1      1036 9.52564E-05-2.85793E-05-2.85759E-05 9.25325E-09-4.29258E-19 3.15976E-18
 -1      1037 9.52551E-05-2.85808E-05-2.85747E-05 8.61463E-09-1.86624E-18 5.70690E-18
 -1      1038 9.31944E-05-2.74059E-05-2.81943E-05 5.15603E-06-8.61952E-19 8.31928E-19
 -1      1039 9.40206E-05-2.86932E-05-2.79970E-05 6.65822E-06-3.28291E-19-1.00474E-18
 -1      1040 9.56770E-05-3.08041E-05-2.78047E-05 8.34142E-06-4.83140E-19-1.76650E-18
 -1      1041 9.29289E-05-2.67475E-05-2.83630E-05 3.90882E-06-4.66787E-19 1.64613E-18
 -1      1042 9.29796E-05-2.64939E-05-2.84935E-05 2.92497E-06-6.74309E-19 1.27605E-18
 -1      1043 9.32074E-05-2.65074E-05-2.85858E-05 2.16307E-06-3.21371E-19 1.03178E-18
 -1      1044 9.35072E-05-2.66672E-05-2.86460E-05 1.58874E-06-1.31008E-19-2.48711E-19
 -1      1045 9.38259E-05-2.69057E-05-2.86803E-05 1.15779E-06 5.13053E-19-1.86026E-19
 -1      1046 9.41255E-05-2.71698E-05-2.86955E-05 8.38375E-07 5.54668E-19 1.03425E-18
 -1      1047 9.43889E-05-2.74285E-05-2.86974E-05 6.02448E-07-1.05167E-19 6.12860E-19
 -1      1048 9.46097E-05-2.76644E-05-2.86909E-05 4.28859E-07-1.18488E-18 7.63146E-19
 -1      1049 9.47880E-05-2.78695E-05-2.86795E-05 3.01578E-07-7.72271E-19 1.92485E-18
 -1      1050 9.49275E-05-2.80411E-05-2.86657E-05 2.08801E-07 1.18007E-18 1.54791E-18
 -1      1051 9.50333E-05-2.81805E-05-2.86513E-05 1.41418E-07-1.32169E-19 1.12139E-18
 -1      1052 9.51113E-05-2.82907E-05-2.86374E-05 9.29760E-08 5.33434E-19 1.64961E-18
 -1      1053 9.51669E-05-2.83759E-05-2.86248E-05 5.85120E-08 4.96788E-19 1.79566E-18
 -1      1054 9.52053E-05-2.84401E-05-2.86137E-05 3.43513E-08-9.42437E-19 2.90266E-18
 -1      1055 9.52305E-05-2.84873E-05-2.86042E-05 1.77461E-08-2.31352E-19 1.52353E-18
 -1      1056 9.52460E-05-2.85212E-05-2.85963E-05 6.63336E-09-1.03369E-19 1.51324E-18
 -1      1057 9.52546E-05-2.85448E-05-2.85899E-05-5.22649E-10-2.23670E-19 2.39127E-18
 -1      1058 9.52585E-05-2.85606E-05-2.85848E-05-4.88642E-09 1.15792E-18 3.25273E-18
 -1      1059 9.52591E-05-2.85707E-05-2.85807E-05-7.30074E-09-8.42983E-19 1.12984E-18
 -1      1060 9.52578E-05-2.85768E-05-2.85776E-05-8.39229E-09-1.40397E-18-3.86913E-19
 -1      1061 9.52568E-05-2.85797E-05-2.85759E-05-7.19344E-09-1.07305E-18-4.49428E-19
 -1      1062 7.62255E-05-1.86649E-05-2.46553E-05 1.10763E-05-1.00144E-18-2.36256E-19
 -1      1063 9.86225E-05-3.40442E-05-2.76754E-05 9.99614E-06-1.30504E-18-1.57381E-18
 -1      1064 9.52556E-05-2.85822E-05-2.85743E-05-1.28508E-09 2.23506E-19 2.24701E-18
 -1      1065 8.19843E-05-1.94121E-05-2.68233E-05 3.78261E-06-1.17180E-18-6.14795E-19
 -1      1066 9.52568E-05-2.85811E-05-2.85753E-05 3.87688E-09 5.34635E-19 1.21259E-18
 -1      1067 9.52577E-05-2.85804E-05-2.85760E-05-2.96204E-09-6.17319E-20-3.06035E-19
 -1      1068 8.37776E-05-2.47519E-05-2.52935E-05 1.51578E-05-7.28579E-19-1.29738E-18
 -1      1069 9.81174E-05-3.61360E-05-2.65638E-05 1.63015E-05-1.24526E-18-1.66862E-18
 -1      1070 8.90898E-05-2.34133E-05-2.81476E-05 1.85298E-06-2.70958E-19-1.52909E-18
 -1      1071 9.04285E-05-2.41821E-05-2.83906E-05 9.36638E-07-6.85609E-19-9.63812E-19
 -1      1072 9.15797E-05-2.49668E-05-2.85475E-05 3.77741E-07-1.08843E-18-7.41279E-19
 -1      1073 9.24398E-05-2.56253E-05-2.86349E-05 6.99256E-08-4.83906E-19-1.54850E-18
 -1      1074 9.31442E-05-2.62178E-05-2.86830E-05-9.66226E-08-1.26993E-18-1.15110E-18
 -1      1075 9.36945E-05-2.67195E-05-2.87037E-05-1.67051E-07 7.98679E-19 8.06695E-20
 -1      1076 9.41195E-05-2.71363E-05-2.87071E-05-1.82735E-07 9.76144E-19 7.67183E-19
 -1      1077 9.44433E-05-2.74762E-05-2.87002E-05-1.69697E-07 1.95163E-19 1.15468E-18
 -1      1078 9.46868E-05-2.77490E-05-2.86876E-05-1.43834E-07-2.83525E-19 9.58199E-19
 -1      1079 9.48744E-05-2.79736E-05-2.86718E-05-1.13354E-07-9.34206E-19 2.71828E-19
 -1      1080 9.50033E-05-2.81388E-05-2.86562E-05-8.55845E-08 1.47135E-19 8.51929E-19
 -1      1081 9.50953E-05-2.82654E-05-2.86414E-05-6.15913E-08-4.88282E-19 6.36307E-19
 -1      1082 9.51593E-05-2.83607E-05-2.86280E-05-4.21477E-08 2.22925E-19 6.74972E-19
 -1      1083 9.52025E-05-2.84313E-05-2.86162E-05-2.71091E-08-6.72880E-19-9.05068E-19
 -1      1084 9.52305E-05-2.84825E-05-2.86063E-05-1.59435E-08 2.10817E-19-1.17735E-18
 -1      1085 9.52475E-05-2.85188E-05-2.85980E-05-7.96883E-09 1.04492E-19-5.06982E-19
 -1      1086 9.52571E-05-2.85448E-05-2.85910E-05-2.32657E-09 1.76117E-20-2.04464E-21
 -1      1087 9.52609E-05-2.85611E-05-2.85856E-05 1.13676E-09-6.41503E-19 1.12269E-18
 -1      1088 9.52614E-05-2.85715E-05-2.85814E-05 3.23957E-09-4.67928E-19 3.13159E-18
 -1      1089 9.52597E-05-2.85777E-05-2.85780E-05 4.35595E-09 1.18677E-18 2.77044E-18
 -1      1090 9.52583E-05-2.85797E-05-2.85766E-05 4.20580E-09 1.16338E-18 9.01462E-19
 -1      1091 9.11614E-05-2.61619E-05-2.78562E-05 6.06133E-06-1.37672E-18-5.67143E-19
 -1      1092 9.16007E-05-2.74225E-05-2.75122E-05 8.39514E-06-1.25811E-18-1.06928E-18
 -1      1093 9.22357E-05-2.57577E-05-2.84899E-05 2.09827E-06-8.06945E-19-1.07328E-18
 -1      1094 9.27393E-05-2.60417E-05-2.85849E-05 1.45497E-06 1.06928E-19-3.95804E-19
 -1      1095 9.32346E-05-2.63981E-05-2.86442E-05 9.91307E-07-3.77246E-21 8.45409E-19
 -1      1096 9.36781E-05-2.67641E-05-2.86774E-05 6.71070E-07 3.97591E-19 1.54679E-19
 -1      1097 9.40539E-05-2.71076E-05-2.86912E-05 4.51708E-07 1.03558E-18 5.30077E-19
 -1      1098 9.43617E-05-2.74133E-05-2.86922E-05 3.02375E-07-5.83279E-19 4.76634E-19
 -1      1099 9.46069E-05-2.76748E-05-2.86851E-05 2.01145E-07-8.96629E-19-2.78493E-19
 -1      1100 9.47972E-05-2.78919E-05-2.86736E-05 1.32378E-07-2.72026E-19-6.22660E-19
 -1      1101 9.49414E-05-2.80677E-05-2.86601E-05 8.58972E-08 4.45778E-19 5.20132E-19
 -1      1102 9.50480E-05-2.82067E-05-2.86463E-05 5.47169E-08-8.30183E-19 8.69529E-19
 -1      1103 9.51248E-05-2.83143E-05-2.86331E-05 3.36872E-08 5.40752E-19 9.32309E-19
 -1      1104 9.51784E-05-2.83958E-05-2.86211E-05 1.96054E-08-1.46659E-18 1.69703E-18
 -1      1105 9.52145E-05-2.84562E-05-2.86107E-05 1.02716E-08-1.64139E-19 2.20848E-18
 -1      1106 9.52376E-05-2.84999E-05-2.86019E-05 4.19278E-09 1.53686E-19 1.77664E-18
 -1      1107 9.52513E-05-2.85308E-05-2.85945E-05 3.17227E-10-1.05194E-18 2.10462E-18
 -1      1108 9.52584E-05-2.85519E-05-2.85885E-05-2.02757E-09 5.41386E-19 7.20360E-19
 -1      1109 9.52610E-05-2.85657E-05-2.85837E-05-3.32896E-09 1.69800E-18 6.90447E-19
 -1      1110 9.52607E-05-2.85743E-05-2.85799E-05-3.96626E-09 1.06444E-19 1.08358E-18
 -1      1111 9.52593E-05-2.85778E-05-2.85778E-05-3.50559E-09-1.91048E-18-8.45038E-19
 -1      1112 9.17064E-05-2.55740E-05-2.83423E-05 3.02314E-06-5.76180E-19-6.86258E-19
 -1      1113 9.30714E-05-2.97797E-05-2.71448E-05 1.12440E-05-9.35459E-19-1.98869E-18
 -1      1114 9.13054E-05-2.56643E-05-2.81332E-05 4.31209E-06-4.78488E-19-7.37815E-19
 -1      1115 9.52576E-05-2.85809E-05-2.85757E-05 4.35691E-10 1.01665E-19 2.93735E-18
 -1      1116 9.48553E-05-3.23623E-05-2.67998E-05 1.36848E-05-1.10974E-18-1.70216E-18
 -1      1117 8.74981E-05-2.26702E-05-2.77793E-05 3.29044E-06-1.38636E-18-1.08358E-18
 -1      1118 8.57121E-05-2.21758E-05-2.72361E-05 5.47719E-06-1.55759E-18-8.35600E-19
 -1      1119 8.99326E-05-2.90288E-05-2.60492E-05 1.51717E-05-1.06394E-18-1.64708E-18
 -1      1120 8.42654E-05-2.26218E-05-2.64215E-05 9.51841E-06-1.69289E-18-4.96195E-19
 -1      1121 8.97672E-05-2.43984E-05-2.80166E-05 3.83139E-06-4.72411E-19-4.59580E-19
 -1      1122 9.15255E-05-2.51229E-05-2.84599E-05 1.54489E-06-5.11189E-19-1.34274E-18
 -1      1123 8.83697E-05-2.43005E-05-2.74537E-05 6.53849E-06-1.60289E-18-1.46088E-18
 -1      1124 9.04013E-05-2.45298E-05-2.82299E-05 2.64809E-06-5.02499E-19-8.77647E-19
 -1      1125 9.52594E-05-2.85790E-05-2.85773E-05 1.76562E-10-1.05862E-18 3.70098E-18
 -1      1126 1.22042E-04 2.77405E-10-4.41091E-05-3.92149E-05-2.97309E-19 9.91071E-18
 -1      1127 9.46712E-05 8.56941E-11-3.95086E-05-1.91827E-05-1.70677E-19 1.23593E-18
 -1      1128 8.77972E-05 4.46009E-11-3.72351E-05-1.16508E-05-1.26102E-19-2.54414E-18
 -1      1129 8.30366E-05 2.50565E-11-3.54292E-05-7.75911E-06-8.55503E-20-4.33780E-18
 -1      1130 7.93940E-05 1.30176E-11-3.40023E-05-5.73519E-06-5.20925E-20-5.20194E-18
 -1      1131 7.69045E-05 6.53035E-12-3.30051E-05-4.81426E-06-3.29284E-20-5.66575E-18
 -1      1132 7.55979E-05 4.82798E-12-3.24573E-05-4.37441E-06-1.72054E-20-5.77209E-18
 -1      1133 7.53892E-05 6.99429E-12-3.23345E-05-3.88466E-06-5.51895E-21-5.74423E-18
 -1      1134 7.60730E-05 1.16233E-11-3.25647E-05-2.96839E-06 9.58206E-21-5.68181E-18
 -1      1135 7.73494E-05 1.72490E-11-3.30389E-05-1.41992E-06 2.37169E-20-5.50584E-18
 -1      1136 7.89324E-05 2.27771E-11-3.36504E-05 8.07109E-07 2.75286E-20-5.20970E-18
 -1      1137 8.06111E-05 2.76915E-11-3.43178E-05 3.63261E-06 5.03985E-20-4.76794E-18
 -1      1138 8.23378E-05 3.23982E-11-3.50238E-05 7.01014E-06 6.98273E-20-4.12225E-18
 -1      1139 8.42689E-05 3.81030E-11-3.58276E-05 1.09857E-05 9.97911E-20-3.02745E-18
 -1      1140 8.68855E-05 4.80519E-11-3.68978E-05 1.57937E-05 1.34255E-19-9.25622E-19
 -1      1141 9.17708E-05 7.41609E-11-3.86627E-05 2.25390E-05 1.58925E-19 3.16213E-18
 -1      1142 1.10105E-04 1.73784E-10-4.20275E-05 3.57921E-05 3.23143E-19 1.16958E-17
 -1      1143 1.36242E-04-2.77404E-05-4.26970E-05-2.47031E-05-1.21179E-18 1.54236E-17
 -1      1144 1.09273E-04-3.24610E-05-3.52302E-05-1.36461E-07-3.97311E-19 1.24596E-17
 -1      1145 1.07556E-04-3.23077E-05-3.31665E-05 5.79501E-07-1.59745E-19 8.57129E-18
 -1      1146 1.11695E-04-3.36594E-05-3.38278E-05 4.92111E-07-1.12338E-19 5.73124E-18
 -1      1147 1.19001E-04-3.58224E-05-3.59092E-05 5.46371E-07-1.06422E-19 4.17958E-18
 -1      1148 1.28860E-04-3.87375E-05-3.87513E-05 6.65144E-07-1.33199E-19 2.91729E-18
 -1      1149 1.40201E-04-4.20758E-05-4.18130E-05 7.15975E-07 3.53008E-20 2.06888E-18
 -1      1150 1.49371E-04-4.47707E-05-4.39077E-05 3.69303E-07 1.41349E-20 2.09752E-18
 -1      1151 1.49996E-04-4.48303E-05-4.35016E-05-7.10505E-07 6.05364E-20 2.61077E-18
 -1      1152 1.35980E-04-4.04430E-05-3.97000E-05-2.46858E-06 1.44922E-20 2.25565E-18
 -1      1153 1.08776E-04-3.23270E-05-3.35527E-05-3.46678E-06-1.94288E-20 1.79147E-18
 -1      1154 8.52801E-05-2.54158E-05-2.88199E-05-1.76813E-06-4.99220E-20 1.83594E-19
 -1      1155 8.13333E-05-2.45829E-05-2.80260E-05 1.14368E-06-2.36375E-20-4.07201E-18
 -1      1156 9.95219E-05-2.95721E-05-3.17740E-05 3.29891E-06 4.24178E-20-6.64159E-18
 -1      1157 1.28761E-04-3.82725E-05-3.80855E-05 3.09767E-06-1.02703E-19-7.78254E-18
 -1      1158 1.49586E-04-4.46448E-05-4.33671E-05 1.50311E-06 9.98043E-20-6.98103E-18
 -1      1159 1.54834E-04-4.63513E-05-4.52921E-05-4.20308E-08-2.98579E-20-4.52729E-18
 -1      1160 1.48639E-04-4.45693E-05-4.41256E-05-5.92902E-07-1.22780E-19-4.07370E-18
 -1      1161 1.38172E-04-4.14685E-05-4.14444E-05-6.26736E-07 5.66743E-20-3.92833E-18
 -1      1162 1.27664E-04-3.83376E-05-3.84769E-05-4.80377E-07 5.32340E-20-3.95279E-18
 -1      1163 1.18849E-04-3.57044E-05-3.58598E-05-3.21483E-07-1.90384E-19-4.09435E-18
 -1      1164 1.12057E-04-3.36696E-05-3.37902E-05-2.01318E-07 8.66488E-20-4.32098E-18
 -1      1165 1.06947E-04-3.21256E-05-3.22123E-05-1.28114E-07 1.53887E-19-4.07735E-18
 -1      1166 1.03287E-04-3.10250E-05-3.10770E-05-6.72228E-08-2.17505E-19-3.49547E-18
 -1      1167 1.00763E-04-3.02600E-05-3.02925E-05-3.79215E-08-7.02855E-20-3.86042E-18
 -1      1168 9.89806E-05-2.97183E-05-2.97384E-05-2.03426E-08-2.90067E-20-5.51922E-18
 -1      1169 9.77287E-05-2.93369E-05-2.93492E-05-1.00146E-08-2.24498E-19-5.51444E-18
 -1      1170 9.68543E-05-2.90701E-05-2.90776E-05-4.03814E-09-1.78520E-19-5.16843E-18
 -1      1171 9.62485E-05-2.88851E-05-2.88894E-05-7.09062E-10-4.90291E-20-5.89315E-18
 -1      1172 9.58252E-05-2.87545E-05-2.87578E-05 3.70665E-10-8.17796E-20-5.01707E-18
 -1      1173 9.55423E-05-2.86682E-05-2.86697E-05 2.17860E-09-8.24056E-20-5.52858E-18
 -1      1174 9.53623E-05-2.86127E-05-2.86135E-05 2.55303E-09 2.58765E-19-4.12865E-18
 -1      1175 9.52483E-05-2.85774E-05-2.85778E-05 2.60267E-09-5.24167E-20-4.50721E-18
 -1      1176 9.51803E-05-2.85562E-05-2.85563E-05 2.47059E-09-2.42246E-19-3.20995E-18
 -1      1177 9.51435E-05-2.85445E-05-2.85445E-05 2.24115E-09 7.56715E-20-4.84646E-18
 -1      1178 9.51277E-05-2.85394E-05-2.85392E-05 1.96832E-09-2.21608E-19-8.25940E-18
 -1      1179 9.51254E-05-2.85383E-05-2.85381E-05 1.64419E-09 4.28733E-20-1.02529E-17
 -1      1180 9.51317E-05-2.85400E-05-2.85397E-05 1.40382E-09 1.73028E-19-5.93145E-18
 -1      1181 9.51424E-05-2.85430E-05-2.85428E-05 1.16528E-09 7.71966E-20-3.58633E-19
 -1      1182 9.51553E-05-2.85467E-05-2.85465E-05 9.50164E-10-2.96772E-20-2.06738E-18
 -1      1183 9.51686E-05-2.85507E-05-2.85505E-05 7.65780E-10-1.70773E-19 2.82057E-20
 -1      1184 9.51816E-05-2.85545E-05-2.85544E-05 6.12328E-10-3.24135E-19 5.71634E-21
 -1      1185 9.51936E-05-2.85581E-05-2.85580E-05 4.89450E-10-2.89206E-19-2.30974E-18
 -1      1186 9.52047E-05-2.85614E-05-2.85613E-05 4.00599E-10 2.01057E-20-1.98237E-18
 -1      1187 9.52144E-05-2.85643E-05-2.85642E-05 3.10146E-10-2.47411E-19-3.88679E-18
 -1      1188 9.52224E-05-2.85667E-05-2.85666E-05 2.51119E-10-3.63445E-20-6.67518E-18
 -1      1189 9.52290E-05-2.85686E-05-2.85685E-05 1.92869E-10-2.79259E-19-4.11204E-18
 -1      1190 9.52339E-05-2.85701E-05-2.85700E-05 1.11027E-10 5.28350E-19-2.43820E-18
 -1      1191 9.52368E-05-2.85710E-05-2.85709E-05-4.83885E-11 5.25165E-19-5.46467E-18
 -1      1192 9.52374E-05-2.85710E-05-2.85714E-05-2.58145E-10 1.19822E-18-5.53100E-18
 -1      1193 1.34886E-04-3.87384E-05-4.00811E-05 1.21917E-05-2.21711E-19 1.87995E-17
 -1      1194 1.02027E-04-2.98084E-05-3.29871E-05 6.93345E-07 1.29067E-19 1.48505E-17
 -1      1195 9.69380E-05-2.88928E-05-2.97876E-05 3.61712E-08 9.56088E-20 1.10369E-17
 -1      1196 9.53201E-05-2.85831E-05-2.87005E-05-6.55655E-08 3.74018E-20 8.69744E-18
 -1      1197 9.45558E-05-2.83766E-05-2.83121E-05-8.75949E-08 1.08621E-19 6.73394E-18
 -1      1198 9.35997E-05-2.80809E-05-2.79821E-05-7.21255E-08 1.51804E-20 4.98006E-18
 -1      1199 9.19308E-05-2.75775E-05-2.74709E-05-3.08730E-08-6.41561E-21 4.25220E-18
 -1      1200 8.93645E-05-2.68153E-05-2.67165E-05 3.27602E-08-2.28418E-20 4.10340E-18
 -1      1201 8.60559E-05-2.58370E-05-2.57707E-05 1.07538E-07-2.27946E-20 3.32167E-18
 -1      1202 8.25082E-05-2.47866E-05-2.47801E-05 1.71933E-07 2.07908E-19 2.53967E-18
 -1      1203 7.94849E-05-2.38860E-05-2.39547E-05 2.00254E-07 2.74574E-20 1.69404E-18
 -1      1204 7.77885E-05-2.33722E-05-2.35066E-05 1.75471E-07 6.22023E-20 1.01782E-18
 -1      1205 7.79650E-05-2.34112E-05-2.35756E-05 1.00794E-07 1.40445E-19 3.08069E-19
 -1      1206 8.00771E-05-2.40284E-05-2.41751E-05 2.72561E-10-1.49223E-21-1.51142E-19
 -1      1207 8.36773E-05-2.50960E-05-2.51868E-05-9.31474E-08-4.49978E-20-5.68121E-19
 -1      1208 8.79933E-05-2.63851E-05-2.64062E-05-1.53932E-07-4.83259E-20-8.31283E-19
 -1      1209 9.22161E-05-2.76517E-05-2.76141E-05-1.73343E-07 1.73311E-20-1.70121E-19
 -1      1210 9.57371E-05-2.87106E-05-2.86390E-05-1.58206E-07 1.00486E-20 2.01356E-19
 -1      1211 9.82512E-05-2.94680E-05-2.93877E-05-1.23008E-07 6.29319E-21-1.10214E-18
 -1      1212 9.97300E-05-2.99143E-05-2.98432E-05-8.20348E-08-3.41063E-20-1.14537E-18
 -1      1213 1.00328E-04-3.00954E-05-3.00422E-05-4.50897E-08-4.88037E-21-1.89428E-18
 -1      1214 1.00278E-04-3.00818E-05-3.00477E-05-1.68206E-08-3.30004E-20-1.27381E-18
 -1      1215 9.98179E-05-2.99448E-05-2.99268E-05 1.99202E-09 7.30380E-20-1.83792E-18
 -1      1216 9.91465E-05-2.97442E-05-2.97378E-05 1.26987E-08 1.38422E-19-3.16169E-18
 -1      1217 9.84090E-05-2.95235E-05-2.95245E-05 1.74114E-08-1.56311E-19-2.04462E-18
 -1      1218 9.76992E-05-2.93109E-05-2.93159E-05 1.81961E-08-2.10672E-19 1.10026E-18
 -1      1219 9.70698E-05-2.91223E-05-2.91290E-05 1.67191E-08 9.33612E-20-9.97474E-19
 -1      1220 9.65434E-05-2.89645E-05-2.89713E-05 1.41691E-08 5.55007E-20-4.27851E-18
 -1      1221 9.61232E-05-2.88384E-05-2.88446E-05 1.13120E-08-5.90262E-20-5.14547E-18
 -1      1222 9.58011E-05-2.87416E-05-2.87469E-05 8.59119E-09-2.29833E-19-3.78864E-18
 -1      1223 9.55635E-05-2.86702E-05-2.86744E-05 6.22670E-09 3.86661E-20-3.86087E-18
 -1      1224 9.53953E-05-2.86196E-05-2.86227E-05 4.29652E-09-5.17021E-19-3.23583E-18
 -1      1225 9.52815E-05-2.85853E-05-2.85876E-05 2.79602E-09-9.05175E-20-2.87273E-18
 -1      1226 9.52089E-05-2.85633E-05-2.85649E-05 1.67825E-09-3.31932E-19-2.30157E-18
 -1      1227 9.51664E-05-2.85504E-05-2.85515E-05 8.79316E-10-2.80611E-19-6.75446E-19
 -1      1228 9.51453E-05-2.85440E-05-2.85446E-05 3.33188E-10 2.84776E-19-4.63581E-18
 -1      1229 9.51385E-05-2.85419E-05-2.85422E-05-2.04992E-11-1.99084E-19-6.84825E-18
 -1      1230 9.51410E-05-2.85425E-05-2.85427E-05-2.33105E-10 3.41786E-19-5.29659E-18
 -1      1231 9.51491E-05-2.85449E-05-2.85449E-05-3.46216E-10-9.73586E-20-6.10099E-18
 -1      1232 9.51600E-05-2.85481E-05-2.85481E-05-3.92271E-10 1.15513E-19-7.21987E-18
 -1      1233 9.51720E-05-2.85517E-05-2.85516E-05-3.95827E-10 3.48667E-20-6.99292E-18
 -1      1234 9.51841E-05-2.85553E-05-2.85552E-05-3.75035E-10 2.53799E-19-6.70538E-18
 -1      1235 9.51955E-05-2.85587E-05-2.85586E-05-3.43063E-10-1.79184E-19-8.06205E-18
 -1      1236 9.52058E-05-2.85618E-05-2.85617E-05-3.09324E-10-5.06349E-19-7.31665E-18
 -1      1237 9.52150E-05-2.85645E-05-2.85644E-05-2.80261E-10-1.14464E-19-7.61488E-18
 -1      1238 9.52229E-05-2.85668E-05-2.85668E-05-2.59223E-10 2.19632E-19-8.48574E-18
 -1      1239 9.52293E-05-2.85688E-05-2.85687E-05-2.44620E-10-4.83160E-19-8.33758E-18
 -1      1240 9.52341E-05-2.85702E-05-2.85701E-05-2.16426E-10 2.54238E-19-7.44873E-18
 -1      1241 9.52369E-05-2.85710E-05-2.85709E-05-1.11010E-10 3.69549E-19-7.80977E-18
 -1      1242 9.52374E-05-2.85712E-05-2.85714E-05 1.05910E-10-3.21757E-19-5.09834E-18
 -1      1243 9.52370E-05-2.85708E-05-2.85714E-05 9.73959E-11-5.10833E-18-2.73351E-19
 -1      1244 9.52373E-05-2.85715E-05-2.85709E-05 4.86379E-11-5.91248E-18 4.35405E-19
 -1      1245 9.52381E-05-2.85742E-05-2.85701E-05-1.43366E-10-6.88269E-19 9.25857E-19
 -1      1246 9.52393E-05-2.85784E-05-2.85689E-05-2.16024E-10-4.08111E-19-9.60353E-19
 -1      1247 9.52408E-05-2.85833E-05-2.85675E-05-2.22159E-10-8.59182E-19-6.47727E-19
 -1      1248 9.52421E-05-2.85879E-05-2.85662E-05-1.90703E-10-4.22134E-18-3.63539E-20
 -1      1249 9.52432E-05-2.85916E-05-2.85651E-05-1.40423E-10-6.82592E-18-8.83926E-19
 -1      1250 9.52439E-05-2.85941E-05-2.85644E-05-7.33856E-11-5.12875E-18 4.14723E-20
 -1      1251 9.52442E-05-2.85949E-05-2.85642E-05 3.14713E-14-2.42386E-18 1.04634E-18
 -1      1252 9.52440E-05-2.85941E-05-2.85644E-05 7.37222E-11 5.86473E-18-1.65181E-19
 -1      1253 9.52432E-05-2.85916E-05-2.85651E-05 1.41221E-10 8.82635E-19-5.51557E-19
 -1      1254 9.52421E-05-2.85879E-05-2.85662E-05 1.95149E-10 9.14383E-19 1.13461E-18
 -1      1255 9.52408E-05-2.85833E-05-2.85675E-05 2.24398E-10 2.65239E-18-2.54328E-19
 -1      1256 9.52393E-05-2.85784E-05-2.85689E-05 2.15407E-10 1.03806E-18-2.29003E-19
 -1      1257 9.52381E-05-2.85741E-05-2.85701E-05 1.29820E-10 2.45711E-18 6.70930E-19
 -1      1258 9.52373E-05-2.85714E-05-2.85709E-05-1.18943E-10 1.05719E-17 2.73027E-19
 -1      1259 9.52372E-05-2.85709E-05-2.85714E-05-2.41066E-10 7.98744E-18-1.99509E-18
 -1      1260 3.60296E-05-1.11863E-04 1.92374E-05-1.26916E-05 9.10010E-18 1.94058E-18
 -1      1261 1.80100E-05-6.49013E-05 9.64908E-06-2.33454E-05 1.66882E-17 6.19096E-18
 -1      1262 7.68771E-06-6.67143E-06-6.62306E-06 2.08925E-06 1.80164E-17 1.06845E-17
 -1      1263 3.30962E-05 2.77287E-05-2.65255E-05 5.48527E-05 1.55261E-17 1.40650E-17
 -1      1264 1.07677E-04 1.65683E-05-4.79232E-05 1.04352E-04 1.09979E-17 1.46384E-17
 -1      1265 2.09533E-04-3.08936E-05-6.61681E-05 1.15927E-04 4.98860E-18 1.13316E-17
 -1      1266 2.92274E-04-7.96276E-05-7.74421E-05 7.04525E-05 1.01856E-18 2.76810E-18
 -1      1267 3.18886E-04-9.60046E-05-8.07579E-05-9.47212E-06 5.81647E-19-7.41069E-18
 -1      1268 2.77004E-04-7.00870E-05-7.54330E-05-8.35059E-05 4.23802E-18-1.58997E-17
 -1      1269 1.88419E-04-1.99188E-05-6.26552E-05-1.17763E-04 1.07171E-17-2.15722E-17
 -1      1270 8.74721E-05 2.20081E-05-4.29925E-05-9.45768E-05 1.70508E-17-2.18551E-17
 -1      1271 2.13410E-05 2.11912E-05-2.03854E-05-3.75847E-05 2.07116E-17-1.70220E-17
 -1      1272 8.25869E-06-2.45302E-05-8.27327E-07 1.06662E-05 1.91362E-17-9.99499E-18
 -1      1273 2.41968E-05-8.32658E-05 1.35319E-05 2.36271E-05 1.23735E-17-3.98571E-18
 -1      1274 3.83157E-05-1.19116E-04 2.05922E-05 3.04516E-06 1.23010E-18-1.13248E-18
 -1      1275 3.10538E-05-1.06106E-04 1.84417E-05-2.48539E-05-9.83575E-18-2.88785E-18
 -1      1276 1.28670E-05-5.72630E-05 7.38912E-06-2.91380E-05-1.85729E-17-9.09375E-18
 -1      1277 9.71165E-06-2.79687E-06-9.99961E-06 4.90245E-06-2.27344E-17-1.69296E-17
 -1      1278 5.01480E-05 2.20577E-05-3.19362E-05 6.37410E-05-2.06659E-17-2.24565E-17
 -1      1279 1.44009E-04-7.00846E-07-5.49280E-05 1.12005E-04-1.39718E-17-2.28123E-17
 -1      1280 2.61468E-04-5.59500E-05-7.38554E-05 1.09061E-04-6.05756E-18-1.58514E-17
 -1      1281 3.42224E-04-1.01024E-04-8.43856E-05 4.55154E-05-1.44821E-18-7.35352E-18
 -1      1282 3.42708E-04-1.01396E-04-8.44116E-05-4.24165E-05-1.23794E-18 3.13233E-18
 -1      1283 2.70069E-04-6.12901E-05-7.48203E-05-1.03980E-04-3.54314E-18 1.11961E-17
 -1      1284 1.64830E-04-1.00976E-05-5.83775E-05-1.14432E-04-8.36953E-18 1.55024E-17
 -1      1285 7.16285E-05 1.91864E-05-3.81112E-05-7.92121E-05-1.42573E-17 1.73049E-17
 -1      1286 1.79581E-05 9.36118E-06-1.70117E-05-2.36276E-05-1.92869E-17 1.58514E-17
 -1      1287 7.29801E-06-3.37145E-05 1.34087E-06 2.09089E-05-1.88448E-17 1.12257E-17
 -1      1288 2.20214E-05-8.57644E-05 1.43697E-05 3.31792E-05-1.26970E-17 4.82851E-18
 -1      1289 3.70143E-05-1.18228E-04 2.08252E-05 1.58668E-05-1.72879E-18 1.10588E-18
 -1      1290 1.12734E-04-2.41426E-05-4.04694E-05-1.48025E-05-4.52104E-19 8.06989E-18
 -1      1291 9.68339E-05-8.02705E-06-3.81931E-05-1.48946E-05-1.29977E-18-5.13937E-19
 -1      1292 1.00407E-04-8.36974E-06-3.96467E-05-2.08274E-05-1.66971E-18 1.47024E-18
 -1      1293 8.90097E-05-4.36627E-06-3.63745E-05-1.01490E-05-1.31798E-18-3.32328E-18
 -1      1294 9.19382E-05-4.47214E-06-3.73621E-05-1.27522E-05-1.50190E-18-2.10308E-18
 -1      1295 9.82135E-05-1.17321E-05-3.70952E-05-1.30949E-05-2.29999E-18-5.17590E-19
 -1      1296 8.34127E-05-2.44787E-06-3.47873E-05-7.10562E-06-1.09966E-18-4.70318E-18
 -1      1297 8.57404E-05-2.49139E-06-3.55960E-05-8.51669E-06-1.26451E-18-4.09000E-18
 -1      1298 8.97513E-05-6.86074E-06-3.55805E-05-9.30198E-06-2.07203E-18-2.85275E-18
 -1      1299 7.92976E-05-1.25153E-06-3.35275E-05-5.51586E-06-8.00976E-19-5.43532E-18
 -1      1300 8.09994E-05-1.27942E-06-3.41383E-05-6.23650E-06-9.20566E-19-5.09509E-18
 -1      1301 8.35659E-05-3.88975E-06-3.42046E-05-6.79629E-06-1.65715E-18-4.04008E-18
 -1      1302 7.67344E-05-6.12959E-07-3.26829E-05-4.81214E-06-5.71959E-19-5.73772E-18
 -1      1303 7.77422E-05-6.22212E-07-3.30661E-05-5.15859E-06-6.48801E-19-5.58311E-18
 -1      1304 7.92826E-05-2.11987E-06-3.31200E-05-5.50918E-06-1.21459E-18-4.60675E-18
 -1      1305 7.56517E-05-4.55355E-07-3.22577E-05-4.39874E-06-3.52412E-19-5.82527E-18
 -1      1306 7.59987E-05-4.46742E-07-3.24203E-05-4.65579E-06-4.34912E-19-5.79266E-18
 -1      1307 7.68435E-05-1.33361E-06-3.24081E-05-4.91304E-06-8.46550E-19-4.92116E-18
 -1      1308 7.59100E-05-6.86695E-07-3.22362E-05-3.80369E-06-1.09816E-19-5.77781E-18
 -1      1309 7.56823E-05-6.64849E-07-3.21980E-05-4.18880E-06-2.09113E-19-5.79625E-18
 -1      1310 7.61500E-05-1.37779E-06-3.20924E-05-4.44545E-06-4.76634E-19-4.93115E-18
 -1      1311 7.71450E-05-1.16184E-06-3.25316E-05-2.69425E-06 9.50794E-20-5.66127E-18
 -1      1312 7.65144E-05-1.13459E-06-3.23433E-05-3.34798E-06 2.71977E-20-5.72705E-18
 -1      1313 7.69076E-05-2.02868E-06-3.21405E-05-3.67299E-06-6.75476E-20-4.91479E-18
 -1      1314 7.89412E-05-1.73131E-06-3.30350E-05-9.20973E-07 3.08082E-19-5.49930E-18
 -1      1315 7.80907E-05-1.70637E-06-3.27538E-05-1.89891E-06 2.35502E-19-5.60956E-18
 -1      1316 7.86407E-05-3.00900E-06-3.24660E-05-2.32499E-06 2.56254E-19-4.76546E-18
 -1      1317 8.09509E-05-2.28536E-06-3.36463E-05 1.51674E-06 5.32334E-19-5.21092E-18
 -1      1318 8.00243E-05-2.26770E-06-3.33206E-05 2.21955E-07 4.41939E-19-5.38562E-18
 -1      1319 8.08673E-05-4.07543E-06-3.29658E-05-3.10833E-07 6.14046E-19-4.65554E-18
 -1      1320 8.29441E-05-2.76907E-06-3.42888E-05 4.48578E-06 7.63468E-19-4.69217E-18
 -1      1321 8.20285E-05-2.76484E-06-3.39513E-05 2.93875E-06 6.62009E-19-4.98437E-18
 -1      1322 8.32122E-05-5.07715E-06-3.35443E-05 2.30382E-06 9.65287E-19-4.25552E-18
 -1      1323 8.49930E-05-3.22754E-06-3.49726E-05 8.02091E-06 1.10932E-18-3.97033E-18
 -1      1324 8.40364E-05-3.23671E-06-3.46072E-05 6.18163E-06 9.89255E-19-4.38882E-18
 -1      1325 8.55483E-05-6.01558E-06-3.41494E-05 5.44736E-06 1.44049E-18-3.69688E-18
 -1      1326 8.73266E-05-3.77465E-06-3.57482E-05 1.21102E-05 1.42662E-18-2.76397E-18
 -1      1327 8.61994E-05-3.80129E-06-3.53110E-05 9.94842E-06 1.28683E-18-3.49978E-18
 -1      1328 8.80266E-05-7.05527E-06-3.47762E-05 9.08899E-06 1.94158E-18-2.88092E-18
 -1      1329 9.06770E-05-4.71828E-06-3.67896E-05 1.70448E-05 1.64737E-18-4.57160E-19
 -1      1330 8.89985E-05-4.76261E-06-3.61519E-05 1.42953E-05 1.44541E-18-1.84833E-18
 -1      1331 9.11491E-05-8.60594E-06-3.54612E-05 1.32362E-05 2.31715E-18-1.44859E-18
 -1      1332 9.75020E-05-7.57358E-06-3.84837E-05 2.38283E-05 1.44017E-18 3.91880E-18
 -1      1333 9.39264E-05-7.15250E-06-3.73344E-05 1.94408E-05 1.41095E-18 1.24016E-18
 -1      1334 9.63546E-05-1.18607E-05-3.62802E-05 1.78568E-05 2.46995E-18 1.12306E-18
 -1      1335 1.27810E-04-2.59563E-05-4.04105E-05 2.79381E-05 7.20296E-19 1.23188E-17
 -1      1336 1.04323E-04-1.53729E-05-3.87587E-05 2.30905E-05 7.36919E-19 6.48245E-18
 -1      1337 1.06285E-04-2.06962E-05-3.67772E-05 2.00670E-05 2.35946E-18 5.10591E-18
 -1      1338 1.07397E-04-2.92825E-05-3.62152E-05 6.58969E-06 1.27854E-18 1.18390E-17
 -1      1339 1.15638E-04-3.34623E-05-3.66009E-05-5.17846E-06-1.35081E-18 8.53185E-18
 -1      1340 1.11109E-04-3.17736E-05-3.45197E-05-2.53713E-06-1.27457E-18 6.93185E-18
 -1      1341 1.09846E-04-3.20542E-05-3.35848E-05 2.68123E-07-9.68450E-19 6.32335E-18
 -1      1342 1.10338E-04-3.25554E-05-3.33717E-05 7.68432E-07-9.25966E-19 4.89156E-18
 -1      1343 1.11574E-04-3.16116E-05-3.46381E-05-2.85310E-06-2.12828E-18 3.52869E-18
 -1      1344 1.10738E-04-3.27370E-05-3.34333E-05 2.50187E-06-7.79059E-19 4.40727E-18
 -1      1345 1.13350E-04-3.36373E-05-3.41267E-05 2.78426E-06-6.78632E-19 3.36378E-18
 -1      1346 1.10311E-04-3.21610E-05-3.36587E-05 2.86477E-06-1.62276E-18 2.57391E-18
 -1      1347 1.15193E-04-3.41733E-05-3.47167E-05 4.03564E-06-4.23708E-19 2.95694E-18
 -1      1348 1.19279E-04-3.55047E-05-3.58933E-05 4.29941E-06-5.30752E-19 2.25671E-18
 -1      1349 1.12601E-04-3.31004E-05-3.41559E-05 6.40337E-06-1.09535E-18 1.71077E-18
 -1      1350 1.22110E-04-3.63501E-05-3.67712E-05 5.15174E-06-3.84897E-19 2.13410E-18
 -1      1351 1.27159E-04-3.80614E-05-3.81872E-05 5.33622E-06-2.29963E-19 1.62196E-18
 -1      1352 1.17168E-04-3.46826E-05-3.54217E-05 8.96440E-06-7.71918E-19 1.16036E-18
 -1      1353 1.30741E-04-3.92657E-05-3.91977E-05 5.35883E-06 2.42198E-21 1.67183E-18
 -1      1354 1.35880E-04-4.11662E-05-4.05399E-05 5.24437E-06 8.04814E-20 1.49057E-18
 -1      1355 1.23521E-04-3.70948E-05-3.70755E-05 1.01728E-05-2.57058E-19 9.99234E-19
 -1      1356 1.39103E-04-4.24941E-05-4.12808E-05 3.56453E-06 2.80527E-19 1.90180E-18
 -1      1357 1.41636E-04-4.36859E-05-4.18040E-05 2.85048E-06 6.11187E-20 2.06242E-18
 -1      1358 1.30593E-04-4.03575E-05-3.86120E-05 8.43906E-06 2.44237E-19 1.31335E-18
 -1      1359 1.43609E-04-4.48540E-05-4.20150E-05-1.25351E-06 2.61204E-19 2.27214E-18
 -1      1360 1.40787E-04-4.41612E-05-4.11474E-05-2.78829E-06 6.25216E-20 2.36725E-18
 -1      1361 1.36457E-04-4.37503E-05-3.95286E-05 1.86202E-06 2.68562E-19 2.22258E-18
 -1      1362 1.40005E-04-4.41793E-05-4.07430E-05-8.39498E-06-2.37646E-19 2.45650E-18
 -1      1363 1.30272E-04-4.04607E-05-3.84564E-05-1.00907E-05-3.49983E-19 2.21986E-18
 -1      1364 1.38515E-04-4.52544E-05-3.96924E-05-9.77992E-06-1.93229E-20 2.68316E-18
 -1      1365 1.26088E-04-3.83082E-05-3.77854E-05-1.28639E-05-3.86115E-19 1.88317E-18
 -1      1366 1.13495E-04-3.28512E-05-3.51885E-05-1.27023E-05-7.58942E-19 1.50687E-18
 -1      1367 1.33992E-04-4.17354E-05-3.95315E-05-2.07146E-05-7.28395E-19 2.42932E-18
 -1      1368 1.09518E-04-3.02479E-05-3.48504E-05-9.11202E-06-1.21528E-18 4.29657E-19
 -1      1369 1.03169E-04-2.72365E-05-3.36783E-05-6.81094E-06-1.50179E-18-8.68738E-19
 -1      1370 1.25508E-04-3.49126E-05-3.95437E-05-1.95255E-05-1.81106E-18 7.20190E-19
 -1      1371 1.02026E-04-2.64228E-05-3.36434E-05 1.53233E-06-1.39580E-18-2.37063E-18
 -1      1372 1.04750E-04-2.76448E-05-3.42162E-05 4.23952E-06-1.47161E-18-3.97534E-18
 -1      1373 1.19571E-04-2.90747E-05-3.98474E-05-5.14190E-06-2.98664E-18-1.37005E-18
 -1      1374 1.08553E-04-3.01829E-05-3.45430E-05 1.18344E-05-1.02184E-18-5.03646E-18
 -1      1375 1.20654E-04-3.55095E-05-3.69389E-05 1.29078E-05-5.58936E-19-5.96057E-18
 -1      1376 1.22137E-04-3.10917E-05-3.98882E-05 1.44901E-05-2.32595E-18-3.56774E-18
 -1      1377 1.25626E-04-3.83086E-05-3.76152E-05 1.27048E-05-1.92488E-19-6.48700E-18
 -1      1378 1.37376E-04-4.30131E-05-4.02461E-05 1.14715E-05-2.45011E-20-6.43660E-18
 -1      1379 1.31823E-04-3.94800E-05-3.98082E-05 2.29646E-05-8.98914E-19-5.26230E-18
 -1      1380 1.40163E-04-4.39893E-05-4.09630E-05 5.99760E-06 4.06364E-19-5.94448E-18
 -1      1381 1.46238E-04-4.59963E-05-4.26230E-05 4.10098E-06 6.71962E-19-5.33747E-18
 -1      1382 1.39265E-04-4.51634E-05-4.01077E-05 1.53721E-05 5.07551E-19-5.31354E-18
 -1      1383 1.45251E-04-4.51018E-05-4.26983E-05-9.04452E-07 3.37490E-19-5.13048E-18
 -1      1384 1.44561E-04-4.45155E-05-4.27017E-05-1.92491E-06 2.66471E-19-4.55379E-18
 -1      1385 1.39933E-04-4.53503E-05-4.02672E-05 2.45980E-06 8.32289E-19-5.08297E-18
 -1      1386 1.41741E-04-4.31912E-05-4.21515E-05-4.52568E-06 2.72268E-19-4.16544E-18
 -1      1387 1.37582E-04-4.15681E-05-4.11234E-05-4.82856E-06 3.11291E-19-3.96634E-18
 -1      1388 1.35327E-04-4.23657E-05-3.97158E-05-6.28236E-06 3.96729E-19-4.94527E-18
 -1      1389 1.34089E-04-4.03091E-05-4.01981E-05-5.44836E-06 2.71456E-20-3.34774E-18
 -1      1390 1.29002E-04-3.85541E-05-3.88023E-05-5.37459E-06 1.31835E-19-3.18103E-18
 -1      1391 1.28595E-04-3.90099E-05-3.83884E-05-9.78813E-06 4.53606E-19-3.82217E-18
 -1      1392 1.25613E-04-3.75059E-05-3.77925E-05-4.96869E-06 1.81487E-19-3.52885E-18
 -1      1393 1.20951E-04-3.60000E-05-3.64523E-05-4.77025E-06-9.15755E-20-3.43456E-18
 -1      1394 1.21678E-04-3.62535E-05-3.66582E-05-9.86316E-06 8.48216E-20-3.60863E-18
 -1      1395 1.18026E-04-3.51656E-05-3.55374E-05-4.02153E-06-1.64616E-19-3.22595E-18
 -1      1396 1.14255E-04-3.39944E-05-3.44281E-05-3.81700E-06-1.53187E-19-3.54017E-18
 -1      1397 1.15522E-04-3.41906E-05-3.49133E-05-8.42824E-06-1.61201E-19-2.92878E-18
 -1      1398 1.11895E-04-3.33453E-05-3.36770E-05-3.06273E-06-1.44922E-20-3.34382E-18
 -1      1399 1.09025E-04-3.24768E-05-3.28248E-05-2.89307E-06 2.31968E-19-3.28254E-18
 -1      1400 1.10444E-04-3.26722E-05-3.33805E-05-6.63569E-06 1.93825E-19-2.56557E-18
 -1      1401 1.07114E-04-3.19602E-05-3.22134E-05-2.23203E-06 1.77434E-19-3.56842E-18
 -1      1402 1.04934E-04-3.13080E-05-3.15615E-05-2.09514E-06 2.05184E-19-3.32411E-18
 -1      1403 1.06365E-04-3.15273E-05-3.21086E-05-4.96711E-06-8.52062E-20-2.77629E-18
 -1      1404 1.03583E-04-3.09420E-05-3.11297E-05-1.60828E-06-5.63310E-20-3.51576E-18
 -1      1405 1.02097E-04-3.05033E-05-3.06849E-05-1.51534E-06-4.30650E-19-3.35078E-18
 -1      1406 1.03262E-04-3.06932E-05-3.11293E-05-3.61217E-06-5.42002E-20-3.07896E-18
 -1      1407 1.01091E-04-3.02303E-05-3.03650E-05-1.15278E-06-4.26311E-19-3.33723E-18
 -1      1408 1.00032E-04-2.99196E-05-3.00480E-05-1.08558E-06-4.26713E-19-4.21055E-18
 -1      1409 1.01006E-04-3.00917E-05-3.04120E-05-2.61308E-06-3.04065E-19-3.30354E-18
 -1      1410 9.92947E-05-2.97184E-05-2.98144E-05-8.20633E-07-4.43695E-19-4.67778E-18
 -1      1411 9.85464E-05-2.94998E-05-2.95900E-05-7.72657E-07-8.07259E-19-5.55040E-18
 -1      1412 9.93362E-05-2.96495E-05-2.98805E-05-1.87436E-06-1.20938E-18-3.89830E-18
 -1      1413 9.80099E-05-2.93527E-05-2.94209E-05-5.80875E-07 3.67169E-20-5.07588E-18
 -1      1414 9.74837E-05-2.91996E-05-2.92630E-05-5.46714E-07 1.32101E-21-5.01495E-18
 -1      1415 9.81126E-05-2.93256E-05-2.94909E-05-1.33584E-06-4.80006E-19-4.35221E-18
 -1      1416 9.70964E-05-2.90928E-05-2.91413E-05-4.08492E-07-2.54343E-19-4.29240E-18
 -1      1417 9.67289E-05-2.89864E-05-2.90310E-05-3.84142E-07 7.14519E-21-4.32732E-18
 -1      1418 9.72228E-05-2.90898E-05-2.92077E-05-9.46051E-07 3.93953E-20-3.84745E-18
 -1      1419 9.64516E-05-2.89094E-05-2.89442E-05-2.84728E-07 1.15833E-19-4.58377E-18
 -1      1420 9.61968E-05-2.88364E-05-2.88676E-05-2.67379E-07 7.09771E-20-4.86105E-18
 -1      1421 9.65809E-05-2.89195E-05-2.90035E-05-6.64880E-07 9.47031E-20-3.94088E-18
 -1      1422 9.59917E-05-2.87793E-05-2.88035E-05-1.93302E-07 2.80519E-19-4.30415E-18
 -1      1423 9.58117E-05-2.87279E-05-2.87492E-05-1.80196E-07 5.57946E-20-4.38118E-18
 -1      1424 9.61128E-05-2.87945E-05-2.88546E-05-4.59132E-07 6.08163E-19-3.29988E-18
 -1      1425 9.56769E-05-2.86899E-05-2.87072E-05-1.29909E-07 7.93839E-20-3.41356E-18
 -1      1426 9.55629E-05-2.86577E-05-2.86728E-05-1.21400E-07 3.78063E-19-3.07894E-18
 -1      1427 9.57843E-05-2.87082E-05-2.87499E-05-3.10894E-07 2.78281E-19-2.39421E-18
 -1      1428 9.54702E-05-2.86318E-05-2.86439E-05-8.56242E-08 2.59819E-19-3.52614E-18
 -1      1429 9.53960E-05-2.86110E-05-2.86214E-05-7.95874E-08 3.65827E-19-3.03918E-18
 -1      1430 9.55625E-05-2.86495E-05-2.86791E-05-2.08495E-07 3.24156E-19-1.10745E-18
 -1      1431 9.53338E-05-2.85936E-05-2.86021E-05-5.43217E-08 1.40058E-20-3.12609E-18
 -1      1432 9.52874E-05-2.85809E-05-2.85879E-05-5.01270E-08-4.24840E-21-2.39163E-18
 -1      1433 9.54112E-05-2.86099E-05-2.86307E-05-1.35773E-07-2.84079E-20-1.23952E-18
 -1      1434 9.52471E-05-2.85696E-05-2.85754E-05-3.25016E-08-4.56782E-19-2.27876E-18
 -1      1435 9.52200E-05-2.85624E-05-2.85671E-05-2.96365E-08-5.69578E-19-2.73748E-18
 -1      1436 9.53108E-05-2.85840E-05-2.85983E-05-8.45973E-08-1.64233E-19-1.58287E-18
 -1      1437 9.51951E-05-2.85554E-05-2.85594E-05-1.75519E-08-8.53673E-19-3.42196E-18
 -1      1438 9.51812E-05-2.85520E-05-2.85550E-05-1.56393E-08-1.37442E-18-4.58503E-18
 -1      1439 9.52466E-05-2.85677E-05-2.85774E-05-4.90965E-08-1.75908E-18-2.15891E-18
 -1      1440 9.51669E-05-2.85480E-05-2.85506E-05-7.55790E-09-1.44607E-18-5.70353E-18
 -1      1441 9.51617E-05-2.85471E-05-2.85489E-05-6.32017E-09-1.26898E-18-7.48872E-18
 -1      1442 9.52080E-05-2.85583E-05-2.85647E-05-2.49531E-08-2.45194E-18-4.49055E-18
 -1      1443 9.51546E-05-2.85451E-05-2.85467E-05-9.22654E-10 5.53269E-20-8.06945E-18
 -1      1444 9.51550E-05-2.85457E-05-2.85467E-05-1.17279E-10 5.50407E-19-6.99830E-18
 -1      1445 9.51866E-05-2.85533E-05-2.85574E-05-8.74583E-09-1.03133E-18-5.50200E-18
 -1      1446 9.51530E-05-2.85451E-05-2.85461E-05 3.01241E-09 1.71914E-18-7.17661E-18
 -1      1447 9.51568E-05-2.85466E-05-2.85471E-05 3.40990E-09 1.86710E-18-4.26317E-18
 -1      1448 9.51775E-05-2.85518E-05-2.85541E-05 1.55064E-09 1.40548E-18-5.23255E-18
 -1      1449 9.51578E-05-2.85469E-05-2.85474E-05 5.16650E-09 1.22102E-18-4.11799E-18
 -1      1450 9.51632E-05-2.85488E-05-2.85489E-05 5.35144E-09 1.64731E-19-2.77674E-18
 -1      1451 9.51763E-05-2.85521E-05-2.85533E-05 7.45271E-09 2.66548E-18-4.92685E-18
 -1      1452 9.51660E-05-2.85496E-05-2.85498E-05 6.18386E-09-2.72194E-19-2.27713E-18
 -1      1453 9.51722E-05-2.85517E-05-2.85516E-05 6.22653E-09 4.96794E-19-1.77639E-18
 -1      1454 9.51797E-05-2.85536E-05-2.85541E-05 1.06009E-08 2.41154E-19-3.41388E-18
 -1      1455 9.51758E-05-2.85527E-05-2.85527E-05 6.45673E-09 5.24493E-19-1.98314E-18
 -1      1456 9.51821E-05-2.85548E-05-2.85545E-05 6.41270E-09-1.25986E-19-1.78909E-18
 -1      1457 9.51857E-05-2.85557E-05-2.85558E-05 1.19180E-08 2.16725E-21-3.30147E-18
 -1      1458 9.51861E-05-2.85559E-05-2.85558E-05 6.26960E-09-5.21161E-19-3.13492E-19
 -1      1459 9.51922E-05-2.85578E-05-2.85575E-05 6.17712E-09-8.16968E-19-1.45708E-18
 -1      1460 9.51930E-05-2.85581E-05-2.85578E-05 1.20621E-08-1.10726E-19-3.12938E-18
 -1      1461 9.51961E-05-2.85590E-05-2.85588E-05 5.81652E-09-3.82025E-19-1.53225E-18
 -1      1462 9.52017E-05-2.85607E-05-2.85604E-05 5.70193E-09 2.27383E-19-1.84690E-18
 -1      1463 9.52007E-05-2.85605E-05-2.85601E-05 1.14961E-08-5.24213E-19-9.40516E-19
 -1      1464 9.52056E-05-2.85618E-05-2.85616E-05 5.20174E-09-5.15731E-19-1.90235E-18
 -1      1465 9.52108E-05-2.85634E-05-2.85631E-05 5.07001E-09-8.11662E-19-2.61098E-18
 -1      1466 9.52084E-05-2.85628E-05-2.85624E-05 1.05053E-08-8.16911E-19-2.08237E-18
 -1      1467 9.52142E-05-2.85644E-05-2.85642E-05 4.53491E-09-9.84672E-19-2.24355E-18
 -1      1468 9.52184E-05-2.85657E-05-2.85654E-05 4.40680E-09-9.89059E-19-3.63803E-18
 -1      1469 9.52155E-05-2.85650E-05-2.85645E-05 9.28685E-09-1.31927E-18-2.79848E-18
 -1      1470 9.52214E-05-2.85666E-05-2.85663E-05 3.83371E-09-4.85360E-20-4.24908E-18
 -1      1471 9.52249E-05-2.85677E-05-2.85674E-05 3.69964E-09-2.91415E-19-4.79752E-18
 -1      1472 9.52216E-05-2.85668E-05-2.85663E-05 7.98408E-09-1.32391E-18-1.96867E-18
 -1      1473 9.52274E-05-2.85684E-05-2.85681E-05 3.07234E-09 3.52984E-19-4.03443E-18
 -1      1474 9.52302E-05-2.85693E-05-2.85690E-05 2.92107E-09 4.64722E-19-2.42193E-18
 -1      1475 9.52269E-05-2.85684E-05-2.85679E-05 6.57154E-09 5.57607E-19-2.29852E-18
 -1      1476 9.52321E-05-2.85699E-05-2.85695E-05 2.19945E-09 1.39566E-20-1.83796E-18
 -1      1477 9.52341E-05-2.85705E-05-2.85701E-05 2.00981E-09-2.11077E-19-3.09278E-18
 -1      1478 9.52312E-05-2.85698E-05-2.85691E-05 4.98588E-09-5.77553E-20-1.81117E-18
 -1      1479 9.52354E-05-2.85709E-05-2.85705E-05 1.17686E-09-6.26409E-19-3.56464E-18
 -1      1480 9.52363E-05-2.85712E-05-2.85708E-05 9.20096E-10-5.56452E-20-3.91989E-18
 -1      1481 9.52344E-05-2.85708E-05-2.85700E-05 3.15326E-09-1.11655E-18-2.95873E-18
 -1      1482 9.52370E-05-2.85713E-05-2.85710E-05 2.76840E-10 4.46033E-19-4.61058E-18
 -1      1483 9.52370E-05-2.85712E-05-2.85712E-05 1.82215E-10 1.06530E-18-2.62036E-18
 -1      1484 9.52370E-05-2.85713E-05-2.85710E-05 2.70775E-10 6.56325E-18-1.39982E-18
 -1      1485 9.52363E-05-2.85714E-05-2.85706E-05 1.43400E-09 3.30396E-19-1.06929E-18
 -1      1486 1.02321E-04-3.01385E-05-3.14535E-05 2.51883E-06 1.23548E-18 9.21823E-18
 -1      1487 1.07679E-04-3.09610E-05-3.36997E-05 3.92818E-06 1.03481E-18 1.10926E-17
 -1      1488 1.07347E-04-2.83150E-05-3.41909E-05 1.17948E-05 2.00217E-18 7.21312E-18
 -1      1489 9.83245E-05-2.93701E-05-2.96052E-05 9.43352E-07 7.90083E-19 7.02111E-18
 -1      1490 9.99549E-05-2.94423E-05-3.04300E-05 1.21041E-06 7.84485E-19 8.39385E-18
 -1      1491 1.02081E-04-2.98289E-05-3.11552E-05 4.22981E-06 1.72916E-18 5.59795E-18
 -1      1492 9.65128E-05-2.89620E-05-2.89105E-05 4.53380E-07 5.75569E-19 5.52562E-18
 -1      1493 9.71561E-05-2.90166E-05-2.91887E-05 5.38678E-07 5.44695E-19 6.40341E-18
 -1      1494 9.88981E-05-2.94845E-05-2.97866E-05 1.73048E-06 1.16695E-18 4.29876E-18
 -1      1495 9.53100E-05-2.86505E-05-2.85233E-05 4.75619E-07 5.22259E-19 4.22916E-18
 -1      1496 9.57951E-05-2.87626E-05-2.86816E-05 4.56379E-07 4.83133E-19 5.10245E-18
 -1      1497 9.71370E-05-2.91910E-05-2.91205E-05 1.05800E-06 1.00504E-18 3.26567E-18
 -1      1498 9.39203E-05-2.82549E-05-2.81046E-05 7.49247E-07 3.30553E-19 3.34489E-18
 -1      1499 9.46185E-05-2.84746E-05-2.83118E-05 6.63904E-07 3.04876E-19 3.80624E-18
 -1      1500 9.57642E-05-2.88596E-05-2.86570E-05 1.22930E-06 7.55578E-19 2.67848E-18
 -1      1501 9.19654E-05-2.76656E-05-2.75274E-05 1.12726E-06 1.26995E-19 2.96408E-18
 -1      1502 9.30476E-05-2.80276E-05-2.78424E-05 1.00899E-06 1.10045E-19 3.05570E-18
 -1      1503 9.42338E-05-2.84251E-05-2.81773E-05 1.79667E-06 5.24201E-19 2.20194E-18
 -1      1504 8.93821E-05-2.68596E-05-2.67783E-05 1.45745E-06 2.84905E-19 2.50444E-18
 -1      1505 9.08515E-05-2.73542E-05-2.71995E-05 1.34603E-06 1.46750E-19 2.69944E-18
 -1      1506 9.22864E-05-2.78125E-05-2.76031E-05 2.44870E-06 3.26023E-19 1.66404E-18
 -1      1507 8.64156E-05-2.59111E-05-2.59326E-05 1.58171E-06 3.21704E-19 1.85586E-18
 -1      1508 8.81052E-05-2.64738E-05-2.64097E-05 1.52326E-06 2.50015E-19 2.23629E-18
 -1      1509 8.99430E-05-2.70262E-05-2.69445E-05 2.88590E-06 4.16456E-19 1.29427E-18
 -1      1510 8.35839E-05-2.49883E-05-2.51375E-05 1.37586E-06 2.49559E-19 1.25624E-18
 -1      1511 8.51789E-05-2.55063E-05-2.55812E-05 1.40944E-06 3.54761E-19 1.73708E-18
 -1      1512 8.74816E-05-2.61625E-05-2.62795E-05 2.83409E-06 4.93595E-19 6.78447E-19
 -1      1513 8.15463E-05-2.43140E-05-2.45727E-05 8.10766E-07 2.49689E-19 9.96839E-19
 -1      1514 8.26632E-05-2.46549E-05-2.48779E-05 9.49032E-07 1.44522E-19 1.09836E-18
 -1      1515 8.53744E-05-2.53981E-05-2.57296E-05 2.13571E-06 3.06609E-19 4.98863E-19
 -1      1516 8.08799E-05-2.40877E-05-2.43917E-05-1.00464E-08 3.78174E-19 1.26031E-19
 -1      1517 8.11955E-05-2.41462E-05-2.44720E-05 2.06870E-07 4.03145E-19 6.11783E-19
 -1      1518 8.41426E-05-2.49371E-05-2.54215E-05 8.45343E-07 5.60974E-19 1.16685E-19
 -1      1519 8.18482E-05-2.44012E-05-2.46637E-05-8.75819E-07 2.95919E-19-2.96462E-20
 -1      1520 8.12271E-05-2.41426E-05-2.44844E-05-6.37914E-07 1.54362E-19 7.26992E-20
 -1      1521 8.41598E-05-2.49289E-05-2.54420E-05-7.51471E-07 3.71861E-19-9.03480E-20
 -1      1522 8.42848E-05-2.51954E-05-2.53461E-05-1.55570E-06 4.52964E-21-2.28818E-19
 -1      1523 8.28375E-05-2.46718E-05-2.49380E-05-1.36082E-06 2.31842E-19 7.45124E-20
 -1      1524 8.54914E-05-2.53994E-05-2.58049E-05-2.23836E-06 2.58411E-19-1.16831E-19
 -1      1525 8.76621E-05-2.62864E-05-2.63004E-05-1.89744E-06-5.87431E-20-6.18652E-19
 -1      1526 8.56993E-05-2.56142E-05-2.57476E-05-1.78796E-06-3.54877E-20-3.57421E-19
 -1      1527 8.78628E-05-2.62374E-05-2.64438E-05-3.24397E-06 3.48739E-20 3.40798E-20
 -1      1528 9.12994E-05-2.74433E-05-2.73431E-05-1.87700E-06-3.26051E-19-4.94350E-19
 -1      1529 8.92113E-05-2.67571E-05-2.67520E-05-1.86070E-06-1.52980E-19-6.40595E-19
 -1      1530 9.07705E-05-2.72451E-05-2.72362E-05-3.58827E-06-6.32646E-20-4.52984E-19
 -1      1531 9.45910E-05-2.84691E-05-2.83038E-05-1.57938E-06-1.31055E-19 1.20570E-19
 -1      1532 9.27189E-05-2.78777E-05-2.77693E-05-1.63533E-06-2.57649E-19-4.76324E-20
 -1      1533 9.36693E-05-2.82184E-05-2.80432E-05-3.31780E-06-3.98552E-19-1.00579E-19
 -1      1534 9.71505E-05-2.92465E-05-2.90671E-05-1.13839E-06 4.40808E-19-1.35936E-19
 -1      1535 9.57078E-05-2.88103E-05-2.86507E-05-1.23329E-06 3.69654E-19 2.72242E-19
 -1      1536 9.61334E-05-2.90108E-05-2.87486E-05-2.63412E-06 2.23643E-19 1.29156E-19
 -1      1537 9.88385E-05-2.97416E-05-2.95845E-05-6.78398E-07-7.86583E-20-7.29448E-19
 -1      1538 9.78968E-05-2.94732E-05-2.93088E-05-7.81432E-07 2.88686E-19-3.26981E-19
 -1      1539 9.79317E-05-2.95561E-05-2.92820E-05-1.78180E-06 5.08944E-19 5.50886E-20
 -1      1540 9.97089E-05-2.99810E-05-2.98637E-05-2.82611E-07 3.92016E-19-1.14279E-18
 -1      1541 9.92310E-05-2.98597E-05-2.97206E-05-3.73153E-07 3.43677E-20-8.94520E-19
 -1      1542 9.90194E-05-2.98565E-05-2.96209E-05-9.61304E-07 1.77539E-19-1.56414E-19
 -1      1543 9.99254E-05-3.00222E-05-2.99472E-05 1.12577E-08-5.66205E-20-1.50512E-18
 -1      1544 9.98136E-05-3.00117E-05-2.99104E-05-5.71876E-08 6.93343E-21-1.13785E-18
 -1      1545 9.94813E-05-2.99551E-05-2.97808E-05-2.92390E-07 2.82406E-19-2.81796E-19
 -1      1546 9.96866E-05-2.99301E-05-2.98909E-05 1.99898E-07-2.66026E-19-1.30022E-18
 -1      1547 9.98258E-05-2.99916E-05-2.99281E-05 1.54916E-07-2.54359E-19-1.52963E-18
 -1      1548 9.94656E-05-2.99097E-05-2.97985E-05 1.81413E-07-9.39247E-20-3.78028E-19
 -1      1549 9.91775E-05-2.97621E-05-2.97491E-05 2.99390E-07 6.11556E-19-1.48580E-18
 -1      1550 9.94625E-05-2.98623E-05-2.98302E-05 2.74600E-07 3.04120E-19-1.10802E-18
 -1      1551 9.91328E-05-2.97758E-05-2.97178E-05 4.69033E-07 2.20956E-19-7.41541E-19
 -1      1552 9.85449E-05-2.95622E-05-2.95662E-05 3.32919E-07-2.74177E-19-1.76068E-18
 -1      1553 9.88935E-05-2.96766E-05-2.96669E-05 3.23294E-07 7.04096E-20-1.60234E-18
 -1      1554 9.86239E-05-2.95983E-05-2.95794E-05 6.06117E-07 4.42005E-19-3.79695E-19
 -1      1555 9.78924E-05-2.93607E-05-2.93740E-05 3.23175E-07-1.07473E-18-4.67423E-20
 -1      1556 9.82478E-05-2.94729E-05-2.94776E-05 3.23695E-07-8.33534E-19-1.48804E-18
 -1      1557 9.80471E-05-2.94093E-05-2.94157E-05 6.35819E-07-1.03054E-18-5.37878E-19
 -1      1558 9.72846E-05-2.91757E-05-2.91930E-05 2.88762E-07 6.66610E-19-1.19754E-19
 -1      1559 9.76122E-05-2.92764E-05-2.92891E-05 2.95255E-07 2.25570E-19 2.02338E-19
 -1      1560 9.74765E-05-2.92294E-05-2.92499E-05 5.97712E-07-4.90284E-19-8.98235E-21
 -1      1561 9.67556E-05-2.90165E-05-2.90342E-05 2.43248E-07 5.96477E-19-1.94282E-18
 -1      1562 9.70377E-05-2.91014E-05-2.91173E-05 2.52630E-07 7.34989E-19-8.86200E-19
 -1      1563 9.69570E-05-2.90698E-05-2.90965E-05 5.23067E-07 1.21063E-18-9.38154E-19
 -1      1564 9.63181E-05-2.88859E-05-2.89021E-05 1.95586E-07 4.58548E-19-3.47765E-18
 -1      1565 9.65489E-05-2.89542E-05-2.89704E-05 2.05783E-07 5.29710E-19-2.23613E-18
 -1      1566 9.65108E-05-2.89355E-05-2.89631E-05 4.34051E-07 9.72816E-19-1.76994E-18
 -1      1567 9.59712E-05-2.87831E-05-2.87969E-05 1.51069E-07-5.53965E-19-3.19778E-18
 -1      1568 9.61521E-05-2.88357E-05-2.88506E-05 1.60821E-07-4.63986E-19-3.58202E-18
 -1      1569 9.61445E-05-2.88271E-05-2.88527E-05 3.44892E-07-4.47980E-20-1.80553E-18
 -1      1570 9.57062E-05-2.87051E-05-2.87163E-05 1.12371E-07-7.21165E-20-2.91434E-18
 -1      1571 9.58426E-05-2.87441E-05-2.87569E-05 1.21008E-07-1.79863E-19-3.12259E-18
 -1      1572 9.58553E-05-2.87427E-05-2.87647E-05 2.63700E-07-2.77266E-19-2.56156E-18
 -1      1573 9.55111E-05-2.86480E-05-2.86567E-05 8.04292E-08-5.75994E-19-1.93646E-18
 -1      1574 9.56101E-05-2.86758E-05-2.86862E-05 8.76793E-08-2.50414E-19-2.56645E-18
 -1      1575 9.56348E-05-2.86792E-05-2.86972E-05 1.94290E-07-4.62711E-19-1.79387E-18
 -1      1576 9.53728E-05-2.86078E-05-2.86143E-05 5.51362E-08 4.91987E-20-1.49909E-18
 -1      1577 9.54417E-05-2.86267E-05-2.86349E-05 6.09736E-08-2.74909E-19-1.60306E-18
 -1      1578 9.54724E-05-2.86329E-05-2.86470E-05 1.37699E-07-4.03064E-19-5.81032E-20
 -1      1579 9.52790E-05-2.85808E-05-2.85854E-05 3.58187E-08 5.83373E-20-2.12037E-18
 -1      1580 9.53246E-05-2.85929E-05-2.85991E-05 4.03563E-08-1.13768E-19-2.23116E-18
 -1      1581 9.53570E-05-2.86005E-05-2.86112E-05 9.33256E-08 4.50288E-19-1.14715E-18
 -1      1582 9.52189E-05-2.85636E-05-2.85668E-05 2.15607E-08-5.40597E-19-1.09546E-18
 -1      1583 9.52471E-05-2.85708E-05-2.85753E-05 2.49767E-08-2.16912E-19-1.84493E-18
 -1      1584 9.52785E-05-2.85788E-05-2.85866E-05 5.97239E-08-2.07161E-20-1.43528E-18
 -1      1585 9.51835E-05-2.85537E-05-2.85557E-05 1.13995E-08 5.15643E-19-1.86065E-18
 -1      1586 9.51992E-05-2.85574E-05-2.85605E-05 1.38916E-08 1.48107E-19-1.20828E-18
 -1      1587 9.52278E-05-2.85650E-05-2.85705E-05 3.51234E-08 3.02391E-19-1.29096E-18
 -1      1588 9.51655E-05-2.85488E-05-2.85500E-05 4.43592E-09 9.12638E-19-3.98555E-18
 -1      1589 9.51725E-05-2.85501E-05-2.85522E-05 6.19466E-09 1.17179E-18-2.59765E-18
 -1      1590 9.51975E-05-2.85571E-05-2.85607E-05 1.77389E-08 1.89549E-18-1.71815E-18
 -1      1591 9.51593E-05-2.85473E-05-2.85480E-05-1.12662E-10-1.34868E-19-4.69130E-18
 -1      1592 9.51605E-05-2.85470E-05-2.85484E-05 1.08241E-09-4.59210E-19-5.07119E-18
 -1      1593 9.51818E-05-2.85532E-05-2.85555E-05 5.93989E-09 5.29658E-19-2.87704E-18
 -1      1594 9.51609E-05-2.85480E-05-2.85483E-05-2.89462E-09 3.40888E-19-4.65495E-18
 -1      1595 9.51584E-05-2.85468E-05-2.85477E-05-2.11988E-09 2.41624E-19-4.29955E-18
 -1      1596 9.51760E-05-2.85520E-05-2.85534E-05-1.67205E-09-1.18614E-19-3.10898E-18
 -1      1597 9.51670E-05-2.85500E-05-2.85501E-05-4.42689E-09 8.60856E-20-4.53767E-18
 -1      1598 9.51625E-05-2.85483E-05-2.85488E-05-3.95612E-09 9.14860E-20-4.36559E-18
 -1      1599 9.51766E-05-2.85526E-05-2.85533E-05-6.24355E-09-2.69166E-19-3.53499E-18
 -1      1600 9.51756E-05-2.85527E-05-2.85526E-05-5.10811E-09 5.52241E-19-5.34358E-18
 -1      1601 9.51701E-05-2.85508E-05-2.85510E-05-4.84995E-09 4.27887E-19-4.99272E-18
 -1      1602 9.51812E-05-2.85543E-05-2.85545E-05-8.68090E-09 9.11341E-19-3.40320E-18
 -1      1603 9.51852E-05-2.85557E-05-2.85555E-05-5.23589E-09 2.98327E-19-5.43145E-18
 -1      1604 9.51794E-05-2.85538E-05-2.85538E-05-5.12081E-09-1.60800E-19-5.69921E-18
 -1      1605 9.51879E-05-2.85564E-05-2.85564E-05-9.67735E-09 2.60510E-19-3.57314E-18
 -1      1606 9.51950E-05-2.85586E-05-2.85584E-05-5.02442E-09 1.53163E-19-5.96053E-18
 -1      1607 9.51893E-05-2.85568E-05-2.85567E-05-5.00132E-09 6.16609E-19-4.89884E-18
 -1      1608 9.51956E-05-2.85588E-05-2.85587E-05-9.74565E-09 9.63438E-19-3.22544E-18
 -1      1609 9.52042E-05-2.85614E-05-2.85612E-05-4.62019E-09-6.20272E-19-4.42707E-18
 -1      1610 9.51990E-05-2.85597E-05-2.85596E-05-4.65327E-09-4.59317E-19-5.50439E-18
 -1      1611 9.52034E-05-2.85612E-05-2.85610E-05-9.24994E-09-3.74332E-19-2.48305E-18
 -1      1612 9.52127E-05-2.85639E-05-2.85637E-05-4.11461E-09 2.74033E-21-4.81642E-18
 -1      1613 9.52079E-05-2.85625E-05-2.85623E-05-4.18094E-09-2.07126E-19-4.84014E-18
 -1      1614 9.52109E-05-2.85635E-05-2.85632E-05-8.43329E-09-3.87812E-19-2.35691E-18
 -1      1615 9.52201E-05-2.85662E-05-2.85659E-05-3.55281E-09-3.63389E-19-5.75494E-18
 -1      1616 9.52160E-05-2.85649E-05-2.85647E-05-3.64093E-09 1.66460E-19-5.27582E-18
 -1      1617 9.52178E-05-2.85656E-05-2.85652E-05-7.43926E-09 1.38497E-19-3.44145E-18
 -1      1618 9.52264E-05-2.85681E-05-2.85678E-05-2.93874E-09-4.66654E-19-5.56189E-18
 -1      1619 9.52230E-05-2.85670E-05-2.85668E-05-3.04844E-09-3.16037E-19-5.91192E-18
 -1      1620 9.52238E-05-2.85674E-05-2.85670E-05-6.32674E-09-7.30889E-19-3.56877E-18
 -1      1621 9.52314E-05-2.85696E-05-2.85693E-05-2.23944E-09-1.08134E-19-5.25133E-18
 -1      1622 9.52287E-05-2.85688E-05-2.85685E-05-2.38178E-09-4.47286E-19-5.55008E-18
 -1      1623 9.52288E-05-2.85689E-05-2.85685E-05-5.08012E-09-4.34599E-19-1.96815E-18
 -1      1624 9.52350E-05-2.85707E-05-2.85704E-05-1.39076E-09 2.43765E-19-5.95971E-18
 -1      1625 9.52332E-05-2.85702E-05-2.85698E-05-1.59332E-09 2.35708E-19-4.98136E-18
 -1      1626 9.52328E-05-2.85702E-05-2.85696E-05-3.62616E-09 3.18425E-19-3.34095E-18
 -1      1627 9.52368E-05-2.85712E-05-2.85710E-05-4.28477E-10-2.89211E-19-4.03596E-18
 -1      1628 9.52360E-05-2.85711E-05-2.85707E-05-6.72558E-10-8.10399E-21-5.08082E-18
 -1      1629 9.52355E-05-2.85711E-05-2.85704E-05-1.91312E-09 2.96226E-19-2.82580E-18
 -1      1630 9.52372E-05-2.85712E-05-2.85711E-05 2.34920E-11-2.36988E-18-2.46658E-18
 -1      1631 9.52374E-05-2.85728E-05-2.85705E-05-1.14604E-09-2.35749E-18 9.91387E-19
 -1      1632 9.52371E-05-2.85719E-05-2.85708E-05-8.98653E-10-3.30224E-18 9.47476E-19
 -1      1633 9.52383E-05-2.85757E-05-2.85697E-05-2.01440E-09-7.46240E-19 1.17094E-18
 -1      1634 9.52378E-05-2.85740E-05-2.85702E-05-1.84478E-09-2.54229E-18 1.98121E-18
 -1      1635 9.52375E-05-2.85738E-05-2.85701E-05-2.95034E-09-1.35679E-18 2.33534E-18
 -1      1636 9.52396E-05-2.85796E-05-2.85686E-05-2.46187E-09-1.97522E-18-1.29704E-18
 -1      1637 9.52389E-05-2.85773E-05-2.85692E-05-2.40850E-09 1.30698E-19-2.96222E-19
 -1      1638 9.52385E-05-2.85766E-05-2.85694E-05-4.28901E-09-1.29375E-18 4.46568E-19
 -1      1639 9.52409E-05-2.85836E-05-2.85674E-05-2.48898E-09-1.40214E-18-6.20114E-19
 -1      1640 9.52402E-05-2.85813E-05-2.85681E-05-2.51771E-09-1.15308E-18 2.45336E-19
 -1      1641 9.52398E-05-2.85800E-05-2.85685E-05-4.80872E-09-1.07079E-18-4.18587E-19
 -1      1642 9.52421E-05-2.85872E-05-2.85664E-05-2.16596E-09-3.55816E-18-1.02784E-18
 -1      1643 9.52415E-05-2.85852E-05-2.85670E-05-2.25507E-09-2.40374E-18-1.93181E-18
 -1      1644 9.52409E-05-2.85833E-05-2.85676E-05-4.58058E-09-1.93977E-18-2.66443E-18
 -1      1645 9.52430E-05-2.85901E-05-2.85655E-05-1.56590E-09-5.02248E-18 2.17765E-19
 -1      1646 9.52425E-05-2.85886E-05-2.85660E-05-1.70212E-09-4.90027E-18-1.51622E-18
 -1      1647 9.52420E-05-2.85863E-05-2.85668E-05-3.73612E-09-4.13197E-18-2.80755E-18
 -1      1648 9.52436E-05-2.85918E-05-2.85651E-05-7.84045E-10-4.54933E-18 9.43216E-21
 -1      1649 9.52433E-05-2.85910E-05-2.85653E-05-9.47352E-10-5.43685E-18 1.93872E-18
 -1      1650 9.52427E-05-2.85885E-05-2.85661E-05-2.42848E-09-3.42968E-18 5.06581E-19
 -1      1651 9.52436E-05-2.85921E-05-2.85650E-05 8.53357E-11 1.12722E-18 3.19286E-18
 -1      1652 9.52436E-05-2.85921E-05-2.85650E-05-8.72703E-11-2.96009E-18 2.83248E-18
 -1      1653 9.52431E-05-2.85896E-05-2.85658E-05-8.42232E-10-1.86242E-18 3.15661E-18
 -1      1654 9.52433E-05-2.85910E-05-2.85653E-05 9.47426E-10 1.67475E-18-8.18105E-19
 -1      1655 9.52436E-05-2.85918E-05-2.85651E-05 7.83479E-10 1.39047E-18 1.53487E-18
 -1      1656 9.52431E-05-2.85896E-05-2.85658E-05 8.39458E-10-7.00231E-19 3.79389E-18
 -1      1657 9.52425E-05-2.85886E-05-2.85660E-05 1.70644E-09 4.30593E-19-8.53471E-19
 -1      1658 9.52430E-05-2.85901E-05-2.85655E-05 1.56960E-09 1.70866E-18-1.15079E-18
 -1      1659 9.52427E-05-2.85885E-05-2.85661E-05 2.43186E-09 9.32045E-19-1.02188E-18
 -1      1660 9.52415E-05-2.85852E-05-2.85670E-05 2.25868E-09 1.48688E-18 1.07880E-18
 -1      1661 9.52421E-05-2.85873E-05-2.85664E-05 2.16906E-09 5.14519E-19-3.89284E-19
 -1      1662 9.52420E-05-2.85863E-05-2.85667E-05 3.74049E-09 1.31032E-19-5.75579E-19
 -1      1663 9.52402E-05-2.85813E-05-2.85681E-05 2.52810E-09 1.18089E-18-1.18073E-18
 -1      1664 9.52409E-05-2.85836E-05-2.85674E-05 2.49973E-09 2.06536E-18 5.09122E-19
 -1      1665 9.52409E-05-2.85834E-05-2.85676E-05 4.59431E-09 4.76486E-19 3.28294E-19
 -1      1666 9.52389E-05-2.85773E-05-2.85692E-05 2.41343E-09 1.49421E-18-1.44950E-19
 -1      1667 9.52396E-05-2.85795E-05-2.85686E-05 2.46941E-09 1.49408E-18-1.80523E-19
 -1      1668 9.52397E-05-2.85800E-05-2.85685E-05 4.82649E-09 2.16086E-18-1.03922E-18
 -1      1669 9.52377E-05-2.85740E-05-2.85702E-05 1.84367E-09 3.02598E-18 1.63253E-18
 -1      1670 9.52383E-05-2.85757E-05-2.85697E-05 2.01120E-09 1.19273E-18 4.57563E-19
 -1      1671 9.52385E-05-2.85766E-05-2.85694E-05 4.28495E-09 1.58314E-18-1.63256E-19
 -1      1672 9.52371E-05-2.85720E-05-2.85708E-05 9.48428E-10 5.10313E-18 1.00528E-18
 -1      1673 9.52375E-05-2.85730E-05-2.85705E-05 1.20697E-09 3.10847E-18 2.46074E-18
 -1      1674 9.52376E-05-2.85740E-05-2.85701E-05 3.02117E-09 9.45965E-19 2.10299E-18
 -1      1675 9.52370E-05-2.85723E-05-2.85706E-05 1.51130E-09 9.52414E-19 1.47880E-18
 -1      1676 2.14524E-05-6.92653E-05 1.45524E-05-3.68039E-06 8.05825E-18 4.24056E-18
 -1      1677 2.52499E-05-8.13468E-05 1.72632E-05 4.88148E-06 3.53912E-18 2.89982E-18
 -1      1678 2.04543E-05-3.83001E-05 3.62084E-06 6.11950E-06 1.13274E-17 6.11515E-18
 -1      1679 2.51753E-05-6.24930E-05 1.00103E-05 2.03091E-06 9.01836E-18 4.30663E-18
 -1      1680 3.56293E-05-9.91380E-06-1.27285E-05 3.15724E-05 1.12452E-17 7.19893E-18
 -1      1681 2.99030E-05-3.13390E-05-3.76665E-06 1.35521E-05 1.15950E-17 5.88434E-18
 -1      1682 7.42717E-05 1.42243E-06-3.17363E-05 6.30815E-05 9.78831E-18 9.48338E-18
 -1      1683 4.98186E-05-4.26264E-06-2.17575E-05 3.98632E-05 1.05430E-17 8.46101E-18
 -1      1684 1.45755E-04-1.81572E-05-5.13844E-05 7.72934E-05 6.04612E-18 7.29634E-18
 -1      1685 1.03288E-04-5.85892E-06-4.12842E-05 6.44654E-05 8.53216E-18 7.84861E-18
 -1      1686 2.12230E-04-4.17763E-05-6.72591E-05 7.19813E-05 4.32834E-18 4.59431E-18
 -1      1687 1.68468E-04-2.03624E-05-6.01797E-05 8.07511E-05 5.88900E-18 7.33954E-18
 -1      1688 2.57271E-04-6.42280E-05-7.61362E-05 3.02507E-05 2.12309E-18-1.39337E-18
 -1      1689 2.31186E-04-4.93356E-05-7.24679E-05 5.98963E-05 3.56506E-18 2.80961E-18
 -1      1690 2.56685E-04-6.30613E-05-7.68723E-05-2.32710E-05 3.10925E-18-7.83442E-18
 -1      1691 2.60578E-04-6.51389E-05-7.73833E-05 1.20464E-05 2.14808E-18-3.66246E-18
 -1      1692 2.17407E-04-4.29279E-05-6.99315E-05-6.45330E-05 6.17048E-18-1.26614E-17
 -1      1693 2.48053E-04-5.98010E-05-7.44536E-05-3.94402E-05 4.16444E-18-9.53929E-18
 -1      1694 1.53813E-04-1.52490E-05-5.66524E-05-8.02524E-05 1.00547E-17-1.51365E-17
 -1      1695 1.98234E-04-3.59060E-05-6.42818E-05-7.62463E-05 7.31561E-18-1.38210E-17
 -1      1696 8.99612E-05-5.42389E-06-3.64474E-05-5.85190E-05 1.22193E-17-1.32129E-17
 -1      1697 1.31426E-04-1.43246E-05-4.73522E-05-7.59157E-05 1.04528E-17-1.41929E-17
 -1      1698 4.06869E-05-1.07325E-05-1.59431E-05-2.99489E-05 1.40048E-17-1.11038E-17
 -1      1699 6.02250E-05 7.72944E-07-2.62229E-05-5.43257E-05 1.39201E-17-1.39362E-17
 -1      1700 2.60337E-05-4.13752E-05 1.39647E-06-6.18675E-06 1.15307E-17-6.78791E-18
 -1      1701 2.68918E-05-1.68699E-05-6.98231E-06-2.04445E-05 1.37236E-17-9.51006E-18
 -1      1702 2.51567E-05-6.98754E-05 1.29602E-05-1.82486E-06 5.53282E-18-3.86618E-18
 -1      1703 1.97277E-05-4.86467E-05 7.71571E-06-8.99115E-07 9.83066E-18-5.71382E-18
 -1      1704 2.30945E-05-7.79405E-05 1.72469E-05-7.79889E-06-1.99497E-18-3.24265E-18
 -1      1705 2.17994E-05-7.26750E-05 1.58993E-05 2.39924E-06 3.53467E-18-3.72271E-18
 -1      1706 1.99354E-05-6.11591E-05 1.22827E-05-7.07899E-06-8.28822E-18-5.28422E-18
 -1      1707 2.41050E-05-7.49756E-05 1.57444E-05-1.68742E-06-3.70302E-18-3.59714E-18
 -1      1708 2.19824E-05-3.58433E-05 1.23810E-06 2.38862E-06-1.39862E-17-9.82579E-18
 -1      1709 2.53684E-05-5.90297E-05 8.05769E-06-4.23961E-06-1.05871E-17-6.53909E-18
 -1      1710 4.47995E-05-1.18648E-05-1.64858E-05 3.25535E-05-1.55837E-17-1.39947E-17
 -1      1711 3.39458E-05-3.05522E-05-6.67826E-06 1.09977E-05-1.47807E-17-1.09229E-17
 -1      1712 1.00496E-04-1.09189E-05-3.74331E-05 6.45987E-05-1.31951E-17-1.54507E-17
 -1      1713 6.81978E-05-1.25095E-05-2.65080E-05 4.09586E-05-1.48155E-17-1.41133E-17
 -1      1714 1.78808E-04-3.07129E-05-5.86225E-05 7.95230E-05-9.16659E-18-1.42302E-17
 -1      1715 1.26680E-04-1.30892E-05-4.78882E-05 6.90780E-05-1.25158E-17-1.58107E-17
 -1      1716 2.51989E-04-6.04010E-05-7.42849E-05 5.77408E-05-5.01531E-18-9.60366E-18
 -1      1717 2.05874E-04-3.79451E-05-6.70959E-05 7.34182E-05-7.75226E-18-1.31468E-17
 -1      1718 2.84337E-04-7.38740E-05-8.13575E-05 8.19475E-06-3.18061E-18-3.45632E-18
 -1      1719 2.65761E-04-6.37389E-05-7.87220E-05 4.36021E-05-4.28705E-18-7.94517E-18
 -1      1720 2.66452E-04-6.46851E-05-7.87380E-05-3.99114E-05-3.48279E-18 3.25261E-18
 -1      1721 2.83919E-04-7.37253E-05-8.12760E-05-6.40631E-06-3.02137E-18-1.57972E-18
 -1      1722 2.13513E-04-4.20607E-05-6.83059E-05-6.94495E-05-4.85265E-18 7.76983E-18
 -1      1723 2.54418E-04-6.19281E-05-7.47277E-05-5.29826E-05-3.35152E-18 5.08982E-18
 -1      1724 1.43857E-04-1.88368E-05-5.18725E-05-7.06675E-05-8.11458E-18 1.02694E-17
 -1      1725 1.90481E-04-3.62507E-05-6.09689E-05-7.54420E-05-5.58449E-18 8.92265E-18
 -1      1726 8.26858E-05-1.02538E-05-3.26495E-05-4.98590E-05-1.14510E-17 1.11029E-17
 -1      1727 1.18102E-04-1.40010E-05-4.27517E-05-6.95783E-05-9.17845E-18 1.07014E-17
 -1      1728 4.66081E-05-2.50912E-05-1.34052E-05-2.10186E-05-1.23404E-17 9.42917E-18
 -1      1729 6.43813E-05-1.31720E-05-2.31949E-05-4.28949E-05-1.14019E-17 1.01923E-17
 -1      1730 2.67382E-05-4.73776E-05 2.76153E-06 1.19547E-06-1.07946E-17 6.71125E-18
 -1      1731 2.79031E-05-2.57481E-05-4.81637E-06-1.17283E-05-1.24819E-17 9.72140E-18
 -1      1732 2.49771E-05-7.15210E-05 1.33745E-05 6.36942E-06-5.87502E-18 4.12399E-18
 -1      1733 2.00131E-05-5.25409E-05 8.54666E-06 6.51444E-06-9.80017E-18 6.02087E-18
 -1      1734 2.40432E-05-7.96602E-05 1.74012E-05 1.73350E-06 1.63713E-18 3.28649E-18
 -1      1735 2.14951E-05-7.36004E-05 1.61536E-05 1.05382E-05-3.70916E-18 4.40288E-18
 -1      1736 7.24726E-05-3.25247E-05-1.82420E-05 4.34984E-05 6.19689E-18 4.51723E-18
 -1      1737 1.17660E-05-5.31640E-05 1.30480E-05 5.26050E-06 1.23656E-18 5.98005E-18
 -1      1738 9.52369E-05-2.85713E-05-2.85709E-05-3.98185E-10-3.03171E-18-3.62656E-19
 -1      1739 9.52367E-05-2.85720E-05-2.85706E-05-1.51013E-09-3.93611E-19 1.10952E-19
 -1      1740 2.00519E-05-4.99859E-05 8.61743E-06 1.89054E-05 4.28429E-18 5.17050E-18
 -1      1741 4.09942E-05-4.12799E-05-2.69838E-06 3.24840E-05 5.57771E-18 4.22913E-18
 -1      1742 1.18076E-04-3.09594E-05-3.61380E-05 4.85264E-05 5.64378E-18 3.96327E-18
 -1      1743 1.61579E-04-3.21233E-05-5.30854E-05 4.22726E-05 4.85350E-18 2.16078E-18
 -1      1744 1.99727E-04-3.30747E-05-6.65892E-05 3.47224E-05 5.22513E-18 4.48080E-19
 -1      1745 2.17983E-04-3.52860E-05-7.27654E-05 1.09653E-05 4.56551E-18-2.63978E-18
 -1      1746 2.13398E-04-3.40244E-05-7.16271E-05-1.46490E-05 5.50698E-18-5.77846E-18
 -1      1747 1.91435E-04-3.17539E-05-6.39881E-05-3.65714E-05 6.56345E-18-8.11373E-18
 -1      1748 1.53033E-04-3.25177E-05-4.95665E-05-4.38625E-05 7.00052E-18-8.53640E-18
 -1      1749 1.07480E-04-3.21775E-05-3.15335E-05-4.76514E-05 7.43780E-18-8.56986E-18
 -1      1750 6.05067E-05-3.41749E-05-1.30570E-05-3.92821E-05 8.03834E-18-8.40511E-18
 -1      1751 3.19812E-05-4.37637E-05 1.50725E-06-2.68345E-05 5.52943E-18-6.83037E-18
 -1      1752 1.55788E-05-4.95962E-05 1.02618E-05-1.43882E-05 1.98121E-18-6.30108E-18
 -1      1753 1.17157E-05-4.82005E-05 1.15323E-05 1.78264E-06-1.55653E-18-6.31887E-18
 -1      1754 2.41875E-05-4.83986E-05 6.23973E-06 1.54639E-05-4.69595E-18-7.11021E-18
 -1      1755 4.93334E-05-4.47885E-05-5.38588E-06 2.70554E-05-7.96973E-18-8.84408E-18
 -1      1756 9.09235E-05-4.13227E-05-2.25190E-05 3.87042E-05-8.93874E-18-9.15558E-18
 -1      1757 1.41078E-04-4.08764E-05-4.18297E-05 4.18351E-05-8.54063E-18-8.65752E-18
 -1      1758 1.90714E-04-4.10979E-05-5.98754E-05 3.65010E-05-7.73140E-18-7.87571E-18
 -1      1759 2.24873E-04-4.15304E-05-7.21076E-05 1.98177E-05-6.29049E-18-6.14268E-18
 -1      1760 2.33896E-04-3.95873E-05-7.61412E-05 1.31483E-06-5.46252E-18-2.53697E-18
 -1      1761 2.25448E-04-4.16674E-05-7.23182E-05-1.64926E-05-4.96234E-18 5.72171E-19
 -1      1762 1.96241E-04-4.21380E-05-6.15805E-05-3.23049E-05-4.98108E-18 3.70492E-18
 -1      1763 1.52437E-04-4.08468E-05-4.59994E-05-4.04579E-05-6.40272E-18 5.11269E-18
 -1      1764 1.07346E-04-4.31905E-05-2.82877E-05-3.87387E-05-6.82031E-18 5.61329E-18
 -1      1765 6.63327E-05-4.54996E-05-1.14123E-05-3.21628E-05-5.88688E-18 5.91949E-18
 -1      1766 3.38050E-05-4.88794E-05 2.35800E-06-1.93752E-05-5.02629E-18 6.14978E-18
 -1      1767 1.67078E-05-5.17015E-05 1.05130E-05-7.44525E-06-2.11250E-18 7.16717E-18
 -1      1768 1.15068E-04-2.59387E-05-3.82830E-05-1.32467E-05-1.64009E-18 6.51347E-18
 -1      1769 8.94927E-05-9.12572E-06-3.46010E-05-6.82550E-06-2.19227E-18-2.56241E-18
 -1      1770 9.32703E-05-1.11066E-05-3.53019E-05-8.38741E-06-2.42079E-18-1.84947E-18
 -1      1771 9.78028E-05-1.47431E-05-3.57813E-05-9.36131E-06-2.44599E-18-9.28878E-19
 -1      1772 1.01778E-04-1.76723E-05-3.64612E-05-1.12610E-05-2.57497E-18 3.96835E-19
 -1      1773 9.74623E-05-1.62046E-05-3.48025E-05-6.53905E-06-2.53169E-18-1.25178E-18
 -1      1774 7.88259E-05-3.07812E-06-3.25334E-05-4.91087E-06-1.34581E-18-3.92059E-18
 -1      1775 8.05798E-05-3.72739E-06-3.29742E-05-5.31194E-06-1.56333E-18-3.74604E-18
 -1      1776 7.66978E-05-2.20238E-06-3.19638E-05-4.80809E-06-9.27021E-19-4.14072E-18
 -1      1777 7.74636E-05-2.38318E-06-3.22157E-05-5.03395E-06-1.12319E-18-4.05040E-18
 -1      1778 7.86924E-05-3.93000E-06-3.20383E-05-4.77377E-06-1.37215E-18-3.88470E-18
 -1      1779 7.65673E-05-2.47567E-06-3.17688E-05-4.59795E-06-4.69405E-19-4.11392E-18
 -1      1780 7.64317E-05-2.27763E-06-3.18270E-05-4.89692E-06-6.74194E-19-4.12442E-18
 -1      1781 7.70585E-05-3.34663E-06-3.15952E-05-5.02551E-06-8.67127E-19-4.01850E-18
 -1      1782 7.79589E-05-3.54136E-06-3.18990E-05-3.85159E-06-4.27785E-20-3.98979E-18
 -1      1783 7.71699E-05-3.10145E-06-3.17972E-05-4.39871E-06-2.15874E-19-4.06544E-18
 -1      1784 7.75211E-05-4.07637E-06-3.14940E-05-4.90394E-06-4.28578E-19-3.96440E-18
 -1      1785 8.02605E-05-4.99667E-06-3.22639E-05-2.36090E-06 4.06053E-19-3.87031E-18
 -1      1786 7.91076E-05-4.45480E-06-3.20519E-05-3.23499E-06 1.80114E-19-3.90105E-18
 -1      1787 7.94710E-05-5.63017E-06-3.16786E-05-4.03493E-06 3.16215E-20-3.79041E-18
 -1      1788 8.29163E-05-6.51483E-06-3.27627E-05-1.26384E-07 7.43000E-19-3.69108E-18
 -1      1789 8.16441E-05-5.97389E-06-3.24910E-05-1.32440E-06 6.08047E-19-3.84761E-18
 -1      1790 8.22158E-05-7.51873E-06-3.20570E-05-2.30837E-06 4.98610E-19-3.65276E-18
 -1      1791 8.55283E-05-7.90902E-06-3.33014E-05 2.66597E-06 1.23092E-18-3.33748E-18
 -1      1792 8.42969E-05-7.41880E-06-3.30136E-05 1.22098E-06 1.01332E-18-3.57233E-18
 -1      1793 8.51638E-05-9.38076E-06-3.25279E-05 1.41573E-07 9.48540E-19-3.47750E-18
 -1      1794 8.81045E-05-9.26822E-06-3.38458E-05 5.94332E-06 1.83041E-18-2.69621E-18
 -1      1795 8.68802E-05-8.77283E-06-3.35511E-05 4.24864E-06 1.52629E-18-3.03174E-18
 -1      1796 8.80329E-05-1.11164E-05-3.30146E-05 3.10606E-06 1.46825E-18-3.01106E-18
 -1      1797 9.08274E-05-1.08567E-05-3.43691E-05 9.51401E-06 2.36620E-18-1.91030E-18
 -1      1798 8.94868E-05-1.02218E-05-3.40694E-05 7.61530E-06 2.05147E-18-2.37853E-18
 -1      1799 9.08579E-05-1.28810E-05-3.34647E-05 6.35418E-06 2.05533E-18-2.32051E-18
 -1      1800 9.43581E-05-1.33777E-05-3.48728E-05 1.32205E-05 2.71405E-18-4.68674E-19
 -1      1801 9.25291E-05-1.22408E-05-3.45477E-05 1.11060E-05 2.49535E-18-1.30975E-18
 -1      1802 9.39659E-05-1.51030E-05-3.38294E-05 9.54551E-06 2.53629E-18-1.42516E-18
 -1      1803 1.00328E-04-1.86289E-05-3.52420E-05 1.61057E-05 2.74284E-18 2.15003E-18
 -1      1804 9.69366E-05-1.58208E-05-3.49436E-05 1.43490E-05 2.67864E-18 5.97026E-19
 -1      1805 9.80548E-05-1.86945E-05-3.40171E-05 1.20340E-05 2.80412E-18 1.98285E-19
 -1      1806 1.06771E-04-2.67144E-05-3.47582E-05 1.32291E-05 2.30679E-18 5.47448E-18
 -1      1807 1.02712E-04-2.11109E-05-3.49618E-05 1.55725E-05 2.52974E-18 3.30078E-18
 -1      1808 1.02141E-04-2.36604E-05-3.36863E-05 1.18492E-05 2.81465E-18 2.27476E-18
 -1      1809 1.03932E-04-2.78951E-05-3.28009E-05 8.34533E-06 2.39009E-18 4.78718E-18
 -1      1810 1.09358E-04-2.24054E-05-3.69794E-05-1.36005E-05-2.23172E-18 2.68509E-18
 -1      1811 1.00906E-04-2.92430E-05-3.07372E-05 3.58286E-06 1.60424E-18 3.67333E-18
 -1      1812 1.03043E-04-2.92376E-05-3.16882E-05 5.62341E-06 1.89738E-18 4.32546E-18
 -1      1813 1.02696E-04-2.74861E-05-3.22148E-05 7.74270E-06 2.17560E-18 2.94856E-18
 -1      1814 1.08486E-04-2.48219E-05-3.55820E-05-8.38787E-06-2.37749E-18 1.72435E-18
 -1      1815 1.08600E-04-2.96903E-05-3.37008E-05 1.55176E-06-1.77472E-18 1.40588E-18
 -1      1816 1.08802E-04-3.01604E-05-3.36077E-05 4.07350E-06-1.54114E-18 9.59907E-19
 -1      1817 1.08979E-04-3.05157E-05-3.35346E-05 6.65594E-06-1.37836E-18 9.94178E-19
 -1      1818 1.10678E-04-3.12953E-05-3.39355E-05 8.42828E-06-1.13577E-18 6.09956E-19
 -1      1819 1.05862E-04-2.80843E-05-3.33763E-05 5.92384E-06-1.66200E-18 2.59338E-20
 -1      1820 1.11526E-04-3.17867E-05-3.41190E-05 1.04315E-05-8.09711E-19 6.95321E-19
 -1      1821 1.14231E-04-3.30068E-05-3.47713E-05 1.16573E-05-5.73918E-19 4.93569E-19
 -1      1822 1.07044E-04-2.93637E-05-3.33354E-05 1.10467E-05-1.13319E-18-6.49833E-20
 -1      1823 1.16057E-04-3.41167E-05-3.50714E-05 1.29656E-05-2.61038E-19 7.04811E-19
 -1      1824 1.19600E-04-3.61183E-05-3.58088E-05 1.31479E-05 1.00105E-19 6.96539E-19
 -1      1825 1.09809E-04-3.15080E-05-3.36172E-05 1.48215E-05-3.98101E-19 4.01216E-20
 -1      1826 1.22614E-04-3.82216E-05-3.60886E-05 1.28758E-05 3.73303E-19 9.84093E-19
 -1      1827 1.26080E-04-4.08848E-05-3.66298E-05 1.10301E-05 4.73769E-19 1.03442E-18
 -1      1828 1.14811E-04-3.58194E-05-3.39499E-05 1.62464E-05 2.67007E-19 4.47776E-19
 -1      1829 1.30852E-04-4.42849E-05-3.69568E-05 8.02398E-06 6.18691E-19 1.31425E-18
 -1      1830 1.33336E-04-4.69789E-05-3.72064E-05 3.32167E-06 6.26010E-19 1.71749E-18
 -1      1831 1.22772E-04-4.30044E-05-3.43314E-05 1.33562E-05 7.06108E-19 6.25180E-19
 -1      1832 1.39527E-04-5.05908E-05-3.80081E-05-3.44987E-06 6.53380E-19 1.85590E-18
 -1      1833 1.39310E-04-5.06050E-05-3.82000E-05-1.02712E-05 1.16255E-19 2.31494E-18
 -1      1834 1.34107E-04-5.19052E-05-3.53984E-05 3.84325E-06 7.95258E-19 1.25080E-18
 -1      1835 1.43772E-04-5.05098E-05-4.02772E-05-1.80649E-05-7.08715E-19 2.39353E-18
 -1      1836 1.39870E-04-4.45852E-05-4.10052E-05-2.23112E-05-1.30078E-18 1.83139E-18
 -1      1837 1.45107E-04-5.49508E-05-3.87627E-05-1.19548E-05-3.68790E-19 1.77191E-18
 -1      1838 1.29507E-04-2.67061E-05-4.47660E-05-1.03595E-05-3.70323E-18-7.91255E-19
 -1      1839 1.28505E-04-2.48968E-05-4.51108E-05-8.37979E-07-3.84320E-18-1.83475E-18
 -1      1840 1.29080E-04-2.63578E-05-4.45316E-05 1.21848E-05-3.59481E-18-2.86461E-18
 -1      1841 1.33744E-04-3.29937E-05-4.40144E-05 2.10801E-05-2.71601E-18-4.11056E-18
 -1      1842 1.39100E-04-2.39316E-05-4.97367E-05 6.53010E-06-4.45370E-18-2.43011E-18
 -1      1843 1.37266E-04-3.90396E-05-4.23160E-05 2.43023E-05-1.85754E-18-5.21666E-18
 -1      1844 1.42698E-04-4.66123E-05-4.16561E-05 2.36423E-05-6.67833E-19-5.41724E-18
 -1      1845 1.40840E-04-4.93655E-05-3.93653E-05 1.70322E-05 1.51917E-19-5.72456E-18
 -1      1846 1.42979E-04-5.16278E-05-3.91775E-05 1.01213E-05 1.11239E-18-5.61861E-18
 -1      1847 1.46962E-04-5.16801E-05-4.10260E-05 2.00026E-05-3.41566E-19-5.39338E-18
 -1      1848 1.37610E-04-4.89421E-05-3.82028E-05 2.30708E-06 1.07859E-18-5.60104E-18
 -1      1849 1.36167E-04-4.69747E-05-3.80826E-05-3.52501E-06 9.11725E-19-5.53498E-18
 -1      1850 1.39444E-04-5.33097E-05-3.70407E-05 3.73352E-06 8.11312E-19-6.23361E-18
 -1      1851 1.31112E-04-4.36024E-05-3.76639E-05-8.00034E-06 5.65315E-19-4.61364E-18
 -1      1852 1.27975E-04-4.08705E-05-3.72306E-05-1.09682E-05 8.46596E-19-4.46965E-18
 -1      1853 1.28911E-04-4.61998E-05-3.55565E-05-8.91160E-06 9.67709E-19-5.27186E-18
 -1      1854 1.24293E-04-3.84976E-05-3.68527E-05-1.23326E-05 7.03421E-19-4.09871E-18
 -1      1855 1.20722E-04-3.63200E-05-3.61396E-05-1.29826E-05 3.62593E-19-4.07640E-18
 -1      1856 1.20087E-04-3.88251E-05-3.49101E-05-1.46761E-05 1.00773E-18-4.24471E-18
 -1      1857 1.18204E-04-3.50113E-05-3.56687E-05-1.25859E-05 2.77067E-19-3.75761E-18
 -1      1858 1.14872E-04-3.35377E-05-3.48544E-05-1.20303E-05 6.17217E-19-3.33407E-18
 -1      1859 1.13799E-04-3.39855E-05-3.42555E-05-1.54613E-05 3.27041E-19-3.33030E-18
 -1      1860 1.13059E-04-3.28678E-05-3.43401E-05-1.09462E-05 2.02570E-19-3.00035E-18
 -1      1861 1.10231E-04-3.19010E-05-3.35722E-05-9.97510E-06-1.08043E-19-2.54215E-18
 -1      1862 1.09391E-04-3.14299E-05-3.34368E-05-1.37721E-05 5.48181E-19-2.16211E-18
 -1      1863 1.08844E-04-3.15462E-05-3.30824E-05-8.77287E-06-1.69936E-20-2.52235E-18
 -1      1864 1.06568E-04-3.08992E-05-3.24306E-05-7.79274E-06 3.87432E-19-2.23021E-18
 -1      1865 1.06133E-04-3.01939E-05-3.25580E-05-1.12625E-05 1.38583E-19-2.41046E-18
 -1      1866 1.05413E-04-3.06804E-05-3.19825E-05-6.66457E-06-2.46394E-19-2.52752E-18
 -1      1867 1.03586E-04-3.02175E-05-3.14416E-05-5.79686E-06-3.54831E-19-3.06228E-18
 -1      1868 1.03566E-04-2.95903E-05-3.17086E-05-8.71847E-06-2.96256E-19-2.60911E-18
 -1      1869 1.02729E-04-3.00758E-05-3.10954E-05-4.93623E-06-1.05684E-19-3.47485E-18
 -1      1870 1.01418E-04-2.97718E-05-3.07015E-05-4.28656E-06-4.93033E-19-3.50680E-18
 -1      1871 1.01546E-04-2.92815E-05-3.09764E-05-6.53877E-06-5.25180E-19-3.47584E-18
 -1      1872 1.00733E-04-2.96607E-05-3.04262E-05-3.62138E-06-3.48647E-19-3.54071E-18
 -1      1873 9.97565E-05-2.94425E-05-3.01302E-05-3.13140E-06-3.29350E-19-3.34934E-18
 -1      1874 9.99976E-05-2.90975E-05-3.03911E-05-4.85439E-06-4.43227E-19-4.37151E-18
 -1      1875 9.92208E-05-2.93540E-05-2.99174E-05-2.63106E-06-1.35655E-18-2.86290E-18
 -1      1876 9.85018E-05-2.91967E-05-2.96980E-05-2.26879E-06-1.17526E-18-3.07992E-18
 -1      1877 9.87843E-05-2.89662E-05-2.99270E-05-3.56273E-06-4.69630E-19-3.22973E-18
 -1      1878 9.80883E-05-2.91259E-05-2.95362E-05-1.89781E-06-4.74747E-19-2.89021E-18
 -1      1879 9.75632E-05-2.90124E-05-2.93753E-05-1.63276E-06-6.58806E-19-3.08157E-18
 -1      1880 9.78442E-05-2.88638E-05-2.95676E-05-2.59325E-06-5.59321E-19-2.22284E-18
 -1      1881 9.72481E-05-2.89563E-05-2.92538E-05-1.35983E-06-2.97905E-19-3.03255E-18
 -1      1882 9.68675E-05-2.88748E-05-2.91367E-05-1.16692E-06 1.88525E-19-2.78038E-18
 -1      1883 9.71244E-05-2.87818E-05-2.92937E-05-1.87412E-06-3.96228E-19-1.87443E-18
 -1      1884 9.66304E-05-2.88311E-05-2.90465E-05-9.67025E-07 2.35368E-19-2.69489E-18
 -1      1885 9.63563E-05-2.87732E-05-2.89619E-05-8.26908E-07 4.84951E-19-2.24702E-18
 -1      1886 9.65801E-05-2.87167E-05-2.90877E-05-1.34429E-06 1.30355E-19-2.43990E-18
 -1      1887 9.61722E-05-2.87390E-05-2.88925E-05-6.74246E-07 7.18315E-19-3.09318E-18
 -1      1888 9.59702E-05-2.86964E-05-2.88298E-05-5.69064E-07 7.45448E-19-2.85131E-18
 -1      1889 9.61649E-05-2.86641E-05-2.89313E-05-9.48515E-07 4.71150E-19-2.26141E-18
 -1      1890 9.58436E-05-2.86720E-05-2.87824E-05-4.64915E-07 6.91956E-19-2.12196E-18
 -1      1891 9.57095E-05-2.86450E-05-2.87405E-05-3.92868E-07 1.19743E-18-1.55017E-18
 -1      1892 9.58606E-05-2.86265E-05-2.88168E-05-6.59302E-07 1.19113E-18-2.58546E-18
 -1      1893 9.56179E-05-2.86274E-05-2.87063E-05-3.17227E-07 6.75137E-19-1.05171E-18
 -1      1894 9.55254E-05-2.86092E-05-2.86772E-05-2.65634E-07 2.60063E-19-6.02643E-19
 -1      1895 9.56459E-05-2.85993E-05-2.87360E-05-4.55690E-07 1.25800E-18-2.17906E-18
 -1      1896 9.54604E-05-2.85969E-05-2.86530E-05-2.11243E-07-2.51207E-19 3.90277E-20
 -1      1897 9.53980E-05-2.85852E-05-2.86332E-05-1.74512E-07 9.94536E-20-5.51060E-19
 -1      1898 9.54926E-05-2.85804E-05-2.86780E-05-3.08342E-07 1.16540E-19-8.16930E-19
 -1      1899 9.53530E-05-2.85769E-05-2.86164E-05-1.35793E-07-2.85809E-19-1.18495E-18
 -1      1900 9.53123E-05-2.85699E-05-2.86032E-05-1.09951E-07-9.49218E-19-1.89788E-18
 -1      1901 9.53853E-05-2.85681E-05-2.86370E-05-2.02597E-07-4.55722E-19-1.76842E-18
 -1      1902 9.52820E-05-2.85645E-05-2.85918E-05-8.27549E-08-1.71963E-18-1.36189E-18
 -1      1903 9.52566E-05-2.85607E-05-2.85835E-05-6.48627E-08-2.39791E-18-2.19136E-18
 -1      1904 9.53120E-05-2.85605E-05-2.86085E-05-1.27549E-07-1.25318E-18-2.45767E-18
 -1      1905 9.52369E-05-2.85574E-05-2.85760E-05-4.61172E-08-3.61056E-18-2.66826E-18
 -1      1906 9.52222E-05-2.85559E-05-2.85710E-05-3.39656E-08-3.11638E-18-3.81613E-18
 -1      1907 9.52636E-05-2.85565E-05-2.85893E-05-7.50860E-08-3.58552E-18-1.76817E-18
 -1      1908 9.52097E-05-2.85540E-05-2.85661E-05-2.08218E-08-9.33272E-19-3.86343E-18
 -1      1909 9.52022E-05-2.85539E-05-2.85633E-05-1.25634E-08 6.28251E-20-3.26944E-18
 -1      1910 9.52325E-05-2.85548E-05-2.85765E-05-3.85433E-08-2.20274E-18-2.68984E-18
 -1      1911 9.51956E-05-2.85531E-05-2.85607E-05-4.58581E-09 4.82758E-19-2.90199E-18
 -1      1912 9.51933E-05-2.85539E-05-2.85596E-05 3.05599E-10 1.72488E-18-3.39353E-18
 -1      1913 9.52146E-05-2.85551E-05-2.85686E-05-1.42342E-08 7.26016E-19-2.35930E-18
 -1      1914 9.51903E-05-2.85538E-05-2.85582E-05 5.25271E-09 1.95367E-18-4.07775E-18
 -1      1915 9.51910E-05-2.85551E-05-2.85581E-05 8.09579E-09 2.02543E-18-4.54368E-18
 -1      1916 9.52058E-05-2.85561E-05-2.85643E-05 7.76239E-10 1.47306E-18-2.84870E-18
 -1      1917 9.51904E-05-2.85554E-05-2.85577E-05 1.09076E-08 1.60896E-18-5.07812E-18
 -1      1918 9.51928E-05-2.85568E-05-2.85582E-05 1.23686E-08 1.13742E-19-3.85633E-18
 -1      1919 9.52027E-05-2.85578E-05-2.85622E-05 9.83371E-09 1.48682E-18-5.93693E-18
 -1      1920 9.51936E-05-2.85574E-05-2.85583E-05 1.37319E-08-9.13290E-20-4.06719E-18
 -1      1921 9.51970E-05-2.85589E-05-2.85591E-05 1.42771E-08 3.45205E-19-3.72130E-18
 -1      1922 9.52033E-05-2.85597E-05-2.85616E-05 1.47823E-08 2.00879E-19-5.04196E-18
 -1      1923 9.51987E-05-2.85596E-05-2.85596E-05 1.46913E-08-2.29394E-19-3.40305E-18
 -1      1924 9.52025E-05-2.85610E-05-2.85606E-05 1.46562E-08 4.06774E-20-3.07590E-18
 -1      1925 9.52060E-05-2.85616E-05-2.85620E-05 1.69737E-08 1.04638E-19-3.46357E-18
 -1      1926 9.52046E-05-2.85618E-05-2.85612E-05 1.44725E-08-4.10186E-19-2.65531E-18
 -1      1927 9.52084E-05-2.85631E-05-2.85623E-05 1.40942E-08-1.08421E-19-2.69097E-18
 -1      1928 9.52100E-05-2.85635E-05-2.85628E-05 1.73796E-08 2.14493E-19-3.91715E-18
 -1      1929 9.52108E-05-2.85638E-05-2.85630E-05 1.35180E-08 1.71405E-19-2.53755E-18
 -1      1930 9.52146E-05-2.85651E-05-2.85641E-05 1.29120E-08-1.28164E-18-3.17764E-18
 -1      1931 9.52146E-05-2.85652E-05-2.85640E-05 1.66494E-08 1.82951E-19-3.00526E-18
 -1      1932 9.52168E-05-2.85658E-05-2.85648E-05 1.21641E-08-1.45270E-18-1.67440E-18
 -1      1933 9.52200E-05-2.85668E-05-2.85657E-05 1.14734E-08-6.58021E-19-1.53829E-18
 -1      1934 9.52193E-05-2.85668E-05-2.85653E-05 1.52431E-08-6.70165E-19-1.94578E-18
 -1      1935 9.52221E-05-2.85674E-05-2.85663E-05 1.06135E-08-1.61612E-18-6.37275E-19
 -1      1936 9.52249E-05-2.85683E-05-2.85671E-05 9.85061E-09-4.25022E-19-5.17215E-19
 -1      1937 9.52236E-05-2.85683E-05-2.85666E-05 1.34932E-08-5.02643E-19-1.20892E-20
 -1      1938 9.52268E-05-2.85689E-05-2.85677E-05 8.89878E-09 8.22787E-19-3.39110E-19
 -1      1939 9.52292E-05-2.85697E-05-2.85684E-05 8.05539E-09 8.14482E-19-4.10518E-19
 -1      1940 9.52275E-05-2.85695E-05-2.85677E-05 1.14979E-08 4.07238E-19 8.45035E-19
 -1      1941 9.52307E-05-2.85702E-05-2.85688E-05 6.99627E-09 1.14155E-19-1.71579E-19
 -1      1942 9.52326E-05-2.85709E-05-2.85693E-05 6.03683E-09-5.14902E-19-1.79556E-19
 -1      1943 9.52309E-05-2.85707E-05-2.85686E-05 9.27128E-09 2.02693E-19 6.66041E-19
 -1      1944 9.52339E-05-2.85713E-05-2.85697E-05 4.83393E-09-1.11699E-18 1.67094E-19
 -1      1945 9.52353E-05-2.85718E-05-2.85701E-05 3.76306E-09-1.09508E-18-6.81090E-21
 -1      1946 9.52338E-05-2.85718E-05-2.85694E-05 6.77051E-09-5.55802E-19 1.58921E-18
 -1      1947 9.52364E-05-2.85722E-05-2.85704E-05 2.33692E-09-1.52314E-20 9.05113E-19
 -1      1948 9.80372E-05-2.94498E-05-2.93845E-05 1.82925E-06 1.14103E-18 2.10286E-18
 -1      1949 9.87589E-05-2.94392E-05-2.96577E-05 1.96215E-06 1.12012E-18 2.41047E-18
 -1      1950 9.67697E-05-2.93652E-05-2.88933E-05 2.11005E-06 7.58196E-19 1.73517E-18
 -1      1951 9.74832E-05-2.94636E-05-2.91195E-05 1.88633E-06 9.82571E-19 2.00284E-18
 -1      1952 9.89543E-05-2.98566E-05-2.96190E-05 2.64192E-06 1.22359E-18 1.15754E-18
 -1      1953 9.53463E-05-2.90409E-05-2.84269E-05 2.86035E-06 6.26571E-19 1.41003E-18
 -1      1954 9.62126E-05-2.92760E-05-2.86762E-05 2.48884E-06 7.12398E-19 1.68537E-18
 -1      1955 9.79321E-05-2.99395E-05-2.91364E-05 3.08419E-06 9.16524E-19 1.01796E-18
 -1      1956 9.35936E-05-2.84251E-05-2.79336E-05 3.67026E-06 4.17455E-19 1.04725E-18
 -1      1957 9.46723E-05-2.88205E-05-2.82219E-05 3.32965E-06 5.24542E-19 1.28764E-18
 -1      1958 9.67449E-05-2.96691E-05-2.87372E-05 4.01906E-06 7.60253E-19 9.38136E-19
 -1      1959 9.15420E-05-2.75257E-05-2.74266E-05 4.11327E-06 5.05551E-19 7.94474E-19
 -1      1960 9.27619E-05-2.80547E-05-2.77343E-05 3.98244E-06 3.56784E-19 9.43654E-19
 -1      1961 9.52266E-05-2.89880E-05-2.83777E-05 4.90893E-06 5.00333E-19 7.72882E-19
 -1      1962 8.94491E-05-2.64773E-05-2.69641E-05 3.81773E-06 4.62599E-19 5.90637E-19
 -1      1963 9.06208E-05-2.70447E-05-2.72459E-05 4.03774E-06 5.07915E-19 8.06544E-19
 -1      1964 9.34083E-05-2.79332E-05-2.80579E-05 5.21073E-06 5.42496E-19 6.16703E-19
 -1      1965 8.77485E-05-2.55414E-05-2.66265E-05 2.61061E-06 3.91303E-19 4.63178E-19
 -1      1966 8.86151E-05-2.59979E-05-2.68257E-05 3.22010E-06 4.69349E-19 7.27323E-19
 -1      1967 9.15524E-05-2.67092E-05-2.78017E-05 4.49846E-06 5.24696E-19 7.38217E-19
 -1      1968 8.69063E-05-2.50236E-05-2.64866E-05 6.43311E-07 6.05629E-19 1.05562E-19
 -1      1969 8.72325E-05-2.52199E-05-2.65544E-05 1.53622E-06 4.77902E-19 1.46696E-19
 -1      1970 9.01014E-05-2.56727E-05-2.76403E-05 2.65256E-06 7.00185E-19 5.13765E-19
 -1      1971 8.72196E-05-2.51292E-05-2.65831E-05-1.61566E-06 4.13590E-19 2.80911E-21
 -1      1972 8.68873E-05-2.49863E-05-2.64964E-05-6.65192E-07 6.73027E-19 1.37394E-19
 -1      1973 8.95055E-05-2.51961E-05-2.75979E-05-1.26792E-08 5.75162E-19 2.03322E-19
 -1      1974 8.86646E-05-2.58478E-05-2.69059E-05-3.56384E-06 1.05608E-19-1.42454E-19
 -1      1975 8.77265E-05-2.53997E-05-2.66763E-05-2.80757E-06 2.75411E-19-1.74942E-19
 -1      1976 8.99978E-05-2.54790E-05-2.76836E-05-2.82433E-06 4.92523E-19 1.86248E-20
 -1      1977 9.08962E-05-2.69563E-05-2.73980E-05-4.72911E-06 4.51756E-20-1.94179E-19
 -1      1978 8.95549E-05-2.63313E-05-2.70684E-05-4.33583E-06 2.37288E-19-4.36454E-20
 -1      1979 9.14599E-05-2.64305E-05-2.78877E-05-5.03483E-06 1.97562E-19-2.54217E-19
 -1      1980 9.34026E-05-2.81400E-05-2.79723E-05-4.94848E-06-3.87119E-19-6.21510E-20
 -1      1981 9.19303E-05-2.74960E-05-2.76029E-05-4.94871E-06-3.19333E-20-5.37667E-20
 -1      1982 9.34807E-05-2.77249E-05-2.81817E-05-6.15018E-06-2.08421E-19-2.67557E-19
 -1      1983 9.57068E-05-2.91361E-05-2.85367E-05-4.36826E-06-4.55482E-19-1.68483E-19
 -1      1984 9.43527E-05-2.85971E-05-2.81869E-05-4.67397E-06-3.97361E-19-2.38678E-19
 -1      1985 9.55568E-05-2.89769E-05-2.85221E-05-6.09325E-06-2.83451E-19-2.85486E-19
 -1      1986 9.74994E-05-2.98109E-05-2.90170E-05-3.30893E-06 3.86512E-19-3.19202E-19
 -1      1987 9.64291E-05-2.94377E-05-2.87304E-05-3.77780E-06 5.27840E-20-3.05150E-19
 -1      1988 9.72926E-05-2.99123E-05-2.88593E-05-5.13706E-06-9.96174E-20-1.02854E-18
 -1      1989 9.86666E-05-3.01554E-05-2.93692E-05-2.10631E-06 4.41499E-19-1.48225E-19
 -1      1990 9.79468E-05-2.99511E-05-2.91680E-05-2.60411E-06 4.62573E-19-2.53043E-19
 -1      1991 9.84903E-05-3.04332E-05-2.91495E-05-3.70921E-06 3.22514E-19-9.74276E-19
 -1      1992 9.92437E-05-3.02345E-05-2.95816E-05-1.00931E-06-9.04704E-20 2.18692E-19
 -1      1993 9.88613E-05-3.01684E-05-2.94676E-05-1.44421E-06 8.94579E-20 3.50344E-19
 -1      1994 9.91311E-05-3.05834E-05-2.93630E-05-2.20698E-06 1.55543E-19-2.53079E-19
 -1      1995 9.93480E-05-3.01368E-05-2.96668E-05-1.50621E-07 2.14554E-19 5.71755E-19
 -1      1996 9.92421E-05-3.01663E-05-2.96279E-05-4.78856E-07 2.41540E-19 5.19587E-19
 -1      1997 9.93046E-05-3.04743E-05-2.94885E-05-8.99338E-07-3.31335E-20 2.56174E-19
 -1      1998 9.91216E-05-2.99427E-05-2.96514E-05 4.34528E-07 6.72514E-20 2.12195E-19
 -1      1999 9.92136E-05-3.00281E-05-2.96689E-05 2.19487E-07 2.54381E-19 6.44098E-19
 -1      2000 9.91415E-05-3.02229E-05-2.95303E-05 8.67862E-08 2.63077E-19 8.69674E-19
 -1      2001 9.86965E-05-2.97115E-05-2.95669E-05 7.72247E-07 6.97289E-19-1.61888E-19
 -1      2002 9.89104E-05-2.98221E-05-2.96210E-05 6.55165E-07 3.60826E-19-4.33426E-20
 -1      2003 9.87687E-05-2.99199E-05-2.95036E-05 7.33286E-07 7.08313E-19 7.86140E-19
 -1      2004 9.81782E-05-2.94809E-05-2.94424E-05 9.16552E-07-1.46122E-19 7.84971E-19
 -1      2005 9.84518E-05-2.95961E-05-2.95158E-05 8.73477E-07 4.73010E-19 3.33288E-19
 -1      2006 9.82898E-05-2.96226E-05-2.94282E-05 1.08549E-06 3.66351E-19 7.74461E-19
 -1      2007 9.76423E-05-2.92720E-05-2.93014E-05 9.26521E-07-1.47761E-18 7.60313E-19
 -1      2008 9.79303E-05-2.93793E-05-2.93811E-05 9.33158E-07-7.09292E-19 6.95491E-19
 -1      2009 9.77800E-05-2.93605E-05-2.93235E-05 1.21432E-06-7.01873E-19 1.43709E-18
 -1      2010 9.71374E-05-2.90938E-05-2.91608E-05 8.54011E-07 4.66329E-19-2.45519E-19
 -1      2011 9.74104E-05-2.91870E-05-2.92379E-05 8.89909E-07-9.23152E-19 1.80641E-19
 -1      2012 9.72886E-05-2.91443E-05-2.92065E-05 1.19198E-06-8.49116E-19 1.48044E-18
 -1      2013 9.66906E-05-2.89485E-05-2.90311E-05 7.38995E-07 1.06720E-18-6.67558E-20
 -1      2014 9.69321E-05-2.90255E-05-2.91004E-05 7.88880E-07 1.14312E-18-7.36158E-20
 -1      2015 9.68444E-05-2.89742E-05-2.90895E-05 1.07974E-06 5.41798E-19 3.97783E-19
 -1      2016 9.63132E-05-2.88341E-05-2.89183E-05 6.09329E-07 1.16485E-18-6.82966E-19
 -1      2017 9.65162E-05-2.88952E-05-2.89773E-05 6.62866E-07 1.36535E-18-3.21472E-19
 -1      2018 9.64614E-05-2.88450E-05-2.89808E-05 9.23778E-07 1.49686E-18 1.14215E-18
 -1      2019 9.60066E-05-2.87468E-05-2.88243E-05 4.82608E-07-1.85020E-19-9.55253E-19
 -1      2020 9.61703E-05-2.87935E-05-2.88724E-05 5.33489E-07 9.15855E-19-3.33970E-19
 -1      2021 9.61432E-05-2.87497E-05-2.88852E-05 7.55702E-07 1.13701E-18 4.11568E-19
 -1      2022 9.57657E-05-2.86821E-05-2.87488E-05 3.68656E-07-5.05073E-19-1.17405E-18
 -1      2023 9.58929E-05-2.87167E-05-2.87866E-05 4.13535E-07-7.73330E-19-1.44960E-18
 -1      2024 9.58872E-05-2.86813E-05-2.88046E-05 5.95098E-07-1.87915E-19-4.47285E-22
 -1      2025 9.55821E-05-2.86355E-05-2.86903E-05 2.71884E-07-1.42719E-18-2.46683E-19
 -1      2026 9.56777E-05-2.86602E-05-2.87190E-05 3.09427E-07-7.49741E-19-9.28479E-19
 -1      2027 9.56870E-05-2.86335E-05-2.87390E-05 4.52578E-07-9.61422E-19 7.93591E-20
 -1      2028 9.54467E-05-2.86031E-05-2.86463E-05 1.93234E-07-1.49151E-19 5.55955E-20
 -1      2029 9.55160E-05-2.86201E-05-2.86673E-05 2.23357E-07-7.72464E-19-6.77410E-20
 -1      2030 9.55348E-05-2.86012E-05-2.86873E-05 3.32577E-07-1.04684E-18-5.37243E-19
 -1      2031 9.53499E-05-2.85814E-05-2.86143E-05 1.31616E-07 1.18081E-18-7.73037E-19
 -1      2032 9.53983E-05-2.85925E-05-2.86292E-05 1.54938E-07 9.65838E-19-1.45450E-19
 -1      2033 9.54222E-05-2.85801E-05-2.86478E-05 2.35618E-07 3.79295E-19-1.36031E-19
 -1      2034 9.52834E-05-2.85676E-05-2.85918E-05 8.49148E-08 6.72917E-20-1.02394E-18
 -1      2035 9.53157E-05-2.85744E-05-2.86019E-05 1.02387E-07 6.79012E-19-8.98908E-19
 -1      2036 9.53413E-05-2.85671E-05-2.86185E-05 1.59977E-07 9.53314E-19-8.70176E-20
 -1      2037 9.52399E-05-2.85595E-05-2.85768E-05 5.06432E-08 1.13014E-18-1.53210E-18
 -1      2038 9.52601E-05-2.85633E-05-2.85833E-05 6.33092E-08 4.57529E-19-1.16321E-18
 -1      2039 9.52853E-05-2.85597E-05-2.85975E-05 1.02832E-07 6.31327E-19 7.73027E-20
 -1      2040 9.52132E-05-2.85554E-05-2.85672E-05 2.63293E-08 2.52601E-18-1.40073E-18
 -1      2041 9.52247E-05-2.85571E-05-2.85711E-05 3.51923E-08 1.69398E-18-1.24206E-18
 -1      2042 9.52481E-05-2.85560E-05-2.85829E-05 6.10020E-08 1.42464E-18-8.06001E-19
 -1      2043 9.51987E-05-2.85540E-05-2.85617E-05 9.73055E-09 1.00566E-19-1.45016E-18
 -1      2044 9.52041E-05-2.85543E-05-2.85637E-05 1.56805E-08 1.87759E-18-8.80385E-19
 -1      2045 9.52248E-05-2.85549E-05-2.85732E-05 3.13912E-08 1.57028E-18 1.87208E-19
 -1      2046 9.51925E-05-2.85543E-05-2.85590E-05-1.07184E-09 2.42213E-19-1.50991E-18
 -1      2047 9.51938E-05-2.85537E-05-2.85597E-05 2.71459E-09-1.19306E-19-1.56018E-18
 -1      2048 9.52116E-05-2.85553E-05-2.85673E-05 1.12186E-08 4.38326E-19 4.03238E-19
 -1      2049 9.51918E-05-2.85556E-05-2.85582E-05-7.65050E-09 1.91933E-19-2.11562E-18
 -1      2050 9.51905E-05-2.85545E-05-2.85581E-05-5.42151E-09-6.05957E-20-1.83676E-18
 -1      2051 9.52053E-05-2.85567E-05-2.85639E-05-1.87968E-09 2.96184E-19-6.64215E-19
 -1      2052 9.51946E-05-2.85575E-05-2.85586E-05-1.12494E-08 5.80293E-19-2.31056E-18
 -1      2053 9.51918E-05-2.85562E-05-2.85580E-05-1.01040E-08 2.28164E-19-2.67623E-18
 -1      2054 9.52037E-05-2.85584E-05-2.85624E-05-9.83208E-09 6.23297E-19-2.01580E-18
 -1      2055 9.51993E-05-2.85596E-05-2.85598E-05-1.28215E-08 6.34469E-19-2.86888E-18
 -1      2056 9.51957E-05-2.85582E-05-2.85589E-05-1.24009E-08 1.06584E-18-2.09003E-18
 -1      2057 9.52052E-05-2.85604E-05-2.85621E-05-1.41589E-08 6.22184E-19-2.07279E-18
 -1      2058 9.52050E-05-2.85617E-05-2.85614E-05-1.30724E-08 3.12124E-19-1.71461E-18
 -1      2059 9.52011E-05-2.85604E-05-2.85603E-05-1.31146E-08-9.59048E-20-1.92323E-18
 -1      2060 9.52083E-05-2.85623E-05-2.85626E-05-1.60206E-08-2.35879E-19-1.82135E-18
 -1      2061 9.52109E-05-2.85638E-05-2.85631E-05-1.25036E-08-7.43043E-19-1.54056E-18
 -1      2062 9.52071E-05-2.85625E-05-2.85620E-05-1.28258E-08 4.39729E-19-1.00010E-18
 -1      2063 9.52124E-05-2.85642E-05-2.85636E-05-1.62732E-08-8.44957E-19-8.52895E-20
 -1      2064 9.52167E-05-2.85656E-05-2.85647E-05-1.14499E-08 2.13584E-19-2.08856E-18
 -1      2065 9.52132E-05-2.85645E-05-2.85637E-05-1.19342E-08-2.38710E-19-2.22365E-18
 -1      2066 9.52169E-05-2.85659E-05-2.85647E-05-1.55214E-08-1.53003E-19-8.35365E-19
 -1      2067 9.52221E-05-2.85673E-05-2.85663E-05-1.01092E-08 4.09713E-19-2.04074E-18
 -1      2068 9.52189E-05-2.85663E-05-2.85654E-05-1.06919E-08 4.10747E-19-2.30483E-18
 -1      2069 9.52213E-05-2.85674E-05-2.85659E-05-1.41643E-08 2.14759E-19-9.48517E-19
 -1      2070 9.52268E-05-2.85688E-05-2.85677E-05-8.56507E-09-1.77731E-18-4.25651E-19
 -1      2071 9.52240E-05-2.85679E-05-2.85669E-05-9.22886E-09-4.79057E-19-1.79810E-18
 -1      2072 9.52254E-05-2.85688E-05-2.85671E-05-1.24341E-08-5.54851E-19 2.78867E-19
 -1      2073 9.52307E-05-2.85701E-05-2.85689E-05-6.81032E-09-3.27126E-19-7.33233E-19
 -1      2074 9.52285E-05-2.85694E-05-2.85682E-05-7.57711E-09-1.78740E-18-1.07034E-18
 -1      2075 9.52290E-05-2.85700E-05-2.85681E-05-1.04294E-08-1.29779E-18-1.70251E-19
 -1      2076 9.52339E-05-2.85712E-05-2.85697E-05-4.77862E-09-4.02284E-19-4.80041E-19
 -1      2077 9.52322E-05-2.85706E-05-2.85693E-05-5.69634E-09-1.84736E-20-6.73014E-19
 -1      2078 9.52322E-05-2.85711E-05-2.85690E-05-8.17405E-09-2.97328E-19-3.22634E-19
 -1      2079 9.52360E-05-2.85719E-05-2.85703E-05-2.66052E-09-4.09195E-19-3.37694E-19
 -1      2080 9.52348E-05-2.85715E-05-2.85700E-05-3.63906E-09-8.88583E-20-1.31323E-19
 -1      2081 9.52346E-05-2.85720E-05-2.85697E-05-5.74433E-09-7.61651E-19 1.05778E-18
 -1      2082 9.52363E-05-2.85725E-05-2.85702E-05-3.29354E-09-5.41414E-19 1.60754E-18
 -1      2083 9.52400E-05-2.85804E-05-2.85684E-05-6.51084E-09-1.38928E-18-1.33198E-18
 -1      2084 9.52392E-05-2.85786E-05-2.85688E-05-6.44978E-09-1.04445E-18-1.37336E-18
 -1      2085 9.52385E-05-2.85772E-05-2.85691E-05-6.12545E-09-2.43211E-19-2.65729E-20
 -1      2086 9.52377E-05-2.85756E-05-2.85695E-05-5.64565E-09-1.38650E-18 1.94897E-18
 -1      2087 9.52385E-05-2.85776E-05-2.85690E-05-7.95548E-09-8.16699E-19-7.65827E-19
 -1      2088 9.52368E-05-2.85738E-05-2.85699E-05-4.24499E-09-9.58491E-19 2.11090E-18
 -1      2089 9.52413E-05-2.85833E-05-2.85677E-05-5.97283E-09-2.77283E-18-3.51067E-18
 -1      2090 9.52406E-05-2.85817E-05-2.85681E-05-6.30354E-09-2.42108E-18-1.44839E-18
 -1      2091 9.52402E-05-2.85804E-05-2.85685E-05-8.04993E-09-2.68503E-18-2.05820E-18
 -1      2092 9.52424E-05-2.85857E-05-2.85671E-05-4.66678E-09-3.06800E-18-3.53846E-18
 -1      2093 9.52418E-05-2.85844E-05-2.85674E-05-5.31662E-09-2.70790E-18-2.92418E-18
 -1      2094 9.52416E-05-2.85830E-05-2.85680E-05-7.07315E-09-2.28150E-18-3.50997E-18
 -1      2095 9.52431E-05-2.85874E-05-2.85667E-05-2.81058E-09-2.09857E-18 1.71784E-18
 -1      2096 9.52428E-05-2.85865E-05-2.85669E-05-3.67572E-09-1.90178E-18-1.03452E-18
 -1      2097 9.52427E-05-2.85850E-05-2.85676E-05-5.22257E-09-6.14966E-19-1.34914E-18
 -1      2098 9.52434E-05-2.85881E-05-2.85665E-05-6.38869E-10-8.51893E-19 4.72227E-18
 -1      2099 9.52433E-05-2.85878E-05-2.85666E-05-1.61355E-09-2.05682E-18 3.58422E-18
 -1      2100 9.52434E-05-2.85863E-05-2.85674E-05-2.76970E-09-8.39968E-19 2.77462E-18
 -1      2101 9.52433E-05-2.85878E-05-2.85666E-05 1.60588E-09-1.15633E-18 2.21933E-18
 -1      2102 9.52434E-05-2.85881E-05-2.85665E-05 6.29234E-10-1.32723E-18 4.97843E-18
 -1      2103 9.52436E-05-2.85868E-05-2.85673E-05-7.95687E-12-2.04322E-18 4.80259E-18
 -1      2104 9.52428E-05-2.85866E-05-2.85669E-05 3.67797E-09 4.07785E-19-7.95531E-19
 -1      2105 9.52431E-05-2.85874E-05-2.85667E-05 2.80832E-09-6.09940E-19 1.03571E-19
 -1      2106 9.52434E-05-2.85863E-05-2.85673E-05 2.75999E-09-1.57660E-18 2.29844E-18
 -1      2107 9.52419E-05-2.85845E-05-2.85674E-05 5.30890E-09 8.77566E-20 2.21130E-19
 -1      2108 9.52424E-05-2.85857E-05-2.85671E-05 4.66268E-09-4.15484E-19-1.58952E-19
 -1      2109 9.52427E-05-2.85850E-05-2.85676E-05 5.21124E-09-5.65454E-19-1.22537E-18
 -1      2110 9.52406E-05-2.85817E-05-2.85681E-05 6.32024E-09 1.78054E-18 1.42168E-18
 -1      2111 9.52413E-05-2.85833E-05-2.85677E-05 5.97868E-09 3.31056E-19 2.14867E-18
 -1      2112 9.52416E-05-2.85830E-05-2.85680E-05 7.07038E-09 3.21948E-19 7.70543E-19
 -1      2113 9.52392E-05-2.85786E-05-2.85688E-05 6.47066E-09 2.61553E-18-5.64007E-19
 -1      2114 9.52400E-05-2.85804E-05-2.85684E-05 6.53649E-09 2.69185E-18-2.79174E-19
 -1      2115 9.52402E-05-2.85804E-05-2.85685E-05 8.07372E-09 1.56010E-18 1.58669E-18
 -1      2116 9.52377E-05-2.85756E-05-2.85695E-05 5.59674E-09 1.57446E-18 2.55008E-19
 -1      2117 9.52385E-05-2.85772E-05-2.85691E-05 6.14633E-09 2.32648E-18-1.59140E-18
 -1      2118 9.52385E-05-2.85776E-05-2.85690E-05 7.98211E-09 1.28381E-18-1.32480E-18
 -1      2119 9.92122E-05-2.93968E-05-2.98939E-05 2.17959E-06 1.35167E-18 2.70927E-18
 -1      2120 1.00299E-04-2.93587E-05-3.03519E-05 2.92870E-06 1.43601E-18 3.35016E-18
 -1      2121 1.00835E-04-2.89230E-05-3.08141E-05 4.20418E-06 1.77027E-18 2.18461E-18
 -1      2122 9.98138E-05-2.94601E-05-3.01550E-05 2.98864E-06 1.56256E-18 1.54631E-18
 -1      2123 5.92010E-05-3.90005E-05-8.96652E-06 4.48864E-05 2.84180E-18 1.91400E-18
 -1      2124 4.42383E-05-4.10650E-05-2.51080E-06 3.76277E-05 1.86432E-18 2.72268E-18
 -1      2125 1.33840E-04-4.37094E-05-3.87666E-05 3.66838E-05 3.11242E-18 8.63127E-19
 -1      2126 1.11949E-04-4.20568E-05-3.04140E-05 4.04666E-05 3.62615E-18 2.23278E-18
 -1      2127 1.29907E-05-3.50818E-05 8.19498E-06 1.22648E-05 1.45393E-18 5.47988E-18
 -1      2128 1.13821E-05-3.33466E-05 8.32859E-06 2.75316E-06-3.56310E-19 6.51961E-18
 -1      2129 9.62705E-05-4.03795E-05-2.38047E-05 4.72044E-05 3.42667E-18 2.79351E-18
 -1      2130 7.76865E-05-4.33329E-05-1.57236E-05 4.24597E-05 3.30131E-18 1.99667E-18
 -1      2131 1.17048E-04-5.26519E-05-2.72463E-05 3.96051E-05 1.11046E-18 3.74600E-19
 -1      2132 8.31032E-05-5.30967E-06-3.34450E-05-5.42262E-06-1.76542E-18-3.47524E-18
 -1      2133 8.58624E-05-6.51914E-06-3.40513E-05-6.30761E-06-2.10684E-18-3.03315E-18
 -1      2134 8.89694E-05-1.02298E-05-3.38094E-05-5.34564E-06-2.22101E-18-2.61191E-18
 -1      2135 8.27049E-05-6.12889E-06-3.28110E-05-4.69884E-06-1.76132E-18-3.43433E-18
 -1      2136 1.66383E-04-3.45841E-05-5.51267E-05 2.51208E-05 4.21637E-18-4.34951E-19
 -1      2137 1.48718E-04-3.77166E-05-4.74396E-05 2.45916E-05 3.69640E-18-8.04681E-20
 -1      2138 1.82140E-04-2.86632E-05-6.45654E-05 1.36060E-05 4.96446E-18-1.69449E-18
 -1      2139 1.69985E-04-2.93726E-05-5.98757E-05 1.99636E-05 4.95091E-18-8.02140E-19
 -1      2140 1.58470E-04-3.13074E-05-5.38883E-05 4.77856E-06 4.14199E-18-2.29461E-18
 -1      2141 1.86915E-04-2.37159E-05-6.89186E-05 5.90496E-07 4.91237E-18-3.22976E-18
 -1      2142 1.85284E-04-2.45389E-05-6.77942E-05 9.35218E-06 4.84037E-18-1.92848E-18
 -1      2143 1.80783E-04-2.42737E-05-6.62863E-05-1.02088E-05 5.55442E-18-4.23601E-18
 -1      2144 1.86449E-04-2.40435E-05-6.84473E-05-2.58812E-06 5.39052E-18-3.05387E-18
 -1      2145 1.65962E-04-3.10724E-05-5.74575E-05-2.07988E-05 5.75781E-18-4.54857E-18
 -1      2146 1.77579E-04-2.96004E-05-6.24431E-05-1.41384E-05 5.49851E-18-3.86671E-18
 -1      2147 1.43005E-04-4.06569E-05-4.38625E-05-2.72396E-05 4.56657E-18-4.14750E-18
 -1      2148 1.61065E-04-3.68493E-05-5.20248E-05-2.78864E-05 5.34308E-18-4.84842E-18
 -1      2149 1.56862E-04-3.56910E-05-5.13917E-05-6.46430E-06 4.12187E-18-1.40015E-18
 -1      2150 1.02761E-04-4.34789E-05-2.60507E-05-4.09352E-05 4.46386E-18-5.91060E-18
 -1      2151 1.26304E-04-4.52013E-05-3.49405E-05-3.90870E-05 3.91795E-18-4.95006E-18
 -1      2152 6.36849E-05-4.19910E-05-1.05877E-05-4.04301E-05 4.21695E-18-5.92267E-18
 -1      2153 8.20771E-05-3.90783E-05-1.86635E-05-4.67704E-05 4.90686E-18-6.44952E-18
 -1      2154 3.54526E-05-3.91775E-05 4.10369E-07-3.36866E-05 1.79317E-18-5.85702E-18
 -1      2155 4.82347E-05-3.76475E-05-5.09023E-06-4.10125E-05 3.50333E-18-6.02569E-18
 -1      2156 1.42933E-05-3.45562E-05 7.43011E-06-1.56121E-05 3.45166E-20-6.25830E-18
 -1      2157 2.05192E-05-3.43495E-05 4.86349E-06-2.51339E-05 1.86898E-18-6.30489E-18
 -1      2158 1.46063E-05-2.97148E-05 5.76120E-06 8.72759E-06-1.11395E-18-6.18038E-18
 -1      2159 1.19925E-05-3.16251E-05 7.29110E-06-3.76389E-06 1.29649E-19-6.30404E-18
 -1      2160 3.72809E-05-4.14193E-05 3.50035E-07 2.81831E-05-3.81419E-18-6.90544E-18
 -1      2161 2.59189E-05-3.77702E-05 3.90545E-06 2.23076E-05-1.99137E-18-5.99869E-18
 -1      2162 7.04415E-05-4.54553E-05-1.15474E-05 3.80373E-05-4.90178E-18-6.83090E-18
 -1      2163 5.28397E-05-4.67989E-05-4.44125E-06 3.07628E-05-3.81885E-18-6.63216E-18
 -1      2164 1.15550E-04-5.12511E-05-2.78131E-05 3.84423E-05-5.25076E-18-5.26854E-18
 -1      2165 9.19901E-05-5.13959E-05-1.89097E-05 3.49338E-05-5.05509E-18-5.79180E-18
 -1      2166 1.60309E-04-5.21228E-05-4.55977E-05 2.64545E-05-5.68677E-18-4.30716E-18
 -1      2167 1.36935E-04-5.35983E-05-3.65184E-05 2.62492E-05-5.36341E-18-4.42871E-18
 -1      2168 1.89398E-04-4.46913E-05-6.03092E-05 1.28101E-05-6.00133E-18-4.10133E-18
 -1      2169 1.69684E-04-4.57818E-05-5.28949E-05 1.66230E-05-6.20886E-18-4.18942E-18
 -1      2170 2.00167E-04-3.45613E-05-6.92502E-05 2.36956E-06-5.62472E-18-3.28395E-18
 -1      2171 1.92793E-04-3.69656E-05-6.54272E-05 7.80463E-06-6.24179E-18-4.51384E-18
 -1      2172 1.97791E-04-3.00994E-05-7.02348E-05-4.32814E-08-5.60312E-18-2.09535E-18
 -1      2173 1.98181E-04-3.00861E-05-7.02862E-05 2.20929E-06-5.55442E-18-3.13402E-18
 -1      2174 1.93853E-04-3.69765E-05-6.57895E-05-5.35961E-06-4.95832E-18-4.45116E-19
 -1      2175 2.00093E-04-3.44007E-05-6.92174E-05-4.53995E-08-5.30200E-18-1.94966E-18
 -1      2176 1.74579E-04-4.49988E-05-5.50720E-05-1.34438E-05-4.33898E-18 1.44080E-18
 -1      2177 1.91350E-04-4.41452E-05-6.14861E-05-9.52523E-06-4.19451E-18 5.95888E-19
 -1      2178 1.45196E-04-5.18385E-05-4.06063E-05-2.46651E-05-4.40118E-18 2.08878E-18
 -1      2179 1.66375E-04-5.06197E-05-4.86168E-05-2.33060E-05-4.33257E-18 1.83129E-18
 -1      2180 1.09880E-04-5.39849E-05-2.50443E-05-3.17872E-05-3.94887E-18 2.08455E-18
 -1      2181 1.31085E-04-5.22209E-05-3.35189E-05-3.40414E-05-4.37111E-18 2.26115E-18
 -1      2182 7.00009E-05-5.03566E-05-9.82998E-06-3.35758E-05-1.81307E-18 3.95051E-18
 -1      2183 9.06164E-05-5.11031E-05-1.72536E-05-3.86514E-05-2.59277E-18 2.82433E-18
 -1      2184 3.95565E-05-4.33039E-05 2.88667E-07-2.71570E-05-1.73642E-18 4.32537E-18
 -1      2185 5.34030E-05-4.36902E-05-4.87951E-06-3.38265E-05-2.39244E-18 4.39060E-18
 -1      2186 7.51873E-05-4.98219E-05-1.11075E-05-3.88854E-05 4.18434E-19 2.47154E-18
 -1      2187 1.59394E-05-3.66696E-05 7.55280E-06-9.96344E-06-1.99476E-19 7.00539E-18
 -1      2188 2.33085E-05-3.78025E-05 5.02636E-06-1.89375E-05-1.83721E-18 6.53613E-18
 -1      2189 2.59604E-05-3.47430E-05 2.89492E-06 3.03972E-05 2.18789E-18 4.32326E-18
 -1      2190 1.85906E-05-3.79581E-05 6.83735E-06 2.10521E-05 1.22269E-18 5.34266E-18
 -1      2191 1.79343E-05-2.56272E-05 2.74214E-06 2.04696E-05-9.52912E-22 5.77168E-18
 -1      2192 9.52362E-05-2.85728E-05-2.85700E-05 3.88494E-09 1.32520E-19 2.93054E-18
 -1      2193 1.07304E-04-2.68482E-05-3.45126E-05-3.45481E-06-2.19323E-18 1.15408E-18
 -1      2194 8.15971E-05-4.79758E-05-1.45744E-05 4.66612E-05 6.04358E-19 1.00088E-18
 -1      2195 1.48896E-04-4.61103E-05-4.45945E-05 8.16801E-06 2.08730E-18-2.71347E-18
 -1      2196 1.44953E-04-4.50827E-05-4.23184E-05 2.42711E-05 2.40271E-18-3.50248E-19
 -1      2197 1.39850E-04-5.26351E-05-3.69205E-05 2.19104E-05 1.07774E-18-1.99053E-18
 -1      2198 1.04148E-04-2.43647E-05-3.42810E-05-2.13780E-06-2.32540E-18-1.39099E-19
 -1      2199 1.30882E-04-2.96844E-05-4.36827E-05-1.81790E-05-3.09082E-18 3.35796E-19
 -1      2200 1.39774E-04-2.68419E-05-4.89453E-05-1.51714E-05-4.27561E-18-4.10387E-19
 -1      2201 1.35719E-04-3.66925E-05-4.32058E-05-2.25195E-05-2.08158E-18 9.60297E-19
 -1      2202 1.45430E-04-3.79296E-05-4.65120E-05 2.45499E-05-2.90405E-18-4.69299E-18
 -1      2203 9.52366E-05-2.85742E-05-2.85696E-05-6.18538E-09-4.36359E-19 1.55068E-18
 -1      2204 9.52367E-05-2.85737E-05-2.85699E-05 4.46899E-09 1.16045E-19 1.05367E-18
 -1      2205 9.52371E-05-2.85747E-05-2.85696E-05 5.27450E-09 7.43686E-19 3.41130E-19
 -1      2206 9.52370E-05-2.85751E-05-2.85694E-05 7.18256E-09 8.23567E-20-1.34190E-18
 -1      2207 9.52356E-05-2.85732E-05-2.85696E-05 6.12375E-09-9.96130E-19 1.07224E-18
 -1      2208 4.21913E-05-3.51172E-05-3.34461E-06 4.08700E-05-8.04681E-21 2.99363E-18
 -1      2209 1.61457E-05-2.57204E-05 3.53709E-06-5.34446E-06 1.15196E-19 7.35225E-18
 -1      2210 3.89340E-05-3.58318E-05-1.84717E-06-3.01084E-05 1.70254E-19 4.84884E-18
 -1      2211 1.13181E-04-6.11298E-05-2.25349E-05-3.25250E-05-6.65344E-19 7.49836E-19
 -1      2212 1.48528E-04-6.23450E-05-3.67379E-05-1.79746E-05-2.51590E-18-4.77727E-19
 -1      2213 1.69464E-04-5.27300E-05-4.92185E-05-1.92940E-06-3.50357E-18-9.44018E-19
 -1      2214 1.79220E-04-3.74931E-05-5.93657E-05 7.91328E-06-4.68028E-18-1.81096E-18
 -1      2215 1.76780E-04-2.35467E-05-6.41581E-05 5.67913E-06-5.76237E-18-2.58112E-18
 -1      2216 1.77549E-04-2.36931E-05-6.42770E-05-4.60162E-06-6.01478E-18-2.08942E-18
 -1      2217 1.78229E-04-3.86426E-05-5.84742E-05-5.48647E-06-5.53578E-18-1.66315E-18
 -1      2218 1.66759E-04-5.50394E-05-4.72099E-05 3.73629E-06-4.17836E-18-1.20236E-18
 -1      2219 1.39729E-04-6.33862E-05-3.24302E-05 2.37262E-05-2.53813E-18-2.22897E-18
 -1      2220 9.55004E-05-5.61484E-05-1.72002E-05 3.86623E-05-1.63816E-18-4.39229E-18
 -1      2221 5.50021E-05-4.33445E-05-5.73015E-06 3.64997E-05-1.00628E-18-6.02113E-18
 -1      2222 2.36991E-05-2.92407E-05 1.97127E-06 1.74569E-05-7.03461E-19-6.44656E-18
 -1      2223 2.24838E-05-1.81595E-05-1.49322E-06 1.30516E-05 4.19281E-20-6.45227E-18
 -1      2224 3.32255E-05-2.64423E-05-2.99969E-06 2.73673E-05 8.04681E-20-6.08678E-18
 -1      2225 1.55485E-05-2.25410E-05 2.54058E-06-1.10432E-05-1.77930E-19-6.96981E-18
 -1      2226 3.39648E-05-3.14989E-05-1.53508E-06-3.62538E-05 1.57125E-19-6.44783E-18
 -1      2227 6.76421E-05-4.37561E-05-1.06432E-05-4.62818E-05 9.97805E-19-5.24869E-18
 -1      2228 1.39121E-04-4.81153E-05-3.87049E-05-2.75327E-05 3.17934E-18-3.41397E-18
 -1      2229 1.46140E-04-5.10034E-05-4.13718E-05-1.25978E-05 1.77903E-18-9.31313E-19
 -1      2230 1.34567E-04-5.51547E-05-3.35262E-05-2.62640E-05 1.12846E-18-1.73409E-18
 -1      2231 1.62955E-04-2.04447E-05-6.01307E-05-4.31998E-07 5.37866E-18-1.52784E-18
 -1      2232 1.64242E-04-1.80180E-05-6.15806E-05 9.90644E-07 5.24822E-18-2.33612E-18
 -1      2233 1.65457E-04-1.29457E-05-6.42311E-05 3.97977E-07 5.42016E-18-1.99204E-18
 -1      2234 1.05525E-04-5.12729E-05-2.30015E-05-4.28064E-05 1.62376E-18-4.04374E-18
 -1      2235 1.47386E-04-4.37922E-05-4.48578E-05-2.29922E-05-2.26952E-18 1.25742E-18
 -1      2236 7.69846E-05-4.44383E-06-3.10962E-05-5.31190E-06-7.73541E-19-3.81828E-18
 -1      2237 7.71266E-05-4.37772E-06-3.12227E-05-5.19621E-06-1.05046E-18-3.83811E-18
 -1      2238 7.78632E-05-4.64043E-06-3.14167E-05-4.44683E-06-1.18738E-18-3.81038E-18
 -1      2239 7.92794E-05-5.34622E-06-3.17200E-05-4.23892E-06-1.49879E-18-3.64276E-18
 -1      2240 7.77031E-05-5.58260E-06-3.08732E-05-4.75191E-06-1.09386E-18-3.62852E-18
 -1      2241 8.10451E-05-7.80281E-06-3.13782E-05-4.53674E-06 7.09489E-20-3.57229E-18
 -1      2242 7.96345E-05-6.89595E-06-3.12235E-05-5.20948E-06-2.12841E-19-3.68052E-18
 -1      2243 8.43400E-05-1.01340E-05-3.18008E-05-2.58659E-06 5.39313E-19-3.45417E-18
 -1      2244 8.27333E-05-9.15854E-06-3.15779E-05-3.68600E-06 2.63986E-19-3.51411E-18
 -1      2245 8.30286E-05-1.04892E-05-3.11091E-05-4.97175E-06 3.63414E-20-3.32720E-18
 -1      2246 8.75535E-05-1.22989E-05-3.22675E-05 8.57427E-08 1.05902E-18-3.25556E-18
 -1      2247 8.60228E-05-1.13911E-05-3.20272E-05-1.29827E-06 7.62290E-19-3.38466E-18
 -1      2248 8.66363E-05-1.30988E-05-3.15435E-05-2.74439E-06 5.57269E-19-3.18969E-18
 -1      2249 9.05489E-05-1.43040E-05-3.27142E-05 3.20957E-06 1.60986E-18-2.60518E-18
 -1      2250 8.91217E-05-1.34266E-05-3.24835E-05 1.63335E-06 1.25658E-18-2.96078E-18
 -1      2251 9.00274E-05-1.54526E-05-3.19851E-05 1.59745E-07 1.07444E-18-2.85211E-18
 -1      2252 9.33624E-05-1.63512E-05-3.30731E-05 6.35819E-06 2.14635E-18-1.92037E-18
 -1      2253 9.19845E-05-1.53752E-05-3.28811E-05 4.76441E-06 1.80113E-18-2.31387E-18
 -1      2254 9.30580E-05-1.75890E-05-3.23569E-05 3.27357E-06 1.57104E-18-2.23331E-18
 -1      2255 9.63587E-05-1.89648E-05-3.32816E-05 9.02266E-06 2.59455E-18-1.12303E-18
 -1      2256 9.47971E-05-1.75687E-05-3.31574E-05 7.66965E-06 2.32709E-18-1.58332E-18
 -1      2257 9.58283E-05-1.97821E-05-3.25849E-05 6.07381E-06 2.06860E-18-1.48125E-18
 -1      2258 1.00064E-04-2.28859E-05-3.31806E-05 1.02630E-05 2.65043E-18 6.05496E-19
 -1      2259 9.80521E-05-2.06047E-05-3.32280E-05 9.79490E-06 2.60994E-18-4.40947E-19
 -1      2260 9.87129E-05-2.25644E-05-3.25852E-05 7.87716E-06 2.44580E-18-5.94822E-19
 -1      2261 1.02450E-04-2.65554E-05-3.25959E-05 8.73545E-06 2.38016E-18 2.12436E-18
 -1      2262 1.01014E-04-2.42091E-05-3.29149E-05 9.81765E-06 2.52823E-18 1.22376E-18
 -1      2263 1.00602E-04-2.54640E-05-3.22103E-05 7.67804E-06 2.43810E-18 5.01846E-19
 -1      2264 1.01428E-04-2.77613E-05-3.15895E-05 6.08359E-06 2.07133E-18 1.73538E-18
 -1      2265 1.52313E-04-5.41916E-05-4.22243E-05 1.73566E-05-9.19666E-19-4.94974E-18
 -1      2266 1.50684E-04-6.09971E-05-3.87438E-05 1.00999E-05 3.27299E-19-5.21179E-18
 -1      2267 1.01846E-04-2.45788E-05-3.30740E-05 4.16113E-06-1.71081E-18-6.92504E-19
 -1      2268 1.02167E-04-2.53901E-05-3.28688E-05 7.24673E-06-1.46322E-18-6.93500E-19
 -1      2269 9.94845E-05-5.23022E-05-2.01569E-05 4.51058E-05-5.78100E-19-6.06343E-19
 -1      2270 8.05697E-05-4.60641E-05-1.43742E-05 4.61279E-05-1.07107E-18-2.80262E-19
 -1      2271 1.01947E-04-2.59007E-05-3.25503E-05 1.00634E-05-1.21857E-18-5.89484E-19
 -1      2272 1.02878E-04-2.67900E-05-3.25633E-05 1.24077E-05-8.69215E-19-6.27764E-19
 -1      2273 9.76049E-05-2.26298E-05-3.21360E-05 8.62208E-06-1.33283E-18-1.34785E-18
 -1      2274 1.02990E-04-2.76199E-05-3.22547E-05 1.49902E-05-4.33123E-19-5.44076E-19
 -1      2275 1.04942E-04-2.94161E-05-3.23239E-05 1.65993E-05-6.30006E-20-4.26514E-19
 -1      2276 9.74498E-05-2.43028E-05-3.13624E-05 1.42613E-05-6.57935E-19-1.10089E-18
 -1      2277 1.06195E-04-3.14243E-05-3.19471E-05 1.85198E-05 2.52694E-19-1.35165E-19
 -1      2278 1.09494E-04-3.47795E-05-3.19869E-05 1.86581E-05 5.49023E-19-6.63134E-20
 -1      2279 9.86585E-05-2.76914E-05-3.04648E-05 1.90737E-05 1.43946E-19-9.35144E-19
 -1      2280 1.13271E-04-3.89865E-05-3.16005E-05 1.92333E-05 8.39350E-19 1.78655E-19
 -1      2281 1.18450E-04-4.43534E-05-3.17380E-05 1.70106E-05 1.02337E-18 2.27165E-19
 -1      2282 1.03335E-04-3.50255E-05-2.94060E-05 2.24425E-05 7.06478E-19-6.55339E-19
 -1      2283 1.26211E-04-5.09957E-05-3.18981E-05 1.47046E-05 1.10976E-18 7.81560E-19
 -1      2284 1.32767E-04-5.65748E-05-3.27306E-05 9.22170E-06 1.02872E-18 8.96306E-19
 -1      2285 1.14097E-04-4.73384E-05-2.88025E-05 2.23007E-05 1.26822E-18 1.20755E-19
 -1      2286 1.45456E-04-6.19213E-05-3.57453E-05-2.62103E-07 5.12720E-19 1.31872E-18
 -1      2287 1.49376E-04-5.89878E-05-3.87015E-05-8.60607E-06-7.30791E-19 1.40798E-18
 -1      2288 9.52357E-05-2.85739E-05-2.85694E-05-7.43382E-09-7.16717E-19 2.10445E-18
 -1      2289 1.58267E-04-3.15328E-05-5.48004E-05-1.61888E-05-4.85223E-18-5.00173E-19
 -1      2290 1.55842E-04-2.44103E-05-5.67492E-05-9.40297E-06-5.38586E-18-1.43847E-18
 -1      2291 1.40317E-04-5.89237E-05-3.49667E-05-1.42218E-07 5.76988E-19-5.43565E-18
 -1      2292 1.34632E-04-5.54485E-05-3.37414E-05-7.45269E-06 1.00674E-18-5.29398E-18
 -1      2293 1.25764E-04-4.89237E-05-3.29650E-05-1.21788E-05 1.50126E-18-4.67171E-18
 -1      2294 1.20389E-04-4.36459E-05-3.26377E-05-1.60838E-05 1.62796E-18-3.89017E-18
 -1      2295 1.23876E-04-5.29692E-05-3.04567E-05-1.62816E-05 1.59936E-18-3.67761E-18
 -1      2296 1.15160E-04-3.88066E-05-3.27420E-05-1.72454E-05 1.28659E-18-3.34264E-18
 -1      2297 1.11246E-04-3.50037E-05-3.25637E-05-1.82945E-05 1.03714E-18-2.79686E-18
 -1      2298 1.10351E-04-4.04063E-05-3.01120E-05-2.08048E-05 1.76469E-18-2.54154E-18
 -1      2299 1.08870E-04-3.25265E-05-3.27104E-05-1.74919E-05 7.14717E-19-2.72856E-18
 -1      2300 1.06229E-04-3.04914E-05-3.24278E-05-1.69547E-05 8.84060E-19-2.18692E-18
 -1      2301 1.03110E-04-3.17628E-05-3.06497E-05-2.01656E-05 1.24258E-18-1.74024E-18
 -1      2302 1.05276E-04-2.95563E-05-3.24248E-05-1.55192E-05 6.21256E-19-2.04580E-18
 -1      2303 1.03416E-04-2.86042E-05-3.20604E-05-1.43241E-05 1.65980E-19-2.20765E-18
 -1      2304 1.00030E-04-2.77680E-05-3.09899E-05-1.76105E-05 8.77577E-19-2.06556E-18
 -1      2305 1.03033E-04-2.84254E-05-3.19376E-05-1.27920E-05 5.54476E-20-2.21637E-18
 -1      2306 1.01629E-04-2.80205E-05-3.15550E-05-1.14755E-05 2.84284E-19-2.27085E-18
 -1      2307 9.88025E-05-2.64477E-05-3.10074E-05-1.45361E-05 3.06039E-19-1.95249E-18
 -1      2308 1.01401E-04-2.81396E-05-3.13598E-05-1.00211E-05-9.66246E-20-2.39940E-18
 -1      2309 1.00269E-04-2.79782E-05-3.09896E-05-8.77924E-06-3.74035E-19-2.52817E-18
 -1      2310 9.82490E-05-2.63754E-05-3.07928E-05-1.15042E-05-2.91399E-20-2.00232E-18
 -1      2311 1.00092E-04-2.81616E-05-3.07917E-05-7.63302E-06-6.74875E-19-2.75270E-18
 -1      2312 9.92370E-05-2.81041E-05-3.04910E-05-6.65965E-06-1.01219E-18-3.09959E-18
 -1      2313 9.78697E-05-2.67555E-05-3.04707E-05-8.86929E-06-3.66817E-19-1.89444E-18
 -1      2314 9.90471E-05-2.82651E-05-3.03050E-05-5.74582E-06-7.33542E-19-3.87837E-18
 -1      2315 9.83718E-05-2.82409E-05-3.00597E-05-4.98223E-06-2.99191E-19-3.90683E-18
 -1      2316 9.75146E-05-2.71970E-05-3.01322E-05-6.76447E-06-1.32448E-18-2.74604E-18
 -1      2317 9.81814E-05-2.83622E-05-2.98984E-05-4.27279E-06 5.08159E-19-4.00223E-18
 -1      2318 9.76532E-05-2.83478E-05-2.97044E-05-3.69034E-06 4.14583E-20-3.14302E-18
 -1      2319 9.71503E-05-2.75767E-05-2.98158E-05-5.09479E-06 2.28582E-19-3.14275E-18
 -1      2320 9.74739E-05-2.84318E-05-2.95707E-05-3.14879E-06 5.66197E-20-2.28228E-18
 -1      2321 9.70658E-05-2.84202E-05-2.94206E-05-2.71149E-06 2.10072E-19-1.64470E-18
 -1      2322 9.67949E-05-2.78659E-05-2.95413E-05-3.79969E-06 4.45008E-19-2.47431E-18
 -1      2323 9.69064E-05-2.84757E-05-2.93131E-05-2.30248E-06-7.18847E-19-1.17032E-18
 -1      2324 9.65951E-05-2.84656E-05-2.91987E-05-1.97717E-06-8.28314E-20-1.83073E-18
 -1      2325 9.64687E-05-2.80732E-05-2.93136E-05-2.80979E-06 1.37901E-19-1.49156E-18
 -1      2326 9.64597E-05-2.85012E-05-2.91143E-05-1.67043E-06 1.12128E-20-1.96971E-18
 -1      2327 9.62244E-05-2.84928E-05-2.90281E-05-1.42960E-06-3.34361E-19-1.81876E-18
 -1      2328 9.61846E-05-2.82176E-05-2.91304E-05-2.06057E-06-7.29545E-19-1.24416E-18
 -1      2329 9.61080E-05-2.85166E-05-2.89598E-05-1.19029E-06 9.23464E-20-1.64084E-18
 -1      2330 9.59268E-05-2.85095E-05-2.88931E-05-1.00623E-06 4.02892E-19-1.94183E-18
 -1      2331 9.59420E-05-2.83178E-05-2.89831E-05-1.48660E-06 2.71849E-20-1.32917E-18
 -1      2332 9.58406E-05-2.85236E-05-2.88442E-05-8.39314E-07 9.29940E-19-2.57447E-18
 -1      2333 9.57146E-05-2.85193E-05-2.87977E-05-7.11298E-07 1.59919E-18-2.16546E-18
 -1      2334 9.57470E-05-2.83884E-05-2.88696E-05-1.05857E-06 2.58702E-19-1.71941E-18
 -1      2335 9.56475E-05-2.85287E-05-2.87609E-05-5.87908E-07 1.18025E-18-2.20978E-18
 -1      2336 9.55565E-05-2.85261E-05-2.87271E-05-4.94545E-07 1.30229E-18-2.11355E-18
 -1      2337 9.55983E-05-2.84353E-05-2.87856E-05-7.50502E-07 1.37719E-18-2.13543E-18
 -1      2338 9.55059E-05-2.85325E-05-2.86997E-05-4.04121E-07 7.64986E-19-2.39556E-18
 -1      2339 9.54414E-05-2.85315E-05-2.86755E-05-3.36511E-07-5.20946E-19-2.35593E-18
 -1      2340 9.54847E-05-2.84689E-05-2.87223E-05-5.23125E-07 8.20588E-19-2.55524E-18
 -1      2341 9.54041E-05-2.85362E-05-2.86554E-05-2.70841E-07-8.18418E-19-2.39470E-18
 -1      2342 9.53594E-05-2.85363E-05-2.86383E-05-2.22351E-07-5.89877E-19-2.81783E-18
 -1      2343 9.54000E-05-2.84935E-05-2.86752E-05-3.56649E-07-3.84625E-19-2.01002E-18
 -1      2344 9.53327E-05-2.85398E-05-2.86238E-05-1.75202E-07-5.47127E-19-2.89473E-18
 -1      2345 9.53026E-05-2.85408E-05-2.86120E-05-1.40868E-07-1.59343E-18-2.83660E-18
 -1      2346 9.53384E-05-2.85119E-05-2.86407E-05-2.35987E-07-8.19289E-19-2.68727E-18
 -1      2347 9.52839E-05-2.85436E-05-2.86018E-05-1.07522E-07-3.47394E-18-2.52037E-18
 -1      2348 9.52643E-05-2.85451E-05-2.85938E-05-8.35831E-08-4.12376E-18-2.88586E-18
 -1      2349 9.52948E-05-2.85259E-05-2.86158E-05-1.49642E-07-2.47465E-18-2.64405E-18
 -1      2350 9.52512E-05-2.85475E-05-2.85864E-05-5.94372E-08-3.10730E-18-2.17062E-18
 -1      2351 9.52388E-05-2.85494E-05-2.85811E-05-4.25718E-08-9.67117E-19-2.16215E-18
 -1      2352 9.52643E-05-2.85368E-05-2.85979E-05-8.77709E-08-2.91209E-18-2.12498E-18
 -1      2353 9.52309E-05-2.85512E-05-2.85764E-05-2.72723E-08 2.12774E-19-1.84734E-18
 -1      2354 9.52244E-05-2.85531E-05-2.85734E-05-1.67669E-08 6.16238E-19-2.39222E-18
 -1      2355 9.52444E-05-2.85455E-05-2.85856E-05-4.52492E-08 1.55346E-19-1.55316E-18
 -1      2356 9.52197E-05-2.85546E-05-2.85703E-05-6.74640E-09 6.10314E-19-2.36412E-18
 -1      2357 9.52167E-05-2.85564E-05-2.85686E-05-1.32866E-10 6.77421E-19-3.43551E-18
 -1      2358 9.52324E-05-2.85520E-05-2.85775E-05-1.77282E-08 2.04399E-19-1.40469E-18
 -1      2359 9.52142E-05-2.85577E-05-2.85668E-05 6.09267E-09 1.49061E-18-3.99170E-18
 -1      2360 9.52136E-05-2.85594E-05-2.85660E-05 9.98199E-09 8.54849E-19-4.45609E-18
 -1      2361 9.52256E-05-2.85571E-05-2.85724E-05-9.19839E-13 1.11695E-18-1.99362E-18
 -1      2362 9.52125E-05-2.85604E-05-2.85650E-05 1.35557E-08 1.91274E-19-4.44223E-18
 -1      2363 9.52134E-05-2.85619E-05-2.85649E-05 1.55795E-08 6.25681E-19-3.39018E-18
 -1      2364 9.52224E-05-2.85610E-05-2.85693E-05 1.07842E-08 7.46583E-19-1.88403E-18
 -1      2365 9.52133E-05-2.85628E-05-2.85644E-05 1.73471E-08 5.61190E-19-2.92611E-18
 -1      2366 9.52150E-05-2.85641E-05-2.85646E-05 1.81308E-08 4.76407E-19-2.49512E-18
 -1      2367 9.52215E-05-2.85640E-05-2.85676E-05 1.67546E-08 7.10189E-19-1.47055E-18
 -1      2368 9.52156E-05-2.85648E-05-2.85646E-05 1.87044E-08-2.76831E-19-2.54894E-18
 -1      2369 9.52177E-05-2.85660E-05-2.85650E-05 1.86988E-08-5.06354E-19-2.92182E-18
 -1      2370 9.52222E-05-2.85663E-05-2.85669E-05 1.94739E-08-2.30977E-19-8.73852E-19
 -1      2371 9.52186E-05-2.85666E-05-2.85652E-05 1.84912E-08 1.45848E-19-2.56888E-18
 -1      2372 9.52210E-05-2.85676E-05-2.85657E-05 1.79621E-08 9.27981E-20-1.92777E-18
 -1      2373 9.52238E-05-2.85681E-05-2.85668E-05 2.00534E-08-2.76643E-21-1.38210E-18
 -1      2374 9.52220E-05-2.85681E-05-2.85660E-05 1.72955E-08-2.30982E-19-2.38125E-18
 -1      2375 9.52242E-05-2.85689E-05-2.85666E-05 1.64998E-08-7.13079E-19-1.47265E-18
 -1      2376 9.52259E-05-2.85695E-05-2.85670E-05 1.92581E-08-5.23981E-19-1.31787E-18
 -1      2377 9.52254E-05-2.85693E-05-2.85669E-05 1.55700E-08-7.76580E-20-1.17699E-18
 -1      2378 9.52274E-05-2.85700E-05-2.85674E-05 1.46021E-08 5.43250E-19-5.57381E-20
 -1      2379 9.52281E-05-2.85706E-05-2.85675E-05 1.76626E-08-1.07123E-19-1.78477E-18
 -1      2380 9.52285E-05-2.85704E-05-2.85678E-05 1.35037E-08 3.59416E-19 7.44027E-19
 -1      2381 9.52303E-05-2.85711E-05-2.85682E-05 1.24083E-08 5.18459E-19 3.19848E-19
 -1      2382 9.52304E-05-2.85715E-05-2.85681E-05 1.55790E-08 1.10465E-18-1.35212E-18
 -1      2383 9.52313E-05-2.85715E-05-2.85685E-05 1.11750E-08-5.03935E-19 6.74090E-19
 -1      2384 9.52329E-05-2.85721E-05-2.85689E-05 9.94542E-09 3.18927E-19 1.00010E-18
 -1      2385 9.52325E-05-2.85725E-05-2.85686E-05 1.31707E-08 1.12000E-19-3.51298E-19
 -1      2386 9.52336E-05-2.85724E-05-2.85691E-05 8.74646E-09 6.25694E-19-1.54051E-19
 -1      2387 9.52349E-05-2.85729E-05-2.85694E-05 7.38929E-09-4.85312E-19 1.82202E-19
 -1      2388 9.52356E-05-2.85738E-05-2.85693E-05 8.07850E-09-2.99755E-19-1.55573E-18
 -1      2389 9.52342E-05-2.85732E-05-2.85690E-05 1.06491E-08 1.08458E-19 6.06532E-19
 -1      2390 9.82246E-05-3.04790E-05-2.90444E-05 4.82939E-06 6.47950E-19 5.41104E-19
 -1      2391 9.89038E-05-3.07146E-05-2.92153E-05 4.31029E-06 8.33657E-19 5.54440E-19
 -1      2392 9.91062E-05-3.06684E-05-2.93503E-05 3.73761E-06 8.73016E-19 6.94047E-19
 -1      2393 9.96538E-05-3.06180E-05-2.95578E-05 3.36060E-06 9.48275E-19 8.45154E-19
 -1      2394 1.00582E-04-3.14423E-05-2.96299E-05 4.51814E-06 9.79953E-19 3.90234E-19
 -1      2395 9.97144E-05-3.02766E-05-2.97768E-05 3.12872E-06 1.13650E-18 5.56830E-19
 -1      2396 1.00194E-04-2.99763E-05-3.00577E-05 3.18739E-06 1.25435E-18 6.14259E-19
 -1      2397 1.00788E-04-3.08882E-05-2.99666E-05 3.69914E-06 9.92977E-19 2.73090E-19
 -1      2398 9.69262E-05-2.96385E-05-2.88305E-05 5.79449E-06 4.52421E-19 3.80541E-19
 -1      2399 9.77783E-05-3.01870E-05-2.89745E-05 5.42900E-06 4.61183E-19 5.01751E-19
 -1      2400 9.99585E-05-3.11886E-05-2.94622E-05 5.75610E-06 6.73404E-19 1.26881E-19
 -1      2401 9.52411E-05-2.82108E-05-2.86990E-05 5.99338E-06 4.68161E-19 3.76213E-19
 -1      2402 9.61936E-05-2.90019E-05-2.88129E-05 6.06339E-06 5.12629E-19 4.13557E-19
 -1      2403 9.87647E-05-3.00620E-05-2.94304E-05 6.70986E-06 5.83324E-19 2.56095E-19
 -1      2404 9.34612E-05-2.65289E-05-2.86420E-05 4.93360E-06 5.88632E-19 4.66811E-19
 -1      2405 9.43300E-05-2.73587E-05-2.87181E-05 5.61495E-06 3.68563E-19 5.07470E-19
 -1      2406 9.70666E-05-2.82243E-05-2.94983E-05 6.64127E-06 4.61775E-19 1.72388E-19
 -1      2407 9.21001E-05-2.51656E-05-2.86431E-05 2.52942E-06 8.71994E-19 5.26393E-19
 -1      2408 9.26444E-05-2.57429E-05-2.86759E-05 3.78365E-06 9.16170E-19 6.85005E-19
 -1      2409 9.52623E-05-2.61931E-05-2.96133E-05 5.04357E-06 6.93413E-19 2.84750E-19
 -1      2410 9.16738E-05-2.46901E-05-2.86798E-05-7.39743E-07 6.26718E-19 9.67812E-20
 -1      2411 9.17068E-05-2.47748E-05-2.86678E-05 8.02012E-07 8.71557E-19 4.05919E-19
 -1      2412 9.39917E-05-2.47340E-05-2.97115E-05 1.96361E-06 9.82608E-19 3.12970E-19
 -1      2413 9.23979E-05-2.53345E-05-2.87367E-05-3.97524E-06 4.60511E-19-1.32059E-20
 -1      2414 9.18873E-05-2.48786E-05-2.86814E-05-2.57008E-06 6.77752E-19-1.86223E-20
 -1      2415 9.38018E-05-2.44838E-05-2.97404E-05-1.87004E-06 7.87974E-19 6.29048E-20
 -1      2416 9.40377E-05-2.68416E-05-2.88116E-05-6.27637E-06 1.53934E-19-2.38006E-19
 -1      2417 9.31279E-05-2.60204E-05-2.87175E-05-5.37373E-06 3.69037E-19 2.05836E-20
 -1      2418 9.47942E-05-2.55688E-05-2.96857E-05-5.33642E-06 3.88613E-19 1.59166E-19
 -1      2419 9.60383E-05-2.86311E-05-2.89099E-05-7.16038E-06-2.60514E-19-3.60580E-19
 -1      2420 9.49771E-05-2.77322E-05-2.87870E-05-6.91203E-06-4.14972E-20-3.26616E-19
 -1      2421 9.65466E-05-2.75318E-05-2.95753E-05-7.48005E-06 1.91245E-19-1.23851E-19
 -1      2422 9.78357E-05-3.01425E-05-2.90302E-05-6.69257E-06-1.09343E-19-1.06061E-18
 -1      2423 9.68597E-05-2.94117E-05-2.88947E-05-7.01985E-06 1.29022E-19-8.09760E-19
 -1      2424 9.83850E-05-2.96145E-05-2.94562E-05-7.94778E-06 1.71639E-19-8.76266E-19
 -1      2425 9.90843E-05-3.10705E-05-2.91603E-05-5.31304E-06-5.07161E-20-1.24140E-18
 -1      2426 9.83442E-05-3.06258E-05-2.90311E-05-6.00071E-06-1.13538E-19-1.24697E-18
 -1      2427 9.97636E-05-3.11934E-05-2.93663E-05-7.00084E-06 3.29569E-20-1.08853E-18
 -1      2428 9.97036E-05-3.13935E-05-2.92800E-05-3.55981E-06 3.49085E-19-1.30031E-18
 -1      2429 9.92488E-05-3.12292E-05-2.91739E-05-4.37292E-06 2.73825E-19-1.40825E-18
 -1      2430 1.00452E-04-3.20001E-05-2.93196E-05-5.22922E-06 1.60329E-19-1.35587E-18
 -1      2431 9.97926E-05-3.12625E-05-2.93690E-05-1.86406E-06-2.24201E-19-6.84412E-19
 -1      2432 9.95990E-05-3.13048E-05-2.92969E-05-2.62409E-06 1.82550E-19-7.63958E-19
 -1      2433 1.00505E-04-3.20967E-05-2.93073E-05-3.22994E-06-1.44144E-19-1.09576E-18
 -1      2434 9.95175E-05-3.08741E-05-2.94147E-05-4.77241E-07-6.05248E-20-1.63928E-19
 -1      2435 9.95254E-05-3.10345E-05-2.93798E-05-1.08484E-06-4.64943E-19-4.04301E-19
 -1      2436 1.00114E-04-3.17146E-05-2.93096E-05-1.42358E-06-4.64569E-19-6.73566E-19
 -1      2437 9.90380E-05-3.03931E-05-2.94146E-05 5.10586E-07-6.88975E-20 4.70574E-19
 -1      2438 9.91805E-05-3.05992E-05-2.94134E-05 8.66988E-08 3.06682E-19 2.96608E-19
 -1      2439 9.94886E-05-3.11037E-05-2.93073E-05-2.16062E-08-2.81509E-19-4.10433E-20
 -1      2440 9.84751E-05-2.99260E-05-2.93738E-05 1.11651E-06 7.69465E-19 7.28406E-19
 -1      2441 9.86939E-05-3.01309E-05-2.93992E-05 8.63576E-07 4.29196E-19 7.22174E-19
 -1      2442 9.87882E-05-3.04528E-05-2.92883E-05 9.27587E-07 3.22725E-20 2.53338E-19
 -1      2443 9.79080E-05-2.95264E-05-2.93027E-05 1.41101E-06-4.24021E-19 1.26836E-18
 -1      2444 9.81587E-05-2.97058E-05-2.93460E-05 1.29501E-06 3.11549E-19 1.12532E-18
 -1      2445 9.81122E-05-2.98720E-05-2.92485E-05 1.47197E-06 2.38857E-19 1.22953E-18
 -1      2446 9.73818E-05-2.92114E-05-2.92130E-05 1.47989E-06-1.15043E-18 1.59111E-18
 -1      2447 9.76339E-05-2.93566E-05-2.92660E-05 1.46148E-06-5.04230E-19 1.24077E-18
 -1      2448 9.75103E-05-2.94071E-05-2.91901E-05 1.70065E-06-6.31287E-19 1.73358E-18
 -1      2449 9.69188E-05-2.89775E-05-2.91155E-05 1.40274E-06-4.55030E-19 3.74119E-19
 -1      2450 9.71533E-05-2.90885E-05-2.91715E-05 1.44622E-06-8.94952E-19 1.15295E-18
 -1      2451 9.70001E-05-2.90633E-05-2.91188E-05 1.70880E-06-4.72499E-19 7.64803E-19
 -1      2452 9.65265E-05-2.88121E-05-2.90188E-05 1.24363E-06 4.32832E-19 7.86129E-19
 -1      2453 9.67332E-05-2.88934E-05-2.90728E-05 1.32071E-06-1.29554E-19 2.77794E-19
 -1      2454 9.65815E-05-2.88255E-05-2.90411E-05 1.57974E-06-4.08679E-21 3.73023E-19
 -1      2455 9.62036E-05-2.87002E-05-2.89288E-05 1.04914E-06 1.64004E-18 6.22938E-19
 -1      2456 9.63785E-05-2.87574E-05-2.89778E-05 1.13955E-06 1.47266E-18 6.88062E-19
 -1      2457 9.62458E-05-2.86713E-05-2.89630E-05 1.37815E-06 7.81096E-19 6.82300E-19
 -1      2458 9.59445E-05-2.86278E-05-2.88491E-05 8.50181E-07 7.98467E-19 5.55998E-19
 -1      2459 9.60875E-05-2.86666E-05-2.88915E-05 9.40698E-07 1.23602E-18 6.24636E-19
 -1      2460 9.59812E-05-2.85782E-05-2.88892E-05 1.14983E-06 1.10084E-18 6.54806E-19
 -1      2461 9.57412E-05-2.85833E-05-2.87813E-05 6.65249E-07-3.08869E-19 3.68814E-19
 -1      2462 9.58547E-05-2.86086E-05-2.88165E-05 7.48167E-07 7.21839E-19 7.46518E-19
 -1      2463 9.57759E-05-2.85274E-05-2.88227E-05 9.24447E-07 1.02850E-18 7.24059E-19
 -1      2464 9.55850E-05-2.85579E-05-2.87254E-05 5.03827E-07-1.10824E-18 4.86287E-20
 -1      2465 9.56727E-05-2.85736E-05-2.87538E-05 5.75375E-07-1.10246E-18 1.70899E-20
 -1      2466 9.56188E-05-2.85041E-05-2.87651E-05 7.19155E-07-3.31354E-19 5.60835E-19
 -1      2467 9.54677E-05-2.85450E-05-2.86808E-05 3.69322E-07-7.22578E-19-3.03786E-19
 -1      2468 9.55336E-05-2.85540E-05-2.87030E-05 4.28342E-07-7.02769E-19-1.89775E-19
 -1      2469 9.55004E-05-2.84977E-05-2.87168E-05 5.42239E-07-7.65048E-19 1.07867E-19
 -1      2470 9.53816E-05-2.85399E-05-2.86461E-05 2.61369E-07 1.33906E-19-1.88532E-19
 -1      2471 9.54297E-05-2.85445E-05-2.86630E-05 3.08293E-07-1.10735E-19-1.32783E-19
 -1      2472 9.54125E-05-2.85009E-05-2.86775E-05 3.96081E-07-6.04688E-19-7.04329E-19
 -1      2473 9.53201E-05-2.85396E-05-2.86200E-05 1.77506E-07 4.04626E-19 1.74672E-19
 -1      2474 9.53541E-05-2.85413E-05-2.86324E-05 2.13616E-07 7.57159E-19-7.95836E-20
 -1      2475 9.53485E-05-2.85089E-05-2.86465E-05 2.79478E-07 2.14035E-19-3.29079E-19
 -1      2476 9.52775E-05-2.85418E-05-2.86008E-05 1.14304E-07 1.48183E-18-3.39362E-19
 -1      2477 9.53006E-05-2.85418E-05-2.86096E-05 1.41247E-07 7.41736E-19 2.45509E-19
 -1      2478 9.53029E-05-2.85188E-05-2.86225E-05 1.89283E-07 1.01060E-18 7.87878E-20
 -1      2479 9.52491E-05-2.85453E-05-2.85872E-05 6.80894E-08 1.33961E-18-9.12887E-19
 -1      2480 9.52641E-05-2.85443E-05-2.85932E-05 8.75732E-08 1.63992E-18-8.69568E-19
 -1      2481 9.52712E-05-2.85287E-05-2.86045E-05 1.21525E-07 1.78497E-18-4.64091E-19
 -1      2482 9.52311E-05-2.85493E-05-2.85778E-05 3.53703E-08 8.91317E-19-2.14079E-19
 -1      2483 9.52402E-05-2.85477E-05-2.85818E-05 4.89850E-08 1.04539E-18-8.57220E-19
 -1      2484 9.52499E-05-2.85378E-05-2.85914E-05 7.21002E-08 1.24416E-18-1.21090E-18
 -1      2485 9.52207E-05-2.85532E-05-2.85717E-05 1.30504E-08 1.38800E-19-3.07414E-19
 -1      2486 9.52256E-05-2.85514E-05-2.85741E-05 2.21858E-08 4.37783E-19 5.80502E-19
 -1      2487 9.52363E-05-2.85456E-05-2.85821E-05 3.71759E-08 2.97183E-19-1.00243E-18
 -1      2488 9.52156E-05-2.85567E-05-2.85680E-05-1.48265E-09 3.09287E-19-5.93956E-19
 -1      2489 9.52176E-05-2.85550E-05-2.85693E-05 4.33250E-09 3.03646E-19-4.34398E-19
 -1      2490 9.52282E-05-2.85521E-05-2.85757E-05 1.33913E-08 2.83727E-19 7.42207E-19
 -1      2491 9.52140E-05-2.85598E-05-2.85660E-05-1.03506E-08 1.32853E-18-1.49132E-18
 -1      2492 9.52141E-05-2.85582E-05-2.85666E-05-6.92416E-09 1.23962E-18-4.71953E-19
 -1      2493 9.52240E-05-2.85573E-05-2.85716E-05-2.06994E-09 1.12566E-18 2.76769E-19
 -1      2494 9.52147E-05-2.85625E-05-2.85652E-05-1.52213E-08-4.74151E-19-1.02102E-18
 -1      2495 9.52136E-05-2.85611E-05-2.85653E-05-1.34588E-08 1.91811E-19-1.91321E-18
 -1      2496 9.52223E-05-2.85614E-05-2.85691E-05-1.14848E-08 4.88940E-19 5.36408E-19
 -1      2497 9.52168E-05-2.85647E-05-2.85652E-05-1.73659E-08-1.42571E-18 4.34728E-19
 -1      2498 9.52150E-05-2.85635E-05-2.85649E-05-1.67211E-08-1.07469E-18-3.53117E-19
 -1      2499 9.52225E-05-2.85645E-05-2.85678E-05-1.66369E-08-1.20594E-18 1.55241E-18
 -1      2500 9.52197E-05-2.85666E-05-2.85656E-05-1.77204E-08-9.71146E-19 8.66335E-20
 -1      2501 9.52175E-05-2.85655E-05-2.85651E-05-1.77964E-08-6.14815E-19-3.02087E-20
 -1      2502 9.52236E-05-2.85669E-05-2.85672E-05-1.88810E-08-9.41520E-19 1.26947E-18
 -1      2503 9.52228E-05-2.85681E-05-2.85663E-05-1.69449E-08-3.26441E-20-2.01583E-20
 -1      2504 9.52206E-05-2.85672E-05-2.85658E-05-1.74677E-08-4.68037E-19 3.06012E-19
 -1      2505 9.52254E-05-2.85686E-05-2.85672E-05-1.92113E-08-6.26793E-19 7.32208E-19
 -1      2506 9.52259E-05-2.85694E-05-2.85671E-05-1.54749E-08 3.72041E-19-1.01176E-18
 -1      2507 9.52238E-05-2.85686E-05-2.85665E-05-1.62701E-08 7.95765E-19-3.84465E-19
 -1      2508 9.52274E-05-2.85700E-05-2.85675E-05-1.83263E-08 8.91609E-20-5.61012E-19
 -1      2509 9.52289E-05-2.85705E-05-2.85679E-05-1.35661E-08-1.17092E-18 6.17957E-19
 -1      2510 9.52270E-05-2.85698E-05-2.85674E-05-1.45398E-08-9.03741E-19-2.06766E-19
 -1      2511 9.52295E-05-2.85711E-05-2.85679E-05-1.66858E-08-7.69830E-19-4.59944E-19
 -1      2512 9.52316E-05-2.85716E-05-2.85686E-05-1.13332E-08-8.81888E-19 1.86034E-19
 -1      2513 9.52299E-05-2.85709E-05-2.85682E-05-1.24508E-08-5.53671E-19 8.26285E-19
 -1      2514 9.52316E-05-2.85720E-05-2.85684E-05-1.45604E-08-7.70606E-19-1.48814E-18
 -1      2515 9.52340E-05-2.85726E-05-2.85692E-05-8.81659E-09-4.66493E-19 1.14974E-18
 -1      2516 9.52325E-05-2.85720E-05-2.85688E-05-1.00439E-08-5.78431E-19 7.46454E-19
 -1      2517 9.52336E-05-2.85730E-05-2.85688E-05-1.20689E-08-1.00884E-18 6.14350E-19
 -1      2518 1.52353E-04-2.02750E-05-5.73009E-05-2.02691E-06-5.46252E-18-1.98595E-18
 -1      2519 9.52424E-05-2.85829E-05-2.85683E-05-7.76730E-09-8.22841E-19-1.64219E-18
 -1      2520 9.52416E-05-2.85817E-05-2.85685E-05-8.54740E-09-1.85243E-18-3.19986E-18
 -1      2521 9.52407E-05-2.85806E-05-2.85686E-05-9.20505E-09-3.16550E-18-3.62368E-18
 -1      2522 9.52398E-05-2.85792E-05-2.85688E-05-9.46623E-09-1.93969E-18-3.60789E-18
 -1      2523 9.52414E-05-2.85806E-05-2.85689E-05-1.00768E-08-2.50496E-18-2.42846E-18
 -1      2524 9.52387E-05-2.85779E-05-2.85689E-05-9.49350E-09-1.01493E-18-2.15422E-18
 -1      2525 9.52377E-05-2.85764E-05-2.85691E-05-9.14200E-09-8.46634E-19-5.59715E-20
 -1      2526 9.52391E-05-2.85781E-05-2.85690E-05-1.08348E-08-2.11197E-18-3.87666E-18
 -1      2527 5.49405E-05-3.43764E-05-8.77709E-06 4.57108E-05-1.01072E-18 1.40502E-18
 -1      2528 3.81354E-05-2.74043E-05-4.20139E-06 3.64200E-05-1.02682E-18 3.08024E-18
 -1      2529 9.52436E-05-2.85846E-05-2.85681E-05-5.42130E-09 9.38569E-19 4.26571E-19
 -1      2530 9.52430E-05-2.85838E-05-2.85682E-05-6.59575E-09 2.56972E-19-1.01673E-18
 -1      2531 9.52431E-05-2.85827E-05-2.85688E-05-8.13479E-09 2.07186E-19-3.93350E-19
 -1      2532 9.52443E-05-2.85856E-05-2.85680E-05-2.47635E-09-3.87488E-19 3.20046E-18
 -1      2533 9.52440E-05-2.85852E-05-2.85680E-05-3.89315E-09-4.67430E-19 2.08398E-18
 -1      2534 9.52444E-05-2.85842E-05-2.85687E-05-5.26800E-09 3.09090E-19 9.85249E-19
 -1      2535 9.52444E-05-2.85858E-05-2.85679E-05 7.35344E-10-1.56955E-18 5.07042E-18
 -1      2536 9.52444E-05-2.85858E-05-2.85679E-05-7.65579E-10-1.45331E-18 4.61146E-18
 -1      2537 9.52451E-05-2.85850E-05-2.85686E-05-1.83584E-09-3.58903E-19 2.67286E-18
 -1      2538 9.52440E-05-2.85852E-05-2.85680E-05 3.87437E-09-8.89678E-19 1.15120E-18
 -1      2539 9.52443E-05-2.85857E-05-2.85680E-05 2.45129E-09-1.90888E-18 3.73583E-18
 -1      2540 9.52451E-05-2.85850E-05-2.85686E-05 1.79452E-09-1.01189E-18 4.18703E-18
 -1      2541 9.52431E-05-2.85838E-05-2.85682E-05 6.55886E-09 3.75575E-19-9.53562E-19
 -1      2542 9.52436E-05-2.85847E-05-2.85681E-05 5.39135E-09-3.15937E-20-1.83738E-18
 -1      2543 9.52444E-05-2.85843E-05-2.85687E-05 5.22032E-09-4.50901E-19 7.79055E-19
 -1      2544 9.52416E-05-2.85818E-05-2.85685E-05 8.55220E-09 9.48622E-19 1.19912E-18
 -1      2545 9.52424E-05-2.85830E-05-2.85683E-05 7.75446E-09 9.37489E-19-3.30964E-19
 -1      2546 9.52432E-05-2.85828E-05-2.85688E-05 8.10187E-09 2.11792E-18-1.08934E-18
 -1      2547 9.52398E-05-2.85792E-05-2.85688E-05 9.50460E-09 1.09999E-18 9.82926E-19
 -1      2548 9.52408E-05-2.85806E-05-2.85686E-05 9.23139E-09 1.33263E-19 2.61576E-18
 -1      2549 9.52414E-05-2.85807E-05-2.85689E-05 1.01045E-08 1.38659E-18 8.71178E-19
 -1      2550 9.52377E-05-2.85764E-05-2.85691E-05 9.19303E-09-5.20141E-19-7.33596E-19
 -1      2551 9.52387E-05-2.85779E-05-2.85689E-05 9.53823E-09-4.09705E-19-1.33226E-18
 -1      2552 9.52391E-05-2.85781E-05-2.85690E-05 1.08996E-08 1.15117E-19-9.31372E-19
 -1      2553 9.92772E-05-1.95602E-05-3.41915E-05-3.62189E-06-2.35041E-18-1.21950E-18
 -1      2554 1.00976E-04-2.29855E-05-3.34115E-05 1.31770E-06-2.04105E-18-9.67002E-19
 -1      2555 9.69324E-05-2.01814E-05-3.28850E-05 2.61092E-06-1.87673E-18-1.55294E-18
 -1      2556 9.45249E-05-1.56673E-05-3.37958E-05-3.25010E-06-2.31278E-18-1.90860E-18
 -1      2557 1.86005E-05-1.65632E-05-5.10885E-07 5.85819E-07 9.31352E-19 6.73137E-18
 -1      2558 2.37708E-05-2.00573E-05-1.28883E-06-1.48248E-05 8.25645E-19 6.98887E-18
 -1      2559 1.10041E-04-6.01484E-05-2.13215E-05-3.18778E-05 1.05413E-18-4.00329E-19
 -1      2560 1.30355E-04-6.49724E-05-2.81111E-05-2.55540E-05-5.94617E-19-1.47659E-18
 -1      2561 1.48869E-04-2.16321E-05-5.49619E-05 4.61281E-06 4.70103E-18-4.15470E-19
 -1      2562 1.49985E-04-1.50452E-05-5.82920E-05 4.21077E-06 5.12010E-18-7.83929E-19
 -1      2563 1.24809E-04-5.65741E-05-2.94630E-05 3.25778E-05-4.91067E-19-1.72879E-18
 -1      2564 1.11560E-04-5.59448E-05-2.39160E-05 3.83811E-05-6.88003E-19-1.13407E-18
 -1      2565 1.10202E-04-5.58092E-05-2.29792E-05 3.82180E-05-1.93526E-18-1.92633E-18
 -1      2566 7.83168E-05-5.70907E-06-3.11085E-05-5.44940E-06-3.51627E-19-3.82892E-18
 -1      2567 7.74806E-05-5.09191E-06-3.10736E-05-5.67170E-06-6.30343E-19-3.84209E-18
 -1      2568 7.76351E-05-6.03121E-06-3.06701E-05-5.97605E-06-7.23429E-19-3.62317E-18
 -1      2569 7.97268E-05-7.91765E-06-3.07795E-05-6.11793E-06-3.28237E-19-3.59489E-18
 -1      2570 1.49023E-04-9.79955E-06-6.01218E-05 1.82741E-06 5.19612E-18-1.36658E-18
 -1      2571 1.49498E-04-9.31823E-06-6.05104E-05-4.62886E-07 5.11650E-18-1.70974E-18
 -1      2572 1.50663E-04-2.75380E-05-5.31360E-05-2.94309E-06 3.96263E-18-2.89897E-18
 -1      2573 1.47977E-04-3.46491E-05-4.90413E-05-1.19816E-06 3.27802E-18-3.21724E-18
 -1      2574 9.94720E-05-5.25511E-05-2.00815E-05-4.31018E-05-5.67512E-20-3.23058E-18
 -1      2575 1.16534E-04-5.52031E-05-2.64372E-05-3.78913E-05 6.96685E-20-2.41584E-18
 -1      2576 1.49985E-04-1.27809E-05-5.92466E-05-3.12009E-06 4.84842E-18-2.48159E-18
 -1      2577 1.49078E-04-1.85757E-05-5.64285E-05-4.00471E-06 4.88738E-18-2.71178E-18
 -1      2578 1.47777E-04-4.01233E-05-4.65411E-05-1.47265E-06 2.89421E-18-2.33146E-19
 -1      2579 1.50688E-04-3.21645E-05-5.11862E-05 2.01650E-06 3.91668E-18-6.37392E-20
 -1      2580 6.58897E-05-3.94744E-05-1.09472E-05-4.60354E-05-8.23528E-19-4.20287E-18
 -1      2581 8.30058E-05-4.63835E-05-1.56531E-05-4.79318E-05-8.89385E-20-3.80095E-18
 -1      2582 9.71763E-05-5.06676E-05-1.95511E-05-4.33631E-05-1.40967E-18-2.78017E-18
 -1      2583 3.12197E-05-2.29530E-05-3.20946E-06-3.11080E-05-7.86999E-19-6.29430E-18
 -1      2584 4.56281E-05-2.88936E-05-6.96517E-06-4.19098E-05-6.04146E-19-5.49449E-18
 -1      2585 2.01040E-05-1.39473E-05-2.08045E-06-5.54483E-06-1.15580E-19-6.48023E-18
 -1      2586 2.26001E-05-1.73936E-05-1.86118E-06-2.05523E-05-1.84971E-19-6.62803E-18
 -1      2587 3.44731E-05-1.67315E-05-7.02929E-06-2.59622E-05-9.89652E-19-6.24242E-18
 -1      2588 7.17062E-05-4.49677E-05-1.14859E-05 4.08504E-05 2.20229E-19-4.26629E-18
 -1      2589 5.42533E-05-3.69053E-05-7.21347E-06 3.58503E-05 4.98479E-19-4.96065E-18
 -1      2590 1.11341E-04-6.02572E-05-2.22889E-05 3.61409E-05-1.87618E-19-2.31346E-18
 -1      2591 8.98268E-05-5.31574E-05-1.57196E-05 3.78417E-05 4.17587E-19-3.36103E-18
 -1      2592 8.86269E-05-4.90626E-05-1.65796E-05 3.81276E-05 1.40247E-18-2.80601E-18
 -1      2593 1.53373E-04-6.65457E-05-3.76856E-05 8.11225E-06-1.48135E-18 3.02391E-19
 -1      2594 1.36070E-04-6.46350E-05-3.04847E-05 1.83131E-05-5.53960E-19-5.59465E-19
 -1      2595 1.57862E-04-6.33002E-05-4.10175E-05 1.28355E-06-1.45933E-18-2.90935E-18
 -1      2596 1.63533E-04-5.60326E-05-4.65179E-05 7.34159E-06-2.09950E-18-2.89516E-18
 -1      2597 1.39614E-04-6.61126E-05-3.18624E-05-1.65973E-05-8.04470E-19-1.92234E-18
 -1      2598 1.51788E-04-6.42331E-05-3.77842E-05-8.42922E-06-1.23095E-18-2.02102E-18
 -1      2599 1.49960E-04-6.47414E-05-3.63299E-05-1.35039E-06-3.55224E-19-4.14834E-18
 -1      2600 1.37029E-04-6.64007E-05-3.00742E-05-1.68897E-05 5.64547E-19-2.70881E-18
 -1      2601 7.24284E-05-4.34834E-05-1.20402E-05-3.75269E-05 1.82663E-18 1.90519E-18
 -1      2602 8.86779E-05-5.06084E-05-1.62708E-05-3.88739E-05 1.86728E-18 1.34890E-18
 -1      2603 3.42751E-05-2.62416E-05-3.09558E-06-2.46286E-05 1.73621E-18 5.03688E-18
 -1      2604 5.03933E-05-3.32508E-05-7.18415E-06-3.46166E-05 1.60979E-18 3.07600E-18
 -1      2605 3.58885E-05-1.93581E-05-6.45309E-06-1.93006E-05 2.12870E-18 5.24589E-18
 -1      2606 2.54464E-05-2.12839E-05-1.55248E-06 2.76315E-05-1.84336E-19 5.02163E-18
 -1      2607 1.95753E-05-1.78994E-05-3.33889E-07 1.55428E-05-1.82324E-19 5.46167E-18
 -1      2608 9.52363E-05-2.85748E-05-2.85692E-05-9.24075E-09-7.82024E-19 1.60669E-18
 -1      2609 8.06393E-05-7.21360E-06-3.14190E-05-3.02868E-06-1.51908E-18-3.37263E-18
 -1      2610 8.14485E-05-6.77566E-06-3.20753E-05-3.49295E-06-1.63711E-18-3.45433E-18
 -1      2611 8.40930E-05-8.36574E-06-3.25221E-05-3.54487E-06-1.94626E-18-3.17221E-18
 -1      2612 1.01186E-04-2.84877E-05-3.11283E-05 4.94947E-06 1.75632E-18 1.42139E-18
 -1      2613 1.00986E-04-2.74954E-05-3.14695E-05 5.89707E-06 2.00816E-18 6.50048E-19
 -1      2614 1.00566E-04-2.88588E-05-3.07205E-05 4.02278E-06 1.70901E-18 1.08650E-18
 -1      2615 2.54588E-05-1.40278E-05-4.28468E-06 7.06701E-06 6.29054E-19 5.77782E-18
 -1      2616 1.52689E-04-2.24607E-05-5.64292E-05 1.03420E-05-5.00427E-18-2.86816E-18
 -1      2617 1.47287E-04-4.20335E-05-4.54199E-05 4.56001E-07 2.19652E-18-3.44425E-18
 -1      2618 1.42917E-04-4.70449E-05-4.10741E-05 1.89633E-06 6.99543E-19-3.88068E-18
 -1      2619 1.41002E-04-3.67384E-05-4.51020E-05-7.44322E-06 1.99847E-18-3.71318E-18
 -1      2620 7.48483E-05-4.04149E-05-1.42721E-05 4.46123E-05-2.03987E-18 1.35737E-19
 -1      2621 1.34750E-04-6.13667E-05-3.17694E-05 1.29124E-05 9.63394E-19 1.01178E-18
 -1      2622 1.51828E-04-3.17591E-05-5.15942E-05 2.02280E-05-4.20086E-18-3.96697E-18
 -1      2623 1.56789E-04-4.46285E-05-4.87296E-05 2.24198E-05-2.73962E-18-4.72348E-18
 -1      2624 1.38546E-04-8.79020E-06-5.58265E-05-3.74098E-06 4.77430E-18-2.47080E-18
 -1      2625 1.38951E-04-1.03574E-05-5.53363E-05 5.55194E-06 4.74614E-18-7.14049E-19
 -1      2626 1.50779E-04-3.71672E-05-4.87560E-05-2.13138E-05-3.76951E-18 3.93235E-19
 -1      2627 1.67287E-04-3.70559E-05-5.58447E-05-1.39387E-05-4.73576E-18-6.60262E-19
 -1      2628 3.89642E-05-2.18338E-05-6.74910E-06 3.26890E-05-1.14625E-18 3.27251E-18
 -1      2629 9.52364E-05-2.85748E-05-2.85692E-05 8.50737E-09 4.33083E-19-7.58172E-19
 -1      2630 9.52364E-05-2.85752E-05-2.85691E-05 1.02534E-08-2.58332E-19-5.24015E-19
 -1      2631 9.06409E-05-1.30020E-05-3.32953E-05-2.91132E-06-2.16852E-18-2.45605E-18
 -1      2632 1.00104E-04-2.95667E-05-3.02206E-05 3.23055E-06 1.45459E-18 6.49463E-19
 -1      2633 1.00444E-04-2.92351E-05-3.04823E-05 3.63120E-06 1.62597E-18 9.41325E-19
 -1      2634 1.00638E-04-2.88882E-05-3.07622E-05 4.22332E-06 1.61626E-18 3.11126E-19
 -1      2635 1.00693E-04-2.99138E-05-3.03598E-05 3.66774E-06 1.33237E-18 1.56169E-19
 -1      2636 1.07121E-04-5.58973E-05-2.15700E-05-3.14446E-05 2.27937E-18-4.06192E-19
 -1      2637 1.38291E-04-5.63993E-05-3.58724E-05 1.24060E-05-7.39526E-19-3.06997E-18
 -1      2638 1.33976E-04-5.75003E-05-3.26945E-05 2.32793E-05-5.41466E-19-2.47312E-18
 -1      2639 1.28133E-04-5.89979E-05-2.93107E-05 2.46305E-05-1.79105E-18-3.00416E-18
 -1      2640 1.68542E-04-4.87657E-05-5.16012E-05-1.17368E-05-4.06163E-18-6.39086E-19
 -1      2641 6.58866E-05-3.55783E-05-1.25019E-05-3.50327E-05 2.71199E-18 2.22960E-18
 -1      2642 1.30217E-04-6.35049E-05-2.83662E-05 2.17174E-05 7.06849E-19-2.31558E-19
 -1      2643 2.43213E-05-1.35810E-05-3.93681E-06 3.00082E-06 6.44804E-20-6.42813E-18
 -1      2644 2.90784E-05-1.00224E-05-7.63117E-06-5.06796E-06-4.03926E-19-6.26614E-18
 -1      2645 3.08180E-05-1.32938E-05-6.92062E-06 1.13115E-05 4.79977E-19-6.07534E-18
 -1      2646 6.17658E-05-3.32047E-05-1.17691E-05-4.32316E-05-1.59666E-18-4.57324E-18
 -1      2647 1.46433E-04-4.71087E-05-4.27740E-05-4.25572E-06 1.99243E-18-1.68136E-19
 -1      2648 1.42078E-04-4.25686E-05-4.30235E-05 4.60202E-06 1.74134E-18 6.40886E-19
 -1      2649 1.41267E-04-5.16957E-05-3.84325E-05-7.12643E-06 8.76547E-19 8.89385E-20
 -1      2650 4.98491E-05-2.92552E-05-8.33345E-06 3.20149E-05 9.02937E-19-5.24208E-18
 -1      2651 1.42629E-04-2.63071E-05-5.01304E-05 8.66728E-06 3.61048E-18 1.11385E-19
 -1      2652 1.28273E-04-5.78300E-05-3.00533E-05-2.94518E-05-7.24213E-20-1.87427E-18
 -1      2653 1.34894E-04-5.79979E-05-3.34201E-05-1.84567E-05-3.67771E-19-6.41733E-19
 -1      2654 1.21793E-04-5.78241E-05-2.70446E-05-3.15240E-05-1.23550E-18-1.34138E-18
 -1      2655 1.44349E-04-6.31196E-05-3.49295E-05-2.26558E-06 2.65227E-19-4.87944E-18
 -1      2656 1.41333E-04-2.16568E-05-5.15843E-05-8.85019E-06 3.75850E-18-3.48914E-18
 -1      2657 1.55771E-04-5.23508E-05-4.51574E-05-1.88415E-05-2.29509E-18 1.15927E-18
 -1      2658 1.57373E-04-2.89450E-05-5.55946E-05 1.67254E-05-4.84122E-18-3.35531E-18
 -1      2659 1.56555E-04-5.88338E-05-4.22408E-05-9.25626E-06-1.70354E-18 7.59789E-19
 -1      2660 1.60740E-04-5.40349E-05-4.56228E-05-3.94321E-06-3.48716E-18-2.54110E-19
 -1      2661 9.52362E-05-2.85751E-05-2.85691E-05-1.08537E-08-7.47719E-19-2.24848E-19
 -1      2662 1.70366E-04-4.25904E-05-5.45400E-05 1.34291E-05-4.04606E-18-2.60632E-18
 -1      2663 1.70866E-04-3.48704E-05-5.84920E-05 1.38023E-05-4.86875E-18-3.28479E-18
 -1      2664 8.92146E-05-1.61722E-05-3.12945E-05-3.08865E-06 5.61612E-19-2.86848E-18
 -1      2665 8.73320E-05-1.49130E-05-3.10638E-05-4.43896E-06 2.67718E-19-2.94012E-18
 -1      2666 8.52157E-05-1.32667E-05-3.08078E-05-5.68723E-06 5.44225E-20-3.09400E-18
 -1      2667 8.31958E-05-1.19115E-05-3.05943E-05-6.60543E-06-1.99240E-19-3.17308E-18
 -1      2668 8.76556E-05-1.64216E-05-3.05516E-05-6.18741E-06 5.71598E-20-2.84845E-18
 -1      2669 9.54455E-05-2.07580E-05-3.20477E-05 3.22678E-06 1.55436E-18-1.89853E-18
 -1      2670 9.41030E-05-1.96893E-05-3.18994E-05 1.73262E-06 1.30946E-18-2.21168E-18
 -1      2671 9.78274E-05-2.29252E-05-3.21742E-05 5.72205E-06 2.05292E-18-1.20063E-18
 -1      2672 9.66502E-05-2.17118E-05-3.21150E-05 4.54596E-06 1.71795E-18-1.50403E-18
 -1      2673 9.75637E-05-2.36321E-05-3.16759E-05 3.04528E-06 1.48530E-18-1.48714E-18
 -1      2674 1.00891E-04-2.68894E-05-3.17105E-05 6.37026E-06 2.13260E-18 3.04593E-19
 -1      2675 1.00174E-04-2.56756E-05-3.19636E-05 6.88526E-06 2.31303E-18-9.90549E-20
 -1      2676 1.00647E-04-2.77131E-05-3.12453E-05 5.16661E-06 1.89118E-18 2.19650E-20
 -1      2677 1.61136E-04-5.27323E-05-4.65312E-05 1.48976E-05-2.00419E-18-4.06258E-18
 -1      2678 1.27822E-04-6.89129E-06-5.25039E-05-1.67772E-06 4.15491E-18-1.42776E-18
 -1      2679 1.28763E-04-1.00611E-05-5.14738E-05-7.01064E-06 4.02764E-18-2.24416E-18
 -1      2680 9.17627E-05-2.03721E-05-3.06085E-05 1.18886E-05-6.79419E-19-1.69857E-18
 -1      2681 9.18707E-05-2.14508E-05-3.01266E-05 1.45492E-05-2.19797E-19-1.60159E-18
 -1      2682 9.06869E-05-2.24634E-05-2.92305E-05 1.74445E-05 8.91337E-20-1.47788E-18
 -1      2683 9.19408E-05-2.48431E-05-2.86358E-05 1.96040E-05 3.98519E-19-1.49257E-18
 -1      2684 8.49484E-05-1.84519E-05-2.84428E-05 1.50543E-05-5.89300E-20-2.02101E-18
 -1      2685 9.16576E-05-2.74041E-05-2.73848E-05 2.28475E-05 7.13447E-19-1.30898E-18
 -1      2686 9.51707E-05-3.26204E-05-2.66441E-05 2.45785E-05 1.03304E-18-1.27981E-18
 -1      2687 8.32059E-05-2.21133E-05-2.60839E-05 2.13516E-05 5.40725E-19-1.90557E-18
 -1      2688 4.71864E-05-2.23950E-05-1.05343E-05 3.57797E-05-1.76299E-18 1.53991E-18
 -1      2689 3.70064E-05-1.62387E-05-8.22508E-06 2.55729E-05-1.14789E-18 3.09845E-18
 -1      2690 9.52358E-05-2.85748E-05-2.85690E-05 1.14343E-08-2.71283E-19 3.52704E-19
 -1      2691 1.00908E-04-4.96753E-05-2.14487E-05-3.18644E-05 2.69886E-18-2.23776E-19
 -1      2692 1.20411E-04-5.95998E-05-2.60479E-05-2.58158E-05 1.69978E-18-1.99802E-18
 -1      2693 1.03987E-04-4.00309E-05-2.73276E-05-2.39942E-05 1.93716E-18-1.19731E-18
 -1      2694 9.90455E-05-3.36782E-05-2.77878E-05-2.35847E-05 1.83395E-18-1.13434E-18
 -1      2695 9.73677E-05-3.01049E-05-2.87228E-05-2.14952E-05 1.32827E-18-1.18194E-18
 -1      2696 9.49581E-05-2.70042E-05-2.90743E-05-2.02918E-05 1.25742E-18-9.95667E-19
 -1      2697 9.00831E-05-2.91891E-05-2.61688E-05-2.41950E-05 1.48222E-18-2.55857E-19
 -1      2698 9.51230E-05-2.57342E-05-2.96828E-05-1.82525E-05 9.69351E-19-1.25218E-18
 -1      2699 9.41506E-05-2.45646E-05-2.98350E-05-1.67767E-05 6.34744E-19-1.21870E-18
 -1      2700 8.89242E-05-2.37974E-05-2.78858E-05-1.95443E-05 7.53543E-19 1.72666E-19
 -1      2701 9.49247E-05-2.44744E-05-3.01562E-05-1.49995E-05 4.86904E-19-1.01856E-18
 -1      2702 9.45368E-05-2.42581E-05-3.01471E-05-1.35141E-05 4.90141E-19-8.19008E-19
 -1      2703 8.99733E-05-2.23315E-05-2.89577E-05-1.57098E-05 8.50547E-19-1.93184E-19
 -1      2704 9.53772E-05-2.46862E-05-3.02689E-05-1.19595E-05 4.94786E-20-7.95334E-19
 -1      2705 9.51740E-05-2.48668E-05-3.01575E-05-1.05567E-05-1.11971E-19-1.21087E-18
 -1      2706 9.16123E-05-2.27075E-05-2.94979E-05-1.24945E-05 3.87056E-19-1.31030E-19
 -1      2707 9.58127E-05-2.53952E-05-3.01554E-05-9.34584E-06-3.49004E-19-9.19990E-19
 -1      2708 9.56405E-05-2.56635E-05-3.00106E-05-8.21262E-06-5.75353E-19-1.05900E-18
 -1      2709 9.30549E-05-2.37389E-05-2.96817E-05-9.84467E-06-3.20224E-19-3.59099E-19
 -1      2710 9.60731E-05-2.61399E-05-2.99508E-05-7.22925E-06-1.04423E-18-1.13788E-18
 -1      2711 9.58942E-05-2.63948E-05-2.98012E-05-6.30784E-06-1.23319E-18-1.18704E-18
 -1      2712 9.40830E-05-2.48232E-05-2.96646E-05-7.71404E-06-8.67994E-19-3.24134E-19
 -1      2713 9.61615E-05-2.67769E-05-2.97188E-05-5.52155E-06-8.78467E-19-1.58532E-18
 -1      2714 9.59798E-05-2.69833E-05-2.95816E-05-4.79299E-06 3.23948E-19-2.12552E-18
 -1      2715 9.47522E-05-2.57656E-05-2.95538E-05-5.97652E-06-1.06361E-18-4.42999E-19
 -1      2716 9.61285E-05-2.72709E-05-2.94961E-05-4.17307E-06 6.22103E-19-2.64300E-18
 -1      2717 9.59558E-05-2.74264E-05-2.93782E-05-3.60758E-06 1.54579E-19-2.41130E-18
 -1      2718 9.51464E-05-2.65121E-05-2.94075E-05-4.58097E-06-3.55607E-20-1.69470E-18
 -1      2719 9.60272E-05-2.76355E-05-2.92992E-05-3.12452E-06 7.18125E-19-2.11549E-18
 -1      2720 9.58726E-05-2.77487E-05-2.92019E-05-2.69115E-06 2.63436E-19-1.55386E-18
 -1      2721 9.53521E-05-2.70750E-05-2.92577E-05-3.47584E-06 5.57463E-19-2.28303E-18
 -1      2722 9.58975E-05-2.78982E-05-2.91334E-05-2.31824E-06-9.47641E-19-1.05160E-18
 -1      2723 9.57649E-05-2.79794E-05-2.90554E-05-1.98890E-06-5.83539E-19-1.26285E-18
 -1      2724 9.54396E-05-2.74882E-05-2.91201E-05-2.61126E-06-6.53866E-21-2.08750E-18
 -1      2725 9.57629E-05-2.80901E-05-2.89956E-05-1.68982E-06-5.39142E-20-1.11866E-18
 -1      2726 9.56503E-05-2.81502E-05-2.89317E-05-1.43204E-06-1.78205E-19-9.12011E-19
 -1      2727 9.54586E-05-2.77930E-05-2.89985E-05-1.92820E-06-3.72860E-19-4.69497E-19
 -1      2728 9.56376E-05-2.82238E-05-2.88862E-05-1.21853E-06-3.19921E-19-1.24536E-18
 -1      2729 9.55523E-05-2.82652E-05-2.88394E-05-1.03505E-06 8.37665E-19-1.32853E-18
 -1      2730 9.54410E-05-2.80131E-05-2.88977E-05-1.40544E-06 2.38926E-20-1.09744E-18
 -1      2731 9.55346E-05-2.83176E-05-2.88031E-05-8.73751E-07 1.76691E-18-1.83702E-18
 -1      2732 9.54686E-05-2.83478E-05-2.87674E-05-7.37235E-07 1.58748E-18-1.40837E-18
 -1      2733 9.54086E-05-2.81667E-05-2.88184E-05-1.01955E-06 9.80018E-19-9.68370E-19
 -1      2734 9.54507E-05-2.83853E-05-2.87392E-05-6.16603E-07 1.28121E-18-1.89682E-18
 -1      2735 9.54009E-05-2.84077E-05-2.87123E-05-5.15758E-07 5.88206E-19-1.67702E-18
 -1      2736 9.53728E-05-2.82780E-05-2.87555E-05-7.28338E-07 9.55648E-19-2.08968E-18
 -1      2737 9.53850E-05-2.84348E-05-2.86906E-05-4.26396E-07-3.17019E-20-1.56896E-18
 -1      2738 9.53483E-05-2.84516E-05-2.86707E-05-3.52595E-07-2.66231E-19-1.15158E-18
 -1      2739 9.53393E-05-2.83592E-05-2.87063E-05-5.10629E-07 4.50589E-19-1.68110E-18
 -1      2740 9.53351E-05-2.84712E-05-2.86542E-05-2.87136E-07-7.73487E-19-1.46677E-18
 -1      2741 9.53087E-05-2.84840E-05-2.86396E-05-2.33744E-07-1.10008E-18-2.20522E-18
 -1      2742 9.53107E-05-2.84187E-05-2.86685E-05-3.49569E-07-8.33214E-19-1.28285E-18
 -1      2743 9.52984E-05-2.84983E-05-2.86273E-05-1.86443E-07-1.87259E-18-2.15607E-18
 -1      2744 9.52799E-05-2.85082E-05-2.86168E-05-1.48319E-07-3.14792E-18-2.03089E-18
 -1      2745 9.52877E-05-2.84624E-05-2.86399E-05-2.31878E-07-1.56690E-18-1.77947E-18
 -1      2746 9.52717E-05-2.85190E-05-2.86074E-05-1.13182E-07-2.62807E-18-1.50763E-18
 -1      2747 9.52588E-05-2.85269E-05-2.85997E-05-8.55392E-08-1.58541E-18-4.49849E-19
 -1      2748 9.52696E-05-2.84949E-05-2.86180E-05-1.45568E-07-2.46862E-18-7.04351E-19
 -1      2749 9.52533E-05-2.85342E-05-2.85932E-05-6.26393E-08-3.73311E-19 5.27351E-19
 -1      2750 9.52455E-05-2.85399E-05-2.85882E-05-4.47426E-08 9.05958E-19 2.69952E-19
 -1      2751 9.52564E-05-2.85190E-05-2.86020E-05-8.47406E-08-3.07901E-19 1.16624E-18
 -1      2752 9.52416E-05-2.85453E-05-2.85837E-05-2.91887E-08 9.32847E-19-3.83052E-22
 -1      2753 9.52369E-05-2.85496E-05-2.85804E-05-1.73517E-08 4.87229E-19 7.99953E-19
 -1      2754 9.52474E-05-2.85359E-05-2.85908E-05-4.40857E-08 6.09414E-19 2.15324E-18
 -1      2755 9.52343E-05-2.85534E-05-2.85772E-05-7.19028E-09 4.24398E-19 6.44151E-19
 -1      2756 9.52318E-05-2.85568E-05-2.85751E-05 3.09205E-10 1.48287E-18 4.93301E-19
 -1      2757 9.52412E-05-2.85481E-05-2.85829E-05-1.68141E-08 5.69290E-19 2.36266E-18
 -1      2758 9.52302E-05-2.85594E-05-2.85730E-05 6.61430E-09 1.51608E-18 2.57147E-20
 -1      2759 9.52292E-05-2.85619E-05-2.85717E-05 1.10571E-08 2.58757E-19-5.40950E-19
 -1      2760 9.52373E-05-2.85568E-05-2.85775E-05 7.62649E-10 1.23399E-18 1.84787E-18
 -1      2761 9.52283E-05-2.85637E-05-2.85704E-05 1.46636E-08 1.45847E-19-4.28187E-19
 -1      2762 9.52282E-05-2.85656E-05-2.85697E-05 1.70031E-08 5.29406E-19-5.52113E-19
 -1      2763 9.52350E-05-2.85629E-05-2.85738E-05 1.14481E-08 7.29034E-19 2.47974E-19
 -1      2764 9.52278E-05-2.85668E-05-2.85689E-05 1.87665E-08 4.99356E-19-4.76159E-19
 -1      2765 9.52284E-05-2.85682E-05-2.85686E-05 1.97058E-08-2.92327E-19-3.28080E-19
 -1      2766 9.52338E-05-2.85671E-05-2.85715E-05 1.73431E-08 3.44236E-19 4.50875E-19
 -1      2767 9.52283E-05-2.85691E-05-2.85682E-05 2.02587E-08-9.52201E-19-2.64684E-19
 -1      2768 9.52292E-05-2.85701E-05-2.85682E-05 2.02629E-08-2.79132E-19-4.35140E-19
 -1      2769 9.52334E-05-2.85699E-05-2.85701E-05 2.00131E-08-1.00370E-18 4.96805E-19
 -1      2770 9.52293E-05-2.85706E-05-2.85680E-05 1.99942E-08-1.31131E-19-1.03997E-18
 -1      2771 9.52304E-05-2.85714E-05-2.85682E-05 1.94259E-08-4.09622E-19-1.38009E-18
 -1      2772 9.52335E-05-2.85718E-05-2.85693E-05 2.05017E-08-8.74088E-19-1.14641E-18
 -1      2773 9.52307E-05-2.85717E-05-2.85681E-05 1.86966E-08-4.17954E-19-1.06845E-18
 -1      2774 9.52318E-05-2.85723E-05-2.85683E-05 1.77851E-08-2.32182E-20-6.42663E-19
 -1      2775 9.52339E-05-2.85729E-05-2.85690E-05 1.96194E-08-4.56277E-19-8.93341E-19
 -1      2776 9.52321E-05-2.85726E-05-2.85684E-05 1.67676E-08 9.40084E-19-9.70985E-19
 -1      2777 9.52332E-05-2.85731E-05-2.85686E-05 1.56421E-08 6.98417E-19-9.65079E-19
 -1      2778 9.52346E-05-2.85738E-05-2.85689E-05 1.79132E-08 7.73460E-19-1.34525E-18
 -1      2779 9.52336E-05-2.85734E-05-2.85687E-05 1.44267E-08 9.63591E-19-1.62344E-18
 -1      2780 9.52347E-05-2.85739E-05-2.85689E-05 1.31498E-08 4.53019E-19-9.21955E-19
 -1      2781 9.52353E-05-2.85745E-05-2.85690E-05 1.56946E-08 7.60373E-19-2.03613E-18
 -1      2782 1.02032E-04-3.24143E-05-2.98591E-05 4.81103E-06 8.99316E-19-6.00813E-20
 -1      2783 1.02232E-04-3.22435E-05-2.99685E-05 4.25232E-06 8.93195E-19-8.28941E-20
 -1      2784 1.01737E-04-3.21022E-05-2.98498E-05 6.28176E-06 5.53381E-19 5.62764E-20
 -1      2785 1.02198E-04-3.24816E-05-2.98732E-05 5.64665E-06 7.22658E-19 1.02668E-19
 -1      2786 1.03823E-04-3.33352E-05-3.02019E-05 5.32136E-06 7.52874E-19-4.89655E-19
 -1      2787 1.01766E-04-3.16510E-05-3.00789E-05 3.73909E-06 7.81198E-19-1.48822E-19
 -1      2788 1.01821E-04-3.10497E-05-3.02911E-05 3.56786E-06 8.45794E-19-2.26087E-19
 -1      2789 1.03137E-04-3.25289E-05-3.02685E-05 3.95971E-06 7.96047E-19-7.38241E-19
 -1      2790 9.88910E-05-2.80619E-05-3.03138E-05 7.17122E-06 3.94851E-19-5.93734E-20
 -1      2791 9.98302E-05-2.93881E-05-3.02244E-05 7.53588E-06 3.89768E-19-2.54672E-20
 -1      2792 9.69308E-05-2.53629E-05-3.06233E-05 5.12966E-06 6.39328E-19 6.11870E-20
 -1      2793 9.77708E-05-2.66143E-05-3.05317E-05 6.35263E-06 5.05368E-19 7.95665E-21
 -1      2794 1.00545E-04-2.74962E-05-3.12952E-05 7.53070E-06 2.89056E-19-7.13154E-20
 -1      2795 9.56293E-05-2.36299E-05-3.08268E-05 1.38011E-06 1.06350E-18 1.63460E-19
 -1      2796 9.60315E-05-2.42569E-05-3.07771E-05 3.26555E-06 8.79966E-19 6.63035E-20
 -1      2797 9.84456E-05-2.44321E-05-3.17357E-05 4.78832E-06 7.87973E-19-7.98097E-20
 -1      2798 9.56569E-05-2.37234E-05-3.08323E-05-3.03730E-06 6.80981E-19 9.08555E-21
 -1      2799 9.54435E-05-2.34200E-05-3.08499E-05-1.03172E-06 1.15486E-18 1.56996E-19
 -1      2800 9.73190E-05-2.28632E-05-3.19444E-05 2.81234E-07 1.06431E-18 9.78691E-20
 -1      2801 9.70399E-05-2.56383E-05-3.06315E-05-6.68182E-06 3.14019E-19-1.72011E-19
 -1      2802 9.62925E-05-2.45359E-05-3.07086E-05-5.18396E-06 4.51500E-19-3.28537E-19
 -1      2803 9.77858E-05-2.35819E-05-3.18223E-05-4.54145E-06 7.94890E-19-4.93781E-19
 -1      2804 9.90678E-05-2.84592E-05-3.03027E-05-8.51222E-06 2.90311E-19-2.83761E-19
 -1      2805 9.81018E-05-2.70474E-05-3.04068E-05-7.88010E-06 3.76610E-19-1.46767E-19
 -1      2806 9.95644E-05-2.62706E-05-3.14082E-05-8.00526E-06 4.58234E-19-8.86931E-19
 -1      2807 1.00863E-04-3.10632E-05-2.99468E-05-8.36922E-06 3.99488E-19-1.01333E-18
 -1      2808 1.00013E-04-2.98491E-05-3.00441E-05-8.58624E-06 5.79538E-19-6.33155E-19
 -1      2809 1.01650E-04-2.96411E-05-3.08360E-05-9.22201E-06 7.77705E-19-1.15048E-18
 -1      2810 1.01860E-04-3.27188E-05-2.96466E-05-6.79943E-06 1.49763E-19-1.46563E-18
 -1      2811 1.01329E-04-3.19875E-05-2.97157E-05-7.59020E-06 3.05126E-19-1.26222E-18
 -1      2812 1.03099E-04-3.24276E-05-3.02572E-05-8.35681E-06 4.36318E-19-1.54653E-18
 -1      2813 1.01966E-04-3.32755E-05-2.94372E-05-4.59317E-06-8.47277E-20-1.09497E-18
 -1      2814 1.01789E-04-3.30508E-05-2.94750E-05-5.61763E-06 6.92979E-20-1.17566E-18
 -1      2815 1.03489E-04-3.39466E-05-2.97825E-05-6.23357E-06 3.26852E-20-1.62674E-18
 -1      2816 1.01406E-04-3.29860E-05-2.93117E-05-2.39852E-06-5.20123E-19-6.65069E-19
 -1      2817 1.01509E-04-3.31336E-05-2.93274E-05-3.39245E-06-3.32695E-19-8.10597E-19
 -1      2818 1.02934E-04-3.41954E-05-2.94516E-05-3.74572E-06-2.90232E-19-6.64702E-19
 -1      2819 1.00493E-04-3.22229E-05-2.92435E-05-5.88238E-07-7.46525E-19-6.17421E-19
 -1      2820 1.00765E-04-3.25710E-05-2.92498E-05-1.40109E-06-5.33457E-19-1.01809E-18
 -1      2821 1.01807E-04-3.35622E-05-2.92503E-05-1.50225E-06-5.24439E-19-8.32520E-19
 -1      2822 9.94847E-05-3.13080E-05-2.92039E-05 7.05537E-07-5.05101E-19 2.00258E-20
 -1      2823 9.98299E-05-3.17159E-05-2.92110E-05 1.25971E-07-6.71669E-19-3.06976E-19
 -1      2824 1.00481E-04-3.25026E-05-2.91417E-05 2.12228E-07-7.90592E-19-7.70353E-19
 -1      2825 9.85424E-05-3.04480E-05-2.91712E-05 1.50356E-06-1.26447E-19 4.92951E-19
 -1      2826 9.88951E-05-3.08282E-05-2.91852E-05 1.14675E-06-2.78946E-19 1.66559E-19
 -1      2827 9.92161E-05-3.13697E-05-2.90866E-05 1.34866E-06-4.13982E-19-1.38322E-20
 -1      2828 9.77404E-05-2.97416E-05-2.91334E-05 1.89791E-06-3.58140E-19 1.18821E-18
 -1      2829 9.80643E-05-3.00534E-05-2.91559E-05 1.72307E-06 5.83745E-20 9.27579E-19
 -1      2830 9.81427E-05-3.03691E-05-2.90547E-05 1.98305E-06-4.69677E-19 1.45861E-19
 -1      2831 9.70962E-05-2.92144E-05-2.90862E-05 1.99907E-06-5.54814E-19 9.37218E-19
 -1      2832 9.73758E-05-2.94481E-05-2.91160E-05 1.95691E-06-2.88374E-19 1.06970E-18
 -1      2833 9.72982E-05-2.95850E-05-2.90273E-05 2.23526E-06-2.16133E-19 2.28105E-19
 -1      2834 9.65979E-05-2.88513E-05-2.90306E-05 1.90861E-06 1.89318E-20 1.16758E-19
 -1      2835 9.68302E-05-2.90139E-05-2.90652E-05 1.95330E-06-8.46248E-20 5.30769E-19
 -1      2836 9.66678E-05-2.90252E-05-2.89953E-05 2.22511E-06 1.83340E-19-5.97892E-19
 -1      2837 9.62219E-05-2.86208E-05-2.89700E-05 1.70817E-06 3.80480E-19-3.85830E-19
 -1      2838 9.64098E-05-2.87260E-05-2.90065E-05 1.80256E-06 5.03808E-20-2.69615E-19
 -1      2839 9.62147E-05-2.86591E-05-2.89566E-05 2.05347E-06 6.93346E-19-1.11987E-18
 -1      2840 9.59427E-05-2.84882E-05-2.89082E-05 1.45752E-06 6.82542E-19 1.53919E-19
 -1      2841 9.60918E-05-2.85507E-05-2.89441E-05 1.57427E-06 4.45114E-19-4.18434E-20
 -1      2842 9.58977E-05-2.84428E-05-2.89123E-05 1.79696E-06 3.98731E-19-1.05334E-18
 -1      2843 9.57375E-05-2.84230E-05-2.88489E-05 1.19690E-06 1.03187E-18 5.80908E-19
 -1      2844 9.58540E-05-2.84560E-05-2.88823E-05 1.31758E-06 1.00833E-18 2.70275E-19
 -1      2845 9.56802E-05-2.83333E-05-2.88652E-05 1.50933E-06 5.67653E-19-6.05515E-19
 -1      2846 9.55878E-05-2.84012E-05-2.87945E-05 9.51068E-07 8.82038E-19 7.86532E-19
 -1      2847 9.56776E-05-2.84147E-05-2.88242E-05 1.06438E-06 1.00774E-18 5.70542E-19
 -1      2848 9.55329E-05-2.82942E-05-2.88183E-05 1.22533E-06 9.93530E-19-2.86597E-19
 -1      2849 9.54792E-05-2.84050E-05-2.87465E-05 7.33326E-07-4.51914E-19 6.74585E-19
 -1      2850 9.55474E-05-2.84068E-05-2.87720E-05 8.33252E-07 4.05614E-19 1.04909E-18
 -1      2851 9.54338E-05-2.82980E-05-2.87738E-05 9.65341E-07 7.78500E-19-8.29545E-21
 -1      2852 9.54010E-05-2.84224E-05-2.87055E-05 5.49138E-07-2.09894E-19 1.67028E-19
 -1      2853 9.54520E-05-2.84176E-05-2.87267E-05 6.33289E-07-3.62459E-19 1.75814E-19
 -1      2854 9.53674E-05-2.83250E-05-2.87335E-05 7.39440E-07 1.16231E-19 2.36371E-20
 -1      2855 9.53450E-05-2.84454E-05-2.86716E-05 3.98936E-07-5.09299E-19-1.21750E-18
 -1      2856 9.53826E-05-2.84375E-05-2.86888E-05 4.67233E-07-3.75392E-19-9.90976E-19
 -1      2857 9.53229E-05-2.83622E-05-2.86982E-05 5.50833E-07 1.65739E-20-1.13384E-18
 -1      2858 9.53053E-05-2.84694E-05-2.86443E-05 2.80221E-07 2.05642E-20-4.91859E-19
 -1      2859 9.53325E-05-2.84605E-05-2.86578E-05 3.33919E-07-2.20700E-19-8.37261E-19
 -1      2860 9.52930E-05-2.84016E-05-2.86684E-05 3.98447E-07-2.42483E-19-1.81398E-18
 -1      2861 9.52776E-05-2.84916E-05-2.86228E-05 1.89025E-07 1.48703E-18-8.89814E-19
 -1      2862 9.52968E-05-2.84830E-05-2.86332E-05 2.30034E-07 8.31365E-19-5.14770E-19
 -1      2863 9.52729E-05-2.84385E-05-2.86438E-05 2.78818E-07 5.82542E-19-1.19573E-18
 -1      2864 9.52586E-05-2.85109E-05-2.86064E-05 1.20869E-07 1.28319E-18-1.95331E-19
 -1      2865 9.52718E-05-2.85032E-05-2.86141E-05 1.51311E-07 1.88378E-18-2.57155E-19
 -1      2866 9.52593E-05-2.84707E-05-2.86241E-05 1.87386E-07 7.74264E-19-6.80220E-19
 -1      2867 9.52460E-05-2.85269E-05-2.85940E-05 7.13521E-08 1.26677E-18 3.19229E-19
 -1      2868 9.52547E-05-2.85203E-05-2.85997E-05 9.32931E-08 1.36384E-18 8.52194E-19
 -1      2869 9.52502E-05-2.84975E-05-2.86086E-05 1.19321E-07 6.88370E-19 1.02520E-18
 -1      2870 9.52379E-05-2.85396E-05-2.85851E-05 3.64739E-08-2.52484E-19 1.52360E-18
 -1      2871 9.52433E-05-2.85343E-05-2.85890E-05 5.17770E-08-1.25965E-19 5.96447E-19
 -1      2872 9.52441E-05-2.85189E-05-2.85968E-05 7.00252E-08 1.96148E-19 1.39491E-18
 -1      2873 9.52331E-05-2.85495E-05-2.85788E-05 1.27841E-08-1.97189E-19 2.20802E-18
 -1      2874 9.52361E-05-2.85452E-05-2.85814E-05 2.30458E-08 2.94178E-19 2.24746E-18
 -1      2875 9.52401E-05-2.85354E-05-2.85879E-05 3.53954E-08 2.08059E-19 2.90696E-18
 -1      2876 9.52305E-05-2.85568E-05-2.85744E-05-2.57743E-09 1.56269E-18 1.45830E-18
 -1      2877 9.52319E-05-2.85536E-05-2.85762E-05 3.95819E-09 8.80908E-19 1.51575E-18
 -1      2878 9.52376E-05-2.85478E-05-2.85815E-05 1.19325E-08 4.35801E-19 2.57830E-18
 -1      2879 9.52294E-05-2.85622E-05-2.85716E-05-1.19050E-08-3.71456E-19 3.31828E-18
 -1      2880 9.52298E-05-2.85598E-05-2.85727E-05-8.04721E-09 8.26475E-19 2.20760E-18
 -1      2881 9.52361E-05-2.85569E-05-2.85769E-05-3.24122E-09 1.89648E-19 2.79453E-18
 -1      2882 9.52293E-05-2.85661E-05-2.85700E-05-1.69859E-08-9.38179E-19 2.10162E-18
 -1      2883 9.52290E-05-2.85643E-05-2.85705E-05-1.49952E-08-4.65735E-19 2.80333E-18
 -1      2884 9.52352E-05-2.85633E-05-2.85738E-05-1.24218E-08-3.63928E-19 3.31536E-18
 -1      2885 9.52299E-05-2.85688E-05-2.85690E-05-1.91715E-08-1.02559E-18 1.36785E-18
 -1      2886 9.52292E-05-2.85674E-05-2.85692E-05-1.84402E-08-9.09068E-19 9.25941E-19
 -1      2887 9.52349E-05-2.85676E-05-2.85718E-05-1.73900E-08-2.58918E-19 1.72872E-18
 -1      2888 9.52308E-05-2.85706E-05-2.85686E-05-1.94499E-08 5.81396E-20-5.50038E-19
 -1      2889 9.52299E-05-2.85697E-05-2.85686E-05-1.95389E-08-2.54487E-19 5.75164E-19
 -1      2890 9.52349E-05-2.85705E-05-2.85705E-05-1.94876E-08 1.59521E-20 3.64534E-19
 -1      2891 9.52319E-05-2.85719E-05-2.85686E-05-1.85126E-08 3.99910E-20-8.54244E-19
 -1      2892 9.52309E-05-2.85712E-05-2.85684E-05-1.91204E-08-5.61905E-19-5.29017E-19
 -1      2893 9.52351E-05-2.85724E-05-2.85698E-05-1.96925E-08-1.44077E-19-6.34262E-19
 -1      2894 9.52331E-05-2.85729E-05-2.85687E-05-1.68118E-08-1.31793E-18-3.03049E-19
 -1      2895 9.52321E-05-2.85723E-05-2.85685E-05-1.77468E-08 1.70614E-19 3.19953E-19
 -1      2896 9.52354E-05-2.85736E-05-2.85694E-05-1.86872E-08-8.40826E-19 1.95638E-19
 -1      2897 9.52344E-05-2.85737E-05-2.85689E-05-1.46124E-08-7.98319E-19-1.33680E-18
 -1      2898 9.52334E-05-2.85732E-05-2.85687E-05-1.57736E-08-1.25740E-18-1.68577E-18
 -1      2899 9.52359E-05-2.85744E-05-2.85692E-05-1.69163E-08-6.77372E-19-6.00732E-20
 -1      2900 9.52358E-05-2.85746E-05-2.85691E-05-1.21260E-08-1.78138E-18-7.20136E-19
 -1      2901 9.52348E-05-2.85741E-05-2.85689E-05-1.34655E-08-2.12530E-18-1.17378E-18
 -1      2902 9.52366E-05-2.85753E-05-2.85691E-05-1.47045E-08-2.49832E-18-1.41940E-18
 -1      2903 9.52375E-05-2.85762E-05-2.85691E-05-1.21792E-08-1.65867E-18-2.57471E-18
 -1      2904 9.52424E-05-2.85808E-05-2.85692E-05-1.07102E-08 4.30357E-20 8.91711E-20
 -1      2905 9.52412E-05-2.85797E-05-2.85692E-05-1.14047E-08-1.74006E-18-1.22776E-18
 -1      2906 9.52457E-05-2.85840E-05-2.85693E-05-4.92387E-09 8.86775E-20 6.55452E-19
 -1      2907 9.52451E-05-2.85835E-05-2.85693E-05-6.57977E-09 1.32079E-18-6.33281E-19
 -1      2908 9.52401E-05-2.85787E-05-2.85692E-05-1.19952E-08-2.50590E-18-4.13648E-18
 -1      2909 9.52387E-05-2.85773E-05-2.85692E-05-1.20528E-08-1.26930E-18-3.90517E-18
 -1      2910 9.52383E-05-2.85768E-05-2.85692E-05-1.34088E-08-2.23606E-18-3.81417E-18
 -1      2911 9.52410E-05-2.85790E-05-2.85695E-05-1.27586E-08-7.59205E-19-1.37317E-18
 -1      2912 1.16387E-04-5.67686E-05-2.50957E-05 2.80011E-05 1.56278E-18-4.24668E-19
 -1      2913 1.00665E-04-3.05718E-05-3.00215E-05 7.35834E-06 5.62712E-19 1.11611E-20
 -1      2914 1.01423E-04-3.15217E-05-2.99749E-05 7.03841E-06 6.21892E-19 9.31728E-20
 -1      2915 1.03708E-04-3.27398E-05-3.03923E-05 7.00812E-06 6.57289E-19-1.25361E-20
 -1      2916 1.02554E-04-3.06404E-05-3.07926E-05 8.08089E-06 5.11796E-19-1.54122E-19
 -1      2917 9.52444E-05-2.85828E-05-2.85692E-05-8.25706E-09 1.69586E-18 5.38636E-19
 -1      2918 9.52434E-05-2.85818E-05-2.85693E-05-9.53354E-09 9.30772E-19-2.24830E-19
 -1      2919 9.52434E-05-2.85810E-05-2.85696E-05-1.10201E-08 1.39801E-18 1.22360E-18
 -1      2920 9.52456E-05-2.85827E-05-2.85698E-05-8.04884E-09 1.34984E-18 2.77297E-19
 -1      2921 9.52461E-05-2.85844E-05-2.85693E-05 2.87239E-09-9.35794E-19 3.44363E-18
 -1      2922 9.52463E-05-2.85846E-05-2.85693E-05 1.01353E-09-5.37923E-19 3.69580E-18
 -1      2923 9.52452E-05-2.85836E-05-2.85693E-05 6.48948E-09 7.80268E-19-1.83754E-19
 -1      2924 9.52458E-05-2.85841E-05-2.85693E-05 4.84408E-09-5.32921E-19 3.40692E-18
 -1      2925 9.52469E-05-2.85839E-05-2.85699E-05 4.15145E-09-4.73911E-19 3.26296E-18
 -1      2926 9.52435E-05-2.85820E-05-2.85693E-05 9.50853E-09 1.64508E-18 3.57787E-19
 -1      2927 9.52445E-05-2.85829E-05-2.85692E-05 8.20457E-09 1.91777E-18-1.44567E-18
 -1      2928 9.52457E-05-2.85829E-05-2.85698E-05 7.96171E-09 1.52228E-18 6.57582E-19
 -1      2929 9.52412E-05-2.85798E-05-2.85692E-05 1.14596E-08 8.91437E-19-4.53262E-19
 -1      2930 9.52424E-05-2.85809E-05-2.85692E-05 1.07225E-08 2.16802E-18 9.31555E-19
 -1      2931 9.52435E-05-2.85811E-05-2.85696E-05 1.10176E-08 1.69094E-18 3.33340E-19
 -1      2932 9.52384E-05-2.85771E-05-2.85691E-05 1.20723E-08-1.32253E-19-2.59433E-18
 -1      2933 9.52398E-05-2.85785E-05-2.85691E-05 1.20383E-08 1.13139E-18-1.85247E-18
 -1      2934 9.52408E-05-2.85788E-05-2.85694E-05 1.28538E-08 1.13385E-18-8.49427E-19
 -1      2935 9.25401E-05-1.67029E-05-3.25437E-05 9.05451E-07-1.91592E-18-2.10658E-18
 -1      2936 9.33869E-05-1.83056E-05-3.21566E-05 3.94914E-06-1.65406E-18-1.91396E-18
 -1      2937 3.02653E-05-1.19540E-05-7.35631E-06 1.40944E-05 2.49239E-19 4.53586E-18
 -1      2938 3.00329E-05-1.08838E-05-7.68027E-06-1.62419E-06 1.31266E-18 5.73928E-18
 -1      2939 4.01174E-05-1.28905E-05-1.09787E-05 1.76019E-05-3.62583E-19 3.35510E-18
 -1      2940 1.29834E-04-1.16229E-05-5.11746E-05 8.24860E-06 4.38911E-18-2.31769E-19
 -1      2941 1.28583E-04-7.48008E-06-5.26190E-05 3.23972E-06 4.38890E-18-8.65760E-19
 -1      2942 1.21292E-04-8.46141E-06-4.87653E-05 5.45610E-07 3.65844E-18-9.96766E-19
 -1      2943 1.10408E-04-4.93689E-05-2.58562E-05 2.66605E-05 1.63901E-18-4.12187E-19
 -1      2944 9.99291E-05-4.95163E-05-2.16133E-05 3.45623E-05 1.58946E-18-1.37209E-18
 -1      2945 8.42137E-05-4.06868E-05-1.80549E-05 3.52799E-05 1.69608E-18-2.36312E-18
 -1      2946 1.02185E-04-4.05700E-05-2.59523E-05 2.70547E-05 1.45163E-18-7.25431E-19
 -1      2947 9.52463E-05-2.85846E-05-2.85693E-05-1.08324E-09-3.40484E-19 3.55777E-18
 -1      2948 9.52461E-05-2.85844E-05-2.85693E-05-2.93607E-09-6.17516E-20 3.03876E-18
 -1      2949 9.52473E-05-2.85842E-05-2.85699E-05-4.78178E-11-7.84327E-19 3.03180E-18
 -1      2950 1.24373E-04-5.75542E-05-2.85667E-05-1.94120E-05 1.48919E-18-2.85021E-18
 -1      2951 1.15459E-04-4.93788E-05-2.78499E-05-2.25446E-05 2.18376E-18-2.18942E-18
 -1      2952 1.16656E-04-5.68184E-05-2.56509E-05 3.25106E-05-1.96946E-18-2.93798E-18
 -1      2953 1.06527E-04-5.25181E-05-2.25931E-05 3.64848E-05-2.36370E-18-2.44071E-18
 -1      2954 9.28588E-05-1.91152E-05-3.16321E-05 6.52796E-06-1.38801E-18-1.83799E-18
 -1      2955 9.26947E-05-1.98545E-05-3.11979E-05 9.38805E-06-1.12398E-18-1.90722E-18
 -1      2956 8.71613E-05-1.69260E-05-3.00470E-05 9.73531E-06-8.54425E-19-2.23464E-18
 -1      2957 8.84364E-05-1.54309E-05-3.12353E-05 4.78618E-06-1.52166E-18-2.23262E-18
 -1      2958 8.75674E-05-4.46404E-05-1.84996E-05 4.30561E-05-2.53528E-18-9.04896E-19
 -1      2959 6.67012E-05-3.28558E-05-1.37132E-05 4.14671E-05-2.54999E-18 3.73118E-19
 -1      2960 9.72975E-05-4.66529E-05-2.14568E-05 3.66693E-05-2.55121E-18-1.78991E-18
 -1      2961 9.26498E-05-1.86337E-05-3.17344E-05 1.00631E-07 1.14465E-18-2.49047E-18
 -1      2962 9.10286E-05-1.75034E-05-3.15253E-05-1.46584E-06 8.49130E-19-2.70802E-18
 -1      2963 9.17949E-05-1.93812E-05-3.10552E-05-3.19544E-06 5.65993E-19-2.54050E-18
 -1      2964 9.50866E-05-2.17131E-05-3.14536E-05 1.20955E-07 1.05136E-18-2.13265E-18
 -1      2965 9.27219E-05-4.64773E-05-1.93058E-05-4.21995E-05-1.98269E-18-2.45015E-18
 -1      2966 1.07174E-04-5.34659E-05-2.29881E-05-3.95507E-05-1.60015E-18-1.96264E-18
 -1      2967 7.67364E-05-6.29414E-06-3.01934E-05-5.20922E-06-9.88723E-19-3.46639E-18
 -1      2968 7.73185E-05-6.54988E-06-3.03753E-05-4.31546E-06-1.22741E-18-3.40231E-18
 -1      2969 6.53906E-05-3.14176E-05-1.43184E-05 3.50806E-05 1.46547E-18-3.72292E-18
 -1      2970 4.66458E-05-2.04186E-05-1.06158E-05 2.59462E-05 1.18987E-18-5.02989E-18
 -1      2971 7.95497E-05-3.32287E-05-1.94164E-05 3.18420E-05 1.55632E-18-2.72490E-18
 -1      2972 1.36255E-04-3.01254E-05-4.59365E-05 1.04962E-05 2.75434E-18 4.94985E-19
 -1      2973 1.33836E-04-2.08100E-05-4.91302E-05 1.09439E-05 3.73679E-18 3.37013E-19
 -1      2974 3.67606E-05-1.15935E-05-1.02008E-05-1.95864E-05-1.09278E-18-5.73992E-18
 -1      2975 4.43963E-05-1.71036E-05-1.12269E-05-3.10155E-05-1.47130E-18-5.41021E-18
 -1      2976 5.61953E-05-2.55392E-05-1.25884E-05-3.83644E-05-1.92785E-18-4.47202E-18
 -1      2977 7.37451E-05-3.62651E-05-1.59379E-05-4.38708E-05-1.93843E-18-3.35954E-18
 -1      2978 5.74592E-05-2.09449E-05-1.51071E-05-3.23805E-05-2.01234E-18-4.44057E-18
 -1      2979 5.92139E-05-2.65757E-05-1.32950E-05-2.99982E-05 2.72898E-18 2.49568E-18
 -1      2980 7.72839E-05-3.69895E-05-1.72824E-05-3.47015E-05 2.69960E-18 1.50825E-18
 -1      2981 3.77629E-05-1.38961E-05-9.59119E-06-1.45550E-05 1.77760E-18 4.90241E-18
 -1      2982 4.72369E-05-2.00588E-05-1.12366E-05-2.51677E-05 2.36195E-18 3.12280E-18
 -1      2983 6.06244E-05-2.20949E-05-1.59076E-05-2.54990E-05 1.93722E-18 2.20430E-18
 -1      2984 8.74740E-05-1.15197E-05-3.25479E-05-1.51443E-06-1.91424E-18-2.66487E-18
 -1      2985 1.32699E-04-1.68471E-05-5.03412E-05-9.99732E-06 3.78518E-18-3.16833E-18
 -1      2986 1.34787E-04-2.49772E-05-4.75826E-05-1.09766E-05 2.98939E-18-3.62085E-18
 -1      2987 9.52369E-05-2.85758E-05-2.85691E-05 1.27185E-08 6.35239E-19-1.77738E-18
 -1      2988 8.30613E-05-1.29810E-05-3.00454E-05-8.05554E-06-2.99376E-19-3.14522E-18
 -1      2989 8.10960E-05-1.01436E-05-3.03742E-05-7.10996E-06-3.06085E-19-3.38617E-18
 -1      2990 7.93865E-05-8.95891E-06-3.02399E-05-7.37000E-06-4.70244E-19-3.52898E-18
 -1      2991 9.90964E-05-2.41876E-05-3.20868E-05 6.58504E-06 2.13922E-18-6.36261E-19
 -1      2992 1.25895E-04-1.66842E-05-4.71890E-05 1.02842E-05 3.44742E-18 3.32460E-19
 -1      2993 1.36084E-04-3.16532E-05-4.52501E-05-1.05742E-05 2.34067E-18-3.58358E-18
 -1      2994 1.35048E-04-3.68457E-05-4.22005E-05-9.37896E-06 1.59512E-18-3.80900E-18
 -1      2995 1.28872E-04-2.60363E-05-4.44135E-05-1.27760E-05 2.51039E-18-3.20231E-18
 -1      2996 8.79509E-05-3.28147E-05-2.36606E-05 2.85600E-05 1.42714E-18-1.52106E-18
 -1      2997 9.52469E-05-2.85838E-05-2.85699E-05-4.26428E-09-2.06746E-19 1.36792E-18
 -1      2998 1.24554E-04-1.41484E-05-4.77339E-05-9.10759E-06 3.38421E-18-2.16160E-18
 -1      2999 7.86721E-05-7.26355E-06-3.06430E-05-2.59288E-06-1.30025E-18-3.23923E-18
 -1      3000 8.09040E-05-8.53341E-06-3.09944E-05-1.60327E-06-1.53912E-18-3.15367E-18
 -1      3001 7.76354E-05-7.70726E-06-2.99153E-05-3.01503E-06-1.18331E-18-3.13843E-18
 -1      3002 1.01975E-04-3.05786E-05-3.06126E-05 3.54169E-06 1.02235E-18-5.37815E-19
 -1      3003 1.01180E-04-2.99215E-05-3.05450E-05 3.63983E-06 1.07149E-18-2.70440E-19
 -1      3004 1.30624E-04-6.21498E-05-2.90963E-05-1.73619E-05 1.03195E-18-3.50539E-18
 -1      3005 1.38865E-04-5.26352E-05-3.70836E-05 4.87928E-06-3.72602E-19-3.62964E-18
 -1      3006 8.57965E-05-1.16870E-05-3.17747E-05-8.54556E-08-1.67920E-18-2.77710E-18
 -1      3007 1.01622E-04-4.30422E-05-2.50963E-05-2.73909E-05 2.24776E-18-5.13884E-19
 -1      3008 3.63666E-05-9.41734E-06-1.08390E-05-1.30694E-05-6.89326E-19-5.76173E-18
 -1      3009 4.52037E-05-1.03781E-05-1.45521E-05-1.74117E-05-1.28561E-18-5.16171E-18
 -1      3010 3.78723E-05-8.20896E-06-1.21988E-05-4.72391E-06-4.41675E-19-5.58798E-18
 -1      3011 9.52374E-05-2.85761E-05-2.85691E-05 1.39167E-08 1.18931E-18-3.01319E-18
 -1      3012 4.13260E-05-1.18502E-05-1.19989E-05-8.01736E-06 1.27788E-18 4.68377E-18
 -1      3013 1.00955E-04-2.92456E-05-3.07140E-05 3.85195E-06 1.34311E-18-2.63871E-19
 -1      3014 1.23345E-04-5.71650E-05-2.83820E-05 2.30735E-05-2.08677E-18-3.04815E-18
 -1      3015 1.38325E-04-5.58150E-05-3.54684E-05-1.10646E-05-3.87253E-20-3.37754E-20
 -1      3016 1.37342E-04-5.17891E-05-3.69292E-05-2.50510E-06 5.71747E-20 2.09111E-19
 -1      3017 1.32525E-04-5.67969E-05-3.23461E-05-1.52902E-05-8.93011E-19-1.42990E-19
 -1      3018 1.35822E-04-4.21108E-05-4.04285E-05 6.35065E-06 1.20347E-18 7.50948E-19
 -1      3019 1.37425E-04-3.68371E-05-4.35204E-05 9.05533E-06 2.10795E-18 5.14890E-19
 -1      3020 1.30406E-04-3.07122E-05-4.29598E-05 1.24135E-05 2.18265E-18 9.19825E-19
 -1      3021 1.17153E-04-5.57530E-05-2.62294E-05-3.09134E-05-1.78385E-18-1.41092E-18
 -1      3022 9.96223E-05-2.57397E-05-3.16397E-05 5.15178E-06 1.84214E-18-6.59010E-19
 -1      3023 7.78664E-05-7.51222E-06-3.01285E-05-6.92407E-06-5.76001E-19-3.43239E-18
 -1      3024 7.70394E-05-6.86631E-06-3.01324E-05-6.50289E-06-8.48613E-19-3.39554E-18
 -1      3025 7.67749E-05-7.60060E-06-2.96008E-05-6.27813E-06-8.77870E-19-3.26805E-18
 -1      3026 7.89912E-05-9.70006E-06-2.96797E-05-8.14061E-06-5.37805E-19-3.33091E-18
 -1      3027 9.24931E-05-4.15784E-05-2.14593E-05-3.02926E-05 2.42093E-18 4.99749E-19
 -1      3028 8.61335E-05-3.99754E-05-1.93516E-05-3.98621E-05-2.20102E-18-2.78631E-18
 -1      3029 1.39253E-04-6.47857E-05-3.21346E-05-1.08518E-05 5.23255E-19-4.26317E-18
 -1      3030 9.94668E-05-2.63204E-05-3.13907E-05 3.05512E-06 1.34864E-18-1.16558E-18
 -1      3031 9.85902E-05-2.54234E-05-3.13403E-05 1.81978E-06 1.09281E-18-1.48749E-18
 -1      3032 1.00671E-04-2.82928E-05-3.09878E-05 4.67667E-06 1.69940E-18 5.81012E-21
 -1      3033 1.22426E-04-2.06872E-05-4.39083E-05 1.20688E-05 2.56895E-18 3.27061E-19
 -1      3034 1.18473E-04-1.32921E-05-4.55734E-05 8.40194E-06 3.11518E-18-4.75715E-19
 -1      3035 1.03690E-04-4.80937E-05-2.39437E-05 3.14570E-05-2.51643E-18-2.78007E-18
 -1      3036 8.93744E-05-4.00434E-05-2.05472E-05 3.60757E-05-2.71363E-18-1.10810E-18
 -1      3037 9.05621E-05-1.97465E-05-3.03187E-05-6.81326E-06 1.21554E-20-2.59488E-18
 -1      3038 8.81077E-05-1.80911E-05-3.00373E-05-8.15591E-06-2.49876E-19-2.71871E-18
 -1      3039 7.97454E-05-1.46643E-05-2.79545E-05 1.07308E-05-2.26191E-19-2.46999E-18
 -1      3040 7.83800E-05-1.54434E-05-2.69104E-05 1.33977E-05 8.53497E-20-2.49171E-18
 -1      3041 1.16312E-04-9.59820E-06-4.60859E-05 3.67822E-06 3.40126E-18-9.28983E-19
 -1      3042 1.15695E-04-9.26760E-06-4.60080E-05-2.28280E-06 3.14853E-18-1.59921E-18
 -1      3043 7.47872E-05-1.60274E-05-2.52355E-05 1.62140E-05 2.99946E-19-2.52740E-18
 -1      3044 7.39736E-05-1.86115E-05-2.36674E-05 1.96703E-05 6.86626E-19-2.63530E-18
 -1      3045 7.05775E-05-1.22466E-05-2.48350E-05 1.12820E-05 6.00351E-20-3.11916E-18
 -1      3046 6.29333E-05-2.73429E-05-1.46462E-05 3.62145E-05-2.39160E-18 5.51101E-19
 -1      3047 1.02605E-04-3.13478E-05-3.05779E-05 2.73889E-06 8.70596E-19-8.76343E-19
 -1      3048 1.01897E-04-2.99329E-05-3.08253E-05 2.92360E-06 1.00850E-18-8.19537E-19
 -1      3049 5.65403E-05-1.63511E-05-1.69045E-05-2.69213E-05-2.01967E-18-4.34004E-18
 -1      3050 6.69160E-05-2.43604E-05-1.80451E-05-3.44028E-05-2.22367E-18-3.59031E-18
 -1      3051 8.00784E-05-3.36813E-05-1.95456E-05-3.71855E-05-2.34321E-18-2.77652E-18
 -1      3052 9.63620E-05-4.40131E-05-2.24223E-05-3.64874E-05-2.19022E-18-1.75987E-18
 -1      3053 8.21973E-05-3.08238E-05-2.14981E-05-2.88187E-05 2.37513E-18 7.95152E-19
 -1      3054 8.25427E-05-2.11507E-05-2.61952E-05-1.85701E-05 1.33234E-18-4.38522E-20
 -1      3055 8.25544E-05-1.99027E-05-2.69023E-05-1.67274E-05 9.05988E-19 3.94463E-19
 -1      3056 8.49644E-05-2.00139E-05-2.77968E-05-1.48175E-05 5.86325E-19 9.06544E-19
 -1      3057 8.57773E-05-2.00370E-05-2.82317E-05-1.32660E-05 9.85167E-19 7.24671E-19
 -1      3058 7.88464E-05-1.74223E-05-2.62058E-05-1.40229E-05 1.05999E-18 1.03011E-18
 -1      3059 8.78957E-05-2.07818E-05-2.87495E-05-1.18589E-05 8.84182E-19 2.44380E-19
 -1      3060 8.87652E-05-2.13130E-05-2.89530E-05-1.05225E-05-1.35515E-19 5.77516E-19
 -1      3061 8.33755E-05-1.85483E-05-2.77100E-05-1.10777E-05 1.95411E-19 7.89426E-19
 -1      3062 9.03191E-05-2.21714E-05-2.92000E-05-9.49707E-06-5.14002E-19 6.62570E-19
 -1      3063 9.09596E-05-2.27766E-05-2.92540E-05-8.42534E-06-3.98199E-19 6.38440E-19
 -1      3064 8.70015E-05-2.03040E-05-2.85309E-05-8.96482E-06-2.19951E-19 1.51051E-18
 -1      3065 9.20899E-05-2.35675E-05-2.93609E-05-7.58526E-06-7.32034E-19 1.60883E-19
 -1      3066 9.25284E-05-2.41241E-05-2.93407E-05-6.68929E-06-1.39886E-18 2.44965E-20
 -1      3067 8.96343E-05-2.20426E-05-2.89290E-05-7.30155E-06-9.63300E-19 6.35127E-19
 -1      3068 9.33216E-05-2.47813E-05-2.93682E-05-5.99154E-06-1.94969E-18-7.30819E-20
 -1      3069 9.35929E-05-2.52379E-05-2.93132E-05-5.25451E-06-1.22523E-18-1.94992E-19
 -1      3070 9.15185E-05-2.35659E-05-2.90956E-05-5.89718E-06-1.71902E-18 6.00363E-19
 -1      3071 9.41325E-05-2.57528E-05-2.92991E-05-4.67699E-06-6.13986E-19-5.25481E-19
 -1      3072 9.42839E-05-2.61065E-05-2.92323E-05-4.08091E-06-1.22638E-19-1.22284E-18
 -1      3073 9.28216E-05-2.48044E-05-2.91322E-05-4.70503E-06-1.33643E-18 5.77609E-19
 -1      3074 9.46420E-05-2.64966E-05-2.91989E-05-3.60835E-06 3.47179E-19-1.56975E-18
 -1      3075 9.47153E-05-2.67622E-05-2.91325E-05-3.13360E-06 7.38624E-19-1.42592E-18
 -1      3076 9.36987E-05-2.57685E-05-2.91013E-05-3.70387E-06-2.14872E-19-6.84633E-19
 -1      3077 9.49480E-05-2.70523E-05-2.90925E-05-2.75200E-06 5.82085E-19-1.27542E-18
 -1      3078 9.49736E-05-2.72486E-05-2.90324E-05-2.37855E-06-6.90952E-20-1.15943E-18
 -1      3079 9.42760E-05-2.64998E-05-2.90396E-05-2.87663E-06 4.14904E-19 3.41518E-19
 -1      3080 9.51272E-05-2.74712E-05-2.89905E-05-2.05973E-06-1.23276E-20-5.65641E-19
 -1      3081 9.51273E-05-2.76208E-05-2.89367E-05-1.75811E-06 2.00434E-19 4.00646E-19
 -1      3082 9.46559E-05-2.70576E-05-2.89660E-05-2.19010E-06 4.30566E-19 3.34740E-19
 -1      3083 9.52191E-05-2.77743E-05-2.89007E-05-1.52222E-06-2.30530E-20 5.51530E-21
 -1      3084 9.52059E-05-2.78783E-05-2.88584E-05-1.30153E-06-1.76822E-19-6.50354E-19
 -1      3085 9.48949E-05-2.74702E-05-2.88938E-05-1.64260E-06-3.46203E-19-9.00236E-20
 -1      3086 9.52621E-05-2.79906E-05-2.88272E-05-1.11786E-06 1.53900E-19-1.14266E-18
 -1      3087 9.52446E-05-2.80671E-05-2.87930E-05-9.49573E-07 1.28058E-18-1.38777E-18
 -1      3088 9.50394E-05-2.77660E-05-2.88302E-05-1.22313E-06 2.07106E-20-2.72574E-19
 -1      3089 9.52786E-05-2.81493E-05-2.87669E-05-8.08454E-07 1.30082E-18-1.98490E-18
 -1      3090 9.52609E-05-2.82058E-05-2.87398E-05-6.81337E-07 3.37614E-19-2.31148E-18
 -1      3091 9.51281E-05-2.79847E-05-2.87752E-05-8.96547E-07 5.31898E-19-2.23801E-18
 -1      3092 9.52810E-05-2.82660E-05-2.87185E-05-5.74196E-07 6.38375E-19-1.68855E-18
 -1      3093 9.52652E-05-2.83079E-05-2.86973E-05-4.79175E-07 8.28212E-19-1.58025E-18
 -1      3094 9.51816E-05-2.81464E-05-2.87292E-05-6.45553E-07 9.34014E-19-1.90651E-18
 -1      3095 9.52767E-05-2.83520E-05-2.86803E-05-3.98863E-07-2.53737E-19-2.05973E-18
 -1      3096 9.52636E-05-2.83831E-05-2.86640E-05-3.28666E-07-7.89489E-19-1.47143E-18
 -1      3097 9.52131E-05-2.82659E-05-2.86917E-05-4.55146E-07 2.91553E-19-1.45337E-18
 -1      3098 9.52699E-05-2.84154E-05-2.86506E-05-2.69310E-07-1.42490E-18-9.84994E-19
 -1      3099 9.52595E-05-2.84386E-05-2.86383E-05-2.18092E-07-1.85328E-18-9.13530E-19
 -1      3100 9.52310E-05-2.83543E-05-2.86616E-05-3.12677E-07-9.40353E-19-6.11445E-19
 -1      3101 9.52627E-05-2.84632E-05-2.86274E-05-1.72927E-07-1.61482E-18-6.50682E-19
 -1      3102 9.52547E-05-2.84809E-05-2.86178E-05-1.34892E-07-1.48205E-18 2.64696E-19
 -1      3103 9.52408E-05-2.84204E-05-2.86374E-05-2.05669E-07-1.18442E-18-1.40894E-19
 -1      3104 9.52560E-05-2.84976E-05-2.86100E-05-1.04687E-07-5.03310E-19 1.09314E-18
 -1      3105 9.52504E-05-2.85100E-05-2.86034E-05-7.93551E-08 7.13994E-19 1.86597E-18
 -1      3106 9.52456E-05-2.84690E-05-2.86187E-05-1.28430E-07-2.78216E-19 1.30455E-18
 -1      3107 9.52507E-05-2.85220E-05-2.85975E-05-5.82415E-08 8.25445E-19 2.30183E-18
 -1      3108 9.52468E-05-2.85311E-05-2.85927E-05-4.08997E-08 6.88139E-19 2.75764E-18
 -1      3109 9.52474E-05-2.85031E-05-2.86049E-05-7.53549E-08 8.43465E-19 2.04686E-18
 -1      3110 9.52465E-05-2.85396E-05-2.85883E-05-2.65944E-08 9.88900E-19 3.23654E-18
 -1      3111 9.52439E-05-2.85461E-05-2.85849E-05-1.50978E-08 1.11654E-18 3.82813E-18
 -1      3112 9.52475E-05-2.85275E-05-2.85945E-05-3.86091E-08 9.84299E-19 3.07736E-18
 -1      3113 9.52433E-05-2.85520E-05-2.85818E-05-5.76668E-09 8.85187E-19 3.99872E-18
 -1      3114 9.52417E-05-2.85566E-05-2.85794E-05 1.51775E-09 7.88112E-19 3.12743E-18
 -1      3115 9.52469E-05-2.85447E-05-2.85868E-05-1.39473E-08 1.02412E-18 4.40071E-18
 -1      3116 9.52411E-05-2.85605E-05-2.85772E-05 7.28468E-09-3.39320E-19 2.43309E-18
 -1      3117 9.52401E-05-2.85638E-05-2.85756E-05 1.15938E-08 1.36995E-19 2.11204E-18
 -1      3118 9.52458E-05-2.85566E-05-2.85812E-05 1.92850E-09-2.58573E-20 3.72472E-18
 -1      3119 9.52394E-05-2.85663E-05-2.85741E-05 1.48609E-08 6.88770E-19 5.43163E-19
 -1      3120 9.52390E-05-2.85685E-05-2.85731E-05 1.71265E-08-3.68692E-19 4.57882E-19
 -1      3121 9.52445E-05-2.85646E-05-2.85772E-05 1.15424E-08-5.77592E-19 2.59724E-18
 -1      3122 9.52383E-05-2.85702E-05-2.85720E-05 1.87440E-08-5.11944E-19-1.26540E-19
 -1      3123 9.52382E-05-2.85717E-05-2.85714E-05 1.96319E-08-1.28372E-18 1.17671E-19
 -1      3124 9.52432E-05-2.85699E-05-2.85743E-05 1.68607E-08-8.45347E-19 1.14152E-18
 -1      3125 9.52376E-05-2.85726E-05-2.85707E-05 2.00121E-08-1.69156E-18 8.61136E-20
 -1      3126 9.52377E-05-2.85735E-05-2.85704E-05 1.99612E-08-1.12196E-18-4.28305E-19
 -1      3127 9.52421E-05-2.85732E-05-2.85724E-05 1.91484E-08-2.05966E-18 1.00878E-18
 -1      3128 9.52372E-05-2.85740E-05-2.85699E-05 1.96470E-08-1.45729E-18-1.83198E-18
 -1      3129 9.52375E-05-2.85746E-05-2.85698E-05 1.90394E-08-2.28805E-19-2.09760E-18
 -1      3130 9.52410E-05-2.85750E-05-2.85712E-05 1.94238E-08-1.82205E-18-1.63278E-18
 -1      3131 9.52371E-05-2.85749E-05-2.85695E-05 1.82972E-08 1.39906E-18-2.54529E-18
 -1      3132 9.52375E-05-2.85753E-05-2.85695E-05 1.73337E-08 1.19139E-18-2.84795E-18
 -1      3133 9.52402E-05-2.85760E-05-2.85704E-05 1.84988E-08 2.99166E-19-3.39073E-18
 -1      3134 9.52372E-05-2.85755E-05-2.85693E-05 1.63010E-08 7.80816E-19-1.90001E-18
 -1      3135 9.52376E-05-2.85759E-05-2.85693E-05 1.51385E-08 6.57581E-19-2.72475E-18
 -1      3136 9.52396E-05-2.85767E-05-2.85698E-05 1.68437E-08 1.04948E-18-2.18206E-18
 -1      3137 1.05595E-04-3.45799E-05-3.04636E-05 5.23729E-06 5.51430E-19-4.26449E-19
 -1      3138 1.05440E-04-3.44174E-05-3.04118E-05 4.40850E-06 6.99109E-19-5.37454E-19
 -1      3139 1.04378E-04-3.36036E-05-3.03638E-05 3.51388E-06 7.05433E-19-8.23809E-19
 -1      3140 1.03929E-04-3.27490E-05-3.04543E-05 3.11645E-06 6.83470E-19-9.12640E-19
 -1      3141 1.03770E-04-3.24082E-05-3.06241E-05 2.20751E-06 8.29857E-19-9.39013E-19
 -1      3142 1.06088E-04-3.47738E-05-3.05704E-05 3.33819E-06 6.35850E-19-6.08041E-19
 -1      3143 9.98829E-05-2.28269E-05-3.29767E-05 4.54934E-06 8.93426E-19-3.32801E-19
 -1      3144 1.00806E-04-2.45020E-05-3.27620E-05 6.45729E-06 6.78966E-19-2.71183E-19
 -1      3145 1.02289E-04-2.66975E-05-3.23425E-05 7.93608E-06 4.55247E-19-2.88405E-20
 -1      3146 1.03439E-04-2.88327E-05-3.20395E-05 8.68315E-06 3.02519E-19-4.81270E-20
 -1      3147 1.03798E-04-2.54270E-05-3.35756E-05 8.04415E-06 6.89691E-19-1.58360E-19
 -1      3148 9.98165E-05-2.31419E-05-3.29104E-05-6.12009E-06 9.18430E-19-9.81142E-19
 -1      3149 9.91705E-05-2.18755E-05-3.30883E-05-3.92313E-06 1.35961E-18-4.60716E-19
 -1      3150 1.02172E-04-2.71934E-05-3.22049E-05-9.31050E-06 8.96901E-19-1.53830E-18
 -1      3151 1.01075E-04-2.50726E-05-3.25169E-05-8.15782E-06 7.95662E-19-1.30887E-18
 -1      3152 1.02486E-04-2.36557E-05-3.37880E-05-7.81912E-06 1.08873E-18-1.49080E-18
 -1      3153 1.04456E-04-3.15184E-05-3.13168E-05-9.66688E-06 7.07716E-19-1.90284E-18
 -1      3154 1.03475E-04-2.94862E-05-3.16724E-05-9.72991E-06 8.74446E-19-1.91289E-18
 -1      3155 1.05172E-04-2.86968E-05-3.27516E-05-1.02093E-05 1.04514E-18-2.26345E-18
 -1      3156 1.05558E-04-3.44983E-05-3.04777E-05-7.85355E-06 3.55594E-19-1.46182E-18
 -1      3157 1.05063E-04-3.31961E-05-3.07918E-05-8.76673E-06 5.83941E-19-1.50593E-18
 -1      3158 1.07127E-04-3.33608E-05-3.15734E-05-9.46363E-06 5.31757E-19-2.41358E-18
 -1      3159 1.05248E-04-3.56344E-05-2.98284E-05-5.07458E-06-6.29485E-19-1.01594E-18
 -1      3160 1.05303E-04-3.52015E-05-3.00591E-05-6.33222E-06 3.72140E-20-1.58237E-18
 -1      3161 1.07447E-04-3.61274E-05-3.05334E-05-6.78314E-06-7.62495E-21-1.64168E-18
 -1      3162 1.03931E-04-3.52886E-05-2.93962E-05-2.33676E-06-2.51583E-19-9.56235E-19
 -1      3163 1.04383E-04-3.55081E-05-2.95430E-05-3.55258E-06-4.73211E-19-1.09876E-18
 -1      3164 1.06262E-04-3.67840E-05-2.97694E-05-3.61211E-06-4.83968E-19-1.71609E-18
 -1      3165 1.02166E-04-3.40992E-05-2.91448E-05-1.55521E-07-5.33709E-19-9.33068E-19
 -1      3166 1.02812E-04-3.46726E-05-2.92264E-05-1.12743E-06-2.23601E-19-8.39693E-19
 -1      3167 1.04224E-04-3.59279E-05-2.92817E-05-8.73388E-07-3.59768E-19-1.24511E-18
 -1      3168 1.00397E-04-3.26309E-05-2.90180E-05 1.32706E-06-1.07092E-18-8.76827E-19
 -1      3169 1.01069E-04-3.33077E-05-2.90580E-05 6.55187E-07-9.19664E-19-7.48442E-19
 -1      3170 1.01977E-04-3.43289E-05-2.90119E-05 1.08485E-06-6.94064E-19-1.06551E-18
 -1      3171 9.88722E-05-3.12465E-05-2.89628E-05 2.18157E-06-7.28122E-19-3.67391E-19
 -1      3172 9.94707E-05-3.18722E-05-2.89815E-05 1.78355E-06-7.21439E-19-3.41977E-19
 -1      3173 9.99436E-05-3.25892E-05-2.88867E-05 2.26656E-06-1.17552E-18-6.68419E-19
 -1      3174 9.76772E-05-3.01171E-05-2.89404E-05 2.55468E-06-3.47626E-19-3.77208E-19
 -1      3175 9.81632E-05-3.06221E-05-2.89516E-05 2.37212E-06-3.80858E-19-5.25098E-19
 -1      3176 9.83118E-05-3.10528E-05-2.88429E-05 2.83312E-06-3.96781E-19-8.75723E-19
 -1      3177 9.68038E-05-2.92863E-05-2.89271E-05 2.59620E-06-2.49407E-19-6.78143E-19
 -1      3178 9.71743E-05-2.96554E-05-2.89384E-05 2.56619E-06-1.68754E-20-1.82122E-19
 -1      3179 9.71091E-05-2.98563E-05-2.88362E-05 2.97035E-06-1.83135E-19-1.12574E-18
 -1      3180 9.61998E-05-2.87287E-05-2.89111E-05 2.43145E-06 3.50884E-19-1.13678E-18
 -1      3181 9.64699E-05-2.89756E-05-2.89256E-05 2.49908E-06-6.04573E-21-1.06914E-18
 -1      3182 9.62821E-05-2.90119E-05-2.88397E-05 2.83699E-06 7.23074E-20-1.07130E-18
 -1      3183 9.58017E-05-2.83904E-05-2.88881E-05 2.15478E-06 7.37481E-19-6.06332E-19
 -1      3184 9.59925E-05-2.85402E-05-2.89063E-05 2.27719E-06 6.18933E-19-6.87557E-19
 -1      3185 9.57494E-05-2.84709E-05-2.88401E-05 2.55239E-06 2.49371E-19-6.45811E-19
 -1      3186 9.55510E-05-2.82130E-05-2.88585E-05 1.83214E-06 1.44392E-19-1.97468E-19
 -1      3187 9.56826E-05-2.82920E-05-2.88792E-05 1.97845E-06 6.28473E-19-3.88890E-19
 -1      3188 9.54293E-05-2.81638E-05-2.88322E-05 2.19950E-06 2.53598E-19-3.07962E-20
 -1      3189 9.54003E-05-2.81444E-05-2.88243E-05 1.50639E-06 6.51722E-19-7.82958E-19
 -1      3190 9.54897E-05-2.81757E-05-2.88461E-05 1.65602E-06 4.04601E-19-8.40709E-19
 -1      3191 9.52534E-05-2.80227E-05-2.88157E-05 1.83236E-06 7.31732E-19-4.76352E-19
 -1      3192 9.53143E-05-2.81439E-05-2.87882E-05 1.20315E-06 8.07913E-19-2.88635E-19
 -1      3193 9.53745E-05-2.81455E-05-2.88098E-05 1.34348E-06 8.62728E-19-5.95854E-19
 -1      3194 9.51693E-05-2.79900E-05-2.87926E-05 1.48363E-06 1.89805E-19-7.80377E-19
 -1      3195 9.52685E-05-2.81816E-05-2.87526E-05 9.35784E-07 3.71914E-19 3.01171E-19
 -1      3196 9.53087E-05-2.81664E-05-2.87728E-05 1.06004E-06 8.35398E-19-1.13875E-20
 -1      3197 9.51399E-05-2.80222E-05-2.87656E-05 1.17107E-06 6.43690E-19-8.00417E-20
 -1      3198 9.52462E-05-2.82372E-05-2.87193E-05 7.09418E-07 4.55743E-19-2.64300E-19
 -1      3199 9.52731E-05-2.82140E-05-2.87375E-05 8.14849E-07 3.95535E-19 3.28952E-19
 -1      3200 9.51403E-05-2.80880E-05-2.87372E-05 9.02445E-07 5.42204E-19 9.74830E-20
 -1      3201 9.52370E-05-2.82975E-05-2.86894E-05 5.23924E-07-1.35064E-19-6.47141E-19
 -1      3202 9.52551E-05-2.82721E-05-2.87051E-05 6.10368E-07 2.09872E-19-3.08987E-19
 -1      3203 9.51547E-05-2.81669E-05-2.87094E-05 6.79089E-07 4.93752E-19-1.26250E-19
 -1      3204 9.52345E-05-2.83552E-05-2.86634E-05 3.76133E-07-2.19873E-19-9.08345E-19
 -1      3205 9.52467E-05-2.83308E-05-2.86767E-05 4.44956E-07-3.15766E-19-1.05804E-18
 -1      3206 9.51739E-05-2.82461E-05-2.86835E-05 4.98461E-07-3.03663E-19-2.16245E-19
 -1      3207 9.52351E-05-2.84062E-05-2.86416E-05 2.61351E-07 5.21654E-19-7.31177E-19
 -1      3208 9.52433E-05-2.83845E-05-2.86525E-05 3.14703E-07 2.83579E-20-9.38217E-19
 -1      3209 9.51928E-05-2.83185E-05-2.86605E-05 3.55960E-07-1.20065E-19-6.79831E-19
 -1      3210 9.52366E-05-2.84491E-05-2.86238E-05 1.74367E-07-2.05203E-19 1.08789E-19
 -1      3211 9.52422E-05-2.84308E-05-2.86325E-05 2.14680E-07 5.51443E-19-2.43977E-19
 -1      3212 9.52091E-05-2.83809E-05-2.86407E-05 2.46120E-07 1.08150E-19-7.64816E-19
 -1      3213 9.52382E-05-2.84837E-05-2.86095E-05 1.10066E-07 5.14147E-19 6.03397E-19
 -1      3214 9.52419E-05-2.84689E-05-2.86163E-05 1.39745E-07 2.38131E-19 3.14635E-19
 -1      3215 9.52218E-05-2.84323E-05-2.86242E-05 1.63372E-07-2.40447E-19 1.07104E-19
 -1      3216 9.52394E-05-2.85107E-05-2.85983E-05 6.37780E-08 1.14989E-19 1.83570E-19
 -1      3217 9.52419E-05-2.84991E-05-2.86035E-05 8.50270E-08 4.25592E-19 2.33540E-19
 -1      3218 9.52311E-05-2.84731E-05-2.86107E-05 1.02494E-07 5.51257E-19 3.73077E-19
 -1      3219 9.52401E-05-2.85311E-05-2.85898E-05 3.14414E-08-3.41979E-20 8.92222E-19
 -1      3220 9.52418E-05-2.85223E-05-2.85936E-05 4.61787E-08-2.22403E-19 5.89720E-19
 -1      3221 9.52375E-05-2.85045E-05-2.85999E-05 5.88473E-08 7.55523E-20-4.75677E-19
 -1      3222 9.52404E-05-2.85461E-05-2.85834E-05 9.65589E-09 1.17179E-19 1.70841E-18
 -1      3223 9.52415E-05-2.85396E-05-2.85862E-05 1.94865E-08 4.60813E-19 1.59436E-18
 -1      3224 9.52414E-05-2.85280E-05-2.85915E-05 2.84675E-08-8.66129E-20 2.37881E-19
 -1      3225 9.52404E-05-2.85568E-05-2.85788E-05-4.34090E-09-6.67076E-19 2.45953E-18
 -1      3226 9.52410E-05-2.85522E-05-2.85807E-05 1.88404E-09 3.37426E-20 2.31075E-18
 -1      3227 9.52436E-05-2.85451E-05-2.85851E-05 8.07513E-09-2.37780E-19 1.42155E-18
 -1      3228 9.52402E-05-2.85642E-05-2.85755E-05-1.27324E-08-1.15346E-19 1.87103E-18
 -1      3229 9.52405E-05-2.85609E-05-2.85768E-05-9.08810E-09-2.73547E-19 2.16858E-18
 -1      3230 9.52444E-05-2.85570E-05-2.85804E-05-4.97066E-09-3.11967E-19 1.29414E-18
 -1      3231 9.52398E-05-2.85691E-05-2.85732E-05-1.71998E-08-2.26030E-19 1.61292E-18
 -1      3232 9.52399E-05-2.85669E-05-2.85741E-05-1.53506E-08 1.58662E-19 2.01186E-18
 -1      3233 9.52444E-05-2.85652E-05-2.85769E-05-1.27445E-08-3.25247E-19 1.29633E-18
 -1      3234 9.52394E-05-2.85722E-05-2.85717E-05-1.90018E-08-2.02340E-19 2.30607E-18
 -1      3235 9.52394E-05-2.85708E-05-2.85722E-05-1.83635E-08-7.50548E-19 2.20970E-18
 -1      3236 9.52438E-05-2.85704E-05-2.85744E-05-1.68357E-08-1.08972E-18 1.85635E-18
 -1      3237 9.52390E-05-2.85741E-05-2.85707E-05-1.90505E-08-6.91739E-19 1.37606E-18
 -1      3238 9.52389E-05-2.85732E-05-2.85710E-05-1.92038E-08 3.17341E-20 1.24770E-18
 -1      3239 9.52430E-05-2.85737E-05-2.85726E-05-1.84293E-08-6.62853E-20 2.70402E-18
 -1      3240 9.52387E-05-2.85752E-05-2.85701E-05-1.79808E-08-7.19671E-20-1.34092E-19
 -1      3241 9.52385E-05-2.85746E-05-2.85702E-05-1.86395E-08-3.39284E-19 3.55212E-19
 -1      3242 9.52421E-05-2.85756E-05-2.85714E-05-1.83821E-08 6.69471E-20 1.72613E-18
 -1      3243 9.52385E-05-2.85760E-05-2.85696E-05-1.62092E-08-6.83621E-20-7.34587E-19
 -1      3244 9.52383E-05-2.85756E-05-2.85697E-05-1.71879E-08-1.65792E-19-4.51031E-19
 -1      3245 9.52412E-05-2.85767E-05-2.85705E-05-1.72946E-08-9.59394E-20-2.60148E-20
 -1      3246 9.52385E-05-2.85766E-05-2.85694E-05-1.42634E-08-2.06915E-18-1.81133E-18
 -1      3247 9.52382E-05-2.85761E-05-2.85694E-05-1.54244E-08-9.85553E-19-9.86626E-19
 -1      3248 9.52405E-05-2.85773E-05-2.85700E-05-1.57866E-08-4.85824E-19 3.45107E-20
 -1      3249 9.52399E-05-2.85777E-05-2.85695E-05-1.41426E-08-1.27367E-18-1.93243E-18
 -1      3250 9.52463E-05-2.85823E-05-2.85703E-05 9.34889E-09 8.43143E-19 6.28340E-20
 -1      3251 9.52473E-05-2.85830E-05-2.85704E-05 7.56293E-09 3.25873E-19 1.33164E-18
 -1      3252 1.17771E-04-1.20782E-05-4.57725E-05-7.63189E-06 2.94619E-18-1.79069E-18
 -1      3253 1.21607E-04-1.79587E-05-4.47977E-05-1.15413E-05 3.00210E-18-2.43035E-18
 -1      3254 4.71752E-05-1.40395E-05-1.40448E-05 2.21047E-05-1.11581E-18 1.57601E-18
 -1      3255 4.23054E-05-1.00944E-05-1.34388E-05 1.02791E-05 5.00345E-20 2.77869E-18
 -1      3256 9.52437E-05-2.85804E-05-2.85700E-05 1.24327E-08 2.49491E-18 1.55229E-18
 -1      3257 9.52451E-05-2.85815E-05-2.85701E-05 1.11069E-08 2.02564E-18 1.28303E-18
 -1      3258 9.52466E-05-2.85816E-05-2.85707E-05 1.08349E-08 1.40060E-18 1.66181E-18
 -1      3259 9.52480E-05-2.85835E-05-2.85705E-05 5.42686E-09-7.17203E-19 3.23248E-18
 -1      3260 9.52485E-05-2.85838E-05-2.85706E-05 3.38518E-09-1.88058E-19 3.43692E-18
 -1      3261 9.52488E-05-2.85830E-05-2.85711E-05 6.87419E-09-3.91413E-19 2.93128E-18
 -1      3262 7.35992E-05-2.40360E-05-2.06546E-05 2.68064E-05 1.32944E-18-2.80664E-18
 -1      3263 8.35861E-05-1.14313E-05-3.09549E-05 6.96799E-07-1.43780E-18-2.80719E-18
 -1      3264 9.52484E-05-2.85837E-05-2.85706E-05-3.50950E-09-8.81325E-19 1.98444E-18
 -1      3265 9.52479E-05-2.85834E-05-2.85705E-05-5.56914E-09-9.06095E-20 1.16420E-19
 -1      3266 1.35916E-04-4.76459E-05-3.83756E-05-3.14736E-06 2.11427E-19-3.44425E-18
 -1      3267 1.33131E-04-5.38857E-05-3.39096E-05 6.42164E-06-9.00820E-19-3.26536E-18
 -1      3268 1.00772E-04-2.81576E-05-3.11602E-05 4.56677E-06 1.53765E-18-5.51763E-19
 -1      3269 9.87808E-05-2.13259E-05-3.32107E-05-7.79731E-07 1.10931E-18-4.12984E-19
 -1      3270 9.90100E-05-2.16557E-05-3.31785E-05 1.73114E-06 1.07168E-18-3.73543E-19
 -1      3271 1.01363E-04-2.14904E-05-3.42527E-05 3.64794E-06 9.93141E-19-6.51191E-19
 -1      3272 1.00743E-04-2.06391E-05-3.43441E-05-2.56831E-06 1.27337E-18-1.05096E-18
 -1      3273 1.28632E-04-5.70143E-05-3.08789E-05 1.48456E-05-1.74015E-18-2.70384E-18
 -1      3274 1.18786E-04-5.42799E-05-2.76252E-05 2.17739E-05-2.14810E-18-2.82243E-18
 -1      3275 1.28676E-04-5.27164E-05-3.25052E-05 5.66115E-06-1.25837E-18-2.80278E-18
 -1      3276 5.19788E-05-1.74474E-05-1.43082E-05 2.24098E-05 1.03206E-18-4.63973E-18
 -1      3277 3.70212E-05-1.50089E-05-8.89610E-06 1.79387E-05 5.45013E-19-5.61943E-18
 -1      3278 1.12289E-04-5.21936E-05-2.55597E-05-3.05506E-05-1.90958E-18-1.27675E-18
 -1      3279 1.24642E-04-5.69821E-05-2.90697E-05-2.37250E-05-1.58183E-18-8.65919E-19
 -1      3280 9.52392E-05-2.85772E-05-2.85694E-05 1.45867E-08 1.84367E-18-2.68920E-18
 -1      3281 9.52487E-05-2.85840E-05-2.85706E-05 1.01600E-09-1.07805E-18 2.06049E-18
 -1      3282 9.52487E-05-2.85839E-05-2.85706E-05-1.15497E-09-1.13775E-18 2.47805E-18
 -1      3283 9.52498E-05-2.85836E-05-2.85713E-05-2.48221E-09-7.22162E-19 2.20779E-18
 -1      3284 9.52499E-05-2.85836E-05-2.85713E-05 2.30661E-09-1.18608E-19 3.83585E-18
 -1      3285 1.00165E-04-2.70621E-05-3.12987E-05 4.01880E-06 1.37787E-18-8.74993E-19
 -1      3286 5.81628E-05-1.73225E-05-1.69534E-05-2.11420E-05 1.52522E-18 2.28466E-18
 -1      3287 6.79378E-05-2.40140E-05-1.88294E-05-2.69088E-05 1.61169E-18 1.50677E-18
 -1      3288 4.28933E-05-9.43942E-06-1.38406E-05-4.81022E-07 7.53541E-19 4.74021E-18
 -1      3289 4.90171E-05-1.25722E-05-1.54616E-05-1.33926E-05 1.08047E-18 4.05274E-18
 -1      3290 4.99058E-05-1.03016E-05-1.65167E-05 4.34992E-06-1.42265E-19 3.20628E-18
 -1      3291 3.67012E-05-1.01435E-05-1.09234E-05 9.00330E-06 1.38490E-19-5.51736E-18
 -1      3292 7.28021E-05-3.12551E-05-1.79494E-05 3.65571E-05-2.55243E-18-6.35539E-19
 -1      3293 5.78150E-05-2.10033E-05-1.52140E-05 3.05123E-05-2.03608E-18 7.75988E-19
 -1      3294 5.88707E-05-1.78504E-05-1.71318E-05 2.37902E-05-1.58371E-18 4.42839E-19
 -1      3295 7.98052E-05-2.67326E-05-2.24022E-05-2.52911E-05 1.54726E-18 9.88355E-19
 -1      3296 4.39838E-05-8.99162E-06-1.46671E-05 6.52459E-06 3.99561E-20-5.08919E-18
 -1      3297 4.02312E-05-8.12363E-06-1.31130E-05 7.71414E-07-2.19805E-19-5.52615E-18
 -1      3298 4.53464E-05-7.66133E-06-1.58470E-05-5.56754E-06-7.67021E-19-5.15102E-18
 -1      3299 6.93526E-05-1.84247E-05-2.16561E-05 2.09361E-05 7.75670E-19-2.93534E-18
 -1      3300 5.78985E-05-1.69312E-05-1.73745E-05 2.21827E-05 9.48783E-19-3.88290E-18
 -1      3301 4.98120E-05-1.14608E-05-1.57814E-05 1.44035E-05 4.53666E-19-4.62088E-18
 -1      3302 6.17843E-05-1.19074E-05-2.09168E-05 1.44906E-05 4.90088E-19-3.65680E-18
 -1      3303 1.24216E-04-2.58122E-05-4.25664E-05 1.26829E-05 2.23304E-18 4.86144E-19
 -1      3304 1.17919E-04-2.19388E-05-4.13141E-05 1.19783E-05 1.95739E-18 2.75550E-20
 -1      3305 1.25110E-04-3.08542E-05-4.06282E-05 1.20329E-05 1.75124E-18 8.53333E-19
 -1      3306 8.27753E-05-3.40614E-05-2.06081E-05 3.24989E-05-2.52662E-18-1.09498E-18
 -1      3307 8.80380E-05-1.94266E-05-2.94342E-05-1.01856E-05-3.81200E-19-2.72106E-18
 -1      3308 8.53608E-05-1.59599E-05-2.96878E-05-9.29775E-06-2.88316E-19-2.92902E-18
 -1      3309 8.27184E-05-1.41847E-05-2.94301E-05-9.88742E-06-4.48377E-19-3.13635E-18
 -1      3310 1.23025E-04-2.25919E-05-4.34574E-05-1.25273E-05 2.74375E-18-2.69015E-18
 -1      3311 1.23906E-04-2.71682E-05-4.15568E-05-1.30669E-05 2.00614E-18-2.90898E-18
 -1      3312 1.17299E-04-2.01969E-05-4.18515E-05-1.17609E-05 2.18392E-18-2.41171E-18
 -1      3313 1.13592E-04-1.28810E-05-4.34640E-05-4.88203E-06 2.71162E-18-1.93697E-18
 -1      3314 5.36006E-05-1.30790E-05-1.68925E-05-2.28028E-05-1.66664E-18-4.52983E-18
 -1      3315 6.22161E-05-1.62289E-05-1.95442E-05-2.46513E-05-2.05347E-18-3.82181E-18
 -1      3316 5.11739E-05-1.04085E-05-1.72697E-05-1.63860E-05-1.23333E-18-4.60844E-18
 -1      3317 7.54183E-05-7.72606E-06-2.90148E-05-3.64887E-06-9.96031E-19-3.09559E-18
 -1      3318 7.66020E-05-8.46548E-06-2.92777E-05-1.78043E-06-1.11460E-18-3.06541E-18
 -1      3319 7.82958E-05-2.89006E-05-2.08469E-05-3.24469E-05-2.32998E-18-2.93351E-18
 -1      3320 9.95858E-05-4.20075E-05-2.45415E-05-3.03943E-05-1.96239E-18-1.67533E-18
 -1      3321 1.06048E-04-4.77590E-05-2.47451E-05-3.12418E-05-2.04063E-18-1.28981E-18
 -1      3322 1.13066E-04-4.95470E-05-2.72763E-05-2.42132E-05-1.90852E-18-1.08009E-18
 -1      3323 5.11027E-05-9.41696E-06-1.76043E-05 7.42782E-06 9.72764E-21-4.51511E-18
 -1      3324 9.52450E-05-2.85812E-05-2.85701E-05-1.11425E-08 3.58391E-19 1.66443E-18
 -1      3325 9.52435E-05-2.85802E-05-2.85700E-05-1.23935E-08 4.99566E-19 9.47817E-19
 -1      3326 1.06115E-04-3.44982E-05-3.06930E-05 6.47523E-06 4.04505E-19-1.91691E-19
 -1      3327 1.07739E-04-3.56393E-05-3.08875E-05 5.51621E-06 3.77637E-19-2.89127E-19
 -1      3328 1.05776E-04-3.37342E-05-3.08798E-05 7.30727E-06 5.03687E-19-1.93465E-20
 -1      3329 1.06532E-04-3.04542E-05-3.25641E-05 9.31510E-06 4.94035E-19 1.91047E-19
 -1      3330 1.04605E-04-3.09004E-05-3.15593E-05 8.62584E-06 3.40302E-19 9.67098E-20
 -1      3331 1.05471E-04-3.25801E-05-3.12739E-05 8.32760E-06 5.03827E-19 1.58685E-19
 -1      3332 1.00979E-04-2.86342E-05-3.09974E-05 2.90775E-06 1.13485E-18-8.74530E-19
 -1      3333 8.29820E-05-1.21493E-05-3.03637E-05 2.86914E-06-1.26852E-18-2.70833E-18
 -1      3334 1.01430E-04-2.92108E-05-3.09271E-05 2.05955E-06 9.85383E-19-1.09520E-18
 -1      3335 9.52411E-05-2.85786E-05-2.85696E-05 1.39994E-08 1.58156E-18-6.89958E-19
 -1      3336 9.52424E-05-2.85789E-05-2.85701E-05 1.43914E-08 2.67339E-18-3.32591E-19
 -1      3337 1.31794E-04-4.18922E-05-3.87545E-05-7.59107E-06 4.91147E-19-3.28066E-18
 -1      3338 7.81110E-05-2.24088E-05-2.37522E-05-2.24412E-05 1.23172E-18 4.88209E-19
 -1      3339 7.16133E-05-1.79952E-05-2.27696E-05-1.88915E-05 1.41601E-18 6.33263E-19
 -1      3340 1.13925E-04-1.39364E-05-4.31381E-05 5.92055E-06 2.67175E-18-9.72222E-19
 -1      3341 1.27978E-04-5.54892E-05-3.10929E-05-1.52234E-05-1.38503E-18-3.36828E-19
 -1      3342 9.96516E-05-2.73314E-05-3.10016E-05 4.04806E-07 9.03699E-19-1.59458E-18
 -1      3343 9.75925E-05-2.47339E-05-3.12438E-05 2.41957E-07 9.87209E-19-1.90146E-18
 -1      3344 9.62638E-05-2.37092E-05-3.10849E-05-1.37236E-06 7.69989E-19-2.10192E-18
 -1      3345 1.35851E-04-4.72708E-05-3.82029E-05 3.40337E-06 3.90165E-19 6.02452E-19
 -1      3346 1.31221E-04-4.10481E-05-3.87802E-05 8.48670E-06 8.18340E-19 1.10289E-18
 -1      3347 1.32994E-04-5.01256E-05-3.55865E-05-8.63439E-07-9.85205E-20 5.04038E-19
 -1      3348 9.47116E-05-2.26747E-05-3.08683E-05-3.30119E-06 6.06342E-19-2.14179E-18
 -1      3349 9.28054E-05-2.13477E-05-3.06287E-05-4.98865E-06 2.50203E-19-2.29539E-18
 -1      3350 9.34066E-05-2.31573E-05-3.01371E-05-7.02340E-06 2.82284E-20-2.24934E-18
 -1      3351 9.73050E-05-2.57331E-05-3.06864E-05-3.12187E-06 6.18807E-19-1.90574E-18
 -1      3352 8.27726E-05-1.38129E-05-2.96338E-05 6.22263E-06-1.01955E-18-2.48034E-18
 -1      3353 8.19636E-05-1.43870E-05-2.89580E-05 8.67488E-06-5.68941E-19-2.40482E-18
 -1      3354 7.61737E-05-1.17265E-05-2.75944E-05 7.26846E-06-4.89741E-19-2.77112E-18
 -1      3355 9.52413E-05-2.85787E-05-2.85697E-05-1.35807E-08 8.36425E-20 3.21615E-19
 -1      3356 1.12906E-04-5.14565E-05-2.61246E-05 2.51174E-05-2.09373E-18-2.74091E-18
 -1      3357 1.04213E-04-4.59320E-05-2.50172E-05 2.64751E-05-1.86951E-18-2.45718E-18
 -1      3358 1.17733E-04-5.15894E-05-2.83380E-05 1.70300E-05-1.73672E-18-2.31757E-18
 -1      3359 7.60606E-05-8.65578E-06-2.88539E-05-7.76593E-06-7.68501E-19-3.17730E-18
 -1      3360 7.53133E-05-8.07301E-06-2.88889E-05-6.31009E-06-9.78910E-19-3.18953E-18
 -1      3361 7.44086E-05-8.47030E-06-2.82002E-05-5.23118E-06-9.45943E-19-3.07622E-18
 -1      3362 5.73770E-05-1.43418E-05-1.82505E-05-1.49919E-05 1.27759E-18 2.64311E-18
 -1      3363 9.52472E-05-2.85828E-05-2.85704E-05-7.69603E-09 2.40975E-19-4.49021E-19
 -1      3364 9.52462E-05-2.85821E-05-2.85703E-05-9.43720E-09 7.78584E-19 9.17295E-21
 -1      3365 9.52464E-05-2.85814E-05-2.85707E-05-1.09386E-08-3.27782E-19 1.13792E-18
 -1      3366 9.52428E-05-2.85791E-05-2.85701E-05-1.39489E-08-8.04083E-19 4.97956E-19
 -1      3367 9.52487E-05-2.85828E-05-2.85711E-05-7.03493E-09 1.72993E-19-4.14035E-19
 -1      3368 1.27734E-04-4.99888E-05-3.36164E-05-1.86903E-07-6.52022E-19-2.56794E-18
 -1      3369 1.24136E-04-5.14747E-05-3.11287E-05 6.59641E-06-1.10300E-18-2.23937E-18
 -1      3370 7.52669E-05-2.40106E-05-2.17947E-05-2.83648E-05-2.21201E-18-3.06528E-18
 -1      3371 8.66802E-05-3.26094E-05-2.31015E-05-3.08753E-05-2.11726E-18-2.25475E-18
 -1      3372 9.52431E-05-2.85788E-05-2.85704E-05-1.46013E-08-9.18816E-19 7.23022E-19
 -1      3373 1.11167E-04-1.68663E-05-4.05615E-05 8.10405E-06 2.06025E-18-4.34558E-19
 -1      3374 1.09001E-04-1.36924E-05-4.10680E-05 3.09305E-06 2.39832E-18-1.01088E-18
 -1      3375 7.91604E-05-1.67381E-05-2.67760E-05-8.81136E-06 3.07880E-19 4.62353E-19
 -1      3376 8.13926E-05-1.76770E-05-2.73729E-05-7.83682E-06-2.72573E-20 5.95981E-19
 -1      3377 8.39008E-05-1.88365E-05-2.79075E-05-7.41142E-06-2.76144E-19 3.88377E-19
 -1      3378 8.54885E-05-1.97676E-05-2.82109E-05-6.67902E-06-5.92907E-19 3.64862E-19
 -1      3379 8.05756E-05-1.71423E-05-2.70931E-05-5.32949E-06-3.46852E-19-1.61886E-19
 -1      3380 8.73116E-05-2.08139E-05-2.85148E-05-6.28912E-06-9.91448E-19 5.51791E-19
 -1      3381 8.84683E-05-2.16633E-05-2.86626E-05-5.65085E-06-1.12379E-18 3.37363E-19
 -1      3382 8.47938E-05-1.93958E-05-2.79664E-05-4.87739E-06-9.46515E-19-3.40956E-19
 -1      3383 8.97877E-05-2.25534E-05-2.88247E-05-5.27674E-06-1.70223E-18 5.19328E-19
 -1      3384 9.05985E-05-2.32614E-05-2.88818E-05-4.71165E-06-1.60802E-18 6.42092E-19
 -1      3385 8.78661E-05-2.13633E-05-2.84588E-05-4.36088E-06-9.78556E-19-1.14895E-20
 -1      3386 9.15420E-05-2.39821E-05-2.89594E-05-4.35172E-06-1.48271E-18 8.93844E-19
 -1      3387 9.20940E-05-2.45452E-05-2.89665E-05-3.85835E-06-1.06018E-18 9.08594E-19
 -1      3388 9.00803E-05-2.29997E-05-2.87193E-05-3.79041E-06-1.36979E-18 6.62630E-19
 -1      3389 9.27616E-05-2.51109E-05-2.89949E-05-3.52374E-06-6.84940E-19 1.15208E-18
 -1      3390 9.31287E-05-2.55462E-05-2.89765E-05-3.10257E-06-4.72123E-19 7.41569E-19
 -1      3391 9.16588E-05-2.43148E-05-2.88415E-05-3.20274E-06-1.15054E-18 1.14891E-18
 -1      3392 9.35967E-05-2.59821E-05-2.89775E-05-2.80306E-06 4.05127E-20 1.64016E-18
 -1      3393 9.38359E-05-2.63130E-05-2.89479E-05-2.45135E-06 5.16033E-19 2.11870E-18
 -1      3394 9.27727E-05-2.53469E-05-2.88830E-05-2.63751E-06 4.19717E-20 1.74130E-18
 -1      3395 9.41742E-05-2.66587E-05-2.89339E-05-2.17922E-06-1.06377E-19 1.93815E-18
 -1      3396 9.43335E-05-2.69176E-05-2.88996E-05-1.88007E-06-8.23064E-20 1.39488E-18
 -1      3397 9.35682E-05-2.61620E-05-2.88791E-05-2.11058E-06 7.26071E-20 1.97906E-18
 -1      3398 9.45551E-05-2.71638E-05-2.88801E-05-1.66479E-06-4.07003E-19 7.23799E-19
 -1      3399 9.46494E-05-2.73476E-05-2.88487E-05-1.43619E-06-5.79763E-19 3.80381E-19
 -1      3400 9.41174E-05-2.67822E-05-2.88520E-05-1.65244E-06-6.47295E-19 1.11552E-18
 -1      3401 9.48016E-05-2.75324E-05-2.88277E-05-1.25938E-06-6.48522E-19 1.92542E-19
 -1      3402 9.48601E-05-2.76701E-05-2.87995E-05-1.07867E-06-1.81611E-19 2.26905E-19
 -1      3403 9.44859E-05-2.72403E-05-2.88158E-05-1.27586E-06-1.04850E-18 5.71837E-19
 -1      3404 9.49644E-05-2.78085E-05-2.87792E-05-9.36733E-07 1.11357E-19-3.80444E-19
 -1      3405 9.50000E-05-2.79115E-05-2.87550E-05-7.95919E-07 1.20568E-19-7.67204E-19
 -1      3406 9.47397E-05-2.75869E-05-2.87774E-05-9.66277E-07-6.54702E-19 3.76817E-19
 -1      3407 9.50711E-05-2.80150E-05-2.87367E-05-6.84098E-07 5.79962E-19-9.29253E-19
 -1      3408 9.50924E-05-2.80920E-05-2.87165E-05-5.75898E-07 6.04816E-19-9.82985E-19
 -1      3409 9.49138E-05-2.78487E-05-2.87407E-05-7.17546E-07-1.21490E-19 4.82105E-19
 -1      3410 9.51406E-05-2.81692E-05-2.87006E-05-4.89347E-07-5.05030E-20-1.46914E-18
 -1      3411 9.51529E-05-2.82267E-05-2.86842E-05-4.07378E-07-1.02914E-19-1.46382E-18
 -1      3412 9.50326E-05-2.80457E-05-2.87078E-05-5.21680E-07-4.95377E-19-1.31396E-18
 -1      3413 9.51852E-05-2.82840E-05-2.86708E-05-3.41538E-07 3.39623E-19-8.01243E-19
 -1      3414 9.51920E-05-2.83269E-05-2.86576E-05-2.80289E-07-5.98768E-19 1.20010E-19
 -1      3415 9.51129E-05-2.81934E-05-2.86793E-05-3.70308E-07 4.90711E-19-1.07780E-18
 -1      3416 9.52142E-05-2.83711E-05-2.86461E-05-2.28791E-07-1.47328E-18 6.54452E-19
 -1      3417 9.52179E-05-2.84040E-05-2.86353E-05-1.82178E-07-5.51762E-19 1.04604E-18
 -1      3418 9.51677E-05-2.83057E-05-2.86548E-05-2.53177E-07-8.57193E-19 2.57079E-20
 -1      3419 9.52314E-05-2.84344E-05-2.86266E-05-1.46798E-07 2.40159E-19 5.09766E-19
 -1      3420 9.52330E-05-2.84574E-05-2.86186E-05-1.14941E-07-2.88482E-19 1.02519E-18
 -1      3421 9.52034E-05-2.83888E-05-2.86347E-05-1.66308E-07-4.66086E-19 4.94557E-19
 -1      3422 9.52413E-05-2.84795E-05-2.86117E-05-8.95101E-08 4.95845E-19 1.83458E-18
 -1      3423 9.52418E-05-2.84961E-05-2.86056E-05-6.70720E-08 1.94120E-18 1.79333E-18
 -1      3424 9.52255E-05-2.84478E-05-2.86190E-05-1.04905E-07 7.67389E-19 1.95728E-19
 -1      3425 9.52467E-05-2.85119E-05-2.86002E-05-4.92929E-08 1.56468E-18 1.98034E-18
 -1      3426 9.52465E-05-2.85238E-05-2.85957E-05-3.38975E-08 8.70082E-19 2.27710E-18
 -1      3427 9.52391E-05-2.84905E-05-2.86066E-05-6.11313E-08 2.02725E-18 1.68366E-18
 -1      3428 9.52491E-05-2.85349E-05-2.85915E-05-2.18450E-08 9.22315E-19 3.22758E-18
 -1      3429 9.52486E-05-2.85433E-05-2.85881E-05-1.16377E-08 1.27050E-18 3.23069E-18
 -1      3430 9.52468E-05-2.85210E-05-2.85968E-05-3.07474E-08 1.15382E-18 2.26488E-18
 -1      3431 9.52497E-05-2.85509E-05-2.85850E-05-3.78864E-09-1.53863E-19 2.54292E-18
 -1      3432 9.52490E-05-2.85566E-05-2.85825E-05 2.66688E-09-1.07628E-18 2.31485E-18
 -1      3433 9.52507E-05-2.85422E-05-2.85894E-05-1.03422E-08-6.13182E-20 1.60112E-18
 -1      3434 9.52491E-05-2.85616E-05-2.85802E-05 7.49398E-09-7.76507E-19 2.54875E-18
 -1      3435 9.52484E-05-2.85655E-05-2.85785E-05 1.13035E-08-1.08788E-18 1.31978E-18
 -1      3436 9.52520E-05-2.85567E-05-2.85837E-05 2.77250E-09-1.01769E-18 9.08123E-19
 -1      3437 9.52479E-05-2.85688E-05-2.85766E-05 1.41198E-08-8.86854E-19 8.09241E-19
 -1      3438 9.52472E-05-2.85714E-05-2.85754E-05 1.61303E-08-1.12066E-18 8.29647E-19
 -1      3439 9.52517E-05-2.85664E-05-2.85794E-05 1.07921E-08-1.54659E-18 2.80194E-19
 -1      3440 9.52464E-05-2.85732E-05-2.85742E-05 1.73188E-08-2.58701E-18 4.67972E-19
 -1      3441 9.52458E-05-2.85747E-05-2.85733E-05 1.80003E-08-3.21513E-18 2.48299E-19
 -1      3442 9.52504E-05-2.85725E-05-2.85763E-05 1.50825E-08-2.11808E-18-2.24388E-19
 -1      3443 9.52448E-05-2.85757E-05-2.85725E-05 1.82639E-08-3.12003E-18 1.47104E-19
 -1      3444 9.52443E-05-2.85765E-05-2.85719E-05 1.81543E-08-2.15732E-18-1.41222E-18
 -1      3445 9.52486E-05-2.85759E-05-2.85741E-05 1.67836E-08-3.41024E-18 6.41679E-19
 -1      3446 9.52433E-05-2.85770E-05-2.85713E-05 1.78088E-08-6.54163E-19-1.76786E-18
 -1      3447 9.52429E-05-2.85775E-05-2.85709E-05 1.71885E-08 4.89500E-19-1.34666E-18
 -1      3448 9.52468E-05-2.85778E-05-2.85724E-05 1.68992E-08-2.15165E-18 1.24220E-18
 -1      3449 9.52429E-05-2.85781E-05-2.85706E-05 1.63011E-08 1.73031E-18-1.71160E-18
 -1      3450 9.52426E-05-2.85784E-05-2.85704E-05 1.53996E-08 2.25508E-18-7.80423E-19
 -1      3451 9.52456E-05-2.85803E-05-2.85708E-05 1.37217E-08 2.77881E-18 2.20907E-18
 -1      3452 9.52459E-05-2.85791E-05-2.85715E-05 1.56989E-08 7.62070E-19 5.93668E-19
 -1      3453 7.86409E-05-9.92402E-06-2.94020E-05 1.87493E-06-1.04523E-18-2.83747E-18
 -1      3454 1.05462E-04-2.37214E-05-3.49773E-05 8.33009E-06 1.05992E-18-3.43164E-20
 -1      3455 1.07052E-04-2.69182E-05-3.44642E-05 9.70981E-06 6.56246E-19 7.48598E-20
 -1      3456 1.08546E-04-3.11344E-05-3.32761E-05-1.09286E-05 1.00114E-18-2.28489E-18
 -1      3457 1.07148E-04-2.78617E-05-3.39426E-05-1.06485E-05 1.09357E-18-2.04872E-18
 -1      3458 1.05363E-04-2.43640E-05-3.48136E-05-9.69595E-06 1.17463E-18-1.65869E-18
 -1      3459 1.03907E-04-2.15186E-05-3.52746E-05-7.56330E-06 1.54803E-18-1.32109E-18
 -1      3460 1.09073E-04-2.64721E-05-3.54404E-05-1.09085E-05 1.30958E-18-2.20926E-18
 -1      3461 1.09498E-04-3.84627E-05-3.04356E-05-4.95421E-06-3.93491E-19-1.79883E-18
 -1      3462 1.09762E-04-3.76399E-05-3.09273E-05-6.59251E-06 1.92851E-19-1.95562E-18
 -1      3463 1.07240E-04-3.81324E-05-2.95795E-05-1.46393E-06-7.68191E-19-1.85732E-18
 -1      3464 1.08102E-04-3.83931E-05-2.99065E-05-2.96659E-06-7.38059E-19-1.78146E-18
 -1      3465 1.10437E-04-3.99025E-05-3.02251E-05-2.70196E-06-6.44241E-19-1.78507E-18
 -1      3466 1.04357E-04-3.64158E-05-2.90756E-05 1.11252E-06-7.48896E-19-8.37898E-19
 -1      3467 1.05485E-04-3.72679E-05-2.92642E-05-1.37191E-09-5.68486E-19-1.29488E-18
 -1      3468 1.07200E-04-3.88008E-05-2.93432E-05 7.27272E-07-9.86528E-19-1.35231E-18
 -1      3469 1.01591E-04-3.42480E-05-2.88250E-05 2.65960E-06-9.10207E-19-3.61893E-19
 -1      3470 1.02702E-04-3.52675E-05-2.89170E-05 1.96398E-06-9.70348E-19-5.29522E-19
 -1      3471 1.03737E-04-3.64792E-05-2.88625E-05 2.88905E-06-8.74410E-19-5.77486E-19
 -1      3472 9.93106E-05-3.22118E-05-2.87296E-05 3.38670E-06-1.04337E-18-4.72934E-19
 -1      3473 1.00249E-04-3.31482E-05-2.87641E-05 3.03396E-06-9.13127E-19-4.77618E-20
 -1      3474 1.00736E-04-3.39708E-05-2.86491E-05 3.93579E-06-1.08777E-18-2.75034E-19
 -1      3475 9.76094E-05-3.05654E-05-2.87150E-05 3.55665E-06-2.53274E-19-7.88495E-19
 -1      3476 9.83274E-05-3.13129E-05-2.87208E-05 3.44749E-06-5.41061E-19-6.51277E-19
 -1      3477 9.84276E-05-3.17864E-05-2.85894E-05 4.21885E-06-8.62461E-19-1.82782E-19
 -1      3478 9.64382E-05-2.93673E-05-2.87337E-05 3.38880E-06-9.67418E-20-7.07302E-19
 -1      3479 9.69474E-05-2.99063E-05-2.87290E-05 3.43557E-06-2.43893E-19-9.44745E-19
 -1      3480 9.68060E-05-3.01101E-05-2.86050E-05 4.04404E-06-1.94770E-19-7.63316E-19
 -1      3481 9.56910E-05-2.85745E-05-2.87584E-05 3.04098E-06-1.64830E-19-7.80112E-19
 -1      3482 9.60290E-05-2.89283E-05-2.87532E-05 3.17714E-06 2.71682E-19-4.50756E-19
 -1      3483 9.57572E-05-2.89452E-05-2.86480E-05 3.63260E-06-2.26676E-20-1.13841E-18
 -1      3484 9.52544E-05-2.81045E-05-2.87762E-05 2.61717E-06 1.51182E-19-5.59604E-19
 -1      3485 9.54642E-05-2.83125E-05-2.87749E-05 2.79622E-06-8.16373E-21-6.31388E-19
 -1      3486 9.51391E-05-2.82121E-05-2.86920E-05 3.12579E-06-2.60488E-19-6.70088E-19
 -1      3487 9.50296E-05-2.78701E-05-2.87825E-05 2.18169E-06 2.17235E-19-3.72035E-19
 -1      3488 9.51501E-05-2.79726E-05-2.87863E-05 2.37307E-06 6.07083E-20-6.25482E-19
 -1      3489 9.48210E-05-2.78083E-05-2.87250E-05 2.60675E-06 3.27133E-19-2.81346E-19
 -1      3490 9.49397E-05-2.77942E-05-2.87777E-05 1.77151E-06 5.48501E-20 1.98612E-19
 -1      3491 9.50016E-05-2.78262E-05-2.87859E-05 1.95648E-06 4.35852E-19 7.30880E-20
 -1      3492 9.46973E-05-2.76358E-05-2.87434E-05 2.12076E-06-2.38432E-19 5.20226E-19
 -1      3493 9.49289E-05-2.78166E-05-2.87641E-05 1.40550E-06 4.51971E-19-2.95552E-19
 -1      3494 9.49549E-05-2.78053E-05-2.87753E-05 1.57357E-06 3.41705E-19-5.42544E-20
 -1      3495 9.46900E-05-2.76135E-05-2.87483E-05 1.68933E-06 1.84879E-19 1.48920E-18
 -1      3496 9.49599E-05-2.78932E-05-2.87447E-05 1.09131E-06 3.61752E-19-8.81908E-20
 -1      3497 9.49654E-05-2.78582E-05-2.87576E-05 1.23747E-06 1.73987E-19-2.12538E-19
 -1      3498 9.47449E-05-2.76799E-05-2.87424E-05 1.31990E-06 3.31258E-19-4.79657E-19
 -1      3499 9.50085E-05-2.79939E-05-2.87223E-05 8.29642E-07 5.29172E-19-1.25408E-20
 -1      3500 9.50036E-05-2.79487E-05-2.87357E-05 9.52529E-07 4.48548E-19 3.58884E-19
 -1      3501 9.48269E-05-2.77918E-05-2.87292E-05 1.01224E-06 2.41591E-19-4.46726E-20
 -1      3502 9.50607E-05-2.80996E-05-2.86992E-05 6.17153E-07-1.38374E-19 1.14686E-18
 -1      3503 9.50515E-05-2.80525E-05-2.87122E-05 7.17622E-07 4.17078E-19 4.33260E-19
 -1      3504 9.49145E-05-2.79200E-05-2.87115E-05 7.61784E-07-6.41864E-20 1.21205E-18
 -1      3505 9.51088E-05-2.81990E-05-2.86769E-05 4.48423E-07-5.34506E-19 3.95239E-19
 -1      3506 9.50988E-05-2.81549E-05-2.86889E-05 5.28566E-07-6.41658E-20 6.92611E-19
 -1      3507 9.49958E-05-2.80468E-05-2.86920E-05 5.61913E-07 1.05341E-19 1.34415E-18
 -1      3508 9.51493E-05-2.82864E-05-2.86566E-05 3.17218E-07 1.04413E-18-9.57590E-19
 -1      3509 9.51403E-05-2.82478E-05-2.86671E-05 3.79710E-07 1.80937E-19-9.78743E-20
 -1      3510 9.50654E-05-2.81620E-05-2.86725E-05 4.05335E-07 6.34727E-19 7.40532E-20
 -1      3511 9.51814E-05-2.83597E-05-2.86387E-05 2.17260E-07-3.51218E-19-3.53021E-19
 -1      3512 9.51741E-05-2.83274E-05-2.86477E-05 2.64927E-07 3.13267E-19-9.18528E-19
 -1      3513 9.51216E-05-2.82612E-05-2.86541E-05 2.84865E-07 3.39423E-19-3.83284E-19
 -1      3514 9.52055E-05-2.84189E-05-2.86235E-05 1.42691E-07-8.93302E-20-7.03651E-19
 -1      3515 9.52000E-05-2.83929E-05-2.86309E-05 1.78246E-07-4.75713E-20-4.81905E-19
 -1      3516 9.51647E-05-2.83431E-05-2.86376E-05 1.93860E-07-2.97259E-19-1.99353E-19
 -1      3517 9.52227E-05-2.84652E-05-2.86108E-05 8.82975E-08 8.54681E-19 3.32127E-20
 -1      3518 9.52188E-05-2.84449E-05-2.86169E-05 1.14194E-07 5.27583E-19-4.00819E-19
 -1      3519 9.51965E-05-2.84084E-05-2.86233E-05 1.26438E-07 1.17120E-19-7.46276E-19
 -1      3520 9.52343E-05-2.85004E-05-2.86006E-05 4.96041E-08-6.76004E-20 2.49254E-19
 -1      3521 9.52318E-05-2.84850E-05-2.86054E-05 6.79734E-08 6.07114E-19 3.79020E-19
 -1      3522 9.52189E-05-2.84591E-05-2.86112E-05 7.75433E-08 7.24189E-20 1.67566E-19
 -1      3523 9.52416E-05-2.85264E-05-2.85925E-05 2.28810E-08-3.68034E-19 4.36085E-19
 -1      3524 9.52401E-05-2.85150E-05-2.85962E-05 3.55096E-08-5.60871E-19 3.32272E-20
 -1      3525 9.52338E-05-2.84972E-05-2.86013E-05 4.29398E-08-7.05856E-20 1.53752E-18
 -1      3526 9.52457E-05-2.85450E-05-2.85862E-05 5.09617E-09-2.44724E-19 1.12239E-18
 -1      3527 9.52450E-05-2.85368E-05-2.85890E-05 1.34422E-08-1.81616E-19 5.42486E-19
 -1      3528 9.52431E-05-2.85251E-05-2.85934E-05 1.91578E-08-3.66084E-19 1.02510E-18
 -1      3529 9.52476E-05-2.85579E-05-2.85814E-05-6.15997E-09-2.18090E-19 5.56024E-19
 -1      3530 9.52474E-05-2.85522E-05-2.85835E-05-9.35739E-10-1.59646E-19 9.53535E-19
 -1      3531 9.52483E-05-2.85450E-05-2.85871E-05 3.41264E-09-4.19621E-19 8.46439E-19
 -1      3532 9.52479E-05-2.85665E-05-2.85778E-05-1.27606E-08-7.61140E-19 3.97808E-19
 -1      3533 9.52481E-05-2.85627E-05-2.85794E-05-9.75615E-09-2.24082E-19 1.80501E-19
 -1      3534 9.52506E-05-2.85586E-05-2.85823E-05-6.48864E-09-1.11363E-19 1.01874E-18
 -1      3535 9.52473E-05-2.85720E-05-2.85752E-05-1.61287E-08-1.52919E-18 8.02644E-19
 -1      3536 9.52477E-05-2.85696E-05-2.85763E-05-1.46604E-08-1.64440E-18-5.46904E-21
 -1      3537 9.52509E-05-2.85676E-05-2.85786E-05-1.22386E-08-1.28558E-18 3.69915E-19
 -1      3538 9.52462E-05-2.85752E-05-2.85733E-05-1.73175E-08-8.96508E-21 1.00446E-18
 -1      3539 9.52467E-05-2.85738E-05-2.85741E-05-1.68816E-08-2.75206E-19 9.56462E-19
 -1      3540 9.52501E-05-2.85732E-05-2.85758E-05-1.51163E-08-1.44041E-18-8.16930E-19
 -1      3541 9.52448E-05-2.85771E-05-2.85719E-05-1.70794E-08 3.28247E-19 1.30973E-18
 -1      3542 9.52453E-05-2.85762E-05-2.85724E-05-1.73175E-08-1.48686E-19 1.85676E-18
 -1      3543 9.52486E-05-2.85765E-05-2.85738E-05-1.60592E-08-6.67428E-19-2.42914E-19
 -1      3544 9.52435E-05-2.85781E-05-2.85709E-05-1.59265E-08 1.01040E-19 4.15847E-19
 -1      3545 9.52439E-05-2.85776E-05-2.85713E-05-1.65986E-08 1.08658E-18 1.03351E-18
 -1      3546 9.52468E-05-2.85784E-05-2.85722E-05-1.57508E-08 1.25896E-18 1.94584E-18
 -1      3547 1.09124E-04-1.27938E-05-4.14653E-05-2.31178E-06 2.42506E-18-1.73626E-18
 -1      3548 1.11286E-04-1.55364E-05-4.12322E-05-7.90181E-06 2.21605E-18-2.25902E-18
 -1      3549 6.17189E-05-1.02398E-05-2.19933E-05 9.04543E-06 5.86041E-20-3.58967E-18
 -1      3550 5.61447E-05-9.68559E-06-1.98834E-05 8.85516E-06 1.91760E-19-3.94384E-18
 -1      3551 5.25276E-05-7.48467E-06-1.88995E-05 1.36039E-06-3.04606E-19-4.67975E-18
 -1      3552 9.52505E-05-2.85828E-05-2.85718E-05-6.27179E-09 7.43494E-19-4.07835E-19
 -1      3553 9.52496E-05-2.85823E-05-2.85717E-05-8.40435E-09 9.14926E-19-1.06103E-18
 -1      3554 9.52473E-05-2.85812E-05-2.85712E-05 1.18059E-08 1.94910E-18 2.66244E-18
 -1      3555 9.52488E-05-2.85820E-05-2.85714E-05 1.00411E-08 8.62203E-19 1.66933E-18
 -1      3556 9.52476E-05-2.85807E-05-2.85716E-05 1.29197E-08 1.89791E-18 2.84413E-18
 -1      3557 9.52499E-05-2.85826E-05-2.85717E-05 7.76871E-09-1.33485E-19 1.85403E-18
 -1      3558 9.52507E-05-2.85831E-05-2.85718E-05 5.61914E-09-4.80388E-19 4.90276E-18
 -1      3559 9.52507E-05-2.85822E-05-2.85722E-05 8.78631E-09 5.24987E-19 2.65243E-18
 -1      3560 1.27457E-04-3.67021E-05-3.93170E-05-1.11943E-05 8.10769E-19-2.76069E-18
 -1      3561 1.28495E-04-4.43772E-05-3.59919E-05-6.07816E-06-2.18587E-19-2.90796E-18
 -1      3562 1.24964E-04-4.49226E-05-3.43394E-05-4.88250E-06-3.07040E-19-2.45073E-18
 -1      3563 1.22197E-04-3.23862E-05-3.87107E-05-1.19990E-05 9.88501E-19-2.63914E-18
 -1      3564 5.39640E-05-1.08413E-05-1.83125E-05 9.05768E-06-8.40462E-19 1.68623E-18
 -1      3565 5.42170E-05-1.01174E-05-1.87428E-05-9.72367E-07-9.53574E-21 3.11195E-18
 -1      3566 6.54557E-05-2.07891E-05-1.92479E-05 2.54988E-05-2.06447E-18-2.92332E-19
 -1      3567 5.73898E-05-1.41133E-05-1.83000E-05 1.72648E-05-1.09957E-18 2.57869E-19
 -1      3568 6.12769E-05-1.35376E-05-2.02083E-05 1.15727E-05-1.12040E-18 6.67965E-19
 -1      3569 1.10137E-04-3.62688E-05-3.17029E-05-8.65907E-06 1.80215E-19-2.06362E-18
 -1      3570 1.09537E-04-3.40419E-05-3.23400E-05-9.74392E-06 6.09248E-19-1.96393E-18
 -1      3571 1.12000E-04-3.39913E-05-3.34242E-05-1.05221E-05 6.73126E-19-2.24282E-18
 -1      3572 1.12382E-04-3.85480E-05-3.15932E-05-7.04519E-06 7.61676E-20-1.59774E-18
 -1      3573 5.03156E-05-7.60910E-06-1.81766E-05-4.65208E-06-7.05736E-19-4.80019E-18
 -1      3574 4.97600E-05-8.03306E-06-1.74284E-05-1.00692E-05-9.24245E-19-4.83471E-18
 -1      3575 5.61489E-05-1.02620E-05-1.95058E-05-1.46938E-05-1.35888E-18-4.19909E-18
 -1      3576 5.56238E-05-7.89311E-06-2.03284E-05-2.51599E-06-5.08435E-19-4.37892E-18
 -1      3577 1.02263E-04-3.04596E-05-3.07334E-05 6.13438E-07 8.78764E-19-1.29926E-18
 -1      3578 1.01142E-04-2.91116E-05-3.08815E-05 4.89117E-07 8.57144E-19-1.52114E-18
 -1      3579 1.00284E-04-2.84463E-05-3.07814E-05-1.06145E-06 7.29537E-19-1.67086E-18
 -1      3580 7.99718E-05-1.18516E-05-2.91344E-05-9.78619E-06-5.73615E-19-3.24601E-18
 -1      3581 7.78560E-05-1.04016E-05-2.89847E-05-9.31080E-06-7.35119E-19-3.17983E-18
 -1      3582 7.66797E-05-1.07048E-05-2.82428E-05-9.71651E-06-8.25165E-19-3.13341E-18
 -1      3583 7.30369E-05-1.51692E-05-2.48231E-05-1.09404E-05 1.02366E-18 9.45097E-19
 -1      3584 7.57127E-05-1.56209E-05-2.58470E-05-9.44816E-06 8.40809E-19 9.19319E-19
 -1      3585 7.47985E-05-1.47570E-05-2.55967E-05-5.81002E-06 2.68873E-19-4.14815E-20
 -1      3586 8.90505E-05-3.63328E-05-2.27214E-05 2.94499E-05-1.68812E-18-1.58292E-18
 -1      3587 7.67824E-05-2.77833E-05-2.05957E-05 2.91823E-05-1.91447E-18-7.13916E-19
 -1      3588 7.04858E-05-1.01654E-05-2.58611E-05 5.47361E-06-3.13237E-19-3.11720E-18
 -1      3589 6.66601E-05-1.02985E-05-2.41156E-05 7.36624E-06-6.79645E-20-3.30928E-18
 -1      3590 6.30544E-05-8.18182E-06-2.32553E-05 2.22316E-06-3.04396E-19-3.59105E-18
 -1      3591 1.23251E-04-5.30936E-05-3.00598E-05-1.54057E-05-1.45648E-18-4.74901E-19
 -1      3592 1.30068E-04-5.38011E-05-3.28644E-05-7.99576E-06-8.58958E-19-5.63542E-20
 -1      3593 9.52483E-05-2.85816E-05-2.85714E-05-1.05862E-08 4.36775E-20 9.94270E-19
 -1      3594 9.52468E-05-2.85807E-05-2.85712E-05-1.22756E-08-4.50006E-19 1.73100E-18
 -1      3595 9.52501E-05-2.85816E-05-2.85722E-05-9.92643E-09 5.66326E-19 9.60636E-19
 -1      3596 6.29182E-05-1.44799E-05-2.06540E-05-1.38865E-05 1.16801E-18 1.87290E-18
 -1      3597 6.86189E-05-1.41348E-05-2.34314E-05-1.13797E-05 8.62955E-19 1.46336E-18
 -1      3598 6.72568E-05-1.24932E-05-2.32103E-05-5.94612E-06 7.14280E-19 1.65543E-18
 -1      3599 5.69938E-05-1.05136E-05-1.94885E-05-5.72176E-06 7.11772E-19 3.03825E-18
 -1      3600 7.63042E-05-9.75148E-06-2.84619E-05 1.25042E-06-8.84560E-19-2.87406E-18
 -1      3601 9.14476E-05-2.31430E-05-2.92202E-05-1.11576E-05-4.81222E-19-2.50384E-18
 -1      3602 8.81627E-05-2.10263E-05-2.88182E-05-1.24333E-05-5.86375E-19-2.72207E-18
 -1      3603 1.03693E-04-3.24042E-05-3.05878E-05 6.61670E-07 6.21963E-19-1.21750E-18
 -1      3604 9.03287E-05-3.15898E-05-2.51225E-05-2.55840E-05-1.67289E-18-2.25654E-18
 -1      3605 9.42615E-05-3.64883E-05-2.45560E-05-2.84411E-05-1.87054E-18-1.90694E-18
 -1      3606 1.01347E-04-4.00981E-05-2.63520E-05-2.42810E-05-1.65623E-18-1.49019E-18
 -1      3607 9.52456E-05-2.85798E-05-2.85711E-05-1.40084E-08-6.87468E-20 1.07285E-18
 -1      3608 9.52473E-05-2.85799E-05-2.85717E-05-1.36388E-08 8.53273E-19 8.81401E-19
 -1      3609 1.08003E-04-3.42233E-05-3.15840E-05 7.94884E-06 4.30872E-19 1.56300E-19
 -1      3610 6.03738E-05-1.13138E-05-2.10276E-05-1.56744E-06 2.69184E-19 2.18351E-18
 -1      3611 1.12152E-04-2.18651E-05-3.89146E-05 1.02776E-05 1.60223E-18-1.69527E-19
 -1      3612 1.07931E-04-2.11250E-05-3.72535E-05 8.33313E-06 1.43202E-18-1.70174E-19
 -1      3613 1.09870E-04-3.72141E-05-3.11866E-05 4.99998E-06 2.27168E-19-4.06672E-19
 -1      3614 1.09364E-04-3.71698E-05-3.09076E-05 3.78729E-06 3.02071E-19-3.72557E-19
 -1      3615 9.52515E-05-2.85834E-05-2.85720E-05-1.42450E-09-1.76749E-19 2.66481E-18
 -1      3616 9.52512E-05-2.85832E-05-2.85720E-05-3.79258E-09-1.37671E-19 1.66678E-18
 -1      3617 9.52521E-05-2.85826E-05-2.85726E-05-5.25942E-09 5.60748E-19 2.45402E-19
 -1      3618 1.08801E-04-3.03048E-05-3.36051E-05 9.86150E-06 4.30253E-19 1.22079E-19
 -1      3619 1.10034E-04-3.31979E-05-3.30018E-05 9.58153E-06 5.16793E-19 1.54517E-19
 -1      3620 1.10940E-04-2.94421E-05-3.49003E-05 1.05963E-05 6.59339E-19 3.11334E-19
 -1      3621 1.04480E-04-2.01694E-05-3.62236E-05 5.90334E-06 1.41354E-18-4.21612E-19
 -1      3622 1.07117E-04-1.89166E-05-3.78795E-05-7.82381E-06 1.75395E-18-1.77179E-18
 -1      3623 1.04107E-04-1.88412E-05-3.66222E-05-5.35720E-06 1.75995E-18-1.42030E-18
 -1      3624 1.09621E-04-1.89365E-05-3.89899E-05-8.65539E-06 1.80426E-18-2.22822E-18
 -1      3625 1.13697E-04-1.94309E-05-4.06294E-05-1.06541E-05 2.10871E-18-2.37545E-18
 -1      3626 1.15203E-04-2.30419E-05-3.95391E-05-1.24464E-05 1.89799E-18-2.59653E-18
 -1      3627 1.09532E-04-2.22952E-05-3.74068E-05-1.07809E-05 1.64533E-18-2.36414E-18
 -1      3628 1.06862E-04-1.57930E-05-3.91605E-05 1.58506E-07 1.93980E-18-9.57895E-19
 -1      3629 1.04973E-04-4.42770E-05-2.60448E-05 2.19822E-05-1.06299E-18-2.07066E-18
 -1      3630 9.80305E-05-4.08629E-05-2.42263E-05 2.69856E-05-1.59699E-18-2.03932E-18
 -1      3631 9.12822E-05-3.54080E-05-2.39773E-05 2.52570E-05-1.35459E-18-1.44523E-18
 -1      3632 6.66662E-05-1.67444E-05-2.13311E-05-2.31257E-05-1.87852E-18-3.50338E-18
 -1      3633 7.10169E-05-2.03544E-05-2.14807E-05-2.67797E-05-2.15231E-18-3.41397E-18
 -1      3634 7.91189E-05-2.39746E-05-2.35164E-05-2.55595E-05-1.96964E-18-2.85506E-18
 -1      3635 7.41593E-05-2.37768E-05-2.13842E-05 2.37710E-05-1.42237E-18-3.48170E-19
 -1      3636 1.29194E-04-4.96478E-05-3.41419E-05-1.24713E-06-4.49956E-19 5.97635E-19
 -1      3637 8.19218E-05-1.48943E-05-2.87279E-05-1.13984E-05-5.90040E-19-3.11984E-18
 -1      3638 9.69191E-05-2.67897E-05-3.00431E-05-7.13243E-06 1.10607E-19-1.92870E-18
 -1      3639 9.44356E-05-2.51605E-05-2.97002E-05-9.08793E-06-2.42808E-19-2.17210E-18
 -1      3640 9.47396E-05-2.69313E-05-2.91191E-05-1.14889E-05-4.29098E-19-2.05844E-18
 -1      3641 1.07677E-04-3.63061E-05-3.06427E-05 2.37945E-06 3.31477E-19-6.40066E-19
 -1      3642 1.06691E-04-3.52297E-05-3.05613E-05 1.54214E-06 3.55981E-19-8.63413E-19
 -1      3643 1.09746E-04-3.77970E-05-3.08668E-05 1.84953E-06 1.88237E-19-5.91070E-19
 -1      3644 7.29136E-05-9.99763E-06-2.70000E-05 3.69835E-06-5.96324E-19-2.94067E-18
 -1      3645 1.20949E-04-5.16931E-05-2.96778E-05 1.10107E-05-1.50360E-18-1.89820E-18
 -1      3646 1.14769E-04-4.90906E-05-2.82511E-05 1.48791E-05-1.24382E-18-1.91859E-18
 -1      3647 1.21057E-04-4.90582E-05-3.08158E-05 4.68296E-06-9.93843E-19-1.42069E-18
 -1      3648 1.26676E-04-3.99697E-05-3.72803E-05 8.74437E-06 5.98005E-19 9.33245E-19
 -1      3649 1.26759E-04-3.58664E-05-3.92088E-05 1.13787E-05 1.20504E-18 8.46398E-19
 -1      3650 1.21198E-04-3.08340E-05-3.88641E-05 1.22460E-05 1.32845E-18 7.01237E-19
 -1      3651 1.12214E-04-4.69028E-05-2.79841E-05-2.00299E-05-1.54269E-18-1.04311E-18
 -1      3652 1.18623E-04-5.10492E-05-2.88768E-05-1.83154E-05-1.61248E-18-7.58799E-19
 -1      3653 1.20927E-04-4.97616E-05-3.05194E-05-1.11084E-05-1.17305E-18-3.08121E-19
 -1      3654 9.52513E-05-2.85833E-05-2.85720E-05 3.31607E-09-4.02436E-20 5.26691E-18
 -1      3655 9.52515E-05-2.85835E-05-2.85720E-05 9.34387E-10-6.63567E-19 2.96944E-18
 -1      3656 9.52529E-05-2.85831E-05-2.85728E-05-4.18871E-10-5.54941E-19 2.05682E-18
 -1      3657 9.52524E-05-2.85829E-05-2.85726E-05 4.21591E-09-7.48766E-19 5.26780E-18
 -1      3658 7.23248E-05-8.94642E-06-2.71387E-05-7.30706E-06-8.94007E-19-3.03609E-18
 -1      3659 7.19271E-05-8.50449E-06-2.72657E-05-4.52459E-06-1.00510E-18-3.01740E-18
 -1      3660 1.03381E-04-1.82519E-05-3.65181E-05 3.04059E-06 1.32422E-18-6.25918E-19
 -1      3661 1.03465E-04-1.76072E-05-3.68487E-05-2.11642E-06 1.50835E-18-1.37189E-18
 -1      3662 6.85845E-05-8.65308E-06-2.56631E-05-2.78801E-06-7.16947E-19-3.18719E-18
 -1      3663 7.14100E-05-8.52197E-06-2.68895E-05-3.95029E-07-7.50132E-19-3.11379E-18
 -1      3664 1.04945E-04-3.36987E-05-3.05727E-05-4.85227E-07 4.02909E-19-1.14794E-18
 -1      3665 7.42894E-05-1.07827E-05-2.72806E-05-1.06980E-05-9.43148E-19-3.17267E-18
 -1      3666 7.19409E-05-1.06314E-05-2.62622E-05-1.03421E-05-1.02901E-18-3.07433E-18
 -1      3667 7.69894E-05-1.26538E-05-2.74729E-05-1.22352E-05-8.97833E-19-3.18522E-18
 -1      3668 8.28555E-05-1.87033E-05-2.75366E-05-2.95357E-06-9.85731E-19-9.09778E-19
 -1      3669 8.47046E-05-1.97367E-05-2.78717E-05-2.88568E-06-1.09976E-18-8.16234E-19
 -1      3670 8.63453E-05-2.07061E-05-2.81610E-05-3.06026E-06-9.35012E-19-8.89127E-19
 -1      3671 8.76749E-05-2.15772E-05-2.83478E-05-2.90115E-06-6.25801E-19-1.96861E-19
 -1      3672 8.49760E-05-2.00142E-05-2.77894E-05-1.33623E-06-1.18235E-18-9.56805E-19
 -1      3673 8.88899E-05-2.23963E-05-2.85167E-05-2.92673E-06-1.30071E-18 1.94100E-19
 -1      3674 8.98405E-05-2.31111E-05-2.86135E-05-2.71178E-06-1.14367E-18 5.25764E-19
 -1      3675 8.77498E-05-2.17297E-05-2.82578E-05-1.75852E-06-8.44747E-19-2.91142E-19
 -1      3676 9.07370E-05-2.37822E-05-2.87071E-05-2.64285E-06-1.15316E-18 8.11429E-19
 -1      3677 9.14102E-05-2.43542E-05-2.87500E-05-2.40488E-06-7.74938E-19 1.23331E-18
 -1      3678 8.98067E-05-2.31749E-05-2.85304E-05-1.86654E-06-8.51874E-19 9.14963E-19
 -1      3679 9.20683E-05-2.48929E-05-2.87968E-05-2.28433E-06-5.98190E-19 7.26447E-19
 -1      3680 9.25413E-05-2.53427E-05-2.88086E-05-2.04836E-06-6.31682E-20 1.35934E-19
 -1      3681 9.13235E-05-2.43608E-05-2.86796E-05-1.77960E-06-5.46349E-19 8.40753E-19
 -1      3682 9.30417E-05-2.57866E-05-2.88275E-05-1.89903E-06 4.27771E-19 2.44177E-19
 -1      3683 9.33842E-05-2.61506E-05-2.88215E-05-1.67186E-06 1.02964E-19 1.52153E-19
 -1      3684 9.24592E-05-2.53391E-05-2.87529E-05-1.58042E-06-7.07138E-20-6.91907E-19
 -1      3685 9.37276E-05-2.64783E-05-2.88230E-05-1.53015E-06-6.19772E-19 2.08067E-19
 -1      3686 9.39516E-05-2.67439E-05-2.88089E-05-1.33982E-06-9.02706E-19 2.13237E-19
 -1      3687 9.32820E-05-2.61109E-05-2.87786E-05-1.33795E-06-3.63752E-19-7.42513E-19
 -1      3688 9.41997E-05-2.69972E-05-2.88016E-05-1.20893E-06-8.95598E-19-6.16270E-21
 -1      3689 9.43543E-05-2.72014E-05-2.87842E-05-1.04780E-06-1.22974E-18-3.76868E-19
 -1      3690 9.38619E-05-2.67014E-05-2.87768E-05-1.09532E-06-1.00776E-18-6.46092E-19
 -1      3691 9.45329E-05-2.73962E-05-2.87727E-05-9.33537E-07-1.29654E-18 3.43791E-19
 -1      3692 9.46390E-05-2.75522E-05-2.87549E-05-8.01033E-07-4.29232E-19 8.87081E-20
 -1      3693 9.42808E-05-2.71618E-05-2.87610E-05-8.69886E-07-1.17297E-18-6.30561E-19
 -1      3694 9.47668E-05-2.77013E-05-2.87418E-05-7.05147E-07-1.81780E-19-1.30203E-19
 -1      3695 9.48393E-05-2.78200E-05-2.87251E-05-5.98757E-07-5.39422E-19-3.49981E-19
 -1      3696 9.45818E-05-2.75185E-05-2.87385E-05-6.72508E-07-5.69292E-19-3.72820E-19
 -1      3697 9.49301E-05-2.79335E-05-2.87122E-05-5.20780E-07-7.09637E-19-3.46625E-19
 -1      3698 9.49793E-05-2.80235E-05-2.86973E-05-4.37147E-07 1.63751E-20 2.52991E-20
 -1      3699 9.47968E-05-2.77931E-05-2.87139E-05-5.06788E-07-3.77499E-19 3.53971E-19
 -1      3700 9.50432E-05-2.81094E-05-2.86853E-05-3.75393E-07 4.58637E-19-3.66565E-19
 -1      3701 9.50763E-05-2.81774E-05-2.86725E-05-3.10863E-07 4.83525E-19 5.37030E-20
 -1      3702 9.49492E-05-2.80030E-05-2.86898E-05-3.72131E-07 4.54701E-20 1.25563E-18
 -1      3703 9.51226E-05-2.82447E-05-2.86614E-05-2.60824E-07-3.75784E-19 6.65659E-20
 -1      3704 9.51454E-05-2.82975E-05-2.86502E-05-2.10244E-07-5.76196E-19 7.73437E-19
 -1      3705 9.50581E-05-2.81656E-05-2.86673E-05-2.63521E-07 1.19094E-19 7.20180E-19
 -1      3706 9.51753E-05-2.83447E-05-2.86412E-05-1.74837E-07-8.46571E-19 1.26096E-18
 -1      3707 9.51892E-05-2.83818E-05-2.86325E-05-1.39240E-07-4.54453E-19 9.32189E-19
 -1      3708 9.51330E-05-2.82875E-05-2.86475E-05-1.80190E-07-6.86343E-20 1.57894E-18
 -1      3709 9.52091E-05-2.84166E-05-2.86249E-05-1.13065E-07 7.26118E-19 7.84205E-19
 -1      3710 9.52178E-05-2.84438E-05-2.86180E-05-8.72683E-08 1.85351E-18 1.71226E-18
 -1      3711 9.51821E-05-2.83755E-05-2.86310E-05-1.19390E-07 1.78117E-19 2.29781E-18
 -1      3712 9.52306E-05-2.84690E-05-2.86118E-05-6.84528E-08 1.14144E-18 1.75062E-18
 -1      3713 9.52358E-05-2.84887E-05-2.86063E-05-5.01925E-08 1.40821E-18 1.27059E-18
 -1      3714 9.52145E-05-2.84401E-05-2.86174E-05-7.47544E-08 1.45142E-18 1.64293E-18
 -1      3715 9.52436E-05-2.85066E-05-2.86013E-05-3.70438E-08 1.74767E-18 8.62777E-19
 -1      3716 9.52464E-05-2.85206E-05-2.85970E-05-2.44816E-08 9.26974E-19 1.32203E-18
 -1      3717 9.52350E-05-2.84869E-05-2.86062E-05-4.28321E-08 1.16634E-18 4.13806E-19
 -1      3718 9.52508E-05-2.85331E-05-2.85931E-05-1.56008E-08-1.05849E-19 9.40158E-19
 -1      3719 9.52520E-05-2.85428E-05-2.85898E-05-7.26434E-09-4.04763E-19 7.47971E-19
 -1      3720 9.52472E-05-2.85201E-05-2.85973E-05-2.06651E-08 7.53120E-19 6.25096E-19
 -1      3721 9.52541E-05-2.85513E-05-2.85868E-05-1.52672E-09-8.78858E-19 5.16038E-19
 -1      3722 9.52542E-05-2.85578E-05-2.85843E-05 3.75207E-09-1.44168E-18 1.01779E-18
 -1      3723 9.52537E-05-2.85431E-05-2.85902E-05-5.81671E-09-8.02230E-19 1.24835E-18
 -1      3724 9.52548E-05-2.85636E-05-2.85818E-05 7.38240E-09-1.84555E-18 2.75669E-19
 -1      3725 9.52543E-05-2.85680E-05-2.85799E-05 1.05556E-08-2.20681E-18 8.34482E-19
 -1      3726 9.52563E-05-2.85588E-05-2.85846E-05 3.81610E-09-1.69563E-18 3.49427E-19
 -1      3727 9.52538E-05-2.85713E-05-2.85781E-05 1.23684E-08-1.76446E-18-2.03623E-19
 -1      3728 9.52530E-05-2.85739E-05-2.85768E-05 1.38856E-08-1.80291E-18 5.22792E-19
 -1      3729 9.52564E-05-2.85690E-05-2.85803E-05 9.50599E-09-2.05131E-18 1.07734E-18
 -1      3730 9.52520E-05-2.85758E-05-2.85755E-05 1.46610E-08-2.68024E-18 1.17228E-18
 -1      3731 9.52510E-05-2.85773E-05-2.85745E-05 1.51775E-08-3.81463E-18 2.02810E-18
 -1      3732 9.52550E-05-2.85750E-05-2.85772E-05 1.23579E-08-1.54903E-18 1.29514E-18
 -1      3733 9.52498E-05-2.85783E-05-2.85735E-05 1.52595E-08-3.63389E-18 3.10615E-18
 -1      3734 9.52488E-05-2.85791E-05-2.85727E-05 1.51171E-08-1.44200E-18 2.16905E-18
 -1      3735 9.52527E-05-2.85784E-05-2.85748E-05 1.34380E-08-2.75145E-18 3.34645E-18
 -1      3736 9.52483E-05-2.85796E-05-2.85723E-05 1.45300E-08-8.84538E-19 2.55069E-18
 -1      3737 9.52482E-05-2.85803E-05-2.85720E-05 1.35825E-08 5.05687E-19 3.00572E-18
 -1      3738 9.52501E-05-2.85812E-05-2.85724E-05 1.17503E-08 7.11228E-20 3.02848E-18
 -1      3739 9.52511E-05-2.85802E-05-2.85733E-05 1.30204E-08-1.71568E-18 3.53085E-18
 -1      3740 1.11346E-04-2.67759E-05-3.63671E-05-1.16477E-05 1.63332E-18-2.62070E-18
 -1      3741 1.06776E-04-3.90711E-05-2.89508E-05 3.56207E-06-1.09842E-18-8.63662E-19
 -1      3742 1.08580E-04-4.03358E-05-2.92785E-05 2.34247E-06-1.18988E-18-1.36600E-18
 -1      3743 1.11318E-04-4.16349E-05-2.97850E-05 4.97063E-07-1.00081E-18-1.18591E-18
 -1      3744 1.12664E-04-4.19751E-05-3.03280E-05-1.38114E-06-3.14385E-19-1.13364E-18
 -1      3745 1.10578E-04-4.22436E-05-2.93629E-05 3.63700E-06-7.96332E-19-7.89577E-19
 -1      3746 9.95661E-05-3.31578E-05-2.84260E-05 5.33310E-06-1.05649E-18 9.60526E-20
 -1      3747 1.00926E-04-3.44775E-05-2.84780E-05 5.14091E-06-9.39844E-19-1.06732E-19
 -1      3748 9.73081E-05-3.09206E-05-2.84311E-05 5.04929E-06-6.62773E-19-2.04139E-19
 -1      3749 9.83031E-05-3.19490E-05-2.84297E-05 5.12423E-06-9.88945E-19 5.26716E-20
 -1      3750 9.81597E-05-3.23513E-05-2.82462E-05 6.30221E-06-8.42641E-19-4.30896E-19
 -1      3751 9.58407E-05-2.93307E-05-2.84931E-05 4.46777E-06-4.87632E-20-9.15045E-19
 -1      3752 9.65093E-05-3.00560E-05-2.84697E-05 4.68133E-06-2.63360E-19-8.92998E-19
 -1      3753 9.61430E-05-3.01610E-05-2.83070E-05 5.55048E-06 7.37651E-20-1.14644E-18
 -1      3754 9.49727E-05-2.83021E-05-2.85683E-05 3.78794E-06-1.95508E-19-6.33723E-19
 -1      3755 9.53854E-05-2.87675E-05-2.85405E-05 4.05836E-06 2.15314E-19-7.24768E-19
 -1      3756 9.49279E-05-2.86879E-05-2.84072E-05 4.66172E-06 5.64473E-19-5.83414E-19
 -1      3757 9.45261E-05-2.77103E-05-2.86344E-05 3.11802E-06-4.61720E-19-2.24557E-19
 -1      3758 9.47546E-05-2.79755E-05-2.86111E-05 3.39710E-06-3.65663E-19-4.14211E-19
 -1      3759 9.42837E-05-2.77905E-05-2.85079E-05 3.79440E-06-3.53451E-19 3.21274E-19
 -1      3760 9.43546E-05-2.74314E-05-2.86827E-05 2.50976E-06 8.12660E-20 7.90773E-19
 -1      3761 9.44595E-05-2.75538E-05-2.86671E-05 2.77219E-06-1.59791E-21 3.03767E-19
 -1      3762 9.40192E-05-2.73202E-05-2.85911E-05 3.02168E-06-4.58777E-19 7.70419E-19
 -1      3763 9.43500E-05-2.73610E-05-2.87119E-05 1.98387E-06-9.77732E-19 1.49034E-18
 -1      3764 9.43781E-05-2.73893E-05-2.87043E-05 2.21723E-06-1.23617E-19 1.09502E-18
 -1      3765 9.39893E-05-2.71427E-05-2.86510E-05 2.36613E-06-6.46075E-19 1.54272E-18
 -1      3766 9.44355E-05-2.74176E-05-2.87247E-05 1.54296E-06 6.82989E-19 1.36121E-18
 -1      3767 9.44201E-05-2.73889E-05-2.87238E-05 1.74336E-06-3.87207E-19 1.60463E-18
 -1      3768 9.40907E-05-2.71525E-05-2.86885E-05 1.82779E-06-5.10597E-19 9.39569E-19
 -1      3769 9.45615E-05-2.75434E-05-2.87248E-05 1.18154E-06 3.03081E-19 8.05164E-19
 -1      3770 9.45247E-05-2.74842E-05-2.87288E-05 1.34901E-06 6.65506E-19 9.33903E-19
 -1      3771 9.42543E-05-2.72697E-05-2.87072E-05 1.39400E-06 8.07897E-19 1.09194E-18
 -1      3772 9.46969E-05-2.76985E-05-2.87161E-05 8.90823E-07-2.07239E-19 1.22069E-18
 -1      3773 9.46527E-05-2.76268E-05-2.87233E-05 1.02777E-06-1.94303E-20 1.20364E-18
 -1      3774 9.44369E-05-2.74405E-05-2.87118E-05 1.05007E-06 7.05276E-20 9.68482E-19
 -1      3775 9.48240E-05-2.78577E-05-2.87020E-05 6.60613E-07-1.82881E-19 1.58642E-18
 -1      3776 9.47806E-05-2.77847E-05-2.87109E-05 7.70526E-07 1.27027E-19 1.34867E-18
 -1      3777 9.46126E-05-2.76282E-05-2.87065E-05 7.80787E-07-1.85919E-19 6.70328E-19
 -1      3778 9.49342E-05-2.80061E-05-2.86852E-05 4.80959E-07 1.51154E-19 1.31840E-18
 -1      3779 9.48958E-05-2.79385E-05-2.86948E-05 5.67661E-07 1.15706E-19 1.47457E-18
 -1      3780 9.47681E-05-2.78105E-05-2.86950E-05 5.72202E-07 5.75510E-20 7.78276E-19
 -1      3781 9.50246E-05-2.81364E-05-2.86678E-05 3.42784E-07 8.85001E-19 1.62961E-18
 -1      3782 9.49929E-05-2.80774E-05-2.86772E-05 4.10033E-07 2.69278E-19 1.80438E-18
 -1      3783 9.48982E-05-2.79752E-05-2.86803E-05 4.12351E-07 3.42633E-19 2.29476E-18
 -1      3784 9.50956E-05-2.82458E-05-2.86510E-05 2.38079E-07-1.76051E-19 1.60167E-18
 -1      3785 9.50707E-05-2.81964E-05-2.86597E-05 2.89368E-07 8.32504E-19 1.63520E-18
 -1      3786 9.50023E-05-2.81167E-05-2.86645E-05 2.91229E-07 5.46203E-19 3.70482E-18
 -1      3787 9.51492E-05-2.83344E-05-2.86357E-05 1.60001E-07-1.36009E-19 1.49771E-18
 -1      3788 9.51304E-05-2.82946E-05-2.86434E-05 1.98424E-07-6.67603E-19 1.21534E-18
 -1      3789 9.50826E-05-2.82338E-05-2.86489E-05 2.00556E-07-2.64135E-19 2.52773E-18
 -1      3790 9.51881E-05-2.84042E-05-2.86223E-05 1.02809E-07 1.84230E-19 1.27448E-18
 -1      3791 9.51746E-05-2.83730E-05-2.86289E-05 1.31041E-07 3.31437E-19 1.44562E-18
 -1      3792 9.51424E-05-2.83276E-05-2.86345E-05 1.33626E-07 2.56253E-19 2.27152E-18
 -1      3793 9.52151E-05-2.84576E-05-2.86108E-05 6.17593E-08 4.16211E-20 8.15301E-19
 -1      3794 9.52059E-05-2.84338E-05-2.86163E-05 8.20576E-08 4.81645E-19 6.61785E-19
 -1      3795 9.51853E-05-2.84008E-05-2.86216E-05 8.50189E-08 5.00889E-19 2.50856E-18
 -1      3796 9.52331E-05-2.84974E-05-2.86013E-05 3.29953E-08-8.61151E-19 1.30842E-18
 -1      3797 9.52271E-05-2.84797E-05-2.86058E-05 4.72229E-08-5.84533E-19 1.06129E-18
 -1      3798 9.52149E-05-2.84563E-05-2.86106E-05 5.03873E-08-6.59921E-19 3.63727E-20
 -1      3799 9.52442E-05-2.85263E-05-2.85936E-05 1.34317E-08-1.97364E-19 1.28974E-18
 -1      3800 9.52407E-05-2.85135E-05-2.85972E-05 2.30971E-08-4.47989E-19 1.27833E-18
 -1      3801 9.52343E-05-2.84974E-05-2.86014E-05 2.62839E-08-1.04603E-18 4.90969E-19
 -1      3802 9.52504E-05-2.85466E-05-2.85875E-05 6.35954E-10-8.92013E-20 1.53078E-18
 -1      3803 9.52486E-05-2.85376E-05-2.85903E-05 6.93826E-09-4.59476E-19 1.41699E-18
 -1      3804 9.52461E-05-2.85270E-05-2.85938E-05 9.99953E-09 1.18291E-19 7.78965E-19
 -1      3805 9.52531E-05-2.85603E-05-2.85827E-05-7.28122E-09-1.56727E-19 1.52422E-18
 -1      3806 9.52525E-05-2.85543E-05-2.85848E-05-3.40570E-09 4.12615E-19 1.13141E-18
 -1      3807 9.52526E-05-2.85477E-05-2.85878E-05-5.71970E-10 5.42835E-20 5.34175E-19
 -1      3808 9.52535E-05-2.85693E-05-2.85790E-05-1.17608E-08-9.49513E-19-4.74309E-20
 -1      3809 9.52537E-05-2.85654E-05-2.85806E-05-9.59609E-09-3.41568E-19 7.61191E-19
 -1      3810 9.52553E-05-2.85616E-05-2.85830E-05-7.04971E-09 4.87522E-19 1.04905E-19
 -1      3811 9.52525E-05-2.85748E-05-2.85762E-05-1.38801E-08-1.36453E-18-1.24333E-19
 -1      3812 9.52531E-05-2.85724E-05-2.85774E-05-1.28904E-08-1.60321E-18-1.14477E-19
 -1      3813 9.52555E-05-2.85705E-05-2.85793E-05-1.06563E-08-1.00206E-18 8.41467E-19
 -1      3814 9.52507E-05-2.85779E-05-2.85740E-05-1.44369E-08-4.01957E-19 5.10088E-19
 -1      3815 9.52515E-05-2.85766E-05-2.85750E-05-1.42317E-08-1.20544E-18-3.20347E-19
 -1      3816 9.52542E-05-2.85760E-05-2.85764E-05-1.23010E-08-1.45267E-18 9.68492E-19
 -1      3817 9.52486E-05-2.85795E-05-2.85724E-05-1.40244E-08 1.35084E-18 9.28764E-19
 -1      3818 9.52495E-05-2.85788E-05-2.85732E-05-1.43052E-08 7.94385E-19 1.31932E-18
 -1      3819 9.52522E-05-2.85790E-05-2.85743E-05-1.27395E-08-9.73262E-20 1.87577E-18
 -1      3820 9.52498E-05-2.85804E-05-2.85726E-05-1.23387E-08 6.63222E-19 1.58854E-18
 -1      3821 9.52516E-05-2.85818E-05-2.85728E-05 9.40472E-09-8.01089E-20 2.55264E-18
 -1      3822 9.52527E-05-2.85823E-05-2.85730E-05 7.16874E-09-1.33873E-18 4.42464E-18
 -1      3823 9.52522E-05-2.85813E-05-2.85732E-05 1.00833E-08-1.32788E-18 3.13835E-18
 -1      3824 6.59300E-05-1.56292E-05-2.15874E-05 1.42684E-05-1.31621E-18 5.51895E-20
 -1      3825 6.33322E-05-1.26806E-05-2.16329E-05 6.78609E-06-7.98074E-19 2.54004E-19
 -1      3826 9.96729E-05-2.82955E-05-3.05903E-05-2.93583E-06 5.46068E-19-1.71704E-18
 -1      3827 9.81873E-05-2.72846E-05-3.03641E-05-4.85681E-06 2.63038E-19-1.78784E-18
 -1      3828 9.94628E-05-2.94852E-05-2.99724E-05-6.88264E-06 1.45228E-20-1.64088E-18
 -1      3829 1.01191E-04-3.00888E-05-3.04884E-05-2.84473E-06 4.61824E-19-1.60540E-18
 -1      3830 9.52515E-05-2.85812E-05-2.85730E-05-1.01886E-08 8.81489E-19 1.04873E-18
 -1      3831 8.43191E-05-1.81187E-05-2.82771E-05-1.35060E-05-6.82791E-19-2.90990E-18
 -1      3832 8.06171E-05-1.56916E-05-2.79072E-05-1.34722E-05-8.72293E-19-3.09250E-18
 -1      3833 7.85577E-05-1.58537E-05-2.68962E-05-1.49125E-05-9.94006E-19-3.07109E-18
 -1      3834 8.76744E-05-2.21666E-05-2.80495E-05-1.48323E-05-7.86007E-19-2.65040E-18
 -1      3835 1.02745E-04-3.59912E-05-2.85571E-05 4.98514E-06-1.21230E-18-3.89660E-19
 -1      3836 1.04435E-04-3.74682E-05-2.87123E-05 4.35430E-06-1.07919E-18-6.63855E-19
 -1      3837 1.05328E-04-3.87940E-05-2.85951E-05 5.91620E-06-1.28829E-18-1.07722E-18
 -1      3838 7.16734E-05-1.41114E-05-2.47114E-05-1.91436E-06-7.54753E-20 1.81861E-19
 -1      3839 7.50437E-05-1.51882E-05-2.56935E-05-1.98403E-06-3.03741E-19 3.65047E-20
 -1      3840 6.43968E-05-1.21713E-05-2.23937E-05-1.21042E-06 1.02905E-19 1.35865E-18
 -1      3841 6.85635E-05-1.31284E-05-2.38069E-05-1.77803E-06 6.38517E-20 7.53423E-19
 -1      3842 7.02224E-05-1.38249E-05-2.40273E-05 2.38375E-06-7.05616E-19 2.69698E-20
 -1      3843 6.31694E-05-1.19585E-05-2.17820E-05 3.50119E-06-3.70531E-19 8.47642E-19
 -1      3844 6.51525E-05-8.46905E-06-2.43445E-05-2.70147E-06-7.63746E-19-3.44989E-18
 -1      3845 6.01833E-05-8.08507E-06-2.22845E-05-2.67839E-06-5.81177E-19-3.88275E-18
 -1      3846 5.94598E-05-8.19591E-06-2.16631E-05-8.41673E-06-9.79329E-19-3.92853E-18
 -1      3847 6.69686E-05-8.65377E-06-2.48496E-05-7.40560E-06-1.00591E-18-3.22607E-18
 -1      3848 7.80915E-05-1.64902E-05-2.64773E-05-2.47083E-06-7.38694E-19-3.59041E-19
 -1      3849 8.06625E-05-1.76528E-05-2.70526E-05-2.58648E-06-1.09409E-18-5.67424E-19
 -1      3850 8.12738E-05-1.80456E-05-2.70096E-05-4.84729E-07-1.24578E-18-1.20863E-18
 -1      3851 7.60465E-05-1.56750E-05-2.57257E-05 9.67783E-07-1.02359E-18 1.51222E-19
 -1      3852 1.10424E-04-3.52850E-05-3.22149E-05 8.09246E-06 4.34802E-19-8.44857E-20
 -1      3853 1.10829E-04-3.67645E-05-3.17322E-05 6.97565E-06 2.24390E-19-1.48469E-19
 -1      3854 1.12564E-04-3.84252E-05-3.17667E-05 5.33185E-06 1.35724E-19-3.86062E-19
 -1      3855 1.12997E-04-3.54001E-05-3.32192E-05 9.04229E-06 3.64773E-19 5.23473E-20
 -1      3856 1.24864E-04-4.85062E-05-3.27851E-05-2.12977E-06-5.79119E-19 4.10348E-19
 -1      3857 1.27373E-04-4.59509E-05-3.51056E-05 4.17741E-06-1.04192E-19 8.17837E-19
 -1      3858 8.01682E-05-2.66639E-05-2.30456E-05 2.28659E-05-1.14471E-18-2.17012E-19
 -1      3859 7.16117E-05-1.99300E-05-2.19793E-05 1.92701E-05-1.29425E-18-2.42463E-20
 -1      3860 7.29163E-05-1.86216E-05-2.31363E-05 1.44127E-05-1.09302E-18-4.02672E-20
 -1      3861 1.01205E-04-3.53018E-05-2.82990E-05 6.60198E-06-1.20280E-18-7.48832E-19
 -1      3862 8.55633E-05-2.65226E-05-2.51357E-05-2.39274E-05-1.65161E-18-2.55237E-18
 -1      3863 9.12701E-05-3.01909E-05-2.62721E-05-2.20753E-05-1.52353E-18-2.28824E-18
 -1      3864 1.13690E-04-2.54900E-05-3.78634E-05 1.15387E-05 1.36048E-18 1.65383E-19
 -1      3865 1.22924E-04-4.91198E-05-3.16243E-05-5.41070E-06-8.49170E-19 1.54226E-19
 -1      3866 1.21707E-04-4.55643E-05-3.25975E-05 4.38509E-07-4.97751E-19 5.03793E-19
 -1      3867 1.18306E-04-4.72922E-05-3.04864E-05-8.68923E-06-8.85494E-19-3.32961E-19
 -1      3868 9.52540E-05-2.85824E-05-2.85736E-05-4.18590E-09 3.58092E-19-4.11804E-19
 -1      3869 9.52532E-05-2.85820E-05-2.85734E-05-6.64084E-09 1.16474E-18-1.26373E-18
 -1      3870 1.15459E-04-3.00209E-05-3.67413E-05 1.14283E-05 1.06863E-18 4.63539E-19
 -1      3871 6.75431E-05-1.38073E-05-2.29875E-05 6.12420E-06-3.91418E-19-3.44617E-19
 -1      3872 1.02043E-04-3.80186E-05-2.73929E-05-2.00397E-05-1.26800E-18-1.64547E-18
 -1      3873 1.07134E-04-4.26700E-05-2.74863E-05-2.07350E-05-1.40321E-18-1.16807E-18
 -1      3874 1.11172E-04-4.39382E-05-2.88479E-05-1.53345E-05-1.29016E-18-8.46540E-19
 -1      3875 6.01428E-05-9.97041E-06-2.14847E-05-1.27115E-05-1.21399E-18-3.82637E-18
 -1      3876 6.30507E-05-1.24575E-05-2.14054E-05-1.84150E-05-1.57191E-18-3.58875E-18
 -1      3877 6.46133E-05-1.01373E-05-2.33526E-05-1.18792E-05-1.25063E-18-3.51580E-18
 -1      3878 1.15293E-04-2.87915E-05-3.72062E-05-1.19545E-05 1.46287E-18-2.29433E-18
 -1      3879 1.18456E-04-2.98120E-05-3.82303E-05-1.25204E-05 1.34061E-18-2.65428E-18
 -1      3880 1.21866E-04-3.70819E-05-3.62497E-05-1.10524E-05 1.58329E-19-2.41901E-18
 -1      3881 9.52544E-05-2.85821E-05-2.85738E-05 5.39825E-09-1.97548E-18 5.29001E-18
 -1      3882 9.52535E-05-2.85825E-05-2.85733E-05 4.78210E-09-1.20701E-18 4.71562E-18
 -1      3883 9.52540E-05-2.85828E-05-2.85734E-05 2.52356E-09-6.61155E-19 3.60264E-18
 -1      3884 1.10411E-04-4.65798E-05-2.72269E-05 1.79179E-05-1.16544E-18-1.97192E-18
 -1      3885 1.03705E-04-4.22611E-05-2.64174E-05 1.93556E-05-9.46798E-19-1.87806E-18
 -1      3886 1.13306E-04-4.68824E-05-2.84970E-05 1.21786E-05-7.92834E-19-1.26970E-18
 -1      3887 9.37003E-05-3.51988E-05-2.51130E-05 2.15536E-05-1.36770E-18-1.45124E-18
 -1      3888 8.69267E-05-3.07008E-05-2.38923E-05 2.31221E-05-1.39458E-18-9.29725E-19
 -1      3889 8.37336E-05-2.71346E-05-2.42537E-05 1.97553E-05-1.17240E-18-7.84597E-19
 -1      3890 7.03862E-05-1.61487E-05-2.31395E-05-2.02297E-05-1.67231E-18-3.20291E-18
 -1      3891 9.52533E-05-2.85808E-05-2.85739E-05-9.19553E-09 9.45756E-19 4.82928E-19
 -1      3892 1.23644E-04-4.03847E-05-3.56597E-05 8.11387E-06 2.48968E-19 6.96076E-19
 -1      3893 1.22556E-04-4.25214E-05-3.45132E-05-7.06221E-06-1.29626E-19-2.07782E-18
 -1      3894 1.22151E-04-4.61853E-05-3.24650E-05-2.29191E-06-1.83277E-19-1.83408E-18
 -1      3895 1.19740E-04-3.98604E-05-3.42689E-05-8.50260E-06 2.07159E-20-1.76186E-18
 -1      3896 1.14439E-04-3.22687E-05-3.51770E-05-1.17706E-05 7.53409E-19-2.37519E-18
 -1      3897 1.15928E-04-4.20690E-05-3.16681E-05-4.71846E-06-6.20551E-20-1.44421E-18
 -1      3898 1.16342E-04-4.02104E-05-3.26152E-05-7.11655E-06 1.02531E-19-1.70853E-18
 -1      3899 8.95395E-05-2.50609E-05-2.75447E-05-1.70869E-05-1.05971E-18-2.56307E-18
 -1      3900 8.45122E-05-2.18177E-05-2.68456E-05-1.82058E-05-1.19166E-18-2.75058E-18
 -1      3901 1.11706E-04-3.97203E-05-3.08804E-05 2.23968E-07-9.97381E-20-6.34059E-19
 -1      3902 1.10000E-04-3.83334E-05-3.05753E-05-1.11676E-06-2.11460E-20-7.22562E-19
 -1      3903 1.20658E-04-4.78911E-05-3.12966E-05 1.87844E-06-4.80612E-19-1.45700E-18
 -1      3904 1.17924E-04-4.77605E-05-3.00308E-05 5.52679E-06-1.06130E-18-7.47470E-19
 -1      3905 1.19111E-04-4.55485E-05-3.15630E-05-9.92231E-07-3.74534E-19-1.22867E-18
 -1      3906 6.90725E-05-1.07096E-05-2.50288E-05-1.13736E-05-1.10717E-18-3.29712E-18
 -1      3907 9.93909E-05-3.13477E-05-2.91811E-05-1.15627E-05-3.64428E-19-1.72508E-18
 -1      3908 9.59534E-05-2.92833E-05-2.86334E-05-1.39269E-05-6.67925E-19-1.98700E-18
 -1      3909 8.06895E-05-2.28045E-05-2.47824E-05-2.25688E-05-1.63332E-18-2.82823E-18
 -1      3910 1.16853E-04-4.20886E-05-3.20981E-05 2.70620E-06-2.30089E-19-8.99716E-20
 -1      3911 1.15570E-04-4.21952E-05-3.14093E-05 6.10773E-07-2.64036E-19-3.33623E-19
 -1      3912 1.15435E-04-3.63168E-05-3.40343E-05-1.01926E-05 2.30087E-19-1.84103E-18
 -1      3913 9.40550E-05-2.97416E-05-2.75602E-05-1.76384E-05-9.83908E-19-2.19043E-18
 -1      3914 1.15227E-04-4.32022E-05-3.09116E-05-3.26643E-06-3.68706E-19-3.84718E-19
 -1      3915 7.03333E-05-1.46651E-05-2.39092E-05 5.65015E-06-8.84632E-19-2.86502E-19
 -1      3916 1.13568E-04-4.44429E-05-2.95708E-05-1.14049E-05-1.05725E-18-7.75505E-19
 -1      3917 1.15303E-04-4.39355E-05-3.05170E-05-6.11267E-06-7.02132E-19-4.77746E-19
 -1      3918 1.11382E-04-4.07647E-05-3.01320E-05-5.97733E-06-4.12371E-19-8.41906E-19
 -1      3919 1.08356E-04-4.06059E-05-2.90780E-05-1.27698E-05-8.42497E-19-1.01296E-18
 -1      3920 1.06392E-04-3.56956E-05-3.03610E-05-2.41169E-06 1.23740E-19-1.11627E-18
 -1      3921 1.03174E-04-3.21149E-05-3.04000E-05-2.91953E-06 2.50273E-19-1.45385E-18
 -1      3922 1.18264E-04-3.88633E-05-3.40734E-05 7.68529E-06 1.34612E-19 2.83683E-19
 -1      3923 1.18592E-04-4.13953E-05-3.31087E-05 5.81209E-06-1.94983E-19 1.46843E-19
 -1      3924 8.40704E-05-1.99722E-05-2.75174E-05 4.59207E-07-1.67807E-18-2.85962E-19
 -1      3925 8.56953E-05-2.08033E-05-2.78184E-05 3.03264E-08-8.93661E-19-5.78489E-19
 -1      3926 1.03376E-04-3.76528E-05-2.80963E-05 8.67066E-06-1.30200E-18-9.95436E-19
 -1      3927 1.05939E-04-3.97131E-05-2.83437E-05 8.02942E-06-1.10076E-18-9.28037E-19
 -1      3928 8.69331E-05-2.15349E-05-2.80599E-05-4.89002E-07-3.72464E-19-4.60105E-19
 -1      3929 8.81409E-05-2.22623E-05-2.82407E-05-6.98065E-07-4.33601E-19-1.91473E-19
 -1      3930 8.64341E-05-2.14195E-05-2.78269E-05 1.13066E-06-5.43871E-19-4.75098E-19
 -1      3931 8.91001E-05-2.29060E-05-2.83907E-05-9.83349E-07-7.53340E-19-1.82091E-19
 -1      3932 8.99933E-05-2.35206E-05-2.84948E-05-1.04165E-06-6.28019E-19 1.10959E-19
 -1      3933 8.85744E-05-2.26649E-05-2.82205E-05 1.56728E-07-3.37587E-19-9.42717E-19
 -1      3934 9.07352E-05-2.40731E-05-2.85841E-05-1.17302E-06-6.59396E-19 1.12042E-19
 -1      3935 9.13921E-05-2.45797E-05-2.86395E-05-1.14134E-06-9.96559E-19-4.78585E-20
 -1      3936 9.02366E-05-2.37743E-05-2.84638E-05-3.77287E-07-6.85907E-19-1.13052E-18
 -1      3937 9.19845E-05-2.50604E-05-2.86912E-05-1.17601E-06-5.66743E-19-4.58848E-19
 -1      3938 9.24839E-05-2.54896E-05-2.87168E-05-1.09142E-06-7.04659E-20-7.16718E-19
 -1      3939 9.15446E-05-2.47559E-05-2.86093E-05-6.28720E-07-8.82552E-19-1.10140E-18
 -1      3940 9.29083E-05-2.58619E-05-2.87402E-05-1.06883E-06-4.07213E-19-5.91792E-19
 -1      3941 9.32516E-05-2.61866E-05-2.87467E-05-9.67657E-07-5.09340E-19-7.19267E-19
 -1      3942 9.25382E-05-2.55759E-05-2.86876E-05-7.03627E-07-1.56935E-19-6.74775E-19
 -1      3943 9.35725E-05-2.64862E-05-2.87548E-05-9.18075E-07-6.13772E-19-1.12255E-18
 -1      3944 9.38211E-05-2.67443E-05-2.87511E-05-8.14731E-07-1.21959E-18-1.00502E-18
 -1      3945 9.32710E-05-2.62342E-05-2.87223E-05-6.72061E-07-8.01225E-19-9.91115E-19
 -1      3946 9.40611E-05-2.69827E-05-2.87499E-05-7.55426E-07-1.00112E-18-6.43199E-19
 -1      3947 9.42402E-05-2.71855E-05-2.87410E-05-6.59599E-07-7.71440E-19-2.17149E-19
 -1      3948 9.38225E-05-2.67689E-05-2.87317E-05-5.92184E-07-5.90542E-19-1.12435E-18
 -1      3949 9.44183E-05-2.73733E-05-2.87347E-05-6.00302E-07-9.16384E-19 9.78257E-19
 -1      3950 9.45465E-05-2.75314E-05-2.87234E-05-5.16600E-07-7.61619E-19 4.62520E-19
 -1      3951 9.42338E-05-2.71972E-05-2.87260E-05-4.93760E-07-3.70184E-19 3.18234E-19
 -1      3952 9.46775E-05-2.76780E-05-2.87146E-05-4.62669E-07-1.15276E-19 7.45780E-19
 -1      3953 9.47687E-05-2.78003E-05-2.87028E-05-3.92622E-07 3.89124E-19 1.37495E-18
 -1      3954 9.45381E-05-2.75364E-05-2.87121E-05-3.94501E-07-2.73517E-19 1.59622E-18
 -1      3955 9.48640E-05-2.79138E-05-2.86931E-05-3.46413E-07-3.48997E-19 1.97820E-18
 -1      3956 9.49283E-05-2.80077E-05-2.86819E-05-2.89650E-07-2.91525E-19 1.40782E-18
 -1      3957 9.47609E-05-2.78022E-05-2.86945E-05-3.03956E-07 3.63825E-19 1.39814E-18
 -1      3958 9.49996E-05-2.80984E-05-2.86719E-05-2.49919E-07-1.69429E-19 1.01750E-18
 -1      3959 9.50461E-05-2.81727E-05-2.86613E-05-2.03588E-07-1.04024E-19 1.17007E-18
 -1      3960 9.49256E-05-2.80127E-05-2.86755E-05-2.24702E-07-4.59055E-19 1.98344E-18
 -1      3961 9.50938E-05-2.82375E-05-2.86526E-05-1.74166E-07-5.62212E-21 1.00932E-18
 -1      3962 9.51238E-05-2.82905E-05-2.86437E-05-1.40398E-07-2.51644E-19 1.39039E-18
 -1      3963 9.50424E-05-2.81733E-05-2.86572E-05-1.60266E-07-1.40463E-19 2.04154E-18
 -1      3964 9.51568E-05-2.83389E-05-2.86361E-05-1.17823E-07-6.81666E-19 2.01238E-18
 -1      3965 9.51769E-05-2.83783E-05-2.86286E-05-9.25753E-08 6.10813E-19 2.08228E-18
 -1      3966 9.51219E-05-2.82914E-05-2.86410E-05-1.10942E-07-3.90766E-20 9.08013E-19
 -1      3967 9.51991E-05-2.84140E-05-2.86220E-05-7.58078E-08 1.24443E-18 1.90252E-18
 -1      3968 9.52121E-05-2.84429E-05-2.86158E-05-5.73912E-08 1.02028E-18 1.29686E-18
 -1      3969 9.51763E-05-2.83795E-05-2.86268E-05-7.33030E-08 5.69618E-19 1.23392E-18
 -1      3970 9.52265E-05-2.84688E-05-2.86103E-05-4.53016E-08 7.68896E-19 1.56512E-18
 -1      3971 9.52345E-05-2.84895E-05-2.86053E-05-3.22247E-08 9.01951E-19 5.22151E-19
 -1      3972 9.52125E-05-2.84443E-05-2.86147E-05-4.54376E-08 6.78795E-19 9.58368E-19
 -1      3973 9.52434E-05-2.85079E-05-2.86008E-05-2.37878E-08 1.01876E-18 2.83641E-19
 -1      3974 9.52479E-05-2.85225E-05-2.85968E-05-1.47877E-08 9.21471E-19 3.99563E-19
 -1      3975 9.52355E-05-2.84911E-05-2.86046E-05-2.54265E-08 7.20850E-19 7.97391E-19
 -1      3976 9.52529E-05-2.85353E-05-2.85931E-05-9.11986E-09-3.22966E-19 3.64907E-19
 -1      3977 9.52550E-05-2.85453E-05-2.85900E-05-3.14978E-09-1.66811E-18-9.37562E-20
 -1      3978 9.52492E-05-2.85241E-05-2.85964E-05-1.15236E-08 8.13119E-20-1.01834E-18
 -1      3979 9.52574E-05-2.85543E-05-2.85870E-05 6.34813E-10-1.52553E-18-3.45709E-19
 -1      3980 9.52580E-05-2.85611E-05-2.85844E-05 4.48918E-09-1.56391E-18 2.63868E-19
 -1      3981 9.52565E-05-2.85472E-05-2.85897E-05-2.09475E-09-1.05910E-18-1.05791E-18
 -1      3982 9.52585E-05-2.85665E-05-2.85822E-05 6.55397E-09-2.23472E-18 7.63621E-19
 -1      3983 9.52580E-05-2.85706E-05-2.85804E-05 8.65460E-09-1.82791E-18 3.41643E-20
 -1      3984 9.52593E-05-2.85624E-05-2.85844E-05 3.83603E-09-1.32005E-18-6.64843E-19
 -1      3985 9.52575E-05-2.85739E-05-2.85786E-05 9.72924E-09-5.40791E-19 2.98501E-19
 -1      3986 9.52565E-05-2.85764E-05-2.85772E-05 1.07549E-08-1.08488E-18 8.80966E-19
 -1      3987 9.52592E-05-2.85718E-05-2.85803E-05 7.15612E-09-7.96284E-19 9.54534E-20
 -1      3988 9.52553E-05-2.85782E-05-2.85759E-05 1.11522E-08-1.55144E-18 2.32797E-18
 -1      3989 9.52540E-05-2.85795E-05-2.85748E-05 1.14411E-08-1.65893E-18 2.89099E-18
 -1      3990 9.52574E-05-2.85773E-05-2.85772E-05 8.81409E-09-4.14426E-19 8.56757E-19
 -1      3991 9.52534E-05-2.85801E-05-2.85742E-05 1.10705E-08-2.30344E-18 3.42671E-18
 -1      3992 9.52529E-05-2.85808E-05-2.85738E-05 1.05090E-08-1.44472E-18 3.53610E-18
 -1      3993 9.52543E-05-2.85814E-05-2.85741E-05 8.22990E-09-2.19834E-18 6.37506E-18
 -1      3994 9.52557E-05-2.85801E-05-2.85753E-05 8.96922E-09-8.96638E-19 4.04754E-18
 -1      3995 9.38818E-05-2.77755E-05-2.83301E-05 4.67232E-06-3.89587E-19 3.40358E-19
 -1      3996 9.43391E-05-2.83313E-05-2.82713E-05 5.15868E-06 3.22023E-19-3.05491E-19
 -1      3997 1.08785E-04-4.25448E-05-2.83252E-05 9.71429E-06-6.88889E-19-1.27484E-18
 -1      3998 1.11829E-04-4.46045E-05-2.88331E-05 8.34677E-06-2.71267E-19-7.67734E-19
 -1      3999 1.16711E-04-4.41428E-05-3.11238E-05-1.18342E-06-2.36573E-19-1.20033E-18
 -1      4000 9.47586E-05-2.89845E-05-2.81806E-05 5.86066E-06 2.41429E-19-1.36603E-18
 -1      4001 9.55633E-05-2.98844E-05-2.81271E-05 6.35429E-06-3.81866E-19-1.14394E-18
 -1      4002 9.35550E-05-2.80444E-05-2.80956E-05 5.89882E-06-3.66844E-19 7.58032E-20
 -1      4003 9.64049E-05-3.09285E-05-2.80417E-05 7.11367E-06-3.90855E-19-1.32357E-18
 -1      4004 9.76840E-05-3.22575E-05-2.80185E-05 7.51991E-06-7.90306E-19-1.15245E-18
 -1      4005 9.47552E-05-2.97399E-05-2.78986E-05 7.49113E-06-5.01829E-19-1.61025E-18
 -1      4006 9.35241E-05-2.71227E-05-2.84602E-05 3.64342E-06-6.07148E-19 1.20756E-18
 -1      4007 9.37420E-05-2.74214E-05-2.84091E-05 4.07456E-06-4.29284E-19 9.54198E-19
 -1      4008 9.30371E-05-2.70728E-05-2.82799E-05 4.51912E-06-8.50325E-19 1.20162E-18
 -1      4009 9.34790E-05-2.68471E-05-2.85606E-05 2.79755E-06-7.29420E-19 1.51836E-18
 -1      4010 9.35450E-05-2.69704E-05-2.85218E-05 3.16239E-06-4.86290E-19 1.04585E-18
 -1      4011 9.29459E-05-2.66190E-05-2.84298E-05 3.40670E-06-3.74316E-19 1.41886E-18
 -1      4012 9.36145E-05-2.68212E-05-2.86304E-05 2.12178E-06-8.04505E-19 1.31402E-18
 -1      4013 9.35897E-05-2.68295E-05-2.86044E-05 2.41929E-06-8.72521E-19 1.16636E-18
 -1      4014 9.30930E-05-2.64988E-05-2.85412E-05 2.53457E-06-5.43072E-19 1.06402E-18
 -1      4015 9.38336E-05-2.69388E-05-2.86738E-05 1.59381E-06-1.21651E-19 1.87766E-19
 -1      4016 9.37629E-05-2.68814E-05-2.86588E-05 1.83290E-06-3.58162E-19 5.76286E-19
 -1      4017 9.33621E-05-2.65881E-05-2.86171E-05 1.86953E-06-1.16519E-19 3.98278E-19
 -1      4018 9.40819E-05-2.71337E-05-2.86962E-05 1.18548E-06 5.99881E-19 8.23145E-19
 -1      4019 9.39922E-05-2.70416E-05-2.86899E-05 1.37417E-06 2.21793E-19 1.63792E-19
 -1      4020 9.36730E-05-2.67858E-05-2.86641E-05 1.36740E-06 1.79070E-19-5.66082E-19
 -1      4021 9.43231E-05-2.73572E-05-2.87031E-05 8.73592E-07-9.29741E-20 6.84311E-19
 -1      4022 9.42314E-05-2.72527E-05-2.87031E-05 1.02100E-06 6.89275E-19 9.04861E-19
 -1      4023 9.39825E-05-2.70374E-05-2.86886E-05 9.93826E-07 3.87359E-19 3.15334E-19
 -1      4024 9.45389E-05-2.75798E-05-2.86996E-05 6.36949E-07-1.71979E-19 4.08282E-19
 -1      4025 9.44548E-05-2.74764E-05-2.87036E-05 7.51066E-07-3.22765E-19 2.80196E-19
 -1      4026 9.42635E-05-2.72989E-05-2.86970E-05 7.17247E-07 3.93878E-19 8.52120E-19
 -1      4027 9.47215E-05-2.77846E-05-2.86895E-05 4.58593E-07-6.05608E-19 1.01024E-18
 -1      4028 9.46494E-05-2.76899E-05-2.86960E-05 5.46169E-07-6.26557E-19 6.03996E-19
 -1      4029 9.45047E-05-2.75464E-05-2.86945E-05 5.13316E-07-6.21920E-19 8.57621E-19
 -1      4030 9.48697E-05-2.79632E-05-2.86760E-05 3.25108E-07 1.83710E-20 2.66865E-18
 -1      4031 9.48108E-05-2.78810E-05-2.86836E-05 3.91698E-07-3.96375E-19 2.11351E-18
 -1      4032 9.47032E-05-2.77669E-05-2.86854E-05 3.63499E-07-1.22921E-18 1.21851E-18
 -1      4033 9.49858E-05-2.81130E-05-2.86611E-05 2.26050E-07 3.80793E-19 2.21352E-18
 -1      4034 9.49396E-05-2.80444E-05-2.86690E-05 2.76170E-07 1.12646E-18 2.39424E-18
 -1      4035 9.48612E-05-2.79553E-05-2.86727E-05 2.53923E-07 4.59997E-19 1.58178E-18
 -1      4036 9.50738E-05-2.82347E-05-2.86463E-05 1.53193E-07-2.70007E-20 1.61089E-18
 -1      4037 9.50388E-05-2.81792E-05-2.86539E-05 1.90474E-07-2.02624E-19 2.30074E-18
 -1      4038 9.49829E-05-2.81108E-05-2.86585E-05 1.74173E-07 6.12489E-19 1.73178E-18
 -1      4039 9.51385E-05-2.83309E-05-2.86326E-05 1.00272E-07 1.58389E-19 1.59430E-18
 -1      4040 9.51129E-05-2.82872E-05-2.86394E-05 1.27623E-07 4.12398E-19 1.77447E-18
 -1      4041 9.50741E-05-2.82356E-05-2.86443E-05 1.16510E-07 6.88157E-20 1.22682E-18
 -1      4042 9.51843E-05-2.84050E-05-2.86203E-05 6.23861E-08 6.22961E-19 1.73886E-18
 -1      4043 9.51664E-05-2.83714E-05-2.86262E-05 8.21270E-08 3.14808E-19 2.07097E-18
 -1      4044 9.51403E-05-2.83333E-05-2.86310E-05 7.52394E-08 3.05519E-19 1.58668E-18
 -1      4045 9.52156E-05-2.84607E-05-2.86097E-05 3.57545E-08-8.88040E-19 1.74157E-18
 -1      4046 9.52036E-05-2.84356E-05-2.86147E-05 4.97237E-08-3.39075E-19 1.81366E-18
 -1      4047 9.51869E-05-2.84080E-05-2.86192E-05 4.60621E-08-4.93479E-20 2.44864E-18
 -1      4048 9.52360E-05-2.85015E-05-2.86008E-05 1.74681E-08-2.04449E-19 8.53096E-19
 -1      4049 9.52283E-05-2.84832E-05-2.86050E-05 2.71129E-08-7.13270E-19 1.53040E-18
 -1      4050 9.52183E-05-2.84637E-05-2.86089E-05 2.57800E-08-5.69017E-19 2.38758E-18
 -1      4051 9.52482E-05-2.85306E-05-2.85934E-05 5.29461E-09-1.36615E-19 9.56698E-19
 -1      4052 9.52438E-05-2.85176E-05-2.85969E-05 1.17445E-08 3.10891E-20 1.21796E-18
 -1      4053 9.52385E-05-2.85043E-05-2.86002E-05 1.19964E-08-2.05578E-19 1.30172E-18
 -1      4054 9.52547E-05-2.85507E-05-2.85875E-05-2.46522E-09 6.61303E-19 1.31356E-18
 -1      4055 9.52525E-05-2.85417E-05-2.85903E-05 1.66300E-09-1.42891E-20 1.32341E-18
 -1      4056 9.52504E-05-2.85330E-05-2.85931E-05 2.91885E-09-2.53065E-19 1.80193E-18
 -1      4057 9.52572E-05-2.85640E-05-2.85829E-05-7.10009E-09 6.80486E-19 1.65068E-18
 -1      4058 9.52566E-05-2.85581E-05-2.85850E-05-4.62694E-09 1.22858E-18 2.08616E-18
 -1      4059 9.52565E-05-2.85527E-05-2.85873E-05-2.79935E-09 4.99443E-19 3.00212E-18
 -1      4060 9.52572E-05-2.85724E-05-2.85792E-05-9.56416E-09-1.31599E-18 9.78582E-19
 -1      4061 9.52576E-05-2.85688E-05-2.85809E-05-8.24642E-09-2.41691E-19 1.26054E-18
 -1      4062 9.52587E-05-2.85657E-05-2.85827E-05-6.15805E-09 1.45292E-19 2.60370E-18
 -1      4063 9.52556E-05-2.85774E-05-2.85764E-05-1.05296E-08-1.07012E-18 4.67015E-19
 -1      4064 9.52566E-05-2.85753E-05-2.85776E-05-1.00286E-08-1.27716E-18 4.67778E-19
 -1      4065 9.52583E-05-2.85738E-05-2.85791E-05-7.89027E-09-9.67958E-19-1.22371E-19
 -1      4066 9.52541E-05-2.85799E-05-2.85746E-05-9.96867E-09 3.62269E-20 1.04141E-18
 -1      4067 9.52551E-05-2.85787E-05-2.85756E-05-9.88891E-09-6.20430E-19 1.14918E-18
 -1      4068 9.52572E-05-2.85783E-05-2.85767E-05-7.85053E-09-1.06829E-18-2.29098E-19
 -1      4069 9.52559E-05-2.85807E-05-2.85751E-05-6.44863E-09-3.89887E-20-1.55785E-18
 -1      4070 7.98592E-05-1.85226E-05-2.62639E-05-1.73753E-05-1.22852E-18-2.94800E-18
 -1      4071 1.02377E-04-3.19701E-05-3.02073E-05-4.75567E-06 4.94853E-20-1.41537E-18
 -1      4072 7.22644E-05-1.66066E-05-2.37641E-05 1.04191E-05-6.85667E-19-2.38188E-19
 -1      4073 7.42442E-05-1.65839E-05-2.47193E-05 6.71288E-06-9.50277E-19-6.56053E-20
 -1      4074 7.67968E-05-2.08173E-05-2.40615E-05 1.49659E-05-9.22458E-19-1.58058E-19
 -1      4075 1.07935E-04-3.74858E-05-3.02916E-05-4.24959E-06-1.02061E-19-1.08340E-18
 -1      4076 9.91650E-05-3.38077E-05-2.79715E-05 8.20837E-06-1.24626E-18-9.54613E-19
 -1      4077 1.01026E-04-3.55833E-05-2.80285E-05 8.31316E-06-1.41001E-18-1.28558E-18
 -1      4078 9.69869E-05-3.24096E-05-2.77342E-05 9.18461E-06-8.71946E-19-1.95937E-18
 -1      4079 1.01528E-04-3.16182E-05-2.99126E-05-6.93271E-06-1.07299E-19-1.58248E-18
 -1      4080 1.03135E-04-3.41106E-05-2.95100E-05-9.17910E-06-4.38303E-19-1.43532E-18
 -1      4081 7.41629E-05-1.61141E-05-2.48361E-05-1.87721E-05-1.41217E-18-3.09006E-18
 -1      4082 9.52543E-05-2.85827E-05-2.85735E-05 3.21651E-10-2.71413E-19 2.59427E-18
 -1      4083 9.52542E-05-2.85826E-05-2.85735E-05-1.98938E-09-3.09589E-19 2.00320E-18
 -1      4084 9.52553E-05-2.85818E-05-2.85743E-05-3.43441E-09 3.44822E-19-3.22305E-19
 -1      4085 9.52553E-05-2.85822E-05-2.85742E-05 8.80571E-10 1.13964E-19 2.26390E-18
 -1      4086 1.06889E-04-3.77343E-05-2.96344E-05-8.71117E-06-5.04971E-19-1.18587E-18
 -1      4087 9.92152E-05-3.43981E-05-2.76148E-05-1.83138E-05-1.09619E-18-1.70668E-18
 -1      4088 1.03436E-04-3.70881E-05-2.85400E-05-1.52726E-05-8.61983E-19-1.30833E-18
 -1      4089 8.24688E-05-1.91676E-05-2.71356E-05 1.33552E-06-1.43496E-18-5.20197E-19
 -1      4090 8.36889E-05-2.00988E-05-2.72064E-05 2.75507E-06-1.42380E-18-3.72252E-19
 -1      4091 8.01620E-05-1.81500E-05-2.66505E-05 2.01373E-06-1.23887E-18-5.04430E-19
 -1      4092 9.52560E-05-2.85810E-05-2.85750E-05 6.20056E-09-7.22683E-19 5.05066E-18
 -1      4093 9.52553E-05-2.85816E-05-2.85744E-05 5.80221E-09-1.19065E-18 4.83518E-18
 -1      4094 9.52559E-05-2.85818E-05-2.85746E-05 3.49298E-09-2.40949E-20 1.83445E-18
 -1      4095 1.05724E-04-4.12978E-05-2.76434E-05 1.30693E-05-7.31937E-19-1.39418E-18
 -1      4096 1.17137E-04-3.40598E-05-3.56914E-05 1.10721E-05 7.84597E-19 4.24145E-19
 -1      4097 7.08743E-05-1.24087E-05-2.49276E-05-1.47195E-05-1.22792E-18-3.18130E-18
 -1      4098 1.15849E-04-4.61742E-05-2.97602E-05 5.16848E-06-7.22565E-19-8.44072E-19
 -1      4099 9.52564E-05-2.85810E-05-2.85752E-05-4.23791E-09 6.27923E-19-1.49214E-18
 -1      4100 9.52572E-05-2.85799E-05-2.85759E-05-5.03206E-09-6.80555E-19-1.30726E-18
 -1      4101 9.52566E-05-2.85813E-05-2.85751E-05-2.15094E-09 1.95879E-19 8.17443E-19
 -1      4102 8.10482E-05-2.37541E-05-2.44381E-05 1.68937E-05-9.54204E-19-9.51494E-19
 -1      4103 8.02471E-05-2.18782E-05-2.49470E-05 1.33940E-05-1.10341E-18-8.23834E-19
 -1      4104 8.62044E-05-2.77524E-05-2.51040E-05 1.75406E-05-8.77232E-19-9.96557E-19
 -1      4105 1.00702E-04-3.62022E-05-2.77031E-05 1.06055E-05-1.32464E-18-1.28279E-18
 -1      4106 7.70707E-05-1.74387E-05-2.55491E-05 5.25542E-06-1.15224E-18-2.10603E-19
 -1      4107 1.03164E-04-4.01543E-05-2.69786E-05 1.58912E-05-8.98002E-19-1.80748E-18
 -1      4108 9.86697E-05-3.78039E-05-2.59709E-05 1.94136E-05-1.02008E-18-1.64757E-18
 -1      4109 9.37954E-05-3.37717E-05-2.57998E-05 1.83250E-05-1.36394E-18-1.29293E-18
 -1      4110 1.00624E-04-3.73127E-05-2.71709E-05 1.36818E-05-1.34090E-18-1.44635E-18
 -1      4111 1.15299E-04-4.49129E-05-3.01567E-05 2.32478E-06-5.65449E-19-7.53595E-19
 -1      4112 8.82829E-05-2.27802E-05-2.81005E-05 1.23546E-06-1.16830E-19-1.56206E-18
 -1      4113 8.92326E-05-2.32992E-05-2.82549E-05 8.14758E-07-3.09141E-19-1.28897E-18
 -1      4114 8.99103E-05-2.37478E-05-2.83755E-05 4.12100E-07-4.60295E-19-1.15433E-18
 -1      4115 9.06469E-05-2.42193E-05-2.84696E-05 1.78565E-07-6.53680E-19-1.14628E-18
 -1      4116 8.98101E-05-2.37897E-05-2.82740E-05 1.37209E-06-4.21988E-19-1.32630E-18
 -1      4117 9.12331E-05-2.46500E-05-2.85482E-05-7.43019E-08-1.05278E-18-1.29428E-18
 -1      4118 9.18174E-05-2.50775E-05-2.86041E-05-1.86859E-07-7.15649E-19-8.51601E-19
 -1      4119 9.10574E-05-2.45815E-05-2.84734E-05 6.44180E-07-9.53441E-19-7.51999E-19
 -1      4120 9.22530E-05-2.54358E-05-2.86472E-05-3.04221E-07 4.97063E-20-1.30907E-18
 -1      4121 9.26822E-05-2.57789E-05-2.86746E-05-3.34060E-07-3.42809E-19-9.36766E-19
 -1      4122 9.20389E-05-2.52877E-05-2.85938E-05 2.12262E-07-5.70382E-19-1.08426E-18
 -1      4123 9.30304E-05-2.60888E-05-2.86971E-05-3.90495E-07-1.07125E-18-1.33233E-18
 -1      4124 9.33551E-05-2.63748E-05-2.87082E-05-3.79099E-07-1.13689E-18-1.21797E-18
 -1      4125 9.28333E-05-2.59246E-05-2.86618E-05-2.37793E-08-1.06375E-18-1.85741E-18
 -1      4126 9.36274E-05-2.66324E-05-2.87173E-05-3.95803E-07-3.37843E-20-8.92255E-19
 -1      4127 9.38697E-05-2.68658E-05-2.87183E-05-3.63684E-07 5.01305E-19-4.14887E-19
 -1      4128 9.34515E-05-2.64703E-05-2.86953E-05-1.38121E-07-2.61291E-19-6.59930E-20
 -1      4129 9.40802E-05-2.70768E-05-2.87191E-05-3.58391E-07 2.60944E-19 1.77946E-20
 -1      4130 9.42597E-05-2.72646E-05-2.87144E-05-3.18242E-07 3.10396E-19 7.76570E-19
 -1      4131 9.39315E-05-2.69290E-05-2.87067E-05-1.78596E-07 8.51312E-19 3.50239E-19
 -1      4132 9.44202E-05-2.74348E-05-2.87102E-05-3.02488E-07-2.58977E-19 9.48117E-19
 -1      4133 9.45521E-05-2.75840E-05-2.87025E-05-2.61865E-07 2.40510E-19 1.44554E-18
 -1      4134 9.42997E-05-2.73070E-05-2.87045E-05-1.78276E-07 6.89600E-19 6.96933E-19
 -1      4135 9.46729E-05-2.77193E-05-2.86957E-05-2.42610E-07 2.32032E-19 1.17988E-18
 -1      4136 9.47687E-05-2.78366E-05-2.86868E-05-2.05411E-07 3.39049E-20 1.33033E-18
 -1      4137 9.45784E-05-2.76131E-05-2.86944E-05-1.57847E-07 3.78193E-20 1.28840E-18
 -1      4138 9.48621E-05-2.79475E-05-2.86785E-05-1.85385E-07-3.30347E-19 8.29391E-19
 -1      4139 9.49336E-05-2.80421E-05-2.86690E-05-1.52419E-07-1.00463E-18 1.23152E-18
 -1      4140 9.47907E-05-2.78621E-05-2.86800E-05-1.29001E-07-6.54919E-19 1.07749E-18
 -1      4141 9.49978E-05-2.81231E-05-2.86610E-05-1.35756E-07-3.40605E-19 1.68170E-18
 -1      4142 9.50455E-05-2.81917E-05-2.86526E-05-1.10152E-07 5.99812E-19 1.71705E-18
 -1      4143 9.49455E-05-2.80563E-05-2.86641E-05-9.95104E-08-5.19921E-19 4.39231E-19
 -1      4144 9.50913E-05-2.82533E-05-2.86450E-05-9.63812E-08 1.92846E-19 6.73409E-19
 -1      4145 9.51243E-05-2.83052E-05-2.86375E-05-7.62378E-08 1.16653E-19 1.28481E-18
 -1      4146 9.50539E-05-2.82022E-05-2.86488E-05-7.34720E-08-1.54474E-19 4.09054E-19
 -1      4147 9.51562E-05-2.83514E-05-2.86307E-05-6.54577E-08-9.50446E-20 8.57716E-19
 -1      4148 9.51785E-05-2.83900E-05-2.86241E-05-5.01070E-08 5.59383E-19 4.94211E-19
 -1      4149 9.51303E-05-2.83131E-05-2.86346E-05-5.16901E-08-2.01170E-19 1.33584E-18
 -1      4150 9.52000E-05-2.84241E-05-2.86183E-05-4.20142E-08 2.96387E-19-5.47104E-20
 -1      4151 9.52144E-05-2.84523E-05-2.86127E-05-3.06577E-08 2.12693E-19-1.79101E-19
 -1      4152 9.51828E-05-2.83961E-05-2.86220E-05-3.44352E-08-8.21756E-20-2.04330E-19
 -1      4153 9.52284E-05-2.84769E-05-2.86078E-05-2.48224E-08 1.97986E-19-1.12090E-19
 -1      4154 9.52373E-05-2.84971E-05-2.86032E-05-1.66712E-08 5.67569E-19-6.02036E-19
 -1      4155 9.52176E-05-2.84569E-05-2.86112E-05-2.13481E-08-1.71204E-20-1.03245E-18
 -1      4156 9.52458E-05-2.85145E-05-2.85991E-05-1.26447E-08 6.52529E-19-1.17467E-18
 -1      4157 9.52508E-05-2.85286E-05-2.85954E-05-6.95789E-09 3.13815E-19-6.14960E-19
 -1      4158 9.52396E-05-2.85007E-05-2.86021E-05-1.18114E-08-1.19903E-19-1.22782E-18
 -1      4159 9.52556E-05-2.85411E-05-2.85919E-05-4.17639E-09-2.49388E-19-4.00985E-19
 -1      4160 9.52580E-05-2.85510E-05-2.85888E-05-2.88258E-10-7.18597E-19-3.30167E-20
 -1      4161 9.52526E-05-2.85319E-05-2.85944E-05-5.00732E-09 2.33508E-19 2.69579E-19
 -1      4162 9.52599E-05-2.85588E-05-2.85861E-05 1.28436E-09-8.40004E-19-8.17126E-20
 -1      4163 9.52604E-05-2.85648E-05-2.85839E-05 3.61267E-09-1.55523E-18 5.70277E-19
 -1      4164 9.52590E-05-2.85530E-05-2.85882E-05-4.78316E-10-2.69175E-19 7.29588E-19
 -1      4165 9.52606E-05-2.85698E-05-2.85818E-05 4.48872E-09-9.76257E-19 1.34747E-18
 -1      4166 9.52601E-05-2.85735E-05-2.85800E-05 5.83242E-09 3.80998E-20 1.71884E-18
 -1      4167 9.52610E-05-2.85664E-05-2.85834E-05 2.27652E-09-7.85817E-19 1.96350E-18
 -1      4168 9.52593E-05-2.85764E-05-2.85783E-05 6.20844E-09 7.93222E-19 1.48543E-18
 -1      4169 9.52580E-05-2.85785E-05-2.85769E-05 6.81093E-09 9.62374E-19 3.51558E-18
 -1      4170 9.52604E-05-2.85746E-05-2.85796E-05 3.87679E-09 4.10411E-19 2.93067E-18
 -1      4171 9.52574E-05-2.85794E-05-2.85762E-05 6.66470E-09 5.76273E-19 3.61808E-18
 -1      4172 9.52568E-05-2.85803E-05-2.85756E-05 6.38033E-09 4.64047E-20 4.29536E-18
 -1      4173 9.52575E-05-2.85804E-05-2.85759E-05 4.05069E-09 7.48668E-19 4.36915E-19
 -1      4174 9.52588E-05-2.85786E-05-2.85773E-05 4.32608E-09 1.18515E-18 1.89970E-18
 -1      4175 9.22076E-05-2.68254E-05-2.80285E-05 5.61610E-06-1.19578E-18 4.71971E-19
 -1      4176 9.26320E-05-2.74202E-05-2.79209E-05 6.38607E-06-8.15398E-19-2.33721E-19
 -1      4177 9.28440E-05-2.80773E-05-2.77588E-05 7.48879E-06-7.59640E-19-8.73114E-19
 -1      4178 9.37093E-05-2.90995E-05-2.76505E-05 8.39216E-06-8.63962E-19-1.05516E-18
 -1      4179 9.13265E-05-2.67659E-05-2.76827E-05 7.19384E-06-1.38050E-18-8.95405E-19
 -1      4180 9.27164E-05-2.61462E-05-2.85375E-05 2.13692E-06-5.06589E-19 1.85207E-19
 -1      4181 9.25982E-05-2.61008E-05-2.84895E-05 2.51013E-06-8.98810E-19 8.20956E-20
 -1      4182 9.31203E-05-2.63684E-05-2.86165E-05 1.52355E-06-2.41802E-20-1.31997E-19
 -1      4183 9.29728E-05-2.62641E-05-2.85850E-05 1.80459E-06 2.84861E-19 3.39970E-19
 -1      4184 9.25025E-05-2.59115E-05-2.85411E-05 1.76714E-06-2.20406E-19-8.10674E-19
 -1      4185 9.35317E-05-2.66672E-05-2.86636E-05 1.07663E-06 3.82727E-19 2.53761E-19
 -1      4186 9.33779E-05-2.65280E-05-2.86458E-05 1.28076E-06-9.55888E-20 5.89588E-20
 -1      4187 9.30122E-05-2.62163E-05-2.86166E-05 1.20903E-06 5.53757E-20 2.12612E-19
 -1      4188 9.39029E-05-2.69789E-05-2.86874E-05 7.57161E-07 2.58716E-19 5.07730E-19
 -1      4189 9.37566E-05-2.68322E-05-2.86794E-05 9.06998E-07 3.29009E-19 9.20591E-20
 -1      4190 9.34821E-05-2.65796E-05-2.86629E-05 8.22530E-07 1.84956E-19 5.55006E-19
 -1      4191 9.42221E-05-2.72772E-05-2.86950E-05 5.29458E-07 7.13009E-19 6.70411E-19
 -1      4192 9.40925E-05-2.71373E-05-2.86937E-05 6.39260E-07 9.78129E-19 7.68306E-19
 -1      4193 9.38876E-05-2.69349E-05-2.86858E-05 5.55620E-07 5.43030E-19-1.23809E-19
 -1      4194 9.44862E-05-2.75458E-05-2.86920E-05 3.67703E-07-1.01215E-18 7.98669E-19
 -1      4195 9.43770E-05-2.74202E-05-2.86951E-05 4.48038E-07-4.79614E-19 7.89231E-19
 -1      4196 9.42251E-05-2.72599E-05-2.86927E-05 3.73216E-07 2.87475E-19 7.07837E-19
 -1      4197 9.46977E-05-2.77773E-05-2.86826E-05 2.53065E-07-9.06285E-19 1.03910E-18
 -1      4198 9.46092E-05-2.76694E-05-2.86882E-05 3.11764E-07-9.52796E-19 7.05279E-19
 -1      4199 9.44977E-05-2.75437E-05-2.86893E-05 2.49233E-07-7.78771E-19 7.43922E-20
 -1      4200 9.48625E-05-2.79704E-05-2.86698E-05 1.72038E-07 5.99443E-19 8.63073E-19
 -1      4201 9.47931E-05-2.78808E-05-2.86767E-05 2.14673E-07-1.58956E-19 7.76522E-19
 -1      4202 9.47121E-05-2.77831E-05-2.86798E-05 1.65109E-07-5.00360E-19-2.94851E-19
 -1      4203 9.49874E-05-2.81269E-05-2.86558E-05 1.14725E-07 1.28148E-19 7.45084E-19
 -1      4204 9.49346E-05-2.80544E-05-2.86630E-05 1.45811E-07 7.90954E-19 1.17423E-18
 -1      4205 9.48766E-05-2.79796E-05-2.86671E-05 1.08105E-07 2.06014E-20 8.65427E-20
 -1      4206 9.50797E-05-2.82507E-05-2.86419E-05 7.45751E-08-3.43352E-19 1.05329E-18
 -1      4207 9.50407E-05-2.81936E-05-2.86488E-05 9.70385E-08-6.36350E-19 6.91386E-19
 -1      4208 9.50000E-05-2.81372E-05-2.86533E-05 6.96682E-08-1.81156E-19 1.06338E-18
 -1      4209 9.51459E-05-2.83465E-05-2.86289E-05 4.65705E-08 6.60595E-19 1.15106E-18
 -1      4210 9.51180E-05-2.83025E-05-2.86353E-05 6.26739E-08 8.91523E-19 1.70071E-18
 -1      4211 9.50901E-05-2.82605E-05-2.86397E-05 4.37812E-08-2.95453E-19 1.15666E-18
 -1      4212 9.51918E-05-2.84189E-05-2.86174E-05 2.72558E-08-1.20591E-18 2.40984E-18
 -1      4213 9.51726E-05-2.83858E-05-2.86230E-05 3.86662E-08-3.23036E-19 1.85863E-18
 -1      4214 9.51540E-05-2.83551E-05-2.86271E-05 2.63720E-08-4.53388E-19 1.19260E-18
 -1      4215 9.52225E-05-2.84724E-05-2.86074E-05 1.41484E-08-8.37919E-20 1.59651E-18
 -1      4216 9.52098E-05-2.84481E-05-2.86122E-05 2.21044E-08-5.30861E-19 2.57970E-18
 -1      4217 9.51980E-05-2.84260E-05-2.86159E-05 1.47566E-08-7.18472E-19 1.99785E-18
 -1      4218 9.52418E-05-2.85110E-05-2.85991E-05 5.45940E-09 6.88269E-20 1.56065E-18
 -1      4219 9.52340E-05-2.84936E-05-2.86030E-05 1.08870E-08 2.27922E-19 1.38649E-18
 -1      4220 9.52269E-05-2.84781E-05-2.86062E-05 7.10826E-09 3.39362E-20 1.94733E-18
 -1      4221 9.52529E-05-2.85381E-05-2.85922E-05-1.05845E-10-1.03055E-18 2.11457E-18
 -1      4222 9.52486E-05-2.85259E-05-2.85954E-05 3.47665E-09-4.49754E-19 1.77672E-18
 -1      4223 9.52449E-05-2.85154E-05-2.85981E-05 2.17281E-09-5.24467E-19 2.03694E-18
 -1      4224 9.52584E-05-2.85564E-05-2.85866E-05-3.49522E-09 6.81589E-19 2.20246E-18
 -1      4225 9.52564E-05-2.85482E-05-2.85892E-05-1.21770E-09-9.45374E-20 2.09347E-18
 -1      4226 9.52550E-05-2.85414E-05-2.85914E-05-8.89365E-10-5.03506E-19 1.88825E-18
 -1      4227 9.52600E-05-2.85683E-05-2.85822E-05-5.37154E-09 2.17940E-19 1.12979E-18
 -1      4228 9.52597E-05-2.85631E-05-2.85842E-05-4.02756E-09 1.54977E-18 1.77982E-18
 -1      4229 9.52596E-05-2.85588E-05-2.85860E-05-2.69812E-09 1.15671E-18 3.69654E-19
 -1      4230 9.52592E-05-2.85756E-05-2.85787E-05-6.20124E-09-1.35348E-18-4.79558E-19
 -1      4231 9.52599E-05-2.85724E-05-2.85803E-05-5.53572E-09-7.22664E-19 3.79619E-19
 -1      4232 9.52607E-05-2.85700E-05-2.85817E-05-3.65952E-09 8.86724E-19 9.80339E-19
 -1      4233 9.52581E-05-2.85788E-05-2.85768E-05-5.32660E-09-1.85715E-18-1.04223E-18
 -1      4234 9.52586E-05-2.85772E-05-2.85777E-05-5.87854E-09-1.99187E-18-1.01929E-18
 -1      4235 9.52599E-05-2.85761E-05-2.85788E-05-3.73143E-09-1.09932E-18 1.61187E-19
 -1      4236 9.52585E-05-2.85791E-05-2.85769E-05-3.28942E-09-7.71244E-19-6.78999E-19
 -1      4237 9.23491E-05-2.60623E-05-2.84182E-05 2.98859E-06-5.55106E-19 1.12621E-19
 -1      4238 9.23232E-05-2.61454E-05-2.83496E-05 3.47191E-06-2.61229E-19 2.75047E-19
 -1      4239 9.19772E-05-2.56510E-05-2.84187E-05 2.54532E-06-6.46821E-19-9.49421E-19
 -1      4240 9.43538E-05-3.02162E-05-2.74757E-05 9.67161E-06-8.59355E-19-1.53721E-18
 -1      4241 9.58315E-05-3.18251E-05-2.73914E-05 1.06542E-05-1.08051E-18-1.62908E-18
 -1      4242 9.21973E-05-2.85861E-05-2.73140E-05 9.79540E-06-1.17995E-18-1.46593E-18
 -1      4243 9.21330E-05-2.62395E-05-2.82499E-05 4.11899E-06-5.67344E-19 3.78113E-19
 -1      4244 9.22664E-05-2.65124E-05-2.81607E-05 4.73906E-06-8.40585E-19 2.66274E-19
 -1      4245 9.15175E-05-2.56147E-05-2.82406E-05 3.65012E-06-5.21523E-19-7.99796E-19
 -1      4246 9.52563E-05-2.85816E-05-2.85749E-05 1.73028E-09 3.20453E-19 1.66346E-18
 -1      4247 9.52566E-05-2.85816E-05-2.85750E-05-4.02907E-10 2.24086E-19 2.69651E-18
 -1      4248 9.52576E-05-2.85806E-05-2.85759E-05-1.23909E-09-5.03986E-19 2.22655E-18
 -1      4249 9.52572E-05-2.85810E-05-2.85755E-05 2.15596E-09 6.81796E-19 8.60125E-19
 -1      4250 9.68742E-05-3.32516E-05-2.72513E-05 1.17835E-05-1.02188E-18-1.38478E-18
 -1      4251 9.91067E-05-3.54026E-05-2.72600E-05 1.25706E-05-1.24323E-18-1.13198E-18
 -1      4252 9.63817E-05-3.41665E-05-2.66723E-05 1.49968E-05-1.46794E-18-1.70804E-18
 -1      4253 9.37576E-05-3.10088E-05-2.69707E-05 1.23935E-05-8.84909E-19-2.19825E-18
 -1      4254 8.62601E-05-2.17835E-05-2.76718E-05 2.61093E-06-1.28939E-18-6.43052E-19
 -1      4255 8.74849E-05-2.23427E-05-2.79145E-05 1.89072E-06-4.85193E-19-9.91595E-19
 -1      4256 8.83651E-05-2.30557E-05-2.79699E-05 2.54476E-06-8.16085E-19-1.32338E-18
 -1      4257 1.05705E-04-3.78748E-05-2.91925E-05-1.17836E-05-7.49948E-19-1.17052E-18
 -1      4258 7.93150E-05-1.89768E-05-2.58175E-05 7.13676E-06-1.36205E-18-5.28642E-19
 -1      4259 9.12323E-05-2.58867E-05-2.79986E-05 5.15208E-06-7.67610E-19-5.51222E-19
 -1      4260 8.38012E-05-2.09014E-05-2.70150E-05 4.72657E-06-1.32399E-18-7.24848E-19
 -1      4261 8.53329E-05-2.13789E-05-2.73947E-05 3.57838E-06-1.68108E-18-5.24174E-19
 -1      4262 8.66633E-05-2.23681E-05-2.75149E-05 4.33922E-06-1.57590E-18-8.95856E-19
 -1      4263 9.38940E-05-3.25411E-05-2.62696E-05 1.58961E-05-1.23967E-18-1.75509E-18
 -1      4264 8.97161E-05-2.99237E-05-2.55331E-05 1.74789E-05-1.27041E-18-1.25583E-18
 -1      4265 8.68187E-05-2.68891E-05-2.56755E-05 1.51718E-05-7.67822E-19-1.33972E-18
 -1      4266 9.23201E-05-3.06798E-05-2.64228E-05 1.44576E-05-1.20757E-18-1.85056E-18
 -1      4267 8.04122E-05-2.07485E-05-2.55930E-05 1.02508E-05-1.51335E-18-4.89764E-19
 -1      4268 8.30683E-05-2.08745E-05-2.66051E-05 6.52855E-06-1.14157E-18-6.85231E-19
 -1      4269 8.49452E-05-2.23234E-05-2.68334E-05 7.33849E-06-1.28692E-18-7.03145E-19
 -1      4270 8.39322E-05-2.37725E-05-2.58596E-05 1.23320E-05-1.42029E-18-9.76573E-19
 -1      4271 8.86152E-05-2.35947E-05-2.78986E-05 3.59979E-06-9.73555E-19-1.16077E-18
 -1      4272 8.94096E-05-2.38723E-05-2.80767E-05 2.84689E-06-2.65335E-19-1.19169E-18
 -1      4273 9.09547E-05-2.46753E-05-2.84238E-05 1.26741E-06-7.27848E-19-1.11510E-18
 -1      4274 9.15191E-05-2.50279E-05-2.85010E-05 9.74570E-07-8.31793E-19-1.00522E-18
 -1      4275 9.21296E-05-2.55141E-05-2.85599E-05 9.62871E-07-6.59812E-19-5.20499E-19
 -1      4276 9.25337E-05-2.57991E-05-2.86032E-05 7.76324E-07-4.85320E-19-6.46098E-19
 -1      4277 9.28009E-05-2.60159E-05-2.86343E-05 5.62986E-07-6.19572E-19-2.36891E-19
 -1      4278 9.31422E-05-2.62808E-05-2.86591E-05 4.54401E-07-5.78199E-19 3.08550E-20
 -1      4279 9.33781E-05-2.64903E-05-2.86761E-05 3.09327E-07-1.17803E-20 3.94170E-20
 -1      4280 9.36486E-05-2.67215E-05-2.86873E-05 2.54797E-07 7.55186E-19 5.21052E-19
 -1      4281 9.38469E-05-2.69109E-05-2.86944E-05 1.57515E-07 7.88978E-19 4.59823E-19
 -1      4282 9.40577E-05-2.71070E-05-2.86970E-05 1.34838E-07 1.04333E-18 1.03208E-18
 -1      4283 9.42190E-05-2.72714E-05-2.86975E-05 7.02075E-08 5.22539E-19 6.59992E-19
 -1      4284 9.43808E-05-2.74339E-05-2.86948E-05 6.54825E-08 8.98237E-20 5.65319E-19
 -1      4285 9.45085E-05-2.75722E-05-2.86913E-05 2.27773E-08-4.66806E-19-5.93363E-20
 -1      4286 9.46308E-05-2.77041E-05-2.86855E-05 2.73775E-08-6.23041E-19-3.56196E-19
 -1      4287 9.47296E-05-2.78174E-05-2.86798E-05-9.61414E-10-6.72141E-19-3.18204E-19
 -1      4288 9.48245E-05-2.79275E-05-2.86722E-05 7.68156E-09-8.05907E-19-3.28961E-19
 -1      4289 9.48989E-05-2.80179E-05-2.86655E-05-1.09521E-08-2.57251E-19 1.87664E-19
 -1      4290 9.49645E-05-2.80997E-05-2.86580E-05-1.34328E-09 6.49492E-20 4.58616E-19
 -1      4291 9.50193E-05-2.81705E-05-2.86510E-05-1.35940E-08-3.67956E-19 6.69440E-19
 -1      4292 9.50663E-05-2.82336E-05-2.86438E-05-4.65945E-09-7.64076E-19 7.28694E-19
 -1      4293 9.51058E-05-2.82881E-05-2.86372E-05-1.27850E-08-5.17076E-19 9.58926E-19
 -1      4294 9.51386E-05-2.83358E-05-2.86306E-05-5.16427E-09 2.40405E-19 8.67860E-19
 -1      4295 9.51661E-05-2.83770E-05-2.86246E-05-1.05469E-08-5.80080E-19 1.20015E-18
 -1      4296 9.51884E-05-2.84124E-05-2.86188E-05-4.42819E-09-1.49956E-18 3.09347E-19
 -1      4297 9.52069E-05-2.84429E-05-2.86136E-05-7.98781E-09-6.92854E-19 7.65900E-19
 -1      4298 9.52213E-05-2.84687E-05-2.86086E-05-3.29975E-09 1.42889E-19 6.05692E-19
 -1      4299 9.52332E-05-2.84906E-05-2.86042E-05-5.63680E-09 1.75124E-19 4.47749E-19
 -1      4300 9.52420E-05-2.85090E-05-2.86001E-05-2.18448E-09-2.36737E-19 4.89057E-19
 -1      4301 9.52490E-05-2.85244E-05-2.85964E-05-3.71657E-09-4.74232E-19 9.19425E-19
 -1      4302 9.52541E-05-2.85377E-05-2.85929E-05-1.23027E-09-8.59344E-20 1.99227E-19
 -1      4303 9.52577E-05-2.85481E-05-2.85899E-05-2.19664E-09 4.82887E-19-3.79714E-19
 -1      4304 9.52598E-05-2.85565E-05-2.85872E-05-5.71496E-10 5.47513E-19-9.64352E-20
 -1      4305 9.52611E-05-2.85633E-05-2.85848E-05-1.13809E-09 5.65611E-19 6.84455E-19
 -1      4306 9.52614E-05-2.85686E-05-2.85827E-05-9.79118E-11 2.40174E-19 1.77809E-18
 -1      4307 9.52613E-05-2.85729E-05-2.85807E-05-4.24459E-10-1.37095E-19 2.42954E-18
 -1      4308 9.52604E-05-2.85760E-05-2.85790E-05 1.74574E-10 5.68188E-19 2.14210E-18
 -1      4309 8.97316E-05-2.52752E-05-2.76527E-05 6.30542E-06-1.57790E-18-1.08755E-18
 -1      4310 8.99477E-05-2.57943E-05-2.74757E-05 7.48966E-06-1.48666E-18-1.11136E-18
 -1      4311 9.21781E-05-2.55974E-05-2.85251E-05 1.50009E-06-2.94438E-19-1.00242E-18
 -1      4312 9.18858E-05-2.54569E-05-2.84739E-05 1.83135E-06-4.97181E-19-1.25689E-18
 -1      4313 9.15949E-05-2.53172E-05-2.84007E-05 2.26712E-06-6.33377E-19-7.81978E-19
 -1      4314 8.81514E-05-2.52008E-05-2.69797E-05 9.15012E-06-1.69655E-18-9.36375E-19
 -1      4315 8.86884E-05-2.61800E-05-2.67458E-05 1.07666E-05-1.52684E-18-1.06061E-18
 -1      4316 9.04947E-05-2.50642E-05-2.80706E-05 4.09553E-06-4.59637E-19-4.23235E-19
 -1      4317 9.04209E-05-2.52084E-05-2.79335E-05 4.92793E-06-8.47180E-19-6.29570E-19
 -1      4318 9.03924E-05-2.43264E-05-2.83096E-05 1.77276E-06-7.06025E-19-1.01900E-18
 -1      4319 9.10051E-05-2.48240E-05-2.83513E-05 2.06633E-06-6.20762E-19-1.29963E-18
 -1      4320 9.10356E-05-2.50764E-05-2.82853E-05 2.85333E-06-6.84134E-19-8.59412E-19
 -1      4321 8.97210E-05-2.40096E-05-2.81862E-05 2.28260E-06-2.48684E-19-9.67083E-19
 -1      4322 8.78554E-05-2.34046E-05-2.76078E-05 4.88981E-06-1.57911E-18-1.53175E-18
 -1      4323 8.91117E-05-2.43353E-05-2.77458E-05 5.11941E-06-1.15242E-18-9.03064E-19
 -1      4324 9.01134E-05-2.44480E-05-2.81230E-05 3.23060E-06-3.72677E-19-2.53055E-19
 -1      4325 8.70604E-05-2.32985E-05-2.73471E-05 6.07249E-06-1.37834E-18-1.44924E-18
 -1      4326 8.88159E-05-2.74851E-05-2.62792E-05 1.32315E-05-6.97072E-19-1.72385E-18
 -1      4327 9.08239E-05-2.50595E-05-2.81772E-05 3.49178E-06-3.91243E-19-7.68595E-19
 -1      4328 9.52580E-05-2.85803E-05-2.85761E-05 2.30216E-09 3.04999E-19 1.44004E-18
 -1      4329 9.52584E-05-2.85799E-05-2.85765E-05 3.22709E-10-1.04830E-18 3.72112E-18
 -1      4330 9.52585E-05-2.85797E-05-2.85767E-05-1.38139E-09-6.00307E-19 1.98446E-18
 -1      4331 9.52593E-05-2.85783E-05-2.85775E-05-1.70663E-09-7.55299E-19 1.87153E-18
 -1      4332 9.52589E-05-2.85793E-05-2.85769E-05 2.26307E-09-6.89360E-19 1.64382E-18
 -1      4333 8.64983E-05-2.35666E-05-2.69698E-05 7.95041E-06-1.50706E-18-1.04417E-18
 -1      4334 9.52600E-05-2.85767E-05-2.85786E-05-1.95983E-09 2.13467E-19 2.94243E-18
 -1      4335 9.52596E-05-2.85783E-05-2.85777E-05 2.26289E-09-6.48414E-19 3.05090E-18
 -1      4336 9.16806E-05-2.95609E-05-2.66383E-05 1.30740E-05-8.90536E-19-2.07732E-18
 -3
    1PSTEP                         4           1           1          
  100CL  101 1.000000000        4336                     0    1           1
 -4  ERROR       1    1
 -5  STR(%)      1    1    0    0
 -1         1 1.29906E+01
 -1         2 2.49356E+01
 -1         3 1.58148E-04
 -1         4 2.87616E-04
 -1         5 1.35362E+01
 -1         6 1.17696E+01
 -1         7 1.17696E+01
 -1         8 3.80268E+00
 -1         9 2.49247E+00
 -1        10 1.91041E+00
 -1        11 1.44471E+00
 -1        12 9.64389E-01
 -1        13 5.21043E-01
 -1        14 7.02822E-01
 -1        15 9.10486E-01
 -1        16 1.07961E+00
 -1        17 1.21034E+00
 -1        18 1.37150E+00
 -1        19 1.59100E+00
 -1        20 2.02565E+00
 -1        21 3.54982E+00
 -1        22 8.37956E+00
 -1        23 1.17696E+01
 -1        24 3.32425E+00
 -1        25 2.16782E+00
 -1        26 1.76310E+00
 -1        27 2.32524E+00
 -1        28 3.26419E+00
 -1        29 3.75177E+00
 -1        30 3.75177E+00
 -1        31 3.46745E+00
 -1        32 7.18890E+00
 -1        33 1.11994E+01
 -1        34 1.12536E+01
 -1        35 1.12536E+01
 -1        36 9.27144E+00
 -1        37 4.09329E+00
 -1        38 3.79837E+00
 -1        39 3.79837E+00
 -1        40 3.77893E+00
 -1        41 3.06786E+00
 -1        42 2.33084E+00
 -1        43 1.74124E+00
 -1        44 1.25421E+00
 -1        45 1.01689E+00
 -1        46 7.28753E-01
 -1        47 5.37797E-01
 -1        48 3.90752E-01
 -1        49 2.80628E-01
 -1        50 1.99456E-01
 -1        51 1.40230E-01
 -1        52 1.02504E-01
 -1        53 8.12609E-02
 -1        54 6.39041E-02
 -1        55 4.97289E-02
 -1        56 3.82681E-02
 -1        57 2.90924E-02
 -1        58 2.18115E-02
 -1        59 1.61935E-02
 -1        60 1.32651E-02
 -1        61 1.07135E-02
 -1        62 8.49934E-03
 -1        63 6.62056E-03
 -1        64 5.07225E-03
 -1        65 3.88861E-03
 -1        66 2.98072E-03
 -1        67 2.14342E-03
 -1        68 1.84086E-03
 -1        69 1.50569E-03
 -1        70 1.11186E-03
 -1        71 8.84492E-04
 -1        72 1.35362E+01
 -1        73 3.05513E+00
 -1        74 1.93934E+00
 -1        75 1.15746E+00
 -1        76 6.82803E-01
 -1        77 6.03795E-01
 -1        78 7.60604E-01
 -1        79 1.08885E+00
 -1        80 1.55631E+00
 -1        81 1.96839E+00
 -1        82 2.17445E+00
 -1        83 2.39786E+00
 -1        84 2.47755E+00
 -1        85 2.47755E+00
 -1        86 2.20163E+00
 -1        87 1.69144E+00
 -1        88 1.18763E+00
 -1        89 7.49381E-01
 -1        90 5.10553E-01
 -1        91 3.25559E-01
 -1        92 3.25554E-01
 -1        93 3.26634E-01
 -1        94 3.26634E-01
 -1        95 2.92468E-01
 -1        96 2.41939E-01
 -1        97 1.96889E-01
 -1        98 1.53189E-01
 -1        99 1.18780E-01
 -1       100 9.55586E-02
 -1       101 7.38416E-02
 -1       102 5.49255E-02
 -1       103 3.92862E-02
 -1       104 2.72962E-02
 -1       105 2.34569E-02
 -1       106 1.95227E-02
 -1       107 1.58153E-02
 -1       108 1.25063E-02
 -1       109 1.07451E-02
 -1       110 9.38856E-03
 -1       111 7.95878E-03
 -1       112 6.57640E-03
 -1       113 5.30688E-03
 -1       114 4.24027E-03
 -1       115 3.34076E-03
 -1       116 2.53204E-03
 -1       117 1.80307E-03
 -1       118 1.46649E-03
 -1       119 1.05559E-03
 -1       120 6.06589E-04
 -1       121 2.81227E-04
 -1       122 2.81227E-04
 -1       123 2.15514E-04
 -1       124 8.83246E-05
 -1       125 1.29030E-04
 -1       126 1.90830E-04
 -1       127 2.26762E-04
 -1       128 2.37202E-04
 -1       129 2.37202E-04
 -1       130 2.27603E-04
 -1       131 1.90604E-04
 -1       132 1.30733E-04
 -1       133 8.91608E-05
 -1       134 2.10224E-04
 -1       135 2.30780E-04
 -1       136 2.30780E-04
 -1       137 2.40981E+01
 -1       138 4.66719E+01
 -1       139 4.66719E+01
 -1       140 1.96139E+01
 -1       141 1.17073E+01
 -1       142 1.18376E+01
 -1       143 1.18376E+01
 -1       144 1.22735E+01
 -1       145 1.22735E+01
 -1       146 1.28313E+01
 -1       147 2.70159E+01
 -1       148 2.97650E+01
 -1       149 2.97650E+01
 -1       150 2.55181E+01
 -1       151 2.70640E+01
 -1       152 2.70640E+01
 -1       153 4.58354E+01
 -1       154 4.58354E+01
 -1       155 1.78496E+01
 -1       156 1.25986E+01
 -1       157 1.29570E+01
 -1       158 1.29906E+01
 -1       159 1.25426E+01
 -1       160 1.37468E+01
 -1       161 3.48266E+01
 -1       162 3.48266E+01
 -1       163 2.53467E+01
 -1       164 2.53467E+01
 -1       165 5.92941E+00
 -1       166 2.82560E+00
 -1       167 2.03625E+00
 -1       168 1.59037E+00
 -1       169 1.13076E+00
 -1       170 6.39500E-01
 -1       171 5.41376E-01
 -1       172 7.64324E-01
 -1       173 9.69630E-01
 -1       174 1.13289E+00
 -1       175 1.29697E+00
 -1       176 1.48746E+00
 -1       177 1.81058E+00
 -1       178 2.48038E+00
 -1       179 3.93040E+00
 -1       180 1.35362E+01
 -1       181 3.32425E+00
 -1       182 2.16782E+00
 -1       183 1.57197E+00
 -1       184 2.12617E+00
 -1       185 2.52933E+00
 -1       186 3.26419E+00
 -1       187 3.75177E+00
 -1       188 3.46745E+00
 -1       189 3.35069E+00
 -1       190 7.18890E+00
 -1       191 1.11994E+01
 -1       192 1.12536E+01
 -1       193 9.27144E+00
 -1       194 4.64312E+00
 -1       195 3.50297E+00
 -1       196 3.79837E+00
 -1       197 3.77893E+00
 -1       198 3.06786E+00
 -1       199 2.54516E+00
 -1       200 2.04635E+00
 -1       201 1.60635E+00
 -1       202 1.22869E+00
 -1       203 8.49194E-01
 -1       204 5.93784E-01
 -1       205 4.06655E-01
 -1       206 2.99288E-01
 -1       207 2.18270E-01
 -1       208 1.57723E-01
 -1       209 1.16624E-01
 -1       210 8.12609E-02
 -1       211 6.39041E-02
 -1       212 4.97289E-02
 -1       213 3.82681E-02
 -1       214 2.90924E-02
 -1       215 2.22087E-02
 -1       216 1.71068E-02
 -1       217 1.32651E-02
 -1       218 1.07135E-02
 -1       219 8.49934E-03
 -1       220 6.76966E-03
 -1       221 5.35459E-03
 -1       222 4.13430E-03
 -1       223 3.26183E-03
 -1       224 2.33910E-03
 -1       225 1.84086E-03
 -1       226 1.50569E-03
 -1       227 1.11186E-03
 -1       228 8.84492E-04
 -1       229 3.68402E-04
 -1       230 3.05513E+00
 -1       231 1.93934E+00
 -1       232 1.15746E+00
 -1       233 8.97826E-01
 -1       234 9.45644E-01
 -1       235 1.15985E+00
 -1       236 1.40039E+00
 -1       237 1.70418E+00
 -1       238 1.90016E+00
 -1       239 1.96839E+00
 -1       240 2.17445E+00
 -1       241 2.39786E+00
 -1       242 2.47755E+00
 -1       243 2.20163E+00
 -1       244 1.69144E+00
 -1       245 1.18969E+00
 -1       246 7.83634E-01
 -1       247 5.10553E-01
 -1       248 3.25559E-01
 -1       249 3.11657E-01
 -1       250 3.25554E-01
 -1       251 3.26634E-01
 -1       252 2.92468E-01
 -1       253 2.41939E-01
 -1       254 1.97691E-01
 -1       255 1.60276E-01
 -1       256 1.23249E-01
 -1       257 9.55586E-02
 -1       258 7.38416E-02
 -1       259 5.49255E-02
 -1       260 3.94780E-02
 -1       261 2.83566E-02
 -1       262 2.43341E-02
 -1       263 2.02592E-02
 -1       264 1.64305E-02
 -1       265 1.30099E-02
 -1       266 1.07451E-02
 -1       267 9.38856E-03
 -1       268 7.95878E-03
 -1       269 6.57640E-03
 -1       270 5.30688E-03
 -1       271 4.24027E-03
 -1       272 3.34076E-03
 -1       273 2.53590E-03
 -1       274 1.87263E-03
 -1       275 1.46649E-03
 -1       276 1.05559E-03
 -1       277 6.10541E-04
 -1       278 5.16150E-04
 -1       279 5.16150E-04
 -1       280 2.94951E-04
 -1       281 2.08361E-04
 -1       282 3.31689E-04
 -1       283 4.08419E-04
 -1       284 4.39124E-04
 -1       285 4.39487E-04
 -1       286 4.39487E-04
 -1       287 4.09157E-04
 -1       288 3.36138E-04
 -1       289 2.14584E-04
 -1       290 3.03922E-04
 -1       291 4.23185E-04
 -1       292 5.52888E-04
 -1       293 3.04402E+01
 -1       294 2.79085E+01
 -1       295 4.66719E+01
 -1       296 2.04698E+01
 -1       297 1.12781E+01
 -1       298 1.17073E+01
 -1       299 1.18376E+01
 -1       300 1.17555E+01
 -1       301 1.22735E+01
 -1       302 1.16281E+01
 -1       303 1.28313E+01
 -1       304 2.87670E+01
 -1       305 3.34296E+01
 -1       306 3.34296E+01
 -1       307 3.28392E+01
 -1       308 3.28392E+01
 -1       309 3.85839E+01
 -1       310 4.58354E+01
 -1       311 1.92623E+01
 -1       312 1.16354E+01
 -1       313 1.25986E+01
 -1       314 1.29570E+01
 -1       315 1.29906E+01
 -1       316 1.25426E+01
 -1       317 1.11540E+01
 -1       318 1.37468E+01
 -1       319 3.48266E+01
 -1       320 3.52037E+01
 -1       321 3.52037E+01
 -1       322 3.04402E+01
 -1       323 2.10897E+00
 -1       324 2.86430E+00
 -1       325 1.37557E+00
 -1       326 8.70838E-01
 -1       327 4.91292E-01
 -1       328 7.25777E-01
 -1       329 8.35097E-01
 -1       330 9.31118E-01
 -1       331 1.01678E+00
 -1       332 1.09011E+00
 -1       333 1.18569E+00
 -1       334 1.32141E+00
 -1       335 1.47464E+00
 -1       336 1.93367E+00
 -1       337 1.66580E+00
 -1       338 1.81127E+00
 -1       339 2.11960E+00
 -1       340 2.60212E+00
 -1       341 2.92564E+00
 -1       342 3.69477E+00
 -1       343 4.74171E+00
 -1       344 5.68928E+00
 -1       345 3.69053E+00
 -1       346 1.01987E+01
 -1       347 9.43830E+00
 -1       348 4.02884E+00
 -1       349 4.88013E+00
 -1       350 4.46895E+00
 -1       351 3.75139E+00
 -1       352 2.99053E+00
 -1       353 2.70809E+00
 -1       354 2.34285E+00
 -1       355 1.88466E+00
 -1       356 1.45698E+00
 -1       357 1.04704E+00
 -1       358 7.53566E-01
 -1       359 5.32282E-01
 -1       360 3.70261E-01
 -1       361 2.53748E-01
 -1       362 1.71039E-01
 -1       363 1.16624E-01
 -1       364 7.83084E-02
 -1       365 5.64466E-02
 -1       366 4.02398E-02
 -1       367 2.83404E-02
 -1       368 2.26178E-02
 -1       369 1.77851E-02
 -1       370 1.36623E-02
 -1       371 1.06294E-02
 -1       372 8.44853E-03
 -1       373 6.86916E-03
 -1       374 5.70734E-03
 -1       375 4.63080E-03
 -1       376 3.77022E-03
 -1       377 3.05552E-03
 -1       378 2.38187E-03
 -1       379 1.82682E-03
 -1       380 1.34010E-03
 -1       381 1.05175E-03
 -1       382 7.59096E-04
 -1       383 8.97826E-01
 -1       384 8.27062E-01
 -1       385 9.97827E-01
 -1       386 1.22693E+00
 -1       387 1.44984E+00
 -1       388 1.70418E+00
 -1       389 1.90016E+00
 -1       390 1.91613E+00
 -1       391 1.91581E+00
 -1       392 1.91293E+00
 -1       393 1.71123E+00
 -1       394 1.36129E+00
 -1       395 1.07450E+00
 -1       396 7.49981E-01
 -1       397 4.94916E-01
 -1       398 2.66181E-01
 -1       399 2.17690E-01
 -1       400 2.29446E-01
 -1       401 2.42198E-01
 -1       402 2.23631E-01
 -1       403 1.91673E-01
 -1       404 1.64612E-01
 -1       405 1.42611E-01
 -1       406 1.16533E-01
 -1       407 9.03881E-02
 -1       408 7.00817E-02
 -1       409 5.35389E-02
 -1       410 3.94780E-02
 -1       411 2.87155E-02
 -1       412 2.43341E-02
 -1       413 2.02592E-02
 -1       414 1.64305E-02
 -1       415 1.30099E-02
 -1       416 1.00650E-02
 -1       417 8.27609E-03
 -1       418 6.99630E-03
 -1       419 5.75073E-03
 -1       420 4.59958E-03
 -1       421 3.68172E-03
 -1       422 2.86761E-03
 -1       423 2.22640E-03
 -1       424 1.67674E-03
 -1       425 1.24425E-03
 -1       426 9.50035E-04
 -1       427 8.03139E-04
 -1       428 3.51653E-04
 -1       429 8.99613E-04
 -1       430 4.40731E-04
 -1       431 5.51624E-04
 -1       432 6.00101E-04
 -1       433 6.00101E-04
 -1       434 6.00812E-04
 -1       435 6.00812E-04
 -1       436 5.57724E-04
 -1       437 4.50768E-04
 -1       438 3.60998E-04
 -1       439 6.21907E-04
 -1       440 1.03982E+00
 -1       441 2.79085E+01
 -1       442 8.57617E+00
 -1       443 3.67378E+01
 -1       444 1.62255E+01
 -1       445 2.10897E+00
 -1       446 7.72275E+00
 -1       447 1.04304E+01
 -1       448 1.04737E+01
 -1       449 1.05581E+01
 -1       450 9.65203E+00
 -1       451 7.77864E+00
 -1       452 1.09574E+01
 -1       453 1.99411E+01
 -1       454 3.34296E+01
 -1       455 3.66663E+01
 -1       456 3.66663E+01
 -1       457 2.23927E+01
 -1       458 2.72178E+01
 -1       459 1.58236E+01
 -1       460 9.03916E+00
 -1       461 8.15903E+00
 -1       462 1.03195E+01
 -1       463 1.12797E+01
 -1       464 1.02845E+01
 -1       465 8.17796E+00
 -1       466 7.05177E+00
 -1       467 1.24707E+01
 -1       468 2.11424E+01
 -1       469 3.52037E+01
 -1       470 3.67378E+01
 -1       471 2.66008E+01
 -1       472 4.78966E+00
 -1       473 5.89009E+00
 -1       474 6.21907E-04
 -1       475 2.75742E+01
 -1       476 5.61191E+00
 -1       477 9.06819E-01
 -1       478 1.37609E+00
 -1       479 9.01224E-01
 -1       480 9.52244E-01
 -1       481 9.52244E-01
 -1       482 9.41784E-01
 -1       483 8.54264E-01
 -1       484 7.81373E-01
 -1       485 7.11484E-01
 -1       486 1.13878E+00
 -1       487 4.88013E+00
 -1       488 2.21319E+00
 -1       489 1.40958E+01
 -1       490 2.57707E+00
 -1       491 3.44416E+00
 -1       492 4.62625E+00
 -1       493 5.94617E+00
 -1       494 6.71205E+00
 -1       495 1.03708E+01
 -1       496 5.04561E+00
 -1       497 5.78032E+00
 -1       498 4.11536E+00
 -1       499 3.20919E+00
 -1       500 2.51200E+00
 -1       501 1.92342E+00
 -1       502 1.45698E+00
 -1       503 1.05960E+00
 -1       504 7.77769E-01
 -1       505 5.64789E-01
 -1       506 4.06104E-01
 -1       507 2.89066E-01
 -1       508 2.03464E-01
 -1       509 1.43434E-01
 -1       510 9.47053E-02
 -1       511 6.31951E-02
 -1       512 4.09510E-02
 -1       513 2.81656E-02
 -1       514 1.96977E-02
 -1       515 1.53351E-02
 -1       516 1.27771E-02
 -1       517 1.04469E-02
 -1       518 8.38828E-03
 -1       519 6.62461E-03
 -1       520 5.47546E-03
 -1       521 4.56866E-03
 -1       522 3.77022E-03
 -1       523 3.07397E-03
 -1       524 2.41158E-03
 -1       525 1.84611E-03
 -1       526 1.35024E-03
 -1       527 9.75310E-04
 -1       528 9.66253E-04
 -1       529 1.02437E+00
 -1       530 7.97858E-01
 -1       531 6.97588E-01
 -1       532 1.23385E+00
 -1       533 1.36158E+00
 -1       534 1.46707E+00
 -1       535 1.47039E+00
 -1       536 1.36578E+00
 -1       537 1.44083E+00
 -1       538 1.42306E+00
 -1       539 1.27311E+00
 -1       540 1.12883E+00
 -1       541 8.77085E-01
 -1       542 6.28667E-01
 -1       543 4.27858E-01
 -1       544 2.96405E-01
 -1       545 2.46524E-01
 -1       546 1.95149E-01
 -1       547 2.02613E-01
 -1       548 1.93766E-01
 -1       549 1.76665E-01
 -1       550 1.53689E-01
 -1       551 1.31107E-01
 -1       552 1.06462E-01
 -1       553 8.27910E-02
 -1       554 6.17852E-02
 -1       555 4.41780E-02
 -1       556 3.00789E-02
 -1       557 2.08204E-02
 -1       558 1.45813E-02
 -1       559 1.23037E-02
 -1       560 1.07019E-02
 -1       561 9.02531E-03
 -1       562 7.40607E-03
 -1       563 5.92151E-03
 -1       564 5.07017E-03
 -1       565 4.31131E-03
 -1       566 3.54166E-03
 -1       567 2.84115E-03
 -1       568 2.24200E-03
 -1       569 1.69404E-03
 -1       570 1.25755E-03
 -1       571 9.33188E-04
 -1       572 6.94213E-04
 -1       573 5.50236E-04
 -1       574 6.64638E-04
 -1       575 2.02714E+01
 -1       576 7.57030E-04
 -1       577 7.57030E-04
 -1       578 7.55711E-04
 -1       579 7.63558E-04
 -1       580 7.63558E-04
 -1       581 7.04154E-04
 -1       582 5.75186E-04
 -1       583 9.66253E-04
 -1       584 2.10897E+00
 -1       585 3.67378E+01
 -1       586 1.06684E+01
 -1       587 6.89962E+00
 -1       588 6.84486E+00
 -1       589 8.50372E-01
 -1       590 7.94030E+00
 -1       591 5.12811E+00
 -1       592 8.76322E+00
 -1       593 7.40648E+00
 -1       594 4.38061E+00
 -1       595 1.38120E+01
 -1       596 2.24478E+01
 -1       597 3.66663E+01
 -1       598 1.93205E+01
 -1       599 1.26784E+01
 -1       600 5.50914E+00
 -1       601 1.51785E+01
 -1       602 2.26582E+01
 -1       603 2.66008E+01
 -1       604 2.11771E+00
 -1       605 6.66117E-01
 -1       606 3.59058E+00
 -1       607 6.30314E+00
 -1       608 5.88197E+00
 -1       609 5.11888E-01
 -1       610 4.71267E+00
 -1       611 1.83442E+01
 -1       612 3.08144E+00
 -1       613 5.97127E+00
 -1       614 1.13572E+00
 -1       615 1.16526E+00
 -1       616 9.16582E-01
 -1       617 7.09537E-01
 -1       618 6.00946E-01
 -1       619 5.98344E+00
 -1       620 3.43888E+00
 -1       621 5.13325E+00
 -1       622 9.49281E+00
 -1       623 1.41558E+01
 -1       624 1.01747E+01
 -1       625 8.08291E+00
 -1       626 5.92768E+00
 -1       627 3.40692E+00
 -1       628 2.48078E+00
 -1       629 1.78324E+00
 -1       630 1.25170E+00
 -1       631 8.69831E-01
 -1       632 6.10163E-01
 -1       633 4.29391E-01
 -1       634 3.14682E-01
 -1       635 2.28617E-01
 -1       636 1.63974E-01
 -1       637 1.14357E-01
 -1       638 7.96411E-02
 -1       639 5.43009E-02
 -1       640 3.60061E-02
 -1       641 2.29719E-02
 -1       642 1.39910E-02
 -1       643 1.00117E-02
 -1       644 7.90748E-03
 -1       645 6.93020E-03
 -1       646 5.88558E-03
 -1       647 4.86385E-03
 -1       648 4.01844E-03
 -1       649 3.40328E-03
 -1       650 2.76985E-03
 -1       651 2.18317E-03
 -1       652 1.71295E-03
 -1       653 1.32551E-03
 -1       654 9.78593E-04
 -1       655 8.65058E-01
 -1       656 1.02923E+00
 -1       657 6.57889E-01
 -1       658 1.31916E+00
 -1       659 1.46249E+00
 -1       660 1.49017E+00
 -1       661 1.42454E+00
 -1       662 1.45272E+00
 -1       663 1.28914E+00
 -1       664 1.17322E+00
 -1       665 1.02906E+00
 -1       666 8.47127E-01
 -1       667 6.28667E-01
 -1       668 4.94564E-01
 -1       669 3.87963E-01
 -1       670 2.82859E-01
 -1       671 2.54684E-01
 -1       672 2.27746E-01
 -1       673 1.97542E-01
 -1       674 1.71498E-01
 -1       675 1.44335E-01
 -1       676 1.18363E-01
 -1       677 9.36359E-02
 -1       678 7.16584E-02
 -1       679 5.30715E-02
 -1       680 3.79597E-02
 -1       681 2.60819E-02
 -1       682 1.70330E-02
 -1       683 1.03500E-02
 -1       684 7.00892E-03
 -1       685 6.58161E-03
 -1       686 6.07624E-03
 -1       687 5.36331E-03
 -1       688 4.56309E-03
 -1       689 3.75552E-03
 -1       690 3.20806E-03
 -1       691 2.67130E-03
 -1       692 2.14366E-03
 -1       693 1.67443E-03
 -1       694 1.26012E-03
 -1       695 9.56573E-04
 -1       696 8.84841E-04
 -1       697 9.19667E-04
 -1       698 7.40797E-04
 -1       699 1.23768E+00
 -1       700 9.11454E-04
 -1       701 9.18332E-04
 -1       702 9.25218E-04
 -1       703 9.25218E-04
 -1       704 1.03081E-03
 -1       705 8.12093E-04
 -1       706 2.63468E+00
 -1       707 1.51724E+01
 -1       708 5.63526E+00
 -1       709 9.98185E+00
 -1       710 9.19667E-04
 -1       711 8.42660E+00
 -1       712 2.63468E+00
 -1       713 1.24665E+01
 -1       714 1.11909E+00
 -1       715 8.77934E+00
 -1       716 1.64174E+00
 -1       717 1.66098E+01
 -1       718 3.63163E+00
 -1       719 1.44865E+01
 -1       720 1.20928E+01
 -1       721 1.19984E+01
 -1       722 1.56715E+01
 -1       723 4.02360E+00
 -1       724 1.16526E+00
 -1       725 2.77876E+00
 -1       726 2.63468E+00
 -1       727 5.25605E-01
 -1       728 1.06746E+01
 -1       729 3.61399E+00
 -1       730 2.59377E+00
 -1       731 1.23171E+00
 -1       732 7.26296E-01
 -1       733 3.62956E+00
 -1       734 7.85954E+00
 -1       735 1.42717E+00
 -1       736 4.64200E+00
 -1       737 4.03830E+00
 -1       738 6.73567E+00
 -1       739 5.95860E-01
 -1       740 8.66772E+00
 -1       741 7.43369E+00
 -1       742 5.92768E+00
 -1       743 3.64251E+00
 -1       744 2.46592E+00
 -1       745 1.69093E+00
 -1       746 1.18108E+00
 -1       747 8.27973E-01
 -1       748 5.80003E-01
 -1       749 4.04671E-01
 -1       750 2.84270E-01
 -1       751 1.97636E-01
 -1       752 1.36517E-01
 -1       753 9.34276E-02
 -1       754 6.29933E-02
 -1       755 4.37881E-02
 -1       756 2.95958E-02
 -1       757 1.92895E-02
 -1       758 1.19341E-02
 -1       759 6.57919E-03
 -1       760 5.06695E-03
 -1       761 4.96993E-03
 -1       762 4.57173E-03
 -1       763 4.01844E-03
 -1       764 3.40328E-03
 -1       765 2.91547E-03
 -1       766 2.47506E-03
 -1       767 2.02263E-03
 -1       768 1.57377E-03
 -1       769 1.59648E-03
 -1       770 1.02923E+00
 -1       771 1.25829E+00
 -1       772 1.79970E+00
 -1       773 1.56516E+00
 -1       774 2.12511E+00
 -1       775 1.59738E+00
 -1       776 1.27826E+00
 -1       777 1.29390E+00
 -1       778 1.07343E+00
 -1       779 8.85833E-01
 -1       780 7.40583E-01
 -1       781 5.58664E-01
 -1       782 4.00923E-01
 -1       783 3.48094E-01
 -1       784 2.87581E-01
 -1       785 2.36630E-01
 -1       786 1.98284E-01
 -1       787 1.63960E-01
 -1       788 1.30715E-01
 -1       789 1.01016E-01
 -1       790 7.66643E-02
 -1       791 5.70606E-02
 -1       792 4.14348E-02
 -1       793 2.92607E-02
 -1       794 1.99795E-02
 -1       795 1.30583E-02
 -1       796 8.01864E-03
 -1       797 4.44859E-03
 -1       798 3.79501E-03
 -1       799 4.00062E-03
 -1       800 3.85487E-03
 -1       801 3.49807E-03
 -1       802 3.03066E-03
 -1       803 2.59225E-03
 -1       804 2.22868E-03
 -1       805 1.82900E-03
 -1       806 1.42657E-03
 -1       807 1.22497E-03
 -1       808 1.20755E-03
 -1       809 3.73349E+00
 -1       810 9.74451E+00
 -1       811 1.59648E-03
 -1       812 1.12279E-03
 -1       813 1.07400E-03
 -1       814 2.69506E+00
 -1       815 2.53885E+00
 -1       816 4.53851E+00
 -1       817 1.37837E+01
 -1       818 5.49906E+00
 -1       819 1.02373E-03
 -1       820 7.81360E+00
 -1       821 9.74451E+00
 -1       822 9.25135E+00
 -1       823 9.26685E+00
 -1       824 9.49281E+00
 -1       825 2.80630E+00
 -1       826 1.67105E+00
 -1       827 2.44030E+00
 -1       828 7.89795E+00
 -1       829 3.29257E+00
 -1       830 4.47177E+00
 -1       831 1.23511E-03
 -1       832 1.33161E+00
 -1       833 1.36418E+00
 -1       834 9.31885E-01
 -1       835 2.43912E+00
 -1       836 1.39608E+00
 -1       837 3.36755E+00
 -1       838 4.26581E+00
 -1       839 2.03255E+00
 -1       840 1.07400E-03
 -1       841 2.29375E+00
 -1       842 5.99480E+00
 -1       843 3.08987E+00
 -1       844 2.81469E+00
 -1       845 1.93201E+00
 -1       846 1.33904E+00
 -1       847 9.51747E-01
 -1       848 6.83433E-01
 -1       849 4.92329E-01
 -1       850 3.53849E-01
 -1       851 2.51344E-01
 -1       852 1.75990E-01
 -1       853 1.23157E-01
 -1       854 8.47824E-02
 -1       855 5.80350E-02
 -1       856 3.91712E-02
 -1       857 2.56099E-02
 -1       858 1.58484E-02
 -1       859 9.26028E-03
 -1       860 4.99837E-03
 -1       861 2.98925E-03
 -1       862 3.43922E-03
 -1       863 3.50149E-03
 -1       864 3.28992E-03
 -1       865 2.91547E-03
 -1       866 2.47506E-03
 -1       867 2.15074E-03
 -1       868 1.80678E-03
 -1       869 1.59648E-03
 -1       870 2.80630E+00
 -1       871 1.59738E+00
 -1       872 2.12511E+00
 -1       873 1.83807E+00
 -1       874 1.38910E+00
 -1       875 1.02226E+00
 -1       876 7.52116E-01
 -1       877 6.09218E-01
 -1       878 4.87528E-01
 -1       879 3.76674E-01
 -1       880 3.00069E-01
 -1       881 2.40906E-01
 -1       882 1.89810E-01
 -1       883 1.46733E-01
 -1       884 1.16699E-01
 -1       885 9.27043E-02
 -1       886 7.16980E-02
 -1       887 5.34843E-02
 -1       888 3.84460E-02
 -1       889 2.67187E-02
 -1       890 1.81331E-02
 -1       891 1.16556E-02
 -1       892 6.91615E-03
 -1       893 3.58928E-03
 -1       894 2.06783E-03
 -1       895 2.63359E-03
 -1       896 2.79487E-03
 -1       897 2.69459E-03
 -1       898 2.43737E-03
 -1       899 2.10018E-03
 -1       900 1.84507E-03
 -1       901 1.54484E-03
 -1       902 2.93205E+00
 -1       903 6.04063E+00
 -1       904 1.21244E-03
 -1       905 1.36658E-03
 -1       906 1.18200E-03
 -1       907 1.70336E+00
 -1       908 6.65035E+00
 -1       909 6.65035E+00
 -1       910 1.69435E+00
 -1       911 6.20552E+00
 -1       912 1.25829E+00
 -1       913 1.67105E+00
 -1       914 4.03249E+00
 -1       915 6.02427E+00
 -1       916 4.16097E+00
 -1       917 3.29642E+00
 -1       918 1.32379E-03
 -1       919 5.79164E+00
 -1       920 2.19188E+00
 -1       921 3.36989E+00
 -1       922 1.63566E+00
 -1       923 1.21244E-03
 -1       924 2.41032E+00
 -1       925 2.03156E+00
 -1       926 4.07846E+00
 -1       927 5.68162E+00
 -1       928 1.96834E+00
 -1       929 1.57213E+00
 -1       930 3.00044E+00
 -1       931 2.41032E+00
 -1       932 3.11793E+00
 -1       933 9.98574E-04
 -1       934 3.54554E+00
 -1       935 4.46112E+00
 -1       936 1.26637E+00
 -1       937 8.87416E-01
 -1       938 6.16958E-01
 -1       939 4.48239E-01
 -1       940 3.38761E-01
 -1       941 2.53243E-01
 -1       942 1.86247E-01
 -1       943 1.36595E-01
 -1       944 9.85945E-02
 -1       945 6.98805E-02
 -1       946 4.84563E-02
 -1       947 3.31895E-02
 -1       948 2.21885E-02
 -1       949 1.41445E-02
 -1       950 8.64833E-03
 -1       951 4.90574E-03
 -1       952 2.36732E-03
 -1       953 2.11282E-03
 -1       954 2.42844E-03
 -1       955 2.44231E-03
 -1       956 2.26641E-03
 -1       957 1.99063E-03
 -1       958 1.71023E-03
 -1       959 1.54328E-03
 -1       960 1.38910E+00
 -1       961 2.10009E+00
 -1       962 9.00825E-01
 -1       963 6.69434E-01
 -1       964 5.28818E-01
 -1       965 4.04145E-01
 -1       966 2.99481E-01
 -1       967 2.31024E-01
 -1       968 1.81366E-01
 -1       969 1.46733E-01
 -1       970 1.16699E-01
 -1       971 8.99951E-02
 -1       972 6.75470E-02
 -1       973 4.93232E-02
 -1       974 3.49478E-02
 -1       975 2.38959E-02
 -1       976 1.60837E-02
 -1       977 1.04020E-02
 -1       978 6.28257E-03
 -1       979 3.62528E-03
 -1       980 2.05418E-03
 -1       981 1.79699E-03
 -1       982 2.07664E-03
 -1       983 2.09699E-03
 -1       984 1.95445E-03
 -1       985 1.79285E-03
 -1       986 1.79285E-03
 -1       987 1.28485E-03
 -1       988 4.54127E+00
 -1       989 1.03953E+00
 -1       990 3.06752E+00
 -1       991 1.10882E+00
 -1       992 2.97347E+00
 -1       993 3.64535E+00
 -1       994 4.46112E+00
 -1       995 1.89354E+00
 -1       996 2.13426E+00
 -1       997 2.41032E+00
 -1       998 4.54127E+00
 -1       999 3.36989E+00
 -1      1000 2.33853E+00
 -1      1001 1.61226E-03
 -1      1002 2.64923E+00
 -1      1003 5.24803E+00
 -1      1004 1.69435E+00
 -1      1005 1.00794E-03
 -1      1006 3.04642E+00
 -1      1007 3.13693E+00
 -1      1008 1.83807E+00
 -1      1009 2.51140E+00
 -1      1010 1.64535E+00
 -1      1011 3.36989E+00
 -1      1012 2.51140E+00
 -1      1013 1.61807E+00
 -1      1014 9.19718E-01
 -1      1015 2.29028E+00
 -1      1016 6.73031E-01
 -1      1017 4.92851E-01
 -1      1018 3.58885E-01
 -1      1019 2.68551E-01
 -1      1020 1.83945E-01
 -1      1021 1.31350E-01
 -1      1022 9.60507E-02
 -1      1023 7.15551E-02
 -1      1024 5.20777E-02
 -1      1025 3.69193E-02
 -1      1026 2.52230E-02
 -1      1027 1.71001E-02
 -1      1028 1.13199E-02
 -1      1029 7.09740E-03
 -1      1030 4.15957E-03
 -1      1031 2.36732E-03
 -1      1032 1.32057E-03
 -1      1033 1.71825E-03
 -1      1034 1.82241E-03
 -1      1035 1.74770E-03
 -1      1036 1.56294E-03
 -1      1037 1.40247E-03
 -1      1038 5.36941E-01
 -1      1039 7.52736E-01
 -1      1040 1.01515E+00
 -1      1041 3.81554E-01
 -1      1042 2.89447E-01
 -1      1043 2.31024E-01
 -1      1044 1.81366E-01
 -1      1045 1.40514E-01
 -1      1046 1.05811E-01
 -1      1047 7.83615E-02
 -1      1048 5.69389E-02
 -1      1049 4.04963E-02
 -1      1050 2.80735E-02
 -1      1051 1.88441E-02
 -1      1052 1.26722E-02
 -1      1053 8.77963E-03
 -1      1054 5.81852E-03
 -1      1055 3.62528E-03
 -1      1056 2.04600E-03
 -1      1057 1.31121E-03
 -1      1058 1.58650E-03
 -1      1059 1.63900E-03
 -1      1060 1.55693E-03
 -1      1061 1.79285E-03
 -1      1062 2.97347E+00
 -1      1063 1.51126E+00
 -1      1064 9.37926E-04
 -1      1065 2.18282E+00
 -1      1066 1.06621E-03
 -1      1067 9.95844E-04
 -1      1068 2.31885E+00
 -1      1069 2.34965E+00
 -1      1070 5.15745E-01
 -1      1071 3.58885E-01
 -1      1072 3.08645E-01
 -1      1073 2.12417E-01
 -1      1074 1.51330E-01
 -1      1075 1.12782E-01
 -1      1076 8.30704E-02
 -1      1077 6.03377E-02
 -1      1078 4.31220E-02
 -1      1079 3.19106E-02
 -1      1080 2.09745E-02
 -1      1081 1.48018E-02
 -1      1082 1.03341E-02
 -1      1083 6.89082E-03
 -1      1084 4.32818E-03
 -1      1085 2.48451E-03
 -1      1086 1.20316E-03
 -1      1087 1.24011E-03
 -1      1088 1.35485E-03
 -1      1089 1.32582E-03
 -1      1090 1.15841E-03
 -1      1091 7.01068E-01
 -1      1092 1.72006E+00
 -1      1093 2.89447E-01
 -1      1094 3.08645E-01
 -1      1095 2.12417E-01
 -1      1096 1.49666E-01
 -1      1097 1.04468E-01
 -1      1098 7.24896E-02
 -1      1099 4.99533E-02
 -1      1100 3.59454E-02
 -1      1101 2.56555E-02
 -1      1102 1.77133E-02
 -1      1103 1.23414E-02
 -1      1104 8.29547E-03
 -1      1105 5.31113E-03
 -1      1106 3.15989E-03
 -1      1107 1.64180E-03
 -1      1108 1.02347E-03
 -1      1109 1.23032E-03
 -1      1110 1.27069E-03
 -1      1111 1.14421E-03
 -1      1112 3.81554E-01
 -1      1113 2.24530E+00
 -1      1114 4.89437E-01
 -1      1115 9.39924E-04
 -1      1116 1.89214E+00
 -1      1117 6.76453E-01
 -1      1118 1.15125E+00
 -1      1119 1.99691E+00
 -1      1120 2.24530E+00
 -1      1121 6.36022E-01
 -1      1122 3.08645E-01
 -1      1123 1.54382E+00
 -1      1124 3.53372E-01
 -1      1125 9.21571E-04
 -1      1126 1.17696E+01
 -1      1127 7.78612E+00
 -1      1128 3.14757E+00
 -1      1129 2.20144E+00
 -1      1130 1.67756E+00
 -1      1131 1.20455E+00
 -1      1132 7.42716E-01
 -1      1133 6.11932E-01
 -1      1134 8.06654E-01
 -1      1135 9.95050E-01
 -1      1136 1.14497E+00
 -1      1137 1.29092E+00
 -1      1138 1.48125E+00
 -1      1139 1.80833E+00
 -1      1140 2.78773E+00
 -1      1141 5.96469E+00
 -1      1142 1.09579E+01
 -1      1143 1.17696E+01
 -1      1144 7.54691E+00
 -1      1145 2.74603E+00
 -1      1146 1.96546E+00
 -1      1147 2.04417E+00
 -1      1148 2.79472E+00
 -1      1149 3.50798E+00
 -1      1150 3.75177E+00
 -1      1151 3.60961E+00
 -1      1152 5.32817E+00
 -1      1153 9.19414E+00
 -1      1154 1.12265E+01
 -1      1155 1.12536E+01
 -1      1156 1.02625E+01
 -1      1157 6.68237E+00
 -1      1158 3.94583E+00
 -1      1159 3.79837E+00
 -1      1160 3.78865E+00
 -1      1161 3.42340E+00
 -1      1162 2.69935E+00
 -1      1163 2.03604E+00
 -1      1164 1.49773E+00
 -1      1165 1.13555E+00
 -1      1166 8.72822E-01
 -1      1167 6.33275E-01
 -1      1168 4.64274E-01
 -1      1169 3.35690E-01
 -1      1170 2.40042E-01
 -1      1171 1.69843E-01
 -1      1172 1.21367E-01
 -1      1173 9.18826E-02
 -1      1174 7.25825E-02
 -1      1175 5.68165E-02
 -1      1176 4.39985E-02
 -1      1177 3.36802E-02
 -1      1178 2.54519E-02
 -1      1179 1.90025E-02
 -1      1180 1.47293E-02
 -1      1181 1.19893E-02
 -1      1182 9.60641E-03
 -1      1183 7.55995E-03
 -1      1184 5.84640E-03
 -1      1185 4.48043E-03
 -1      1186 3.43467E-03
 -1      1187 2.56207E-03
 -1      1188 1.99214E-03
 -1      1189 1.67327E-03
 -1      1190 1.30877E-03
 -1      1191 9.98176E-04
 -1      1192 5.86054E-04
 -1      1193 1.35362E+01
 -1      1194 8.29568E+00
 -1      1195 2.49723E+00
 -1      1196 1.54840E+00
 -1      1197 9.20131E-01
 -1      1198 6.43299E-01
 -1      1199 6.82200E-01
 -1      1200 9.24725E-01
 -1      1201 1.32258E+00
 -1      1202 1.76235E+00
 -1      1203 2.07142E+00
 -1      1204 2.28615E+00
 -1      1205 2.43770E+00
 -1      1206 2.47755E+00
 -1      1207 2.33959E+00
 -1      1208 1.94653E+00
 -1      1209 1.43953E+00
 -1      1210 9.68504E-01
 -1      1211 6.29967E-01
 -1      1212 4.18056E-01
 -1      1213 3.25557E-01
 -1      1214 3.26094E-01
 -1      1215 3.26634E-01
 -1      1216 3.09551E-01
 -1      1217 2.67203E-01
 -1      1218 2.19414E-01
 -1      1219 1.75039E-01
 -1      1220 1.35985E-01
 -1      1221 1.07169E-01
 -1      1222 8.47001E-02
 -1      1223 6.43836E-02
 -1      1224 4.71059E-02
 -1      1225 3.32912E-02
 -1      1226 2.53766E-02
 -1      1227 2.14898E-02
 -1      1228 1.76690E-02
 -1      1229 1.41608E-02
 -1      1230 1.16257E-02
 -1      1231 1.00668E-02
 -1      1232 8.67367E-03
 -1      1233 7.26759E-03
 -1      1234 5.94164E-03
 -1      1235 4.77358E-03
 -1      1236 3.79052E-03
 -1      1237 2.93640E-03
 -1      1238 2.16756E-03
 -1      1239 1.63478E-03
 -1      1240 1.26104E-03
 -1      1241 8.31090E-04
 -1      1242 3.82369E-04
 -1      1243 2.19688E-04
 -1      1244 2.81227E-04
 -1      1245 2.48370E-04
 -1      1246 1.51919E-04
 -1      1247 1.08677E-04
 -1      1248 1.59930E-04
 -1      1249 2.08796E-04
 -1      1250 2.31982E-04
 -1      1251 2.37202E-04
 -1      1252 2.32403E-04
 -1      1253 2.09104E-04
 -1      1254 1.60669E-04
 -1      1255 1.09947E-04
 -1      1256 1.49692E-04
 -1      1257 2.20502E-04
 -1      1258 2.30780E-04
 -1      1259 2.59198E-04
 -1      1260 2.45169E+01
 -1      1261 3.53850E+01
 -1      1262 4.66719E+01
 -1      1263 3.31429E+01
 -1      1264 1.56606E+01
 -1      1265 1.17725E+01
 -1      1266 1.18376E+01
 -1      1267 1.20555E+01
 -1      1268 1.22735E+01
 -1      1269 1.25524E+01
 -1      1270 1.99236E+01
 -1      1271 2.83904E+01
 -1      1272 2.97650E+01
 -1      1273 2.76415E+01
 -1      1274 2.62910E+01
 -1      1275 2.70640E+01
 -1      1276 3.64497E+01
 -1      1277 4.58354E+01
 -1      1278 3.18425E+01
 -1      1279 1.52241E+01
 -1      1280 1.27778E+01
 -1      1281 1.29738E+01
 -1      1282 1.29906E+01
 -1      1283 1.27666E+01
 -1      1284 1.31447E+01
 -1      1285 2.42867E+01
 -1      1286 3.48266E+01
 -1      1287 3.00866E+01
 -1      1288 2.53467E+01
 -1      1289 2.51412E+01
 -1      1290 1.17696E+01
 -1      1291 4.86604E+00
 -1      1292 8.84949E+00
 -1      1293 2.65903E+00
 -1      1294 3.31414E+00
 -1      1295 4.37750E+00
 -1      1296 1.97333E+00
 -1      1297 2.26436E+00
 -1      1298 2.43092E+00
 -1      1299 1.51754E+00
 -1      1300 1.75039E+00
 -1      1301 1.81331E+00
 -1      1302 1.04758E+00
 -1      1303 1.28774E+00
 -1      1304 1.36057E+00
 -1      1305 5.80272E-01
 -1      1306 8.01944E-01
 -1      1307 8.85131E-01
 -1      1308 6.22099E-01
 -1      1309 5.31210E-01
 -1      1310 5.90438E-01
 -1      1311 8.37405E-01
 -1      1312 7.33573E-01
 -1      1313 6.52850E-01
 -1      1314 1.02462E+00
 -1      1315 9.40058E-01
 -1      1316 8.66977E-01
 -1      1317 1.17162E+00
 -1      1318 1.10625E+00
 -1      1319 1.05126E+00
 -1      1320 1.33424E+00
 -1      1321 1.25365E+00
 -1      1322 1.21493E+00
 -1      1323 1.53923E+00
 -1      1324 1.42948E+00
 -1      1325 1.39222E+00
 -1      1326 1.91811E+00
 -1      1327 1.70079E+00
 -1      1328 1.64902E+00
 -1      1329 3.01510E+00
 -1      1330 2.25301E+00
 -1      1331 2.14548E+00
 -1      1332 6.15498E+00
 -1      1333 3.74011E+00
 -1      1334 3.20539E+00
 -1      1335 1.35362E+01
 -1      1336 1.09579E+01
 -1      1337 8.73332E+00
 -1      1338 1.35362E+01
 -1      1339 7.54691E+00
 -1      1340 3.32425E+00
 -1      1341 2.74603E+00
 -1      1342 2.16782E+00
 -1      1343 2.74603E+00
 -1      1344 1.86989E+00
 -1      1345 1.66753E+00
 -1      1346 1.86989E+00
 -1      1347 1.94463E+00
 -1      1348 2.22570E+00
 -1      1349 1.84907E+00
 -1      1350 2.42729E+00
 -1      1351 2.89676E+00
 -1      1352 2.32775E+00
 -1      1353 3.26419E+00
 -1      1354 3.50798E+00
 -1      1355 2.89676E+00
 -1      1356 3.75177E+00
 -1      1357 3.75177E+00
 -1      1358 3.50798E+00
 -1      1359 3.60961E+00
 -1      1360 3.46745E+00
 -1      1361 3.60961E+00
 -1      1362 3.40907E+00
 -1      1363 5.26979E+00
 -1      1364 3.40907E+00
 -1      1365 7.18890E+00
 -1      1366 9.19414E+00
 -1      1367 5.26979E+00
 -1      1368 1.11994E+01
 -1      1369 1.12265E+01
 -1      1370 9.19414E+00
 -1      1371 1.12536E+01
 -1      1372 1.12536E+01
 -1      1373 1.12265E+01
 -1      1374 1.02625E+01
 -1      1375 9.27144E+00
 -1      1376 1.02625E+01
 -1      1377 6.95728E+00
 -1      1378 4.36821E+00
 -1      1379 6.95728E+00
 -1      1380 3.79813E+00
 -1      1381 3.65067E+00
 -1      1382 4.07305E+00
 -1      1383 3.79837E+00
 -1      1384 3.79837E+00
 -1      1385 3.65067E+00
 -1      1386 3.78865E+00
 -1      1387 3.77893E+00
 -1      1388 3.78865E+00
 -1      1389 3.42340E+00
 -1      1390 3.06786E+00
 -1      1391 3.42340E+00
 -1      1392 2.80651E+00
 -1      1393 2.43800E+00
 -1      1394 2.80651E+00
 -1      1395 2.18860E+00
 -1      1396 1.89379E+00
 -1      1397 2.29575E+00
 -1      1398 1.67379E+00
 -1      1399 1.43028E+00
 -1      1400 1.82635E+00
 -1      1401 1.24145E+00
 -1      1402 1.12279E+00
 -1      1403 1.41752E+00
 -1      1404 9.33042E-01
 -1      1405 7.88974E-01
 -1      1406 1.03894E+00
 -1      1407 6.61269E-01
 -1      1408 5.65790E-01
 -1      1409 7.21489E-01
 -1      1410 4.72226E-01
 -1      1411 3.98704E-01
 -1      1412 5.00219E-01
 -1      1413 3.45020E-01
 -1      1414 2.89958E-01
 -1      1415 3.52971E-01
 -1      1416 2.49449E-01
 -1      1417 2.08863E-01
 -1      1418 2.58779E-01
 -1      1419 1.78589E-01
 -1      1420 1.48977E-01
 -1      1421 1.87996E-01
 -1      1422 1.28427E-01
 -1      1423 1.09564E-01
 -1      1424 1.37174E-01
 -1      1425 9.18826E-02
 -1      1426 8.12609E-02
 -1      1427 9.89426E-02
 -1      1428 7.25825E-02
 -1      1429 6.39041E-02
 -1      1430 7.25825E-02
 -1      1431 5.68165E-02
 -1      1432 4.97289E-02
 -1      1433 5.68165E-02
 -1      1434 4.39985E-02
 -1      1435 3.82681E-02
 -1      1436 4.39985E-02
 -1      1437 3.36802E-02
 -1      1438 2.90924E-02
 -1      1439 3.36802E-02
 -1      1440 2.56506E-02
 -1      1441 2.20101E-02
 -1      1442 2.56506E-02
 -1      1443 1.94591E-02
 -1      1444 1.66502E-02
 -1      1445 1.96577E-02
 -1      1446 1.47293E-02
 -1      1447 1.32651E-02
 -1      1448 1.51860E-02
 -1      1449 1.19893E-02
 -1      1450 1.07135E-02
 -1      1451 1.19893E-02
 -1      1452 9.60641E-03
 -1      1453 8.49934E-03
 -1      1454 9.60641E-03
 -1      1455 7.63450E-03
 -1      1456 6.69511E-03
 -1      1457 7.63450E-03
 -1      1458 5.98758E-03
 -1      1459 5.21342E-03
 -1      1460 6.06213E-03
 -1      1461 4.60327E-03
 -1      1462 4.01145E-03
 -1      1463 4.74445E-03
 -1      1464 3.57522E-03
 -1      1465 3.12128E-03
 -1      1466 3.69807E-03
 -1      1467 2.65991E-03
 -1      1468 2.24126E-03
 -1      1469 2.80046E-03
 -1      1470 1.99214E-03
 -1      1471 1.84086E-03
 -1      1472 2.08998E-03
 -1      1473 1.67327E-03
 -1      1474 1.50569E-03
 -1      1475 1.67327E-03
 -1      1476 1.30877E-03
 -1      1477 1.11186E-03
 -1      1478 1.30877E-03
 -1      1479 9.98176E-04
 -1      1480 8.84492E-04
 -1      1481 9.98176E-04
 -1      1482 6.26447E-04
 -1      1483 3.28009E-04
 -1      1484 2.99591E-04
 -1      1485 6.26447E-04
 -1      1486 3.05513E+00
 -1      1487 8.29568E+00
 -1      1488 8.29568E+00
 -1      1489 1.93934E+00
 -1      1490 2.49723E+00
 -1      1491 2.49723E+00
 -1      1492 1.15746E+00
 -1      1493 1.54840E+00
 -1      1494 1.54840E+00
 -1      1495 7.90314E-01
 -1      1496 1.02764E+00
 -1      1497 1.02764E+00
 -1      1498 7.74720E-01
 -1      1499 8.14224E-01
 -1      1500 9.21735E-01
 -1      1501 9.60227E-01
 -1      1502 8.81823E-01
 -1      1503 1.05275E+00
 -1      1504 1.24462E+00
 -1      1505 1.08050E+00
 -1      1506 1.28012E+00
 -1      1507 1.63024E+00
 -1      1508 1.39651E+00
 -1      1509 1.55229E+00
 -1      1510 1.93427E+00
 -1      1511 1.72823E+00
 -1      1512 1.80217E+00
 -1      1513 2.07142E+00
 -1      1514 1.96839E+00
 -1      1515 1.93427E+00
 -1      1516 2.28615E+00
 -1      1517 2.17445E+00
 -1      1518 2.07142E+00
 -1      1519 2.43770E+00
 -1      1520 2.39786E+00
 -1      1521 2.28615E+00
 -1      1522 2.47755E+00
 -1      1523 2.47755E+00
 -1      1524 2.43770E+00
 -1      1525 2.20163E+00
 -1      1526 2.33959E+00
 -1      1527 2.33959E+00
 -1      1528 1.69144E+00
 -1      1529 1.94653E+00
 -1      1530 1.94653E+00
 -1      1531 1.18866E+00
 -1      1532 1.44056E+00
 -1      1533 1.44056E+00
 -1      1534 7.66507E-01
 -1      1535 9.85630E-01
 -1      1536 9.86660E-01
 -1      1537 5.10553E-01
 -1      1538 6.29967E-01
 -1      1539 6.47094E-01
 -1      1540 3.25559E-01
 -1      1541 4.18056E-01
 -1      1542 4.18056E-01
 -1      1543 3.18606E-01
 -1      1544 3.18608E-01
 -1      1545 3.18608E-01
 -1      1546 3.26094E-01
 -1      1547 3.25554E-01
 -1      1548 3.18606E-01
 -1      1549 3.26634E-01
 -1      1550 3.26634E-01
 -1      1551 3.26094E-01
 -1      1552 2.92468E-01
 -1      1553 3.09551E-01
 -1      1554 3.09551E-01
 -1      1555 2.41939E-01
 -1      1556 2.67203E-01
 -1      1557 2.67203E-01
 -1      1558 1.97290E-01
 -1      1559 2.19815E-01
 -1      1560 2.19815E-01
 -1      1561 1.56733E-01
 -1      1562 1.78583E-01
 -1      1563 1.78984E-01
 -1      1564 1.21014E-01
 -1      1565 1.38219E-01
 -1      1566 1.41762E-01
 -1      1567 9.55586E-02
 -1      1568 1.07169E-01
 -1      1569 1.09404E-01
 -1      1570 7.38416E-02
 -1      1571 8.47001E-02
 -1      1572 8.47001E-02
 -1      1573 5.49255E-02
 -1      1574 6.43836E-02
 -1      1575 6.43836E-02
 -1      1576 3.93821E-02
 -1      1577 4.72018E-02
 -1      1578 4.72018E-02
 -1      1579 2.78264E-02
 -1      1580 3.38214E-02
 -1      1581 3.39173E-02
 -1      1582 2.38955E-02
 -1      1583 2.58152E-02
 -1      1584 2.63453E-02
 -1      1585 1.98910E-02
 -1      1586 2.18580E-02
 -1      1587 2.22967E-02
 -1      1588 1.61229E-02
 -1      1589 1.79766E-02
 -1      1590 1.83449E-02
 -1      1591 1.27581E-02
 -1      1592 1.44126E-02
 -1      1593 1.47202E-02
 -1      1594 1.07451E-02
 -1      1595 1.16257E-02
 -1      1596 1.18775E-02
 -1      1597 9.38856E-03
 -1      1598 1.00668E-02
 -1      1599 1.00668E-02
 -1      1600 7.95878E-03
 -1      1601 8.67367E-03
 -1      1602 8.67367E-03
 -1      1603 6.57640E-03
 -1      1604 7.26759E-03
 -1      1605 7.26759E-03
 -1      1606 5.30688E-03
 -1      1607 5.94164E-03
 -1      1608 5.94164E-03
 -1      1609 4.24027E-03
 -1      1610 4.77358E-03
 -1      1611 4.77358E-03
 -1      1612 3.34076E-03
 -1      1613 3.79052E-03
 -1      1614 3.79052E-03
 -1      1615 2.53397E-03
 -1      1616 2.93833E-03
 -1      1617 2.93833E-03
 -1      1618 1.83785E-03
 -1      1619 2.20234E-03
 -1      1620 2.20427E-03
 -1      1621 1.46649E-03
 -1      1622 1.63478E-03
 -1      1623 1.66956E-03
 -1      1624 1.05559E-03
 -1      1625 1.26104E-03
 -1      1626 1.26104E-03
 -1      1627 6.08565E-04
 -1      1628 8.33066E-04
 -1      1629 8.33066E-04
 -1      1630 4.43908E-04
 -1      1631 3.98688E-04
 -1      1632 3.98688E-04
 -1      1633 3.65832E-04
 -1      1634 3.98688E-04
 -1      1635 5.16150E-04
 -1      1636 1.91638E-04
 -1      1637 2.55232E-04
 -1      1638 4.05550E-04
 -1      1639 1.68695E-04
 -1      1640 1.48343E-04
 -1      1641 2.51656E-04
 -1      1642 2.61260E-04
 -1      1643 2.30360E-04
 -1      1644 2.70025E-04
 -1      1645 3.17591E-04
 -1      1646 2.99625E-04
 -1      1647 3.70054E-04
 -1      1648 3.38163E-04
 -1      1649 3.32943E-04
 -1      1650 4.23772E-04
 -1      1651 3.38345E-04
 -1      1652 3.38345E-04
 -1      1653 4.39305E-04
 -1      1654 3.33545E-04
 -1      1655 3.38345E-04
 -1      1656 4.39487E-04
 -1      1657 2.99881E-04
 -1      1658 3.18380E-04
 -1      1659 4.24322E-04
 -1      1660 2.33436E-04
 -1      1661 2.63371E-04
 -1      1662 3.72647E-04
 -1      1663 1.51873E-04
 -1      1664 1.72659E-04
 -1      1665 2.75361E-04
 -1      1666 2.57073E-04
 -1      1667 1.96542E-04
 -1      1668 2.59253E-04
 -1      1669 3.26982E-04
 -1      1670 3.16704E-04
 -1      1671 3.63554E-04
 -1      1672 3.91834E-04
 -1      1673 3.91834E-04
 -1      1674 4.88037E-04
 -1      1675 4.60645E-04
 -1      1676 2.72692E+01
 -1      1677 2.76879E+01
 -1      1678 3.72902E+01
 -1      1679 2.60033E+01
 -1      1680 4.66719E+01
 -1      1681 4.66719E+01
 -1      1682 2.00419E+01
 -1      1683 3.35709E+01
 -1      1684 1.14927E+01
 -1      1685 1.54460E+01
 -1      1686 1.17725E+01
 -1      1687 1.17073E+01
 -1      1688 1.18376E+01
 -1      1689 1.18376E+01
 -1      1690 1.20145E+01
 -1      1691 1.17966E+01
 -1      1692 1.22735E+01
 -1      1693 1.22735E+01
 -1      1694 1.22297E+01
 -1      1695 1.19508E+01
 -1      1696 1.99236E+01
 -1      1697 1.28313E+01
 -1      1698 2.92660E+01
 -1      1699 2.78914E+01
 -1      1700 3.15973E+01
 -1      1701 3.15973E+01
 -1      1702 2.94738E+01
 -1      1703 3.15973E+01
 -1      1704 2.99516E+01
 -1      1705 2.91786E+01
 -1      1706 2.99516E+01
 -1      1707 2.99516E+01
 -1      1708 4.22097E+01
 -1      1709 3.28240E+01
 -1      1710 4.58354E+01
 -1      1711 4.58354E+01
 -1      1712 1.85559E+01
 -1      1713 3.25488E+01
 -1      1714 1.21170E+01
 -1      1715 1.47425E+01
 -1      1716 1.27778E+01
 -1      1717 1.25986E+01
 -1      1718 1.29738E+01
 -1      1719 1.29570E+01
 -1      1720 1.29906E+01
 -1      1721 1.29906E+01
 -1      1722 1.25426E+01
 -1      1723 1.27666E+01
 -1      1724 1.24504E+01
 -1      1725 1.18483E+01
 -1      1726 2.42867E+01
 -1      1727 1.37468E+01
 -1      1728 3.48266E+01
 -1      1729 3.48266E+01
 -1      1730 3.02752E+01
 -1      1731 3.50152E+01
 -1      1732 3.02752E+01
 -1      1733 3.02752E+01
 -1      1734 2.76879E+01
 -1      1735 2.78935E+01
 -1      1736 3.35709E+01
 -1      1737 3.04402E+01
 -1      1738 4.45884E-04
 -1      1739 5.63345E-04
 -1      1740 2.91744E+01
 -1      1741 3.72902E+01
 -1      1742 1.58739E+01
 -1      1743 1.14927E+01
 -1      1744 1.17725E+01
 -1      1745 1.17966E+01
 -1      1746 1.20145E+01
 -1      1747 1.19508E+01
 -1      1748 1.22297E+01
 -1      1749 2.07991E+01
 -1      1750 3.10983E+01
 -1      1751 3.34296E+01
 -1      1752 3.31344E+01
 -1      1753 3.28392E+01
 -1      1754 3.57115E+01
 -1      1755 4.22097E+01
 -1      1756 3.25488E+01
 -1      1757 1.54489E+01
 -1      1758 1.21170E+01
 -1      1759 1.27778E+01
 -1      1760 1.29738E+01
 -1      1761 1.27666E+01
 -1      1762 1.18483E+01
 -1      1763 1.24504E+01
 -1      1764 2.42867E+01
 -1      1765 3.50152E+01
 -1      1766 3.52037E+01
 -1      1767 3.28220E+01
 -1      1768 8.84949E+00
 -1      1769 2.07261E+00
 -1      1770 2.46728E+00
 -1      1771 2.84495E+00
 -1      1772 4.39685E+00
 -1      1773 2.48664E+00
 -1      1774 1.25316E+00
 -1      1775 1.48297E+00
 -1      1776 7.55169E-01
 -1      1777 1.00080E+00
 -1      1778 1.12320E+00
 -1      1779 5.16334E-01
 -1      1780 5.65396E-01
 -1      1781 6.81065E-01
 -1      1782 7.45051E-01
 -1      1783 6.33577E-01
 -1      1784 6.08534E-01
 -1      1785 9.02363E-01
 -1      1786 7.99711E-01
 -1      1787 7.80437E-01
 -1      1788 1.03201E+00
 -1      1789 9.50374E-01
 -1      1790 8.83108E-01
 -1      1791 1.15687E+00
 -1      1792 1.07484E+00
 -1      1793 9.73947E-01
 -1      1794 1.28879E+00
 -1      1795 1.19354E+00
 -1      1796 1.05344E+00
 -1      1797 1.49813E+00
 -1      1798 1.33658E+00
 -1      1799 1.13790E+00
 -1      1800 1.90089E+00
 -1      1801 1.56599E+00
 -1      1802 1.25355E+00
 -1      1803 2.70252E+00
 -1      1804 1.97751E+00
 -1      1805 1.39802E+00
 -1      1806 7.73495E+00
 -1      1807 2.93203E+00
 -1      1808 1.70415E+00
 -1      1809 2.49440E+00
 -1      1810 4.62683E+00
 -1      1811 1.80257E+00
 -1      1812 2.36047E+00
 -1      1813 1.79973E+00
 -1      1814 3.09428E+00
 -1      1815 1.98954E+00
 -1      1816 1.69162E+00
 -1      1817 1.84578E+00
 -1      1818 2.12288E+00
 -1      1819 1.96543E+00
 -1      1820 2.36414E+00
 -1      1821 2.56573E+00
 -1      1822 2.36086E+00
 -1      1823 2.72748E+00
 -1      1824 3.09491E+00
 -1      1825 2.76388E+00
 -1      1826 3.47948E+00
 -1      1827 3.72327E+00
 -1      1828 3.31020E+00
 -1      1829 4.24674E+00
 -1      1830 4.10458E+00
 -1      1831 4.21824E+00
 -1      1832 4.57837E+00
 -1      1833 4.51998E+00
 -1      1834 5.21550E+00
 -1      1835 3.52061E+00
 -1      1836 5.43971E+00
 -1      1837 4.68991E+00
 -1      1838 1.06990E+01
 -1      1839 1.07261E+01
 -1      1840 1.03459E+01
 -1      1841 9.35487E+00
 -1      1842 9.81851E+00
 -1      1843 6.65014E+00
 -1      1844 4.33598E+00
 -1      1845 4.76162E+00
 -1      1846 4.19155E+00
 -1      1847 4.45448E+00
 -1      1848 3.98596E+00
 -1      1849 4.13366E+00
 -1      1850 4.67454E+00
 -1      1851 3.77488E+00
 -1      1852 3.76516E+00
 -1      1853 4.11017E+00
 -1      1854 3.38473E+00
 -1      1855 3.02920E+00
 -1      1856 3.37096E+00
 -1      1857 2.88797E+00
 -1      1858 2.62662E+00
 -1      1859 2.84931E+00
 -1      1860 2.44400E+00
 -1      1861 2.19460E+00
 -1      1862 2.52547E+00
 -1      1863 1.96551E+00
 -1      1864 1.74550E+00
 -1      1865 2.11376E+00
 -1      1866 1.53166E+00
 -1      1867 1.34283E+00
 -1      1868 1.67082E+00
 -1      1869 1.13786E+00
 -1      1870 9.48117E-01
 -1      1871 1.25201E+00
 -1      1872 8.01380E-01
 -1      1873 6.73675E-01
 -1      1874 9.00303E-01
 -1      1875 5.63033E-01
 -1      1876 4.69468E-01
 -1      1877 6.42924E-01
 -1      1878 3.88458E-01
 -1      1879 3.34774E-01
 -1      1880 4.51271E-01
 -1      1881 2.76518E-01
 -1      1882 2.36009E-01
 -1      1883 3.12004E-01
 -1      1884 1.94655E-01
 -1      1885 1.64381E-01
 -1      1886 2.12393E-01
 -1      1887 1.37174E-01
 -1      1888 1.16624E-01
 -1      1889 1.43832E-01
 -1      1890 9.74663E-02
 -1      1891 7.97846E-02
 -1      1892 9.74663E-02
 -1      1893 6.88538E-02
 -1      1894 6.01754E-02
 -1      1895 6.73775E-02
 -1      1896 5.20720E-02
 -1      1897 4.49844E-02
 -1      1898 4.83432E-02
 -1      1899 3.90346E-02
 -1      1900 3.33042E-02
 -1      1901 3.42901E-02
 -1      1902 3.04429E-02
 -1      1903 2.58551E-02
 -1      1904 2.54791E-02
 -1      1905 2.34387E-02
 -1      1906 1.99969E-02
 -1      1907 2.02014E-02
 -1      1908 1.79355E-02
 -1      1909 1.53845E-02
 -1      1910 1.57237E-02
 -1      1911 1.38681E-02
 -1      1912 1.19472E-02
 -1      1913 1.21458E-02
 -1      1914 1.08568E-02
 -1      1915 9.58101E-03
 -1      1916 9.53894E-03
 -1      1917 8.79132E-03
 -1      1918 7.68425E-03
 -1      1919 7.65884E-03
 -1      1920 7.10334E-03
 -1      1921 6.23850E-03
 -1      1922 6.28825E-03
 -1      1923 5.70023E-03
 -1      1924 4.99270E-03
 -1      1925 5.16907E-03
 -1      1926 4.56241E-03
 -1      1927 3.95226E-03
 -1      1928 4.20051E-03
 -1      1929 3.59491E-03
 -1      1930 3.15867E-03
 -1      1931 3.41287E-03
 -1      1932 2.82185E-03
 -1      1933 2.36048E-03
 -1      1934 2.71869E-03
 -1      1935 2.08296E-03
 -1      1936 1.83384E-03
 -1      1937 2.10434E-03
 -1      1938 1.59048E-03
 -1      1939 1.42290E-03
 -1      1940 1.58346E-03
 -1      1941 1.27872E-03
 -1      1942 1.08181E-03
 -1      1943 1.19593E-03
 -1      1944 9.35478E-04
 -1      1945 8.21794E-04
 -1      1946 9.05424E-04
 -1      1947 7.18690E-04
 -1      1948 8.97826E-01
 -1      1949 1.02764E+00
 -1      1950 8.86353E-01
 -1      1951 8.62444E-01
 -1      1952 8.62444E-01
 -1      1953 1.07884E+00
 -1      1954 9.71735E-01
 -1      1955 9.12445E-01
 -1      1956 1.31366E+00
 -1      1957 1.19339E+00
 -1      1958 1.11238E+00
 -1      1959 1.57701E+00
 -1      1960 1.42512E+00
 -1      1961 1.33839E+00
 -1      1962 1.80217E+00
 -1      1963 1.70418E+00
 -1      1964 1.57701E+00
 -1      1965 1.93427E+00
 -1      1966 1.90016E+00
 -1      1967 1.80217E+00
 -1      1968 2.04529E+00
 -1      1969 1.94226E+00
 -1      1970 1.90814E+00
 -1      1971 2.15683E+00
 -1      1972 2.04513E+00
 -1      1973 1.91597E+00
 -1      1974 2.19524E+00
 -1      1975 2.15539E+00
 -1      1976 1.91437E+00
 -1      1977 1.95643E+00
 -1      1978 2.09439E+00
 -1      1979 1.81208E+00
 -1      1980 1.52636E+00
 -1      1981 1.78146E+00
 -1      1982 1.53626E+00
 -1      1983 1.13209E+00
 -1      1984 1.38297E+00
 -1      1985 1.21789E+00
 -1      1986 7.66807E-01
 -1      1987 9.69833E-01
 -1      1988 9.12238E-01
 -1      1989 5.02735E-01
 -1      1990 6.39275E-01
 -1      1991 6.22449E-01
 -1      1992 2.95870E-01
 -1      1993 3.88367E-01
 -1      1994 3.80549E-01
 -1      1995 2.64674E-01
 -1      1996 2.71625E-01
 -1      1997 2.41936E-01
 -1      1998 2.77500E-01
 -1      1999 2.70552E-01
 -1      2000 2.23568E-01
 -1      2001 2.84416E-01
 -1      2002 2.83876E-01
 -1      2003 2.35822E-01
 -1      2004 2.58049E-01
 -1      2005 2.75132E-01
 -1      2006 2.32915E-01
 -1      2007 2.16806E-01
 -1      2008 2.42070E-01
 -1      2009 2.07652E-01
 -1      2010 1.81152E-01
 -1      2011 2.03275E-01
 -1      2012 1.78143E-01
 -1      2013 1.51444E-01
 -1      2014 1.70151E-01
 -1      2015 1.53612E-01
 -1      2016 1.19891E-01
 -1      2017 1.38405E-01
 -1      2018 1.29572E-01
 -1      2019 9.29734E-02
 -1      2020 1.06818E-01
 -1      2021 1.03461E-01
 -1      2022 7.19616E-02
 -1      2023 8.28201E-02
 -1      2024 8.02349E-02
 -1      2025 5.42322E-02
 -1      2026 6.36902E-02
 -1      2027 6.18103E-02
 -1      2028 3.94780E-02
 -1      2029 4.72018E-02
 -1      2030 4.65085E-02
 -1      2031 2.85361E-02
 -1      2032 3.40968E-02
 -1      2033 3.40968E-02
 -1      2034 2.43341E-02
 -1      2035 2.63453E-02
 -1      2036 2.65248E-02
 -1      2037 2.02592E-02
 -1      2038 2.22967E-02
 -1      2039 2.22967E-02
 -1      2040 1.64305E-02
 -1      2041 1.83449E-02
 -1      2042 1.83449E-02
 -1      2043 1.30099E-02
 -1      2044 1.47202E-02
 -1      2045 1.47202E-02
 -1      2046 1.04051E-02
 -1      2047 1.15375E-02
 -1      2048 1.15375E-02
 -1      2049 8.83233E-03
 -1      2050 9.51061E-03
 -1      2051 9.17056E-03
 -1      2052 7.47754E-03
 -1      2053 8.19243E-03
 -1      2054 7.63619E-03
 -1      2055 6.16357E-03
 -1      2056 6.85475E-03
 -1      2057 6.37351E-03
 -1      2058 4.95323E-03
 -1      2059 5.58799E-03
 -1      2060 5.17515E-03
 -1      2061 3.96100E-03
 -1      2062 4.49430E-03
 -1      2063 4.14065E-03
 -1      2064 3.10419E-03
 -1      2065 3.55394E-03
 -1      2066 3.27466E-03
 -1      2067 2.38115E-03
 -1      2068 2.78358E-03
 -1      2069 2.54700E-03
 -1      2070 1.77469E-03
 -1      2071 2.10632E-03
 -1      2072 1.95157E-03
 -1      2073 1.35537E-03
 -1      2074 1.55844E-03
 -1      2075 1.46050E-03
 -1      2076 1.00281E-03
 -1      2077 1.20826E-03
 -1      2078 1.09714E-03
 -1      2079 7.06840E-04
 -1      2080 9.29365E-04
 -1      2081 8.76587E-04
 -1      2082 6.59644E-04
 -1      2083 2.80007E-04
 -1      2084 3.23302E-04
 -1      2085 5.97282E-04
 -1      2086 7.07881E-04
 -1      2087 6.25633E-04
 -1      2088 6.59644E-04
 -1      2089 3.86210E-04
 -1      2090 3.24546E-04
 -1      2091 3.96192E-04
 -1      2092 4.80021E-04
 -1      2093 4.41657E-04
 -1      2094 4.96177E-04
 -1      2095 5.19613E-04
 -1      2096 5.04260E-04
 -1      2097 5.75863E-04
 -1      2098 5.19794E-04
 -1      2099 5.19613E-04
 -1      2100 6.00101E-04
 -1      2101 5.20149E-04
 -1      2102 5.20149E-04
 -1      2103 6.00457E-04
 -1      2104 5.04984E-04
 -1      2105 5.20149E-04
 -1      2106 6.00812E-04
 -1      2107 4.46931E-04
 -1      2108 4.83440E-04
 -1      2109 5.79268E-04
 -1      2110 3.32676E-04
 -1      2111 3.93453E-04
 -1      2112 5.04246E-04
 -1      2113 3.32460E-04
 -1      2114 2.87791E-04
 -1      2115 4.05883E-04
 -1      2116 5.22546E-04
 -1      2117 4.62915E-04
 -1      2118 4.91452E-04
 -1      2119 1.09864E+00
 -1      2120 1.48958E+00
 -1      2121 1.35281E+00
 -1      2122 9.68825E-01
 -1      2123 3.72902E+01
 -1      2124 2.79085E+01
 -1      2125 9.92711E+00
 -1      2126 1.45230E+01
 -1      2127 3.35890E+01
 -1      2128 3.35890E+01
 -1      2129 1.83477E+01
 -1      2130 3.14487E+01
 -1      2131 1.24008E+01
 -1      2132 1.84967E+00
 -1      2133 2.07261E+00
 -1      2134 2.10897E+00
 -1      2135 1.74227E+00
 -1      2136 9.71504E+00
 -1      2137 9.50040E+00
 -1      2138 1.11340E+01
 -1      2139 1.10689E+01
 -1      2140 9.07657E+00
 -1      2141 1.11146E+01
 -1      2142 1.11557E+01
 -1      2143 1.14158E+01
 -1      2144 1.11568E+01
 -1      2145 1.06401E+01
 -1      2146 1.09628E+01
 -1      2147 1.03050E+01
 -1      2148 9.70337E+00
 -1      2149 8.71534E+00
 -1      2150 1.98622E+01
 -1      2151 1.18943E+01
 -1      2152 2.66853E+01
 -1      2153 2.43540E+01
 -1      2154 3.34296E+01
 -1      2155 3.34296E+01
 -1      2156 3.47527E+01
 -1      2157 3.50479E+01
 -1      2158 3.47527E+01
 -1      2159 3.47527E+01
 -1      2160 3.04883E+01
 -1      2161 2.76159E+01
 -1      2162 3.65266E+01
 -1      2163 3.29008E+01
 -1      2164 1.75429E+01
 -1      2165 3.08295E+01
 -1      2166 1.03373E+01
 -1      2167 1.41507E+01
 -1      2168 1.03788E+01
 -1      2169 9.89723E+00
 -1      2170 1.16383E+01
 -1      2171 1.14590E+01
 -1      2172 1.21352E+01
 -1      2173 1.21184E+01
 -1      2174 1.14136E+01
 -1      2175 1.16376E+01
 -1      2176 9.66597E+00
 -1      2177 1.03603E+01
 -1      2178 1.03993E+01
 -1      2179 9.10288E+00
 -1      2180 2.36486E+01
 -1      2181 1.31087E+01
 -1      2182 2.81731E+01
 -1      2183 2.79845E+01
 -1      2184 3.52037E+01
 -1      2185 3.52037E+01
 -1      2186 2.81731E+01
 -1      2187 3.35890E+01
 -1      2188 3.59707E+01
 -1      2189 2.72547E+01
 -1      2190 2.85205E+01
 -1      2191 3.16693E+01
 -1      2192 6.55992E-04
 -1      2193 2.51606E+00
 -1      2194 2.20670E+01
 -1      2195 6.25621E+00
 -1      2196 8.03386E+00
 -1      2197 6.68292E+00
 -1      2198 2.33778E+00
 -1      2199 8.54474E+00
 -1      2200 8.04441E+00
 -1      2201 6.53950E+00
 -1      2202 6.73357E+00
 -1      2203 8.51376E-04
 -1      2204 5.87398E-04
 -1      2205 5.22546E-04
 -1      2206 6.21907E-04
 -1      2207 6.90501E-04
 -1      2208 2.72547E+01
 -1      2209 3.67378E+01
 -1      2210 3.59707E+01
 -1      2211 1.68065E+01
 -1      2212 9.76121E+00
 -1      2213 7.61486E+00
 -1      2214 9.23125E+00
 -1      2215 1.07821E+01
 -1      2216 1.07996E+01
 -1      2217 9.23929E+00
 -1      2218 8.59909E+00
 -1      2219 1.24314E+01
 -1      2220 2.15207E+01
 -1      2221 2.48052E+01
 -1      2222 3.02067E+01
 -1      2223 3.21202E+01
 -1      2224 2.49834E+01
 -1      2225 3.66663E+01
 -1      2226 3.50479E+01
 -1      2227 2.66853E+01
 -1      2228 9.22161E+00
 -1      2229 6.69527E+00
 -1      2230 8.28463E+00
 -1      2231 1.01051E+01
 -1      2232 1.04520E+01
 -1      2233 1.05159E+01
 -1      2234 1.54492E+01
 -1      2235 4.79031E+00
 -1      2236 6.99056E-01
 -1      2237 8.88829E-01
 -1      2238 1.12346E+00
 -1      2239 1.37583E+00
 -1      2240 1.14145E+00
 -1      2241 8.68161E-01
 -1      2242 8.13501E-01
 -1      2243 9.41681E-01
 -1      2244 8.93670E-01
 -1      2245 9.26734E-01
 -1      2246 9.84510E-01
 -1      2247 9.41681E-01
 -1      2248 9.52244E-01
 -1      2249 1.01595E+00
 -1      2250 9.79280E-01
 -1      2251 9.47014E-01
 -1      2252 1.01998E+00
 -1      2253 9.72189E-01
 -1      2254 8.98024E-01
 -1      2255 1.05139E+00
 -1      2256 9.83533E-01
 -1      2257 8.17818E-01
 -1      2258 1.09306E+00
 -1      2259 1.01645E+00
 -1      2260 7.46428E-01
 -1      2261 1.53622E+00
 -1      2262 1.30671E+00
 -1      2263 9.25133E-01
 -1      2264 1.40229E+00
 -1      2265 4.45448E+00
 -1      2266 4.88013E+00
 -1      2267 2.01223E+00
 -1      2268 2.16639E+00
 -1      2269 1.51607E+01
 -1      2270 2.10022E+01
 -1      2271 2.34833E+00
 -1      2272 2.58959E+00
 -1      2273 2.39513E+00
 -1      2274 3.02314E+00
 -1      2275 3.18490E+00
 -1      2276 3.01062E+00
 -1      2277 3.77594E+00
 -1      2278 4.16051E+00
 -1      2279 4.03521E+00
 -1      2280 4.82047E+00
 -1      2281 5.34394E+00
 -1      2282 5.28621E+00
 -1      2283 5.72688E+00
 -1      2284 6.20066E+00
 -1      2285 6.32911E+00
 -1      2286 8.03002E+00
 -1      2287 7.03065E+00
 -1      2288 9.24824E-04
 -1      2289 8.10482E+00
 -1      2290 1.02591E+01
 -1      2291 4.96287E+00
 -1      2292 4.75728E+00
 -1      2293 5.12464E+00
 -1      2294 4.76586E+00
 -1      2295 5.41296E+00
 -1      2296 3.93337E+00
 -1      2297 3.55294E+00
 -1      2298 4.94784E+00
 -1      2299 3.09986E+00
 -1      2300 2.95864E+00
 -1      2301 3.66227E+00
 -1      2302 2.61004E+00
 -1      2303 2.42743E+00
 -1      2304 2.86060E+00
 -1      2305 2.13314E+00
 -1      2306 1.90404E+00
 -1      2307 2.21771E+00
 -1      2308 1.67082E+00
 -1      2309 1.45698E+00
 -1      2310 1.69020E+00
 -1      2311 1.25829E+00
 -1      2312 1.05332E+00
 -1      2313 1.25829E+00
 -1      2314 9.12404E-01
 -1      2315 7.65668E-01
 -1      2316 9.18683E-01
 -1      2317 6.59178E-01
 -1      2318 5.48535E-01
 -1      2319 6.71279E-01
 -1      2320 4.69193E-01
 -1      2321 3.88182E-01
 -1      2322 4.85446E-01
 -1      2323 3.29663E-01
 -1      2324 2.71407E-01
 -1      2325 3.47585E-01
 -1      2326 2.28606E-01
 -1      2327 1.87251E-01
 -1      2328 2.46265E-01
 -1      2329 1.57237E-01
 -1      2330 1.30029E-01
 -1      2331 1.73449E-01
 -1      2332 1.05665E-01
 -1      2333 8.65068E-02
 -1      2334 1.19070E-01
 -1      2335 7.07518E-02
 -1      2336 5.98209E-02
 -1      2337 7.89502E-02
 -1      2338 4.86988E-02
 -1      2339 4.05954E-02
 -1      2340 5.20731E-02
 -1      2341 3.42027E-02
 -1      2342 2.82530E-02
 -1      2343 3.45583E-02
 -1      2344 2.40190E-02
 -1      2345 2.11577E-02
 -1      2346 2.39316E-02
 -1      2347 1.89765E-02
 -1      2348 1.65601E-02
 -1      2349 1.75164E-02
 -1      2350 1.52811E-02
 -1      2351 1.32197E-02
 -1      2352 1.40561E-02
 -1      2353 1.20546E-02
 -1      2354 1.05381E-02
 -1      2355 1.16120E-02
 -1      2356 9.50882E-03
 -1      2357 8.41840E-03
 -1      2358 9.41757E-03
 -1      2359 7.53657E-03
 -1      2360 6.74688E-03
 -1      2361 7.50644E-03
 -1      2362 6.17231E-03
 -1      2363 5.59140E-03
 -1      2364 6.05003E-03
 -1      2365 5.13800E-03
 -1      2366 4.59973E-03
 -1      2367 5.02206E-03
 -1      2368 4.20051E-03
 -1      2369 3.77022E-03
 -1      2370 4.16944E-03
 -1      2371 3.42209E-03
 -1      2372 3.06474E-03
 -1      2373 3.42209E-03
 -1      2374 2.73355E-03
 -1      2375 2.39673E-03
 -1      2376 2.74278E-03
 -1      2377 2.11399E-03
 -1      2378 1.83646E-03
 -1      2379 2.12885E-03
 -1      2380 1.58853E-03
 -1      2381 1.34517E-03
 -1      2382 1.59817E-03
 -1      2383 1.15771E-03
 -1      2384 1.01353E-03
 -1      2385 1.16277E-03
 -1      2386 1.00900E-03
 -1      2387 8.62674E-04
 -1      2388 7.94080E-04
 -1      2389 9.70781E-04
 -1      2390 1.12565E+00
 -1      2391 1.01110E+00
 -1      2392 8.97843E-01
 -1      2393 8.12460E-01
 -1      2394 9.11114E-01
 -1      2395 7.62325E-01
 -1      2396 7.97707E-01
 -1      2397 7.47723E-01
 -1      2398 1.34185E+00
 -1      2399 1.23039E+00
 -1      2400 1.12911E+00
 -1      2401 1.53288E+00
 -1      2402 1.40571E+00
 -1      2403 1.29772E+00
 -1      2404 1.68361E+00
 -1      2405 1.58562E+00
 -1      2406 1.41433E+00
 -1      2407 1.69326E+00
 -1      2408 1.68528E+00
 -1      2409 1.46873E+00
 -1      2410 1.64079E+00
 -1      2411 1.64095E+00
 -1      2412 1.41809E+00
 -1      2413 1.67688E+00
 -1      2414 1.67832E+00
 -1      2415 1.40330E+00
 -1      2416 1.56714E+00
 -1      2417 1.66800E+00
 -1      2418 1.43195E+00
 -1      2419 1.31720E+00
 -1      2420 1.49217E+00
 -1      2421 1.34809E+00
 -1      2422 1.10166E+00
 -1      2423 1.24506E+00
 -1      2424 1.20097E+00
 -1      2425 8.13533E-01
 -1      2426 9.75790E-01
 -1      2427 1.00296E+00
 -1      2428 5.61792E-01
 -1      2429 6.89324E-01
 -1      2430 7.52876E-01
 -1      2431 3.47020E-01
 -1      2432 4.61387E-01
 -1      2433 5.28263E-01
 -1      2434 2.57048E-01
 -1      2435 2.81293E-01
 -1      2436 3.62132E-01
 -1      2437 2.37985E-01
 -1      2438 2.32107E-01
 -1      2439 2.71464E-01
 -1      2440 2.18674E-01
 -1      2441 2.12298E-01
 -1      2442 2.20837E-01
 -1      2443 2.13122E-01
 -1      2444 2.22406E-01
 -1      2445 1.98881E-01
 -1      2446 1.92720E-01
 -1      2447 2.08698E-01
 -1      2448 1.98190E-01
 -1      2449 1.70638E-01
 -1      2450 1.84169E-01
 -1      2451 1.85215E-01
 -1      2452 1.48150E-01
 -1      2453 1.59150E-01
 -1      2454 1.65177E-01
 -1      2455 1.23820E-01
 -1      2456 1.36859E-01
 -1      2457 1.42398E-01
 -1      2458 9.84252E-02
 -1      2459 1.11498E-01
 -1      2460 1.18784E-01
 -1      2461 7.64364E-02
 -1      2462 8.65896E-02
 -1      2463 9.46266E-02
 -1      2464 5.76620E-02
 -1      2465 6.59334E-02
 -1      2466 7.22881E-02
 -1      2467 4.18280E-02
 -1      2468 4.88584E-02
 -1      2469 5.29816E-02
 -1      2470 2.93972E-02
 -1      2471 3.47785E-02
 -1      2472 3.71284E-02
 -1      2473 2.25772E-02
 -1      2474 2.47680E-02
 -1      2475 2.54496E-02
 -1      2476 1.74203E-02
 -1      2477 1.94577E-02
 -1      2478 1.77008E-02
 -1      2479 1.43671E-02
 -1      2480 1.62815E-02
 -1      2481 1.34425E-02
 -1      2482 1.18559E-02
 -1      2483 1.35662E-02
 -1      2484 1.15028E-02
 -1      2485 9.54517E-03
 -1      2486 1.10176E-02
 -1      2487 9.86363E-03
 -1      2488 7.84108E-03
 -1      2489 8.73555E-03
 -1      2490 8.21569E-03
 -1      2491 6.45891E-03
 -1      2492 7.09880E-03
 -1      2493 6.66379E-03
 -1      2494 5.41045E-03
 -1      2495 6.03323E-03
 -1      2496 5.49584E-03
 -1      2497 4.45545E-03
 -1      2498 5.03102E-03
 -1      2499 4.69074E-03
 -1      2500 3.61169E-03
 -1      2501 4.07062E-03
 -1      2502 3.92649E-03
 -1      2503 2.85438E-03
 -1      2504 3.26143E-03
 -1      2505 3.19140E-03
 -1      2506 2.23420E-03
 -1      2507 2.55481E-03
 -1      2508 2.54158E-03
 -1      2509 1.68539E-03
 -1      2510 1.96022E-03
 -1      2511 1.96802E-03
 -1      2512 1.25090E-03
 -1      2513 1.46715E-03
 -1      2514 1.47580E-03
 -1      2515 9.41612E-04
 -1      2516 1.08872E-03
 -1      2517 1.09537E-03
 -1      2518 1.07392E+01
 -1      2519 6.22918E-04
 -1      2520 5.67472E-04
 -1      2521 4.95484E-04
 -1      2522 4.50945E-04
 -1      2523 6.22224E-04
 -1      2524 5.08146E-04
 -1      2525 7.82125E-04
 -1      2526 6.07437E-04
 -1      2527 2.40900E+01
 -1      2528 2.34361E+01
 -1      2529 6.78566E-04
 -1      2530 6.54327E-04
 -1      2531 7.25622E-04
 -1      2532 6.78566E-04
 -1      2533 6.78566E-04
 -1      2534 7.57030E-04
 -1      2535 6.78262E-04
 -1      2536 6.77907E-04
 -1      2537 7.56371E-04
 -1      2538 6.82185E-04
 -1      2539 6.82185E-04
 -1      2540 7.59635E-04
 -1      2541 6.60641E-04
 -1      2542 6.82185E-04
 -1      2543 7.63558E-04
 -1      2544 5.77461E-04
 -1      2545 6.30939E-04
 -1      2546 7.33856E-04
 -1      2547 4.68092E-04
 -1      2548 5.12977E-04
 -1      2549 6.39670E-04
 -1      2550 7.94080E-04
 -1      2551 6.63625E-04
 -1      2552 7.70719E-04
 -1      2553 2.48664E+00
 -1      2554 1.96012E+00
 -1      2555 2.16108E+00
 -1      2556 2.10897E+00
 -1      2557 3.67378E+01
 -1      2558 3.67378E+01
 -1      2559 1.59054E+01
 -1      2560 1.15695E+01
 -1      2561 8.27583E+00
 -1      2562 8.72888E+00
 -1      2563 7.71052E+00
 -1      2564 1.15352E+01
 -1      2565 1.04704E+01
 -1      2566 7.88074E-01
 -1      2567 6.70832E-01
 -1      2568 8.78596E-01
 -1      2569 8.75798E-01
 -1      2570 9.24922E+00
 -1      2571 9.20700E+00
 -1      2572 7.77924E+00
 -1      2573 6.42543E+00
 -1      2574 1.43522E+01
 -1      2575 9.86029E+00
 -1      2576 8.94009E+00
 -1      2577 8.91843E+00
 -1      2578 6.07962E+00
 -1      2579 7.01632E+00
 -1      2580 2.36208E+01
 -1      2581 1.68766E+01
 -1      2582 1.12876E+01
 -1      2583 2.95570E+01
 -1      2584 2.79387E+01
 -1      2585 3.66663E+01
 -1      2586 3.66663E+01
 -1      2587 2.95570E+01
 -1      2588 2.32691E+01
 -1      2589 2.08566E+01
 -1      2590 1.42510E+01
 -1      2591 1.99481E+01
 -1      2592 1.59994E+01
 -1      2593 9.70496E+00
 -1      2594 1.30972E+01
 -1      2595 5.96595E+00
 -1      2596 6.52904E+00
 -1      2597 8.98990E+00
 -1      2598 6.28045E+00
 -1      2599 5.19463E+00
 -1      2600 8.08878E+00
 -1      2601 2.51911E+01
 -1      2602 1.81605E+01
 -1      2603 2.96980E+01
 -1      2604 2.89309E+01
 -1      2605 2.96980E+01
 -1      2606 2.66008E+01
 -1      2607 3.16693E+01
 -1      2608 9.16401E-04
 -1      2609 1.74690E+00
 -1      2610 1.74664E+00
 -1      2611 2.11334E+00
 -1      2612 1.16596E+00
 -1      2613 9.02450E-01
 -1      2614 8.52971E-01
 -1      2615 3.16693E+01
 -1      2616 1.03590E+01
 -1      2617 5.65667E+00
 -1      2618 4.19012E+00
 -1      2619 4.35934E+00
 -1      2620 1.71836E+01
 -1      2621 8.54140E+00
 -1      2622 7.87072E+00
 -1      2623 5.16599E+00
 -1      2624 7.67339E+00
 -1      2625 7.41996E+00
 -1      2626 5.88603E+00
 -1      2627 8.10076E+00
 -1      2628 2.34361E+01
 -1      2629 7.94080E-04
 -1      2630 9.66253E-04
 -1      2631 2.10897E+00
 -1      2632 7.04857E-01
 -1      2633 7.75856E-01
 -1      2634 5.89003E-01
 -1      2635 6.04738E-01
 -1      2636 1.29235E+01
 -1      2637 4.75117E+00
 -1      2638 6.64442E+00
 -1      2639 5.77877E+00
 -1      2640 7.02050E+00
 -1      2641 1.89183E+01
 -1      2642 1.15246E+01
 -1      2643 2.75053E+01
 -1      2644 2.75053E+01
 -1      2645 2.29592E+01
 -1      2646 1.81299E+01
 -1      2647 5.43004E+00
 -1      2648 3.73102E+00
 -1      2649 4.34667E+00
 -1      2650 2.34473E+01
 -1      2651 5.64011E+00
 -1      2652 8.46431E+00
 -1      2653 5.79159E+00
 -1      2654 7.36724E+00
 -1      2655 4.96287E+00
 -1      2656 6.26729E+00
 -1      2657 4.78625E+00
 -1      2658 9.86142E+00
 -1      2659 8.12636E+00
 -1      2660 7.46056E+00
 -1      2661 7.98913E-04
 -1      2662 7.24055E+00
 -1      2663 8.29384E+00
 -1      2664 1.04398E+00
 -1      2665 1.04398E+00
 -1      2666 1.05875E+00
 -1      2667 1.03324E+00
 -1      2668 1.15049E+00
 -1      2669 8.85423E-01
 -1      2670 9.29183E-01
 -1      2671 7.45455E-01
 -1      2672 7.81901E-01
 -1      2673 8.13060E-01
 -1      2674 8.69864E-01
 -1      2675 6.56215E-01
 -1      2676 6.33532E-01
 -1      2677 5.59164E+00
 -1      2678 6.96187E+00
 -1      2679 6.69496E+00
 -1      2680 3.00798E+00
 -1      2681 3.44152E+00
 -1      2682 4.28871E+00
 -1      2683 4.87975E+00
 -1      2684 4.28606E+00
 -1      2685 7.05953E+00
 -1      2686 7.71949E+00
 -1      2687 7.31303E+00
 -1      2688 1.72136E+01
 -1      2689 2.03783E+01
 -1      2690 9.70781E-04
 -1      2691 1.26766E+01
 -1      2692 1.04216E+01
 -1      2693 6.93162E+00
 -1      2694 6.09913E+00
 -1      2695 5.02152E+00
 -1      2696 4.56844E+00
 -1      2697 7.00530E+00
 -1      2698 3.30806E+00
 -1      2699 2.95946E+00
 -1      2700 4.66730E+00
 -1      2701 2.49639E+00
 -1      2702 2.20210E+00
 -1      2703 2.94385E+00
 -1      2704 1.85333E+00
 -1      2705 1.62011E+00
 -1      2706 2.13201E+00
 -1      2707 1.35434E+00
 -1      2708 1.15565E+00
 -1      2709 1.51747E+00
 -1      2710 9.64714E-01
 -1      2711 8.23800E-01
 -1      2712 1.06077E+00
 -1      2713 6.93966E-01
 -1      2714 5.87476E-01
 -1      2715 7.39997E-01
 -1      2716 4.97090E-01
 -1      2717 4.17747E-01
 -1      2718 5.19777E-01
 -1      2719 3.60393E-01
 -1      2720 3.01874E-01
 -1      2721 3.72036E-01
 -1      2722 2.58841E-01
 -1      2723 2.16040E-01
 -1      2724 2.71649E-01
 -1      2725 1.83719E-01
 -1      2726 1.53704E-01
 -1      2727 1.96295E-01
 -1      2728 1.28896E-01
 -1      2729 1.04531E-01
 -1      2730 1.39166E-01
 -1      2731 8.71732E-02
 -1      2732 7.14181E-02
 -1      2733 9.69991E-02
 -1      2734 5.87480E-02
 -1      2735 4.76260E-02
 -1      2736 6.69710E-02
 -1      2737 3.84786E-02
 -1      2738 3.20859E-02
 -1      2739 4.51535E-02
 -1      2740 2.55687E-02
 -1      2741 2.13348E-02
 -1      2742 2.94890E-02
 -1      2743 1.68443E-02
 -1      2744 1.46631E-02
 -1      2745 1.84815E-02
 -1      2746 1.26734E-02
 -1      2747 1.13944E-02
 -1      2748 1.20013E-02
 -1      2749 1.03423E-02
 -1      2750 9.17717E-03
 -1      2751 8.95957E-03
 -1      2752 8.68853E-03
 -1      2753 7.65924E-03
 -1      2754 7.41884E-03
 -1      2755 7.13693E-03
 -1      2756 6.25510E-03
 -1      2757 6.40789E-03
 -1      2758 5.74423E-03
 -1      2759 5.16965E-03
 -1      2760 5.37472E-03
 -1      2761 4.74695E-03
 -1      2762 4.29355E-03
 -1      2763 4.44115E-03
 -1      2764 3.98597E-03
 -1      2765 3.58675E-03
 -1      2766 3.71086E-03
 -1      2767 3.27004E-03
 -1      2768 2.92191E-03
 -1      2769 3.08657E-03
 -1      2770 2.62857E-03
 -1      2771 2.29738E-03
 -1      2772 2.47651E-03
 -1      2773 2.06227E-03
 -1      2774 1.77953E-03
 -1      2775 1.94806E-03
 -1      2776 1.58581E-03
 -1      2777 1.33787E-03
 -1      2778 1.51923E-03
 -1      2779 1.16441E-03
 -1      2780 9.76951E-04
 -1      2781 1.15205E-03
 -1      2782 9.44714E-01
 -1      2783 8.31458E-01
 -1      2784 1.13154E+00
 -1      2785 1.02680E+00
 -1      2786 9.47146E-01
 -1      2787 7.27874E-01
 -1      2788 6.77739E-01
 -1      2789 7.61474E-01
 -1      2790 1.39311E+00
 -1      2791 1.34037E+00
 -1      2792 1.46644E+00
 -1      2793 1.46478E+00
 -1      2794 1.39083E+00
 -1      2795 1.42798E+00
 -1      2796 1.48028E+00
 -1      2797 1.47633E+00
 -1      2798 1.43269E+00
 -1      2799 1.39516E+00
 -1      2800 1.45736E+00
 -1      2801 1.43789E+00
 -1      2802 1.44677E+00
 -1      2803 1.43863E+00
 -1      2804 1.28113E+00
 -1      2805 1.35610E+00
 -1      2806 1.37093E+00
 -1      2807 1.15102E+00
 -1      2808 1.22316E+00
 -1      2809 1.23118E+00
 -1      2810 9.53071E-01
 -1      2811 1.07894E+00
 -1      2812 1.10114E+00
 -1      2813 7.37897E-01
 -1      2814 8.62106E-01
 -1      2815 9.38092E-01
 -1      2816 5.28263E-01
 -1      2817 6.28667E-01
 -1      2818 7.37897E-01
 -1      2819 3.95484E-01
 -1      2820 4.61211E-01
 -1      2821 5.61615E-01
 -1      2822 3.17244E-01
 -1      2823 3.42184E-01
 -1      2824 4.41264E-01
 -1      2825 2.39004E-01
 -1      2826 2.64692E-01
 -1      2827 3.35411E-01
 -1      2828 2.28648E-01
 -1      2829 2.24917E-01
 -1      2830 2.68772E-01
 -1      2831 2.10756E-01
 -1      2832 2.15180E-01
 -1      2833 2.41215E-01
 -1      2834 1.87103E-01
 -1      2835 1.95654E-01
 -1      2836 2.12644E-01
 -1      2837 1.62594E-01
 -1      2838 1.74081E-01
 -1      2839 1.84520E-01
 -1      2840 1.37721E-01
 -1      2841 1.49012E-01
 -1      2842 1.57916E-01
 -1      2843 1.12413E-01
 -1      2844 1.24735E-01
 -1      2845 1.31349E-01
 -1      2846 8.82135E-02
 -1      2847 1.00049E-01
 -1      2848 1.06000E-01
 -1      2849 6.67218E-02
 -1      2850 7.72247E-02
 -1      2851 8.26472E-02
 -1      2852 4.86247E-02
 -1      2853 5.74283E-02
 -1      2854 6.23650E-02
 -1      2855 3.40193E-02
 -1      2856 4.10689E-02
 -1      2857 4.55156E-02
 -1      2858 2.34511E-02
 -1      2859 2.80804E-02
 -1      2860 3.20208E-02
 -1      2861 1.58071E-02
 -1      2862 1.89267E-02
 -1      2863 2.15574E-02
 -1      2864 1.13269E-02
 -1      2865 1.24656E-02
 -1      2866 1.36915E-02
 -1      2867 8.85543E-03
 -1      2868 9.65631E-03
 -1      2869 8.67946E-03
 -1      2870 7.80346E-03
 -1      2871 8.64178E-03
 -1      2872 6.79527E-03
 -1      2873 6.74115E-03
 -1      2874 7.55078E-03
 -1      2875 6.32893E-03
 -1      2876 5.64241E-03
 -1      2877 6.38469E-03
 -1      2878 5.71978E-03
 -1      2879 4.81663E-03
 -1      2880 5.24230E-03
 -1      2881 4.96320E-03
 -1      2882 4.03342E-03
 -1      2883 4.41285E-03
 -1      2884 4.15931E-03
 -1      2885 3.37486E-03
 -1      2886 3.75969E-03
 -1      2887 3.48179E-03
 -1      2888 2.75623E-03
 -1      2889 3.10648E-03
 -1      2890 2.93968E-03
 -1      2891 2.19283E-03
 -1      2892 2.49241E-03
 -1      2893 2.40748E-03
 -1      2894 1.68424E-03
 -1      2895 1.95822E-03
 -1      2896 1.90905E-03
 -1      2897 1.25884E-03
 -1      2898 1.47708E-03
 -1      2899 1.46728E-03
 -1      2900 9.44881E-04
 -1      2901 1.10706E-03
 -1      2902 1.10835E-03
 -1      2903 8.10605E-04
 -1      2904 7.89527E-04
 -1      2905 7.17538E-04
 -1      2906 8.38349E-04
 -1      2907 8.38349E-04
 -1      2908 6.45517E-04
 -1      2909 7.02717E-04
 -1      2910 8.48685E-04
 -1      2911 8.12819E-04
 -1      2912 9.69521E+00
 -1      2913 1.29963E+00
 -1      2914 1.23576E+00
 -1      2915 1.13346E+00
 -1      2916 1.27842E+00
 -1      2917 8.34242E-04
 -1      2918 8.02833E-04
 -1      2919 8.98147E-04
 -1      2920 9.15561E-04
 -1      2921 8.40945E-04
 -1      2922 8.37022E-04
 -1      2923 8.44388E-04
 -1      2924 8.44388E-04
 -1      2925 9.21775E-04
 -1      2926 8.14686E-04
 -1      2927 8.44388E-04
 -1      2928 9.25218E-04
 -1      2929 8.02996E-04
 -1      2930 8.67480E-04
 -1      2931 9.78012E-04
 -1      2932 8.89173E-04
 -1      2933 6.93640E-04
 -1      2934 9.21449E-04
 -1      2935 2.37182E+00
 -1      2936 2.42393E+00
 -1      2937 2.08866E+01
 -1      2938 2.59551E+01
 -1      2939 1.46641E+01
 -1      2940 6.26744E+00
 -1      2941 6.78778E+00
 -1      2942 5.80935E+00
 -1      2943 8.34695E+00
 -1      2944 1.13301E+01
 -1      2945 1.46512E+01
 -1      2946 7.96401E+00
 -1      2947 8.37689E-04
 -1      2948 8.38349E-04
 -1      2949 9.19000E-04
 -1      2950 7.61017E+00
 -1      2951 7.97753E+00
 -1      2952 7.63573E+00
 -1      2953 1.12612E+01
 -1      2954 2.42393E+00
 -1      2955 2.60587E+00
 -1      2956 3.03678E+00
 -1      2957 2.63468E+00
 -1      2958 1.32812E+01
 -1      2959 1.63689E+01
 -1      2960 1.04465E+01
 -1      2961 1.03044E+00
 -1      2962 1.03567E+00
 -1      2963 1.12741E+00
 -1      2964 1.01784E+00
 -1      2965 1.12957E+01
 -1      2966 8.77128E+00
 -1      2967 1.27428E+00
 -1      2968 1.50892E+00
 -1      2969 1.79652E+01
 -1      2970 2.20920E+01
 -1      2971 1.32958E+01
 -1      2972 4.00612E+00
 -1      2973 5.26563E+00
 -1      2974 2.55764E+01
 -1      2975 1.84671E+01
 -1      2976 1.72703E+01
 -1      2977 1.29524E+01
 -1      2978 1.32897E+01
 -1      2979 1.73283E+01
 -1      2980 1.35885E+01
 -1      2981 2.62046E+01
 -1      2982 1.91648E+01
 -1      2983 1.38350E+01
 -1      2984 2.37182E+00
 -1      2985 5.71504E+00
 -1      2986 4.57585E+00
 -1      2987 9.72423E-04
 -1      2988 1.16526E+00
 -1      2989 1.03324E+00
 -1      2990 1.00781E+00
 -1      2991 6.91159E-01
 -1      2992 4.63345E+00
 -1      2993 3.95343E+00
 -1      2994 3.18467E+00
 -1      2995 3.40118E+00
 -1      2996 9.73733E+00
 -1      2997 9.19667E-04
 -1      2998 5.00352E+00
 -1      2999 2.00538E+00
 -1      3000 2.37620E+00
 -1      3001 2.13821E+00
 -1      3002 5.91747E-01
 -1      3003 6.11597E-01
 -1      3004 7.85701E+00
 -1      3005 4.15163E+00
 -1      3006 2.37620E+00
 -1      3007 9.12882E+00
 -1      3008 2.36704E+01
 -1      3009 1.25806E+01
 -1      3010 1.45094E+01
 -1      3011 8.95343E-04
 -1      3012 1.54219E+01
 -1      3013 5.18746E-01
 -1      3014 6.56964E+00
 -1      3015 4.61295E+00
 -1      3016 3.34771E+00
 -1      3017 4.79263E+00
 -1      3018 2.83760E+00
 -1      3019 3.48719E+00
 -1      3020 3.11270E+00
 -1      3021 7.37530E+00
 -1      3022 6.55242E-01
 -1      3023 1.04104E+00
 -1      3024 1.06926E+00
 -1      3025 1.43673E+00
 -1      3026 1.19848E+00
 -1      3027 1.10866E+01
 -1      3028 1.04361E+01
 -1      3029 5.27737E+00
 -1      3030 7.17917E-01
 -1      3031 8.21439E-01
 -1      3032 5.56417E-01
 -1      3033 3.63060E+00
 -1      3034 4.63241E+00
 -1      3035 8.14307E+00
 -1      3036 1.01630E+01
 -1      3037 1.28145E+00
 -1      3038 1.29621E+00
 -1      3039 4.04044E+00
 -1      3040 4.88762E+00
 -1      3041 4.83678E+00
 -1      3042 5.01087E+00
 -1      3043 5.93446E+00
 -1      3044 8.11424E+00
 -1      3045 5.68884E+00
 -1      3046 1.33111E+01
 -1      3047 6.26875E-01
 -1      3048 5.60732E-01
 -1      3049 1.15771E+01
 -1      3050 1.03803E+01
 -1      3051 9.76327E+00
 -1      3052 8.10651E+00
 -1      3053 1.00407E+01
 -1      3054 5.92768E+00
 -1      3055 4.66730E+00
 -1      3056 3.52471E+00
 -1      3057 3.06164E+00
 -1      3058 4.78510E+00
 -1      3059 2.47335E+00
 -1      3060 2.12458E+00
 -1      3061 3.05421E+00
 -1      3062 1.73709E+00
 -1      3063 1.47132E+00
 -1      3064 2.07842E+00
 -1      3065 1.21639E+00
 -1      3066 1.02545E+00
 -1      3067 1.43600E+00
 -1      3068 8.48902E-01
 -1      3069 7.19068E-01
 -1      3070 1.00453E+00
 -1      3071 5.95083E-01
 -1      3072 5.04697E-01
 -1      3073 7.03988E-01
 -1      3074 4.17031E-01
 -1      3075 3.59676E-01
 -1      3076 4.92337E-01
 -1      3077 2.99476E-01
 -1      3078 2.56444E-01
 -1      3079 3.44471E-01
 -1      3080 2.13127E-01
 -1      3081 1.80805E-01
 -1      3082 2.40953E-01
 -1      3083 1.50246E-01
 -1      3084 1.25437E-01
 -1      3085 1.67077E-01
 -1      3086 1.03892E-01
 -1      3087 8.65344E-02
 -1      3088 1.14972E-01
 -1      3089 7.13172E-02
 -1      3090 5.86471E-02
 -1      3091 7.82105E-02
 -1      3092 4.90445E-02
 -1      3093 3.98971E-02
 -1      3094 5.33907E-02
 -1      3095 3.28010E-02
 -1      3096 2.62838E-02
 -1      3097 3.66919E-02
 -1      3098 2.11307E-02
 -1      3099 1.66402E-02
 -1      3100 2.44426E-02
 -1      3101 1.29625E-02
 -1      3102 1.09729E-02
 -1      3103 1.56118E-02
 -1      3104 8.29542E-03
 -1      3105 7.24333E-03
 -1      3106 9.25663E-03
 -1      3107 6.48721E-03
 -1      3108 5.99857E-03
 -1      3109 5.82307E-03
 -1      3110 5.95007E-03
 -1      3111 5.42776E-03
 -1      3112 5.01844E-03
 -1      3113 5.22866E-03
 -1      3114 4.71779E-03
 -1      3115 4.77083E-03
 -1      3116 4.44115E-03
 -1      3117 4.01844E-03
 -1      3118 4.29508E-03
 -1      3119 3.71086E-03
 -1      3120 3.40328E-03
 -1      3121 3.71086E-03
 -1      3122 3.15938E-03
 -1      3123 2.84266E-03
 -1      3124 3.15938E-03
 -1      3125 2.62245E-03
 -1      3126 2.32911E-03
 -1      3127 2.69527E-03
 -1      3128 2.10290E-03
 -1      3129 1.86779E-03
 -1      3130 2.24884E-03
 -1      3131 1.64336E-03
 -1      3132 1.44964E-03
 -1      3133 1.79820E-03
 -1      3134 1.46099E-03
 -1      3135 1.28754E-03
 -1      3136 1.58513E-03
 -1      3137 1.02923E+00
 -1      3138 9.47146E-01
 -1      3139 1.06167E+00
 -1      3140 9.58088E-01
 -1      3141 9.27073E-01
 -1      3142 1.14376E+00
 -1      3143 1.64493E+00
 -1      3144 1.63109E+00
 -1      3145 1.51383E+00
 -1      3146 1.44216E+00
 -1      3147 1.68243E+00
 -1      3148 1.78892E+00
 -1      3149 1.77483E+00
 -1      3150 1.44326E+00
 -1      3151 1.52505E+00
 -1      3152 1.86124E+00
 -1      3153 1.22574E+00
 -1      3154 1.28370E+00
 -1      3155 1.43782E+00
 -1      3156 1.16148E+00
 -1      3157 1.23356E+00
 -1      3158 1.28608E+00
 -1      3159 9.60279E-01
 -1      3160 1.05124E+00
 -1      3161 1.18367E+00
 -1      3162 7.57250E-01
 -1      3163 8.66480E-01
 -1      3164 9.79632E-01
 -1      3165 6.17573E-01
 -1      3166 6.84625E-01
 -1      3167 8.13208E-01
 -1      3168 4.73314E-01
 -1      3169 5.26614E-01
 -1      3170 6.49623E-01
 -1      3171 3.41891E-01
 -1      3172 3.94443E-01
 -1      3173 4.79793E-01
 -1      3174 3.01389E-01
 -1      3175 3.15476E-01
 -1      3176 3.74508E-01
 -1      3177 2.57664E-01
 -1      3178 2.71132E-01
 -1      3179 3.17837E-01
 -1      3180 2.17086E-01
 -1      3181 2.32188E-01
 -1      3182 2.62105E-01
 -1      3183 1.84891E-01
 -1      3184 1.97913E-01
 -1      3185 2.17457E-01
 -1      3186 1.54147E-01
 -1      3187 1.67729E-01
 -1      3188 1.81122E-01
 -1      3189 1.24539E-01
 -1      3190 1.37525E-01
 -1      3191 1.47338E-01
 -1      3192 9.73260E-02
 -1      3193 1.09690E-01
 -1      3194 1.15866E-01
 -1      3195 7.41613E-02
 -1      3196 8.51501E-02
 -1      3197 8.88401E-02
 -1      3198 5.50661E-02
 -1      3199 6.43595E-02
 -1      3200 6.68624E-02
 -1      3201 3.96973E-02
 -1      3202 4.72532E-02
 -1      3203 4.92477E-02
 -1      3204 2.76713E-02
 -1      3205 3.36102E-02
 -1      3206 3.53478E-02
 -1      3207 1.85062E-02
 -1      3208 2.30307E-02
 -1      3209 2.46201E-02
 -1      3210 1.17041E-02
 -1      3211 1.50456E-02
 -1      3212 1.65189E-02
 -1      3213 7.51378E-03
 -1      3214 9.18432E-03
 -1      3215 1.05385E-02
 -1      3216 5.51510E-03
 -1      3217 5.72875E-03
 -1      3218 6.23361E-03
 -1      3219 4.93562E-03
 -1      3220 5.18831E-03
 -1      3221 4.12180E-03
 -1      3222 4.68197E-03
 -1      3223 5.03843E-03
 -1      3224 3.89782E-03
 -1      3225 4.20898E-03
 -1      3226 4.60909E-03
 -1      3227 3.92775E-03
 -1      3228 3.62680E-03
 -1      3229 4.03058E-03
 -1      3230 3.67647E-03
 -1      3231 3.11936E-03
 -1      3232 3.39309E-03
 -1      3233 3.26437E-03
 -1      3234 2.63177E-03
 -1      3235 2.90016E-03
 -1      3236 2.81145E-03
 -1      3237 2.18617E-03
 -1      3238 2.44999E-03
 -1      3239 2.41046E-03
 -1      3240 1.75172E-03
 -1      3241 1.98633E-03
 -1      3242 2.02884E-03
 -1      3243 1.34335E-03
 -1      3244 1.55050E-03
 -1      3245 1.62779E-03
 -1      3246 1.09077E-03
 -1      3247 1.24254E-03
 -1      3248 1.32577E-03
 -1      3249 9.82884E-04
 -1      3250 1.06638E-03
 -1      3251 1.06638E-03
 -1      3252 4.85846E+00
 -1      3253 3.87854E+00
 -1      3254 1.19502E+01
 -1      3255 1.24585E+01
 -1      3256 1.31364E-03
 -1      3257 1.26085E-03
 -1      3258 1.40201E-03
 -1      3259 1.02401E-03
 -1      3260 1.02056E-03
 -1      3261 1.16517E-03
 -1      3262 1.30513E+01
 -1      3263 2.63468E+00
 -1      3264 9.96834E-04
 -1      3265 9.96834E-04
 -1      3266 3.14282E+00
 -1      3267 3.70386E+00
 -1      3268 5.63276E-01
 -1      3269 1.98170E+00
 -1      3270 2.01451E+00
 -1      3271 2.16927E+00
 -1      3272 2.33198E+00
 -1      3273 4.62559E+00
 -1      3274 6.48255E+00
 -1      3275 3.61678E+00
 -1      3276 1.51968E+01
 -1      3277 2.06789E+01
 -1      3278 7.13920E+00
 -1      3279 5.73516E+00
 -1      3280 1.20429E-03
 -1      3281 9.71032E-04
 -1      3282 9.71700E-04
 -1      3283 1.04887E-03
 -1      3284 1.07326E-03
 -1      3285 6.17571E-01
 -1      3286 1.17425E+01
 -1      3287 9.90602E+00
 -1      3288 1.24585E+01
 -1      3289 1.27080E+01
 -1      3290 9.74451E+00
 -1      3291 1.60640E+01
 -1      3292 1.08589E+01
 -1      3293 1.17036E+01
 -1      3294 9.49793E+00
 -1      3295 7.94825E+00
 -1      3296 1.15253E+01
 -1      3297 1.38055E+01
 -1      3298 9.97072E+00
 -1      3299 9.49281E+00
 -1      3300 1.30513E+01
 -1      3301 1.16383E+01
 -1      3302 8.11424E+00
 -1      3303 3.21896E+00
 -1      3304 3.21793E+00
 -1      3305 2.70003E+00
 -1      3306 8.55544E+00
 -1      3307 1.54911E+00
 -1      3308 1.41816E+00
 -1      3309 1.41816E+00
 -1      3310 3.23195E+00
 -1      3311 2.60953E+00
 -1      3312 3.08690E+00
 -1      3313 3.88589E+00
 -1      3314 1.11922E+01
 -1      3315 8.28284E+00
 -1      3316 9.28627E+00
 -1      3317 2.46716E+00
 -1      3318 2.96362E+00
 -1      3319 8.05070E+00
 -1      3320 5.95273E+00
 -1      3321 6.62555E+00
 -1      3322 4.98541E+00
 -1      3323 9.37983E+00
 -1      3324 1.07328E-03
 -1      3325 1.05997E-03
 -1      3326 1.18042E+00
 -1      3327 1.18042E+00
 -1      3328 1.28465E+00
 -1      3329 1.46467E+00
 -1      3330 1.34167E+00
 -1      3331 1.30093E+00
 -1      3332 6.25951E-01
 -1      3333 2.63468E+00
 -1      3334 6.61078E-01
 -1      3335 1.31364E-03
 -1      3336 1.59648E-03
 -1      3337 2.73691E+00
 -1      3338 6.87064E+00
 -1      3339 6.87064E+00
 -1      3340 3.83393E+00
 -1      3341 4.55652E+00
 -1      3342 8.29091E-01
 -1      3343 9.24233E-01
 -1      3344 1.02549E+00
 -1      3345 2.76028E+00
 -1      3346 2.51644E+00
 -1      3347 3.02655E+00
 -1      3348 1.25759E+00
 -1      3349 1.26590E+00
 -1      3350 1.41163E+00
 -1      3351 1.16398E+00
 -1      3352 3.00112E+00
 -1      3353 3.40322E+00
 -1      3354 4.00478E+00
 -1      3355 1.05491E-03
 -1      3356 6.34620E+00
 -1      3357 6.06267E+00
 -1      3358 4.40216E+00
 -1      3359 1.63213E+00
 -1      3360 1.83715E+00
 -1      3361 2.66256E+00
 -1      3362 8.77906E+00
 -1      3363 9.96834E-04
 -1      3364 9.92728E-04
 -1      3365 1.15455E-03
 -1      3366 1.23004E-03
 -1      3367 1.07400E-03
 -1      3368 2.49440E+00
 -1      3369 3.41613E+00
 -1      3370 7.33126E+00
 -1      3371 6.71424E+00
 -1      3372 1.33084E-03
 -1      3373 3.35972E+00
 -1      3374 3.56408E+00
 -1      3375 3.22860E+00
 -1      3376 2.64030E+00
 -1      3377 2.19896E+00
 -1      3378 1.81147E+00
 -1      3379 2.37335E+00
 -1      3380 1.51499E+00
 -1      3381 1.26006E+00
 -1      3382 1.63552E+00
 -1      3383 1.06641E+00
 -1      3384 8.89860E-01
 -1      3385 1.14539E+00
 -1      3386 7.55703E-01
 -1      3387 6.31718E-01
 -1      3388 8.17590E-01
 -1      3389 5.36166E-01
 -1      3390 4.48500E-01
 -1      3391 5.87881E-01
 -1      3392 3.79260E-01
 -1      3393 3.19059E-01
 -1      3394 4.23089E-01
 -1      3395 2.67807E-01
 -1      3396 2.24490E-01
 -1      3397 3.02596E-01
 -1      3398 1.86813E-01
 -1      3399 1.56253E-01
 -1      3400 2.13667E-01
 -1      3401 1.29837E-01
 -1      3402 1.08292E-01
 -1      3403 1.49573E-01
 -1      3404 8.91050E-02
 -1      3405 7.38879E-02
 -1      3406 1.03970E-01
 -1      3407 6.05142E-02
 -1      3408 5.09116E-02
 -1      3409 7.14087E-02
 -1      3410 4.14796E-02
 -1      3411 3.43835E-02
 -1      3412 4.86031E-02
 -1      3413 2.76028E-02
 -1      3414 2.24497E-02
 -1      3415 3.23905E-02
 -1      3416 1.75689E-02
 -1      3417 1.38912E-02
 -1      3418 2.07291E-02
 -1      3419 1.05972E-02
 -1      3420 7.91974E-03
 -1      3421 1.25543E-02
 -1      3422 5.78878E-03
 -1      3423 5.03266E-03
 -1      3424 7.12933E-03
 -1      3425 4.02810E-03
 -1      3426 3.97959E-03
 -1      3427 3.99381E-03
 -1      3428 4.20458E-03
 -1      3429 4.00548E-03
 -1      3430 3.21424E-03
 -1      3431 4.03661E-03
 -1      3432 3.75997E-03
 -1      3433 3.47036E-03
 -1      3434 3.65418E-03
 -1      3435 3.34660E-03
 -1      3436 3.39571E-03
 -1      3437 3.15938E-03
 -1      3438 2.91547E-03
 -1      3439 3.10270E-03
 -1      3440 2.69527E-03
 -1      3441 2.47506E-03
 -1      3442 2.69527E-03
 -1      3443 2.31290E-03
 -1      3444 2.08669E-03
 -1      3445 2.31290E-03
 -1      3446 1.91470E-03
 -1      3447 1.69027E-03
 -1      3448 1.97876E-03
 -1      3449 1.58513E-03
 -1      3450 1.59648E-03
 -1      3451 1.59648E-03
 -1      3452 1.70163E-03
 -1      3453 3.00112E+00
 -1      3454 2.30300E+00
 -1      3455 2.18573E+00
 -1      3456 1.43782E+00
 -1      3457 1.59738E+00
 -1      3458 1.86124E+00
 -1      3459 2.12511E+00
 -1      3460 1.86124E+00
 -1      3461 1.45575E+00
 -1      3462 1.56598E+00
 -1      3463 1.13747E+00
 -1      3464 1.23127E+00
 -1      3465 1.61358E+00
 -1      3466 8.81421E-01
 -1      3467 9.54046E-01
 -1      3468 1.20568E+00
 -1      3469 6.55390E-01
 -1      3470 7.46349E-01
 -1      3471 8.87187E-01
 -1      3472 5.05071E-01
 -1      3473 5.83941E-01
 -1      3474 6.80667E-01
 -1      3475 4.17811E-01
 -1      3476 4.44225E-01
 -1      3477 5.48373E-01
 -1      3478 3.32127E-01
 -1      3479 3.62384E-01
 -1      3480 4.32101E-01
 -1      3481 2.68350E-01
 -1      3482 2.93825E-01
 -1      3483 3.38372E-01
 -1      3484 2.19595E-01
 -1      3485 2.38768E-01
 -1      3486 2.70488E-01
 -1      3487 1.76885E-01
 -1      3488 1.94047E-01
 -1      3489 2.15358E-01
 -1      3490 1.38724E-01
 -1      3491 1.55346E-01
 -1      3492 1.68271E-01
 -1      3493 1.08858E-01
 -1      3494 1.23707E-01
 -1      3495 1.31716E-01
 -1      3496 8.46843E-02
 -1      3497 9.68601E-02
 -1      3498 1.04702E-01
 -1      3499 6.43793E-02
 -1      3500 7.41811E-02
 -1      3501 8.22011E-02
 -1      3502 4.74596E-02
 -1      3503 5.52725E-02
 -1      3504 6.25911E-02
 -1      3505 3.38534E-02
 -1      3506 3.99404E-02
 -1      3507 4.59652E-02
 -1      3508 2.33491E-02
 -1      3509 2.79897E-02
 -1      3510 3.25824E-02
 -1      3511 1.55957E-02
 -1      3512 1.90563E-02
 -1      3513 2.24259E-02
 -1      3514 9.83714E-03
 -1      3515 1.23569E-02
 -1      3516 1.48944E-02
 -1      3517 5.68237E-03
 -1      3518 7.46739E-03
 -1      3519 9.28589E-03
 -1      3520 3.69214E-03
 -1      3521 4.01893E-03
 -1      3522 5.25271E-03
 -1      3523 3.03423E-03
 -1      3524 2.93142E-03
 -1      3525 2.82856E-03
 -1      3526 3.24423E-03
 -1      3527 3.31711E-03
 -1      3528 2.35071E-03
 -1      3529 3.14647E-03
 -1      3530 3.32487E-03
 -1      3531 2.71423E-03
 -1      3532 2.86262E-03
 -1      3533 3.09633E-03
 -1      3534 2.74473E-03
 -1      3535 2.51481E-03
 -1      3536 2.73401E-03
 -1      3537 2.56598E-03
 -1      3538 2.16443E-03
 -1      3539 2.34621E-03
 -1      3540 2.26877E-03
 -1      3541 1.83704E-03
 -1      3542 2.03688E-03
 -1      3543 1.97263E-03
 -1      3544 1.48571E-03
 -1      3545 1.68692E-03
 -1      3546 1.69496E-03
 -1      3547 3.48518E+00
 -1      3548 3.33277E+00
 -1      3549 6.38815E+00
 -1      3550 7.76672E+00
 -1      3551 7.65374E+00
 -1      3552 1.14322E-03
 -1      3553 1.14322E-03
 -1      3554 1.48153E-03
 -1      3555 1.28706E-03
 -1      3556 1.48153E-03
 -1      3557 1.19478E-03
 -1      3558 1.15240E-03
 -1      3559 1.27429E-03
 -1      3560 2.24106E+00
 -1      3561 2.19921E+00
 -1      3562 1.99856E+00
 -1      3563 2.07183E+00
 -1      3564 8.19743E+00
 -1      3565 8.19743E+00
 -1      3566 7.95085E+00
 -1      3567 8.19743E+00
 -1      3568 6.65035E+00
 -1      3569 1.49412E+00
 -1      3570 1.48630E+00
 -1      3571 1.64586E+00
 -1      3572 1.76621E+00
 -1      3573 7.73619E+00
 -1      3574 8.44005E+00
 -1      3575 7.05173E+00
 -1      3576 6.12307E+00
 -1      3577 9.27073E-01
 -1      3578 9.92291E-01
 -1      3579 1.09509E+00
 -1      3580 1.41816E+00
 -1      3581 1.45138E+00
 -1      3582 1.85180E+00
 -1      3583 4.98009E+00
 -1      3584 3.83750E+00
 -1      3585 3.42359E+00
 -1      3586 6.94191E+00
 -1      3587 7.63781E+00
 -1      3588 4.40149E+00
 -1      3589 5.44832E+00
 -1      3590 5.10080E+00
 -1      3591 4.39774E+00
 -1      3592 3.45521E+00
 -1      3593 1.19890E-03
 -1      3594 1.27945E-03
 -1      3595 1.26811E-03
 -1      3596 6.80262E+00
 -1      3597 5.85966E+00
 -1      3598 4.91207E+00
 -1      3599 7.76808E+00
 -1      3600 3.33006E+00
 -1      3601 1.80953E+00
 -1      3602 1.93147E+00
 -1      3603 1.25829E+00
 -1      3604 4.68235E+00
 -1      3605 5.40179E+00
 -1      3606 3.92083E+00
 -1      3607 1.38997E-03
 -1      3608 1.43431E-03
 -1      3609 1.34790E+00
 -1      3610 6.22100E+00
 -1      3611 3.21793E+00
 -1      3612 2.94808E+00
 -1      3613 1.48364E+00
 -1      3614 1.33245E+00
 -1      3615 1.11808E-03
 -1      3616 1.14322E-03
 -1      3617 1.21244E-03
 -1      3618 1.98774E+00
 -1      3619 1.88725E+00
 -1      3620 2.60831E+00
 -1      3621 2.44478E+00
 -1      3622 2.52858E+00
 -1      3623 2.52858E+00
 -1      3624 2.48181E+00
 -1      3625 2.88253E+00
 -1      3626 2.23593E+00
 -1      3627 2.07834E+00
 -1      3628 3.01096E+00
 -1      3629 4.17213E+00
 -1      3630 5.96900E+00
 -1      3631 5.05137E+00
 -1      3632 6.78979E+00
 -1      3633 7.17467E+00
 -1      3634 5.83821E+00
 -1      3635 6.33731E+00
 -1      3636 2.86777E+00
 -1      3637 1.67105E+00
 -1      3638 1.68221E+00
 -1      3639 1.69776E+00
 -1      3640 2.08011E+00
 -1      3641 1.30068E+00
 -1      3642 1.41521E+00
 -1      3643 1.60390E+00
 -1      3644 3.76426E+00
 -1      3645 3.76947E+00
 -1      3646 3.63313E+00
 -1      3647 2.64710E+00
 -1      3648 2.42472E+00
 -1      3649 2.50204E+00
 -1      3650 2.60831E+00
 -1      3651 3.79485E+00
 -1      3652 4.30849E+00
 -1      3653 3.20718E+00
 -1      3654 1.06068E-03
 -1      3655 1.01115E-03
 -1      3656 1.10551E-03
 -1      3657 1.09029E-03
 -1      3658 2.78904E+00
 -1      3659 3.41905E+00
 -1      3660 2.81436E+00
 -1      3661 2.73545E+00
 -1      3662 3.85325E+00
 -1      3663 3.72677E+00
 -1      3664 1.41521E+00
 -1      3665 3.24683E+00
 -1      3666 4.00333E+00
 -1      3667 3.06609E+00
 -1      3668 1.59919E+00
 -1      3669 1.30270E+00
 -1      3670 1.11323E+00
 -1      3671 9.19581E-01
 -1      3672 1.07689E+00
 -1      3673 7.84353E-01
 -1      3674 6.50195E-01
 -1      3675 7.52187E-01
 -1      3676 5.65836E-01
 -1      3677 4.70284E-01
 -1      3678 5.32598E-01
 -1      3679 4.15545E-01
 -1      3680 3.46305E-01
 -1      3681 3.93500E-01
 -1      3682 3.03546E-01
 -1      3683 2.52294E-01
 -1      3684 2.96002E-01
 -1      3685 2.18796E-01
 -1      3686 1.81118E-01
 -1      3687 2.19745E-01
 -1      3688 1.56292E-01
 -1      3689 1.29876E-01
 -1      3690 1.61421E-01
 -1      3691 1.10876E-01
 -1      3692 9.16884E-02
 -1      3693 1.17595E-01
 -1      3694 7.73315E-02
 -1      3695 6.39578E-02
 -1      3696 8.42375E-02
 -1      3697 5.32457E-02
 -1      3698 4.38137E-02
 -1      3699 5.91684E-02
 -1      3700 3.61803E-02
 -1      3701 2.93997E-02
 -1      3702 4.08229E-02
 -1      3703 2.38992E-02
 -1      3704 1.90184E-02
 -1      3705 2.76890E-02
 -1      3706 1.49965E-02
 -1      3707 1.17024E-02
 -1      3708 1.81665E-02
 -1      3709 8.95430E-03
 -1      3710 6.82335E-03
 -1      3711 1.13964E-02
 -1      3712 4.95206E-03
 -1      3713 3.94750E-03
 -1      3714 6.77703E-03
 -1      3715 2.67828E-03
 -1      3716 2.90327E-03
 -1      3717 3.63653E-03
 -1      3718 2.77602E-03
 -1      3719 2.80716E-03
 -1      3720 2.24007E-03
 -1      3721 2.96497E-03
 -1      3722 2.85918E-03
 -1      3723 2.27063E-03
 -1      3724 2.86612E-03
 -1      3725 2.67889E-03
 -1      3726 2.43537E-03
 -1      3727 2.59094E-03
 -1      3728 2.37073E-03
 -1      3729 2.35436E-03
 -1      3730 2.23284E-03
 -1      3731 2.07069E-03
 -1      3732 2.12852E-03
 -1      3733 1.93049E-03
 -1      3734 1.75850E-03
 -1      3735 1.85043E-03
 -1      3736 1.67503E-03
 -1      3737 1.56988E-03
 -1      3738 1.45493E-03
 -1      3739 1.62675E-03
 -1      3740 1.81447E+00
 -1      3741 1.20568E+00
 -1      3742 1.38910E+00
 -1      3743 1.74460E+00
 -1      3744 1.96908E+00
 -1      3745 1.74460E+00
 -1      3746 7.55022E-01
 -1      3747 8.26470E-01
 -1      3748 5.78481E-01
 -1      3749 6.39326E-01
 -1      3750 7.85130E-01
 -1      3751 4.52746E-01
 -1      3752 5.08173E-01
 -1      3753 5.99126E-01
 -1      3754 3.52107E-01
 -1      3755 3.90409E-01
 -1      3756 4.66482E-01
 -1      3757 2.70193E-01
 -1      3758 2.99775E-01
 -1      3759 3.51813E-01
 -1      3760 2.10417E-01
 -1      3761 2.35965E-01
 -1      3762 2.65252E-01
 -1      3763 1.64049E-01
 -1      3764 1.85588E-01
 -1      3765 2.06195E-01
 -1      3766 1.31716E-01
 -1      3767 1.46733E-01
 -1      3768 1.64049E-01
 -1      3769 1.04702E-01
 -1      3770 1.16699E-01
 -1      3771 1.31716E-01
 -1      3772 8.08466E-02
 -1      3773 9.13497E-02
 -1      3774 1.03347E-01
 -1      3775 6.05156E-02
 -1      3776 6.96225E-02
 -1      3777 7.87711E-02
 -1      3778 4.38846E-02
 -1      3779 5.14038E-02
 -1      3780 5.84351E-02
 -1      3781 3.08332E-02
 -1      3782 3.66969E-02
 -1      3783 4.21355E-02
 -1      3784 2.10145E-02
 -1      3785 2.53073E-02
 -1      3786 2.94218E-02
 -1      3787 1.38697E-02
 -1      3788 1.71084E-02
 -1      3789 1.99898E-02
 -1      3790 8.65909E-03
 -1      3791 1.10288E-02
 -1      3792 1.32429E-02
 -1      3793 4.93593E-03
 -1      3794 6.59936E-03
 -1      3795 8.34231E-03
 -1      3796 2.84655E-03
 -1      3797 3.60728E-03
 -1      3798 4.95392E-03
 -1      3799 2.34388E-03
 -1      3800 2.06100E-03
 -1      3801 2.83973E-03
 -1      3802 2.29593E-03
 -1      3803 2.21529E-03
 -1      3804 1.92558E-03
 -1      3805 2.38561E-03
 -1      3806 2.43576E-03
 -1      3807 1.93681E-03
 -1      3808 2.26718E-03
 -1      3809 2.39579E-03
 -1      3810 2.08681E-03
 -1      3811 2.02732E-03
 -1      3812 2.19591E-03
 -1      3813 2.02572E-03
 -1      3814 1.81896E-03
 -1      3815 1.94651E-03
 -1      3816 1.87365E-03
 -1      3817 1.66884E-03
 -1      3818 1.81896E-03
 -1      3819 1.79285E-03
 -1      3820 1.55832E-03
 -1      3821 1.32571E-03
 -1      3822 1.23343E-03
 -1      3823 1.41406E-03
 -1      3824 5.59581E+00
 -1      3825 5.59581E+00
 -1      3826 9.85708E-01
 -1      3827 1.21781E+00
 -1      3828 1.50394E+00
 -1      3829 1.14891E+00
 -1      3830 1.50264E-03
 -1      3831 2.36929E+00
 -1      3832 2.36929E+00
 -1      3833 3.76432E+00
 -1      3834 2.62970E+00
 -1      3835 9.30468E-01
 -1      3836 1.06554E+00
 -1      3837 1.24896E+00
 -1      3838 3.50298E+00
 -1      3839 2.89408E+00
 -1      3840 4.71850E+00
 -1      3841 3.83892E+00
 -1      3842 3.30941E+00
 -1      3843 5.14785E+00
 -1      3844 4.31105E+00
 -1      3845 5.25087E+00
 -1      3846 5.33332E+00
 -1      3847 4.00333E+00
 -1      3848 2.35411E+00
 -1      3849 1.91277E+00
 -1      3850 1.57995E+00
 -1      3851 2.43351E+00
 -1      3852 1.74922E+00
 -1      3853 1.73294E+00
 -1      3854 1.88496E+00
 -1      3855 2.27229E+00
 -1      3856 2.85337E+00
 -1      3857 2.42472E+00
 -1      3858 5.28277E+00
 -1      3859 5.59581E+00
 -1      3860 4.54127E+00
 -1      3861 1.00482E+00
 -1      3862 4.68235E+00
 -1      3863 3.36989E+00
 -1      3864 2.80630E+00
 -1      3865 2.81748E+00
 -1      3866 2.37442E+00
 -1      3867 2.72823E+00
 -1      3868 1.41235E-03
 -1      3869 1.41235E-03
 -1      3870 2.60831E+00
 -1      3871 4.09331E+00
 -1      3872 3.00956E+00
 -1      3873 3.56050E+00
 -1      3874 2.88358E+00
 -1      3875 5.72677E+00
 -1      3876 6.57299E+00
 -1      3877 4.85458E+00
 -1      3878 1.86295E+00
 -1      3879 2.06732E+00
 -1      3880 1.69886E+00
 -1      3881 1.14639E-03
 -1      3882 1.09497E-03
 -1      3883 1.00326E-03
 -1      3884 3.65612E+00
 -1      3885 3.56244E+00
 -1      3886 3.02343E+00
 -1      3887 3.60769E+00
 -1      3888 4.58060E+00
 -1      3889 3.83910E+00
 -1      3890 5.46483E+00
 -1      3891 1.70255E-03
 -1      3892 2.41032E+00
 -1      3893 1.77072E+00
 -1      3894 2.06591E+00
 -1      3895 1.76621E+00
 -1      3896 1.64586E+00
 -1      3897 1.83807E+00
 -1      3898 1.76621E+00
 -1      3899 2.78089E+00
 -1      3900 3.21871E+00
 -1      3901 2.07353E+00
 -1      3902 2.04177E+00
 -1      3903 1.96955E+00
 -1      3904 2.32290E+00
 -1      3905 1.74171E+00
 -1      3906 4.46112E+00
 -1      3907 2.66912E+00
 -1      3908 2.78089E+00
 -1      3909 4.52576E+00
 -1      3910 2.23640E+00
 -1      3911 1.98710E+00
 -1      3912 1.69435E+00
 -1      3913 3.36989E+00
 -1      3914 2.42497E+00
 -1      3915 3.75737E+00
 -1      3916 2.81467E+00
 -1      3917 2.42497E+00
 -1      3918 2.51140E+00
 -1      3919 2.58032E+00
 -1      3920 1.59510E+00
 -1      3921 1.43818E+00
 -1      3922 2.41032E+00
 -1      3923 2.27229E+00
 -1      3924 1.09304E+00
 -1      3925 9.03567E-01
 -1      3926 1.69955E+00
 -1      3927 1.83969E+00
 -1      3928 7.80224E-01
 -1      3929 6.44995E-01
 -1      3930 7.96375E-01
 -1      3931 5.54904E-01
 -1      3932 4.70545E-01
 -1      3933 5.82941E-01
 -1      3934 4.03562E-01
 -1      3935 3.48823E-01
 -1      3936 4.25868E-01
 -1      3937 3.03656E-01
 -1      3938 2.60897E-01
 -1      3939 3.13718E-01
 -1      3940 2.18594E-01
 -1      3941 1.85096E-01
 -1      3942 2.26248E-01
 -1      3943 1.58799E-01
 -1      3944 1.33972E-01
 -1      3945 1.57647E-01
 -1      3946 1.16323E-01
 -1      3947 9.73226E-02
 -1      3948 1.13700E-01
 -1      3949 8.50748E-02
 -1      3950 7.07178E-02
 -1      3951 8.38029E-02
 -1      3952 6.09791E-02
 -1      3953 5.02670E-02
 -1      3954 6.18164E-02
 -1      3955 4.26878E-02
 -1      3956 3.50544E-02
 -1      3957 4.44985E-02
 -1      3958 2.92062E-02
 -1      3959 2.37057E-02
 -1      3960 3.10711E-02
 -1      3961 1.96443E-02
 -1      3962 1.56223E-02
 -1      3963 2.11616E-02
 -1      3964 1.27322E-02
 -1      3965 9.98413E-03
 -1      3966 1.42100E-02
 -1      3967 7.87286E-03
 -1      3968 6.00157E-03
 -1      3969 9.20866E-03
 -1      3970 4.53266E-03
 -1      3971 3.26345E-03
 -1      3972 5.62849E-03
 -1      3973 2.36732E-03
 -1      3974 2.24007E-03
 -1      3975 3.26345E-03
 -1      3976 1.71669E-03
 -1      3977 1.87450E-03
 -1      3978 1.84394E-03
 -1      3979 2.07334E-03
 -1      3980 2.08028E-03
 -1      3981 1.51941E-03
 -1      3982 2.13236E-03
 -1      3983 2.04441E-03
 -1      3984 1.77033E-03
 -1      3985 2.00706E-03
 -1      3986 1.86917E-03
 -1      3987 1.78506E-03
 -1      3988 1.77679E-03
 -1      3989 1.63659E-03
 -1      3990 1.65532E-03
 -1      3991 1.55635E-03
 -1      3992 1.47287E-03
 -1      3993 1.34366E-03
 -1      3994 1.48271E-03
 -1      3995 4.70543E-01
 -1      3996 5.32879E-01
 -1      3997 2.21776E+00
 -1      3998 2.57326E+00
 -1      3999 1.96908E+00
 -1      4000 6.40777E-01
 -1      4001 7.11085E-01
 -1      4002 6.44838E-01
 -1      4003 8.42290E-01
 -1      4004 9.57986E-01
 -1      4005 8.83941E-01
 -1      4006 3.40518E-01
 -1      4007 3.92850E-01
 -1      4008 4.59248E-01
 -1      4009 2.60236E-01
 -1      4010 2.94464E-01
 -1      4011 3.35501E-01
 -1      4012 2.06195E-01
 -1      4013 2.31024E-01
 -1      4014 2.60236E-01
 -1      4015 1.64049E-01
 -1      4016 1.81366E-01
 -1      4017 2.06195E-01
 -1      4018 1.28607E-01
 -1      4019 1.43624E-01
 -1      4020 1.60940E-01
 -1      4021 9.79033E-02
 -1      4022 1.11255E-01
 -1      4023 1.23163E-01
 -1      4024 7.29542E-02
 -1      4025 8.41783E-02
 -1      4026 9.20865E-02
 -1      4027 5.31311E-02
 -1      4028 6.22429E-02
 -1      4029 6.76502E-02
 -1      4030 3.77220E-02
 -1      4031 4.49098E-02
 -1      4032 4.87176E-02
 -1      4033 2.59847E-02
 -1      4034 3.15106E-02
 -1      4035 3.42849E-02
 -1      4036 1.74639E-02
 -1      4037 2.13700E-02
 -1      4038 2.34588E-02
 -1      4039 1.15371E-02
 -1      4040 1.43780E-02
 -1      4041 1.57582E-02
 -1      4042 7.53110E-03
 -1      4043 9.59084E-03
 -1      4044 1.07259E-02
 -1      4045 4.72190E-03
 -1      4046 6.05055E-03
 -1      4047 7.29908E-03
 -1      4048 2.83973E-03
 -1      4049 3.62528E-03
 -1      4050 4.72190E-03
 -1      4051 1.92149E-03
 -1      4052 2.05009E-03
 -1      4053 2.83564E-03
 -1      4054 1.69392E-03
 -1      4055 1.55410E-03
 -1      4056 1.67860E-03
 -1      4057 1.84174E-03
 -1      4058 1.83157E-03
 -1      4059 1.44885E-03
 -1      4060 1.79672E-03
 -1      4061 1.86799E-03
 -1      4062 1.61275E-03
 -1      4063 1.67489E-03
 -1      4064 1.75569E-03
 -1      4065 1.59796E-03
 -1      4066 1.79285E-03
 -1      4067 1.79285E-03
 -1      4068 1.67489E-03
 -1      4069 1.70255E-03
 -1      4070 3.91551E+00
 -1      4071 1.32880E+00
 -1      4072 3.75737E+00
 -1      4073 2.97347E+00
 -1      4074 3.75737E+00
 -1      4075 2.06474E+00
 -1      4076 1.20604E+00
 -1      4077 1.31004E+00
 -1      4078 1.26320E+00
 -1      4079 1.79321E+00
 -1      4080 2.49398E+00
 -1      4081 5.07137E+00
 -1      4082 9.68250E-04
 -1      4083 1.07518E-03
 -1      4084 1.27509E-03
 -1      4085 9.72931E-04
 -1      4086 2.94065E+00
 -1      4087 3.36989E+00
 -1      4088 3.00956E+00
 -1      4089 1.72459E+00
 -1      4090 1.55127E+00
 -1      4091 2.03818E+00
 -1      4092 1.23434E-03
 -1      4093 1.17553E-03
 -1      4094 1.03708E-03
 -1      4095 2.66835E+00
 -1      4096 2.41032E+00
 -1      4097 4.85458E+00
 -1      4098 2.55027E+00
 -1      4099 1.30405E-03
 -1      4100 1.39435E-03
 -1      4101 9.66885E-04
 -1      4102 3.43006E+00
 -1      4103 2.64616E+00
 -1      4104 2.72789E+00
 -1      4105 1.90077E+00
 -1      4106 2.43351E+00
 -1      4107 2.69804E+00
 -1      4108 3.21405E+00
 -1      4109 2.74329E+00
 -1      4110 2.31997E+00
 -1      4111 1.87272E+00
 -1      4112 5.94388E-01
 -1      4113 5.04298E-01
 -1      4114 4.25868E-01
 -1      4115 3.58885E-01
 -1      4116 4.37315E-01
 -1      4117 3.33765E-01
 -1      4118 2.88598E-01
 -1      4119 3.33765E-01
 -1      4120 2.40484E-01
 -1      4121 1.98181E-01
 -1      4122 2.60531E-01
 -1      4123 1.67638E-01
 -1      4124 1.41340E-01
 -1      4125 1.81874E-01
 -1      4126 1.22066E-01
 -1      4127 1.04416E-01
 -1      4128 1.32056E-01
 -1      4129 8.95606E-02
 -1      4130 7.73127E-02
 -1      4131 9.79261E-02
 -1      4132 6.59464E-02
 -1      4133 5.62077E-02
 -1      4134 7.17041E-02
 -1      4135 4.75998E-02
 -1      4136 4.00206E-02
 -1      4137 5.17299E-02
 -1      4138 3.44149E-02
 -1      4139 2.85668E-02
 -1      4140 3.75163E-02
 -1      4141 2.30987E-02
 -1      4142 1.90373E-02
 -1      4143 2.64425E-02
 -1      4144 1.59510E-02
 -1      4145 1.30609E-02
 -1      4146 1.78881E-02
 -1      4147 1.08270E-02
 -1      4148 8.71574E-03
 -1      4149 1.25679E-02
 -1      4150 6.99411E-03
 -1      4151 5.52520E-03
 -1      4152 8.61245E-03
 -1      4153 4.24388E-03
 -1      4154 3.34775E-03
 -1      4155 5.60950E-03
 -1      4156 2.42591E-03
 -1      4157 1.90254E-03
 -1      4158 3.40635E-03
 -1      4159 1.26186E-03
 -1      4160 1.46071E-03
 -1      4161 1.84384E-03
 -1      4162 1.47918E-03
 -1      4163 1.53126E-03
 -1      4164 1.22163E-03
 -1      4165 1.58863E-03
 -1      4166 1.55128E-03
 -1      4167 1.29748E-03
 -1      4168 1.53676E-03
 -1      4169 1.44438E-03
 -1      4170 1.34034E-03
 -1      4171 1.36068E-03
 -1      4172 1.28044E-03
 -1      4173 1.11231E-03
 -1      4174 1.24211E-03
 -1      4175 6.19004E-01
 -1      4176 7.26902E-01
 -1      4177 1.23640E+00
 -1      4178 1.36760E+00
 -1      4179 1.21056E+00
 -1      4180 2.60236E-01
 -1      4181 2.89447E-01
 -1      4182 2.45005E-01
 -1      4183 2.69835E-01
 -1      4184 2.99046E-01
 -1      4185 1.76466E-01
 -1      4186 1.96891E-01
 -1      4187 2.60531E-01
 -1      4188 1.27739E-01
 -1      4189 1.45090E-01
 -1      4190 1.81041E-01
 -1      4191 9.14145E-02
 -1      4192 1.05140E-01
 -1      4193 1.27067E-01
 -1      4194 6.47142E-02
 -1      4195 7.54256E-02
 -1      4196 8.84786E-02
 -1      4197 4.52248E-02
 -1      4198 5.34461E-02
 -1      4199 6.12214E-02
 -1      4200 3.20095E-02
 -1      4201 3.82208E-02
 -1      4202 4.29493E-02
 -1      4203 2.22498E-02
 -1      4204 2.68645E-02
 -1      4205 3.08004E-02
 -1      4206 1.51928E-02
 -1      4207 1.82787E-02
 -1      4208 2.16844E-02
 -1      4209 1.05605E-02
 -1      4210 1.25068E-02
 -1      4211 1.50274E-02
 -1      4212 7.05700E-03
 -1      4213 8.53755E-03
 -1      4214 1.03184E-02
 -1      4215 4.46820E-03
 -1      4216 5.56483E-03
 -1      4217 6.80330E-03
 -1      4218 2.60294E-03
 -1      4219 3.39258E-03
 -1      4220 4.23551E-03
 -1      4221 1.47650E-03
 -1      4222 1.84390E-03
 -1      4223 2.40084E-03
 -1      4224 1.30498E-03
 -1      4225 1.16734E-03
 -1      4226 1.33264E-03
 -1      4227 1.43466E-03
 -1      4228 1.40841E-03
 -1      4229 1.12689E-03
 -1      4230 1.41381E-03
 -1      4231 1.45484E-03
 -1      4232 1.25050E-03
 -1      4233 1.46853E-03
 -1      4234 1.35057E-03
 -1      4235 1.20745E-03
 -1      4236 1.07003E-03
 -1      4237 3.35501E-01
 -1      4238 3.81554E-01
 -1      4239 3.35501E-01
 -1      4240 1.63022E+00
 -1      4241 1.87828E+00
 -1      4242 1.98268E+00
 -1      4243 4.35496E-01
 -1      4244 5.13189E-01
 -1      4245 4.35496E-01
 -1      4246 9.73931E-04
 -1      4247 9.38925E-04
 -1      4248 9.67884E-04
 -1      4249 1.00307E-03
 -1      4250 1.70170E+00
 -1      4251 2.09121E+00
 -1      4252 2.12090E+00
 -1      4253 2.06872E+00
 -1      4254 7.98085E-01
 -1      4255 6.74742E-01
 -1      4256 5.96099E-01
 -1      4257 2.94065E+00
 -1      4258 2.57815E+00
 -1      4259 5.95253E-01
 -1      4260 1.66703E+00
 -1      4261 1.03548E+00
 -1      4262 9.13851E-01
 -1      4263 2.17328E+00
 -1      4264 2.56692E+00
 -1      4265 2.15788E+00
 -1      4266 1.94453E+00
 -1      4267 2.60939E+00
 -1      4268 2.21406E+00
 -1      4269 1.69828E+00
 -1      4270 2.28208E+00
 -1      4271 6.56238E-01
 -1      4272 5.75883E-01
 -1      4273 3.33765E-01
 -1      4274 3.08645E-01
 -1      4275 3.08645E-01
 -1      4276 2.60531E-01
 -1      4277 2.12417E-01
 -1      4278 1.81874E-01
 -1      4279 1.50498E-01
 -1      4280 1.31224E-01
 -1      4281 1.08625E-01
 -1      4282 9.37690E-02
 -1      4283 7.77800E-02
 -1      4284 6.64137E-02
 -1      4285 5.51455E-02
 -1      4286 4.65376E-02
 -1      4287 3.95337E-02
 -1      4288 3.39280E-02
 -1      4289 2.87830E-02
 -1      4290 2.33150E-02
 -1      4291 1.93439E-02
 -1      4292 1.62576E-02
 -1      4293 1.35716E-02
 -1      4294 1.13377E-02
 -1      4295 9.31478E-03
 -1      4296 7.59315E-03
 -1      4297 6.10098E-03
 -1      4298 4.81966E-03
 -1      4299 3.74403E-03
 -1      4300 2.82220E-03
 -1      4301 2.06316E-03
 -1      4302 1.42248E-03
 -1      4303 1.11332E-03
 -1      4304 1.13179E-03
 -1      4305 1.23521E-03
 -1      4306 1.29258E-03
 -1      4307 1.31277E-03
 -1      4308 1.29825E-03
 -1      4309 1.12244E+00
 -1      4310 1.63194E+00
 -1      4311 3.08645E-01
 -1      4312 2.99046E-01
 -1      4313 3.45100E-01
 -1      4314 1.98268E+00
 -1      4315 2.24530E+00
 -1      4316 5.62730E-01
 -1      4317 6.68545E-01
 -1      4318 3.56128E-01
 -1      4319 3.31008E-01
 -1      4320 3.67463E-01
 -1      4321 4.34558E-01
 -1      4322 1.11014E+00
 -1      4323 1.08992E+00
 -1      4324 4.94697E-01
 -1      4325 1.34754E+00
 -1      4326 2.28208E+00
 -1      4327 4.21404E-01
 -1      4328 1.04917E-03
 -1      4329 9.30748E-04
 -1      4330 9.58707E-04
 -1      4331 1.03289E-03
 -1      4332 1.03999E-03
 -1      4333 1.89456E+00
 -1      4334 1.09613E-03
 -1      4335 1.12370E-03
 -1      4336 2.12111E+00
 -3
 9999
