    1C
    1UUSER                                                              
    1UDATE              27.october.2022                                 
    1UTIME              00:22:30                                        
    1UHOST                                                              
    1UPGM               CalculiX                                        
    1UVERSION           Version 2.17                             
    1UCOMPILETIME       Thu Jul 23 21:43:50 CEST 2020                    
    1UDIR                                                               
    1UDBN                                                               
    1UMAT    1SOLIDMATERIAL                                             
    2C                          4272                                     1
 -1         1 3.88285E+01 3.99984E+01 0.00000E+00
 -1         2 4.58290E+01 3.29984E+01 0.00000E+00
 -1         3 1.50000E+02 0.00000E+00 0.00000E+00
 -1         4 1.50000E+02 5.00000E+01 0.00000E+00
 -1         5 0.00000E+00 0.00000E+00 0.00000E+00
 -1         6 0.00000E+00 5.00000E+01 0.00000E+00
 -1         7 0.00000E+00 4.70500E+01 0.00000E+00
 -1         8 0.00000E+00 4.41000E+01 0.00000E+00
 -1         9 0.00000E+00 4.11500E+01 0.00000E+00
 -1        10 0.00000E+00 3.82000E+01 0.00000E+00
 -1        11 0.00000E+00 3.52500E+01 0.00000E+00
 -1        12 0.00000E+00 3.23500E+01 0.00000E+00
 -1        13 0.00000E+00 2.94000E+01 0.00000E+00
 -1        14 0.00000E+00 2.64500E+01 0.00000E+00
 -1        15 0.00000E+00 2.35000E+01 0.00000E+00
 -1        16 0.00000E+00 2.05500E+01 0.00000E+00
 -1        17 0.00000E+00 1.76000E+01 0.00000E+00
 -1        18 0.00000E+00 1.47000E+01 0.00000E+00
 -1        19 0.00000E+00 1.17500E+01 0.00000E+00
 -1        20 0.00000E+00 8.80000E+00 0.00000E+00
 -1        21 0.00000E+00 5.85000E+00 0.00000E+00
 -1        22 0.00000E+00 2.90000E+00 0.00000E+00
 -1        23 3.15000E+00 5.00000E+01 0.00000E+00
 -1        24 6.15000E+00 5.00000E+01 0.00000E+00
 -1        25 9.15000E+00 5.00000E+01 0.00000E+00
 -1        26 1.21500E+01 5.00000E+01 0.00000E+00
 -1        27 1.51500E+01 5.00000E+01 0.00000E+00
 -1        28 1.81500E+01 5.00000E+01 0.00000E+00
 -1        29 2.11500E+01 5.00000E+01 0.00000E+00
 -1        30 2.41500E+01 5.00000E+01 0.00000E+00
 -1        31 2.71500E+01 5.00000E+01 0.00000E+00
 -1        32 3.01500E+01 5.00000E+01 0.00000E+00
 -1        33 3.31500E+01 5.00000E+01 0.00000E+00
 -1        34 3.60000E+01 5.00000E+01 0.00000E+00
 -1        35 3.90000E+01 5.00000E+01 0.00000E+00
 -1        36 4.17000E+01 5.00000E+01 0.00000E+00
 -1        37 4.47000E+01 5.00000E+01 0.00000E+00
 -1        38 4.77000E+01 5.00000E+01 0.00000E+00
 -1        39 5.07000E+01 5.00000E+01 0.00000E+00
 -1        40 5.37000E+01 5.00000E+01 0.00000E+00
 -1        41 5.67000E+01 5.00000E+01 0.00000E+00
 -1        42 5.97000E+01 5.00000E+01 0.00000E+00
 -1        43 6.27000E+01 5.00000E+01 0.00000E+00
 -1        44 6.57000E+01 5.00000E+01 0.00000E+00
 -1        45 6.88500E+01 5.00000E+01 0.00000E+00
 -1        46 7.18500E+01 5.00000E+01 0.00000E+00
 -1        47 7.48500E+01 5.00000E+01 0.00000E+00
 -1        48 7.78500E+01 5.00000E+01 0.00000E+00
 -1        49 8.08500E+01 5.00000E+01 0.00000E+00
 -1        50 8.38500E+01 5.00000E+01 0.00000E+00
 -1        51 8.68500E+01 5.00000E+01 0.00000E+00
 -1        52 8.98500E+01 5.00000E+01 0.00000E+00
 -1        53 9.28500E+01 5.00000E+01 0.00000E+00
 -1        54 9.58500E+01 5.00000E+01 0.00000E+00
 -1        55 9.88500E+01 5.00000E+01 0.00000E+00
 -1        56 1.01850E+02 5.00000E+01 0.00000E+00
 -1        57 1.04850E+02 5.00000E+01 0.00000E+00
 -1        58 1.07850E+02 5.00000E+01 0.00000E+00
 -1        59 1.11000E+02 5.00000E+01 0.00000E+00
 -1        60 1.14000E+02 5.00000E+01 0.00000E+00
 -1        61 1.17000E+02 5.00000E+01 0.00000E+00
 -1        62 1.20000E+02 5.00000E+01 0.00000E+00
 -1        63 1.23000E+02 5.00000E+01 0.00000E+00
 -1        64 1.26000E+02 5.00000E+01 0.00000E+00
 -1        65 1.29000E+02 5.00000E+01 0.00000E+00
 -1        66 1.32000E+02 5.00000E+01 0.00000E+00
 -1        67 1.35000E+02 5.00000E+01 0.00000E+00
 -1        68 1.38000E+02 5.00000E+01 0.00000E+00
 -1        69 1.41000E+02 5.00000E+01 0.00000E+00
 -1        70 1.44000E+02 5.00000E+01 0.00000E+00
 -1        71 1.47000E+02 5.00000E+01 0.00000E+00
 -1        72 3.15000E+00 0.00000E+00 0.00000E+00
 -1        73 6.15000E+00 0.00000E+00 0.00000E+00
 -1        74 9.15000E+00 0.00000E+00 0.00000E+00
 -1        75 1.21500E+01 0.00000E+00 0.00000E+00
 -1        76 1.51500E+01 0.00000E+00 0.00000E+00
 -1        77 1.81500E+01 0.00000E+00 0.00000E+00
 -1        78 2.11500E+01 0.00000E+00 0.00000E+00
 -1        79 2.41500E+01 0.00000E+00 0.00000E+00
 -1        80 2.71500E+01 0.00000E+00 0.00000E+00
 -1        81 3.01500E+01 0.00000E+00 0.00000E+00
 -1        82 3.31500E+01 0.00000E+00 0.00000E+00
 -1        83 3.61500E+01 0.00000E+00 0.00000E+00
 -1        84 3.91500E+01 0.00000E+00 0.00000E+00
 -1        85 4.21500E+01 0.00000E+00 0.00000E+00
 -1        86 4.51500E+01 0.00000E+00 0.00000E+00
 -1        87 4.81500E+01 0.00000E+00 0.00000E+00
 -1        88 5.11500E+01 0.00000E+00 0.00000E+00
 -1        89 5.41500E+01 0.00000E+00 0.00000E+00
 -1        90 5.71500E+01 0.00000E+00 0.00000E+00
 -1        91 6.01500E+01 0.00000E+00 0.00000E+00
 -1        92 6.31500E+01 0.00000E+00 0.00000E+00
 -1        93 6.61500E+01 0.00000E+00 0.00000E+00
 -1        94 6.91500E+01 0.00000E+00 0.00000E+00
 -1        95 7.21500E+01 0.00000E+00 0.00000E+00
 -1        96 7.51500E+01 0.00000E+00 0.00000E+00
 -1        97 7.81500E+01 0.00000E+00 0.00000E+00
 -1        98 8.11500E+01 0.00000E+00 0.00000E+00
 -1        99 8.41500E+01 0.00000E+00 0.00000E+00
 -1       100 8.71500E+01 0.00000E+00 0.00000E+00
 -1       101 9.01500E+01 0.00000E+00 0.00000E+00
 -1       102 9.31500E+01 0.00000E+00 0.00000E+00
 -1       103 9.61500E+01 0.00000E+00 0.00000E+00
 -1       104 9.91500E+01 0.00000E+00 0.00000E+00
 -1       105 1.02150E+02 0.00000E+00 0.00000E+00
 -1       106 1.05150E+02 0.00000E+00 0.00000E+00
 -1       107 1.08150E+02 0.00000E+00 0.00000E+00
 -1       108 1.11150E+02 0.00000E+00 0.00000E+00
 -1       109 1.14150E+02 0.00000E+00 0.00000E+00
 -1       110 1.17150E+02 0.00000E+00 0.00000E+00
 -1       111 1.20150E+02 0.00000E+00 0.00000E+00
 -1       112 1.23150E+02 0.00000E+00 0.00000E+00
 -1       113 1.26150E+02 0.00000E+00 0.00000E+00
 -1       114 1.29150E+02 0.00000E+00 0.00000E+00
 -1       115 1.32150E+02 0.00000E+00 0.00000E+00
 -1       116 1.35150E+02 0.00000E+00 0.00000E+00
 -1       117 1.38150E+02 0.00000E+00 0.00000E+00
 -1       118 1.41150E+02 0.00000E+00 0.00000E+00
 -1       119 1.44150E+02 0.00000E+00 0.00000E+00
 -1       120 1.47150E+02 0.00000E+00 0.00000E+00
 -1       121 1.50000E+02 2.95000E+00 0.00000E+00
 -1       122 1.50000E+02 5.90000E+00 0.00000E+00
 -1       123 1.50000E+02 8.85000E+00 0.00000E+00
 -1       124 1.50000E+02 1.18000E+01 0.00000E+00
 -1       125 1.50000E+02 1.47500E+01 0.00000E+00
 -1       126 1.50000E+02 1.76500E+01 0.00000E+00
 -1       127 1.50000E+02 2.06000E+01 0.00000E+00
 -1       128 1.50000E+02 2.35500E+01 0.00000E+00
 -1       129 1.50000E+02 2.65000E+01 0.00000E+00
 -1       130 1.50000E+02 2.94500E+01 0.00000E+00
 -1       131 1.50000E+02 3.24000E+01 0.00000E+00
 -1       132 1.50000E+02 3.53000E+01 0.00000E+00
 -1       133 1.50000E+02 3.82500E+01 0.00000E+00
 -1       134 1.50000E+02 4.12000E+01 0.00000E+00
 -1       135 1.50000E+02 4.41500E+01 0.00000E+00
 -1       136 1.50000E+02 4.71000E+01 0.00000E+00
 -1       137 4.56409E+01 3.13867E+01 0.00000E+00
 -1       138 4.51590E+01 3.00099E+01 0.00000E+00
 -1       139 4.43806E+01 2.87347E+01 0.00000E+00
 -1       140 4.34272E+01 2.77205E+01 0.00000E+00
 -1       141 4.22358E+01 2.68834E+01 0.00000E+00
 -1       142 4.09038E+01 2.63130E+01 0.00000E+00
 -1       143 3.92852E+01 2.60133E+01 0.00000E+00
 -1       144 3.77735E+01 2.60785E+01 0.00000E+00
 -1       145 3.62820E+01 2.64782E+01 0.00000E+00
 -1       146 3.49617E+01 2.71637E+01 0.00000E+00
 -1       147 3.38641E+01 2.80639E+01 0.00000E+00
 -1       148 3.29683E+01 2.91706E+01 0.00000E+00
 -1       149 3.22676E+01 3.05595E+01 0.00000E+00
 -1       150 3.19030E+01 3.19836E+01 0.00000E+00
 -1       151 3.18406E+01 3.34021E+01 0.00000E+00
 -1       152 3.21070E+01 3.49514E+01 0.00000E+00
 -1       153 3.26358E+01 3.62609E+01 0.00000E+00
 -1       154 3.35432E+01 3.75875E+01 0.00000E+00
 -1       155 3.46333E+01 3.86017E+01 0.00000E+00
 -1       156 3.59205E+01 3.93656E+01 0.00000E+00
 -1       157 3.73298E+01 3.98360E+01 0.00000E+00
 -1       158 4.01854E+01 3.98658E+01 0.00000E+00
 -1       159 4.15303E+01 3.94562E+01 0.00000E+00
 -1       160 4.27090E+01 3.88247E+01 0.00000E+00
 -1       161 4.37887E+01 3.79382E+01 0.00000E+00
 -1       162 4.46519E+01 3.68835E+01 0.00000E+00
 -1       163 4.52985E+01 3.56716E+01 0.00000E+00
 -1       164 4.57030E+01 3.43203E+01 0.00000E+00
 -1       165 2.59800E+00 4.55750E+01 0.00000E+00
 -1       166 2.59800E+00 4.26250E+01 0.00000E+00
 -1       167 2.59800E+00 3.96750E+01 0.00000E+00
 -1       168 2.59800E+00 3.67250E+01 0.00000E+00
 -1       169 2.59800E+00 3.38250E+01 0.00000E+00
 -1       170 2.59800E+00 3.08750E+01 0.00000E+00
 -1       171 2.59800E+00 2.79250E+01 0.00000E+00
 -1       172 2.59800E+00 2.49750E+01 0.00000E+00
 -1       173 2.59800E+00 2.20250E+01 0.00000E+00
 -1       174 2.59800E+00 1.90750E+01 0.00000E+00
 -1       175 2.59800E+00 1.61750E+01 0.00000E+00
 -1       176 2.59800E+00 1.32250E+01 0.00000E+00
 -1       177 2.59800E+00 1.02750E+01 0.00000E+00
 -1       178 2.59800E+00 7.32500E+00 0.00000E+00
 -1       179 2.59800E+00 4.37500E+00 0.00000E+00
 -1       180 2.87400E+00 2.18750E+00 0.00000E+00
 -1       181 4.65000E+00 4.74020E+01 0.00000E+00
 -1       182 7.65000E+00 4.74020E+01 0.00000E+00
 -1       183 1.06500E+01 4.74020E+01 0.00000E+00
 -1       184 1.36500E+01 4.74020E+01 0.00000E+00
 -1       185 1.66500E+01 4.74020E+01 0.00000E+00
 -1       186 1.96500E+01 4.74020E+01 0.00000E+00
 -1       187 2.26500E+01 4.74020E+01 0.00000E+00
 -1       188 2.56500E+01 4.74020E+01 0.00000E+00
 -1       189 2.86500E+01 4.74020E+01 0.00000E+00
 -1       190 3.16500E+01 4.74020E+01 0.00000E+00
 -1       191 3.45000E+01 4.74020E+01 0.00000E+00
 -1       192 3.75000E+01 4.74020E+01 0.00000E+00
 -1       193 4.02000E+01 4.74020E+01 0.00000E+00
 -1       194 4.32000E+01 4.74020E+01 0.00000E+00
 -1       195 4.62000E+01 4.74020E+01 0.00000E+00
 -1       196 4.92000E+01 4.74020E+01 0.00000E+00
 -1       197 5.22000E+01 4.74020E+01 0.00000E+00
 -1       198 5.52000E+01 4.74020E+01 0.00000E+00
 -1       199 5.82000E+01 4.74020E+01 0.00000E+00
 -1       200 6.12000E+01 4.74020E+01 0.00000E+00
 -1       201 6.42000E+01 4.74020E+01 0.00000E+00
 -1       202 6.73500E+01 4.74020E+01 0.00000E+00
 -1       203 7.03500E+01 4.74020E+01 0.00000E+00
 -1       204 7.33500E+01 4.74020E+01 0.00000E+00
 -1       205 7.63500E+01 4.74020E+01 0.00000E+00
 -1       206 7.93500E+01 4.74020E+01 0.00000E+00
 -1       207 8.23500E+01 4.74020E+01 0.00000E+00
 -1       208 8.53500E+01 4.74020E+01 0.00000E+00
 -1       209 8.83500E+01 4.74020E+01 0.00000E+00
 -1       210 9.13500E+01 4.74020E+01 0.00000E+00
 -1       211 9.43500E+01 4.74020E+01 0.00000E+00
 -1       212 9.73500E+01 4.74020E+01 0.00000E+00
 -1       213 1.00350E+02 4.74020E+01 0.00000E+00
 -1       214 1.03350E+02 4.74020E+01 0.00000E+00
 -1       215 1.06350E+02 4.74020E+01 0.00000E+00
 -1       216 1.09500E+02 4.74020E+01 0.00000E+00
 -1       217 1.12500E+02 4.74020E+01 0.00000E+00
 -1       218 1.15500E+02 4.74020E+01 0.00000E+00
 -1       219 1.18500E+02 4.74020E+01 0.00000E+00
 -1       220 1.21500E+02 4.74020E+01 0.00000E+00
 -1       221 1.24500E+02 4.74020E+01 0.00000E+00
 -1       222 1.27500E+02 4.74020E+01 0.00000E+00
 -1       223 1.30500E+02 4.74020E+01 0.00000E+00
 -1       224 1.33500E+02 4.74020E+01 0.00000E+00
 -1       225 1.36500E+02 4.74020E+01 0.00000E+00
 -1       226 1.39500E+02 4.74020E+01 0.00000E+00
 -1       227 1.42500E+02 4.74020E+01 0.00000E+00
 -1       228 1.45500E+02 4.74020E+01 0.00000E+00
 -1       229 1.47750E+02 4.72510E+01 0.00000E+00
 -1       230 5.87400E+00 2.18750E+00 0.00000E+00
 -1       231 8.87400E+00 2.18750E+00 0.00000E+00
 -1       232 1.18740E+01 2.18750E+00 0.00000E+00
 -1       233 1.48740E+01 2.18750E+00 0.00000E+00
 -1       234 1.78740E+01 2.18750E+00 0.00000E+00
 -1       235 2.08740E+01 2.18750E+00 0.00000E+00
 -1       236 2.38740E+01 2.18750E+00 0.00000E+00
 -1       237 2.68740E+01 2.18750E+00 0.00000E+00
 -1       238 2.98740E+01 2.18750E+00 0.00000E+00
 -1       239 3.28740E+01 2.18750E+00 0.00000E+00
 -1       240 3.58740E+01 2.18750E+00 0.00000E+00
 -1       241 3.88740E+01 2.18750E+00 0.00000E+00
 -1       242 4.18740E+01 2.18750E+00 0.00000E+00
 -1       243 4.48740E+01 2.18750E+00 0.00000E+00
 -1       244 4.78740E+01 2.18750E+00 0.00000E+00
 -1       245 5.08740E+01 2.18750E+00 0.00000E+00
 -1       246 5.38740E+01 2.18750E+00 0.00000E+00
 -1       247 5.68740E+01 2.18750E+00 0.00000E+00
 -1       248 5.98740E+01 2.18750E+00 0.00000E+00
 -1       249 6.28740E+01 2.18750E+00 0.00000E+00
 -1       250 6.58740E+01 2.18750E+00 0.00000E+00
 -1       251 6.88740E+01 2.18750E+00 0.00000E+00
 -1       252 7.18740E+01 2.18750E+00 0.00000E+00
 -1       253 7.48740E+01 2.18750E+00 0.00000E+00
 -1       254 7.78740E+01 2.18750E+00 0.00000E+00
 -1       255 8.08740E+01 2.18750E+00 0.00000E+00
 -1       256 8.38740E+01 2.18750E+00 0.00000E+00
 -1       257 8.68740E+01 2.18750E+00 0.00000E+00
 -1       258 8.98740E+01 2.18750E+00 0.00000E+00
 -1       259 9.28740E+01 2.18750E+00 0.00000E+00
 -1       260 9.58740E+01 2.18750E+00 0.00000E+00
 -1       261 9.88740E+01 2.18750E+00 0.00000E+00
 -1       262 1.01874E+02 2.18750E+00 0.00000E+00
 -1       263 1.04874E+02 2.18750E+00 0.00000E+00
 -1       264 1.07874E+02 2.18750E+00 0.00000E+00
 -1       265 1.10874E+02 2.18750E+00 0.00000E+00
 -1       266 1.13874E+02 2.18750E+00 0.00000E+00
 -1       267 1.16874E+02 2.18750E+00 0.00000E+00
 -1       268 1.19874E+02 2.18750E+00 0.00000E+00
 -1       269 1.22874E+02 2.18750E+00 0.00000E+00
 -1       270 1.25874E+02 2.18750E+00 0.00000E+00
 -1       271 1.28874E+02 2.18750E+00 0.00000E+00
 -1       272 1.31874E+02 2.18750E+00 0.00000E+00
 -1       273 1.34874E+02 2.18750E+00 0.00000E+00
 -1       274 1.37874E+02 2.18750E+00 0.00000E+00
 -1       275 1.40874E+02 2.18750E+00 0.00000E+00
 -1       276 1.43874E+02 2.18750E+00 0.00000E+00
 -1       277 1.46874E+02 2.18750E+00 0.00000E+00
 -1       278 1.47402E+02 4.42500E+00 0.00000E+00
 -1       279 1.47402E+02 7.37500E+00 0.00000E+00
 -1       280 1.47402E+02 1.03250E+01 0.00000E+00
 -1       281 1.47402E+02 1.32750E+01 0.00000E+00
 -1       282 1.47402E+02 1.61750E+01 0.00000E+00
 -1       283 1.47402E+02 1.91250E+01 0.00000E+00
 -1       284 1.47402E+02 2.20750E+01 0.00000E+00
 -1       285 1.47402E+02 2.50250E+01 0.00000E+00
 -1       286 1.47402E+02 2.79750E+01 0.00000E+00
 -1       287 1.47402E+02 3.09250E+01 0.00000E+00
 -1       288 1.47402E+02 3.38250E+01 0.00000E+00
 -1       289 1.47402E+02 3.67750E+01 0.00000E+00
 -1       290 1.47402E+02 3.97250E+01 0.00000E+00
 -1       291 1.47402E+02 4.26750E+01 0.00000E+00
 -1       292 1.47576E+02 4.49630E+01 0.00000E+00
 -1       293 4.72721E+01 3.20132E+01 0.00000E+00
 -1       294 4.65443E+01 3.02978E+01 0.00000E+00
 -1       295 4.58762E+01 2.86970E+01 0.00000E+00
 -1       296 4.47873E+01 2.73972E+01 0.00000E+00
 -1       297 4.35285E+01 2.63100E+01 0.00000E+00
 -1       298 4.20801E+01 2.54067E+01 0.00000E+00
 -1       299 4.03458E+01 2.48062E+01 0.00000E+00
 -1       300 3.84771E+01 2.48346E+01 0.00000E+00
 -1       301 3.66271E+01 2.47836E+01 0.00000E+00
 -1       302 3.50246E+01 2.56706E+01 0.00000E+00
 -1       303 3.36441E+01 2.66763E+01 0.00000E+00
 -1       304 3.24738E+01 2.78545E+01 0.00000E+00
 -1       305 3.13859E+01 2.92435E+01 0.00000E+00
 -1       306 3.09108E+01 3.09708E+01 0.00000E+00
 -1       307 3.06606E+01 3.26396E+01 0.00000E+00
 -1       308 3.06138E+01 3.44105E+01 0.00000E+00
 -1       309 3.12472E+01 3.60601E+01 0.00000E+00
 -1       310 3.18813E+01 3.77506E+01 0.00000E+00
 -1       311 3.32054E+01 3.90436E+01 0.00000E+00
 -1       312 3.46582E+01 4.00262E+01 0.00000E+00
 -1       313 3.62147E+01 4.08303E+01 0.00000E+00
 -1       314 3.79394E+01 4.12058E+01 0.00000E+00
 -1       315 3.96249E+01 4.11387E+01 0.00000E+00
 -1       316 4.12598E+01 4.09811E+01 0.00000E+00
 -1       317 4.26922E+01 4.02092E+01 0.00000E+00
 -1       318 4.40182E+01 3.93185E+01 0.00000E+00
 -1       319 4.51585E+01 3.81787E+01 0.00000E+00
 -1       320 4.60449E+01 3.68482E+01 0.00000E+00
 -1       321 4.67425E+01 3.53677E+01 0.00000E+00
 -1       322 4.69730E+01 3.37744E+01 0.00000E+00
 -1       323 5.19600E+00 4.11500E+01 0.00000E+00
 -1       324 5.19600E+00 4.41000E+01 0.00000E+00
 -1       325 5.19600E+00 3.52750E+01 0.00000E+00
 -1       326 5.19600E+00 3.23250E+01 0.00000E+00
 -1       327 5.19600E+00 2.93750E+01 0.00000E+00
 -1       328 5.19600E+00 2.64250E+01 0.00000E+00
 -1       329 5.19600E+00 2.34750E+01 0.00000E+00
 -1       330 5.19600E+00 2.05250E+01 0.00000E+00
 -1       331 5.19600E+00 1.76250E+01 0.00000E+00
 -1       332 5.19600E+00 1.46750E+01 0.00000E+00
 -1       333 5.19600E+00 1.17250E+01 0.00000E+00
 -1       334 5.19600E+00 8.77500E+00 0.00000E+00
 -1       335 5.19600E+00 5.82500E+00 0.00000E+00
 -1       336 5.53500E+00 4.00625E+00 0.00000E+00
 -1       337 8.53500E+00 4.00625E+00 0.00000E+00
 -1       338 9.15000E+00 4.48040E+01 0.00000E+00
 -1       339 1.21500E+01 4.48040E+01 0.00000E+00
 -1       340 1.51500E+01 4.48040E+01 0.00000E+00
 -1       341 1.81500E+01 4.48040E+01 0.00000E+00
 -1       342 2.11500E+01 4.48040E+01 0.00000E+00
 -1       343 2.41500E+01 4.48040E+01 0.00000E+00
 -1       344 2.71500E+01 4.48040E+01 0.00000E+00
 -1       345 3.01500E+01 4.48040E+01 0.00000E+00
 -1       346 3.30000E+01 4.48040E+01 0.00000E+00
 -1       347 3.60000E+01 4.48040E+01 0.00000E+00
 -1       348 3.87000E+01 4.48040E+01 0.00000E+00
 -1       349 4.17000E+01 4.48040E+01 0.00000E+00
 -1       350 4.47000E+01 4.48040E+01 0.00000E+00
 -1       351 4.77000E+01 4.48040E+01 0.00000E+00
 -1       352 5.07000E+01 4.48040E+01 0.00000E+00
 -1       353 5.37000E+01 4.48040E+01 0.00000E+00
 -1       354 5.67000E+01 4.48040E+01 0.00000E+00
 -1       355 5.97000E+01 4.48040E+01 0.00000E+00
 -1       356 6.27000E+01 4.48040E+01 0.00000E+00
 -1       357 6.58500E+01 4.48040E+01 0.00000E+00
 -1       358 6.88500E+01 4.48040E+01 0.00000E+00
 -1       359 7.18500E+01 4.48040E+01 0.00000E+00
 -1       360 7.48500E+01 4.48040E+01 0.00000E+00
 -1       361 7.78500E+01 4.48040E+01 0.00000E+00
 -1       362 8.08500E+01 4.48040E+01 0.00000E+00
 -1       363 8.38500E+01 4.48040E+01 0.00000E+00
 -1       364 8.68500E+01 4.48040E+01 0.00000E+00
 -1       365 8.98500E+01 4.48040E+01 0.00000E+00
 -1       366 9.28500E+01 4.48040E+01 0.00000E+00
 -1       367 9.58500E+01 4.48040E+01 0.00000E+00
 -1       368 9.88500E+01 4.48040E+01 0.00000E+00
 -1       369 1.01850E+02 4.48040E+01 0.00000E+00
 -1       370 1.04850E+02 4.48040E+01 0.00000E+00
 -1       371 1.08000E+02 4.48040E+01 0.00000E+00
 -1       372 1.11000E+02 4.48040E+01 0.00000E+00
 -1       373 1.14000E+02 4.48040E+01 0.00000E+00
 -1       374 1.17000E+02 4.48040E+01 0.00000E+00
 -1       375 1.20000E+02 4.48040E+01 0.00000E+00
 -1       376 1.23000E+02 4.48040E+01 0.00000E+00
 -1       377 1.26000E+02 4.48040E+01 0.00000E+00
 -1       378 1.29000E+02 4.48040E+01 0.00000E+00
 -1       379 1.32000E+02 4.48040E+01 0.00000E+00
 -1       380 1.35000E+02 4.48040E+01 0.00000E+00
 -1       381 1.38000E+02 4.48040E+01 0.00000E+00
 -1       382 1.41000E+02 4.48040E+01 0.00000E+00
 -1       383 1.44000E+02 4.48040E+01 0.00000E+00
 -1       384 1.33740E+01 4.78550E+00 0.00000E+00
 -1       385 1.63740E+01 4.78550E+00 0.00000E+00
 -1       386 1.93740E+01 4.78550E+00 0.00000E+00
 -1       387 2.23740E+01 4.78550E+00 0.00000E+00
 -1       388 2.53740E+01 4.78550E+00 0.00000E+00
 -1       389 2.83740E+01 4.78550E+00 0.00000E+00
 -1       390 3.13740E+01 4.78550E+00 0.00000E+00
 -1       391 3.43740E+01 4.78550E+00 0.00000E+00
 -1       392 3.73740E+01 4.78550E+00 0.00000E+00
 -1       393 4.03740E+01 4.78550E+00 0.00000E+00
 -1       394 4.33740E+01 4.78550E+00 0.00000E+00
 -1       395 4.63740E+01 4.78550E+00 0.00000E+00
 -1       396 4.93740E+01 4.78550E+00 0.00000E+00
 -1       397 5.23740E+01 4.78550E+00 0.00000E+00
 -1       398 5.53740E+01 4.78550E+00 0.00000E+00
 -1       399 5.83740E+01 4.78550E+00 0.00000E+00
 -1       400 6.13740E+01 4.78550E+00 0.00000E+00
 -1       401 6.43740E+01 4.78550E+00 0.00000E+00
 -1       402 6.73740E+01 4.78550E+00 0.00000E+00
 -1       403 7.03740E+01 4.78550E+00 0.00000E+00
 -1       404 7.33740E+01 4.78550E+00 0.00000E+00
 -1       405 7.63740E+01 4.78550E+00 0.00000E+00
 -1       406 7.93740E+01 4.78550E+00 0.00000E+00
 -1       407 8.23740E+01 4.78550E+00 0.00000E+00
 -1       408 8.53740E+01 4.78550E+00 0.00000E+00
 -1       409 8.83740E+01 4.78550E+00 0.00000E+00
 -1       410 9.13740E+01 4.78550E+00 0.00000E+00
 -1       411 9.43740E+01 4.78550E+00 0.00000E+00
 -1       412 9.73740E+01 4.78550E+00 0.00000E+00
 -1       413 1.00374E+02 4.78550E+00 0.00000E+00
 -1       414 1.03374E+02 4.78550E+00 0.00000E+00
 -1       415 1.06374E+02 4.78550E+00 0.00000E+00
 -1       416 1.09374E+02 4.78550E+00 0.00000E+00
 -1       417 1.12374E+02 4.78550E+00 0.00000E+00
 -1       418 1.15374E+02 4.78550E+00 0.00000E+00
 -1       419 1.18374E+02 4.78550E+00 0.00000E+00
 -1       420 1.21374E+02 4.78550E+00 0.00000E+00
 -1       421 1.24374E+02 4.78550E+00 0.00000E+00
 -1       422 1.27374E+02 4.78550E+00 0.00000E+00
 -1       423 1.30374E+02 4.78550E+00 0.00000E+00
 -1       424 1.33374E+02 4.78550E+00 0.00000E+00
 -1       425 1.36374E+02 4.78550E+00 0.00000E+00
 -1       426 1.39374E+02 4.78550E+00 0.00000E+00
 -1       427 1.42374E+02 4.78550E+00 0.00000E+00
 -1       428 1.44888E+02 4.60525E+00 0.00000E+00
 -1       429 1.44804E+02 1.18000E+01 0.00000E+00
 -1       430 1.44804E+02 8.85000E+00 0.00000E+00
 -1       431 1.44804E+02 1.47000E+01 0.00000E+00
 -1       432 1.44804E+02 1.76500E+01 0.00000E+00
 -1       433 1.44804E+02 2.06000E+01 0.00000E+00
 -1       434 1.44804E+02 2.35500E+01 0.00000E+00
 -1       435 1.44804E+02 2.65000E+01 0.00000E+00
 -1       436 1.44804E+02 2.94500E+01 0.00000E+00
 -1       437 1.44804E+02 3.23500E+01 0.00000E+00
 -1       438 1.44804E+02 3.53000E+01 0.00000E+00
 -1       439 1.44804E+02 3.82500E+01 0.00000E+00
 -1       440 1.44804E+02 4.12000E+01 0.00000E+00
 -1       441 1.09545E+01 4.39587E+00 0.00000E+00
 -1       442 4.74837E+01 2.89659E+01 0.00000E+00
 -1       443 4.50600E+01 2.58092E+01 0.00000E+00
 -1       444 4.84830E+01 3.31249E+01 0.00000E+00
 -1       445 4.65180E+01 2.70533E+01 0.00000E+00
 -1       446 5.19600E+00 3.82125E+01 0.00000E+00
 -1       447 4.36232E+01 2.45452E+01 0.00000E+00
 -1       448 4.17466E+01 2.35649E+01 0.00000E+00
 -1       449 3.93905E+01 2.34406E+01 0.00000E+00
 -1       450 3.75404E+01 2.33896E+01 0.00000E+00
 -1       451 3.51170E+01 2.39464E+01 0.00000E+00
 -1       452 3.35711E+01 2.51258E+01 0.00000E+00
 -1       453 3.21393E+01 2.63519E+01 0.00000E+00
 -1       454 3.07115E+01 2.75947E+01 0.00000E+00
 -1       455 2.96562E+01 2.96967E+01 0.00000E+00
 -1       456 2.94210E+01 3.16006E+01 0.00000E+00
 -1       457 2.90902E+01 3.34842E+01 0.00000E+00
 -1       458 2.94858E+01 3.57901E+01 0.00000E+00
 -1       459 3.01199E+01 3.74805E+01 0.00000E+00
 -1       460 3.16377E+01 3.93245E+01 0.00000E+00
 -1       461 3.32056E+01 4.06086E+01 0.00000E+00
 -1       462 3.47262E+01 4.18032E+01 0.00000E+00
 -1       463 3.67656E+01 4.24483E+01 0.00000E+00
 -1       464 3.88371E+01 4.25512E+01 0.00000E+00
 -1       465 4.04720E+01 4.23935E+01 0.00000E+00
 -1       466 4.26704E+01 4.18837E+01 0.00000E+00
 -1       467 4.39965E+01 4.09930E+01 0.00000E+00
 -1       468 4.55639E+01 3.97247E+01 0.00000E+00
 -1       469 4.68199E+01 3.83250E+01 0.00000E+00
 -1       470 4.75662E+01 3.66605E+01 0.00000E+00
 -1       471 4.82526E+01 3.47182E+01 0.00000E+00
 -1       472 4.82115E+01 3.06813E+01 0.00000E+00
 -1       473 4.94225E+01 3.17930E+01 0.00000E+00
 -1       474 3.60303E+01 2.25524E+01 0.00000E+00
 -1       475 7.79400E+00 3.08500E+01 0.00000E+00
 -1       476 7.79400E+00 3.38000E+01 0.00000E+00
 -1       477 7.79400E+00 2.49500E+01 0.00000E+00
 -1       478 7.79400E+00 2.20000E+01 0.00000E+00
 -1       479 7.79400E+00 1.91000E+01 0.00000E+00
 -1       480 7.79400E+00 1.61500E+01 0.00000E+00
 -1       481 7.79400E+00 1.32000E+01 0.00000E+00
 -1       482 7.79400E+00 1.02500E+01 0.00000E+00
 -1       483 7.79400E+00 7.30000E+00 0.00000E+00
 -1       484 8.16450E+00 5.65312E+00 0.00000E+00
 -1       485 1.06500E+01 4.22060E+01 0.00000E+00
 -1       486 4.83823E+01 2.73121E+01 0.00000E+00
 -1       487 4.67935E+01 2.52540E+01 0.00000E+00
 -1       488 1.36500E+01 4.22060E+01 0.00000E+00
 -1       489 1.66500E+01 4.22060E+01 0.00000E+00
 -1       490 1.96500E+01 4.22060E+01 0.00000E+00
 -1       491 2.26500E+01 4.22060E+01 0.00000E+00
 -1       492 2.56500E+01 4.22060E+01 0.00000E+00
 -1       493 2.86500E+01 4.22060E+01 0.00000E+00
 -1       494 4.62000E+01 4.27537E+01 0.00000E+00
 -1       495 4.92000E+01 4.22510E+01 0.00000E+00
 -1       496 5.22000E+01 4.22510E+01 0.00000E+00
 -1       497 5.52000E+01 4.22510E+01 0.00000E+00
 -1       498 5.82000E+01 4.22510E+01 0.00000E+00
 -1       499 6.12000E+01 4.22510E+01 0.00000E+00
 -1       500 6.43500E+01 4.22510E+01 0.00000E+00
 -1       501 6.73500E+01 4.22510E+01 0.00000E+00
 -1       502 7.03500E+01 4.22510E+01 0.00000E+00
 -1       503 7.33500E+01 4.22510E+01 0.00000E+00
 -1       504 7.63500E+01 4.22510E+01 0.00000E+00
 -1       505 7.93500E+01 4.22510E+01 0.00000E+00
 -1       506 8.23500E+01 4.22510E+01 0.00000E+00
 -1       507 8.53500E+01 4.22510E+01 0.00000E+00
 -1       508 8.83500E+01 4.22510E+01 0.00000E+00
 -1       509 9.13500E+01 4.22510E+01 0.00000E+00
 -1       510 9.43500E+01 4.22510E+01 0.00000E+00
 -1       511 9.73500E+01 4.22510E+01 0.00000E+00
 -1       512 1.00350E+02 4.22510E+01 0.00000E+00
 -1       513 1.03350E+02 4.22510E+01 0.00000E+00
 -1       514 1.06500E+02 4.22510E+01 0.00000E+00
 -1       515 1.09500E+02 4.22510E+01 0.00000E+00
 -1       516 1.12500E+02 4.22510E+01 0.00000E+00
 -1       517 1.15500E+02 4.22510E+01 0.00000E+00
 -1       518 1.18500E+02 4.22510E+01 0.00000E+00
 -1       519 1.21500E+02 4.22510E+01 0.00000E+00
 -1       520 1.24500E+02 4.22510E+01 0.00000E+00
 -1       521 1.27500E+02 4.22510E+01 0.00000E+00
 -1       522 1.30500E+02 4.22510E+01 0.00000E+00
 -1       523 1.33500E+02 4.22510E+01 0.00000E+00
 -1       524 1.36500E+02 4.22510E+01 0.00000E+00
 -1       525 1.39500E+02 4.22510E+01 0.00000E+00
 -1       526 1.42152E+02 4.17255E+01 0.00000E+00
 -1       527 2.08740E+01 7.38350E+00 0.00000E+00
 -1       528 1.78740E+01 7.38350E+00 0.00000E+00
 -1       529 1.48740E+01 7.38350E+00 0.00000E+00
 -1       530 2.38740E+01 7.38350E+00 0.00000E+00
 -1       531 2.68740E+01 7.38350E+00 0.00000E+00
 -1       532 2.98740E+01 7.38350E+00 0.00000E+00
 -1       533 3.28740E+01 7.38350E+00 0.00000E+00
 -1       534 3.58740E+01 7.38350E+00 0.00000E+00
 -1       535 3.88740E+01 7.38350E+00 0.00000E+00
 -1       536 4.18740E+01 7.38350E+00 0.00000E+00
 -1       537 4.48740E+01 7.38350E+00 0.00000E+00
 -1       538 4.78740E+01 7.38350E+00 0.00000E+00
 -1       539 5.08740E+01 7.38350E+00 0.00000E+00
 -1       540 5.38740E+01 7.38350E+00 0.00000E+00
 -1       541 5.68740E+01 7.38350E+00 0.00000E+00
 -1       542 5.98740E+01 7.38350E+00 0.00000E+00
 -1       543 6.28740E+01 7.38350E+00 0.00000E+00
 -1       544 6.58740E+01 7.38350E+00 0.00000E+00
 -1       545 6.88740E+01 7.38350E+00 0.00000E+00
 -1       546 7.18740E+01 7.38350E+00 0.00000E+00
 -1       547 7.48740E+01 7.38350E+00 0.00000E+00
 -1       548 7.78740E+01 7.38350E+00 0.00000E+00
 -1       549 8.08740E+01 7.38350E+00 0.00000E+00
 -1       550 8.38740E+01 7.38350E+00 0.00000E+00
 -1       551 8.68740E+01 7.38350E+00 0.00000E+00
 -1       552 8.98740E+01 7.38350E+00 0.00000E+00
 -1       553 9.28740E+01 7.38350E+00 0.00000E+00
 -1       554 9.58740E+01 7.38350E+00 0.00000E+00
 -1       555 9.88740E+01 7.38350E+00 0.00000E+00
 -1       556 1.01874E+02 7.38350E+00 0.00000E+00
 -1       557 1.04874E+02 7.38350E+00 0.00000E+00
 -1       558 1.07874E+02 7.38350E+00 0.00000E+00
 -1       559 1.10874E+02 7.38350E+00 0.00000E+00
 -1       560 1.13874E+02 7.38350E+00 0.00000E+00
 -1       561 1.16874E+02 7.38350E+00 0.00000E+00
 -1       562 1.19874E+02 7.38350E+00 0.00000E+00
 -1       563 1.22874E+02 7.38350E+00 0.00000E+00
 -1       564 1.25874E+02 7.38350E+00 0.00000E+00
 -1       565 1.28874E+02 7.38350E+00 0.00000E+00
 -1       566 1.31874E+02 7.38350E+00 0.00000E+00
 -1       567 1.34874E+02 7.38350E+00 0.00000E+00
 -1       568 1.37874E+02 7.38350E+00 0.00000E+00
 -1       569 1.40874E+02 7.38350E+00 0.00000E+00
 -1       570 1.42206E+02 1.61750E+01 0.00000E+00
 -1       571 1.42206E+02 1.32750E+01 0.00000E+00
 -1       572 1.42206E+02 1.03250E+01 0.00000E+00
 -1       573 1.42206E+02 1.91250E+01 0.00000E+00
 -1       574 1.42206E+02 2.20750E+01 0.00000E+00
 -1       575 1.42206E+02 2.50250E+01 0.00000E+00
 -1       576 1.42206E+02 2.79750E+01 0.00000E+00
 -1       577 1.42206E+02 3.08750E+01 0.00000E+00
 -1       578 1.42206E+02 3.38250E+01 0.00000E+00
 -1       579 1.42206E+02 3.67750E+01 0.00000E+00
 -1       580 1.42179E+02 3.92503E+01 0.00000E+00
 -1       581 4.92895E+01 3.61770E+01 0.00000E+00
 -1       582 7.92300E+00 4.16780E+01 0.00000E+00
 -1       583 4.53567E+01 2.39900E+01 0.00000E+00
 -1       584 4.97335E+01 3.41191E+01 0.00000E+00
 -1       585 2.77627E+01 3.48988E+01 0.00000E+00
 -1       586 4.34790E+01 2.25348E+01 0.00000E+00
 -1       587 7.79400E+00 2.79000E+01 0.00000E+00
 -1       588 4.06589E+01 2.17900E+01 0.00000E+00
 -1       589 3.33545E+01 2.32391E+01 0.00000E+00
 -1       590 3.85081E+01 2.18681E+01 0.00000E+00
 -1       591 3.13349E+01 4.12934E+01 0.00000E+00
 -1       592 3.19228E+01 2.44653E+01 0.00000E+00
 -1       593 3.04094E+01 2.58061E+01 0.00000E+00
 -1       594 2.85014E+01 2.78010E+01 0.00000E+00
 -1       595 2.78364E+01 3.04383E+01 0.00000E+00
 -1       596 2.75057E+01 3.23219E+01 0.00000E+00
 -1       597 2.78832E+01 3.73554E+01 0.00000E+00
 -1       598 4.73437E+01 4.00584E+01 0.00000E+00
 -1       599 2.95546E+01 3.94925E+01 0.00000E+00
 -1       600 3.28555E+01 4.24880E+01 0.00000E+00
 -1       601 4.42430E+01 4.27925E+01 0.00000E+00
 -1       602 4.57934E+01 4.14255E+01 0.00000E+00
 -1       603 4.85287E+01 3.80916E+01 0.00000E+00
 -1       604 4.94265E+01 2.91537E+01 0.00000E+00
 -1       605 7.79400E+00 3.67375E+01 0.00000E+00
 -1       606 1.05840E+01 6.04275E+00 0.00000E+00
 -1       607 3.15750E+01 4.25862E+01 0.00000E+00
 -1       608 5.06375E+01 3.02654E+01 0.00000E+00
 -1       609 5.06730E+01 3.27872E+01 0.00000E+00
 -1       610 1.27290E+01 6.71313E+00 0.00000E+00
 -1       611 3.69980E+01 2.10310E+01 0.00000E+00
 -1       612 4.23913E+01 2.07600E+01 0.00000E+00
 -1       613 3.42679E+01 2.18451E+01 0.00000E+00
 -1       614 1.03920E+01 2.05500E+01 0.00000E+00
 -1       615 1.03920E+01 2.35000E+01 0.00000E+00
 -1       616 1.03920E+01 1.46750E+01 0.00000E+00
 -1       617 1.03920E+01 1.17250E+01 0.00000E+00
 -1       618 1.02135E+01 7.68962E+00 0.00000E+00
 -1       619 4.54171E+01 2.19730E+01 0.00000E+00
 -1       620 5.03964E+01 2.73870E+01 0.00000E+00
 -1       621 1.51500E+01 3.96080E+01 0.00000E+00
 -1       622 1.81500E+01 3.96080E+01 0.00000E+00
 -1       623 2.11500E+01 3.96080E+01 0.00000E+00
 -1       624 2.41500E+01 3.96080E+01 0.00000E+00
 -1       625 2.60184E+01 2.85774E+01 0.00000E+00
 -1       626 4.32000E+01 4.27537E+01 0.00000E+00
 -1       627 2.59425E+01 3.62193E+01 0.00000E+00
 -1       628 5.37000E+01 3.96530E+01 0.00000E+00
 -1       629 5.67000E+01 3.96530E+01 0.00000E+00
 -1       630 5.97000E+01 3.96530E+01 0.00000E+00
 -1       631 6.28500E+01 3.96530E+01 0.00000E+00
 -1       632 6.58500E+01 3.96530E+01 0.00000E+00
 -1       633 6.88500E+01 3.96530E+01 0.00000E+00
 -1       634 7.18500E+01 3.96530E+01 0.00000E+00
 -1       635 7.48500E+01 3.96530E+01 0.00000E+00
 -1       636 7.78500E+01 3.96530E+01 0.00000E+00
 -1       637 8.08500E+01 3.96530E+01 0.00000E+00
 -1       638 8.38500E+01 3.96530E+01 0.00000E+00
 -1       639 8.68500E+01 3.96530E+01 0.00000E+00
 -1       640 8.98500E+01 3.96530E+01 0.00000E+00
 -1       641 9.28500E+01 3.96530E+01 0.00000E+00
 -1       642 9.58500E+01 3.96530E+01 0.00000E+00
 -1       643 9.88500E+01 3.96530E+01 0.00000E+00
 -1       644 1.01850E+02 3.96530E+01 0.00000E+00
 -1       645 1.05000E+02 3.96530E+01 0.00000E+00
 -1       646 1.08000E+02 3.96530E+01 0.00000E+00
 -1       647 1.11000E+02 3.96530E+01 0.00000E+00
 -1       648 1.14000E+02 3.96530E+01 0.00000E+00
 -1       649 1.17000E+02 3.96530E+01 0.00000E+00
 -1       650 1.20000E+02 3.96530E+01 0.00000E+00
 -1       651 1.23000E+02 3.96530E+01 0.00000E+00
 -1       652 1.26000E+02 3.96530E+01 0.00000E+00
 -1       653 1.29000E+02 3.96530E+01 0.00000E+00
 -1       654 1.32000E+02 3.96530E+01 0.00000E+00
 -1       655 1.35000E+02 3.96530E+01 0.00000E+00
 -1       656 1.38000E+02 3.96530E+01 0.00000E+00
 -1       657 1.40089E+02 3.94516E+01 0.00000E+00
 -1       658 1.93740E+01 9.98150E+00 0.00000E+00
 -1       659 2.23740E+01 9.98150E+00 0.00000E+00
 -1       660 1.63740E+01 9.98150E+00 0.00000E+00
 -1       661 2.83740E+01 9.98150E+00 0.00000E+00
 -1       662 3.13740E+01 9.98150E+00 0.00000E+00
 -1       663 3.43740E+01 9.98150E+00 0.00000E+00
 -1       664 3.73740E+01 9.98150E+00 0.00000E+00
 -1       665 4.03740E+01 9.98150E+00 0.00000E+00
 -1       666 4.33740E+01 9.98150E+00 0.00000E+00
 -1       667 4.63740E+01 9.98150E+00 0.00000E+00
 -1       668 4.93740E+01 9.98150E+00 0.00000E+00
 -1       669 5.23740E+01 9.98150E+00 0.00000E+00
 -1       670 5.53740E+01 9.98150E+00 0.00000E+00
 -1       671 5.83740E+01 9.98150E+00 0.00000E+00
 -1       672 6.13740E+01 9.98150E+00 0.00000E+00
 -1       673 6.43740E+01 9.98150E+00 0.00000E+00
 -1       674 6.73740E+01 9.98150E+00 0.00000E+00
 -1       675 7.03740E+01 9.98150E+00 0.00000E+00
 -1       676 7.33740E+01 9.98150E+00 0.00000E+00
 -1       677 7.63740E+01 9.98150E+00 0.00000E+00
 -1       678 7.93740E+01 9.98150E+00 0.00000E+00
 -1       679 8.23740E+01 9.98150E+00 0.00000E+00
 -1       680 8.53740E+01 9.98150E+00 0.00000E+00
 -1       681 8.83740E+01 9.98150E+00 0.00000E+00
 -1       682 9.13740E+01 9.98150E+00 0.00000E+00
 -1       683 9.43740E+01 9.98150E+00 0.00000E+00
 -1       684 9.73740E+01 9.98150E+00 0.00000E+00
 -1       685 1.00374E+02 9.98150E+00 0.00000E+00
 -1       686 1.03374E+02 9.98150E+00 0.00000E+00
 -1       687 1.06374E+02 9.98150E+00 0.00000E+00
 -1       688 1.09374E+02 9.98150E+00 0.00000E+00
 -1       689 1.12374E+02 9.98150E+00 0.00000E+00
 -1       690 1.15374E+02 9.98150E+00 0.00000E+00
 -1       691 1.18374E+02 9.98150E+00 0.00000E+00
 -1       692 1.21374E+02 9.98150E+00 0.00000E+00
 -1       693 1.24374E+02 9.98150E+00 0.00000E+00
 -1       694 1.27374E+02 9.98150E+00 0.00000E+00
 -1       695 1.30374E+02 9.98150E+00 0.00000E+00
 -1       696 1.33374E+02 9.98150E+00 0.00000E+00
 -1       697 1.36374E+02 9.98150E+00 0.00000E+00
 -1       698 1.39290E+02 1.01532E+01 0.00000E+00
 -1       699 1.39608E+02 1.47250E+01 0.00000E+00
 -1       700 1.39608E+02 2.06000E+01 0.00000E+00
 -1       701 1.39608E+02 1.76625E+01 0.00000E+00
 -1       702 1.39449E+02 1.24391E+01 0.00000E+00
 -1       703 1.39608E+02 2.35500E+01 0.00000E+00
 -1       704 1.39608E+02 2.65000E+01 0.00000E+00
 -1       705 1.39608E+02 2.94000E+01 0.00000E+00
 -1       706 1.39608E+02 3.23500E+01 0.00000E+00
 -1       707 1.39608E+02 3.53000E+01 0.00000E+00
 -1       708 4.92108E+01 2.50302E+01 0.00000E+00
 -1       709 9.78035E+00 3.93914E+01 0.00000E+00
 -1       710 2.53740E+01 9.98150E+00 0.00000E+00
 -1       711 5.11062E+01 3.54921E+01 0.00000E+00
 -1       712 5.07000E+01 3.96530E+01 0.00000E+00
 -1       713 5.05030E+01 3.77677E+01 0.00000E+00
 -1       714 4.68539E+01 2.32370E+01 0.00000E+00
 -1       715 1.24652E+01 3.94997E+01 0.00000E+00
 -1       716 3.95213E+01 2.01151E+01 0.00000E+00
 -1       717 1.03920E+01 1.76125E+01 0.00000E+00
 -1       718 3.11961E+01 2.21677E+01 0.00000E+00
 -1       719 2.72359E+01 3.95838E+01 0.00000E+00
 -1       720 2.96827E+01 2.35085E+01 0.00000E+00
 -1       721 2.56876E+01 3.04611E+01 0.00000E+00
 -1       722 1.03920E+01 3.23250E+01 0.00000E+00
 -1       723 2.77746E+01 2.55034E+01 0.00000E+00
 -1       724 2.56855E+01 3.36424E+01 0.00000E+00
 -1       725 1.03920E+01 2.64500E+01 0.00000E+00
 -1       726 4.43294E+01 2.01981E+01 0.00000E+00
 -1       727 5.16073E+01 2.84986E+01 0.00000E+00
 -1       728 1.03920E+01 3.52625E+01 0.00000E+00
 -1       729 5.20456E+01 3.41602E+01 0.00000E+00
 -1       730 4.12537E+01 1.90850E+01 0.00000E+00
 -1       731 1.39849E+02 3.73758E+01 0.00000E+00
 -1       732 1.33741E+01 9.98153E+00 0.00000E+00
 -1       733 3.52356E+01 2.03237E+01 0.00000E+00
 -1       734 3.21094E+01 2.07737E+01 0.00000E+00
 -1       735 1.03920E+01 2.93875E+01 0.00000E+00
 -1       736 3.80112E+01 1.92779E+01 0.00000E+00
 -1       737 2.50463E+01 3.79137E+01 0.00000E+00
 -1       738 1.29900E+01 1.32000E+01 0.00000E+00
 -1       739 5.24031E+01 3.75726E+01 0.00000E+00
 -1       740 1.96500E+01 3.70100E+01 0.00000E+00
 -1       741 2.23481E+01 3.74618E+01 0.00000E+00
 -1       742 2.36686E+01 2.91357E+01 0.00000E+00
 -1       743 2.52618E+01 2.61065E+01 0.00000E+00
 -1       744 5.82000E+01 3.70550E+01 0.00000E+00
 -1       745 6.13500E+01 3.70550E+01 0.00000E+00
 -1       746 6.43500E+01 3.70550E+01 0.00000E+00
 -1       747 6.73500E+01 3.70550E+01 0.00000E+00
 -1       748 7.03500E+01 3.70550E+01 0.00000E+00
 -1       749 7.33500E+01 3.70550E+01 0.00000E+00
 -1       750 7.63500E+01 3.70550E+01 0.00000E+00
 -1       751 7.93500E+01 3.70550E+01 0.00000E+00
 -1       752 8.23500E+01 3.70550E+01 0.00000E+00
 -1       753 8.53500E+01 3.70550E+01 0.00000E+00
 -1       754 8.83500E+01 3.70550E+01 0.00000E+00
 -1       755 9.13500E+01 3.70550E+01 0.00000E+00
 -1       756 9.43500E+01 3.70550E+01 0.00000E+00
 -1       757 9.73500E+01 3.70550E+01 0.00000E+00
 -1       758 1.00350E+02 3.70550E+01 0.00000E+00
 -1       759 1.03500E+02 3.70550E+01 0.00000E+00
 -1       760 1.06500E+02 3.70550E+01 0.00000E+00
 -1       761 1.09500E+02 3.70550E+01 0.00000E+00
 -1       762 1.12500E+02 3.70550E+01 0.00000E+00
 -1       763 1.15500E+02 3.70550E+01 0.00000E+00
 -1       764 1.18500E+02 3.70550E+01 0.00000E+00
 -1       765 1.21500E+02 3.70550E+01 0.00000E+00
 -1       766 1.24500E+02 3.70550E+01 0.00000E+00
 -1       767 1.27500E+02 3.70550E+01 0.00000E+00
 -1       768 1.30500E+02 3.70550E+01 0.00000E+00
 -1       769 1.33500E+02 3.70550E+01 0.00000E+00
 -1       770 1.36500E+02 3.70550E+01 0.00000E+00
 -1       771 2.08740E+01 1.25795E+01 0.00000E+00
 -1       772 1.78740E+01 1.25795E+01 0.00000E+00
 -1       773 3.28740E+01 1.25795E+01 0.00000E+00
 -1       774 2.98740E+01 1.25795E+01 0.00000E+00
 -1       775 3.88740E+01 1.25795E+01 0.00000E+00
 -1       776 4.18740E+01 1.25795E+01 0.00000E+00
 -1       777 4.48740E+01 1.25795E+01 0.00000E+00
 -1       778 4.78740E+01 1.25795E+01 0.00000E+00
 -1       779 5.08740E+01 1.25795E+01 0.00000E+00
 -1       780 5.38740E+01 1.25795E+01 0.00000E+00
 -1       781 5.68740E+01 1.25795E+01 0.00000E+00
 -1       782 5.98740E+01 1.25795E+01 0.00000E+00
 -1       783 6.28740E+01 1.25795E+01 0.00000E+00
 -1       784 6.58740E+01 1.25795E+01 0.00000E+00
 -1       785 6.88740E+01 1.25795E+01 0.00000E+00
 -1       786 7.18740E+01 1.25795E+01 0.00000E+00
 -1       787 7.48740E+01 1.25795E+01 0.00000E+00
 -1       788 7.78740E+01 1.25795E+01 0.00000E+00
 -1       789 8.08740E+01 1.25795E+01 0.00000E+00
 -1       790 8.38740E+01 1.25795E+01 0.00000E+00
 -1       791 8.68740E+01 1.25795E+01 0.00000E+00
 -1       792 8.98740E+01 1.25795E+01 0.00000E+00
 -1       793 9.28740E+01 1.25795E+01 0.00000E+00
 -1       794 9.58740E+01 1.25795E+01 0.00000E+00
 -1       795 9.88740E+01 1.25795E+01 0.00000E+00
 -1       796 1.01874E+02 1.25795E+01 0.00000E+00
 -1       797 1.04874E+02 1.25795E+01 0.00000E+00
 -1       798 1.07874E+02 1.25795E+01 0.00000E+00
 -1       799 1.10874E+02 1.25795E+01 0.00000E+00
 -1       800 1.13874E+02 1.25795E+01 0.00000E+00
 -1       801 1.16874E+02 1.25795E+01 0.00000E+00
 -1       802 1.19874E+02 1.25795E+01 0.00000E+00
 -1       803 1.22874E+02 1.25795E+01 0.00000E+00
 -1       804 1.25874E+02 1.25795E+01 0.00000E+00
 -1       805 1.28874E+02 1.25795E+01 0.00000E+00
 -1       806 1.31874E+02 1.25795E+01 0.00000E+00
 -1       807 1.34874E+02 1.25795E+01 0.00000E+00
 -1       808 1.37161E+02 1.25093E+01 0.00000E+00
 -1       809 1.37010E+02 2.50250E+01 0.00000E+00
 -1       810 1.37010E+02 2.79250E+01 0.00000E+00
 -1       811 1.37010E+02 3.08750E+01 0.00000E+00
 -1       812 1.37010E+02 3.38250E+01 0.00000E+00
 -1       813 4.76005E+01 2.09399E+01 0.00000E+00
 -1       814 5.17848E+01 2.52119E+01 0.00000E+00
 -1       815 2.72470E+01 2.30888E+01 0.00000E+00
 -1       816 1.37010E+02 2.20750E+01 0.00000E+00
 -1       817 3.58740E+01 1.25795E+01 0.00000E+00
 -1       818 5.52000E+01 3.70550E+01 0.00000E+00
 -1       819 1.66500E+01 3.70100E+01 0.00000E+00
 -1       820 5.25377E+01 3.14998E+01 0.00000E+00
 -1       821 2.34687E+01 3.20503E+01 0.00000E+00
 -1       822 4.99574E+01 2.27330E+01 0.00000E+00
 -1       823 2.87604E+01 2.17480E+01 0.00000E+00
 -1       824 1.29900E+01 2.20250E+01 0.00000E+00
 -1       825 2.39406E+01 3.51178E+01 0.00000E+00
 -1       826 4.31918E+01 1.85232E+01 0.00000E+00
 -1       827 4.65128E+01 1.91650E+01 0.00000E+00
 -1       828 5.29958E+01 2.63235E+01 0.00000E+00
 -1       829 1.29900E+01 3.37938E+01 0.00000E+00
 -1       830 2.47342E+01 2.36919E+01 0.00000E+00
 -1       831 3.97436E+01 1.82479E+01 0.00000E+00
 -1       832 2.38740E+01 1.25795E+01 0.00000E+00
 -1       833 2.68740E+01 1.25795E+01 0.00000E+00
 -1       834 2.96738E+01 2.03540E+01 0.00000E+00
 -1       835 1.37010E+02 1.91375E+01 0.00000E+00
 -1       836 1.37320E+02 1.47952E+01 0.00000E+00
 -1       837 1.48741E+01 1.25795E+01 0.00000E+00
 -1       838 3.30771E+01 1.92522E+01 0.00000E+00
 -1       839 1.27276E+01 3.66467E+01 0.00000E+00
 -1       840 1.29900E+01 2.49750E+01 0.00000E+00
 -1       841 3.62487E+01 1.85707E+01 0.00000E+00
 -1       842 5.35076E+01 2.97330E+01 0.00000E+00
 -1       843 1.29900E+01 1.61375E+01 0.00000E+00
 -1       844 1.29900E+01 3.08563E+01 0.00000E+00
 -1       845 1.29900E+01 1.90812E+01 0.00000E+00
 -1       846 5.34945E+01 3.54477E+01 0.00000E+00
 -1       847 1.48741E+01 1.55170E+01 0.00000E+00
 -1       848 2.15126E+01 3.39212E+01 0.00000E+00
 -1       849 5.67000E+01 3.46696E+01 0.00000E+00
 -1       850 6.28500E+01 3.44570E+01 0.00000E+00
 -1       851 6.58500E+01 3.44570E+01 0.00000E+00
 -1       852 6.88500E+01 3.44570E+01 0.00000E+00
 -1       853 7.18500E+01 3.44570E+01 0.00000E+00
 -1       854 7.48500E+01 3.44570E+01 0.00000E+00
 -1       855 7.78500E+01 3.44570E+01 0.00000E+00
 -1       856 8.08500E+01 3.44570E+01 0.00000E+00
 -1       857 8.38500E+01 3.44570E+01 0.00000E+00
 -1       858 8.68500E+01 3.44570E+01 0.00000E+00
 -1       859 8.98500E+01 3.44570E+01 0.00000E+00
 -1       860 9.28500E+01 3.44570E+01 0.00000E+00
 -1       861 9.58500E+01 3.44570E+01 0.00000E+00
 -1       862 9.88500E+01 3.44570E+01 0.00000E+00
 -1       863 1.02000E+02 3.44570E+01 0.00000E+00
 -1       864 1.05000E+02 3.44570E+01 0.00000E+00
 -1       865 1.08000E+02 3.44570E+01 0.00000E+00
 -1       866 1.11000E+02 3.44570E+01 0.00000E+00
 -1       867 1.14000E+02 3.44570E+01 0.00000E+00
 -1       868 1.17000E+02 3.44570E+01 0.00000E+00
 -1       869 1.20000E+02 3.44570E+01 0.00000E+00
 -1       870 1.23000E+02 3.44570E+01 0.00000E+00
 -1       871 1.26000E+02 3.44570E+01 0.00000E+00
 -1       872 1.29000E+02 3.44570E+01 0.00000E+00
 -1       873 1.32000E+02 3.44570E+01 0.00000E+00
 -1       874 1.34505E+02 3.41410E+01 0.00000E+00
 -1       875 5.41430E+01 3.31724E+01 0.00000E+00
 -1       876 4.33740E+01 1.51775E+01 0.00000E+00
 -1       877 4.03740E+01 1.51775E+01 0.00000E+00
 -1       878 4.93740E+01 1.51775E+01 0.00000E+00
 -1       879 5.23740E+01 1.51775E+01 0.00000E+00
 -1       880 5.53740E+01 1.51775E+01 0.00000E+00
 -1       881 5.83740E+01 1.51775E+01 0.00000E+00
 -1       882 6.13740E+01 1.51775E+01 0.00000E+00
 -1       883 6.43740E+01 1.51775E+01 0.00000E+00
 -1       884 6.73740E+01 1.51775E+01 0.00000E+00
 -1       885 7.03740E+01 1.51775E+01 0.00000E+00
 -1       886 7.33740E+01 1.51775E+01 0.00000E+00
 -1       887 7.63740E+01 1.51775E+01 0.00000E+00
 -1       888 7.93740E+01 1.51775E+01 0.00000E+00
 -1       889 8.23740E+01 1.51775E+01 0.00000E+00
 -1       890 8.53740E+01 1.51775E+01 0.00000E+00
 -1       891 8.83740E+01 1.51775E+01 0.00000E+00
 -1       892 9.13740E+01 1.51775E+01 0.00000E+00
 -1       893 9.43740E+01 1.51775E+01 0.00000E+00
 -1       894 9.73740E+01 1.51775E+01 0.00000E+00
 -1       895 1.00374E+02 1.51775E+01 0.00000E+00
 -1       896 1.03374E+02 1.51775E+01 0.00000E+00
 -1       897 1.06374E+02 1.51775E+01 0.00000E+00
 -1       898 1.09374E+02 1.51775E+01 0.00000E+00
 -1       899 1.12374E+02 1.51775E+01 0.00000E+00
 -1       900 1.15374E+02 1.51775E+01 0.00000E+00
 -1       901 1.18374E+02 1.51775E+01 0.00000E+00
 -1       902 1.21374E+02 1.51775E+01 0.00000E+00
 -1       903 1.24374E+02 1.51775E+01 0.00000E+00
 -1       904 1.27374E+02 1.51775E+01 0.00000E+00
 -1       905 1.30374E+02 1.51775E+01 0.00000E+00
 -1       906 1.33374E+02 1.51775E+01 0.00000E+00
 -1       907 1.34412E+02 2.94000E+01 0.00000E+00
 -1       908 1.34458E+02 3.17705E+01 0.00000E+00
 -1       909 1.34412E+02 2.65000E+01 0.00000E+00
 -1       910 5.29260E+01 2.24575E+01 0.00000E+00
 -1       911 1.65349E+01 3.34503E+01 0.00000E+00
 -1       912 3.13740E+01 1.51775E+01 0.00000E+00
 -1       913 2.26506E+01 2.66667E+01 0.00000E+00
 -1       914 5.97750E+01 3.45633E+01 0.00000E+00
 -1       915 5.03247E+01 1.98047E+01 0.00000E+00
 -1       916 1.29900E+01 2.79188E+01 0.00000E+00
 -1       917 2.64219E+01 2.06329E+01 0.00000E+00
 -1       918 2.13560E+01 3.04412E+01 0.00000E+00
 -1       919 1.34412E+02 2.35500E+01 0.00000E+00
 -1       920 4.63740E+01 1.51775E+01 0.00000E+00
 -1       921 1.93740E+01 1.51775E+01 0.00000E+00
 -1       922 4.16519E+01 1.68349E+01 0.00000E+00
 -1       923 5.41369E+01 2.35692E+01 0.00000E+00
 -1       924 3.79812E+01 1.75406E+01 0.00000E+00
 -1       925 2.83740E+01 1.51775E+01 0.00000E+00
 -1       926 2.73352E+01 1.92389E+01 0.00000E+00
 -1       927 1.34574E+02 1.67810E+01 0.00000E+00
 -1       928 1.34412E+02 2.06125E+01 0.00000E+00
 -1       929 5.51128E+01 3.14056E+01 0.00000E+00
 -1       930 3.06415E+01 1.88326E+01 0.00000E+00
 -1       931 3.43740E+01 1.51775E+01 0.00000E+00
 -1       932 2.03381E+01 2.79723E+01 0.00000E+00
 -1       933 5.48960E+01 2.75579E+01 0.00000E+00
 -1       934 3.73740E+01 1.51775E+01 0.00000E+00
 -1       935 1.55880E+01 2.35000E+01 0.00000E+00
 -1       936 2.23740E+01 1.51775E+01 0.00000E+00
 -1       937 1.55880E+01 2.05562E+01 0.00000E+00
 -1       938 6.43500E+01 3.18590E+01 0.00000E+00
 -1       939 4.79806E+01 1.80157E+01 0.00000E+00
 -1       940 6.73500E+01 3.18590E+01 0.00000E+00
 -1       941 7.03500E+01 3.18590E+01 0.00000E+00
 -1       942 7.33500E+01 3.18590E+01 0.00000E+00
 -1       943 7.63500E+01 3.18590E+01 0.00000E+00
 -1       944 7.93500E+01 3.18590E+01 0.00000E+00
 -1       945 8.23500E+01 3.18590E+01 0.00000E+00
 -1       946 8.53500E+01 3.18590E+01 0.00000E+00
 -1       947 8.83500E+01 3.18590E+01 0.00000E+00
 -1       948 9.13500E+01 3.18590E+01 0.00000E+00
 -1       949 9.43500E+01 3.18590E+01 0.00000E+00
 -1       950 9.73500E+01 3.18590E+01 0.00000E+00
 -1       951 1.00500E+02 3.18590E+01 0.00000E+00
 -1       952 1.03500E+02 3.18590E+01 0.00000E+00
 -1       953 1.06500E+02 3.18590E+01 0.00000E+00
 -1       954 1.09500E+02 3.18590E+01 0.00000E+00
 -1       955 1.12500E+02 3.18590E+01 0.00000E+00
 -1       956 1.15500E+02 3.18590E+01 0.00000E+00
 -1       957 1.18500E+02 3.18590E+01 0.00000E+00
 -1       958 1.21500E+02 3.18590E+01 0.00000E+00
 -1       959 1.24500E+02 3.18590E+01 0.00000E+00
 -1       960 1.27500E+02 3.18590E+01 0.00000E+00
 -1       961 1.30500E+02 3.18590E+01 0.00000E+00
 -1       962 1.32479E+02 3.18148E+01 0.00000E+00
 -1       963 1.62967E+01 3.00567E+01 0.00000E+00
 -1       964 5.38740E+01 1.77755E+01 0.00000E+00
 -1       965 5.98740E+01 1.77755E+01 0.00000E+00
 -1       966 6.28740E+01 1.77755E+01 0.00000E+00
 -1       967 6.58740E+01 1.77755E+01 0.00000E+00
 -1       968 6.88740E+01 1.77755E+01 0.00000E+00
 -1       969 7.18740E+01 1.77755E+01 0.00000E+00
 -1       970 7.48740E+01 1.77755E+01 0.00000E+00
 -1       971 7.78740E+01 1.77755E+01 0.00000E+00
 -1       972 8.08740E+01 1.77755E+01 0.00000E+00
 -1       973 8.38740E+01 1.77755E+01 0.00000E+00
 -1       974 8.68740E+01 1.77755E+01 0.00000E+00
 -1       975 8.98740E+01 1.77755E+01 0.00000E+00
 -1       976 9.28740E+01 1.77755E+01 0.00000E+00
 -1       977 9.58740E+01 1.77755E+01 0.00000E+00
 -1       978 9.88740E+01 1.77755E+01 0.00000E+00
 -1       979 1.01874E+02 1.77755E+01 0.00000E+00
 -1       980 1.04874E+02 1.77755E+01 0.00000E+00
 -1       981 1.07874E+02 1.77755E+01 0.00000E+00
 -1       982 1.10874E+02 1.77755E+01 0.00000E+00
 -1       983 1.13874E+02 1.77755E+01 0.00000E+00
 -1       984 1.16874E+02 1.77755E+01 0.00000E+00
 -1       985 1.19874E+02 1.77755E+01 0.00000E+00
 -1       986 1.22874E+02 1.77755E+01 0.00000E+00
 -1       987 1.25874E+02 1.77755E+01 0.00000E+00
 -1       988 1.28874E+02 1.77755E+01 0.00000E+00
 -1       989 1.31874E+02 1.77755E+01 0.00000E+00
 -1       990 1.55880E+01 2.64438E+01 0.00000E+00
 -1       991 1.31814E+02 2.79500E+01 0.00000E+00
 -1       992 4.47829E+01 1.68503E+01 0.00000E+00
 -1       993 1.31814E+02 2.50000E+01 0.00000E+00
 -1       994 5.34804E+01 1.93121E+01 0.00000E+00
 -1       995 1.73195E+01 1.79379E+01 0.00000E+00
 -1       996 2.16013E+01 2.37147E+01 0.00000E+00
 -1       997 2.32890E+01 2.06557E+01 0.00000E+00
 -1       998 5.07288E+01 1.68449E+01 0.00000E+00
 -1       999 1.52310E+01 1.80366E+01 0.00000E+00
 -1      1000 5.74439E+01 3.29845E+01 0.00000E+00
 -1      1001 5.68740E+01 1.77755E+01 0.00000E+00
 -1      1002 2.53740E+01 1.51775E+01 0.00000E+00
 -1      1003 5.60372E+01 2.48035E+01 0.00000E+00
 -1      1004 1.31814E+02 2.20625E+01 0.00000E+00
 -1      1005 1.81860E+01 2.49719E+01 0.00000E+00
 -1      1006 2.04309E+01 1.81089E+01 0.00000E+00
 -1      1007 5.65013E+01 2.92305E+01 0.00000E+00
 -1      1008 1.81860E+01 2.20281E+01 0.00000E+00
 -1      1009 6.12750E+01 3.19653E+01 0.00000E+00
 -1      1010 6.88500E+01 2.92610E+01 0.00000E+00
 -1      1011 7.18500E+01 2.92610E+01 0.00000E+00
 -1      1012 7.48500E+01 2.92610E+01 0.00000E+00
 -1      1013 7.78500E+01 2.92610E+01 0.00000E+00
 -1      1014 8.08500E+01 2.92610E+01 0.00000E+00
 -1      1015 8.38500E+01 2.92610E+01 0.00000E+00
 -1      1016 8.68500E+01 2.92610E+01 0.00000E+00
 -1      1017 8.98500E+01 2.92610E+01 0.00000E+00
 -1      1018 9.28500E+01 2.92610E+01 0.00000E+00
 -1      1019 9.58500E+01 2.92610E+01 0.00000E+00
 -1      1020 9.90000E+01 2.92610E+01 0.00000E+00
 -1      1021 1.02000E+02 2.92610E+01 0.00000E+00
 -1      1022 1.05000E+02 2.92610E+01 0.00000E+00
 -1      1023 1.08000E+02 2.92610E+01 0.00000E+00
 -1      1024 1.11000E+02 2.92610E+01 0.00000E+00
 -1      1025 1.14000E+02 2.92610E+01 0.00000E+00
 -1      1026 1.17000E+02 2.92610E+01 0.00000E+00
 -1      1027 1.20000E+02 2.92610E+01 0.00000E+00
 -1      1028 1.23000E+02 2.92610E+01 0.00000E+00
 -1      1029 1.26000E+02 2.92610E+01 0.00000E+00
 -1      1030 1.29000E+02 2.92610E+01 0.00000E+00
 -1      1031 2.48365E+01 1.80464E+01 0.00000E+00
 -1      1032 5.52884E+01 2.10995E+01 0.00000E+00
 -1      1033 6.13740E+01 2.03735E+01 0.00000E+00
 -1      1034 7.03740E+01 2.03735E+01 0.00000E+00
 -1      1035 7.33740E+01 2.03735E+01 0.00000E+00
 -1      1036 7.63740E+01 2.03735E+01 0.00000E+00
 -1      1037 7.93740E+01 2.03735E+01 0.00000E+00
 -1      1038 8.23740E+01 2.03735E+01 0.00000E+00
 -1      1039 8.53740E+01 2.03735E+01 0.00000E+00
 -1      1040 8.83740E+01 2.03735E+01 0.00000E+00
 -1      1041 9.13740E+01 2.03735E+01 0.00000E+00
 -1      1042 9.43740E+01 2.03735E+01 0.00000E+00
 -1      1043 9.73740E+01 2.03735E+01 0.00000E+00
 -1      1044 1.00374E+02 2.03735E+01 0.00000E+00
 -1      1045 1.03374E+02 2.03735E+01 0.00000E+00
 -1      1046 1.06374E+02 2.03735E+01 0.00000E+00
 -1      1047 1.09374E+02 2.03735E+01 0.00000E+00
 -1      1048 1.12374E+02 2.03735E+01 0.00000E+00
 -1      1049 1.15374E+02 2.03735E+01 0.00000E+00
 -1      1050 1.18374E+02 2.03735E+01 0.00000E+00
 -1      1051 1.21374E+02 2.03735E+01 0.00000E+00
 -1      1052 1.24374E+02 2.03735E+01 0.00000E+00
 -1      1053 1.27374E+02 2.03735E+01 0.00000E+00
 -1      1054 5.83740E+01 2.03735E+01 0.00000E+00
 -1      1055 6.58500E+01 2.92610E+01 0.00000E+00
 -1      1056 6.73740E+01 2.03735E+01 0.00000E+00
 -1      1057 6.43740E+01 2.03735E+01 0.00000E+00
 -1      1058 2.01704E+01 2.09302E+01 0.00000E+00
 -1      1059 1.29216E+02 2.64750E+01 0.00000E+00
 -1      1060 1.29216E+02 2.35375E+01 0.00000E+00
 -1      1061 6.27750E+01 2.93673E+01 0.00000E+00
 -1      1062 5.91228E+01 2.40775E+01 0.00000E+00
 -1      1063 5.78120E+01 2.66540E+01 0.00000E+00
 -1      1064 7.03500E+01 2.66630E+01 0.00000E+00
 -1      1065 5.95435E+01 2.93097E+01 0.00000E+00
 -1      1066 7.33500E+01 2.66630E+01 0.00000E+00
 -1      1067 7.63500E+01 2.66630E+01 0.00000E+00
 -1      1068 7.93500E+01 2.66630E+01 0.00000E+00
 -1      1069 8.23500E+01 2.66630E+01 0.00000E+00
 -1      1070 8.53500E+01 2.66630E+01 0.00000E+00
 -1      1071 8.83500E+01 2.66630E+01 0.00000E+00
 -1      1072 9.13500E+01 2.66630E+01 0.00000E+00
 -1      1073 9.43500E+01 2.66630E+01 0.00000E+00
 -1      1074 9.75000E+01 2.66630E+01 0.00000E+00
 -1      1075 1.00500E+02 2.66630E+01 0.00000E+00
 -1      1076 1.03500E+02 2.66630E+01 0.00000E+00
 -1      1077 1.06500E+02 2.66630E+01 0.00000E+00
 -1      1078 1.09500E+02 2.66630E+01 0.00000E+00
 -1      1079 1.12500E+02 2.66630E+01 0.00000E+00
 -1      1080 1.15500E+02 2.66630E+01 0.00000E+00
 -1      1081 1.18500E+02 2.66630E+01 0.00000E+00
 -1      1082 1.21500E+02 2.66630E+01 0.00000E+00
 -1      1083 1.24500E+02 2.66630E+01 0.00000E+00
 -1      1084 1.26858E+02 2.65690E+01 0.00000E+00
 -1      1085 7.48740E+01 2.29715E+01 0.00000E+00
 -1      1086 6.28740E+01 2.29715E+01 0.00000E+00
 -1      1087 7.18740E+01 2.29715E+01 0.00000E+00
 -1      1088 8.08740E+01 2.29715E+01 0.00000E+00
 -1      1089 8.38740E+01 2.29715E+01 0.00000E+00
 -1      1090 8.68740E+01 2.29715E+01 0.00000E+00
 -1      1091 8.98740E+01 2.29715E+01 0.00000E+00
 -1      1092 9.28740E+01 2.29715E+01 0.00000E+00
 -1      1093 9.58740E+01 2.29715E+01 0.00000E+00
 -1      1094 9.88740E+01 2.29715E+01 0.00000E+00
 -1      1095 1.01874E+02 2.29715E+01 0.00000E+00
 -1      1096 1.04874E+02 2.29715E+01 0.00000E+00
 -1      1097 1.07874E+02 2.29715E+01 0.00000E+00
 -1      1098 1.10874E+02 2.29715E+01 0.00000E+00
 -1      1099 1.13874E+02 2.29715E+01 0.00000E+00
 -1      1100 1.16874E+02 2.29715E+01 0.00000E+00
 -1      1101 1.19874E+02 2.29715E+01 0.00000E+00
 -1      1102 1.22874E+02 2.29715E+01 0.00000E+00
 -1      1103 1.25874E+02 2.29715E+01 0.00000E+00
 -1      1104 6.88740E+01 2.29715E+01 0.00000E+00
 -1      1105 6.58740E+01 2.29715E+01 0.00000E+00
 -1      1106 7.78740E+01 2.29715E+01 0.00000E+00
 -1      1107 6.73500E+01 2.66630E+01 0.00000E+00
 -1      1108 6.42750E+01 2.67693E+01 0.00000E+00
 -1      1109 6.17331E+01 2.60165E+01 0.00000E+00
 -1      1110 0.00000E+00 4.85250E+01 0.00000E+00
 -1      1111 0.00000E+00 4.55750E+01 0.00000E+00
 -1      1112 0.00000E+00 4.26250E+01 0.00000E+00
 -1      1113 0.00000E+00 3.96750E+01 0.00000E+00
 -1      1114 0.00000E+00 3.67250E+01 0.00000E+00
 -1      1115 0.00000E+00 3.38000E+01 0.00000E+00
 -1      1116 0.00000E+00 3.08750E+01 0.00000E+00
 -1      1117 0.00000E+00 2.79250E+01 0.00000E+00
 -1      1118 0.00000E+00 2.49750E+01 0.00000E+00
 -1      1119 0.00000E+00 2.20250E+01 0.00000E+00
 -1      1120 0.00000E+00 1.90750E+01 0.00000E+00
 -1      1121 0.00000E+00 1.61500E+01 0.00000E+00
 -1      1122 0.00000E+00 1.32250E+01 0.00000E+00
 -1      1123 0.00000E+00 1.02750E+01 0.00000E+00
 -1      1124 0.00000E+00 7.32500E+00 0.00000E+00
 -1      1125 0.00000E+00 4.37500E+00 0.00000E+00
 -1      1126 0.00000E+00 1.45000E+00 0.00000E+00
 -1      1127 1.57500E+00 5.00000E+01 0.00000E+00
 -1      1128 4.65000E+00 5.00000E+01 0.00000E+00
 -1      1129 7.65000E+00 5.00000E+01 0.00000E+00
 -1      1130 1.06500E+01 5.00000E+01 0.00000E+00
 -1      1131 1.36500E+01 5.00000E+01 0.00000E+00
 -1      1132 1.66500E+01 5.00000E+01 0.00000E+00
 -1      1133 1.96500E+01 5.00000E+01 0.00000E+00
 -1      1134 2.26500E+01 5.00000E+01 0.00000E+00
 -1      1135 2.56500E+01 5.00000E+01 0.00000E+00
 -1      1136 2.86500E+01 5.00000E+01 0.00000E+00
 -1      1137 3.16500E+01 5.00000E+01 0.00000E+00
 -1      1138 3.45750E+01 5.00000E+01 0.00000E+00
 -1      1139 3.75000E+01 5.00000E+01 0.00000E+00
 -1      1140 4.03500E+01 5.00000E+01 0.00000E+00
 -1      1141 4.32000E+01 5.00000E+01 0.00000E+00
 -1      1142 4.62000E+01 5.00000E+01 0.00000E+00
 -1      1143 4.92000E+01 5.00000E+01 0.00000E+00
 -1      1144 5.22000E+01 5.00000E+01 0.00000E+00
 -1      1145 5.52000E+01 5.00000E+01 0.00000E+00
 -1      1146 5.82000E+01 5.00000E+01 0.00000E+00
 -1      1147 6.12000E+01 5.00000E+01 0.00000E+00
 -1      1148 6.42000E+01 5.00000E+01 0.00000E+00
 -1      1149 6.72750E+01 5.00000E+01 0.00000E+00
 -1      1150 7.03500E+01 5.00000E+01 0.00000E+00
 -1      1151 7.33500E+01 5.00000E+01 0.00000E+00
 -1      1152 7.63500E+01 5.00000E+01 0.00000E+00
 -1      1153 7.93500E+01 5.00000E+01 0.00000E+00
 -1      1154 8.23500E+01 5.00000E+01 0.00000E+00
 -1      1155 8.53500E+01 5.00000E+01 0.00000E+00
 -1      1156 8.83500E+01 5.00000E+01 0.00000E+00
 -1      1157 9.13500E+01 5.00000E+01 0.00000E+00
 -1      1158 9.43500E+01 5.00000E+01 0.00000E+00
 -1      1159 9.73500E+01 5.00000E+01 0.00000E+00
 -1      1160 1.00350E+02 5.00000E+01 0.00000E+00
 -1      1161 1.03350E+02 5.00000E+01 0.00000E+00
 -1      1162 1.06350E+02 5.00000E+01 0.00000E+00
 -1      1163 1.09425E+02 5.00000E+01 0.00000E+00
 -1      1164 1.12500E+02 5.00000E+01 0.00000E+00
 -1      1165 1.15500E+02 5.00000E+01 0.00000E+00
 -1      1166 1.18500E+02 5.00000E+01 0.00000E+00
 -1      1167 1.21500E+02 5.00000E+01 0.00000E+00
 -1      1168 1.24500E+02 5.00000E+01 0.00000E+00
 -1      1169 1.27500E+02 5.00000E+01 0.00000E+00
 -1      1170 1.30500E+02 5.00000E+01 0.00000E+00
 -1      1171 1.33500E+02 5.00000E+01 0.00000E+00
 -1      1172 1.36500E+02 5.00000E+01 0.00000E+00
 -1      1173 1.39500E+02 5.00000E+01 0.00000E+00
 -1      1174 1.42500E+02 5.00000E+01 0.00000E+00
 -1      1175 1.45500E+02 5.00000E+01 0.00000E+00
 -1      1176 1.48500E+02 5.00000E+01 0.00000E+00
 -1      1177 1.57500E+00 0.00000E+00 0.00000E+00
 -1      1178 4.65000E+00 0.00000E+00 0.00000E+00
 -1      1179 7.65000E+00 0.00000E+00 0.00000E+00
 -1      1180 1.06500E+01 0.00000E+00 0.00000E+00
 -1      1181 1.36500E+01 0.00000E+00 0.00000E+00
 -1      1182 1.66500E+01 0.00000E+00 0.00000E+00
 -1      1183 1.96500E+01 0.00000E+00 0.00000E+00
 -1      1184 2.26500E+01 0.00000E+00 0.00000E+00
 -1      1185 2.56500E+01 0.00000E+00 0.00000E+00
 -1      1186 2.86500E+01 0.00000E+00 0.00000E+00
 -1      1187 3.16500E+01 0.00000E+00 0.00000E+00
 -1      1188 3.46500E+01 0.00000E+00 0.00000E+00
 -1      1189 3.76500E+01 0.00000E+00 0.00000E+00
 -1      1190 4.06500E+01 0.00000E+00 0.00000E+00
 -1      1191 4.36500E+01 0.00000E+00 0.00000E+00
 -1      1192 4.66500E+01 0.00000E+00 0.00000E+00
 -1      1193 4.96500E+01 0.00000E+00 0.00000E+00
 -1      1194 5.26500E+01 0.00000E+00 0.00000E+00
 -1      1195 5.56500E+01 0.00000E+00 0.00000E+00
 -1      1196 5.86500E+01 0.00000E+00 0.00000E+00
 -1      1197 6.16500E+01 0.00000E+00 0.00000E+00
 -1      1198 6.46500E+01 0.00000E+00 0.00000E+00
 -1      1199 6.76500E+01 0.00000E+00 0.00000E+00
 -1      1200 7.06500E+01 0.00000E+00 0.00000E+00
 -1      1201 7.36500E+01 0.00000E+00 0.00000E+00
 -1      1202 7.66500E+01 0.00000E+00 0.00000E+00
 -1      1203 7.96500E+01 0.00000E+00 0.00000E+00
 -1      1204 8.26500E+01 0.00000E+00 0.00000E+00
 -1      1205 8.56500E+01 0.00000E+00 0.00000E+00
 -1      1206 8.86500E+01 0.00000E+00 0.00000E+00
 -1      1207 9.16500E+01 0.00000E+00 0.00000E+00
 -1      1208 9.46500E+01 0.00000E+00 0.00000E+00
 -1      1209 9.76500E+01 0.00000E+00 0.00000E+00
 -1      1210 1.00650E+02 0.00000E+00 0.00000E+00
 -1      1211 1.03650E+02 0.00000E+00 0.00000E+00
 -1      1212 1.06650E+02 0.00000E+00 0.00000E+00
 -1      1213 1.09650E+02 0.00000E+00 0.00000E+00
 -1      1214 1.12650E+02 0.00000E+00 0.00000E+00
 -1      1215 1.15650E+02 0.00000E+00 0.00000E+00
 -1      1216 1.18650E+02 0.00000E+00 0.00000E+00
 -1      1217 1.21650E+02 0.00000E+00 0.00000E+00
 -1      1218 1.24650E+02 0.00000E+00 0.00000E+00
 -1      1219 1.27650E+02 0.00000E+00 0.00000E+00
 -1      1220 1.30650E+02 0.00000E+00 0.00000E+00
 -1      1221 1.33650E+02 0.00000E+00 0.00000E+00
 -1      1222 1.36650E+02 0.00000E+00 0.00000E+00
 -1      1223 1.39650E+02 0.00000E+00 0.00000E+00
 -1      1224 1.42650E+02 0.00000E+00 0.00000E+00
 -1      1225 1.45650E+02 0.00000E+00 0.00000E+00
 -1      1226 1.48575E+02 0.00000E+00 0.00000E+00
 -1      1227 1.50000E+02 1.47500E+00 0.00000E+00
 -1      1228 1.50000E+02 4.42500E+00 0.00000E+00
 -1      1229 1.50000E+02 7.37500E+00 0.00000E+00
 -1      1230 1.50000E+02 1.03250E+01 0.00000E+00
 -1      1231 1.50000E+02 1.32750E+01 0.00000E+00
 -1      1232 1.50000E+02 1.62000E+01 0.00000E+00
 -1      1233 1.50000E+02 1.91250E+01 0.00000E+00
 -1      1234 1.50000E+02 2.20750E+01 0.00000E+00
 -1      1235 1.50000E+02 2.50250E+01 0.00000E+00
 -1      1236 1.50000E+02 2.79750E+01 0.00000E+00
 -1      1237 1.50000E+02 3.09250E+01 0.00000E+00
 -1      1238 1.50000E+02 3.38500E+01 0.00000E+00
 -1      1239 1.50000E+02 3.67750E+01 0.00000E+00
 -1      1240 1.50000E+02 3.97250E+01 0.00000E+00
 -1      1241 1.50000E+02 4.26750E+01 0.00000E+00
 -1      1242 1.50000E+02 4.56250E+01 0.00000E+00
 -1      1243 1.50000E+02 4.85500E+01 0.00000E+00
 -1      1244 4.57818E+01 3.21871E+01 0.00000E+00
 -1      1245 4.54359E+01 3.06857E+01 0.00000E+00
 -1      1246 4.48039E+01 2.93515E+01 0.00000E+00
 -1      1247 4.39292E+01 2.82039E+01 0.00000E+00
 -1      1248 4.28534E+01 2.72709E+01 0.00000E+00
 -1      1249 4.15846E+01 2.65636E+01 0.00000E+00
 -1      1250 4.01034E+01 2.61154E+01 0.00000E+00
 -1      1251 3.85276E+01 2.60049E+01 0.00000E+00
 -1      1252 3.70167E+01 2.62371E+01 0.00000E+00
 -1      1253 3.56036E+01 2.67858E+01 0.00000E+00
 -1      1254 3.43900E+01 2.75859E+01 0.00000E+00
 -1      1255 3.33880E+01 2.85944E+01 0.00000E+00
 -1      1256 3.25793E+01 2.98455E+01 0.00000E+00
 -1      1257 3.20478E+01 3.12619E+01 0.00000E+00
 -1      1258 3.18357E+01 3.26912E+01 0.00000E+00
 -1      1259 3.19302E+01 3.41843E+01 0.00000E+00
 -1      1260 3.23383E+01 3.56195E+01 0.00000E+00
 -1      1261 3.30513E+01 3.69504E+01 0.00000E+00
 -1      1262 3.40612E+01 3.81237E+01 0.00000E+00
 -1      1263 3.52564E+01 3.90181E+01 0.00000E+00
 -1      1264 3.66126E+01 3.96383E+01 0.00000E+00
 -1      1265 3.80747E+01 3.99577E+01 0.00000E+00
 -1      1266 3.95102E+01 3.99652E+01 0.00000E+00
 -1      1267 4.08681E+01 3.96948E+01 0.00000E+00
 -1      1268 4.21347E+01 3.91687E+01 0.00000E+00
 -1      1269 4.32710E+01 3.84085E+01 0.00000E+00
 -1      1270 4.42460E+01 3.74319E+01 0.00000E+00
 -1      1271 4.50050E+01 3.62934E+01 0.00000E+00
 -1      1272 4.55349E+01 3.50062E+01 0.00000E+00
 -1      1273 4.57974E+01 3.36624E+01 0.00000E+00
 -1      1274 1.57500E+00 4.85250E+01 0.00000E+00
 -1      1275 1.29900E+00 4.48375E+01 0.00000E+00
 -1      1276 1.29900E+00 4.63125E+01 0.00000E+00
 -1      1277 1.29900E+00 4.18875E+01 0.00000E+00
 -1      1278 1.29900E+00 4.33625E+01 0.00000E+00
 -1      1279 2.59800E+00 4.41000E+01 0.00000E+00
 -1      1280 1.29900E+00 3.89375E+01 0.00000E+00
 -1      1281 1.29900E+00 4.04125E+01 0.00000E+00
 -1      1282 2.59800E+00 4.11500E+01 0.00000E+00
 -1      1283 1.29900E+00 3.59875E+01 0.00000E+00
 -1      1284 1.29900E+00 3.74625E+01 0.00000E+00
 -1      1285 2.59800E+00 3.82000E+01 0.00000E+00
 -1      1286 1.29900E+00 3.30875E+01 0.00000E+00
 -1      1287 1.29900E+00 3.45375E+01 0.00000E+00
 -1      1288 2.59800E+00 3.52750E+01 0.00000E+00
 -1      1289 1.29900E+00 3.01375E+01 0.00000E+00
 -1      1290 1.29900E+00 3.16125E+01 0.00000E+00
 -1      1291 2.59800E+00 3.23500E+01 0.00000E+00
 -1      1292 1.29900E+00 2.71875E+01 0.00000E+00
 -1      1293 1.29900E+00 2.86625E+01 0.00000E+00
 -1      1294 2.59800E+00 2.94000E+01 0.00000E+00
 -1      1295 1.29900E+00 2.42375E+01 0.00000E+00
 -1      1296 1.29900E+00 2.57125E+01 0.00000E+00
 -1      1297 2.59800E+00 2.64500E+01 0.00000E+00
 -1      1298 1.29900E+00 2.12875E+01 0.00000E+00
 -1      1299 1.29900E+00 2.27625E+01 0.00000E+00
 -1      1300 2.59800E+00 2.35000E+01 0.00000E+00
 -1      1301 1.29900E+00 1.83375E+01 0.00000E+00
 -1      1302 1.29900E+00 1.98125E+01 0.00000E+00
 -1      1303 2.59800E+00 2.05500E+01 0.00000E+00
 -1      1304 1.29900E+00 1.54375E+01 0.00000E+00
 -1      1305 1.29900E+00 1.68875E+01 0.00000E+00
 -1      1306 2.59800E+00 1.76250E+01 0.00000E+00
 -1      1307 1.29900E+00 1.24875E+01 0.00000E+00
 -1      1308 1.29900E+00 1.39625E+01 0.00000E+00
 -1      1309 2.59800E+00 1.47000E+01 0.00000E+00
 -1      1310 1.29900E+00 9.53750E+00 0.00000E+00
 -1      1311 1.29900E+00 1.10125E+01 0.00000E+00
 -1      1312 2.59800E+00 1.17500E+01 0.00000E+00
 -1      1313 1.29900E+00 6.58750E+00 0.00000E+00
 -1      1314 1.29900E+00 8.06250E+00 0.00000E+00
 -1      1315 2.59800E+00 8.80000E+00 0.00000E+00
 -1      1316 1.29900E+00 3.63750E+00 0.00000E+00
 -1      1317 1.29900E+00 5.11250E+00 0.00000E+00
 -1      1318 2.59800E+00 5.85000E+00 0.00000E+00
 -1      1319 1.43700E+00 1.09375E+00 0.00000E+00
 -1      1320 1.43700E+00 2.54375E+00 0.00000E+00
 -1      1321 2.73600E+00 3.28125E+00 0.00000E+00
 -1      1322 3.01200E+00 1.09375E+00 0.00000E+00
 -1      1323 3.90000E+00 4.87010E+01 0.00000E+00
 -1      1324 5.40000E+00 4.87010E+01 0.00000E+00
 -1      1325 6.90000E+00 4.87010E+01 0.00000E+00
 -1      1326 8.40000E+00 4.87010E+01 0.00000E+00
 -1      1327 6.15000E+00 4.74020E+01 0.00000E+00
 -1      1328 9.90000E+00 4.87010E+01 0.00000E+00
 -1      1329 1.14000E+01 4.87010E+01 0.00000E+00
 -1      1330 9.15000E+00 4.74020E+01 0.00000E+00
 -1      1331 1.29000E+01 4.87010E+01 0.00000E+00
 -1      1332 1.44000E+01 4.87010E+01 0.00000E+00
 -1      1333 1.21500E+01 4.74020E+01 0.00000E+00
 -1      1334 1.59000E+01 4.87010E+01 0.00000E+00
 -1      1335 1.74000E+01 4.87010E+01 0.00000E+00
 -1      1336 1.51500E+01 4.74020E+01 0.00000E+00
 -1      1337 1.89000E+01 4.87010E+01 0.00000E+00
 -1      1338 2.04000E+01 4.87010E+01 0.00000E+00
 -1      1339 1.81500E+01 4.74020E+01 0.00000E+00
 -1      1340 2.19000E+01 4.87010E+01 0.00000E+00
 -1      1341 2.34000E+01 4.87010E+01 0.00000E+00
 -1      1342 2.11500E+01 4.74020E+01 0.00000E+00
 -1      1343 2.49000E+01 4.87010E+01 0.00000E+00
 -1      1344 2.64000E+01 4.87010E+01 0.00000E+00
 -1      1345 2.41500E+01 4.74020E+01 0.00000E+00
 -1      1346 2.79000E+01 4.87010E+01 0.00000E+00
 -1      1347 2.94000E+01 4.87010E+01 0.00000E+00
 -1      1348 2.71500E+01 4.74020E+01 0.00000E+00
 -1      1349 3.09000E+01 4.87010E+01 0.00000E+00
 -1      1350 3.24000E+01 4.87010E+01 0.00000E+00
 -1      1351 3.01500E+01 4.74020E+01 0.00000E+00
 -1      1352 3.38250E+01 4.87010E+01 0.00000E+00
 -1      1353 3.52500E+01 4.87010E+01 0.00000E+00
 -1      1354 3.30750E+01 4.74020E+01 0.00000E+00
 -1      1355 3.67500E+01 4.87010E+01 0.00000E+00
 -1      1356 3.82500E+01 4.87010E+01 0.00000E+00
 -1      1357 3.60000E+01 4.74020E+01 0.00000E+00
 -1      1358 3.96000E+01 4.87010E+01 0.00000E+00
 -1      1359 4.09500E+01 4.87010E+01 0.00000E+00
 -1      1360 3.88500E+01 4.74020E+01 0.00000E+00
 -1      1361 4.24500E+01 4.87010E+01 0.00000E+00
 -1      1362 4.39500E+01 4.87010E+01 0.00000E+00
 -1      1363 4.17000E+01 4.74020E+01 0.00000E+00
 -1      1364 4.54500E+01 4.87010E+01 0.00000E+00
 -1      1365 4.69500E+01 4.87010E+01 0.00000E+00
 -1      1366 4.47000E+01 4.74020E+01 0.00000E+00
 -1      1367 4.84500E+01 4.87010E+01 0.00000E+00
 -1      1368 4.99500E+01 4.87010E+01 0.00000E+00
 -1      1369 4.77000E+01 4.74020E+01 0.00000E+00
 -1      1370 5.14500E+01 4.87010E+01 0.00000E+00
 -1      1371 5.29500E+01 4.87010E+01 0.00000E+00
 -1      1372 5.07000E+01 4.74020E+01 0.00000E+00
 -1      1373 5.44500E+01 4.87010E+01 0.00000E+00
 -1      1374 5.59500E+01 4.87010E+01 0.00000E+00
 -1      1375 5.37000E+01 4.74020E+01 0.00000E+00
 -1      1376 5.74500E+01 4.87010E+01 0.00000E+00
 -1      1377 5.89500E+01 4.87010E+01 0.00000E+00
 -1      1378 5.67000E+01 4.74020E+01 0.00000E+00
 -1      1379 6.04500E+01 4.87010E+01 0.00000E+00
 -1      1380 6.19500E+01 4.87010E+01 0.00000E+00
 -1      1381 5.97000E+01 4.74020E+01 0.00000E+00
 -1      1382 6.34500E+01 4.87010E+01 0.00000E+00
 -1      1383 6.49500E+01 4.87010E+01 0.00000E+00
 -1      1384 6.27000E+01 4.74020E+01 0.00000E+00
 -1      1385 6.65250E+01 4.87010E+01 0.00000E+00
 -1      1386 6.81000E+01 4.87010E+01 0.00000E+00
 -1      1387 6.57750E+01 4.74020E+01 0.00000E+00
 -1      1388 6.96000E+01 4.87010E+01 0.00000E+00
 -1      1389 7.11000E+01 4.87010E+01 0.00000E+00
 -1      1390 6.88500E+01 4.74020E+01 0.00000E+00
 -1      1391 7.26000E+01 4.87010E+01 0.00000E+00
 -1      1392 7.41000E+01 4.87010E+01 0.00000E+00
 -1      1393 7.18500E+01 4.74020E+01 0.00000E+00
 -1      1394 7.56000E+01 4.87010E+01 0.00000E+00
 -1      1395 7.71000E+01 4.87010E+01 0.00000E+00
 -1      1396 7.48500E+01 4.74020E+01 0.00000E+00
 -1      1397 7.86000E+01 4.87010E+01 0.00000E+00
 -1      1398 8.01000E+01 4.87010E+01 0.00000E+00
 -1      1399 7.78500E+01 4.74020E+01 0.00000E+00
 -1      1400 8.16000E+01 4.87010E+01 0.00000E+00
 -1      1401 8.31000E+01 4.87010E+01 0.00000E+00
 -1      1402 8.08500E+01 4.74020E+01 0.00000E+00
 -1      1403 8.46000E+01 4.87010E+01 0.00000E+00
 -1      1404 8.61000E+01 4.87010E+01 0.00000E+00
 -1      1405 8.38500E+01 4.74020E+01 0.00000E+00
 -1      1406 8.76000E+01 4.87010E+01 0.00000E+00
 -1      1407 8.91000E+01 4.87010E+01 0.00000E+00
 -1      1408 8.68500E+01 4.74020E+01 0.00000E+00
 -1      1409 9.06000E+01 4.87010E+01 0.00000E+00
 -1      1410 9.21000E+01 4.87010E+01 0.00000E+00
 -1      1411 8.98500E+01 4.74020E+01 0.00000E+00
 -1      1412 9.36000E+01 4.87010E+01 0.00000E+00
 -1      1413 9.51000E+01 4.87010E+01 0.00000E+00
 -1      1414 9.28500E+01 4.74020E+01 0.00000E+00
 -1      1415 9.66000E+01 4.87010E+01 0.00000E+00
 -1      1416 9.81000E+01 4.87010E+01 0.00000E+00
 -1      1417 9.58500E+01 4.74020E+01 0.00000E+00
 -1      1418 9.96000E+01 4.87010E+01 0.00000E+00
 -1      1419 1.01100E+02 4.87010E+01 0.00000E+00
 -1      1420 9.88500E+01 4.74020E+01 0.00000E+00
 -1      1421 1.02600E+02 4.87010E+01 0.00000E+00
 -1      1422 1.04100E+02 4.87010E+01 0.00000E+00
 -1      1423 1.01850E+02 4.74020E+01 0.00000E+00
 -1      1424 1.05600E+02 4.87010E+01 0.00000E+00
 -1      1425 1.07100E+02 4.87010E+01 0.00000E+00
 -1      1426 1.04850E+02 4.74020E+01 0.00000E+00
 -1      1427 1.08675E+02 4.87010E+01 0.00000E+00
 -1      1428 1.10250E+02 4.87010E+01 0.00000E+00
 -1      1429 1.07925E+02 4.74020E+01 0.00000E+00
 -1      1430 1.11750E+02 4.87010E+01 0.00000E+00
 -1      1431 1.13250E+02 4.87010E+01 0.00000E+00
 -1      1432 1.11000E+02 4.74020E+01 0.00000E+00
 -1      1433 1.14750E+02 4.87010E+01 0.00000E+00
 -1      1434 1.16250E+02 4.87010E+01 0.00000E+00
 -1      1435 1.14000E+02 4.74020E+01 0.00000E+00
 -1      1436 1.17750E+02 4.87010E+01 0.00000E+00
 -1      1437 1.19250E+02 4.87010E+01 0.00000E+00
 -1      1438 1.17000E+02 4.74020E+01 0.00000E+00
 -1      1439 1.20750E+02 4.87010E+01 0.00000E+00
 -1      1440 1.22250E+02 4.87010E+01 0.00000E+00
 -1      1441 1.20000E+02 4.74020E+01 0.00000E+00
 -1      1442 1.23750E+02 4.87010E+01 0.00000E+00
 -1      1443 1.25250E+02 4.87010E+01 0.00000E+00
 -1      1444 1.23000E+02 4.74020E+01 0.00000E+00
 -1      1445 1.26750E+02 4.87010E+01 0.00000E+00
 -1      1446 1.28250E+02 4.87010E+01 0.00000E+00
 -1      1447 1.26000E+02 4.74020E+01 0.00000E+00
 -1      1448 1.29750E+02 4.87010E+01 0.00000E+00
 -1      1449 1.31250E+02 4.87010E+01 0.00000E+00
 -1      1450 1.29000E+02 4.74020E+01 0.00000E+00
 -1      1451 1.32750E+02 4.87010E+01 0.00000E+00
 -1      1452 1.34250E+02 4.87010E+01 0.00000E+00
 -1      1453 1.32000E+02 4.74020E+01 0.00000E+00
 -1      1454 1.35750E+02 4.87010E+01 0.00000E+00
 -1      1455 1.37250E+02 4.87010E+01 0.00000E+00
 -1      1456 1.35000E+02 4.74020E+01 0.00000E+00
 -1      1457 1.38750E+02 4.87010E+01 0.00000E+00
 -1      1458 1.40250E+02 4.87010E+01 0.00000E+00
 -1      1459 1.38000E+02 4.74020E+01 0.00000E+00
 -1      1460 1.41750E+02 4.87010E+01 0.00000E+00
 -1      1461 1.43250E+02 4.87010E+01 0.00000E+00
 -1      1462 1.41000E+02 4.74020E+01 0.00000E+00
 -1      1463 1.44750E+02 4.87010E+01 0.00000E+00
 -1      1464 1.46250E+02 4.87010E+01 0.00000E+00
 -1      1465 1.44000E+02 4.74020E+01 0.00000E+00
 -1      1466 1.47375E+02 4.86255E+01 0.00000E+00
 -1      1467 1.48875E+02 4.86255E+01 0.00000E+00
 -1      1468 1.48875E+02 4.71755E+01 0.00000E+00
 -1      1469 1.46625E+02 4.73265E+01 0.00000E+00
 -1      1470 6.01200E+00 1.09375E+00 0.00000E+00
 -1      1471 4.51200E+00 1.09375E+00 0.00000E+00
 -1      1472 4.37400E+00 2.18750E+00 0.00000E+00
 -1      1473 9.01200E+00 1.09375E+00 0.00000E+00
 -1      1474 7.51200E+00 1.09375E+00 0.00000E+00
 -1      1475 7.37400E+00 2.18750E+00 0.00000E+00
 -1      1476 1.20120E+01 1.09375E+00 0.00000E+00
 -1      1477 1.05120E+01 1.09375E+00 0.00000E+00
 -1      1478 1.03740E+01 2.18750E+00 0.00000E+00
 -1      1479 1.50120E+01 1.09375E+00 0.00000E+00
 -1      1480 1.35120E+01 1.09375E+00 0.00000E+00
 -1      1481 1.33740E+01 2.18750E+00 0.00000E+00
 -1      1482 1.80120E+01 1.09375E+00 0.00000E+00
 -1      1483 1.65120E+01 1.09375E+00 0.00000E+00
 -1      1484 1.63740E+01 2.18750E+00 0.00000E+00
 -1      1485 2.10120E+01 1.09375E+00 0.00000E+00
 -1      1486 1.95120E+01 1.09375E+00 0.00000E+00
 -1      1487 1.93740E+01 2.18750E+00 0.00000E+00
 -1      1488 2.40120E+01 1.09375E+00 0.00000E+00
 -1      1489 2.25120E+01 1.09375E+00 0.00000E+00
 -1      1490 2.23740E+01 2.18750E+00 0.00000E+00
 -1      1491 2.70120E+01 1.09375E+00 0.00000E+00
 -1      1492 2.55120E+01 1.09375E+00 0.00000E+00
 -1      1493 2.53740E+01 2.18750E+00 0.00000E+00
 -1      1494 3.00120E+01 1.09375E+00 0.00000E+00
 -1      1495 2.85120E+01 1.09375E+00 0.00000E+00
 -1      1496 2.83740E+01 2.18750E+00 0.00000E+00
 -1      1497 3.30120E+01 1.09375E+00 0.00000E+00
 -1      1498 3.15120E+01 1.09375E+00 0.00000E+00
 -1      1499 3.13740E+01 2.18750E+00 0.00000E+00
 -1      1500 3.60120E+01 1.09375E+00 0.00000E+00
 -1      1501 3.45120E+01 1.09375E+00 0.00000E+00
 -1      1502 3.43740E+01 2.18750E+00 0.00000E+00
 -1      1503 3.90120E+01 1.09375E+00 0.00000E+00
 -1      1504 3.75120E+01 1.09375E+00 0.00000E+00
 -1      1505 3.73740E+01 2.18750E+00 0.00000E+00
 -1      1506 4.20120E+01 1.09375E+00 0.00000E+00
 -1      1507 4.05120E+01 1.09375E+00 0.00000E+00
 -1      1508 4.03740E+01 2.18750E+00 0.00000E+00
 -1      1509 4.50120E+01 1.09375E+00 0.00000E+00
 -1      1510 4.35120E+01 1.09375E+00 0.00000E+00
 -1      1511 4.33740E+01 2.18750E+00 0.00000E+00
 -1      1512 4.80120E+01 1.09375E+00 0.00000E+00
 -1      1513 4.65120E+01 1.09375E+00 0.00000E+00
 -1      1514 4.63740E+01 2.18750E+00 0.00000E+00
 -1      1515 5.10120E+01 1.09375E+00 0.00000E+00
 -1      1516 4.95120E+01 1.09375E+00 0.00000E+00
 -1      1517 4.93740E+01 2.18750E+00 0.00000E+00
 -1      1518 5.40120E+01 1.09375E+00 0.00000E+00
 -1      1519 5.25120E+01 1.09375E+00 0.00000E+00
 -1      1520 5.23740E+01 2.18750E+00 0.00000E+00
 -1      1521 5.70120E+01 1.09375E+00 0.00000E+00
 -1      1522 5.55120E+01 1.09375E+00 0.00000E+00
 -1      1523 5.53740E+01 2.18750E+00 0.00000E+00
 -1      1524 6.00120E+01 1.09375E+00 0.00000E+00
 -1      1525 5.85120E+01 1.09375E+00 0.00000E+00
 -1      1526 5.83740E+01 2.18750E+00 0.00000E+00
 -1      1527 6.30120E+01 1.09375E+00 0.00000E+00
 -1      1528 6.15120E+01 1.09375E+00 0.00000E+00
 -1      1529 6.13740E+01 2.18750E+00 0.00000E+00
 -1      1530 6.60120E+01 1.09375E+00 0.00000E+00
 -1      1531 6.45120E+01 1.09375E+00 0.00000E+00
 -1      1532 6.43740E+01 2.18750E+00 0.00000E+00
 -1      1533 6.90120E+01 1.09375E+00 0.00000E+00
 -1      1534 6.75120E+01 1.09375E+00 0.00000E+00
 -1      1535 6.73740E+01 2.18750E+00 0.00000E+00
 -1      1536 7.20120E+01 1.09375E+00 0.00000E+00
 -1      1537 7.05120E+01 1.09375E+00 0.00000E+00
 -1      1538 7.03740E+01 2.18750E+00 0.00000E+00
 -1      1539 7.50120E+01 1.09375E+00 0.00000E+00
 -1      1540 7.35120E+01 1.09375E+00 0.00000E+00
 -1      1541 7.33740E+01 2.18750E+00 0.00000E+00
 -1      1542 7.80120E+01 1.09375E+00 0.00000E+00
 -1      1543 7.65120E+01 1.09375E+00 0.00000E+00
 -1      1544 7.63740E+01 2.18750E+00 0.00000E+00
 -1      1545 8.10120E+01 1.09375E+00 0.00000E+00
 -1      1546 7.95120E+01 1.09375E+00 0.00000E+00
 -1      1547 7.93740E+01 2.18750E+00 0.00000E+00
 -1      1548 8.40120E+01 1.09375E+00 0.00000E+00
 -1      1549 8.25120E+01 1.09375E+00 0.00000E+00
 -1      1550 8.23740E+01 2.18750E+00 0.00000E+00
 -1      1551 8.70120E+01 1.09375E+00 0.00000E+00
 -1      1552 8.55120E+01 1.09375E+00 0.00000E+00
 -1      1553 8.53740E+01 2.18750E+00 0.00000E+00
 -1      1554 9.00120E+01 1.09375E+00 0.00000E+00
 -1      1555 8.85120E+01 1.09375E+00 0.00000E+00
 -1      1556 8.83740E+01 2.18750E+00 0.00000E+00
 -1      1557 9.30120E+01 1.09375E+00 0.00000E+00
 -1      1558 9.15120E+01 1.09375E+00 0.00000E+00
 -1      1559 9.13740E+01 2.18750E+00 0.00000E+00
 -1      1560 9.60120E+01 1.09375E+00 0.00000E+00
 -1      1561 9.45120E+01 1.09375E+00 0.00000E+00
 -1      1562 9.43740E+01 2.18750E+00 0.00000E+00
 -1      1563 9.90120E+01 1.09375E+00 0.00000E+00
 -1      1564 9.75120E+01 1.09375E+00 0.00000E+00
 -1      1565 9.73740E+01 2.18750E+00 0.00000E+00
 -1      1566 1.02012E+02 1.09375E+00 0.00000E+00
 -1      1567 1.00512E+02 1.09375E+00 0.00000E+00
 -1      1568 1.00374E+02 2.18750E+00 0.00000E+00
 -1      1569 1.05012E+02 1.09375E+00 0.00000E+00
 -1      1570 1.03512E+02 1.09375E+00 0.00000E+00
 -1      1571 1.03374E+02 2.18750E+00 0.00000E+00
 -1      1572 1.08012E+02 1.09375E+00 0.00000E+00
 -1      1573 1.06512E+02 1.09375E+00 0.00000E+00
 -1      1574 1.06374E+02 2.18750E+00 0.00000E+00
 -1      1575 1.11012E+02 1.09375E+00 0.00000E+00
 -1      1576 1.09512E+02 1.09375E+00 0.00000E+00
 -1      1577 1.09374E+02 2.18750E+00 0.00000E+00
 -1      1578 1.14012E+02 1.09375E+00 0.00000E+00
 -1      1579 1.12512E+02 1.09375E+00 0.00000E+00
 -1      1580 1.12374E+02 2.18750E+00 0.00000E+00
 -1      1581 1.17012E+02 1.09375E+00 0.00000E+00
 -1      1582 1.15512E+02 1.09375E+00 0.00000E+00
 -1      1583 1.15374E+02 2.18750E+00 0.00000E+00
 -1      1584 1.20012E+02 1.09375E+00 0.00000E+00
 -1      1585 1.18512E+02 1.09375E+00 0.00000E+00
 -1      1586 1.18374E+02 2.18750E+00 0.00000E+00
 -1      1587 1.23012E+02 1.09375E+00 0.00000E+00
 -1      1588 1.21512E+02 1.09375E+00 0.00000E+00
 -1      1589 1.21374E+02 2.18750E+00 0.00000E+00
 -1      1590 1.26012E+02 1.09375E+00 0.00000E+00
 -1      1591 1.24512E+02 1.09375E+00 0.00000E+00
 -1      1592 1.24374E+02 2.18750E+00 0.00000E+00
 -1      1593 1.29012E+02 1.09375E+00 0.00000E+00
 -1      1594 1.27512E+02 1.09375E+00 0.00000E+00
 -1      1595 1.27374E+02 2.18750E+00 0.00000E+00
 -1      1596 1.32012E+02 1.09375E+00 0.00000E+00
 -1      1597 1.30512E+02 1.09375E+00 0.00000E+00
 -1      1598 1.30374E+02 2.18750E+00 0.00000E+00
 -1      1599 1.35012E+02 1.09375E+00 0.00000E+00
 -1      1600 1.33512E+02 1.09375E+00 0.00000E+00
 -1      1601 1.33374E+02 2.18750E+00 0.00000E+00
 -1      1602 1.38012E+02 1.09375E+00 0.00000E+00
 -1      1603 1.36512E+02 1.09375E+00 0.00000E+00
 -1      1604 1.36374E+02 2.18750E+00 0.00000E+00
 -1      1605 1.41012E+02 1.09375E+00 0.00000E+00
 -1      1606 1.39512E+02 1.09375E+00 0.00000E+00
 -1      1607 1.39374E+02 2.18750E+00 0.00000E+00
 -1      1608 1.44012E+02 1.09375E+00 0.00000E+00
 -1      1609 1.42512E+02 1.09375E+00 0.00000E+00
 -1      1610 1.42374E+02 2.18750E+00 0.00000E+00
 -1      1611 1.47012E+02 1.09375E+00 0.00000E+00
 -1      1612 1.45512E+02 1.09375E+00 0.00000E+00
 -1      1613 1.45374E+02 2.18750E+00 0.00000E+00
 -1      1614 1.48575E+02 1.47500E+00 0.00000E+00
 -1      1615 1.48701E+02 5.16250E+00 0.00000E+00
 -1      1616 1.48701E+02 3.68750E+00 0.00000E+00
 -1      1617 1.48701E+02 8.11250E+00 0.00000E+00
 -1      1618 1.48701E+02 6.63750E+00 0.00000E+00
 -1      1619 1.47402E+02 5.90000E+00 0.00000E+00
 -1      1620 1.48701E+02 1.10625E+01 0.00000E+00
 -1      1621 1.48701E+02 9.58750E+00 0.00000E+00
 -1      1622 1.47402E+02 8.85000E+00 0.00000E+00
 -1      1623 1.48701E+02 1.40125E+01 0.00000E+00
 -1      1624 1.48701E+02 1.25375E+01 0.00000E+00
 -1      1625 1.47402E+02 1.18000E+01 0.00000E+00
 -1      1626 1.48701E+02 1.69125E+01 0.00000E+00
 -1      1627 1.48701E+02 1.54625E+01 0.00000E+00
 -1      1628 1.47402E+02 1.47250E+01 0.00000E+00
 -1      1629 1.48701E+02 1.98625E+01 0.00000E+00
 -1      1630 1.48701E+02 1.83875E+01 0.00000E+00
 -1      1631 1.47402E+02 1.76500E+01 0.00000E+00
 -1      1632 1.48701E+02 2.28125E+01 0.00000E+00
 -1      1633 1.48701E+02 2.13375E+01 0.00000E+00
 -1      1634 1.47402E+02 2.06000E+01 0.00000E+00
 -1      1635 1.48701E+02 2.57625E+01 0.00000E+00
 -1      1636 1.48701E+02 2.42875E+01 0.00000E+00
 -1      1637 1.47402E+02 2.35500E+01 0.00000E+00
 -1      1638 1.48701E+02 2.87125E+01 0.00000E+00
 -1      1639 1.48701E+02 2.72375E+01 0.00000E+00
 -1      1640 1.47402E+02 2.65000E+01 0.00000E+00
 -1      1641 1.48701E+02 3.16625E+01 0.00000E+00
 -1      1642 1.48701E+02 3.01875E+01 0.00000E+00
 -1      1643 1.47402E+02 2.94500E+01 0.00000E+00
 -1      1644 1.48701E+02 3.45625E+01 0.00000E+00
 -1      1645 1.48701E+02 3.31125E+01 0.00000E+00
 -1      1646 1.47402E+02 3.23750E+01 0.00000E+00
 -1      1647 1.48701E+02 3.75125E+01 0.00000E+00
 -1      1648 1.48701E+02 3.60375E+01 0.00000E+00
 -1      1649 1.47402E+02 3.53000E+01 0.00000E+00
 -1      1650 1.48701E+02 4.04625E+01 0.00000E+00
 -1      1651 1.48701E+02 3.89875E+01 0.00000E+00
 -1      1652 1.47402E+02 3.82500E+01 0.00000E+00
 -1      1653 1.48701E+02 4.34125E+01 0.00000E+00
 -1      1654 1.48701E+02 4.19375E+01 0.00000E+00
 -1      1655 1.47402E+02 4.12000E+01 0.00000E+00
 -1      1656 1.48788E+02 4.60315E+01 0.00000E+00
 -1      1657 1.48788E+02 4.45565E+01 0.00000E+00
 -1      1658 1.47489E+02 4.38190E+01 0.00000E+00
 -1      1659 1.47663E+02 4.61070E+01 0.00000E+00
 -1      1660 4.64565E+01 3.17000E+01 0.00000E+00
 -1      1661 4.65505E+01 3.25058E+01 0.00000E+00
 -1      1662 4.58516E+01 3.01538E+01 0.00000E+00
 -1      1663 4.60926E+01 3.08422E+01 0.00000E+00
 -1      1664 4.51284E+01 2.87159E+01 0.00000E+00
 -1      1665 4.55176E+01 2.93535E+01 0.00000E+00
 -1      1666 4.41073E+01 2.75589E+01 0.00000E+00
 -1      1667 4.45840E+01 2.80660E+01 0.00000E+00
 -1      1668 4.28822E+01 2.65967E+01 0.00000E+00
 -1      1669 4.34779E+01 2.70152E+01 0.00000E+00
 -1      1670 4.14920E+01 2.58598E+01 0.00000E+00
 -1      1671 4.21579E+01 2.61450E+01 0.00000E+00
 -1      1672 3.98155E+01 2.54098E+01 0.00000E+00
 -1      1673 4.06248E+01 2.55596E+01 0.00000E+00
 -1      1674 3.81253E+01 2.54565E+01 0.00000E+00
 -1      1675 3.88812E+01 2.54240E+01 0.00000E+00
 -1      1676 3.64545E+01 2.56309E+01 0.00000E+00
 -1      1677 3.72003E+01 2.54310E+01 0.00000E+00
 -1      1678 3.49932E+01 2.64171E+01 0.00000E+00
 -1      1679 3.56533E+01 2.60744E+01 0.00000E+00
 -1      1680 3.37541E+01 2.73701E+01 0.00000E+00
 -1      1681 3.43029E+01 2.69200E+01 0.00000E+00
 -1      1682 3.27211E+01 2.85125E+01 0.00000E+00
 -1      1683 3.31690E+01 2.79592E+01 0.00000E+00
 -1      1684 3.18268E+01 2.99015E+01 0.00000E+00
 -1      1685 3.21771E+01 2.92070E+01 0.00000E+00
 -1      1686 3.14069E+01 3.14772E+01 0.00000E+00
 -1      1687 3.15892E+01 3.07651E+01 0.00000E+00
 -1      1688 3.12506E+01 3.30209E+01 0.00000E+00
 -1      1689 3.12818E+01 3.23116E+01 0.00000E+00
 -1      1690 3.13604E+01 3.46810E+01 0.00000E+00
 -1      1691 3.12272E+01 3.39063E+01 0.00000E+00
 -1      1692 3.19415E+01 3.61605E+01 0.00000E+00
 -1      1693 3.16771E+01 3.55058E+01 0.00000E+00
 -1      1694 3.27122E+01 3.76691E+01 0.00000E+00
 -1      1695 3.22585E+01 3.70058E+01 0.00000E+00
 -1      1696 3.39194E+01 3.88227E+01 0.00000E+00
 -1      1697 3.33743E+01 3.83156E+01 0.00000E+00
 -1      1698 3.52893E+01 3.96959E+01 0.00000E+00
 -1      1699 3.46457E+01 3.93139E+01 0.00000E+00
 -1      1700 3.67723E+01 4.03331E+01 0.00000E+00
 -1      1701 3.60676E+01 4.00979E+01 0.00000E+00
 -1      1702 3.83840E+01 4.06021E+01 0.00000E+00
 -1      1703 3.76346E+01 4.05209E+01 0.00000E+00
 -1      1704 3.99052E+01 4.05022E+01 0.00000E+00
 -1      1705 3.92267E+01 4.05686E+01 0.00000E+00
 -1      1706 4.13950E+01 4.02187E+01 0.00000E+00
 -1      1707 4.07226E+01 4.04234E+01 0.00000E+00
 -1      1708 4.27006E+01 3.95170E+01 0.00000E+00
 -1      1709 4.21112E+01 3.98327E+01 0.00000E+00
 -1      1710 4.39034E+01 3.86284E+01 0.00000E+00
 -1      1711 4.33636E+01 3.90716E+01 0.00000E+00
 -1      1712 4.49052E+01 3.75311E+01 0.00000E+00
 -1      1713 4.44736E+01 3.80585E+01 0.00000E+00
 -1      1714 4.56717E+01 3.62599E+01 0.00000E+00
 -1      1715 4.53484E+01 3.68659E+01 0.00000E+00
 -1      1716 4.62228E+01 3.48440E+01 0.00000E+00
 -1      1717 4.60205E+01 3.55196E+01 0.00000E+00
 -1      1718 4.64010E+01 3.33864E+01 0.00000E+00
 -1      1719 4.63380E+01 3.40474E+01 0.00000E+00
 -1      1720 4.53317E+01 2.80471E+01 0.00000E+00
 -1      1721 4.71225E+01 3.28938E+01 0.00000E+00
 -1      1722 1.48437E+02 2.56875E+00 0.00000E+00
 -1      1723 1.47138E+02 3.30625E+00 0.00000E+00
 -1      1724 4.69082E+01 3.11555E+01 0.00000E+00
 -1      1725 4.62102E+01 2.94974E+01 0.00000E+00
 -1      1726 4.41579E+01 2.68536E+01 0.00000E+00
 -1      1727 4.28043E+01 2.58583E+01 0.00000E+00
 -1      1728 4.12129E+01 2.51065E+01 0.00000E+00
 -1      1729 3.94115E+01 2.48204E+01 0.00000E+00
 -1      1730 3.75521E+01 2.48091E+01 0.00000E+00
 -1      1731 3.58259E+01 2.52271E+01 0.00000E+00
 -1      1732 3.43344E+01 2.61735E+01 0.00000E+00
 -1      1733 3.30590E+01 2.72654E+01 0.00000E+00
 -1      1734 3.19299E+01 2.85490E+01 0.00000E+00
 -1      1735 3.11484E+01 3.01071E+01 0.00000E+00
 -1      1736 3.07857E+01 3.18052E+01 0.00000E+00
 -1      1737 3.06372E+01 3.35251E+01 0.00000E+00
 -1      1738 3.09305E+01 3.52353E+01 0.00000E+00
 -1      1739 3.15642E+01 3.69054E+01 0.00000E+00
 -1      1740 3.25433E+01 3.83971E+01 0.00000E+00
 -1      1741 3.39318E+01 3.95349E+01 0.00000E+00
 -1      1742 3.54364E+01 4.04283E+01 0.00000E+00
 -1      1743 3.70771E+01 4.10181E+01 0.00000E+00
 -1      1744 3.87822E+01 4.11723E+01 0.00000E+00
 -1      1745 4.04424E+01 4.10599E+01 0.00000E+00
 -1      1746 4.19760E+01 4.05951E+01 0.00000E+00
 -1      1747 4.33552E+01 3.97638E+01 0.00000E+00
 -1      1748 4.45883E+01 3.87486E+01 0.00000E+00
 -1      1749 4.56017E+01 3.75135E+01 0.00000E+00
 -1      1750 4.63937E+01 3.61080E+01 0.00000E+00
 -1      1751 4.68577E+01 3.45710E+01 0.00000E+00
 -1      1752 2.87400E+00 4.77875E+01 0.00000E+00
 -1      1753 3.89700E+00 4.04125E+01 0.00000E+00
 -1      1754 3.89700E+00 4.18875E+01 0.00000E+00
 -1      1755 3.89700E+00 4.33625E+01 0.00000E+00
 -1      1756 3.89700E+00 4.48375E+01 0.00000E+00
 -1      1757 5.19600E+00 4.26250E+01 0.00000E+00
 -1      1758 3.89700E+00 3.45500E+01 0.00000E+00
 -1      1759 3.89700E+00 3.60000E+01 0.00000E+00
 -1      1760 3.89700E+00 3.16000E+01 0.00000E+00
 -1      1761 3.89700E+00 3.30750E+01 0.00000E+00
 -1      1762 5.19600E+00 3.38000E+01 0.00000E+00
 -1      1763 3.89700E+00 2.86500E+01 0.00000E+00
 -1      1764 3.89700E+00 3.01250E+01 0.00000E+00
 -1      1765 5.19600E+00 3.08500E+01 0.00000E+00
 -1      1766 3.89700E+00 2.57000E+01 0.00000E+00
 -1      1767 3.89700E+00 2.71750E+01 0.00000E+00
 -1      1768 5.19600E+00 2.79000E+01 0.00000E+00
 -1      1769 3.89700E+00 2.27500E+01 0.00000E+00
 -1      1770 3.89700E+00 2.42250E+01 0.00000E+00
 -1      1771 5.19600E+00 2.49500E+01 0.00000E+00
 -1      1772 3.89700E+00 1.98000E+01 0.00000E+00
 -1      1773 3.89700E+00 2.12750E+01 0.00000E+00
 -1      1774 5.19600E+00 2.20000E+01 0.00000E+00
 -1      1775 3.89700E+00 1.69000E+01 0.00000E+00
 -1      1776 3.89700E+00 1.83500E+01 0.00000E+00
 -1      1777 5.19600E+00 1.90750E+01 0.00000E+00
 -1      1778 3.89700E+00 1.39500E+01 0.00000E+00
 -1      1779 3.89700E+00 1.54250E+01 0.00000E+00
 -1      1780 5.19600E+00 1.61500E+01 0.00000E+00
 -1      1781 3.89700E+00 1.10000E+01 0.00000E+00
 -1      1782 3.89700E+00 1.24750E+01 0.00000E+00
 -1      1783 5.19600E+00 1.32000E+01 0.00000E+00
 -1      1784 3.89700E+00 8.05000E+00 0.00000E+00
 -1      1785 3.89700E+00 9.52500E+00 0.00000E+00
 -1      1786 5.19600E+00 1.02500E+01 0.00000E+00
 -1      1787 3.89700E+00 5.10000E+00 0.00000E+00
 -1      1788 3.89700E+00 6.57500E+00 0.00000E+00
 -1      1789 5.19600E+00 7.30000E+00 0.00000E+00
 -1      1790 4.20450E+00 3.09687E+00 0.00000E+00
 -1      1791 4.06650E+00 4.19063E+00 0.00000E+00
 -1      1792 5.36550E+00 4.91563E+00 0.00000E+00
 -1      1793 5.70450E+00 3.09687E+00 0.00000E+00
 -1      1794 3.62400E+00 4.64885E+01 0.00000E+00
 -1      1795 8.70450E+00 3.09687E+00 0.00000E+00
 -1      1796 7.20450E+00 3.09687E+00 0.00000E+00
 -1      1797 7.03500E+00 4.00625E+00 0.00000E+00
 -1      1798 4.92300E+00 4.57510E+01 0.00000E+00
 -1      1799 8.40000E+00 4.61030E+01 0.00000E+00
 -1      1800 9.90000E+00 4.61030E+01 0.00000E+00
 -1      1801 1.14000E+01 4.61030E+01 0.00000E+00
 -1      1802 1.29000E+01 4.61030E+01 0.00000E+00
 -1      1803 1.06500E+01 4.48040E+01 0.00000E+00
 -1      1804 1.44000E+01 4.61030E+01 0.00000E+00
 -1      1805 1.59000E+01 4.61030E+01 0.00000E+00
 -1      1806 1.36500E+01 4.48040E+01 0.00000E+00
 -1      1807 1.74000E+01 4.61030E+01 0.00000E+00
 -1      1808 1.89000E+01 4.61030E+01 0.00000E+00
 -1      1809 1.66500E+01 4.48040E+01 0.00000E+00
 -1      1810 2.04000E+01 4.61030E+01 0.00000E+00
 -1      1811 2.19000E+01 4.61030E+01 0.00000E+00
 -1      1812 1.96500E+01 4.48040E+01 0.00000E+00
 -1      1813 2.34000E+01 4.61030E+01 0.00000E+00
 -1      1814 2.49000E+01 4.61030E+01 0.00000E+00
 -1      1815 2.26500E+01 4.48040E+01 0.00000E+00
 -1      1816 2.64000E+01 4.61030E+01 0.00000E+00
 -1      1817 2.79000E+01 4.61030E+01 0.00000E+00
 -1      1818 2.56500E+01 4.48040E+01 0.00000E+00
 -1      1819 2.94000E+01 4.61030E+01 0.00000E+00
 -1      1820 3.09000E+01 4.61030E+01 0.00000E+00
 -1      1821 2.86500E+01 4.48040E+01 0.00000E+00
 -1      1822 3.23250E+01 4.61030E+01 0.00000E+00
 -1      1823 3.37500E+01 4.61030E+01 0.00000E+00
 -1      1824 3.15750E+01 4.48040E+01 0.00000E+00
 -1      1825 3.52500E+01 4.61030E+01 0.00000E+00
 -1      1826 3.67500E+01 4.61030E+01 0.00000E+00
 -1      1827 3.45000E+01 4.48040E+01 0.00000E+00
 -1      1828 3.81000E+01 4.61030E+01 0.00000E+00
 -1      1829 3.94500E+01 4.61030E+01 0.00000E+00
 -1      1830 3.73500E+01 4.48040E+01 0.00000E+00
 -1      1831 4.09500E+01 4.61030E+01 0.00000E+00
 -1      1832 4.24500E+01 4.61030E+01 0.00000E+00
 -1      1833 4.02000E+01 4.48040E+01 0.00000E+00
 -1      1834 4.39500E+01 4.61030E+01 0.00000E+00
 -1      1835 4.54500E+01 4.61030E+01 0.00000E+00
 -1      1836 4.32000E+01 4.48040E+01 0.00000E+00
 -1      1837 4.69500E+01 4.61030E+01 0.00000E+00
 -1      1838 4.84500E+01 4.61030E+01 0.00000E+00
 -1      1839 4.62000E+01 4.48040E+01 0.00000E+00
 -1      1840 4.99500E+01 4.61030E+01 0.00000E+00
 -1      1841 5.14500E+01 4.61030E+01 0.00000E+00
 -1      1842 4.92000E+01 4.48040E+01 0.00000E+00
 -1      1843 5.29500E+01 4.61030E+01 0.00000E+00
 -1      1844 5.44500E+01 4.61030E+01 0.00000E+00
 -1      1845 5.22000E+01 4.48040E+01 0.00000E+00
 -1      1846 5.59500E+01 4.61030E+01 0.00000E+00
 -1      1847 5.74500E+01 4.61030E+01 0.00000E+00
 -1      1848 5.52000E+01 4.48040E+01 0.00000E+00
 -1      1849 5.89500E+01 4.61030E+01 0.00000E+00
 -1      1850 6.04500E+01 4.61030E+01 0.00000E+00
 -1      1851 5.82000E+01 4.48040E+01 0.00000E+00
 -1      1852 6.19500E+01 4.61030E+01 0.00000E+00
 -1      1853 6.34500E+01 4.61030E+01 0.00000E+00
 -1      1854 6.12000E+01 4.48040E+01 0.00000E+00
 -1      1855 6.50250E+01 4.61030E+01 0.00000E+00
 -1      1856 6.66000E+01 4.61030E+01 0.00000E+00
 -1      1857 6.42750E+01 4.48040E+01 0.00000E+00
 -1      1858 6.81000E+01 4.61030E+01 0.00000E+00
 -1      1859 6.96000E+01 4.61030E+01 0.00000E+00
 -1      1860 6.73500E+01 4.48040E+01 0.00000E+00
 -1      1861 7.11000E+01 4.61030E+01 0.00000E+00
 -1      1862 7.26000E+01 4.61030E+01 0.00000E+00
 -1      1863 7.03500E+01 4.48040E+01 0.00000E+00
 -1      1864 7.41000E+01 4.61030E+01 0.00000E+00
 -1      1865 7.56000E+01 4.61030E+01 0.00000E+00
 -1      1866 7.33500E+01 4.48040E+01 0.00000E+00
 -1      1867 7.71000E+01 4.61030E+01 0.00000E+00
 -1      1868 7.86000E+01 4.61030E+01 0.00000E+00
 -1      1869 7.63500E+01 4.48040E+01 0.00000E+00
 -1      1870 8.01000E+01 4.61030E+01 0.00000E+00
 -1      1871 8.16000E+01 4.61030E+01 0.00000E+00
 -1      1872 7.93500E+01 4.48040E+01 0.00000E+00
 -1      1873 8.31000E+01 4.61030E+01 0.00000E+00
 -1      1874 8.46000E+01 4.61030E+01 0.00000E+00
 -1      1875 8.23500E+01 4.48040E+01 0.00000E+00
 -1      1876 8.61000E+01 4.61030E+01 0.00000E+00
 -1      1877 8.76000E+01 4.61030E+01 0.00000E+00
 -1      1878 8.53500E+01 4.48040E+01 0.00000E+00
 -1      1879 8.91000E+01 4.61030E+01 0.00000E+00
 -1      1880 9.06000E+01 4.61030E+01 0.00000E+00
 -1      1881 8.83500E+01 4.48040E+01 0.00000E+00
 -1      1882 9.21000E+01 4.61030E+01 0.00000E+00
 -1      1883 9.36000E+01 4.61030E+01 0.00000E+00
 -1      1884 9.13500E+01 4.48040E+01 0.00000E+00
 -1      1885 9.51000E+01 4.61030E+01 0.00000E+00
 -1      1886 9.66000E+01 4.61030E+01 0.00000E+00
 -1      1887 9.43500E+01 4.48040E+01 0.00000E+00
 -1      1888 9.81000E+01 4.61030E+01 0.00000E+00
 -1      1889 9.96000E+01 4.61030E+01 0.00000E+00
 -1      1890 9.73500E+01 4.48040E+01 0.00000E+00
 -1      1891 1.01100E+02 4.61030E+01 0.00000E+00
 -1      1892 1.02600E+02 4.61030E+01 0.00000E+00
 -1      1893 1.00350E+02 4.48040E+01 0.00000E+00
 -1      1894 1.04100E+02 4.61030E+01 0.00000E+00
 -1      1895 1.05600E+02 4.61030E+01 0.00000E+00
 -1      1896 1.03350E+02 4.48040E+01 0.00000E+00
 -1      1897 1.07175E+02 4.61030E+01 0.00000E+00
 -1      1898 1.08750E+02 4.61030E+01 0.00000E+00
 -1      1899 1.06425E+02 4.48040E+01 0.00000E+00
 -1      1900 1.10250E+02 4.61030E+01 0.00000E+00
 -1      1901 1.11750E+02 4.61030E+01 0.00000E+00
 -1      1902 1.09500E+02 4.48040E+01 0.00000E+00
 -1      1903 1.13250E+02 4.61030E+01 0.00000E+00
 -1      1904 1.14750E+02 4.61030E+01 0.00000E+00
 -1      1905 1.12500E+02 4.48040E+01 0.00000E+00
 -1      1906 1.16250E+02 4.61030E+01 0.00000E+00
 -1      1907 1.17750E+02 4.61030E+01 0.00000E+00
 -1      1908 1.15500E+02 4.48040E+01 0.00000E+00
 -1      1909 1.19250E+02 4.61030E+01 0.00000E+00
 -1      1910 1.20750E+02 4.61030E+01 0.00000E+00
 -1      1911 1.18500E+02 4.48040E+01 0.00000E+00
 -1      1912 1.22250E+02 4.61030E+01 0.00000E+00
 -1      1913 1.23750E+02 4.61030E+01 0.00000E+00
 -1      1914 1.21500E+02 4.48040E+01 0.00000E+00
 -1      1915 1.25250E+02 4.61030E+01 0.00000E+00
 -1      1916 1.26750E+02 4.61030E+01 0.00000E+00
 -1      1917 1.24500E+02 4.48040E+01 0.00000E+00
 -1      1918 1.28250E+02 4.61030E+01 0.00000E+00
 -1      1919 1.29750E+02 4.61030E+01 0.00000E+00
 -1      1920 1.27500E+02 4.48040E+01 0.00000E+00
 -1      1921 1.31250E+02 4.61030E+01 0.00000E+00
 -1      1922 1.32750E+02 4.61030E+01 0.00000E+00
 -1      1923 1.30500E+02 4.48040E+01 0.00000E+00
 -1      1924 1.34250E+02 4.61030E+01 0.00000E+00
 -1      1925 1.35750E+02 4.61030E+01 0.00000E+00
 -1      1926 1.33500E+02 4.48040E+01 0.00000E+00
 -1      1927 1.37250E+02 4.61030E+01 0.00000E+00
 -1      1928 1.38750E+02 4.61030E+01 0.00000E+00
 -1      1929 1.36500E+02 4.48040E+01 0.00000E+00
 -1      1930 1.40250E+02 4.61030E+01 0.00000E+00
 -1      1931 1.41750E+02 4.61030E+01 0.00000E+00
 -1      1932 1.39500E+02 4.48040E+01 0.00000E+00
 -1      1933 1.43250E+02 4.61030E+01 0.00000E+00
 -1      1934 1.44750E+02 4.61030E+01 0.00000E+00
 -1      1935 1.42500E+02 4.48040E+01 0.00000E+00
 -1      1936 1.46538E+02 4.61825E+01 0.00000E+00
 -1      1937 1.41240E+01 3.48650E+00 0.00000E+00
 -1      1938 1.26240E+01 3.48650E+00 0.00000E+00
 -1      1939 1.71240E+01 3.48650E+00 0.00000E+00
 -1      1940 1.56240E+01 3.48650E+00 0.00000E+00
 -1      1941 1.48740E+01 4.78550E+00 0.00000E+00
 -1      1942 2.01240E+01 3.48650E+00 0.00000E+00
 -1      1943 1.86240E+01 3.48650E+00 0.00000E+00
 -1      1944 1.78740E+01 4.78550E+00 0.00000E+00
 -1      1945 2.31240E+01 3.48650E+00 0.00000E+00
 -1      1946 2.16240E+01 3.48650E+00 0.00000E+00
 -1      1947 2.08740E+01 4.78550E+00 0.00000E+00
 -1      1948 2.61240E+01 3.48650E+00 0.00000E+00
 -1      1949 2.46240E+01 3.48650E+00 0.00000E+00
 -1      1950 2.38740E+01 4.78550E+00 0.00000E+00
 -1      1951 2.91240E+01 3.48650E+00 0.00000E+00
 -1      1952 2.76240E+01 3.48650E+00 0.00000E+00
 -1      1953 2.68740E+01 4.78550E+00 0.00000E+00
 -1      1954 3.21240E+01 3.48650E+00 0.00000E+00
 -1      1955 3.06240E+01 3.48650E+00 0.00000E+00
 -1      1956 2.98740E+01 4.78550E+00 0.00000E+00
 -1      1957 3.51240E+01 3.48650E+00 0.00000E+00
 -1      1958 3.36240E+01 3.48650E+00 0.00000E+00
 -1      1959 3.28740E+01 4.78550E+00 0.00000E+00
 -1      1960 3.81240E+01 3.48650E+00 0.00000E+00
 -1      1961 3.66240E+01 3.48650E+00 0.00000E+00
 -1      1962 3.58740E+01 4.78550E+00 0.00000E+00
 -1      1963 4.11240E+01 3.48650E+00 0.00000E+00
 -1      1964 3.96240E+01 3.48650E+00 0.00000E+00
 -1      1965 3.88740E+01 4.78550E+00 0.00000E+00
 -1      1966 4.41240E+01 3.48650E+00 0.00000E+00
 -1      1967 4.26240E+01 3.48650E+00 0.00000E+00
 -1      1968 4.18740E+01 4.78550E+00 0.00000E+00
 -1      1969 4.71240E+01 3.48650E+00 0.00000E+00
 -1      1970 4.56240E+01 3.48650E+00 0.00000E+00
 -1      1971 4.48740E+01 4.78550E+00 0.00000E+00
 -1      1972 5.01240E+01 3.48650E+00 0.00000E+00
 -1      1973 4.86240E+01 3.48650E+00 0.00000E+00
 -1      1974 4.78740E+01 4.78550E+00 0.00000E+00
 -1      1975 5.31240E+01 3.48650E+00 0.00000E+00
 -1      1976 5.16240E+01 3.48650E+00 0.00000E+00
 -1      1977 5.08740E+01 4.78550E+00 0.00000E+00
 -1      1978 5.61240E+01 3.48650E+00 0.00000E+00
 -1      1979 5.46240E+01 3.48650E+00 0.00000E+00
 -1      1980 5.38740E+01 4.78550E+00 0.00000E+00
 -1      1981 5.91240E+01 3.48650E+00 0.00000E+00
 -1      1982 5.76240E+01 3.48650E+00 0.00000E+00
 -1      1983 5.68740E+01 4.78550E+00 0.00000E+00
 -1      1984 6.21240E+01 3.48650E+00 0.00000E+00
 -1      1985 6.06240E+01 3.48650E+00 0.00000E+00
 -1      1986 5.98740E+01 4.78550E+00 0.00000E+00
 -1      1987 6.51240E+01 3.48650E+00 0.00000E+00
 -1      1988 6.36240E+01 3.48650E+00 0.00000E+00
 -1      1989 6.28740E+01 4.78550E+00 0.00000E+00
 -1      1990 6.81240E+01 3.48650E+00 0.00000E+00
 -1      1991 6.66240E+01 3.48650E+00 0.00000E+00
 -1      1992 6.58740E+01 4.78550E+00 0.00000E+00
 -1      1993 7.11240E+01 3.48650E+00 0.00000E+00
 -1      1994 6.96240E+01 3.48650E+00 0.00000E+00
 -1      1995 6.88740E+01 4.78550E+00 0.00000E+00
 -1      1996 7.41240E+01 3.48650E+00 0.00000E+00
 -1      1997 7.26240E+01 3.48650E+00 0.00000E+00
 -1      1998 7.18740E+01 4.78550E+00 0.00000E+00
 -1      1999 7.71240E+01 3.48650E+00 0.00000E+00
 -1      2000 7.56240E+01 3.48650E+00 0.00000E+00
 -1      2001 7.48740E+01 4.78550E+00 0.00000E+00
 -1      2002 8.01240E+01 3.48650E+00 0.00000E+00
 -1      2003 7.86240E+01 3.48650E+00 0.00000E+00
 -1      2004 7.78740E+01 4.78550E+00 0.00000E+00
 -1      2005 8.31240E+01 3.48650E+00 0.00000E+00
 -1      2006 8.16240E+01 3.48650E+00 0.00000E+00
 -1      2007 8.08740E+01 4.78550E+00 0.00000E+00
 -1      2008 8.61240E+01 3.48650E+00 0.00000E+00
 -1      2009 8.46240E+01 3.48650E+00 0.00000E+00
 -1      2010 8.38740E+01 4.78550E+00 0.00000E+00
 -1      2011 8.91240E+01 3.48650E+00 0.00000E+00
 -1      2012 8.76240E+01 3.48650E+00 0.00000E+00
 -1      2013 8.68740E+01 4.78550E+00 0.00000E+00
 -1      2014 9.21240E+01 3.48650E+00 0.00000E+00
 -1      2015 9.06240E+01 3.48650E+00 0.00000E+00
 -1      2016 8.98740E+01 4.78550E+00 0.00000E+00
 -1      2017 9.51240E+01 3.48650E+00 0.00000E+00
 -1      2018 9.36240E+01 3.48650E+00 0.00000E+00
 -1      2019 9.28740E+01 4.78550E+00 0.00000E+00
 -1      2020 9.81240E+01 3.48650E+00 0.00000E+00
 -1      2021 9.66240E+01 3.48650E+00 0.00000E+00
 -1      2022 9.58740E+01 4.78550E+00 0.00000E+00
 -1      2023 1.01124E+02 3.48650E+00 0.00000E+00
 -1      2024 9.96240E+01 3.48650E+00 0.00000E+00
 -1      2025 9.88740E+01 4.78550E+00 0.00000E+00
 -1      2026 1.04124E+02 3.48650E+00 0.00000E+00
 -1      2027 1.02624E+02 3.48650E+00 0.00000E+00
 -1      2028 1.01874E+02 4.78550E+00 0.00000E+00
 -1      2029 1.07124E+02 3.48650E+00 0.00000E+00
 -1      2030 1.05624E+02 3.48650E+00 0.00000E+00
 -1      2031 1.04874E+02 4.78550E+00 0.00000E+00
 -1      2032 1.10124E+02 3.48650E+00 0.00000E+00
 -1      2033 1.08624E+02 3.48650E+00 0.00000E+00
 -1      2034 1.07874E+02 4.78550E+00 0.00000E+00
 -1      2035 1.13124E+02 3.48650E+00 0.00000E+00
 -1      2036 1.11624E+02 3.48650E+00 0.00000E+00
 -1      2037 1.10874E+02 4.78550E+00 0.00000E+00
 -1      2038 1.16124E+02 3.48650E+00 0.00000E+00
 -1      2039 1.14624E+02 3.48650E+00 0.00000E+00
 -1      2040 1.13874E+02 4.78550E+00 0.00000E+00
 -1      2041 1.19124E+02 3.48650E+00 0.00000E+00
 -1      2042 1.17624E+02 3.48650E+00 0.00000E+00
 -1      2043 1.16874E+02 4.78550E+00 0.00000E+00
 -1      2044 1.22124E+02 3.48650E+00 0.00000E+00
 -1      2045 1.20624E+02 3.48650E+00 0.00000E+00
 -1      2046 1.19874E+02 4.78550E+00 0.00000E+00
 -1      2047 1.25124E+02 3.48650E+00 0.00000E+00
 -1      2048 1.23624E+02 3.48650E+00 0.00000E+00
 -1      2049 1.22874E+02 4.78550E+00 0.00000E+00
 -1      2050 1.28124E+02 3.48650E+00 0.00000E+00
 -1      2051 1.26624E+02 3.48650E+00 0.00000E+00
 -1      2052 1.25874E+02 4.78550E+00 0.00000E+00
 -1      2053 1.31124E+02 3.48650E+00 0.00000E+00
 -1      2054 1.29624E+02 3.48650E+00 0.00000E+00
 -1      2055 1.28874E+02 4.78550E+00 0.00000E+00
 -1      2056 1.34124E+02 3.48650E+00 0.00000E+00
 -1      2057 1.32624E+02 3.48650E+00 0.00000E+00
 -1      2058 1.31874E+02 4.78550E+00 0.00000E+00
 -1      2059 1.37124E+02 3.48650E+00 0.00000E+00
 -1      2060 1.35624E+02 3.48650E+00 0.00000E+00
 -1      2061 1.34874E+02 4.78550E+00 0.00000E+00
 -1      2062 1.40124E+02 3.48650E+00 0.00000E+00
 -1      2063 1.38624E+02 3.48650E+00 0.00000E+00
 -1      2064 1.37874E+02 4.78550E+00 0.00000E+00
 -1      2065 1.43124E+02 3.48650E+00 0.00000E+00
 -1      2066 1.41624E+02 3.48650E+00 0.00000E+00
 -1      2067 1.40874E+02 4.78550E+00 0.00000E+00
 -1      2068 1.45881E+02 3.39637E+00 0.00000E+00
 -1      2069 1.44381E+02 3.39637E+00 0.00000E+00
 -1      2070 1.43631E+02 4.69537E+00 0.00000E+00
 -1      2071 1.46145E+02 4.51512E+00 0.00000E+00
 -1      2072 1.46103E+02 1.25375E+01 0.00000E+00
 -1      2073 1.46103E+02 1.10625E+01 0.00000E+00
 -1      2074 1.46103E+02 9.58750E+00 0.00000E+00
 -1      2075 1.46103E+02 8.11250E+00 0.00000E+00
 -1      2076 1.44804E+02 1.03250E+01 0.00000E+00
 -1      2077 1.46145E+02 5.99013E+00 0.00000E+00
 -1      2078 1.46103E+02 1.54375E+01 0.00000E+00
 -1      2079 1.46103E+02 1.39875E+01 0.00000E+00
 -1      2080 1.44804E+02 1.32500E+01 0.00000E+00
 -1      2081 1.46103E+02 1.83875E+01 0.00000E+00
 -1      2082 1.46103E+02 1.69125E+01 0.00000E+00
 -1      2083 1.44804E+02 1.61750E+01 0.00000E+00
 -1      2084 1.46103E+02 2.13375E+01 0.00000E+00
 -1      2085 1.46103E+02 1.98625E+01 0.00000E+00
 -1      2086 1.44804E+02 1.91250E+01 0.00000E+00
 -1      2087 1.46103E+02 2.42875E+01 0.00000E+00
 -1      2088 1.46103E+02 2.28125E+01 0.00000E+00
 -1      2089 1.44804E+02 2.20750E+01 0.00000E+00
 -1      2090 1.46103E+02 2.72375E+01 0.00000E+00
 -1      2091 1.46103E+02 2.57625E+01 0.00000E+00
 -1      2092 1.44804E+02 2.50250E+01 0.00000E+00
 -1      2093 1.46103E+02 3.01875E+01 0.00000E+00
 -1      2094 1.46103E+02 2.87125E+01 0.00000E+00
 -1      2095 1.44804E+02 2.79750E+01 0.00000E+00
 -1      2096 1.46103E+02 3.30875E+01 0.00000E+00
 -1      2097 1.46103E+02 3.16375E+01 0.00000E+00
 -1      2098 1.44804E+02 3.09000E+01 0.00000E+00
 -1      2099 1.46103E+02 3.60375E+01 0.00000E+00
 -1      2100 1.46103E+02 3.45625E+01 0.00000E+00
 -1      2101 1.44804E+02 3.38250E+01 0.00000E+00
 -1      2102 1.46103E+02 3.89875E+01 0.00000E+00
 -1      2103 1.46103E+02 3.75125E+01 0.00000E+00
 -1      2104 1.44804E+02 3.67750E+01 0.00000E+00
 -1      2105 1.46103E+02 4.19375E+01 0.00000E+00
 -1      2106 1.46103E+02 4.04625E+01 0.00000E+00
 -1      2107 1.44804E+02 3.97250E+01 0.00000E+00
 -1      2108 1.14143E+01 3.29169E+00 0.00000E+00
 -1      2109 9.91425E+00 3.29169E+00 0.00000E+00
 -1      2110 9.74475E+00 4.20106E+00 0.00000E+00
 -1      2111 1.21643E+01 4.59069E+00 0.00000E+00
 -1      2112 4.66800E+01 2.88314E+01 0.00000E+00
 -1      2113 4.70140E+01 2.96318E+01 0.00000E+00
 -1      2114 4.42943E+01 2.60596E+01 0.00000E+00
 -1      2115 4.49236E+01 2.66032E+01 0.00000E+00
 -1      2116 4.78775E+01 3.25690E+01 0.00000E+00
 -1      2117 4.77280E+01 3.34496E+01 0.00000E+00
 -1      2118 4.56527E+01 2.72253E+01 0.00000E+00
 -1      2119 4.61971E+01 2.78752E+01 0.00000E+00
 -1      2120 3.89700E+00 3.74688E+01 0.00000E+00
 -1      2121 3.89700E+00 3.89437E+01 0.00000E+00
 -1      2122 5.19600E+00 3.96813E+01 0.00000E+00
 -1      2123 5.19600E+00 3.67438E+01 0.00000E+00
 -1      2124 4.28516E+01 2.49759E+01 0.00000E+00
 -1      2125 4.35759E+01 2.54276E+01 0.00000E+00
 -1      2126 4.10462E+01 2.41856E+01 0.00000E+00
 -1      2127 4.19133E+01 2.44858E+01 0.00000E+00
 -1      2128 3.89338E+01 2.41376E+01 0.00000E+00
 -1      2129 3.98681E+01 2.41234E+01 0.00000E+00
 -1      2130 3.70838E+01 2.40866E+01 0.00000E+00
 -1      2131 3.80088E+01 2.41121E+01 0.00000E+00
 -1      2132 3.84655E+01 2.34151E+01 0.00000E+00
 -1      2133 3.50708E+01 2.48085E+01 0.00000E+00
 -1      2134 3.58720E+01 2.43650E+01 0.00000E+00
 -1      2135 3.36076E+01 2.59011E+01 0.00000E+00
 -1      2136 3.42979E+01 2.53982E+01 0.00000E+00
 -1      2137 3.23066E+01 2.71032E+01 0.00000E+00
 -1      2138 3.28917E+01 2.65141E+01 0.00000E+00
 -1      2139 3.10487E+01 2.84191E+01 0.00000E+00
 -1      2140 3.15927E+01 2.77246E+01 0.00000E+00
 -1      2141 3.02835E+01 3.03337E+01 0.00000E+00
 -1      2142 3.05211E+01 2.94701E+01 0.00000E+00
 -1      2143 3.00408E+01 3.21201E+01 0.00000E+00
 -1      2144 3.01659E+01 3.12857E+01 0.00000E+00
 -1      2145 2.98520E+01 3.39474E+01 0.00000E+00
 -1      2146 2.98754E+01 3.30619E+01 0.00000E+00
 -1      2147 3.03665E+01 3.59251E+01 0.00000E+00
 -1      2148 3.00498E+01 3.51003E+01 0.00000E+00
 -1      2149 3.10006E+01 3.76156E+01 0.00000E+00
 -1      2150 3.06835E+01 3.67703E+01 0.00000E+00
 -1      2151 2.98028E+01 3.66353E+01 0.00000E+00
 -1      2152 3.24216E+01 3.91841E+01 0.00000E+00
 -1      2153 3.17595E+01 3.85375E+01 0.00000E+00
 -1      2154 3.39319E+01 4.03174E+01 0.00000E+00
 -1      2155 3.32055E+01 3.98261E+01 0.00000E+00
 -1      2156 3.54705E+01 4.13167E+01 0.00000E+00
 -1      2157 3.46922E+01 4.09147E+01 0.00000E+00
 -1      2158 3.73525E+01 4.18271E+01 0.00000E+00
 -1      2159 3.64902E+01 4.16393E+01 0.00000E+00
 -1      2160 3.92310E+01 4.18450E+01 0.00000E+00
 -1      2161 3.83883E+01 4.18785E+01 0.00000E+00
 -1      2162 4.08659E+01 4.16873E+01 0.00000E+00
 -1      2163 4.00485E+01 4.17661E+01 0.00000E+00
 -1      2164 3.96545E+01 4.24724E+01 0.00000E+00
 -1      2165 4.26813E+01 4.10464E+01 0.00000E+00
 -1      2166 4.19651E+01 4.14324E+01 0.00000E+00
 -1      2167 4.40073E+01 4.01558E+01 0.00000E+00
 -1      2168 4.33443E+01 4.06011E+01 0.00000E+00
 -1      2169 4.33334E+01 4.14383E+01 0.00000E+00
 -1      2170 4.53612E+01 3.89517E+01 0.00000E+00
 -1      2171 4.47910E+01 3.95216E+01 0.00000E+00
 -1      2172 4.64324E+01 3.75866E+01 0.00000E+00
 -1      2173 4.59892E+01 3.82519E+01 0.00000E+00
 -1      2174 4.71544E+01 3.60141E+01 0.00000E+00
 -1      2175 4.68056E+01 3.67543E+01 0.00000E+00
 -1      2176 4.76128E+01 3.42463E+01 0.00000E+00
 -1      2177 4.74975E+01 3.50430E+01 0.00000E+00
 -1      2178 4.83678E+01 3.39215E+01 0.00000E+00
 -1      2179 4.73779E+01 3.04895E+01 0.00000E+00
 -1      2180 4.77418E+01 3.13473E+01 0.00000E+00
 -1      2181 4.78476E+01 2.98236E+01 0.00000E+00
 -1      2182 1.45788E+02 4.48835E+01 0.00000E+00
 -1      2183 4.57890E+01 2.64313E+01 0.00000E+00
 -1      2184 6.42300E+00 4.57510E+01 0.00000E+00
 -1      2185 4.70009E+01 2.80096E+01 0.00000E+00
 -1      2186 4.43416E+01 2.51772E+01 0.00000E+00
 -1      2187 7.17300E+00 4.44520E+01 0.00000E+00
 -1      2188 1.44846E+02 6.72762E+00 0.00000E+00
 -1      2189 4.83473E+01 3.19031E+01 0.00000E+00
 -1      2190 4.89527E+01 3.24589E+01 0.00000E+00
 -1      2191 4.88170E+01 3.12372E+01 0.00000E+00
 -1      2192 1.45701E+02 4.37395E+01 0.00000E+00
 -1      2193 1.44402E+02 4.30020E+01 0.00000E+00
 -1      2194 4.79094E+01 3.56893E+01 0.00000E+00
 -1      2195 4.71931E+01 3.74927E+01 0.00000E+00
 -1      2196 4.47802E+01 4.03588E+01 0.00000E+00
 -1      2197 4.15712E+01 4.21386E+01 0.00000E+00
 -1      2198 3.78014E+01 4.24997E+01 0.00000E+00
 -1      2199 3.57459E+01 4.21258E+01 0.00000E+00
 -1      2200 3.39659E+01 4.12059E+01 0.00000E+00
 -1      2201 3.08788E+01 3.84025E+01 0.00000E+00
 -1      2202 2.92880E+01 3.46371E+01 0.00000E+00
 -1      2203 2.92556E+01 3.25424E+01 0.00000E+00
 -1      2204 2.95386E+01 3.06486E+01 0.00000E+00
 -1      2205 3.01839E+01 2.86457E+01 0.00000E+00
 -1      2206 3.14254E+01 2.69733E+01 0.00000E+00
 -1      2207 3.28552E+01 2.57389E+01 0.00000E+00
 -1      2208 3.63287E+01 2.36680E+01 0.00000E+00
 -1      2209 3.67854E+01 2.29710E+01 0.00000E+00
 -1      2210 3.55737E+01 2.32494E+01 0.00000E+00
 -1      2211 4.26849E+01 2.40550E+01 0.00000E+00
 -1      2212 4.05686E+01 2.35028E+01 0.00000E+00
 -1      2213 3.43440E+01 2.45361E+01 0.00000E+00
 -1      2214 3.24217E+01 3.99665E+01 0.00000E+00
 -1      2215 4.61919E+01 3.90248E+01 0.00000E+00
 -1      2216 6.49500E+00 3.01125E+01 0.00000E+00
 -1      2217 6.49500E+00 3.15875E+01 0.00000E+00
 -1      2218 6.49500E+00 3.30625E+01 0.00000E+00
 -1      2219 6.49500E+00 3.45375E+01 0.00000E+00
 -1      2220 7.79400E+00 3.23250E+01 0.00000E+00
 -1      2221 6.49500E+00 2.42125E+01 0.00000E+00
 -1      2222 6.49500E+00 2.56875E+01 0.00000E+00
 -1      2223 6.49500E+00 2.12625E+01 0.00000E+00
 -1      2224 6.49500E+00 2.27375E+01 0.00000E+00
 -1      2225 7.79400E+00 2.34750E+01 0.00000E+00
 -1      2226 6.49500E+00 1.83625E+01 0.00000E+00
 -1      2227 6.49500E+00 1.98125E+01 0.00000E+00
 -1      2228 7.79400E+00 2.05500E+01 0.00000E+00
 -1      2229 6.49500E+00 1.54125E+01 0.00000E+00
 -1      2230 6.49500E+00 1.68875E+01 0.00000E+00
 -1      2231 7.79400E+00 1.76250E+01 0.00000E+00
 -1      2232 6.49500E+00 1.24625E+01 0.00000E+00
 -1      2233 6.49500E+00 1.39375E+01 0.00000E+00
 -1      2234 7.79400E+00 1.46750E+01 0.00000E+00
 -1      2235 6.49500E+00 9.51250E+00 0.00000E+00
 -1      2236 6.49500E+00 1.09875E+01 0.00000E+00
 -1      2237 7.79400E+00 1.17250E+01 0.00000E+00
 -1      2238 6.49500E+00 6.56250E+00 0.00000E+00
 -1      2239 6.49500E+00 8.03750E+00 0.00000E+00
 -1      2240 7.79400E+00 8.77500E+00 0.00000E+00
 -1      2241 6.84975E+00 4.82969E+00 0.00000E+00
 -1      2242 6.68025E+00 5.73906E+00 0.00000E+00
 -1      2243 7.97925E+00 6.47656E+00 0.00000E+00
 -1      2244 8.34975E+00 4.82969E+00 0.00000E+00
 -1      2245 9.90000E+00 4.35050E+01 0.00000E+00
 -1      2246 1.14000E+01 4.35050E+01 0.00000E+00
 -1      2247 4.74502E+01 2.71827E+01 0.00000E+00
 -1      2248 4.79330E+01 2.81390E+01 0.00000E+00
 -1      2249 4.59267E+01 2.55316E+01 0.00000E+00
 -1      2250 4.66558E+01 2.61537E+01 0.00000E+00
 -1      2251 1.29000E+01 4.35050E+01 0.00000E+00
 -1      2252 1.44000E+01 4.35050E+01 0.00000E+00
 -1      2253 1.21500E+01 4.22060E+01 0.00000E+00
 -1      2254 1.59000E+01 4.35050E+01 0.00000E+00
 -1      2255 1.74000E+01 4.35050E+01 0.00000E+00
 -1      2256 1.51500E+01 4.22060E+01 0.00000E+00
 -1      2257 1.89000E+01 4.35050E+01 0.00000E+00
 -1      2258 2.04000E+01 4.35050E+01 0.00000E+00
 -1      2259 1.81500E+01 4.22060E+01 0.00000E+00
 -1      2260 2.19000E+01 4.35050E+01 0.00000E+00
 -1      2261 2.34000E+01 4.35050E+01 0.00000E+00
 -1      2262 2.11500E+01 4.22060E+01 0.00000E+00
 -1      2263 2.49000E+01 4.35050E+01 0.00000E+00
 -1      2264 2.64000E+01 4.35050E+01 0.00000E+00
 -1      2265 2.41500E+01 4.22060E+01 0.00000E+00
 -1      2266 2.79000E+01 4.35050E+01 0.00000E+00
 -1      2267 2.94000E+01 4.35050E+01 0.00000E+00
 -1      2268 2.71500E+01 4.22060E+01 0.00000E+00
 -1      2269 3.95860E+01 4.35988E+01 0.00000E+00
 -1      2270 4.10860E+01 4.35988E+01 0.00000E+00
 -1      2271 4.54500E+01 4.37789E+01 0.00000E+00
 -1      2272 4.69500E+01 4.37789E+01 0.00000E+00
 -1      2273 4.84500E+01 4.35275E+01 0.00000E+00
 -1      2274 4.99500E+01 4.35275E+01 0.00000E+00
 -1      2275 5.14500E+01 4.35275E+01 0.00000E+00
 -1      2276 5.29500E+01 4.35275E+01 0.00000E+00
 -1      2277 5.07000E+01 4.22510E+01 0.00000E+00
 -1      2278 5.44500E+01 4.35275E+01 0.00000E+00
 -1      2279 5.59500E+01 4.35275E+01 0.00000E+00
 -1      2280 5.37000E+01 4.22510E+01 0.00000E+00
 -1      2281 5.74500E+01 4.35275E+01 0.00000E+00
 -1      2282 5.89500E+01 4.35275E+01 0.00000E+00
 -1      2283 5.67000E+01 4.22510E+01 0.00000E+00
 -1      2284 6.04500E+01 4.35275E+01 0.00000E+00
 -1      2285 6.19500E+01 4.35275E+01 0.00000E+00
 -1      2286 5.97000E+01 4.22510E+01 0.00000E+00
 -1      2287 6.35250E+01 4.35275E+01 0.00000E+00
 -1      2288 6.51000E+01 4.35275E+01 0.00000E+00
 -1      2289 6.27750E+01 4.22510E+01 0.00000E+00
 -1      2290 6.66000E+01 4.35275E+01 0.00000E+00
 -1      2291 6.81000E+01 4.35275E+01 0.00000E+00
 -1      2292 6.58500E+01 4.22510E+01 0.00000E+00
 -1      2293 6.96000E+01 4.35275E+01 0.00000E+00
 -1      2294 7.11000E+01 4.35275E+01 0.00000E+00
 -1      2295 6.88500E+01 4.22510E+01 0.00000E+00
 -1      2296 7.26000E+01 4.35275E+01 0.00000E+00
 -1      2297 7.41000E+01 4.35275E+01 0.00000E+00
 -1      2298 7.18500E+01 4.22510E+01 0.00000E+00
 -1      2299 7.56000E+01 4.35275E+01 0.00000E+00
 -1      2300 7.71000E+01 4.35275E+01 0.00000E+00
 -1      2301 7.48500E+01 4.22510E+01 0.00000E+00
 -1      2302 7.86000E+01 4.35275E+01 0.00000E+00
 -1      2303 8.01000E+01 4.35275E+01 0.00000E+00
 -1      2304 7.78500E+01 4.22510E+01 0.00000E+00
 -1      2305 8.16000E+01 4.35275E+01 0.00000E+00
 -1      2306 8.31000E+01 4.35275E+01 0.00000E+00
 -1      2307 8.08500E+01 4.22510E+01 0.00000E+00
 -1      2308 8.46000E+01 4.35275E+01 0.00000E+00
 -1      2309 8.61000E+01 4.35275E+01 0.00000E+00
 -1      2310 8.38500E+01 4.22510E+01 0.00000E+00
 -1      2311 8.76000E+01 4.35275E+01 0.00000E+00
 -1      2312 8.91000E+01 4.35275E+01 0.00000E+00
 -1      2313 8.68500E+01 4.22510E+01 0.00000E+00
 -1      2314 9.06000E+01 4.35275E+01 0.00000E+00
 -1      2315 9.21000E+01 4.35275E+01 0.00000E+00
 -1      2316 8.98500E+01 4.22510E+01 0.00000E+00
 -1      2317 9.36000E+01 4.35275E+01 0.00000E+00
 -1      2318 9.51000E+01 4.35275E+01 0.00000E+00
 -1      2319 9.28500E+01 4.22510E+01 0.00000E+00
 -1      2320 9.66000E+01 4.35275E+01 0.00000E+00
 -1      2321 9.81000E+01 4.35275E+01 0.00000E+00
 -1      2322 9.58500E+01 4.22510E+01 0.00000E+00
 -1      2323 9.96000E+01 4.35275E+01 0.00000E+00
 -1      2324 1.01100E+02 4.35275E+01 0.00000E+00
 -1      2325 9.88500E+01 4.22510E+01 0.00000E+00
 -1      2326 1.02600E+02 4.35275E+01 0.00000E+00
 -1      2327 1.04100E+02 4.35275E+01 0.00000E+00
 -1      2328 1.01850E+02 4.22510E+01 0.00000E+00
 -1      2329 1.05675E+02 4.35275E+01 0.00000E+00
 -1      2330 1.07250E+02 4.35275E+01 0.00000E+00
 -1      2331 1.04925E+02 4.22510E+01 0.00000E+00
 -1      2332 1.08750E+02 4.35275E+01 0.00000E+00
 -1      2333 1.10250E+02 4.35275E+01 0.00000E+00
 -1      2334 1.08000E+02 4.22510E+01 0.00000E+00
 -1      2335 1.11750E+02 4.35275E+01 0.00000E+00
 -1      2336 1.13250E+02 4.35275E+01 0.00000E+00
 -1      2337 1.11000E+02 4.22510E+01 0.00000E+00
 -1      2338 1.14750E+02 4.35275E+01 0.00000E+00
 -1      2339 1.16250E+02 4.35275E+01 0.00000E+00
 -1      2340 1.14000E+02 4.22510E+01 0.00000E+00
 -1      2341 1.17750E+02 4.35275E+01 0.00000E+00
 -1      2342 1.19250E+02 4.35275E+01 0.00000E+00
 -1      2343 1.17000E+02 4.22510E+01 0.00000E+00
 -1      2344 1.20750E+02 4.35275E+01 0.00000E+00
 -1      2345 1.22250E+02 4.35275E+01 0.00000E+00
 -1      2346 1.20000E+02 4.22510E+01 0.00000E+00
 -1      2347 1.23750E+02 4.35275E+01 0.00000E+00
 -1      2348 1.25250E+02 4.35275E+01 0.00000E+00
 -1      2349 1.23000E+02 4.22510E+01 0.00000E+00
 -1      2350 1.26750E+02 4.35275E+01 0.00000E+00
 -1      2351 1.28250E+02 4.35275E+01 0.00000E+00
 -1      2352 1.26000E+02 4.22510E+01 0.00000E+00
 -1      2353 1.29750E+02 4.35275E+01 0.00000E+00
 -1      2354 1.31250E+02 4.35275E+01 0.00000E+00
 -1      2355 1.29000E+02 4.22510E+01 0.00000E+00
 -1      2356 1.32750E+02 4.35275E+01 0.00000E+00
 -1      2357 1.34250E+02 4.35275E+01 0.00000E+00
 -1      2358 1.32000E+02 4.22510E+01 0.00000E+00
 -1      2359 1.35750E+02 4.35275E+01 0.00000E+00
 -1      2360 1.37250E+02 4.35275E+01 0.00000E+00
 -1      2361 1.35000E+02 4.22510E+01 0.00000E+00
 -1      2362 1.38750E+02 4.35275E+01 0.00000E+00
 -1      2363 1.40250E+02 4.35275E+01 0.00000E+00
 -1      2364 1.38000E+02 4.22510E+01 0.00000E+00
 -1      2365 1.41576E+02 4.32648E+01 0.00000E+00
 -1      2366 1.43076E+02 4.32648E+01 0.00000E+00
 -1      2367 1.43478E+02 4.14628E+01 0.00000E+00
 -1      2368 1.40826E+02 4.19883E+01 0.00000E+00
 -1      2369 2.16240E+01 6.08450E+00 0.00000E+00
 -1      2370 2.01240E+01 6.08450E+00 0.00000E+00
 -1      2371 1.86240E+01 6.08450E+00 0.00000E+00
 -1      2372 1.71240E+01 6.08450E+00 0.00000E+00
 -1      2373 1.93740E+01 7.38350E+00 0.00000E+00
 -1      2374 1.56240E+01 6.08450E+00 0.00000E+00
 -1      2375 1.41240E+01 6.08450E+00 0.00000E+00
 -1      2376 1.63740E+01 7.38350E+00 0.00000E+00
 -1      2377 2.46240E+01 6.08450E+00 0.00000E+00
 -1      2378 2.31240E+01 6.08450E+00 0.00000E+00
 -1      2379 2.23740E+01 7.38350E+00 0.00000E+00
 -1      2380 2.76240E+01 6.08450E+00 0.00000E+00
 -1      2381 2.61240E+01 6.08450E+00 0.00000E+00
 -1      2382 2.53740E+01 7.38350E+00 0.00000E+00
 -1      2383 3.06240E+01 6.08450E+00 0.00000E+00
 -1      2384 2.91240E+01 6.08450E+00 0.00000E+00
 -1      2385 2.83740E+01 7.38350E+00 0.00000E+00
 -1      2386 3.36240E+01 6.08450E+00 0.00000E+00
 -1      2387 3.21240E+01 6.08450E+00 0.00000E+00
 -1      2388 3.13740E+01 7.38350E+00 0.00000E+00
 -1      2389 3.66240E+01 6.08450E+00 0.00000E+00
 -1      2390 3.51240E+01 6.08450E+00 0.00000E+00
 -1      2391 3.43740E+01 7.38350E+00 0.00000E+00
 -1      2392 3.96240E+01 6.08450E+00 0.00000E+00
 -1      2393 3.81240E+01 6.08450E+00 0.00000E+00
 -1      2394 3.73740E+01 7.38350E+00 0.00000E+00
 -1      2395 4.26240E+01 6.08450E+00 0.00000E+00
 -1      2396 4.11240E+01 6.08450E+00 0.00000E+00
 -1      2397 4.03740E+01 7.38350E+00 0.00000E+00
 -1      2398 4.56240E+01 6.08450E+00 0.00000E+00
 -1      2399 4.41240E+01 6.08450E+00 0.00000E+00
 -1      2400 4.33740E+01 7.38350E+00 0.00000E+00
 -1      2401 4.86240E+01 6.08450E+00 0.00000E+00
 -1      2402 4.71240E+01 6.08450E+00 0.00000E+00
 -1      2403 4.63740E+01 7.38350E+00 0.00000E+00
 -1      2404 5.16240E+01 6.08450E+00 0.00000E+00
 -1      2405 5.01240E+01 6.08450E+00 0.00000E+00
 -1      2406 4.93740E+01 7.38350E+00 0.00000E+00
 -1      2407 5.46240E+01 6.08450E+00 0.00000E+00
 -1      2408 5.31240E+01 6.08450E+00 0.00000E+00
 -1      2409 5.23740E+01 7.38350E+00 0.00000E+00
 -1      2410 5.76240E+01 6.08450E+00 0.00000E+00
 -1      2411 5.61240E+01 6.08450E+00 0.00000E+00
 -1      2412 5.53740E+01 7.38350E+00 0.00000E+00
 -1      2413 6.06240E+01 6.08450E+00 0.00000E+00
 -1      2414 5.91240E+01 6.08450E+00 0.00000E+00
 -1      2415 5.83740E+01 7.38350E+00 0.00000E+00
 -1      2416 6.36240E+01 6.08450E+00 0.00000E+00
 -1      2417 6.21240E+01 6.08450E+00 0.00000E+00
 -1      2418 6.13740E+01 7.38350E+00 0.00000E+00
 -1      2419 6.66240E+01 6.08450E+00 0.00000E+00
 -1      2420 6.51240E+01 6.08450E+00 0.00000E+00
 -1      2421 6.43740E+01 7.38350E+00 0.00000E+00
 -1      2422 6.96240E+01 6.08450E+00 0.00000E+00
 -1      2423 6.81240E+01 6.08450E+00 0.00000E+00
 -1      2424 6.73740E+01 7.38350E+00 0.00000E+00
 -1      2425 7.26240E+01 6.08450E+00 0.00000E+00
 -1      2426 7.11240E+01 6.08450E+00 0.00000E+00
 -1      2427 7.03740E+01 7.38350E+00 0.00000E+00
 -1      2428 7.56240E+01 6.08450E+00 0.00000E+00
 -1      2429 7.41240E+01 6.08450E+00 0.00000E+00
 -1      2430 7.33740E+01 7.38350E+00 0.00000E+00
 -1      2431 7.86240E+01 6.08450E+00 0.00000E+00
 -1      2432 7.71240E+01 6.08450E+00 0.00000E+00
 -1      2433 7.63740E+01 7.38350E+00 0.00000E+00
 -1      2434 8.16240E+01 6.08450E+00 0.00000E+00
 -1      2435 8.01240E+01 6.08450E+00 0.00000E+00
 -1      2436 7.93740E+01 7.38350E+00 0.00000E+00
 -1      2437 8.46240E+01 6.08450E+00 0.00000E+00
 -1      2438 8.31240E+01 6.08450E+00 0.00000E+00
 -1      2439 8.23740E+01 7.38350E+00 0.00000E+00
 -1      2440 8.76240E+01 6.08450E+00 0.00000E+00
 -1      2441 8.61240E+01 6.08450E+00 0.00000E+00
 -1      2442 8.53740E+01 7.38350E+00 0.00000E+00
 -1      2443 9.06240E+01 6.08450E+00 0.00000E+00
 -1      2444 8.91240E+01 6.08450E+00 0.00000E+00
 -1      2445 8.83740E+01 7.38350E+00 0.00000E+00
 -1      2446 9.36240E+01 6.08450E+00 0.00000E+00
 -1      2447 9.21240E+01 6.08450E+00 0.00000E+00
 -1      2448 9.13740E+01 7.38350E+00 0.00000E+00
 -1      2449 9.66240E+01 6.08450E+00 0.00000E+00
 -1      2450 9.51240E+01 6.08450E+00 0.00000E+00
 -1      2451 9.43740E+01 7.38350E+00 0.00000E+00
 -1      2452 9.96240E+01 6.08450E+00 0.00000E+00
 -1      2453 9.81240E+01 6.08450E+00 0.00000E+00
 -1      2454 9.73740E+01 7.38350E+00 0.00000E+00
 -1      2455 1.02624E+02 6.08450E+00 0.00000E+00
 -1      2456 1.01124E+02 6.08450E+00 0.00000E+00
 -1      2457 1.00374E+02 7.38350E+00 0.00000E+00
 -1      2458 1.05624E+02 6.08450E+00 0.00000E+00
 -1      2459 1.04124E+02 6.08450E+00 0.00000E+00
 -1      2460 1.03374E+02 7.38350E+00 0.00000E+00
 -1      2461 1.08624E+02 6.08450E+00 0.00000E+00
 -1      2462 1.07124E+02 6.08450E+00 0.00000E+00
 -1      2463 1.06374E+02 7.38350E+00 0.00000E+00
 -1      2464 1.11624E+02 6.08450E+00 0.00000E+00
 -1      2465 1.10124E+02 6.08450E+00 0.00000E+00
 -1      2466 1.09374E+02 7.38350E+00 0.00000E+00
 -1      2467 1.14624E+02 6.08450E+00 0.00000E+00
 -1      2468 1.13124E+02 6.08450E+00 0.00000E+00
 -1      2469 1.12374E+02 7.38350E+00 0.00000E+00
 -1      2470 1.17624E+02 6.08450E+00 0.00000E+00
 -1      2471 1.16124E+02 6.08450E+00 0.00000E+00
 -1      2472 1.15374E+02 7.38350E+00 0.00000E+00
 -1      2473 1.20624E+02 6.08450E+00 0.00000E+00
 -1      2474 1.19124E+02 6.08450E+00 0.00000E+00
 -1      2475 1.18374E+02 7.38350E+00 0.00000E+00
 -1      2476 1.23624E+02 6.08450E+00 0.00000E+00
 -1      2477 1.22124E+02 6.08450E+00 0.00000E+00
 -1      2478 1.21374E+02 7.38350E+00 0.00000E+00
 -1      2479 1.26624E+02 6.08450E+00 0.00000E+00
 -1      2480 1.25124E+02 6.08450E+00 0.00000E+00
 -1      2481 1.24374E+02 7.38350E+00 0.00000E+00
 -1      2482 1.29624E+02 6.08450E+00 0.00000E+00
 -1      2483 1.28124E+02 6.08450E+00 0.00000E+00
 -1      2484 1.27374E+02 7.38350E+00 0.00000E+00
 -1      2485 1.32624E+02 6.08450E+00 0.00000E+00
 -1      2486 1.31124E+02 6.08450E+00 0.00000E+00
 -1      2487 1.30374E+02 7.38350E+00 0.00000E+00
 -1      2488 1.35624E+02 6.08450E+00 0.00000E+00
 -1      2489 1.34124E+02 6.08450E+00 0.00000E+00
 -1      2490 1.33374E+02 7.38350E+00 0.00000E+00
 -1      2491 1.38624E+02 6.08450E+00 0.00000E+00
 -1      2492 1.37124E+02 6.08450E+00 0.00000E+00
 -1      2493 1.36374E+02 7.38350E+00 0.00000E+00
 -1      2494 1.41624E+02 6.08450E+00 0.00000E+00
 -1      2495 1.40124E+02 6.08450E+00 0.00000E+00
 -1      2496 1.39374E+02 7.38350E+00 0.00000E+00
 -1      2497 1.43589E+02 6.81775E+00 0.00000E+00
 -1      2498 1.43505E+02 1.69125E+01 0.00000E+00
 -1      2499 1.43505E+02 1.54375E+01 0.00000E+00
 -1      2500 1.43505E+02 1.39875E+01 0.00000E+00
 -1      2501 1.43505E+02 1.25375E+01 0.00000E+00
 -1      2502 1.42206E+02 1.47250E+01 0.00000E+00
 -1      2503 1.43505E+02 1.10625E+01 0.00000E+00
 -1      2504 1.43505E+02 9.58750E+00 0.00000E+00
 -1      2505 1.42206E+02 1.18000E+01 0.00000E+00
 -1      2506 1.43505E+02 1.98625E+01 0.00000E+00
 -1      2507 1.43505E+02 1.83875E+01 0.00000E+00
 -1      2508 1.42206E+02 1.76500E+01 0.00000E+00
 -1      2509 1.43505E+02 2.28125E+01 0.00000E+00
 -1      2510 1.43505E+02 2.13375E+01 0.00000E+00
 -1      2511 1.42206E+02 2.06000E+01 0.00000E+00
 -1      2512 1.43505E+02 2.57625E+01 0.00000E+00
 -1      2513 1.43505E+02 2.42875E+01 0.00000E+00
 -1      2514 1.42206E+02 2.35500E+01 0.00000E+00
 -1      2515 1.43505E+02 2.87125E+01 0.00000E+00
 -1      2516 1.43505E+02 2.72375E+01 0.00000E+00
 -1      2517 1.42206E+02 2.65000E+01 0.00000E+00
 -1      2518 1.43505E+02 3.16125E+01 0.00000E+00
 -1      2519 1.43505E+02 3.01625E+01 0.00000E+00
 -1      2520 1.42206E+02 2.94250E+01 0.00000E+00
 -1      2521 1.43505E+02 3.45625E+01 0.00000E+00
 -1      2522 1.43505E+02 3.30875E+01 0.00000E+00
 -1      2523 1.42206E+02 3.23500E+01 0.00000E+00
 -1      2524 1.43505E+02 3.75125E+01 0.00000E+00
 -1      2525 1.43505E+02 3.60375E+01 0.00000E+00
 -1      2526 1.42206E+02 3.53000E+01 0.00000E+00
 -1      2527 1.43492E+02 4.02251E+01 0.00000E+00
 -1      2528 1.43492E+02 3.87501E+01 0.00000E+00
 -1      2529 1.42193E+02 3.80126E+01 0.00000E+00
 -1      2530 1.42165E+02 4.04879E+01 0.00000E+00
 -1      2531 4.87710E+01 3.54476E+01 0.00000E+00
 -1      2532 4.84279E+01 3.64187E+01 0.00000E+00
 -1      2533 6.55950E+00 4.28890E+01 0.00000E+00
 -1      2534 8.53650E+00 4.32410E+01 0.00000E+00
 -1      2535 9.28650E+00 4.19420E+01 0.00000E+00
 -1      2536 6.55950E+00 4.14140E+01 0.00000E+00
 -1      2537 4.44900E+01 2.42676E+01 0.00000E+00
 -1      2538 4.52083E+01 2.48996E+01 0.00000E+00
 -1      2539 4.60751E+01 2.46220E+01 0.00000E+00
 -1      2540 4.91083E+01 3.36220E+01 0.00000E+00
 -1      2541 4.89930E+01 3.44186E+01 0.00000E+00
 -1      2542 2.86242E+01 3.53444E+01 0.00000E+00
 -1      2543 2.84264E+01 3.41915E+01 0.00000E+00
 -1      2544 4.26128E+01 2.30499E+01 0.00000E+00
 -1      2545 4.35511E+01 2.35400E+01 0.00000E+00
 -1      2546 6.49500E+00 2.71625E+01 0.00000E+00
 -1      2547 6.49500E+00 2.86375E+01 0.00000E+00
 -1      2548 7.79400E+00 2.93750E+01 0.00000E+00
 -1      2549 7.79400E+00 2.64250E+01 0.00000E+00
 -1      2550 4.00247E+01 2.26153E+01 0.00000E+00
 -1      2551 4.12028E+01 2.26775E+01 0.00000E+00
 -1      2552 3.34628E+01 2.41825E+01 0.00000E+00
 -1      2553 3.42358E+01 2.35928E+01 0.00000E+00
 -1      2554 3.80243E+01 2.26289E+01 0.00000E+00
 -1      2555 3.89493E+01 2.26544E+01 0.00000E+00
 -1      2556 3.22702E+01 4.09510E+01 0.00000E+00
 -1      2557 3.14863E+01 4.03089E+01 0.00000E+00
 -1      2558 3.20311E+01 2.54086E+01 0.00000E+00
 -1      2559 3.27469E+01 2.47955E+01 0.00000E+00
 -1      2560 3.26387E+01 2.38522E+01 0.00000E+00
 -1      2561 3.05605E+01 2.67004E+01 0.00000E+00
 -1      2562 3.12744E+01 2.60790E+01 0.00000E+00
 -1      2563 2.90788E+01 2.87488E+01 0.00000E+00
 -1      2564 2.96064E+01 2.76979E+01 0.00000E+00
 -1      2565 2.86287E+01 3.10194E+01 0.00000E+00
 -1      2566 2.87463E+01 3.00675E+01 0.00000E+00
 -1      2567 2.82979E+01 3.29031E+01 0.00000E+00
 -1      2568 2.84633E+01 3.19612E+01 0.00000E+00
 -1      2569 2.76710E+01 3.13801E+01 0.00000E+00
 -1      2570 2.90015E+01 3.74180E+01 0.00000E+00
 -1      2571 2.86845E+01 3.65727E+01 0.00000E+00
 -1      2572 4.70818E+01 3.91917E+01 0.00000E+00
 -1      2573 4.64538E+01 3.98915E+01 0.00000E+00
 -1      2574 3.05962E+01 3.94085E+01 0.00000E+00
 -1      2575 2.98373E+01 3.84865E+01 0.00000E+00
 -1      2576 3.37909E+01 4.21456E+01 0.00000E+00
 -1      2577 3.30306E+01 4.15483E+01 0.00000E+00
 -1      2578 3.20952E+01 4.18907E+01 0.00000E+00
 -1      2579 3.63828E+01 4.36262E+01 0.00000E+00
 -1      2580 3.53631E+01 4.33036E+01 0.00000E+00
 -1      2581 4.41197E+01 4.18928E+01 0.00000E+00
 -1      2582 4.34567E+01 4.23381E+01 0.00000E+00
 -1      2583 4.56786E+01 4.05751E+01 0.00000E+00
 -1      2584 4.48949E+01 4.12093E+01 0.00000E+00
 -1      2585 4.50182E+01 4.21090E+01 0.00000E+00
 -1      2586 4.65685E+01 4.07420E+01 0.00000E+00
 -1      2587 4.80475E+01 3.73760E+01 0.00000E+00
 -1      2588 4.76743E+01 3.82083E+01 0.00000E+00
 -1      2589 4.84551E+01 2.90598E+01 0.00000E+00
 -1      2590 4.88190E+01 2.99175E+01 0.00000E+00
 -1      2591 1.42839E+02 8.11675E+00 0.00000E+00
 -1      2592 3.38631E+01 4.33036E+01 0.00000E+00
 -1      2593 7.79400E+00 3.52687E+01 0.00000E+00
 -1      2594 6.49500E+00 3.60062E+01 0.00000E+00
 -1      2595 6.49500E+00 3.74750E+01 0.00000E+00
 -1      2596 4.44179E+01 2.32624E+01 0.00000E+00
 -1      2597 9.55950E+00 5.02450E+00 0.00000E+00
 -1      2598 9.37425E+00 5.84794E+00 0.00000E+00
 -1      2599 1.07692E+01 5.21931E+00 0.00000E+00
 -1      2600 4.75879E+01 2.62831E+01 0.00000E+00
 -1      2601 4.89044E+01 2.82329E+01 0.00000E+00
 -1      2602 4.21852E+01 4.33438E+01 0.00000E+00
 -1      2603 3.87685E+01 4.36776E+01 0.00000E+00
 -1      2604 3.08625E+01 4.36951E+01 0.00000E+00
 -1      2605 3.22875E+01 4.36951E+01 0.00000E+00
 -1      2606 3.77328E+01 4.36262E+01 0.00000E+00
 -1      2607 4.77000E+01 4.25024E+01 0.00000E+00
 -1      2608 4.89091E+01 3.71343E+01 0.00000E+00
 -1      2609 4.94245E+01 3.04734E+01 0.00000E+00
 -1      2610 5.00300E+01 3.10292E+01 0.00000E+00
 -1      2611 5.00320E+01 2.97096E+01 0.00000E+00
 -1      2612 5.00477E+01 3.22901E+01 0.00000E+00
 -1      2613 4.95780E+01 3.29560E+01 0.00000E+00
 -1      2614 5.02033E+01 3.34531E+01 0.00000E+00
 -1      2615 4.95115E+01 3.51480E+01 0.00000E+00
 -1      2616 6.55950E+00 3.99453E+01 0.00000E+00
 -1      2617 1.30515E+01 5.74931E+00 0.00000E+00
 -1      2618 1.18418E+01 5.55450E+00 0.00000E+00
 -1      2619 1.16565E+01 6.37794E+00 0.00000E+00
 -1      2620 1.38015E+01 7.04831E+00 0.00000E+00
 -1      2621 2.78229E+01 3.61271E+01 0.00000E+00
 -1      2622 1.41540E+02 8.85425E+00 0.00000E+00
 -1      2623 2.76342E+01 3.36104E+01 0.00000E+00
 -1      2624 3.04448E+01 4.03929E+01 0.00000E+00
 -1      2625 4.79362E+01 3.90750E+01 0.00000E+00
 -1      2626 2.81689E+01 2.91196E+01 0.00000E+00
 -1      2627 3.11661E+01 2.51357E+01 0.00000E+00
 -1      2628 3.72692E+01 2.22103E+01 0.00000E+00
 -1      2629 3.77531E+01 2.14496E+01 0.00000E+00
 -1      2630 3.65142E+01 2.17917E+01 0.00000E+00
 -1      2631 4.20690E+01 2.21624E+01 0.00000E+00
 -1      2632 4.29352E+01 2.16474E+01 0.00000E+00
 -1      2633 4.15251E+01 2.12750E+01 0.00000E+00
 -1      2634 3.46924E+01 2.28958E+01 0.00000E+00
 -1      2635 3.51491E+01 2.21988E+01 0.00000E+00
 -1      2636 3.38112E+01 2.25421E+01 0.00000E+00
 -1      2637 3.95835E+01 2.18291E+01 0.00000E+00
 -1      2638 2.94554E+01 2.68035E+01 0.00000E+00
 -1      2639 2.87189E+01 3.84239E+01 0.00000E+00
 -1      2640 3.01125E+01 4.23961E+01 0.00000E+00
 -1      2641 9.09300E+00 1.98250E+01 0.00000E+00
 -1      2642 9.09300E+00 2.12750E+01 0.00000E+00
 -1      2643 9.09300E+00 2.27500E+01 0.00000E+00
 -1      2644 9.09300E+00 2.42250E+01 0.00000E+00
 -1      2645 1.03920E+01 2.20250E+01 0.00000E+00
 -1      2646 9.09300E+00 1.39375E+01 0.00000E+00
 -1      2647 9.09300E+00 1.54125E+01 0.00000E+00
 -1      2648 9.09300E+00 1.09875E+01 0.00000E+00
 -1      2649 9.09300E+00 1.24625E+01 0.00000E+00
 -1      2650 1.03920E+01 1.32000E+01 0.00000E+00
 -1      2651 9.18900E+00 6.67137E+00 0.00000E+00
 -1      2652 9.00375E+00 7.49481E+00 0.00000E+00
 -1      2653 1.03988E+01 6.86619E+00 0.00000E+00
 -1      2654 4.44481E+01 2.22539E+01 0.00000E+00
 -1      2655 4.53869E+01 2.29815E+01 0.00000E+00
 -1      2656 4.93894E+01 2.73495E+01 0.00000E+00
 -1      2657 4.99115E+01 2.82703E+01 0.00000E+00
 -1      2658 1.44000E+01 4.09070E+01 0.00000E+00
 -1      2659 1.59000E+01 4.09070E+01 0.00000E+00
 -1      2660 1.74000E+01 4.09070E+01 0.00000E+00
 -1      2661 1.89000E+01 4.09070E+01 0.00000E+00
 -1      2662 1.66500E+01 3.96080E+01 0.00000E+00
 -1      2663 2.04000E+01 4.09070E+01 0.00000E+00
 -1      2664 2.19000E+01 4.09070E+01 0.00000E+00
 -1      2665 1.96500E+01 3.96080E+01 0.00000E+00
 -1      2666 2.34000E+01 4.09070E+01 0.00000E+00
 -1      2667 2.49000E+01 4.09070E+01 0.00000E+00
 -1      2668 2.26500E+01 3.96080E+01 0.00000E+00
 -1      2669 2.69274E+01 2.95079E+01 0.00000E+00
 -1      2670 2.72599E+01 2.81892E+01 0.00000E+00
 -1      2671 4.24500E+01 4.37789E+01 0.00000E+00
 -1      2672 4.39500E+01 4.37789E+01 0.00000E+00
 -1      2673 2.69129E+01 3.67874E+01 0.00000E+00
 -1      2674 2.68526E+01 3.55591E+01 0.00000E+00
 -1      2675 5.29500E+01 4.09520E+01 0.00000E+00
 -1      2676 5.44500E+01 4.09520E+01 0.00000E+00
 -1      2677 5.59500E+01 4.09520E+01 0.00000E+00
 -1      2678 5.74500E+01 4.09520E+01 0.00000E+00
 -1      2679 5.52000E+01 3.96530E+01 0.00000E+00
 -1      2680 5.89500E+01 4.09520E+01 0.00000E+00
 -1      2681 6.04500E+01 4.09520E+01 0.00000E+00
 -1      2682 5.82000E+01 3.96530E+01 0.00000E+00
 -1      2683 6.20250E+01 4.09520E+01 0.00000E+00
 -1      2684 6.36000E+01 4.09520E+01 0.00000E+00
 -1      2685 6.12750E+01 3.96530E+01 0.00000E+00
 -1      2686 6.51000E+01 4.09520E+01 0.00000E+00
 -1      2687 6.66000E+01 4.09520E+01 0.00000E+00
 -1      2688 6.43500E+01 3.96530E+01 0.00000E+00
 -1      2689 6.81000E+01 4.09520E+01 0.00000E+00
 -1      2690 6.96000E+01 4.09520E+01 0.00000E+00
 -1      2691 6.73500E+01 3.96530E+01 0.00000E+00
 -1      2692 7.11000E+01 4.09520E+01 0.00000E+00
 -1      2693 7.26000E+01 4.09520E+01 0.00000E+00
 -1      2694 7.03500E+01 3.96530E+01 0.00000E+00
 -1      2695 7.41000E+01 4.09520E+01 0.00000E+00
 -1      2696 7.56000E+01 4.09520E+01 0.00000E+00
 -1      2697 7.33500E+01 3.96530E+01 0.00000E+00
 -1      2698 7.71000E+01 4.09520E+01 0.00000E+00
 -1      2699 7.86000E+01 4.09520E+01 0.00000E+00
 -1      2700 7.63500E+01 3.96530E+01 0.00000E+00
 -1      2701 8.01000E+01 4.09520E+01 0.00000E+00
 -1      2702 8.16000E+01 4.09520E+01 0.00000E+00
 -1      2703 7.93500E+01 3.96530E+01 0.00000E+00
 -1      2704 8.31000E+01 4.09520E+01 0.00000E+00
 -1      2705 8.46000E+01 4.09520E+01 0.00000E+00
 -1      2706 8.23500E+01 3.96530E+01 0.00000E+00
 -1      2707 8.61000E+01 4.09520E+01 0.00000E+00
 -1      2708 8.76000E+01 4.09520E+01 0.00000E+00
 -1      2709 8.53500E+01 3.96530E+01 0.00000E+00
 -1      2710 8.91000E+01 4.09520E+01 0.00000E+00
 -1      2711 9.06000E+01 4.09520E+01 0.00000E+00
 -1      2712 8.83500E+01 3.96530E+01 0.00000E+00
 -1      2713 9.21000E+01 4.09520E+01 0.00000E+00
 -1      2714 9.36000E+01 4.09520E+01 0.00000E+00
 -1      2715 9.13500E+01 3.96530E+01 0.00000E+00
 -1      2716 9.51000E+01 4.09520E+01 0.00000E+00
 -1      2717 9.66000E+01 4.09520E+01 0.00000E+00
 -1      2718 9.43500E+01 3.96530E+01 0.00000E+00
 -1      2719 9.81000E+01 4.09520E+01 0.00000E+00
 -1      2720 9.96000E+01 4.09520E+01 0.00000E+00
 -1      2721 9.73500E+01 3.96530E+01 0.00000E+00
 -1      2722 1.01100E+02 4.09520E+01 0.00000E+00
 -1      2723 1.02600E+02 4.09520E+01 0.00000E+00
 -1      2724 1.00350E+02 3.96530E+01 0.00000E+00
 -1      2725 1.04175E+02 4.09520E+01 0.00000E+00
 -1      2726 1.05750E+02 4.09520E+01 0.00000E+00
 -1      2727 1.03425E+02 3.96530E+01 0.00000E+00
 -1      2728 1.07250E+02 4.09520E+01 0.00000E+00
 -1      2729 1.08750E+02 4.09520E+01 0.00000E+00
 -1      2730 1.06500E+02 3.96530E+01 0.00000E+00
 -1      2731 1.10250E+02 4.09520E+01 0.00000E+00
 -1      2732 1.11750E+02 4.09520E+01 0.00000E+00
 -1      2733 1.09500E+02 3.96530E+01 0.00000E+00
 -1      2734 1.13250E+02 4.09520E+01 0.00000E+00
 -1      2735 1.14750E+02 4.09520E+01 0.00000E+00
 -1      2736 1.12500E+02 3.96530E+01 0.00000E+00
 -1      2737 1.16250E+02 4.09520E+01 0.00000E+00
 -1      2738 1.17750E+02 4.09520E+01 0.00000E+00
 -1      2739 1.15500E+02 3.96530E+01 0.00000E+00
 -1      2740 1.19250E+02 4.09520E+01 0.00000E+00
 -1      2741 1.20750E+02 4.09520E+01 0.00000E+00
 -1      2742 1.18500E+02 3.96530E+01 0.00000E+00
 -1      2743 1.22250E+02 4.09520E+01 0.00000E+00
 -1      2744 1.23750E+02 4.09520E+01 0.00000E+00
 -1      2745 1.21500E+02 3.96530E+01 0.00000E+00
 -1      2746 1.25250E+02 4.09520E+01 0.00000E+00
 -1      2747 1.26750E+02 4.09520E+01 0.00000E+00
 -1      2748 1.24500E+02 3.96530E+01 0.00000E+00
 -1      2749 1.28250E+02 4.09520E+01 0.00000E+00
 -1      2750 1.29750E+02 4.09520E+01 0.00000E+00
 -1      2751 1.27500E+02 3.96530E+01 0.00000E+00
 -1      2752 1.31250E+02 4.09520E+01 0.00000E+00
 -1      2753 1.32750E+02 4.09520E+01 0.00000E+00
 -1      2754 1.30500E+02 3.96530E+01 0.00000E+00
 -1      2755 1.34250E+02 4.09520E+01 0.00000E+00
 -1      2756 1.35750E+02 4.09520E+01 0.00000E+00
 -1      2757 1.33500E+02 3.96530E+01 0.00000E+00
 -1      2758 1.37250E+02 4.09520E+01 0.00000E+00
 -1      2759 1.38750E+02 4.09520E+01 0.00000E+00
 -1      2760 1.36500E+02 3.96530E+01 0.00000E+00
 -1      2761 1.39795E+02 4.08513E+01 0.00000E+00
 -1      2762 1.41121E+02 4.05886E+01 0.00000E+00
 -1      2763 1.41134E+02 3.93510E+01 0.00000E+00
 -1      2764 1.39045E+02 3.95523E+01 0.00000E+00
 -1      2765 2.01240E+01 8.68250E+00 0.00000E+00
 -1      2766 1.86240E+01 8.68250E+00 0.00000E+00
 -1      2767 2.31240E+01 8.68250E+00 0.00000E+00
 -1      2768 2.16240E+01 8.68250E+00 0.00000E+00
 -1      2769 2.08740E+01 9.98150E+00 0.00000E+00
 -1      2770 1.71240E+01 8.68250E+00 0.00000E+00
 -1      2771 1.56240E+01 8.68250E+00 0.00000E+00
 -1      2772 1.78740E+01 9.98150E+00 0.00000E+00
 -1      2773 2.91240E+01 8.68250E+00 0.00000E+00
 -1      2774 2.76240E+01 8.68250E+00 0.00000E+00
 -1      2775 3.21240E+01 8.68250E+00 0.00000E+00
 -1      2776 3.06240E+01 8.68250E+00 0.00000E+00
 -1      2777 2.98740E+01 9.98150E+00 0.00000E+00
 -1      2778 3.51240E+01 8.68250E+00 0.00000E+00
 -1      2779 3.36240E+01 8.68250E+00 0.00000E+00
 -1      2780 3.28740E+01 9.98150E+00 0.00000E+00
 -1      2781 3.81240E+01 8.68250E+00 0.00000E+00
 -1      2782 3.66240E+01 8.68250E+00 0.00000E+00
 -1      2783 3.58740E+01 9.98150E+00 0.00000E+00
 -1      2784 4.11240E+01 8.68250E+00 0.00000E+00
 -1      2785 3.96240E+01 8.68250E+00 0.00000E+00
 -1      2786 3.88740E+01 9.98150E+00 0.00000E+00
 -1      2787 4.41240E+01 8.68250E+00 0.00000E+00
 -1      2788 4.26240E+01 8.68250E+00 0.00000E+00
 -1      2789 4.18740E+01 9.98150E+00 0.00000E+00
 -1      2790 4.71240E+01 8.68250E+00 0.00000E+00
 -1      2791 4.56240E+01 8.68250E+00 0.00000E+00
 -1      2792 4.48740E+01 9.98150E+00 0.00000E+00
 -1      2793 5.01240E+01 8.68250E+00 0.00000E+00
 -1      2794 4.86240E+01 8.68250E+00 0.00000E+00
 -1      2795 4.78740E+01 9.98150E+00 0.00000E+00
 -1      2796 5.31240E+01 8.68250E+00 0.00000E+00
 -1      2797 5.16240E+01 8.68250E+00 0.00000E+00
 -1      2798 5.08740E+01 9.98150E+00 0.00000E+00
 -1      2799 5.61240E+01 8.68250E+00 0.00000E+00
 -1      2800 5.46240E+01 8.68250E+00 0.00000E+00
 -1      2801 5.38740E+01 9.98150E+00 0.00000E+00
 -1      2802 5.91240E+01 8.68250E+00 0.00000E+00
 -1      2803 5.76240E+01 8.68250E+00 0.00000E+00
 -1      2804 5.68740E+01 9.98150E+00 0.00000E+00
 -1      2805 6.21240E+01 8.68250E+00 0.00000E+00
 -1      2806 6.06240E+01 8.68250E+00 0.00000E+00
 -1      2807 5.98740E+01 9.98150E+00 0.00000E+00
 -1      2808 6.51240E+01 8.68250E+00 0.00000E+00
 -1      2809 6.36240E+01 8.68250E+00 0.00000E+00
 -1      2810 6.28740E+01 9.98150E+00 0.00000E+00
 -1      2811 6.81240E+01 8.68250E+00 0.00000E+00
 -1      2812 6.66240E+01 8.68250E+00 0.00000E+00
 -1      2813 6.58740E+01 9.98150E+00 0.00000E+00
 -1      2814 7.11240E+01 8.68250E+00 0.00000E+00
 -1      2815 6.96240E+01 8.68250E+00 0.00000E+00
 -1      2816 6.88740E+01 9.98150E+00 0.00000E+00
 -1      2817 7.41240E+01 8.68250E+00 0.00000E+00
 -1      2818 7.26240E+01 8.68250E+00 0.00000E+00
 -1      2819 7.18740E+01 9.98150E+00 0.00000E+00
 -1      2820 7.71240E+01 8.68250E+00 0.00000E+00
 -1      2821 7.56240E+01 8.68250E+00 0.00000E+00
 -1      2822 7.48740E+01 9.98150E+00 0.00000E+00
 -1      2823 8.01240E+01 8.68250E+00 0.00000E+00
 -1      2824 7.86240E+01 8.68250E+00 0.00000E+00
 -1      2825 7.78740E+01 9.98150E+00 0.00000E+00
 -1      2826 8.31240E+01 8.68250E+00 0.00000E+00
 -1      2827 8.16240E+01 8.68250E+00 0.00000E+00
 -1      2828 8.08740E+01 9.98150E+00 0.00000E+00
 -1      2829 8.61240E+01 8.68250E+00 0.00000E+00
 -1      2830 8.46240E+01 8.68250E+00 0.00000E+00
 -1      2831 8.38740E+01 9.98150E+00 0.00000E+00
 -1      2832 8.91240E+01 8.68250E+00 0.00000E+00
 -1      2833 8.76240E+01 8.68250E+00 0.00000E+00
 -1      2834 8.68740E+01 9.98150E+00 0.00000E+00
 -1      2835 9.21240E+01 8.68250E+00 0.00000E+00
 -1      2836 9.06240E+01 8.68250E+00 0.00000E+00
 -1      2837 8.98740E+01 9.98150E+00 0.00000E+00
 -1      2838 9.51240E+01 8.68250E+00 0.00000E+00
 -1      2839 9.36240E+01 8.68250E+00 0.00000E+00
 -1      2840 9.28740E+01 9.98150E+00 0.00000E+00
 -1      2841 9.81240E+01 8.68250E+00 0.00000E+00
 -1      2842 9.66240E+01 8.68250E+00 0.00000E+00
 -1      2843 9.58740E+01 9.98150E+00 0.00000E+00
 -1      2844 1.01124E+02 8.68250E+00 0.00000E+00
 -1      2845 9.96240E+01 8.68250E+00 0.00000E+00
 -1      2846 9.88740E+01 9.98150E+00 0.00000E+00
 -1      2847 1.04124E+02 8.68250E+00 0.00000E+00
 -1      2848 1.02624E+02 8.68250E+00 0.00000E+00
 -1      2849 1.01874E+02 9.98150E+00 0.00000E+00
 -1      2850 1.07124E+02 8.68250E+00 0.00000E+00
 -1      2851 1.05624E+02 8.68250E+00 0.00000E+00
 -1      2852 1.04874E+02 9.98150E+00 0.00000E+00
 -1      2853 1.10124E+02 8.68250E+00 0.00000E+00
 -1      2854 1.08624E+02 8.68250E+00 0.00000E+00
 -1      2855 1.07874E+02 9.98150E+00 0.00000E+00
 -1      2856 1.13124E+02 8.68250E+00 0.00000E+00
 -1      2857 1.11624E+02 8.68250E+00 0.00000E+00
 -1      2858 1.10874E+02 9.98150E+00 0.00000E+00
 -1      2859 1.16124E+02 8.68250E+00 0.00000E+00
 -1      2860 1.14624E+02 8.68250E+00 0.00000E+00
 -1      2861 1.13874E+02 9.98150E+00 0.00000E+00
 -1      2862 1.19124E+02 8.68250E+00 0.00000E+00
 -1      2863 1.17624E+02 8.68250E+00 0.00000E+00
 -1      2864 1.16874E+02 9.98150E+00 0.00000E+00
 -1      2865 1.22124E+02 8.68250E+00 0.00000E+00
 -1      2866 1.20624E+02 8.68250E+00 0.00000E+00
 -1      2867 1.19874E+02 9.98150E+00 0.00000E+00
 -1      2868 1.25124E+02 8.68250E+00 0.00000E+00
 -1      2869 1.23624E+02 8.68250E+00 0.00000E+00
 -1      2870 1.22874E+02 9.98150E+00 0.00000E+00
 -1      2871 1.28124E+02 8.68250E+00 0.00000E+00
 -1      2872 1.26624E+02 8.68250E+00 0.00000E+00
 -1      2873 1.25874E+02 9.98150E+00 0.00000E+00
 -1      2874 1.31124E+02 8.68250E+00 0.00000E+00
 -1      2875 1.29624E+02 8.68250E+00 0.00000E+00
 -1      2876 1.28874E+02 9.98150E+00 0.00000E+00
 -1      2877 1.34124E+02 8.68250E+00 0.00000E+00
 -1      2878 1.32624E+02 8.68250E+00 0.00000E+00
 -1      2879 1.31874E+02 9.98150E+00 0.00000E+00
 -1      2880 1.37124E+02 8.68250E+00 0.00000E+00
 -1      2881 1.35624E+02 8.68250E+00 0.00000E+00
 -1      2882 1.34874E+02 9.98150E+00 0.00000E+00
 -1      2883 1.40082E+02 8.76838E+00 0.00000E+00
 -1      2884 1.38582E+02 8.76838E+00 0.00000E+00
 -1      2885 1.37832E+02 1.00674E+01 0.00000E+00
 -1      2886 1.40748E+02 1.02391E+01 0.00000E+00
 -1      2887 3.29278E+01 4.36460E+01 0.00000E+00
 -1      2888 1.40907E+02 1.54500E+01 0.00000E+00
 -1      2889 1.40907E+02 1.40000E+01 0.00000E+00
 -1      2890 1.40907E+02 2.13375E+01 0.00000E+00
 -1      2891 1.40907E+02 1.98625E+01 0.00000E+00
 -1      2892 1.40907E+02 1.83937E+01 0.00000E+00
 -1      2893 1.40907E+02 1.69188E+01 0.00000E+00
 -1      2894 1.39608E+02 1.61938E+01 0.00000E+00
 -1      2895 1.39608E+02 1.91313E+01 0.00000E+00
 -1      2896 1.40827E+02 1.28571E+01 0.00000E+00
 -1      2897 1.40827E+02 1.13821E+01 0.00000E+00
 -1      2898 1.39370E+02 1.12962E+01 0.00000E+00
 -1      2899 1.39529E+02 1.35821E+01 0.00000E+00
 -1      2900 1.40907E+02 2.42875E+01 0.00000E+00
 -1      2901 1.40907E+02 2.28125E+01 0.00000E+00
 -1      2902 1.39608E+02 2.20750E+01 0.00000E+00
 -1      2903 1.40907E+02 2.72375E+01 0.00000E+00
 -1      2904 1.40907E+02 2.57625E+01 0.00000E+00
 -1      2905 1.39608E+02 2.50250E+01 0.00000E+00
 -1      2906 1.40907E+02 3.01375E+01 0.00000E+00
 -1      2907 1.40907E+02 2.86875E+01 0.00000E+00
 -1      2908 1.39608E+02 2.79500E+01 0.00000E+00
 -1      2909 1.40907E+02 3.30875E+01 0.00000E+00
 -1      2910 1.40907E+02 3.16125E+01 0.00000E+00
 -1      2911 1.39608E+02 3.08750E+01 0.00000E+00
 -1      2912 1.40907E+02 3.60375E+01 0.00000E+00
 -1      2913 1.40907E+02 3.45625E+01 0.00000E+00
 -1      2914 1.39608E+02 3.38250E+01 0.00000E+00
 -1      2915 4.80021E+01 2.51421E+01 0.00000E+00
 -1      2916 4.87966E+01 2.61711E+01 0.00000E+00
 -1      2917 8.85168E+00 4.05347E+01 0.00000E+00
 -1      2918 1.02152E+01 4.07987E+01 0.00000E+00
 -1      2919 2.61240E+01 8.68250E+00 0.00000E+00
 -1      2920 2.46240E+01 8.68250E+00 0.00000E+00
 -1      2921 2.38740E+01 9.98150E+00 0.00000E+00
 -1      2922 2.68740E+01 9.98150E+00 0.00000E+00
 -1      2923 5.04199E+01 3.48056E+01 0.00000E+00
 -1      2924 5.01978E+01 3.58345E+01 0.00000E+00
 -1      2925 3.22153E+01 4.25371E+01 0.00000E+00
 -1      2926 4.99500E+01 4.09520E+01 0.00000E+00
 -1      2927 5.14500E+01 4.09520E+01 0.00000E+00
 -1      2928 5.22000E+01 3.96530E+01 0.00000E+00
 -1      2929 4.98963E+01 3.69723E+01 0.00000E+00
 -1      2930 4.95159E+01 3.79296E+01 0.00000E+00
 -1      2931 4.61053E+01 2.36135E+01 0.00000E+00
 -1      2932 4.68237E+01 2.42455E+01 0.00000E+00
 -1      2933 4.61355E+01 2.26050E+01 0.00000E+00
 -1      2934 1.15576E+01 4.08528E+01 0.00000E+00
 -1      2935 1.30576E+01 4.08528E+01 0.00000E+00
 -1      2936 1.38076E+01 3.95538E+01 0.00000E+00
 -1      2937 1.11228E+01 3.94455E+01 0.00000E+00
 -1      2938 7.48818E+00 3.88019E+01 0.00000E+00
 -1      2939 3.90147E+01 2.09916E+01 0.00000E+00
 -1      2940 4.00901E+01 2.09526E+01 0.00000E+00
 -1      2941 9.09300E+00 1.68813E+01 0.00000E+00
 -1      2942 9.09300E+00 1.83563E+01 0.00000E+00
 -1      2943 1.03920E+01 1.90812E+01 0.00000E+00
 -1      2944 1.03920E+01 1.61437E+01 0.00000E+00
 -1      2945 3.15594E+01 2.33165E+01 0.00000E+00
 -1      2946 3.22753E+01 2.27034E+01 0.00000E+00
 -1      2947 2.83953E+01 3.95381E+01 0.00000E+00
 -1      2948 2.75596E+01 3.84696E+01 0.00000E+00
 -1      2949 3.00460E+01 2.46573E+01 0.00000E+00
 -1      2950 3.08027E+01 2.39869E+01 0.00000E+00
 -1      2951 3.04394E+01 2.28381E+01 0.00000E+00
 -1      2952 2.65966E+01 3.13915E+01 0.00000E+00
 -1      2953 2.67620E+01 3.04497E+01 0.00000E+00
 -1      2954 2.58530E+01 2.95193E+01 0.00000E+00
 -1      2955 9.09300E+00 3.15875E+01 0.00000E+00
 -1      2956 9.09300E+00 3.30625E+01 0.00000E+00
 -1      2957 3.14550E+01 4.19398E+01 0.00000E+00
 -1      2958 2.81380E+01 2.66522E+01 0.00000E+00
 -1      2959 2.90920E+01 2.56547E+01 0.00000E+00
 -1      2960 2.87287E+01 2.45059E+01 0.00000E+00
 -1      2961 2.67241E+01 3.42706E+01 0.00000E+00
 -1      2962 2.65956E+01 3.29822E+01 0.00000E+00
 -1      2963 2.58140E+01 3.49309E+01 0.00000E+00
 -1      2964 1.03920E+01 2.49750E+01 0.00000E+00
 -1      2965 9.09300E+00 2.57000E+01 0.00000E+00
 -1      2966 9.09300E+00 2.71750E+01 0.00000E+00
 -1      2967 9.00375E+00 8.96981E+00 0.00000E+00
 -1      2968 4.39042E+01 2.13665E+01 0.00000E+00
 -1      2969 4.48733E+01 2.10855E+01 0.00000E+00
 -1      2970 4.33604E+01 2.04790E+01 0.00000E+00
 -1      2971 5.10019E+01 2.79428E+01 0.00000E+00
 -1      2972 5.05169E+01 2.88262E+01 0.00000E+00
 -1      2973 5.11224E+01 2.93820E+01 0.00000E+00
 -1      2974 2.68965E+01 2.70404E+01 0.00000E+00
 -1      2975 2.56930E+01 3.95959E+01 0.00000E+00
 -1      2976 2.64430E+01 4.08949E+01 0.00000E+00
 -1      2977 1.03920E+01 3.37938E+01 0.00000E+00
 -1      2978 9.09300E+00 3.45313E+01 0.00000E+00
 -1      2979 9.09300E+00 3.60000E+01 0.00000E+00
 -1      2980 2.79430E+01 4.08949E+01 0.00000E+00
 -1      2981 8.78718E+00 3.80644E+01 0.00000E+00
 -1      2982 5.08046E+01 3.66299E+01 0.00000E+00
 -1      2983 5.08896E+01 3.41396E+01 0.00000E+00
 -1      2984 5.15759E+01 3.48261E+01 0.00000E+00
 -1      2985 5.13593E+01 3.34737E+01 0.00000E+00
 -1      2986 4.03875E+01 1.96001E+01 0.00000E+00
 -1      2987 4.09563E+01 2.04375E+01 0.00000E+00
 -1      2988 4.18225E+01 1.99225E+01 0.00000E+00
 -1      2989 5.06552E+01 3.15263E+01 0.00000E+00
 -1      2990 4.98036E+01 2.62086E+01 0.00000E+00
 -1      2991 4.80323E+01 2.41336E+01 0.00000E+00
 -1      2992 1.41014E+02 3.83130E+01 0.00000E+00
 -1      2993 1.41027E+02 3.70754E+01 0.00000E+00
 -1      2994 1.39728E+02 3.63379E+01 0.00000E+00
 -1      2995 1.39969E+02 3.84137E+01 0.00000E+00
 -1      2996 1.48740E+01 9.98151E+00 0.00000E+00
 -1      2997 1.41240E+01 8.68251E+00 0.00000E+00
 -1      2998 1.30515E+01 8.34733E+00 0.00000E+00
 -1      2999 4.82718E+01 4.11547E+01 0.00000E+00
 -1      3000 4.90218E+01 3.98557E+01 0.00000E+00
 -1      3001 3.56330E+01 2.14381E+01 0.00000E+00
 -1      3002 3.61168E+01 2.06773E+01 0.00000E+00
 -1      3003 3.47518E+01 2.10844E+01 0.00000E+00
 -1      3004 2.91023E+01 4.08493E+01 0.00000E+00
 -1      3005 1.03027E+01 9.70731E+00 0.00000E+00
 -1      3006 3.27320E+01 2.20064E+01 0.00000E+00
 -1      3007 3.31887E+01 2.13094E+01 0.00000E+00
 -1      3008 3.16527E+01 2.14707E+01 0.00000E+00
 -1      3009 4.44715E+01 4.37983E+01 0.00000E+00
 -1      3010 4.52215E+01 4.27731E+01 0.00000E+00
 -1      3011 9.09300E+00 2.86437E+01 0.00000E+00
 -1      3012 9.09300E+00 3.01187E+01 0.00000E+00
 -1      3013 1.03920E+01 3.08563E+01 0.00000E+00
 -1      3014 1.03920E+01 2.79188E+01 0.00000E+00
 -1      3015 3.75046E+01 2.01545E+01 0.00000E+00
 -1      3016 3.82597E+01 2.05730E+01 0.00000E+00
 -1      3017 3.87662E+01 1.96965E+01 0.00000E+00
 -1      3018 2.56865E+01 3.20518E+01 0.00000E+00
 -1      3019 4.96144E+01 3.88723E+01 0.00000E+00
 -1      3020 2.61411E+01 3.87487E+01 0.00000E+00
 -1      3021 2.64647E+01 3.76345E+01 0.00000E+00
 -1      3022 2.54944E+01 3.70665E+01 0.00000E+00
 -1      3023 2.45981E+01 3.87608E+01 0.00000E+00
 -1      3024 5.06015E+01 3.87104E+01 0.00000E+00
 -1      3025 2.99925E+01 4.17497E+01 0.00000E+00
 -1      3026 4.67718E+01 4.14061E+01 0.00000E+00
 -1      3027 4.37215E+01 4.27731E+01 0.00000E+00
 -1      3028 4.59967E+01 4.20896E+01 0.00000E+00
 -1      3029 1.16910E+01 1.24625E+01 0.00000E+00
 -1      3030 1.16910E+01 1.39375E+01 0.00000E+00
 -1      3031 1.14712E+01 7.20138E+00 0.00000E+00
 -1      3032 5.14530E+01 3.76701E+01 0.00000E+00
 -1      3033 5.15515E+01 3.86128E+01 0.00000E+00
 -1      3034 5.30515E+01 3.86128E+01 0.00000E+00
 -1      3035 5.17546E+01 3.65323E+01 0.00000E+00
 -1      3036 1.89000E+01 3.83090E+01 0.00000E+00
 -1      3037 2.04000E+01 3.83090E+01 0.00000E+00
 -1      3038 2.17491E+01 3.85349E+01 0.00000E+00
 -1      3039 2.32491E+01 3.85349E+01 0.00000E+00
 -1      3040 2.36972E+01 3.76877E+01 0.00000E+00
 -1      3041 2.09991E+01 3.72359E+01 0.00000E+00
 -1      3042 2.46781E+01 2.97984E+01 0.00000E+00
 -1      3043 2.48435E+01 2.88565E+01 0.00000E+00
 -1      3044 2.56401E+01 2.73420E+01 0.00000E+00
 -1      3045 2.65182E+01 2.58049E+01 0.00000E+00
 -1      3046 5.74500E+01 3.83540E+01 0.00000E+00
 -1      3047 5.89500E+01 3.83540E+01 0.00000E+00
 -1      3048 6.05250E+01 3.83540E+01 0.00000E+00
 -1      3049 6.21000E+01 3.83540E+01 0.00000E+00
 -1      3050 5.97750E+01 3.70550E+01 0.00000E+00
 -1      3051 6.36000E+01 3.83540E+01 0.00000E+00
 -1      3052 6.51000E+01 3.83540E+01 0.00000E+00
 -1      3053 6.28500E+01 3.70550E+01 0.00000E+00
 -1      3054 6.66000E+01 3.83540E+01 0.00000E+00
 -1      3055 6.81000E+01 3.83540E+01 0.00000E+00
 -1      3056 6.58500E+01 3.70550E+01 0.00000E+00
 -1      3057 6.96000E+01 3.83540E+01 0.00000E+00
 -1      3058 7.11000E+01 3.83540E+01 0.00000E+00
 -1      3059 6.88500E+01 3.70550E+01 0.00000E+00
 -1      3060 7.26000E+01 3.83540E+01 0.00000E+00
 -1      3061 7.41000E+01 3.83540E+01 0.00000E+00
 -1      3062 7.18500E+01 3.70550E+01 0.00000E+00
 -1      3063 7.56000E+01 3.83540E+01 0.00000E+00
 -1      3064 7.71000E+01 3.83540E+01 0.00000E+00
 -1      3065 7.48500E+01 3.70550E+01 0.00000E+00
 -1      3066 7.86000E+01 3.83540E+01 0.00000E+00
 -1      3067 8.01000E+01 3.83540E+01 0.00000E+00
 -1      3068 7.78500E+01 3.70550E+01 0.00000E+00
 -1      3069 8.16000E+01 3.83540E+01 0.00000E+00
 -1      3070 8.31000E+01 3.83540E+01 0.00000E+00
 -1      3071 8.08500E+01 3.70550E+01 0.00000E+00
 -1      3072 8.46000E+01 3.83540E+01 0.00000E+00
 -1      3073 8.61000E+01 3.83540E+01 0.00000E+00
 -1      3074 8.38500E+01 3.70550E+01 0.00000E+00
 -1      3075 8.76000E+01 3.83540E+01 0.00000E+00
 -1      3076 8.91000E+01 3.83540E+01 0.00000E+00
 -1      3077 8.68500E+01 3.70550E+01 0.00000E+00
 -1      3078 9.06000E+01 3.83540E+01 0.00000E+00
 -1      3079 9.21000E+01 3.83540E+01 0.00000E+00
 -1      3080 8.98500E+01 3.70550E+01 0.00000E+00
 -1      3081 9.36000E+01 3.83540E+01 0.00000E+00
 -1      3082 9.51000E+01 3.83540E+01 0.00000E+00
 -1      3083 9.28500E+01 3.70550E+01 0.00000E+00
 -1      3084 9.66000E+01 3.83540E+01 0.00000E+00
 -1      3085 9.81000E+01 3.83540E+01 0.00000E+00
 -1      3086 9.58500E+01 3.70550E+01 0.00000E+00
 -1      3087 9.96000E+01 3.83540E+01 0.00000E+00
 -1      3088 1.01100E+02 3.83540E+01 0.00000E+00
 -1      3089 9.88500E+01 3.70550E+01 0.00000E+00
 -1      3090 1.02675E+02 3.83540E+01 0.00000E+00
 -1      3091 1.04250E+02 3.83540E+01 0.00000E+00
 -1      3092 1.01925E+02 3.70550E+01 0.00000E+00
 -1      3093 1.05750E+02 3.83540E+01 0.00000E+00
 -1      3094 1.07250E+02 3.83540E+01 0.00000E+00
 -1      3095 1.05000E+02 3.70550E+01 0.00000E+00
 -1      3096 1.08750E+02 3.83540E+01 0.00000E+00
 -1      3097 1.10250E+02 3.83540E+01 0.00000E+00
 -1      3098 1.08000E+02 3.70550E+01 0.00000E+00
 -1      3099 1.11750E+02 3.83540E+01 0.00000E+00
 -1      3100 1.13250E+02 3.83540E+01 0.00000E+00
 -1      3101 1.11000E+02 3.70550E+01 0.00000E+00
 -1      3102 1.14750E+02 3.83540E+01 0.00000E+00
 -1      3103 1.16250E+02 3.83540E+01 0.00000E+00
 -1      3104 1.14000E+02 3.70550E+01 0.00000E+00
 -1      3105 1.17750E+02 3.83540E+01 0.00000E+00
 -1      3106 1.19250E+02 3.83540E+01 0.00000E+00
 -1      3107 1.17000E+02 3.70550E+01 0.00000E+00
 -1      3108 1.20750E+02 3.83540E+01 0.00000E+00
 -1      3109 1.22250E+02 3.83540E+01 0.00000E+00
 -1      3110 1.20000E+02 3.70550E+01 0.00000E+00
 -1      3111 1.23750E+02 3.83540E+01 0.00000E+00
 -1      3112 1.25250E+02 3.83540E+01 0.00000E+00
 -1      3113 1.23000E+02 3.70550E+01 0.00000E+00
 -1      3114 1.26750E+02 3.83540E+01 0.00000E+00
 -1      3115 1.28250E+02 3.83540E+01 0.00000E+00
 -1      3116 1.26000E+02 3.70550E+01 0.00000E+00
 -1      3117 1.29750E+02 3.83540E+01 0.00000E+00
 -1      3118 1.31250E+02 3.83540E+01 0.00000E+00
 -1      3119 1.29000E+02 3.70550E+01 0.00000E+00
 -1      3120 1.32750E+02 3.83540E+01 0.00000E+00
 -1      3121 1.34250E+02 3.83540E+01 0.00000E+00
 -1      3122 1.32000E+02 3.70550E+01 0.00000E+00
 -1      3123 1.35750E+02 3.83540E+01 0.00000E+00
 -1      3124 1.37250E+02 3.83540E+01 0.00000E+00
 -1      3125 1.35000E+02 3.70550E+01 0.00000E+00
 -1      3126 2.16240E+01 1.12805E+01 0.00000E+00
 -1      3127 2.01240E+01 1.12805E+01 0.00000E+00
 -1      3128 1.86240E+01 1.12805E+01 0.00000E+00
 -1      3129 1.71240E+01 1.12805E+01 0.00000E+00
 -1      3130 1.93740E+01 1.25795E+01 0.00000E+00
 -1      3131 3.36240E+01 1.12805E+01 0.00000E+00
 -1      3132 3.21240E+01 1.12805E+01 0.00000E+00
 -1      3133 3.06240E+01 1.12805E+01 0.00000E+00
 -1      3134 2.91240E+01 1.12805E+01 0.00000E+00
 -1      3135 3.13740E+01 1.25795E+01 0.00000E+00
 -1      3136 3.96240E+01 1.12805E+01 0.00000E+00
 -1      3137 3.81240E+01 1.12805E+01 0.00000E+00
 -1      3138 4.26240E+01 1.12805E+01 0.00000E+00
 -1      3139 4.11240E+01 1.12805E+01 0.00000E+00
 -1      3140 4.03740E+01 1.25795E+01 0.00000E+00
 -1      3141 4.56240E+01 1.12805E+01 0.00000E+00
 -1      3142 4.41240E+01 1.12805E+01 0.00000E+00
 -1      3143 4.33740E+01 1.25795E+01 0.00000E+00
 -1      3144 4.86240E+01 1.12805E+01 0.00000E+00
 -1      3145 4.71240E+01 1.12805E+01 0.00000E+00
 -1      3146 4.63740E+01 1.25795E+01 0.00000E+00
 -1      3147 5.16240E+01 1.12805E+01 0.00000E+00
 -1      3148 5.01240E+01 1.12805E+01 0.00000E+00
 -1      3149 4.93740E+01 1.25795E+01 0.00000E+00
 -1      3150 5.46240E+01 1.12805E+01 0.00000E+00
 -1      3151 5.31240E+01 1.12805E+01 0.00000E+00
 -1      3152 5.23740E+01 1.25795E+01 0.00000E+00
 -1      3153 5.76240E+01 1.12805E+01 0.00000E+00
 -1      3154 5.61240E+01 1.12805E+01 0.00000E+00
 -1      3155 5.53740E+01 1.25795E+01 0.00000E+00
 -1      3156 6.06240E+01 1.12805E+01 0.00000E+00
 -1      3157 5.91240E+01 1.12805E+01 0.00000E+00
 -1      3158 5.83740E+01 1.25795E+01 0.00000E+00
 -1      3159 6.36240E+01 1.12805E+01 0.00000E+00
 -1      3160 6.21240E+01 1.12805E+01 0.00000E+00
 -1      3161 6.13740E+01 1.25795E+01 0.00000E+00
 -1      3162 6.66240E+01 1.12805E+01 0.00000E+00
 -1      3163 6.51240E+01 1.12805E+01 0.00000E+00
 -1      3164 6.43740E+01 1.25795E+01 0.00000E+00
 -1      3165 6.96240E+01 1.12805E+01 0.00000E+00
 -1      3166 6.81240E+01 1.12805E+01 0.00000E+00
 -1      3167 6.73740E+01 1.25795E+01 0.00000E+00
 -1      3168 7.26240E+01 1.12805E+01 0.00000E+00
 -1      3169 7.11240E+01 1.12805E+01 0.00000E+00
 -1      3170 7.03740E+01 1.25795E+01 0.00000E+00
 -1      3171 7.56240E+01 1.12805E+01 0.00000E+00
 -1      3172 7.41240E+01 1.12805E+01 0.00000E+00
 -1      3173 7.33740E+01 1.25795E+01 0.00000E+00
 -1      3174 7.86240E+01 1.12805E+01 0.00000E+00
 -1      3175 7.71240E+01 1.12805E+01 0.00000E+00
 -1      3176 7.63740E+01 1.25795E+01 0.00000E+00
 -1      3177 8.16240E+01 1.12805E+01 0.00000E+00
 -1      3178 8.01240E+01 1.12805E+01 0.00000E+00
 -1      3179 7.93740E+01 1.25795E+01 0.00000E+00
 -1      3180 8.46240E+01 1.12805E+01 0.00000E+00
 -1      3181 8.31240E+01 1.12805E+01 0.00000E+00
 -1      3182 8.23740E+01 1.25795E+01 0.00000E+00
 -1      3183 8.76240E+01 1.12805E+01 0.00000E+00
 -1      3184 8.61240E+01 1.12805E+01 0.00000E+00
 -1      3185 8.53740E+01 1.25795E+01 0.00000E+00
 -1      3186 9.06240E+01 1.12805E+01 0.00000E+00
 -1      3187 8.91240E+01 1.12805E+01 0.00000E+00
 -1      3188 8.83740E+01 1.25795E+01 0.00000E+00
 -1      3189 9.36240E+01 1.12805E+01 0.00000E+00
 -1      3190 9.21240E+01 1.12805E+01 0.00000E+00
 -1      3191 9.13740E+01 1.25795E+01 0.00000E+00
 -1      3192 9.66240E+01 1.12805E+01 0.00000E+00
 -1      3193 9.51240E+01 1.12805E+01 0.00000E+00
 -1      3194 9.43740E+01 1.25795E+01 0.00000E+00
 -1      3195 9.96240E+01 1.12805E+01 0.00000E+00
 -1      3196 9.81240E+01 1.12805E+01 0.00000E+00
 -1      3197 9.73740E+01 1.25795E+01 0.00000E+00
 -1      3198 1.02624E+02 1.12805E+01 0.00000E+00
 -1      3199 1.01124E+02 1.12805E+01 0.00000E+00
 -1      3200 1.00374E+02 1.25795E+01 0.00000E+00
 -1      3201 1.05624E+02 1.12805E+01 0.00000E+00
 -1      3202 1.04124E+02 1.12805E+01 0.00000E+00
 -1      3203 1.03374E+02 1.25795E+01 0.00000E+00
 -1      3204 1.08624E+02 1.12805E+01 0.00000E+00
 -1      3205 1.07124E+02 1.12805E+01 0.00000E+00
 -1      3206 1.06374E+02 1.25795E+01 0.00000E+00
 -1      3207 1.11624E+02 1.12805E+01 0.00000E+00
 -1      3208 1.10124E+02 1.12805E+01 0.00000E+00
 -1      3209 1.09374E+02 1.25795E+01 0.00000E+00
 -1      3210 1.14624E+02 1.12805E+01 0.00000E+00
 -1      3211 1.13124E+02 1.12805E+01 0.00000E+00
 -1      3212 1.12374E+02 1.25795E+01 0.00000E+00
 -1      3213 1.17624E+02 1.12805E+01 0.00000E+00
 -1      3214 1.16124E+02 1.12805E+01 0.00000E+00
 -1      3215 1.15374E+02 1.25795E+01 0.00000E+00
 -1      3216 1.20624E+02 1.12805E+01 0.00000E+00
 -1      3217 1.19124E+02 1.12805E+01 0.00000E+00
 -1      3218 1.18374E+02 1.25795E+01 0.00000E+00
 -1      3219 1.23624E+02 1.12805E+01 0.00000E+00
 -1      3220 1.22124E+02 1.12805E+01 0.00000E+00
 -1      3221 1.21374E+02 1.25795E+01 0.00000E+00
 -1      3222 1.26624E+02 1.12805E+01 0.00000E+00
 -1      3223 1.25124E+02 1.12805E+01 0.00000E+00
 -1      3224 1.24374E+02 1.25795E+01 0.00000E+00
 -1      3225 1.29624E+02 1.12805E+01 0.00000E+00
 -1      3226 1.28124E+02 1.12805E+01 0.00000E+00
 -1      3227 1.27374E+02 1.25795E+01 0.00000E+00
 -1      3228 1.32624E+02 1.12805E+01 0.00000E+00
 -1      3229 1.31124E+02 1.12805E+01 0.00000E+00
 -1      3230 1.30374E+02 1.25795E+01 0.00000E+00
 -1      3231 1.35624E+02 1.12805E+01 0.00000E+00
 -1      3232 1.34124E+02 1.12805E+01 0.00000E+00
 -1      3233 1.33374E+02 1.25795E+01 0.00000E+00
 -1      3234 1.38226E+02 1.13313E+01 0.00000E+00
 -1      3235 1.36768E+02 1.12454E+01 0.00000E+00
 -1      3236 1.36018E+02 1.25444E+01 0.00000E+00
 -1      3237 1.38305E+02 1.24742E+01 0.00000E+00
 -1      3238 1.38309E+02 2.57625E+01 0.00000E+00
 -1      3239 1.38309E+02 2.42875E+01 0.00000E+00
 -1      3240 1.38309E+02 2.86625E+01 0.00000E+00
 -1      3241 1.38309E+02 2.72125E+01 0.00000E+00
 -1      3242 1.37010E+02 2.64750E+01 0.00000E+00
 -1      3243 1.38309E+02 3.16125E+01 0.00000E+00
 -1      3244 1.38309E+02 3.01375E+01 0.00000E+00
 -1      3245 1.37010E+02 2.94000E+01 0.00000E+00
 -1      3246 1.38309E+02 3.45625E+01 0.00000E+00
 -1      3247 1.38309E+02 3.30875E+01 0.00000E+00
 -1      3248 1.37010E+02 3.23500E+01 0.00000E+00
 -1      3249 1.17938E+01 8.83558E+00 0.00000E+00
 -1      3250 4.65088E+01 2.14564E+01 0.00000E+00
 -1      3251 4.72272E+01 2.20884E+01 0.00000E+00
 -1      3252 5.04978E+01 2.51210E+01 0.00000E+00
 -1      3253 5.10906E+01 2.62994E+01 0.00000E+00
 -1      3254 2.75108E+01 2.42961E+01 0.00000E+00
 -1      3255 2.84649E+01 2.32986E+01 0.00000E+00
 -1      3256 1.38309E+02 2.28125E+01 0.00000E+00
 -1      3257 1.38309E+02 2.13375E+01 0.00000E+00
 -1      3258 1.37010E+02 2.35500E+01 0.00000E+00
 -1      3259 3.66240E+01 1.12805E+01 0.00000E+00
 -1      3260 3.51240E+01 1.12805E+01 0.00000E+00
 -1      3261 3.43740E+01 1.25795E+01 0.00000E+00
 -1      3262 3.73740E+01 1.25795E+01 0.00000E+00
 -1      3263 5.44500E+01 3.83540E+01 0.00000E+00
 -1      3264 5.59500E+01 3.83540E+01 0.00000E+00
 -1      3265 5.67000E+01 3.70550E+01 0.00000E+00
 -1      3266 1.59000E+01 3.83090E+01 0.00000E+00
 -1      3267 1.74000E+01 3.83090E+01 0.00000E+00
 -1      3268 1.81500E+01 3.70100E+01 0.00000E+00
 -1      3269 5.15876E+01 3.08826E+01 0.00000E+00
 -1      3270 5.16054E+01 3.21435E+01 0.00000E+00
 -1      3271 2.45771E+01 3.28464E+01 0.00000E+00
 -1      3272 2.45781E+01 3.12557E+01 0.00000E+00
 -1      3273 4.84056E+01 2.29850E+01 0.00000E+00
 -1      3274 4.95841E+01 2.38816E+01 0.00000E+00
 -1      3275 4.87789E+01 2.18364E+01 0.00000E+00
 -1      3276 1.18830E+01 1.08533E+01 0.00000E+00
 -1      3277 2.92215E+01 2.26282E+01 0.00000E+00
 -1      3278 2.99782E+01 2.19578E+01 0.00000E+00
 -1      3279 2.80037E+01 2.24184E+01 0.00000E+00
 -1      3280 1.16910E+01 2.12875E+01 0.00000E+00
 -1      3281 1.16910E+01 2.27625E+01 0.00000E+00
 -1      3282 1.00862E+01 3.73269E+01 0.00000E+00
 -1      3283 4.29352E+01 4.23187E+01 0.00000E+00
 -1      3284 2.49416E+01 3.56685E+01 0.00000E+00
 -1      3285 2.48130E+01 3.43801E+01 0.00000E+00
 -1      3286 1.31820E+01 1.15908E+01 0.00000E+00
 -1      3287 4.27916E+01 1.96416E+01 0.00000E+00
 -1      3288 4.37606E+01 1.93606E+01 0.00000E+00
 -1      3289 4.22227E+01 1.88041E+01 0.00000E+00
 -1      3290 4.54211E+01 1.96815E+01 0.00000E+00
 -1      3291 4.59650E+01 2.05690E+01 0.00000E+00
 -1      3292 4.70566E+01 2.00524E+01 0.00000E+00
 -1      3293 5.16961E+01 2.68552E+01 0.00000E+00
 -1      3294 5.23016E+01 2.74111E+01 0.00000E+00
 -1      3295 5.23903E+01 2.57677E+01 0.00000E+00
 -1      3296 1.16910E+01 3.30594E+01 0.00000E+00
 -1      3297 1.16910E+01 3.45281E+01 0.00000E+00
 -1      3298 2.37047E+01 3.35840E+01 0.00000E+00
 -1      3299 2.44652E+01 2.76211E+01 0.00000E+00
 -1      3300 2.49980E+01 2.48992E+01 0.00000E+00
 -1      3301 2.62544E+01 2.45976E+01 0.00000E+00
 -1      3302 2.59906E+01 2.33903E+01 0.00000E+00
 -1      3303 3.88774E+01 1.87629E+01 0.00000E+00
 -1      3304 3.96324E+01 1.91815E+01 0.00000E+00
 -1      3305 4.04986E+01 1.86665E+01 0.00000E+00
 -1      3306 5.22917E+01 3.28300E+01 0.00000E+00
 -1      3307 2.44934E+01 3.65157E+01 0.00000E+00
 -1      3308 2.31240E+01 1.12805E+01 0.00000E+00
 -1      3309 2.23740E+01 1.25795E+01 0.00000E+00
 -1      3310 2.46240E+01 1.12805E+01 0.00000E+00
 -1      3311 1.38924E+02 3.85144E+01 0.00000E+00
 -1      3312 5.38015E+01 3.73138E+01 0.00000E+00
 -1      3313 2.83740E+01 1.25795E+01 0.00000E+00
 -1      3314 2.76240E+01 1.12805E+01 0.00000E+00
 -1      3315 2.61240E+01 1.12805E+01 0.00000E+00
 -1      3316 2.92171E+01 2.10510E+01 0.00000E+00
 -1      3317 3.04349E+01 2.12608E+01 0.00000E+00
 -1      3318 3.08916E+01 2.05638E+01 0.00000E+00
 -1      3319 1.38309E+02 1.98687E+01 0.00000E+00
 -1      3320 1.38309E+02 1.84000E+01 0.00000E+00
 -1      3321 1.37010E+02 2.06063E+01 0.00000E+00
 -1      3322 1.38464E+02 1.47601E+01 0.00000E+00
 -1      3323 1.38385E+02 1.36172E+01 0.00000E+00
 -1      3324 1.37241E+02 1.36523E+01 0.00000E+00
 -1      3325 1.38464E+02 1.62288E+01 0.00000E+00
 -1      3326 1.38054E+02 3.61775E+01 0.00000E+00
 -1      3327 1.36755E+02 3.54400E+01 0.00000E+00
 -1      3328 5.08711E+01 2.39724E+01 0.00000E+00
 -1      3329 1.56240E+01 1.12805E+01 0.00000E+00
 -1      3330 1.41241E+01 1.12805E+01 0.00000E+00
 -1      3331 3.36725E+01 2.05487E+01 0.00000E+00
 -1      3332 3.41564E+01 1.97880E+01 0.00000E+00
 -1      3333 3.25933E+01 2.00130E+01 0.00000E+00
 -1      3334 1.15598E+01 3.59546E+01 0.00000E+00
 -1      3335 1.12540E+01 3.80190E+01 0.00000E+00
 -1      3336 1.25964E+01 3.80732E+01 0.00000E+00
 -1      3337 1.28588E+01 3.52202E+01 0.00000E+00
 -1      3338 1.29900E+01 2.35000E+01 0.00000E+00
 -1      3339 1.16910E+01 2.42375E+01 0.00000E+00
 -1      3340 1.16910E+01 2.57125E+01 0.00000E+00
 -1      3341 3.57422E+01 1.94472E+01 0.00000E+00
 -1      3342 3.66234E+01 1.98008E+01 0.00000E+00
 -1      3343 3.71300E+01 1.89243E+01 0.00000E+00
 -1      3344 5.20725E+01 2.99992E+01 0.00000E+00
 -1      3345 5.30227E+01 3.06164E+01 0.00000E+00
 -1      3346 5.25575E+01 2.91158E+01 0.00000E+00
 -1      3347 1.39388E+01 3.81274E+01 0.00000E+00
 -1      3348 2.35686E+01 3.05930E+01 0.00000E+00
 -1      3349 1.38174E+02 3.72154E+01 0.00000E+00
 -1      3350 1.16910E+01 1.54063E+01 0.00000E+00
 -1      3351 1.16910E+01 1.68750E+01 0.00000E+00
 -1      3352 1.29900E+01 1.46687E+01 0.00000E+00
 -1      3353 1.16910E+01 3.01219E+01 0.00000E+00
 -1      3354 1.16910E+01 3.15906E+01 0.00000E+00
 -1      3355 1.29900E+01 3.23250E+01 0.00000E+00
 -1      3356 1.39320E+01 1.28898E+01 0.00000E+00
 -1      3357 1.16910E+01 1.83469E+01 0.00000E+00
 -1      3358 1.16910E+01 1.98156E+01 0.00000E+00
 -1      3359 1.29900E+01 2.05531E+01 0.00000E+00
 -1      3360 1.29900E+01 1.76094E+01 0.00000E+00
 -1      3361 1.46888E+01 3.68284E+01 0.00000E+00
 -1      3362 1.63740E+01 1.25795E+01 0.00000E+00
 -1      3363 5.23003E+01 3.54699E+01 0.00000E+00
 -1      3364 5.29488E+01 3.65101E+01 0.00000E+00
 -1      3365 1.48741E+01 1.40483E+01 0.00000E+00
 -1      3366 1.39320E+01 1.43585E+01 0.00000E+00
 -1      3367 1.39320E+01 1.58273E+01 0.00000E+00
 -1      3368 2.27266E+01 3.45195E+01 0.00000E+00
 -1      3369 2.24907E+01 3.29858E+01 0.00000E+00
 -1      3370 5.59500E+01 3.58623E+01 0.00000E+00
 -1      3371 5.74500E+01 3.58623E+01 0.00000E+00
 -1      3372 6.21000E+01 3.57560E+01 0.00000E+00
 -1      3373 6.36000E+01 3.57560E+01 0.00000E+00
 -1      3374 6.51000E+01 3.57560E+01 0.00000E+00
 -1      3375 6.66000E+01 3.57560E+01 0.00000E+00
 -1      3376 6.43500E+01 3.44570E+01 0.00000E+00
 -1      3377 6.81000E+01 3.57560E+01 0.00000E+00
 -1      3378 6.96000E+01 3.57560E+01 0.00000E+00
 -1      3379 6.73500E+01 3.44570E+01 0.00000E+00
 -1      3380 7.11000E+01 3.57560E+01 0.00000E+00
 -1      3381 7.26000E+01 3.57560E+01 0.00000E+00
 -1      3382 7.03500E+01 3.44570E+01 0.00000E+00
 -1      3383 7.41000E+01 3.57560E+01 0.00000E+00
 -1      3384 7.56000E+01 3.57560E+01 0.00000E+00
 -1      3385 7.33500E+01 3.44570E+01 0.00000E+00
 -1      3386 7.71000E+01 3.57560E+01 0.00000E+00
 -1      3387 7.86000E+01 3.57560E+01 0.00000E+00
 -1      3388 7.63500E+01 3.44570E+01 0.00000E+00
 -1      3389 8.01000E+01 3.57560E+01 0.00000E+00
 -1      3390 8.16000E+01 3.57560E+01 0.00000E+00
 -1      3391 7.93500E+01 3.44570E+01 0.00000E+00
 -1      3392 8.31000E+01 3.57560E+01 0.00000E+00
 -1      3393 8.46000E+01 3.57560E+01 0.00000E+00
 -1      3394 8.23500E+01 3.44570E+01 0.00000E+00
 -1      3395 8.61000E+01 3.57560E+01 0.00000E+00
 -1      3396 8.76000E+01 3.57560E+01 0.00000E+00
 -1      3397 8.53500E+01 3.44570E+01 0.00000E+00
 -1      3398 8.91000E+01 3.57560E+01 0.00000E+00
 -1      3399 9.06000E+01 3.57560E+01 0.00000E+00
 -1      3400 8.83500E+01 3.44570E+01 0.00000E+00
 -1      3401 9.21000E+01 3.57560E+01 0.00000E+00
 -1      3402 9.36000E+01 3.57560E+01 0.00000E+00
 -1      3403 9.13500E+01 3.44570E+01 0.00000E+00
 -1      3404 9.51000E+01 3.57560E+01 0.00000E+00
 -1      3405 9.66000E+01 3.57560E+01 0.00000E+00
 -1      3406 9.43500E+01 3.44570E+01 0.00000E+00
 -1      3407 9.81000E+01 3.57560E+01 0.00000E+00
 -1      3408 9.96000E+01 3.57560E+01 0.00000E+00
 -1      3409 9.73500E+01 3.44570E+01 0.00000E+00
 -1      3410 1.01175E+02 3.57560E+01 0.00000E+00
 -1      3411 1.02750E+02 3.57560E+01 0.00000E+00
 -1      3412 1.00425E+02 3.44570E+01 0.00000E+00
 -1      3413 1.04250E+02 3.57560E+01 0.00000E+00
 -1      3414 1.05750E+02 3.57560E+01 0.00000E+00
 -1      3415 1.03500E+02 3.44570E+01 0.00000E+00
 -1      3416 1.07250E+02 3.57560E+01 0.00000E+00
 -1      3417 1.08750E+02 3.57560E+01 0.00000E+00
 -1      3418 1.06500E+02 3.44570E+01 0.00000E+00
 -1      3419 1.10250E+02 3.57560E+01 0.00000E+00
 -1      3420 1.11750E+02 3.57560E+01 0.00000E+00
 -1      3421 1.09500E+02 3.44570E+01 0.00000E+00
 -1      3422 1.13250E+02 3.57560E+01 0.00000E+00
 -1      3423 1.14750E+02 3.57560E+01 0.00000E+00
 -1      3424 1.12500E+02 3.44570E+01 0.00000E+00
 -1      3425 1.16250E+02 3.57560E+01 0.00000E+00
 -1      3426 1.17750E+02 3.57560E+01 0.00000E+00
 -1      3427 1.15500E+02 3.44570E+01 0.00000E+00
 -1      3428 1.19250E+02 3.57560E+01 0.00000E+00
 -1      3429 1.20750E+02 3.57560E+01 0.00000E+00
 -1      3430 1.18500E+02 3.44570E+01 0.00000E+00
 -1      3431 1.22250E+02 3.57560E+01 0.00000E+00
 -1      3432 1.23750E+02 3.57560E+01 0.00000E+00
 -1      3433 1.21500E+02 3.44570E+01 0.00000E+00
 -1      3434 1.25250E+02 3.57560E+01 0.00000E+00
 -1      3435 1.26750E+02 3.57560E+01 0.00000E+00
 -1      3436 1.24500E+02 3.44570E+01 0.00000E+00
 -1      3437 1.28250E+02 3.57560E+01 0.00000E+00
 -1      3438 1.29750E+02 3.57560E+01 0.00000E+00
 -1      3439 1.27500E+02 3.44570E+01 0.00000E+00
 -1      3440 1.31250E+02 3.57560E+01 0.00000E+00
 -1      3441 1.32750E+02 3.57560E+01 0.00000E+00
 -1      3442 1.30500E+02 3.44570E+01 0.00000E+00
 -1      3443 1.34003E+02 3.55980E+01 0.00000E+00
 -1      3444 1.35503E+02 3.55980E+01 0.00000E+00
 -1      3445 1.35758E+02 3.39830E+01 0.00000E+00
 -1      3446 1.33253E+02 3.42990E+01 0.00000E+00
 -1      3447 5.33403E+01 3.23361E+01 0.00000E+00
 -1      3448 5.30943E+01 3.36663E+01 0.00000E+00
 -1      3449 5.43473E+01 3.62514E+01 0.00000E+00
 -1      3450 4.41240E+01 1.38785E+01 0.00000E+00
 -1      3451 4.26240E+01 1.38785E+01 0.00000E+00
 -1      3452 4.11240E+01 1.38785E+01 0.00000E+00
 -1      3453 3.96240E+01 1.38785E+01 0.00000E+00
 -1      3454 4.18740E+01 1.51775E+01 0.00000E+00
 -1      3455 5.01240E+01 1.38785E+01 0.00000E+00
 -1      3456 4.86240E+01 1.38785E+01 0.00000E+00
 -1      3457 5.31240E+01 1.38785E+01 0.00000E+00
 -1      3458 5.16240E+01 1.38785E+01 0.00000E+00
 -1      3459 5.08740E+01 1.51775E+01 0.00000E+00
 -1      3460 5.61240E+01 1.38785E+01 0.00000E+00
 -1      3461 5.46240E+01 1.38785E+01 0.00000E+00
 -1      3462 5.38740E+01 1.51775E+01 0.00000E+00
 -1      3463 5.91240E+01 1.38785E+01 0.00000E+00
 -1      3464 5.76240E+01 1.38785E+01 0.00000E+00
 -1      3465 5.68740E+01 1.51775E+01 0.00000E+00
 -1      3466 6.21240E+01 1.38785E+01 0.00000E+00
 -1      3467 6.06240E+01 1.38785E+01 0.00000E+00
 -1      3468 5.98740E+01 1.51775E+01 0.00000E+00
 -1      3469 6.51240E+01 1.38785E+01 0.00000E+00
 -1      3470 6.36240E+01 1.38785E+01 0.00000E+00
 -1      3471 6.28740E+01 1.51775E+01 0.00000E+00
 -1      3472 6.81240E+01 1.38785E+01 0.00000E+00
 -1      3473 6.66240E+01 1.38785E+01 0.00000E+00
 -1      3474 6.58740E+01 1.51775E+01 0.00000E+00
 -1      3475 7.11240E+01 1.38785E+01 0.00000E+00
 -1      3476 6.96240E+01 1.38785E+01 0.00000E+00
 -1      3477 6.88740E+01 1.51775E+01 0.00000E+00
 -1      3478 7.41240E+01 1.38785E+01 0.00000E+00
 -1      3479 7.26240E+01 1.38785E+01 0.00000E+00
 -1      3480 7.18740E+01 1.51775E+01 0.00000E+00
 -1      3481 7.71240E+01 1.38785E+01 0.00000E+00
 -1      3482 7.56240E+01 1.38785E+01 0.00000E+00
 -1      3483 7.48740E+01 1.51775E+01 0.00000E+00
 -1      3484 8.01240E+01 1.38785E+01 0.00000E+00
 -1      3485 7.86240E+01 1.38785E+01 0.00000E+00
 -1      3486 7.78740E+01 1.51775E+01 0.00000E+00
 -1      3487 8.31240E+01 1.38785E+01 0.00000E+00
 -1      3488 8.16240E+01 1.38785E+01 0.00000E+00
 -1      3489 8.08740E+01 1.51775E+01 0.00000E+00
 -1      3490 8.61240E+01 1.38785E+01 0.00000E+00
 -1      3491 8.46240E+01 1.38785E+01 0.00000E+00
 -1      3492 8.38740E+01 1.51775E+01 0.00000E+00
 -1      3493 8.91240E+01 1.38785E+01 0.00000E+00
 -1      3494 8.76240E+01 1.38785E+01 0.00000E+00
 -1      3495 8.68740E+01 1.51775E+01 0.00000E+00
 -1      3496 9.21240E+01 1.38785E+01 0.00000E+00
 -1      3497 9.06240E+01 1.38785E+01 0.00000E+00
 -1      3498 8.98740E+01 1.51775E+01 0.00000E+00
 -1      3499 9.51240E+01 1.38785E+01 0.00000E+00
 -1      3500 9.36240E+01 1.38785E+01 0.00000E+00
 -1      3501 9.28740E+01 1.51775E+01 0.00000E+00
 -1      3502 9.81240E+01 1.38785E+01 0.00000E+00
 -1      3503 9.66240E+01 1.38785E+01 0.00000E+00
 -1      3504 9.58740E+01 1.51775E+01 0.00000E+00
 -1      3505 1.01124E+02 1.38785E+01 0.00000E+00
 -1      3506 9.96240E+01 1.38785E+01 0.00000E+00
 -1      3507 9.88740E+01 1.51775E+01 0.00000E+00
 -1      3508 1.04124E+02 1.38785E+01 0.00000E+00
 -1      3509 1.02624E+02 1.38785E+01 0.00000E+00
 -1      3510 1.01874E+02 1.51775E+01 0.00000E+00
 -1      3511 1.07124E+02 1.38785E+01 0.00000E+00
 -1      3512 1.05624E+02 1.38785E+01 0.00000E+00
 -1      3513 1.04874E+02 1.51775E+01 0.00000E+00
 -1      3514 1.10124E+02 1.38785E+01 0.00000E+00
 -1      3515 1.08624E+02 1.38785E+01 0.00000E+00
 -1      3516 1.07874E+02 1.51775E+01 0.00000E+00
 -1      3517 1.13124E+02 1.38785E+01 0.00000E+00
 -1      3518 1.11624E+02 1.38785E+01 0.00000E+00
 -1      3519 1.10874E+02 1.51775E+01 0.00000E+00
 -1      3520 1.16124E+02 1.38785E+01 0.00000E+00
 -1      3521 1.14624E+02 1.38785E+01 0.00000E+00
 -1      3522 1.13874E+02 1.51775E+01 0.00000E+00
 -1      3523 1.19124E+02 1.38785E+01 0.00000E+00
 -1      3524 1.17624E+02 1.38785E+01 0.00000E+00
 -1      3525 1.16874E+02 1.51775E+01 0.00000E+00
 -1      3526 1.22124E+02 1.38785E+01 0.00000E+00
 -1      3527 1.20624E+02 1.38785E+01 0.00000E+00
 -1      3528 1.19874E+02 1.51775E+01 0.00000E+00
 -1      3529 1.25124E+02 1.38785E+01 0.00000E+00
 -1      3530 1.23624E+02 1.38785E+01 0.00000E+00
 -1      3531 1.22874E+02 1.51775E+01 0.00000E+00
 -1      3532 1.28124E+02 1.38785E+01 0.00000E+00
 -1      3533 1.26624E+02 1.38785E+01 0.00000E+00
 -1      3534 1.25874E+02 1.51775E+01 0.00000E+00
 -1      3535 1.31124E+02 1.38785E+01 0.00000E+00
 -1      3536 1.29624E+02 1.38785E+01 0.00000E+00
 -1      3537 1.28874E+02 1.51775E+01 0.00000E+00
 -1      3538 1.34124E+02 1.38785E+01 0.00000E+00
 -1      3539 1.32624E+02 1.38785E+01 0.00000E+00
 -1      3540 1.31874E+02 1.51775E+01 0.00000E+00
 -1      3541 1.35711E+02 3.01375E+01 0.00000E+00
 -1      3542 1.35711E+02 2.86625E+01 0.00000E+00
 -1      3543 1.37165E+02 1.69663E+01 0.00000E+00
 -1      3544 1.35734E+02 3.27978E+01 0.00000E+00
 -1      3545 1.35734E+02 3.13228E+01 0.00000E+00
 -1      3546 1.34435E+02 3.05853E+01 0.00000E+00
 -1      3547 1.34482E+02 3.29558E+01 0.00000E+00
 -1      3548 1.35711E+02 2.72125E+01 0.00000E+00
 -1      3549 1.35711E+02 2.57625E+01 0.00000E+00
 -1      3550 1.34412E+02 2.79500E+01 0.00000E+00
 -1      3551 1.48200E+01 3.54019E+01 0.00000E+00
 -1      3552 5.14417E+01 2.25953E+01 0.00000E+00
 -1      3553 5.23554E+01 2.38347E+01 0.00000E+00
 -1      3554 5.27701E+01 3.48040E+01 0.00000E+00
 -1      3555 5.50973E+01 3.50587E+01 0.00000E+00
 -1      3556 1.47625E+01 3.36220E+01 0.00000E+00
 -1      3557 1.65925E+01 3.52302E+01 0.00000E+00
 -1      3558 5.38187E+01 3.43101E+01 0.00000E+00
 -1      3559 3.21240E+01 1.38785E+01 0.00000E+00
 -1      3560 3.06240E+01 1.38785E+01 0.00000E+00
 -1      3561 2.31596E+01 2.79012E+01 0.00000E+00
 -1      3562 2.39562E+01 2.63866E+01 0.00000E+00
 -1      3563 1.63740E+01 1.40483E+01 0.00000E+00
 -1      3564 5.89875E+01 3.58092E+01 0.00000E+00
 -1      3565 6.05625E+01 3.58092E+01 0.00000E+00
 -1      3566 6.13125E+01 3.45102E+01 0.00000E+00
 -1      3567 5.82375E+01 3.46165E+01 0.00000E+00
 -1      3568 4.89626E+01 2.03723E+01 0.00000E+00
 -1      3569 5.01410E+01 2.12688E+01 0.00000E+00
 -1      3570 1.16910E+01 2.71844E+01 0.00000E+00
 -1      3571 1.16910E+01 2.86531E+01 0.00000E+00
 -1      3572 1.29900E+01 2.93875E+01 0.00000E+00
 -1      3573 1.80925E+01 3.52302E+01 0.00000E+00
 -1      3574 2.68344E+01 2.18609E+01 0.00000E+00
 -1      3575 2.75911E+01 2.11905E+01 0.00000E+00
 -1      3576 2.24124E+01 3.12458E+01 0.00000E+00
 -1      3577 2.25123E+01 2.97884E+01 0.00000E+00
 -1      3578 1.35711E+02 2.42875E+01 0.00000E+00
 -1      3579 1.35711E+02 2.28125E+01 0.00000E+00
 -1      3580 1.34412E+02 2.50250E+01 0.00000E+00
 -1      3581 4.71240E+01 1.38785E+01 0.00000E+00
 -1      3582 4.56240E+01 1.38785E+01 0.00000E+00
 -1      3583 4.48740E+01 1.51775E+01 0.00000E+00
 -1      3584 4.78740E+01 1.51775E+01 0.00000E+00
 -1      3585 2.31444E+01 3.62898E+01 0.00000E+00
 -1      3586 2.01240E+01 1.38785E+01 0.00000E+00
 -1      3587 1.86240E+01 1.38785E+01 0.00000E+00
 -1      3588 4.48523E+01 1.88441E+01 0.00000E+00
 -1      3589 4.14528E+01 1.79600E+01 0.00000E+00
 -1      3590 4.24218E+01 1.76790E+01 0.00000E+00
 -1      3591 5.29609E+01 2.43905E+01 0.00000E+00
 -1      3592 5.35664E+01 2.49463E+01 0.00000E+00
 -1      3593 5.35315E+01 2.30133E+01 0.00000E+00
 -1      3594 2.19304E+01 3.56915E+01 0.00000E+00
 -1      3595 2.05813E+01 3.54656E+01 0.00000E+00
 -1      3596 1.71240E+01 1.53473E+01 0.00000E+00
 -1      3597 2.36924E+01 2.51793E+01 0.00000E+00
 -1      3598 3.79962E+01 1.84093E+01 0.00000E+00
 -1      3599 3.88624E+01 1.78943E+01 0.00000E+00
 -1      3600 3.71150E+01 1.80556E+01 0.00000E+00
 -1      3601 2.53740E+01 1.25795E+01 0.00000E+00
 -1      3602 2.98740E+01 1.51775E+01 0.00000E+00
 -1      3603 2.91240E+01 1.38785E+01 0.00000E+00
 -1      3604 2.76240E+01 1.38785E+01 0.00000E+00
 -1      3605 1.47625E+01 3.21533E+01 0.00000E+00
 -1      3606 2.80478E+01 2.04935E+01 0.00000E+00
 -1      3607 2.85045E+01 1.97965E+01 0.00000E+00
 -1      3608 2.68785E+01 1.99359E+01 0.00000E+00
 -1      3609 5.54215E+01 3.39210E+01 0.00000E+00
 -1      3610 1.36097E+02 1.36873E+01 0.00000E+00
 -1      3611 1.35792E+02 1.79593E+01 0.00000E+00
 -1      3612 1.35947E+02 1.57881E+01 0.00000E+00
 -1      3613 1.35711E+02 2.13438E+01 0.00000E+00
 -1      3614 1.35711E+02 1.98750E+01 0.00000E+00
 -1      3615 1.34412E+02 2.20812E+01 0.00000E+00
 -1      3616 5.38253E+01 3.14527E+01 0.00000E+00
 -1      3617 5.46279E+01 3.22890E+01 0.00000E+00
 -1      3618 5.43102E+01 3.05693E+01 0.00000E+00
 -1      3619 3.13754E+01 1.98031E+01 0.00000E+00
 -1      3620 3.18593E+01 1.90424E+01 0.00000E+00
 -1      3621 3.01576E+01 1.95933E+01 0.00000E+00
 -1      3622 3.51240E+01 1.38785E+01 0.00000E+00
 -1      3623 3.36240E+01 1.38785E+01 0.00000E+00
 -1      3624 3.28740E+01 1.51775E+01 0.00000E+00
 -1      3625 5.16254E+01 2.11311E+01 0.00000E+00
 -1      3626 2.20033E+01 2.85540E+01 0.00000E+00
 -1      3627 2.14943E+01 2.73195E+01 0.00000E+00
 -1      3628 2.08471E+01 2.92067E+01 0.00000E+00
 -1      3629 3.46629E+01 1.89115E+01 0.00000E+00
 -1      3630 1.90238E+01 3.36858E+01 0.00000E+00
 -1      3631 5.39459E+01 2.69407E+01 0.00000E+00
 -1      3632 5.32517E+01 2.80282E+01 0.00000E+00
 -1      3633 5.42018E+01 2.86454E+01 0.00000E+00
 -1      3634 2.55780E+01 2.21624E+01 0.00000E+00
 -1      3635 1.29900E+01 2.64469E+01 0.00000E+00
 -1      3636 3.81240E+01 1.38785E+01 0.00000E+00
 -1      3637 3.66240E+01 1.38785E+01 0.00000E+00
 -1      3638 3.58740E+01 1.51775E+01 0.00000E+00
 -1      3639 3.88740E+01 1.51775E+01 0.00000E+00
 -1      3640 2.14343E+01 3.21812E+01 0.00000E+00
 -1      3641 4.06977E+01 1.75414E+01 0.00000E+00
 -1      3642 1.35347E+02 1.49863E+01 0.00000E+00
 -1      3643 1.42890E+01 2.27625E+01 0.00000E+00
 -1      3644 1.42890E+01 2.42375E+01 0.00000E+00
 -1      3645 2.16240E+01 1.38785E+01 0.00000E+00
 -1      3646 2.08740E+01 1.51775E+01 0.00000E+00
 -1      3647 2.31240E+01 1.38785E+01 0.00000E+00
 -1      3648 1.42890E+01 1.98188E+01 0.00000E+00
 -1      3649 1.42890E+01 2.12906E+01 0.00000E+00
 -1      3650 1.55880E+01 2.20281E+01 0.00000E+00
 -1      3651 6.36000E+01 3.31580E+01 0.00000E+00
 -1      3652 6.51000E+01 3.31580E+01 0.00000E+00
 -1      3653 4.77905E+01 1.94778E+01 0.00000E+00
 -1      3654 4.91527E+01 1.89102E+01 0.00000E+00
 -1      3655 6.66000E+01 3.31580E+01 0.00000E+00
 -1      3656 6.81000E+01 3.31580E+01 0.00000E+00
 -1      3657 6.58500E+01 3.18590E+01 0.00000E+00
 -1      3658 6.96000E+01 3.31580E+01 0.00000E+00
 -1      3659 7.11000E+01 3.31580E+01 0.00000E+00
 -1      3660 6.88500E+01 3.18590E+01 0.00000E+00
 -1      3661 7.26000E+01 3.31580E+01 0.00000E+00
 -1      3662 7.41000E+01 3.31580E+01 0.00000E+00
 -1      3663 7.18500E+01 3.18590E+01 0.00000E+00
 -1      3664 7.56000E+01 3.31580E+01 0.00000E+00
 -1      3665 7.71000E+01 3.31580E+01 0.00000E+00
 -1      3666 7.48500E+01 3.18590E+01 0.00000E+00
 -1      3667 7.86000E+01 3.31580E+01 0.00000E+00
 -1      3668 8.01000E+01 3.31580E+01 0.00000E+00
 -1      3669 7.78500E+01 3.18590E+01 0.00000E+00
 -1      3670 8.16000E+01 3.31580E+01 0.00000E+00
 -1      3671 8.31000E+01 3.31580E+01 0.00000E+00
 -1      3672 8.08500E+01 3.18590E+01 0.00000E+00
 -1      3673 8.46000E+01 3.31580E+01 0.00000E+00
 -1      3674 8.61000E+01 3.31580E+01 0.00000E+00
 -1      3675 8.38500E+01 3.18590E+01 0.00000E+00
 -1      3676 8.76000E+01 3.31580E+01 0.00000E+00
 -1      3677 8.91000E+01 3.31580E+01 0.00000E+00
 -1      3678 8.68500E+01 3.18590E+01 0.00000E+00
 -1      3679 9.06000E+01 3.31580E+01 0.00000E+00
 -1      3680 9.21000E+01 3.31580E+01 0.00000E+00
 -1      3681 8.98500E+01 3.18590E+01 0.00000E+00
 -1      3682 9.36000E+01 3.31580E+01 0.00000E+00
 -1      3683 9.51000E+01 3.31580E+01 0.00000E+00
 -1      3684 9.28500E+01 3.18590E+01 0.00000E+00
 -1      3685 9.66000E+01 3.31580E+01 0.00000E+00
 -1      3686 9.81000E+01 3.31580E+01 0.00000E+00
 -1      3687 9.58500E+01 3.18590E+01 0.00000E+00
 -1      3688 9.96750E+01 3.31580E+01 0.00000E+00
 -1      3689 1.01250E+02 3.31580E+01 0.00000E+00
 -1      3690 9.89250E+01 3.18590E+01 0.00000E+00
 -1      3691 1.02750E+02 3.31580E+01 0.00000E+00
 -1      3692 1.04250E+02 3.31580E+01 0.00000E+00
 -1      3693 1.02000E+02 3.18590E+01 0.00000E+00
 -1      3694 1.05750E+02 3.31580E+01 0.00000E+00
 -1      3695 1.07250E+02 3.31580E+01 0.00000E+00
 -1      3696 1.05000E+02 3.18590E+01 0.00000E+00
 -1      3697 1.08750E+02 3.31580E+01 0.00000E+00
 -1      3698 1.10250E+02 3.31580E+01 0.00000E+00
 -1      3699 1.08000E+02 3.18590E+01 0.00000E+00
 -1      3700 1.11750E+02 3.31580E+01 0.00000E+00
 -1      3701 1.13250E+02 3.31580E+01 0.00000E+00
 -1      3702 1.11000E+02 3.18590E+01 0.00000E+00
 -1      3703 1.14750E+02 3.31580E+01 0.00000E+00
 -1      3704 1.16250E+02 3.31580E+01 0.00000E+00
 -1      3705 1.14000E+02 3.18590E+01 0.00000E+00
 -1      3706 1.17750E+02 3.31580E+01 0.00000E+00
 -1      3707 1.19250E+02 3.31580E+01 0.00000E+00
 -1      3708 1.17000E+02 3.18590E+01 0.00000E+00
 -1      3709 1.20750E+02 3.31580E+01 0.00000E+00
 -1      3710 1.22250E+02 3.31580E+01 0.00000E+00
 -1      3711 1.20000E+02 3.18590E+01 0.00000E+00
 -1      3712 1.23750E+02 3.31580E+01 0.00000E+00
 -1      3713 1.25250E+02 3.31580E+01 0.00000E+00
 -1      3714 1.23000E+02 3.18590E+01 0.00000E+00
 -1      3715 1.26750E+02 3.31580E+01 0.00000E+00
 -1      3716 1.28250E+02 3.31580E+01 0.00000E+00
 -1      3717 1.26000E+02 3.18590E+01 0.00000E+00
 -1      3718 1.29750E+02 3.31580E+01 0.00000E+00
 -1      3719 1.31250E+02 3.31580E+01 0.00000E+00
 -1      3720 1.29000E+02 3.18590E+01 0.00000E+00
 -1      3721 1.32240E+02 3.31359E+01 0.00000E+00
 -1      3722 1.33492E+02 3.29779E+01 0.00000E+00
 -1      3723 1.33469E+02 3.17926E+01 0.00000E+00
 -1      3724 1.31490E+02 3.18369E+01 0.00000E+00
 -1      3725 4.25129E+01 1.60062E+01 0.00000E+00
 -1      3726 4.10129E+01 1.60062E+01 0.00000E+00
 -1      3727 1.46433E+01 3.04565E+01 0.00000E+00
 -1      3728 1.64158E+01 3.17535E+01 0.00000E+00
 -1      3729 1.89455E+01 3.19458E+01 0.00000E+00
 -1      3730 5.46240E+01 1.64765E+01 0.00000E+00
 -1      3731 5.31240E+01 1.64765E+01 0.00000E+00
 -1      3732 6.06240E+01 1.64765E+01 0.00000E+00
 -1      3733 5.91240E+01 1.64765E+01 0.00000E+00
 -1      3734 6.36240E+01 1.64765E+01 0.00000E+00
 -1      3735 6.21240E+01 1.64765E+01 0.00000E+00
 -1      3736 6.13740E+01 1.77755E+01 0.00000E+00
 -1      3737 6.66240E+01 1.64765E+01 0.00000E+00
 -1      3738 6.51240E+01 1.64765E+01 0.00000E+00
 -1      3739 6.43740E+01 1.77755E+01 0.00000E+00
 -1      3740 6.96240E+01 1.64765E+01 0.00000E+00
 -1      3741 6.81240E+01 1.64765E+01 0.00000E+00
 -1      3742 6.73740E+01 1.77755E+01 0.00000E+00
 -1      3743 7.26240E+01 1.64765E+01 0.00000E+00
 -1      3744 7.11240E+01 1.64765E+01 0.00000E+00
 -1      3745 7.03740E+01 1.77755E+01 0.00000E+00
 -1      3746 7.56240E+01 1.64765E+01 0.00000E+00
 -1      3747 7.41240E+01 1.64765E+01 0.00000E+00
 -1      3748 7.33740E+01 1.77755E+01 0.00000E+00
 -1      3749 7.86240E+01 1.64765E+01 0.00000E+00
 -1      3750 7.71240E+01 1.64765E+01 0.00000E+00
 -1      3751 7.63740E+01 1.77755E+01 0.00000E+00
 -1      3752 8.16240E+01 1.64765E+01 0.00000E+00
 -1      3753 8.01240E+01 1.64765E+01 0.00000E+00
 -1      3754 7.93740E+01 1.77755E+01 0.00000E+00
 -1      3755 8.46240E+01 1.64765E+01 0.00000E+00
 -1      3756 8.31240E+01 1.64765E+01 0.00000E+00
 -1      3757 8.23740E+01 1.77755E+01 0.00000E+00
 -1      3758 8.76240E+01 1.64765E+01 0.00000E+00
 -1      3759 8.61240E+01 1.64765E+01 0.00000E+00
 -1      3760 8.53740E+01 1.77755E+01 0.00000E+00
 -1      3761 9.06240E+01 1.64765E+01 0.00000E+00
 -1      3762 8.91240E+01 1.64765E+01 0.00000E+00
 -1      3763 8.83740E+01 1.77755E+01 0.00000E+00
 -1      3764 9.36240E+01 1.64765E+01 0.00000E+00
 -1      3765 9.21240E+01 1.64765E+01 0.00000E+00
 -1      3766 9.13740E+01 1.77755E+01 0.00000E+00
 -1      3767 9.66240E+01 1.64765E+01 0.00000E+00
 -1      3768 9.51240E+01 1.64765E+01 0.00000E+00
 -1      3769 9.43740E+01 1.77755E+01 0.00000E+00
 -1      3770 9.96240E+01 1.64765E+01 0.00000E+00
 -1      3771 9.81240E+01 1.64765E+01 0.00000E+00
 -1      3772 9.73740E+01 1.77755E+01 0.00000E+00
 -1      3773 1.02624E+02 1.64765E+01 0.00000E+00
 -1      3774 1.01124E+02 1.64765E+01 0.00000E+00
 -1      3775 1.00374E+02 1.77755E+01 0.00000E+00
 -1      3776 1.05624E+02 1.64765E+01 0.00000E+00
 -1      3777 1.04124E+02 1.64765E+01 0.00000E+00
 -1      3778 1.03374E+02 1.77755E+01 0.00000E+00
 -1      3779 1.08624E+02 1.64765E+01 0.00000E+00
 -1      3780 1.07124E+02 1.64765E+01 0.00000E+00
 -1      3781 1.06374E+02 1.77755E+01 0.00000E+00
 -1      3782 1.11624E+02 1.64765E+01 0.00000E+00
 -1      3783 1.10124E+02 1.64765E+01 0.00000E+00
 -1      3784 1.09374E+02 1.77755E+01 0.00000E+00
 -1      3785 1.14624E+02 1.64765E+01 0.00000E+00
 -1      3786 1.13124E+02 1.64765E+01 0.00000E+00
 -1      3787 1.12374E+02 1.77755E+01 0.00000E+00
 -1      3788 1.17624E+02 1.64765E+01 0.00000E+00
 -1      3789 1.16124E+02 1.64765E+01 0.00000E+00
 -1      3790 1.15374E+02 1.77755E+01 0.00000E+00
 -1      3791 1.20624E+02 1.64765E+01 0.00000E+00
 -1      3792 1.19124E+02 1.64765E+01 0.00000E+00
 -1      3793 1.18374E+02 1.77755E+01 0.00000E+00
 -1      3794 1.23624E+02 1.64765E+01 0.00000E+00
 -1      3795 1.22124E+02 1.64765E+01 0.00000E+00
 -1      3796 1.21374E+02 1.77755E+01 0.00000E+00
 -1      3797 1.26624E+02 1.64765E+01 0.00000E+00
 -1      3798 1.25124E+02 1.64765E+01 0.00000E+00
 -1      3799 1.24374E+02 1.77755E+01 0.00000E+00
 -1      3800 1.29624E+02 1.64765E+01 0.00000E+00
 -1      3801 1.28124E+02 1.64765E+01 0.00000E+00
 -1      3802 1.27374E+02 1.77755E+01 0.00000E+00
 -1      3803 1.32624E+02 1.64765E+01 0.00000E+00
 -1      3804 1.31124E+02 1.64765E+01 0.00000E+00
 -1      3805 1.30374E+02 1.77755E+01 0.00000E+00
 -1      3806 1.55880E+01 2.49719E+01 0.00000E+00
 -1      3807 1.42890E+01 2.57094E+01 0.00000E+00
 -1      3808 1.42890E+01 2.71812E+01 0.00000E+00
 -1      3809 1.33113E+02 2.86750E+01 0.00000E+00
 -1      3810 1.33113E+02 2.72250E+01 0.00000E+00
 -1      3811 1.34493E+02 1.86968E+01 0.00000E+00
 -1      3812 4.40785E+01 1.60139E+01 0.00000E+00
 -1      3813 4.32174E+01 1.68426E+01 0.00000E+00
 -1      3814 4.39874E+01 1.76867E+01 0.00000E+00
 -1      3815 4.55785E+01 1.60139E+01 0.00000E+00
 -1      3816 1.33113E+02 2.57500E+01 0.00000E+00
 -1      3817 1.33113E+02 2.42750E+01 0.00000E+00
 -1      3818 1.31814E+02 2.64750E+01 0.00000E+00
 -1      3819 5.19025E+01 1.95584E+01 0.00000E+00
 -1      3820 5.32032E+01 2.08848E+01 0.00000E+00
 -1      3821 1.83467E+01 1.65577E+01 0.00000E+00
 -1      3822 1.60968E+01 1.67275E+01 0.00000E+00
 -1      3823 1.33974E+02 1.59793E+01 0.00000E+00
 -1      3824 2.21260E+01 2.51907E+01 0.00000E+00
 -1      3825 2.31678E+01 2.37033E+01 0.00000E+00
 -1      3826 1.46433E+01 2.89877E+01 0.00000E+00
 -1      3827 2.40116E+01 2.21738E+01 0.00000E+00
 -1      3828 2.48554E+01 2.06443E+01 0.00000E+00
 -1      3829 2.24452E+01 2.21852E+01 0.00000E+00
 -1      3830 4.72467E+01 1.85904E+01 0.00000E+00
 -1      3831 4.93547E+01 1.74303E+01 0.00000E+00
 -1      3832 5.05268E+01 1.83248E+01 0.00000E+00
 -1      3833 1.88264E+01 3.02490E+01 0.00000E+00
 -1      3834 1.33224E+02 1.72783E+01 0.00000E+00
 -1      3835 4.00588E+01 1.67127E+01 0.00000E+00
 -1      3836 1.41105E+01 1.70871E+01 0.00000E+00
 -1      3837 1.41105E+01 1.85589E+01 0.00000E+00
 -1      3838 1.54095E+01 1.92964E+01 0.00000E+00
 -1      3839 1.50525E+01 1.67768E+01 0.00000E+00
 -1      3840 5.57934E+01 3.30784E+01 0.00000E+00
 -1      3841 5.70720E+01 3.38271E+01 0.00000E+00
 -1      3842 5.86095E+01 3.37739E+01 0.00000E+00
 -1      3843 5.62784E+01 3.21951E+01 0.00000E+00
 -1      3844 3.37256E+01 1.72149E+01 0.00000E+00
 -1      3845 3.53114E+01 1.68741E+01 0.00000E+00
 -1      3846 5.76240E+01 1.64765E+01 0.00000E+00
 -1      3847 5.61240E+01 1.64765E+01 0.00000E+00
 -1      3848 5.53740E+01 1.77755E+01 0.00000E+00
 -1      3849 4.56478E+01 1.80077E+01 0.00000E+00
 -1      3850 4.63818E+01 1.74330E+01 0.00000E+00
 -1      3851 2.61240E+01 1.38785E+01 0.00000E+00
 -1      3852 2.46240E+01 1.38785E+01 0.00000E+00
 -1      3853 2.38740E+01 1.51775E+01 0.00000E+00
 -1      3854 2.68740E+01 1.51775E+01 0.00000E+00
 -1      3855 3.91776E+01 1.63591E+01 0.00000E+00
 -1      3856 5.50871E+01 2.41863E+01 0.00000E+00
 -1      3857 5.45165E+01 2.55635E+01 0.00000E+00
 -1      3858 5.54666E+01 2.61807E+01 0.00000E+00
 -1      3859 3.10077E+01 1.70050E+01 0.00000E+00
 -1      3860 2.95077E+01 1.70050E+01 0.00000E+00
 -1      3861 1.31814E+02 2.35313E+01 0.00000E+00
 -1      3862 1.33113E+02 2.28062E+01 0.00000E+00
 -1      3863 1.33113E+02 2.13375E+01 0.00000E+00
 -1      3864 1.33143E+02 1.91940E+01 0.00000E+00
 -1      3865 4.71773E+01 1.65966E+01 0.00000E+00
 -1      3866 5.83740E+01 1.77755E+01 0.00000E+00
 -1      3867 5.15514E+01 1.60112E+01 0.00000E+00
 -1      3868 5.00514E+01 1.60112E+01 0.00000E+00
 -1      3869 1.59423E+01 2.82502E+01 0.00000E+00
 -1      3870 1.68870E+01 2.42359E+01 0.00000E+00
 -1      3871 1.68870E+01 2.57078E+01 0.00000E+00
 -1      3872 1.99024E+01 1.66432E+01 0.00000E+00
 -1      3873 1.88752E+01 1.80234E+01 0.00000E+00
 -1      3874 5.21046E+01 1.80785E+01 0.00000E+00
 -1      3875 5.50044E+01 2.94818E+01 0.00000E+00
 -1      3876 5.58070E+01 3.03181E+01 0.00000E+00
 -1      3877 5.56987E+01 2.83942E+01 0.00000E+00
 -1      3878 3.22256E+01 1.72149E+01 0.00000E+00
 -1      3879 1.62753E+01 1.79873E+01 0.00000E+00
 -1      3880 3.76776E+01 1.63591E+01 0.00000E+00
 -1      3881 2.04183E+01 2.58193E+01 0.00000E+00
 -1      3882 1.98937E+01 2.43433E+01 0.00000E+00
 -1      3883 4.86773E+01 1.65966E+01 0.00000E+00
 -1      3884 1.33446E+02 3.06074E+01 0.00000E+00
 -1      3885 2.14024E+01 1.66432E+01 0.00000E+00
 -1      3886 1.68870E+01 2.27641E+01 0.00000E+00
 -1      3887 1.81860E+01 2.35000E+01 0.00000E+00
 -1      3888 1.68870E+01 2.12922E+01 0.00000E+00
 -1      3889 1.32147E+02 2.98824E+01 0.00000E+00
 -1      3890 6.05250E+01 3.32643E+01 0.00000E+00
 -1      3891 6.20625E+01 3.32112E+01 0.00000E+00
 -1      3892 6.28125E+01 3.19122E+01 0.00000E+00
 -1      3893 1.83174E+01 2.90145E+01 0.00000E+00
 -1      3894 3.61776E+01 1.63591E+01 0.00000E+00
 -1      3895 6.81000E+01 3.05600E+01 0.00000E+00
 -1      3896 6.96000E+01 3.05600E+01 0.00000E+00
 -1      3897 7.11000E+01 3.05600E+01 0.00000E+00
 -1      3898 7.26000E+01 3.05600E+01 0.00000E+00
 -1      3899 7.03500E+01 2.92610E+01 0.00000E+00
 -1      3900 7.41000E+01 3.05600E+01 0.00000E+00
 -1      3901 7.56000E+01 3.05600E+01 0.00000E+00
 -1      3902 7.33500E+01 2.92610E+01 0.00000E+00
 -1      3903 7.71000E+01 3.05600E+01 0.00000E+00
 -1      3904 7.86000E+01 3.05600E+01 0.00000E+00
 -1      3905 7.63500E+01 2.92610E+01 0.00000E+00
 -1      3906 8.01000E+01 3.05600E+01 0.00000E+00
 -1      3907 8.16000E+01 3.05600E+01 0.00000E+00
 -1      3908 7.93500E+01 2.92610E+01 0.00000E+00
 -1      3909 8.31000E+01 3.05600E+01 0.00000E+00
 -1      3910 8.46000E+01 3.05600E+01 0.00000E+00
 -1      3911 8.23500E+01 2.92610E+01 0.00000E+00
 -1      3912 8.61000E+01 3.05600E+01 0.00000E+00
 -1      3913 8.76000E+01 3.05600E+01 0.00000E+00
 -1      3914 8.53500E+01 2.92610E+01 0.00000E+00
 -1      3915 8.91000E+01 3.05600E+01 0.00000E+00
 -1      3916 9.06000E+01 3.05600E+01 0.00000E+00
 -1      3917 8.83500E+01 2.92610E+01 0.00000E+00
 -1      3918 9.21000E+01 3.05600E+01 0.00000E+00
 -1      3919 9.36000E+01 3.05600E+01 0.00000E+00
 -1      3920 9.13500E+01 2.92610E+01 0.00000E+00
 -1      3921 9.51000E+01 3.05600E+01 0.00000E+00
 -1      3922 9.66000E+01 3.05600E+01 0.00000E+00
 -1      3923 9.43500E+01 2.92610E+01 0.00000E+00
 -1      3924 9.81750E+01 3.05600E+01 0.00000E+00
 -1      3925 9.97500E+01 3.05600E+01 0.00000E+00
 -1      3926 9.74250E+01 2.92610E+01 0.00000E+00
 -1      3927 1.01250E+02 3.05600E+01 0.00000E+00
 -1      3928 1.02750E+02 3.05600E+01 0.00000E+00
 -1      3929 1.00500E+02 2.92610E+01 0.00000E+00
 -1      3930 1.04250E+02 3.05600E+01 0.00000E+00
 -1      3931 1.05750E+02 3.05600E+01 0.00000E+00
 -1      3932 1.03500E+02 2.92610E+01 0.00000E+00
 -1      3933 1.07250E+02 3.05600E+01 0.00000E+00
 -1      3934 1.08750E+02 3.05600E+01 0.00000E+00
 -1      3935 1.06500E+02 2.92610E+01 0.00000E+00
 -1      3936 1.10250E+02 3.05600E+01 0.00000E+00
 -1      3937 1.11750E+02 3.05600E+01 0.00000E+00
 -1      3938 1.09500E+02 2.92610E+01 0.00000E+00
 -1      3939 1.13250E+02 3.05600E+01 0.00000E+00
 -1      3940 1.14750E+02 3.05600E+01 0.00000E+00
 -1      3941 1.12500E+02 2.92610E+01 0.00000E+00
 -1      3942 1.16250E+02 3.05600E+01 0.00000E+00
 -1      3943 1.17750E+02 3.05600E+01 0.00000E+00
 -1      3944 1.15500E+02 2.92610E+01 0.00000E+00
 -1      3945 1.19250E+02 3.05600E+01 0.00000E+00
 -1      3946 1.20750E+02 3.05600E+01 0.00000E+00
 -1      3947 1.18500E+02 2.92610E+01 0.00000E+00
 -1      3948 1.22250E+02 3.05600E+01 0.00000E+00
 -1      3949 1.23750E+02 3.05600E+01 0.00000E+00
 -1      3950 1.21500E+02 2.92610E+01 0.00000E+00
 -1      3951 1.25250E+02 3.05600E+01 0.00000E+00
 -1      3952 1.26750E+02 3.05600E+01 0.00000E+00
 -1      3953 1.24500E+02 2.92610E+01 0.00000E+00
 -1      3954 1.28250E+02 3.05600E+01 0.00000E+00
 -1      3955 1.29750E+02 3.05600E+01 0.00000E+00
 -1      3956 1.27500E+02 2.92610E+01 0.00000E+00
 -1      3957 2.40628E+01 1.93511E+01 0.00000E+00
 -1      3958 2.56292E+01 1.93397E+01 0.00000E+00
 -1      3959 2.60859E+01 1.86427E+01 0.00000E+00
 -1      3960 5.41072E+01 2.17785E+01 0.00000E+00
 -1      3961 5.47127E+01 2.23343E+01 0.00000E+00
 -1      3962 5.23014E+01 1.73102E+01 0.00000E+00
 -1      3963 1.79630E+01 2.72080E+01 0.00000E+00
 -1      3964 6.21240E+01 1.90745E+01 0.00000E+00
 -1      3965 6.06240E+01 1.90745E+01 0.00000E+00
 -1      3966 7.11240E+01 1.90745E+01 0.00000E+00
 -1      3967 6.96240E+01 1.90745E+01 0.00000E+00
 -1      3968 7.41240E+01 1.90745E+01 0.00000E+00
 -1      3969 7.26240E+01 1.90745E+01 0.00000E+00
 -1      3970 7.18740E+01 2.03735E+01 0.00000E+00
 -1      3971 7.71240E+01 1.90745E+01 0.00000E+00
 -1      3972 7.56240E+01 1.90745E+01 0.00000E+00
 -1      3973 7.48740E+01 2.03735E+01 0.00000E+00
 -1      3974 8.01240E+01 1.90745E+01 0.00000E+00
 -1      3975 7.86240E+01 1.90745E+01 0.00000E+00
 -1      3976 7.78740E+01 2.03735E+01 0.00000E+00
 -1      3977 8.31240E+01 1.90745E+01 0.00000E+00
 -1      3978 8.16240E+01 1.90745E+01 0.00000E+00
 -1      3979 8.08740E+01 2.03735E+01 0.00000E+00
 -1      3980 8.61240E+01 1.90745E+01 0.00000E+00
 -1      3981 8.46240E+01 1.90745E+01 0.00000E+00
 -1      3982 8.38740E+01 2.03735E+01 0.00000E+00
 -1      3983 8.91240E+01 1.90745E+01 0.00000E+00
 -1      3984 8.76240E+01 1.90745E+01 0.00000E+00
 -1      3985 8.68740E+01 2.03735E+01 0.00000E+00
 -1      3986 9.21240E+01 1.90745E+01 0.00000E+00
 -1      3987 9.06240E+01 1.90745E+01 0.00000E+00
 -1      3988 8.98740E+01 2.03735E+01 0.00000E+00
 -1      3989 9.51240E+01 1.90745E+01 0.00000E+00
 -1      3990 9.36240E+01 1.90745E+01 0.00000E+00
 -1      3991 9.28740E+01 2.03735E+01 0.00000E+00
 -1      3992 9.81240E+01 1.90745E+01 0.00000E+00
 -1      3993 9.66240E+01 1.90745E+01 0.00000E+00
 -1      3994 9.58740E+01 2.03735E+01 0.00000E+00
 -1      3995 1.01124E+02 1.90745E+01 0.00000E+00
 -1      3996 9.96240E+01 1.90745E+01 0.00000E+00
 -1      3997 9.88740E+01 2.03735E+01 0.00000E+00
 -1      3998 1.04124E+02 1.90745E+01 0.00000E+00
 -1      3999 1.02624E+02 1.90745E+01 0.00000E+00
 -1      4000 1.01874E+02 2.03735E+01 0.00000E+00
 -1      4001 1.07124E+02 1.90745E+01 0.00000E+00
 -1      4002 1.05624E+02 1.90745E+01 0.00000E+00
 -1      4003 1.04874E+02 2.03735E+01 0.00000E+00
 -1      4004 1.10124E+02 1.90745E+01 0.00000E+00
 -1      4005 1.08624E+02 1.90745E+01 0.00000E+00
 -1      4006 1.07874E+02 2.03735E+01 0.00000E+00
 -1      4007 1.13124E+02 1.90745E+01 0.00000E+00
 -1      4008 1.11624E+02 1.90745E+01 0.00000E+00
 -1      4009 1.10874E+02 2.03735E+01 0.00000E+00
 -1      4010 1.16124E+02 1.90745E+01 0.00000E+00
 -1      4011 1.14624E+02 1.90745E+01 0.00000E+00
 -1      4012 1.13874E+02 2.03735E+01 0.00000E+00
 -1      4013 1.19124E+02 1.90745E+01 0.00000E+00
 -1      4014 1.17624E+02 1.90745E+01 0.00000E+00
 -1      4015 1.16874E+02 2.03735E+01 0.00000E+00
 -1      4016 1.22124E+02 1.90745E+01 0.00000E+00
 -1      4017 1.20624E+02 1.90745E+01 0.00000E+00
 -1      4018 1.19874E+02 2.03735E+01 0.00000E+00
 -1      4019 1.25124E+02 1.90745E+01 0.00000E+00
 -1      4020 1.23624E+02 1.90745E+01 0.00000E+00
 -1      4021 1.22874E+02 2.03735E+01 0.00000E+00
 -1      4022 1.28124E+02 1.90745E+01 0.00000E+00
 -1      4023 1.26624E+02 1.90745E+01 0.00000E+00
 -1      4024 1.25874E+02 2.03735E+01 0.00000E+00
 -1      4025 1.31844E+02 1.99190E+01 0.00000E+00
 -1      4026 5.91240E+01 1.90745E+01 0.00000E+00
 -1      4027 5.76240E+01 1.90745E+01 0.00000E+00
 -1      4028 5.98740E+01 2.03735E+01 0.00000E+00
 -1      4029 2.89883E+01 1.90358E+01 0.00000E+00
 -1      4030 6.51000E+01 3.05600E+01 0.00000E+00
 -1      4031 6.66000E+01 3.05600E+01 0.00000E+00
 -1      4032 6.73500E+01 2.92610E+01 0.00000E+00
 -1      4033 2.78546E+01 1.72082E+01 0.00000E+00
 -1      4034 6.81240E+01 1.90745E+01 0.00000E+00
 -1      4035 6.66240E+01 1.90745E+01 0.00000E+00
 -1      4036 6.88740E+01 2.03735E+01 0.00000E+00
 -1      4037 1.92620E+01 2.64721E+01 0.00000E+00
 -1      4038 6.51240E+01 1.90745E+01 0.00000E+00
 -1      4039 6.36240E+01 1.90745E+01 0.00000E+00
 -1      4040 6.28740E+01 2.03735E+01 0.00000E+00
 -1      4041 1.64537E+01 1.92471E+01 0.00000E+00
 -1      4042 2.08859E+01 2.23224E+01 0.00000E+00
 -1      4043 2.17297E+01 2.07930E+01 0.00000E+00
 -1      4044 5.43844E+01 2.02058E+01 0.00000E+00
 -1      4045 2.36053E+01 1.66119E+01 0.00000E+00
 -1      4046 2.26337E+01 1.80776E+01 0.00000E+00
 -1      4047 1.30515E+02 2.72125E+01 0.00000E+00
 -1      4048 1.30515E+02 2.57375E+01 0.00000E+00
 -1      4049 2.63546E+01 1.72082E+01 0.00000E+00
 -1      4050 5.56628E+01 2.29515E+01 0.00000E+00
 -1      4051 2.18599E+01 1.93823E+01 0.00000E+00
 -1      4052 1.77527E+01 1.99830E+01 0.00000E+00
 -1      4053 2.03006E+01 1.95195E+01 0.00000E+00
 -1      4054 1.30515E+02 2.42687E+01 0.00000E+00
 -1      4055 1.30515E+02 2.28000E+01 0.00000E+00
 -1      4056 1.29216E+02 2.50063E+01 0.00000E+00
 -1      4057 5.93595E+01 3.24749E+01 0.00000E+00
 -1      4058 5.68312E+01 2.07365E+01 0.00000E+00
 -1      4059 5.60812E+01 1.94375E+01 0.00000E+00
 -1      4060 1.31157E+02 2.99045E+01 0.00000E+00
 -1      4061 2.51053E+01 1.66119E+01 0.00000E+00
 -1      4062 1.87450E+01 1.94340E+01 0.00000E+00
 -1      4063 1.30344E+02 1.99190E+01 0.00000E+00
 -1      4064 1.29594E+02 2.12180E+01 0.00000E+00
 -1      4065 6.20250E+01 3.06663E+01 0.00000E+00
 -1      4066 6.35625E+01 3.06132E+01 0.00000E+00
 -1      4067 6.43125E+01 2.93142E+01 0.00000E+00
 -1      4068 5.72056E+01 2.25885E+01 0.00000E+00
 -1      4069 5.75800E+01 2.44405E+01 0.00000E+00
 -1      4070 5.87484E+01 2.22255E+01 0.00000E+00
 -1      4071 5.69246E+01 2.57288E+01 0.00000E+00
 -1      4072 5.63540E+01 2.71060E+01 0.00000E+00
 -1      4073 5.71567E+01 2.79423E+01 0.00000E+00
 -1      4074 5.84674E+01 2.53658E+01 0.00000E+00
 -1      4075 1.30407E+02 2.86055E+01 0.00000E+00
 -1      4076 1.29108E+02 2.78680E+01 0.00000E+00
 -1      4077 6.58740E+01 2.03735E+01 0.00000E+00
 -1      4078 5.51772E+01 1.85438E+01 0.00000E+00
 -1      4079 1.98937E+01 2.28714E+01 0.00000E+00
 -1      4080 5.69726E+01 3.11075E+01 0.00000E+00
 -1      4081 1.91782E+01 2.14792E+01 0.00000E+00
 -1      4082 6.96000E+01 2.79620E+01 0.00000E+00
 -1      4083 7.11000E+01 2.79620E+01 0.00000E+00
 -1      4084 5.80224E+01 2.92701E+01 0.00000E+00
 -1      4085 5.84937E+01 3.11471E+01 0.00000E+00
 -1      4086 6.04093E+01 3.06375E+01 0.00000E+00
 -1      4087 5.86778E+01 2.79819E+01 0.00000E+00
 -1      4088 7.26000E+01 2.79620E+01 0.00000E+00
 -1      4089 7.41000E+01 2.79620E+01 0.00000E+00
 -1      4090 7.18500E+01 2.66630E+01 0.00000E+00
 -1      4091 7.56000E+01 2.79620E+01 0.00000E+00
 -1      4092 7.71000E+01 2.79620E+01 0.00000E+00
 -1      4093 7.48500E+01 2.66630E+01 0.00000E+00
 -1      4094 7.86000E+01 2.79620E+01 0.00000E+00
 -1      4095 8.01000E+01 2.79620E+01 0.00000E+00
 -1      4096 7.78500E+01 2.66630E+01 0.00000E+00
 -1      4097 8.16000E+01 2.79620E+01 0.00000E+00
 -1      4098 8.31000E+01 2.79620E+01 0.00000E+00
 -1      4099 8.08500E+01 2.66630E+01 0.00000E+00
 -1      4100 8.46000E+01 2.79620E+01 0.00000E+00
 -1      4101 8.61000E+01 2.79620E+01 0.00000E+00
 -1      4102 8.38500E+01 2.66630E+01 0.00000E+00
 -1      4103 8.76000E+01 2.79620E+01 0.00000E+00
 -1      4104 8.91000E+01 2.79620E+01 0.00000E+00
 -1      4105 8.68500E+01 2.66630E+01 0.00000E+00
 -1      4106 9.06000E+01 2.79620E+01 0.00000E+00
 -1      4107 9.21000E+01 2.79620E+01 0.00000E+00
 -1      4108 8.98500E+01 2.66630E+01 0.00000E+00
 -1      4109 9.36000E+01 2.79620E+01 0.00000E+00
 -1      4110 9.51000E+01 2.79620E+01 0.00000E+00
 -1      4111 9.28500E+01 2.66630E+01 0.00000E+00
 -1      4112 9.66750E+01 2.79620E+01 0.00000E+00
 -1      4113 9.82500E+01 2.79620E+01 0.00000E+00
 -1      4114 9.59250E+01 2.66630E+01 0.00000E+00
 -1      4115 9.97500E+01 2.79620E+01 0.00000E+00
 -1      4116 1.01250E+02 2.79620E+01 0.00000E+00
 -1      4117 9.90000E+01 2.66630E+01 0.00000E+00
 -1      4118 1.02750E+02 2.79620E+01 0.00000E+00
 -1      4119 1.04250E+02 2.79620E+01 0.00000E+00
 -1      4120 1.02000E+02 2.66630E+01 0.00000E+00
 -1      4121 1.05750E+02 2.79620E+01 0.00000E+00
 -1      4122 1.07250E+02 2.79620E+01 0.00000E+00
 -1      4123 1.05000E+02 2.66630E+01 0.00000E+00
 -1      4124 1.08750E+02 2.79620E+01 0.00000E+00
 -1      4125 1.10250E+02 2.79620E+01 0.00000E+00
 -1      4126 1.08000E+02 2.66630E+01 0.00000E+00
 -1      4127 1.11750E+02 2.79620E+01 0.00000E+00
 -1      4128 1.13250E+02 2.79620E+01 0.00000E+00
 -1      4129 1.11000E+02 2.66630E+01 0.00000E+00
 -1      4130 1.14750E+02 2.79620E+01 0.00000E+00
 -1      4131 1.16250E+02 2.79620E+01 0.00000E+00
 -1      4132 1.14000E+02 2.66630E+01 0.00000E+00
 -1      4133 1.17750E+02 2.79620E+01 0.00000E+00
 -1      4134 1.19250E+02 2.79620E+01 0.00000E+00
 -1      4135 1.17000E+02 2.66630E+01 0.00000E+00
 -1      4136 1.20750E+02 2.79620E+01 0.00000E+00
 -1      4137 1.22250E+02 2.79620E+01 0.00000E+00
 -1      4138 1.20000E+02 2.66630E+01 0.00000E+00
 -1      4139 1.23750E+02 2.79620E+01 0.00000E+00
 -1      4140 1.25250E+02 2.79620E+01 0.00000E+00
 -1      4141 1.23000E+02 2.66630E+01 0.00000E+00
 -1      4142 1.26429E+02 2.79150E+01 0.00000E+00
 -1      4143 1.27929E+02 2.79150E+01 0.00000E+00
 -1      4144 1.28037E+02 2.65220E+01 0.00000E+00
 -1      4145 1.25679E+02 2.66160E+01 0.00000E+00
 -1      4146 5.36772E+01 1.85438E+01 0.00000E+00
 -1      4147 7.56240E+01 2.16725E+01 0.00000E+00
 -1      4148 7.41240E+01 2.16725E+01 0.00000E+00
 -1      4149 6.36240E+01 2.16725E+01 0.00000E+00
 -1      4150 6.21240E+01 2.16725E+01 0.00000E+00
 -1      4151 7.26240E+01 2.16725E+01 0.00000E+00
 -1      4152 7.11240E+01 2.16725E+01 0.00000E+00
 -1      4153 7.33740E+01 2.29715E+01 0.00000E+00
 -1      4154 8.16240E+01 2.16725E+01 0.00000E+00
 -1      4155 8.01240E+01 2.16725E+01 0.00000E+00
 -1      4156 8.46240E+01 2.16725E+01 0.00000E+00
 -1      4157 8.31240E+01 2.16725E+01 0.00000E+00
 -1      4158 8.23740E+01 2.29715E+01 0.00000E+00
 -1      4159 8.76240E+01 2.16725E+01 0.00000E+00
 -1      4160 8.61240E+01 2.16725E+01 0.00000E+00
 -1      4161 8.53740E+01 2.29715E+01 0.00000E+00
 -1      4162 9.06240E+01 2.16725E+01 0.00000E+00
 -1      4163 8.91240E+01 2.16725E+01 0.00000E+00
 -1      4164 8.83740E+01 2.29715E+01 0.00000E+00
 -1      4165 9.36240E+01 2.16725E+01 0.00000E+00
 -1      4166 9.21240E+01 2.16725E+01 0.00000E+00
 -1      4167 9.13740E+01 2.29715E+01 0.00000E+00
 -1      4168 9.66240E+01 2.16725E+01 0.00000E+00
 -1      4169 9.51240E+01 2.16725E+01 0.00000E+00
 -1      4170 9.43740E+01 2.29715E+01 0.00000E+00
 -1      4171 9.96240E+01 2.16725E+01 0.00000E+00
 -1      4172 9.81240E+01 2.16725E+01 0.00000E+00
 -1      4173 9.73740E+01 2.29715E+01 0.00000E+00
 -1      4174 1.02624E+02 2.16725E+01 0.00000E+00
 -1      4175 1.01124E+02 2.16725E+01 0.00000E+00
 -1      4176 1.00374E+02 2.29715E+01 0.00000E+00
 -1      4177 1.05624E+02 2.16725E+01 0.00000E+00
 -1      4178 1.04124E+02 2.16725E+01 0.00000E+00
 -1      4179 1.03374E+02 2.29715E+01 0.00000E+00
 -1      4180 1.08624E+02 2.16725E+01 0.00000E+00
 -1      4181 1.07124E+02 2.16725E+01 0.00000E+00
 -1      4182 1.06374E+02 2.29715E+01 0.00000E+00
 -1      4183 1.11624E+02 2.16725E+01 0.00000E+00
 -1      4184 1.10124E+02 2.16725E+01 0.00000E+00
 -1      4185 1.09374E+02 2.29715E+01 0.00000E+00
 -1      4186 1.14624E+02 2.16725E+01 0.00000E+00
 -1      4187 1.13124E+02 2.16725E+01 0.00000E+00
 -1      4188 1.12374E+02 2.29715E+01 0.00000E+00
 -1      4189 1.17624E+02 2.16725E+01 0.00000E+00
 -1      4190 1.16124E+02 2.16725E+01 0.00000E+00
 -1      4191 1.15374E+02 2.29715E+01 0.00000E+00
 -1      4192 1.20624E+02 2.16725E+01 0.00000E+00
 -1      4193 1.19124E+02 2.16725E+01 0.00000E+00
 -1      4194 1.18374E+02 2.29715E+01 0.00000E+00
 -1      4195 1.23624E+02 2.16725E+01 0.00000E+00
 -1      4196 1.22124E+02 2.16725E+01 0.00000E+00
 -1      4197 1.21374E+02 2.29715E+01 0.00000E+00
 -1      4198 1.26624E+02 2.16725E+01 0.00000E+00
 -1      4199 1.25124E+02 2.16725E+01 0.00000E+00
 -1      4200 1.24374E+02 2.29715E+01 0.00000E+00
 -1      4201 1.28295E+02 2.19555E+01 0.00000E+00
 -1      4202 6.02484E+01 2.22255E+01 0.00000E+00
 -1      4203 6.96240E+01 2.16725E+01 0.00000E+00
 -1      4204 6.81240E+01 2.16725E+01 0.00000E+00
 -1      4205 7.03740E+01 2.29715E+01 0.00000E+00
 -1      4206 6.66240E+01 2.16725E+01 0.00000E+00
 -1      4207 6.51240E+01 2.16725E+01 0.00000E+00
 -1      4208 6.73740E+01 2.29715E+01 0.00000E+00
 -1      4209 7.86240E+01 2.16725E+01 0.00000E+00
 -1      4210 7.71240E+01 2.16725E+01 0.00000E+00
 -1      4211 7.63740E+01 2.29715E+01 0.00000E+00
 -1      4212 7.93740E+01 2.29715E+01 0.00000E+00
 -1      4213 6.66000E+01 2.79620E+01 0.00000E+00
 -1      4214 6.81000E+01 2.79620E+01 0.00000E+00
 -1      4215 6.88500E+01 2.66630E+01 0.00000E+00
 -1      4216 6.11593E+01 2.93385E+01 0.00000E+00
 -1      4217 6.50625E+01 2.80152E+01 0.00000E+00
 -1      4218 6.58125E+01 2.67162E+01 0.00000E+00
 -1      4219 6.35250E+01 2.80683E+01 0.00000E+00
 -1      4220 6.09984E+01 2.35245E+01 0.00000E+00
 -1      4221 6.43740E+01 2.29715E+01 0.00000E+00
 -1      4222 1.27545E+02 2.32545E+01 0.00000E+00
 -1      4223 1.28037E+02 2.50533E+01 0.00000E+00
 -1      4224 8.91120E+01 2.48173E+01 0.00000E+00
 -1      4225 8.76120E+01 2.48173E+01 0.00000E+00
 -1      4226 7.41120E+01 2.48173E+01 0.00000E+00
 -1      4227 7.56120E+01 2.48173E+01 0.00000E+00
 -1      4228 7.71120E+01 2.48173E+01 0.00000E+00
 -1      4229 7.86120E+01 2.48173E+01 0.00000E+00
 -1      4230 8.01120E+01 2.48173E+01 0.00000E+00
 -1      4231 8.16120E+01 2.48173E+01 0.00000E+00
 -1      4232 8.31120E+01 2.48173E+01 0.00000E+00
 -1      4233 8.46120E+01 2.48173E+01 0.00000E+00
 -1      4234 8.61120E+01 2.48173E+01 0.00000E+00
 -1      4235 9.06120E+01 2.48173E+01 0.00000E+00
 -1      4236 9.21120E+01 2.48173E+01 0.00000E+00
 -1      4237 9.36120E+01 2.48173E+01 0.00000E+00
 -1      4238 9.51120E+01 2.48173E+01 0.00000E+00
 -1      4239 9.66870E+01 2.48173E+01 0.00000E+00
 -1      4240 9.81870E+01 2.48173E+01 0.00000E+00
 -1      4241 9.96870E+01 2.48173E+01 0.00000E+00
 -1      4242 1.01187E+02 2.48173E+01 0.00000E+00
 -1      4243 1.02687E+02 2.48173E+01 0.00000E+00
 -1      4244 1.04187E+02 2.48173E+01 0.00000E+00
 -1      4245 1.05687E+02 2.48173E+01 0.00000E+00
 -1      4246 1.07187E+02 2.48173E+01 0.00000E+00
 -1      4247 1.08687E+02 2.48173E+01 0.00000E+00
 -1      4248 1.10187E+02 2.48173E+01 0.00000E+00
 -1      4249 1.11687E+02 2.48173E+01 0.00000E+00
 -1      4250 1.13187E+02 2.48173E+01 0.00000E+00
 -1      4251 1.14687E+02 2.48173E+01 0.00000E+00
 -1      4252 1.16187E+02 2.48173E+01 0.00000E+00
 -1      4253 1.17687E+02 2.48173E+01 0.00000E+00
 -1      4254 1.19187E+02 2.48173E+01 0.00000E+00
 -1      4255 1.20687E+02 2.48173E+01 0.00000E+00
 -1      4256 1.22187E+02 2.48173E+01 0.00000E+00
 -1      4257 1.23687E+02 2.48173E+01 0.00000E+00
 -1      4258 1.25187E+02 2.48173E+01 0.00000E+00
 -1      4259 1.26366E+02 2.47703E+01 0.00000E+00
 -1      4260 7.26120E+01 2.48173E+01 0.00000E+00
 -1      4261 6.23036E+01 2.44940E+01 0.00000E+00
 -1      4262 6.04280E+01 2.50470E+01 0.00000E+00
 -1      4263 7.11120E+01 2.48173E+01 0.00000E+00
 -1      4264 6.96120E+01 2.48173E+01 0.00000E+00
 -1      4265 6.81120E+01 2.48173E+01 0.00000E+00
 -1      4266 6.66120E+01 2.48173E+01 0.00000E+00
 -1      4267 5.97726E+01 2.63352E+01 0.00000E+00
 -1      4268 6.50745E+01 2.48704E+01 0.00000E+00
 -1      4269 6.35745E+01 2.48704E+01 0.00000E+00
 -1      4270 6.06383E+01 2.76631E+01 0.00000E+00
 -1      4271 6.22541E+01 2.76919E+01 0.00000E+00
 -1      4272 6.30041E+01 2.63929E+01 0.00000E+00
 -3
    3C                          2054                                     1
 -1       165    8    0    1
 -2         6         7        23      1110      1274      1127
 -1       166    8    0    1
 -2         7         8       165      1111      1275      1276
 -1       167    8    0    1
 -2         8         9       166      1112      1277      1278
 -1       168    8    0    1
 -2         8       166       165      1278      1279      1275
 -1       169    8    0    1
 -2         9        10       167      1113      1280      1281
 -1       170    8    0    1
 -2         9       167       166      1281      1282      1277
 -1       171    8    0    1
 -2        10        11       168      1114      1283      1284
 -1       172    8    0    1
 -2        10       168       167      1284      1285      1280
 -1       173    8    0    1
 -2        11        12       169      1115      1286      1287
 -1       174    8    0    1
 -2        11       169       168      1287      1288      1283
 -1       175    8    0    1
 -2        12        13       170      1116      1289      1290
 -1       176    8    0    1
 -2        12       170       169      1290      1291      1286
 -1       177    8    0    1
 -2        13        14       171      1117      1292      1293
 -1       178    8    0    1
 -2        13       171       170      1293      1294      1289
 -1       179    8    0    1
 -2        14        15       172      1118      1295      1296
 -1       180    8    0    1
 -2        14       172       171      1296      1297      1292
 -1       181    8    0    1
 -2        15        16       173      1119      1298      1299
 -1       182    8    0    1
 -2        15       173       172      1299      1300      1295
 -1       183    8    0    1
 -2        16        17       174      1120      1301      1302
 -1       184    8    0    1
 -2        16       174       173      1302      1303      1298
 -1       185    8    0    1
 -2        17        18       175      1121      1304      1305
 -1       186    8    0    1
 -2        17       175       174      1305      1306      1301
 -1       187    8    0    1
 -2        18        19       176      1122      1307      1308
 -1       188    8    0    1
 -2        18       176       175      1308      1309      1304
 -1       189    8    0    1
 -2        19        20       177      1123      1310      1311
 -1       190    8    0    1
 -2        19       177       176      1311      1312      1307
 -1       191    8    0    1
 -2        20        21       178      1124      1313      1314
 -1       192    8    0    1
 -2        20       178       177      1314      1315      1310
 -1       193    8    0    1
 -2        21        22       179      1125      1316      1317
 -1       194    8    0    1
 -2        21       179       178      1317      1318      1313
 -1       195    8    0    1
 -2        22         5       180      1126      1319      1320
 -1       196    8    0    1
 -2       179        22       180      1316      1320      1321
 -1       197    8    0    1
 -2         5        72       180      1177      1322      1319
 -1       198    8    0    1
 -2        24        23       181      1128      1323      1324
 -1       199    8    0    1
 -2        25        24       182      1129      1325      1326
 -1       200    8    0    1
 -2        24       181       182      1324      1327      1325
 -1       201    8    0    1
 -2        26        25       183      1130      1328      1329
 -1       202    8    0    1
 -2        25       182       183      1326      1330      1328
 -1       203    8    0    1
 -2        27        26       184      1131      1331      1332
 -1       204    8    0    1
 -2        26       183       184      1329      1333      1331
 -1       205    8    0    1
 -2        28        27       185      1132      1334      1335
 -1       206    8    0    1
 -2        27       184       185      1332      1336      1334
 -1       207    8    0    1
 -2        29        28       186      1133      1337      1338
 -1       208    8    0    1
 -2        28       185       186      1335      1339      1337
 -1       209    8    0    1
 -2        30        29       187      1134      1340      1341
 -1       210    8    0    1
 -2        29       186       187      1338      1342      1340
 -1       211    8    0    1
 -2        31        30       188      1135      1343      1344
 -1       212    8    0    1
 -2        30       187       188      1341      1345      1343
 -1       213    8    0    1
 -2        32        31       189      1136      1346      1347
 -1       214    8    0    1
 -2        31       188       189      1344      1348      1346
 -1       215    8    0    1
 -2        33        32       190      1137      1349      1350
 -1       216    8    0    1
 -2        32       189       190      1347      1351      1349
 -1       217    8    0    1
 -2        34        33       191      1138      1352      1353
 -1       218    8    0    1
 -2        33       190       191      1350      1354      1352
 -1       219    8    0    1
 -2        35        34       192      1139      1355      1356
 -1       220    8    0    1
 -2        34       191       192      1353      1357      1355
 -1       221    8    0    1
 -2        36        35       193      1140      1358      1359
 -1       222    8    0    1
 -2        35       192       193      1356      1360      1358
 -1       223    8    0    1
 -2        37        36       194      1141      1361      1362
 -1       224    8    0    1
 -2        36       193       194      1359      1363      1361
 -1       225    8    0    1
 -2        38        37       195      1142      1364      1365
 -1       226    8    0    1
 -2        37       194       195      1362      1366      1364
 -1       227    8    0    1
 -2        39        38       196      1143      1367      1368
 -1       228    8    0    1
 -2        38       195       196      1365      1369      1367
 -1       229    8    0    1
 -2        40        39       197      1144      1370      1371
 -1       230    8    0    1
 -2        39       196       197      1368      1372      1370
 -1       231    8    0    1
 -2        41        40       198      1145      1373      1374
 -1       232    8    0    1
 -2        40       197       198      1371      1375      1373
 -1       233    8    0    1
 -2        42        41       199      1146      1376      1377
 -1       234    8    0    1
 -2        41       198       199      1374      1378      1376
 -1       235    8    0    1
 -2        43        42       200      1147      1379      1380
 -1       236    8    0    1
 -2        42       199       200      1377      1381      1379
 -1       237    8    0    1
 -2        44        43       201      1148      1382      1383
 -1       238    8    0    1
 -2        43       200       201      1380      1384      1382
 -1       239    8    0    1
 -2        45        44       202      1149      1385      1386
 -1       240    8    0    1
 -2        44       201       202      1383      1387      1385
 -1       241    8    0    1
 -2        46        45       203      1150      1388      1389
 -1       242    8    0    1
 -2        45       202       203      1386      1390      1388
 -1       243    8    0    1
 -2        47        46       204      1151      1391      1392
 -1       244    8    0    1
 -2        46       203       204      1389      1393      1391
 -1       245    8    0    1
 -2        48        47       205      1152      1394      1395
 -1       246    8    0    1
 -2        47       204       205      1392      1396      1394
 -1       247    8    0    1
 -2        49        48       206      1153      1397      1398
 -1       248    8    0    1
 -2        48       205       206      1395      1399      1397
 -1       249    8    0    1
 -2        50        49       207      1154      1400      1401
 -1       250    8    0    1
 -2        49       206       207      1398      1402      1400
 -1       251    8    0    1
 -2        51        50       208      1155      1403      1404
 -1       252    8    0    1
 -2        50       207       208      1401      1405      1403
 -1       253    8    0    1
 -2        52        51       209      1156      1406      1407
 -1       254    8    0    1
 -2        51       208       209      1404      1408      1406
 -1       255    8    0    1
 -2        53        52       210      1157      1409      1410
 -1       256    8    0    1
 -2        52       209       210      1407      1411      1409
 -1       257    8    0    1
 -2        54        53       211      1158      1412      1413
 -1       258    8    0    1
 -2        53       210       211      1410      1414      1412
 -1       259    8    0    1
 -2        55        54       212      1159      1415      1416
 -1       260    8    0    1
 -2        54       211       212      1413      1417      1415
 -1       261    8    0    1
 -2        56        55       213      1160      1418      1419
 -1       262    8    0    1
 -2        55       212       213      1416      1420      1418
 -1       263    8    0    1
 -2        57        56       214      1161      1421      1422
 -1       264    8    0    1
 -2        56       213       214      1419      1423      1421
 -1       265    8    0    1
 -2        58        57       215      1162      1424      1425
 -1       266    8    0    1
 -2        57       214       215      1422      1426      1424
 -1       267    8    0    1
 -2        59        58       216      1163      1427      1428
 -1       268    8    0    1
 -2        58       215       216      1425      1429      1427
 -1       269    8    0    1
 -2        60        59       217      1164      1430      1431
 -1       270    8    0    1
 -2        59       216       217      1428      1432      1430
 -1       271    8    0    1
 -2        61        60       218      1165      1433      1434
 -1       272    8    0    1
 -2        60       217       218      1431      1435      1433
 -1       273    8    0    1
 -2        62        61       219      1166      1436      1437
 -1       274    8    0    1
 -2        61       218       219      1434      1438      1436
 -1       275    8    0    1
 -2        63        62       220      1167      1439      1440
 -1       276    8    0    1
 -2        62       219       220      1437      1441      1439
 -1       277    8    0    1
 -2        64        63       221      1168      1442      1443
 -1       278    8    0    1
 -2        63       220       221      1440      1444      1442
 -1       279    8    0    1
 -2        65        64       222      1169      1445      1446
 -1       280    8    0    1
 -2        64       221       222      1443      1447      1445
 -1       281    8    0    1
 -2        66        65       223      1170      1448      1449
 -1       282    8    0    1
 -2        65       222       223      1446      1450      1448
 -1       283    8    0    1
 -2        67        66       224      1171      1451      1452
 -1       284    8    0    1
 -2        66       223       224      1449      1453      1451
 -1       285    8    0    1
 -2        68        67       225      1172      1454      1455
 -1       286    8    0    1
 -2        67       224       225      1452      1456      1454
 -1       287    8    0    1
 -2        69        68       226      1173      1457      1458
 -1       288    8    0    1
 -2        68       225       226      1455      1459      1457
 -1       289    8    0    1
 -2        70        69       227      1174      1460      1461
 -1       290    8    0    1
 -2        69       226       227      1458      1462      1460
 -1       291    8    0    1
 -2        71        70       228      1175      1463      1464
 -1       292    8    0    1
 -2        70       227       228      1461      1465      1463
 -1       293    8    0    1
 -2         4        71       229      1176      1466      1467
 -1       294    8    0    1
 -2       136         4       229      1243      1467      1468
 -1       295    8    0    1
 -2        71       228       229      1464      1469      1466
 -1       296    8    0    1
 -2        72        73       230      1178      1470      1471
 -1       297    8    0    1
 -2        72       230       180      1471      1472      1322
 -1       298    8    0    1
 -2        73        74       231      1179      1473      1474
 -1       299    8    0    1
 -2        73       231       230      1474      1475      1470
 -1       300    8    0    1
 -2        74        75       232      1180      1476      1477
 -1       301    8    0    1
 -2        74       232       231      1477      1478      1473
 -1       302    8    0    1
 -2        75        76       233      1181      1479      1480
 -1       303    8    0    1
 -2        75       233       232      1480      1481      1476
 -1       304    8    0    1
 -2        76        77       234      1182      1482      1483
 -1       305    8    0    1
 -2        76       234       233      1483      1484      1479
 -1       306    8    0    1
 -2        77        78       235      1183      1485      1486
 -1       307    8    0    1
 -2        77       235       234      1486      1487      1482
 -1       308    8    0    1
 -2        78        79       236      1184      1488      1489
 -1       309    8    0    1
 -2        78       236       235      1489      1490      1485
 -1       310    8    0    1
 -2        79        80       237      1185      1491      1492
 -1       311    8    0    1
 -2        79       237       236      1492      1493      1488
 -1       312    8    0    1
 -2        80        81       238      1186      1494      1495
 -1       313    8    0    1
 -2        80       238       237      1495      1496      1491
 -1       314    8    0    1
 -2        81        82       239      1187      1497      1498
 -1       315    8    0    1
 -2        81       239       238      1498      1499      1494
 -1       316    8    0    1
 -2        82        83       240      1188      1500      1501
 -1       317    8    0    1
 -2        82       240       239      1501      1502      1497
 -1       318    8    0    1
 -2        83        84       241      1189      1503      1504
 -1       319    8    0    1
 -2        83       241       240      1504      1505      1500
 -1       320    8    0    1
 -2        84        85       242      1190      1506      1507
 -1       321    8    0    1
 -2        84       242       241      1507      1508      1503
 -1       322    8    0    1
 -2        85        86       243      1191      1509      1510
 -1       323    8    0    1
 -2        85       243       242      1510      1511      1506
 -1       324    8    0    1
 -2        86        87       244      1192      1512      1513
 -1       325    8    0    1
 -2        86       244       243      1513      1514      1509
 -1       326    8    0    1
 -2        87        88       245      1193      1515      1516
 -1       327    8    0    1
 -2        87       245       244      1516      1517      1512
 -1       328    8    0    1
 -2        88        89       246      1194      1518      1519
 -1       329    8    0    1
 -2        88       246       245      1519      1520      1515
 -1       330    8    0    1
 -2        89        90       247      1195      1521      1522
 -1       331    8    0    1
 -2        89       247       246      1522      1523      1518
 -1       332    8    0    1
 -2        90        91       248      1196      1524      1525
 -1       333    8    0    1
 -2        90       248       247      1525      1526      1521
 -1       334    8    0    1
 -2        91        92       249      1197      1527      1528
 -1       335    8    0    1
 -2        91       249       248      1528      1529      1524
 -1       336    8    0    1
 -2        92        93       250      1198      1530      1531
 -1       337    8    0    1
 -2        92       250       249      1531      1532      1527
 -1       338    8    0    1
 -2        93        94       251      1199      1533      1534
 -1       339    8    0    1
 -2        93       251       250      1534      1535      1530
 -1       340    8    0    1
 -2        94        95       252      1200      1536      1537
 -1       341    8    0    1
 -2        94       252       251      1537      1538      1533
 -1       342    8    0    1
 -2        95        96       253      1201      1539      1540
 -1       343    8    0    1
 -2        95       253       252      1540      1541      1536
 -1       344    8    0    1
 -2        96        97       254      1202      1542      1543
 -1       345    8    0    1
 -2        96       254       253      1543      1544      1539
 -1       346    8    0    1
 -2        97        98       255      1203      1545      1546
 -1       347    8    0    1
 -2        97       255       254      1546      1547      1542
 -1       348    8    0    1
 -2        98        99       256      1204      1548      1549
 -1       349    8    0    1
 -2        98       256       255      1549      1550      1545
 -1       350    8    0    1
 -2        99       100       257      1205      1551      1552
 -1       351    8    0    1
 -2        99       257       256      1552      1553      1548
 -1       352    8    0    1
 -2       100       101       258      1206      1554      1555
 -1       353    8    0    1
 -2       100       258       257      1555      1556      1551
 -1       354    8    0    1
 -2       101       102       259      1207      1557      1558
 -1       355    8    0    1
 -2       101       259       258      1558      1559      1554
 -1       356    8    0    1
 -2       102       103       260      1208      1560      1561
 -1       357    8    0    1
 -2       102       260       259      1561      1562      1557
 -1       358    8    0    1
 -2       103       104       261      1209      1563      1564
 -1       359    8    0    1
 -2       103       261       260      1564      1565      1560
 -1       360    8    0    1
 -2       104       105       262      1210      1566      1567
 -1       361    8    0    1
 -2       104       262       261      1567      1568      1563
 -1       362    8    0    1
 -2       105       106       263      1211      1569      1570
 -1       363    8    0    1
 -2       105       263       262      1570      1571      1566
 -1       364    8    0    1
 -2       106       107       264      1212      1572      1573
 -1       365    8    0    1
 -2       106       264       263      1573      1574      1569
 -1       366    8    0    1
 -2       107       108       265      1213      1575      1576
 -1       367    8    0    1
 -2       107       265       264      1576      1577      1572
 -1       368    8    0    1
 -2       108       109       266      1214      1578      1579
 -1       369    8    0    1
 -2       108       266       265      1579      1580      1575
 -1       370    8    0    1
 -2       109       110       267      1215      1581      1582
 -1       371    8    0    1
 -2       109       267       266      1582      1583      1578
 -1       372    8    0    1
 -2       110       111       268      1216      1584      1585
 -1       373    8    0    1
 -2       110       268       267      1585      1586      1581
 -1       374    8    0    1
 -2       111       112       269      1217      1587      1588
 -1       375    8    0    1
 -2       111       269       268      1588      1589      1584
 -1       376    8    0    1
 -2       112       113       270      1218      1590      1591
 -1       377    8    0    1
 -2       112       270       269      1591      1592      1587
 -1       378    8    0    1
 -2       113       114       271      1219      1593      1594
 -1       379    8    0    1
 -2       113       271       270      1594      1595      1590
 -1       380    8    0    1
 -2       114       115       272      1220      1596      1597
 -1       381    8    0    1
 -2       114       272       271      1597      1598      1593
 -1       382    8    0    1
 -2       115       116       273      1221      1599      1600
 -1       383    8    0    1
 -2       115       273       272      1600      1601      1596
 -1       384    8    0    1
 -2       116       117       274      1222      1602      1603
 -1       385    8    0    1
 -2       116       274       273      1603      1604      1599
 -1       386    8    0    1
 -2       117       118       275      1223      1605      1606
 -1       387    8    0    1
 -2       117       275       274      1606      1607      1602
 -1       388    8    0    1
 -2       118       119       276      1224      1608      1609
 -1       389    8    0    1
 -2       118       276       275      1609      1610      1605
 -1       390    8    0    1
 -2       119       120       277      1225      1611      1612
 -1       391    8    0    1
 -2       119       277       276      1612      1613      1608
 -1       392    8    0    1
 -2       120         3       121      1226      1227      1614
 -1       393    8    0    1
 -2       121       122       278      1228      1615      1616
 -1       394    8    0    1
 -2       122       123       279      1229      1617      1618
 -1       395    8    0    1
 -2       122       279       278      1618      1619      1615
 -1       396    8    0    1
 -2       123       124       280      1230      1620      1621
 -1       397    8    0    1
 -2       123       280       279      1621      1622      1617
 -1       398    8    0    1
 -2       124       125       281      1231      1623      1624
 -1       399    8    0    1
 -2       124       281       280      1624      1625      1620
 -1       400    8    0    1
 -2       125       126       282      1232      1626      1627
 -1       401    8    0    1
 -2       125       282       281      1627      1628      1623
 -1       402    8    0    1
 -2       126       127       283      1233      1629      1630
 -1       403    8    0    1
 -2       126       283       282      1630      1631      1626
 -1       404    8    0    1
 -2       127       128       284      1234      1632      1633
 -1       405    8    0    1
 -2       127       284       283      1633      1634      1629
 -1       406    8    0    1
 -2       128       129       285      1235      1635      1636
 -1       407    8    0    1
 -2       128       285       284      1636      1637      1632
 -1       408    8    0    1
 -2       129       130       286      1236      1638      1639
 -1       409    8    0    1
 -2       129       286       285      1639      1640      1635
 -1       410    8    0    1
 -2       130       131       287      1237      1641      1642
 -1       411    8    0    1
 -2       130       287       286      1642      1643      1638
 -1       412    8    0    1
 -2       131       132       288      1238      1644      1645
 -1       413    8    0    1
 -2       131       288       287      1645      1646      1641
 -1       414    8    0    1
 -2       132       133       289      1239      1647      1648
 -1       415    8    0    1
 -2       132       289       288      1648      1649      1644
 -1       416    8    0    1
 -2       133       134       290      1240      1650      1651
 -1       417    8    0    1
 -2       133       290       289      1651      1652      1647
 -1       418    8    0    1
 -2       134       135       291      1241      1653      1654
 -1       419    8    0    1
 -2       134       291       290      1654      1655      1650
 -1       420    8    0    1
 -2       135       136       292      1242      1656      1657
 -1       421    8    0    1
 -2       291       135       292      1653      1657      1658
 -1       422    8    0    1
 -2       136       229       292      1468      1659      1656
 -1       423    8    0    1
 -2         2       137       293      1244      1660      1661
 -1       424    8    0    1
 -2       137       138       294      1245      1662      1663
 -1       425    8    0    1
 -2       138       139       295      1246      1664      1665
 -1       426    8    0    1
 -2       139       140       296      1247      1666      1667
 -1       427    8    0    1
 -2       140       141       297      1248      1668      1669
 -1       428    8    0    1
 -2       141       142       298      1249      1670      1671
 -1       429    8    0    1
 -2       142       143       299      1250      1672      1673
 -1       430    8    0    1
 -2       143       144       300      1251      1674      1675
 -1       431    8    0    1
 -2       144       145       301      1252      1676      1677
 -1       432    8    0    1
 -2       145       146       302      1253      1678      1679
 -1       433    8    0    1
 -2       146       147       303      1254      1680      1681
 -1       434    8    0    1
 -2       147       148       304      1255      1682      1683
 -1       435    8    0    1
 -2       148       149       305      1256      1684      1685
 -1       436    8    0    1
 -2       149       150       306      1257      1686      1687
 -1       437    8    0    1
 -2       150       151       307      1258      1688      1689
 -1       438    8    0    1
 -2       151       152       308      1259      1690      1691
 -1       439    8    0    1
 -2       152       153       309      1260      1692      1693
 -1       440    8    0    1
 -2       153       154       310      1261      1694      1695
 -1       441    8    0    1
 -2       154       155       311      1262      1696      1697
 -1       442    8    0    1
 -2       155       156       312      1263      1698      1699
 -1       443    8    0    1
 -2       156       157       313      1264      1700      1701
 -1       444    8    0    1
 -2       157         1       314      1265      1702      1703
 -1       445    8    0    1
 -2         1       158       315      1266      1704      1705
 -1       446    8    0    1
 -2       158       159       316      1267      1706      1707
 -1       447    8    0    1
 -2       159       160       317      1268      1708      1709
 -1       448    8    0    1
 -2       160       161       318      1269      1710      1711
 -1       449    8    0    1
 -2       161       162       319      1270      1712      1713
 -1       450    8    0    1
 -2       162       163       320      1271      1714      1715
 -1       451    8    0    1
 -2       163       164       321      1272      1716      1717
 -1       452    8    0    1
 -2       164         2       322      1273      1718      1719
 -1       453    8    0    1
 -2       295       139       296      1664      1667      1720
 -1       454    8    0    1
 -2         2       293       322      1661      1721      1718
 -1       455    8    0    1
 -2       120       121       277      1614      1722      1611
 -1       456    8    0    1
 -2       121       278       277      1616      1723      1722
 -1       457    8    0    1
 -2       293       137       294      1660      1663      1724
 -1       458    8    0    1
 -2       294       138       295      1662      1665      1725
 -1       459    8    0    1
 -2       140       297       296      1669      1726      1666
 -1       460    8    0    1
 -2       141       298       297      1671      1727      1668
 -1       461    8    0    1
 -2       142       299       298      1673      1728      1670
 -1       462    8    0    1
 -2       143       300       299      1675      1729      1672
 -1       463    8    0    1
 -2       144       301       300      1677      1730      1674
 -1       464    8    0    1
 -2       145       302       301      1679      1731      1676
 -1       465    8    0    1
 -2       146       303       302      1681      1732      1678
 -1       466    8    0    1
 -2       147       304       303      1683      1733      1680
 -1       467    8    0    1
 -2       148       305       304      1685      1734      1682
 -1       468    8    0    1
 -2       149       306       305      1687      1735      1684
 -1       469    8    0    1
 -2       150       307       306      1689      1736      1686
 -1       470    8    0    1
 -2       151       308       307      1691      1737      1688
 -1       471    8    0    1
 -2       152       309       308      1693      1738      1690
 -1       472    8    0    1
 -2       153       310       309      1695      1739      1692
 -1       473    8    0    1
 -2       154       311       310      1697      1740      1694
 -1       474    8    0    1
 -2       155       312       311      1699      1741      1696
 -1       475    8    0    1
 -2       156       313       312      1701      1742      1698
 -1       476    8    0    1
 -2       157       314       313      1703      1743      1700
 -1       477    8    0    1
 -2         1       315       314      1705      1744      1702
 -1       478    8    0    1
 -2       158       316       315      1707      1745      1704
 -1       479    8    0    1
 -2       159       317       316      1709      1746      1706
 -1       480    8    0    1
 -2       160       318       317      1711      1747      1708
 -1       481    8    0    1
 -2       161       319       318      1713      1748      1710
 -1       482    8    0    1
 -2       162       320       319      1715      1749      1712
 -1       483    8    0    1
 -2       163       321       320      1717      1750      1714
 -1       484    8    0    1
 -2       164       322       321      1719      1751      1716
 -1       485    8    0    1
 -2        23         7       165      1274      1276      1752
 -1       486    8    0    1
 -2       166       167       323      1282      1753      1754
 -1       487    8    0    1
 -2       165       166       324      1279      1755      1756
 -1       488    8    0    1
 -2       166       323       324      1754      1757      1755
 -1       489    8    0    1
 -2       168       169       325      1288      1758      1759
 -1       490    8    0    1
 -2       169       170       326      1291      1760      1761
 -1       491    8    0    1
 -2       169       326       325      1761      1762      1758
 -1       492    8    0    1
 -2       170       171       327      1294      1763      1764
 -1       493    8    0    1
 -2       170       327       326      1764      1765      1760
 -1       494    8    0    1
 -2       171       172       328      1297      1766      1767
 -1       495    8    0    1
 -2       171       328       327      1767      1768      1763
 -1       496    8    0    1
 -2       172       173       329      1300      1769      1770
 -1       497    8    0    1
 -2       172       329       328      1770      1771      1766
 -1       498    8    0    1
 -2       173       174       330      1303      1772      1773
 -1       499    8    0    1
 -2       173       330       329      1773      1774      1769
 -1       500    8    0    1
 -2       174       175       331      1306      1775      1776
 -1       501    8    0    1
 -2       174       331       330      1776      1777      1772
 -1       502    8    0    1
 -2       175       176       332      1309      1778      1779
 -1       503    8    0    1
 -2       175       332       331      1779      1780      1775
 -1       504    8    0    1
 -2       176       177       333      1312      1781      1782
 -1       505    8    0    1
 -2       176       333       332      1782      1783      1778
 -1       506    8    0    1
 -2       177       178       334      1315      1784      1785
 -1       507    8    0    1
 -2       177       334       333      1785      1786      1781
 -1       508    8    0    1
 -2       178       179       335      1318      1787      1788
 -1       509    8    0    1
 -2       178       335       334      1788      1789      1784
 -1       510    8    0    1
 -2       179       180       336      1321      1790      1791
 -1       511    8    0    1
 -2       335       179       336      1787      1791      1792
 -1       512    8    0    1
 -2       180       230       336      1472      1793      1790
 -1       513    8    0    1
 -2       181        23       165      1323      1752      1794
 -1       514    8    0    1
 -2       230       231       337      1475      1795      1796
 -1       515    8    0    1
 -2       230       337       336      1796      1797      1793
 -1       516    8    0    1
 -2       181       165       324      1794      1756      1798
 -1       517    8    0    1
 -2       183       182       338      1330      1799      1800
 -1       518    8    0    1
 -2       184       183       339      1333      1801      1802
 -1       519    8    0    1
 -2       183       338       339      1800      1803      1801
 -1       520    8    0    1
 -2       185       184       340      1336      1804      1805
 -1       521    8    0    1
 -2       184       339       340      1802      1806      1804
 -1       522    8    0    1
 -2       186       185       341      1339      1807      1808
 -1       523    8    0    1
 -2       185       340       341      1805      1809      1807
 -1       524    8    0    1
 -2       187       186       342      1342      1810      1811
 -1       525    8    0    1
 -2       186       341       342      1808      1812      1810
 -1       526    8    0    1
 -2       188       187       343      1345      1813      1814
 -1       527    8    0    1
 -2       187       342       343      1811      1815      1813
 -1       528    8    0    1
 -2       189       188       344      1348      1816      1817
 -1       529    8    0    1
 -2       188       343       344      1814      1818      1816
 -1       530    8    0    1
 -2       190       189       345      1351      1819      1820
 -1       531    8    0    1
 -2       189       344       345      1817      1821      1819
 -1       532    8    0    1
 -2       191       190       346      1354      1822      1823
 -1       533    8    0    1
 -2       190       345       346      1820      1824      1822
 -1       534    8    0    1
 -2       192       191       347      1357      1825      1826
 -1       535    8    0    1
 -2       191       346       347      1823      1827      1825
 -1       536    8    0    1
 -2       193       192       348      1360      1828      1829
 -1       537    8    0    1
 -2       192       347       348      1826      1830      1828
 -1       538    8    0    1
 -2       194       193       349      1363      1831      1832
 -1       539    8    0    1
 -2       193       348       349      1829      1833      1831
 -1       540    8    0    1
 -2       195       194       350      1366      1834      1835
 -1       541    8    0    1
 -2       194       349       350      1832      1836      1834
 -1       542    8    0    1
 -2       196       195       351      1369      1837      1838
 -1       543    8    0    1
 -2       195       350       351      1835      1839      1837
 -1       544    8    0    1
 -2       197       196       352      1372      1840      1841
 -1       545    8    0    1
 -2       196       351       352      1838      1842      1840
 -1       546    8    0    1
 -2       198       197       353      1375      1843      1844
 -1       547    8    0    1
 -2       197       352       353      1841      1845      1843
 -1       548    8    0    1
 -2       199       198       354      1378      1846      1847
 -1       549    8    0    1
 -2       198       353       354      1844      1848      1846
 -1       550    8    0    1
 -2       200       199       355      1381      1849      1850
 -1       551    8    0    1
 -2       199       354       355      1847      1851      1849
 -1       552    8    0    1
 -2       201       200       356      1384      1852      1853
 -1       553    8    0    1
 -2       200       355       356      1850      1854      1852
 -1       554    8    0    1
 -2       202       201       357      1387      1855      1856
 -1       555    8    0    1
 -2       201       356       357      1853      1857      1855
 -1       556    8    0    1
 -2       203       202       358      1390      1858      1859
 -1       557    8    0    1
 -2       202       357       358      1856      1860      1858
 -1       558    8    0    1
 -2       204       203       359      1393      1861      1862
 -1       559    8    0    1
 -2       203       358       359      1859      1863      1861
 -1       560    8    0    1
 -2       205       204       360      1396      1864      1865
 -1       561    8    0    1
 -2       204       359       360      1862      1866      1864
 -1       562    8    0    1
 -2       206       205       361      1399      1867      1868
 -1       563    8    0    1
 -2       205       360       361      1865      1869      1867
 -1       564    8    0    1
 -2       207       206       362      1402      1870      1871
 -1       565    8    0    1
 -2       206       361       362      1868      1872      1870
 -1       566    8    0    1
 -2       208       207       363      1405      1873      1874
 -1       567    8    0    1
 -2       207       362       363      1871      1875      1873
 -1       568    8    0    1
 -2       209       208       364      1408      1876      1877
 -1       569    8    0    1
 -2       208       363       364      1874      1878      1876
 -1       570    8    0    1
 -2       210       209       365      1411      1879      1880
 -1       571    8    0    1
 -2       209       364       365      1877      1881      1879
 -1       572    8    0    1
 -2       211       210       366      1414      1882      1883
 -1       573    8    0    1
 -2       210       365       366      1880      1884      1882
 -1       574    8    0    1
 -2       212       211       367      1417      1885      1886
 -1       575    8    0    1
 -2       211       366       367      1883      1887      1885
 -1       576    8    0    1
 -2       213       212       368      1420      1888      1889
 -1       577    8    0    1
 -2       212       367       368      1886      1890      1888
 -1       578    8    0    1
 -2       214       213       369      1423      1891      1892
 -1       579    8    0    1
 -2       213       368       369      1889      1893      1891
 -1       580    8    0    1
 -2       215       214       370      1426      1894      1895
 -1       581    8    0    1
 -2       214       369       370      1892      1896      1894
 -1       582    8    0    1
 -2       216       215       371      1429      1897      1898
 -1       583    8    0    1
 -2       215       370       371      1895      1899      1897
 -1       584    8    0    1
 -2       217       216       372      1432      1900      1901
 -1       585    8    0    1
 -2       216       371       372      1898      1902      1900
 -1       586    8    0    1
 -2       218       217       373      1435      1903      1904
 -1       587    8    0    1
 -2       217       372       373      1901      1905      1903
 -1       588    8    0    1
 -2       219       218       374      1438      1906      1907
 -1       589    8    0    1
 -2       218       373       374      1904      1908      1906
 -1       590    8    0    1
 -2       220       219       375      1441      1909      1910
 -1       591    8    0    1
 -2       219       374       375      1907      1911      1909
 -1       592    8    0    1
 -2       221       220       376      1444      1912      1913
 -1       593    8    0    1
 -2       220       375       376      1910      1914      1912
 -1       594    8    0    1
 -2       222       221       377      1447      1915      1916
 -1       595    8    0    1
 -2       221       376       377      1913      1917      1915
 -1       596    8    0    1
 -2       223       222       378      1450      1918      1919
 -1       597    8    0    1
 -2       222       377       378      1916      1920      1918
 -1       598    8    0    1
 -2       224       223       379      1453      1921      1922
 -1       599    8    0    1
 -2       223       378       379      1919      1923      1921
 -1       600    8    0    1
 -2       225       224       380      1456      1924      1925
 -1       601    8    0    1
 -2       224       379       380      1922      1926      1924
 -1       602    8    0    1
 -2       226       225       381      1459      1927      1928
 -1       603    8    0    1
 -2       225       380       381      1925      1929      1927
 -1       604    8    0    1
 -2       227       226       382      1462      1930      1931
 -1       605    8    0    1
 -2       226       381       382      1928      1932      1930
 -1       606    8    0    1
 -2       228       227       383      1465      1933      1934
 -1       607    8    0    1
 -2       227       382       383      1931      1935      1933
 -1       608    8    0    1
 -2       229       228       292      1469      1936      1659
 -1       609    8    0    1
 -2       232       233       384      1481      1937      1938
 -1       610    8    0    1
 -2       233       234       385      1484      1939      1940
 -1       611    8    0    1
 -2       233       385       384      1940      1941      1937
 -1       612    8    0    1
 -2       234       235       386      1487      1942      1943
 -1       613    8    0    1
 -2       234       386       385      1943      1944      1939
 -1       614    8    0    1
 -2       235       236       387      1490      1945      1946
 -1       615    8    0    1
 -2       235       387       386      1946      1947      1942
 -1       616    8    0    1
 -2       236       237       388      1493      1948      1949
 -1       617    8    0    1
 -2       236       388       387      1949      1950      1945
 -1       618    8    0    1
 -2       237       238       389      1496      1951      1952
 -1       619    8    0    1
 -2       237       389       388      1952      1953      1948
 -1       620    8    0    1
 -2       238       239       390      1499      1954      1955
 -1       621    8    0    1
 -2       238       390       389      1955      1956      1951
 -1       622    8    0    1
 -2       239       240       391      1502      1957      1958
 -1       623    8    0    1
 -2       239       391       390      1958      1959      1954
 -1       624    8    0    1
 -2       240       241       392      1505      1960      1961
 -1       625    8    0    1
 -2       240       392       391      1961      1962      1957
 -1       626    8    0    1
 -2       241       242       393      1508      1963      1964
 -1       627    8    0    1
 -2       241       393       392      1964      1965      1960
 -1       628    8    0    1
 -2       242       243       394      1511      1966      1967
 -1       629    8    0    1
 -2       242       394       393      1967      1968      1963
 -1       630    8    0    1
 -2       243       244       395      1514      1969      1970
 -1       631    8    0    1
 -2       243       395       394      1970      1971      1966
 -1       632    8    0    1
 -2       244       245       396      1517      1972      1973
 -1       633    8    0    1
 -2       244       396       395      1973      1974      1969
 -1       634    8    0    1
 -2       245       246       397      1520      1975      1976
 -1       635    8    0    1
 -2       245       397       396      1976      1977      1972
 -1       636    8    0    1
 -2       246       247       398      1523      1978      1979
 -1       637    8    0    1
 -2       246       398       397      1979      1980      1975
 -1       638    8    0    1
 -2       247       248       399      1526      1981      1982
 -1       639    8    0    1
 -2       247       399       398      1982      1983      1978
 -1       640    8    0    1
 -2       248       249       400      1529      1984      1985
 -1       641    8    0    1
 -2       248       400       399      1985      1986      1981
 -1       642    8    0    1
 -2       249       250       401      1532      1987      1988
 -1       643    8    0    1
 -2       249       401       400      1988      1989      1984
 -1       644    8    0    1
 -2       250       251       402      1535      1990      1991
 -1       645    8    0    1
 -2       250       402       401      1991      1992      1987
 -1       646    8    0    1
 -2       251       252       403      1538      1993      1994
 -1       647    8    0    1
 -2       251       403       402      1994      1995      1990
 -1       648    8    0    1
 -2       252       253       404      1541      1996      1997
 -1       649    8    0    1
 -2       252       404       403      1997      1998      1993
 -1       650    8    0    1
 -2       253       254       405      1544      1999      2000
 -1       651    8    0    1
 -2       253       405       404      2000      2001      1996
 -1       652    8    0    1
 -2       254       255       406      1547      2002      2003
 -1       653    8    0    1
 -2       254       406       405      2003      2004      1999
 -1       654    8    0    1
 -2       255       256       407      1550      2005      2006
 -1       655    8    0    1
 -2       255       407       406      2006      2007      2002
 -1       656    8    0    1
 -2       256       257       408      1553      2008      2009
 -1       657    8    0    1
 -2       256       408       407      2009      2010      2005
 -1       658    8    0    1
 -2       257       258       409      1556      2011      2012
 -1       659    8    0    1
 -2       257       409       408      2012      2013      2008
 -1       660    8    0    1
 -2       258       259       410      1559      2014      2015
 -1       661    8    0    1
 -2       258       410       409      2015      2016      2011
 -1       662    8    0    1
 -2       259       260       411      1562      2017      2018
 -1       663    8    0    1
 -2       259       411       410      2018      2019      2014
 -1       664    8    0    1
 -2       260       261       412      1565      2020      2021
 -1       665    8    0    1
 -2       260       412       411      2021      2022      2017
 -1       666    8    0    1
 -2       261       262       413      1568      2023      2024
 -1       667    8    0    1
 -2       261       413       412      2024      2025      2020
 -1       668    8    0    1
 -2       262       263       414      1571      2026      2027
 -1       669    8    0    1
 -2       262       414       413      2027      2028      2023
 -1       670    8    0    1
 -2       263       264       415      1574      2029      2030
 -1       671    8    0    1
 -2       263       415       414      2030      2031      2026
 -1       672    8    0    1
 -2       264       265       416      1577      2032      2033
 -1       673    8    0    1
 -2       264       416       415      2033      2034      2029
 -1       674    8    0    1
 -2       265       266       417      1580      2035      2036
 -1       675    8    0    1
 -2       265       417       416      2036      2037      2032
 -1       676    8    0    1
 -2       266       267       418      1583      2038      2039
 -1       677    8    0    1
 -2       266       418       417      2039      2040      2035
 -1       678    8    0    1
 -2       267       268       419      1586      2041      2042
 -1       679    8    0    1
 -2       267       419       418      2042      2043      2038
 -1       680    8    0    1
 -2       268       269       420      1589      2044      2045
 -1       681    8    0    1
 -2       268       420       419      2045      2046      2041
 -1       682    8    0    1
 -2       269       270       421      1592      2047      2048
 -1       683    8    0    1
 -2       269       421       420      2048      2049      2044
 -1       684    8    0    1
 -2       270       271       422      1595      2050      2051
 -1       685    8    0    1
 -2       270       422       421      2051      2052      2047
 -1       686    8    0    1
 -2       271       272       423      1598      2053      2054
 -1       687    8    0    1
 -2       271       423       422      2054      2055      2050
 -1       688    8    0    1
 -2       272       273       424      1601      2056      2057
 -1       689    8    0    1
 -2       272       424       423      2057      2058      2053
 -1       690    8    0    1
 -2       273       274       425      1604      2059      2060
 -1       691    8    0    1
 -2       273       425       424      2060      2061      2056
 -1       692    8    0    1
 -2       274       275       426      1607      2062      2063
 -1       693    8    0    1
 -2       274       426       425      2063      2064      2059
 -1       694    8    0    1
 -2       275       276       427      1610      2065      2066
 -1       695    8    0    1
 -2       275       427       426      2066      2067      2062
 -1       696    8    0    1
 -2       276       277       428      1613      2068      2069
 -1       697    8    0    1
 -2       427       276       428      2065      2069      2070
 -1       698    8    0    1
 -2       277       278       428      1723      2071      2068
 -1       699    8    0    1
 -2       280       281       429      1625      2072      2073
 -1       700    8    0    1
 -2       279       280       430      1622      2074      2075
 -1       701    8    0    1
 -2       280       429       430      2073      2076      2074
 -1       702    8    0    1
 -2       278       279       428      1619      2077      2071
 -1       703    8    0    1
 -2       281       282       431      1628      2078      2079
 -1       704    8    0    1
 -2       281       431       429      2079      2080      2072
 -1       705    8    0    1
 -2       282       283       432      1631      2081      2082
 -1       706    8    0    1
 -2       282       432       431      2082      2083      2078
 -1       707    8    0    1
 -2       283       284       433      1634      2084      2085
 -1       708    8    0    1
 -2       283       433       432      2085      2086      2081
 -1       709    8    0    1
 -2       284       285       434      1637      2087      2088
 -1       710    8    0    1
 -2       284       434       433      2088      2089      2084
 -1       711    8    0    1
 -2       285       286       435      1640      2090      2091
 -1       712    8    0    1
 -2       285       435       434      2091      2092      2087
 -1       713    8    0    1
 -2       286       287       436      1643      2093      2094
 -1       714    8    0    1
 -2       286       436       435      2094      2095      2090
 -1       715    8    0    1
 -2       287       288       437      1646      2096      2097
 -1       716    8    0    1
 -2       287       437       436      2097      2098      2093
 -1       717    8    0    1
 -2       288       289       438      1649      2099      2100
 -1       718    8    0    1
 -2       288       438       437      2100      2101      2096
 -1       719    8    0    1
 -2       289       290       439      1652      2102      2103
 -1       720    8    0    1
 -2       289       439       438      2103      2104      2099
 -1       721    8    0    1
 -2       290       291       440      1655      2105      2106
 -1       722    8    0    1
 -2       290       440       439      2106      2107      2102
 -1       723    8    0    1
 -2       231       232       441      1478      2108      2109
 -1       724    8    0    1
 -2       337       231       441      1795      2109      2110
 -1       725    8    0    1
 -2       232       384       441      1938      2111      2108
 -1       726    8    0    1
 -2       294       295       442      1725      2112      2113
 -1       727    8    0    1
 -2       296       297       443      1726      2114      2115
 -1       728    8    0    1
 -2       322       293       444      1721      2116      2117
 -1       729    8    0    1
 -2       295       296       445      1720      2118      2119
 -1       730    8    0    1
 -2       167       168       446      1285      2120      2121
 -1       731    8    0    1
 -2       323       167       446      1753      2121      2122
 -1       732    8    0    1
 -2       168       325       446      1759      2123      2120
 -1       733    8    0    1
 -2       297       298       447      1727      2124      2125
 -1       734    8    0    1
 -2       298       299       448      1728      2126      2127
 -1       735    8    0    1
 -2       299       300       449      1729      2128      2129
 -1       736    8    0    1
 -2       300       301       450      1730      2130      2131
 -1       737    8    0    1
 -2       300       450       449      2131      2132      2128
 -1       738    8    0    1
 -2       301       302       451      1731      2133      2134
 -1       739    8    0    1
 -2       302       303       452      1732      2135      2136
 -1       740    8    0    1
 -2       303       304       453      1733      2137      2138
 -1       741    8    0    1
 -2       304       305       454      1734      2139      2140
 -1       742    8    0    1
 -2       305       306       455      1735      2141      2142
 -1       743    8    0    1
 -2       306       307       456      1736      2143      2144
 -1       744    8    0    1
 -2       307       308       457      1737      2145      2146
 -1       745    8    0    1
 -2       308       309       458      1738      2147      2148
 -1       746    8    0    1
 -2       309       310       459      1739      2149      2150
 -1       747    8    0    1
 -2       309       459       458      2150      2151      2147
 -1       748    8    0    1
 -2       310       311       460      1740      2152      2153
 -1       749    8    0    1
 -2       311       312       461      1741      2154      2155
 -1       750    8    0    1
 -2       312       313       462      1742      2156      2157
 -1       751    8    0    1
 -2       313       314       463      1743      2158      2159
 -1       752    8    0    1
 -2       314       315       464      1744      2160      2161
 -1       753    8    0    1
 -2       315       316       465      1745      2162      2163
 -1       754    8    0    1
 -2       315       465       464      2163      2164      2160
 -1       755    8    0    1
 -2       316       317       466      1746      2165      2166
 -1       756    8    0    1
 -2       317       318       467      1747      2167      2168
 -1       757    8    0    1
 -2       317       467       466      2168      2169      2165
 -1       758    8    0    1
 -2       318       319       468      1748      2170      2171
 -1       759    8    0    1
 -2       319       320       469      1749      2172      2173
 -1       760    8    0    1
 -2       320       321       470      1750      2174      2175
 -1       761    8    0    1
 -2       321       322       471      1751      2176      2177
 -1       762    8    0    1
 -2       322       444       471      2117      2178      2176
 -1       763    8    0    1
 -2       293       294       472      1724      2179      2180
 -1       764    8    0    1
 -2       294       442       472      2113      2181      2179
 -1       765    8    0    1
 -2       292       228       383      1936      1934      2182
 -1       766    8    0    1
 -2       445       296       443      2118      2115      2183
 -1       767    8    0    1
 -2       181       324       182      1798      2184      1327
 -1       768    8    0    1
 -2       442       295       445      2112      2119      2185
 -1       769    8    0    1
 -2       297       447       443      2125      2186      2114
 -1       770    8    0    1
 -2       338       182       324      1799      2184      2187
 -1       771    8    0    1
 -2       428       279       430      2077      2075      2188
 -1       772    8    0    1
 -2       444       293       473      2116      2189      2190
 -1       773    8    0    1
 -2       293       472       473      2180      2191      2189
 -1       774    8    0    1
 -2       291       292       383      1658      2182      2192
 -1       775    8    0    1
 -2       291       383       440      2192      2193      2105
 -1       776    8    0    1
 -2       470       321       471      2174      2177      2194
 -1       777    8    0    1
 -2       469       320       470      2172      2175      2195
 -1       778    8    0    1
 -2       467       318       468      2167      2171      2196
 -1       779    8    0    1
 -2       465       316       466      2162      2166      2197
 -1       780    8    0    1
 -2       463       314       464      2158      2161      2198
 -1       781    8    0    1
 -2       462       313       463      2156      2159      2199
 -1       782    8    0    1
 -2       461       312       462      2154      2157      2200
 -1       783    8    0    1
 -2       459       310       460      2149      2153      2201
 -1       784    8    0    1
 -2       457       308       458      2145      2148      2202
 -1       785    8    0    1
 -2       456       307       457      2143      2146      2203
 -1       786    8    0    1
 -2       455       306       456      2141      2144      2204
 -1       787    8    0    1
 -2       454       305       455      2139      2142      2205
 -1       788    8    0    1
 -2       453       304       454      2137      2140      2206
 -1       789    8    0    1
 -2       452       303       453      2135      2138      2207
 -1       790    8    0    1
 -2       450       301       474      2130      2208      2209
 -1       791    8    0    1
 -2       301       451       474      2134      2210      2208
 -1       792    8    0    1
 -2       447       298       448      2124      2127      2211
 -1       793    8    0    1
 -2       448       299       449      2126      2129      2212
 -1       794    8    0    1
 -2       451       302       452      2133      2136      2213
 -1       795    8    0    1
 -2       460       311       461      2152      2155      2214
 -1       796    8    0    1
 -2       468       319       469      2170      2173      2215
 -1       797    8    0    1
 -2       326       327       475      1765      2216      2217
 -1       798    8    0    1
 -2       325       326       476      1762      2218      2219
 -1       799    8    0    1
 -2       326       475       476      2217      2220      2218
 -1       800    8    0    1
 -2       328       329       477      1771      2221      2222
 -1       801    8    0    1
 -2       329       330       478      1774      2223      2224
 -1       802    8    0    1
 -2       329       478       477      2224      2225      2221
 -1       803    8    0    1
 -2       330       331       479      1777      2226      2227
 -1       804    8    0    1
 -2       330       479       478      2227      2228      2223
 -1       805    8    0    1
 -2       331       332       480      1780      2229      2230
 -1       806    8    0    1
 -2       331       480       479      2230      2231      2226
 -1       807    8    0    1
 -2       332       333       481      1783      2232      2233
 -1       808    8    0    1
 -2       332       481       480      2233      2234      2229
 -1       809    8    0    1
 -2       333       334       482      1786      2235      2236
 -1       810    8    0    1
 -2       333       482       481      2236      2237      2232
 -1       811    8    0    1
 -2       334       335       483      1789      2238      2239
 -1       812    8    0    1
 -2       334       483       482      2239      2240      2235
 -1       813    8    0    1
 -2       335       336       484      1792      2241      2242
 -1       814    8    0    1
 -2       483       335       484      2238      2242      2243
 -1       815    8    0    1
 -2       336       337       484      1797      2244      2241
 -1       816    8    0    1
 -2       339       338       485      1803      2245      2246
 -1       817    8    0    1
 -2       442       445       486      2185      2247      2248
 -1       818    8    0    1
 -2       445       443       487      2183      2249      2250
 -1       819    8    0    1
 -2       340       339       488      1806      2251      2252
 -1       820    8    0    1
 -2       339       485       488      2246      2253      2251
 -1       821    8    0    1
 -2       341       340       489      1809      2254      2255
 -1       822    8    0    1
 -2       340       488       489      2252      2256      2254
 -1       823    8    0    1
 -2       342       341       490      1812      2257      2258
 -1       824    8    0    1
 -2       341       489       490      2255      2259      2257
 -1       825    8    0    1
 -2       343       342       491      1815      2260      2261
 -1       826    8    0    1
 -2       342       490       491      2258      2262      2260
 -1       827    8    0    1
 -2       344       343       492      1818      2263      2264
 -1       828    8    0    1
 -2       343       491       492      2261      2265      2263
 -1       829    8    0    1
 -2       345       344       493      1821      2266      2267
 -1       830    8    0    1
 -2       344       492       493      2264      2268      2266
 -1       831    8    0    1
 -2       349       348       465      1833      2269      2270
 -1       832    8    0    1
 -2       351       350       494      1839      2271      2272
 -1       833    8    0    1
 -2       352       351       495      1842      2273      2274
 -1       834    8    0    1
 -2       353       352       496      1845      2275      2276
 -1       835    8    0    1
 -2       352       495       496      2274      2277      2275
 -1       836    8    0    1
 -2       354       353       497      1848      2278      2279
 -1       837    8    0    1
 -2       353       496       497      2276      2280      2278
 -1       838    8    0    1
 -2       355       354       498      1851      2281      2282
 -1       839    8    0    1
 -2       354       497       498      2279      2283      2281
 -1       840    8    0    1
 -2       356       355       499      1854      2284      2285
 -1       841    8    0    1
 -2       355       498       499      2282      2286      2284
 -1       842    8    0    1
 -2       357       356       500      1857      2287      2288
 -1       843    8    0    1
 -2       356       499       500      2285      2289      2287
 -1       844    8    0    1
 -2       358       357       501      1860      2290      2291
 -1       845    8    0    1
 -2       357       500       501      2288      2292      2290
 -1       846    8    0    1
 -2       359       358       502      1863      2293      2294
 -1       847    8    0    1
 -2       358       501       502      2291      2295      2293
 -1       848    8    0    1
 -2       360       359       503      1866      2296      2297
 -1       849    8    0    1
 -2       359       502       503      2294      2298      2296
 -1       850    8    0    1
 -2       361       360       504      1869      2299      2300
 -1       851    8    0    1
 -2       360       503       504      2297      2301      2299
 -1       852    8    0    1
 -2       362       361       505      1872      2302      2303
 -1       853    8    0    1
 -2       361       504       505      2300      2304      2302
 -1       854    8    0    1
 -2       363       362       506      1875      2305      2306
 -1       855    8    0    1
 -2       362       505       506      2303      2307      2305
 -1       856    8    0    1
 -2       364       363       507      1878      2308      2309
 -1       857    8    0    1
 -2       363       506       507      2306      2310      2308
 -1       858    8    0    1
 -2       365       364       508      1881      2311      2312
 -1       859    8    0    1
 -2       364       507       508      2309      2313      2311
 -1       860    8    0    1
 -2       366       365       509      1884      2314      2315
 -1       861    8    0    1
 -2       365       508       509      2312      2316      2314
 -1       862    8    0    1
 -2       367       366       510      1887      2317      2318
 -1       863    8    0    1
 -2       366       509       510      2315      2319      2317
 -1       864    8    0    1
 -2       368       367       511      1890      2320      2321
 -1       865    8    0    1
 -2       367       510       511      2318      2322      2320
 -1       866    8    0    1
 -2       369       368       512      1893      2323      2324
 -1       867    8    0    1
 -2       368       511       512      2321      2325      2323
 -1       868    8    0    1
 -2       370       369       513      1896      2326      2327
 -1       869    8    0    1
 -2       369       512       513      2324      2328      2326
 -1       870    8    0    1
 -2       371       370       514      1899      2329      2330
 -1       871    8    0    1
 -2       370       513       514      2327      2331      2329
 -1       872    8    0    1
 -2       372       371       515      1902      2332      2333
 -1       873    8    0    1
 -2       371       514       515      2330      2334      2332
 -1       874    8    0    1
 -2       373       372       516      1905      2335      2336
 -1       875    8    0    1
 -2       372       515       516      2333      2337      2335
 -1       876    8    0    1
 -2       374       373       517      1908      2338      2339
 -1       877    8    0    1
 -2       373       516       517      2336      2340      2338
 -1       878    8    0    1
 -2       375       374       518      1911      2341      2342
 -1       879    8    0    1
 -2       374       517       518      2339      2343      2341
 -1       880    8    0    1
 -2       376       375       519      1914      2344      2345
 -1       881    8    0    1
 -2       375       518       519      2342      2346      2344
 -1       882    8    0    1
 -2       377       376       520      1917      2347      2348
 -1       883    8    0    1
 -2       376       519       520      2345      2349      2347
 -1       884    8    0    1
 -2       378       377       521      1920      2350      2351
 -1       885    8    0    1
 -2       377       520       521      2348      2352      2350
 -1       886    8    0    1
 -2       379       378       522      1923      2353      2354
 -1       887    8    0    1
 -2       378       521       522      2351      2355      2353
 -1       888    8    0    1
 -2       380       379       523      1926      2356      2357
 -1       889    8    0    1
 -2       379       522       523      2354      2358      2356
 -1       890    8    0    1
 -2       381       380       524      1929      2359      2360
 -1       891    8    0    1
 -2       380       523       524      2357      2361      2359
 -1       892    8    0    1
 -2       382       381       525      1932      2362      2363
 -1       893    8    0    1
 -2       381       524       525      2360      2364      2362
 -1       894    8    0    1
 -2       383       382       526      1935      2365      2366
 -1       895    8    0    1
 -2       440       383       526      2193      2366      2367
 -1       896    8    0    1
 -2       382       525       526      2363      2368      2365
 -1       897    8    0    1
 -2       386       387       527      1947      2369      2370
 -1       898    8    0    1
 -2       385       386       528      1944      2371      2372
 -1       899    8    0    1
 -2       386       527       528      2370      2373      2371
 -1       900    8    0    1
 -2       384       385       529      1941      2374      2375
 -1       901    8    0    1
 -2       385       528       529      2372      2376      2374
 -1       902    8    0    1
 -2       387       388       530      1950      2377      2378
 -1       903    8    0    1
 -2       387       530       527      2378      2379      2369
 -1       904    8    0    1
 -2       388       389       531      1953      2380      2381
 -1       905    8    0    1
 -2       388       531       530      2381      2382      2377
 -1       906    8    0    1
 -2       389       390       532      1956      2383      2384
 -1       907    8    0    1
 -2       389       532       531      2384      2385      2380
 -1       908    8    0    1
 -2       390       391       533      1959      2386      2387
 -1       909    8    0    1
 -2       390       533       532      2387      2388      2383
 -1       910    8    0    1
 -2       391       392       534      1962      2389      2390
 -1       911    8    0    1
 -2       391       534       533      2390      2391      2386
 -1       912    8    0    1
 -2       392       393       535      1965      2392      2393
 -1       913    8    0    1
 -2       392       535       534      2393      2394      2389
 -1       914    8    0    1
 -2       393       394       536      1968      2395      2396
 -1       915    8    0    1
 -2       393       536       535      2396      2397      2392
 -1       916    8    0    1
 -2       394       395       537      1971      2398      2399
 -1       917    8    0    1
 -2       394       537       536      2399      2400      2395
 -1       918    8    0    1
 -2       395       396       538      1974      2401      2402
 -1       919    8    0    1
 -2       395       538       537      2402      2403      2398
 -1       920    8    0    1
 -2       396       397       539      1977      2404      2405
 -1       921    8    0    1
 -2       396       539       538      2405      2406      2401
 -1       922    8    0    1
 -2       397       398       540      1980      2407      2408
 -1       923    8    0    1
 -2       397       540       539      2408      2409      2404
 -1       924    8    0    1
 -2       398       399       541      1983      2410      2411
 -1       925    8    0    1
 -2       398       541       540      2411      2412      2407
 -1       926    8    0    1
 -2       399       400       542      1986      2413      2414
 -1       927    8    0    1
 -2       399       542       541      2414      2415      2410
 -1       928    8    0    1
 -2       400       401       543      1989      2416      2417
 -1       929    8    0    1
 -2       400       543       542      2417      2418      2413
 -1       930    8    0    1
 -2       401       402       544      1992      2419      2420
 -1       931    8    0    1
 -2       401       544       543      2420      2421      2416
 -1       932    8    0    1
 -2       402       403       545      1995      2422      2423
 -1       933    8    0    1
 -2       402       545       544      2423      2424      2419
 -1       934    8    0    1
 -2       403       404       546      1998      2425      2426
 -1       935    8    0    1
 -2       403       546       545      2426      2427      2422
 -1       936    8    0    1
 -2       404       405       547      2001      2428      2429
 -1       937    8    0    1
 -2       404       547       546      2429      2430      2425
 -1       938    8    0    1
 -2       405       406       548      2004      2431      2432
 -1       939    8    0    1
 -2       405       548       547      2432      2433      2428
 -1       940    8    0    1
 -2       406       407       549      2007      2434      2435
 -1       941    8    0    1
 -2       406       549       548      2435      2436      2431
 -1       942    8    0    1
 -2       407       408       550      2010      2437      2438
 -1       943    8    0    1
 -2       407       550       549      2438      2439      2434
 -1       944    8    0    1
 -2       408       409       551      2013      2440      2441
 -1       945    8    0    1
 -2       408       551       550      2441      2442      2437
 -1       946    8    0    1
 -2       409       410       552      2016      2443      2444
 -1       947    8    0    1
 -2       409       552       551      2444      2445      2440
 -1       948    8    0    1
 -2       410       411       553      2019      2446      2447
 -1       949    8    0    1
 -2       410       553       552      2447      2448      2443
 -1       950    8    0    1
 -2       411       412       554      2022      2449      2450
 -1       951    8    0    1
 -2       411       554       553      2450      2451      2446
 -1       952    8    0    1
 -2       412       413       555      2025      2452      2453
 -1       953    8    0    1
 -2       412       555       554      2453      2454      2449
 -1       954    8    0    1
 -2       413       414       556      2028      2455      2456
 -1       955    8    0    1
 -2       413       556       555      2456      2457      2452
 -1       956    8    0    1
 -2       414       415       557      2031      2458      2459
 -1       957    8    0    1
 -2       414       557       556      2459      2460      2455
 -1       958    8    0    1
 -2       415       416       558      2034      2461      2462
 -1       959    8    0    1
 -2       415       558       557      2462      2463      2458
 -1       960    8    0    1
 -2       416       417       559      2037      2464      2465
 -1       961    8    0    1
 -2       416       559       558      2465      2466      2461
 -1       962    8    0    1
 -2       417       418       560      2040      2467      2468
 -1       963    8    0    1
 -2       417       560       559      2468      2469      2464
 -1       964    8    0    1
 -2       418       419       561      2043      2470      2471
 -1       965    8    0    1
 -2       418       561       560      2471      2472      2467
 -1       966    8    0    1
 -2       419       420       562      2046      2473      2474
 -1       967    8    0    1
 -2       419       562       561      2474      2475      2470
 -1       968    8    0    1
 -2       420       421       563      2049      2476      2477
 -1       969    8    0    1
 -2       420       563       562      2477      2478      2473
 -1       970    8    0    1
 -2       421       422       564      2052      2479      2480
 -1       971    8    0    1
 -2       421       564       563      2480      2481      2476
 -1       972    8    0    1
 -2       422       423       565      2055      2482      2483
 -1       973    8    0    1
 -2       422       565       564      2483      2484      2479
 -1       974    8    0    1
 -2       423       424       566      2058      2485      2486
 -1       975    8    0    1
 -2       423       566       565      2486      2487      2482
 -1       976    8    0    1
 -2       424       425       567      2061      2488      2489
 -1       977    8    0    1
 -2       424       567       566      2489      2490      2485
 -1       978    8    0    1
 -2       425       426       568      2064      2491      2492
 -1       979    8    0    1
 -2       425       568       567      2492      2493      2488
 -1       980    8    0    1
 -2       426       427       569      2067      2494      2495
 -1       981    8    0    1
 -2       426       569       568      2495      2496      2491
 -1       982    8    0    1
 -2       427       428       430      2070      2188      2497
 -1       983    8    0    1
 -2       431       432       570      2083      2498      2499
 -1       984    8    0    1
 -2       429       431       571      2080      2500      2501
 -1       985    8    0    1
 -2       431       570       571      2499      2502      2500
 -1       986    8    0    1
 -2       430       429       572      2076      2503      2504
 -1       987    8    0    1
 -2       429       571       572      2501      2505      2503
 -1       988    8    0    1
 -2       432       433       573      2086      2506      2507
 -1       989    8    0    1
 -2       432       573       570      2507      2508      2498
 -1       990    8    0    1
 -2       433       434       574      2089      2509      2510
 -1       991    8    0    1
 -2       433       574       573      2510      2511      2506
 -1       992    8    0    1
 -2       434       435       575      2092      2512      2513
 -1       993    8    0    1
 -2       434       575       574      2513      2514      2509
 -1       994    8    0    1
 -2       435       436       576      2095      2515      2516
 -1       995    8    0    1
 -2       435       576       575      2516      2517      2512
 -1       996    8    0    1
 -2       436       437       577      2098      2518      2519
 -1       997    8    0    1
 -2       436       577       576      2519      2520      2515
 -1       998    8    0    1
 -2       437       438       578      2101      2521      2522
 -1       999    8    0    1
 -2       437       578       577      2522      2523      2518
 -1      1000    8    0    1
 -2       438       439       579      2104      2524      2525
 -1      1001    8    0    1
 -2       438       579       578      2525      2526      2521
 -1      1002    8    0    1
 -2       439       440       580      2107      2527      2528
 -1      1003    8    0    1
 -2       579       439       580      2524      2528      2529
 -1      1004    8    0    1
 -2       440       526       580      2367      2530      2527
 -1      1005    8    0    1
 -2       470       471       581      2194      2531      2532
 -1      1006    8    0    1
 -2       338       324       582      2187      2533      2534
 -1      1007    8    0    1
 -2       485       338       582      2245      2534      2535
 -1      1008    8    0    1
 -2       324       323       582      1757      2536      2533
 -1      1009    8    0    1
 -2       443       447       583      2186      2537      2538
 -1      1010    8    0    1
 -2       443       583       487      2538      2539      2249
 -1      1011    8    0    1
 -2       471       444       584      2178      2540      2541
 -1      1012    8    0    1
 -2       457       458       585      2202      2542      2543
 -1      1013    8    0    1
 -2       447       448       586      2211      2544      2545
 -1      1014    8    0    1
 -2       327       328       587      1768      2546      2547
 -1      1015    8    0    1
 -2       475       327       587      2216      2547      2548
 -1      1016    8    0    1
 -2       328       477       587      2222      2549      2546
 -1      1017    8    0    1
 -2       448       449       588      2212      2550      2551
 -1      1018    8    0    1
 -2       451       452       589      2213      2552      2553
 -1      1019    8    0    1
 -2       449       450       590      2132      2554      2555
 -1      1020    8    0    1
 -2       460       461       591      2214      2556      2557
 -1      1021    8    0    1
 -2       452       453       592      2207      2558      2559
 -1      1022    8    0    1
 -2       452       592       589      2559      2560      2552
 -1      1023    8    0    1
 -2       453       454       593      2206      2561      2562
 -1      1024    8    0    1
 -2       454       455       594      2205      2563      2564
 -1      1025    8    0    1
 -2       455       456       595      2204      2565      2566
 -1      1026    8    0    1
 -2       456       457       596      2203      2567      2568
 -1      1027    8    0    1
 -2       456       596       595      2568      2569      2565
 -1      1028    8    0    1
 -2       458       459       597      2151      2570      2571
 -1      1029    8    0    1
 -2       468       469       598      2215      2572      2573
 -1      1030    8    0    1
 -2       459       460       599      2201      2574      2575
 -1      1031    8    0    1
 -2       461       462       600      2200      2576      2577
 -1      1032    8    0    1
 -2       461       600       591      2577      2578      2556
 -1      1033    8    0    1
 -2       462       463       347      2199      2579      2580
 -1      1034    8    0    1
 -2       466       467       601      2169      2581      2582
 -1      1035    8    0    1
 -2       467       468       602      2196      2583      2584
 -1      1036    8    0    1
 -2       601       467       602      2581      2584      2585
 -1      1037    8    0    1
 -2       468       598       602      2573      2586      2583
 -1      1038    8    0    1
 -2       469       470       603      2195      2587      2588
 -1      1039    8    0    1
 -2       472       442       604      2181      2589      2590
 -1      1040    8    0    1
 -2       427       430       569      2497      2591      2494
 -1      1041    8    0    1
 -2       462       347       346      2580      1827      2592
 -1      1042    8    0    1
 -2       325       476       605      2219      2593      2594
 -1      1043    8    0    1
 -2       325       605       446      2594      2595      2123
 -1      1044    8    0    1
 -2       583       447       586      2537      2545      2596
 -1      1045    8    0    1
 -2       484       337       606      2244      2597      2598
 -1      1046    8    0    1
 -2       337       441       606      2110      2599      2597
 -1      1047    8    0    1
 -2       486       445       487      2247      2250      2600
 -1      1048    8    0    1
 -2       442       486       604      2248      2601      2589
 -1      1049    8    0    1
 -2       349       465       466      2270      2197      2602
 -1      1050    8    0    1
 -2       465       348       464      2269      2603      2164
 -1      1051    8    0    1
 -2       346       345       607      1824      2604      2605
 -1      1052    8    0    1
 -2       348       347       463      1830      2579      2606
 -1      1053    8    0    1
 -2       351       494       495      2272      2607      2273
 -1      1054    8    0    1
 -2       470       581       603      2532      2608      2587
 -1      1055    8    0    1
 -2       473       472       608      2191      2609      2610
 -1      1056    8    0    1
 -2       472       604       608      2590      2611      2609
 -1      1057    8    0    1
 -2       444       473       609      2190      2612      2613
 -1      1058    8    0    1
 -2       444       609       584      2613      2614      2540
 -1      1059    8    0    1
 -2       581       471       584      2531      2541      2615
 -1      1060    8    0    1
 -2       582       323       446      2536      2122      2616
 -1      1061    8    0    1
 -2       441       384       610      2111      2617      2618
 -1      1062    8    0    1
 -2       606       441       610      2599      2618      2619
 -1      1063    8    0    1
 -2       384       529       610      2375      2620      2617
 -1      1064    8    0    1
 -2       585       458       597      2542      2571      2621
 -1      1065    8    0    1
 -2       430       572       569      2504      2622      2591
 -1      1066    8    0    1
 -2       457       585       596      2543      2623      2567
 -1      1067    8    0    1
 -2       599       460       591      2574      2557      2624
 -1      1068    8    0    1
 -2       598       469       603      2572      2588      2625
 -1      1069    8    0    1
 -2       463       464       348      2198      2603      2606
 -1      1070    8    0    1
 -2       594       455       595      2563      2566      2626
 -1      1071    8    0    1
 -2       592       453       593      2558      2562      2627
 -1      1072    8    0    1
 -2       590       450       611      2554      2628      2629
 -1      1073    8    0    1
 -2       450       474       611      2209      2630      2628
 -1      1074    8    0    1
 -2       586       448       612      2544      2631      2632
 -1      1075    8    0    1
 -2       448       588       612      2551      2633      2631
 -1      1076    8    0    1
 -2       474       451       613      2210      2634      2635
 -1      1077    8    0    1
 -2       451       589       613      2553      2636      2634
 -1      1078    8    0    1
 -2       449       590       588      2555      2637      2550
 -1      1079    8    0    1
 -2       593       454       594      2561      2564      2638
 -1      1080    8    0    1
 -2       597       459       599      2570      2575      2639
 -1      1081    8    0    1
 -2       607       345       493      2604      2267      2640
 -1      1082    8    0    1
 -2       478       479       614      2228      2641      2642
 -1      1083    8    0    1
 -2       477       478       615      2225      2643      2644
 -1      1084    8    0    1
 -2       478       614       615      2642      2645      2643
 -1      1085    8    0    1
 -2       480       481       616      2234      2646      2647
 -1      1086    8    0    1
 -2       481       482       617      2237      2648      2649
 -1      1087    8    0    1
 -2       481       617       616      2649      2650      2646
 -1      1088    8    0    1
 -2       483       484       618      2243      2651      2652
 -1      1089    8    0    1
 -2       484       606       618      2598      2653      2651
 -1      1090    8    0    1
 -2       583       586       619      2596      2654      2655
 -1      1091    8    0    1
 -2       604       486       620      2601      2656      2657
 -1      1092    8    0    1
 -2       489       488       621      2256      2658      2659
 -1      1093    8    0    1
 -2       490       489       622      2259      2660      2661
 -1      1094    8    0    1
 -2       489       621       622      2659      2662      2660
 -1      1095    8    0    1
 -2       491       490       623      2262      2663      2664
 -1      1096    8    0    1
 -2       490       622       623      2661      2665      2663
 -1      1097    8    0    1
 -2       492       491       624      2265      2666      2667
 -1      1098    8    0    1
 -2       491       623       624      2664      2668      2666
 -1      1099    8    0    1
 -2       594       595       625      2626      2669      2670
 -1      1100    8    0    1
 -2       350       349       626      1836      2671      2672
 -1      1101    8    0    1
 -2       585       597       627      2621      2673      2674
 -1      1102    8    0    1
 -2       497       496       628      2280      2675      2676
 -1      1103    8    0    1
 -2       498       497       629      2283      2677      2678
 -1      1104    8    0    1
 -2       497       628       629      2676      2679      2677
 -1      1105    8    0    1
 -2       499       498       630      2286      2680      2681
 -1      1106    8    0    1
 -2       498       629       630      2678      2682      2680
 -1      1107    8    0    1
 -2       500       499       631      2289      2683      2684
 -1      1108    8    0    1
 -2       499       630       631      2681      2685      2683
 -1      1109    8    0    1
 -2       501       500       632      2292      2686      2687
 -1      1110    8    0    1
 -2       500       631       632      2684      2688      2686
 -1      1111    8    0    1
 -2       502       501       633      2295      2689      2690
 -1      1112    8    0    1
 -2       501       632       633      2687      2691      2689
 -1      1113    8    0    1
 -2       503       502       634      2298      2692      2693
 -1      1114    8    0    1
 -2       502       633       634      2690      2694      2692
 -1      1115    8    0    1
 -2       504       503       635      2301      2695      2696
 -1      1116    8    0    1
 -2       503       634       635      2693      2697      2695
 -1      1117    8    0    1
 -2       505       504       636      2304      2698      2699
 -1      1118    8    0    1
 -2       504       635       636      2696      2700      2698
 -1      1119    8    0    1
 -2       506       505       637      2307      2701      2702
 -1      1120    8    0    1
 -2       505       636       637      2699      2703      2701
 -1      1121    8    0    1
 -2       507       506       638      2310      2704      2705
 -1      1122    8    0    1
 -2       506       637       638      2702      2706      2704
 -1      1123    8    0    1
 -2       508       507       639      2313      2707      2708
 -1      1124    8    0    1
 -2       507       638       639      2705      2709      2707
 -1      1125    8    0    1
 -2       509       508       640      2316      2710      2711
 -1      1126    8    0    1
 -2       508       639       640      2708      2712      2710
 -1      1127    8    0    1
 -2       510       509       641      2319      2713      2714
 -1      1128    8    0    1
 -2       509       640       641      2711      2715      2713
 -1      1129    8    0    1
 -2       511       510       642      2322      2716      2717
 -1      1130    8    0    1
 -2       510       641       642      2714      2718      2716
 -1      1131    8    0    1
 -2       512       511       643      2325      2719      2720
 -1      1132    8    0    1
 -2       511       642       643      2717      2721      2719
 -1      1133    8    0    1
 -2       513       512       644      2328      2722      2723
 -1      1134    8    0    1
 -2       512       643       644      2720      2724      2722
 -1      1135    8    0    1
 -2       514       513       645      2331      2725      2726
 -1      1136    8    0    1
 -2       513       644       645      2723      2727      2725
 -1      1137    8    0    1
 -2       515       514       646      2334      2728      2729
 -1      1138    8    0    1
 -2       514       645       646      2726      2730      2728
 -1      1139    8    0    1
 -2       516       515       647      2337      2731      2732
 -1      1140    8    0    1
 -2       515       646       647      2729      2733      2731
 -1      1141    8    0    1
 -2       517       516       648      2340      2734      2735
 -1      1142    8    0    1
 -2       516       647       648      2732      2736      2734
 -1      1143    8    0    1
 -2       518       517       649      2343      2737      2738
 -1      1144    8    0    1
 -2       517       648       649      2735      2739      2737
 -1      1145    8    0    1
 -2       519       518       650      2346      2740      2741
 -1      1146    8    0    1
 -2       518       649       650      2738      2742      2740
 -1      1147    8    0    1
 -2       520       519       651      2349      2743      2744
 -1      1148    8    0    1
 -2       519       650       651      2741      2745      2743
 -1      1149    8    0    1
 -2       521       520       652      2352      2746      2747
 -1      1150    8    0    1
 -2       520       651       652      2744      2748      2746
 -1      1151    8    0    1
 -2       522       521       653      2355      2749      2750
 -1      1152    8    0    1
 -2       521       652       653      2747      2751      2749
 -1      1153    8    0    1
 -2       523       522       654      2358      2752      2753
 -1      1154    8    0    1
 -2       522       653       654      2750      2754      2752
 -1      1155    8    0    1
 -2       524       523       655      2361      2755      2756
 -1      1156    8    0    1
 -2       523       654       655      2753      2757      2755
 -1      1157    8    0    1
 -2       525       524       656      2364      2758      2759
 -1      1158    8    0    1
 -2       524       655       656      2756      2760      2758
 -1      1159    8    0    1
 -2       526       525       657      2368      2761      2762
 -1      1160    8    0    1
 -2       580       526       657      2530      2762      2763
 -1      1161    8    0    1
 -2       525       656       657      2759      2764      2761
 -1      1162    8    0    1
 -2       528       527       658      2373      2765      2766
 -1      1163    8    0    1
 -2       527       530       659      2379      2767      2768
 -1      1164    8    0    1
 -2       527       659       658      2768      2769      2765
 -1      1165    8    0    1
 -2       529       528       660      2376      2770      2771
 -1      1166    8    0    1
 -2       528       658       660      2766      2772      2770
 -1      1167    8    0    1
 -2       531       532       661      2385      2773      2774
 -1      1168    8    0    1
 -2       532       533       662      2388      2775      2776
 -1      1169    8    0    1
 -2       532       662       661      2776      2777      2773
 -1      1170    8    0    1
 -2       533       534       663      2391      2778      2779
 -1      1171    8    0    1
 -2       533       663       662      2779      2780      2775
 -1      1172    8    0    1
 -2       534       535       664      2394      2781      2782
 -1      1173    8    0    1
 -2       534       664       663      2782      2783      2778
 -1      1174    8    0    1
 -2       535       536       665      2397      2784      2785
 -1      1175    8    0    1
 -2       535       665       664      2785      2786      2781
 -1      1176    8    0    1
 -2       536       537       666      2400      2787      2788
 -1      1177    8    0    1
 -2       536       666       665      2788      2789      2784
 -1      1178    8    0    1
 -2       537       538       667      2403      2790      2791
 -1      1179    8    0    1
 -2       537       667       666      2791      2792      2787
 -1      1180    8    0    1
 -2       538       539       668      2406      2793      2794
 -1      1181    8    0    1
 -2       538       668       667      2794      2795      2790
 -1      1182    8    0    1
 -2       539       540       669      2409      2796      2797
 -1      1183    8    0    1
 -2       539       669       668      2797      2798      2793
 -1      1184    8    0    1
 -2       540       541       670      2412      2799      2800
 -1      1185    8    0    1
 -2       540       670       669      2800      2801      2796
 -1      1186    8    0    1
 -2       541       542       671      2415      2802      2803
 -1      1187    8    0    1
 -2       541       671       670      2803      2804      2799
 -1      1188    8    0    1
 -2       542       543       672      2418      2805      2806
 -1      1189    8    0    1
 -2       542       672       671      2806      2807      2802
 -1      1190    8    0    1
 -2       543       544       673      2421      2808      2809
 -1      1191    8    0    1
 -2       543       673       672      2809      2810      2805
 -1      1192    8    0    1
 -2       544       545       674      2424      2811      2812
 -1      1193    8    0    1
 -2       544       674       673      2812      2813      2808
 -1      1194    8    0    1
 -2       545       546       675      2427      2814      2815
 -1      1195    8    0    1
 -2       545       675       674      2815      2816      2811
 -1      1196    8    0    1
 -2       546       547       676      2430      2817      2818
 -1      1197    8    0    1
 -2       546       676       675      2818      2819      2814
 -1      1198    8    0    1
 -2       547       548       677      2433      2820      2821
 -1      1199    8    0    1
 -2       547       677       676      2821      2822      2817
 -1      1200    8    0    1
 -2       548       549       678      2436      2823      2824
 -1      1201    8    0    1
 -2       548       678       677      2824      2825      2820
 -1      1202    8    0    1
 -2       549       550       679      2439      2826      2827
 -1      1203    8    0    1
 -2       549       679       678      2827      2828      2823
 -1      1204    8    0    1
 -2       550       551       680      2442      2829      2830
 -1      1205    8    0    1
 -2       550       680       679      2830      2831      2826
 -1      1206    8    0    1
 -2       551       552       681      2445      2832      2833
 -1      1207    8    0    1
 -2       551       681       680      2833      2834      2829
 -1      1208    8    0    1
 -2       552       553       682      2448      2835      2836
 -1      1209    8    0    1
 -2       552       682       681      2836      2837      2832
 -1      1210    8    0    1
 -2       553       554       683      2451      2838      2839
 -1      1211    8    0    1
 -2       553       683       682      2839      2840      2835
 -1      1212    8    0    1
 -2       554       555       684      2454      2841      2842
 -1      1213    8    0    1
 -2       554       684       683      2842      2843      2838
 -1      1214    8    0    1
 -2       555       556       685      2457      2844      2845
 -1      1215    8    0    1
 -2       555       685       684      2845      2846      2841
 -1      1216    8    0    1
 -2       556       557       686      2460      2847      2848
 -1      1217    8    0    1
 -2       556       686       685      2848      2849      2844
 -1      1218    8    0    1
 -2       557       558       687      2463      2850      2851
 -1      1219    8    0    1
 -2       557       687       686      2851      2852      2847
 -1      1220    8    0    1
 -2       558       559       688      2466      2853      2854
 -1      1221    8    0    1
 -2       558       688       687      2854      2855      2850
 -1      1222    8    0    1
 -2       559       560       689      2469      2856      2857
 -1      1223    8    0    1
 -2       559       689       688      2857      2858      2853
 -1      1224    8    0    1
 -2       560       561       690      2472      2859      2860
 -1      1225    8    0    1
 -2       560       690       689      2860      2861      2856
 -1      1226    8    0    1
 -2       561       562       691      2475      2862      2863
 -1      1227    8    0    1
 -2       561       691       690      2863      2864      2859
 -1      1228    8    0    1
 -2       562       563       692      2478      2865      2866
 -1      1229    8    0    1
 -2       562       692       691      2866      2867      2862
 -1      1230    8    0    1
 -2       563       564       693      2481      2868      2869
 -1      1231    8    0    1
 -2       563       693       692      2869      2870      2865
 -1      1232    8    0    1
 -2       564       565       694      2484      2871      2872
 -1      1233    8    0    1
 -2       564       694       693      2872      2873      2868
 -1      1234    8    0    1
 -2       565       566       695      2487      2874      2875
 -1      1235    8    0    1
 -2       565       695       694      2875      2876      2871
 -1      1236    8    0    1
 -2       566       567       696      2490      2877      2878
 -1      1237    8    0    1
 -2       566       696       695      2878      2879      2874
 -1      1238    8    0    1
 -2       567       568       697      2493      2880      2881
 -1      1239    8    0    1
 -2       567       697       696      2881      2882      2877
 -1      1240    8    0    1
 -2       568       569       698      2496      2883      2884
 -1      1241    8    0    1
 -2       697       568       698      2880      2884      2885
 -1      1242    8    0    1
 -2       569       572       698      2622      2886      2883
 -1      1243    8    0    1
 -2       462       346       600      2592      2887      2576
 -1      1244    8    0    1
 -2       571       570       699      2502      2888      2889
 -1      1245    8    0    1
 -2       573       574       700      2511      2890      2891
 -1      1246    8    0    1
 -2       570       573       701      2508      2892      2893
 -1      1247    8    0    1
 -2       699       570       701      2888      2893      2894
 -1      1248    8    0    1
 -2       573       700       701      2891      2895      2892
 -1      1249    8    0    1
 -2       572       571       702      2505      2896      2897
 -1      1250    8    0    1
 -2       698       572       702      2886      2897      2898
 -1      1251    8    0    1
 -2       571       699       702      2889      2899      2896
 -1      1252    8    0    1
 -2       574       575       703      2514      2900      2901
 -1      1253    8    0    1
 -2       574       703       700      2901      2902      2890
 -1      1254    8    0    1
 -2       575       576       704      2517      2903      2904
 -1      1255    8    0    1
 -2       575       704       703      2904      2905      2900
 -1      1256    8    0    1
 -2       576       577       705      2520      2906      2907
 -1      1257    8    0    1
 -2       576       705       704      2907      2908      2903
 -1      1258    8    0    1
 -2       577       578       706      2523      2909      2910
 -1      1259    8    0    1
 -2       577       706       705      2910      2911      2906
 -1      1260    8    0    1
 -2       578       579       707      2526      2912      2913
 -1      1261    8    0    1
 -2       578       707       706      2913      2914      2909
 -1      1262    8    0    1
 -2       486       487       708      2600      2915      2916
 -1      1263    8    0    1
 -2       485       582       709      2535      2917      2918
 -1      1264    8    0    1
 -2       530       531       710      2382      2919      2920
 -1      1265    8    0    1
 -2       659       530       710      2767      2920      2921
 -1      1266    8    0    1
 -2       531       661       710      2774      2922      2919
 -1      1267    8    0    1
 -2       581       584       711      2615      2923      2924
 -1      1268    8    0    1
 -2       600       346       607      2887      2605      2925
 -1      1269    8    0    1
 -2       496       495       712      2277      2926      2927
 -1      1270    8    0    1
 -2       496       712       628      2927      2928      2675
 -1      1271    8    0    1
 -2       603       581       713      2608      2929      2930
 -1      1272    8    0    1
 -2       487       583       714      2539      2931      2932
 -1      1273    8    0    1
 -2       583       619       714      2655      2933      2931
 -1      1274    8    0    1
 -2       488       485       715      2253      2934      2935
 -1      1275    8    0    1
 -2       621       488       715      2658      2935      2936
 -1      1276    8    0    1
 -2       485       709       715      2918      2937      2934
 -1      1277    8    0    1
 -2       582       446       709      2616      2938      2917
 -1      1278    8    0    1
 -2       588       590       716      2637      2939      2940
 -1      1279    8    0    1
 -2       479       480       717      2231      2941      2942
 -1      1280    8    0    1
 -2       614       479       717      2641      2942      2943
 -1      1281    8    0    1
 -2       480       616       717      2647      2944      2941
 -1      1282    8    0    1
 -2       589       592       718      2560      2945      2946
 -1      1283    8    0    1
 -2       597       599       719      2639      2947      2948
 -1      1284    8    0    1
 -2       592       593       720      2627      2949      2950
 -1      1285    8    0    1
 -2       592       720       718      2950      2951      2945
 -1      1286    8    0    1
 -2       595       596       721      2569      2952      2953
 -1      1287    8    0    1
 -2       595       721       625      2953      2954      2669
 -1      1288    8    0    1
 -2       476       475       722      2220      2955      2956
 -1      1289    8    0    1
 -2       591       600       607      2578      2925      2957
 -1      1290    8    0    1
 -2       593       594       723      2638      2958      2959
 -1      1291    8    0    1
 -2       593       723       720      2959      2960      2949
 -1      1292    8    0    1
 -2       596       585       724      2623      2961      2962
 -1      1293    8    0    1
 -2       585       627       724      2674      2963      2961
 -1      1294    8    0    1
 -2       477       615       725      2644      2964      2965
 -1      1295    8    0    1
 -2       477       725       587      2965      2966      2549
 -1      1296    8    0    1
 -2       483       618       482      2652      2967      2240
 -1      1297    8    0    1
 -2       619       586       726      2654      2968      2969
 -1      1298    8    0    1
 -2       586       612       726      2632      2970      2968
 -1      1299    8    0    1
 -2       604       620       727      2657      2971      2972
 -1      1300    8    0    1
 -2       604       727       608      2972      2973      2611
 -1      1301    8    0    1
 -2       594       625       723      2670      2974      2958
 -1      1302    8    0    1
 -2       492       624       719      2667      2975      2976
 -1      1303    8    0    1
 -2       476       722       728      2956      2977      2978
 -1      1304    8    0    1
 -2       476       728       605      2978      2979      2593
 -1      1305    8    0    1
 -2       493       492       719      2268      2976      2980
 -1      1306    8    0    1
 -2       446       605       709      2595      2981      2938
 -1      1307    8    0    1
 -2       581       711       713      2924      2982      2929
 -1      1308    8    0    1
 -2       711       584       729      2923      2983      2984
 -1      1309    8    0    1
 -2       584       609       729      2614      2985      2983
 -1      1310    8    0    1
 -2       588       716       730      2940      2986      2987
 -1      1311    8    0    1
 -2       588       730       612      2987      2988      2633
 -1      1312    8    0    1
 -2       609       473       608      2612      2610      2989
 -1      1313    8    0    1
 -2       486       708       620      2916      2990      2656
 -1      1314    8    0    1
 -2       708       487       714      2915      2932      2991
 -1      1315    8    0    1
 -2       579       580       731      2529      2992      2993
 -1      1316    8    0    1
 -2       707       579       731      2912      2993      2994
 -1      1317    8    0    1
 -2       580       657       731      2763      2995      2992
 -1      1318    8    0    1
 -2       529       660       732      2771      2996      2997
 -1      1319    8    0    1
 -2       610       529       732      2620      2997      2998
 -1      1320    8    0    1
 -2       712       495       598      2926      2999      3000
 -1      1321    8    0    1
 -2       611       474       733      2630      3001      3002
 -1      1322    8    0    1
 -2       474       613       733      2635      3003      3001
 -1      1323    8    0    1
 -2       493       719       599      2980      2947      3004
 -1      1324    8    0    1
 -2       482       618       617      2967      3005      2648
 -1      1325    8    0    1
 -2       613       589       734      2636      3006      3007
 -1      1326    8    0    1
 -2       589       718       734      2946      3008      3006
 -1      1327    8    0    1
 -2       494       350       601      2271      3009      3010
 -1      1328    8    0    1
 -2       475       587       735      2548      3011      3012
 -1      1329    8    0    1
 -2       722       475       735      2955      3012      3013
 -1      1330    8    0    1
 -2       587       725       735      2966      3014      3011
 -1      1331    8    0    1
 -2       590       611       736      2629      3015      3016
 -1      1332    8    0    1
 -2       590       736       716      3016      3017      2939
 -1      1333    8    0    1
 -2       596       724       721      2962      3018      2952
 -1      1334    8    0    1
 -2       598       603       712      2625      3019      3000
 -1      1335    8    0    1
 -2       597       719       737      2948      3020      3021
 -1      1336    8    0    1
 -2       627       597       737      2673      3021      3022
 -1      1337    8    0    1
 -2       719       624       737      2975      3023      3020
 -1      1338    8    0    1
 -2       712       603       713      3019      2930      3024
 -1      1339    8    0    1
 -2       591       607       493      2957      2640      3025
 -1      1340    8    0    1
 -2       495       494       598      2607      3026      2999
 -1      1341    8    0    1
 -2       493       599       591      3004      2624      3025
 -1      1342    8    0    1
 -2       601       350       626      3009      2672      3027
 -1      1343    8    0    1
 -2       494       601       602      3010      2585      3028
 -1      1344    8    0    1
 -2       616       617       738      2650      3029      3030
 -1      1345    8    0    1
 -2       618       606       610      2653      2619      3031
 -1      1346    8    0    1
 -2       712       713       739      3024      3032      3033
 -1      1347    8    0    1
 -2       628       712       739      2928      3033      3034
 -1      1348    8    0    1
 -2       713       711       739      2982      3035      3032
 -1      1349    8    0    1
 -2       623       622       740      2665      3036      3037
 -1      1350    8    0    1
 -2       624       623       741      2668      3038      3039
 -1      1351    8    0    1
 -2       737       624       741      3023      3039      3040
 -1      1352    8    0    1
 -2       623       740       741      3037      3041      3038
 -1      1353    8    0    1
 -2       625       721       742      2954      3042      3043
 -1      1354    8    0    1
 -2       723       625       743      2974      3044      3045
 -1      1355    8    0    1
 -2       630       629       744      2682      3046      3047
 -1      1356    8    0    1
 -2       631       630       745      2685      3048      3049
 -1      1357    8    0    1
 -2       630       744       745      3047      3050      3048
 -1      1358    8    0    1
 -2       632       631       746      2688      3051      3052
 -1      1359    8    0    1
 -2       631       745       746      3049      3053      3051
 -1      1360    8    0    1
 -2       633       632       747      2691      3054      3055
 -1      1361    8    0    1
 -2       632       746       747      3052      3056      3054
 -1      1362    8    0    1
 -2       634       633       748      2694      3057      3058
 -1      1363    8    0    1
 -2       633       747       748      3055      3059      3057
 -1      1364    8    0    1
 -2       635       634       749      2697      3060      3061
 -1      1365    8    0    1
 -2       634       748       749      3058      3062      3060
 -1      1366    8    0    1
 -2       636       635       750      2700      3063      3064
 -1      1367    8    0    1
 -2       635       749       750      3061      3065      3063
 -1      1368    8    0    1
 -2       637       636       751      2703      3066      3067
 -1      1369    8    0    1
 -2       636       750       751      3064      3068      3066
 -1      1370    8    0    1
 -2       638       637       752      2706      3069      3070
 -1      1371    8    0    1
 -2       637       751       752      3067      3071      3069
 -1      1372    8    0    1
 -2       639       638       753      2709      3072      3073
 -1      1373    8    0    1
 -2       638       752       753      3070      3074      3072
 -1      1374    8    0    1
 -2       640       639       754      2712      3075      3076
 -1      1375    8    0    1
 -2       639       753       754      3073      3077      3075
 -1      1376    8    0    1
 -2       641       640       755      2715      3078      3079
 -1      1377    8    0    1
 -2       640       754       755      3076      3080      3078
 -1      1378    8    0    1
 -2       642       641       756      2718      3081      3082
 -1      1379    8    0    1
 -2       641       755       756      3079      3083      3081
 -1      1380    8    0    1
 -2       643       642       757      2721      3084      3085
 -1      1381    8    0    1
 -2       642       756       757      3082      3086      3084
 -1      1382    8    0    1
 -2       644       643       758      2724      3087      3088
 -1      1383    8    0    1
 -2       643       757       758      3085      3089      3087
 -1      1384    8    0    1
 -2       645       644       759      2727      3090      3091
 -1      1385    8    0    1
 -2       644       758       759      3088      3092      3090
 -1      1386    8    0    1
 -2       646       645       760      2730      3093      3094
 -1      1387    8    0    1
 -2       645       759       760      3091      3095      3093
 -1      1388    8    0    1
 -2       647       646       761      2733      3096      3097
 -1      1389    8    0    1
 -2       646       760       761      3094      3098      3096
 -1      1390    8    0    1
 -2       648       647       762      2736      3099      3100
 -1      1391    8    0    1
 -2       647       761       762      3097      3101      3099
 -1      1392    8    0    1
 -2       649       648       763      2739      3102      3103
 -1      1393    8    0    1
 -2       648       762       763      3100      3104      3102
 -1      1394    8    0    1
 -2       650       649       764      2742      3105      3106
 -1      1395    8    0    1
 -2       649       763       764      3103      3107      3105
 -1      1396    8    0    1
 -2       651       650       765      2745      3108      3109
 -1      1397    8    0    1
 -2       650       764       765      3106      3110      3108
 -1      1398    8    0    1
 -2       652       651       766      2748      3111      3112
 -1      1399    8    0    1
 -2       651       765       766      3109      3113      3111
 -1      1400    8    0    1
 -2       653       652       767      2751      3114      3115
 -1      1401    8    0    1
 -2       652       766       767      3112      3116      3114
 -1      1402    8    0    1
 -2       654       653       768      2754      3117      3118
 -1      1403    8    0    1
 -2       653       767       768      3115      3119      3117
 -1      1404    8    0    1
 -2       655       654       769      2757      3120      3121
 -1      1405    8    0    1
 -2       654       768       769      3118      3122      3120
 -1      1406    8    0    1
 -2       656       655       770      2760      3123      3124
 -1      1407    8    0    1
 -2       655       769       770      3121      3125      3123
 -1      1408    8    0    1
 -2       658       659       771      2769      3126      3127
 -1      1409    8    0    1
 -2       660       658       772      2772      3128      3129
 -1      1410    8    0    1
 -2       658       771       772      3127      3130      3128
 -1      1411    8    0    1
 -2       662       663       773      2780      3131      3132
 -1      1412    8    0    1
 -2       661       662       774      2777      3133      3134
 -1      1413    8    0    1
 -2       662       773       774      3132      3135      3133
 -1      1414    8    0    1
 -2       664       665       775      2786      3136      3137
 -1      1415    8    0    1
 -2       665       666       776      2789      3138      3139
 -1      1416    8    0    1
 -2       665       776       775      3139      3140      3136
 -1      1417    8    0    1
 -2       666       667       777      2792      3141      3142
 -1      1418    8    0    1
 -2       666       777       776      3142      3143      3138
 -1      1419    8    0    1
 -2       667       668       778      2795      3144      3145
 -1      1420    8    0    1
 -2       667       778       777      3145      3146      3141
 -1      1421    8    0    1
 -2       668       669       779      2798      3147      3148
 -1      1422    8    0    1
 -2       668       779       778      3148      3149      3144
 -1      1423    8    0    1
 -2       669       670       780      2801      3150      3151
 -1      1424    8    0    1
 -2       669       780       779      3151      3152      3147
 -1      1425    8    0    1
 -2       670       671       781      2804      3153      3154
 -1      1426    8    0    1
 -2       670       781       780      3154      3155      3150
 -1      1427    8    0    1
 -2       671       672       782      2807      3156      3157
 -1      1428    8    0    1
 -2       671       782       781      3157      3158      3153
 -1      1429    8    0    1
 -2       672       673       783      2810      3159      3160
 -1      1430    8    0    1
 -2       672       783       782      3160      3161      3156
 -1      1431    8    0    1
 -2       673       674       784      2813      3162      3163
 -1      1432    8    0    1
 -2       673       784       783      3163      3164      3159
 -1      1433    8    0    1
 -2       674       675       785      2816      3165      3166
 -1      1434    8    0    1
 -2       674       785       784      3166      3167      3162
 -1      1435    8    0    1
 -2       675       676       786      2819      3168      3169
 -1      1436    8    0    1
 -2       675       786       785      3169      3170      3165
 -1      1437    8    0    1
 -2       676       677       787      2822      3171      3172
 -1      1438    8    0    1
 -2       676       787       786      3172      3173      3168
 -1      1439    8    0    1
 -2       677       678       788      2825      3174      3175
 -1      1440    8    0    1
 -2       677       788       787      3175      3176      3171
 -1      1441    8    0    1
 -2       678       679       789      2828      3177      3178
 -1      1442    8    0    1
 -2       678       789       788      3178      3179      3174
 -1      1443    8    0    1
 -2       679       680       790      2831      3180      3181
 -1      1444    8    0    1
 -2       679       790       789      3181      3182      3177
 -1      1445    8    0    1
 -2       680       681       791      2834      3183      3184
 -1      1446    8    0    1
 -2       680       791       790      3184      3185      3180
 -1      1447    8    0    1
 -2       681       682       792      2837      3186      3187
 -1      1448    8    0    1
 -2       681       792       791      3187      3188      3183
 -1      1449    8    0    1
 -2       682       683       793      2840      3189      3190
 -1      1450    8    0    1
 -2       682       793       792      3190      3191      3186
 -1      1451    8    0    1
 -2       683       684       794      2843      3192      3193
 -1      1452    8    0    1
 -2       683       794       793      3193      3194      3189
 -1      1453    8    0    1
 -2       684       685       795      2846      3195      3196
 -1      1454    8    0    1
 -2       684       795       794      3196      3197      3192
 -1      1455    8    0    1
 -2       685       686       796      2849      3198      3199
 -1      1456    8    0    1
 -2       685       796       795      3199      3200      3195
 -1      1457    8    0    1
 -2       686       687       797      2852      3201      3202
 -1      1458    8    0    1
 -2       686       797       796      3202      3203      3198
 -1      1459    8    0    1
 -2       687       688       798      2855      3204      3205
 -1      1460    8    0    1
 -2       687       798       797      3205      3206      3201
 -1      1461    8    0    1
 -2       688       689       799      2858      3207      3208
 -1      1462    8    0    1
 -2       688       799       798      3208      3209      3204
 -1      1463    8    0    1
 -2       689       690       800      2861      3210      3211
 -1      1464    8    0    1
 -2       689       800       799      3211      3212      3207
 -1      1465    8    0    1
 -2       690       691       801      2864      3213      3214
 -1      1466    8    0    1
 -2       690       801       800      3214      3215      3210
 -1      1467    8    0    1
 -2       691       692       802      2867      3216      3217
 -1      1468    8    0    1
 -2       691       802       801      3217      3218      3213
 -1      1469    8    0    1
 -2       692       693       803      2870      3219      3220
 -1      1470    8    0    1
 -2       692       803       802      3220      3221      3216
 -1      1471    8    0    1
 -2       693       694       804      2873      3222      3223
 -1      1472    8    0    1
 -2       693       804       803      3223      3224      3219
 -1      1473    8    0    1
 -2       694       695       805      2876      3225      3226
 -1      1474    8    0    1
 -2       694       805       804      3226      3227      3222
 -1      1475    8    0    1
 -2       695       696       806      2879      3228      3229
 -1      1476    8    0    1
 -2       695       806       805      3229      3230      3225
 -1      1477    8    0    1
 -2       696       697       807      2882      3231      3232
 -1      1478    8    0    1
 -2       696       807       806      3232      3233      3228
 -1      1479    8    0    1
 -2       697       698       808      2885      3234      3235
 -1      1480    8    0    1
 -2       807       697       808      3231      3235      3236
 -1      1481    8    0    1
 -2       698       702       808      2898      3237      3234
 -1      1482    8    0    1
 -2       703       704       809      2905      3238      3239
 -1      1483    8    0    1
 -2       704       705       810      2908      3240      3241
 -1      1484    8    0    1
 -2       704       810       809      3241      3242      3238
 -1      1485    8    0    1
 -2       705       706       811      2911      3243      3244
 -1      1486    8    0    1
 -2       705       811       810      3244      3245      3240
 -1      1487    8    0    1
 -2       706       707       812      2914      3246      3247
 -1      1488    8    0    1
 -2       706       812       811      3247      3248      3243
 -1      1489    8    0    1
 -2       610       732       618      2998      3249      3031
 -1      1490    8    0    1
 -2       714       619       813      2933      3250      3251
 -1      1491    8    0    1
 -2       620       708       814      2990      3252      3253
 -1      1492    8    0    1
 -2       720       723       815      2960      3254      3255
 -1      1493    8    0    1
 -2       700       703       816      2902      3256      3257
 -1      1494    8    0    1
 -2       703       809       816      3239      3258      3256
 -1      1495    8    0    1
 -2       663       664       817      2783      3259      3260
 -1      1496    8    0    1
 -2       773       663       817      3131      3260      3261
 -1      1497    8    0    1
 -2       664       775       817      3137      3262      3259
 -1      1498    8    0    1
 -2       629       628       818      2679      3263      3264
 -1      1499    8    0    1
 -2       629       818       744      3264      3265      3046
 -1      1500    8    0    1
 -2       622       621       819      2662      3266      3267
 -1      1501    8    0    1
 -2       622       819       740      3267      3268      3036
 -1      1502    8    0    1
 -2       609       608       820      2989      3269      3270
 -1      1503    8    0    1
 -2       721       724       821      3018      3271      3272
 -1      1504    8    0    1
 -2       708       714       822      2991      3273      3274
 -1      1505    8    0    1
 -2       714       813       822      3251      3275      3273
 -1      1506    8    0    1
 -2       617       618       732      3005      3249      3276
 -1      1507    8    0    1
 -2       718       720       823      2951      3277      3278
 -1      1508    8    0    1
 -2       720       815       823      3255      3279      3277
 -1      1509    8    0    1
 -2       615       614       824      2645      3280      3281
 -1      1510    8    0    1
 -2       598       494       602      3026      3028      2586
 -1      1511    8    0    1
 -2       709       605       728      2981      2979      3282
 -1      1512    8    0    1
 -2       466       601       626      2582      3027      3283
 -1      1513    8    0    1
 -2       626       349       466      2671      2602      3283
 -1      1514    8    0    1
 -2       724       627       825      2963      3284      3285
 -1      1515    8    0    1
 -2       617       732       738      3276      3286      3029
 -1      1516    8    0    1
 -2       726       612       826      2970      3287      3288
 -1      1517    8    0    1
 -2       612       730       826      2988      3289      3287
 -1      1518    8    0    1
 -2       619       726       827      2969      3290      3291
 -1      1519    8    0    1
 -2       619       827       813      3291      3292      3250
 -1      1520    8    0    1
 -2       727       620       828      2971      3293      3294
 -1      1521    8    0    1
 -2       620       814       828      3253      3295      3293
 -1      1522    8    0    1
 -2       728       722       829      2977      3296      3297
 -1      1523    8    0    1
 -2       724       825       821      3285      3298      3271
 -1      1524    8    0    1
 -2       743       625       742      3044      3043      3299
 -1      1525    8    0    1
 -2       723       743       830      3045      3300      3301
 -1      1526    8    0    1
 -2       723       830       815      3301      3302      3254
 -1      1527    8    0    1
 -2       716       736       831      3017      3303      3304
 -1      1528    8    0    1
 -2       716       831       730      3304      3305      2986
 -1      1529    8    0    1
 -2       729       609       820      2985      3270      3306
 -1      1530    8    0    1
 -2       627       737       825      3022      3307      3284
 -1      1531    8    0    1
 -2       771       659       832      3126      3308      3309
 -1      1532    8    0    1
 -2       659       710       832      2921      3310      3308
 -1      1533    8    0    1
 -2       657       656       731      2764      3311      2995
 -1      1534    8    0    1
 -2       818       628       739      3263      3034      3312
 -1      1535    8    0    1
 -2       661       774       833      3134      3313      3314
 -1      1536    8    0    1
 -2       661       833       710      3314      3315      2922
 -1      1537    8    0    1
 -2       718       823       834      3278      3316      3317
 -1      1538    8    0    1
 -2       718       834       734      3317      3318      3008
 -1      1539    8    0    1
 -2       701       700       835      2895      3319      3320
 -1      1540    8    0    1
 -2       700       816       835      3257      3321      3319
 -1      1541    8    0    1
 -2       702       699       836      2899      3322      3323
 -1      1542    8    0    1
 -2       702       836       808      3323      3324      3237
 -1      1543    8    0    1
 -2       699       701       836      2894      3325      3322
 -1      1544    8    0    1
 -2       812       707       770      3246      3326      3327
 -1      1545    8    0    1
 -2       814       708       822      3252      3274      3328
 -1      1546    8    0    1
 -2       732       660       837      2996      3329      3330
 -1      1547    8    0    1
 -2       733       613       838      3003      3331      3332
 -1      1548    8    0    1
 -2       613       734       838      3007      3333      3331
 -1      1549    8    0    1
 -2       709       728       839      3282      3334      3335
 -1      1550    8    0    1
 -2       715       709       839      2937      3335      3336
 -1      1551    8    0    1
 -2       728       829       839      3297      3337      3334
 -1      1552    8    0    1
 -2       615       824       840      3281      3338      3339
 -1      1553    8    0    1
 -2       615       840       725      3339      3340      2964
 -1      1554    8    0    1
 -2       611       733       841      3002      3341      3342
 -1      1555    8    0    1
 -2       611       841       736      3342      3343      3015
 -1      1556    8    0    1
 -2       820       608       842      3269      3344      3345
 -1      1557    8    0    1
 -2       608       727       842      2973      3346      3344
 -1      1558    8    0    1
 -2       621       715       839      2936      3336      3347
 -1      1559    8    0    1
 -2       721       821       742      3272      3348      3042
 -1      1560    8    0    1
 -2       707       731       770      2994      3349      3326
 -1      1561    8    0    1
 -2       717       616       843      2944      3350      3351
 -1      1562    8    0    1
 -2       616       738       843      3030      3352      3350
 -1      1563    8    0    1
 -2       722       735       844      3013      3353      3354
 -1      1564    8    0    1
 -2       722       844       829      3354      3355      3296
 -1      1565    8    0    1
 -2       732       837       738      3330      3356      3286
 -1      1566    8    0    1
 -2       614       717       845      2943      3357      3358
 -1      1567    8    0    1
 -2       824       614       845      3280      3358      3359
 -1      1568    8    0    1
 -2       717       843       845      3351      3360      3357
 -1      1569    8    0    1
 -2       621       839       819      3347      3361      3266
 -1      1570    8    0    1
 -2       837       660       772      3329      3129      3362
 -1      1571    8    0    1
 -2       739       711       846      3035      3363      3364
 -1      1572    8    0    1
 -2       738       837       847      3356      3365      3366
 -1      1573    8    0    1
 -2       738       847       843      3366      3367      3352
 -1      1574    8    0    1
 -2       821       825       848      3298      3368      3369
 -1      1575    8    0    1
 -2       656       770       731      3124      3349      3311
 -1      1576    8    0    1
 -2       744       818       849      3265      3370      3371
 -1      1577    8    0    1
 -2       746       745       850      3053      3372      3373
 -1      1578    8    0    1
 -2       747       746       851      3056      3374      3375
 -1      1579    8    0    1
 -2       746       850       851      3373      3376      3374
 -1      1580    8    0    1
 -2       748       747       852      3059      3377      3378
 -1      1581    8    0    1
 -2       747       851       852      3375      3379      3377
 -1      1582    8    0    1
 -2       749       748       853      3062      3380      3381
 -1      1583    8    0    1
 -2       748       852       853      3378      3382      3380
 -1      1584    8    0    1
 -2       750       749       854      3065      3383      3384
 -1      1585    8    0    1
 -2       749       853       854      3381      3385      3383
 -1      1586    8    0    1
 -2       751       750       855      3068      3386      3387
 -1      1587    8    0    1
 -2       750       854       855      3384      3388      3386
 -1      1588    8    0    1
 -2       752       751       856      3071      3389      3390
 -1      1589    8    0    1
 -2       751       855       856      3387      3391      3389
 -1      1590    8    0    1
 -2       753       752       857      3074      3392      3393
 -1      1591    8    0    1
 -2       752       856       857      3390      3394      3392
 -1      1592    8    0    1
 -2       754       753       858      3077      3395      3396
 -1      1593    8    0    1
 -2       753       857       858      3393      3397      3395
 -1      1594    8    0    1
 -2       755       754       859      3080      3398      3399
 -1      1595    8    0    1
 -2       754       858       859      3396      3400      3398
 -1      1596    8    0    1
 -2       756       755       860      3083      3401      3402
 -1      1597    8    0    1
 -2       755       859       860      3399      3403      3401
 -1      1598    8    0    1
 -2       757       756       861      3086      3404      3405
 -1      1599    8    0    1
 -2       756       860       861      3402      3406      3404
 -1      1600    8    0    1
 -2       758       757       862      3089      3407      3408
 -1      1601    8    0    1
 -2       757       861       862      3405      3409      3407
 -1      1602    8    0    1
 -2       759       758       863      3092      3410      3411
 -1      1603    8    0    1
 -2       758       862       863      3408      3412      3410
 -1      1604    8    0    1
 -2       760       759       864      3095      3413      3414
 -1      1605    8    0    1
 -2       759       863       864      3411      3415      3413
 -1      1606    8    0    1
 -2       761       760       865      3098      3416      3417
 -1      1607    8    0    1
 -2       760       864       865      3414      3418      3416
 -1      1608    8    0    1
 -2       762       761       866      3101      3419      3420
 -1      1609    8    0    1
 -2       761       865       866      3417      3421      3419
 -1      1610    8    0    1
 -2       763       762       867      3104      3422      3423
 -1      1611    8    0    1
 -2       762       866       867      3420      3424      3422
 -1      1612    8    0    1
 -2       764       763       868      3107      3425      3426
 -1      1613    8    0    1
 -2       763       867       868      3423      3427      3425
 -1      1614    8    0    1
 -2       765       764       869      3110      3428      3429
 -1      1615    8    0    1
 -2       764       868       869      3426      3430      3428
 -1      1616    8    0    1
 -2       766       765       870      3113      3431      3432
 -1      1617    8    0    1
 -2       765       869       870      3429      3433      3431
 -1      1618    8    0    1
 -2       767       766       871      3116      3434      3435
 -1      1619    8    0    1
 -2       766       870       871      3432      3436      3434
 -1      1620    8    0    1
 -2       768       767       872      3119      3437      3438
 -1      1621    8    0    1
 -2       767       871       872      3435      3439      3437
 -1      1622    8    0    1
 -2       769       768       873      3122      3440      3441
 -1      1623    8    0    1
 -2       768       872       873      3438      3442      3440
 -1      1624    8    0    1
 -2       770       769       874      3125      3443      3444
 -1      1625    8    0    1
 -2       812       770       874      3327      3444      3445
 -1      1626    8    0    1
 -2       769       873       874      3441      3446      3443
 -1      1627    8    0    1
 -2       729       820       875      3306      3447      3448
 -1      1628    8    0    1
 -2       739       846       818      3364      3449      3312
 -1      1629    8    0    1
 -2       776       777       876      3143      3450      3451
 -1      1630    8    0    1
 -2       775       776       877      3140      3452      3453
 -1      1631    8    0    1
 -2       776       876       877      3451      3454      3452
 -1      1632    8    0    1
 -2       778       779       878      3149      3455      3456
 -1      1633    8    0    1
 -2       779       780       879      3152      3457      3458
 -1      1634    8    0    1
 -2       779       879       878      3458      3459      3455
 -1      1635    8    0    1
 -2       780       781       880      3155      3460      3461
 -1      1636    8    0    1
 -2       780       880       879      3461      3462      3457
 -1      1637    8    0    1
 -2       781       782       881      3158      3463      3464
 -1      1638    8    0    1
 -2       781       881       880      3464      3465      3460
 -1      1639    8    0    1
 -2       782       783       882      3161      3466      3467
 -1      1640    8    0    1
 -2       782       882       881      3467      3468      3463
 -1      1641    8    0    1
 -2       783       784       883      3164      3469      3470
 -1      1642    8    0    1
 -2       783       883       882      3470      3471      3466
 -1      1643    8    0    1
 -2       784       785       884      3167      3472      3473
 -1      1644    8    0    1
 -2       784       884       883      3473      3474      3469
 -1      1645    8    0    1
 -2       785       786       885      3170      3475      3476
 -1      1646    8    0    1
 -2       785       885       884      3476      3477      3472
 -1      1647    8    0    1
 -2       786       787       886      3173      3478      3479
 -1      1648    8    0    1
 -2       786       886       885      3479      3480      3475
 -1      1649    8    0    1
 -2       787       788       887      3176      3481      3482
 -1      1650    8    0    1
 -2       787       887       886      3482      3483      3478
 -1      1651    8    0    1
 -2       788       789       888      3179      3484      3485
 -1      1652    8    0    1
 -2       788       888       887      3485      3486      3481
 -1      1653    8    0    1
 -2       789       790       889      3182      3487      3488
 -1      1654    8    0    1
 -2       789       889       888      3488      3489      3484
 -1      1655    8    0    1
 -2       790       791       890      3185      3490      3491
 -1      1656    8    0    1
 -2       790       890       889      3491      3492      3487
 -1      1657    8    0    1
 -2       791       792       891      3188      3493      3494
 -1      1658    8    0    1
 -2       791       891       890      3494      3495      3490
 -1      1659    8    0    1
 -2       792       793       892      3191      3496      3497
 -1      1660    8    0    1
 -2       792       892       891      3497      3498      3493
 -1      1661    8    0    1
 -2       793       794       893      3194      3499      3500
 -1      1662    8    0    1
 -2       793       893       892      3500      3501      3496
 -1      1663    8    0    1
 -2       794       795       894      3197      3502      3503
 -1      1664    8    0    1
 -2       794       894       893      3503      3504      3499
 -1      1665    8    0    1
 -2       795       796       895      3200      3505      3506
 -1      1666    8    0    1
 -2       795       895       894      3506      3507      3502
 -1      1667    8    0    1
 -2       796       797       896      3203      3508      3509
 -1      1668    8    0    1
 -2       796       896       895      3509      3510      3505
 -1      1669    8    0    1
 -2       797       798       897      3206      3511      3512
 -1      1670    8    0    1
 -2       797       897       896      3512      3513      3508
 -1      1671    8    0    1
 -2       798       799       898      3209      3514      3515
 -1      1672    8    0    1
 -2       798       898       897      3515      3516      3511
 -1      1673    8    0    1
 -2       799       800       899      3212      3517      3518
 -1      1674    8    0    1
 -2       799       899       898      3518      3519      3514
 -1      1675    8    0    1
 -2       800       801       900      3215      3520      3521
 -1      1676    8    0    1
 -2       800       900       899      3521      3522      3517
 -1      1677    8    0    1
 -2       801       802       901      3218      3523      3524
 -1      1678    8    0    1
 -2       801       901       900      3524      3525      3520
 -1      1679    8    0    1
 -2       802       803       902      3221      3526      3527
 -1      1680    8    0    1
 -2       802       902       901      3527      3528      3523
 -1      1681    8    0    1
 -2       803       804       903      3224      3529      3530
 -1      1682    8    0    1
 -2       803       903       902      3530      3531      3526
 -1      1683    8    0    1
 -2       804       805       904      3227      3532      3533
 -1      1684    8    0    1
 -2       804       904       903      3533      3534      3529
 -1      1685    8    0    1
 -2       805       806       905      3230      3535      3536
 -1      1686    8    0    1
 -2       805       905       904      3536      3537      3532
 -1      1687    8    0    1
 -2       806       807       906      3233      3538      3539
 -1      1688    8    0    1
 -2       806       906       905      3539      3540      3535
 -1      1689    8    0    1
 -2       810       811       907      3245      3541      3542
 -1      1690    8    0    1
 -2       836       701       835      3325      3320      3543
 -1      1691    8    0    1
 -2       811       812       908      3248      3544      3545
 -1      1692    8    0    1
 -2       907       811       908      3541      3545      3546
 -1      1693    8    0    1
 -2       812       874       908      3445      3547      3544
 -1      1694    8    0    1
 -2       809       810       909      3242      3548      3549
 -1      1695    8    0    1
 -2       810       907       909      3542      3550      3548
 -1      1696    8    0    1
 -2       819       839       829      3361      3337      3551
 -1      1697    8    0    1
 -2       814       822       910      3328      3552      3553
 -1      1698    8    0    1
 -2       846       711       729      3363      2984      3554
 -1      1699    8    0    1
 -2       818       846       849      3449      3555      3370
 -1      1700    8    0    1
 -2       819       829       911      3551      3556      3557
 -1      1701    8    0    1
 -2       846       729       875      3554      3448      3558
 -1      1702    8    0    1
 -2       774       773       912      3135      3559      3560
 -1      1703    8    0    1
 -2       743       742       913      3299      3561      3562
 -1      1704    8    0    1
 -2       837       772       847      3362      3563      3365
 -1      1705    8    0    1
 -2       745       744       914      3050      3564      3565
 -1      1706    8    0    1
 -2       850       745       914      3372      3565      3566
 -1      1707    8    0    1
 -2       744       849       914      3371      3567      3564
 -1      1708    8    0    1
 -2       822       813       915      3275      3568      3569
 -1      1709    8    0    1
 -2       735       725       916      3014      3570      3571
 -1      1710    8    0    1
 -2       735       916       844      3571      3572      3353
 -1      1711    8    0    1
 -2       740       819       911      3268      3557      3573
 -1      1712    8    0    1
 -2       823       815       917      3279      3574      3575
 -1      1713    8    0    1
 -2       742       821       918      3348      3576      3577
 -1      1714    8    0    1
 -2       816       809       919      3258      3578      3579
 -1      1715    8    0    1
 -2       809       909       919      3549      3580      3578
 -1      1716    8    0    1
 -2       777       778       920      3146      3581      3582
 -1      1717    8    0    1
 -2       876       777       920      3450      3582      3583
 -1      1718    8    0    1
 -2       778       878       920      3456      3584      3581
 -1      1719    8    0    1
 -2       825       737       741      3307      3040      3585
 -1      1720    8    0    1
 -2       772       771       921      3130      3586      3587
 -1      1721    8    0    1
 -2       827       726       826      3290      3288      3588
 -1      1722    8    0    1
 -2       826       730       922      3289      3589      3590
 -1      1723    8    0    1
 -2       828       814       923      3295      3591      3592
 -1      1724    8    0    1
 -2       814       910       923      3553      3593      3591
 -1      1725    8    0    1
 -2       848       825       741      3368      3585      3594
 -1      1726    8    0    1
 -2       741       740       848      3041      3595      3594
 -1      1727    8    0    1
 -2       772       921       847      3587      3596      3563
 -1      1728    8    0    1
 -2       830       743       913      3300      3562      3597
 -1      1729    8    0    1
 -2       831       736       924      3303      3598      3599
 -1      1730    8    0    1
 -2       736       841       924      3343      3600      3598
 -1      1731    8    0    1
 -2       832       710       833      3310      3315      3601
 -1      1732    8    0    1
 -2       774       912       925      3560      3602      3603
 -1      1733    8    0    1
 -2       774       925       833      3603      3604      3313
 -1      1734    8    0    1
 -2       911       829       844      3556      3355      3605
 -1      1735    8    0    1
 -2       834       823       926      3316      3606      3607
 -1      1736    8    0    1
 -2       823       917       926      3575      3608      3606
 -1      1737    8    0    1
 -2       846       875       849      3558      3609      3555
 -1      1738    8    0    1
 -2       807       808       836      3236      3324      3610
 -1      1739    8    0    1
 -2       836       835       927      3543      3611      3612
 -1      1740    8    0    1
 -2       835       816       928      3321      3613      3614
 -1      1741    8    0    1
 -2       816       919       928      3579      3615      3613
 -1      1742    8    0    1
 -2       875       820       929      3447      3616      3617
 -1      1743    8    0    1
 -2       820       842       929      3345      3618      3616
 -1      1744    8    0    1
 -2       838       734       930      3333      3619      3620
 -1      1745    8    0    1
 -2       734       834       930      3318      3621      3619
 -1      1746    8    0    1
 -2       773       817       931      3261      3622      3623
 -1      1747    8    0    1
 -2       773       931       912      3623      3624      3559
 -1      1748    8    0    1
 -2       910       822       915      3552      3569      3625
 -1      1749    8    0    1
 -2       913       742       932      3561      3626      3627
 -1      1750    8    0    1
 -2       742       918       932      3577      3628      3626
 -1      1751    8    0    1
 -2       733       838       841      3332      3629      3341
 -1      1752    8    0    1
 -2       848       740       911      3595      3573      3630
 -1      1753    8    0    1
 -2       727       828       933      3294      3631      3632
 -1      1754    8    0    1
 -2       727       933       842      3632      3633      3346
 -1      1755    8    0    1
 -2       815       830       917      3302      3634      3574
 -1      1756    8    0    1
 -2       725       840       916      3340      3635      3570
 -1      1757    8    0    1
 -2       817       775       934      3262      3636      3637
 -1      1758    8    0    1
 -2       931       817       934      3622      3637      3638
 -1      1759    8    0    1
 -2       775       877       934      3453      3639      3636
 -1      1760    8    0    1
 -2       918       821       848      3576      3369      3640
 -1      1761    8    0    1
 -2       922       730       831      3589      3305      3641
 -1      1762    8    0    1
 -2       807       836       906      3610      3642      3538
 -1      1763    8    0    1
 -2       840       824       935      3338      3643      3644
 -1      1764    8    0    1
 -2       921       771       936      3586      3645      3646
 -1      1765    8    0    1
 -2       771       832       936      3309      3647      3645
 -1      1766    8    0    1
 -2       824       845       937      3359      3648      3649
 -1      1767    8    0    1
 -2       824       937       935      3649      3650      3643
 -1      1768    8    0    1
 -2       851       850       938      3376      3651      3652
 -1      1769    8    0    1
 -2       915       813       939      3568      3653      3654
 -1      1770    8    0    1
 -2       852       851       940      3379      3655      3656
 -1      1771    8    0    1
 -2       851       938       940      3652      3657      3655
 -1      1772    8    0    1
 -2       853       852       941      3382      3658      3659
 -1      1773    8    0    1
 -2       852       940       941      3656      3660      3658
 -1      1774    8    0    1
 -2       854       853       942      3385      3661      3662
 -1      1775    8    0    1
 -2       853       941       942      3659      3663      3661
 -1      1776    8    0    1
 -2       855       854       943      3388      3664      3665
 -1      1777    8    0    1
 -2       854       942       943      3662      3666      3664
 -1      1778    8    0    1
 -2       856       855       944      3391      3667      3668
 -1      1779    8    0    1
 -2       855       943       944      3665      3669      3667
 -1      1780    8    0    1
 -2       857       856       945      3394      3670      3671
 -1      1781    8    0    1
 -2       856       944       945      3668      3672      3670
 -1      1782    8    0    1
 -2       858       857       946      3397      3673      3674
 -1      1783    8    0    1
 -2       857       945       946      3671      3675      3673
 -1      1784    8    0    1
 -2       859       858       947      3400      3676      3677
 -1      1785    8    0    1
 -2       858       946       947      3674      3678      3676
 -1      1786    8    0    1
 -2       860       859       948      3403      3679      3680
 -1      1787    8    0    1
 -2       859       947       948      3677      3681      3679
 -1      1788    8    0    1
 -2       861       860       949      3406      3682      3683
 -1      1789    8    0    1
 -2       860       948       949      3680      3684      3682
 -1      1790    8    0    1
 -2       862       861       950      3409      3685      3686
 -1      1791    8    0    1
 -2       861       949       950      3683      3687      3685
 -1      1792    8    0    1
 -2       863       862       951      3412      3688      3689
 -1      1793    8    0    1
 -2       862       950       951      3686      3690      3688
 -1      1794    8    0    1
 -2       864       863       952      3415      3691      3692
 -1      1795    8    0    1
 -2       863       951       952      3689      3693      3691
 -1      1796    8    0    1
 -2       865       864       953      3418      3694      3695
 -1      1797    8    0    1
 -2       864       952       953      3692      3696      3694
 -1      1798    8    0    1
 -2       866       865       954      3421      3697      3698
 -1      1799    8    0    1
 -2       865       953       954      3695      3699      3697
 -1      1800    8    0    1
 -2       867       866       955      3424      3700      3701
 -1      1801    8    0    1
 -2       866       954       955      3698      3702      3700
 -1      1802    8    0    1
 -2       868       867       956      3427      3703      3704
 -1      1803    8    0    1
 -2       867       955       956      3701      3705      3703
 -1      1804    8    0    1
 -2       869       868       957      3430      3706      3707
 -1      1805    8    0    1
 -2       868       956       957      3704      3708      3706
 -1      1806    8    0    1
 -2       870       869       958      3433      3709      3710
 -1      1807    8    0    1
 -2       869       957       958      3707      3711      3709
 -1      1808    8    0    1
 -2       871       870       959      3436      3712      3713
 -1      1809    8    0    1
 -2       870       958       959      3710      3714      3712
 -1      1810    8    0    1
 -2       872       871       960      3439      3715      3716
 -1      1811    8    0    1
 -2       871       959       960      3713      3717      3715
 -1      1812    8    0    1
 -2       873       872       961      3442      3718      3719
 -1      1813    8    0    1
 -2       872       960       961      3716      3720      3718
 -1      1814    8    0    1
 -2       874       873       962      3446      3721      3722
 -1      1815    8    0    1
 -2       908       874       962      3547      3722      3723
 -1      1816    8    0    1
 -2       873       961       962      3719      3724      3721
 -1      1817    8    0    1
 -2       877       876       922      3454      3725      3726
 -1      1818    8    0    1
 -2       911       844       963      3605      3727      3728
 -1      1819    8    0    1
 -2       918       848       911      3640      3630      3729
 -1      1820    8    0    1
 -2       879       880       964      3462      3730      3731
 -1      1821    8    0    1
 -2       881       882       965      3468      3732      3733
 -1      1822    8    0    1
 -2       882       883       966      3471      3734      3735
 -1      1823    8    0    1
 -2       882       966       965      3735      3736      3732
 -1      1824    8    0    1
 -2       883       884       967      3474      3737      3738
 -1      1825    8    0    1
 -2       883       967       966      3738      3739      3734
 -1      1826    8    0    1
 -2       884       885       968      3477      3740      3741
 -1      1827    8    0    1
 -2       884       968       967      3741      3742      3737
 -1      1828    8    0    1
 -2       885       886       969      3480      3743      3744
 -1      1829    8    0    1
 -2       885       969       968      3744      3745      3740
 -1      1830    8    0    1
 -2       886       887       970      3483      3746      3747
 -1      1831    8    0    1
 -2       886       970       969      3747      3748      3743
 -1      1832    8    0    1
 -2       887       888       971      3486      3749      3750
 -1      1833    8    0    1
 -2       887       971       970      3750      3751      3746
 -1      1834    8    0    1
 -2       888       889       972      3489      3752      3753
 -1      1835    8    0    1
 -2       888       972       971      3753      3754      3749
 -1      1836    8    0    1
 -2       889       890       973      3492      3755      3756
 -1      1837    8    0    1
 -2       889       973       972      3756      3757      3752
 -1      1838    8    0    1
 -2       890       891       974      3495      3758      3759
 -1      1839    8    0    1
 -2       890       974       973      3759      3760      3755
 -1      1840    8    0    1
 -2       891       892       975      3498      3761      3762
 -1      1841    8    0    1
 -2       891       975       974      3762      3763      3758
 -1      1842    8    0    1
 -2       892       893       976      3501      3764      3765
 -1      1843    8    0    1
 -2       892       976       975      3765      3766      3761
 -1      1844    8    0    1
 -2       893       894       977      3504      3767      3768
 -1      1845    8    0    1
 -2       893       977       976      3768      3769      3764
 -1      1846    8    0    1
 -2       894       895       978      3507      3770      3771
 -1      1847    8    0    1
 -2       894       978       977      3771      3772      3767
 -1      1848    8    0    1
 -2       895       896       979      3510      3773      3774
 -1      1849    8    0    1
 -2       895       979       978      3774      3775      3770
 -1      1850    8    0    1
 -2       896       897       980      3513      3776      3777
 -1      1851    8    0    1
 -2       896       980       979      3777      3778      3773
 -1      1852    8    0    1
 -2       897       898       981      3516      3779      3780
 -1      1853    8    0    1
 -2       897       981       980      3780      3781      3776
 -1      1854    8    0    1
 -2       898       899       982      3519      3782      3783
 -1      1855    8    0    1
 -2       898       982       981      3783      3784      3779
 -1      1856    8    0    1
 -2       899       900       983      3522      3785      3786
 -1      1857    8    0    1
 -2       899       983       982      3786      3787      3782
 -1      1858    8    0    1
 -2       900       901       984      3525      3788      3789
 -1      1859    8    0    1
 -2       900       984       983      3789      3790      3785
 -1      1860    8    0    1
 -2       901       902       985      3528      3791      3792
 -1      1861    8    0    1
 -2       901       985       984      3792      3793      3788
 -1      1862    8    0    1
 -2       902       903       986      3531      3794      3795
 -1      1863    8    0    1
 -2       902       986       985      3795      3796      3791
 -1      1864    8    0    1
 -2       903       904       987      3534      3797      3798
 -1      1865    8    0    1
 -2       903       987       986      3798      3799      3794
 -1      1866    8    0    1
 -2       904       905       988      3537      3800      3801
 -1      1867    8    0    1
 -2       904       988       987      3801      3802      3797
 -1      1868    8    0    1
 -2       905       906       989      3540      3803      3804
 -1      1869    8    0    1
 -2       905       989       988      3804      3805      3800
 -1      1870    8    0    1
 -2       840       935       990      3644      3806      3807
 -1      1871    8    0    1
 -2       840       990       916      3807      3808      3635
 -1      1872    8    0    1
 -2       909       907       991      3550      3809      3810
 -1      1873    8    0    1
 -2       927       835       928      3611      3614      3811
 -1      1874    8    0    1
 -2       922       876       992      3725      3812      3813
 -1      1875    8    0    1
 -2       826       922       992      3590      3813      3814
 -1      1876    8    0    1
 -2       876       920       992      3583      3815      3812
 -1      1877    8    0    1
 -2       919       909       993      3580      3816      3817
 -1      1878    8    0    1
 -2       909       991       993      3810      3818      3816
 -1      1879    8    0    1
 -2       910       915       994      3625      3819      3820
 -1      1880    8    0    1
 -2       847       921       995      3596      3821      3822
 -1      1881    8    0    1
 -2       836       927       906      3612      3823      3642
 -1      1882    8    0    1
 -2       830       913       996      3597      3824      3825
 -1      1883    8    0    1
 -2       844       916       963      3572      3826      3727
 -1      1884    8    0    1
 -2       917       830       997      3634      3827      3828
 -1      1885    8    0    1
 -2       830       996       997      3825      3829      3827
 -1      1886    8    0    1
 -2       939       813       827      3653      3292      3830
 -1      1887    8    0    1
 -2       915       939       998      3654      3831      3832
 -1      1888    8    0    1
 -2       918       911       963      3729      3728      3833
 -1      1889    8    0    1
 -2       906       927       989      3823      3834      3803
 -1      1890    8    0    1
 -2       877       922       831      3726      3641      3835
 -1      1891    8    0    1
 -2       845       843       999      3360      3836      3837
 -1      1892    8    0    1
 -2       937       845       999      3648      3837      3838
 -1      1893    8    0    1
 -2       843       847       999      3367      3839      3836
 -1      1894    8    0    1
 -2       849       875      1000      3609      3840      3841
 -1      1895    8    0    1
 -2       914       849      1000      3567      3841      3842
 -1      1896    8    0    1
 -2       875       929      1000      3617      3843      3840
 -1      1897    8    0    1
 -2       841       838       931      3629      3844      3845
 -1      1898    8    0    1
 -2       880       881      1001      3465      3846      3847
 -1      1899    8    0    1
 -2       880      1001       964      3847      3848      3730
 -1      1900    8    0    1
 -2       939       827       992      3830      3849      3850
 -1      1901    8    0    1
 -2       827       826       992      3588      3814      3849
 -1      1902    8    0    1
 -2       832       833      1002      3601      3851      3852
 -1      1903    8    0    1
 -2       936       832      1002      3647      3852      3853
 -1      1904    8    0    1
 -2       833       925      1002      3604      3854      3851
 -1      1905    8    0    1
 -2       877       831       924      3835      3599      3855
 -1      1906    8    0    1
 -2       828       923      1003      3592      3856      3857
 -1      1907    8    0    1
 -2       828      1003       933      3857      3858      3631
 -1      1908    8    0    1
 -2       925       912       930      3602      3859      3860
 -1      1909    8    0    1
 -2       919       993      1004      3817      3861      3862
 -1      1910    8    0    1
 -2       919      1004       928      3862      3863      3615
 -1      1911    8    0    1
 -2       989       927       928      3834      3811      3864
 -1      1912    8    0    1
 -2       939       992       920      3850      3815      3865
 -1      1913    8    0    1
 -2       881       965      1001      3733      3866      3846
 -1      1914    8    0    1
 -2       878       879       998      3459      3867      3868
 -1      1915    8    0    1
 -2       916       990       963      3808      3869      3826
 -1      1916    8    0    1
 -2       990       935      1005      3806      3870      3871
 -1      1917    8    0    1
 -2       995       921      1006      3821      3872      3873
 -1      1918    8    0    1
 -2       994       915       998      3819      3832      3874
 -1      1919    8    0    1
 -2       929       842      1007      3618      3875      3876
 -1      1920    8    0    1
 -2       842       933      1007      3633      3877      3875
 -1      1921    8    0    1
 -2       912       931       838      3624      3844      3878
 -1      1922    8    0    1
 -2       847       995       999      3822      3879      3839
 -1      1923    8    0    1
 -2       934       877       924      3639      3855      3880
 -1      1924    8    0    1
 -2       996       913      1005      3824      3881      3882
 -1      1925    8    0    1
 -2       998       939       878      3831      3883      3868
 -1      1926    8    0    1
 -2       907       908       962      3546      3723      3884
 -1      1927    8    0    1
 -2       912       838       930      3878      3620      3859
 -1      1928    8    0    1
 -2       878       939       920      3883      3865      3584
 -1      1929    8    0    1
 -2      1006       921       936      3872      3646      3885
 -1      1930    8    0    1
 -2      1005       935      1008      3870      3886      3887
 -1      1931    8    0    1
 -2       935       937      1008      3650      3888      3886
 -1      1932    8    0    1
 -2       907       962       991      3884      3889      3809
 -1      1933    8    0    1
 -2       850       914      1009      3566      3890      3891
 -1      1934    8    0    1
 -2       850      1009       938      3891      3892      3651
 -1      1935    8    0    1
 -2       918       963       932      3833      3893      3628
 -1      1936    8    0    1
 -2       924       841       931      3600      3845      3894
 -1      1937    8    0    1
 -2       941       940      1010      3660      3895      3896
 -1      1938    8    0    1
 -2       942       941      1011      3663      3897      3898
 -1      1939    8    0    1
 -2       941      1010      1011      3896      3899      3897
 -1      1940    8    0    1
 -2       943       942      1012      3666      3900      3901
 -1      1941    8    0    1
 -2       942      1011      1012      3898      3902      3900
 -1      1942    8    0    1
 -2       944       943      1013      3669      3903      3904
 -1      1943    8    0    1
 -2       943      1012      1013      3901      3905      3903
 -1      1944    8    0    1
 -2       945       944      1014      3672      3906      3907
 -1      1945    8    0    1
 -2       944      1013      1014      3904      3908      3906
 -1      1946    8    0    1
 -2       946       945      1015      3675      3909      3910
 -1      1947    8    0    1
 -2       945      1014      1015      3907      3911      3909
 -1      1948    8    0    1
 -2       947       946      1016      3678      3912      3913
 -1      1949    8    0    1
 -2       946      1015      1016      3910      3914      3912
 -1      1950    8    0    1
 -2       948       947      1017      3681      3915      3916
 -1      1951    8    0    1
 -2       947      1016      1017      3913      3917      3915
 -1      1952    8    0    1
 -2       949       948      1018      3684      3918      3919
 -1      1953    8    0    1
 -2       948      1017      1018      3916      3920      3918
 -1      1954    8    0    1
 -2       950       949      1019      3687      3921      3922
 -1      1955    8    0    1
 -2       949      1018      1019      3919      3923      3921
 -1      1956    8    0    1
 -2       951       950      1020      3690      3924      3925
 -1      1957    8    0    1
 -2       950      1019      1020      3922      3926      3924
 -1      1958    8    0    1
 -2       952       951      1021      3693      3927      3928
 -1      1959    8    0    1
 -2       951      1020      1021      3925      3929      3927
 -1      1960    8    0    1
 -2       953       952      1022      3696      3930      3931
 -1      1961    8    0    1
 -2       952      1021      1022      3928      3932      3930
 -1      1962    8    0    1
 -2       954       953      1023      3699      3933      3934
 -1      1963    8    0    1
 -2       953      1022      1023      3931      3935      3933
 -1      1964    8    0    1
 -2       955       954      1024      3702      3936      3937
 -1      1965    8    0    1
 -2       954      1023      1024      3934      3938      3936
 -1      1966    8    0    1
 -2       956       955      1025      3705      3939      3940
 -1      1967    8    0    1
 -2       955      1024      1025      3937      3941      3939
 -1      1968    8    0    1
 -2       957       956      1026      3708      3942      3943
 -1      1969    8    0    1
 -2       956      1025      1026      3940      3944      3942
 -1      1970    8    0    1
 -2       958       957      1027      3711      3945      3946
 -1      1971    8    0    1
 -2       957      1026      1027      3943      3947      3945
 -1      1972    8    0    1
 -2       959       958      1028      3714      3948      3949
 -1      1973    8    0    1
 -2       958      1027      1028      3946      3950      3948
 -1      1974    8    0    1
 -2       960       959      1029      3717      3951      3952
 -1      1975    8    0    1
 -2       959      1028      1029      3949      3953      3951
 -1      1976    8    0    1
 -2       961       960      1030      3720      3954      3955
 -1      1977    8    0    1
 -2       960      1029      1030      3952      3956      3954
 -1      1978    8    0    1
 -2       917       997      1031      3828      3957      3958
 -1      1979    8    0    1
 -2       926       917      1031      3608      3958      3959
 -1      1980    8    0    1
 -2       923       910      1032      3593      3960      3961
 -1      1981    8    0    1
 -2       998       879       964      3867      3731      3962
 -1      1982    8    0    1
 -2       963       990       932      3869      3963      3893
 -1      1983    8    0    1
 -2       965       966      1033      3736      3964      3965
 -1      1984    8    0    1
 -2       968       969      1034      3745      3966      3967
 -1      1985    8    0    1
 -2       969       970      1035      3748      3968      3969
 -1      1986    8    0    1
 -2       969      1035      1034      3969      3970      3966
 -1      1987    8    0    1
 -2       970       971      1036      3751      3971      3972
 -1      1988    8    0    1
 -2       970      1036      1035      3972      3973      3968
 -1      1989    8    0    1
 -2       971       972      1037      3754      3974      3975
 -1      1990    8    0    1
 -2       971      1037      1036      3975      3976      3971
 -1      1991    8    0    1
 -2       972       973      1038      3757      3977      3978
 -1      1992    8    0    1
 -2       972      1038      1037      3978      3979      3974
 -1      1993    8    0    1
 -2       973       974      1039      3760      3980      3981
 -1      1994    8    0    1
 -2       973      1039      1038      3981      3982      3977
 -1      1995    8    0    1
 -2       974       975      1040      3763      3983      3984
 -1      1996    8    0    1
 -2       974      1040      1039      3984      3985      3980
 -1      1997    8    0    1
 -2       975       976      1041      3766      3986      3987
 -1      1998    8    0    1
 -2       975      1041      1040      3987      3988      3983
 -1      1999    8    0    1
 -2       976       977      1042      3769      3989      3990
 -1      2000    8    0    1
 -2       976      1042      1041      3990      3991      3986
 -1      2001    8    0    1
 -2       977       978      1043      3772      3992      3993
 -1      2002    8    0    1
 -2       977      1043      1042      3993      3994      3989
 -1      2003    8    0    1
 -2       978       979      1044      3775      3995      3996
 -1      2004    8    0    1
 -2       978      1044      1043      3996      3997      3992
 -1      2005    8    0    1
 -2       979       980      1045      3778      3998      3999
 -1      2006    8    0    1
 -2       979      1045      1044      3999      4000      3995
 -1      2007    8    0    1
 -2       980       981      1046      3781      4001      4002
 -1      2008    8    0    1
 -2       980      1046      1045      4002      4003      3998
 -1      2009    8    0    1
 -2       981       982      1047      3784      4004      4005
 -1      2010    8    0    1
 -2       981      1047      1046      4005      4006      4001
 -1      2011    8    0    1
 -2       982       983      1048      3787      4007      4008
 -1      2012    8    0    1
 -2       982      1048      1047      4008      4009      4004
 -1      2013    8    0    1
 -2       983       984      1049      3790      4010      4011
 -1      2014    8    0    1
 -2       983      1049      1048      4011      4012      4007
 -1      2015    8    0    1
 -2       984       985      1050      3793      4013      4014
 -1      2016    8    0    1
 -2       984      1050      1049      4014      4015      4010
 -1      2017    8    0    1
 -2       985       986      1051      3796      4016      4017
 -1      2018    8    0    1
 -2       985      1051      1050      4017      4018      4013
 -1      2019    8    0    1
 -2       986       987      1052      3799      4019      4020
 -1      2020    8    0    1
 -2       986      1052      1051      4020      4021      4016
 -1      2021    8    0    1
 -2       987       988      1053      3802      4022      4023
 -1      2022    8    0    1
 -2       987      1053      1052      4023      4024      4019
 -1      2023    8    0    1
 -2       989       928      1004      3864      3863      4025
 -1      2024    8    0    1
 -2      1001       965      1054      3866      4026      4027
 -1      2025    8    0    1
 -2       965      1033      1054      3965      4028      4026
 -1      2026    8    0    1
 -2       930       834       926      3621      3607      4029
 -1      2027    8    0    1
 -2       940       938      1055      3657      4030      4031
 -1      2028    8    0    1
 -2       940      1055      1010      4031      4032      3895
 -1      2029    8    0    1
 -2       925       930       926      3860      4029      4033
 -1      2030    8    0    1
 -2       967       968      1056      3742      4034      4035
 -1      2031    8    0    1
 -2       968      1034      1056      3967      4036      4034
 -1      2032    8    0    1
 -2       913       932      1005      3627      4037      3881
 -1      2033    8    0    1
 -2       932       990      1005      3963      3871      4037
 -1      2034    8    0    1
 -2       966       967      1057      3739      4038      4039
 -1      2035    8    0    1
 -2       966      1057      1033      4039      4040      3964
 -1      2036    8    0    1
 -2       999       995       937      3879      4041      3838
 -1      2037    8    0    1
 -2       997       996      1058      3829      4042      4043
 -1      2038    8    0    1
 -2       910       994      1032      3820      4044      3960
 -1      2039    8    0    1
 -2      1006       936      1031      3885      4045      4046
 -1      2040    8    0    1
 -2       993       991      1059      3818      4047      4048
 -1      2041    8    0    1
 -2       925       926      1002      4033      4049      3854
 -1      2042    8    0    1
 -2       923      1032      1003      3961      4050      3856
 -1      2043    8    0    1
 -2      1031       997      1006      3957      4051      4046
 -1      2044    8    0    1
 -2       937       995      1008      4041      4052      3888
 -1      2045    8    0    1
 -2      1006       997      1058      4051      4043      4053
 -1      2046    8    0    1
 -2      1004       993      1060      3861      4054      4055
 -1      2047    8    0    1
 -2       993      1059      1060      4048      4056      4054
 -1      2048    8    0    1
 -2       914      1000      1009      3842      4057      3890
 -1      2049    8    0    1
 -2      1001      1054      1032      4027      4058      4059
 -1      2050    8    0    1
 -2       962       961       991      3724      4060      3889
 -1      2051    8    0    1
 -2       926      1031      1002      3959      4061      4049
 -1      2052    8    0    1
 -2      1006      1058       995      4053      4062      3873
 -1      2053    8    0    1
 -2       989      1004       988      4025      4063      3805
 -1      2054    8    0    1
 -2      1053       988      1004      4022      4063      4064
 -1      2055    8    0    1
 -2       938      1009      1061      3892      4065      4066
 -1      2056    8    0    1
 -2       938      1061      1055      4066      4067      4030
 -1      2057    8    0    1
 -2      1003      1032      1062      4050      4068      4069
 -1      2058    8    0    1
 -2      1032      1054      1062      4058      4070      4068
 -1      2059    8    0    1
 -2       924       931       934      3894      3638      3880
 -1      2060    8    0    1
 -2       933      1003      1063      3858      4071      4072
 -1      2061    8    0    1
 -2      1007       933      1063      3877      4072      4073
 -1      2062    8    0    1
 -2      1003      1062      1063      4069      4074      4071
 -1      2063    8    0    1
 -2      1059       991      1030      4047      4075      4076
 -1      2064    8    0    1
 -2      1057       967      1056      4038      4035      4077
 -1      2065    8    0    1
 -2      1032       994      1001      4044      4078      4059
 -1      2066    8    0    1
 -2      1031       936      1002      4045      3853      4061
 -1      2067    8    0    1
 -2       996      1005      1008      3882      3887      4079
 -1      2068    8    0    1
 -2       961      1030       991      3955      4075      4060
 -1      2069    8    0    1
 -2      1000       929      1007      3843      3876      4080
 -1      2070    8    0    1
 -2       996      1008      1058      4079      4081      4042
 -1      2071    8    0    1
 -2       995      1058      1008      4062      4081      4052
 -1      2072    8    0    1
 -2      1011      1010      1064      3899      4082      4083
 -1      2073    8    0    1
 -2      1000      1007      1065      4080      4084      4085
 -1      2074    8    0    1
 -2      1009      1000      1065      4057      4085      4086
 -1      2075    8    0    1
 -2      1007      1063      1065      4073      4087      4084
 -1      2076    8    0    1
 -2      1012      1011      1066      3902      4088      4089
 -1      2077    8    0    1
 -2      1011      1064      1066      4083      4090      4088
 -1      2078    8    0    1
 -2      1013      1012      1067      3905      4091      4092
 -1      2079    8    0    1
 -2      1012      1066      1067      4089      4093      4091
 -1      2080    8    0    1
 -2      1014      1013      1068      3908      4094      4095
 -1      2081    8    0    1
 -2      1013      1067      1068      4092      4096      4094
 -1      2082    8    0    1
 -2      1015      1014      1069      3911      4097      4098
 -1      2083    8    0    1
 -2      1014      1068      1069      4095      4099      4097
 -1      2084    8    0    1
 -2      1016      1015      1070      3914      4100      4101
 -1      2085    8    0    1
 -2      1015      1069      1070      4098      4102      4100
 -1      2086    8    0    1
 -2      1017      1016      1071      3917      4103      4104
 -1      2087    8    0    1
 -2      1016      1070      1071      4101      4105      4103
 -1      2088    8    0    1
 -2      1018      1017      1072      3920      4106      4107
 -1      2089    8    0    1
 -2      1017      1071      1072      4104      4108      4106
 -1      2090    8    0    1
 -2      1019      1018      1073      3923      4109      4110
 -1      2091    8    0    1
 -2      1018      1072      1073      4107      4111      4109
 -1      2092    8    0    1
 -2      1020      1019      1074      3926      4112      4113
 -1      2093    8    0    1
 -2      1019      1073      1074      4110      4114      4112
 -1      2094    8    0    1
 -2      1021      1020      1075      3929      4115      4116
 -1      2095    8    0    1
 -2      1020      1074      1075      4113      4117      4115
 -1      2096    8    0    1
 -2      1022      1021      1076      3932      4118      4119
 -1      2097    8    0    1
 -2      1021      1075      1076      4116      4120      4118
 -1      2098    8    0    1
 -2      1023      1022      1077      3935      4121      4122
 -1      2099    8    0    1
 -2      1022      1076      1077      4119      4123      4121
 -1      2100    8    0    1
 -2      1024      1023      1078      3938      4124      4125
 -1      2101    8    0    1
 -2      1023      1077      1078      4122      4126      4124
 -1      2102    8    0    1
 -2      1025      1024      1079      3941      4127      4128
 -1      2103    8    0    1
 -2      1024      1078      1079      4125      4129      4127
 -1      2104    8    0    1
 -2      1026      1025      1080      3944      4130      4131
 -1      2105    8    0    1
 -2      1025      1079      1080      4128      4132      4130
 -1      2106    8    0    1
 -2      1027      1026      1081      3947      4133      4134
 -1      2107    8    0    1
 -2      1026      1080      1081      4131      4135      4133
 -1      2108    8    0    1
 -2      1028      1027      1082      3950      4136      4137
 -1      2109    8    0    1
 -2      1027      1081      1082      4134      4138      4136
 -1      2110    8    0    1
 -2      1029      1028      1083      3953      4139      4140
 -1      2111    8    0    1
 -2      1028      1082      1083      4137      4141      4139
 -1      2112    8    0    1
 -2      1030      1029      1084      3956      4142      4143
 -1      2113    8    0    1
 -2      1059      1030      1084      4076      4143      4144
 -1      2114    8    0    1
 -2      1029      1083      1084      4140      4145      4142
 -1      2115    8    0    1
 -2       998       964       994      3962      4146      3874
 -1      2116    8    0    1
 -2      1035      1036      1085      3973      4147      4148
 -1      2117    8    0    1
 -2      1033      1057      1086      4040      4149      4150
 -1      2118    8    0    1
 -2      1034      1035      1087      3970      4151      4152
 -1      2119    8    0    1
 -2      1035      1085      1087      4148      4153      4151
 -1      2120    8    0    1
 -2      1037      1038      1088      3979      4154      4155
 -1      2121    8    0    1
 -2      1038      1039      1089      3982      4156      4157
 -1      2122    8    0    1
 -2      1038      1089      1088      4157      4158      4154
 -1      2123    8    0    1
 -2      1039      1040      1090      3985      4159      4160
 -1      2124    8    0    1
 -2      1039      1090      1089      4160      4161      4156
 -1      2125    8    0    1
 -2      1040      1041      1091      3988      4162      4163
 -1      2126    8    0    1
 -2      1040      1091      1090      4163      4164      4159
 -1      2127    8    0    1
 -2      1041      1042      1092      3991      4165      4166
 -1      2128    8    0    1
 -2      1041      1092      1091      4166      4167      4162
 -1      2129    8    0    1
 -2      1042      1043      1093      3994      4168      4169
 -1      2130    8    0    1
 -2      1042      1093      1092      4169      4170      4165
 -1      2131    8    0    1
 -2      1043      1044      1094      3997      4171      4172
 -1      2132    8    0    1
 -2      1043      1094      1093      4172      4173      4168
 -1      2133    8    0    1
 -2      1044      1045      1095      4000      4174      4175
 -1      2134    8    0    1
 -2      1044      1095      1094      4175      4176      4171
 -1      2135    8    0    1
 -2      1045      1046      1096      4003      4177      4178
 -1      2136    8    0    1
 -2      1045      1096      1095      4178      4179      4174
 -1      2137    8    0    1
 -2      1046      1047      1097      4006      4180      4181
 -1      2138    8    0    1
 -2      1046      1097      1096      4181      4182      4177
 -1      2139    8    0    1
 -2      1047      1048      1098      4009      4183      4184
 -1      2140    8    0    1
 -2      1047      1098      1097      4184      4185      4180
 -1      2141    8    0    1
 -2      1048      1049      1099      4012      4186      4187
 -1      2142    8    0    1
 -2      1048      1099      1098      4187      4188      4183
 -1      2143    8    0    1
 -2      1049      1050      1100      4015      4189      4190
 -1      2144    8    0    1
 -2      1049      1100      1099      4190      4191      4186
 -1      2145    8    0    1
 -2      1050      1051      1101      4018      4192      4193
 -1      2146    8    0    1
 -2      1050      1101      1100      4193      4194      4189
 -1      2147    8    0    1
 -2      1051      1052      1102      4021      4195      4196
 -1      2148    8    0    1
 -2      1051      1102      1101      4196      4197      4192
 -1      2149    8    0    1
 -2      1052      1053      1103      4024      4198      4199
 -1      2150    8    0    1
 -2      1052      1103      1102      4199      4200      4195
 -1      2151    8    0    1
 -2      1053      1004      1060      4064      4055      4201
 -1      2152    8    0    1
 -2      1054      1033      1062      4028      4202      4070
 -1      2153    8    0    1
 -2      1056      1034      1104      4036      4203      4204
 -1      2154    8    0    1
 -2      1034      1087      1104      4152      4205      4203
 -1      2155    8    0    1
 -2      1057      1056      1105      4077      4206      4207
 -1      2156    8    0    1
 -2      1056      1104      1105      4204      4208      4206
 -1      2157    8    0    1
 -2       964      1001       994      3848      4078      4146
 -1      2158    8    0    1
 -2      1036      1037      1106      3976      4209      4210
 -1      2159    8    0    1
 -2      1085      1036      1106      4147      4210      4211
 -1      2160    8    0    1
 -2      1037      1088      1106      4155      4212      4209
 -1      2161    8    0    1
 -2      1010      1055      1107      4032      4213      4214
 -1      2162    8    0    1
 -2      1010      1107      1064      4214      4215      4082
 -1      2163    8    0    1
 -2      1009      1065      1061      4086      4216      4065
 -1      2164    8    0    1
 -2      1107      1055      1108      4213      4217      4218
 -1      2165    8    0    1
 -2      1055      1061      1108      4067      4219      4217
 -1      2166    8    0    1
 -2      1033      1086      1062      4150      4220      4202
 -1      2167    8    0    1
 -2      1057      1105      1086      4207      4221      4149
 -1      2168    8    0    1
 -2      1053      1060      1103      4201      4222      4198
 -1      2169    8    0    1
 -2      1060      1059      1084      4056      4144      4223
 -1      2170    8    0    1
 -2      1090      1091      1071      4164      4224      4225
 -1      2171    8    0    1
 -2      1067      1066      1085      4093      4226      4227
 -1      2172    8    0    1
 -2      1068      1067      1106      4096      4228      4229
 -1      2173    8    0    1
 -2      1069      1068      1088      4099      4230      4231
 -1      2174    8    0    1
 -2      1070      1069      1089      4102      4232      4233
 -1      2175    8    0    1
 -2      1071      1070      1090      4105      4234      4225
 -1      2176    8    0    1
 -2      1072      1071      1091      4108      4224      4235
 -1      2177    8    0    1
 -2      1073      1072      1092      4111      4236      4237
 -1      2178    8    0    1
 -2      1074      1073      1093      4114      4238      4239
 -1      2179    8    0    1
 -2      1075      1074      1094      4117      4240      4241
 -1      2180    8    0    1
 -2      1076      1075      1095      4120      4242      4243
 -1      2181    8    0    1
 -2      1077      1076      1096      4123      4244      4245
 -1      2182    8    0    1
 -2      1078      1077      1097      4126      4246      4247
 -1      2183    8    0    1
 -2      1079      1078      1098      4129      4248      4249
 -1      2184    8    0    1
 -2      1080      1079      1099      4132      4250      4251
 -1      2185    8    0    1
 -2      1081      1080      1100      4135      4252      4253
 -1      2186    8    0    1
 -2      1082      1081      1101      4138      4254      4255
 -1      2187    8    0    1
 -2      1083      1082      1102      4141      4256      4257
 -1      2188    8    0    1
 -2      1084      1083      1103      4145      4258      4259
 -1      2189    8    0    1
 -2      1087      1085      1066      4153      4226      4260
 -1      2190    8    0    1
 -2      1089      1069      1088      4232      4231      4158
 -1      2191    8    0    1
 -2      1088      1068      1106      4230      4229      4212
 -1      2192    8    0    1
 -2      1089      1090      1070      4161      4234      4233
 -1      2193    8    0    1
 -2      1091      1092      1072      4167      4236      4235
 -1      2194    8    0    1
 -2      1092      1093      1073      4170      4238      4237
 -1      2195    8    0    1
 -2      1093      1094      1074      4173      4240      4239
 -1      2196    8    0    1
 -2      1094      1095      1075      4176      4242      4241
 -1      2197    8    0    1
 -2      1095      1096      1076      4179      4244      4243
 -1      2198    8    0    1
 -2      1096      1097      1077      4182      4246      4245
 -1      2199    8    0    1
 -2      1097      1098      1078      4185      4248      4247
 -1      2200    8    0    1
 -2      1098      1099      1079      4188      4250      4249
 -1      2201    8    0    1
 -2      1099      1100      1080      4191      4252      4251
 -1      2202    8    0    1
 -2      1100      1101      1081      4194      4254      4253
 -1      2203    8    0    1
 -2      1101      1102      1082      4197      4256      4255
 -1      2204    8    0    1
 -2      1102      1103      1083      4200      4258      4257
 -1      2205    8    0    1
 -2      1060      1084      1103      4223      4259      4222
 -1      2206    8    0    1
 -2      1062      1086      1109      4220      4261      4262
 -1      2207    8    0    1
 -2      1104      1087      1064      4205      4263      4264
 -1      2208    8    0    1
 -2      1064      1107      1104      4215      4265      4264
 -1      2209    8    0    1
 -2      1105      1104      1107      4208      4265      4266
 -1      2210    8    0    1
 -2      1063      1062      1109      4074      4262      4267
 -1      2211    8    0    1
 -2      1086      1105      1108      4221      4268      4269
 -1      2212    8    0    1
 -2      1066      1064      1087      4090      4263      4260
 -1      2213    8    0    1
 -2      1061      1065      1109      4216      4270      4271
 -1      2214    8    0    1
 -2      1065      1063      1109      4087      4267      4270
 -1      2215    8    0    1
 -2      1067      1085      1106      4227      4211      4228
 -1      2216    8    0    1
 -2      1105      1107      1108      4266      4218      4268
 -1      2217    8    0    1
 -2      1108      1061      1109      4219      4271      4272
 -1      2218    8    0    1
 -2      1109      1086      1108      4261      4269      4272
 -3
    1PSTEP                         1           1           1          
  100CL  101 1.000000000        4272                     0    1           1
 -4  DISP        4    1
 -5  D1          1    2    1    0
 -5  D2          1    2    2    0
 -5  D3          1    2    3    0
 -5  ALL         1    2    0    0    1ALL
 -1         1 4.46912E-03-1.67076E-03-6.58391E-15
 -1         2 6.62440E-03-7.40145E-04-9.69090E-15
 -1         3 1.42660E-02-3.68572E-03-1.03210E-13
 -1         4 1.62521E-02-5.11503E-03-1.02539E-13
 -1         5 0.00000E+00 0.00000E+00 0.00000E+00
 -1         6 0.00000E+00 0.00000E+00 0.00000E+00
 -1         7 0.00000E+00 0.00000E+00 0.00000E+00
 -1         8 0.00000E+00 0.00000E+00 0.00000E+00
 -1         9 0.00000E+00 0.00000E+00 0.00000E+00
 -1        10 0.00000E+00 0.00000E+00 0.00000E+00
 -1        11 0.00000E+00 0.00000E+00 0.00000E+00
 -1        12 0.00000E+00 0.00000E+00 0.00000E+00
 -1        13 0.00000E+00 0.00000E+00 0.00000E+00
 -1        14 0.00000E+00 0.00000E+00 0.00000E+00
 -1        15 0.00000E+00 0.00000E+00 0.00000E+00
 -1        16 0.00000E+00 0.00000E+00 0.00000E+00
 -1        17 0.00000E+00 0.00000E+00 0.00000E+00
 -1        18 0.00000E+00 0.00000E+00 0.00000E+00
 -1        19 0.00000E+00 0.00000E+00 0.00000E+00
 -1        20 0.00000E+00 0.00000E+00 0.00000E+00
 -1        21 0.00000E+00 0.00000E+00 0.00000E+00
 -1        22 0.00000E+00 0.00000E+00 0.00000E+00
 -1        23 4.24133E-04-2.44718E-04 3.73237E-17
 -1        24 7.43165E-04-3.65358E-04-8.12474E-18
 -1        25 1.05411E-03-4.48289E-04-1.36965E-16
 -1        26 1.37402E-03-5.11626E-04-3.49093E-16
 -1        27 1.71126E-03-5.69126E-04-6.45429E-16
 -1        28 2.07284E-03-6.33959E-04-1.02784E-15
 -1        29 2.46385E-03-7.22034E-04-1.49732E-15
 -1        30 2.88448E-03-8.52623E-04-2.05358E-15
 -1        31 3.32411E-03-1.04453E-03-2.69598E-15
 -1        32 3.75548E-03-1.30348E-03-3.42968E-15
 -1        33 4.13825E-03-1.60044E-03-4.25986E-15
 -1        34 4.43053E-03-1.84751E-03-5.14654E-15
 -1        35 4.68107E-03-1.97947E-03-6.19779E-15
 -1        36 4.91034E-03-1.95239E-03-7.24947E-15
 -1        37 5.22746E-03-1.80527E-03-8.54292E-15
 -1        38 5.62323E-03-1.62975E-03-9.96358E-15
 -1        39 6.06647E-03-1.50057E-03-1.14987E-14
 -1        40 6.51684E-03-1.44390E-03-1.31305E-14
 -1        41 6.94835E-03-1.45310E-03-1.48517E-14
 -1        42 7.35137E-03-1.51037E-03-1.66609E-14
 -1        43 7.72628E-03-1.59881E-03-1.85516E-14
 -1        44 8.07754E-03-1.70593E-03-2.05330E-14
 -1        45 8.42663E-03-1.82962E-03-2.27074E-14
 -1        46 8.74514E-03-1.95294E-03-2.48667E-14
 -1        47 9.05378E-03-2.07867E-03-2.71056E-14
 -1        48 9.35532E-03-2.20518E-03-2.94222E-14
 -1        49 9.65179E-03-2.33155E-03-3.18069E-14
 -1        50 9.94466E-03-2.45735E-03-3.42630E-14
 -1        51 1.02350E-02-2.58235E-03-3.68081E-14
 -1        52 1.05236E-02-2.70650E-03-3.94329E-14
 -1        53 1.08110E-02-2.82984E-03-4.21260E-14
 -1        54 1.10975E-02-2.95243E-03-4.48856E-14
 -1        55 1.13836E-02-3.07435E-03-4.77208E-14
 -1        56 1.16693E-02-3.19570E-03-5.05938E-14
 -1        57 1.19548E-02-3.31658E-03-5.35116E-14
 -1        58 1.22402E-02-3.43706E-03-5.64937E-14
 -1        59 1.25398E-02-3.56323E-03-5.96846E-14
 -1        60 1.28252E-02-3.68312E-03-6.27664E-14
 -1        61 1.31105E-02-3.80282E-03-6.59064E-14
 -1        62 1.33960E-02-3.92237E-03-6.91050E-14
 -1        63 1.36814E-02-4.04181E-03-7.23516E-14
 -1        64 1.39669E-02-4.16116E-03-7.56349E-14
 -1        65 1.42525E-02-4.28045E-03-7.89467E-14
 -1        66 1.45381E-02-4.39970E-03-8.22899E-14
 -1        67 1.48237E-02-4.51892E-03-8.56426E-14
 -1        68 1.51093E-02-4.63813E-03-8.89838E-14
 -1        69 1.53950E-02-4.75734E-03-9.23386E-14
 -1        70 1.56807E-02-4.87656E-03-9.57203E-14
 -1        71 1.59664E-02-4.99579E-03-9.91351E-14
 -1        72 4.23239E-04 2.56240E-04 4.75253E-17
 -1        73 7.28123E-04 3.91334E-04 1.26716E-17
 -1        74 1.01889E-03 4.84465E-04-1.05595E-16
 -1        75 1.30645E-03 5.55678E-04-3.10512E-16
 -1        76 1.59387E-03 6.14412E-04-6.06049E-16
 -1        77 1.88107E-03 6.66223E-04-9.94830E-16
 -1        78 2.16618E-03 7.13958E-04-1.47742E-15
 -1        79 2.44626E-03 7.57878E-04-2.05355E-15
 -1        80 2.71813E-03 7.95571E-04-2.72724E-15
 -1        81 2.97933E-03 8.22128E-04-3.50163E-15
 -1        82 3.22930E-03 8.30950E-04-4.37889E-15
 -1        83 3.47008E-03 8.15315E-04-5.36076E-15
 -1        84 3.70631E-03 7.70361E-04-6.45073E-15
 -1        85 3.94418E-03 6.94757E-04-7.64817E-15
 -1        86 4.18973E-03 5.91291E-04-8.95096E-15
 -1        87 4.44722E-03 4.66099E-04-1.03596E-14
 -1        88 4.71827E-03 3.26949E-04-1.18750E-14
 -1        89 5.00194E-03 1.81370E-04-1.34908E-14
 -1        90 5.29556E-03 3.53251E-05-1.52016E-14
 -1        91 5.59575E-03-1.07325E-04-1.70071E-14
 -1        92 5.89928E-03-2.44697E-04-1.89104E-14
 -1        93 6.20354E-03-3.76398E-04-2.09115E-14
 -1        94 6.50675E-03-5.02965E-04-2.30031E-14
 -1        95 6.80783E-03-6.25381E-04-2.51862E-14
 -1        96 7.10636E-03-7.44745E-04-2.74583E-14
 -1        97 7.40227E-03-8.62070E-04-2.98217E-14
 -1        98 7.69577E-03-9.78192E-04-3.22838E-14
 -1        99 7.98720E-03-1.09375E-03-3.48333E-14
 -1       100 8.27694E-03-1.20918E-03-3.74585E-14
 -1       101 8.56534E-03-1.32479E-03-4.01545E-14
 -1       102 8.85273E-03-1.44074E-03-4.29201E-14
 -1       103 9.13939E-03-1.55711E-03-4.57520E-14
 -1       104 9.42553E-03-1.67392E-03-4.86346E-14
 -1       105 9.71133E-03-1.79115E-03-5.15594E-14
 -1       106 9.99691E-03-1.90877E-03-5.45288E-14
 -1       107 1.02824E-02-2.02673E-03-5.75515E-14
 -1       108 1.05678E-02-2.14497E-03-6.06122E-14
 -1       109 1.08532E-02-2.26344E-03-6.37145E-14
 -1       110 1.11386E-02-2.38209E-03-6.68566E-14
 -1       111 1.14240E-02-2.50090E-03-7.00462E-14
 -1       112 1.17095E-02-2.61981E-03-7.32813E-14
 -1       113 1.19950E-02-2.73880E-03-7.65471E-14
 -1       114 1.22806E-02-2.85786E-03-7.98445E-14
 -1       115 1.25661E-02-2.97695E-03-8.31699E-14
 -1       116 1.28518E-02-3.09607E-03-8.65121E-14
 -1       117 1.31374E-02-3.21520E-03-8.98733E-14
 -1       118 1.34231E-02-3.33433E-03-9.32429E-14
 -1       119 1.37088E-02-3.45346E-03-9.66197E-14
 -1       120 1.39945E-02-3.57257E-03-9.99998E-14
 -1       121 1.43831E-02-3.77000E-03-1.03213E-13
 -1       122 1.45002E-02-3.85429E-03-1.03219E-13
 -1       123 1.46173E-02-3.93859E-03-1.03237E-13
 -1       124 1.47344E-02-4.02290E-03-1.03309E-13
 -1       125 1.48515E-02-4.10724E-03-1.03349E-13
 -1       126 1.49666E-02-4.19016E-03-1.03368E-13
 -1       127 1.50837E-02-4.27452E-03-1.03371E-13
 -1       128 1.52009E-02-4.35890E-03-1.03342E-13
 -1       129 1.53181E-02-4.44328E-03-1.03304E-13
 -1       130 1.54353E-02-4.52765E-03-1.03244E-13
 -1       131 1.55525E-02-4.61202E-03-1.03148E-13
 -1       132 1.56678E-02-4.69494E-03-1.03069E-13
 -1       133 1.57851E-02-4.77927E-03-1.02995E-13
 -1       134 1.59023E-02-4.86359E-03-1.02908E-13
 -1       135 1.60196E-02-4.94789E-03-1.02809E-13
 -1       136 1.61369E-02-5.03217E-03-1.02667E-13
 -1       137 6.50797E-03-5.43595E-04-9.64030E-15
 -1       138 6.30759E-03-3.69182E-04-9.44971E-15
 -1       139 6.01774E-03-2.03560E-04-9.12844E-15
 -1       140 5.68206E-03-6.47937E-05-8.72968E-15
 -1       141 5.27624E-03 5.80262E-05-8.23986E-15
 -1       142 4.83371E-03 1.52142E-04-7.70262E-15
 -1       143 4.30710E-03 2.19202E-04-7.06630E-15
 -1       144 3.81891E-03 2.39279E-04-6.49097E-15
 -1       145 3.34835E-03 2.17522E-04-5.94348E-15
 -1       146 2.93251E-03 1.59247E-04-5.47569E-15
 -1       147 2.59100E-03 7.12499E-05-5.09410E-15
 -1       148 2.31626E-03-4.45353E-05-4.78555E-15
 -1       149 2.10588E-03-1.96212E-04-4.54120E-15
 -1       150 2.00257E-03-3.60920E-04-4.40256E-15
 -1       151 1.99601E-03-5.34814E-04-4.35597E-15
 -1       152 2.09768E-03-7.37466E-04-4.40720E-15
 -1       153 2.28441E-03-9.27468E-04-4.54571E-15
 -1       154 2.60127E-03-1.14108E-03-4.80535E-15
 -1       155 2.98292E-03-1.32900E-03-5.13810E-15
 -1       156 3.43818E-03-1.49202E-03-5.55515E-15
 -1       157 3.93852E-03-1.61057E-03-6.03707E-15
 -1       158 4.94481E-03-1.66734E-03-7.11313E-15
 -1       159 5.40168E-03-1.60911E-03-7.66738E-15
 -1       160 5.78925E-03-1.51301E-03-8.17768E-15
 -1       161 6.12615E-03-1.38206E-03-8.66786E-15
 -1       162 6.37763E-03-1.23522E-03-9.07993E-15
 -1       163 6.54725E-03-1.07539E-03-9.39717E-15
 -1       164 6.63069E-03-9.05109E-04-9.60646E-15
 -1       165 2.55224E-04-1.04011E-04-8.25349E-18
 -1       166 2.34459E-04-6.97199E-05-2.26429E-17
 -1       167 2.21184E-04-4.85743E-05-3.10455E-17
 -1       168 2.11254E-04-3.53211E-05-3.59277E-17
 -1       169 2.04415E-04-2.71147E-05-3.85027E-17
 -1       170 2.00543E-04-2.13394E-05-3.98038E-17
 -1       171 1.99611E-04-1.61402E-05-4.01968E-17
 -1       172 2.01117E-04-9.93560E-06-4.00104E-17
 -1       173 2.04359E-04-1.68703E-06-3.90448E-17
 -1       174 2.08646E-04 9.12938E-06-3.76523E-17
 -1       175 2.13403E-04 2.24474E-05-3.54941E-17
 -1       176 2.18664E-04 3.88639E-05-3.20111E-17
 -1       177 2.24756E-04 5.86796E-05-2.64579E-17
 -1       178 2.33158E-04 8.35009E-05-1.72591E-17
 -1       179 2.48882E-04 1.18289E-04-1.77538E-18
 -1       180 3.08724E-04 1.78136E-04 1.54600E-17
 -1       181 5.00451E-04-2.30083E-04-2.47605E-17
 -1       182 8.27619E-04-3.28823E-04-1.32679E-16
 -1       183 1.14931E-03-3.98309E-04-3.19555E-16
 -1       184 1.47572E-03-4.53849E-04-5.87709E-16
 -1       185 1.81318E-03-5.08281E-04-9.38536E-16
 -1       186 2.16651E-03-5.76199E-04-1.37358E-15
 -1       187 2.53870E-03-6.76052E-04-1.89333E-15
 -1       188 2.92962E-03-8.29613E-04-2.49833E-15
 -1       189 3.33364E-03-1.05490E-03-3.19005E-15
 -1       190 3.73747E-03-1.34754E-03-3.97472E-15
 -1       191 4.10404E-03-1.63954E-03-4.81483E-15
 -1       192 4.46346E-03-1.86181E-03-5.81189E-15
 -1       193 4.77605E-03-1.91082E-03-6.81449E-15
 -1       194 5.13822E-03-1.79941E-03-8.05017E-15
 -1       195 5.52954E-03-1.60908E-03-9.41237E-15
 -1       196 5.93951E-03-1.44294E-03-1.08937E-14
 -1       197 6.34950E-03-1.35063E-03-1.24801E-14
 -1       198 6.74649E-03-1.33447E-03-1.41611E-14
 -1       199 7.12505E-03-1.37675E-03-1.59267E-14
 -1       200 7.48470E-03-1.45763E-03-1.77790E-14
 -1       201 7.82747E-03-1.56176E-03-1.97189E-14
 -1       202 8.17236E-03-1.68496E-03-2.18509E-14
 -1       203 8.48952E-03-1.80904E-03-2.39687E-14
 -1       204 8.79824E-03-1.93602E-03-2.61704E-14
 -1       205 9.10056E-03-2.06389E-03-2.84491E-14
 -1       206 9.39811E-03-2.19158E-03-3.08016E-14
 -1       207 9.69215E-03-2.31854E-03-3.32208E-14
 -1       208 9.98361E-03-2.44455E-03-3.57215E-14
 -1       209 1.02732E-02-2.56955E-03-3.83037E-14
 -1       210 1.05615E-02-2.69358E-03-4.09569E-14
 -1       211 1.08488E-02-2.81674E-03-4.36757E-14
 -1       212 1.11354E-02-2.93911E-03-4.64647E-14
 -1       213 1.14216E-02-3.06083E-03-4.93108E-14
 -1       214 1.17075E-02-3.18199E-03-5.22016E-14
 -1       215 1.19932E-02-3.30269E-03-5.51472E-14
 -1       216 1.22931E-02-3.42902E-03-5.82963E-14
 -1       217 1.25786E-02-3.54904E-03-6.13505E-14
 -1       218 1.28642E-02-3.66884E-03-6.44558E-14
 -1       219 1.31497E-02-3.78845E-03-6.76171E-14
 -1       220 1.34352E-02-3.90793E-03-7.08327E-14
 -1       221 1.37208E-02-4.02731E-03-7.40940E-14
 -1       222 1.40064E-02-4.14662E-03-7.73868E-14
 -1       223 1.42920E-02-4.26588E-03-8.07083E-14
 -1       224 1.45776E-02-4.38510E-03-8.40455E-14
 -1       225 1.48632E-02-4.50431E-03-8.73901E-14
 -1       226 1.51489E-02-4.62352E-03-9.07439E-14
 -1       227 1.54346E-02-4.74273E-03-9.41227E-14
 -1       228 1.57203E-02-4.86195E-03-9.75247E-14
 -1       229 1.59286E-02-4.94706E-03-1.00097E-13
 -1       230 6.29894E-04 3.15475E-04-3.39931E-17
 -1       231 9.35887E-04 4.12696E-04-1.61475E-16
 -1       232 1.23363E-03 4.85981E-04-3.72386E-16
 -1       233 1.52773E-03 5.45780E-04-6.71487E-16
 -1       234 1.81965E-03 5.98354E-04-1.06081E-15
 -1       235 2.10907E-03 6.47090E-04-1.54178E-15
 -1       236 2.39457E-03 6.92666E-04-2.11632E-15
 -1       237 2.67434E-03 7.32922E-04-2.78719E-15
 -1       238 2.94690E-03 7.62939E-04-3.55732E-15
 -1       239 3.21188E-03 7.75789E-04-4.42936E-15
 -1       240 3.47057E-03 7.64133E-04-5.40530E-15
 -1       241 3.72596E-03 7.22394E-04-6.48918E-15
 -1       242 3.98214E-03 6.48689E-04-7.67980E-15
 -1       243 4.24319E-03 5.45633E-04-8.97542E-15
 -1       244 4.51211E-03 4.19589E-04-1.03753E-14
 -1       245 4.79012E-03 2.78807E-04-1.18795E-14
 -1       246 5.07676E-03 1.31345E-04-1.34860E-14
 -1       247 5.37032E-03-1.64227E-05-1.51882E-14
 -1       248 5.66857E-03-1.60400E-04-1.69859E-14
 -1       249 5.96925E-03-2.98630E-04-1.88799E-14
 -1       250 6.27050E-03-4.30757E-04-2.08707E-14
 -1       251 6.57099E-03-5.57407E-04-2.29546E-14
 -1       252 6.86989E-03-6.79670E-04-2.51278E-14
 -1       253 7.16680E-03-7.98739E-04-2.73910E-14
 -1       254 7.46163E-03-9.15704E-04-2.97438E-14
 -1       255 7.75450E-03-1.03145E-03-3.21888E-14
 -1       256 8.04564E-03-1.14666E-03-3.47209E-14
 -1       257 8.33533E-03-1.26178E-03-3.73304E-14
 -1       258 8.62384E-03-1.37712E-03-4.00145E-14
 -1       259 8.91144E-03-1.49285E-03-4.27652E-14
 -1       260 9.19834E-03-1.60905E-03-4.55773E-14
 -1       261 9.48474E-03-1.72573E-03-4.84473E-14
 -1       262 9.77079E-03-1.84287E-03-5.13630E-14
 -1       263 1.00566E-02-1.96041E-03-5.43261E-14
 -1       264 1.03423E-02-2.07832E-03-5.73332E-14
 -1       265 1.06278E-02-2.19652E-03-6.03806E-14
 -1       266 1.09134E-02-2.31497E-03-6.34719E-14
 -1       267 1.11989E-02-2.43362E-03-6.66082E-14
 -1       268 1.14844E-02-2.55241E-03-6.97909E-14
 -1       269 1.17699E-02-2.67132E-03-7.30161E-14
 -1       270 1.20555E-02-2.79032E-03-7.62767E-14
 -1       271 1.23411E-02-2.90937E-03-7.95660E-14
 -1       272 1.26267E-02-3.02847E-03-8.28824E-14
 -1       273 1.29123E-02-3.14759E-03-8.62147E-14
 -1       274 1.31980E-02-3.26673E-03-8.95668E-14
 -1       275 1.34837E-02-3.38587E-03-9.29327E-14
 -1       276 1.37694E-02-3.50500E-03-9.63087E-14
 -1       277 1.40551E-02-3.62411E-03-9.96882E-14
 -1       278 1.41942E-02-3.70900E-03-1.00287E-13
 -1       279 1.43113E-02-3.79330E-03-1.00298E-13
 -1       280 1.44284E-02-3.87761E-03-1.00326E-13
 -1       281 1.45455E-02-3.96193E-03-1.00361E-13
 -1       282 1.46606E-02-4.04483E-03-1.00380E-13
 -1       283 1.47777E-02-4.12918E-03-1.00380E-13
 -1       284 1.48948E-02-4.21353E-03-1.00366E-13
 -1       285 1.50120E-02-4.29789E-03-1.00336E-13
 -1       286 1.51292E-02-4.38224E-03-1.00285E-13
 -1       287 1.52464E-02-4.46659E-03-1.00215E-13
 -1       288 1.53617E-02-4.54951E-03-1.00139E-13
 -1       289 1.54790E-02-4.63384E-03-1.00054E-13
 -1       290 1.55963E-02-4.71816E-03-9.99658E-14
 -1       291 1.57135E-02-4.80247E-03-9.98675E-14
 -1       292 1.58211E-02-4.87476E-03-9.99858E-14
 -1       293 6.59952E-03-7.36721E-04-1.04915E-14
 -1       294 6.38403E-03-5.98512E-04-1.01584E-14
 -1       295 6.06587E-03-4.55227E-04-9.87207E-15
 -1       296 5.69752E-03-2.69193E-04-9.38353E-15
 -1       297 5.29998E-03-7.80955E-05-8.83193E-15
 -1       298 4.88425E-03 1.02855E-04-8.21907E-15
 -1       299 4.46337E-03 2.50969E-04-7.51107E-15
 -1       300 4.05925E-03 3.09651E-04-6.77927E-15
 -1       301 3.67633E-03 2.90251E-04-6.10520E-15
 -1       302 3.27815E-03 1.81614E-04-5.54088E-15
 -1       303 2.89926E-03 4.51248E-05-5.07647E-15
 -1       304 2.55599E-03-9.87292E-05-4.69731E-15
 -1       305 2.25605E-03-2.44550E-04-4.36025E-15
 -1       306 2.04010E-03-3.51306E-04-4.19192E-15
 -1       307 1.95981E-03-4.47321E-04-4.09344E-15
 -1       308 2.01909E-03-5.42787E-04-4.05490E-15
 -1       309 2.22164E-03-6.83807E-04-4.19385E-15
 -1       310 2.56217E-03-8.42033E-04-4.34627E-15
 -1       311 2.97374E-03-1.09332E-03-4.70283E-15
 -1       312 3.40773E-03-1.34959E-03-5.12941E-15
 -1       313 3.85935E-03-1.57601E-03-5.62305E-15
 -1       314 4.28488E-03-1.72654E-03-6.21950E-15
 -1       315 4.67988E-03-1.75599E-03-6.85479E-15
 -1       316 5.05398E-03-1.68774E-03-7.51292E-15
 -1       317 5.44160E-03-1.53831E-03-8.13970E-15
 -1       318 5.81063E-03-1.36090E-03-8.75268E-15
 -1       319 6.14896E-03-1.18510E-03-9.31028E-15
 -1       320 6.42063E-03-1.03649E-03-9.76560E-15
 -1       321 6.60219E-03-9.13554E-04-1.01433E-14
 -1       322 6.66561E-03-8.20484E-04-1.02907E-14
 -1       323 4.65696E-04-1.20459E-04-1.07261E-16
 -1       324 5.00881E-04-1.69045E-04-8.26704E-17
 -1       325 4.19280E-04-6.65878E-05-1.32886E-16
 -1       326 4.07118E-04-5.16630E-05-1.38493E-16
 -1       327 4.02261E-04-3.94234E-05-1.41383E-16
 -1       328 4.03762E-04-2.65700E-05-1.41898E-16
 -1       329 4.10024E-04-1.07391E-05-1.40482E-16
 -1       330 4.19268E-04 9.42625E-06-1.37487E-16
 -1       331 4.29868E-04 3.40282E-05-1.32608E-16
 -1       332 4.41499E-04 6.41460E-05-1.24981E-16
 -1       333 4.54347E-04 9.99038E-05-1.13604E-16
 -1       334 4.70438E-04 1.42894E-04-9.62297E-17
 -1       335 4.95069E-04 1.97147E-04-6.94127E-17
 -1       336 5.54743E-04 2.52178E-04-5.62972E-17
 -1       337 8.62346E-04 3.50273E-04-1.88871E-16
 -1       338 9.21842E-04-2.89922E-04-2.75828E-16
 -1       339 1.23498E-03-3.48417E-04-5.18164E-16
 -1       340 1.55079E-03-3.98820E-04-8.40965E-16
 -1       341 1.87285E-03-4.53258E-04-1.24445E-15
 -1       342 2.20555E-03-5.26898E-04-1.72979E-15
 -1       343 2.55489E-03-6.39316E-04-2.29913E-15
 -1       344 2.92855E-03-8.13617E-04-2.95069E-15
 -1       345 3.33212E-03-1.06834E-03-3.68961E-15
 -1       346 3.73774E-03-1.37559E-03-4.48038E-15
 -1       347 4.16832E-03-1.68816E-03-5.42030E-15
 -1       348 4.54668E-03-1.84038E-03-6.37177E-15
 -1       349 4.96815E-03-1.78997E-03-7.55175E-15
 -1       350 5.40017E-03-1.59106E-03-8.85954E-15
 -1       351 5.82890E-03-1.39063E-03-1.02900E-14
 -1       352 6.23300E-03-1.26710E-03-1.18325E-14
 -1       353 6.60769E-03-1.22801E-03-1.34706E-14
 -1       354 6.95877E-03-1.25472E-03-1.51958E-14
 -1       355 7.29336E-03-1.32578E-03-1.70052E-14
 -1       356 7.61647E-03-1.42429E-03-1.89045E-14
 -1       357 7.94671E-03-1.54466E-03-2.09936E-14
 -1       358 8.25460E-03-1.66783E-03-2.30704E-14
 -1       359 8.55738E-03-1.79491E-03-2.52325E-14
 -1       360 8.85609E-03-1.92340E-03-2.74766E-14
 -1       361 9.15157E-03-2.05192E-03-2.97924E-14
 -1       362 9.44451E-03-2.17978E-03-3.21794E-14
 -1       363 9.73549E-03-2.30664E-03-3.46379E-14
 -1       364 1.00250E-02-2.43242E-03-3.71793E-14
 -1       365 1.03133E-02-2.55712E-03-3.97943E-14
 -1       366 1.06008E-02-2.68084E-03-4.24741E-14
 -1       367 1.08877E-02-2.80369E-03-4.52200E-14
 -1       368 1.11742E-02-2.92579E-03-4.80328E-14
 -1       369 1.14603E-02-3.04725E-03-5.08949E-14
 -1       370 1.17462E-02-3.16819E-03-5.38080E-14
 -1       371 1.20463E-02-3.29473E-03-5.69247E-14
 -1       372 1.23320E-02-3.41489E-03-5.99412E-14
 -1       373 1.26177E-02-3.53479E-03-6.30107E-14
 -1       374 1.29033E-02-3.65448E-03-6.61394E-14
 -1       375 1.31889E-02-3.77401E-03-6.93242E-14
 -1       376 1.34745E-02-3.89343E-03-7.25600E-14
 -1       377 1.37602E-02-4.01277E-03-7.58352E-14
 -1       378 1.40458E-02-4.13204E-03-7.91338E-14
 -1       379 1.43314E-02-4.25128E-03-8.24569E-14
 -1       380 1.46171E-02-4.37049E-03-8.57950E-14
 -1       381 1.49028E-02-4.48969E-03-8.91450E-14
 -1       382 1.51885E-02-4.60889E-03-9.25159E-14
 -1       383 1.54742E-02-4.72810E-03-9.59115E-14
 -1       384 1.33465E-03 4.40377E-04-5.98788E-16
 -1       385 1.63332E-03 4.95520E-04-9.55287E-16
 -1       386 1.93041E-03 5.45879E-04-1.40034E-15
 -1       387 2.22564E-03 5.93719E-04-1.93557E-15
 -1       388 2.51795E-03 6.38538E-04-2.56491E-15
 -1       389 2.80592E-03 6.76771E-04-3.29124E-15
 -1       390 3.08843E-03 7.01999E-04-4.11711E-15
 -1       391 3.36537E-03 7.06108E-04-5.04502E-15
 -1       392 3.63817E-03 6.81474E-04-6.07859E-15
 -1       393 3.90972E-03 6.23558E-04-7.21928E-15
 -1       394 4.18348E-03 5.32722E-04-8.46529E-15
 -1       395 4.46229E-03 4.14253E-04-9.81639E-15
 -1       396 4.74750E-03 2.76611E-04-1.12703E-14
 -1       397 5.03886E-03 1.28923E-04-1.28261E-14
 -1       398 5.33501E-03-2.10993E-05-1.44814E-14
 -1       399 5.63411E-03-1.68180E-04-1.62330E-14
 -1       400 5.93444E-03-3.09532E-04-1.80799E-14
 -1       401 6.23464E-03-4.44326E-04-2.00217E-14
 -1       402 6.53378E-03-5.72991E-04-2.20575E-14
 -1       403 6.83134E-03-6.96603E-04-2.41849E-14
 -1       404 7.12710E-03-8.16440E-04-2.64009E-14
 -1       405 7.42107E-03-9.33717E-04-2.87071E-14
 -1       406 7.71336E-03-1.04945E-03-3.10994E-14
 -1       407 8.00418E-03-1.16443E-03-3.35829E-14
 -1       408 8.29374E-03-1.27921E-03-3.61458E-14
 -1       409 8.58228E-03-1.39416E-03-3.87830E-14
 -1       410 8.87000E-03-1.50949E-03-4.14934E-14
 -1       411 9.15709E-03-1.62531E-03-4.42653E-14
 -1       412 9.44371E-03-1.74166E-03-4.70968E-14
 -1       413 9.72997E-03-1.85851E-03-4.99790E-14
 -1       414 1.00160E-02-1.97581E-03-5.29098E-14
 -1       415 1.03018E-02-2.09352E-03-5.58859E-14
 -1       416 1.05876E-02-2.21157E-03-5.89049E-14
 -1       417 1.08732E-02-2.32990E-03-6.19694E-14
 -1       418 1.11589E-02-2.44845E-03-6.50804E-14
 -1       419 1.14445E-02-2.56718E-03-6.82364E-14
 -1       420 1.17301E-02-2.68604E-03-7.14341E-14
 -1       421 1.20157E-02-2.80501E-03-7.46739E-14
 -1       422 1.23013E-02-2.92404E-03-7.79434E-14
 -1       423 1.25870E-02-3.04313E-03-8.12408E-14
 -1       424 1.28726E-02-3.16224E-03-8.45625E-14
 -1       425 1.31583E-02-3.28138E-03-8.79010E-14
 -1       426 1.34440E-02-3.40052E-03-9.12541E-14
 -1       427 1.37297E-02-3.51966E-03-9.46230E-14
 -1       428 1.39619E-02-3.61434E-03-9.74538E-14
 -1       429 1.42395E-02-3.81661E-03-9.73952E-14
 -1       430 1.41224E-02-3.73230E-03-9.73760E-14
 -1       431 1.43546E-02-3.89950E-03-9.74101E-14
 -1       432 1.44717E-02-3.98383E-03-9.74075E-14
 -1       433 1.45888E-02-4.06817E-03-9.73918E-14
 -1       434 1.47060E-02-4.15251E-03-9.73682E-14
 -1       435 1.48232E-02-4.23685E-03-9.73310E-14
 -1       436 1.49404E-02-4.32120E-03-9.72740E-14
 -1       437 1.50556E-02-4.40411E-03-9.72073E-14
 -1       438 1.51729E-02-4.48844E-03-9.71270E-14
 -1       439 1.52902E-02-4.57276E-03-9.70395E-14
 -1       440 1.54075E-02-4.65707E-03-9.69482E-14
 -1       441 1.09922E-03 4.00537E-04-3.64776E-16
 -1       442 6.21237E-03-6.27212E-04-1.06884E-14
 -1       443 5.40498E-03-2.40513E-04-9.56098E-15
 -1       444 6.67563E-03-8.13967E-04-1.11097E-14
 -1       445 5.79874E-03-4.54879E-04-1.02448E-14
 -1       446 4.38843E-04-8.79528E-05-1.22993E-16
 -1       447 5.00083E-03-2.59944E-05-8.92139E-15
 -1       448 4.59723E-03 1.85257E-04-8.11750E-15
 -1       449 4.20452E-03 3.25719E-04-7.15780E-15
 -1       450 3.89799E-03 3.44977E-04-6.45964E-15
 -1       451 3.48034E-03 2.43268E-04-5.60802E-15
 -1       452 3.12995E-03 9.62935E-05-5.09243E-15
 -1       453 2.77296E-03-6.58776E-05-4.64193E-15
 -1       454 2.44579E-03-2.13347E-04-4.22348E-15
 -1       455 2.11734E-03-3.39961E-04-3.91109E-15
 -1       456 1.96839E-03-4.03913E-04-3.81733E-15
 -1       457 1.94943E-03-4.48436E-04-3.70639E-15
 -1       458 2.12533E-03-5.30027E-04-3.76512E-15
 -1       459 2.38968E-03-6.40303E-04-3.89476E-15
 -1       460 2.85367E-03-8.91426E-04-4.25894E-15
 -1       461 3.29922E-03-1.17046E-03-4.67580E-15
 -1       462 3.72901E-03-1.43798E-03-5.11041E-15
 -1       463 4.14695E-03-1.68669E-03-5.76568E-15
 -1       464 4.52075E-03-1.79805E-03-6.50891E-15
 -1       465 4.81371E-03-1.77805E-03-7.14791E-15
 -1       466 5.22790E-03-1.61461E-03-8.07888E-15
 -1       467 5.53819E-03-1.44447E-03-8.69584E-15
 -1       468 5.93404E-03-1.22265E-03-9.46791E-15
 -1       469 6.26572E-03-1.05044E-03-1.01227E-14
 -1       470 6.51525E-03-9.36324E-04-1.05442E-14
 -1       471 6.66949E-03-8.55106E-04-1.09494E-14
 -1       472 6.48787E-03-7.35484E-04-1.10260E-14
 -1       473 6.62448E-03-8.07810E-04-1.16438E-14
 -1       474 3.68149E-03 3.21842E-04-5.93763E-15
 -1       475 6.09213E-04-7.17278E-05-3.00493E-16
 -1       476 6.22568E-04-9.19252E-05-2.92308E-16
 -1       477 6.15833E-04-2.95109E-05-3.03644E-16
 -1       478 6.30085E-04-1.23501E-06-2.99907E-16
 -1       479 6.47266E-04 3.29765E-05-2.92850E-16
 -1       480 6.66088E-04 7.44600E-05-2.81649E-16
 -1       481 6.85906E-04 1.22715E-04-2.65311E-16
 -1       482 7.08215E-04 1.78336E-04-2.41093E-16
 -1       483 7.37261E-04 2.43158E-04-2.06036E-16
 -1       484 7.96403E-04 2.94548E-04-2.01092E-16
 -1       485 1.00923E-03-2.55267E-04-4.39115E-16
 -1       486 6.02294E-03-6.10363E-04-1.11913E-14
 -1       487 5.54321E-03-3.80000E-04-1.04179E-14
 -1       488 1.30375E-03-3.05159E-04-7.34713E-16
 -1       489 1.59808E-03-3.52389E-04-1.10887E-15
 -1       490 1.89430E-03-4.07444E-04-1.56333E-15
 -1       491 2.19792E-03-4.84232E-04-2.09767E-15
 -1       492 2.52020E-03-6.02027E-04-2.71184E-15
 -1       493 2.87918E-03-7.88041E-04-3.40738E-15
 -1       494 5.72015E-03-1.36609E-03-9.65910E-15
 -1       495 6.16475E-03-1.17910E-03-1.11811E-14
 -1       496 6.52142E-03-1.12581E-03-1.27786E-14
 -1       497 6.84264E-03-1.14367E-03-1.44651E-14
 -1       498 7.14613E-03-1.20711E-03-1.62329E-14
 -1       499 7.44213E-03-1.29917E-03-1.80895E-14
 -1       500 7.75003E-03-1.41450E-03-2.01341E-14
 -1       501 8.04225E-03-1.53454E-03-2.21693E-14
 -1       502 8.33388E-03-1.65980E-03-2.42915E-14
 -1       503 8.62487E-03-1.78743E-03-2.64960E-14
 -1       504 8.91514E-03-1.91572E-03-2.87778E-14
 -1       505 9.20465E-03-2.04371E-03-3.11299E-14
 -1       506 9.49341E-03-2.17091E-03-3.35548E-14
 -1       507 9.78151E-03-2.29711E-03-3.60542E-14
 -1       508 1.00690E-02-2.42226E-03-3.86319E-14
 -1       509 1.03561E-02-2.54640E-03-4.12781E-14
 -1       510 1.06427E-02-2.66962E-03-4.39851E-14
 -1       511 1.09291E-02-2.79204E-03-4.67598E-14
 -1       512 1.12153E-02-2.91378E-03-4.95921E-14
 -1       513 1.15013E-02-3.03495E-03-5.24727E-14
 -1       514 1.18014E-02-3.16167E-03-5.55559E-14
 -1       515 1.20872E-02-3.28197E-03-5.85434E-14
 -1       516 1.23729E-02-3.40198E-03-6.15784E-14
 -1       517 1.26586E-02-3.52176E-03-6.46716E-14
 -1       518 1.29443E-02-3.64135E-03-6.78250E-14
 -1       519 1.32300E-02-3.76082E-03-7.10300E-14
 -1       520 1.35157E-02-3.88019E-03-7.42845E-14
 -1       521 1.38014E-02-3.99948E-03-7.75664E-14
 -1       522 1.40870E-02-4.11873E-03-8.08742E-14
 -1       523 1.43727E-02-4.23795E-03-8.41998E-14
 -1       524 1.46584E-02-4.35715E-03-8.75415E-14
 -1       525 1.49441E-02-4.47635E-03-9.09051E-14
 -1       526 1.51758E-02-4.56670E-03-9.39141E-14
 -1       527 2.05207E-03 4.89080E-04-1.75058E-15
 -1       528 1.74870E-03 4.41142E-04-1.25261E-15
 -1       529 1.44612E-03 3.90929E-04-8.41819E-16
 -1       530 2.35549E-03 5.36025E-04-2.33985E-15
 -1       531 2.65742E-03 5.80332E-04-3.02312E-15
 -1       532 2.95580E-03 6.16866E-04-3.80388E-15
 -1       533 3.24895E-03 6.37277E-04-4.68353E-15
 -1       534 3.53668E-03 6.31759E-04-5.66741E-15
 -1       535 3.82098E-03 5.92254E-04-6.75706E-15
 -1       536 4.10548E-03 5.15832E-04-7.95442E-15
 -1       537 4.39380E-03 4.06162E-04-9.25585E-15
 -1       538 4.68784E-03 2.72064E-04-1.06613E-14
 -1       539 4.98731E-03 1.24231E-04-1.21690E-14
 -1       540 5.29035E-03-2.78746E-05-1.37764E-14
 -1       541 5.59467E-03-1.77664E-04-1.54827E-14
 -1       542 5.89836E-03-3.21596E-04-1.72848E-14
 -1       543 6.20023E-03-4.58505E-04-1.91800E-14
 -1       544 6.49974E-03-5.88733E-04-2.11673E-14
 -1       545 6.79682E-03-7.13386E-04-2.32474E-14
 -1       546 7.09165E-03-8.33823E-04-2.54176E-14
 -1       547 7.38452E-03-9.51355E-04-2.76776E-14
 -1       548 7.67576E-03-1.06709E-03-3.00218E-14
 -1       549 7.96567E-03-1.18191E-03-3.24537E-14
 -1       550 8.25452E-03-1.29642E-03-3.49734E-14
 -1       551 8.54254E-03-1.41104E-03-3.75656E-14
 -1       552 8.82992E-03-1.52604E-03-4.02324E-14
 -1       553 9.11681E-03-1.64153E-03-4.29658E-14
 -1       554 9.40333E-03-1.75758E-03-4.57584E-14
 -1       555 9.68958E-03-1.87416E-03-4.86063E-14
 -1       556 9.97563E-03-1.99125E-03-5.15030E-14
 -1       557 1.02615E-02-2.10877E-03-5.44448E-14
 -1       558 1.05473E-02-2.22666E-03-5.74345E-14
 -1       559 1.08331E-02-2.34487E-03-6.04718E-14
 -1       560 1.11188E-02-2.46333E-03-6.35532E-14
 -1       561 1.14045E-02-2.58199E-03-6.66824E-14
 -1       562 1.16902E-02-2.70079E-03-6.98572E-14
 -1       563 1.19758E-02-2.81972E-03-7.30753E-14
 -1       564 1.22615E-02-2.93873E-03-7.63238E-14
 -1       565 1.25472E-02-3.05779E-03-7.96062E-14
 -1       566 1.28328E-02-3.17690E-03-8.29108E-14
 -1       567 1.31185E-02-3.29604E-03-8.62363E-14
 -1       568 1.34042E-02-3.41518E-03-8.95801E-14
 -1       569 1.36899E-02-3.53432E-03-9.29430E-14
 -1       570 1.41657E-02-3.83848E-03-9.44554E-14
 -1       571 1.40506E-02-3.75559E-03-9.44567E-14
 -1       572 1.39335E-02-3.67128E-03-9.44455E-14
 -1       573 1.42828E-02-3.92281E-03-9.44399E-14
 -1       574 1.43999E-02-4.00714E-03-9.44135E-14
 -1       575 1.45171E-02-4.09148E-03-9.43824E-14
 -1       576 1.46343E-02-4.17582E-03-9.43371E-14
 -1       577 1.47496E-02-4.25872E-03-9.42761E-14
 -1       578 1.48668E-02-4.34305E-03-9.41998E-14
 -1       579 1.49841E-02-4.42737E-03-9.41181E-14
 -1       580 1.50799E-02-4.49704E-03-9.40176E-14
 -1       581 6.63369E-03-8.95544E-04-1.14597E-14
 -1       582 7.32116E-04-1.90707E-04-2.44505E-16
 -1       583 5.18461E-03-1.77670E-04-9.73686E-15
 -1       584 6.71209E-03-8.54165E-04-1.17544E-14
 -1       585 1.98890E-03-4.37802E-04-3.37223E-15
 -1       586 4.77193E-03 6.39029E-05-8.88938E-15
 -1       587 6.07797E-04-5.22115E-05-3.04115E-16
 -1       588 4.33040E-03 2.89997E-04-7.69019E-15
 -1       589 3.26057E-03 1.66160E-04-5.05631E-15
 -1       590 4.03699E-03 3.61140E-04-6.84214E-15
 -1       591 3.13059E-03-9.80932E-04-4.13038E-15
 -1       592 2.96323E-03 2.15256E-05-4.61290E-15
 -1       593 2.63241E-03-1.29585E-04-4.17270E-15
 -1       594 2.23173E-03-2.78236E-04-3.65574E-15
 -1       595 1.97926E-03-3.64482E-04-3.45970E-15
 -1       596 1.90690E-03-3.93433E-04-3.35472E-15
 -1       597 2.22309E-03-5.04943E-04-3.35407E-15
 -1       598 6.11243E-03-1.12292E-03-1.03299E-14
 -1       599 2.64836E-03-7.00703E-04-3.71180E-15
 -1       600 3.50703E-03-1.23549E-03-4.52283E-15
 -1       601 5.42131E-03-1.52290E-03-8.74225E-15
 -1       602 5.76597E-03-1.31135E-03-9.51933E-15
 -1       603 6.43527E-03-9.73778E-04-1.10024E-14
 -1       604 6.35639E-03-7.39697E-04-1.17047E-14
 -1       605 6.48723E-04-1.17714E-04-2.78626E-16
 -1       606 1.03436E-03 3.44893E-04-3.75351E-16
 -1       607 3.32488E-03-1.08967E-03-4.15689E-15
 -1       608 6.54083E-03-8.09856E-04-1.23304E-14
 -1       609 6.71105E-03-8.52589E-04-1.22952E-14
 -1       610 1.23984E-03 3.71134E-04-5.85229E-16
 -1       611 3.82816E-03 3.67929E-04-6.29457E-15
 -1       612 4.51653E-03 1.99279E-04-8.42778E-15
 -1       613 3.45022E-03 2.66388E-04-5.35929E-15
 -1       614 8.64255E-04 1.91854E-05-5.15369E-16
 -1       615 8.39398E-04-2.40521E-05-5.23331E-16
 -1       616 9.18225E-04 1.28945E-04-4.81684E-16
 -1       617 9.46359E-04 1.94594E-04-4.52539E-16
 -1       618 9.73808E-04 2.91665E-04-3.78400E-16
 -1       619 4.99861E-03-8.41883E-05-9.78640E-15
 -1       620 6.20984E-03-7.10686E-04-1.22497E-14
 -1       621 1.35541E-03-2.71797E-04-9.68281E-16
 -1       622 1.62135E-03-3.17399E-04-1.39219E-15
 -1       623 1.88270E-03-3.71897E-04-1.89468E-15
 -1       624 2.14434E-03-4.46289E-04-2.47413E-15
 -1       625 1.98810E-03-2.94692E-04-3.06119E-15
 -1       626 5.25846E-03-1.60892E-03-8.27805E-15
 -1       627 2.00328E-03-4.11074E-04-2.93644E-15
 -1       628 6.77569E-03-1.03837E-03-1.37341E-14
 -1       629 7.03620E-03-1.09964E-03-1.54638E-14
 -1       630 7.29695E-03-1.18640E-03-1.72779E-14
 -1       631 7.57596E-03-1.29532E-03-1.92777E-14
 -1       632 7.84741E-03-1.40998E-03-2.12724E-14
 -1       633 8.12362E-03-1.53113E-03-2.33526E-14
 -1       634 8.40341E-03-1.65591E-03-2.55173E-14
 -1       635 8.68567E-03-1.78238E-03-2.77613E-14
 -1       636 8.96953E-03-1.90931E-03-3.00775E-14
 -1       637 9.25437E-03-2.03596E-03-3.24694E-14
 -1       638 9.53977E-03-2.16194E-03-3.49355E-14
 -1       639 9.82548E-03-2.28708E-03-3.74726E-14
 -1       640 1.01113E-02-2.41131E-03-4.00839E-14
 -1       641 1.03972E-02-2.53469E-03-4.27571E-14
 -1       642 1.06831E-02-2.65729E-03-4.54988E-14
 -1       643 1.09690E-02-2.77919E-03-4.82973E-14
 -1       644 1.12548E-02-2.90051E-03-5.11473E-14
 -1       645 1.15549E-02-3.02737E-03-5.41984E-14
 -1       646 1.18407E-02-3.14779E-03-5.71566E-14
 -1       647 1.21265E-02-3.26789E-03-6.01625E-14
 -1       648 1.24122E-02-3.38774E-03-6.32212E-14
 -1       649 1.26979E-02-3.50739E-03-6.63404E-14
 -1       650 1.29837E-02-3.62690E-03-6.95138E-14
 -1       651 1.32694E-02-3.74630E-03-7.27402E-14
 -1       652 1.35551E-02-3.86562E-03-7.60036E-14
 -1       653 1.38408E-02-3.98489E-03-7.92966E-14
 -1       654 1.41265E-02-4.10411E-03-8.26114E-14
 -1       655 1.44122E-02-4.22332E-03-8.59419E-14
 -1       656 1.46980E-02-4.34251E-03-8.92950E-14
 -1       657 1.48890E-02-4.41977E-03-9.16486E-14
 -1       658 1.87202E-03 3.81128E-04-1.56342E-15
 -1       659 2.18339E-03 4.26593E-04-2.11349E-15
 -1       660 1.56446E-03 3.36231E-04-1.10100E-15
 -1       661 2.81062E-03 5.18723E-04-3.49028E-15
 -1       662 3.12030E-03 5.55323E-04-4.32265E-15
 -1       663 3.42355E-03 5.71625E-04-5.25681E-15
 -1       664 3.72053E-03 5.54971E-04-6.29565E-15
 -1       665 4.01489E-03 4.96903E-04-7.44194E-15
 -1       666 4.31185E-03 3.97830E-04-8.69356E-15
 -1       667 4.61496E-03 2.66880E-04-1.00507E-14
 -1       668 4.92434E-03 1.17488E-04-1.15115E-14
 -1       669 5.23729E-03-3.79137E-05-1.30727E-14
 -1       670 5.55025E-03-1.90821E-04-1.47344E-14
 -1       671 5.86047E-03-3.36969E-04-1.64928E-14
 -1       672 6.16651E-03-4.75186E-04-1.83424E-14
 -1       673 6.46811E-03-6.06057E-04-2.02854E-14
 -1       674 6.76568E-03-7.30937E-04-2.23180E-14
 -1       675 7.05996E-03-8.51366E-04-2.44428E-14
 -1       676 7.35170E-03-9.68761E-04-2.66549E-14
 -1       677 7.64159E-03-1.08429E-03-2.89543E-14
 -1       678 7.93016E-03-1.19886E-03-3.13382E-14
 -1       679 8.21780E-03-1.31311E-03-3.38071E-14
 -1       680 8.50482E-03-1.42747E-03-3.63585E-14
 -1       681 8.79141E-03-1.54221E-03-3.89831E-14
 -1       682 9.07771E-03-1.65746E-03-4.16749E-14
 -1       683 9.36382E-03-1.77329E-03-4.44287E-14
 -1       684 9.64979E-03-1.88967E-03-4.72389E-14
 -1       685 9.93567E-03-2.00658E-03-5.01039E-14
 -1       686 1.02215E-02-2.12396E-03-5.30159E-14
 -1       687 1.05073E-02-2.24173E-03-5.59751E-14
 -1       688 1.07930E-02-2.35983E-03-5.89804E-14
 -1       689 1.10788E-02-2.47821E-03-6.20329E-14
 -1       690 1.13645E-02-2.59680E-03-6.51360E-14
 -1       691 1.16502E-02-2.71556E-03-6.82829E-14
 -1       692 1.19359E-02-2.83445E-03-7.14777E-14
 -1       693 1.22216E-02-2.95343E-03-7.47087E-14
 -1       694 1.25073E-02-3.07248E-03-7.79709E-14
 -1       695 1.27930E-02-3.19157E-03-8.12600E-14
 -1       696 1.30787E-02-3.31070E-03-8.45714E-14
 -1       697 1.33645E-02-3.42984E-03-8.79031E-14
 -1       698 1.36490E-02-3.55056E-03-9.11638E-14
 -1       699 1.38607E-02-3.69385E-03-9.15198E-14
 -1       700 1.40939E-02-3.86178E-03-9.14868E-14
 -1       701 1.39773E-02-3.77781E-03-9.15082E-14
 -1       702 1.37548E-02-3.62220E-03-9.13433E-14
 -1       703 1.42111E-02-3.94611E-03-9.14540E-14
 -1       704 1.43282E-02-4.03044E-03-9.14113E-14
 -1       705 1.44435E-02-4.11334E-03-9.13589E-14
 -1       706 1.45607E-02-4.19767E-03-9.12928E-14
 -1       707 1.46780E-02-4.28199E-03-9.12181E-14
 -1       708 5.80624E-03-5.37917E-04-1.16501E-14
 -1       709 8.63672E-04-1.85460E-04-4.06376E-16
 -1       710 2.49716E-03 4.73378E-04-2.75470E-15
 -1       711 6.74070E-03-8.97356E-04-1.24569E-14
 -1       712 6.50328E-03-1.01951E-03-1.20880E-14
 -1       713 6.60697E-03-9.47531E-04-1.20551E-14
 -1       714 5.30881E-03-2.69759E-04-1.04703E-14
 -1       715 1.11014E-03-2.30227E-04-6.56803E-16
 -1       716 4.13282E-03 3.52728E-04-7.24886E-15
 -1       717 8.91092E-04 7.03727E-05-5.01952E-16
 -1       718 3.01400E-03 1.08722E-04-4.42520E-15
 -1       719 2.42466E-03-5.62785E-04-3.14963E-15
 -1       720 2.73644E-03-2.25929E-05-4.00049E-15
 -1       721 1.87980E-03-3.32233E-04-2.96846E-15
 -1       722 8.21608E-04-1.12559E-04-5.14176E-16
 -1       723 2.36267E-03-1.74614E-04-3.49890E-15
 -1       724 1.86102E-03-3.69829E-04-2.92564E-15
 -1       725 8.20582E-04-5.90559E-05-5.26007E-16
 -1       726 4.73931E-03 7.33420E-05-9.28915E-15
 -1       727 6.42443E-03-7.90381E-04-1.28882E-14
 -1       728 8.49044E-04-1.40360E-04-4.97588E-16
 -1       729 6.78877E-03-8.95845E-04-1.30106E-14
 -1       730 4.31346E-03 2.95649E-04-7.95154E-15
 -1       731 1.47835E-02-4.35088E-03-9.14351E-14
 -1       732 1.26118E-03 2.89213E-04-7.23810E-16
 -1       733 3.60244E-03 3.42037E-04-5.68778E-15
 -1       734 3.18665E-03 2.12279E-04-4.69642E-15
 -1       735 8.13060E-04-8.72813E-05-5.23270E-16
 -1       736 3.93643E-03 3.87803E-04-6.67432E-15
 -1       737 2.07877E-03-4.24680E-04-2.70528E-15
 -1       738 1.18512E-03 1.95436E-04-7.30437E-16
 -1       739 6.74844E-03-9.61153E-04-1.30966E-14
 -1       740 1.62982E-03-2.95440E-04-1.68937E-15
 -1       741 1.85126E-03-3.51709E-04-2.16878E-15
 -1       742 1.80587E-03-2.70834E-04-2.54730E-15
 -1       743 2.07377E-03-2.03806E-04-2.90719E-15
 -1       744 7.16993E-03-1.08929E-03-1.64685E-14
 -1       745 7.41617E-03-1.19037E-03-1.84235E-14
 -1       746 7.66457E-03-1.29750E-03-2.03740E-14
 -1       747 7.92354E-03-1.41223E-03-2.24124E-14
 -1       748 8.19044E-03-1.53201E-03-2.45361E-14
 -1       749 8.46313E-03-1.65483E-03-2.67392E-14
 -1       750 8.73996E-03-1.77922E-03-2.90194E-14
 -1       751 9.01968E-03-1.90419E-03-3.13752E-14
 -1       752 9.30140E-03-2.02909E-03-3.38080E-14
 -1       753 9.58447E-03-2.15356E-03-3.63124E-14
 -1       754 9.86847E-03-2.27742E-03-3.88873E-14
 -1       755 1.01531E-02-2.40060E-03-4.15332E-14
 -1       756 1.04381E-02-2.52311E-03-4.42397E-14
 -1       757 1.07234E-02-2.64501E-03-4.70096E-14
 -1       758 1.10089E-02-2.76635E-03-4.98301E-14
 -1       759 1.13087E-02-2.89325E-03-5.28463E-14
 -1       760 1.15944E-02-3.01371E-03-5.57772E-14
 -1       761 1.18801E-02-3.13386E-03-5.87566E-14
 -1       762 1.21658E-02-3.25375E-03-6.17862E-14
 -1       763 1.24516E-02-3.37344E-03-6.48732E-14
 -1       764 1.27373E-02-3.49299E-03-6.80134E-14
 -1       765 1.30231E-02-3.61241E-03-7.12099E-14
 -1       766 1.33088E-02-3.73175E-03-7.44517E-14
 -1       767 1.35946E-02-3.85103E-03-7.77275E-14
 -1       768 1.38803E-02-3.97026E-03-8.10257E-14
 -1       769 1.41661E-02-4.08947E-03-8.43479E-14
 -1       770 1.44518E-02-4.20867E-03-8.76895E-14
 -1       771 2.00013E-03 3.13801E-04-1.88861E-15
 -1       772 1.68626E-03 2.74617E-04-1.37634E-15
 -1       773 3.29602E-03 4.95891E-04-4.84793E-15
 -1       774 2.97446E-03 4.56083E-04-3.96395E-15
 -1       775 3.91452E-03 4.76149E-04-6.92896E-15
 -1       776 4.22013E-03 3.92208E-04-8.12953E-15
 -1       777 4.53234E-03 2.64458E-04-9.43772E-15
 -1       778 4.85292E-03 1.10686E-04-1.08524E-14
 -1       779 5.17827E-03-5.10769E-05-1.23690E-14
 -1       780 5.50285E-03-2.08886E-04-1.39856E-14
 -1       781 5.82224E-03-3.57482E-04-1.57009E-14
 -1       782 6.13443E-03-4.96211E-04-1.75079E-14
 -1       783 6.43937E-03-6.26488E-04-1.94058E-14
 -1       784 6.73810E-03-7.50348E-04-2.13940E-14
 -1       785 7.03203E-03-8.69735E-04-2.34727E-14
 -1       786 7.32254E-03-9.86248E-04-2.56410E-14
 -1       787 7.61077E-03-1.10111E-03-2.78938E-14
 -1       788 7.89759E-03-1.21518E-03-3.02323E-14
 -1       789 8.18358E-03-1.32908E-03-3.26557E-14
 -1       790 8.46915E-03-1.44319E-03-3.51579E-14
 -1       791 8.75454E-03-1.55774E-03-3.77411E-14
 -1       792 9.03989E-03-1.67285E-03-4.03926E-14
 -1       793 9.32528E-03-1.78856E-03-4.31076E-14
 -1       794 9.61072E-03-1.90484E-03-4.58805E-14
 -1       795 9.89624E-03-2.02167E-03-4.87098E-14
 -1       796 1.01818E-02-2.13897E-03-5.15930E-14
 -1       797 1.04674E-02-2.25667E-03-5.45228E-14
 -1       798 1.07531E-02-2.37472E-03-5.74981E-14
 -1       799 1.10388E-02-2.49304E-03-6.05202E-14
 -1       800 1.13245E-02-2.61159E-03-6.35921E-14
 -1       801 1.16103E-02-2.73032E-03-6.67157E-14
 -1       802 1.18960E-02-2.84917E-03-6.98857E-14
 -1       803 1.21817E-02-2.96813E-03-7.30977E-14
 -1       804 1.24675E-02-3.08717E-03-7.63406E-14
 -1       805 1.27532E-02-3.20625E-03-7.96137E-14
 -1       806 1.30389E-02-3.32537E-03-8.29093E-14
 -1       807 1.33247E-02-3.44451E-03-8.62292E-14
 -1       808 1.35398E-02-3.53336E-03-8.87794E-14
 -1       809 1.40222E-02-3.88507E-03-8.85094E-14
 -1       810 1.41374E-02-3.96797E-03-8.84626E-14
 -1       811 1.42546E-02-4.05229E-03-8.84012E-14
 -1       812 1.43719E-02-4.13661E-03-8.83360E-14
 -1       813 5.21162E-03-2.05389E-04-1.08454E-14
 -1       814 6.10143E-03-6.69232E-04-1.30175E-14
 -1       815 2.46029E-03-5.56284E-05-3.37877E-15
 -1       816 1.39050E-02-3.80075E-03-8.85458E-14
 -1       817 3.60879E-03 5.08363E-04-5.83518E-15
 -1       818 6.95252E-03-1.00765E-03-1.46943E-14
 -1       819 1.39676E-03-2.50067E-04-1.21812E-15
 -1       820 6.71897E-03-8.75822E-04-1.33463E-14
 -1       821 1.74198E-03-3.08841E-04-2.47897E-15
 -1       822 5.65656E-03-4.54780E-04-1.20479E-14
 -1       823 2.71294E-03 4.73433E-05-3.76230E-15
 -1       824 1.07870E-03-8.20386E-06-7.98373E-16
 -1       825 1.83187E-03-3.48766E-04-2.53117E-15
 -1       826 4.52539E-03 1.99243E-04-8.77810E-15
 -1       827 4.96242E-03-4.67388E-05-1.03077E-14
 -1       828 6.32280E-03-7.57641E-04-1.36754E-14
 -1       829 1.04063E-03-1.60135E-04-7.79159E-16
 -1       830 2.14915E-03-1.02486E-04-2.79394E-15
 -1       831 4.11703E-03 3.65225E-04-7.33934E-15
 -1       832 2.32137E-03 3.57498E-04-2.48839E-15
 -1       833 2.64766E-03 4.06241E-04-3.17919E-15
 -1       834 2.88095E-03 1.44841E-04-4.00397E-15
 -1       835 1.37884E-02-3.71678E-03-8.85761E-14
 -1       836 1.36456E-02-3.60500E-03-8.89484E-14
 -1       837 1.38019E-03 2.36571E-04-9.48667E-16
 -1       838 3.33734E-03 3.04637E-04-4.99092E-15
 -1       839 1.06579E-03-1.89654E-04-7.22905E-16
 -1       840 1.04548E-03-5.85717E-05-8.05284E-16
 -1       841 3.72199E-03 3.94028E-04-6.03809E-15
 -1       842 6.65401E-03-8.68318E-04-1.39198E-14
 -1       843 1.15102E-03 1.20678E-04-7.62401E-16
 -1       844 1.01896E-03-1.30507E-04-7.96374E-16
 -1       845 1.11524E-03 5.20896E-05-7.84390E-16
 -1       846 6.85931E-03-9.42511E-04-1.37775E-14
 -1       847 1.34291E-03 1.52476E-04-9.88267E-16
 -1       848 1.65379E-03-2.90205E-04-2.07270E-15
 -1       849 7.04431E-03-1.01166E-03-1.56504E-14
 -1       850 7.48311E-03-1.19728E-03-1.94767E-14
 -1       851 7.72618E-03-1.30355E-03-2.14720E-14
 -1       852 7.98087E-03-1.41642E-03-2.35550E-14
 -1       853 8.24415E-03-1.53389E-03-2.57155E-14
 -1       854 8.51375E-03-1.65430E-03-2.79570E-14
 -1       855 8.78797E-03-1.77637E-03-3.02778E-14
 -1       856 9.06555E-03-1.89924E-03-3.26750E-14
 -1       857 9.34555E-03-2.02231E-03-3.51471E-14
 -1       858 9.62728E-03-2.14521E-03-3.76911E-14
 -1       859 9.91025E-03-2.26775E-03-4.03017E-14
 -1       860 1.01941E-02-2.38985E-03-4.29772E-14
 -1       861 1.04786E-02-2.51147E-03-4.57154E-14
 -1       862 1.07635E-02-2.63264E-03-4.85108E-14
 -1       863 1.10629E-02-2.75945E-03-5.14988E-14
 -1       864 1.13484E-02-2.87986E-03-5.44010E-14
 -1       865 1.16339E-02-2.99997E-03-5.73553E-14
 -1       866 1.19196E-02-3.11986E-03-6.03613E-14
 -1       867 1.22053E-02-3.23955E-03-6.34205E-14
 -1       868 1.24910E-02-3.35910E-03-6.65293E-14
 -1       869 1.27768E-02-3.47853E-03-6.96936E-14
 -1       870 1.30626E-02-3.59788E-03-7.29064E-14
 -1       871 1.33483E-02-3.71717E-03-7.61637E-14
 -1       872 1.36341E-02-3.83641E-03-7.94469E-14
 -1       873 1.39199E-02-3.95563E-03-8.27468E-14
 -1       874 1.41459E-02-4.04612E-03-8.55338E-14
 -1       875 6.86576E-03-9.30487E-04-1.42084E-14
 -1       876 4.44263E-03 2.69615E-04-8.82348E-15
 -1       877 4.12023E-03 3.91226E-04-7.56469E-15
 -1       878 5.11695E-03-6.60043E-05-1.16641E-14
 -1       879 5.45633E-03-2.32510E-04-1.32376E-14
 -1       880 5.78719E-03-3.84625E-04-1.49087E-14
 -1       881 6.10679E-03-5.23207E-04-1.66739E-14
 -1       882 6.41551E-03-6.51410E-04-1.85282E-14
 -1       883 6.71530E-03-7.72627E-04-2.04734E-14
 -1       884 7.00851E-03-8.89567E-04-2.25082E-14
 -1       885 7.29730E-03-1.00414E-03-2.46331E-14
 -1       886 7.58335E-03-1.11762E-03-2.68409E-14
 -1       887 7.86790E-03-1.23079E-03-2.91339E-14
 -1       888 8.15176E-03-1.34415E-03-3.15112E-14
 -1       889 8.43546E-03-1.45797E-03-3.39710E-14
 -1       890 8.71926E-03-1.57239E-03-3.65070E-14
 -1       891 9.00334E-03-1.68746E-03-3.91188E-14
 -1       892 9.28772E-03-1.80318E-03-4.17942E-14
 -1       893 9.57241E-03-1.91949E-03-4.45303E-14
 -1       894 9.85737E-03-2.03634E-03-4.73233E-14
 -1       895 1.01426E-02-2.15366E-03-5.01742E-14
 -1       896 1.04279E-02-2.27139E-03-5.30753E-14
 -1       897 1.07134E-02-2.38944E-03-5.60214E-14
 -1       898 1.09990E-02-2.50777E-03-5.90159E-14
 -1       899 1.12847E-02-2.62632E-03-6.20591E-14
 -1       900 1.15704E-02-2.74503E-03-6.51524E-14
 -1       901 1.18561E-02-2.86388E-03-6.83008E-14
 -1       902 1.21419E-02-2.98283E-03-7.14933E-14
 -1       903 1.24276E-02-3.10185E-03-7.47152E-14
 -1       904 1.27134E-02-3.22093E-03-7.79728E-14
 -1       905 1.29991E-02-3.34005E-03-8.12549E-14
 -1       906 1.32849E-02-3.45918E-03-8.45608E-14
 -1       907 1.39486E-02-3.90692E-03-8.55304E-14
 -1       908 1.40472E-02-3.97652E-03-8.55332E-14
 -1       909 1.38333E-02-3.82403E-03-8.55837E-14
 -1       910 5.97489E-03-5.88824E-04-1.36431E-14
 -1       911 1.30747E-03-2.04996E-04-1.24661E-15
 -1       912 3.14563E-03 3.96608E-04-4.44245E-15
 -1       913 1.82032E-03-1.95800E-04-2.35169E-15
 -1       914 7.25282E-03-1.09906E-03-1.75194E-14
 -1       915 5.47405E-03-3.25160E-04-1.22265E-14
 -1       916 1.02275E-03-9.84452E-05-8.04796E-16
 -1       917 2.46900E-03 5.62312E-05-3.17513E-15
 -1       918 1.62698E-03-2.49889E-04-2.08020E-15
 -1       919 1.37161E-02-3.73971E-03-8.56320E-14
 -1       920 4.77634E-03 1.07545E-04-1.01919E-14
 -1       921 1.80698E-03 2.03947E-04-1.66656E-15
 -1       922 4.29714E-03 3.14837E-04-8.10709E-15
 -1       923 6.19207E-03-6.86748E-04-1.43229E-14
 -1       924 3.90618E-03 4.08417E-04-6.66072E-15
 -1       925 2.80294E-03 3.36217E-04-3.60992E-15
 -1       926 2.62043E-03 1.39935E-04-3.39044E-15
 -1       927 1.34628E-02-3.55267E-03-8.58790E-14
 -1       928 1.35995E-02-3.65575E-03-8.56682E-14
 -1       929 6.84912E-03-9.31989E-04-1.48034E-14
 -1       930 3.03722E-03 2.43453E-04-4.26724E-15
 -1       931 3.48015E-03 4.43427E-04-5.37657E-15
 -1       932 1.59809E-03-1.92931E-04-1.90596E-15
 -1       933 6.58523E-03-8.50593E-04-1.47367E-14
 -1       934 3.80329E-03 4.49081E-04-6.41655E-15
 -1       935 1.28820E-03-4.86054E-05-1.14024E-15
 -1       936 2.12842E-03 2.37715E-04-2.22579E-15
 -1       937 1.33711E-03 2.00541E-05-1.12769E-15
 -1       938 7.52167E-03-1.20335E-03-2.05308E-14
 -1       939 5.08389E-03-9.70305E-05-1.10131E-14
 -1       940 7.76783E-03-1.30823E-03-2.25707E-14
 -1       941 8.02397E-03-1.41921E-03-2.46895E-14
 -1       942 8.28765E-03-1.53454E-03-2.68921E-14
 -1       943 8.55706E-03-1.65274E-03-2.91774E-14
 -1       944 8.83078E-03-1.77272E-03-3.15371E-14
 -1       945 9.10775E-03-1.89365E-03-3.39756E-14
 -1       946 9.38714E-03-2.01501E-03-3.64889E-14
 -1       947 9.66833E-03-2.13644E-03-3.90673E-14
 -1       948 9.95085E-03-2.25774E-03-4.17084E-14
 -1       949 1.02344E-02-2.37880E-03-4.44158E-14
 -1       950 1.05186E-02-2.49959E-03-4.71861E-14
 -1       951 1.08175E-02-2.62610E-03-5.01494E-14
 -1       952 1.11026E-02-2.74633E-03-5.30233E-14
 -1       953 1.13880E-02-2.86632E-03-5.59563E-14
 -1       954 1.16735E-02-2.98612E-03-5.89376E-14
 -1       955 1.19591E-02-3.10576E-03-6.19733E-14
 -1       956 1.22448E-02-3.22528E-03-6.50587E-14
 -1       957 1.25306E-02-3.34469E-03-6.81898E-14
 -1       958 1.28163E-02-3.46403E-03-7.13722E-14
 -1       959 1.31021E-02-3.58332E-03-7.46053E-14
 -1       960 1.33879E-02-3.70256E-03-7.78694E-14
 -1       961 1.36737E-02-3.82178E-03-8.11567E-14
 -1       962 1.38604E-02-3.89915E-03-8.33389E-14
 -1       963 1.27166E-03-1.64323E-04-1.23613E-15
 -1       964 5.76129E-03-4.19655E-04-1.41170E-14
 -1       965 6.40017E-03-6.81872E-04-1.76536E-14
 -1       966 6.69965E-03-7.98443E-04-1.95552E-14
 -1       967 6.99077E-03-9.11221E-04-2.15468E-14
 -1       968 7.27663E-03-1.02258E-03-2.36275E-14
 -1       969 7.55954E-03-1.13381E-03-2.57933E-14
 -1       970 7.84107E-03-1.24556E-03-2.80424E-14
 -1       971 8.12220E-03-1.35812E-03-3.03753E-14
 -1       972 8.40354E-03-1.47158E-03-3.27916E-14
 -1       973 8.68540E-03-1.58592E-03-3.52839E-14
 -1       974 8.96790E-03-1.70106E-03-3.78511E-14
 -1       975 9.25104E-03-1.81692E-03-4.04879E-14
 -1       976 9.53477E-03-1.93341E-03-4.31880E-14
 -1       977 9.81902E-03-2.05044E-03-4.59461E-14
 -1       978 1.01037E-02-2.16791E-03-4.87610E-14
 -1       979 1.03887E-02-2.28576E-03-5.16324E-14
 -1       980 1.06739E-02-2.40392E-03-5.45525E-14
 -1       981 1.09594E-02-2.52232E-03-5.75203E-14
 -1       982 1.12449E-02-2.64091E-03-6.05362E-14
 -1       983 1.15306E-02-2.75967E-03-6.35996E-14
 -1       984 1.18163E-02-2.87854E-03-6.67195E-14
 -1       985 1.21020E-02-2.99750E-03-6.98863E-14
 -1       986 1.23878E-02-3.11653E-03-7.30929E-14
 -1       987 1.26736E-02-3.23561E-03-7.63292E-14
 -1       988 1.29593E-02-3.35472E-03-7.95948E-14
 -1       989 1.32451E-02-3.47386E-03-8.28898E-14
 -1       990 1.24521E-03-1.04438E-04-1.14341E-15
 -1       991 1.36434E-02-3.76227E-03-8.26810E-14
 -1       992 4.65310E-03 1.48038E-04-9.47721E-15
 -1       993 1.35262E-02-3.67795E-03-8.27320E-14
 -1       994 5.81075E-03-4.68806E-04-1.39223E-14
 -1       995 1.55032E-03 9.73676E-05-1.36408E-15
 -1       996 1.83399E-03-9.38203E-05-2.14590E-15
 -1       997 2.11040E-03 2.40308E-05-2.47343E-15
 -1       998 5.35073E-03-2.12086E-04-1.23965E-14
 -1       999 1.34256E-03 8.53710E-05-1.06064E-15
 -1      1000 7.05282E-03-1.01031E-03-1.61388E-14
 -1      1001 6.08866E-03-5.57517E-04-1.58403E-14
 -1      1002 2.46148E-03 2.81384E-04-2.87276E-15
 -1      1003 6.47180E-03-7.97341E-04-1.54144E-14
 -1      1004 1.34096E-02-3.59400E-03-8.27771E-14
 -1      1005 1.48855E-03-1.01472E-04-1.53872E-15
 -1      1006 1.86725E-03 1.07800E-04-1.89155E-15
 -1      1007 6.81872E-03-9.29248E-04-1.56510E-14
 -1      1008 1.55436E-03-2.48071E-05-1.53109E-15
 -1      1009 7.28694E-03-1.10587E-03-1.85301E-14
 -1      1010 7.79711E-03-1.30893E-03-2.36640E-14
 -1      1011 8.05776E-03-1.41888E-03-2.58259E-14
 -1      1012 8.32416E-03-1.53275E-03-2.80711E-14
 -1      1013 8.59514E-03-1.64931E-03-3.03974E-14
 -1      1014 8.86973E-03-1.76759E-03-3.28003E-14
 -1      1015 9.14713E-03-1.88692E-03-3.52787E-14
 -1      1016 9.42672E-03-2.00682E-03-3.78257E-14
 -1      1017 9.70798E-03-2.12696E-03-4.04366E-14
 -1      1018 9.99050E-03-2.24716E-03-4.31134E-14
 -1      1019 1.02740E-02-2.36731E-03-4.58541E-14
 -1      1020 1.05724E-02-2.49334E-03-4.87936E-14
 -1      1021 1.08571E-02-2.61323E-03-5.16449E-14
 -1      1022 1.11422E-02-2.73298E-03-5.45509E-14
 -1      1023 1.14275E-02-2.85261E-03-5.75109E-14
 -1      1024 1.17130E-02-2.97213E-03-6.05236E-14
 -1      1025 1.19987E-02-3.09156E-03-6.35840E-14
 -1      1026 1.22844E-02-3.21092E-03-6.66941E-14
 -1      1027 1.25701E-02-3.33023E-03-6.98456E-14
 -1      1028 1.28559E-02-3.44949E-03-7.30487E-14
 -1      1029 1.31417E-02-3.56872E-03-7.62912E-14
 -1      1030 1.34275E-02-3.68793E-03-7.95660E-14
 -1      1031 2.35359E-03 1.52266E-04-2.78801E-15
 -1      1032 6.12774E-03-6.27423E-04-1.49662E-14
 -1      1033 6.69470E-03-8.27777E-04-1.86393E-14
 -1      1034 7.53962E-03-1.14936E-03-2.47484E-14
 -1      1035 7.81700E-03-1.25918E-03-2.69540E-14
 -1      1036 8.09463E-03-1.37071E-03-2.92452E-14
 -1      1037 8.37310E-03-1.48375E-03-3.16144E-14
 -1      1038 8.65264E-03-1.59807E-03-3.40642E-14
 -1      1039 8.93330E-03-1.71342E-03-3.65915E-14
 -1      1040 9.21501E-03-1.82960E-03-3.91886E-14
 -1      1041 9.49765E-03-1.94644E-03-4.18500E-14
 -1      1042 9.78108E-03-2.06381E-03-4.45736E-14
 -1      1043 1.00651E-02-2.18159E-03-4.73550E-14
 -1      1044 1.03497E-02-2.29970E-03-5.01925E-14
 -1      1045 1.06346E-02-2.41806E-03-5.30842E-14
 -1      1046 1.09199E-02-2.53662E-03-5.60283E-14
 -1      1047 1.12053E-02-2.65534E-03-5.90186E-14
 -1      1048 1.14909E-02-2.77418E-03-6.20522E-14
 -1      1049 1.17765E-02-2.89311E-03-6.51441E-14
 -1      1050 1.20622E-02-3.01211E-03-6.82818E-14
 -1      1051 1.23480E-02-3.13117E-03-7.14658E-14
 -1      1052 1.26338E-02-3.25027E-03-7.46840E-14
 -1      1053 1.29196E-02-3.36939E-03-7.79349E-14
 -1      1054 6.39883E-03-7.18494E-04-1.67785E-14
 -1      1055 7.54361E-03-1.20439E-03-2.15860E-14
 -1      1056 7.26146E-03-1.04127E-03-2.26242E-14
 -1      1057 6.98073E-03-9.34504E-04-2.05876E-14
 -1      1058 1.77501E-03 6.13039E-06-1.86719E-15
 -1      1059 1.33373E-02-3.61690E-03-7.98535E-14
 -1      1060 1.32207E-02-3.53296E-03-7.99027E-14
 -1      1061 7.29770E-03-1.10672E-03-1.95400E-14
 -1      1062 6.70370E-03-8.69761E-04-1.72610E-14
 -1      1063 6.75550E-03-9.04506E-04-1.64590E-14
 -1      1064 7.82022E-03-1.30512E-03-2.47588E-14
 -1      1065 7.04442E-03-1.01066E-03-1.74895E-14
 -1      1066 8.08642E-03-1.41501E-03-2.69615E-14
 -1      1067 8.35651E-03-1.52817E-03-2.92490E-14
 -1      1068 8.62994E-03-1.64365E-03-3.16181E-14
 -1      1069 8.90614E-03-1.76071E-03-3.40600E-14
 -1      1070 9.18462E-03-1.87879E-03-3.65758E-14
 -1      1071 9.46491E-03-1.99751E-03-3.91596E-14
 -1      1072 9.74663E-03-2.11660E-03-4.18066E-14
 -1      1073 1.00295E-02-2.23588E-03-4.45202E-14
 -1      1074 1.03274E-02-2.36123E-03-4.74310E-14
 -1      1075 1.06117E-02-2.48063E-03-5.02580E-14
 -1      1076 1.08965E-02-2.60001E-03-5.31452E-14
 -1      1077 1.11817E-02-2.71937E-03-5.60839E-14
 -1      1078 1.14671E-02-2.83869E-03-5.90701E-14
 -1      1079 1.17526E-02-2.95798E-03-6.21048E-14
 -1      1080 1.20383E-02-3.07725E-03-6.51925E-14
 -1      1081 1.23240E-02-3.19648E-03-6.83259E-14
 -1      1082 1.26098E-02-3.31570E-03-7.15022E-14
 -1      1083 1.28956E-02-3.43491E-03-7.47237E-14
 -1      1084 1.31165E-02-3.52591E-03-7.72785E-14
 -1      1085 8.06859E-03-1.38149E-03-2.81143E-14
 -1      1086 6.98035E-03-9.58405E-04-1.96282E-14
 -1      1087 7.79539E-03-1.27111E-03-2.58665E-14
 -1      1088 8.62049E-03-1.60858E-03-3.28509E-14
 -1      1089 8.89912E-03-1.72433E-03-3.53377E-14
 -1      1090 9.17929E-03-1.84103E-03-3.78956E-14
 -1      1091 9.46078E-03-1.95843E-03-4.05177E-14
 -1      1092 9.74334E-03-2.07633E-03-4.32052E-14
 -1      1093 1.00268E-02-2.19458E-03-4.59509E-14
 -1      1094 1.03109E-02-2.31309E-03-4.87559E-14
 -1      1095 1.05955E-02-2.43178E-03-5.16176E-14
 -1      1096 1.08805E-02-2.55061E-03-5.45369E-14
 -1      1097 1.11658E-02-2.66953E-03-5.75006E-14
 -1      1098 1.14512E-02-2.78853E-03-6.05090E-14
 -1      1099 1.17368E-02-2.90757E-03-6.35680E-14
 -1      1100 1.20225E-02-3.02665E-03-6.66820E-14
 -1      1101 1.23083E-02-3.14576E-03-6.98394E-14
 -1      1102 1.25940E-02-3.26490E-03-7.30385E-14
 -1      1103 1.28798E-02-3.38404E-03-7.62746E-14
 -1      1104 7.52366E-03-1.16358E-03-2.37043E-14
 -1      1105 7.25257E-03-1.05932E-03-2.16228E-14
 -1      1106 8.34361E-03-1.49415E-03-3.04434E-14
 -1      1107 7.55843E-03-1.19962E-03-2.26395E-14
 -1      1108 7.30027E-03-1.09968E-03-2.05498E-14
 -1      1109 7.04625E-03-1.00242E-03-1.88948E-14
 -1      1110 0.00000E+00 0.00000E+00 0.00000E+00
 -1      1111 0.00000E+00 0.00000E+00 0.00000E+00
 -1      1112 0.00000E+00 0.00000E+00 0.00000E+00
 -1      1113 0.00000E+00 0.00000E+00 0.00000E+00
 -1      1114 0.00000E+00 0.00000E+00 0.00000E+00
 -1      1115 0.00000E+00 0.00000E+00 0.00000E+00
 -1      1116 0.00000E+00 0.00000E+00 0.00000E+00
 -1      1117 0.00000E+00 0.00000E+00 0.00000E+00
 -1      1118 0.00000E+00 0.00000E+00 0.00000E+00
 -1      1119 0.00000E+00 0.00000E+00 0.00000E+00
 -1      1120 0.00000E+00 0.00000E+00 0.00000E+00
 -1      1121 0.00000E+00 0.00000E+00 0.00000E+00
 -1      1122 0.00000E+00 0.00000E+00 0.00000E+00
 -1      1123 0.00000E+00 0.00000E+00 0.00000E+00
 -1      1124 0.00000E+00 0.00000E+00 0.00000E+00
 -1      1125 0.00000E+00 0.00000E+00 0.00000E+00
 -1      1126 0.00000E+00 0.00000E+00 0.00000E+00
 -1      1127 2.16686E-04-1.42121E-04 1.70491E-17
 -1      1128 5.78316E-04-3.10426E-04 3.48300E-18
 -1      1129 8.94978E-04-4.12848E-04-8.23316E-17
 -1      1130 1.21298E-03-4.82596E-04-2.53717E-16
 -1      1131 1.54300E-03-5.38562E-04-5.09074E-16
 -1      1132 1.89291E-03-5.94428E-04-8.49120E-16
 -1      1133 2.26898E-03-6.64915E-04-1.27578E-15
 -1      1134 2.67422E-03-7.68690E-04-1.78869E-15
 -1      1135 3.10430E-03-9.27804E-04-2.38874E-15
 -1      1136 3.54155E-03-1.15944E-03-3.07721E-15
 -1      1137 3.95209E-03-1.45567E-03-3.86006E-15
 -1      1138 4.29042E-03-1.75222E-03-4.72140E-15
 -1      1139 4.55894E-03-1.96182E-03-5.68917E-15
 -1      1140 4.79314E-03-2.00938E-03-6.74417E-15
 -1      1141 5.06215E-03-1.90552E-03-7.91300E-15
 -1      1142 5.42058E-03-1.71798E-03-9.26948E-15
 -1      1143 5.84348E-03-1.54793E-03-1.07484E-14
 -1      1144 6.29178E-03-1.44930E-03-1.23314E-14
 -1      1145 6.73246E-03-1.42768E-03-1.40042E-14
 -1      1146 7.14895E-03-1.46593E-03-1.57682E-14
 -1      1147 7.53738E-03-1.54378E-03-1.76198E-14
 -1      1148 7.90031E-03-1.64546E-03-1.95558E-14
 -1      1149 8.25080E-03-1.76355E-03-2.16308E-14
 -1      1150 8.58464E-03-1.88895E-03-2.37984E-14
 -1      1151 8.89846E-03-2.01457E-03-2.59981E-14
 -1      1152 9.20378E-03-2.14135E-03-2.82733E-14
 -1      1153 9.50297E-03-2.26818E-03-3.06251E-14
 -1      1154 9.79779E-03-2.39449E-03-3.30478E-14
 -1      1155 1.00895E-02-2.52000E-03-3.55497E-14
 -1      1156 1.03791E-02-2.64464E-03-3.81293E-14
 -1      1157 1.06671E-02-2.76840E-03-4.07893E-14
 -1      1158 1.09541E-02-2.89135E-03-4.35145E-14
 -1      1159 1.12405E-02-3.01359E-03-4.63123E-14
 -1      1160 1.15264E-02-3.13520E-03-4.91678E-14
 -1      1161 1.18120E-02-3.25629E-03-5.20598E-14
 -1      1162 1.20974E-02-3.37695E-03-5.50078E-14
 -1      1163 1.23900E-02-3.50025E-03-5.80932E-14
 -1      1164 1.26825E-02-3.62326E-03-6.12344E-14
 -1      1165 1.29678E-02-3.74304E-03-6.43431E-14
 -1      1166 1.32532E-02-3.86265E-03-6.75136E-14
 -1      1167 1.35387E-02-3.98213E-03-7.07377E-14
 -1      1168 1.38242E-02-4.10151E-03-7.39977E-14
 -1      1169 1.41097E-02-4.22082E-03-7.72919E-14
 -1      1170 1.43953E-02-4.34009E-03-8.06191E-14
 -1      1171 1.46809E-02-4.45932E-03-8.39705E-14
 -1      1172 1.49665E-02-4.57853E-03-8.73182E-14
 -1      1173 1.52522E-02-4.69774E-03-9.06647E-14
 -1      1174 1.55379E-02-4.81695E-03-9.40315E-14
 -1      1175 1.58236E-02-4.93617E-03-9.74245E-14
 -1      1176 1.61093E-02-5.05541E-03-1.00840E-13
 -1      1177 2.32627E-04 1.59007E-04 2.40557E-17
 -1      1178 5.70883E-04 3.32468E-04 2.07760E-17
 -1      1179 8.69391E-04 4.45438E-04-5.67173E-17
 -1      1180 1.16028E-03 5.25741E-04-2.19646E-16
 -1      1181 1.44883E-03 5.88787E-04-4.70571E-16
 -1      1182 1.73664E-03 6.42812E-04-8.12948E-16
 -1      1183 2.02300E-03 6.92190E-04-1.24931E-15
 -1      1184 2.30568E-03 7.38515E-04-1.77901E-15
 -1      1185 2.58172E-03 7.80668E-04-2.40499E-15
 -1      1186 2.84836E-03 8.14783E-04-3.12939E-15
 -1      1187 3.10408E-03 8.34695E-04-3.95555E-15
 -1      1188 3.34960E-03 8.33166E-04-4.88581E-15
 -1      1189 3.58824E-03 8.03833E-04-5.92153E-15
 -1      1190 3.82541E-03 7.43257E-04-7.06535E-15
 -1      1191 4.06725E-03 6.52195E-04-8.31456E-15
 -1      1192 4.31889E-03 5.35500E-04-9.67095E-15
 -1      1193 4.58324E-03 4.00689E-04-1.11331E-14
 -1      1194 4.86063E-03 2.55931E-04-1.26990E-14
 -1      1195 5.14923E-03 1.08301E-04-1.43604E-14
 -1      1196 5.44602E-03-3.71916E-05-1.61187E-14
 -1      1197 5.74774E-03-1.77746E-04-1.79736E-14
 -1      1198 6.05149E-03-3.12381E-04-1.99255E-14
 -1      1199 6.35510E-03-4.41337E-04-2.19706E-14
 -1      1200 6.65716E-03-5.65516E-04-2.41072E-14
 -1      1201 6.95691E-03-6.86060E-04-2.63360E-14
 -1      1202 7.25410E-03-8.04083E-04-2.86519E-14
 -1      1203 7.54881E-03-9.20538E-04-3.10637E-14
 -1      1204 7.84129E-03-1.03617E-03-3.35718E-14
 -1      1205 8.13190E-03-1.15152E-03-3.61586E-14
 -1      1206 8.42099E-03-1.26694E-03-3.88170E-14
 -1      1207 8.70891E-03-1.38266E-03-4.15455E-14
 -1      1208 8.99597E-03-1.49879E-03-4.43460E-14
 -1      1209 9.28239E-03-1.61537E-03-4.72035E-14
 -1      1210 9.56838E-03-1.73240E-03-5.01036E-14
 -1      1211 9.85409E-03-1.84984E-03-5.30455E-14
 -1      1212 1.01396E-02-1.96764E-03-5.60419E-14
 -1      1213 1.04251E-02-2.08575E-03-5.90876E-14
 -1      1214 1.07105E-02-2.20413E-03-6.21702E-14
 -1      1215 1.09959E-02-2.32270E-03-6.52920E-14
 -1      1216 1.12813E-02-2.44145E-03-6.84569E-14
 -1      1217 1.15667E-02-2.56031E-03-7.16683E-14
 -1      1218 1.18522E-02-2.67928E-03-7.49185E-14
 -1      1219 1.21378E-02-2.79831E-03-7.81964E-14
 -1      1220 1.24234E-02-2.91739E-03-8.15093E-14
 -1      1221 1.27090E-02-3.03650E-03-8.48454E-14
 -1      1222 1.29946E-02-3.15563E-03-8.81985E-14
 -1      1223 1.32803E-02-3.27477E-03-9.15615E-14
 -1      1224 1.35660E-02-3.39390E-03-9.49340E-14
 -1      1225 1.38517E-02-3.51302E-03-9.83096E-14
 -1      1226 1.41302E-02-3.62915E-03-1.01607E-13
 -1      1227 1.43245E-02-3.72786E-03-1.03211E-13
 -1      1228 1.44416E-02-3.81215E-03-1.03217E-13
 -1      1229 1.45587E-02-3.89644E-03-1.03225E-13
 -1      1230 1.46758E-02-3.98075E-03-1.03271E-13
 -1      1231 1.47929E-02-4.06507E-03-1.03337E-13
 -1      1232 1.49090E-02-4.14870E-03-1.03359E-13
 -1      1233 1.50251E-02-4.23234E-03-1.03372E-13
 -1      1234 1.51423E-02-4.31671E-03-1.03357E-13
 -1      1235 1.52595E-02-4.40109E-03-1.03322E-13
 -1      1236 1.53767E-02-4.48546E-03-1.03277E-13
 -1      1237 1.54939E-02-4.56983E-03-1.03194E-13
 -1      1238 1.56101E-02-4.65348E-03-1.03102E-13
 -1      1239 1.57264E-02-4.73711E-03-1.03032E-13
 -1      1240 1.58437E-02-4.82143E-03-1.02951E-13
 -1      1241 1.59610E-02-4.90574E-03-1.02864E-13
 -1      1242 1.60782E-02-4.99003E-03-1.02743E-13
 -1      1243 1.61945E-02-5.07360E-03-1.02592E-13
 -1      1244 6.62067E-03-6.58100E-04-9.69037E-15
 -1      1245 6.44030E-03-4.92643E-04-9.56981E-15
 -1      1246 6.16738E-03-3.27651E-04-9.31999E-15
 -1      1247 5.82797E-03-1.64485E-04-8.96340E-15
 -1      1248 5.44279E-03-1.06854E-05-8.52711E-15
 -1      1249 5.01829E-03 1.24061E-04-8.01957E-15
 -1      1250 4.54973E-03 2.26659E-04-7.43535E-15
 -1      1251 4.06769E-03 2.76716E-04-6.82543E-15
 -1      1252 3.61007E-03 2.63120E-04-6.25628E-15
 -1      1253 3.17651E-03 1.98844E-04-5.73996E-15
 -1      1254 2.79253E-03 9.87577E-05-5.30679E-15
 -1      1255 2.46484E-03-2.20343E-05-4.95240E-15
 -1      1256 2.19285E-03-1.60463E-04-4.66546E-15
 -1      1257 2.01072E-03-3.07189E-04-4.46867E-15
 -1      1258 1.94325E-03-4.53197E-04-4.37324E-15
 -1      1259 1.99261E-03-6.14035E-04-4.37254E-15
 -1      1260 2.15825E-03-7.90770E-04-4.47308E-15
 -1      1261 2.43689E-03-9.89171E-04-4.67690E-15
 -1      1262 2.81533E-03-1.20644E-03-4.98653E-15
 -1      1263 3.24761E-03-1.41255E-03-5.37279E-15
 -1      1264 3.72170E-03-1.58575E-03-5.83133E-15
 -1      1265 4.21760E-03-1.69668E-03-6.35028E-15
 -1      1266 4.69522E-03-1.72488E-03-6.89238E-15
 -1      1267 5.14227E-03-1.67506E-03-7.43624E-15
 -1      1268 5.55755E-03-1.56849E-03-7.96772E-15
 -1      1269 5.92960E-03-1.42604E-03-8.46339E-15
 -1      1270 6.24517E-03-1.26738E-03-8.90908E-15
 -1      1271 6.48252E-03-1.11035E-03-9.26928E-15
 -1      1272 6.63265E-03-9.57385E-04-9.52600E-15
 -1      1273 6.68235E-03-8.12457E-04-9.66463E-15
 -1      1274 1.75402E-04-1.01974E-04 4.26905E-18
 -1      1275 1.19368E-04-4.46639E-05-1.27800E-17
 -1      1276 1.25231E-04-5.69985E-05-8.21283E-18
 -1      1277 1.12240E-04-2.91253E-05-2.06541E-17
 -1      1278 1.15668E-04-3.57772E-05-1.81333E-17
 -1      1279 2.39282E-04-8.24092E-05-4.24194E-17
 -1      1280 1.07153E-04-1.98401E-05-2.51670E-17
 -1      1281 1.09730E-04-2.39122E-05-2.37711E-17
 -1      1282 2.24904E-04-5.53686E-05-5.67580E-17
 -1      1283 1.03219E-04-1.43883E-05-2.79860E-17
 -1      1284 1.05144E-04-1.68495E-05-2.72541E-17
 -1      1285 2.14099E-04-3.88084E-05-6.55807E-17
 -1      1286 1.00558E-04-1.13143E-05-2.95581E-17
 -1      1287 1.01793E-04-1.27990E-05-2.92057E-17
 -1      1288 2.06097E-04-2.89061E-05-7.10695E-17
 -1      1289 9.91485E-05-9.29124E-06-3.05609E-17
 -1      1290 9.97188E-05-1.04134E-05-3.04254E-17
 -1      1291 2.00942E-04-2.28384E-05-7.42814E-17
 -1      1292 9.89758E-05-7.30843E-06-3.08727E-17
 -1      1293 9.89259E-05-8.52164E-06-3.08727E-17
 -1      1294 1.98672E-04-1.82980E-05-7.60297E-17
 -1      1295 9.98106E-05-4.55341E-06-3.08184E-17
 -1      1296 9.92753E-05-6.20419E-06-3.09946E-17
 -1      1297 1.99038E-04-1.34161E-05-7.65311E-17
 -1      1298 1.01346E-04-5.31999E-07-3.01679E-17
 -1      1299 1.00485E-04-2.81749E-06-3.03983E-17
 -1      1300 2.01435E-04-6.80167E-06-7.58942E-17
 -1      1301 1.03289E-04 4.96315E-06-2.91244E-17
 -1      1302 1.02242E-04 1.96839E-06-2.94632E-17
 -1      1303 2.05152E-04 2.34006E-06-7.41052E-17
 -1      1304 1.05403E-04 1.18335E-05-2.75387E-17
 -1      1305 1.04270E-04 8.18819E-06-2.81079E-17
 -1      1306 2.09537E-04 1.42041E-05-7.13676E-17
 -1      1307 1.07718E-04 2.03431E-05-2.50857E-17
 -1      1308 1.06445E-04 1.58759E-05-2.59937E-17
 -1      1309 2.14272E-04 2.89308E-05-6.71528E-17
 -1      1310 1.10394E-04 3.06501E-05-2.11690E-17
 -1      1311 1.08832E-04 2.52298E-05-2.26598E-17
 -1      1312 2.19439E-04 4.68872E-05-6.06611E-17
 -1      1313 1.14127E-04 4.37533E-05-1.50704E-17
 -1      1314 1.11749E-04 3.67426E-05-1.78080E-17
 -1      1315 2.25637E-04 6.88717E-05-5.08355E-17
 -1      1316 1.21527E-04 6.32237E-05-5.05509E-18
 -1      1317 1.16536E-04 5.22737E-05-9.93400E-18
 -1      1318 2.35079E-04 9.77960E-05-3.59549E-17
 -1      1319 1.62350E-04 1.07470E-04 1.06116E-17
 -1      1320 1.40920E-04 8.23273E-05 1.09775E-18
 -1      1321 2.66657E-04 1.43269E-04-1.76183E-17
 -1      1322 3.46294E-04 2.14222E-04 8.56520E-18
 -1      1323 4.47052E-04-2.36615E-04-1.25090E-17
 -1      1324 6.14145E-04-3.00305E-04-3.96276E-17
 -1      1325 7.77679E-04-3.50655E-04-8.86606E-17
 -1      1326 9.39821E-04-3.91239E-04-1.58307E-16
 -1      1327 6.59743E-04-2.85001E-04-9.02463E-17
 -1      1328 1.10177E-03-4.25469E-04-2.47794E-16
 -1      1329 1.26481E-03-4.54954E-04-3.58017E-16
 -1      1330 9.86788E-04-3.67267E-04-2.37820E-16
 -1      1331 1.43015E-03-4.81915E-04-4.89029E-16
 -1      1332 1.59869E-03-5.07656E-04-6.41075E-16
 -1      1333 1.31288E-03-4.26221E-04-4.65868E-16
 -1      1334 1.77131E-03-5.34087E-04-8.13802E-16
 -1      1335 1.94865E-03-5.62817E-04-1.00798E-15
 -1      1336 1.64581E-03-4.76636E-04-7.76140E-16
 -1      1337 2.13128E-03-5.96110E-04-1.22335E-15
 -1      1338 2.31946E-03-6.36103E-04-1.46016E-15
 -1      1339 1.99136E-03-5.32323E-04-1.16927E-15
 -1      1340 2.51333E-03-6.85805E-04-1.71841E-15
 -1      1341 2.71244E-03-7.47809E-04-1.99839E-15
 -1      1342 2.35354E-03-6.10135E-04-1.64698E-15
 -1      1343 2.91619E-03-8.25536E-04-2.29950E-15
 -1      1344 3.12290E-03-9.21270E-04-2.62245E-15
 -1      1345 2.73407E-03-7.31834E-04-2.20988E-15
 -1      1346 3.33099E-03-1.03701E-03-2.96806E-15
 -1      1347 3.53714E-03-1.17224E-03-3.33675E-15
 -1      1348 3.13110E-03-9.21318E-04-2.85839E-15
 -1      1349 3.73893E-03-1.32389E-03-3.72864E-15
 -1      1350 3.93229E-03-1.48477E-03-4.14640E-15
 -1      1351 3.53657E-03-1.19125E-03-3.59756E-15
 -1      1352 4.10643E-03-1.63626E-03-4.56768E-15
 -1      1353 4.26976E-03-1.77324E-03-5.01328E-15
 -1      1354 3.92450E-03-1.50754E-03-4.41227E-15
 -1      1355 4.43057E-03-1.88805E-03-5.51097E-15
 -1      1356 4.58478E-03-1.95977E-03-6.03926E-15
 -1      1357 4.28827E-03-1.79389E-03-5.33089E-15
 -1      1358 4.72064E-03-1.98179E-03-6.54082E-15
 -1      1359 4.86060E-03-1.96360E-03-7.06622E-15
 -1      1360 4.61983E-03-1.93749E-03-6.33411E-15
 -1      1361 5.02334E-03-1.90427E-03-7.68226E-15
 -1      1362 5.19821E-03-1.81663E-03-8.33100E-15
 -1      1363 4.95273E-03-1.89651E-03-7.45024E-15
 -1      1364 5.38562E-03-1.71546E-03-9.01059E-15
 -1      1365 5.58351E-03-1.61538E-03-9.71947E-15
 -1      1366 5.33014E-03-1.71573E-03-8.74958E-15
 -1      1367 5.78977E-03-1.52704E-03-1.04585E-14
 -1      1368 6.00029E-03-1.45702E-03-1.12261E-14
 -1      1369 5.73390E-03-1.51312E-03-1.01709E-14
 -1      1370 6.21261E-03-1.40789E-03-1.20173E-14
 -1      1371 6.42351E-03-1.37989E-03-1.28324E-14
 -1      1372 6.14520E-03-1.37363E-03-1.17038E-14
 -1      1373 6.63144E-03-1.37089E-03-1.36704E-14
 -1      1374 6.83482E-03-1.37863E-03-1.45294E-14
 -1      1375 6.54808E-03-1.31958E-03-1.33355E-14
 -1      1376 7.03306E-03-1.39987E-03-1.54119E-14
 -1      1377 7.22573E-03-1.43221E-03-1.63166E-14
 -1      1378 6.93471E-03-1.33734E-03-1.50571E-14
 -1      1379 7.41288E-03-1.47303E-03-1.72440E-14
 -1      1380 7.59471E-03-1.52046E-03-1.81921E-14
 -1      1381 7.30306E-03-1.40425E-03-1.68669E-14
 -1      1382 7.77157E-03-1.57284E-03-1.91606E-14
 -1      1383 7.94389E-03-1.62886E-03-2.01513E-14
 -1      1384 7.65406E-03-1.50117E-03-1.87644E-14
 -1      1385 8.12044E-03-1.69060E-03-2.12150E-14
 -1      1386 8.29303E-03-1.75434E-03-2.23019E-14
 -1      1387 7.99820E-03-1.61798E-03-2.07981E-14
 -1      1388 8.45416E-03-1.81643E-03-2.33595E-14
 -1      1389 8.61256E-03-1.87929E-03-2.44405E-14
 -1      1390 8.32937E-03-1.74391E-03-2.29225E-14
 -1      1391 8.76858E-03-1.94275E-03-2.55404E-14
 -1      1392 8.92255E-03-2.00644E-03-2.66590E-14
 -1      1393 8.64263E-03-1.87079E-03-2.50815E-14
 -1      1394 9.07476E-03-2.07030E-03-2.77966E-14
 -1      1395 9.22546E-03-2.13411E-03-2.89548E-14
 -1      1396 8.94844E-03-1.99906E-03-2.73202E-14
 -1      1397 9.37488E-03-2.19787E-03-3.01294E-14
 -1      1398 9.52320E-03-2.26143E-03-3.13211E-14
 -1      1399 9.24862E-03-2.12734E-03-2.96342E-14
 -1      1400 9.67058E-03-2.32483E-03-3.25333E-14
 -1      1401 9.81718E-03-2.38798E-03-3.37668E-14
 -1      1402 9.54460E-03-2.25497E-03-3.20210E-14
 -1      1403 9.96310E-03-2.45091E-03-3.50186E-14
 -1      1404 1.01085E-02-2.51357E-03-3.62868E-14
 -1      1405 9.83749E-03-2.38162E-03-3.44832E-14
 -1      1406 1.02533E-02-2.57601E-03-3.75764E-14
 -1      1407 1.03978E-02-2.63819E-03-3.88853E-14
 -1      1408 1.01281E-02-2.50721E-03-3.70248E-14
 -1      1409 1.05420E-02-2.70015E-03-4.02128E-14
 -1      1410 1.06858E-02-2.76188E-03-4.15581E-14
 -1      1411 1.04171E-02-2.63177E-03-3.96397E-14
 -1      1412 1.08295E-02-2.82342E-03-4.29205E-14
 -1      1413 1.09729E-02-2.88475E-03-4.42984E-14
 -1      1414 1.07050E-02-2.75537E-03-4.23258E-14
 -1      1415 1.11162E-02-2.94590E-03-4.56940E-14
 -1      1416 1.12593E-02-3.00688E-03-4.71072E-14
 -1      1417 1.09920E-02-2.87813E-03-4.50793E-14
 -1      1418 1.14024E-02-3.06772E-03-4.85310E-14
 -1      1419 1.15454E-02-3.12840E-03-4.99650E-14
 -1      1420 1.12784E-02-3.00015E-03-4.78970E-14
 -1      1421 1.16883E-02-3.18896E-03-5.14121E-14
 -1      1422 1.18311E-02-3.24940E-03-5.28710E-14
 -1      1423 1.15645E-02-3.12157E-03-5.07632E-14
 -1      1424 1.19739E-02-3.30973E-03-5.43452E-14
 -1      1425 1.21167E-02-3.36997E-03-5.58325E-14
 -1      1426 1.18503E-02-3.24247E-03-5.36820E-14
 -1      1427 1.22666E-02-3.43313E-03-5.74086E-14
 -1      1428 1.24165E-02-3.49620E-03-5.90018E-14
 -1      1429 1.21431E-02-3.36597E-03-5.67286E-14
 -1      1430 1.25592E-02-3.55621E-03-6.05324E-14
 -1      1431 1.27019E-02-3.61615E-03-6.20727E-14
 -1      1432 1.24359E-02-3.48913E-03-5.98312E-14
 -1      1433 1.28446E-02-3.67604E-03-6.36276E-14
 -1      1434 1.29874E-02-3.73588E-03-6.51948E-14
 -1      1435 1.27214E-02-3.60901E-03-6.29116E-14
 -1      1436 1.31301E-02-3.79568E-03-6.67792E-14
 -1      1437 1.32728E-02-3.85545E-03-6.83780E-14
 -1      1438 1.30069E-02-3.72870E-03-6.60465E-14
 -1      1439 1.34156E-02-3.91519E-03-6.99866E-14
 -1      1440 1.35583E-02-3.97490E-03-7.16041E-14
 -1      1441 1.32925E-02-3.84823E-03-6.92359E-14
 -1      1442 1.37011E-02-4.03459E-03-7.32329E-14
 -1      1443 1.38439E-02-4.09425E-03-7.48723E-14
 -1      1444 1.35780E-02-3.96765E-03-7.24717E-14
 -1      1445 1.39866E-02-4.15391E-03-7.65186E-14
 -1      1446 1.41294E-02-4.21355E-03-7.81720E-14
 -1      1447 1.38636E-02-4.08699E-03-7.57457E-14
 -1      1448 1.42722E-02-4.27318E-03-7.98332E-14
 -1      1449 1.44150E-02-4.33280E-03-8.15016E-14
 -1      1450 1.41492E-02-4.20626E-03-7.90499E-14
 -1      1451 1.45578E-02-4.39241E-03-8.31741E-14
 -1      1452 1.47006E-02-4.45202E-03-8.48462E-14
 -1      1453 1.44348E-02-4.32550E-03-8.23791E-14
 -1      1454 1.48435E-02-4.51162E-03-8.65184E-14
 -1      1455 1.49863E-02-4.57122E-03-8.81921E-14
 -1      1456 1.47204E-02-4.44471E-03-8.57211E-14
 -1      1457 1.51291E-02-4.63083E-03-8.98698E-14
 -1      1458 1.52720E-02-4.69043E-03-9.15500E-14
 -1      1459 1.50061E-02-4.56392E-03-8.90699E-14
 -1      1460 1.54148E-02-4.75003E-03-9.32368E-14
 -1      1461 1.55577E-02-4.80964E-03-9.49293E-14
 -1      1462 1.52918E-02-4.68312E-03-9.24384E-14
 -1      1463 1.57005E-02-4.86925E-03-9.66294E-14
 -1      1464 1.58434E-02-4.92887E-03-9.83321E-14
 -1      1465 1.55775E-02-4.80233E-03-9.58277E-14
 -1      1466 1.59475E-02-4.97142E-03-9.96130E-14
 -1      1467 1.60904E-02-5.03104E-03-1.01318E-13
 -1      1468 1.60327E-02-4.98961E-03-1.01382E-13
 -1      1469 1.58245E-02-4.90450E-03-9.88133E-14
 -1      1470 6.69249E-04 3.57171E-04-3.30411E-17
 -1      1471 5.11198E-04 2.92719E-04-2.00577E-18
 -1      1472 4.63145E-04 2.53600E-04-2.13181E-17
 -1      1473 9.72946E-04 4.52823E-04-1.58050E-16
 -1      1474 8.22681E-04 4.08852E-04-8.51370E-17
 -1      1475 7.78709E-04 3.71292E-04-1.09166E-16
 -1      1476 1.26810E-03 5.24035E-04-3.67233E-16
 -1      1477 1.12110E-03 4.90629E-04-2.51630E-16
 -1      1478 1.08253E-03 4.54786E-04-2.79304E-16
 -1      1479 1.55970E-03 5.82353E-04-6.65266E-16
 -1      1480 1.41413E-03 5.54415E-04-5.04913E-16
 -1      1481 1.37956E-03 5.19529E-04-5.34783E-16
 -1      1482 1.84918E-03 6.34069E-04-1.05468E-15
 -1      1483 1.70466E-03 6.08861E-04-8.48442E-16
 -1      1484 1.67300E-03 5.74529E-04-8.79478E-16
 -1      1485 2.13590E-03 6.82394E-04-1.53702E-15
 -1      1486 1.99296E-03 6.58649E-04-1.28414E-15
 -1      1487 1.96375E-03 6.24756E-04-1.31511E-15
 -1      1488 2.41804E-03 7.27799E-04-2.11293E-15
 -1      1489 2.27768E-03 7.05620E-04-1.81329E-15
 -1      1490 2.25117E-03 6.72322E-04-1.84306E-15
 -1      1491 2.69342E-03 7.67913E-04-2.78664E-15
 -1      1492 2.55672E-03 7.48833E-04-2.43726E-15
 -1      1493 2.53377E-03 7.16481E-04-2.46606E-15
 -1      1494 2.96036E-03 7.97614E-04-3.55990E-15
 -1      1495 2.82803E-03 7.84491E-04-3.16077E-15
 -1      1496 2.80998E-03 7.53534E-04-3.18722E-15
 -1      1497 3.21853E-03 8.09815E-04-4.43459E-15
 -1      1498 3.09051E-03 8.06343E-04-3.98440E-15
 -1      1499 3.07888E-03 7.77180E-04-4.00908E-15
 -1      1500 3.46957E-03 7.97117E-04-5.41512E-15
 -1      1501 3.34478E-03 8.06907E-04-4.91130E-15
 -1      1502 3.34093E-03 7.79726E-04-4.93307E-15
 -1      1503 3.71701E-03 7.54009E-04-6.50168E-15
 -1      1504 3.59346E-03 7.79465E-04-5.94463E-15
 -1      1505 3.59823E-03 7.54132E-04-5.96299E-15
 -1      1506 3.96560E-03 6.78779E-04-7.69361E-15
 -1      1507 3.84084E-03 7.20232E-04-7.08435E-15
 -1      1508 3.85429E-03 6.96282E-04-7.09946E-15
 -1      1509 4.22001E-03 5.74250E-04-8.99332E-15
 -1      1510 4.09180E-03 6.29765E-04-8.33055E-15
 -1      1511 4.11318E-03 6.06528E-04-8.34162E-15
 -1      1512 4.48365E-03 4.46964E-04-1.03984E-14
 -1      1513 4.35051E-03 5.12919E-04-9.68297E-15
 -1      1514 4.37837E-03 4.89715E-04-9.69049E-15
 -1      1515 4.75794E-03 3.05279E-04-1.19079E-14
 -1      1516 4.61943E-03 3.77401E-04-1.11402E-14
 -1      1517 4.65195E-03 3.53701E-04-1.11431E-14
 -1      1518 5.04238E-03 1.57275E-04-1.35170E-14
 -1      1519 4.89898E-03 2.31656E-04-1.27003E-14
 -1      1520 4.93427E-03 2.07171E-04-1.26982E-14
 -1      1521 5.33501E-03 9.28005E-06-1.52229E-14
 -1      1522 5.18782E-03 8.30149E-05-1.43581E-14
 -1      1523 5.22427E-03 5.76847E-05-1.43514E-14
 -1      1524 5.63326E-03-1.34697E-04-1.70253E-14
 -1      1525 5.48360E-03-6.33326E-05-1.61120E-14
 -1      1526 5.51998E-03-8.94030E-05-1.61019E-14
 -1      1527 5.93455E-03-2.72797E-04-1.89244E-14
 -1      1528 5.78368E-03-2.04500E-04-1.79625E-14
 -1      1529 5.81922E-03-2.31121E-04-1.79480E-14
 -1      1530 6.23671E-03-4.04747E-04-2.09186E-14
 -1      1531 6.08565E-03-3.39497E-04-1.99098E-14
 -1      1532 6.11998E-03-3.66459E-04-1.98902E-14
 -1      1533 6.53819E-03-5.31231E-04-2.30035E-14
 -1      1534 6.38762E-03-4.68600E-04-2.19494E-14
 -1      1535 6.42069E-03-4.95717E-04-2.19256E-14
 -1      1536 6.83799E-03-6.53370E-04-2.51839E-14
 -1      1537 6.68835E-03-5.92766E-04-2.40829E-14
 -1      1538 6.72027E-03-6.19894E-04-2.40539E-14
 -1      1539 7.13567E-03-7.72368E-04-2.74508E-14
 -1      1540 6.98712E-03-7.13192E-04-2.63057E-14
 -1      1541 7.01811E-03-7.40232E-04-2.62722E-14
 -1      1542 7.43108E-03-8.89311E-04-2.98083E-14
 -1      1543 7.28366E-03-8.31040E-04-2.86185E-14
 -1      1544 7.31396E-03-8.57936E-04-2.85801E-14
 -1      1545 7.72437E-03-1.00508E-03-3.22612E-14
 -1      1546 7.57798E-03-9.47301E-04-3.10229E-14
 -1      1547 7.60782E-03-9.74026E-04-3.09787E-14
 -1      1548 8.01578E-03-1.12033E-03-3.48012E-14
 -1      1549 7.87030E-03-1.06274E-03-3.35206E-14
 -1      1550 7.89985E-03-1.08929E-03-3.34679E-14
 -1      1551 8.30562E-03-1.23552E-03-3.74163E-14
 -1      1552 8.16088E-03-1.17791E-03-3.60994E-14
 -1      1553 8.19029E-03-1.20430E-03-3.60380E-14
 -1      1554 8.59419E-03-1.35093E-03-4.01039E-14
 -1      1555 8.45004E-03-1.29319E-03-3.87513E-14
 -1      1556 8.47942E-03-1.31943E-03-3.86832E-14
 -1      1557 8.88178E-03-1.46673E-03-4.28603E-14
 -1      1558 8.73809E-03-1.40878E-03-4.14739E-14
 -1      1559 8.76751E-03-1.43491E-03-4.13990E-14
 -1      1560 9.16865E-03-1.58300E-03-4.56823E-14
 -1      1561 9.02529E-03-1.52481E-03-4.42632E-14
 -1      1562 9.05479E-03-1.55084E-03-4.41805E-14
 -1      1563 9.45498E-03-1.69974E-03-4.85543E-14
 -1      1564 9.31187E-03-1.64131E-03-4.71125E-14
 -1      1565 9.34147E-03-1.66726E-03-4.70206E-14
 -1      1566 9.74096E-03-1.81692E-03-5.14742E-14
 -1      1567 9.59801E-03-1.75828E-03-5.00083E-14
 -1      1568 9.62772E-03-1.78417E-03-4.99113E-14
 -1      1569 1.00267E-02-1.93451E-03-5.44343E-14
 -1      1570 9.88385E-03-1.87567E-03-5.29479E-14
 -1      1571 9.91366E-03-1.90152E-03-5.28468E-14
 -1      1572 1.03123E-02-2.05245E-03-5.74503E-14
 -1      1573 1.01695E-02-1.99345E-03-5.59368E-14
 -1      1574 1.01994E-02-2.01926E-03-5.58302E-14
 -1      1575 1.05978E-02-2.17069E-03-6.05104E-14
 -1      1576 1.04550E-02-2.11154E-03-5.89745E-14
 -1      1577 1.04850E-02-2.13733E-03-5.88602E-14
 -1      1578 1.08833E-02-2.28916E-03-6.36053E-14
 -1      1579 1.07405E-02-2.22989E-03-6.20531E-14
 -1      1580 1.07706E-02-2.25567E-03-6.19327E-14
 -1      1581 1.11687E-02-2.40782E-03-6.67458E-14
 -1      1582 1.10260E-02-2.34846E-03-6.51690E-14
 -1      1583 1.10561E-02-2.37423E-03-6.50469E-14
 -1      1584 1.14542E-02-2.52662E-03-6.99307E-14
 -1      1585 1.13115E-02-2.46720E-03-6.83333E-14
 -1      1586 1.13416E-02-2.49296E-03-6.82060E-14
 -1      1587 1.17397E-02-2.64554E-03-7.31588E-14
 -1      1588 1.15970E-02-2.58607E-03-7.15402E-14
 -1      1589 1.16272E-02-2.61183E-03-7.14101E-14
 -1      1590 1.20253E-02-2.76454E-03-7.64191E-14
 -1      1591 1.18825E-02-2.70503E-03-7.47847E-14
 -1      1592 1.19127E-02-2.73079E-03-7.46515E-14
 -1      1593 1.23108E-02-2.88360E-03-7.97108E-14
 -1      1594 1.21680E-02-2.82407E-03-7.80611E-14
 -1      1595 1.21983E-02-2.84982E-03-7.79229E-14
 -1      1596 1.25964E-02-3.00270E-03-8.30299E-14
 -1      1597 1.24536E-02-2.94315E-03-8.13675E-14
 -1      1598 1.24839E-02-2.96891E-03-8.12267E-14
 -1      1599 1.28821E-02-3.12183E-03-8.63748E-14
 -1      1600 1.27392E-02-3.06226E-03-8.46997E-14
 -1      1601 1.27695E-02-3.08802E-03-8.45532E-14
 -1      1602 1.31677E-02-3.24096E-03-8.97245E-14
 -1      1603 1.30249E-02-3.18139E-03-8.80488E-14
 -1      1604 1.30552E-02-3.20716E-03-8.78980E-14
 -1      1605 1.34534E-02-3.36010E-03-9.30920E-14
 -1      1606 1.33106E-02-3.30053E-03-9.14067E-14
 -1      1607 1.33408E-02-3.32630E-03-9.12550E-14
 -1      1608 1.37391E-02-3.47923E-03-9.64671E-14
 -1      1609 1.35962E-02-3.41966E-03-9.47781E-14
 -1      1610 1.36265E-02-3.44543E-03-9.46231E-14
 -1      1611 1.40248E-02-3.59834E-03-9.98443E-14
 -1      1612 1.38820E-02-3.53879E-03-9.81561E-14
 -1      1613 1.39122E-02-3.56456E-03-9.80007E-14
 -1      1614 1.41888E-02-3.67129E-03-1.01606E-13
 -1      1615 1.43472E-02-3.78165E-03-1.01756E-13
 -1      1616 1.42886E-02-3.73951E-03-1.01753E-13
 -1      1617 1.44643E-02-3.86595E-03-1.01770E-13
 -1      1618 1.44057E-02-3.82380E-03-1.01763E-13
 -1      1619 1.42527E-02-3.75115E-03-1.00295E-13
 -1      1620 1.45814E-02-3.95026E-03-1.01813E-13
 -1      1621 1.45228E-02-3.90810E-03-1.01784E-13
 -1      1622 1.43698E-02-3.83546E-03-1.00312E-13
 -1      1623 1.46985E-02-4.03459E-03-1.01853E-13
 -1      1624 1.46399E-02-3.99242E-03-1.01839E-13
 -1      1625 1.44869E-02-3.91977E-03-1.00345E-13
 -1      1626 1.48136E-02-4.11750E-03-1.01870E-13
 -1      1627 1.47560E-02-4.07604E-03-1.01864E-13
 -1      1628 1.46030E-02-4.00338E-03-1.00374E-13
 -1      1629 1.49307E-02-4.20185E-03-1.01874E-13
 -1      1630 1.48721E-02-4.15967E-03-1.01875E-13
 -1      1631 1.47191E-02-4.08700E-03-1.00383E-13
 -1      1632 1.50478E-02-4.28621E-03-1.01852E-13
 -1      1633 1.49893E-02-4.24403E-03-1.01865E-13
 -1      1634 1.48363E-02-4.17135E-03-1.00375E-13
 -1      1635 1.51650E-02-4.37058E-03-1.01814E-13
 -1      1636 1.51064E-02-4.32839E-03-1.01834E-13
 -1      1637 1.49534E-02-4.25571E-03-1.00348E-13
 -1      1638 1.52822E-02-4.45494E-03-1.01762E-13
 -1      1639 1.52236E-02-4.41276E-03-1.01792E-13
 -1      1640 1.50706E-02-4.34006E-03-1.00308E-13
 -1      1641 1.53995E-02-4.53930E-03-1.01680E-13
 -1      1642 1.53408E-02-4.49712E-03-1.01723E-13
 -1      1643 1.51878E-02-4.42442E-03-1.00248E-13
 -1      1644 1.55147E-02-4.62222E-03-1.01599E-13
 -1      1645 1.54571E-02-4.58076E-03-1.01638E-13
 -1      1646 1.53041E-02-4.50805E-03-1.00173E-13
 -1      1647 1.56320E-02-4.70655E-03-1.01524E-13
 -1      1648 1.55734E-02-4.66439E-03-1.01564E-13
 -1      1649 1.54203E-02-4.59167E-03-1.00096E-13
 -1      1650 1.57493E-02-4.79087E-03-1.01437E-13
 -1      1651 1.56907E-02-4.74871E-03-1.01484E-13
 -1      1652 1.55376E-02-4.67600E-03-1.00014E-13
 -1      1653 1.58666E-02-4.87517E-03-1.01342E-13
 -1      1654 1.58079E-02-4.83302E-03-1.01390E-13
 -1      1655 1.56549E-02-4.76031E-03-9.99248E-14
 -1      1656 1.59790E-02-4.95347E-03-1.01335E-13
 -1      1657 1.59203E-02-4.91132E-03-1.01400E-13
 -1      1658 1.57673E-02-4.83862E-03-9.99347E-14
 -1      1659 1.58748E-02-4.91091E-03-1.00047E-13
 -1      1660 6.59396E-03-6.88214E-04-1.00711E-14
 -1      1661 6.66411E-03-7.38288E-04-1.00966E-14
 -1      1662 6.35715E-03-5.44673E-04-9.81271E-15
 -1      1663 6.47866E-03-6.06568E-04-9.90804E-15
 -1      1664 6.01904E-03-3.88543E-04-9.51477E-15
 -1      1665 6.18530E-03-4.67544E-04-9.67915E-15
 -1      1666 5.64455E-03-2.02675E-04-9.08060E-15
 -1      1667 5.82093E-03-2.87062E-04-9.28068E-15
 -1      1668 5.23739E-03-1.19521E-05-8.56899E-15
 -1      1669 5.42933E-03-1.00716E-04-8.81542E-15
 -1      1670 4.82177E-03 1.58284E-04-8.00157E-15
 -1      1671 5.00843E-03 8.33111E-05-8.27160E-15
 -1      1672 4.38508E-03 2.88195E-04-7.33465E-15
 -1      1673 4.58721E-03 2.36254E-04-7.65441E-15
 -1      1674 3.97622E-03 3.24043E-04-6.68291E-15
 -1      1675 4.16086E-03 3.17619E-04-6.97096E-15
 -1      1676 3.58410E-03 2.79061E-04-6.06798E-15
 -1      1677 3.76498E-03 3.14373E-04-6.34112E-15
 -1      1678 3.17643E-03 1.60066E-04-5.54545E-15
 -1      1679 3.35680E-03 2.20094E-04-5.77826E-15
 -1      1680 2.79846E-03 1.87561E-05-5.11631E-15
 -1      1681 2.96664E-03 8.63271E-05-5.30546E-15
 -1      1682 2.45905E-03-1.26144E-04-4.76487E-15
 -1      1683 2.61083E-03-5.97389E-05-4.91748E-15
 -1      1684 2.16742E-03-2.71460E-04-4.46660E-15
 -1      1685 2.29705E-03-2.09819E-04-4.58684E-15
 -1      1686 1.97815E-03-3.79597E-04-4.30712E-15
 -1      1687 2.04799E-03-3.29810E-04-4.37548E-15
 -1      1688 1.92601E-03-4.79432E-04-4.23119E-15
 -1      1689 1.93349E-03-4.34333E-04-4.25420E-15
 -1      1690 2.01939E-03-5.90199E-04-4.23630E-15
 -1      1691 1.95575E-03-5.34820E-04-4.21216E-15
 -1      1692 2.24190E-03-7.40367E-04-4.37705E-15
 -1      1693 2.12636E-03-6.71249E-04-4.30931E-15
 -1      1694 2.61068E-03-9.26051E-04-4.58880E-15
 -1      1695 2.42648E-03-8.24174E-04-4.46236E-15
 -1      1696 3.02984E-03-1.17831E-03-4.94445E-15
 -1      1697 2.83066E-03-1.06490E-03-4.77935E-15
 -1      1698 3.47439E-03-1.43100E-03-5.37594E-15
 -1      1699 3.26406E-03-1.31698E-03-5.16977E-15
 -1      1700 3.92826E-03-1.64081E-03-5.87074E-15
 -1      1701 3.72469E-03-1.55113E-03-5.63078E-15
 -1      1702 4.36439E-03-1.76335E-03-6.44569E-15
 -1      1703 4.16521E-03-1.72063E-03-6.17377E-15
 -1      1704 4.76388E-03-1.76527E-03-7.02869E-15
 -1      1705 4.58501E-03-1.77730E-03-6.76398E-15
 -1      1706 5.15129E-03-1.66940E-03-7.63425E-15
 -1      1707 4.97061E-03-1.72688E-03-7.35506E-15
 -1      1708 5.54382E-03-1.51101E-03-8.20066E-15
 -1      1709 5.37034E-03-1.58875E-03-7.94349E-15
 -1      1710 5.91751E-03-1.32583E-03-8.74402E-15
 -1      1711 5.74631E-03-1.41363E-03-8.49764E-15
 -1      1712 6.24575E-03-1.15145E-03-9.22027E-15
 -1      1713 6.10187E-03-1.22916E-03-9.01223E-15
 -1      1714 6.50146E-03-1.00478E-03-9.60111E-15
 -1      1715 6.39358E-03-1.06891E-03-9.43980E-15
 -1      1716 6.65975E-03-8.83208E-04-9.88517E-15
 -1      1717 6.59950E-03-9.34269E-04-9.77902E-15
 -1      1718 6.69735E-03-7.87518E-04-9.99535E-15
 -1      1719 6.69506E-03-8.29960E-04-9.95254E-15
 -1      1720 5.86867E-03-4.04765E-04-9.64578E-15
 -1      1721 6.68908E-03-7.77185E-04-1.03956E-14
 -1      1722 1.42191E-02-3.69706E-03-1.01454E-13
 -1      1723 1.41246E-02-3.66656E-03-9.99900E-14
 -1      1724 6.53618E-03-7.02709E-04-1.03304E-14
 -1      1725 6.24172E-03-5.71671E-04-1.00263E-14
 -1      1726 5.46384E-03-1.97511E-04-9.13345E-15
 -1      1727 5.04824E-03 1.50800E-05-8.55894E-15
 -1      1728 4.63893E-03 2.07084E-04-7.90305E-15
 -1      1729 4.25603E-03 3.27818E-04-7.18604E-15
 -1      1730 3.87950E-03 3.44483E-04-6.48128E-15
 -1      1731 3.52063E-03 2.56737E-04-5.85800E-15
 -1      1732 3.13085E-03 1.05494E-04-5.33857E-15
 -1      1733 2.75502E-03-5.93879E-05-4.91074E-15
 -1      1734 2.40686E-03-2.18255E-04-4.54495E-15
 -1      1735 2.11835E-03-3.38127E-04-4.28762E-15
 -1      1736 1.94919E-03-4.20487E-04-4.15013E-15
 -1      1737 1.93244E-03-4.89439E-04-4.07993E-15
 -1      1738 2.07599E-03-5.75805E-04-4.13008E-15
 -1      1739 2.37365E-03-7.14523E-04-4.28085E-15
 -1      1740 2.78057E-03-9.22405E-04-4.54079E-15
 -1      1741 3.22683E-03-1.20245E-03-4.94211E-15
 -1      1742 3.67795E-03-1.47837E-03-5.41025E-15
 -1      1743 4.10035E-03-1.69853E-03-5.95878E-15
 -1      1744 4.48100E-03-1.80065E-03-6.57636E-15
 -1      1745 4.84383E-03-1.76968E-03-7.22222E-15
 -1      1746 5.20195E-03-1.63120E-03-7.86421E-15
 -1      1747 5.58478E-03-1.43633E-03-8.48020E-15
 -1      1748 5.95587E-03-1.23334E-03-9.05806E-15
 -1      1749 6.28747E-03-1.05968E-03-9.55835E-15
 -1      1750 6.54152E-03-9.28978E-04-9.96753E-15
 -1      1751 6.68335E-03-8.42958E-04-1.02240E-14
 -1      1752 3.04108E-04-1.56556E-04-1.61004E-17
 -1      1753 3.37494E-04-7.97684E-05-9.17642E-17
 -1      1754 3.47840E-04-9.53395E-05-8.35784E-17
 -1      1755 3.59750E-04-1.15019E-04-7.36986E-17
 -1      1756 3.74288E-04-1.39195E-04-6.06476E-17
 -1      1757 4.78077E-04-1.40847E-04-1.20604E-16
 -1      1758 3.08491E-04-4.36340E-05-1.10440E-16
 -1      1759 3.13862E-04-4.96864E-05-1.07363E-16
 -1      1760 3.01296E-04-3.42872E-05-1.14695E-16
 -1      1761 3.04263E-04-3.85598E-05-1.12784E-16
 -1      1762 4.10035E-04-5.71148E-05-1.65422E-16
 -1      1763 2.98961E-04-2.64611E-05-1.16674E-16
 -1      1764 2.99563E-04-3.03478E-05-1.15915E-16
 -1      1765 4.01763E-04-4.46604E-05-1.70559E-16
 -1      1766 3.00758E-04-1.75976E-05-1.16958E-16
 -1      1767 2.99424E-04-2.22783E-05-1.17013E-16
 -1      1768 4.00356E-04-3.31543E-05-1.72808E-16
 -1      1769 3.05557E-04-5.94955E-06-1.15468E-16
 -1      1770 3.02876E-04-1.21873E-05-1.16443E-16
 -1      1771 4.04501E-04-1.96149E-05-1.72497E-16
 -1      1772 3.12168E-04 9.41726E-06-1.12581E-16
 -1      1773 3.08714E-04 1.25164E-06-1.14248E-16
 -1      1774 4.12434E-04-2.12496E-06-1.70016E-16
 -1      1775 3.19547E-04 2.84843E-05-1.08014E-16
 -1      1776 3.15788E-04 1.84726E-05-1.10602E-16
 -1      1777 4.22382E-04 2.00358E-05-1.65571E-16
 -1      1778 3.27565E-04 5.20760E-05-1.01129E-16
 -1      1779 3.23480E-04 3.97731E-05-1.05019E-16
 -1      1780 4.33287E-04 4.73100E-05-1.58470E-16
 -1      1781 3.36466E-04 8.04608E-05-9.05309E-17
 -1      1782 3.31823E-04 6.56734E-05-9.65753E-17
 -1      1783 4.44984E-04 8.02663E-05-1.47872E-16
 -1      1784 3.47892E-04 1.15517E-04-7.47151E-17
 -1      1785 3.41675E-04 9.70869E-05-8.35920E-17
 -1      1786 4.58332E-04 1.19661E-04-1.32110E-16
 -1      1787 3.66842E-04 1.62196E-04-5.04832E-17
 -1      1788 3.55885E-04 1.37140E-04-6.40492E-17
 -1      1789 4.76376E-04 1.68262E-04-1.08352E-16
 -1      1790 4.25003E-04 2.20466E-04-3.24448E-17
 -1      1791 3.94149E-04 1.88112E-04-4.40728E-17
 -1      1792 5.17133E-04 2.24298E-04-8.61534E-17
 -1      1793 5.83177E-04 2.84986E-04-6.75458E-17
 -1      1794 3.64609E-04-1.61961E-04-3.82588E-17
 -1      1795 8.94143E-04 3.84310E-04-1.99507E-16
 -1      1796 7.39539E-04 3.38589E-04-1.23585E-16
 -1      1797 7.03849E-04 3.06691E-04-1.35308E-16
 -1      1798 4.91839E-04-1.95758E-04-7.70732E-17
 -1      1799 8.72090E-04-3.09931E-04-2.24159E-16
 -1      1800 1.03338E-03-3.43294E-04-3.21954E-16
 -1      1801 1.19395E-03-3.72243E-04-4.39386E-16
 -1      1802 1.35571E-03-3.97893E-04-5.77433E-16
 -1      1803 1.07717E-03-3.19972E-04-4.10343E-16
 -1      1804 1.51840E-03-4.22398E-04-7.35645E-16
 -1      1805 1.68331E-03-4.46814E-04-9.14321E-16
 -1      1806 1.39263E-03-3.70994E-04-6.92819E-16
 -1      1807 1.85048E-03-4.73409E-04-1.11343E-15
 -1      1808 2.02077E-03-5.03798E-04-1.33337E-15
 -1      1809 1.71178E-03-4.18969E-04-1.05601E-15
 -1      1810 2.19466E-03-5.40647E-04-1.57459E-15
 -1      1811 2.37229E-03-5.86457E-04-1.83629E-15
 -1      1812 2.03867E-03-4.77575E-04-1.50070E-15
 -1      1813 2.55515E-03-6.44159E-04-2.11922E-15
 -1      1814 2.74198E-03-7.17383E-04-2.42316E-15
 -1      1815 2.37881E-03-5.64663E-04-2.02796E-15
 -1      1816 2.93595E-03-8.08283E-04-2.74787E-15
 -1      1817 3.13315E-03-9.20775E-04-3.09530E-15
 -1      1818 2.74024E-03-7.03365E-04-2.63824E-15
 -1      1819 3.33835E-03-1.05383E-03-3.46535E-15
 -1      1820 3.54376E-03-1.20745E-03-3.85861E-15
 -1      1821 3.13216E-03-9.19194E-04-3.33341E-15
 -1      1822 3.74275E-03-1.36593E-03-4.25712E-15
 -1      1823 3.93775E-03-1.52701E-03-4.67873E-15
 -1      1824 3.54449E-03-1.21510E-03-4.10133E-15
 -1      1825 4.13781E-03-1.68613E-03-5.14958E-15
 -1      1826 4.33336E-03-1.81180E-03-5.64971E-15
 -1      1827 3.96774E-03-1.55727E-03-4.96753E-15
 -1      1828 4.49946E-03-1.88608E-03-6.12731E-15
 -1      1829 4.67013E-03-1.91233E-03-6.62907E-15
 -1      1830 4.36552E-03-1.81794E-03-5.91779E-15
 -1      1831 4.85501E-03-1.88657E-03-7.21606E-15
 -1      1832 5.05165E-03-1.81571E-03-7.83608E-15
 -1      1833 4.74985E-03-1.87365E-03-6.98110E-15
 -1      1834 5.25312E-03-1.71316E-03-8.48892E-15
 -1      1835 5.46020E-03-1.60237E-03-9.17117E-15
 -1      1836 5.16917E-03-1.71405E-03-8.22499E-15
 -1      1837 5.67160E-03-1.49705E-03-9.88195E-15
 -1      1838 5.87862E-03-1.40713E-03-1.06230E-14
 -1      1839 5.60555E-03-1.48104E-03-9.59351E-15
 -1      1840 6.08531E-03-1.33954E-03-1.13912E-14
 -1      1841 6.28405E-03-1.29379E-03-1.21842E-14
 -1      1842 6.02958E-03-1.30500E-03-1.10780E-14
 -1      1843 6.47957E-03-1.27060E-03-1.30012E-14
 -1      1844 6.66818E-03-1.26600E-03-1.38406E-14
 -1      1845 6.42188E-03-1.22272E-03-1.26670E-14
 -1      1846 6.85281E-03-1.27793E-03-1.47014E-14
 -1      1847 7.03237E-03-1.30291E-03-1.55843E-14
 -1      1848 6.78442E-03-1.22106E-03-1.43471E-14
 -1      1849 7.20806E-03-1.33835E-03-1.64905E-14
 -1      1850 7.38005E-03-1.38198E-03-1.74188E-14
 -1      1851 7.12614E-03-1.27537E-03-1.61150E-14
 -1      1852 7.54855E-03-1.43171E-03-1.83665E-14
 -1      1853 7.71424E-03-1.48615E-03-1.93374E-14
 -1      1854 7.45418E-03-1.36481E-03-1.79696E-14
 -1      1855 7.88500E-03-1.54686E-03-2.03799E-14
 -1      1856 8.05333E-03-1.61028E-03-2.14454E-14
 -1      1857 7.78058E-03-1.47768E-03-1.99609E-14
 -1      1858 8.21115E-03-1.67233E-03-2.24847E-14
 -1      1859 8.36723E-03-1.73551E-03-2.35434E-14
 -1      1860 8.09950E-03-1.60211E-03-2.20451E-14
 -1      1861 8.52138E-03-1.79938E-03-2.46219E-14
 -1      1862 8.67415E-03-1.86364E-03-2.57229E-14
 -1      1863 8.40495E-03-1.72886E-03-2.41634E-14
 -1      1864 8.82541E-03-1.92810E-03-2.68431E-14
 -1      1865 8.97560E-03-1.99256E-03-2.79816E-14
 -1      1866 8.70586E-03-1.85771E-03-2.63651E-14
 -1      1867 9.12464E-03-2.05695E-03-2.91387E-14
 -1      1868 9.27284E-03-2.12114E-03-3.03140E-14
 -1      1869 9.00313E-03-1.98689E-03-2.86426E-14
 -1      1870 9.42018E-03-2.18514E-03-3.15065E-14
 -1      1871 9.56688E-03-2.24886E-03-3.27196E-14
 -1      1872 9.29749E-03-2.11550E-03-3.09940E-14
 -1      1873 9.71293E-03-2.31232E-03-3.39509E-14
 -1      1874 9.85851E-03-2.37548E-03-3.52020E-14
 -1      1875 9.58958E-03-2.24311E-03-3.34183E-14
 -1      1876 1.00036E-02-2.43838E-03-3.64734E-14
 -1      1877 1.01483E-02-2.50098E-03-3.77614E-14
 -1      1878 9.87991E-03-2.36958E-03-3.59196E-14
 -1      1879 1.02927E-02-2.56333E-03-3.90681E-14
 -1      1880 1.04369E-02-2.62541E-03-4.03921E-14
 -1      1881 1.01689E-02-2.49489E-03-3.84976E-14
 -1      1882 1.05807E-02-2.68726E-03-4.17337E-14
 -1      1883 1.07244E-02-2.74888E-03-4.30923E-14
 -1      1884 1.04569E-02-2.61914E-03-4.11439E-14
 -1      1885 1.08679E-02-2.81029E-03-4.44671E-14
 -1      1886 1.10113E-02-2.87150E-03-4.58588E-14
 -1      1887 1.07441E-02-2.74244E-03-4.38566E-14
 -1      1888 1.11546E-02-2.93254E-03-4.72639E-14
 -1      1889 1.12977E-02-2.99341E-03-4.86824E-14
 -1      1890 1.10309E-02-2.86490E-03-4.66341E-14
 -1      1891 1.14408E-02-3.05413E-03-5.01176E-14
 -1      1892 1.15838E-02-3.11471E-03-5.15614E-14
 -1      1893 1.13172E-02-2.98667E-03-4.94705E-14
 -1      1894 1.17268E-02-3.17518E-03-5.30198E-14
 -1      1895 1.18697E-02-3.23553E-03-5.44918E-14
 -1      1896 1.16032E-02-3.10785E-03-5.23598E-14
 -1      1897 1.20197E-02-3.29879E-03-5.60491E-14
 -1      1898 1.21697E-02-3.36195E-03-5.76214E-14
 -1      1899 1.18963E-02-3.23158E-03-5.53722E-14
 -1      1900 1.23125E-02-3.42202E-03-5.91344E-14
 -1      1901 1.24553E-02-3.48203E-03-6.06589E-14
 -1      1902 1.21892E-02-3.35490E-03-5.84404E-14
 -1      1903 1.25981E-02-3.54197E-03-6.22003E-14
 -1      1904 1.27409E-02-3.60186E-03-6.37521E-14
 -1      1905 1.24748E-02-3.47491E-03-6.14876E-14
 -1      1906 1.28837E-02-3.66170E-03-6.53164E-14
 -1      1907 1.30265E-02-3.72150E-03-6.68971E-14
 -1      1908 1.27605E-02-3.59469E-03-6.45896E-14
 -1      1909 1.31693E-02-3.78127E-03-6.84879E-14
 -1      1910 1.33121E-02-3.84100E-03-7.00930E-14
 -1      1911 1.30461E-02-3.71429E-03-6.77436E-14
 -1      1912 1.34549E-02-3.90071E-03-7.17100E-14
 -1      1913 1.35977E-02-3.96040E-03-7.33368E-14
 -1      1914 1.33317E-02-3.83376E-03-7.09494E-14
 -1      1915 1.37405E-02-4.02006E-03-7.49726E-14
 -1      1916 1.38833E-02-4.07971E-03-7.66160E-14
 -1      1917 1.36173E-02-3.95313E-03-7.42018E-14
 -1      1918 1.40261E-02-4.13935E-03-7.82691E-14
 -1      1919 1.41689E-02-4.19897E-03-7.99255E-14
 -1      1920 1.39030E-02-4.07243E-03-7.74875E-14
 -1      1921 1.43117E-02-4.25859E-03-8.15868E-14
 -1      1922 1.44545E-02-4.31820E-03-8.32538E-14
 -1      1923 1.41886E-02-4.19168E-03-8.07982E-14
 -1      1924 1.45974E-02-4.37780E-03-8.49247E-14
 -1      1925 1.47402E-02-4.43741E-03-8.65961E-14
 -1      1926 1.44743E-02-4.31089E-03-8.41289E-14
 -1      1927 1.48830E-02-4.49701E-03-8.82732E-14
 -1      1928 1.50259E-02-4.55661E-03-8.99537E-14
 -1      1929 1.47600E-02-4.43010E-03-8.74754E-14
 -1      1930 1.51687E-02-4.61621E-03-9.16370E-14
 -1      1931 1.53116E-02-4.67581E-03-9.33282E-14
 -1      1932 1.50456E-02-4.54929E-03-9.08357E-14
 -1      1933 1.54544E-02-4.73541E-03-9.50229E-14
 -1      1934 1.55973E-02-4.79502E-03-9.67250E-14
 -1      1935 1.53313E-02-4.66850E-03-9.42186E-14
 -1      1936 1.57707E-02-4.86835E-03-9.87603E-14
 -1      1937 1.42988E-03 4.95333E-04-6.61146E-16
 -1      1938 1.28086E-03 4.65969E-04-5.07922E-16
 -1      1939 1.72572E-03 5.48917E-04-1.03432E-15
 -1      1940 1.57818E-03 5.22894E-04-8.36557E-16
 -1      1941 1.48280E-03 4.70490E-04-7.91102E-16
 -1      1942 2.01906E-03 5.98646E-04-1.49715E-15
 -1      1943 1.87280E-03 5.74145E-04-1.25426E-15
 -1      1944 1.78107E-03 5.22638E-04-1.19186E-15
 -1      1945 2.30935E-03 6.46067E-04-2.05290E-15
 -1      1946 2.16474E-03 6.22675E-04-1.76343E-15
 -1      1947 2.07747E-03 5.71809E-04-1.68211E-15
 -1      1948 2.59541E-03 6.89788E-04-2.70346E-15
 -1      1949 2.45307E-03 6.68589E-04-2.36601E-15
 -1      1950 2.37145E-03 6.18997E-04-2.26525E-15
 -1      1951 2.87595E-03 7.25359E-04-3.45298E-15
 -1      1952 2.73648E-03 7.08955E-04-3.06576E-15
 -1      1953 2.66182E-03 6.62142E-04-2.94354E-15
 -1      1954 3.15030E-03 7.45777E-04-4.30240E-15
 -1      1955 3.01389E-03 7.37931E-04-3.86499E-15
 -1      1956 2.94728E-03 6.96019E-04-3.72022E-15
 -1      1957 3.41902E-03 7.42948E-04-5.25459E-15
 -1      1958 3.28519E-03 7.47724E-04-4.76510E-15
 -1      1959 3.22713E-03 7.12891E-04-4.59714E-15
 -1      1960 3.68419E-03 7.09998E-04-6.31354E-15
 -1      1961 3.55174E-03 7.30533E-04-5.77064E-15
 -1      1962 3.50198E-03 7.04268E-04-5.57768E-15
 -1      1963 3.94907E-03 6.43641E-04-7.47739E-15
 -1      1964 3.81630E-03 6.81018E-04-6.88268E-15
 -1      1965 3.77402E-03 6.63517E-04-6.66447E-15
 -1      1966 4.21719E-03 5.45494E-04-8.74859E-15
 -1      1967 4.08241E-03 5.98274E-04-8.09991E-15
 -1      1968 4.04654E-03 5.88326E-04-7.85801E-15
 -1      1969 4.49128E-03 4.21647E-04-1.01238E-14
 -1      1970 4.35330E-03 4.86311E-04-9.42292E-15
 -1      1971 4.32278E-03 4.81727E-04-9.15597E-15
 -1      1972 4.77259E-03 2.80760E-04-1.16035E-14
 -1      1973 4.63100E-03 3.52799E-04-1.08510E-14
 -1      1974 4.60488E-03 3.51123E-04-1.05586E-14
 -1      1975 5.06087E-03 1.31679E-04-1.31821E-14
 -1      1976 4.91595E-03 2.06772E-04-1.23804E-14
 -1      1977 4.89333E-03 2.05902E-04-1.20633E-14
 -1      1978 5.35478E-03-1.83933E-05-1.48621E-14
 -1      1979 5.20729E-03 5.64274E-05-1.40104E-14
 -1      1980 5.18722E-03 5.49271E-05-1.36691E-14
 -1      1981 5.65248E-03-1.64719E-04-1.66361E-14
 -1      1982 5.50334E-03-9.22187E-05-1.57364E-14
 -1      1983 5.48489E-03-9.51061E-05-1.53730E-14
 -1      1984 5.95214E-03-3.04953E-04-1.85075E-14
 -1      1985 5.80222E-03-2.35672E-04-1.75601E-14
 -1      1986 5.78457E-03-2.40171E-04-1.71725E-14
 -1      1987 6.25223E-03-4.38577E-04-2.04728E-14
 -1      1988 6.10225E-03-3.72585E-04-1.94781E-14
 -1      1989 6.08474E-03-3.78584E-04-1.90674E-14
 -1      1990 6.55164E-03-5.66208E-04-2.25299E-14
 -1      1991 6.40210E-03-5.03091E-04-2.14905E-14
 -1      1992 6.38429E-03-5.10305E-04-2.10557E-14
 -1      1993 6.84966E-03-6.89010E-04-2.46806E-14
 -1      1994 6.70086E-03-6.28145E-04-2.35926E-14
 -1      1995 6.68253E-03-6.36236E-04-2.31356E-14
 -1      1996 7.14594E-03-8.08281E-04-2.69200E-14
 -1      1997 6.99803E-03-7.49019E-04-2.57891E-14
 -1      1998 6.97911E-03-7.57667E-04-2.53065E-14
 -1      1999 7.44038E-03-9.25214E-04-2.92499E-14
 -1      2000 7.29339E-03-8.66980E-04-2.80744E-14
 -1      2001 7.27393E-03-8.75918E-04-2.75691E-14
 -1      2002 7.73307E-03-1.04079E-03-3.16680E-14
 -1      2003 7.58693E-03-9.83124E-04-3.04469E-14
 -1      2004 7.56703E-03-9.92150E-04-2.99179E-14
 -1      2005 8.02418E-03-1.15574E-03-3.41729E-14
 -1      2006 7.87881E-03-1.09831E-03-3.29098E-14
 -1      2007 7.85859E-03-1.10728E-03-3.23549E-14
 -1      2008 8.31395E-03-1.27059E-03-3.67582E-14
 -1      2009 8.16921E-03-1.21316E-03-3.54569E-14
 -1      2010 8.14879E-03-1.22199E-03-3.48774E-14
 -1      2011 8.60260E-03-1.38566E-03-3.94173E-14
 -1      2012 8.45839E-03-1.32808E-03-3.80788E-14
 -1      2013 8.43786E-03-1.33673E-03-3.74774E-14
 -1      2014 8.89037E-03-1.50114E-03-4.21453E-14
 -1      2015 8.74658E-03-1.44334E-03-4.07726E-14
 -1      2016 8.72601E-03-1.45179E-03-4.01494E-14
 -1      2017 9.17747E-03-1.61712E-03-4.49356E-14
 -1      2018 9.03399E-03-1.55907E-03-4.35324E-14
 -1      2019 9.01344E-03-1.56732E-03-4.28885E-14
 -1      2020 9.46405E-03-1.73362E-03-4.77835E-14
 -1      2021 9.32081E-03-1.67530E-03-4.63528E-14
 -1      2022 9.30032E-03-1.68338E-03-4.56883E-14
 -1      2023 9.75027E-03-1.85061E-03-5.06829E-14
 -1      2024 9.60720E-03-1.79205E-03-4.92272E-14
 -1      2025 9.58678E-03-1.79996E-03-4.85446E-14
 -1      2026 1.00362E-02-1.96804E-03-5.36255E-14
 -1      2027 9.89327E-03-1.90927E-03-5.21498E-14
 -1      2028 9.87294E-03-1.91705E-03-5.14513E-14
 -1      2029 1.03220E-02-2.08585E-03-5.66166E-14
 -1      2030 1.01791E-02-2.02690E-03-5.51156E-14
 -1      2031 1.01589E-02-2.03456E-03-5.44025E-14
 -1      2032 1.06077E-02-2.20399E-03-5.96543E-14
 -1      2033 1.04649E-02-2.14488E-03-5.81289E-14
 -1      2034 1.04447E-02-2.15246E-03-5.74002E-14
 -1      2035 1.08933E-02-2.32239E-03-6.27324E-14
 -1      2036 1.07505E-02-2.26316E-03-6.11877E-14
 -1      2037 1.07304E-02-2.27066E-03-6.04440E-14
 -1      2038 1.11789E-02-2.44099E-03-6.58558E-14
 -1      2039 1.10361E-02-2.38166E-03-6.42891E-14
 -1      2040 1.10160E-02-2.38911E-03-6.35310E-14
 -1      2041 1.14644E-02-2.55976E-03-6.90235E-14
 -1      2042 1.13217E-02-2.50036E-03-6.74331E-14
 -1      2043 1.13017E-02-2.50776E-03-6.66624E-14
 -1      2044 1.17500E-02-2.67866E-03-7.22348E-14
 -1      2045 1.16072E-02-2.61919E-03-7.06249E-14
 -1      2046 1.15873E-02-2.62657E-03-6.98401E-14
 -1      2047 1.20356E-02-2.79764E-03-7.54828E-14
 -1      2048 1.18928E-02-2.73814E-03-7.38562E-14
 -1      2049 1.18729E-02-2.74549E-03-7.30599E-14
 -1      2050 1.23212E-02-2.91669E-03-7.87617E-14
 -1      2051 1.21784E-02-2.85716E-03-7.71180E-14
 -1      2052 1.21585E-02-2.86450E-03-7.63138E-14
 -1      2053 1.26068E-02-3.03579E-03-8.20637E-14
 -1      2054 1.24640E-02-2.97624E-03-8.04095E-14
 -1      2055 1.24441E-02-2.98357E-03-7.95955E-14
 -1      2056 1.28925E-02-3.15491E-03-8.53956E-14
 -1      2057 1.27497E-02-3.09535E-03-8.37261E-14
 -1      2058 1.27298E-02-3.10267E-03-8.29019E-14
 -1      2059 1.31781E-02-3.27405E-03-8.87387E-14
 -1      2060 1.30353E-02-3.21448E-03-8.70665E-14
 -1      2061 1.30154E-02-3.22181E-03-8.62342E-14
 -1      2062 1.34638E-02-3.39319E-03-9.20979E-14
 -1      2063 1.33210E-02-3.33362E-03-9.04172E-14
 -1      2064 1.33011E-02-3.34095E-03-8.95809E-14
 -1      2065 1.37495E-02-3.51233E-03-9.54699E-14
 -1      2066 1.36067E-02-3.45276E-03-9.37832E-14
 -1      2067 1.35868E-02-3.46009E-03-9.29437E-14
 -1      2068 1.40085E-02-3.61923E-03-9.85740E-14
 -1      2069 1.38657E-02-3.55967E-03-9.68846E-14
 -1      2070 1.38458E-02-3.56700E-03-9.60436E-14
 -1      2071 1.40781E-02-3.66167E-03-9.88747E-14
 -1      2072 1.43925E-02-3.88927E-03-9.88793E-14
 -1      2073 1.43339E-02-3.84711E-03-9.88651E-14
 -1      2074 1.42754E-02-3.80496E-03-9.88503E-14
 -1      2075 1.42169E-02-3.76280E-03-9.88429E-14
 -1      2076 1.41809E-02-3.77445E-03-9.73894E-14
 -1      2077 1.41366E-02-3.70382E-03-9.88790E-14
 -1      2078 1.45076E-02-3.97217E-03-9.88941E-14
 -1      2079 1.44500E-02-3.93072E-03-9.88877E-14
 -1      2080 1.42970E-02-3.85805E-03-9.74076E-14
 -1      2081 1.46247E-02-4.05650E-03-9.88935E-14
 -1      2082 1.45661E-02-4.01434E-03-9.88951E-14
 -1      2083 1.44131E-02-3.94167E-03-9.74119E-14
 -1      2084 1.47418E-02-4.14085E-03-9.88790E-14
 -1      2085 1.46833E-02-4.09868E-03-9.88904E-14
 -1      2086 1.45302E-02-4.02600E-03-9.74048E-14
 -1      2087 1.48590E-02-4.22520E-03-9.88506E-14
 -1      2088 1.48004E-02-4.18302E-03-9.88661E-14
 -1      2089 1.46474E-02-4.11034E-03-9.73853E-14
 -1      2090 1.49762E-02-4.30955E-03-9.88076E-14
 -1      2091 1.49176E-02-4.26737E-03-9.88308E-14
 -1      2092 1.47646E-02-4.19468E-03-9.73546E-14
 -1      2093 1.50934E-02-4.39389E-03-9.87447E-14
 -1      2094 1.50348E-02-4.35172E-03-9.87786E-14
 -1      2095 1.48818E-02-4.27903E-03-9.73060E-14
 -1      2096 1.52087E-02-4.47680E-03-9.86729E-14
 -1      2097 1.51510E-02-4.43535E-03-9.87091E-14
 -1      2098 1.49980E-02-4.36265E-03-9.72437E-14
 -1      2099 1.53259E-02-4.56113E-03-9.85938E-14
 -1      2100 1.52673E-02-4.51897E-03-9.86325E-14
 -1      2101 1.51143E-02-4.44627E-03-9.71692E-14
 -1      2102 1.54432E-02-4.64545E-03-9.85053E-14
 -1      2103 1.53846E-02-4.60330E-03-9.85486E-14
 -1      2104 1.52315E-02-4.53060E-03-9.70857E-14
 -1      2105 1.55605E-02-4.72976E-03-9.84124E-14
 -1      2106 1.55019E-02-4.68761E-03-9.84606E-14
 -1      2107 1.53488E-02-4.61491E-03-9.69987E-14
 -1      2108 1.16380E-03 4.45879E-04-3.94351E-16
 -1      2109 1.01272E-03 4.10624E-04-2.80741E-16
 -1      2110 9.77691E-04 3.79392E-04-2.93548E-16
 -1      2111 1.21492E-03 4.23559E-04-4.99031E-16
 -1      2112 6.13637E-03-5.96276E-04-1.02916E-14
 -1      2113 6.30677E-03-6.57388E-04-1.04355E-14
 -1      2114 5.30753E-03-1.82158E-04-9.22454E-15
 -1      2115 5.50220E-03-2.90949E-04-9.50196E-15
 -1      2116 6.67955E-03-7.91520E-04-1.08081E-14
 -1      2117 6.71070E-03-8.04834E-04-1.07072E-14
 -1      2118 5.71585E-03-4.09922E-04-9.83309E-15
 -1      2119 5.90793E-03-5.04511E-04-1.00805E-14
 -1      2120 3.20515E-04-5.74946E-05-1.03284E-16
 -1      2121 3.28336E-04-6.72819E-05-9.79983E-17
 -1      2122 4.48176E-04-1.00530E-04-1.42451E-16
 -1      2123 4.25584E-04-7.42914E-05-1.56518E-16
 -1      2124 4.90017E-03 4.45463E-05-8.60398E-15
 -1      2125 5.08619E-03-6.41030E-05-8.91350E-15
 -1      2126 4.50857E-03 2.50430E-04-7.85258E-15
 -1      2127 4.68167E-03 1.61888E-04-8.20877E-15
 -1      2128 4.14342E-03 3.61849E-04-7.01278E-15
 -1      2129 4.30267E-03 3.27217E-04-7.37786E-15
 -1      2130 3.82536E-03 3.51253E-04-6.32326E-15
 -1      2131 3.98000E-03 3.69826E-04-6.66286E-15
 -1      2132 4.05410E-03 3.77505E-04-6.84446E-15
 -1      2133 3.44042E-03 2.18349E-04-5.61178E-15
 -1      2134 3.60841E-03 2.89707E-04-5.89212E-15
 -1      2135 3.07216E-03 4.88241E-05-5.11684E-15
 -1      2136 3.24819E-03 1.34454E-04-5.34688E-15
 -1      2137 2.70302E-03-1.25051E-04-4.69657E-15
 -1      2138 2.87627E-03-4.35258E-05-4.88438E-15
 -1      2139 2.36203E-03-2.77773E-04-4.31206E-15
 -1      2140 2.52432E-03-2.09956E-04-4.47887E-15
 -1      2141 2.05882E-03-3.83151E-04-4.06617E-15
 -1      2142 2.17691E-03-3.46568E-04-4.14821E-15
 -1      2143 1.92425E-03-4.35165E-04-3.96609E-15
 -1      2144 1.97129E-03-4.14914E-04-4.01481E-15
 -1      2145 1.94375E-03-4.72518E-04-3.88912E-15
 -1      2146 1.91327E-03-4.56692E-04-3.90898E-15
 -1      2147 2.15199E-03-5.54816E-04-3.98772E-15
 -1      2148 2.03870E-03-5.11306E-04-3.92047E-15
 -1      2149 2.47834E-03-6.82077E-04-4.13183E-15
 -1      2150 2.29856E-03-6.13598E-04-4.05802E-15
 -1      2151 2.23134E-03-5.43985E-04-3.84299E-15
 -1      2152 2.94737E-03-9.46307E-04-4.50012E-15
 -1      2153 2.73119E-03-8.17932E-04-4.32286E-15
 -1      2154 3.40083E-03-1.24437E-03-4.93071E-15
 -1      2155 3.18857E-03-1.09977E-03-4.71789E-15
 -1      2156 3.83319E-03-1.52661E-03-5.39965E-15
 -1      2157 3.63566E-03-1.39240E-03-5.15622E-15
 -1      2158 4.22854E-03-1.75279E-03-6.03161E-15
 -1      2159 4.05676E-03-1.66338E-03-5.73462E-15
 -1      2160 4.57826E-03-1.82923E-03-6.72279E-15
 -1      2161 4.42470E-03-1.81369E-03-6.40560E-15
 -1      2162 4.88570E-03-1.76770E-03-7.36951E-15
 -1      2163 4.73352E-03-1.81353E-03-7.04130E-15
 -1      2164 4.65542E-03-1.83813E-03-6.86173E-15
 -1      2165 5.26954E-03-1.57976E-03-8.14941E-15
 -1      2166 5.10393E-03-1.67250E-03-7.83152E-15
 -1      2167 5.61516E-03-1.37669E-03-8.76109E-15
 -1      2168 5.44037E-03-1.48243E-03-8.45348E-15
 -1      2169 5.34130E-03-1.53098E-03-8.41964E-15
 -1      2170 6.00507E-03-1.15571E-03-9.41811E-15
 -1      2171 5.83225E-03-1.25129E-03-9.13810E-15
 -1      2172 6.33608E-03-9.90464E-04-9.96858E-15
 -1      2173 6.18904E-03-1.05909E-03-9.73660E-15
 -1      2174 6.58100E-03-8.86398E-04-1.03596E-14
 -1      2175 6.47708E-03-9.29461E-04-1.01707E-14
 -1      2176 6.70619E-03-8.24765E-04-1.06287E-14
 -1      2177 6.66866E-03-8.45262E-04-1.05539E-14
 -1      2178 6.71723E-03-8.22920E-04-1.10387E-14
 -1      2179 6.45733E-03-7.14674E-04-1.05988E-14
 -1      2180 6.57720E-03-7.57298E-04-1.07664E-14
 -1      2181 6.37572E-03-7.19861E-04-1.08659E-14
 -1      2182 1.56476E-02-4.80143E-03-9.79503E-14
 -1      2183 5.57786E-03-3.80848E-04-9.92388E-15
 -1      2184 6.52764E-04-2.45812E-04-1.31297E-16
 -1      2185 6.00610E-03-5.84211E-04-1.04813E-14
 -1      2186 5.16166E-03-1.44098E-04-9.26971E-15
 -1      2187 7.06024E-04-2.32679E-04-1.87567E-16
 -1      2188 1.40422E-02-3.67332E-03-9.74171E-14
 -1      2189 6.63982E-03-7.92915E-04-1.10755E-14
 -1      2190 6.68532E-03-8.15508E-04-1.13862E-14
 -1      2191 6.58759E-03-7.96748E-04-1.13427E-14
 -1      2192 1.55939E-02-4.76528E-03-9.78915E-14
 -1      2193 1.54408E-02-4.69259E-03-9.64356E-14
 -1      2194 6.63355E-03-8.59885E-04-1.07590E-14
 -1      2195 6.40429E-03-9.46591E-04-1.03535E-14
 -1      2196 5.70428E-03-1.30734E-03-9.10962E-15
 -1      2197 4.98953E-03-1.73268E-03-7.64086E-15
 -1      2198 4.34509E-03-1.79777E-03-6.16797E-15
 -1      2199 3.97210E-03-1.59413E-03-5.46660E-15
 -1      2200 3.55697E-03-1.30155E-03-4.92069E-15
 -1      2201 2.61549E-03-7.15068E-04-4.09151E-15
 -1      2202 1.98336E-03-4.67101E-04-3.74707E-15
 -1      2203 1.90918E-03-4.35433E-04-3.77349E-15
 -1      2204 2.00624E-03-4.01157E-04-3.87829E-15
 -1      2205 2.26538E-03-3.21056E-04-4.08313E-15
 -1      2206 2.62435E-03-1.79429E-04-4.45229E-15
 -1      2207 2.98712E-03-5.74598E-06-4.89215E-15
 -1      2208 3.71931E-03 3.31626E-04-6.06210E-15
 -1      2209 3.80482E-03 3.61790E-04-6.23321E-15
 -1      2210 3.62033E-03 3.01812E-04-5.80747E-15
 -1      2211 4.75915E-03 9.60916E-05-8.54902E-15
 -1      2212 4.38392E-03 2.96691E-04-7.66750E-15
 -1      2213 3.34944E-03 1.74301E-04-5.37968E-15
 -1      2214 3.10259E-03-9.97925E-04-4.48814E-15
 -1      2215 6.08947E-03-1.09096E-03-9.81889E-15
 -1      2216 5.02738E-04-5.39176E-05-2.43905E-16
 -1      2217 5.05678E-04-6.14089E-05-2.41371E-16
 -1      2218 5.11060E-04-6.93907E-05-2.38023E-16
 -1      2219 5.18899E-04-7.84163E-05-2.33429E-16
 -1      2220 6.11460E-04-8.04540E-05-3.25898E-16
 -1      2221 5.10795E-04-1.94991E-05-2.45003E-16
 -1      2222 5.06400E-04-2.94766E-05-2.45965E-16
 -1      2223 5.22592E-04 4.56275E-06-2.41289E-16
 -1      2224 5.16337E-04-8.16886E-06-2.43607E-16
 -1      2225 6.20006E-04-1.69131E-05-3.32227E-16
 -1      2226 5.36329E-04 3.40472E-05-2.34594E-16
 -1      2227 5.29329E-04 1.85900E-05-2.38403E-16
 -1      2228 6.36118E-04 1.40909E-05-3.26670E-16
 -1      2229 5.51239E-04 7.01646E-05-2.24064E-16
 -1      2230 5.43729E-04 5.13602E-05-2.29837E-16
 -1      2231 6.54210E-04 5.19191E-05-3.16912E-16
 -1      2232 5.67121E-04 1.12769E-04-2.08695E-16
 -1      2233 5.59036E-04 9.06559E-05-2.17166E-16
 -1      2234 6.73256E-04 9.69635E-05-3.02370E-16
 -1      2235 5.85742E-04 1.63050E-04-1.86117E-16
 -1      2236 5.75941E-04 1.36875E-04-1.98639E-16
 -1      2237 6.93587E-04 1.49181E-04-2.81188E-16
 -1      2238 6.11715E-04 2.23929E-04-1.52886E-16
 -1      2239 5.97524E-04 1.91988E-04-1.71223E-16
 -1      2240 7.17992E-04 2.09808E-04-2.50559E-16
 -1      2241 6.70504E-04 2.78090E-04-1.42220E-16
 -1      2242 6.40447E-04 2.49279E-04-1.49701E-16
 -1      2243 7.61954E-04 2.69364E-04-2.28604E-16
 -1      2244 8.24329E-04 3.23961E-04-2.19686E-16
 -1      2245 9.65029E-04-2.70897E-04-3.78644E-16
 -1      2246 1.11814E-03-2.98319E-04-5.03463E-16
 -1      2247 5.90151E-03-5.74990E-04-1.07323E-14
 -1      2248 6.11004E-03-6.57662E-04-1.09556E-14
 -1      2249 5.44264E-03-3.39973E-04-1.00124E-14
 -1      2250 5.64005E-03-4.49802E-04-1.03557E-14
 -1      2251 1.27082E-03-3.23193E-04-6.47757E-16
 -1      2252 1.42409E-03-3.46292E-04-8.12338E-16
 -1      2253 1.15480E-03-2.78573E-04-6.00973E-16
 -1      2254 1.57750E-03-3.69402E-04-9.96517E-16
 -1      2255 1.73208E-03-3.93674E-04-1.20107E-15
 -1      2256 1.44945E-03-3.24076E-04-9.35436E-16
 -1      2257 1.88781E-03-4.21113E-04-1.42570E-15
 -1      2258 2.04586E-03-4.53629E-04-1.67104E-15
 -1      2259 1.74418E-03-3.70995E-04-1.34953E-15
 -1      2260 2.20708E-03-4.93281E-04-1.93630E-15
 -1      2261 2.37266E-03-5.43535E-04-2.22200E-15
 -1      2262 2.04291E-03-4.31409E-04-1.84390E-15
 -1      2263 2.54512E-03-6.05990E-04-2.52787E-15
 -1      2264 2.72495E-03-6.86708E-04-2.85453E-15
 -1      2265 2.35494E-03-5.21689E-04-2.41773E-15
 -1      2266 2.91725E-03-7.85567E-04-3.20223E-15
 -1      2267 3.11908E-03-9.11439E-04-3.57238E-15
 -1      2268 2.69783E-03-6.65937E-04-3.07217E-15
 -1      2269 4.64761E-03-1.85955E-03-6.79282E-15
 -1      2270 4.87328E-03-1.81450E-03-7.38713E-15
 -1      2271 5.53407E-03-1.47607E-03-9.29144E-15
 -1      2272 5.75621E-03-1.36603E-03-1.00066E-14
 -1      2273 5.98599E-03-1.26624E-03-1.07627E-14
 -1      2274 6.18661E-03-1.20655E-03-1.15345E-14
 -1      2275 6.37770E-03-1.17408E-03-1.23304E-14
 -1      2276 6.55704E-03-1.16080E-03-1.31493E-14
 -1      2277 6.34578E-03-1.12223E-03-1.19936E-14
 -1      2278 6.72910E-03-1.16653E-03-1.39916E-14
 -1      2279 6.89471E-03-1.18543E-03-1.48530E-14
 -1      2280 6.68597E-03-1.11198E-03-1.36348E-14
 -1      2281 7.05603E-03-1.21613E-03-1.57380E-14
 -1      2282 7.21424E-03-1.25547E-03-1.66448E-14
 -1      2283 6.99698E-03-1.15918E-03-1.53625E-14
 -1      2284 7.36996E-03-1.30181E-03-1.75726E-14
 -1      2285 7.52422E-03-1.35347E-03-1.85224E-14
 -1      2286 7.29521E-03-1.24185E-03-1.71756E-14
 -1      2287 7.68450E-03-1.41193E-03-1.95417E-14
 -1      2288 7.84390E-03-1.47373E-03-2.05862E-14
 -1      2289 7.59614E-03-1.34906E-03-1.91239E-14
 -1      2290 7.99455E-03-1.53465E-03-2.16050E-14
 -1      2291 8.14465E-03-1.59712E-03-2.26446E-14
 -1      2292 7.89565E-03-1.46953E-03-2.11650E-14
 -1      2293 8.29384E-03-1.66052E-03-2.37054E-14
 -1      2294 8.44256E-03-1.72461E-03-2.47852E-14
 -1      2295 8.18739E-03-1.59396E-03-2.32448E-14
 -1      2296 8.59052E-03-1.78902E-03-2.58834E-14
 -1      2297 8.73805E-03-1.85361E-03-2.70044E-14
 -1      2298 8.47868E-03-1.72162E-03-2.54058E-14
 -1      2299 8.88495E-03-1.91819E-03-2.81457E-14
 -1      2300 9.03147E-03-1.98267E-03-2.93029E-14
 -1      2301 8.76938E-03-1.85039E-03-2.76456E-14
 -1      2302 9.17747E-03-2.04697E-03-3.04787E-14
 -1      2303 9.32314E-03-2.11104E-03-3.16718E-14
 -1      2304 9.05937E-03-1.97906E-03-2.99625E-14
 -1      2305 9.46840E-03-2.17485E-03-3.28847E-14
 -1      2306 9.61337E-03-2.23837E-03-3.41173E-14
 -1      2307 9.34860E-03-2.10699E-03-3.23515E-14
 -1      2308 9.75802E-03-2.30160E-03-3.53674E-14
 -1      2309 9.90244E-03-2.36454E-03-3.66372E-14
 -1      2310 9.63712E-03-2.23390E-03-3.48154E-14
 -1      2311 1.00466E-02-2.42721E-03-3.79248E-14
 -1      2312 1.01906E-02-2.48959E-03-3.92309E-14
 -1      2313 9.92500E-03-2.35970E-03-3.73527E-14
 -1      2314 1.03344E-02-2.55172E-03-4.05545E-14
 -1      2315 1.04780E-02-2.61360E-03-4.18927E-14
 -1      2316 1.02123E-02-2.48441E-03-3.99654E-14
 -1      2317 1.06215E-02-2.67525E-03-4.32471E-14
 -1      2318 1.07649E-02-2.73668E-03-4.46197E-14
 -1      2319 1.04993E-02-2.60813E-03-4.26398E-14
 -1      2320 1.09082E-02-2.79791E-03-4.60074E-14
 -1      2321 1.10514E-02-2.85896E-03-4.74080E-14
 -1      2322 1.07858E-02-2.73096E-03-4.53812E-14
 -1      2323 1.11946E-02-2.91985E-03-4.88243E-14
 -1      2324 1.13376E-02-2.98057E-03-5.02557E-14
 -1      2325 1.10721E-02-2.85304E-03-4.81835E-14
 -1      2326 1.14807E-02-3.04117E-03-5.16997E-14
 -1      2327 1.16237E-02-3.10163E-03-5.31548E-14
 -1      2328 1.13582E-02-2.97448E-03-5.10396E-14
 -1      2329 1.17737E-02-3.16500E-03-5.46970E-14
 -1      2330 1.19238E-02-3.22825E-03-5.62530E-14
 -1      2331 1.16513E-02-3.09842E-03-5.40213E-14
 -1      2332 1.20667E-02-3.28841E-03-5.77477E-14
 -1      2333 1.22096E-02-3.34848E-03-5.92555E-14
 -1      2334 1.19443E-02-3.22191E-03-5.70584E-14
 -1      2335 1.23524E-02-3.40849E-03-6.07794E-14
 -1      2336 1.24953E-02-3.46843E-03-6.23155E-14
 -1      2337 1.22301E-02-3.34205E-03-6.00729E-14
 -1      2338 1.26381E-02-3.52832E-03-6.38634E-14
 -1      2339 1.27810E-02-3.58815E-03-6.54271E-14
 -1      2340 1.25158E-02-3.46193E-03-6.31395E-14
 -1      2341 1.29238E-02-3.64795E-03-6.70016E-14
 -1      2342 1.30666E-02-3.70772E-03-6.85886E-14
 -1      2343 1.28015E-02-3.58160E-03-6.62631E-14
 -1      2344 1.32095E-02-3.76745E-03-7.01935E-14
 -1      2345 1.33523E-02-3.82715E-03-7.18093E-14
 -1      2346 1.30872E-02-3.70113E-03-6.94385E-14
 -1      2347 1.34951E-02-3.88683E-03-7.34309E-14
 -1      2348 1.36379E-02-3.94650E-03-7.50638E-14
 -1      2349 1.33728E-02-3.82053E-03-7.26644E-14
 -1      2350 1.37808E-02-4.00614E-03-7.67082E-14
 -1      2351 1.39236E-02-4.06578E-03-7.83574E-14
 -1      2352 1.36585E-02-3.93986E-03-7.59287E-14
 -1      2353 1.40664E-02-4.12540E-03-8.00105E-14
 -1      2354 1.42093E-02-4.18502E-03-8.16689E-14
 -1      2355 1.39442E-02-4.05912E-03-7.92242E-14
 -1      2356 1.43521E-02-4.24462E-03-8.33332E-14
 -1      2357 1.44949E-02-4.30423E-03-8.50021E-14
 -1      2358 1.42299E-02-4.17835E-03-8.25398E-14
 -1      2359 1.46378E-02-4.36383E-03-8.66746E-14
 -1      2360 1.47806E-02-4.42343E-03-8.83527E-14
 -1      2361 1.45156E-02-4.29756E-03-8.58750E-14
 -1      2362 1.49235E-02-4.48302E-03-9.00349E-14
 -1      2363 1.50663E-02-4.54262E-03-9.17198E-14
 -1      2364 1.48013E-02-4.41675E-03-8.92302E-14
 -1      2365 1.51821E-02-4.58780E-03-9.32231E-14
 -1      2366 1.53250E-02-4.64740E-03-9.49214E-14
 -1      2367 1.52916E-02-4.61188E-03-9.54350E-14
 -1      2368 1.50600E-02-4.52153E-03-9.24161E-14
 -1      2369 2.13897E-03 5.43707E-04-1.86996E-15
 -1      2370 1.98923E-03 5.19610E-04-1.59974E-15
 -1      2371 1.83907E-03 4.95151E-04-1.35261E-15
 -1      2372 1.68886E-03 4.70295E-04-1.12784E-15
 -1      2373 1.89963E-03 4.66566E-04-1.51661E-15
 -1      2374 1.53836E-03 4.44560E-04-9.24730E-16
 -1      2375 1.38772E-03 4.17682E-04-7.43451E-16
 -1      2376 1.59611E-03 4.17651E-04-1.06195E-15
 -1      2377 2.43731E-03 5.90691E-04-2.48029E-15
 -1      2378 2.28850E-03 5.67498E-04-2.16363E-15
 -1      2379 2.20357E-03 5.14479E-04-2.06068E-15
 -1      2380 2.73264E-03 6.33381E-04-3.18589E-15
 -1      2381 2.58551E-03 6.12884E-04-2.82054E-15
 -1      2382 2.50683E-03 5.61367E-04-2.69766E-15
 -1      2383 3.02340E-03 6.65715E-04-3.98874E-15
 -1      2384 2.87869E-03 6.51349E-04-3.57459E-15
 -1      2385 2.80753E-03 6.03812E-04-3.42940E-15
 -1      2386 3.30866E-03 6.79082E-04-4.89348E-15
 -1      2387 3.16666E-03 6.75371E-04-4.42851E-15
 -1      2388 3.10360E-03 6.34762E-04-4.25930E-15
 -1      2389 3.58908E-03 6.64445E-04-5.90280E-15
 -1      2390 3.44924E-03 6.75774E-04-5.38500E-15
 -1      2391 3.39388E-03 6.44510E-04-5.19178E-15
 -1      2392 3.86717E-03 6.15404E-04-7.01757E-15
 -1      2393 3.72805E-03 6.44444E-04-6.44692E-15
 -1      2394 3.67927E-03 6.23356E-04-6.22878E-15
 -1      2395 4.14647E-03 5.30808E-04-8.23859E-15
 -1      2396 4.00629E-03 5.77379E-04-7.61469E-15
 -1      2397 3.96283E-03 5.65256E-04-7.37209E-15
 -1      2398 4.43015E-03 4.15387E-04-9.56365E-15
 -1      2399 4.28752E-03 4.76451E-04-8.88798E-15
 -1      2400 4.24860E-03 4.70575E-04-8.61971E-15
 -1      2401 4.71975E-03 2.78047E-04-1.09939E-14
 -1      2402 4.57416E-03 3.48813E-04-1.02658E-14
 -1      2403 4.53959E-03 3.46090E-04-9.97311E-15
 -1      2404 5.01492E-03 1.28902E-04-1.25249E-14
 -1      2405 4.86675E-03 2.04355E-04-1.17474E-14
 -1      2406 4.83658E-03 2.02311E-04-1.14301E-14
 -1      2407 5.31409E-03-2.33307E-05-1.41574E-14
 -1      2408 5.16420E-03 5.27363E-05-1.33287E-14
 -1      2409 5.13826E-03 4.99173E-05-1.29889E-14
 -1      2410 5.61527E-03-1.72653E-04-1.58852E-14
 -1      2411 5.46462E-03-9.86041E-05-1.50093E-14
 -1      2412 5.44236E-03-1.02774E-04-1.46459E-14
 -1      2413 5.91674E-03-3.15893E-04-1.77099E-14
 -1      2414 5.76612E-03-2.45129E-04-1.67849E-14
 -1      2415 5.74663E-03-2.50679E-04-1.63998E-14
 -1      2416 6.21731E-03-4.52085E-04-1.96272E-14
 -1      2417 6.06725E-03-3.84865E-04-1.86569E-14
 -1      2418 6.04952E-03-3.91580E-04-1.82471E-14
 -1      2419 6.51629E-03-5.81668E-04-2.16382E-14
 -1      2420 6.36706E-03-5.17644E-04-2.06219E-14
 -1      2421 6.35021E-03-5.25238E-04-2.01891E-14
 -1      2422 6.81340E-03-7.05796E-04-2.37407E-14
 -1      2423 6.66511E-03-6.44335E-04-2.26790E-14
 -1      2424 6.64844E-03-6.52536E-04-2.22233E-14
 -1      2425 7.10859E-03-8.25844E-04-2.59342E-14
 -1      2426 6.96124E-03-7.66251E-04-2.48259E-14
 -1      2427 6.94431E-03-7.74827E-04-2.43482E-14
 -1      2428 7.40200E-03-9.43118E-04-2.82166E-14
 -1      2429 7.25551E-03-8.84759E-04-2.70640E-14
 -1      2430 7.23808E-03-8.93525E-04-2.65623E-14
 -1      2431 7.69381E-03-1.05872E-03-3.05851E-14
 -1      2432 7.54808E-03-1.00107E-03-2.93906E-14
 -1      2433 7.53007E-03-1.00989E-03-2.88645E-14
 -1      2434 7.98425E-03-1.17348E-03-3.30408E-14
 -1      2435 7.83918E-03-1.11616E-03-3.18018E-14
 -1      2436 7.82061E-03-1.12494E-03-3.12527E-14
 -1      2437 8.27356E-03-1.28802E-03-3.55798E-14
 -1      2438 8.12903E-03-1.23075E-03-3.42994E-14
 -1      2439 8.10997E-03-1.23941E-03-3.37258E-14
 -1      2440 8.56194E-03-1.40272E-03-3.81937E-14
 -1      2441 8.41785E-03-1.34533E-03-3.68776E-14
 -1      2442 8.39840E-03-1.35385E-03-3.62806E-14
 -1      2443 8.84959E-03-1.51782E-03-4.08802E-14
 -1      2444 8.70584E-03-1.46021E-03-3.95292E-14
 -1      2445 8.68611E-03-1.46856E-03-3.89101E-14
 -1      2446 9.13667E-03-1.63343E-03-4.36302E-14
 -1      2447 8.99319E-03-1.57555E-03-4.22468E-14
 -1      2448 8.97326E-03-1.58374E-03-4.16088E-14
 -1      2449 9.42331E-03-1.74959E-03-4.64401E-14
 -1      2450 9.28003E-03-1.69144E-03-4.50282E-14
 -1      2451 9.25998E-03-1.69948E-03-4.43701E-14
 -1      2452 9.70962E-03-1.86629E-03-4.93040E-14
 -1      2453 9.56650E-03-1.80788E-03-4.78654E-14
 -1      2454 9.54638E-03-1.81577E-03-4.71893E-14
 -1      2455 9.99570E-03-1.98348E-03-5.22167E-14
 -1      2456 9.85269E-03-1.92483E-03-5.07548E-14
 -1      2457 9.83254E-03-1.93260E-03-5.00607E-14
 -1      2458 1.02816E-02-2.10109E-03-5.51763E-14
 -1      2459 1.01387E-02-2.04224E-03-5.36912E-14
 -1      2460 1.01185E-02-2.04991E-03-5.29812E-14
 -1      2461 1.05674E-02-2.21907E-03-5.81809E-14
 -1      2462 1.04245E-02-2.16004E-03-5.66721E-14
 -1      2463 1.04044E-02-2.16763E-03-5.59477E-14
 -1      2464 1.08531E-02-2.33734E-03-6.12325E-14
 -1      2465 1.07103E-02-2.27817E-03-5.97016E-14
 -1      2466 1.06902E-02-2.28569E-03-5.89608E-14
 -1      2467 1.11388E-02-2.45585E-03-6.43291E-14
 -1      2468 1.09960E-02-2.39657E-03-6.27748E-14
 -1      2469 1.09759E-02-2.40404E-03-6.20195E-14
 -1      2470 1.14245E-02-2.57455E-03-6.74689E-14
 -1      2471 1.12816E-02-2.51518E-03-6.58940E-14
 -1      2472 1.12616E-02-2.52260E-03-6.51262E-14
 -1      2473 1.17101E-02-2.69339E-03-7.06570E-14
 -1      2474 1.15673E-02-2.63396E-03-6.90583E-14
 -1      2475 1.15473E-02-2.64135E-03-6.82769E-14
 -1      2476 1.19958E-02-2.81234E-03-7.38836E-14
 -1      2477 1.18529E-02-2.75285E-03-7.22653E-14
 -1      2478 1.18330E-02-2.76022E-03-7.14727E-14
 -1      2479 1.22814E-02-2.93137E-03-7.71420E-14
 -1      2480 1.21386E-02-2.87185E-03-7.55084E-14
 -1      2481 1.21187E-02-2.87920E-03-7.47040E-14
 -1      2482 1.25671E-02-3.05045E-03-8.04273E-14
 -1      2483 1.24242E-02-2.99090E-03-7.87830E-14
 -1      2484 1.24043E-02-2.99824E-03-7.79692E-14
 -1      2485 1.28527E-02-3.16957E-03-8.37413E-14
 -1      2486 1.27099E-02-3.11000E-03-8.20808E-14
 -1      2487 1.26900E-02-3.11734E-03-8.12617E-14
 -1      2488 1.31384E-02-3.28870E-03-8.70730E-14
 -1      2489 1.29956E-02-3.22913E-03-8.54030E-14
 -1      2490 1.29757E-02-3.23646E-03-8.45753E-14
 -1      2491 1.34241E-02-3.40785E-03-9.04223E-14
 -1      2492 1.32813E-02-3.34828E-03-8.87459E-14
 -1      2493 1.32614E-02-3.35560E-03-8.79089E-14
 -1      2494 1.37098E-02-3.52699E-03-9.37872E-14
 -1      2495 1.35669E-02-3.46742E-03-9.21026E-14
 -1      2496 1.35471E-02-3.47475E-03-9.12627E-14
 -1      2497 1.39260E-02-3.62598E-03-9.60014E-14
 -1      2498 1.43187E-02-3.91116E-03-9.59300E-14
 -1      2499 1.42601E-02-3.86899E-03-9.59333E-14
 -1      2500 1.42026E-02-3.82755E-03-9.59329E-14
 -1      2501 1.41450E-02-3.78610E-03-9.59298E-14
 -1      2502 1.41081E-02-3.79704E-03-9.44596E-14
 -1      2503 1.40865E-02-3.74395E-03-9.59251E-14
 -1      2504 1.40280E-02-3.70179E-03-9.59168E-14
 -1      2505 1.39921E-02-3.71344E-03-9.44565E-14
 -1      2506 1.44358E-02-3.99549E-03-9.59176E-14
 -1      2507 1.43772E-02-3.95332E-03-9.59252E-14
 -1      2508 1.42242E-02-3.88065E-03-9.44526E-14
 -1      2509 1.45529E-02-4.07983E-03-9.58932E-14
 -1      2510 1.44944E-02-4.03766E-03-9.59078E-14
 -1      2511 1.43414E-02-3.96498E-03-9.44349E-14
 -1      2512 1.46701E-02-4.16417E-03-9.58607E-14
 -1      2513 1.46115E-02-4.12200E-03-9.58787E-14
 -1      2514 1.44585E-02-4.04931E-03-9.44078E-14
 -1      2515 1.47873E-02-4.24850E-03-9.58072E-14
 -1      2516 1.47287E-02-4.20634E-03-9.58344E-14
 -1      2517 1.45757E-02-4.13365E-03-9.43674E-14
 -1      2518 1.49026E-02-4.33141E-03-9.57414E-14
 -1      2519 1.48450E-02-4.28996E-03-9.57753E-14
 -1      2520 1.46919E-02-4.21727E-03-9.43103E-14
 -1      2521 1.50199E-02-4.41574E-03-9.56683E-14
 -1      2522 1.49612E-02-4.37358E-03-9.57073E-14
 -1      2523 1.48082E-02-4.30088E-03-9.42454E-14
 -1      2524 1.51371E-02-4.50006E-03-9.55870E-14
 -1      2525 1.50785E-02-4.45790E-03-9.56288E-14
 -1      2526 1.49255E-02-4.38521E-03-9.41717E-14
 -1      2527 1.52437E-02-4.57705E-03-9.54900E-14
 -1      2528 1.51851E-02-4.53490E-03-9.55337E-14
 -1      2529 1.50320E-02-4.46220E-03-9.40817E-14
 -1      2530 1.51279E-02-4.53187E-03-9.39751E-14
 -1      2531 6.67813E-03-8.52221E-04-1.12178E-14
 -1      2532 6.59441E-03-8.75166E-04-1.10148E-14
 -1      2533 6.15385E-04-1.81336E-04-1.77701E-16
 -1      2534 8.20715E-04-2.36131E-04-2.86555E-16
 -1      2535 8.67011E-04-2.22174E-04-3.58993E-16
 -1      2536 5.94073E-04-1.54343E-04-1.93828E-16
 -1      2537 5.05800E-03-1.11150E-04-9.35760E-15
 -1      2538 5.24769E-03-2.27456E-04-9.68153E-15
 -1      2539 5.33582E-03-2.96872E-04-1.01009E-14
 -1      2540 6.72669E-03-8.31309E-04-1.14420E-14
 -1      2541 6.72161E-03-8.36042E-04-1.13608E-14
 -1      2542 2.02706E-03-4.54025E-04-3.58028E-15
 -1      2543 1.93599E-03-4.34804E-04-3.55239E-15
 -1      2544 4.65773E-03 1.38504E-04-8.53367E-15
 -1      2545 4.83758E-03 2.31928E-05-8.94064E-15
 -1      2546 5.03345E-04-3.83582E-05-2.46100E-16
 -1      2547 5.02053E-04-4.63698E-05-2.45450E-16
 -1      2548 6.04451E-04-6.18589E-05-3.32294E-16
 -1      2549 6.08308E-04-4.17633E-05-3.34165E-16
 -1      2550 4.26281E-03 3.39911E-04-7.46121E-15
 -1      2551 4.42959E-03 2.65811E-04-7.93893E-15
 -1      2552 3.24529E-03 1.24766E-04-5.10717E-15
 -1      2553 3.40212E-03 2.08445E-04-5.36108E-15
 -1      2554 3.98445E-03 3.86239E-04-6.68885E-15
 -1      2555 4.11170E-03 3.77254E-04-7.03929E-15
 -1      2556 3.24734E-03-1.04777E-03-4.42497E-15
 -1      2557 3.02800E-03-9.03499E-04-4.21985E-15
 -1      2558 2.91168E-03-4.73138E-05-4.65668E-15
 -1      2559 3.08272E-03 4.10862E-05-4.87884E-15
 -1      2560 3.14553E-03 8.70820E-05-4.86044E-15
 -1      2561 2.56111E-03-2.07243E-04-4.22233E-15
 -1      2562 2.72941E-03-1.34223E-04-4.43000E-15
 -1      2563 2.17237E-03-3.44103E-04-3.80338E-15
 -1      2564 2.34011E-03-2.90686E-04-3.95495E-15
 -1      2565 1.95061E-03-4.04414E-04-3.65333E-15
 -1      2566 2.02587E-03-3.87081E-04-3.69882E-15
 -1      2567 1.89484E-03-4.18718E-04-3.54349E-15
 -1      2568 1.90723E-03-4.16323E-04-3.59822E-15
 -1      2569 1.90702E-03-3.94481E-04-3.42394E-15
 -1      2570 2.29599E-03-5.27828E-04-3.63630E-15
 -1      2571 2.16162E-03-4.85694E-04-3.57444E-15
 -1      2572 6.17036E-03-1.04600E-03-1.02533E-14
 -1      2573 6.00178E-03-1.13096E-03-9.92210E-15
 -1      2574 2.76422E-03-7.49056E-04-4.00100E-15
 -1      2575 2.52623E-03-6.30118E-04-3.82286E-15
 -1      2576 3.64914E-03-1.33521E-03-4.84286E-15
 -1      2577 3.45211E-03-1.18885E-03-4.63061E-15
 -1      2578 3.34593E-03-1.09207E-03-4.35059E-15
 -1      2579 4.18069E-03-1.71613E-03-5.63051E-15
 -1      2580 4.00616E-03-1.59302E-03-5.30094E-15
 -1      2581 5.43220E-03-1.47628E-03-8.75641E-15
 -1      2582 5.29213E-03-1.57143E-03-8.44272E-15
 -1      2583 5.81155E-03-1.23722E-03-9.52595E-15
 -1      2584 5.62034E-03-1.35571E-03-9.13595E-15
 -1      2585 5.56260E-03-1.40625E-03-9.15992E-15
 -1      2586 5.92204E-03-1.18517E-03-9.94944E-15
 -1      2587 6.48032E-03-9.15556E-04-1.07934E-14
 -1      2588 6.35190E-03-9.64517E-04-1.05809E-14
 -1      2589 6.29295E-03-7.24907E-04-1.12061E-14
 -1      2590 6.43603E-03-7.66305E-04-1.13765E-14
 -1      2591 1.39062E-02-3.63331E-03-9.51590E-14
 -1      2592 3.77230E-03-1.40911E-03-4.82749E-15
 -1      2593 6.31092E-04-1.02144E-04-3.14120E-16
 -1      2594 5.29278E-04-8.90658E-05-2.27560E-16
 -1      2595 5.41958E-04-1.02027E-04-2.20079E-16
 -1      2596 4.94144E-03-5.34941E-05-9.33861E-15
 -1      2597 9.44115E-04 3.50901E-04-3.00419E-16
 -1      2598 9.12032E-04 3.22897E-04-3.05460E-16
 -1      2599 1.06357E-03 3.74423E-04-3.95409E-16
 -1      2600 5.77408E-03-5.29815E-04-1.08204E-14
 -1      2601 6.20206E-03-7.10283E-04-1.14611E-14
 -1      2602 5.04395E-03-1.72962E-03-7.85285E-15
 -1      2603 4.53256E-03-1.86087E-03-6.48063E-15
 -1      2604 3.34897E-03-1.06822E-03-3.94915E-15
 -1      2605 3.56042E-03-1.23217E-03-4.34628E-15
 -1      2606 4.38325E-03-1.81566E-03-6.10259E-15
 -1      2607 5.93724E-03-1.24070E-03-1.04367E-14
 -1      2608 6.55886E-03-8.98240E-04-1.12483E-14
 -1      2609 6.52845E-03-8.00525E-04-1.16864E-14
 -1      2610 6.60575E-03-8.23975E-04-1.19998E-14
 -1      2611 6.46940E-03-7.99699E-04-1.20300E-14
 -1      2612 6.69679E-03-8.39247E-04-1.19800E-14
 -1      2613 6.71861E-03-8.33489E-04-1.17106E-14
 -1      2614 6.74394E-03-8.48337E-04-1.20364E-14
 -1      2615 6.71259E-03-8.53629E-04-1.16210E-14
 -1      2616 5.74860E-04-1.32156E-04-2.06934E-16
 -1      2617 1.28502E-03 4.07235E-04-6.18009E-16
 -1      2618 1.16628E-03 3.88356E-04-4.95643E-16
 -1      2619 1.13466E-03 3.60444E-04-4.99031E-16
 -1      2620 1.34111E-03 3.82912E-04-7.32894E-16
 -1      2621 2.07164E-03-4.45413E-04-3.38113E-15
 -1      2622 1.38117E-02-3.60280E-03-9.36988E-14
 -1      2623 1.89769E-03-4.09495E-04-3.38001E-15
 -1      2624 2.89796E-03-8.03534E-04-3.93986E-15
 -1      2625 6.27766E-03-1.00699E-03-1.06878E-14
 -1      2626 2.07803E-03-3.53723E-04-3.57643E-15
 -1      2627 2.82037E-03-7.84782E-05-4.41537E-15
 -1      2628 3.87844E-03 3.83116E-04-6.41658E-15
 -1      2629 3.93693E-03 3.93109E-04-6.59984E-15
 -1      2630 3.77893E-03 3.69676E-04-6.14987E-15
 -1      2631 4.52198E-03 2.09154E-04-8.31011E-15
 -1      2632 4.61212E-03 1.48281E-04-8.68908E-15
 -1      2633 4.40985E-03 2.65689E-04-8.08747E-15
 -1      2634 3.50421E-03 2.62932E-04-5.51886E-15
 -1      2635 3.58763E-03 3.09109E-04-5.67767E-15
 -1      2636 3.38904E-03 2.23583E-04-5.23807E-15
 -1      2637 4.17866E-03 3.62003E-04-7.29351E-15
 -1      2638 2.42752E-03-2.43390E-04-3.93141E-15
 -1      2639 2.41507E-03-5.59246E-04-3.54924E-15
 -1      2640 3.10967E-03-9.09166E-04-3.79605E-15
 -1      2641 7.53584E-04 2.66698E-05-4.25563E-16
 -1      2642 7.42873E-04 6.52488E-06-4.30225E-16
 -1      2643 7.32536E-04-1.20765E-05-4.33478E-16
 -1      2644 7.23372E-04-2.87145E-05-4.35646E-16
 -1      2645 8.48829E-04-4.53131E-06-5.48674E-16
 -1      2646 7.99504E-04 1.27185E-04-3.92915E-16
 -1      2647 7.87834E-04 9.93133E-05-4.03567E-16
 -1      2648 8.24356E-04 1.88563E-04-3.64766E-16
 -1      2649 8.11655E-04 1.56939E-04-3.80094E-16
 -1      2650 9.29651E-04 1.60598E-04-4.95304E-16
 -1      2651 8.81300E-04 2.95855E-04-3.08605E-16
 -1      2652 8.51983E-04 2.69665E-04-3.10122E-16
 -1      2653 1.00070E-03 3.19233E-04-4.02442E-16
 -1      2654 4.86110E-03-9.18814E-06-9.36402E-15
 -1      2655 5.05466E-03-1.35238E-04-9.79471E-15
 -1      2656 6.11743E-03-6.92207E-04-1.17340E-14
 -1      2657 6.28556E-03-7.50697E-04-1.19942E-14
 -1      2658 1.32913E-03-2.83413E-04-8.73298E-16
 -1      2659 1.46991E-03-3.04915E-04-1.06297E-15
 -1      2660 1.60956E-03-3.27364E-04-1.27234E-15
 -1      2661 1.74928E-03-3.51532E-04-1.50178E-15
 -1      2662 1.48542E-03-2.88866E-04-1.19429E-15
 -1      2663 1.88866E-03-3.79006E-04-1.75046E-15
 -1      2664 2.02985E-03-4.11658E-04-2.01919E-15
 -1      2665 1.74760E-03-3.34920E-04-1.65670E-15
 -1      2666 2.17303E-03-4.50706E-04-2.30732E-15
 -1      2667 2.32192E-03-5.00270E-04-2.61489E-15
 -1      2668 2.00692E-03-3.93453E-04-2.19677E-15
 -1      2669 1.97445E-03-3.49697E-04-3.27909E-15
 -1      2670 2.09599E-03-3.16701E-04-3.37308E-15
 -1      2671 5.07430E-03-1.72689E-03-7.94696E-15
 -1      2672 5.30340E-03-1.60445E-03-8.60394E-15
 -1      2673 2.08951E-03-4.30213E-04-3.16014E-15
 -1      2674 1.97879E-03-4.07935E-04-3.16944E-15
 -1      2675 6.65895E-03-1.05773E-03-1.32787E-14
 -1      2676 6.80667E-03-1.07546E-03-1.41223E-14
 -1      2677 6.94912E-03-1.10460E-03-1.49863E-14
 -1      2678 7.08974E-03-1.14145E-03-1.58722E-14
 -1      2679 6.91172E-03-1.05212E-03-1.46106E-14
 -1      2680 7.22870E-03-1.18501E-03-1.67809E-14
 -1      2681 7.36792E-03-1.23373E-03-1.77095E-14
 -1      2682 7.16990E-03-1.13161E-03-1.63844E-14
 -1      2683 7.51402E-03-1.28916E-03-1.87074E-14
 -1      2684 7.66106E-03-1.34823E-03-1.97286E-14
 -1      2685 7.43789E-03-1.23285E-03-1.82906E-14
 -1      2686 7.80149E-03-1.40682E-03-2.07254E-14
 -1      2687 7.94279E-03-1.46738E-03-2.17449E-14
 -1      2688 7.71210E-03-1.34728E-03-2.02873E-14
 -1      2689 8.08446E-03-1.52915E-03-2.27853E-14
 -1      2690 8.22680E-03-1.59198E-03-2.38466E-14
 -1      2691 7.98538E-03-1.46691E-03-2.23256E-14
 -1      2692 8.36938E-03-1.65538E-03-2.49261E-14
 -1      2693 8.51240E-03-1.71924E-03-2.60248E-14
 -1      2694 8.26313E-03-1.59111E-03-2.44457E-14
 -1      2695 8.65553E-03-1.78326E-03-2.71469E-14
 -1      2696 8.79892E-03-1.84738E-03-2.82879E-14
 -1      2697 8.54408E-03-1.71760E-03-2.66475E-14
 -1      2698 8.94233E-03-1.91144E-03-2.94462E-14
 -1      2699 9.08586E-03-1.97539E-03-3.06221E-14
 -1      2700 8.82714E-03-1.84489E-03-2.89277E-14
 -1      2701 9.22936E-03-2.03915E-03-3.18170E-14
 -1      2702 9.37291E-03-2.10271E-03-3.30313E-14
 -1      2703 9.11154E-03-1.97209E-03-3.12815E-14
 -1      2704 9.51639E-03-2.16601E-03-3.42627E-14
 -1      2705 9.65987E-03-2.22906E-03-3.55134E-14
 -1      2706 9.39672E-03-2.09867E-03-3.37098E-14
 -1      2707 9.80328E-03-2.29186E-03-3.67848E-14
 -1      2708 9.94666E-03-2.35439E-03-3.80701E-14
 -1      2709 9.68234E-03-2.22440E-03-3.62126E-14
 -1      2710 1.00900E-02-2.41667E-03-3.93743E-14
 -1      2711 1.02332E-02-2.47870E-03-4.06972E-14
 -1      2712 9.96817E-03-2.34919E-03-3.87861E-14
 -1      2713 1.03765E-02-2.54050E-03-4.20353E-14
 -1      2714 1.05196E-02-2.60208E-03-4.33879E-14
 -1      2715 1.02541E-02-2.47306E-03-4.14289E-14
 -1      2716 1.06628E-02-2.66345E-03-4.47586E-14
 -1      2717 1.08059E-02-2.72464E-03-4.61429E-14
 -1      2718 1.05400E-02-2.59607E-03-4.41355E-14
 -1      2719 1.09489E-02-2.78565E-03-4.75438E-14
 -1      2720 1.10919E-02-2.84649E-03-4.89568E-14
 -1      2721 1.08259E-02-2.71834E-03-4.69049E-14
 -1      2722 1.12349E-02-2.90719E-03-5.03848E-14
 -1      2723 1.13779E-02-2.96775E-03-5.18250E-14
 -1      2724 1.11118E-02-2.83995E-03-4.97317E-14
 -1      2725 1.15280E-02-3.03121E-03-5.33495E-14
 -1      2726 1.16781E-02-3.09455E-03-5.48904E-14
 -1      2727 1.14048E-02-2.96404E-03-5.26807E-14
 -1      2728 1.18210E-02-3.15478E-03-5.63710E-14
 -1      2729 1.19639E-02-3.21491E-03-5.78630E-14
 -1      2730 1.16978E-02-3.08766E-03-5.56860E-14
 -1      2731 1.21068E-02-3.27498E-03-5.93695E-14
 -1      2732 1.22497E-02-3.33497E-03-6.08903E-14
 -1      2733 1.19835E-02-3.20791E-03-5.86717E-14
 -1      2734 1.23925E-02-3.39490E-03-6.24221E-14
 -1      2735 1.25354E-02-3.45478E-03-6.39689E-14
 -1      2736 1.22693E-02-3.32787E-03-6.17071E-14
 -1      2737 1.26783E-02-3.51461E-03-6.55283E-14
 -1      2738 1.28211E-02-3.57440E-03-6.70994E-14
 -1      2739 1.25551E-02-3.44761E-03-6.47959E-14
 -1      2740 1.29640E-02-3.63416E-03-6.86876E-14
 -1      2741 1.31068E-02-3.69388E-03-7.02902E-14
 -1      2742 1.28408E-02-3.56719E-03-6.79401E-14
 -1      2743 1.32497E-02-3.75358E-03-7.19019E-14
 -1      2744 1.33925E-02-3.81326E-03-7.35201E-14
 -1      2745 1.31265E-02-3.68663E-03-7.11386E-14
 -1      2746 1.35354E-02-3.87292E-03-7.51506E-14
 -1      2747 1.36782E-02-3.93257E-03-7.67928E-14
 -1      2748 1.34122E-02-3.80598E-03-7.43800E-14
 -1      2749 1.38211E-02-3.99220E-03-7.84392E-14
 -1      2750 1.39639E-02-4.05182E-03-8.00895E-14
 -1      2751 1.36980E-02-3.92527E-03-7.76543E-14
 -1      2752 1.41068E-02-4.11143E-03-8.17474E-14
 -1      2753 1.42496E-02-4.17104E-03-8.34087E-14
 -1      2754 1.39837E-02-4.04451E-03-8.09568E-14
 -1      2755 1.43925E-02-4.23064E-03-8.50769E-14
 -1      2756 1.45353E-02-4.29024E-03-8.67496E-14
 -1      2757 1.42694E-02-4.16372E-03-8.42798E-14
 -1      2758 1.46782E-02-4.34984E-03-8.84233E-14
 -1      2759 1.48210E-02-4.40943E-03-9.01068E-14
 -1      2760 1.45551E-02-4.28292E-03-8.76234E-14
 -1      2761 1.49165E-02-4.44806E-03-9.12879E-14
 -1      2762 1.50324E-02-4.49324E-03-9.27895E-14
 -1      2763 1.49845E-02-4.45841E-03-9.28412E-14
 -1      2764 1.47935E-02-4.38114E-03-9.04772E-14
 -1      2765 1.96242E-03 4.36382E-04-1.68363E-15
 -1      2766 1.80887E-03 4.12918E-04-1.43237E-15
 -1      2767 2.27088E-03 4.83688E-04-2.25440E-15
 -1      2768 2.11657E-03 4.59969E-04-1.95747E-15
 -1      2769 2.02722E-03 4.04679E-04-1.85451E-15
 -1      2770 1.65576E-03 3.89284E-04-1.20307E-15
 -1      2771 1.50333E-03 3.65212E-04-9.95203E-16
 -1      2772 1.71696E-03 3.59429E-04-1.34772E-15
 -1      2773 2.88610E-03 5.73503E-04-3.67466E-15
 -1      2774 2.73338E-03 5.53159E-04-3.28401E-15
 -1      2775 3.18756E-03 6.03583E-04-4.53164E-15
 -1      2776 3.03759E-03 5.90854E-04-4.09033E-15
 -1      2777 2.96783E-03 5.43081E-04-3.92230E-15
 -1      2778 3.48256E-03 6.09853E-04-5.49180E-15
 -1      2779 3.33577E-03 6.10502E-04-4.99885E-15
 -1      2780 3.27445E-03 5.72696E-04-4.80600E-15
 -1      2781 3.77239E-03 5.81661E-04-6.55612E-15
 -1      2782 3.62775E-03 6.00622E-04-6.01038E-15
 -1      2783 3.57370E-03 5.75147E-04-5.79244E-15
 -1      2784 4.06105E-03 5.13467E-04-7.72700E-15
 -1      2785 3.91636E-03 5.52599E-04-7.12862E-15
 -1      2786 3.86769E-03 5.38744E-04-6.88460E-15
 -1      2787 4.35321E-03 4.07670E-04-9.00292E-15
 -1      2788 4.20631E-03 4.64748E-04-8.35193E-15
 -1      2789 4.16166E-03 4.58958E-04-8.08345E-15
 -1      2790 4.65162E-03 2.73639E-04-1.03843E-14
 -1      2791 4.50152E-03 3.43362E-04-9.68081E-15
 -1      2792 4.46080E-03 3.41066E-04-9.38739E-15
 -1      2793 4.95601E-03 1.23652E-04-1.18681E-14
 -1      2794 4.80320E-03 1.99833E-04-1.11130E-14
 -1      2795 4.76713E-03 1.97460E-04-1.07967E-14
 -1      2796 5.26398E-03-3.12535E-05-1.34537E-14
 -1      2797 5.10981E-03 4.62295E-05-1.26485E-14
 -1      2798 5.07902E-03 4.20556E-05-1.23077E-14
 -1      2799 5.57252E-03-1.83498E-04-1.51362E-14
 -1      2800 5.41843E-03-1.08022E-04-1.42828E-14
 -1      2801 5.39285E-03-1.14207E-04-1.39196E-14
 -1      2802 5.87932E-03-3.29195E-04-1.69146E-14
 -1      2803 5.72632E-03-2.57272E-04-1.60134E-14
 -1      2804 5.70513E-03-2.64941E-04-1.56286E-14
 -1      2805 6.18310E-03-4.67191E-04-1.87862E-14
 -1      2806 6.03169E-03-3.99134E-04-1.78388E-14
 -1      2807 6.01366E-03-4.07653E-04-1.74312E-14
 -1      2808 6.48350E-03-5.97984E-04-2.07518E-14
 -1      2809 6.33376E-03-5.33406E-04-1.97578E-14
 -1      2810 6.31765E-03-5.42294E-04-1.93275E-14
 -1      2811 6.78071E-03-7.22848E-04-2.28088E-14
 -1      2812 6.63250E-03-6.61058E-04-2.17694E-14
 -1      2813 6.61724E-03-6.70027E-04-2.13166E-14
 -1      2814 7.07519E-03-8.43276E-04-2.49546E-14
 -1      2815 6.92827E-03-7.83522E-04-2.38702E-14
 -1      2816 6.91309E-03-7.92430E-04-2.33943E-14
 -1      2817 7.36747E-03-9.60670E-04-2.71904E-14
 -1      2818 7.22158E-03-9.02273E-04-2.60621E-14
 -1      2819 7.20600E-03-9.11059E-04-2.55628E-14
 -1      2820 7.65805E-03-1.07621E-03-2.95125E-14
 -1      2821 7.51295E-03-1.01861E-03-2.83404E-14
 -1      2822 7.49672E-03-1.02726E-03-2.78192E-14
 -1      2823 7.94734E-03-1.19079E-03-3.19192E-14
 -1      2824 7.80283E-03-1.13357E-03-3.07056E-14
 -1      2825 7.78587E-03-1.14208E-03-3.01604E-14
 -1      2826 8.23565E-03-1.30506E-03-3.44111E-14
 -1      2827 8.09160E-03-1.24793E-03-3.31553E-14
 -1      2828 8.07392E-03-1.25630E-03-3.25866E-14
 -1      2829 8.52325E-03-1.41946E-03-3.69814E-14
 -1      2830 8.37952E-03-1.36223E-03-3.56862E-14
 -1      2831 8.36122E-03-1.37046E-03-3.50955E-14
 -1      2832 8.81030E-03-1.53426E-03-3.96259E-14
 -1      2833 8.66683E-03-1.47680E-03-3.82947E-14
 -1      2834 8.64801E-03-1.48491E-03-3.76811E-14
 -1      2835 9.09697E-03-1.64957E-03-4.23342E-14
 -1      2836 8.95367E-03-1.59184E-03-4.09725E-14
 -1      2837 8.93446E-03-1.59983E-03-4.03378E-14
 -1      2838 9.38334E-03-1.76547E-03-4.51056E-14
 -1      2839 9.24018E-03-1.70745E-03-4.37124E-14
 -1      2840 9.22067E-03-1.71533E-03-4.30585E-14
 -1      2841 9.66951E-03-1.88192E-03-4.79350E-14
 -1      2842 9.52645E-03-1.82362E-03-4.65141E-14
 -1      2843 9.50672E-03-1.83141E-03-4.58395E-14
 -1      2844 9.95552E-03-1.99890E-03-5.08144E-14
 -1      2845 9.81253E-03-1.94035E-03-4.93682E-14
 -1      2846 9.79266E-03-1.94804E-03-4.86776E-14
 -1      2847 1.02414E-02-2.11634E-03-5.37410E-14
 -1      2848 1.00985E-02-2.05756E-03-5.22714E-14
 -1      2849 1.00785E-02-2.06518E-03-5.15649E-14
 -1      2850 1.05272E-02-2.23417E-03-5.67156E-14
 -1      2851 1.03843E-02-2.17521E-03-5.52236E-14
 -1      2852 1.03643E-02-2.18276E-03-5.45002E-14
 -1      2853 1.08130E-02-2.35232E-03-5.97392E-14
 -1      2854 1.06701E-02-2.29321E-03-5.82226E-14
 -1      2855 1.06501E-02-2.30071E-03-5.74849E-14
 -1      2856 1.10988E-02-2.47074E-03-6.28069E-14
 -1      2857 1.09559E-02-2.41150E-03-6.12658E-14
 -1      2858 1.09359E-02-2.41896E-03-6.05155E-14
 -1      2859 1.13845E-02-2.58937E-03-6.59212E-14
 -1      2860 1.12416E-02-2.53003E-03-6.43586E-14
 -1      2861 1.12216E-02-2.53745E-03-6.35927E-14
 -1      2862 1.16702E-02-2.70815E-03-6.90837E-14
 -1      2863 1.15273E-02-2.64874E-03-6.74963E-14
 -1      2864 1.15073E-02-2.65614E-03-6.67172E-14
 -1      2865 1.19559E-02-2.82706E-03-7.22860E-14
 -1      2866 1.18130E-02-2.76759E-03-7.06791E-14
 -1      2867 1.17930E-02-2.77497E-03-6.98878E-14
 -1      2868 1.22416E-02-2.94606E-03-7.55235E-14
 -1      2869 1.20987E-02-2.88655E-03-7.39007E-14
 -1      2870 1.20788E-02-2.89391E-03-7.30982E-14
 -1      2871 1.25272E-02-3.06512E-03-7.87936E-14
 -1      2872 1.23844E-02-3.00558E-03-7.71549E-14
 -1      2873 1.23645E-02-3.01293E-03-7.63425E-14
 -1      2874 1.28129E-02-3.18423E-03-8.20917E-14
 -1      2875 1.26701E-02-3.12467E-03-8.04407E-14
 -1      2876 1.26502E-02-3.13201E-03-7.96186E-14
 -1      2877 1.30986E-02-3.30336E-03-8.54071E-14
 -1      2878 1.29558E-02-3.24379E-03-8.37472E-14
 -1      2879 1.29359E-02-3.25113E-03-8.29186E-14
 -1      2880 1.33843E-02-3.42251E-03-8.87462E-14
 -1      2881 1.32415E-02-3.36293E-03-8.70742E-14
 -1      2882 1.32216E-02-3.37026E-03-8.62402E-14
 -1      2883 1.36695E-02-3.54244E-03-9.20589E-14
 -1      2884 1.35266E-02-3.48287E-03-9.03776E-14
 -1      2885 1.35067E-02-3.49020E-03-8.95375E-14
 -1      2886 1.37912E-02-3.61092E-03-9.28108E-14
 -1      2887 3.65536E-03-1.30700E-03-4.53435E-15
 -1      2888 1.40132E-02-3.76617E-03-9.29873E-14
 -1      2889 1.39556E-02-3.72472E-03-9.29902E-14
 -1      2890 1.42469E-02-3.93446E-03-9.29536E-14
 -1      2891 1.41884E-02-3.89230E-03-9.29651E-14
 -1      2892 1.41300E-02-3.85031E-03-9.29764E-14
 -1      2893 1.40715E-02-3.80815E-03-9.29818E-14
 -1      2894 1.39190E-02-3.73583E-03-9.15175E-14
 -1      2895 1.40356E-02-3.81980E-03-9.15008E-14
 -1      2896 1.39027E-02-3.68890E-03-9.29008E-14
 -1      2897 1.38442E-02-3.64674E-03-9.29005E-14
 -1      2898 1.37019E-02-3.58638E-03-9.12592E-14
 -1      2899 1.38078E-02-3.65803E-03-9.14360E-14
 -1      2900 1.43641E-02-4.01879E-03-9.29226E-14
 -1      2901 1.43055E-02-3.97663E-03-9.29406E-14
 -1      2902 1.41525E-02-3.90395E-03-9.14772E-14
 -1      2903 1.44813E-02-4.10313E-03-9.28768E-14
 -1      2904 1.44227E-02-4.06096E-03-9.29017E-14
 -1      2905 1.42696E-02-3.98828E-03-9.14413E-14
 -1      2906 1.45965E-02-4.18603E-03-9.28199E-14
 -1      2907 1.45389E-02-4.14458E-03-9.28507E-14
 -1      2908 1.43859E-02-4.07189E-03-9.13939E-14
 -1      2909 1.47138E-02-4.27036E-03-9.27533E-14
 -1      2910 1.46551E-02-4.22819E-03-9.27866E-14
 -1      2911 1.45021E-02-4.15551E-03-9.13345E-14
 -1      2912 1.48311E-02-4.35468E-03-9.26752E-14
 -1      2913 1.47724E-02-4.31252E-03-9.27125E-14
 -1      2914 1.46194E-02-4.23983E-03-9.12635E-14
 -1      2915 5.66135E-03-4.88537E-04-1.10500E-14
 -1      2916 5.89626E-03-6.01410E-04-1.14422E-14
 -1      2917 7.96562E-04-1.86441E-04-3.46145E-16
 -1      2918 9.30973E-04-2.16070E-04-4.49361E-16
 -1      2919 2.57962E-03 5.30783E-04-2.91706E-15
 -1      2920 2.42544E-03 5.07451E-04-2.57415E-15
 -1      2921 2.34074E-03 4.51604E-04-2.45046E-15
 -1      2922 2.65541E-03 4.99416E-04-3.13878E-15
 -1      2923 6.75062E-03-8.63595E-04-1.21181E-14
 -1      2924 6.71002E-03-8.72066E-04-1.19699E-14
 -1      2925 3.43965E-03-1.15053E-03-4.36574E-15
 -1      2926 6.33835E-03-1.06693E-03-1.16574E-14
 -1      2927 6.50437E-03-1.05167E-03-1.24559E-14
 -1      2928 6.64703E-03-1.00233E-03-1.29225E-14
 -1      2929 6.63197E-03-8.95075E-04-1.17751E-14
 -1      2930 6.53248E-03-9.24625E-04-1.15442E-14
 -1      2931 5.22025E-03-2.37572E-04-1.01306E-14
 -1      2932 5.39406E-03-3.41676E-04-1.04715E-14
 -1      2933 5.12815E-03-1.82204E-04-1.01542E-14
 -1      2934 1.05928E-03-2.39543E-04-5.68691E-16
 -1      2935 1.20119E-03-2.62624E-04-7.21374E-16
 -1      2936 1.23000E-03-2.47818E-04-8.29482E-16
 -1      2937 9.83994E-04-2.05943E-04-5.49243E-16
 -1      2938 6.44204E-04-1.34326E-04-2.70847E-16
 -1      2939 4.08814E-03 3.82969E-04-7.07989E-15
 -1      2940 4.21711E-03 3.47544E-04-7.50241E-15
 -1      2941 7.76285E-04 7.32841E-05-4.12431E-16
 -1      2942 7.64875E-04 4.90277E-05-4.19681E-16
 -1      2943 8.75264E-04 4.27817E-05-5.37927E-16
 -1      2944 9.02372E-04 9.80079E-05-5.20675E-16
 -1      2945 3.02545E-03 5.45184E-05-4.54941E-15
 -1      2946 3.16187E-03 1.29071E-04-4.76504E-15
 -1      2947 2.53545E-03-5.95658E-04-3.44557E-15
 -1      2948 2.31901E-03-5.06199E-04-3.27252E-15
 -1      2949 2.71375E-03-9.73660E-05-4.11407E-15
 -1      2950 2.87260E-03-2.22884E-05-4.32842E-15
 -1      2951 2.89541E-03 3.25073E-05-4.23699E-15
 -1      2952 1.86961E-03-3.71693E-04-3.17868E-15
 -1      2953 1.91254E-03-3.65681E-04-3.22891E-15
 -1      2954 1.91327E-03-3.30137E-04-3.03603E-15
 -1      2955 7.11515E-04-9.04065E-05-4.29181E-16
 -1      2956 7.19288E-04-1.01585E-04-4.23679E-16
 -1      2957 3.25404E-03-1.01811E-03-4.17002E-15
 -1      2958 2.30525E-03-2.52701E-04-3.60163E-15
 -1      2959 2.50559E-03-1.85133E-04-3.85317E-15
 -1      2960 2.55703E-03-1.22538E-04-3.77001E-15
 -1      2961 1.89700E-03-3.91366E-04-3.16299E-15
 -1      2962 1.85696E-03-3.83901E-04-3.15496E-15
 -1      2963 1.89661E-03-3.77460E-04-2.95110E-15
 -1      2964 8.26063E-04-4.33253E-05-5.53919E-16
 -1      2965 7.15683E-04-4.35509E-05-4.36771E-16
 -1      2966 7.10196E-04-5.67554E-05-4.36879E-16
 -1      2967 8.35397E-04 2.33200E-04-3.32891E-16
 -1      2968 4.72669E-03 7.44119E-05-9.12302E-15
 -1      2969 4.84188E-03 1.53193E-06-9.56745E-15
 -1      2970 4.61113E-03 1.47808E-04-8.88374E-15
 -1      2971 6.32780E-03-7.72478E-04-1.25860E-14
 -1      2972 6.39592E-03-7.88995E-04-1.23085E-14
 -1      2973 6.49522E-03-8.17898E-04-1.26264E-14
 -1      2974 2.15640E-03-2.66971E-04-3.29978E-15
 -1      2975 2.27696E-03-4.78282E-04-2.82302E-15
 -1      2976 2.48179E-03-5.62230E-04-2.95204E-15
 -1      2977 8.29420E-04-1.24451E-04-5.33983E-16
 -1      2978 7.31096E-04-1.13760E-04-4.16185E-16
 -1      2979 7.46913E-04-1.27774E-04-4.06969E-16
 -1      2980 2.65055E-03-6.44524E-04-3.30019E-15
 -1      2981 7.48847E-04-1.47100E-04-3.67355E-16
 -1      2982 6.70202E-03-8.97408E-04-1.22736E-14
 -1      2983 6.77006E-03-8.65742E-04-1.23913E-14
 -1      2984 6.79065E-03-8.84604E-04-1.27478E-14
 -1      2985 6.77575E-03-8.72119E-04-1.26658E-14
 -1      2986 4.21854E-03 3.46088E-04-7.62778E-15
 -1      2987 4.30852E-03 3.11178E-04-7.85683E-15
 -1      2988 4.39689E-03 2.67451E-04-8.21886E-15
 -1      2989 6.66498E-03-8.43169E-04-1.23280E-14
 -1      2990 6.00843E-03-6.51458E-04-1.19697E-14
 -1      2991 5.54442E-03-4.26199E-04-1.10772E-14
 -1      2992 1.49317E-02-4.42396E-03-9.27321E-14
 -1      2993 1.48838E-02-4.38913E-03-9.27835E-14
 -1      2994 1.47307E-02-4.31644E-03-9.13340E-14
 -1      2995 1.48362E-02-4.38533E-03-9.15506E-14
 -1      2996 1.41079E-03 3.13721E-04-9.27969E-16
 -1      2997 1.35143E-03 3.40126E-04-8.09032E-16
 -1      2998 1.24769E-03 3.31049E-04-6.81489E-16
 -1      2999 6.11557E-03-1.12253E-03-1.07816E-14
 -1      3000 6.31524E-03-1.02304E-03-1.12183E-14
 -1      3001 3.66460E-03 3.47162E-04-5.84819E-15
 -1      3002 3.72746E-03 3.75325E-04-6.01941E-15
 -1      3003 3.55167E-03 3.19581E-04-5.55441E-15
 -1      3004 2.78560E-03-7.17682E-04-3.58383E-15
 -1      3005 9.55854E-04 2.42189E-04-4.44171E-16
 -1      3006 3.25612E-03 1.87274E-04-4.90889E-15
 -1      3007 3.33804E-03 2.41639E-04-5.05363E-15
 -1      3008 3.12345E-03 1.60522E-04-4.58994E-15
 -1      3009 5.38287E-03-1.55880E-03-8.83888E-15
 -1      3010 5.54858E-03-1.43327E-03-9.22896E-15
 -1      3011 7.07318E-04-6.86056E-05-4.35551E-16
 -1      3012 7.07638E-04-7.96874E-05-4.32935E-16
 -1      3013 8.11645E-04-9.94832E-05-5.47359E-16
 -1      3014 8.11888E-04-7.40721E-05-5.53567E-16
 -1      3015 3.89368E-03 4.01022E-04-6.51711E-15
 -1      3016 3.98840E-03 3.97053E-04-6.79543E-15
 -1      3017 4.03245E-03 3.94162E-04-6.99047E-15
 -1      3018 1.82655E-03-3.57321E-04-2.96817E-15
 -1      3019 6.46305E-03-9.63300E-04-1.15637E-14
 -1      3020 2.23178E-03-4.64252E-04-2.94348E-15
 -1      3021 2.14320E-03-4.38355E-04-3.04106E-15
 -1      3022 2.02685E-03-4.00342E-04-2.84025E-15
 -1      3023 2.10431E-03-4.18969E-04-2.61045E-15
 -1      3024 6.56230E-03-9.56991E-04-1.20936E-14
 -1      3025 3.01938E-03-8.53300E-04-3.78458E-15
 -1      3026 5.88955E-03-1.21896E-03-1.00244E-14
 -1      3027 5.31061E-03-1.56999E-03-8.54343E-15
 -1      3028 5.71558E-03-1.32140E-03-9.62304E-15
 -1      3029 1.06340E-03 1.96614E-04-6.09918E-16
 -1      3030 1.04792E-03 1.60393E-04-6.27184E-16
 -1      3031 1.10403E-03 3.33004E-04-5.00725E-16
 -1      3032 6.68979E-03-9.30568E-04-1.25918E-14
 -1      3033 6.64624E-03-9.60983E-04-1.26105E-14
 -1      3034 6.76713E-03-9.82118E-04-1.34358E-14
 -1      3035 6.75952E-03-9.11418E-04-1.27942E-14
 -1      3036 1.62079E-03-2.98550E-04-1.56240E-15
 -1      3037 1.74157E-03-3.22324E-04-1.81490E-15
 -1      3038 1.86062E-03-3.50667E-04-2.05290E-15
 -1      3039 1.97986E-03-3.81114E-04-2.34117E-15
 -1      3040 1.95274E-03-3.71975E-04-2.45048E-15
 -1      3041 1.73196E-03-3.14454E-04-1.94392E-15
 -1      3042 1.83184E-03-3.11572E-04-2.77652E-15
 -1      3043 1.88329E-03-2.97525E-04-2.82102E-15
 -1      3044 2.02741E-03-2.67064E-04-3.00825E-15
 -1      3045 2.21259E-03-2.12411E-04-3.21996E-15
 -1      3046 7.11638E-03-1.08277E-03-1.59868E-14
 -1      3047 7.23679E-03-1.12885E-03-1.68970E-14
 -1      3048 7.36556E-03-1.18066E-03-1.78743E-14
 -1      3049 7.49771E-03-1.23615E-03-1.88739E-14
 -1      3050 7.29604E-03-1.13257E-03-1.74563E-14
 -1      3051 7.62583E-03-1.29128E-03-1.98502E-14
 -1      3052 7.75648E-03-1.34870E-03-2.08468E-14
 -1      3053 7.54185E-03-1.23884E-03-1.94115E-14
 -1      3054 7.88896E-03-1.40756E-03-2.18647E-14
 -1      3055 8.02337E-03-1.46792E-03-2.29059E-14
 -1      3056 7.79459E-03-1.35120E-03-2.14060E-14
 -1      3057 8.15916E-03-1.52913E-03-2.39672E-14
 -1      3058 8.29635E-03-1.59120E-03-2.50459E-14
 -1      3059 8.05702E-03-1.46953E-03-2.34859E-14
 -1      3060 8.43452E-03-1.65370E-03-2.61473E-14
 -1      3061 8.57368E-03-1.71661E-03-2.72681E-14
 -1      3062 8.32656E-03-1.59165E-03-2.56476E-14
 -1      3063 8.71350E-03-1.77967E-03-2.84093E-14
 -1      3064 8.85401E-03-1.84285E-03-2.95683E-14
 -1      3065 8.60122E-03-1.71586E-03-2.78893E-14
 -1      3066 8.99495E-03-1.90600E-03-3.07456E-14
 -1      3067 9.13634E-03-1.96909E-03-3.19420E-14
 -1      3068 8.87948E-03-1.84097E-03-3.02080E-14
 -1      3069 9.27802E-03-2.03204E-03-3.31559E-14
 -1      3070 9.41999E-03-2.09485E-03-3.43887E-14
 -1      3071 9.16021E-03-1.96620E-03-3.26007E-14
 -1      3072 9.56214E-03-2.15746E-03-3.56409E-14
 -1      3073 9.70448E-03-2.21987E-03-3.69120E-14
 -1      3074 9.44265E-03-2.09109E-03-3.50686E-14
 -1      3075 9.84692E-03-2.28208E-03-3.81990E-14
 -1      3076 9.98949E-03-2.34408E-03-3.95024E-14
 -1      3077 9.72623E-03-2.21539E-03-3.76090E-14
 -1      3078 1.01321E-02-2.40587E-03-4.08234E-14
 -1      3079 1.02748E-02-2.46747E-03-4.21609E-14
 -1      3080 1.00106E-02-2.33900E-03-4.02193E-14
 -1      3081 1.04176E-02-2.52887E-03-4.35136E-14
 -1      3082 1.05604E-02-2.59010E-03-4.48829E-14
 -1      3083 1.02954E-02-2.46189E-03-4.28916E-14
 -1      3084 1.07032E-02-2.65115E-03-4.62678E-14
 -1      3085 1.08460E-02-2.71204E-03-4.76656E-14
 -1      3086 1.05806E-02-2.58412E-03-4.56301E-14
 -1      3087 1.09888E-02-2.77279E-03-4.90767E-14
 -1      3088 1.11317E-02-2.83341E-03-5.05018E-14
 -1      3089 1.08660E-02-2.70575E-03-4.84249E-14
 -1      3090 1.12817E-02-2.89692E-03-5.20132E-14
 -1      3091 1.14317E-02-2.96031E-03-5.35378E-14
 -1      3092 1.11587E-02-2.82988E-03-5.13444E-14
 -1      3093 1.15746E-02-3.02058E-03-5.50013E-14
 -1      3094 1.17175E-02-3.08076E-03-5.64800E-14
 -1      3095 1.14515E-02-2.95355E-03-5.43203E-14
 -1      3096 1.18604E-02-3.14086E-03-5.79722E-14
 -1      3097 1.20032E-02-3.20089E-03-5.94775E-14
 -1      3098 1.17372E-02-3.07385E-03-5.72754E-14
 -1      3099 1.21461E-02-3.26086E-03-6.09944E-14
 -1      3100 1.22890E-02-3.32076E-03-6.25254E-14
 -1      3101 1.20229E-02-3.19386E-03-6.02833E-14
 -1      3102 1.24319E-02-3.38062E-03-6.40686E-14
 -1      3103 1.25747E-02-3.44044E-03-6.56230E-14
 -1      3104 1.23087E-02-3.31364E-03-6.33426E-14
 -1      3105 1.27176E-02-3.50022E-03-6.71959E-14
 -1      3106 1.28605E-02-3.55996E-03-6.87824E-14
 -1      3107 1.25944E-02-3.43325E-03-6.64564E-14
 -1      3108 1.30034E-02-3.61968E-03-7.03802E-14
 -1      3109 1.31462E-02-3.67937E-03-7.19889E-14
 -1      3110 1.28802E-02-3.55273E-03-6.96234E-14
 -1      3111 1.32891E-02-3.73904E-03-7.36091E-14
 -1      3112 1.34320E-02-3.79870E-03-7.52371E-14
 -1      3113 1.31659E-02-3.67210E-03-7.28403E-14
 -1      3114 1.35748E-02-3.85834E-03-7.68733E-14
 -1      3115 1.37177E-02-3.91797E-03-7.85173E-14
 -1      3116 1.34517E-02-3.79141E-03-7.60959E-14
 -1      3117 1.38606E-02-3.97759E-03-8.01677E-14
 -1      3118 1.40034E-02-4.03720E-03-8.18230E-14
 -1      3119 1.37374E-02-3.91066E-03-7.93810E-14
 -1      3120 1.41463E-02-4.09680E-03-8.34831E-14
 -1      3121 1.42891E-02-4.15640E-03-8.51512E-14
 -1      3122 1.40232E-02-4.02988E-03-8.26880E-14
 -1      3123 1.44320E-02-4.21600E-03-8.68226E-14
 -1      3124 1.45749E-02-4.27559E-03-8.84959E-14
 -1      3125 1.43089E-02-4.14908E-03-8.60194E-14
 -1      3126 2.09344E-03 3.71006E-04-2.02847E-15
 -1      3127 1.93566E-03 3.48965E-04-1.75137E-15
 -1      3128 1.77917E-03 3.27658E-04-1.49617E-15
 -1      3129 1.62431E-03 3.06655E-04-1.26293E-15
 -1      3130 1.84204E-03 2.93857E-04-1.64864E-15
 -1      3131 3.36443E-03 5.42639E-04-5.08161E-15
 -1      3132 3.20955E-03 5.30769E-04-4.61328E-15
 -1      3133 3.05260E-03 5.12720E-04-4.17136E-15
 -1      3134 2.89387E-03 4.91093E-04-3.75493E-15
 -1      3135 3.13960E-03 4.83455E-04-4.42223E-15
 -1      3136 3.96549E-03 4.95108E-04-7.21469E-15
 -1      3137 3.81652E-03 5.24201E-04-6.64119E-15
 -1      3138 4.26508E-03 4.01759E-04-8.44024E-15
 -1      3139 4.11440E-03 4.53897E-04-7.81425E-15
 -1      3140 4.06561E-03 4.49072E-04-7.54523E-15
 -1      3141 4.57190E-03 2.70423E-04-9.77383E-15
 -1      3142 4.41729E-03 3.39734E-04-9.09417E-15
 -1      3143 4.37216E-03 3.39936E-04-8.79987E-15
 -1      3144 4.88676E-03 1.17181E-04-1.12109E-14
 -1      3145 4.72850E-03 1.95357E-04-1.04795E-14
 -1      3146 4.68806E-03 1.94465E-04-1.01621E-14
 -1      3147 5.20618E-03-4.27083E-05-1.27497E-14
 -1      3148 5.04630E-03 3.72002E-05-1.19674E-14
 -1      3149 5.01202E-03 3.24919E-05-1.16273E-14
 -1      3150 5.52528E-03-1.98963E-04-1.43883E-14
 -1      3151 5.36615E-03-1.21691E-04-1.35567E-14
 -1      3152 5.33849E-03-1.30096E-04-1.31937E-14
 -1      3153 5.84038E-03-3.46993E-04-1.61229E-14
 -1      3154 5.68359E-03-2.74102E-04-1.52435E-14
 -1      3155 5.66177E-03-2.84679E-04-1.48589E-14
 -1      3156 6.14970E-03-4.85902E-04-1.79498E-14
 -1      3157 5.99587E-03-4.17511E-04-1.70251E-14
 -1      3158 5.97838E-03-4.28808E-04-1.66188E-14
 -1      3159 6.45309E-03-6.16747E-04-1.98707E-14
 -1      3160 6.30215E-03-5.52199E-04-1.88982E-14
 -1      3161 6.28733E-03-5.63277E-04-1.84702E-14
 -1      3162 6.75131E-03-7.41256E-04-2.18822E-14
 -1      3163 6.60281E-03-6.79656E-04-2.08648E-14
 -1      3164 6.58927E-03-6.90092E-04-2.04144E-14
 -1      3165 7.04545E-03-8.61202E-04-2.39823E-14
 -1      3166 6.89883E-03-8.01682E-04-2.29215E-14
 -1      3167 6.88554E-03-8.11393E-04-2.24480E-14
 -1      3168 7.33660E-03-9.78128E-04-2.61713E-14
 -1      3169 7.19134E-03-9.19952E-04-2.50653E-14
 -1      3170 7.17764E-03-9.29027E-04-2.45708E-14
 -1      3171 7.62569E-03-1.09325E-03-2.84474E-14
 -1      3172 7.48136E-03-1.03585E-03-2.72993E-14
 -1      3173 7.46688E-03-1.04443E-03-2.67806E-14
 -1      3174 7.91341E-03-1.20749E-03-3.08094E-14
 -1      3175 7.76968E-03-1.15044E-03-2.96174E-14
 -1      3176 7.75429E-03-1.15867E-03-2.90767E-14
 -1      3177 8.20027E-03-1.32147E-03-3.32532E-14
 -1      3178 8.05692E-03-1.26448E-03-3.20212E-14
 -1      3179 8.04061E-03-1.27247E-03-3.14580E-14
 -1      3180 8.48662E-03-1.43561E-03-3.57784E-14
 -1      3181 8.34349E-03-1.37850E-03-3.45065E-14
 -1      3182 8.32633E-03-1.38634E-03-3.39193E-14
 -1      3183 8.77266E-03-1.55018E-03-3.83796E-14
 -1      3184 8.62966E-03-1.49284E-03-3.70690E-14
 -1      3185 8.61177E-03-1.50056E-03-3.64610E-14
 -1      3186 9.05853E-03-1.66530E-03-4.10483E-14
 -1      3187 8.91561E-03-1.60767E-03-3.97058E-14
 -1      3188 8.89713E-03-1.61532E-03-3.90754E-14
 -1      3189 9.34432E-03-1.78101E-03-4.37800E-14
 -1      3190 9.20143E-03-1.72308E-03-4.24066E-14
 -1      3191 9.18249E-03-1.73068E-03-4.17569E-14
 -1      3192 9.63008E-03-1.89731E-03-4.65720E-14
 -1      3193 9.48720E-03-1.83909E-03-4.51690E-14
 -1      3194 9.46791E-03-1.84665E-03-4.45005E-14
 -1      3195 9.91582E-03-2.01415E-03-4.94189E-14
 -1      3196 9.77295E-03-1.95566E-03-4.79896E-14
 -1      3197 9.75340E-03-1.96319E-03-4.73022E-14
 -1      3198 1.02015E-02-2.13146E-03-5.23147E-14
 -1      3199 1.00587E-02-2.07275E-03-5.08600E-14
 -1      3200 1.00390E-02-2.08025E-03-5.01574E-14
 -1      3201 1.04873E-02-2.24919E-03-5.52599E-14
 -1      3202 1.03444E-02-2.19028E-03-5.37810E-14
 -1      3203 1.03246E-02-2.19775E-03-5.30635E-14
 -1      3204 1.07730E-02-2.36726E-03-5.82523E-14
 -1      3205 1.06301E-02-2.30819E-03-5.67496E-14
 -1      3206 1.06102E-02-2.31563E-03-5.60179E-14
 -1      3207 1.10587E-02-2.48561E-03-6.12908E-14
 -1      3208 1.09159E-02-2.42640E-03-5.97667E-14
 -1      3209 1.08959E-02-2.43382E-03-5.90182E-14
 -1      3210 1.13445E-02-2.60418E-03-6.43773E-14
 -1      3211 1.12016E-02-2.54487E-03-6.28282E-14
 -1      3212 1.11816E-02-2.55227E-03-6.20661E-14
 -1      3213 1.16302E-02-2.72292E-03-6.75140E-14
 -1      3214 1.14873E-02-2.66353E-03-6.59405E-14
 -1      3215 1.14674E-02-2.67091E-03-6.51636E-14
 -1      3216 1.19159E-02-2.84179E-03-7.06919E-14
 -1      3217 1.17731E-02-2.78234E-03-6.90972E-14
 -1      3218 1.17531E-02-2.78971E-03-6.83099E-14
 -1      3219 1.22017E-02-2.96076E-03-7.39108E-14
 -1      3220 1.20588E-02-2.90127E-03-7.22976E-14
 -1      3221 1.20389E-02-2.90863E-03-7.14983E-14
 -1      3222 1.24874E-02-3.07981E-03-7.71619E-14
 -1      3223 1.23445E-02-3.02028E-03-7.55322E-14
 -1      3224 1.23246E-02-3.02763E-03-7.47242E-14
 -1      3225 1.27731E-02-3.19890E-03-8.04414E-14
 -1      3226 1.26303E-02-3.13935E-03-7.87962E-14
 -1      3227 1.26103E-02-3.14669E-03-7.79796E-14
 -1      3228 1.30588E-02-3.31803E-03-8.37447E-14
 -1      3229 1.29160E-02-3.25846E-03-8.20916E-14
 -1      3230 1.28961E-02-3.26580E-03-8.12627E-14
 -1      3231 1.33446E-02-3.43717E-03-8.70750E-14
 -1      3232 1.32017E-02-3.37760E-03-8.54085E-14
 -1      3233 1.31818E-02-3.38493E-03-8.45742E-14
 -1      3234 1.35944E-02-3.54196E-03-8.99778E-14
 -1      3235 1.34521E-02-3.48159E-03-8.83471E-14
 -1      3236 1.34322E-02-3.48893E-03-8.75099E-14
 -1      3237 1.36473E-02-3.57778E-03-9.00643E-14
 -1      3238 1.41752E-02-3.95776E-03-8.99661E-14
 -1      3239 1.41166E-02-3.91559E-03-8.99891E-14
 -1      3240 1.42904E-02-4.04066E-03-8.99159E-14
 -1      3241 1.42328E-02-3.99921E-03-8.99420E-14
 -1      3242 1.40798E-02-3.92652E-03-8.84963E-14
 -1      3243 1.44077E-02-4.12498E-03-8.98547E-14
 -1      3244 1.43491E-02-4.08282E-03-8.98858E-14
 -1      3245 1.41960E-02-4.01013E-03-8.84428E-14
 -1      3246 1.45250E-02-4.20930E-03-8.97829E-14
 -1      3247 1.44663E-02-4.16714E-03-8.98185E-14
 -1      3248 1.43133E-02-4.09446E-03-8.83788E-14
 -1      3249 1.11484E-03 2.93869E-04-5.63772E-16
 -1      3250 5.08756E-03-1.51495E-04-1.03397E-14
 -1      3251 5.23428E-03-2.44226E-04-1.06878E-14
 -1      3252 5.95308E-03-6.26282E-04-1.23485E-14
 -1      3253 6.14787E-03-7.08589E-04-1.26551E-14
 -1      3254 2.42511E-03-1.30768E-04-3.46607E-15
 -1      3255 2.60717E-03-5.74273E-05-3.70967E-15
 -1      3256 1.40580E-02-3.87343E-03-9.00085E-14
 -1      3257 1.39995E-02-3.83126E-03-9.00216E-14
 -1      3258 1.39636E-02-3.84291E-03-8.85407E-14
 -1      3259 3.66762E-03 5.41123E-04-6.09452E-15
 -1      3260 3.51685E-03 5.46954E-04-5.57485E-15
 -1      3261 3.45635E-03 5.14036E-04-5.35765E-15
 -1      3262 3.76320E-03 5.07293E-04-6.39774E-15
 -1      3263 6.88321E-03-1.00428E-03-1.42360E-14
 -1      3264 6.99935E-03-1.04115E-03-1.51014E-14
 -1      3265 7.06707E-03-1.03815E-03-1.55923E-14
 -1      3266 1.37239E-03-2.55472E-04-1.11548E-15
 -1      3267 1.49812E-03-2.76414E-04-1.32937E-15
 -1      3268 1.50880E-03-2.67438E-04-1.46754E-15
 -1      3269 6.65330E-03-8.56343E-04-1.28520E-14
 -1      3270 6.73557E-03-8.67862E-04-1.28346E-14
 -1      3271 1.78175E-03-3.37986E-04-2.71885E-15
 -1      3272 1.78837E-03-3.28539E-04-2.73949E-15
 -1      3273 5.47189E-03-3.82476E-04-1.12744E-14
 -1      3274 5.71349E-03-5.11193E-04-1.18751E-14
 -1      3275 5.42046E-03-3.41086E-04-1.14657E-14
 -1      3276 1.09992E-03 2.41012E-04-6.06733E-16
 -1      3277 2.74297E-03 1.55133E-06-3.90856E-15
 -1      3278 2.87679E-03 6.63052E-05-4.11437E-15
 -1      3279 2.59596E-03-1.66273E-05-3.59456E-15
 -1      3280 9.69433E-04 5.87012E-06-6.77721E-16
 -1      3281 9.54222E-04-1.87541E-05-6.82316E-16
 -1      3282 8.50294E-04-1.58275E-04-4.79488E-16
 -1      3283 5.20725E-03-1.62070E-03-8.21381E-15
 -1      3284 1.89695E-03-3.65346E-04-2.74972E-15
 -1      3285 1.82775E-03-3.52764E-04-2.74512E-15
 -1      3286 1.22084E-03 2.41367E-04-7.55865E-16
 -1      3287 4.50484E-03 2.10574E-04-8.63608E-15
 -1      3288 4.61340E-03 1.48736E-04-9.06346E-15
 -1      3289 4.40960E-03 2.63395E-04-8.39000E-15
 -1      3290 4.83664E-03 1.58435E-05-9.82328E-15
 -1      3291 4.95559E-03-6.53727E-05-1.00811E-14
 -1      3292 5.06848E-03-1.24679E-04-1.06047E-14
 -1      3293 6.26443E-03-7.52724E-04-1.29770E-14
 -1      3294 6.37441E-03-7.89666E-04-1.33021E-14
 -1      3295 6.21562E-03-7.29098E-04-1.33672E-14
 -1      3296 9.26200E-04-1.34394E-04-6.67204E-16
 -1      3297 9.41918E-04-1.48780E-04-6.56850E-16
 -1      3298 1.75452E-03-3.24923E-04-2.52761E-15
 -1      3299 1.91851E-03-2.58168E-04-2.74875E-15
 -1      3300 2.11433E-03-1.66393E-04-2.87709E-15
 -1      3301 2.26425E-03-1.55026E-04-3.16427E-15
 -1      3302 2.30440E-03-9.47094E-05-3.10553E-15
 -1      3303 4.02886E-03 3.98782E-04-7.03376E-15
 -1      3304 4.12152E-03 3.77049E-04-7.32742E-15
 -1      3305 4.20770E-03 3.50923E-04-7.67252E-15
 -1      3306 6.78871E-03-8.86116E-04-1.31973E-14
 -1      3307 1.92535E-03-3.68588E-04-2.63909E-15
 -1      3308 2.25261E-03 3.93958E-04-2.32740E-15
 -1      3309 2.16077E-03 3.35496E-04-2.20498E-15
 -1      3310 2.41255E-03 4.17829E-04-2.64919E-15
 -1      3311 1.47407E-02-4.34670E-03-9.03689E-14
 -1      3312 6.86264E-03-9.67196E-04-1.39078E-14
 -1      3313 2.81430E-03 4.34651E-04-3.58792E-15
 -1      3314 2.73378E-03 4.67091E-04-3.36237E-15
 -1      3315 2.57327E-03 4.42455E-04-2.99392E-15
 -1      3316 2.81126E-03 9.10243E-05-3.90962E-15
 -1      3317 2.96604E-03 1.20960E-04-4.24167E-15
 -1      3318 3.04733E-03 1.74663E-04-4.37202E-15
 -1      3319 1.39411E-02-3.78928E-03-9.00359E-14
 -1      3320 1.38828E-02-3.74730E-03-9.00469E-14
 -1      3321 1.38467E-02-3.75876E-03-8.85745E-14
 -1      3322 1.37532E-02-3.64942E-03-9.02397E-14
 -1      3323 1.37002E-02-3.61360E-03-9.01545E-14
 -1      3324 1.35927E-02-3.56918E-03-8.88726E-14
 -1      3325 1.38114E-02-3.69140E-03-9.02338E-14
 -1      3326 1.45649E-02-4.24533E-03-8.94552E-14
 -1      3327 1.44118E-02-4.17265E-03-8.80193E-14
 -1      3328 5.87529E-03-5.81292E-04-1.25538E-14
 -1      3329 1.47089E-03 2.85590E-04-1.05123E-15
 -1      3330 1.31907E-03 2.64014E-04-8.60301E-16
 -1      3331 3.41649E-03 2.91210E-04-5.20868E-15
 -1      3332 3.48329E-03 3.33650E-04-5.36536E-15
 -1      3333 3.28179E-03 2.65800E-04-4.87456E-15
 -1      3334 9.52025E-04-1.62450E-04-6.31494E-16
 -1      3335 9.64242E-04-1.85312E-04-5.79709E-16
 -1      3336 1.08251E-03-2.05674E-04-7.16387E-16
 -1      3337 1.04594E-03-1.71849E-04-7.77793E-16
 -1      3338 1.05838E-03-3.60950E-05-8.30404E-16
 -1      3339 9.40090E-04-4.09886E-05-6.85202E-16
 -1      3340 9.28052E-04-6.07734E-05-6.86598E-16
 -1      3341 3.67804E-03 3.85871E-04-5.89402E-15
 -1      3342 3.78514E-03 3.97784E-04-6.20113E-15
 -1      3343 3.83412E-03 4.11377E-04-6.38331E-15
 -1      3344 6.60601E-03-8.52710E-04-1.31361E-14
 -1      3345 6.70290E-03-8.80580E-04-1.36534E-14
 -1      3346 6.55594E-03-8.44755E-04-1.34206E-14
 -1      3347 1.19995E-03-2.25220E-04-8.68094E-16
 -1      3348 1.74775E-03-2.98766E-04-2.53665E-15
 -1      3349 1.46176E-02-4.27978E-03-8.95638E-14
 -1      3350 1.03251E-03 1.25848E-04-6.41400E-16
 -1      3351 1.01702E-03 9.30208E-05-6.53638E-16
 -1      3352 1.16633E-03 1.56790E-04-7.74893E-16
 -1      3353 9.12172E-04-1.07798E-04-6.80486E-16
 -1      3354 9.16352E-04-1.21154E-04-6.74997E-16
 -1      3355 1.02195E-03-1.44207E-04-8.15252E-16
 -1      3356 1.28050E-03 2.15552E-04-8.62700E-16
 -1      3357 1.00118E-03 6.18639E-05-6.63762E-16
 -1      3358 9.85323E-04 3.28422E-05-6.71663E-16
 -1      3359 1.09455E-03 1.94283E-05-8.20321E-16
 -1      3360 1.13138E-03 8.44270E-05-8.02133E-16
 -1      3361 1.22781E-03-2.16489E-04-9.79251E-16
 -1      3362 1.53121E-03 2.55444E-04-1.17866E-15
 -1      3363 6.81470E-03-9.06033E-04-1.31289E-14
 -1      3364 6.82790E-03-9.34924E-04-1.34569E-14
 -1      3365 1.36061E-03 1.93702E-04-9.96843E-16
 -1      3366 1.26279E-03 1.74841E-04-8.82242E-16
 -1      3367 1.24454E-03 1.35331E-04-8.98763E-16
 -1      3368 1.72771E-03-3.13048E-04-2.31761E-15
 -1      3369 1.68142E-03-2.98348E-04-2.29372E-15
 -1      3370 7.01688E-03-1.00039E-03-1.51949E-14
 -1      3371 7.11643E-03-1.04324E-03-1.60821E-14
 -1      3372 7.45769E-03-1.18996E-03-1.89730E-14
 -1      3373 7.57744E-03-1.24306E-03-1.99490E-14
 -1      3374 7.70058E-03-1.29778E-03-2.09469E-14
 -1      3375 7.82681E-03-1.35447E-03-2.19656E-14
 -1      3376 7.60594E-03-1.24726E-03-2.04864E-14
 -1      3377 7.95555E-03-1.41236E-03-2.30048E-14
 -1      3378 8.08657E-03-1.47157E-03-2.40653E-14
 -1      3379 7.85406E-03-1.35757E-03-2.25244E-14
 -1      3380 8.21943E-03-1.53155E-03-2.51468E-14
 -1      3381 8.35394E-03-1.59234E-03-2.62474E-14
 -1      3382 8.11262E-03-1.47338E-03-2.46447E-14
 -1      3383 8.48978E-03-1.65357E-03-2.73680E-14
 -1      3384 8.62681E-03-1.71525E-03-2.85094E-14
 -1      3385 8.37883E-03-1.59284E-03-2.68466E-14
 -1      3386 8.76478E-03-1.77712E-03-2.96687E-14
 -1      3387 8.90361E-03-1.83917E-03-3.08465E-14
 -1      3388 8.65064E-03-1.71448E-03-2.91284E-14
 -1      3389 9.04309E-03-1.90126E-03-3.20442E-14
 -1      3390 9.18318E-03-1.96337E-03-3.32596E-14
 -1      3391 8.92650E-03-1.83725E-03-3.14854E-14
 -1      3392 9.32373E-03-2.02540E-03-3.44938E-14
 -1      3393 9.46470E-03-2.08737E-03-3.57479E-14
 -1      3394 9.20529E-03-1.96043E-03-3.39194E-14
 -1      3395 9.60599E-03-2.14921E-03-3.70181E-14
 -1      3396 9.74758E-03-2.21092E-03-3.83070E-14
 -1      3397 9.48617E-03-2.08357E-03-3.64272E-14
 -1      3398 9.88939E-03-2.27249E-03-3.96123E-14
 -1      3399 1.00314E-02-2.33391E-03-4.09325E-14
 -1      3400 9.76855E-03-2.20639E-03-3.90031E-14
 -1      3401 1.01736E-02-2.39518E-03-4.22703E-14
 -1      3402 1.03159E-02-2.45631E-03-4.36229E-14
 -1      3403 1.00520E-02-2.32878E-03-4.16459E-14
 -1      3404 1.04583E-02-2.51728E-03-4.49912E-14
 -1      3405 1.06008E-02-2.57813E-03-4.63754E-14
 -1      3406 1.03362E-02-2.45067E-03-4.43522E-14
 -1      3407 1.07434E-02-2.63884E-03-4.77731E-14
 -1      3408 1.08860E-02-2.69943E-03-4.91819E-14
 -1      3409 1.06209E-02-2.57210E-03-4.71188E-14
 -1      3410 1.10359E-02-2.76293E-03-5.06767E-14
 -1      3411 1.11857E-02-2.82632E-03-5.21884E-14
 -1      3412 1.09131E-02-2.69610E-03-5.00099E-14
 -1      3413 1.13285E-02-2.88659E-03-5.36396E-14
 -1      3414 1.14713E-02-2.94677E-03-5.51020E-14
 -1      3415 1.12056E-02-2.81970E-03-5.29571E-14
 -1      3416 1.16141E-02-3.00688E-03-5.65793E-14
 -1      3417 1.17570E-02-3.06692E-03-5.80709E-14
 -1      3418 1.14911E-02-2.93996E-03-5.58856E-14
 -1      3419 1.18998E-02-3.12689E-03-5.95732E-14
 -1      3420 1.20427E-02-3.18681E-03-6.10900E-14
 -1      3421 1.17767E-02-3.05996E-03-5.88649E-14
 -1      3422 1.21855E-02-3.24668E-03-6.26211E-14
 -1      3423 1.23284E-02-3.30651E-03-6.41638E-14
 -1      3424 1.20624E-02-3.17974E-03-6.18988E-14
 -1      3425 1.24713E-02-3.36630E-03-6.57181E-14
 -1      3426 1.26142E-02-3.42605E-03-6.72870E-14
 -1      3427 1.23481E-02-3.29936E-03-6.49847E-14
 -1      3428 1.27570E-02-3.48578E-03-6.88714E-14
 -1      3429 1.28999E-02-3.54548E-03-7.04669E-14
 -1      3430 1.26339E-02-3.41884E-03-6.81207E-14
 -1      3431 1.30428E-02-3.60516E-03-7.20721E-14
 -1      3432 1.31857E-02-3.66483E-03-7.36903E-14
 -1      3433 1.29197E-02-3.53823E-03-7.13090E-14
 -1      3434 1.33286E-02-3.72447E-03-7.53176E-14
 -1      3435 1.34714E-02-3.78411E-03-7.69519E-14
 -1      3436 1.32054E-02-3.65754E-03-7.45403E-14
 -1      3437 1.36143E-02-3.84373E-03-7.85923E-14
 -1      3438 1.37572E-02-3.90335E-03-8.02392E-14
 -1      3439 1.34912E-02-3.77680E-03-7.78059E-14
 -1      3440 1.39001E-02-3.96295E-03-8.18950E-14
 -1      3441 1.40429E-02-4.02256E-03-8.35537E-14
 -1      3442 1.37770E-02-3.89603E-03-8.10995E-14
 -1      3443 1.41560E-02-4.06781E-03-8.49480E-14
 -1      3444 1.42988E-02-4.12740E-03-8.66172E-14
 -1      3445 1.42589E-02-4.09137E-03-8.69407E-14
 -1      3446 1.40329E-02-4.00088E-03-8.41470E-14
 -1      3447 6.81364E-03-9.05613E-04-1.37968E-14
 -1      3448 6.84459E-03-9.08572E-04-1.36244E-14
 -1      3449 6.91647E-03-9.64117E-04-1.42547E-14
 -1      3450 4.48364E-03 2.73035E-04-9.16182E-15
 -1      3451 4.32457E-03 3.42263E-04-8.50535E-15
 -1      3452 4.16881E-03 4.00855E-04-7.87684E-15
 -1      3453 4.01437E-03 4.45153E-04-7.27635E-15
 -1      3454 4.27625E-03 3.47070E-04-8.21115E-15
 -1      3455 5.14354E-03-5.69196E-05-1.20459E-14
 -1      3456 4.97655E-03 2.75803E-05-1.12861E-14
 -1      3457 5.47630E-03-2.20085E-04-1.36400E-14
 -1      3458 5.31060E-03-1.39870E-04-1.28308E-14
 -1      3459 5.28282E-03-1.50218E-04-1.24675E-14
 -1      3460 5.80236E-03-3.71076E-04-1.53312E-14
 -1      3461 5.64059E-03-2.97120E-04-1.44735E-14
 -1      3462 5.62017E-03-3.11232E-04-1.40883E-14
 -1      3463 6.11898E-03-5.10078E-04-1.71161E-14
 -1      3464 5.96197E-03-4.41873E-04-1.62120E-14
 -1      3465 5.94684E-03-4.56812E-04-1.58060E-14
 -1      3466 6.42633E-03-6.39521E-04-1.89915E-14
 -1      3467 6.27378E-03-5.75758E-04-1.80423E-14
 -1      3468 6.26170E-03-5.89825E-04-1.76152E-14
 -1      3469 6.72593E-03-7.62157E-04-2.09593E-14
 -1      3470 6.57700E-03-7.01485E-04-1.99641E-14
 -1      3471 6.56617E-03-7.14002E-04-1.95148E-14
 -1      3472 7.01971E-03-8.80339E-04-2.30159E-14
 -1      3473 6.87344E-03-8.21650E-04-2.19762E-14
 -1      3474 6.86263E-03-8.32580E-04-2.15053E-14
 -1      3475 7.30948E-03-9.95853E-04-2.51602E-14
 -1      3476 7.16500E-03-9.38323E-04-2.40772E-14
 -1      3477 7.15348E-03-9.47924E-04-2.35845E-14
 -1      3478 7.59669E-03-1.10995E-03-2.73900E-14
 -1      3479 7.45333E-03-1.05301E-03-2.62630E-14
 -1      3480 7.44073E-03-1.06163E-03-2.57497E-14
 -1      3481 7.88241E-03-1.22350E-03-2.97071E-14
 -1      3482 7.73968E-03-1.16675E-03-2.85390E-14
 -1      3483 7.72587E-03-1.17471E-03-2.80006E-14
 -1      3484 8.16737E-03-1.33704E-03-3.21061E-14
 -1      3485 8.02495E-03-1.28024E-03-3.08958E-14
 -1      3486 8.00995E-03-1.28780E-03-3.03365E-14
 -1      3487 8.45203E-03-1.45092E-03-3.45851E-14
 -1      3488 8.30971E-03-1.39392E-03-3.33350E-14
 -1      3489 8.29363E-03-1.40125E-03-3.27537E-14
 -1      3490 8.73665E-03-1.56533E-03-3.71424E-14
 -1      3491 8.59433E-03-1.50805E-03-3.58557E-14
 -1      3492 8.57732E-03-1.51528E-03-3.52508E-14
 -1      3493 9.02139E-03-1.68035E-03-3.97708E-14
 -1      3494 8.87900E-03-1.62276E-03-3.84481E-14
 -1      3495 8.86123E-03-1.62996E-03-3.78234E-14
 -1      3496 9.30631E-03-1.79600E-03-4.24644E-14
 -1      3497 9.16382E-03-1.73810E-03-4.11103E-14
 -1      3498 9.14543E-03-1.74531E-03-4.04648E-14
 -1      3499 9.59140E-03-1.91226E-03-4.52189E-14
 -1      3500 9.44883E-03-1.85406E-03-4.38337E-14
 -1      3501 9.42997E-03-1.86130E-03-4.31702E-14
 -1      3502 9.87667E-03-2.02906E-03-4.80306E-14
 -1      3503 9.73401E-03-1.97060E-03-4.66173E-14
 -1      3504 9.71479E-03-1.97786E-03-4.59351E-14
 -1      3505 1.01621E-02-2.14635E-03-5.08955E-14
 -1      3506 1.00194E-02-2.08765E-03-4.94566E-14
 -1      3507 9.99988E-03-2.09495E-03-4.87561E-14
 -1      3508 1.04476E-02-2.26404E-03-5.38092E-14
 -1      3509 1.03048E-02-2.20515E-03-5.23463E-14
 -1      3510 1.02852E-02-2.21247E-03-5.16319E-14
 -1      3511 1.07332E-02-2.38208E-03-5.67739E-14
 -1      3512 1.05904E-02-2.32303E-03-5.52866E-14
 -1      3513 1.05706E-02-2.33036E-03-5.45552E-14
 -1      3514 1.10189E-02-2.50040E-03-5.97828E-14
 -1      3515 1.08760E-02-2.44121E-03-5.82709E-14
 -1      3516 1.08562E-02-2.44856E-03-5.75278E-14
 -1      3517 1.13046E-02-2.61895E-03-6.28394E-14
 -1      3518 1.11617E-02-2.55965E-03-6.13059E-14
 -1      3519 1.11418E-02-2.56700E-03-6.05458E-14
 -1      3520 1.15903E-02-2.73766E-03-6.59515E-14
 -1      3521 1.14474E-02-2.67828E-03-6.43890E-14
 -1      3522 1.14275E-02-2.68564E-03-6.36159E-14
 -1      3523 1.18760E-02-2.85652E-03-6.91060E-14
 -1      3524 1.17332E-02-2.79707E-03-6.75225E-14
 -1      3525 1.17132E-02-2.80443E-03-6.67361E-14
 -1      3526 1.21618E-02-2.97547E-03-7.23043E-14
 -1      3527 1.20189E-02-2.91598E-03-7.07003E-14
 -1      3528 1.19990E-02-2.92333E-03-6.99031E-14
 -1      3529 1.24475E-02-3.09450E-03-7.55348E-14
 -1      3530 1.23047E-02-3.03498E-03-7.39157E-14
 -1      3531 1.22847E-02-3.04232E-03-7.31087E-14
 -1      3532 1.27333E-02-3.21358E-03-7.87960E-14
 -1      3533 1.25904E-02-3.15404E-03-7.71620E-14
 -1      3534 1.25705E-02-3.16138E-03-7.63454E-14
 -1      3535 1.30190E-02-3.33270E-03-8.20874E-14
 -1      3536 1.28762E-02-3.27314E-03-8.04375E-14
 -1      3537 1.28563E-02-3.28048E-03-7.96134E-14
 -1      3538 1.33048E-02-3.45184E-03-8.54023E-14
 -1      3539 1.31619E-02-3.39227E-03-8.37414E-14
 -1      3540 1.31420E-02-3.39961E-03-8.29107E-14
 -1      3541 1.41016E-02-3.97961E-03-8.69727E-14
 -1      3542 1.40430E-02-3.93745E-03-8.70007E-14
 -1      3543 1.37170E-02-3.66089E-03-8.87767E-14
 -1      3544 1.42096E-02-4.05657E-03-8.69406E-14
 -1      3545 1.41509E-02-4.01441E-03-8.69739E-14
 -1      3546 1.39979E-02-3.94173E-03-8.55397E-14
 -1      3547 1.40965E-02-4.01133E-03-8.55420E-14
 -1      3548 1.39853E-02-3.89600E-03-8.70303E-14
 -1      3549 1.39277E-02-3.85455E-03-8.70555E-14
 -1      3550 1.38909E-02-3.86548E-03-8.55679E-14
 -1      3551 1.20537E-03-2.00154E-04-1.01409E-15
 -1      3552 5.81301E-03-5.36068E-04-1.28602E-14
 -1      3553 6.02728E-03-6.39873E-04-1.33562E-14
 -1      3554 6.84175E-03-9.10649E-04-1.34097E-14
 -1      3555 6.96263E-03-9.68267E-04-1.47236E-14
 -1      3556 1.17103E-03-1.80416E-04-1.02480E-15
 -1      3557 1.33824E-03-2.23051E-04-1.25971E-15
 -1      3558 6.88730E-03-9.30204E-04-1.40159E-14
 -1      3559 3.22920E-03 4.55427E-04-4.67374E-15
 -1      3560 3.06404E-03 4.30137E-04-4.23186E-15
 -1      3561 1.80539E-03-2.43419E-04-2.47370E-15
 -1      3562 1.93900E-03-2.13603E-04-2.64621E-15
 -1      3563 1.51218E-03 2.09722E-04-1.20218E-15
 -1      3564 7.22370E-03-1.08832E-03-1.70148E-14
 -1      3565 7.34025E-03-1.13909E-03-1.79937E-14
 -1      3566 7.37052E-03-1.14410E-03-1.85092E-14
 -1      3567 7.15338E-03-1.04997E-03-1.65969E-14
 -1      3568 5.33343E-03-2.73756E-04-1.15547E-14
 -1      3569 5.54790E-03-3.95716E-04-1.21668E-14
 -1      3570 9.18707E-04-7.82462E-05-6.86422E-16
 -1      3571 9.13215E-04-9.37596E-05-6.84348E-16
 -1      3572 1.01405E-03-1.15429E-04-8.28507E-16
 -1      3573 1.44925E-03-2.44337E-04-1.48663E-15
 -1      3574 2.47694E-03-7.41900E-06-3.30549E-15
 -1      3575 2.59863E-03 4.23482E-05-3.49056E-15
 -1      3576 1.67278E-03-2.81882E-04-2.29841E-15
 -1      3577 1.70149E-03-2.67451E-04-2.33135E-15
 -1      3578 1.38691E-02-3.81239E-03-8.70770E-14
 -1      3579 1.38106E-02-3.77023E-03-8.70970E-14
 -1      3580 1.37747E-02-3.78187E-03-8.56184E-14
 -1      3581 4.80999E-03 1.12568E-04-1.05524E-14
 -1      3582 4.64548E-03 1.94947E-04-9.84414E-15
 -1      3583 4.60215E-03 1.98351E-04-9.52534E-15
 -1      3584 4.94039E-03 2.39829E-05-1.09451E-14
 -1      3585 1.82842E-03-3.39372E-04-2.36907E-15
 -1      3586 1.90467E-03 2.57657E-04-1.80423E-15
 -1      3587 1.74670E-03 2.40013E-04-1.54640E-15
 -1      3588 4.72812E-03 8.76395E-05-9.55696E-15
 -1      3589 4.29734E-03 3.18468E-04-8.06230E-15
 -1      3590 4.39904E-03 2.72998E-04-8.47087E-15
 -1      3591 6.14153E-03-6.89181E-04-1.36892E-14
 -1      3592 6.25258E-03-7.33271E-04-1.40245E-14
 -1      3593 6.08260E-03-6.47619E-04-1.40069E-14
 -1      3594 1.72500E-03-3.10658E-04-2.14514E-15
 -1      3595 1.62864E-03-2.86271E-04-1.90113E-15
 -1      3596 1.57081E-03 1.76267E-04-1.33145E-15
 -1      3597 1.97314E-03-1.67405E-04-2.59451E-15
 -1      3598 3.92435E-03 4.14499E-04-6.70109E-15
 -1      3599 4.01036E-03 4.06676E-04-7.02652E-15
 -1      3600 3.82146E-03 4.20858E-04-6.37669E-15
 -1      3601 2.48606E-03 3.82841E-04-2.84995E-15
 -1      3602 2.98022E-03 3.70028E-04-4.04281E-15
 -1      3603 2.89667E-03 4.01816E-04-3.81498E-15
 -1      3604 2.72871E-03 3.73515E-04-3.42219E-15
 -1      3605 1.15620E-03-1.65627E-04-1.03647E-15
 -1      3606 2.68067E-03 8.88835E-05-3.60405E-15
 -1      3607 2.75905E-03 1.36825E-04-3.71919E-15
 -1      3608 2.55251E-03 9.33425E-05-3.31030E-15
 -1      3609 6.96563E-03-9.66489E-04-1.49462E-14
 -1      3610 1.34851E-02-3.52475E-03-8.75976E-14
 -1      3611 1.36256E-02-3.63472E-03-8.72344E-14
 -1      3612 1.35542E-02-3.57883E-03-8.74203E-14
 -1      3613 1.37522E-02-3.72825E-03-8.71153E-14
 -1      3614 1.36939E-02-3.68626E-03-8.71298E-14
 -1      3615 1.36578E-02-3.69773E-03-8.56604E-14
 -1      3616 6.79486E-03-9.07460E-04-1.40890E-14
 -1      3617 6.87447E-03-9.32160E-04-1.45295E-14
 -1      3618 6.76933E-03-9.06965E-04-1.43826E-14
 -1      3619 3.12752E-03 2.27751E-04-4.51090E-15
 -1      3620 3.19890E-03 2.77371E-04-4.65146E-15
 -1      3621 2.97386E-03 1.94695E-04-4.16282E-15
 -1      3622 3.55104E-03 4.87496E-04-5.63496E-15
 -1      3623 3.39154E-03 4.75914E-04-5.14149E-15
 -1      3624 3.32008E-03 4.30234E-04-4.92565E-15
 -1      3625 5.71752E-03-4.68753E-04-1.29527E-14
 -1      3626 1.69842E-03-2.37393E-04-2.23991E-15
 -1      3627 1.69855E-03-2.02713E-04-2.14779E-15
 -1      3628 1.60217E-03-2.26519E-04-2.01746E-15
 -1      3629 3.54481E-03 3.70717E-04-5.53083E-15
 -1      3630 1.47891E-03-2.43376E-04-1.65749E-15
 -1      3631 6.46360E-03-8.17105E-04-1.42247E-14
 -1      3632 6.50638E-03-8.33222E-04-1.38224E-14
 -1      3633 6.62678E-03-8.69380E-04-1.43510E-14
 -1      3634 2.31431E-03-3.58898E-05-3.00962E-15
 -1      3635 1.02876E-03-8.07673E-05-8.33331E-16
 -1      3636 3.86150E-03 4.74382E-04-6.70243E-15
 -1      3637 3.70685E-03 4.88333E-04-6.15533E-15
 -1      3638 3.64648E-03 4.63811E-04-5.91298E-15
 -1      3639 3.96169E-03 4.40440E-04-7.00727E-15
 -1      3640 1.61556E-03-2.71121E-04-2.10162E-15
 -1      3641 4.20408E-03 3.56796E-04-7.74965E-15
 -1      3642 1.34652E-02-3.53209E-03-8.67551E-14
 -1      3643 1.18151E-03-2.86075E-05-9.89768E-16
 -1      3644 1.16115E-03-5.67476E-05-9.93224E-16
 -1      3645 2.06536E-03 2.76733E-04-2.08328E-15
 -1      3646 1.96669E-03 2.19029E-04-1.96288E-15
 -1      3647 2.22829E-03 2.97727E-04-2.38404E-15
 -1      3648 1.22449E-03 3.62049E-05-9.76161E-16
 -1      3649 1.20300E-03 2.50377E-06-9.83954E-16
 -1      3650 1.30997E-03-1.77377E-05-1.16248E-15
 -1      3651 7.50859E-03-1.19906E-03-2.00271E-14
 -1      3652 7.62819E-03-1.25115E-03-2.10251E-14
 -1      3653 5.12831E-03-1.50235E-04-1.09619E-14
 -1      3654 5.26671E-03-2.12942E-04-1.16409E-14
 -1      3655 7.75112E-03-1.30483E-03-2.20441E-14
 -1      3656 7.87691E-03-1.36032E-03-2.30830E-14
 -1      3657 7.64586E-03-1.25394E-03-2.15623E-14
 -1      3658 8.00516E-03-1.41698E-03-2.41433E-14
 -1      3659 8.13553E-03-1.47488E-03-2.52242E-14
 -1      3660 7.89641E-03-1.36220E-03-2.36417E-14
 -1      3661 8.26771E-03-1.53357E-03-2.63248E-14
 -1      3662 8.40148E-03-1.59307E-03-2.74466E-14
 -1      3663 8.15596E-03-1.47570E-03-2.58023E-14
 -1      3664 8.53659E-03-1.65305E-03-2.85871E-14
 -1      3665 8.67287E-03-1.71351E-03-2.97474E-14
 -1      3666 8.42231E-03-1.59278E-03-2.80450E-14
 -1      3667 8.81014E-03-1.77421E-03-3.09271E-14
 -1      3668 8.94827E-03-1.83517E-03-3.21263E-14
 -1      3669 8.69377E-03-1.71213E-03-3.03673E-14
 -1      3670 9.08712E-03-1.89623E-03-3.33427E-14
 -1      3671 9.22661E-03-1.95738E-03-3.45793E-14
 -1      3672 8.96907E-03-1.83279E-03-3.27656E-14
 -1      3673 9.36662E-03-2.01852E-03-3.58338E-14
 -1      3674 9.50710E-03-2.07967E-03-3.71056E-14
 -1      3675 9.24723E-03-1.95408E-03-3.52390E-14
 -1      3676 9.64795E-03-2.14075E-03-3.83948E-14
 -1      3677 9.78915E-03-2.20178E-03-3.96989E-14
 -1      3678 9.52753E-03-2.07558E-03-3.77837E-14
 -1      3679 9.93062E-03-2.26272E-03-4.10215E-14
 -1      3680 1.00723E-02-2.32357E-03-4.23594E-14
 -1      3681 9.80941E-03-2.19702E-03-4.03958E-14
 -1      3682 1.02142E-02-2.38432E-03-4.37119E-14
 -1      3683 1.03563E-02-2.44498E-03-4.50797E-14
 -1      3684 1.00924E-02-2.31825E-03-4.30709E-14
 -1      3685 1.04985E-02-2.50554E-03-4.64631E-14
 -1      3686 1.06409E-02-2.56601E-03-4.78603E-14
 -1      3687 1.03763E-02-2.43920E-03-4.58070E-14
 -1      3688 1.07905E-02-2.62941E-03-4.93411E-14
 -1      3689 1.09401E-02-2.69271E-03-5.08365E-14
 -1      3690 1.06679E-02-2.56287E-03-4.86710E-14
 -1      3691 1.10827E-02-2.75292E-03-5.22744E-14
 -1      3692 1.12254E-02-2.81305E-03-5.37264E-14
 -1      3693 1.09600E-02-2.68624E-03-5.15910E-14
 -1      3694 1.13681E-02-2.87312E-03-5.51927E-14
 -1      3695 1.15109E-02-2.93313E-03-5.66699E-14
 -1      3696 1.12452E-02-2.80636E-03-5.44966E-14
 -1      3697 1.16537E-02-2.99308E-03-5.81608E-14
 -1      3698 1.17965E-02-3.05298E-03-5.96643E-14
 -1      3699 1.15307E-02-2.92625E-03-5.74554E-14
 -1      3700 1.19393E-02-3.11284E-03-6.11798E-14
 -1      3701 1.20822E-02-3.17266E-03-6.27112E-14
 -1      3702 1.18163E-02-3.04597E-03-6.04635E-14
 -1      3703 1.22250E-02-3.23244E-03-6.42540E-14
 -1      3704 1.23679E-02-3.29219E-03-6.58066E-14
 -1      3705 1.21019E-02-3.16555E-03-6.35223E-14
 -1      3706 1.25108E-02-3.35192E-03-6.73744E-14
 -1      3707 1.26537E-02-3.41162E-03-6.89556E-14
 -1      3708 1.23877E-02-3.28501E-03-6.66314E-14
 -1      3709 1.27965E-02-3.47130E-03-7.05508E-14
 -1      3710 1.29394E-02-3.53096E-03-7.21535E-14
 -1      3711 1.26734E-02-3.40438E-03-6.97906E-14
 -1      3712 1.30823E-02-3.59061E-03-7.37661E-14
 -1      3713 1.32252E-02-3.65025E-03-7.53912E-14
 -1      3714 1.29592E-02-3.52369E-03-7.29959E-14
 -1      3715 1.33681E-02-3.70988E-03-7.70230E-14
 -1      3716 1.35110E-02-3.76949E-03-7.86592E-14
 -1      3717 1.32450E-02-3.64295E-03-7.62405E-14
 -1      3718 1.36539E-02-3.82910E-03-8.03054E-14
 -1      3719 1.37967E-02-3.88871E-03-8.19599E-14
 -1      3720 1.35308E-02-3.76218E-03-7.95155E-14
 -1      3721 1.38901E-02-3.92739E-03-8.30538E-14
 -1      3722 1.40032E-02-3.97264E-03-8.44429E-14
 -1      3723 1.39538E-02-3.93784E-03-8.44430E-14
 -1      3724 1.37670E-02-3.86047E-03-8.22543E-14
 -1      3725 4.36494E-03 3.02330E-04-8.49360E-15
 -1      3726 4.20288E-03 3.67021E-04-7.86487E-15
 -1      3727 1.14080E-03-1.47278E-04-1.03059E-15
 -1      3728 1.27628E-03-1.85164E-04-1.26875E-15
 -1      3729 1.45529E-03-2.26821E-04-1.66302E-15
 -1      3730 5.76986E-03-4.03093E-04-1.45401E-14
 -1      3731 5.60208E-03-3.27608E-04-1.37045E-14
 -1      3732 6.40604E-03-6.67639E-04-1.81159E-14
 -1      3733 6.25203E-03-6.05592E-04-1.71882E-14
 -1      3734 6.70641E-03-7.86481E-04-2.00390E-14
 -1      3735 6.55740E-03-7.27672E-04-1.90655E-14
 -1      3736 6.55099E-03-7.42688E-04-1.86178E-14
 -1      3737 6.99902E-03-9.01246E-04-2.20534E-14
 -1      3738 6.85350E-03-8.44162E-04-2.10356E-14
 -1      3739 6.84624E-03-8.56536E-04-2.05651E-14
 -1      3740 7.28659E-03-1.01411E-03-2.41540E-14
 -1      3741 7.14328E-03-9.57794E-04-2.30924E-14
 -1      3742 7.13453E-03-9.68006E-04-2.26007E-14
 -1      3743 7.57120E-03-1.12637E-03-2.63389E-14
 -1      3744 7.42916E-03-1.07025E-03-2.52362E-14
 -1      3745 7.41869E-03-1.07890E-03-2.47228E-14
 -1      3746 7.85430E-03-1.23873E-03-2.86114E-14
 -1      3747 7.71286E-03-1.18250E-03-2.74636E-14
 -1      3748 7.70069E-03-1.19013E-03-2.69295E-14
 -1      3749 8.13682E-03-1.35160E-03-3.09656E-14
 -1      3750 7.99558E-03-1.29509E-03-2.97782E-14
 -1      3751 7.98184E-03-1.30211E-03-2.92204E-14
 -1      3752 8.41934E-03-1.46515E-03-3.33999E-14
 -1      3753 8.27805E-03-1.40829E-03-3.21728E-14
 -1      3754 8.26295E-03-1.41500E-03-3.15936E-14
 -1      3755 8.70218E-03-1.57945E-03-3.59156E-14
 -1      3756 8.56070E-03-1.52221E-03-3.46485E-14
 -1      3757 8.54447E-03-1.52882E-03-3.40468E-14
 -1      3758 8.98547E-03-1.69449E-03-3.85022E-14
 -1      3759 8.84376E-03-1.63688E-03-3.72002E-14
 -1      3760 8.82659E-03-1.64351E-03-3.65781E-14
 -1      3761 9.26924E-03-1.81022E-03-4.11564E-14
 -1      3762 9.12729E-03-1.75228E-03-3.98211E-14
 -1      3763 9.10938E-03-1.75898E-03-3.91792E-14
 -1      3764 9.55346E-03-1.92658E-03-4.38731E-14
 -1      3765 9.41129E-03-1.86833E-03-4.25077E-14
 -1      3766 9.39280E-03-1.87514E-03-4.18461E-14
 -1      3767 9.83808E-03-2.04348E-03-4.66485E-14
 -1      3768 9.69572E-03-1.98497E-03-4.52536E-14
 -1      3769 9.67679E-03-1.99188E-03-4.45748E-14
 -1      3770 1.01230E-02-2.16085E-03-4.94803E-14
 -1      3771 9.98051E-03-2.10211E-03-4.80568E-14
 -1      3772 9.96126E-03-2.10913E-03-4.73601E-14
 -1      3773 1.04082E-02-2.27861E-03-5.23646E-14
 -1      3774 1.02656E-02-2.21969E-03-5.09173E-14
 -1      3775 1.02461E-02-2.22679E-03-5.02029E-14
 -1      3776 1.06936E-02-2.39670E-03-5.53010E-14
 -1      3777 1.05509E-02-2.33762E-03-5.38262E-14
 -1      3778 1.05312E-02-2.34480E-03-5.30986E-14
 -1      3779 1.09791E-02-2.51505E-03-5.82810E-14
 -1      3780 1.08363E-02-2.45585E-03-5.67849E-14
 -1      3781 1.08166E-02-2.46308E-03-5.60440E-14
 -1      3782 1.12648E-02-2.63362E-03-6.13113E-14
 -1      3783 1.11219E-02-2.57431E-03-5.97915E-14
 -1      3784 1.11021E-02-2.58158E-03-5.90365E-14
 -1      3785 1.15504E-02-2.75235E-03-6.43938E-14
 -1      3786 1.14076E-02-2.69296E-03-6.28451E-14
 -1      3787 1.13877E-02-2.70026E-03-6.20778E-14
 -1      3788 1.18362E-02-2.87120E-03-6.75227E-14
 -1      3789 1.16933E-02-2.81176E-03-6.59517E-14
 -1      3790 1.16734E-02-2.81908E-03-6.51690E-14
 -1      3791 1.21219E-02-2.99016E-03-7.06981E-14
 -1      3792 1.19791E-02-2.93067E-03-6.91046E-14
 -1      3793 1.19591E-02-2.93800E-03-6.83087E-14
 -1      3794 1.24077E-02-3.10918E-03-7.39112E-14
 -1      3795 1.22648E-02-3.04966E-03-7.23008E-14
 -1      3796 1.22449E-02-3.05700E-03-7.14927E-14
 -1      3797 1.26935E-02-3.22826E-03-7.71558E-14
 -1      3798 1.25506E-02-3.16872E-03-7.55301E-14
 -1      3799 1.25307E-02-3.17605E-03-7.47129E-14
 -1      3800 1.29792E-02-3.34738E-03-8.04301E-14
 -1      3801 1.28364E-02-3.28782E-03-7.87886E-14
 -1      3802 1.28164E-02-3.29515E-03-7.79648E-14
 -1      3803 1.32650E-02-3.46652E-03-8.37287E-14
 -1      3804 1.31221E-02-3.40694E-03-8.20755E-14
 -1      3805 1.31022E-02-3.41428E-03-8.12425E-14
 -1      3806 1.26170E-03-8.02028E-05-1.17013E-15
 -1      3807 1.14272E-03-8.16605E-05-9.94769E-16
 -1      3808 1.12785E-03-1.03546E-04-9.94132E-16
 -1      3809 1.37960E-02-3.83459E-03-8.41105E-14
 -1      3810 1.37384E-02-3.79315E-03-8.41392E-14
 -1      3811 1.35311E-02-3.60420E-03-8.57851E-14
 -1      3812 4.53789E-03 2.19801E-04-9.17905E-15
 -1      3813 4.46586E-03 2.47411E-04-8.80783E-15
 -1      3814 4.57967E-03 1.81263E-04-9.15689E-15
 -1      3815 4.70761E-03 1.32642E-04-9.86320E-15
 -1      3816 1.36798E-02-3.75099E-03-8.41655E-14
 -1      3817 1.36212E-02-3.70883E-03-8.41871E-14
 -1      3818 1.35848E-02-3.72011E-03-8.27159E-14
 -1      3819 5.63948E-03-4.04911E-04-1.30888E-14
 -1      3820 5.88196E-03-5.33771E-04-1.38127E-14
 -1      3821 1.67773E-03 1.46672E-04-1.53977E-15
 -1      3822 1.44622E-03 1.25700E-04-1.19640E-15
 -1      3823 1.33738E-02-3.50592E-03-8.52275E-14
 -1      3824 1.82703E-03-1.52885E-04-2.27485E-15
 -1      3825 1.98749E-03-1.08396E-04-2.48559E-15
 -1      3826 1.14376E-03-1.30772E-04-1.03638E-15
 -1      3827 2.13801E-03-4.52498E-05-2.66077E-15
 -1      3828 2.28958E-03 3.06190E-05-2.84026E-15
 -1      3829 1.97067E-03-4.60767E-05-2.33463E-15
 -1      3830 5.01237E-03-7.13708E-05-1.06887E-14
 -1      3831 5.21154E-03-1.57279E-04-1.17251E-14
 -1      3832 5.40005E-03-2.69074E-04-1.23421E-14
 -1      3833 1.44809E-03-2.06189E-04-1.65608E-15
 -1      3834 1.33540E-02-3.51326E-03-8.43871E-14
 -1      3835 4.11646E-03 3.90305E-04-7.48663E-15
 -1      3836 1.24559E-03 1.03559E-04-9.33024E-16
 -1      3837 1.22561E-03 6.63784E-05-9.45085E-16
 -1      3838 1.33871E-03 5.07895E-05-1.12218E-15
 -1      3839 1.34189E-03 1.17690E-04-1.05227E-15
 -1      3840 6.96586E-03-9.67512E-04-1.51836E-14
 -1      3841 7.06112E-03-1.00814E-03-1.59185E-14
 -1      3842 7.15983E-03-1.05080E-03-1.68464E-14
 -1      3843 6.96335E-03-9.70795E-04-1.54890E-14
 -1      3844 3.42945E-03 3.90145E-04-5.21787E-15
 -1      3845 3.60661E-03 4.27718E-04-5.73815E-15
 -1      3846 6.09481E-03-5.41373E-04-1.62829E-14
 -1      3847 5.93430E-03-4.73881E-04-1.53998E-14
 -1      3848 5.92458E-03-4.93380E-04-1.49947E-14
 -1      3849 4.78976E-03 6.09444E-05-9.91975E-15
 -1      3850 4.85497E-03 3.33325E-05-1.02600E-14
 -1      3851 2.56039E-03 3.46099E-04-3.05283E-15
 -1      3852 2.39361E-03 3.20783E-04-2.70714E-15
 -1      3853 2.29563E-03 2.57862E-04-2.56571E-15
 -1      3854 2.63538E-03 3.08455E-04-3.25801E-15
 -1      3855 4.01618E-03 4.17697E-04-7.13836E-15
 -1      3856 6.33571E-03-7.51752E-04-1.48895E-14
 -1      3857 6.39505E-03-7.86335E-04-1.45583E-14
 -1      3858 6.52956E-03-8.32790E-04-1.51015E-14
 -1      3859 3.10851E-03 3.28408E-04-4.38721E-15
 -1      3860 2.92937E-03 2.90428E-04-3.96592E-15
 -1      3861 1.34679E-02-3.63597E-03-8.27636E-14
 -1      3862 1.35628E-02-3.66685E-03-8.42074E-14
 -1      3863 1.35045E-02-3.62487E-03-8.42290E-14
 -1      3864 1.34223E-02-3.56480E-03-8.42831E-14
 -1      3865 4.91488E-03 1.31845E-05-1.06310E-14
 -1      3866 6.24513E-03-6.23298E-04-1.67613E-14
 -1      3867 5.39888E-03-2.23133E-04-1.28432E-14
 -1      3868 5.22613E-03-1.37971E-04-1.20569E-14
 -1      3869 1.24944E-03-1.37536E-04-1.21764E-15
 -1      3870 1.38654E-03-7.62872E-05-1.35935E-15
 -1      3871 1.35966E-03-1.06908E-04-1.36052E-15
 -1      3872 1.83911E-03 1.55396E-04-1.80625E-15
 -1      3873 1.70644E-03 1.00137E-04-1.64380E-15
 -1      3874 5.57280E-03-3.45325E-04-1.31780E-14
 -1      3875 6.74201E-03-9.04621E-04-1.47979E-14
 -1      3876 6.84507E-03-9.35406E-04-1.52507E-14
 -1      3877 6.71402E-03-8.97829E-04-1.52150E-14
 -1      3878 3.25339E-03 3.54104E-04-4.75096E-15
 -1      3879 1.44430E-03 8.96649E-05-1.23470E-15
 -1      3880 3.85651E-03 4.40868E-04-6.57180E-15
 -1      3881 1.65534E-03-1.51453E-04-1.95022E-15
 -1      3882 1.65266E-03-1.05483E-04-1.85592E-15
 -1      3883 5.09159E-03-8.02658E-05-1.13697E-14
 -1      3884 1.39045E-02-3.90304E-03-8.44416E-14
 -1      3885 1.99986E-03 1.68944E-04-2.08374E-15
 -1      3886 1.41555E-03-4.14341E-05-1.35563E-15
 -1      3887 1.51837E-03-6.83607E-05-1.56258E-15
 -1      3888 1.44442E-03-3.19610E-06-1.34917E-15
 -1      3889 1.37519E-02-3.83071E-03-8.30201E-14
 -1      3890 7.27936E-03-1.10099E-03-1.80459E-14
 -1      3891 7.39163E-03-1.14906E-03-1.90249E-14
 -1      3892 7.40631E-03-1.15260E-03-1.95411E-14
 -1      3893 1.42298E-03-1.82138E-04-1.57902E-15
 -1      3894 3.69457E-03 4.43409E-04-6.03276E-15
 -1      3895 7.78534E-03-1.30853E-03-2.31382E-14
 -1      3896 7.91310E-03-1.36315E-03-2.41978E-14
 -1      3897 8.04286E-03-1.41891E-03-2.52793E-14
 -1      3898 8.17430E-03-1.47582E-03-2.63806E-14
 -1      3899 7.92791E-03-1.36301E-03-2.47555E-14
 -1      3900 8.30728E-03-1.53350E-03-2.75030E-14
 -1      3901 8.44157E-03-1.59196E-03-2.86446E-14
 -1      3902 8.19114E-03-1.47509E-03-2.69587E-14
 -1      3903 8.57703E-03-1.65091E-03-2.98053E-14
 -1      3904 8.71350E-03-1.71034E-03-3.09873E-14
 -1      3905 8.45965E-03-1.59047E-03-2.92431E-14
 -1      3906 8.85087E-03-1.77007E-03-3.21864E-14
 -1      3907 8.98901E-03-1.83008E-03-3.34047E-14
 -1      3908 8.73233E-03-1.70805E-03-3.16065E-14
 -1      3909 9.12783E-03-1.89024E-03-3.46441E-14
 -1      3910 9.26725E-03-1.95054E-03-3.58994E-14
 -1      3911 9.00828E-03-1.82698E-03-3.40455E-14
 -1      3912 9.40717E-03-2.01090E-03-3.71729E-14
 -1      3913 9.54754E-03-2.07131E-03-3.84619E-14
 -1      3914 9.28676E-03-1.94669E-03-3.65595E-14
 -1      3915 9.68829E-03-2.13171E-03-3.97679E-14
 -1      3916 9.82937E-03-2.19211E-03-4.10907E-14
 -1      3917 9.56718E-03-2.06678E-03-3.91394E-14
 -1      3918 9.97074E-03-2.25247E-03-4.24268E-14
 -1      3919 1.01124E-02-2.31281E-03-4.37787E-14
 -1      3920 9.84908E-03-2.18701E-03-4.17819E-14
 -1      3921 1.02542E-02-2.37309E-03-4.51490E-14
 -1      3922 1.03962E-02-2.43332E-03-4.65324E-14
 -1      3923 1.01321E-02-2.30721E-03-4.44895E-14
 -1      3924 1.05455E-02-2.49650E-03-4.80010E-14
 -1      3925 1.06949E-02-2.55963E-03-4.94837E-14
 -1      3926 1.04230E-02-2.43032E-03-4.73289E-14
 -1      3927 1.08373E-02-2.61970E-03-5.09085E-14
 -1      3928 1.09798E-02-2.67972E-03-5.23472E-14
 -1      3929 1.07146E-02-2.55329E-03-5.02245E-14
 -1      3930 1.11224E-02-2.73969E-03-5.38002E-14
 -1      3931 1.12650E-02-2.79961E-03-5.52684E-14
 -1      3932 1.09996E-02-2.67312E-03-5.31048E-14
 -1      3933 1.14077E-02-2.85949E-03-5.67485E-14
 -1      3934 1.15504E-02-2.91934E-03-5.82408E-14
 -1      3935 1.12848E-02-2.79281E-03-5.60404E-14
 -1      3936 1.16932E-02-2.97915E-03-5.97429E-14
 -1      3937 1.18360E-02-3.03893E-03-6.12599E-14
 -1      3938 1.15702E-02-2.91238E-03-5.90240E-14
 -1      3939 1.19789E-02-3.09868E-03-6.27905E-14
 -1      3940 1.21217E-02-3.15841E-03-6.43335E-14
 -1      3941 1.18558E-02-3.03186E-03-6.20581E-14
 -1      3942 1.22646E-02-3.21812E-03-6.58879E-14
 -1      3943 1.24074E-02-3.27781E-03-6.74535E-14
 -1      3944 1.21415E-02-3.15126E-03-6.51440E-14
 -1      3945 1.25503E-02-3.33748E-03-6.90338E-14
 -1      3946 1.26932E-02-3.39713E-03-7.06246E-14
 -1      3947 1.24272E-02-3.27059E-03-6.82773E-14
 -1      3948 1.28361E-02-3.45677E-03-7.22265E-14
 -1      3949 1.29790E-02-3.51641E-03-7.38372E-14
 -1      3950 1.27130E-02-3.38987E-03-7.14550E-14
 -1      3951 1.31219E-02-3.57603E-03-7.54573E-14
 -1      3952 1.32648E-02-3.63564E-03-7.70855E-14
 -1      3953 1.29988E-02-3.50911E-03-7.46769E-14
 -1      3954 1.34077E-02-3.69525E-03-7.87231E-14
 -1      3955 1.35506E-02-3.75486E-03-8.03676E-14
 -1      3956 1.32846E-02-3.62833E-03-7.79309E-14
 -1      3957 2.23673E-03 8.22962E-05-2.65674E-15
 -1      3958 2.41928E-03 1.01553E-04-3.00870E-15
 -1      3959 2.49086E-03 1.41966E-04-3.11024E-15
 -1      3960 6.04808E-03-6.14770E-04-1.43244E-14
 -1      3961 6.15502E-03-6.63237E-04-1.46705E-14
 -1      3962 5.55247E-03-3.20953E-04-1.32719E-14
 -1      3963 1.42130E-03-1.48149E-04-1.52745E-15
 -1      3964 6.69581E-03-8.14677E-04-1.91217E-14
 -1      3965 6.54785E-03-7.58866E-04-1.81704E-14
 -1      3966 7.54953E-03-1.14234E-03-2.52924E-14
 -1      3967 7.40939E-03-1.08746E-03-2.42106E-14
 -1      3968 7.82904E-03-1.25298E-03-2.75204E-14
 -1      3969 7.68933E-03-1.19750E-03-2.63956E-14
 -1      3970 7.67883E-03-1.20460E-03-2.58625E-14
 -1      3971 8.10843E-03-1.36491E-03-2.98303E-14
 -1      3972 7.96869E-03-1.30879E-03-2.86641E-14
 -1      3973 7.95612E-03-1.31510E-03-2.81100E-14
 -1      3974 8.38832E-03-1.47807E-03-3.22219E-14
 -1      3975 8.24828E-03-1.42134E-03-3.10175E-14
 -1      3976 8.23400E-03-1.42729E-03-3.04399E-14
 -1      3977 8.66899E-03-1.59231E-03-3.46941E-14
 -1      3978 8.52854E-03-1.53506E-03-3.34484E-14
 -1      3979 8.51289E-03-1.54092E-03-3.28507E-14
 -1      3980 8.95054E-03-1.70749E-03-3.72396E-14
 -1      3981 8.80965E-03-1.64980E-03-3.59572E-14
 -1      3982 8.79292E-03-1.65572E-03-3.53387E-14
 -1      3983 9.23296E-03-1.82346E-03-3.98545E-14
 -1      3984 9.09164E-03-1.76539E-03-3.85389E-14
 -1      3985 9.07407E-03-1.77147E-03-3.79003E-14
 -1      3986 9.51614E-03-1.94008E-03-4.25330E-14
 -1      3987 9.37445E-03-1.88169E-03-4.11859E-14
 -1      3988 9.35622E-03-1.88798E-03-4.05275E-14
 -1      3989 9.79997E-03-2.05723E-03-4.52726E-14
 -1      3990 9.65798E-03-1.99860E-03-4.38955E-14
 -1      3991 9.63925E-03-2.00509E-03-4.32176E-14
 -1      3992 1.00843E-02-2.17483E-03-4.80711E-14
 -1      3993 9.94209E-03-2.11598E-03-4.66656E-14
 -1      3994 9.92300E-03-2.12266E-03-4.59706E-14
 -1      3995 1.03691E-02-2.29278E-03-5.09246E-14
 -1      3996 1.02267E-02-2.23377E-03-4.94909E-14
 -1      3997 1.02073E-02-2.24060E-03-4.87800E-14
 -1      3998 1.06542E-02-2.41102E-03-5.38321E-14
 -1      3999 1.05116E-02-2.35187E-03-5.23715E-14
 -1      4000 1.04921E-02-2.35884E-03-5.16457E-14
 -1      4001 1.09396E-02-2.52949E-03-5.67851E-14
 -1      4002 1.07969E-02-2.47023E-03-5.53027E-14
 -1      4003 1.07772E-02-2.47731E-03-5.45627E-14
 -1      4004 1.12251E-02-2.64814E-03-5.97913E-14
 -1      4005 1.10823E-02-2.58880E-03-5.82826E-14
 -1      4006 1.10625E-02-2.59595E-03-5.75285E-14
 -1      4007 1.15107E-02-2.76693E-03-6.28429E-14
 -1      4008 1.13679E-02-2.70752E-03-6.13114E-14
 -1      4009 1.13480E-02-2.71473E-03-6.05442E-14
 -1      4010 1.17964E-02-2.88583E-03-6.59451E-14
 -1      4011 1.16535E-02-2.82637E-03-6.43877E-14
 -1      4012 1.16337E-02-2.83363E-03-6.36064E-14
 -1      4013 1.20821E-02-3.00481E-03-6.90936E-14
 -1      4014 1.19392E-02-2.94531E-03-6.75149E-14
 -1      4015 1.19194E-02-2.95260E-03-6.67203E-14
 -1      4016 1.23679E-02-3.12385E-03-7.22853E-14
 -1      4017 1.22250E-02-3.06432E-03-7.06833E-14
 -1      4018 1.22051E-02-3.07163E-03-6.98769E-14
 -1      4019 1.26537E-02-3.24293E-03-7.55138E-14
 -1      4020 1.25108E-02-3.18339E-03-7.38969E-14
 -1      4021 1.24909E-02-3.19071E-03-7.30783E-14
 -1      4022 1.29394E-02-3.36205E-03-7.87711E-14
 -1      4023 1.27966E-02-3.30249E-03-7.71381E-14
 -1      4024 1.27767E-02-3.30982E-03-7.63124E-14
 -1      4025 1.33273E-02-3.53392E-03-8.28404E-14
 -1      4026 6.39693E-03-7.02015E-04-1.72408E-14
 -1      4027 6.24240E-03-6.42788E-04-1.63339E-14
 -1      4028 6.54833E-03-7.76467E-04-1.77222E-14
 -1      4029 2.83692E-03 1.87240E-04-3.84295E-15
 -1      4030 7.53678E-03-1.20408E-03-2.10813E-14
 -1      4031 7.65974E-03-1.25554E-03-2.20996E-14
 -1      4032 7.67131E-03-1.25569E-03-2.26359E-14
 -1      4033 2.72818E-03 2.42233E-04-3.53171E-15
 -1      4034 7.26881E-03-1.03287E-03-2.31494E-14
 -1      4035 7.12745E-03-9.78400E-04-2.21103E-14
 -1      4036 7.40135E-03-1.09594E-03-2.36986E-14
 -1      4037 1.54106E-03-1.51036E-04-1.74473E-15
 -1      4038 6.98513E-03-9.24061E-04-2.10922E-14
 -1      4039 6.84135E-03-8.69494E-04-2.00952E-14
 -1      4040 6.83913E-03-8.83180E-04-1.96266E-14
 -1      4041 1.44059E-03 5.39874E-05-1.27134E-15
 -1      4042 1.80730E-03-4.79089E-05-2.03212E-15
 -1      4043 1.93971E-03 8.05752E-06-2.18625E-15
 -1      4044 5.96690E-03-5.54961E-04-1.44672E-14
 -1      4045 2.24426E-03 1.95086E-04-2.52934E-15
 -1      4046 2.10730E-03 1.23409E-04-2.34426E-15
 -1      4047 1.34904E-02-3.68958E-03-8.12729E-14
 -1      4048 1.34318E-02-3.64743E-03-8.12999E-14
 -1      4049 2.55055E-03 2.11671E-04-3.15970E-15
 -1      4050 6.29870E-03-7.22566E-04-1.52192E-14
 -1      4051 1.99166E-03 6.41225E-05-2.20169E-15
 -1      4052 1.55410E-03 3.36182E-05-1.47611E-15
 -1      4053 1.82254E-03 5.29294E-05-1.90757E-15
 -1      4054 1.33734E-02-3.60545E-03-8.13232E-14
 -1      4055 1.33151E-02-3.56348E-03-8.13449E-14
 -1      4056 1.32790E-02-3.57493E-03-7.98876E-14
 -1      4057 7.17258E-03-1.05572E-03-1.73398E-14
 -1      4058 6.26360E-03-6.77332E-04-1.58857E-14
 -1      4059 6.10177E-03-5.94731E-04-1.54304E-14
 -1      4060 1.36585E-02-3.79203E-03-8.19276E-14
 -1      4061 2.41464E-03 2.16632E-04-2.85994E-15
 -1      4062 1.66470E-03 5.20122E-05-1.63445E-15
 -1      4063 1.31844E-02-3.47435E-03-8.11931E-14
 -1      4064 1.31646E-02-3.48168E-03-8.03552E-14
 -1      4065 7.29851E-03-1.10702E-03-1.90561E-14
 -1      4066 7.41574E-03-1.15457E-03-2.00581E-14
 -1      4067 7.42224E-03-1.15463E-03-2.05738E-14
 -1      4068 6.42562E-03-7.61780E-04-1.61223E-14
 -1      4069 6.58923E-03-8.38369E-04-1.63508E-14
 -1      4070 6.55235E-03-8.01046E-04-1.70483E-14
 -1      4071 6.62117E-03-8.58938E-04-1.59577E-14
 -1      4072 6.67254E-03-8.82991E-04-1.56117E-14
 -1      4073 6.79255E-03-9.22904E-04-1.60791E-14
 -1      4074 6.73074E-03-8.92090E-04-1.68845E-14
 -1      4075 1.35355E-02-3.72510E-03-8.11278E-14
 -1      4076 1.33824E-02-3.65242E-03-7.97174E-14
 -1      4077 7.12222E-03-9.89027E-04-2.16197E-14
 -1      4078 5.94819E-03-5.17368E-04-1.48949E-14
 -1      4079 1.69428E-03-6.16405E-05-1.85274E-15
 -1      4080 6.95891E-03-9.74333E-04-1.59221E-14
 -1      4081 1.66146E-03-1.43757E-05-1.72166E-15
 -1      4082 7.81047E-03-1.30746E-03-2.42325E-14
 -1      4083 7.94124E-03-1.36183E-03-2.53140E-14
 -1      4084 6.93638E-03-9.71647E-04-1.65840E-14
 -1      4085 7.06201E-03-1.01309E-03-1.68387E-14
 -1      4086 7.17598E-03-1.05896E-03-1.80322E-14
 -1      4087 6.91118E-03-9.63048E-04-1.69973E-14
 -1      4088 8.07341E-03-1.41720E-03-2.64164E-14
 -1      4089 8.20677E-03-1.47355E-03-2.75376E-14
 -1      4090 7.95378E-03-1.35963E-03-2.58718E-14
 -1      4091 8.34128E-03-1.53061E-03-2.86810E-14
 -1      4092 8.47678E-03-1.58836E-03-2.98440E-14
 -1      4093 8.22167E-03-1.47120E-03-2.81170E-14
 -1      4094 8.61319E-03-1.64658E-03-3.10250E-14
 -1      4095 8.75042E-03-1.70526E-03-3.22254E-14
 -1      4096 8.49327E-03-1.58559E-03-3.04429E-14
 -1      4097 8.88838E-03-1.76423E-03-3.34465E-14
 -1      4098 9.02698E-03-1.82349E-03-3.46863E-14
 -1      4099 8.76798E-03-1.70194E-03-3.28457E-14
 -1      4100 9.16616E-03-1.88293E-03-3.59433E-14
 -1      4101 9.30585E-03-1.94253E-03-3.72172E-14
 -1      4102 9.04527E-03-1.81958E-03-3.53251E-14
 -1      4103 9.44598E-03-2.00223E-03-3.85081E-14
 -1      4104 9.58652E-03-2.06202E-03-3.98148E-14
 -1      4105 9.32462E-03-1.93803E-03-3.78749E-14
 -1      4106 9.72739E-03-2.12184E-03-4.11382E-14
 -1      4107 9.86858E-03-2.18171E-03-4.24754E-14
 -1      4108 9.60562E-03-2.05698E-03-4.04906E-14
 -1      4109 1.00100E-02-2.24158E-03-4.38298E-14
 -1      4110 1.01517E-02-2.30146E-03-4.52004E-14
 -1      4111 9.88791E-03-2.17620E-03-4.31702E-14
 -1      4112 1.03007E-02-2.36433E-03-4.66553E-14
 -1      4113 1.04498E-02-2.42718E-03-4.81251E-14
 -1      4114 1.01783E-02-2.29853E-03-4.59812E-14
 -1      4115 1.05920E-02-2.48703E-03-4.95399E-14
 -1      4116 1.07344E-02-2.54685E-03-5.09666E-14
 -1      4117 1.04694E-02-2.42092E-03-4.88519E-14
 -1      4118 1.08768E-02-2.60666E-03-5.24056E-14
 -1      4119 1.10193E-02-2.66644E-03-5.38620E-14
 -1      4120 1.07540E-02-2.54032E-03-5.17077E-14
 -1      4121 1.11619E-02-2.72621E-03-5.53294E-14
 -1      4122 1.13046E-02-2.78595E-03-5.68102E-14
 -1      4123 1.10390E-02-2.65969E-03-5.46181E-14
 -1      4124 1.14473E-02-2.84568E-03-5.83033E-14
 -1      4125 1.15900E-02-2.90539E-03-5.98065E-14
 -1      4126 1.13243E-02-2.77903E-03-5.75789E-14
 -1      4127 1.17328E-02-2.96508E-03-6.13264E-14
 -1      4128 1.18756E-02-3.02476E-03-6.28561E-14
 -1      4129 1.16098E-02-2.89834E-03-6.05921E-14
 -1      4130 1.20184E-02-3.08442E-03-6.43993E-14
 -1      4131 1.21613E-02-3.14407E-03-6.59537E-14
 -1      4132 1.18954E-02-3.01762E-03-6.36522E-14
 -1      4133 1.23042E-02-3.20372E-03-6.75197E-14
 -1      4134 1.24470E-02-3.26335E-03-6.90994E-14
 -1      4135 1.21811E-02-3.13687E-03-6.67635E-14
 -1      4136 1.25899E-02-3.32298E-03-7.06876E-14
 -1      4137 1.27328E-02-3.38259E-03-7.22872E-14
 -1      4138 1.24669E-02-3.25610E-03-6.99183E-14
 -1      4139 1.28757E-02-3.44221E-03-7.38981E-14
 -1      4140 1.30186E-02-3.50181E-03-7.55146E-14
 -1      4141 1.27527E-02-3.37531E-03-7.31185E-14
 -1      4142 1.31291E-02-3.54732E-03-7.67933E-14
 -1      4143 1.32720E-02-3.60692E-03-7.84272E-14
 -1      4144 1.32269E-02-3.57140E-03-7.85734E-14
 -1      4145 1.30060E-02-3.48041E-03-7.60085E-14
 -1      4146 5.78108E-03-4.47179E-04-1.40483E-14
 -1      4147 8.08187E-03-1.37661E-03-2.87001E-14
 -1      4148 7.94402E-03-1.32094E-03-2.75565E-14
 -1      4149 6.98028E-03-9.48165E-04-2.01328E-14
 -1      4150 6.84007E-03-8.97053E-04-1.91578E-14
 -1      4151 7.80649E-03-1.26582E-03-2.64331E-14
 -1      4152 7.66912E-03-1.21127E-03-2.53302E-14
 -1      4153 7.93236E-03-1.32626E-03-2.70019E-14
 -1      4154 8.63669E-03-1.60364E-03-3.34783E-14
 -1      4155 8.49743E-03-1.54633E-03-3.22536E-14
 -1      4156 8.91628E-03-1.71912E-03-3.59828E-14
 -1      4157 8.77631E-03-1.66125E-03-3.47214E-14
 -1      4158 8.75976E-03-1.66635E-03-3.41054E-14
 -1      4159 9.19718E-03-1.83551E-03-3.85568E-14
 -1      4160 9.05657E-03-1.77722E-03-3.72605E-14
 -1      4161 9.03911E-03-1.78259E-03-3.66243E-14
 -1      4162 9.47921E-03-1.95259E-03-4.11990E-14
 -1      4163 9.33806E-03-1.89398E-03-3.98713E-14
 -1      4164 9.31992E-03-1.89966E-03-3.92137E-14
 -1      4165 9.76218E-03-2.07019E-03-4.39024E-14
 -1      4166 9.62058E-03-2.01133E-03-4.25435E-14
 -1      4167 9.60194E-03-2.01733E-03-4.18694E-14
 -1      4168 1.00459E-02-2.18818E-03-4.66657E-14
 -1      4169 9.90396E-03-2.12914E-03-4.52755E-14
 -1      4170 9.88493E-03-2.13541E-03-4.45848E-14
 -1      4171 1.03302E-02-2.30646E-03-4.94877E-14
 -1      4172 1.01880E-02-2.24729E-03-4.80712E-14
 -1      4173 1.01687E-02-2.25380E-03-4.73611E-14
 -1      4174 1.06150E-02-2.42497E-03-5.23666E-14
 -1      4175 1.04726E-02-2.36569E-03-5.09202E-14
 -1      4176 1.04531E-02-2.37241E-03-5.01960E-14
 -1      4177 1.09001E-02-2.54365E-03-5.52918E-14
 -1      4178 1.07575E-02-2.48429E-03-5.38220E-14
 -1      4179 1.07379E-02-2.49118E-03-5.30836E-14
 -1      4180 1.11855E-02-2.66246E-03-5.82702E-14
 -1      4181 1.10428E-02-2.60304E-03-5.67749E-14
 -1      4182 1.10230E-02-2.61006E-03-5.60220E-14
 -1      4183 1.14710E-02-2.78137E-03-6.12952E-14
 -1      4184 1.13282E-02-2.72190E-03-5.97761E-14
 -1      4185 1.13084E-02-2.72902E-03-5.90092E-14
 -1      4186 1.17566E-02-2.90035E-03-6.43715E-14
 -1      4187 1.16138E-02-2.84085E-03-6.28277E-14
 -1      4188 1.15940E-02-2.84804E-03-6.20462E-14
 -1      4189 1.20424E-02-3.01939E-03-6.74921E-14
 -1      4190 1.18995E-02-2.95986E-03-6.59258E-14
 -1      4191 1.18796E-02-2.96710E-03-6.51336E-14
 -1      4192 1.23281E-02-3.13847E-03-7.06599E-14
 -1      4193 1.21852E-02-3.07893E-03-6.90714E-14
 -1      4194 1.21654E-02-3.08620E-03-6.82647E-14
 -1      4195 1.26139E-02-3.25758E-03-7.38700E-14
 -1      4196 1.24710E-02-3.19802E-03-7.22598E-14
 -1      4197 1.24511E-02-3.20533E-03-7.14433E-14
 -1      4198 1.28997E-02-3.37672E-03-7.71087E-14
 -1      4199 1.27568E-02-3.31715E-03-7.54852E-14
 -1      4200 1.27369E-02-3.32447E-03-7.46577E-14
 -1      4201 1.30701E-02-3.45117E-03-7.89259E-14
 -1      4202 6.69560E-03-8.51518E-04-1.79739E-14
 -1      4203 7.53191E-03-1.15737E-03-2.42480E-14
 -1      4204 7.39458E-03-1.10410E-03-2.31873E-14
 -1      4205 7.66017E-03-1.21746E-03-2.47973E-14
 -1      4206 7.25711E-03-1.05154E-03-2.21469E-14
 -1      4207 7.11902E-03-9.99530E-04-2.11281E-14
 -1      4208 7.38914E-03-1.11190E-03-2.26748E-14
 -1      4209 8.35855E-03-1.48935E-03-3.10485E-14
 -1      4210 8.22002E-03-1.43276E-03-2.98636E-14
 -1      4211 8.20627E-03-1.43772E-03-2.92892E-14
 -1      4212 8.48209E-03-1.55126E-03-3.16572E-14
 -1      4213 7.55347E-03-1.20282E-03-2.21339E-14
 -1      4214 7.68111E-03-1.25447E-03-2.31718E-14
 -1      4215 7.69016E-03-1.25198E-03-2.37100E-14
 -1      4216 7.17385E-03-1.05821E-03-1.85265E-14
 -1      4217 7.42665E-03-1.15287E-03-2.10900E-14
 -1      4218 7.43060E-03-1.14949E-03-2.16054E-14
 -1      4219 7.30221E-03-1.10469E-03-2.00676E-14
 -1      4220 6.84251E-03-9.15587E-04-1.84529E-14
 -1      4221 7.11800E-03-1.00993E-03-2.06380E-14
 -1      4222 1.30502E-02-3.45850E-03-7.80901E-14
 -1      4223 1.31685E-02-3.52944E-03-7.85991E-14
 -1      4224 9.46304E-03-1.97819E-03-3.98564E-14
 -1      4225 9.32247E-03-1.91912E-03-3.85458E-14
 -1      4226 8.07858E-03-1.39907E-03-2.75618E-14
 -1      4227 8.21438E-03-1.45513E-03-2.87060E-14
 -1      4228 8.35090E-03-1.51177E-03-2.98690E-14
 -1      4229 8.48806E-03-1.56897E-03-3.10506E-14
 -1      4230 8.62585E-03-1.62657E-03-3.22554E-14
 -1      4231 8.76419E-03-1.68458E-03-3.34782E-14
 -1      4232 8.90308E-03-1.74287E-03-3.47185E-14
 -1      4233 9.04245E-03-1.80143E-03-3.59781E-14
 -1      4234 9.18226E-03-1.86019E-03-3.72521E-14
 -1      4235 9.60392E-03-2.03737E-03-4.11819E-14
 -1      4236 9.74510E-03-2.09663E-03-4.25227E-14
 -1      4237 9.88652E-03-2.15598E-03-4.38793E-14
 -1      4238 1.00282E-02-2.21537E-03-4.52503E-14
 -1      4239 1.01771E-02-2.27778E-03-4.67066E-14
 -1      4240 1.03191E-02-2.33725E-03-4.81097E-14
 -1      4241 1.04613E-02-2.39676E-03-4.95260E-14
 -1      4242 1.06036E-02-2.45628E-03-5.09562E-14
 -1      4243 1.07460E-02-2.51582E-03-5.23982E-14
 -1      4244 1.08885E-02-2.57537E-03-5.38528E-14
 -1      4245 1.10310E-02-2.63493E-03-5.53225E-14
 -1      4246 1.11737E-02-2.69449E-03-5.68041E-14
 -1      4247 1.13164E-02-2.75406E-03-5.82968E-14
 -1      4248 1.14591E-02-2.81364E-03-5.98024E-14
 -1      4249 1.16019E-02-2.87322E-03-6.13201E-14
 -1      4250 1.17447E-02-2.93280E-03-6.28524E-14
 -1      4251 1.18875E-02-2.99238E-03-6.43960E-14
 -1      4252 1.20304E-02-3.05197E-03-6.59482E-14
 -1      4253 1.21732E-02-3.11155E-03-6.75158E-14
 -1      4254 1.23161E-02-3.17114E-03-6.90926E-14
 -1      4255 1.24590E-02-3.23072E-03-7.06830E-14
 -1      4256 1.26019E-02-3.29031E-03-7.22818E-14
 -1      4257 1.27448E-02-3.34989E-03-7.38904E-14
 -1      4258 1.28877E-02-3.40948E-03-7.55070E-14
 -1      4259 1.29981E-02-3.45497E-03-7.67845E-14
 -1      4260 7.94344E-03-1.34376E-03-2.64397E-14
 -1      4261 7.01473E-03-9.83421E-04-1.92886E-14
 -1      4262 6.88138E-03-9.40712E-04-1.80950E-14
 -1      4263 7.80910E-03-1.28925E-03-2.53378E-14
 -1      4264 7.67539E-03-1.23572E-03-2.42563E-14
 -1      4265 7.54250E-03-1.18321E-03-2.31948E-14
 -1      4266 7.41009E-03-1.13192E-03-2.21549E-14
 -1      4267 6.90218E-03-9.55146E-04-1.76822E-14
 -1      4268 7.27774E-03-1.08196E-03-2.11113E-14
 -1      4269 7.14635E-03-1.03330E-03-2.01162E-14
 -1      4270 7.04833E-03-1.00990E-03-1.82155E-14
 -1      4271 7.18011E-03-1.05783E-03-1.92436E-14
 -1      4272 7.17639E-03-1.05219E-03-1.97383E-14
 -3
    1PSTEP                         2           1           1          
  100CL  101 1.000000000        4272                     0    1           1
 -4  STRESS      6    1
 -5  SXX         1    4    1    1
 -5  SYY         1    4    2    2
 -5  SZZ         1    4    3    3
 -5  SXY         1    4    1    2
 -5  SYZ         1    4    2    3
 -5  SZX         1    4    3    1
 -1         1 7.41750E+01 1.02999E+00 4.54885E+00 1.97770E-01-1.47243E-14-3.86425E-13
 -1         2-8.00856E-01-2.57573E+01-3.41402E+00-2.07608E-01-4.68153E-13 1.02220E-13
 -1         3 1.99998E+01 4.68429E-05-8.99144E-05 4.63157E-05-4.83073E-13-5.98097E-13
 -1         4 1.99999E+01 6.74894E-05-8.10019E-05-7.09724E-05 8.34414E-13-6.48583E-13
 -1         5 3.32744E+01 6.25372E+00 2.68862E+00 6.21498E+00-2.93029E-14 2.05917E-12
 -1         6 3.59535E+01 1.22452E+01 4.86360E+00-8.42560E+00-9.14269E-14 1.93007E-12
 -1         7 2.21657E+01 6.46031E+00-1.06868E-02-4.19916E+00-1.55986E-14 5.32793E-13
 -1         8 2.06925E+01 6.22495E+00 9.84930E-02-2.46621E+00-2.23294E-14 5.76778E-14
 -1         9 1.96441E+01 5.91655E+00 5.63736E-02-1.62534E+00-2.38906E-14-2.24891E-13
 -1        10 1.88280E+01 5.66906E+00 2.78235E-02-1.12623E+00-1.65250E-14-3.69316E-13
 -1        11 1.82055E+01 5.48082E+00 7.59117E-03-8.35780E-01-1.05818E-14-4.40729E-13
 -1        12 1.77993E+01 5.35783E+00-2.53121E-03-6.71008E-01-6.92675E-15-4.75479E-13
 -1        13 1.76047E+01 5.29882E+00-2.63647E-03-5.53110E-01-6.07066E-15-4.85255E-13
 -1        14 1.76114E+01 5.30043E+00 5.47156E-03-4.22356E-01-4.69243E-16-4.81926E-13
 -1        15 1.77781E+01 5.35023E+00 1.85070E-02-2.33424E-01 3.70017E-15-4.60086E-13
 -1        16 1.80534E+01 5.43307E+00 3.29905E-02 3.91849E-02 6.39593E-15-4.38497E-13
 -1        17 1.83919E+01 5.53524E+00 4.62178E-02 4.04619E-01 9.20965E-15-4.05224E-13
 -1        18 1.87584E+01 5.64729E+00 5.65282E-02 8.54039E-01 1.24241E-14-3.47064E-13
 -1        19 1.91656E+01 5.77305E+00 6.35163E-02 1.40614E+00 1.80411E-14-2.57802E-13
 -1        20 1.96518E+01 5.92538E+00 6.66132E-02 2.07449E+00 2.31828E-14-1.02623E-13
 -1        21 2.03624E+01 6.15180E+00 7.17964E-02 2.93619E+00 2.61111E-14 2.02206E-13
 -1        22 2.19660E+01 6.58990E+00 1.69908E-01 4.31458E+00 3.44169E-15 7.96101E-13
 -1        23 2.44761E+01-1.47192E+00-9.84206E-01-5.54677E-01-5.53689E-14 1.59761E-12
 -1        24 2.17757E+01-1.06681E-01-3.06793E-01 8.92090E-02-1.82675E-14 1.32845E-12
 -1        25 2.20269E+01-6.78714E-02-8.22812E-02 8.01344E-02-1.11330E-14 1.03618E-12
 -1        26 2.29528E+01-3.78568E-02-3.59426E-02 6.46221E-02 5.15473E-15 8.15292E-13
 -1        27 2.44077E+01-2.67822E-02-3.39516E-02 7.41195E-02-1.38346E-14 6.68056E-13
 -1        28 2.63043E+01-1.14559E-02-2.10980E-02 9.20641E-02 2.70064E-15 6.31845E-13
 -1        29 2.84334E+01 1.52467E-02 2.84830E-02 1.04584E-01-2.28916E-14 5.77708E-13
 -1        30 3.02768E+01 5.46206E-02 1.31528E-01 7.88747E-02 1.98704E-14 5.21416E-13
 -1        31 3.08544E+01 9.06776E-02 2.58026E-01-3.93520E-02 1.19566E-14 5.71290E-13
 -1        32 2.89454E+01 8.44883E-02 2.71570E-01-2.76438E-01-3.17194E-14 6.48537E-13
 -1        33 2.42410E+01 1.19016E-02-2.46499E-04-5.00498E-01 3.39854E-14 5.88057E-13
 -1        34 1.90502E+01-1.09249E-01-4.62969E-01-4.27244E-01 1.72692E-15 6.06584E-13
 -1        35 1.68752E+01-1.33900E-01-6.81678E-01 6.60757E-02-2.63158E-15 4.07377E-13
 -1        36 1.94548E+01-1.02264E-01-4.48713E-01 4.36013E-01-1.16660E-14 1.84228E-13
 -1        37 2.51197E+01 1.53050E-02 3.49098E-02 4.97620E-01 1.59985E-14-1.56375E-13
 -1        38 2.98286E+01 8.86695E-02 2.84492E-01 2.58569E-01 2.36365E-14-4.31696E-13
 -1        39 3.16313E+01 9.06568E-02 2.51495E-01 2.89946E-02 5.34468E-15-3.58279E-13
 -1        40 3.10175E+01 5.32886E-02 1.20446E-01-7.78674E-02 4.10687E-14-4.48808E-14
 -1        41 2.92250E+01 1.60239E-02 2.06804E-02-9.53398E-02 2.73696E-15 8.71178E-15
 -1        42 2.71875E+01-6.77685E-03-2.53456E-02-7.71166E-02-2.42749E-14-1.92651E-13
 -1        43 2.53639E+01-1.63555E-02-3.68896E-02-5.31364E-02 2.16774E-14-1.20858E-13
 -1        44 2.38940E+01-1.90010E-02-3.41380E-02-3.47243E-02-1.00352E-14 1.16469E-14
 -1        45 2.27346E+01-1.54820E-02-2.54736E-02-1.97566E-02-2.29764E-15-2.47947E-13
 -1        46 2.19248E+01-1.32980E-02-1.88581E-02-1.16328E-02 3.27485E-14-3.28008E-13
 -1        47 2.13381E+01-1.03544E-02-1.33987E-02-6.59562E-03-5.91270E-15-3.09044E-13
 -1        48 2.09172E+01-7.87015E-03-9.42112E-03-3.55363E-03-1.62991E-14-4.97149E-13
 -1        49 2.06178E+01-5.89310E-03-6.60729E-03-1.75271E-03-2.86365E-14-4.79947E-13
 -1        50 2.04062E+01-4.37362E-03-4.63611E-03-7.00976E-04 1.54521E-14-4.81846E-13
 -1        51 2.02580E+01-3.22650E-03-3.25475E-03-9.96313E-05-1.16527E-13-2.29082E-13
 -1        52 2.01555E+01-2.36805E-03-2.28208E-03 2.30644E-04-3.84441E-14-5.55926E-13
 -1        53 2.00857E+01-1.72824E-03-1.59309E-03 3.97518E-04 1.98621E-14-6.84896E-13
 -1        54 2.00393E+01-1.25236E-03-1.10258E-03 4.66142E-04-4.31473E-15-9.10916E-13
 -1        55 2.00094E+01-8.99037E-04-7.52416E-04 4.76436E-04 1.58519E-13-4.83503E-13
 -1        56 1.99911E+01-6.37499E-04-5.02621E-04 4.53122E-04-1.03571E-13-1.20789E-13
 -1        57 1.99808E+01-4.41908E-04-3.25127E-04 4.12482E-04 5.75927E-14-3.33967E-13
 -1        58 1.99759E+01-3.11588E-04-2.03651E-04 3.47756E-04-9.74850E-14-6.98673E-13
 -1        59 1.99746E+01-1.94409E-04-1.10122E-04 3.13469E-04 3.52874E-14-1.10398E-12
 -1        60 1.99755E+01-1.25146E-04-5.36629E-05 2.59636E-04 5.39035E-14-5.47592E-13
 -1        61 1.99777E+01-7.45613E-05-1.65165E-05 2.15052E-04-7.97619E-14-9.01964E-13
 -1        62 1.99806E+01-3.98125E-05 6.58126E-06 1.75655E-04 6.97363E-15-8.95367E-13
 -1        63 1.99837E+01-1.65581E-05 1.97559E-05 1.42093E-04 2.17269E-14-7.76676E-13
 -1        64 1.99867E+01-1.45351E-06 2.62573E-05 1.14368E-04 6.68415E-15-6.67523E-13
 -1        65 1.99896E+01 8.12603E-06 2.86487E-05 9.21431E-05-4.41839E-14-6.84566E-13
 -1        66 1.99923E+01 1.42803E-05 2.91243E-05 7.48078E-05-3.50692E-14-1.18169E-12
 -1        67 1.99946E+01 1.87261E-05 2.99111E-05 6.13774E-05 4.47901E-14-7.39313E-13
 -1        68 1.99966E+01 2.28183E-05 3.36634E-05 5.00993E-05 6.83650E-15-4.28547E-13
 -1        69 1.99982E+01 2.71803E-05 4.28327E-05 3.74022E-05-1.93172E-14-4.13319E-13
 -1        70 1.99993E+01 3.23949E-05 5.36319E-05 1.70208E-05-2.24191E-14-6.66525E-13
 -1        71 1.99999E+01 1.09852E-05 1.85480E-05-4.14994E-05-1.78541E-13-1.69760E-12
 -1        72 2.19272E+01-4.11348E-01-1.00140E+00-3.50599E-01 2.22461E-14 1.93005E-12
 -1        73 2.06033E+01-6.29070E-02-2.81520E-01-6.80453E-02 1.78494E-14 1.51259E-12
 -1        74 2.02065E+01-1.62369E-02-5.23126E-02-3.12277E-02 3.03316E-15 1.25058E-12
 -1        75 2.01358E+01-4.05702E-03 3.53110E-03-2.48219E-02 6.07804E-16 1.08293E-12
 -1        76 2.01391E+01 2.48879E-03 1.65703E-02-1.94710E-02 1.48223E-14 8.72225E-13
 -1        77 2.00646E+01 6.01594E-03 2.15392E-02-1.28386E-02-5.75869E-15 6.98781E-13
 -1        78 1.98152E+01 6.81647E-03 2.37615E-02-3.47950E-03 2.83421E-15 6.16021E-13
 -1        79 1.93421E+01 4.66584E-03 2.13136E-02 8.86922E-03 5.93254E-15 5.34797E-13
 -1        80 1.86610E+01-2.87532E-04 1.20058E-02 2.24023E-02-3.50108E-14 4.33362E-13
 -1        81 1.78658E+01-6.89392E-03-3.94605E-03 3.31669E-02 1.75505E-14 4.22266E-13
 -1        82 1.71214E+01-1.29726E-02-2.26802E-02 3.63882E-02 1.29378E-15 3.24081E-13
 -1        83 1.66219E+01-1.61196E-02-3.75196E-02 2.91066E-02 2.20599E-14 2.69224E-13
 -1        84 1.65216E+01-1.49803E-02-4.21994E-02 1.25944E-02 1.48050E-14 2.63731E-13
 -1        85 1.68705E+01-1.00285E-02-3.46481E-02-7.61481E-03-1.91306E-14 1.64028E-13
 -1        86 1.75926E+01-3.22252E-03-1.83139E-02-2.45940E-02 1.09239E-14 5.31433E-14
 -1        87 1.85197E+01 3.12785E-03 6.81724E-05-3.36383E-02-1.83109E-14-9.98715E-14
 -1        88 1.94593E+01 7.42717E-03 1.43731E-02-3.40111E-02-1.96943E-14-1.03802E-13
 -1        89 2.02579E+01 9.20030E-03 2.16768E-02-2.81269E-02 3.04723E-14-5.23834E-14
 -1        90 2.08324E+01 8.86496E-03 2.23873E-02-1.94884E-02-5.39920E-14-1.52285E-13
 -1        91 2.11684E+01 7.23926E-03 1.87902E-02-1.09854E-02 2.12773E-14-1.85422E-13
 -1        92 2.12980E+01 5.12050E-03 1.34075E-02-4.22215E-03 3.15741E-14-2.49616E-13
 -1        93 2.12749E+01 3.07540E-03 8.08139E-03 3.36480E-04 3.03953E-15-2.02664E-13
 -1        94 2.11550E+01 1.40475E-03 3.76980E-03 2.91424E-03-5.82491E-14-3.91629E-13
 -1        95 2.09853E+01 2.02932E-04 7.48345E-04 4.01187E-03-9.15002E-15-2.40809E-13
 -1        96 2.08007E+01-5.60287E-04-1.09718E-03 4.14989E-03-3.96506E-14-1.38955E-13
 -1        97 2.06236E+01-9.71607E-04-2.03742E-03 3.75164E-03 1.44089E-13-5.37759E-13
 -1        98 2.04666E+01-1.13014E-03-2.35967E-03 3.11487E-03-2.87366E-14-8.79242E-13
 -1        99 2.03351E+01-1.12451E-03-2.30460E-03 2.42592E-03-4.29079E-14-7.01565E-13
 -1       100 2.02298E+01-1.02417E-03-2.04900E-03 1.78776E-03-6.68028E-15-4.72587E-13
 -1       101 2.01487E+01-8.78651E-04-1.71078E-03 1.24746E-03 2.79546E-14-4.78077E-13
 -1       102 2.00886E+01-7.20490E-04-1.36183E-03 8.17973E-04 8.20131E-15-5.84845E-13
 -1       103 2.00457E+01-5.69175E-04-1.04144E-03 4.93515E-04-2.50503E-15-4.18895E-13
 -1       104 2.00163E+01-4.34963E-04-7.67510E-04 2.59550E-04 5.55154E-15-1.77655E-13
 -1       105 1.99972E+01-3.22009E-04-5.44876E-04 9.87552E-05 3.93219E-14-9.22668E-15
 -1       106 1.99858E+01-2.30719E-04-3.71078E-04-5.68415E-06-6.25980E-14-3.58222E-13
 -1       107 1.99798E+01-1.59408E-04-2.40109E-04-6.85123E-05 7.47328E-15-9.08955E-13
 -1       108 1.99775E+01-1.05392E-04-1.44701E-04-1.01853E-04-1.43497E-14-8.77369E-13
 -1       109 1.99776E+01-6.56812E-05-7.76288E-05-1.15224E-04-1.07092E-14-3.66201E-13
 -1       110 1.99792E+01-3.73721E-05-3.23709E-05-1.15824E-04 3.78792E-14-5.69930E-13
 -1       111 1.99816E+01-1.78480E-05-3.37442E-06-1.08928E-04 1.29811E-14-7.61159E-13
 -1       112 1.99844E+01-4.85610E-06 1.39135E-05-9.82893E-05-1.24078E-13-7.25311E-13
 -1       113 1.99872E+01 3.49085E-06 2.31504E-05-8.65049E-05 1.33393E-13-8.31228E-13
 -1       114 1.99900E+01 8.75402E-06 2.72892E-05-7.53141E-05-4.74801E-14-1.00466E-12
 -1       115 1.99925E+01 1.22237E-05 2.88661E-05-6.58119E-05-4.26480E-14-1.29861E-12
 -1       116 1.99948E+01 1.49480E-05 3.04231E-05-5.85173E-05-1.89138E-14-1.04153E-12
 -1       117 1.99968E+01 1.77283E-05 3.49717E-05-5.31503E-05-1.10279E-13-7.49680E-13
 -1       118 1.99983E+01 2.04234E-05 4.52154E-05-4.78039E-05 6.56176E-14-5.37993E-13
 -1       119 1.99994E+01 2.03298E-05 5.39472E-05-3.36764E-05-3.82019E-15-6.20598E-13
 -1       120 1.99999E+01-1.87336E-05 8.11859E-06 1.15193E-05 2.14319E-13-7.92375E-13
 -1       121 1.99998E+01 2.45166E-05 8.76849E-06 2.51182E-05-5.73319E-13 1.49237E-13
 -1       122 1.99998E+01-4.31576E-04 4.83162E-05-1.95695E-05 4.33798E-14-5.17918E-14
 -1       123 1.99998E+01-1.45793E-03 2.88131E-05-4.53255E-05-9.20216E-13-1.94295E-13
 -1       124 1.99998E+01-2.75674E-03 3.44156E-06-4.96712E-05-2.01301E-12 3.19123E-13
 -1       125 1.99998E+01-4.07912E-03-1.50013E-05-4.51957E-05-5.48113E-13-1.75087E-13
 -1       126 1.99998E+01-5.21838E-03-2.77826E-05-3.58128E-05-6.93552E-13 9.64575E-14
 -1       127 1.99998E+01-6.07011E-03-3.57012E-05-2.26982E-05-3.06264E-13 2.28966E-14
 -1       128 1.99998E+01-6.52036E-03-3.96568E-05-7.80656E-06-1.17529E-14-9.23631E-14
 -1       129 1.99998E+01-6.52207E-03-3.97852E-05 7.69075E-06 4.35243E-15-8.66049E-15
 -1       130 1.99998E+01-6.07391E-03-3.60463E-05 2.26866E-05 8.19653E-13-5.99437E-14
 -1       131 1.99998E+01-5.22121E-03-2.79336E-05 3.63953E-05 7.46574E-13-2.22094E-13
 -1       132 1.99998E+01-4.07756E-03-1.52553E-05 4.57325E-05-1.52659E-13 1.84204E-13
 -1       133 1.99998E+01-2.74754E-03 3.72512E-06 5.01404E-05-2.73410E-13-2.32087E-13
 -1       134 1.99998E+01-1.44477E-03 2.93797E-05 4.57192E-05-3.31639E-13-3.43331E-14
 -1       135 1.99998E+01-4.17665E-04 4.72408E-05 1.31762E-05 5.97976E-13 3.44610E-13
 -1       136 1.99998E+01 7.80284E-05 2.04001E-05-4.86276E-05 2.25909E-12 1.45078E-13
 -1       137-1.37837E+00-1.88839E+01-2.93950E+00-3.55291E+00 1.02052E-12 3.04180E-13
 -1       138-1.10152E+00-6.27015E+00-2.01488E+00-2.13993E+00 2.25725E-12 1.07017E-12
 -1       139 4.57879E+00 5.71361E+00-7.68247E-01 5.29720E+00 2.44954E-12 1.89221E-12
 -1       140 1.70674E+01 1.15911E+01 5.55029E-01 1.39529E+01 2.24420E-12 2.61152E-12
 -1       141 3.60053E+01 1.06416E+01 1.87907E+00 1.90229E+01 1.54179E-12 2.70384E-12
 -1       142 5.49381E+01 5.54127E+00 2.91690E+00 1.61420E+01 6.27068E-13 1.83531E-12
 -1       143 6.70529E+01 1.13686E+00 3.49547E+00 4.44583E+00 5.91194E-14 3.50067E-13
 -1       144 6.40143E+01 2.31025E+00 3.33392E+00-9.62054E+00 1.76802E-13-9.20430E-13
 -1       145 4.87849E+01 7.37490E+00 2.58051E+00-1.78099E+01 7.12791E-13-1.78585E-12
 -1       146 2.84816E+01 1.15740E+01 1.39850E+00-1.77850E+01 1.47299E-12-2.11070E-12
 -1       147 1.15249E+01 1.00395E+01 3.59635E-02-1.07491E+01 2.12974E-12-2.08594E-12
 -1       148 1.57712E+00 1.41090E+00-1.31824E+00-1.95582E+00 2.27052E-12-1.50058E-12
 -1       149-1.72689E+00-1.19989E+01-2.50549E+00 3.75107E+00 1.87061E-12-6.91114E-13
 -1       150-1.02529E+00-2.29216E+01-3.25657E+00 3.00266E+00 1.08094E-12-1.67338E-13
 -1       151-8.65902E-01-2.59669E+01-3.51589E+00-1.59612E+00-9.36751E-14-4.62790E-14
 -1       152-1.96385E+00-1.95962E+01-3.24644E+00-4.95401E+00-1.50069E-12-4.81941E-13
 -1       153-1.84162E+00-7.57764E+00-2.46787E+00-3.09070E+00-2.32825E-12-1.29255E-12
 -1       154 5.51310E+00 4.90423E+00-1.10359E+00 5.53548E+00-2.51693E-12-2.16216E-12
 -1       155 2.16832E+01 1.07613E+01 6.11593E-01 1.51657E+01-1.93484E-12-2.52065E-12
 -1       156 4.49161E+01 8.97527E+00 2.49801E+00 1.93003E+01-9.68697E-13-2.10298E-12
 -1       157 6.56885E+01 3.81527E+00 3.98679E+00 1.36084E+01-3.01807E-13-1.21236E-12
 -1       158 6.65936E+01 3.34889E+00 4.02114E+00-1.25750E+01-1.55383E-13 3.94462E-13
 -1       159 4.78289E+01 7.98319E+00 2.67125E+00-1.85847E+01-6.66633E-13 1.39821E-12
 -1       160 2.64755E+01 1.05948E+01 9.92218E-01-1.64902E+01-1.41626E-12 2.19025E-12
 -1       161 9.01610E+00 7.28286E+00-6.64320E-01-8.25952E+00-2.07812E-12 2.16244E-12
 -1       162-9.44638E-02-1.98268E+00-1.97331E+00 3.47316E-01-2.54446E-12 1.63919E-12
 -1       163-2.38696E+00-1.39576E+01-2.89396E+00 4.95096E+00-3.01303E-12 1.24484E-12
 -1       164-1.45330E+00-2.34245E+01-3.38326E+00 4.22291E+00-2.23890E-12 5.85126E-13
 -1       165 2.24131E+01 3.69089E+00-4.58650E-02-2.81994E+00-2.52649E-13 2.62682E-13
 -1       166 2.08305E+01 4.34592E+00-3.89358E-02-1.92738E+00-2.50978E-13-3.90209E-14
 -1       167 1.96462E+01 4.71324E+00-2.82860E-02-1.34774E+00-2.18629E-13-2.23547E-13
 -1       168 1.87531E+01 4.89758E+00-2.07102E-02-9.90514E-01-1.67360E-13-3.29423E-13
 -1       169 1.81359E+01 4.97985E+00-1.57883E-02-7.83912E-01-1.26021E-13-3.79109E-13
 -1       170 1.77898E+01 4.98646E+00-1.33971E-02-6.49089E-01-8.38717E-14-3.97058E-13
 -1       171 1.77125E+01 4.93979E+00-1.25323E-02-5.23354E-01-3.92479E-14-3.94611E-13
 -1       172 1.78568E+01 4.86309E+00-1.28432E-02-3.54370E-01 2.84560E-15-3.79073E-13
 -1       173 1.81569E+01 4.77783E+00-1.40940E-02-1.09917E-01 4.78168E-14-3.64414E-13
 -1       174 1.85486E+01 4.69796E+00-1.62162E-02 2.22871E-01 9.11593E-14-3.45540E-13
 -1       175 1.89786E+01 4.62680E+00-1.94425E-02 6.35939E-01 1.35063E-13-2.93777E-13
 -1       176 1.94487E+01 4.54897E+00-2.45529E-02 1.14023E+00 1.92791E-13-2.28661E-13
 -1       177 1.99861E+01 4.42892E+00-3.34627E-02 1.73371E+00 2.38229E-13-1.17274E-13
 -1       178 2.07126E+01 4.17748E+00-4.70500E-02 2.43745E+00 2.63702E-13 9.26238E-14
 -1       179 2.20023E+01 3.45755E+00-5.83924E-02 3.21834E+00 2.57121E-13 4.50757E-13
 -1       180 2.33552E+01 1.10699E+00-3.37471E-01 2.78391E+00 1.83384E-13 9.14921E-13
 -1       181 2.37543E+01 8.31541E-01 5.02946E-03-1.32569E+00-2.00961E-13 5.97057E-13
 -1       182 2.27830E+01 2.25656E-01-5.63575E-03-4.92776E-02-1.75658E-13 4.79107E-13
 -1       183 2.27224E+01 1.81432E-01 1.65812E-02 5.79075E-01-1.26529E-13 3.97423E-13
 -1       184 2.32588E+01 1.49263E-01 1.06965E-02 1.02020E+00-9.75084E-14 3.08232E-13
 -1       185 2.41852E+01 1.13583E-01 2.81477E-03 1.36176E+00-3.25946E-14 2.98819E-13
 -1       186 2.53722E+01 2.11087E-02-3.53317E-03 1.54159E+00-1.42832E-14 2.83632E-13
 -1       187 2.66421E+01-1.85693E-01-6.25378E-03 1.37115E+00-1.88734E-14 3.72202E-13
 -1       188 2.77132E+01-5.28949E-01-3.25879E-03 5.71554E-01 5.17867E-14 4.18205E-13
 -1       189 2.81791E+01-8.57099E-01-1.14910E-03-1.00062E+00 3.08763E-14 5.07814E-13
 -1       190 2.76314E+01-7.00722E-01-2.55444E-02-2.82375E+00-4.40373E-14 5.41301E-13
 -1       191 2.61984E+01 2.59892E-01-7.83961E-02-3.35693E+00-8.26006E-14 3.76765E-13
 -1       192 2.47934E+01 1.43897E+00-1.37172E-01-1.37203E+00-1.58262E-13 1.74000E-13
 -1       193 2.48755E+01 1.42797E+00-1.40194E-01 1.66610E+00-1.77018E-13-3.09180E-14
 -1       194 2.64564E+01 2.02495E-01-7.74365E-02 3.53332E+00-1.38087E-13-9.66033E-14
 -1       195 2.80449E+01-7.62877E-01-1.98369E-02 2.82524E+00-1.04458E-13-2.11527E-13
 -1       196 2.85999E+01-8.47933E-01 1.08019E-03 9.48320E-01 9.06497E-14-1.54839E-13
 -1       197 2.81360E+01-5.01518E-01-4.32434E-03-5.86311E-01 1.75679E-13-1.07103E-13
 -1       198 2.70811E+01-1.67554E-01-7.91490E-03-1.33946E+00-1.73741E-14-2.23979E-14
 -1       199 2.58179E+01 2.21465E-02-5.75142E-03-1.49740E+00-4.88517E-14-1.40419E-13
 -1       200 2.45900E+01 9.61654E-02-1.77479E-03-1.35172E+00 4.31220E-14-1.41747E-13
 -1       201 2.35161E+01 1.08624E-01 1.23110E-03-1.10334E+00 5.39373E-14-4.83389E-14
 -1       202 2.25992E+01 9.48171E-02 2.90139E-03-8.41579E-01-1.56615E-13 7.80695E-14
 -1       203 2.19184E+01 7.51396E-02 3.12420E-03-6.29730E-01-5.20844E-14-8.76029E-14
 -1       204 2.13960E+01 5.69260E-02 2.84970E-03-4.63168E-01-1.11986E-13-2.74328E-13
 -1       205 2.10030E+01 4.20873E-02 2.36433E-03-3.36818E-01-4.89027E-14-2.79908E-13
 -1       206 2.07109E+01 3.07356E-02 1.86330E-03-2.42874E-01-5.24792E-14-2.51617E-13
 -1       207 2.04960E+01 2.23089E-02 1.42657E-03-1.73770E-01 7.60572E-14-2.74943E-13
 -1       208 2.03394E+01 1.61373E-02 1.07389E-03-1.23242E-01-6.44911E-14-2.33488E-13
 -1       209 2.02264E+01 1.16389E-02 7.99948E-04-8.64430E-02-6.58034E-14-2.21291E-13
 -1       210 2.01458E+01 8.36148E-03 5.91428E-04-5.97481E-02 5.95091E-15-3.70257E-14
 -1       211 2.00891E+01 5.97095E-03 4.34383E-04-4.04811E-02-2.98809E-15 1.15948E-13
 -1       212 2.00501E+01 4.22573E-03 3.16789E-04-2.66748E-02 1.22724E-13 1.81231E-13
 -1       213 2.00237E+01 2.95240E-03 2.29077E-04-1.68815E-02 5.48513E-14-1.06118E-14
 -1       214 2.00066E+01 2.02598E-03 1.63365E-04-1.00299E-02-8.93505E-14 1.41511E-13
 -1       215 1.99960E+01 1.35886E-03 1.14445E-04-5.33235E-03-2.77077E-13-1.60736E-13
 -1       216 1.99898E+01 8.60435E-04 8.07191E-05-2.06232E-03-1.36031E-13-3.10345E-14
 -1       217 1.99870E+01 5.24365E-04 5.27080E-05-7.38639E-05 2.01376E-13-2.42795E-13
 -1       218 1.99862E+01 2.94416E-04 3.45688E-05 1.13252E-03-1.78143E-13-2.58304E-13
 -1       219 1.99867E+01 1.39213E-04 2.14642E-05 1.80575E-03-5.54932E-14-7.63947E-15
 -1       220 1.99879E+01 3.84097E-05 1.23041E-05 2.11868E-03 3.38046E-14-1.76701E-13
 -1       221 1.99895E+01-2.40508E-05 5.99421E-06 2.19739E-03 8.48133E-14-2.50133E-13
 -1       222 1.99913E+01-6.05213E-05 1.69462E-06 2.13018E-03-7.42017E-14-3.05966E-13
 -1       223 1.99931E+01-8.08142E-05-1.24366E-06 1.97573E-03-3.09109E-13-4.85077E-13
 -1       224 1.99948E+01-9.31514E-05-3.28500E-06 1.76881E-03 3.91010E-14-4.46660E-13
 -1       225 1.99963E+01-1.05060E-04-4.63616E-06 1.52388E-03 2.55979E-13-2.65867E-13
 -1       226 1.99975E+01-1.23859E-04-5.10603E-06 1.23739E-03-1.51828E-13-4.01221E-13
 -1       227 1.99986E+01-1.55111E-04-4.30519E-06 8.92061E-04 1.08592E-14-3.63749E-13
 -1       228 1.99993E+01-1.94361E-04-4.16373E-06 4.80801E-04-5.48886E-13-9.92670E-14
 -1       229 1.99997E+01-1.77706E-04 3.75633E-06 1.70568E-04 1.40293E-13 9.23986E-14
 -1       230 2.20592E+01 2.56236E-01-4.91204E-02 9.71232E-01 1.88603E-13 7.98619E-13
 -1       231 2.11281E+01 1.08204E-01 1.03438E-02 3.13945E-01 1.30394E-13 6.95784E-13
 -1       232 2.07213E+01 2.85588E-02 1.27227E-02 9.19481E-02 9.46227E-14 5.58586E-13
 -1       233 2.05169E+01-1.31339E-02 6.74694E-03 4.92719E-02 1.08226E-13 4.85213E-13
 -1       234 2.03506E+01-3.48870E-02 3.21100E-03 1.06721E-01 6.91698E-14 4.50576E-13
 -1       235 2.01234E+01-4.67207E-02 1.72346E-03 2.22483E-01 5.76279E-14 3.62557E-13
 -1       236 1.97832E+01-4.59030E-02 1.18595E-03 3.58869E-01 2.99659E-14 2.66861E-13
 -1       237 1.93269E+01-2.88218E-02 8.13541E-04 4.69898E-01 2.96179E-14 2.17807E-13
 -1       238 1.88055E+01 4.21295E-03 2.79523E-04 5.05377E-01 3.48140E-14 1.87824E-13
 -1       239 1.83170E+01 4.55501E-02-3.47691E-04 4.27600E-01 4.19129E-14 2.18991E-13
 -1       240 1.79812E+01 8.08391E-02-7.08851E-04 2.32515E-01 6.04152E-14 1.33036E-13
 -1       241 1.78972E+01 9.52872E-02-4.73401E-04-3.92489E-02 1.73550E-14 8.95804E-14
 -1       242 1.81026E+01 8.24012E-02 3.12192E-04-3.14051E-01 4.40039E-14 8.97769E-14
 -1       243 1.85557E+01 4.81824E-02 1.18501E-03-5.16998E-01 8.05796E-14 1.81946E-14
 -1       244 1.91545E+01 7.02671E-03 1.60948E-03-6.04117E-01 4.56701E-14 6.64052E-15
 -1       245 1.97765E+01-2.68896E-02 1.37245E-03-5.75169E-01-1.69631E-14 2.14932E-14
 -1       246 2.03192E+01-4.60029E-02 6.53479E-04-4.63443E-01 6.10078E-14-4.02998E-14
 -1       247 2.07217E+01-5.02476E-02-1.77994E-04-3.14322E-01 2.12796E-14-9.32556E-14
 -1       248 2.09668E+01-4.41005E-02-8.06702E-04-1.66861E-01 4.29151E-14-1.29896E-13
 -1       249 2.10692E+01-3.30104E-02-1.10551E-03-4.51861E-02-2.13299E-14-4.23507E-14
 -1       250 2.10605E+01-2.12077E-02-1.10249E-03 4.13560E-02-5.19000E-14 9.08659E-15
 -1       251 2.09770E+01-1.11098E-02-9.05845E-04 9.37632E-02 5.37872E-14-3.40009E-14
 -1       252 2.08513E+01-3.62712E-03-6.29269E-04 1.18378E-01 3.35974E-14-1.10360E-13
 -1       253 2.07090E+01 1.26561E-03-3.55993E-04 1.23127E-01-4.37724E-14-1.47475E-13
 -1       254 2.05679E+01 4.03303E-03-1.31460E-04 1.15347E-01 2.20121E-13-1.09802E-13
 -1       255 2.04390E+01 5.25693E-03 2.91444E-05 1.00847E-01 1.05217E-14-8.24906E-14
 -1       256 2.03278E+01 5.46917E-03 1.29067E-04 8.37443E-02-7.84596E-14-7.42924E-14
 -1       257 2.02359E+01 5.08824E-03 1.80073E-04 6.66786E-02-7.28498E-14-1.17971E-13
 -1       258 2.01630E+01 4.41215E-03 1.95983E-04 5.11518E-02 5.39922E-14-1.61058E-13
 -1       259 2.01070E+01 3.63606E-03 1.89277E-04 3.78681E-02-3.33829E-14-6.43322E-14
 -1       260 2.00653E+01 2.87695E-03 1.69782E-04 2.70161E-02-7.85029E-14 7.92158E-14
 -1       261 2.00355E+01 2.19699E-03 1.44517E-04 1.84807E-02-9.20466E-14 8.29974E-14
 -1       262 2.00148E+01 1.62247E-03 1.18085E-04 1.19901E-02-5.52877E-14 1.68014E-13
 -1       263 2.00013E+01 1.15784E-03 9.32261E-05 7.21184E-03 1.47102E-13 1.51731E-13
 -1       264 1.99929E+01 7.95386E-04 7.13541E-05 3.81039E-03 3.70361E-13-1.49466E-13
 -1       265 1.99883E+01 5.21662E-04 5.30046E-05 1.47861E-03-8.37116E-14-1.88802E-13
 -1       266 1.99863E+01 3.21354E-04 3.81718E-05-4.76672E-05-1.33147E-13-2.70985E-13
 -1       267 1.99861E+01 1.79533E-04 2.65472E-05-9.85706E-04 1.11901E-13-3.65211E-13
 -1       268 1.99869E+01 8.27856E-05 1.76787E-05-1.50782E-03 1.05228E-14-2.83360E-13
 -1       269 1.99883E+01 1.96430E-05 1.10694E-05-1.74620E-03 1.28911E-14-1.96940E-13
 -1       270 1.99901E+01-1.94187E-05 6.23685E-06-1.79879E-03 1.21178E-13-3.35635E-13
 -1       271 1.99919E+01-4.22249E-05 2.74980E-06-1.73496E-03-6.22931E-15-3.52521E-13
 -1       272 1.99937E+01-5.53078E-05 2.72656E-07-1.60038E-03 1.26491E-13-3.50441E-13
 -1       273 1.99954E+01-6.44288E-05-1.32827E-06-1.42062E-03-7.83924E-14-5.26697E-13
 -1       274 1.99968E+01-7.51546E-05-1.79180E-06-1.20345E-03-2.48865E-13-5.06613E-13
 -1       275 1.99981E+01-9.23581E-05-4.24690E-07-9.40855E-04-8.09421E-14-4.85230E-13
 -1       276 1.99990E+01-1.24210E-04 8.23640E-07-6.11346E-04-5.65546E-15-3.04427E-13
 -1       277 1.99995E+01-1.40489E-04-3.67569E-06-2.29228E-04 1.48434E-13-1.30952E-13
 -1       278 1.99996E+01-4.90414E-04-3.43616E-06-4.67943E-04-1.90743E-13 2.78309E-13
 -1       279 1.99997E+01-1.14955E-03-1.37326E-06-8.12866E-04-4.93535E-13-5.41257E-13
 -1       280 1.99998E+01-1.99679E-03-9.27469E-07-9.98681E-04-4.64648E-13-4.08275E-13
 -1       281 1.99998E+01-2.90346E-03 5.58273E-07-1.01458E-03-5.38612E-13 7.72585E-13
 -1       282 1.99999E+01-3.74076E-03 2.42484E-06-8.89557E-04-2.87140E-13 5.99252E-15
 -1       283 1.99999E+01-4.43182E-03 3.99879E-06-6.54354E-04-1.28614E-13 6.72748E-15
 -1       284 1.99999E+01-4.87996E-03 5.05965E-06-3.46310E-04-1.16075E-13 1.24813E-13
 -1       285 1.99999E+01-5.03619E-03 5.43398E-06-1.50464E-06 2.25090E-13 1.13627E-13
 -1       286 1.99999E+01-4.88320E-03 5.08344E-06 3.44260E-04 2.44391E-14 1.97347E-13
 -1       287 1.99999E+01-4.43664E-03 4.02456E-06 6.54890E-04 3.17508E-15 1.21539E-13
 -1       288 1.99999E+01-3.75885E-03 2.36680E-06 8.89917E-04 7.24429E-14-5.38484E-13
 -1       289 1.99998E+01-2.90509E-03 6.18785E-07 1.01963E-03 2.30679E-13 9.37668E-15
 -1       290 1.99998E+01-1.99359E-03-9.96211E-07 1.00310E-03 2.51808E-13-1.96335E-13
 -1       291 1.99997E+01-1.15152E-03-1.52061E-06 8.13371E-04 9.90475E-14 4.43147E-13
 -1       292 1.99996E+01-5.99287E-04 1.05879E-07 5.12260E-04-2.96234E-13 5.56538E-13
 -1       293-2.20163E-01-9.05483E+00-6.21811E-01 2.61941E+00-1.06554E-13 6.88977E-13
 -1       294 3.44865E+00-8.20860E+00-7.53223E-01 4.12603E+00 4.70540E-13 9.51222E-13
 -1       295 1.09788E+01-4.22190E+00-3.90906E-01 6.46542E+00 8.51319E-13 8.31779E-13
 -1       296 1.97993E+01-1.89576E-02-4.00402E-02 7.86669E+00 9.55819E-13 1.13518E-12
 -1       297 2.99342E+01 3.27484E+00 3.69873E-01 8.31535E+00 9.19251E-13 1.04461E-12
 -1       298 3.90744E+01 5.29202E+00 6.51656E-01 6.41196E+00 9.23501E-13 5.94164E-13
 -1       299 4.49168E+01 6.88089E+00 8.18714E-01 3.07262E+00 7.32719E-13 2.85841E-13
 -1       300 4.80806E+01 6.87609E+00 1.02323E+00-8.45986E-01 6.09762E-13-9.80882E-14
 -1       301 4.17236E+01 6.41027E+00 5.65694E-01-3.20998E+00 6.52270E-13-3.51164E-13
 -1       302 3.60590E+01 4.46493E+00 5.47638E-01-7.09454E+00 7.33719E-13-7.67414E-13
 -1       303 2.61279E+01 2.07852E+00 2.18768E-01-8.27621E+00 9.10411E-13-8.40716E-13
 -1       304 1.61802E+01-1.60671E+00-1.99503E-01-7.29405E+00 8.85958E-13-8.57925E-13
 -1       305 8.16482E+00-5.90524E+00-4.88495E-01-5.90277E+00 6.33826E-13-7.38132E-13
 -1       306 1.35868E+00-9.68110E+00-8.77259E-01-3.16983E+00 5.03680E-13-5.74721E-13
 -1       307-1.29666E+00-1.16866E+01-1.02812E+00-1.10620E+00 1.48555E-13-5.90750E-13
 -1       308-4.41384E-01-1.03753E+01-8.69976E-01 1.34411E+00-2.54657E-13-7.98084E-13
 -1       309 3.67874E+00-8.86967E+00-8.61450E-01 3.34006E+00-7.09821E-13-8.70068E-13
 -1       310 1.30505E+01-5.61041E+00-4.43223E-01 6.00461E+00-7.35911E-13-8.96797E-13
 -1       311 2.33756E+01-1.49020E+00-1.04093E-01 6.81881E+00-9.79883E-13-8.79852E-13
 -1       312 3.50407E+01 2.40502E+00 4.73136E-01 6.83771E+00-9.55430E-13-8.11851E-13
 -1       313 4.45650E+01 5.08050E+00 9.26151E-01 4.31889E+00-6.81642E-13-5.72431E-13
 -1       314 4.98360E+01 6.97680E+00 1.24507E+00 1.61328E+00-4.23717E-13-3.07879E-13
 -1       315 5.06737E+01 6.74148E+00 1.31732E+00-1.35016E+00-3.53634E-13-7.28306E-14
 -1       316 4.45296E+01 5.16297E+00 8.60054E-01-3.14120E+00-5.25496E-13 5.01821E-14
 -1       317 3.69778E+01 2.66184E+00 5.48647E-01-6.18926E+00-7.31290E-13 2.01728E-13
 -1       318 2.60901E+01-3.31442E-01 3.39945E-02-6.88301E+00-8.13349E-13 6.41931E-13
 -1       319 1.54014E+01-3.87636E+00-4.31029E-01-5.98985E+00-1.01280E-12 7.06879E-13
 -1       320 6.84230E+00-7.41239E+00-7.62532E-01-4.14512E+00-1.08219E-12 5.46438E-13
 -1       321 1.36551E+00-1.00186E+01-8.91141E-01-2.30795E+00-7.75796E-13 6.97942E-13
 -1       322-1.28706E+00-1.17184E+01-1.00053E+00-4.24194E-02-4.73975E-13 9.96869E-13
 -1       323 2.05936E+01 3.34583E+00-1.59570E-02-1.08870E+00-2.65352E-13-5.89875E-14
 -1       324 2.20103E+01 2.32721E+00-1.35555E-02-1.36687E+00-2.82335E-13 1.22116E-13
 -1       325 1.85461E+01 4.32707E+00-1.10398E-02-7.23279E-01-1.75672E-13-2.57761E-13
 -1       326 1.80052E+01 4.49589E+00-8.08977E-03-6.73171E-01-1.27986E-13-2.91427E-13
 -1       327 1.78046E+01 4.50011E+00-7.04244E-03-6.36845E-01-7.59569E-14-2.90307E-13
 -1       328 1.78997E+01 4.38501E+00-7.37664E-03-5.48588E-01-2.78680E-14-2.80718E-13
 -1       329 1.82105E+01 4.20091E+00-8.66200E-03-3.67269E-01 2.18100E-14-2.59652E-13
 -1       330 1.86489E+01 3.99034E+00-1.05694E-02-8.07169E-02 7.82952E-14-2.58312E-13
 -1       331 1.91359E+01 3.77896E+00-1.29770E-02 2.92472E-01 1.32005E-13-2.18320E-13
 -1       332 1.96529E+01 3.55282E+00-1.60572E-02 7.40956E-01 1.99443E-13-1.45469E-13
 -1       333 2.01995E+01 3.27148E+00-2.02546E-02 1.22729E+00 2.59578E-13-8.89289E-14
 -1       334 2.08370E+01 2.83311E+00-2.47186E-02 1.69526E+00 2.89513E-13 3.39000E-14
 -1       335 2.16312E+01 2.02399E+00-3.06126E-02 1.95951E+00 2.74370E-13 2.80394E-13
 -1       336 2.20787E+01 1.12791E+00-2.43666E-02 1.62944E+00 2.40840E-13 4.87399E-13
 -1       337 2.14773E+01 4.23254E-01 7.04308E-03 7.12158E-01 1.82372E-13 4.21357E-13
 -1       338 2.22349E+01 9.23743E-01 1.58352E-02 2.11378E-01-1.98274E-13 1.38669E-13
 -1       339 2.22176E+01 6.80361E-01 1.01019E-02 1.08693E+00-1.50071E-13 1.25525E-13
 -1       340 2.24632E+01 5.41876E-01 5.92544E-03 1.76033E+00-7.76228E-14 1.26213E-13
 -1       341 2.29578E+01 3.22079E-01 7.97097E-04 2.26292E+00-1.10301E-15 1.36778E-13
 -1       342 2.37369E+01-1.52133E-01-4.17985E-03 2.47980E+00 5.50406E-14 1.94653E-13
 -1       343 2.49083E+01-1.03586E+00-7.85634E-03 2.14916E+00 3.32560E-14 2.80256E-13
 -1       344 2.65903E+01-2.23224E+00-1.14232E-02 9.07594E-01 1.51885E-13 3.08728E-13
 -1       345 2.85715E+01-2.85259E+00-3.75723E-02-1.35293E+00 5.04410E-14 3.47887E-13
 -1       346 3.01323E+01-1.33684E+00-7.53348E-02-3.62757E+00-1.17555E-13 4.12968E-13
 -1       347 3.03266E+01 2.75970E+00-2.10191E-01-3.46861E+00-3.64278E-13 2.61201E-13
 -1       348 2.99578E+01 5.13723E+00-2.89979E-01 8.79054E-03-4.70027E-13-2.94144E-14
 -1       349 3.05409E+01 2.70105E+00-1.52550E-01 3.86117E+00-3.05436E-13-4.41387E-13
 -1       350 3.01238E+01-1.47910E+00-9.39338E-02 3.73578E+00-1.83683E-13-5.18693E-13
 -1       351 2.85915E+01-2.91091E+00-2.63617E-02 1.30129E+00 1.10728E-13-4.13282E-13
 -1       352 2.66382E+01-2.16003E+00-1.04547E-02-9.23315E-01 2.12122E-13-2.97031E-13
 -1       353 2.50174E+01-9.73415E-01-9.13010E-03-2.11311E+00 2.11560E-13-1.04622E-13
 -1       354 2.38664E+01-1.46323E-01-4.99962E-03-2.43886E+00 1.31750E-14 1.63615E-14
 -1       355 2.30421E+01 2.55412E-01-6.41184E-04-2.28732E+00-8.63194E-14 6.09248E-14
 -1       356 2.24091E+01 3.84107E-01 2.18438E-03-1.94043E+00 9.51061E-14 7.44159E-14
 -1       357 2.18768E+01 3.75381E-01 3.40661E-03-1.53702E+00-3.97067E-15-5.71633E-14
 -1       358 2.14638E+01 3.17538E-01 3.41684E-03-1.18895E+00-1.85271E-13-5.87887E-14
 -1       359 2.11255E+01 2.51079E-01 2.93847E-03-9.00481E-01-9.15851E-14 6.28391E-15
 -1       360 2.08530E+01 1.91632E-01 2.34911E-03-6.72369E-01-4.99940E-14 8.77336E-15
 -1       361 2.06370E+01 1.43465E-01 1.79836E-03-4.96808E-01-9.08739E-14 2.25910E-14
 -1       362 2.04685E+01 1.06266E-01 1.34414E-03-3.63838E-01 3.29953E-14-7.65042E-14
 -1       363 2.03389E+01 7.82232E-02 9.91309E-04-2.64119E-01 9.03174E-14-1.92167E-13
 -1       364 2.02406E+01 5.73264E-02 7.25330E-04-1.89838E-01-6.57393E-14-5.73880E-14
 -1       365 2.01670E+01 4.18310E-02 5.27741E-04-1.34815E-01 1.51288E-13 1.21457E-13
 -1       366 2.01127E+01 3.03596E-02 3.81936E-04-9.42883E-02 7.16011E-14 8.94587E-14
 -1       367 2.00733E+01 2.18722E-02 2.74663E-04-6.46435E-02 9.27605E-14-5.58051E-14
 -1       368 2.00452E+01 1.55994E-02 1.95899E-04-4.31463E-02 9.48099E-14-6.35440E-14
 -1       369 2.00256E+01 1.09750E-02 1.37798E-04-2.77305E-02-6.75992E-14-2.13414E-13
 -1       370 2.00122E+01 7.58689E-03 9.46931E-05-1.68357E-02-2.13028E-13-2.53610E-13
 -1       371 2.00032E+01 5.00849E-03 6.52987E-05-8.97519E-03 1.24289E-14 1.29032E-13
 -1       372 1.99979E+01 3.25730E-03 4.15341E-05-3.96577E-03-6.88808E-15 1.80360E-13
 -1       373 1.99949E+01 2.01629E-03 2.65140E-05-6.96340E-04-7.50218E-14 5.85100E-14
 -1       374 1.99935E+01 1.15264E-03 1.56896E-05 1.33673E-03-6.95067E-14 7.30755E-14
 -1       375 1.99931E+01 5.66792E-04 8.28289E-06 2.50642E-03-2.55179E-13-3.05926E-14
 -1       376 1.99934E+01 1.81993E-04 3.33503E-06 3.08800E-03-2.33770E-14-1.84219E-13
 -1       377 1.99940E+01-6.11882E-05 1.16645E-07 3.28037E-03 7.09533E-14-2.35858E-13
 -1       378 1.99949E+01-2.09322E-04-1.94322E-06 3.22280E-03-1.48222E-13-2.51959E-13
 -1       379 1.99959E+01-2.99786E-04-3.28668E-06 3.00756E-03 2.11971E-14 2.14012E-13
 -1       380 1.99968E+01-3.63734E-04-4.25563E-06 2.68929E-03 2.63075E-13 1.47933E-13
 -1       381 1.99977E+01-4.27786E-04-5.20300E-06 2.29303E-03-1.37136E-13 7.99911E-14
 -1       382 1.99984E+01-5.12328E-04-6.58796E-06 1.82444E-03-3.74869E-14 2.39656E-13
 -1       383 1.99991E+01-6.19701E-04-7.11075E-06 1.27940E-03-8.93607E-14 1.90427E-13
 -1       384 2.10068E+01 7.77499E-02 4.56448E-03 2.44342E-01 1.40978E-13 2.89286E-13
 -1       385 2.08356E+01-7.85992E-02 8.30903E-04 2.10792E-01 1.46067E-13 2.36973E-13
 -1       386 2.06916E+01-1.69582E-01-1.13636E-03 3.29375E-01 1.47436E-13 1.85576E-13
 -1       387 2.05182E+01-2.03824E-01-1.59582E-03 5.31957E-01 7.47056E-14 1.29023E-13
 -1       388 2.02769E+01-1.66839E-01-9.73779E-04 7.42778E-01 3.51181E-14 1.44078E-13
 -1       389 1.99635E+01-5.15458E-02 3.87875E-04 8.72320E-01 7.31712E-15 1.14332E-13
 -1       390 1.96164E+01 1.23153E-01 2.04525E-03 8.35502E-01 3.31051E-14 1.95687E-13
 -1       391 1.93136E+01 3.04358E-01 3.46720E-03 5.88103E-01 6.72703E-14 2.00955E-13
 -1       392 1.91475E+01 4.21005E-01 4.26179E-03 1.61210E-01 9.13735E-14 1.41978E-13
 -1       393 1.91811E+01 4.20996E-01 4.23471E-03-3.36350E-01 4.13909E-14 5.99765E-14
 -1       394 1.94128E+01 3.04356E-01 3.37911E-03-7.62309E-01 3.27477E-14 2.22568E-14
 -1       395 1.97765E+01 1.22399E-01 1.84604E-03-1.00731E+00 6.82481E-14 3.34325E-14
 -1       396 2.01761E+01-5.53892E-02 7.45567E-05-1.03785E+00 3.64426E-14 2.10314E-15
 -1       397 2.05271E+01-1.78407E-01-1.45550E-03-8.93106E-01 3.88367E-14-7.97007E-14
 -1       398 2.07806E+01-2.30726E-01-2.40750E-03-6.49634E-01 8.34544E-14-4.46181E-14
 -1       399 2.09240E+01-2.24290E-01-2.68808E-03-3.83404E-01-5.20098E-14-2.62568E-14
 -1       400 2.09693E+01-1.82823E-01-2.45173E-03-1.47654E-01-8.78590E-14 9.88270E-14
 -1       401 2.09399E+01-1.28661E-01-1.91790E-03 3.14862E-02-9.42563E-14 1.75900E-13
 -1       402 2.08608E+01-7.69355E-02-1.29661E-03 1.49090E-01 1.18923E-13 1.19562E-13
 -1       403 2.07541E+01-3.52196E-02-7.26494E-04 2.12754E-01 4.92715E-14-9.86057E-15
 -1       404 2.06367E+01-5.58545E-03-2.76192E-04 2.35273E-01-3.05874E-14-5.65113E-14
 -1       405 2.05207E+01 1.30126E-02 3.73704E-05 2.29904E-01 8.13598E-14-5.42785E-15
 -1       406 2.04136E+01 2.29195E-02 2.28204E-04 2.07962E-01 1.34140E-13 1.07926E-13
 -1       407 2.03196E+01 2.66792E-02 3.23229E-04 1.77995E-01-2.37665E-14 6.27551E-14
 -1       408 2.02402E+01 2.65009E-02 3.51172E-04 1.45864E-01-8.55366E-14 1.14244E-13
 -1       409 2.01753E+01 2.40814E-02 3.36907E-04 1.15199E-01-2.17388E-14 1.76355E-13
 -1       410 2.01238E+01 2.06121E-02 2.99485E-04 8.79699E-02-6.22931E-14 3.36634E-13
 -1       411 2.00841E+01 1.68647E-02 2.52204E-04 6.50003E-02-1.09238E-13 2.85987E-13
 -1       412 2.00542E+01 1.32957E-02 2.03572E-04 4.63879E-02-6.51471E-14 2.05441E-13
 -1       413 2.00324E+01 1.01416E-02 1.58497E-04 3.18122E-02-8.08181E-14 1.02915E-13
 -1       414 2.00170E+01 7.49495E-03 1.19390E-04 2.07469E-02 2.99150E-14 1.30506E-14
 -1       415 2.00066E+01 5.36146E-03 8.70449E-05 1.25971E-02 4.40026E-13 1.32173E-13
 -1       416 1.99998E+01 3.69870E-03 6.12967E-05 6.78189E-03 7.39132E-14 2.85701E-13
 -1       417 1.99957E+01 2.44197E-03 4.14667E-05 2.77777E-03 2.28976E-14 8.35233E-14
 -1       418 1.99935E+01 1.52018E-03 2.66569E-05 1.38206E-04-2.60624E-14 7.31154E-14
 -1       419 1.99926E+01 8.64830E-04 1.59263E-05-1.50248E-03 1.16397E-13-1.49691E-13
 -1       420 1.99927E+01 4.14594E-04 8.38899E-06-2.43352E-03 4.52390E-14-3.52303E-13
 -1       421 1.99932E+01 1.16903E-04 3.25800E-06-2.87634E-03 1.15368E-13-4.15350E-13
 -1       422 1.99941E+01-7.21722E-05-1.42751E-07-2.99436E-03 2.70414E-14-2.03543E-13
 -1       423 1.99951E+01-1.89069E-04-2.38538E-06-2.90253E-03 1.31599E-13-3.16784E-13
 -1       424 1.99961E+01-2.64384E-04-3.94307E-06-2.67559E-03-2.49269E-14-2.97215E-13
 -1       425 1.99971E+01-3.24517E-04-5.11282E-06-2.35486E-03-5.95204E-14-7.23225E-14
 -1       426 1.99979E+01-3.91709E-04-6.30162E-06-1.95576E-03-9.54513E-14-1.58144E-13
 -1       427 1.99987E+01-4.76294E-04-7.59942E-06-1.48161E-03-1.63955E-13-4.27713E-13
 -1       428 1.99992E+01-5.18041E-04-5.77985E-06-9.86719E-04-1.92728E-13-1.92758E-13
 -1       429 1.99998E+01-2.12792E-03-6.95140E-07-1.72494E-03-9.54416E-14 2.99379E-13
 -1       430 1.99995E+01-1.42772E-03-3.34515E-06-1.61633E-03-2.73925E-13-5.10207E-13
 -1       431 2.00000E+01-2.77548E-03 1.72275E-06-1.61324E-03-2.49186E-13 2.58654E-13
 -1       432 2.00002E+01-3.33763E-03 3.44157E-06-1.30106E-03-9.92839E-14 1.84974E-13
 -1       433 2.00003E+01-3.74676E-03 4.69810E-06-8.42297E-04 1.04782E-13 1.53186E-13
 -1       434 2.00003E+01-3.96352E-03 5.38093E-06-2.93469E-04-8.07610E-14 8.61791E-14
 -1       435 2.00003E+01-3.96660E-03 5.40567E-06 2.86686E-04 9.72012E-15-1.82667E-13
 -1       436 2.00003E+01-3.75505E-03 4.76865E-06 8.38875E-04-9.92256E-14 3.70700E-14
 -1       437 2.00002E+01-3.35697E-03 3.45550E-06 1.29633E-03-3.45966E-13-2.92711E-13
 -1       438 2.00000E+01-2.79624E-03 1.79490E-06 1.61551E-03-8.88803E-15 2.00375E-13
 -1       439 1.99998E+01-2.13517E-03-3.39362E-07 1.73281E-03 7.95546E-14-2.34677E-13
 -1       440 1.99995E+01-1.43675E-03-2.92362E-06 1.60648E-03-2.23787E-14 4.78241E-15
 -1       441 2.11802E+01 2.28276E-01 8.90932E-03 3.97364E-01 1.67085E-13 3.50603E-13
 -1       442 1.12855E+01-5.55664E+00-4.85986E-02 7.61501E+00-2.55074E-14 6.34156E-13
 -1       443 2.74765E+01-2.45080E+00 1.00416E-02 4.96666E+00 3.30264E-13 2.70506E-13
 -1       444 1.19566E+00-4.30904E+00-2.31715E-02 7.54939E-01-8.60718E-14 9.52766E-13
 -1       445 2.05936E+01-4.99590E+00 1.25117E-03 7.03696E+00 6.13815E-14 4.62741E-13
 -1       446 1.94259E+01 3.95730E+00-1.48207E-02-8.67109E-01-2.30581E-13-1.77557E-13
 -1       447 3.24892E+01 1.03173E+00 6.62918E-04 1.98829E+00 4.63520E-13-8.72635E-14
 -1       448 3.46251E+01 5.43527E+00-3.31034E-02-1.70814E-01 6.55420E-13-1.70808E-13
 -1       449 3.69829E+01 8.44864E+00 7.71886E-02-6.33670E-03 7.42212E-13 1.81695E-14
 -1       450 3.59657E+01 7.91190E+00 5.71681E-03 1.03829E-01 7.22394E-13-2.01228E-14
 -1       451 3.41487E+01 3.56259E+00-9.55608E-03-5.45258E-01 5.00697E-13-6.33660E-14
 -1       452 3.11542E+01-1.97058E-01 4.65082E-02-3.45610E+00 4.48926E-13-1.89349E-13
 -1       453 2.48096E+01-3.50079E+00 2.90097E-03-5.95740E+00 3.21271E-13-2.42403E-13
 -1       454 1.78051E+01-5.41159E+00 1.05819E-02-7.53916E+00 6.11317E-14-3.54283E-13
 -1       455 8.32521E+00-5.08030E+00-1.34811E-02-7.11624E+00-4.21885E-15-5.43857E-13
 -1       456 2.41898E+00-4.85218E+00-6.55457E-02-3.96836E+00-2.13024E-14-6.15744E-13
 -1       457 1.35708E+00-4.00745E+00-1.03572E-02 2.86388E-01-4.54116E-14-8.01720E-13
 -1       458 5.70563E+00-4.95119E+00 1.02915E-03 5.06690E+00-4.98213E-15-8.18304E-13
 -1       459 1.27208E+01-6.11485E+00-3.86862E-02 6.78884E+00-3.06422E-14-5.80605E-13
 -1       460 2.30280E+01-5.94817E+00-5.11932E-02 5.59780E+00-2.42556E-13-2.70353E-13
 -1       461 3.13044E+01-3.14788E+00 6.96832E-03 2.78930E+00-5.03070E-13-1.28675E-13
 -1       462 3.59311E+01 8.28959E-01 2.99364E-02-8.18997E-01-5.63494E-13-5.80647E-14
 -1       463 3.80898E+01 5.76104E+00 1.01290E-01-1.43782E+00-5.95052E-13-1.83631E-13
 -1       464 3.94224E+01 7.54498E+00 2.07974E-01 2.04759E-01-4.84002E-13-3.36189E-14
 -1       465 3.88491E+01 6.37529E+00 1.73449E-01 1.39171E+00-5.44093E-13-2.86160E-14
 -1       466 3.61808E+01 1.33942E+00-5.58510E-03 1.21666E+00-5.05485E-13-9.22873E-14
 -1       467 3.30565E+01-2.26092E+00 3.92501E-02-1.49518E+00-4.12739E-13-2.59404E-13
 -1       468 2.53297E+01-5.56103E+00-6.47663E-02-4.68781E+00-1.92207E-13-5.55250E-14
 -1       469 1.67941E+01-6.51074E+00-7.40800E-02-6.42635E+00-1.25733E-13 2.21741E-14
 -1       470 8.34427E+00-6.19283E+00-1.08653E-01-5.82432E+00-1.34864E-13 2.20324E-13
 -1       471 2.42240E+00-5.06730E+00-8.30459E-02-2.77017E+00 4.38330E-14 8.98864E-13
 -1       472 5.06383E+00-4.80925E+00-5.73772E-03 5.87202E+00-1.03140E-13 9.50073E-13
 -1       473 4.34884E+00-2.28407E+00 1.35726E-01 3.66438E+00-1.12757E-15 7.38701E-13
 -1       474 3.18534E+01 5.49095E+00-1.40833E-01 1.33094E+00 5.49658E-13 1.69323E-13
 -1       475 1.78299E+01 4.00832E+00-2.63363E-03-6.56380E-01-9.88845E-14-2.65554E-13
 -1       476 1.81913E+01 3.89874E+00-2.94922E-03-5.08701E-01-1.43288E-13-2.38126E-13
 -1       477 1.81747E+01 3.66819E+00-3.14882E-03-6.76934E-01-2.16969E-14-2.27874E-13
 -1       478 1.86694E+01 3.36321E+00-3.84332E-03-4.70351E-01 3.22434E-14-2.18573E-13
 -1       479 1.92214E+01 3.05057E+00-4.74827E-03-1.43373E-01 8.67803E-14-1.93539E-13
 -1       480 1.97817E+01 2.73525E+00-5.81118E-03 2.65777E-01 1.58457E-13-1.41066E-13
 -1       481 2.03179E+01 2.39665E+00-6.93943E-03 6.88968E-01 1.95488E-13-8.07349E-14
 -1       482 2.08436E+01 1.97377E+00-6.53357E-03 1.04670E+00 2.31084E-13-1.99704E-14
 -1       483 2.13272E+01 1.38679E+00-4.69783E-03 1.20287E+00 2.34135E-13 1.34736E-13
 -1       484 2.15045E+01 8.73621E-01 2.27848E-03 1.01963E+00 2.22822E-13 2.68650E-13
 -1       485 2.11239E+01 1.56920E+00 4.24139E-03 6.24792E-01-1.73301E-13 5.29416E-16
 -1       486 1.79987E+01-5.28765E+00 6.04330E-02 7.33888E+00-2.80512E-13 2.50954E-13
 -1       487 2.56790E+01-4.83773E+00 2.08962E-02 4.52172E+00-1.52107E-13-7.81805E-14
 -1       488 2.09898E+01 1.26448E+00 3.88640E-03 1.49505E+00-9.55756E-14 1.32497E-14
 -1       489 2.09188E+01 9.81134E-01 2.07059E-03 2.24906E+00-3.23757E-14 1.58070E-14
 -1       490 2.10329E+01 4.68239E-01 1.79259E-03 2.88969E+00 3.67364E-14 3.46885E-14
 -1       491 2.15715E+01-5.61446E-01 7.38474E-03 3.33958E+00 1.04953E-13 2.33524E-14
 -1       492 2.29996E+01-2.34264E+00 2.16766E-02 3.35521E+00 1.49918E-13 1.68307E-13
 -1       493 2.58635E+01-4.55415E+00 1.86723E-02 2.44877E+00 2.11876E-13 2.57166E-13
 -1       494 2.99306E+01-4.35020E+00-4.57314E-02 5.32549E-01 2.56696E-14-3.83735E-13
 -1       495 2.56169E+01-4.41293E+00 2.16319E-02-2.34395E+00 2.98988E-13-3.30916E-13
 -1       496 2.28805E+01-2.22783E+00 1.40648E-02-3.24656E+00 3.29486E-13-3.23413E-13
 -1       497 2.15342E+01-5.49619E-01 4.80907E-03-3.25270E+00 1.40912E-13-3.43029E-13
 -1       498 2.09833E+01 3.47708E-01 1.41000E-03-2.90449E+00 2.90229E-14-2.39824E-13
 -1       499 2.07809E+01 6.96863E-01 1.29684E-03-2.44817E+00 9.99389E-15-1.88830E-13
 -1       500 2.06927E+01 7.46050E-01 1.68763E-03-1.96896E+00-1.52681E-14-3.07431E-13
 -1       501 2.06289E+01 6.63662E-01 1.72395E-03-1.55956E+00-1.99544E-14-1.49492E-13
 -1       502 2.05561E+01 5.44485E-01 1.49411E-03-1.21276E+00-4.95114E-14 4.76199E-14
 -1       503 2.04754E+01 4.27628E-01 1.20090E-03-9.29797E-01-7.17823E-14 5.60868E-14
 -1       504 2.03933E+01 3.27641E-01 9.20788E-04-7.04684E-01-1.17634E-13-4.69419E-14
 -1       505 2.03160E+01 2.47427E-01 6.87189E-04-5.28707E-01-1.51751E-13-1.73417E-13
 -1       506 2.02473E+01 1.85200E-01 5.05421E-04-3.92848E-01 1.22873E-13-1.33525E-13
 -1       507 2.01890E+01 1.37777E-01 3.68738E-04-2.88945E-01 9.76425E-14-2.10975E-13
 -1       508 2.01410E+01 1.01965E-01 2.67602E-04-2.10105E-01 1.85998E-15-1.41426E-13
 -1       509 2.01028E+01 7.50418E-02 1.93292E-04-1.50728E-01 8.07471E-15-3.81833E-13
 -1       510 2.00730E+01 5.48506E-02 1.38855E-04-1.06359E-01 2.32070E-13 1.52461E-14
 -1       511 2.00503E+01 3.97397E-02 9.90774E-05-7.35012E-02 1.03288E-13 8.06824E-14
 -1       512 2.00334E+01 2.84631E-02 6.98444E-05-4.94237E-02 1.26392E-14-2.05171E-13
 -1       513 2.00211E+01 2.00895E-02 4.74712E-05-3.19992E-02-2.47501E-13-1.99166E-13
 -1       514 2.00120E+01 1.36395E-02 3.37199E-05-1.90876E-02-1.27062E-15-3.10859E-13
 -1       515 2.00061E+01 9.19020E-03 2.11403E-05-1.05915E-02 2.81106E-14-2.36512E-13
 -1       516 2.00022E+01 5.97678E-03 1.36244E-05-4.81166E-03-2.96175E-14-8.57451E-14
 -1       517 1.99997E+01 3.69358E-03 8.19245E-06-1.01086E-03 2.63562E-14 4.32056E-13
 -1       518 1.99982E+01 2.10353E-03 4.45453E-06 1.37198E-03-2.38788E-13 3.70409E-13
 -1       519 1.99975E+01 1.02374E-03 1.94737E-06 2.75925E-03-3.13191E-13 2.51511E-13
 -1       520 1.99973E+01 3.12337E-04 3.18698E-07 3.46334E-03-1.66122E-13-1.84851E-13
 -1       521 1.99973E+01-1.41463E-04-7.11645E-07 3.71042E-03-3.81324E-15-1.86214E-13
 -1       522 1.99976E+01-4.25141E-04-1.35909E-06 3.65874E-03 2.85881E-13 1.45613E-13
 -1       523 1.99979E+01-6.09025E-04-1.76591E-06 3.41314E-03 1.94305E-14-1.27852E-13
 -1       524 1.99983E+01-7.50633E-04-2.13885E-06 3.03648E-03 1.18487E-13-3.04631E-14
 -1       525 1.99987E+01-8.97371E-04-2.84202E-06 2.56088E-03 2.99030E-14 2.97910E-13
 -1       526 1.99992E+01-1.15079E-03-3.09842E-06 2.13041E-03-2.11427E-13 2.28976E-13
 -1       527 2.11446E+01-3.89785E-01-8.45567E-04 5.11729E-01 1.27788E-13 1.41726E-13
 -1       528 2.11556E+01-2.33075E-01-2.90396E-04 3.26094E-01 1.81120E-13 1.44953E-13
 -1       529 2.11767E+01 3.53394E-02-1.49072E-04 3.06346E-01 1.42933E-13 1.28372E-13
 -1       530 2.10959E+01-4.09746E-01-6.27386E-04 7.84050E-01 7.32732E-14 1.22230E-13
 -1       531 2.09653E+01-2.61407E-01 3.54811E-05 1.03728E+00 3.84973E-14 1.48928E-13
 -1       532 2.07385E+01 5.32268E-02 8.31303E-04 1.14276E+00-7.94362E-15 1.07530E-13
 -1       533 2.04578E+01 4.59463E-01 1.47998E-03 9.87088E-01 3.13640E-14 7.79596E-14
 -1       534 2.02206E+01 8.10506E-01 1.78256E-03 5.38105E-01 7.77068E-14 1.42616E-13
 -1       535 2.01353E+01 9.49643E-01 1.87014E-03-1.08051E-01 9.23435E-14 1.83582E-13
 -1       536 2.02481E+01 8.08754E-01 1.84003E-03-7.51852E-01 9.45270E-14 2.56332E-13
 -1       537 2.05081E+01 4.55502E-01 1.46866E-03-1.19464E+00 1.00022E-13 6.78171E-14
 -1       538 2.08038E+01 4.26911E-02 7.33875E-04-1.33825E+00 7.64244E-14-1.96767E-14
 -1       539 2.10331E+01-2.87532E-01-1.50087E-04-1.20961E+00 9.69662E-14-7.18259E-14
 -1       540 2.11471E+01-4.66760E-01-8.93936E-04-9.11950E-01 1.04897E-13-1.66978E-13
 -1       541 2.11497E+01-5.01082E-01-1.23196E-03-5.59237E-01-6.72710E-15-1.57119E-14
 -1       542 2.10725E+01-4.37311E-01-1.25332E-03-2.34621E-01-1.58753E-13 8.11312E-14
 -1       543 2.09514E+01-3.27801E-01-1.04613E-03 1.91963E-02-1.51215E-13 6.33672E-14
 -1       544 2.08140E+01-2.11916E-01-7.53948E-04 1.91254E-01 1.41805E-14 1.01909E-13
 -1       545 2.06781E+01-1.12040E-01-4.63907E-04 2.89378E-01 6.86806E-14 1.58274E-13
 -1       546 2.05532E+01-3.68808E-02-2.22154E-04 3.29577E-01-4.93718E-14 3.16821E-13
 -1       547 2.04433E+01 1.34025E-02-4.63339E-05 3.29262E-01-2.45761E-14 3.18113E-13
 -1       548 2.03495E+01 4.28190E-02 6.67730E-05 3.03748E-01 8.49515E-14 3.31285E-13
 -1       549 2.02710E+01 5.66613E-02 1.28957E-04 2.64957E-01 4.87996E-14 3.72486E-13
 -1       550 2.02067E+01 5.99486E-02 1.54233E-04 2.21339E-01-1.28402E-13 3.50976E-13
 -1       551 2.01547E+01 5.67708E-02 1.55332E-04 1.78370E-01-1.37631E-13 2.49113E-13
 -1       552 2.01135E+01 5.01485E-02 1.42332E-04 1.39228E-01-2.37079E-13 3.99893E-13
 -1       553 2.00813E+01 4.21407E-02 1.22474E-04 1.05446E-01-8.51739E-15 4.28882E-13
 -1       554 2.00566E+01 3.40430E-02 1.00539E-04 7.74687E-02 7.28756E-14 3.25413E-13
 -1       555 2.00381E+01 2.65920E-02 7.94059E-05 5.50751E-02-6.27669E-14 1.73395E-13
 -1       556 2.00243E+01 2.01422E-02 6.06035E-05 3.76816E-02 8.43356E-14 1.12846E-13
 -1       557 2.00145E+01 1.48033E-02 4.47642E-05 2.45478E-02 1.59039E-13 6.41629E-14
 -1       558 2.00076E+01 1.05400E-02 3.19678E-05 1.49064E-02 1.41448E-13 3.33436E-13
 -1       559 2.00029E+01 7.24016E-03 2.19861E-05 8.03817E-03 2.03623E-13 2.29625E-13
 -1       560 1.99999E+01 4.75904E-03 1.44429E-05 3.30995E-03 9.44762E-14 1.88171E-13
 -1       561 1.99981E+01 2.94644E-03 8.91462E-06 1.89319E-04 1.12095E-13 1.22383E-13
 -1       562 1.99972E+01 1.66148E-03 4.98771E-06-1.75571E-03 8.75327E-14 2.07077E-13
 -1       563 1.99968E+01 7.79707E-04 2.28780E-06-2.86458E-03 1.61184E-13 2.75054E-13
 -1       564 1.99968E+01 1.95120E-04 4.90475E-07-3.39568E-03-7.85505E-14 2.53947E-13
 -1       565 1.99971E+01-1.80705E-04-6.79697E-07-3.53867E-03 1.26063E-13 1.69921E-13
 -1       566 1.99975E+01-4.21055E-04-1.47071E-06-3.42609E-03 2.81267E-14 2.20993E-13
 -1       567 1.99979E+01-5.86868E-04-2.10731E-06-3.14419E-03-7.83476E-14 1.27739E-13
 -1       568 1.99984E+01-7.28708E-04-2.79249E-06-2.74271E-03 1.06095E-13 4.96398E-14
 -1       569 1.99989E+01-8.83484E-04-2.62509E-06-2.24462E-03 2.43507E-13-1.59144E-13
 -1       570 2.00004E+01-2.56251E-03 1.46906E-06-1.91185E-03 3.02779E-13 4.49032E-13
 -1       571 2.00000E+01-2.09304E-03 4.04905E-07-2.21189E-03-1.41017E-13 3.90535E-13
 -1       572 1.99995E+01-1.53619E-03-1.39516E-06-2.24983E-03 8.39949E-14-3.06292E-13
 -1       573 2.00007E+01-2.93126E-03 1.70611E-06-1.39921E-03 3.12925E-13 2.40920E-13
 -1       574 2.00009E+01-3.16584E-03 2.29578E-06-7.40726E-04-1.88981E-13-1.80206E-13
 -1       575 2.00009E+01-3.24961E-03 2.45130E-06-7.34855E-06-1.69629E-13 1.71283E-13
 -1       576 2.00009E+01-3.17626E-03 2.34867E-06 7.28681E-04 1.49457E-13 1.07206E-13
 -1       577 2.00007E+01-2.95480E-03 1.91075E-06 1.38437E-03 1.31141E-13-2.74138E-13
 -1       578 2.00004E+01-2.59065E-03 1.23581E-06 1.90944E-03 3.04641E-13-2.27876E-13
 -1       579 2.00000E+01-2.11121E-03 7.54035E-07 2.22072E-03-5.38773E-14-5.40126E-14
 -1       580 1.99996E+01-1.64646E-03-7.36628E-07 2.28008E-03-1.91763E-13-4.33443E-13
 -1       581 8.29235E+00-3.19482E+00 1.37123E-01-5.08306E+00 4.54387E-13 2.28664E-13
 -1       582 2.09615E+01 2.23397E+00-5.48185E-03-2.73204E-01-2.37393E-13-3.04262E-14
 -1       583 2.93042E+01-2.46160E+00-6.24948E-02 1.52967E+00 1.40951E-13-3.03070E-13
 -1       584 4.50786E+00-1.71086E+00 1.76102E-01-1.37220E+00 2.45623E-13 7.73923E-13
 -1       585 6.01122E+00-1.54194E+00 1.80655E-01 3.10632E+00 4.69416E-14-7.54355E-13
 -1       586 3.05180E+01 1.85320E+00-1.26523E-01-1.23637E+00 4.09416E-13-4.18665E-13
 -1       587 1.78547E+01 3.90808E+00-2.65927E-03-7.32641E-01-5.84260E-14-2.44273E-13
 -1       588 3.03411E+01 6.79887E+00-1.96775E-01-1.17994E+00 5.80078E-13-1.40173E-13
 -1       589 3.05188E+01-2.06851E-01-9.69703E-02 1.51836E-01 1.96489E-13 1.90709E-13
 -1       590 3.08274E+01 7.87468E+00-1.90758E-01 2.10436E-01 6.02088E-13-5.43979E-14
 -1       591 2.85912E+01-5.49757E+00 7.27995E-03 2.13233E+00 1.22125E-15 2.03365E-13
 -1       592 2.85273E+01-3.39187E+00-3.33516E-02-2.56552E+00 4.90233E-14 1.52468E-13
 -1       593 2.38588E+01-5.32506E+00 4.05343E-02-5.57247E+00-1.61440E-13 4.85549E-14
 -1       594 1.59011E+01-4.43749E+00 1.08362E-01-7.47504E+00-3.07976E-13-2.16056E-13
 -1       595 8.05085E+00-2.19769E+00 1.74076E-01-5.74827E+00-2.05815E-13-4.69902E-13
 -1       596 5.05955E+00-9.02846E-01 1.85304E-01-2.27804E+00-9.02750E-14-6.55948E-13
 -1       597 1.28876E+01-3.12722E+00 1.64461E-01 6.05761E+00 2.46907E-13-4.53797E-13
 -1       598 2.37069E+01-6.33138E+00 1.44471E-02-4.66062E+00 1.84380E-13-3.37537E-13
 -1       599 2.10796E+01-5.85752E+00 6.59266E-02 5.71938E+00 2.16292E-13-1.12747E-13
 -1       600 3.16270E+01-2.93730E+00-1.25416E-01-1.30491E+00-2.26600E-13 2.80373E-13
 -1       601 3.23092E+01-2.04763E+00-1.06587E-01 2.26005E+00-2.70589E-13-4.67265E-13
 -1       602 2.96357E+01-5.08900E+00 4.45498E-03-1.20509E+00-6.38725E-14-3.99292E-13
 -1       603 1.52267E+01-5.18661E+00 9.04311E-02-6.38121E+00 2.60000E-13-7.92075E-14
 -1       604 1.15169E+01-3.57601E+00 1.42575E-01 7.15405E+00-2.94077E-13 5.86448E-13
 -1       605 1.89554E+01 3.52586E+00-6.12189E-03-3.75973E-01-2.01878E-13-1.85642E-13
 -1       606 2.12880E+01 4.87051E-01 4.37564E-03 5.93529E-01 1.90346E-13 2.27612E-13
 -1       607 2.99223E+01-4.22372E+00-5.21526E-02-2.95086E-01-2.38620E-14 3.06838E-13
 -1       608 9.36003E+00-1.57110E+00 1.81983E-01 5.54667E+00-1.87260E-13 4.88186E-13
 -1       609 5.82882E+00-4.95218E-01 1.83142E-01 1.44061E+00 7.60928E-14 6.71921E-13
 -1       610 2.11930E+01 2.57039E-01 2.40444E-03 3.99338E-01 1.54814E-13 1.65015E-13
 -1       611 2.88298E+01 6.30598E+00-1.73305E-01 1.34205E+00 4.74981E-13 2.23817E-13
 -1       612 2.82396E+01 3.95038E+00-1.41613E-01-2.10423E+00 3.09600E-13-3.37074E-13
 -1       613 2.96173E+01 2.10135E+00-1.35500E-01 1.69891E+00 2.41231E-13 3.70440E-13
 -1       614 1.92426E+01 2.39487E+00-1.26141E-03-6.35491E-01 3.78119E-14-1.60774E-13
 -1       615 1.85746E+01 2.80046E+00-1.11687E-03-9.08474E-01-1.32670E-14-1.77821E-13
 -1       616 2.04154E+01 1.67797E+00-1.73080E-03 1.76366E-01 1.39217E-13-8.18421E-14
 -1       617 2.08601E+01 1.32418E+00-2.13950E-03 5.29423E-01 1.75238E-13-3.61678E-14
 -1       618 2.12717E+01 7.99425E-01 2.76235E-03 7.35599E-01 1.88174E-13 9.35929E-14
 -1       619 2.84893E+01-1.19838E+00-7.44348E-02-7.34427E-01 9.82721E-14-5.00634E-13
 -1       620 1.67224E+01-3.75044E+00 8.76855E-02 6.67307E+00-4.21083E-13 1.37865E-13
 -1       621 1.93255E+01 1.80565E+00-1.62947E-04 1.63845E+00-6.26294E-14-7.16162E-14
 -1       622 1.88215E+01 1.40862E+00 2.74026E-03 2.42020E+00-1.23550E-14-9.73014E-14
 -1       623 1.83641E+01 6.45916E-01 9.17505E-03 3.25393E+00 1.13999E-13-9.26290E-14
 -1       624 1.82850E+01-8.49791E-01 3.99118E-02 4.24733E+00 1.70655E-13-8.43735E-14
 -1       625 1.38445E+01-1.76892E+00 9.62604E-02-6.03452E+00-2.78288E-13-2.80029E-13
 -1       626 3.37095E+01 3.80745E-02-1.14927E-01 2.32377E+00-3.44311E-13-3.42407E-13
 -1       627 1.11284E+01-3.76528E-01 1.38412E-01 3.92364E+00 1.58751E-13-5.14248E-13
 -1       628 1.81784E+01-8.50586E-01 3.75170E-02-4.09345E+00 2.43477E-13-1.64534E-13
 -1       629 1.82546E+01 4.79875E-01 9.69879E-03-3.23269E+00 9.53892E-14-2.62598E-13
 -1       630 1.86639E+01 1.02994E+00 2.48149E-03-2.57725E+00 8.72451E-14-2.15802E-13
 -1       631 1.91241E+01 1.14693E+00 7.63673E-04-2.05211E+00 1.42245E-14 5.47569E-14
 -1       632 1.94796E+01 1.05432E+00 6.23440E-04-1.65084E+00 3.77238E-14-2.69126E-14
 -1       633 1.97313E+01 8.91292E-01 5.17613E-04-1.31837E+00 9.40007E-14 7.74031E-15
 -1       634 1.98938E+01 7.19025E-01 4.24350E-04-1.04203E+00-6.34867E-14 1.67118E-13
 -1       635 1.99899E+01 5.64109E-01 3.26488E-04-8.14344E-01-2.69721E-13 3.75521E-14
 -1       636 2.00405E+01 4.34992E-01 2.43086E-04-6.29174E-01-2.40436E-13 1.44635E-14
 -1       637 2.00624E+01 3.31689E-01 1.78134E-04-4.80584E-01-7.82495E-14-1.06876E-13
 -1       638 2.00673E+01 2.50919E-01 1.29683E-04-3.62820E-01 2.80232E-14-2.36197E-13
 -1       639 2.00631E+01 1.88589E-01 9.41021E-05-2.70541E-01-2.33691E-14-3.64343E-13
 -1       640 2.00547E+01 1.40849E-01 6.80704E-05-1.99003E-01-4.14275E-14-3.83350E-13
 -1       641 2.00450E+01 1.04456E-01 4.90405E-05-1.44125E-01 3.31600E-13-3.11518E-13
 -1       642 2.00355E+01 7.68149E-02 3.51854E-05-1.02486E-01 1.27093E-13-6.36901E-13
 -1       643 2.00272E+01 5.59013E-02 2.51829E-05-7.12583E-02 2.07469E-14-4.56536E-13
 -1       644 2.00202E+01 4.01563E-02 1.64611E-05-4.81290E-02-9.73750E-14-4.47203E-13
 -1       645 2.00143E+01 2.78707E-02 1.25878E-05-3.05731E-02-1.38059E-13-1.89577E-13
 -1       646 2.00100E+01 1.92702E-02 7.53838E-06-1.87105E-02 1.66243E-13-2.76933E-13
 -1       647 2.00067E+01 1.29608E-02 4.93429E-06-1.03886E-02 1.47650E-13-6.09037E-14
 -1       648 2.00043E+01 8.39838E-03 3.00566E-06-4.70647E-03 2.74860E-13 8.70995E-14
 -1       649 2.00026E+01 5.15525E-03 1.68605E-06-9.58480E-04-2.41137E-13 1.03876E-13
 -1       650 2.00014E+01 2.89793E-03 7.88476E-07 1.39767E-03-2.90863E-13 1.53948E-13
 -1       651 2.00006E+01 1.36591E-03 2.00605E-07 2.77216E-03-4.74846E-13 2.00172E-13
 -1       652 2.00000E+01 3.55314E-04-1.72061E-07 3.46969E-03 9.87921E-14 2.61792E-13
 -1       653 1.99997E+01-2.94146E-04-4.24415E-07 3.71128E-03 1.99203E-13 1.36467E-13
 -1       654 1.99995E+01-7.09816E-04-5.65665E-07 3.65169E-03 6.03477E-14-6.39172E-14
 -1       655 1.99995E+01-9.92577E-04-6.76513E-07 3.39351E-03 2.17097E-13-3.90740E-14
 -1       656 1.99995E+01-1.22467E-03-7.23235E-07 2.99520E-03 9.26978E-14-1.49744E-13
 -1       657 1.99995E+01-1.42293E-03-1.08596E-06 2.66048E-03-3.14237E-14-3.55650E-13
 -1       658 2.15424E+01-4.93671E-01-3.86747E-04 3.28475E-01 1.54664E-13 1.20146E-13
 -1       659 2.17179E+01-6.83355E-01-3.44540E-04 6.01021E-01 6.74389E-14 1.05703E-13
 -1       660 2.13640E+01-1.27021E-01-3.10856E-04 2.31687E-01 1.14433E-13 4.80150E-14
 -1       661 2.17863E+01-2.61392E-01 6.06394E-04 1.27071E+00 5.03731E-14 1.39671E-13
 -1       662 2.15830E+01 3.71488E-01 4.69087E-04 1.34097E+00 2.10989E-14 9.19025E-14
 -1       663 2.12908E+01 1.07971E+00 9.57385E-07 1.02189E+00 2.39643E-14 6.38681E-14
 -1       664 2.10717E+01 1.55817E+00-2.48511E-04 3.18498E-01 3.65801E-14 8.60079E-14
 -1       665 2.10707E+01 1.55344E+00-8.85100E-05-5.43824E-01 9.83012E-14 9.05421E-14
 -1       666 2.12814E+01 1.07021E+00 1.28754E-04-1.23759E+00 1.66679E-13 8.78835E-14
 -1       667 2.15605E+01 3.50671E-01 4.25898E-04-1.54180E+00 1.49150E-13 1.83946E-13
 -1       668 2.17416E+01-3.02987E-01 2.15161E-04-1.44534E+00 1.23494E-13 6.18552E-14
 -1       669 2.17468E+01-7.09989E-01-2.98489E-04-1.09019E+00 1.25402E-13 7.97271E-14
 -1       670 2.15946E+01-8.44111E-01-4.39322E-04-6.48240E-01-3.45739E-14 1.65204E-13
 -1       671 2.13524E+01-7.78671E-01-5.37367E-04-2.43076E-01-1.39682E-13 1.80421E-13
 -1       672 2.10868E+01-6.09803E-01-4.53138E-04 6.78190E-02-1.24345E-13 1.10335E-13
 -1       673 2.08411E+01-4.13637E-01-3.33500E-04 2.73605E-01-1.12030E-13-2.26557E-14
 -1       674 2.06350E+01-2.35945E-01-2.14401E-04 3.87486E-01-4.08593E-14 5.47497E-14
 -1       675 2.04725E+01-9.68751E-02-1.10506E-04 4.31316E-01-1.45838E-13 1.69137E-13
 -1       676 2.03492E+01 4.94065E-05-3.59734E-05 4.27120E-01-3.54115E-14 2.36981E-13
 -1       677 2.02577E+01 5.99558E-02 1.21830E-05 3.93420E-01 7.23276E-14 1.41927E-13
 -1       678 2.01903E+01 9.11816E-02 3.93399E-05 3.44272E-01-3.20599E-14 2.19414E-13
 -1       679 2.01409E+01 1.02217E-01 5.14920E-05 2.89528E-01 1.47676E-14 3.50405E-13
 -1       680 2.01044E+01 1.00297E-01 5.38189E-05 2.35578E-01-2.00932E-14 2.82602E-13
 -1       681 2.00773E+01 9.09648E-02 5.03315E-05 1.86173E-01-1.83786E-13 2.40806E-13
 -1       682 2.00570E+01 7.81398E-02 4.38909E-05 1.43178E-01-1.01616E-13 1.82127E-13
 -1       683 2.00418E+01 6.43931E-02 3.63880E-05 1.07191E-01 3.78087E-14 7.00313E-14
 -1       684 2.00303E+01 5.12727E-02 2.89722E-05 7.80232E-02 1.15550E-13 1.06021E-13
 -1       685 2.00216E+01 3.96011E-02 2.22704E-05 5.50363E-02 1.43176E-13 5.20010E-14
 -1       686 2.00151E+01 2.97181E-02 1.65637E-05 3.73862E-02-4.82810E-14 2.04257E-13
 -1       687 2.00102E+01 2.16631E-02 1.19142E-05 2.41743E-02 1.11476E-13 1.89613E-13
 -1       688 2.00067E+01 1.53049E-02 8.26116E-06 1.45409E-02 1.74376E-13 2.30035E-13
 -1       689 2.00041E+01 1.04283E-02 5.48239E-06 7.71550E-03 1.21144E-13 4.70983E-13
 -1       690 2.00023E+01 6.78930E-03 3.43295E-06 3.03859E-03 1.77555E-13 3.45944E-13
 -1       691 2.00010E+01 4.14808E-03 1.96783E-06-3.42895E-05 1.53884E-13 3.05883E-13
 -1       692 2.00002E+01 2.28610E-03 9.53017E-07-1.93912E-03 1.12672E-13 4.12584E-13
 -1       693 1.99997E+01 1.01344E-03 2.73739E-07-3.01509E-03 8.61418E-14 5.66539E-13
 -1       694 1.99994E+01 1.69934E-04-1.64363E-07-3.51822E-03 1.19702E-13 4.59604E-13
 -1       695 1.99993E+01-3.77383E-04-4.45262E-07-3.63506E-03 4.39559E-14 5.64183E-13
 -1       696 1.99992E+01-7.37878E-04-6.16143E-07-3.49467E-03 2.43943E-13 4.16761E-13
 -1       697 1.99993E+01-1.00155E-03-5.60488E-07-3.18313E-03 2.17556E-13-1.99235E-13
 -1       698 1.99994E+01-1.26173E-03-1.22837E-06-2.76845E-03 1.31424E-13-3.41089E-13
 -1       699 2.00005E+01-1.95878E-03-2.01078E-07-2.46799E-03 2.90231E-13 9.36941E-13
 -1       700 2.00014E+01-2.52497E-03 5.31257E-07-1.26439E-03 1.36945E-13-3.32280E-13
 -1       701 2.00011E+01-2.29166E-03 2.35032E-07-1.95765E-03 1.61171E-13 3.57848E-13
 -1       702 2.00000E+01-1.63132E-03-4.24767E-08-2.70528E-03 1.79257E-13 2.58568E-13
 -1       703 2.00016E+01-2.64529E-03 8.33803E-07-4.44293E-04 1.29323E-13-9.51515E-14
 -1       704 2.00016E+01-2.65419E-03 7.88194E-07 4.18254E-04 1.78428E-14 1.51513E-13
 -1       705 2.00015E+01-2.55102E-03 8.36841E-07 1.23294E-03-9.49412E-14-1.96306E-13
 -1       706 2.00011E+01-2.33256E-03 7.63436E-07 1.95012E-03 1.31237E-13 3.59126E-14
 -1       707 2.00006E+01-2.00602E-03-6.15548E-07 2.47037E-03 2.69575E-13-3.17198E-13
 -1       708 2.27769E+01-5.03029E+00 3.07744E-02 4.99285E+00-4.21579E-13-4.65767E-14
 -1       709 1.98810E+01 2.53685E+00-1.20428E-03 2.12255E-01-1.79288E-13-1.01426E-13
 -1       710 2.18230E+01-6.24418E-01 2.25469E-04 9.61532E-01 2.99344E-14 1.29606E-13
 -1       711 8.92317E+00-6.76575E-01 1.65761E-01-3.26766E+00 4.28612E-13 2.75134E-13
 -1       712 1.90990E+01-3.32514E+00 9.55963E-02-5.04809E+00 5.17742E-13-2.17108E-13
 -1       713 1.40146E+01-2.58144E+00 1.38473E-01-5.48824E+00 4.67591E-13 1.11092E-14
 -1       714 2.74546E+01-3.75379E+00-2.99523E-02 1.59623E+00-1.38827E-13-3.91038E-13
 -1       715 1.96785E+01 2.11993E+00 4.41058E-03 9.36268E-01-1.16097E-13-6.69253E-14
 -1       716 2.73126E+01 6.51644E+00-1.73301E-01-5.35719E-01 4.66550E-13-4.40238E-14
 -1       717 1.98735E+01 2.02173E+00-1.47179E-03-2.42474E-01 9.41615E-14-1.15846E-13
 -1       718 2.78399E+01-2.62456E+00-5.93955E-02-1.99804E-01-5.56161E-14 3.68483E-13
 -1       719 1.92656E+01-3.52264E+00 7.41956E-02 5.30290E+00 2.66252E-13-9.07087E-14
 -1       720 2.61232E+01-4.44185E+00-1.13973E-03-2.67890E+00-1.74085E-13 2.15097E-13
 -1       721 1.03937E+01-1.35626E-01 1.47015E-01-4.40875E+00-2.06694E-13-3.44981E-13
 -1       722 1.77240E+01 3.51848E+00-6.12908E-04-4.96169E-01-1.23042E-13-2.12363E-13
 -1       723 2.13641E+01-4.54816E+00 6.56585E-02-5.62305E+00-2.83738E-13 2.05910E-14
 -1       724 8.15622E+00 7.68906E-01 1.58669E-01 3.07137E-01-2.79928E-14-6.41917E-13
 -1       725 1.79897E+01 3.18739E+00-9.48802E-04-9.82662E-01-5.12309E-14-2.23498E-13
 -1       726 2.73472E+01 1.16986E+00-8.15253E-02-2.00233E+00 1.60892E-13-5.19314E-13
 -1       727 1.40220E+01-2.07532E+00 1.03504E-01 5.96795E+00-3.21739E-13 2.42455E-13
 -1       728 1.82809E+01 3.28649E+00-1.98687E-03-9.31729E-02-1.45619E-13-1.90811E-13
 -1       729 8.54739E+00 4.60367E-01 1.47574E-01-9.32542E-01 2.81389E-13 4.15681E-13
 -1       730 2.61300E+01 4.75638E+00-1.07947E-01-1.60477E+00 2.96343E-13-2.63045E-13
 -1       731 2.00001E+01-1.73584E-03-3.77461E-07 2.64634E-03-1.06576E-14-3.53677E-13
 -1       732 2.12169E+01 3.95863E-01 1.37889E-03 3.40119E-01 1.21814E-13 4.02345E-15
 -1       733 2.77337E+01 3.85396E+00-1.10792E-01 2.03577E+00 2.79790E-13 4.24067E-13
 -1       734 2.76135E+01-7.62039E-01-7.46677E-02 1.30504E+00 2.24300E-15 4.23672E-13
 -1       735 1.76546E+01 3.46172E+00-4.68673E-04-8.28921E-01-8.48348E-14-2.13273E-13
 -1       736 2.62291E+01 5.88067E+00-1.32089E-01 5.69857E-01 3.42226E-13 1.61751E-13
 -1       737 1.51399E+01-7.09659E-01 8.73768E-02 4.50415E+00 1.65817E-13-2.88726E-13
 -1       738 2.09574E+01 7.43386E-01-1.66749E-04 9.83713E-02 9.94820E-14-1.44161E-14
 -1       739 1.41469E+01-8.01412E-01 1.00351E-01-4.34820E+00 3.22430E-13-4.49120E-14
 -1       740 1.62488E+01 1.84910E+00 8.33363E-03 2.03427E+00 1.92699E-14-2.14002E-13
 -1       741 1.54573E+01 9.66827E-01 3.29549E-02 3.11440E+00 9.96768E-14-2.80929E-13
 -1       742 1.39004E+01 1.15639E-01 6.00517E-02-4.26182E+00-2.36196E-13-2.48911E-13
 -1       743 1.84290E+01-2.50594E+00 4.51481E-02-5.32700E+00-2.74684E-13-7.53755E-14
 -1       744 1.61837E+01 1.38101E+00 8.69117E-03-2.13218E+00 2.04684E-13-5.17427E-14
 -1       745 1.73521E+01 1.51027E+00 9.82132E-04-1.66920E+00 1.98646E-13-1.59736E-13
 -1       746 1.81797E+01 1.40623E+00 1.95708E-04-1.37522E+00-3.58095E-14-7.03026E-14
 -1       747 1.87768E+01 1.21633E+00 2.55785E-05-1.14508E+00 1.59276E-13 8.38908E-14
 -1       748 1.91968E+01 1.00641E+00 6.01918E-05-9.48418E-01-1.22693E-14-1.58460E-14
 -1       749 1.94853E+01 8.09334E-01 6.24057E-05-7.75828E-01-2.00218E-13-2.22440E-13
 -1       750 1.96789E+01 6.38619E-01 5.07710E-05-6.25160E-01-2.26624E-13-1.79026E-14
 -1       751 1.98062E+01 4.97298E-01 3.79141E-05-4.95926E-01-2.36565E-13 9.27314E-14
 -1       752 1.98881E+01 3.83456E-01 2.76810E-05-3.87313E-01-1.46025E-13-1.53787E-15
 -1       753 1.99396E+01 2.93283E-01 2.02030E-05-2.97811E-01-7.70383E-14-2.13892E-13
 -1       754 1.99711E+01 2.22625E-01 1.47850E-05-2.25382E-01-4.02031E-14-2.25289E-13
 -1       755 1.99898E+01 1.67670E-01 1.08251E-05-1.67739E-01 1.42842E-13-1.79005E-13
 -1       756 2.00003E+01 1.25178E-01 7.96343E-06-1.22579E-01 2.17933E-13-3.00626E-13
 -1       757 2.00058E+01 9.25034E-02 6.30080E-06-8.77386E-02 1.85757E-13-2.21455E-13
 -1       758 2.00082E+01 6.75249E-02 3.34422E-06-6.12478E-02-2.01574E-14-3.14419E-13
 -1       759 2.00088E+01 4.77552E-02 3.06149E-06-4.06304E-02-2.56173E-14-3.08267E-13
 -1       760 2.00084E+01 3.37113E-02 1.75834E-06-2.63453E-02-6.28525E-14-2.15051E-13
 -1       761 2.00075E+01 2.32551E-02 1.08661E-06-1.60547E-02 1.31597E-13-4.40178E-13
 -1       762 2.00065E+01 1.55746E-02 6.48201E-07-8.81870E-03 1.27954E-13-4.06166E-13
 -1       763 2.00054E+01 1.00193E-02 3.59550E-07-3.87132E-03 2.56311E-13-2.01983E-13
 -1       764 2.00043E+01 6.07495E-03 1.59231E-07-6.08824E-04-1.14316E-13 1.64691E-13
 -1       765 2.00034E+01 3.33535E-03 2.19289E-08 1.43684E-03-3.13254E-13 4.26748E-13
 -1       766 2.00026E+01 1.48009E-03-6.85323E-08 2.62202E-03-1.23674E-13 4.80725E-13
 -1       767 2.00019E+01 2.56522E-04-1.34587E-07 3.21232E-03 1.20363E-13 4.61748E-13
 -1       768 2.00013E+01-5.34814E-04-1.51382E-07 3.40059E-03-7.14439E-14 1.96701E-13
 -1       769 2.00008E+01-1.05265E-03-2.09843E-07 3.32417E-03 2.36817E-13 6.82076E-14
 -1       770 2.00005E+01-1.42670E-03-4.10181E-07 3.06925E-03-9.47926E-14-1.95902E-13
 -1       771 2.20138E+01-8.64451E-01-4.01389E-04 1.89577E-01 1.14951E-13 2.93081E-14
 -1       772 2.16015E+01-4.11244E-01 1.80689E-04 3.96213E-03 6.66245E-14-1.93870E-14
 -1       773 2.24998E+01 9.90242E-01-3.60318E-03 1.50624E+00 4.06069E-14 1.93777E-13
 -1       774 2.27394E+01-1.12173E-01-1.16487E-03 1.49115E+00 1.11838E-14 1.87900E-13
 -1       775 2.19780E+01 2.48902E+00-3.54974E-03-1.05432E-01 1.33290E-13 4.70012E-14
 -1       776 2.21216E+01 2.03073E+00-4.69080E-03-1.13794E+00 1.34085E-13-2.81511E-14
 -1       777 2.24345E+01 9.62260E-01-2.78052E-03-1.69742E+00 7.05527E-14-5.42742E-14
 -1       778 2.26349E+01-1.65503E-01-6.19329E-04-1.65020E+00 1.04665E-13 7.02681E-14
 -1       779 2.25551E+01-9.33756E-01-1.00852E-03-1.20293E+00 7.47312E-14 1.91205E-13
 -1       780 2.22294E+01-1.24423E+00-2.45956E-04-6.29330E-01 8.64220E-14 2.11729E-13
 -1       781 2.17748E+01-1.19728E+00-3.31509E-04-1.27663E-01-8.79648E-14 2.08107E-13
 -1       782 2.13153E+01-9.62569E-01-1.73245E-04 2.29947E-01-1.12636E-13 2.32716E-13
 -1       783 2.09184E+01-6.69547E-01-1.12873E-04 4.44564E-01-8.05527E-14 1.22537E-13
 -1       784 2.06099E+01-3.96487E-01-8.31806E-05 5.45611E-01-6.73124E-14 1.43294E-13
 -1       785 2.03876E+01-1.78449E-01-3.75704E-05 5.67761E-01-4.79502E-14 9.88759E-14
 -1       786 2.02369E+01-2.32333E-02-1.02342E-05 5.40549E-01-1.38888E-13 1.71798E-14
 -1       787 2.01400E+01 7.55843E-02 5.66869E-06 4.85947E-01-7.17727E-14 7.13898E-15
 -1       788 2.00806E+01 1.29866E-01 1.33131E-05 4.19079E-01 1.79885E-14 2.22745E-13
 -1       789 2.00460E+01 1.52114E-01 1.59956E-05 3.49758E-01-1.03161E-13 1.34361E-13
 -1       790 2.00269E+01 1.53226E-01 1.58768E-05 2.83938E-01-6.15265E-14 2.74931E-13
 -1       791 2.00170E+01 1.41734E-01 1.43122E-05 2.24871E-01-1.12513E-13 3.79225E-13
 -1       792 2.00122E+01 1.23813E-01 1.21377E-05 1.73990E-01-5.98930E-14 2.81396E-13
 -1       793 2.00099E+01 1.03626E-01 9.84995E-06 1.31554E-01-3.08393E-15 3.21826E-14
 -1       794 2.00089E+01 8.37717E-02 7.70971E-06 9.71131E-02-4.00286E-14 1.24266E-13
 -1       795 2.00082E+01 6.57134E-02 5.83921E-06 6.98320E-02 1.37810E-13 5.73139E-14
 -1       796 2.00076E+01 5.01364E-02 4.28348E-06 4.87077E-02-2.97660E-14 7.73723E-14
 -1       797 2.00070E+01 3.72259E-02 3.03962E-06 3.27109E-02 8.38095E-14 8.78993E-14
 -1       798 2.00062E+01 2.68693E-02 2.07853E-06 2.08704E-02 1.78665E-13-9.33028E-14
 -1       799 2.00054E+01 1.87955E-02 1.35775E-06 1.23189E-02-2.12561E-14 1.00050E-14
 -1       800 2.00045E+01 1.26665E-02 8.32575E-07 6.31167E-03 2.10748E-13 1.66721E-14
 -1       801 2.00037E+01 8.13368E-03 4.61186E-07 2.23016E-03 1.08210E-13 1.98605E-13
 -1       802 2.00030E+01 4.87019E-03 2.04411E-07-4.26013E-04-7.44909E-14 3.72023E-13
 -1       803 2.00023E+01 2.58611E-03 2.51708E-08-2.05132E-03-1.56883E-13 5.12515E-13
 -1       804 2.00017E+01 1.03370E-03-9.16800E-08-2.94890E-03-1.16107E-13 8.14187E-13
 -1       805 2.00012E+01 6.21568E-06-1.38444E-07-3.34519E-03 1.63683E-13 7.71212E-13
 -1       806 2.00008E+01-6.65948E-04-3.50336E-07-3.40396E-03 2.35878E-13 5.31911E-13
 -1       807 2.00004E+01-1.12631E-03-9.12750E-07-3.23187E-03 4.18792E-13 7.20912E-13
 -1       808 2.00002E+01-1.38128E-03-9.00397E-07-3.00759E-03 3.82141E-13 6.14826E-13
 -1       809 2.00025E+01-2.11516E-03 3.08232E-07-2.36037E-05 1.43247E-13 1.89631E-14
 -1       810 2.00023E+01-2.09206E-03-8.24491E-09 9.00120E-04 7.35193E-14 1.93145E-13
 -1       811 2.00020E+01-1.98916E-03 4.04958E-07 1.77118E-03 5.60495E-14-3.26689E-14
 -1       812 2.00014E+01-1.79934E-03-5.39497E-07 2.49368E-03-1.93895E-13 1.81707E-13
 -1       813 2.65105E+01-2.68601E+00-1.72744E-02-7.45394E-02-7.63092E-14-3.57657E-13
 -1       814 2.01820E+01-3.61577E+00 2.83774E-02 4.94565E+00-4.05547E-13 5.28163E-14
 -1       815 2.37414E+01-3.92881E+00 7.25935E-03-3.18132E+00-2.22591E-13 1.66929E-13
 -1       816 2.00023E+01-2.06503E-03 8.99691E-08-9.57442E-04 1.27984E-13-5.02221E-13
 -1       817 2.21456E+01 2.05977E+00-3.34963E-03 9.36117E-01 2.43481E-14 1.21410E-13
 -1       818 1.47255E+01 8.05086E-01 3.54561E-02-2.88072E+00 4.84641E-14-3.39468E-14
 -1       819 1.74509E+01 2.25176E+00 3.92590E-03 1.33955E+00-5.21767E-14-1.47221E-13
 -1       820 9.62750E+00 3.54865E-01 1.29560E-01 2.92298E+00-1.55215E-13 3.72750E-13
 -1       821 1.12484E+01 1.51471E+00 6.99091E-02-1.66319E+00-1.71999E-13-4.26582E-13
 -1       822 2.43413E+01-4.22591E+00 1.12290E-02 2.71912E+00-3.29079E-13-2.16947E-13
 -1       823 2.57316E+01-3.57273E+00-7.05537E-03-1.36713E+00-1.51679E-13 3.29211E-13
 -1       824 1.91636E+01 1.78773E+00-5.11425E-04-1.18593E+00-2.05873E-14-1.23808E-13
 -1       825 1.15695E+01 1.22881E+00 8.12110E-02 1.93932E+00 2.96625E-14-4.79831E-13
 -1       826 2.58574E+01 2.62886E+00-6.01351E-02-2.17191E+00 1.74498E-13-2.09430E-13
 -1       827 2.60779E+01-9.41458E-01-5.48089E-02-1.51991E+00 1.34316E-13-3.51879E-13
 -1       828 1.79553E+01-2.43486E+00 4.14926E-02 5.05907E+00-2.32904E-13 3.40335E-14
 -1       829 1.74514E+01 3.07933E+00 3.43615E-03-1.26078E-01-1.22800E-13-1.95161E-13
 -1       830 2.14001E+01-2.89602E+00 1.66363E-02-3.87218E+00-2.60554E-13 7.97090E-14
 -1       831 2.52144E+01 5.17467E+00-9.09426E-02-6.41698E-01 2.95115E-13 2.81932E-14
 -1       832 2.24184E+01-1.04898E+00-3.12450E-04 5.78357E-01 4.43964E-14 8.90374E-14
 -1       833 2.27055E+01-8.34355E-01 9.85864E-05 1.07948E+00 2.31241E-14 1.35355E-13
 -1       834 2.61737E+01-2.51894E+00-3.38839E-02 9.13005E-02-8.31839E-14 2.72778E-13
 -1       835 2.00019E+01-1.94481E-03-1.15429E-07-1.81118E-03 1.42536E-13 2.06964E-13
 -1       836 2.00009E+01-1.66621E-03-4.02334E-07-2.73105E-03 4.28780E-13 6.99446E-13
 -1       837 2.12205E+01 2.27464E-01-4.93473E-04 4.15307E-02 8.19231E-14 1.31861E-15
 -1       838 2.65432E+01 1.00797E+00-6.81460E-02 2.08081E+00 1.18372E-13 3.40138E-13
 -1       839 1.83413E+01 2.72790E+00-1.73643E-03 5.25044E-01-1.19101E-13-1.66647E-13
 -1       840 1.83095E+01 2.29624E+00-2.95573E-04-1.37127E+00-5.31746E-14-1.87778E-13
 -1       841 2.57521E+01 4.37056E+00-7.24944E-02 1.55940E+00 2.60885E-13 2.69167E-13
 -1       842 1.27598E+01-2.06726E-01 7.20246E-02 4.13559E+00-1.57697E-13 2.32543E-13
 -1       843 2.05438E+01 1.01396E+00-6.68723E-04-3.15880E-01 7.32682E-14-7.49056E-14
 -1       844 1.72200E+01 3.08700E+00-9.33942E-04-7.88526E-01-1.15495E-13-1.98563E-13
 -1       845 1.99415E+01 1.35240E+00-2.60545E-04-7.86362E-01 5.12557E-14-8.32095E-14
 -1       846 1.16034E+01 7.67883E-01 9.02142E-02-2.20520E+00 1.84488E-13 2.25011E-13
 -1       847 2.09568E+01 3.81532E-01 8.90895E-04-3.86310E-01 6.21585E-14-5.93343E-14
 -1       848 1.32440E+01 2.05492E+00 3.07155E-02 4.00998E-01-7.53126E-14-3.61230E-13
 -1       849 1.38317E+01 1.59818E+00 2.61203E-02-9.41018E-01 9.22183E-14 1.06725E-13
 -1       850 1.69568E+01 1.61167E+00 5.83936E-04-6.71514E-01 1.61937E-13-1.05815E-13
 -1       851 1.78599E+01 1.43041E+00-1.88056E-04-6.56621E-01 1.05384E-13-4.12470E-14
 -1       852 1.85049E+01 1.21878E+00-1.12535E-04-6.20160E-01-1.43494E-15-2.61843E-13
 -1       853 1.89639E+01 1.00917E+00-4.32830E-05-5.63364E-01-2.52095E-13-1.54010E-13
 -1       854 1.92887E+01 8.18501E-01-1.59982E-05-4.93442E-01-2.03221E-13-1.73106E-13
 -1       855 1.95170E+01 6.53618E-01-7.13692E-06-4.18555E-01-2.01151E-13-2.31034E-13
 -1       856 1.96762E+01 5.15594E-01-4.10255E-06-3.45240E-01-1.12789E-13-7.86034E-14
 -1       857 1.97863E+01 4.02535E-01-2.67114E-06-2.77796E-01-1.04724E-13 6.40340E-14
 -1       858 1.98619E+01 3.11315E-01-1.75751E-06-2.18529E-01-5.42174E-14 9.91989E-14
 -1       859 1.99133E+01 2.38535E-01-1.11294E-06-1.68262E-01 6.86488E-14 1.59535E-13
 -1       860 1.99479E+01 1.80990E-01-6.36966E-07-1.26841E-01 4.79566E-14 1.88022E-13
 -1       861 1.99708E+01 1.35859E-01 4.68950E-07-9.35394E-02 5.52470E-14-1.70997E-13
 -1       862 1.99857E+01 1.00736E-01-5.95825E-07-6.73193E-02-7.30204E-16-3.06824E-13
 -1       863 1.99954E+01 7.24822E-02-5.38316E-07-4.62780E-02 1.66548E-14-2.37281E-13
 -1       864 2.00010E+01 5.20941E-02 7.60311E-08-3.12867E-02-6.09919E-14-2.06311E-13
 -1       865 2.00041E+01 3.66865E-02-1.66049E-07-2.01952E-02-1.22780E-13-8.94859E-14
 -1       866 2.00056E+01 2.51980E-02-1.30445E-07-1.21839E-02 2.70619E-13-1.93086E-13
 -1       867 2.00061E+01 1.67563E-02-8.94423E-08-6.54210E-03 4.56256E-13-3.70075E-14
 -1       868 2.00059E+01 1.06586E-02-6.54748E-08-2.68790E-03 3.62072E-13-5.64329E-14
 -1       869 2.00054E+01 6.34095E-03-5.48743E-08-1.55304E-04 8.08761E-14 2.41250E-14
 -1       870 2.00046E+01 3.35322E-03-6.83056E-08 1.42068E-03-3.43959E-13 1.50816E-13
 -1       871 2.00038E+01 1.33741E-03-8.27158E-08 2.31973E-03 1.14346E-13 1.42743E-13
 -1       872 2.00030E+01 9.05681E-06 1.16094E-07 2.74997E-03-1.11723E-13 1.87658E-14
 -1       873 2.00023E+01-8.53326E-04 9.41052E-07 2.86376E-03-8.58434E-14 1.43783E-14
 -1       874 2.00018E+01-1.37630E-03 2.82835E-07 2.72693E-03-2.26584E-13-7.69149E-14
 -1       875 1.10184E+01 1.23538E+00 8.22706E-02 4.29152E-01 3.10733E-14 1.49134E-13
 -1       876 2.35124E+01 2.01999E+00-1.56487E-02-1.80072E+00 1.20467E-13-2.07451E-14
 -1       877 2.31448E+01 3.39594E+00-2.34745E-02-8.22517E-01 1.75634E-13-3.42794E-14
 -1       878 2.36102E+01-1.14058E+00-1.82662E-03-1.26865E+00-1.99168E-14 7.07899E-14
 -1       879 2.30445E+01-1.73140E+00-3.10828E-03-4.75875E-01 3.82822E-14 1.21244E-13
 -1       880 2.22993E+01-1.70148E+00-5.59328E-04 1.59310E-01-2.77415E-14 2.06116E-13
 -1       881 2.15844E+01-1.37888E+00 2.17674E-04 5.57640E-01-9.50745E-14 1.46488E-13
 -1       882 2.09947E+01-9.61299E-01 1.64329E-04 7.49957E-01-9.31175E-14 9.35224E-14
 -1       883 2.05619E+01-5.72972E-01 4.90124E-06 7.98726E-01-1.09611E-13 1.29231E-13
 -1       884 2.02703E+01-2.63463E-01 8.59343E-06 7.63182E-01-5.90025E-14 8.01568E-14
 -1       885 2.00894E+01-4.30080E-02 8.04837E-06 6.84796E-01-2.11717E-13 2.61139E-13
 -1       886 1.99877E+01 9.83942E-02 9.86686E-06 5.89646E-01-1.15569E-13 2.25545E-13
 -1       887 1.99386E+01 1.77550E-01 8.98275E-06 4.92693E-01-1.28322E-13 1.41523E-13
 -1       888 1.99220E+01 2.11747E-01 7.13744E-06 4.01969E-01-2.05454E-14 4.25193E-13
 -1       889 1.99237E+01 2.15956E-01 5.29489E-06 3.21306E-01-1.33358E-13 3.68502E-13
 -1       890 1.99345E+01 2.01927E-01 3.75550E-06 2.52062E-01-1.20609E-13 3.33672E-13
 -1       891 1.99486E+01 1.78237E-01 2.56328E-06 1.94191E-01-1.36883E-13 3.14766E-13
 -1       892 1.99626E+01 1.50750E-01 1.69393E-06 1.46885E-01 6.97819E-14 3.27808E-13
 -1       893 1.99749E+01 1.23207E-01 1.10148E-06 1.08965E-01 2.64437E-14 2.23522E-13
 -1       894 1.99848E+01 9.77825E-02 6.88085E-07 7.91190E-02 1.07212E-13 9.49886E-14
 -1       895 1.99924E+01 7.55618E-02 3.91119E-07 5.60409E-02 1.79842E-14 1.87874E-13
 -1       896 1.99977E+01 5.69130E-02 1.85720E-07 3.85143E-02 5.41190E-15-3.23729E-14
 -1       897 2.00012E+01 4.17657E-02 5.99140E-08 2.54524E-02 1.41885E-13 4.74367E-14
 -1       898 2.00034E+01 2.98044E-02-1.20152E-08 1.59153E-02 1.97875E-13 2.67441E-13
 -1       899 2.00045E+01 2.05989E-02-5.03633E-08 9.11076E-03 7.80753E-14 3.50563E-14
 -1       900 2.00048E+01 1.36880E-02-6.79809E-08 4.38655E-03 1.63607E-14 8.34406E-14
 -1       901 2.00047E+01 8.62794E-03-7.48484E-08 1.21638E-03 3.88502E-14 1.26217E-13
 -1       902 2.00043E+01 5.01885E-03-8.64787E-08-8.15903E-04-8.83361E-14 1.13096E-13
 -1       903 2.00037E+01 2.51471E-03-1.32656E-07-2.03292E-03-5.09126E-13 1.79807E-13
 -1       904 2.00030E+01 8.23957E-04-2.22628E-08-2.67909E-03-1.26924E-13 3.75642E-14
 -1       905 2.00024E+01-2.94816E-04-4.05526E-07-2.93356E-03 3.85796E-14 5.14587E-13
 -1       906 2.00017E+01-1.03353E-03-1.96185E-07-2.93178E-03 2.54789E-13 6.53726E-13
 -1       907 2.00030E+01-1.47798E-03 9.00165E-07 1.40296E-03 3.19979E-13 1.80090E-14
 -1       908 2.00025E+01-1.44007E-03-4.93140E-08 2.11990E-03 2.02569E-13-1.99860E-13
 -1       909 2.00033E+01-1.49431E-03 8.42339E-08 4.59147E-04 1.39656E-13-7.05136E-15
 -1       910 2.21673E+01-3.28779E+00 9.34860E-04 3.00248E+00-3.03022E-13 6.43630E-14
 -1       911 1.61986E+01 2.73326E+00-6.38325E-04-6.11648E-02-9.19232E-14-2.23557E-13
 -1       912 2.38788E+01 2.73630E-01-6.06067E-03 1.75305E+00 2.88903E-14 2.26694E-13
 -1       913 1.72580E+01-6.93489E-01 2.01650E-02-4.22998E+00-2.63278E-13-8.83503E-14
 -1       914 1.56746E+01 1.71356E+00 4.19524E-03-7.41115E-01 1.02177E-13-4.28800E-14
 -1       915 2.46528E+01-3.05068E+00-3.94840E-03 6.19636E-01-1.51049E-13-2.34413E-13
 -1       916 1.75776E+01 2.77298E+00-3.51528E-03-1.23787E+00-7.52781E-14-1.86645E-13
 -1       917 2.42184E+01-3.08645E+00 6.71491E-03-1.54231E+00-1.56558E-13 2.43125E-13
 -1       918 1.40077E+01 1.59728E+00 2.74230E-02-2.34255E+00-2.11188E-13-2.65905E-13
 -1       919 2.00033E+01-1.47503E-03 2.64150E-07-5.34174E-04 1.44823E-13-2.19813E-13
 -1       920 2.37552E+01 2.08813E-01-1.45896E-02-1.87272E+00 6.33608E-15-3.97973E-14
 -1       921 2.18536E+01-8.01005E-01-1.71647E-04-4.07367E-01 3.12685E-14-1.90687E-15
 -1       922 2.42803E+01 3.53100E+00-4.53053E-02-1.55044E+00 1.50699E-13 6.79136E-14
 -1       923 2.06472E+01-2.64010E+00 1.86592E-02 3.54938E+00-2.14171E-13-5.66160E-14
 -1       924 2.46003E+01 4.78529E+00-6.83170E-02 5.13029E-01 2.39597E-13 1.81471E-13
 -1       925 2.37840E+01-1.02550E+00-4.41487E-03 1.17852E+00-1.77116E-14 2.06167E-13
 -1       926 2.47334E+01-2.60992E+00-9.11684E-03-3.28877E-01-1.47004E-13 2.17817E-13
 -1       927 2.00020E+01-1.32943E-03 4.40757E-06-2.51528E-03 4.74457E-13 3.55363E-13
 -1       928 2.00030E+01-1.42582E-03-5.39325E-07-1.47784E-03 2.07539E-13-5.18701E-13
 -1       929 1.24075E+01 1.03051E+00 3.29864E-02 2.06415E+00 1.92665E-14 2.19904E-13
 -1       930 2.58979E+01-1.15238E+00-1.78546E-02 1.27215E+00-3.81552E-15 2.85339E-13
 -1       931 2.35001E+01 2.07335E+00-2.56317E-02 1.69836E+00 1.35784E-13 1.58063E-13
 -1       932 1.63064E+01 9.07164E-01 1.05281E-02-3.03337E+00-2.14872E-13-1.51662E-13
 -1       933 1.61138E+01-8.61112E-01 2.95085E-02 4.22026E+00-1.74843E-13 1.62630E-15
 -1       934 2.32222E+01 3.34076E+00-2.76710E-02 6.32397E-01 1.95811E-13 6.15695E-14
 -1       935 1.89309E+01 1.21210E+00 1.38269E-03-1.80761E+00-7.02305E-14-1.18492E-13
 -1       936 2.25627E+01-1.36555E+00-1.92305E-03-1.27050E-01 2.02443E-14 9.12224E-14
 -1       937 1.99849E+01 6.79126E-01 1.62805E-03-1.39696E+00-1.86069E-14-6.17611E-14
 -1       938 1.72023E+01 1.42509E+00-5.81775E-04 1.28408E-01 8.50149E-14-3.12587E-13
 -1       939 2.50899E+01-1.46194E+00-2.44371E-02-1.22198E+00-4.89452E-15-2.17545E-13
 -1       940 1.79709E+01 1.27588E+00-1.92524E-04-7.01094E-02-6.24710E-14-3.52312E-13
 -1       941 1.85325E+01 1.10309E+00-9.73784E-05-1.82165E-01-1.01633E-13-3.93728E-13
 -1       942 1.89447E+01 9.29157E-01-4.36407E-05-2.32883E-01-2.14008E-13-1.35344E-13
 -1       943 1.92468E+01 7.66913E-01-2.35767E-05-2.43368E-01-2.42673E-13-2.12006E-13
 -1       944 1.94674E+01 6.22707E-01-1.56969E-05-2.29578E-01 7.67805E-14-9.64803E-14
 -1       945 1.96276E+01 4.98643E-01-1.15619E-05-2.02973E-01 9.01818E-14 8.66892E-14
 -1       946 1.97433E+01 3.94370E-01-8.72384E-06-1.71271E-01-8.73003E-14 1.26143E-13
 -1       947 1.98262E+01 3.08266E-01-6.53485E-06-1.39305E-01 1.70213E-14-2.81954E-14
 -1       948 1.98851E+01 2.38174E-01-4.82926E-06-1.09827E-01 1.06114E-13 1.71083E-13
 -1       949 1.99266E+01 1.81817E-01-2.47473E-06-8.41711E-02-1.76032E-13 9.56751E-14
 -1       950 1.99553E+01 1.36992E-01-2.59853E-06-6.27293E-02-9.88959E-14-1.29729E-14
 -1       951 1.99757E+01 1.00234E-01-3.00969E-06-4.46981E-02-3.09801E-14-1.05796E-13
 -1       952 1.99885E+01 7.32402E-02-8.02235E-07-3.13490E-02 4.71211E-14-2.28061E-13
 -1       953 1.99967E+01 5.25144E-02-9.17437E-07-2.11419E-02-3.69488E-14-2.03962E-13
 -1       954 2.00018E+01 3.68240E-02-6.06190E-07-1.35482E-02 9.50818E-14-3.15702E-14
 -1       955 2.00046E+01 2.51188E-02-3.72421E-07-8.04287E-03 4.31487E-13-5.86688E-14
 -1       956 2.00059E+01 1.65296E-02-2.13159E-07-4.16392E-03 3.74400E-13-2.14882E-13
 -1       957 2.00062E+01 1.03442E-02-1.10264E-07-1.52099E-03 3.99141E-13-2.30299E-13
 -1       958 2.00060E+01 5.98402E-03-5.40065E-08 2.04423E-04-2.31018E-13-1.64629E-13
 -1       959 2.00053E+01 2.98318E-03-1.62087E-07 1.26452E-03-4.90583E-14 5.01002E-14
 -1       960 2.00045E+01 9.67796E-04-2.06544E-07 1.85447E-03-1.65205E-13-4.16918E-13
 -1       961 2.00036E+01-3.54453E-04-1.12620E-06 2.11685E-03-7.43672E-14-5.37889E-13
 -1       962 2.00031E+01-9.65796E-04-1.53800E-06 2.15442E-03-4.95502E-14-4.59245E-13
 -1       963 1.65164E+01 2.46757E+00 6.53498E-03-1.31293E+00-1.22913E-13-1.82211E-13
 -1       964 2.28665E+01-2.30310E+00 4.79249E-03 6.78372E-01-1.23214E-13 2.09043E-14
 -1       965 2.09831E+01-1.26385E+00 1.14356E-03 1.23594E+00-7.05530E-14 1.79749E-13
 -1       966 2.04196E+01-7.34223E-01 1.40293E-04 1.17460E+00-1.30721E-13 1.16411E-13
 -1       967 2.00688E+01-3.22843E-01 5.48159E-05 1.03308E+00-4.48580E-14 4.03612E-14
 -1       968 1.98736E+01-3.67315E-02 1.96902E-05 8.67379E-01-1.96496E-13 1.03947E-13
 -1       969 1.97818E+01 1.44057E-01 1.19882E-05 7.07244E-01-7.06214E-14 1.08478E-13
 -1       970 1.97549E+01 2.44060E-01 6.00541E-06 5.64896E-01-1.36282E-13 3.15058E-14
 -1       971 1.97655E+01 2.86530E-01 1.65708E-06 4.44159E-01-2.88509E-13 1.32128E-13
 -1       972 1.97950E+01 2.90867E-01-8.44505E-07 3.44665E-01-5.26620E-14 1.66182E-13
 -1       973 1.98318E+01 2.72018E-01-2.00847E-06 2.64248E-01-3.82870E-14 4.79576E-14
 -1       974 1.98688E+01 2.40817E-01-2.39534E-06 2.00174E-01-1.18921E-13 1.23733E-14
 -1       975 1.99022E+01 2.04677E-01-2.37123E-06 1.49720E-01-4.23322E-15 2.73916E-14
 -1       976 1.99304E+01 1.68356E-01-2.07402E-06 1.10412E-01 7.50743E-14 1.82995E-13
 -1       977 1.99530E+01 1.34655E-01-1.76712E-06 8.01143E-02 2.18482E-15 2.96259E-13
 -1       978 1.99704E+01 1.05014E-01-1.30075E-06 5.70186E-02 4.11444E-14 3.64608E-13
 -1       979 1.99832E+01 7.99488E-02-1.06204E-06 3.96256E-02 1.25727E-13 2.60524E-13
 -1       980 1.99922E+01 5.94183E-02-8.16404E-07 2.67061E-02-1.11641E-14 3.54444E-13
 -1       981 1.99983E+01 4.30537E-02-6.01038E-07 1.72583E-02 1.20610E-13 2.65668E-13
 -1       982 2.00021E+01 3.03273E-02-4.25888E-07 1.04745E-02 9.13129E-14 3.67868E-13
 -1       983 2.00043E+01 2.06603E-02-2.89663E-07 5.70934E-03 4.63737E-14 5.08892E-13
 -1       984 2.00053E+01 1.34876E-02-1.87260E-07 2.45254E-03-2.38704E-14 3.44362E-13
 -1       985 2.00055E+01 8.29341E-03-1.15094E-07 3.04967E-04 8.45195E-14 4.22628E-13
 -1       986 2.00052E+01 4.62763E-03-8.17431E-08-1.04120E-03-9.32046E-14 2.62036E-13
 -1       987 2.00046E+01 2.11018E-03-5.35863E-08-1.81963E-03-2.21167E-13 1.27358E-13
 -1       988 2.00038E+01 4.13549E-04-1.91102E-06-2.20911E-03-4.43831E-13 1.79715E-13
 -1       989 2.00030E+01-6.81295E-04 7.23463E-07-2.33279E-03 1.80188E-13 2.21134E-13
 -1       990 1.77891E+01 1.85482E+00-3.93662E-03-1.85105E+00-1.00393E-13-1.52261E-13
 -1       991 2.00041E+01-7.01469E-04 2.39993E-07 9.25797E-04-3.59330E-14 3.12795E-13
 -1       992 2.47010E+01 1.14474E+00-2.25658E-02-2.10500E+00 8.77770E-14-1.28200E-14
 -1       993 2.00042E+01-6.55829E-04 3.81620E-07-7.04817E-05 1.93101E-15-1.74219E-13
 -1       994 2.29392E+01-2.70060E+00-1.35647E-03 1.30268E+00-1.71971E-13-1.38115E-13
 -1       995 2.10558E+01-2.07057E-01-8.42987E-04-1.02162E+00-2.80033E-15-1.63726E-14
 -1       996 1.98548E+01-1.16972E+00-1.54594E-03-3.26990E+00-1.79447E-13-2.39223E-14
 -1       997 2.23838E+01-2.24065E+00-1.66666E-03-2.07877E+00-1.15479E-13 1.07112E-13
 -1       998 2.38817E+01-2.00943E+00-7.82353E-03-4.98096E-01-2.68865E-14-8.12961E-14
 -1       999 2.05603E+01 4.99635E-01-8.27460E-04-8.70833E-01 3.79136E-14-4.83906E-14
 -1      1000 1.39539E+01 1.63915E+00 1.91870E-02 3.29247E-01 1.41280E-14 1.03865E-13
 -1      1001 2.18009E+01-1.84875E+00 1.79634E-03 1.11706E+00-4.15069E-14 1.63823E-13
 -1      1002 2.32771E+01-1.50458E+00-3.84836E-04 4.43253E-01-3.25871E-14 1.59664E-13
 -1      1003 1.88839E+01-1.57980E+00 1.26301E-03 3.58877E+00-2.16539E-13-2.14171E-14
 -1      1004 2.00040E+01-6.56349E-04 8.98841E-08-1.05921E-03 2.77004E-13-6.94487E-13
 -1      1005 1.84556E+01 6.66573E-01 1.54697E-03-2.53792E+00-1.16325E-13-1.03076E-13
 -1      1006 2.18607E+01-1.17933E+00 8.81150E-04-1.16384E+00-3.49909E-14 6.24232E-14
 -1      1007 1.48695E+01 4.50795E-01 2.24457E-02 2.96580E+00-1.27942E-13-5.62777E-14
 -1      1008 1.99646E+01-3.92649E-02 1.69935E-03-2.10308E+00-7.80603E-14-4.95562E-14
 -1      1009 1.61129E+01 1.52389E+00-4.43148E-04 4.06557E-01 5.05982E-14-7.55183E-14
 -1      1010 1.83053E+01 1.03548E+00-1.15228E-04 3.20387E-01-4.92824E-14 2.20909E-13
 -1      1011 1.87278E+01 9.27938E-01-5.25691E-05 1.28654E-01-3.29537E-14 1.91358E-13
 -1      1012 1.90535E+01 8.04321E-01-3.90666E-05 1.45397E-02-2.85940E-13 2.33907E-13
 -1      1013 1.93030E+01 6.79675E-01-3.17064E-05-4.72921E-02-9.72052E-14 3.29451E-13
 -1      1014 1.94928E+01 5.62641E-01-2.65746E-05-7.53968E-02 1.83514E-13-6.62495E-14
 -1      1015 1.96360E+01 4.57656E-01-2.21666E-05-8.29053E-02-8.12801E-15-1.39716E-13
 -1      1016 1.97430E+01 3.66459E-01-1.81923E-05-7.87866E-02-7.64800E-14 4.85215E-14
 -1      1017 1.98221E+01 2.89152E-01-1.46955E-05-6.89168E-02 3.99853E-14 6.57911E-14
 -1      1018 1.98800E+01 2.24907E-01-1.08617E-05-5.69620E-02-1.09415E-13-5.88662E-14
 -1      1019 1.99218E+01 1.72394E-01-8.87480E-06-4.50071E-02-1.98081E-13-1.18691E-13
 -1      1020 1.99527E+01 1.28303E-01-9.04089E-06-3.37568E-02-2.51047E-13-2.51388E-13
 -1      1021 1.99730E+01 9.52583E-02-4.72413E-06-2.47477E-02-1.59892E-14-2.22168E-13
 -1      1022 1.99867E+01 6.94366E-02-4.14318E-06-1.74463E-02 1.07558E-13-2.70036E-13
 -1      1023 1.99957E+01 4.95719E-02-3.07937E-06-1.17632E-02 1.26184E-13 8.02597E-14
 -1      1024 2.00013E+01 3.45252E-02-2.24243E-06-7.48128E-03 1.91750E-13 6.61217E-14
 -1      1025 2.00045E+01 2.33167E-02-1.59806E-06-4.35581E-03 3.24376E-13-1.82198E-13
 -1      1026 2.00060E+01 1.51191E-02-1.10979E-06-2.14904E-03 2.48887E-13-3.80168E-13
 -1      1027 2.00065E+01 9.24493E-03-7.44088E-07-6.48918E-04 2.76670E-13-3.99752E-13
 -1      1028 2.00063E+01 5.13015E-03-4.72283E-07 3.23473E-04-2.98408E-15 1.43306E-13
 -1      1029 2.00056E+01 2.32495E-03 5.96434E-07 9.08512E-04-3.37557E-13 2.60833E-13
 -1      1030 2.00048E+01 4.39886E-04 8.61709E-07 1.22731E-03-2.70168E-13 3.98952E-13
 -1      1031 2.34807E+01-2.17485E+00-2.78937E-03-6.11885E-01-8.12903E-14 1.29106E-13
 -1      1032 2.15785E+01-2.41073E+00 7.38529E-03 2.35659E+00-1.75752E-13 6.65970E-14
 -1      1033 2.00701E+01-8.30545E-01-1.82217E-03 1.68429E+00-5.68935E-15-4.33307E-15
 -1      1034 1.94946E+01 2.33881E-01 5.37251E-05 8.30204E-01-1.21397E-13 9.60778E-14
 -1      1035 1.95155E+01 3.43013E-01 3.33474E-05 6.27813E-01-1.32463E-13 1.65457E-14
 -1      1036 1.95711E+01 3.84325E-01 1.42170E-05 4.69548E-01-2.03911E-13-1.37700E-13
 -1      1037 1.96403E+01 3.81808E-01 1.85863E-06 3.48288E-01-8.09399E-14-3.45334E-13
 -1      1038 1.97109E+01 3.53241E-01-4.71358E-06 2.56585E-01-4.44942E-14-1.94611E-13
 -1      1039 1.97760E+01 3.11218E-01-7.65242E-06 1.87817E-01-6.52724E-14-2.60907E-14
 -1      1040 1.98322E+01 2.64238E-01-8.52841E-06 1.36538E-01-1.29904E-13 6.91712E-14
 -1      1041 1.98786E+01 2.17709E-01-8.33994E-06 9.84568E-02 2.55824E-14-4.22674E-14
 -1      1042 1.99155E+01 1.74789E-01-7.06761E-06 7.02732E-02-9.28132E-14-3.82585E-14
 -1      1043 1.99439E+01 1.37078E-01-5.56843E-06 4.95150E-02-1.67762E-15-4.71288E-14
 -1      1044 1.99650E+01 1.05131E-01-5.00189E-06 3.42827E-02 1.42725E-13-5.10133E-14
 -1      1045 1.99803E+01 7.88582E-02-4.05679E-06 2.31946E-02-1.38286E-14-5.01130E-14
 -1      1046 1.99908E+01 5.77984E-02-3.20729E-06 1.51939E-02 1.55880E-14-1.79798E-14
 -1      1047 1.99979E+01 4.13031E-02-2.45945E-06 9.49041E-03 4.28141E-14 2.37417E-13
 -1      1048 2.00022E+01 2.86646E-02-1.83857E-06 5.48890E-03 1.33235E-13 3.84845E-13
 -1      1049 2.00047E+01 1.91908E-02-1.33773E-06 2.73959E-03 1.49146E-13 3.20288E-13
 -1      1050 2.00058E+01 1.22481E-02-9.38040E-07 9.02919E-04-2.39466E-14 5.69527E-13
 -1      1051 2.00060E+01 7.28046E-03-6.06326E-07-2.76707E-04 3.98868E-14 3.78318E-13
 -1      1052 2.00057E+01 3.81542E-03-4.07887E-07-9.90440E-04-1.75001E-14 2.10351E-13
 -1      1053 2.00050E+01 1.45531E-03 2.35057E-06-1.39584E-03-1.19630E-13-1.27718E-14
 -1      1054 2.07284E+01-1.55168E+00-1.60292E-03 1.95246E+00-1.18072E-13 3.00945E-14
 -1      1055 1.77628E+01 1.10112E+00-3.97205E-05 6.24484E-01 2.45448E-14 2.61127E-15
 -1      1056 1.95415E+01 2.63809E-02 7.29503E-05 1.08052E+00-2.07601E-13 9.00434E-14
 -1      1057 1.97049E+01-3.14336E-01-4.28703E-07 1.37503E+00-9.27004E-14-4.09494E-14
 -1      1058 2.09663E+01-9.63304E-01 2.64835E-03-2.07136E+00-8.38487E-14 1.20093E-14
 -1      1059 2.00050E+01 5.03117E-04 9.94391E-07 3.63962E-04-9.49750E-14-6.67115E-14
 -1      1060 2.00050E+01 5.04960E-04-2.56806E-06-5.41605E-04 6.37817E-15-7.27154E-13
 -1      1061 1.70131E+01 1.10547E+00-6.59521E-04 1.08210E+00 4.94421E-14-1.89882E-14
 -1      1062 1.88749E+01-7.45730E-01 1.66704E-03 2.62245E+00-4.13972E-14 8.85115E-14
 -1      1063 1.72281E+01-2.82226E-01 5.80627E-03 3.05521E+00-1.42358E-13-1.78659E-14
 -1      1064 1.87057E+01 7.86042E-01-2.87075E-04 5.36512E-01 4.99410E-14-7.27395E-14
 -1      1065 1.60159E+01 9.39778E-01 6.93715E-03 1.87661E+00-8.37733E-14-1.99855E-14
 -1      1066 1.89874E+01 7.41722E-01-1.86853E-04 3.21227E-01-1.14488E-13-2.34072E-14
 -1      1067 1.92208E+01 6.66637E-01-1.14602E-04 1.81095E-01-4.07709E-14 9.79433E-14
 -1      1068 1.94100E+01 5.78527E-01-6.74829E-05 9.30802E-02-2.46716E-13 8.20638E-14
 -1      1069 1.95608E+01 4.88545E-01-3.76996E-05 4.02218E-02-1.01778E-13-3.76625E-13
 -1      1070 1.96788E+01 4.03331E-01-1.93658E-05 1.03445E-02 7.10481E-15-4.49907E-13
 -1      1071 1.97699E+01 3.26469E-01-8.43598E-06-5.05080E-03 9.45926E-14-4.52101E-13
 -1      1072 1.98390E+01 2.59530E-01-2.47666E-06-1.17194E-02-7.38347E-14-3.88269E-13
 -1      1073 1.98907E+01 2.02758E-01-7.61333E-06-1.34312E-02-2.00495E-13-4.29172E-13
 -1      1074 1.99301E+01 1.53685E-01-3.45090E-06-1.25375E-02-2.10908E-13-4.41850E-13
 -1      1075 1.99569E+01 1.15968E-01 3.97056E-06-1.05204E-02-1.06885E-13-2.88667E-13
 -1      1076 1.99757E+01 8.58884E-02 3.36814E-06-8.21033E-03 8.51681E-14-2.56368E-13
 -1      1077 1.99885E+01 6.23344E-02 2.83771E-06-6.04046E-03 1.77532E-13-3.46343E-13
 -1      1078 1.99968E+01 4.42049E-02 2.28324E-06-4.19297E-03 1.51666E-13-2.53151E-13
 -1      1079 2.00020E+01 3.04944E-02 1.77428E-06-2.72042E-03-8.59670E-14-4.20679E-13
 -1      1080 2.00049E+01 2.03168E-02 1.34039E-06-1.60553E-03 6.23420E-14-6.29726E-13
 -1      1081 2.00063E+01 1.29123E-02 1.00684E-06-7.99283E-04 2.64914E-13-6.24092E-13
 -1      1082 2.00066E+01 7.64328E-03 8.78450E-07-2.42933E-04 4.00651E-13-7.27224E-13
 -1      1083 2.00063E+01 3.98794E-03 4.28847E-07 1.20254E-04 1.27272E-13-5.49230E-13
 -1      1084 2.00057E+01 1.95772E-03-8.45520E-07 2.84580E-04 2.59479E-14-3.07142E-13
 -1      1085 1.93323E+01 5.13179E-01 1.21911E-04 4.66376E-01-5.75348E-14-5.21887E-13
 -1      1086 1.90925E+01-1.91480E-01 1.03232E-03 1.76105E+00 1.11672E-14-3.17715E-15
 -1      1087 1.92041E+01 4.88392E-01 1.70030E-04 6.65303E-01-1.75326E-14-3.96798E-13
 -1      1088 1.95742E+01 4.46989E-01 5.02597E-05 2.23006E-01-2.69510E-13-4.40078E-13
 -1      1089 1.96738E+01 3.89219E-01 3.20132E-05 1.52682E-01-1.38030E-13-2.73156E-13
 -1      1090 1.97565E+01 3.28317E-01 2.07157E-05 1.04013E-01-1.48385E-13-3.55806E-13
 -1      1091 1.98232E+01 2.69736E-01 1.36554E-05 7.05318E-02 8.63146E-14-5.35154E-13
 -1      1092 1.98755E+01 2.16556E-01 1.13403E-05 4.75913E-02-5.93742E-14-3.51348E-13
 -1      1093 1.99155E+01 1.70234E-01 1.48740E-05 3.18588E-02-1.91142E-13-3.93585E-13
 -1      1094 1.99453E+01 1.31114E-01 6.92104E-06 2.11117E-02-3.83877E-14-2.34667E-13
 -1      1095 1.99669E+01 9.89624E-02 3.12897E-06 1.38028E-02 7.95423E-14 9.10159E-14
 -1      1096 1.99821E+01 7.31423E-02 2.61422E-06 8.81405E-03-3.92303E-14-7.13144E-14
 -1      1097 1.99925E+01 5.28372E-02 2.16518E-06 5.42447E-03 9.27743E-14-2.73299E-13
 -1      1098 1.99992E+01 3.71896E-02 1.79568E-06 3.13688E-03-4.47733E-14-3.73821E-13
 -1      1099 2.00033E+01 2.53723E-02 1.47731E-06 1.61097E-03 9.37101E-14-2.36803E-14
 -1      1100 2.00054E+01 1.66321E-02 1.20580E-06 6.12187E-04 9.26921E-14 9.63901E-14
 -1      1101 2.00063E+01 1.03097E-02 9.96344E-07-2.23582E-05 1.54855E-13-7.11812E-14
 -1      1102 2.00063E+01 5.84341E-03 6.70743E-07-4.07077E-04 2.42393E-13-2.06777E-13
 -1      1103 2.00058E+01 2.77165E-03 1.29235E-06-6.23581E-04 2.09130E-13-4.10731E-13
 -1      1104 1.90931E+01 3.90288E-01 1.27274E-04 9.37505E-01-6.61693E-14-3.55314E-13
 -1      1105 1.90355E+01 1.78629E-01-7.73089E-05 1.29996E+00-4.19925E-14-1.15985E-13
 -1      1106 1.94589E+01 4.92799E-01 7.92141E-05 3.23744E-01-1.11970E-13-5.58769E-13
 -1      1107 1.83747E+01 7.73085E-01-2.57580E-04 8.57791E-01 6.16990E-14 2.74754E-14
 -1      1108 1.79568E+01 6.74214E-01-7.60161E-04 1.32444E+00 5.20171E-14 4.99524E-14
 -1      1109 1.79147E+01 2.82657E-01-2.44973E-04 1.95005E+00 9.46835E-14-2.59006E-14
 -1      1110 2.88058E+01 9.33182E+00 2.30008E+00-6.36677E+00-2.36478E-14 1.21267E-12
 -1      1111 2.17042E+01 6.59721E+00 2.86458E-01-3.21773E+00-1.56264E-14 3.40783E-13
 -1      1112 2.02070E+01 6.09513E+00 1.10066E-01-2.02100E+00-1.37390E-14-7.54188E-14
 -1      1113 1.92503E+01 5.79136E+00 5.42440E-02-1.36257E+00-9.13158E-15-2.86364E-13
 -1      1114 1.85221E+01 5.56322E+00 2.18973E-02-9.72479E-01-6.71685E-15-3.94173E-13
 -1      1115 1.80044E+01 5.40220E+00 2.95399E-03-7.48880E-01-4.03844E-15-4.47912E-13
 -1      1116 1.77017E+01 5.30935E+00-3.81363E-03-6.11404E-01-3.61863E-15-4.73575E-13
 -1      1117 1.76064E+01 5.28183E+00-2.64067E-04-4.90053E-01-1.52742E-15-4.71584E-13
 -1      1118 1.76926E+01 5.31107E+00 1.09925E-02-3.32086E-01 1.38778E-16-4.61784E-13
 -1      1119 1.79140E+01 5.38208E+00 2.62504E-02-1.02087E-01 2.73392E-15-4.39593E-13
 -1      1120 1.82222E+01 5.47930E+00 4.21197E-02 2.16884E-01 3.64986E-15-4.11177E-13
 -1      1121 1.85773E+01 5.59013E+00 5.64008E-02 6.24874E-01 5.75234E-15-3.65354E-13
 -1      1122 1.89672E+01 5.71048E+00 6.77458E-02 1.12561E+00 6.65440E-15-2.92107E-13
 -1      1123 1.94205E+01 5.84950E+00 7.78032E-02 1.73473E+00 8.58341E-15-1.67312E-13
 -1      1124 2.00389E+01 6.04058E+00 9.62792E-02 2.49475E+00 1.35308E-14 5.90812E-14
 -1      1125 2.11978E+01 6.41694E+00 1.91898E-01 3.58330E+00 1.32117E-14 5.04440E-13
 -1      1126 2.59007E+01 8.20446E+00 1.44736E+00 5.72521E+00 2.79221E-14 1.38228E-12
 -1      1127 2.95793E+01 3.48550E+00 1.09175E+00-4.00756E+00-1.07345E-13 1.77719E-12
 -1      1128 2.21119E+01-1.99596E-01-6.43851E-01-3.70002E-02-3.13638E-14 1.54515E-12
 -1      1129 2.16883E+01-1.14561E-01-2.50617E-01 8.56512E-02-1.31110E-14 1.18135E-12
 -1      1130 2.23630E+01-7.48957E-02-9.66047E-02 6.73816E-02-1.06885E-14 9.33573E-13
 -1      1131 2.35825E+01-5.64512E-02-6.62719E-02 6.94863E-02-6.65527E-15 7.57380E-13
 -1      1132 2.52883E+01-3.96988E-02-4.99982E-02 8.32129E-02-5.09705E-15 6.48856E-13
 -1      1133 2.73655E+01-8.53193E-03-9.05460E-04 9.77492E-02-1.14050E-14 6.07153E-13
 -1      1134 2.94807E+01 5.10086E-02 1.11339E-01 9.04343E-02-1.50158E-14 5.35821E-13
 -1      1135 3.08835E+01 1.40888E-01 2.82708E-01 1.88037E-02 1.71894E-14 5.64146E-13
 -1      1136 3.03678E+01 2.19894E-01 4.03997E-01-1.58840E-01 4.10956E-15 5.94719E-13
 -1      1137 2.69140E+01 1.67121E-01 2.42465E-01-3.95134E-01 1.21327E-14 6.16007E-13
 -1      1138 2.14390E+01-6.69826E-02-2.84955E-01-4.70647E-01 4.46518E-15 6.48703E-13
 -1      1139 1.72049E+01-3.44591E-01-8.04274E-01-2.00449E-01-2.05530E-14 4.99656E-13
 -1      1140 1.74924E+01-3.83305E-01-7.96223E-01 2.70194E-01 1.07865E-14 3.75810E-13
 -1      1141 2.21140E+01-5.51966E-02-2.47765E-01 4.88941E-01-1.42143E-14-1.27676E-15
 -1      1142 2.78407E+01 1.90441E-01 2.80022E-01 3.84366E-01 1.96371E-14-2.81553E-13
 -1      1143 3.11981E+01 2.19990E-01 4.06922E-01 1.44358E-01-3.61516E-15-4.68181E-13
 -1      1144 3.16295E+01 1.35565E-01 2.70120E-01-2.33665E-02 2.12365E-14-1.61270E-13
 -1      1145 3.02377E+01 4.85839E-02 9.98105E-02-8.53523E-02 1.34875E-15 1.85199E-14
 -1      1146 2.82043E+01-4.99096E-03-5.54853E-03-8.58579E-02 6.07993E-15-1.26385E-13
 -1      1147 2.62223E+01-2.85424E-02-4.79944E-02-6.56907E-02 2.33125E-14-1.14374E-13
 -1      1148 2.45653E+01-3.44556E-02-5.52150E-02-4.46189E-02-3.73963E-15 1.53350E-14
 -1      1149 2.32547E+01-2.99844E-02-4.68223E-02-2.96330E-02 6.31266E-15-3.10862E-14
 -1      1150 2.22815E+01-2.59431E-02-3.70410E-02-1.66590E-02-1.98843E-14-3.50962E-13
 -1      1151 2.15945E+01-2.02743E-02-2.75003E-02-9.87598E-03 4.29943E-14-2.71389E-13
 -1      1152 2.11000E+01-1.54172E-02-1.99917E-02-5.64074E-03-2.89955E-14-4.77479E-13
 -1      1153 2.07471E+01-1.15385E-02-1.43920E-02-3.06524E-03-2.80199E-14-4.80378E-13
 -1      1154 2.04971E+01-8.55569E-03-1.03214E-02-1.52050E-03-4.65118E-14-4.51532E-13
 -1      1155 2.03213E+01-6.30662E-03-7.39038E-03-6.06560E-04-2.65608E-15-3.68457E-13
 -1      1156 2.01989E+01-4.62695E-03-5.28295E-03-7.77401E-05-7.96628E-14-3.18478E-13
 -1      1157 2.01150E+01-3.37774E-03-3.76444E-03 2.15643E-04-8.55430E-15-5.77021E-13
 -1      1158 2.00584E+01-2.45028E-03-2.66689E-03 3.64986E-04 2.56688E-14-7.78053E-13
 -1      1159 2.00214E+01-1.76250E-03-1.87180E-03 4.26585E-04 7.54538E-14-8.86259E-13
 -1      1160 1.99982E+01-1.25350E-03-1.29570E-03 4.35536E-04 4.51477E-14-1.69565E-13
 -1      1161 1.99845E+01-8.78586E-04-8.79812E-04 4.13498E-04-5.02475E-15-2.55969E-13
 -1      1162 1.99774E+01-6.15167E-04-5.84676E-04 3.75189E-04-9.78958E-15-4.59574E-13
 -1      1163 1.99746E+01-3.80217E-04-3.60238E-04 3.17805E-04-5.87852E-14-9.87198E-13
 -1      1164 1.99747E+01-2.52642E-04-2.11733E-04 2.80273E-04 3.44665E-14-7.30902E-13
 -1      1165 1.99764E+01-1.53894E-04-1.12862E-04 2.36606E-04 4.75349E-14-6.42356E-13
 -1      1166 1.99790E+01-8.50835E-05-4.65045E-05 1.95908E-04-2.56779E-14-1.00976E-12
 -1      1167 1.99821E+01-3.87521E-05-4.20017E-06 1.60174E-04-9.26786E-16-7.46134E-13
 -1      1168 1.99852E+01-8.56660E-06 2.11844E-05 1.29901E-04-2.07896E-14-6.94167E-13
 -1      1169 1.99882E+01 1.04266E-05 3.52395E-05 1.05039E-04 6.58799E-14-5.93014E-13
 -1      1170 1.99910E+01 2.21492E-05 4.24669E-05 8.51942E-05-7.02665E-14-1.01015E-12
 -1      1171 1.99935E+01 2.97886E-05 4.68112E-05 6.96135E-05 6.94112E-14-1.03728E-12
 -1      1172 1.99957E+01 3.60072E-05 5.21884E-05 5.69649E-05 1.10000E-14-4.60541E-13
 -1      1173 1.99975E+01 4.29139E-05 6.24106E-05 4.46795E-05 2.61435E-14-4.23646E-13
 -1      1174 1.99989E+01 5.11639E-05 7.73006E-05 2.75466E-05-1.84579E-14-4.51317E-13
 -1      1175 1.99997E+01 5.19798E-05 7.35222E-05-6.70562E-06 2.69369E-15-1.03212E-12
 -1      1176 1.99999E+01 4.73788E-05-1.97570E-05-5.48704E-05 2.29695E-13-1.49015E-12
 -1      1177 2.84010E+01 5.29447E-01 3.03807E-01 1.95453E+00-2.67633E-14 2.09738E-12
 -1      1178 2.11715E+01-6.45345E-02-5.75606E-01 1.11449E-01 1.15533E-14 1.75024E-12
 -1      1179 2.03107E+01-3.54420E-02-1.80107E-01 6.80735E-03 1.30104E-14 1.38041E-12
 -1      1180 2.01271E+01-1.24872E-02-3.36203E-02-1.00267E-02-1.58185E-15 1.18466E-12
 -1      1181 2.01267E+01 8.88980E-04 8.29659E-03-1.51741E-02 7.45671E-15 1.00240E-12
 -1      1182 2.01147E+01 1.06494E-02 2.37856E-02-1.52118E-02 2.58387E-15 7.76691E-13
 -1      1183 1.99702E+01 1.61887E-02 3.21434E-02-1.15830E-02-5.88071E-15 6.66463E-13
 -1      1184 1.96186E+01 1.65057E-02 3.42335E-02-3.81546E-03 3.98293E-15 5.96554E-13
 -1      1185 1.90401E+01 1.05479E-02 2.70010E-02 7.74319E-03-9.00040E-15 4.78225E-13
 -1      1186 1.82870E+01-1.17547E-03 9.05868E-03 2.08843E-02-5.13635E-15 4.59570E-13
 -1      1187 1.74909E+01-1.56216E-02-1.65769E-02 3.14783E-02 9.69971E-15 3.68646E-13
 -1      1188 1.68386E+01-2.77267E-02-4.21038E-02 3.49241E-02-1.51008E-15 2.73205E-13
 -1      1189 1.65149E+01-3.27008E-02-5.78806E-02 2.86528E-02 1.65163E-14 2.66324E-13
 -1      1190 1.66306E+01-2.87507E-02-5.75829E-02 1.40534E-02-1.03468E-14 2.49528E-13
 -1      1191 1.71746E+01-1.80483E-02-4.19432E-02-3.90311E-03-3.03273E-15 1.21226E-13
 -1      1192 1.80194E+01-5.15096E-03-1.80544E-02-1.92805E-02 1.10814E-14-2.61874E-14
 -1      1193 1.89760E+01 5.65643E-03 5.04241E-03-2.80910E-02 5.39079E-15-1.20542E-13
 -1      1194 1.98642E+01 1.21260E-02 2.09280E-02-2.95788E-02-1.66559E-14-8.78603E-14
 -1      1195 2.05622E+01 1.41837E-02 2.76698E-02-2.55424E-02-2.63483E-15-1.24727E-13
 -1      1196 2.10215E+01 1.30479E-02 2.69044E-02-1.87459E-02 3.49091E-15-1.44558E-13
 -1      1197 2.12532E+01 1.02371E-02 2.17486E-02-1.15929E-02 2.06291E-14-2.29551E-13
 -1      1198 2.13025E+01 6.97578E-03 1.50941E-02-5.54775E-03 5.65845E-16-2.14031E-13
 -1      1199 2.12261E+01 4.01506E-03 8.85346E-03-1.17553E-03 3.47969E-15-2.86168E-13
 -1      1200 2.10769E+01 1.69285E-03 3.93269E-03 1.55715E-03-3.87133E-14-3.29788E-13
 -1      1201 2.08962E+01 7.16749E-05 5.30198E-04 2.97102E-03-1.43413E-14-1.83221E-13
 -1      1202 2.07129E+01-9.32045E-04-1.53487E-03 3.45876E-03 4.43113E-14-2.67807E-13
 -1      1203 2.05442E+01-1.45726E-03-2.58271E-03 3.37132E-03 5.08314E-14-7.56396E-13
 -1      1204 2.03991E+01-1.64610E-03-2.93662E-03 2.97620E-03-1.50452E-14-8.54213E-13
 -1      1205 2.02803E+01-1.61961E-03-2.86372E-03 2.45569E-03-3.61283E-16-5.60507E-13
 -1      1206 2.01871E+01-1.47024E-03-2.56043E-03 1.92204E-03 5.73421E-15-4.43856E-13
 -1      1207 2.01166E+01-1.26309E-03-2.15902E-03 1.43648E-03 2.54834E-14-5.61280E-13
 -1      1208 2.00653E+01-1.04067E-03-1.74153E-03 1.02631E-03-1.72005E-14-6.21403E-13
 -1      1209 2.00295E+01-8.28409E-04-1.35395E-03 6.98033E-04 2.87148E-14-3.06281E-13
 -1      1210 2.00055E+01-6.39748E-04-1.01829E-03 4.46650E-04-3.79483E-14-1.75166E-13
 -1      1211 1.99906E+01-4.80187E-04-7.41502E-04 2.61721E-04 3.09765E-15-6.82365E-14
 -1      1212 1.99821E+01-3.50318E-04-5.21909E-04 1.31055E-04 5.33308E-15-6.27646E-13
 -1      1213 1.99781E+01-2.47965E-04-3.53383E-04 4.27911E-05 6.69308E-15-1.02328E-12
 -1      1214 1.99771E+01-1.69602E-04-2.28001E-04-1.35799E-05-1.32796E-14-5.76062E-13
 -1      1215 1.99781E+01-1.11246E-04-1.37604E-04-4.68306E-05 1.28602E-14-4.59908E-13
 -1      1216 1.99802E+01-6.89844E-05-7.46214E-05-6.39822E-05 1.70412E-14-6.63020E-13
 -1      1217 1.99829E+01-3.92319E-05-3.24422E-05-7.04771E-05-5.35837E-14-6.94184E-13
 -1      1218 1.99857E+01-1.88340E-05-5.48338E-06-7.04311E-05 1.07252E-14-7.11560E-13
 -1      1219 1.99886E+01-5.05242E-06 1.09208E-05-6.69015E-05-1.47909E-14-9.39602E-13
 -1      1220 1.99912E+01 4.51578E-06 2.07766E-05-6.21278E-05-7.37484E-15-1.18382E-12
 -1      1221 1.99937E+01 1.20617E-05 2.78459E-05-5.76991E-05-6.43602E-14-1.19834E-12
 -1      1222 1.99958E+01 1.96380E-05 3.61483E-05-5.45409E-05-3.77614E-14-8.61158E-13
 -1      1223 1.99976E+01 2.89590E-05 4.98103E-05-5.25263E-05 6.72410E-15-6.58834E-13
 -1      1224 1.99989E+01 3.95280E-05 6.81777E-05-4.76643E-05 6.36506E-14-6.50177E-13
 -1      1225 1.99997E+01 3.75502E-05 6.40147E-05-2.65144E-05 8.87642E-14-6.22056E-13
 -1      1226 1.99999E+01-2.04169E-05-4.58144E-05 2.14652E-05-2.11024E-14-7.10341E-13
 -1      1227 1.99998E+01 6.04914E-05-4.36578E-05 1.93724E-05-6.96114E-13-1.30088E-13
 -1      1228 1.99998E+01-8.84716E-05 6.37382E-05 7.09729E-06-2.15764E-13-5.74282E-14
 -1      1229 1.99998E+01-8.71422E-04 6.11625E-05-3.30110E-05-1.02346E-13-1.90753E-14
 -1      1230 1.99998E+01-2.08097E-03 2.34650E-05-4.71347E-05-1.99101E-12-2.03946E-14
 -1      1231 1.99998E+01-3.43316E-03-1.08726E-05-4.74088E-05-9.72856E-13 1.13722E-13
 -1      1232 1.99998E+01-4.69579E-03-3.65706E-05-4.01263E-05-7.27777E-13-1.48903E-13
 -1      1233 1.99998E+01-5.71420E-03-5.38360E-05-2.93024E-05-5.41020E-13 3.76294E-14
 -1      1234 1.99998E+01-6.37927E-03-6.42573E-05-1.52683E-05-4.32434E-14-1.18388E-13
 -1      1235 1.99998E+01-6.61005E-03-6.78161E-05-5.21200E-08 1.90059E-14-9.21349E-14
 -1      1236 1.99998E+01-6.38247E-03-6.46273E-05 1.52425E-05 2.45913E-13 2.13515E-14
 -1      1237 1.99998E+01-5.71817E-03-5.43243E-05 2.94284E-05 1.04215E-12-1.24380E-13
 -1      1238 1.99998E+01-4.69627E-03-3.68131E-05 4.10918E-05 1.67508E-13-1.24608E-13
 -1      1239 1.99998E+01-3.42770E-03-1.09059E-05 4.79459E-05-1.92521E-13-5.87248E-14
 -1      1240 1.99998E+01-2.06902E-03 2.39226E-05 4.71592E-05-2.70503E-13-2.64730E-14
 -1      1241 1.99998E+01-8.59993E-04 5.99053E-05 3.06609E-05-2.15836E-14 1.02846E-13
 -1      1242 1.99998E+01-7.26673E-05 6.28717E-05-2.33372E-05 1.70271E-12 7.42159E-14
 -1      1243 1.99998E+01 7.65002E-05-2.65490E-05-5.18035E-05 1.67139E-12-9.84575E-14
 -1      1244-1.26089E+00-2.39701E+01-3.64544E+00-2.19517E+00 3.47389E-13 1.73167E-13
 -1      1245-1.57754E+00-1.37377E+01-2.89513E+00-3.61943E+00 1.70308E-12 7.20202E-13
 -1      1246 1.19440E+00-2.90161E-01-1.53621E+00 1.11466E+00 2.46225E-12 1.53411E-12
 -1      1247 1.04452E+01 9.21443E+00-5.32713E-02 9.65844E+00 2.40163E-12 2.34723E-12
 -1      1248 2.68245E+01 1.19380E+01 1.53258E+00 1.71067E+01 1.97453E-12 2.78355E-12
 -1      1249 4.67547E+01 8.80053E+00 2.96757E+00 1.84330E+01 1.07259E-12 2.37277E-12
 -1      1250 6.32258E+01 3.57013E+00 3.86974E+00 1.09222E+01 3.10238E-13 1.08946E-12
 -1      1251 6.83949E+01 1.61501E+00 4.17964E+00-2.82062E+00 7.97973E-14-2.55823E-13
 -1      1252 5.81878E+01 5.44609E+00 3.61494E+00-1.43788E+01 4.43062E-13-1.43163E-12
 -1      1253 3.97610E+01 1.02855E+01 2.54467E+00-1.87450E+01 1.09601E-12-2.02238E-12
 -1      1254 1.99946E+01 1.16021E+01 9.46897E-01-1.46736E+01 1.85030E-12-2.19180E-12
 -1      1255 6.01465E+00 6.08478E+00-6.92953E-01-6.16630E+00 2.27951E-12-1.87650E-12
 -1      1256-6.16258E-01-5.66595E+00-2.15027E+00 1.50685E+00 2.13030E-12-1.13909E-12
 -1      1257-1.53046E+00-1.88054E+01-3.27940E+00 3.99989E+00 1.52234E-12-4.71123E-13
 -1      1258-9.39740E-01-2.63142E+01-3.89934E+00 8.60687E-01 5.41456E-13-1.09582E-13
 -1      1259-1.56830E+00-2.44709E+01-3.86390E+00-3.69665E+00-8.05245E-13-2.54810E-13
 -1      1260-2.30903E+00-1.47795E+01-3.29591E+00-4.86897E+00-2.00839E-12-9.16267E-13
 -1      1261 1.07535E+00-1.43378E+00-1.99815E+00 6.31967E-01-2.50888E-12-1.83320E-12
 -1      1262 1.30217E+01 8.41204E+00-2.49046E-01 1.03870E+01-2.29883E-12-2.49800E-12
 -1      1263 3.37341E+01 1.06785E+01 1.90242E+00 1.80380E+01-1.50102E-12-2.42917E-12
 -1      1264 5.71484E+01 6.99256E+00 3.92264E+00 1.74082E+01-6.16174E-13-1.70841E-12
 -1      1265 7.28563E+01 2.61151E+00 5.11815E+00 7.33006E+00-1.30139E-13-7.37632E-13
 -1      1266 7.33732E+01 2.39253E+00 5.18340E+00-6.64570E+00-5.78496E-14-6.98330E-14
 -1      1267 5.90046E+01 6.33588E+00 4.03385E+00-1.63749E+01-3.78642E-13 9.33920E-13
 -1      1268 3.79280E+01 1.00901E+01 2.28664E+00-1.83561E+01-1.06104E-12 1.87006E-12
 -1      1269 1.74563E+01 9.59458E+00 2.71871E-01-1.26142E+01-1.87450E-12 2.28728E-12
 -1      1270 3.80728E+00 2.78150E+00-1.45520E+00-3.59925E+00-2.26041E-12 1.94977E-12
 -1      1271-1.81764E+00-8.61862E+00-2.76926E+00 3.34959E+00-2.88747E-12 1.49825E-12
 -1      1272-2.24122E+00-2.00239E+01-3.58571E+00 5.16773E+00-2.77500E-12 9.94232E-13
 -1      1273-1.18713E+00-2.66406E+01-3.99434E+00 2.25201E+00-1.41573E-12 3.46286E-13
 -1      1274 2.36182E+01 1.91188E+00-7.07697E-01-2.44862E+00-3.91354E-14 1.04800E-12
 -1      1275 2.15334E+01 4.80406E+00-3.71521E-02-2.53672E+00-1.33699E-13 1.50005E-13
 -1      1276 2.22319E+01 4.94406E+00-6.72180E-02-3.47908E+00-1.66311E-13 3.65472E-13
 -1      1277 2.01822E+01 5.11751E+00-2.37547E-02-1.77104E+00-1.42636E-13-1.67193E-13
 -1      1278 2.07760E+01 5.29456E+00 2.98033E-02-2.19619E+00-1.55487E-13-2.57988E-14
 -1      1279 2.16488E+01 4.04738E+00-1.15933E-02-2.24739E+00-2.35412E-13 1.34809E-13
 -1      1280 1.92046E+01 5.18556E+00-1.87773E-02-1.23714E+00-1.21958E-13-3.33785E-13
 -1      1281 1.96737E+01 5.33268E+00 2.31352E-02-1.48903E+00-1.37390E-13-2.58002E-13
 -1      1282 2.02456E+01 4.56354E+00-1.65753E-02-1.61874E+00-2.25053E-13-1.26343E-13
 -1      1283 1.84601E+01 5.19102E+00-1.65495E-02-9.11327E-01-9.42579E-14-4.22880E-13
 -1      1284 1.88116E+01 5.30022E+00 1.13944E-02-1.06214E+00-1.05416E-13-3.82559E-13
 -1      1285 1.92033E+01 4.81556E+00-1.62551E-02-1.16154E+00-1.83164E-13-2.71543E-13
 -1      1286 1.79603E+01 5.17615E+00-1.28235E-02-7.23857E-01-6.62838E-14-4.63147E-13
 -1      1287 1.81847E+01 5.24566E+00 1.65579E-03-8.13940E-01-7.85344E-14-4.41834E-13
 -1      1288 1.84455E+01 4.93963E+00-1.38070E-02-8.82055E-01-1.44459E-13-3.47972E-13
 -1      1289 1.76991E+01 5.15303E+00-7.36651E-03-5.96111E-01-4.38174E-14-4.76008E-13
 -1      1290 1.78003E+01 5.18439E+00-5.28172E-03-6.63649E-01-5.25829E-14-4.70620E-13
 -1      1291 1.79613E+01 4.97870E+00-1.25265E-02-7.14849E-01-9.85679E-14-3.88176E-13
 -1      1292 1.76700E+01 5.13127E+00-5.54484E-04-4.67499E-01-1.68034E-14-4.74691E-13
 -1      1293 1.76569E+01 5.12758E+00-8.38721E-03-5.41183E-01-2.81251E-14-4.75647E-13
 -1      1294 1.77486E+01 4.95584E+00-1.23559E-02-5.87304E-01-5.96091E-14-3.88148E-13
 -1      1295 1.78283E+01 5.11658E+00 6.25336E-03-2.89027E-01 3.90833E-15-4.58269E-13
 -1      1296 1.77267E+01 5.08564E+00-7.83893E-03-3.90552E-01-1.38084E-15-4.68911E-13
 -1      1297 1.77817E+01 4.89325E+00-1.28234E-02-4.41810E-01-1.40265E-14-3.84973E-13
 -1      1298 1.81164E+01 5.11307E+00 1.19751E-02-3.15791E-02 3.24289E-14-4.38864E-13
 -1      1299 1.79563E+01 5.06389E+00-4.75992E-03-1.73157E-01 2.52680E-14-4.49283E-13
 -1      1300 1.80043E+01 4.81313E+00-1.35982E-02-2.35987E-01 2.02919E-14-3.67576E-13
 -1      1301 1.84801E+01 5.12188E+00 1.59491E-02 3.16149E-01 5.77628E-14-4.11567E-13
 -1      1302 1.82877E+01 5.06231E+00-7.67549E-04 1.30044E-01 5.00364E-14-4.28440E-13
 -1      1303 1.83512E+01 4.73297E+00-1.45134E-02 5.24602E-02 6.73697E-14-3.50922E-13
 -1      1304 1.88772E+01 5.14131E+00 1.82716E-02 7.46409E-01 8.39120E-14-3.57513E-13
 -1      1305 1.86707E+01 5.07566E+00 2.38199E-03 5.19799E-01 7.43572E-14-3.87624E-13
 -1      1306 1.87641E+01 4.66117E+00-1.55450E-02 4.25753E-01 1.07043E-13-3.13905E-13
 -1      1307 1.93162E+01 5.16717E+00 1.90785E-02 1.27400E+00 1.20112E-13-2.77198E-13
 -1      1308 1.90864E+01 5.09230E+00 2.88974E-03 9.96441E-01 1.05714E-13-3.24039E-13
 -1      1309 1.92158E+01 4.59137E+00-1.74621E-02 8.84293E-01 1.55475E-13-2.57072E-13
 -1      1310 1.98308E+01 5.18980E+00 1.78013E-02 1.90499E+00 1.50727E-13-1.40325E-13
 -1      1311 1.95526E+01 5.09621E+00-1.65550E-03 1.56825E+00 1.33032E-13-2.22870E-13
 -1      1312 1.97224E+01 4.50033E+00-2.03685E-02 1.43229E+00 2.04283E-13-1.68650E-13
 -1      1313 2.05523E+01 5.18953E+00 1.64013E-02 2.68911E+00 1.66395E-13 1.16601E-13
 -1      1314 2.01430E+01 5.04959E+00-1.52497E-02 2.24967E+00 1.49297E-13-3.61031E-14
 -1      1315 2.03568E+01 4.33324E+00-2.33290E-02 2.07686E+00 2.40318E-13-4.03844E-15
 -1      1316 2.19214E+01 4.98886E+00 1.85546E-02 3.78642E+00 1.43635E-13 5.83061E-13
 -1      1317 2.11100E+01 4.81718E+00-4.01710E-02 3.07675E+00 1.40915E-13 2.98310E-13
 -1      1318 2.13512E+01 3.92276E+00-1.81026E-02 2.81455E+00 2.50199E-13 2.77556E-13
 -1      1319 2.79452E+01 3.22865E+00 9.04909E-01 4.46265E+00 6.31994E-14 1.43946E-12
 -1      1320 2.28562E+01 3.57942E+00-1.77755E-01 3.67660E+00 6.88061E-14 8.50542E-13
 -1      1321 2.30194E+01 2.56009E+00-2.55892E-02 3.17761E+00 2.33041E-13 6.98608E-13
 -1      1322 2.23453E+01 3.43327E-01-7.69020E-01 1.03758E+00 1.18981E-13 1.40465E-12
 -1      1323 2.37023E+01 1.15676E-01-3.92645E-01-9.07397E-01-1.17670E-13 1.08288E-12
 -1      1324 2.27983E+01 2.95197E-01-1.48788E-01-4.74324E-01-1.14950E-13 9.51586E-13
 -1      1325 2.24700E+01 1.69905E-01-6.88301E-02-3.73282E-02-8.71837E-14 8.81559E-13
 -1      1326 2.24670E+01 1.13246E-01-9.66835E-03 3.98126E-02-9.15275E-14 7.53578E-13
 -1      1327 2.30100E+01 3.74187E-01-1.03749E-01-5.99731E-01-1.99694E-13 5.48350E-13
 -1      1328 2.24760E+01 1.00113E-01 1.36350E-03 2.98936E-01-6.82718E-14 7.01196E-13
 -1      1329 2.28822E+01 7.98324E-02 1.24259E-02 3.37870E-01-6.24691E-14 6.01311E-13
 -1      1330 2.25836E+01 1.78240E-01-4.40123E-02 2.81075E-01-1.52253E-13 4.47368E-13
 -1      1331 2.31748E+01 8.00176E-02 5.68401E-03 5.21231E-01-4.10713E-14 5.53571E-13
 -1      1332 2.38599E+01 6.33775E-02 5.86828E-03 5.58300E-01-5.54539E-14 4.82149E-13
 -1      1333 2.28970E+01 1.30265E-01-2.06285E-02 8.04571E-01-1.15279E-13 3.66205E-13
 -1      1334 2.43522E+01 6.47587E-02-2.67298E-03 7.00003E-01-1.96744E-14 4.65135E-13
 -1      1335 2.52465E+01 4.00763E-02-7.21012E-04 7.31359E-01-1.31587E-14 4.57530E-13
 -1      1336 2.36562E+01 1.03898E-01-1.80817E-02 1.19626E+00-6.90559E-14 3.01138E-13
 -1      1337 2.58723E+01 2.98295E-02-5.52777E-03 8.04171E-01-3.42808E-15 4.48572E-13
 -1      1338 2.68573E+01-1.41452E-02 1.17712E-03 8.14969E-01-1.38320E-14 4.27720E-13
 -1      1339 2.47446E+01 4.91119E-02-1.44046E-02 1.46337E+00-2.93090E-14 2.90592E-13
 -1      1340 2.75222E+01-5.18629E-02 6.65854E-03 7.37273E-01-2.20995E-14 4.59417E-13
 -1      1341 2.83416E+01-1.20981E-01 1.82139E-02 6.96049E-01-5.12090E-15 4.32529E-13
 -1      1342 2.60217E+01-8.27620E-02-1.11118E-03 1.48095E+00-9.38399E-15 3.28151E-13
 -1      1343 2.88892E+01-1.98728E-01 4.04858E-02 3.48486E-01 3.23352E-14 4.69506E-13
 -1      1344 2.90997E+01-2.72668E-01 4.86743E-02 2.12639E-01 1.31770E-14 4.85154E-13
 -1      1345 2.72621E+01-3.26614E-01 2.68872E-02 1.01205E+00 1.28751E-14 4.05086E-13
 -1      1346 2.93012E+01-3.66316E-01 8.08723E-02-4.62021E-01 2.78180E-14 5.24122E-13
 -1      1347 2.84036E+01-3.70764E-01 5.88948E-02-6.97801E-01-2.12330E-14 5.53058E-13
 -1      1348 2.81038E+01-6.19215E-01 6.23999E-02-1.75088E-01 5.86822E-14 4.66550E-13
 -1      1349 2.80328E+01-3.66546E-01 6.81989E-02-1.46848E+00-3.91900E-14 6.07264E-13
 -1      1350 2.59672E+01-2.06478E-01-1.32642E-02-1.67063E+00-1.07830E-14 5.57276E-13
 -1      1351 2.80823E+01-6.86212E-01 6.44081E-02-1.93284E+00-1.63047E-14 5.33906E-13
 -1      1352 2.51291E+01-1.09124E-02-5.61913E-02-1.87791E+00-7.90340E-15 4.74176E-13
 -1      1353 2.29381E+01 2.66926E-01-1.61917E-01-1.81058E+00-4.12587E-14 4.61298E-13
 -1      1354 2.69638E+01-1.61865E-01-2.44286E-02-3.20770E+00-4.26464E-14 4.71047E-13
 -1      1355 2.21120E+01 5.20645E-01-2.35770E-01-9.61699E-01-5.59830E-14 3.62016E-13
 -1      1356 2.12125E+01 6.98370E-01-2.72483E-01-5.39576E-01-7.53703E-14 2.75399E-13
 -1      1357 2.53380E+01 7.77186E-01-1.75345E-01-2.53087E+00-1.36738E-13 2.75197E-13
 -1      1358 2.12809E+01 6.73063E-01-2.78338E-01 7.54195E-01-9.32310E-14 1.99424E-13
 -1      1359 2.23471E+01 5.23589E-01-2.28196E-01 1.10296E+00-9.91152E-14 1.15435E-13
 -1      1360 2.46014E+01 1.26134E+00-2.58525E-01 1.45865E-01-1.67588E-13 6.44103E-14
 -1      1361 2.32376E+01 2.42603E-01-1.62869E-01 1.90838E+00-8.23369E-14 2.66454E-15
 -1      1362 2.56610E+01-5.10942E-02-4.79598E-02 1.96107E+00-6.56766E-14-1.27398E-13
 -1      1363 2.55263E+01 7.57623E-01-1.66487E-01 2.76652E+00-1.48659E-13-4.41244E-14
 -1      1364 2.65998E+01-2.33732E-01 4.92104E-04 1.67952E+00-6.08220E-14-1.88877E-13
 -1      1365 2.86747E+01-3.91863E-01 7.33250E-02 1.45690E+00-2.53807E-14-2.93265E-13
 -1      1366 2.73330E+01-2.20381E-01-1.02836E-02 3.30805E+00-1.41186E-13-1.48145E-13
 -1      1367 2.90454E+01-3.72154E-01 6.25168E-02 6.64886E-01 2.49800E-14-3.13846E-13
 -1      1368 2.99041E+01-3.59154E-01 7.95540E-02 4.32401E-01 5.04978E-14-2.63775E-13
 -1      1369 2.85077E+01-7.01005E-01 7.23895E-02 1.89740E+00-6.84695E-15-2.21011E-13
 -1      1370 2.97018E+01-2.62456E-01 4.56161E-02-2.26433E-01 8.28400E-14-2.22537E-13
 -1      1371 2.94765E+01-1.87202E-01 3.56443E-02-3.53992E-01 9.67438E-14-9.63188E-14
 -1      1372 2.85252E+01-6.03567E-01 6.18960E-02 1.38881E-01 1.49776E-13-1.20729E-13
 -1      1373 2.89374E+01-1.11963E-01 1.37875E-02-6.81209E-01 3.82021E-14-5.53932E-14
 -1      1374 2.81380E+01-4.65886E-02 1.85667E-03-7.17279E-01-3.24914E-15-1.74444E-14
 -1      1375 2.76929E+01-3.04813E-01 2.49803E-02-1.00224E+00 9.37930E-14-8.09127E-14
 -1      1376 2.74798E+01-1.21191E-02-3.34916E-03-7.88678E-01-3.36959E-14-8.60839E-14
 -1      1377 2.65304E+01 2.62557E-02-1.07768E-02-7.77271E-01-6.63951E-14-2.09679E-13
 -1      1378 2.64695E+01-7.15486E-02-1.35817E-03-1.44084E+00-6.39827E-14-6.95659E-14
 -1      1379 2.58897E+01 3.37129E-02-6.95115E-03-7.17619E-01 3.36215E-14-1.72209E-13
 -1      1380 2.50175E+01 5.12525E-02-1.11763E-02-6.89933E-01 4.88437E-14-1.57908E-13
 -1      1381 2.51848E+01 4.59846E-02-1.27328E-02-1.43392E+00 8.23690E-15-1.74241E-13
 -1      1382 2.44604E+01 4.67340E-02-4.82361E-03-5.85623E-01 3.96098E-14-1.13239E-13
 -1      1383 2.37445E+01 5.22271E-02-8.13951E-03-5.56918E-01 1.97984E-14-5.39430E-14
 -1      1384 2.40174E+01 8.44526E-02-1.49830E-02-1.22988E+00 4.72834E-14-8.73494E-14
 -1      1385 2.32686E+01 4.29479E-02-2.40394E-03-4.46825E-01-9.57394E-14-8.69443E-15
 -1      1386 2.26977E+01 4.40982E-02-4.28806E-03-4.21079E-01-9.15735E-14-9.50403E-14
 -1      1387 2.30186E+01 8.54475E-02-1.23516E-02-9.72428E-01-6.02504E-14 6.46861E-14
 -1      1388 2.23489E+01 3.64194E-02 1.83807E-04-3.32132E-01-3.03403E-14-1.65677E-13
 -1      1389 2.19459E+01 3.45033E-02-1.89736E-03-3.13385E-01-1.62908E-14-2.20596E-13
 -1      1390 2.22235E+01 6.98709E-02-1.06393E-02-7.33959E-01-1.03283E-13 6.30193E-14
 -1      1391 2.16788E+01 2.81730E-02 1.03683E-03-2.43501E-01-3.79557E-14-2.86545E-13
 -1      1392 2.13850E+01 2.59713E-02-6.29511E-04-2.29401E-01-6.40646E-14-2.94645E-13
 -1      1393 2.16274E+01 5.40653E-02-8.10800E-03-5.44836E-01-8.13308E-14-1.74150E-13
 -1      1394 2.11849E+01 2.12073E-02 1.32932E-03-1.76493E-01-4.76880E-14-3.53897E-13
 -1      1395 2.09731E+01 1.91444E-02 1.50100E-05-1.66138E-01-4.94787E-14-4.12873E-13
 -1      1396 2.11758E+01 4.01814E-02-6.12023E-03-3.98619E-01-8.39493E-14-3.08332E-13
 -1      1397 2.08250E+01 1.57015E-02 1.29514E-03-1.26881E-01-2.58968E-14-3.77815E-13
 -1      1398 2.06737E+01 1.39650E-02 2.97705E-04-1.19352E-01-4.06864E-14-3.71208E-13
 -1      1399 2.08386E+01 2.92840E-02-4.58829E-03-2.88760E-01-5.20105E-14-3.12804E-13
 -1      1400 2.05651E+01 1.15256E-02 1.12515E-03-9.05321E-02 3.02865E-14-4.64530E-13
 -1      1401 2.04578E+01 1.01315E-02 3.91344E-04-8.50805E-02 1.73121E-14-4.29185E-13
 -1      1402 2.05896E+01 2.11387E-02-3.42720E-03-2.07494E-01 1.56927E-15-2.99839E-13
 -1      1403 2.03789E+01 8.42025E-03 9.21195E-04-6.40472E-02 2.69143E-14-3.70403E-13
 -1      1404 2.03035E+01 7.32510E-03 3.94015E-04-6.01090E-02-5.55064E-14-2.94602E-13
 -1      1405 2.04073E+01 1.51878E-02-2.55297E-03-1.47884E-01 1.96280E-14-1.80425E-13
 -1      1406 2.02467E+01 6.13059E-03 7.29079E-04-4.48180E-02-1.02305E-13-2.33798E-13
 -1      1407 2.01943E+01 5.27810E-03 3.57463E-04-4.19797E-02-5.65797E-14-4.14810E-13
 -1      1408 2.02751E+01 1.08809E-02-1.89590E-03-1.04378E-01-9.70718E-14-2.58367E-13
 -1      1409 2.01540E+01 4.44684E-03 5.65142E-04-3.09056E-02-1.71235E-14-3.33728E-13
 -1      1410 2.01181E+01 3.78533E-03 3.07575E-04-2.88677E-02-2.11609E-14-3.76839E-13
 -1      1411 2.01803E+01 7.77160E-03-1.40204E-03-7.27488E-02-1.39151E-14-1.06460E-13
 -1      1412 2.00899E+01 3.20869E-03 4.32047E-04-2.08877E-02-1.84522E-14-3.13763E-13
 -1      1413 2.00659E+01 2.69582E-03 2.56591E-04-1.94335E-02-2.64478E-14-3.60485E-13
 -1      1414 2.01132E+01 5.52499E-03-1.03075E-03-4.98551E-02-2.79642E-14-1.29065E-14
 -1      1415 2.00465E+01 2.29779E-03 3.26934E-04-1.37242E-02 3.00009E-14-3.74307E-13
 -1      1416 2.00309E+01 1.90043E-03 2.09798E-04-1.26961E-02 1.63723E-13-2.45938E-13
 -1      1417 2.00665E+01 3.89910E-03-7.51742E-04-3.33834E-02-1.73055E-15 1.80782E-13
 -1      1418 2.00179E+01 1.62798E-03 2.45264E-04-8.65280E-03 1.26212E-13-1.50613E-13
 -1      1419 2.00082E+01 1.32063E-03 1.69079E-04-7.93572E-03-5.30164E-14-2.42287E-14
 -1      1420 2.00346E+01 2.72149E-03-5.42477E-04-2.16323E-02 1.58095E-13 8.14409E-15
 -1      1421 1.99998E+01 1.13664E-03 1.82500E-04-5.11209E-03-9.77187E-14-1.41435E-14
 -1      1422 1.99942E+01 8.97485E-04 1.33246E-04-4.62057E-03-2.21067E-14-9.32616E-14
 -1      1423 2.00136E+01 1.86937E-03-3.86349E-04-1.33472E-02 8.93998E-15 5.29304E-14
 -1      1424 1.99891E+01 7.88913E-04 1.37919E-04-2.68860E-03-9.01108E-14-2.32382E-13
 -1      1425 1.99863E+01 5.86423E-04 1.01805E-04-2.35789E-03-1.56187E-13-4.33655E-13
 -1      1426 2.00002E+01 1.24753E-03-2.72392E-04-7.59945E-03-2.24469E-13 4.74203E-14
 -1      1427 1.99833E+01 5.12876E-04 9.89938E-05-1.02372E-03-2.04333E-13-4.04441E-13
 -1      1428 1.99824E+01 3.59444E-04 7.94227E-05-7.99152E-04-1.22956E-13-5.95565E-13
 -1      1429 1.99921E+01 8.35165E-04-1.76237E-04-3.63745E-03-2.40807E-13-1.36721E-13
 -1      1430 1.99811E+01 3.29619E-04 7.09674E-05 1.21124E-05 1.65844E-13-6.45524E-13
 -1      1431 1.99814E+01 2.21686E-04 6.27592E-05 1.35326E-04 1.44792E-13-4.40586E-13
 -1      1432 1.99879E+01 4.88105E-04-1.20979E-04-1.02501E-03 6.66667E-14-9.91384E-14
 -1      1433 1.99811E+01 1.95668E-04 4.88456E-05 6.26800E-04-3.36544E-14-4.50896E-13
 -1      1434 1.99820E+01 1.19237E-04 4.78859E-05 6.95647E-04-1.45752E-13-6.26600E-13
 -1      1435 1.99863E+01 2.83788E-04-7.57066E-05 5.59802E-04 5.58067E-14-3.17063E-13
 -1      1436 1.99823E+01 1.07005E-04 3.36107E-05 9.67144E-04-9.19967E-14-5.48004E-13
 -1      1437 1.99836E+01 5.08106E-05 3.59468E-05 9.98357E-04 3.23312E-15-5.49282E-13
 -1      1438 1.99863E+01 1.40669E-04-4.47677E-05 1.49138E-03-1.54393E-13-1.99731E-13
 -1      1439 1.99843E+01 4.77112E-05 2.23730E-05 1.12204E-03 1.01762E-14-4.56718E-13
 -1      1440 1.99858E+01 6.91374E-06 2.65105E-05 1.12904E-03 7.46924E-15-4.83718E-13
 -1      1441 1.99872E+01 4.70545E-05-2.35568E-05 1.97768E-03-6.38293E-15-6.35568E-14
 -1      1442 1.99866E+01 9.47001E-06 1.41019E-05 1.15696E-03 6.41780E-14-4.44394E-13
 -1      1443 1.99881E+01-1.98639E-05 1.90736E-05 1.14912E-03 8.39931E-15-4.50145E-13
 -1      1444 1.99887E+01-1.14173E-05-9.41492E-06 2.16854E-03 5.22098E-14-2.17994E-13
 -1      1445 1.99890E+01-1.41352E-05 8.04058E-06 1.11767E-03 6.23910E-15-5.10232E-13
 -1      1446 1.99904E+01-3.52360E-05 1.32213E-05 1.10134E-03-4.31484E-14-5.86136E-13
 -1      1447 1.99904E+01-4.57299E-05-3.20887E-07 2.17080E-03-1.54165E-14-2.24851E-13
 -1      1448 1.99914E+01-2.81857E-05 3.63820E-06 1.03462E-03-2.08355E-13-6.27697E-13
 -1      1449 1.99926E+01-4.37519E-05 8.65908E-06 1.01374E-03-1.91561E-13-7.85662E-13
 -1      1450 1.99922E+01-6.44526E-05 5.32610E-06 2.05765E-03-1.90017E-13-5.08156E-13
 -1      1451 1.99935E+01-3.68829E-05 5.84860E-07 9.25947E-04-9.31928E-15-8.15915E-13
 -1      1452 1.99946E+01-4.92227E-05 5.31960E-06 9.02433E-04 1.46320E-14-6.59662E-13
 -1      1453 1.99940E+01-7.45986E-05 8.83241E-06 1.87564E-03-1.44331E-13-4.60215E-13
 -1      1454 1.99954E+01-4.39674E-05-1.04426E-06 7.99276E-04 1.68886E-13-5.40521E-13
 -1      1455 1.99964E+01-5.50714E-05 3.54834E-06 7.73141E-04 1.04642E-13-4.22288E-13
 -1      1456 1.99956E+01-8.24039E-05 1.13450E-05 1.64928E-03 1.77036E-13-3.70490E-13
 -1      1457 1.99970E+01-5.30444E-05-5.68401E-07 6.52723E-04-6.81575E-14-4.26815E-13
 -1      1458 1.99978E+01-6.43059E-05 4.08902E-06 6.21917E-04-9.27045E-14-4.47791E-13
 -1      1459 1.99970E+01-9.40004E-05 1.39560E-05 1.38397E-03 4.62059E-14-2.89982E-13
 -1      1460 1.99983E+01-6.70739E-05 2.98467E-06 4.76576E-04 3.65766E-14-4.57287E-13
 -1      1461 1.99989E+01-7.78777E-05 5.87550E-06 4.36923E-04-1.26659E-14-5.94255E-13
 -1      1462 1.99981E+01-1.14724E-04 1.74905E-05 1.06915E-03-4.62974E-14-3.73790E-13
 -1      1463 1.99993E+01-8.17646E-05 8.25531E-06 2.63214E-04-2.68805E-13-4.75531E-13
 -1      1464 1.99995E+01-9.74836E-05-6.41689E-06 2.07915E-04-3.39370E-13-7.87031E-13
 -1      1465 1.99990E+01-1.44879E-04 2.02170E-05 6.89811E-04-2.65616E-13-2.94548E-13
 -1      1466 1.99997E+01-8.26911E-05 1.13069E-06 6.80675E-05-9.89322E-14-9.27173E-13
 -1      1467 1.99997E+01-6.24567E-05-4.43328E-05 4.45908E-05 5.18831E-13-2.89128E-13
 -1      1468 1.99997E+01-7.84138E-05 8.84400E-06 6.67227E-05 1.18851E-12 2.25411E-13
 -1      1469 1.99995E+01-1.73180E-04 1.29015E-05 3.22868E-04-2.80458E-13 1.00106E-14
 -1      1470 2.14418E+01 6.73528E-02-1.45468E-01 3.80296E-01 1.10828E-13 1.14786E-12
 -1      1471 2.25456E+01 2.12176E-01-2.30458E-01 6.07542E-01 9.50906E-14 1.32683E-12
 -1      1472 2.27204E+01 8.53089E-01-9.12418E-02 1.85384E+00 1.90611E-13 9.01279E-13
 -1      1473 2.07100E+01 2.56089E-02-1.56573E-02 1.17193E-01 7.29243E-14 9.61915E-13
 -1      1474 2.10171E+01 1.03973E-01-5.87993E-02 1.63137E-01 7.48984E-14 1.06888E-12
 -1      1475 2.14774E+01 1.64112E-01-5.45586E-02 6.24972E-01 1.56763E-13 7.54851E-13
 -1      1476 2.04409E+01 5.98978E-03 1.01160E-02 2.50404E-02 5.82485E-14 8.13162E-13
 -1      1477 2.05212E+01 3.71437E-02 3.83164E-03 4.29108E-02 4.85887E-14 8.93566E-13
 -1      1478 2.08661E+01 4.44718E-02-1.23225E-02 2.00979E-01 1.06457E-13 6.47805E-13
 -1      1479 2.03268E+01-5.40662E-03 1.16450E-02 1.55645E-02 7.66505E-14 6.76707E-13
 -1      1480 2.03516E+01 5.56700E-03 1.28114E-02 1.68941E-02 5.37338E-14 7.61495E-13
 -1      1481 2.05905E+01-5.60540E-03-2.17101E-03 6.73179E-02 9.26082E-14 5.24657E-13
 -1      1482 2.01985E+01-1.32695E-02 1.03242E-02 5.19200E-02 3.58501E-14 5.66933E-13
 -1      1483 2.02508E+01-1.27563E-02 9.80037E-03 4.13635E-02 4.14109E-14 6.41737E-13
 -1      1484 2.04282E+01-2.51682E-02 2.79780E-03 7.47285E-02 9.59967E-14 4.77499E-13
 -1      1485 1.99556E+01-1.71766E-02 9.45834E-03 1.16749E-01 4.24686E-14 4.86667E-13
 -1      1486 2.00853E+01-2.42972E-02 6.78246E-03 9.77362E-02 2.64259E-14 5.26700E-13
 -1      1487 2.02487E+01-3.55187E-02 6.71012E-03 1.61562E-01 6.21187E-14 4.20940E-13
 -1      1488 1.95483E+01-1.59776E-02 7.83306E-03 1.91017E-01 1.41530E-14 3.99502E-13
 -1      1489 1.97789E+01-2.86546E-02 4.78318E-03 1.68112E-01 1.88577E-14 4.25018E-13
 -1      1490 1.99744E+01-3.69494E-02 9.32120E-03 2.88655E-01 5.53451E-14 3.16840E-13
 -1      1491 1.89839E+01-8.51633E-03 4.12994E-03 2.50437E-01-1.82363E-16 3.17052E-13
 -1      1492 1.93074E+01-2.37697E-02 2.77979E-03 2.30400E-01 2.56425E-14 3.63468E-13
 -1      1493 1.95769E+01-2.71164E-02 9.42286E-03 4.14484E-01 3.54382E-14 2.49116E-13
 -1      1494 1.83343E+01 4.70620E-03-1.92397E-03 2.68256E-01 3.20525E-14 3.04003E-13
 -1      1495 1.87061E+01-8.78577E-03 8.75814E-05 2.59106E-01-2.75181E-15 3.02494E-13
 -1      1496 1.90795E+01-5.24383E-03 6.03933E-03 4.90547E-01 1.66529E-14 2.09822E-13
 -1      1497 1.77287E+01 2.03697E-02-9.04220E-03 2.24680E-01 3.17346E-14 2.87700E-13
 -1      1498 1.80728E+01 1.35497E-02-3.17320E-03 2.32809E-01 2.55950E-14 3.02890E-13
 -1      1499 1.85580E+01 2.48059E-02-6.34549E-04 4.71808E-01 4.13575E-14 1.96062E-13
 -1      1500 1.73203E+01 3.28120E-02-1.46113E-02 1.18451E-01 4.19348E-14 1.76708E-13
 -1      1501 1.75487E+01 3.63427E-02-6.03889E-03 1.44988E-01 2.60807E-14 2.18658E-13
 -1      1502 1.81259E+01 5.40213E-02-8.70898E-03 3.36097E-01 5.90240E-14 1.90889E-13
 -1      1503 1.72326E+01 3.66103E-02-1.59990E-02-2.74987E-02 8.17402E-15 1.75269E-13
 -1      1504 1.72759E+01 5.09831E-02-7.18547E-03 1.14577E-02 1.77523E-14 1.70427E-13
 -1      1505 1.78998E+01 7.13682E-02-1.50933E-02 1.01114E-01 3.57804E-14 9.63301E-14
 -1      1506 1.75083E+01 2.98780E-02-1.22860E-02-1.73003E-01 9.94907E-15 1.34667E-13
 -1      1507 1.73440E+01 5.16785E-02-5.82507E-03-1.32716E-01 3.43779E-14 2.00414E-13
 -1      1508 1.79541E+01 6.94443E-02-1.71281E-02-1.75274E-01 2.43069E-14 1.28399E-13
 -1      1509 1.80899E+01 1.55461E-02-5.00898E-03-2.78219E-01 3.53784E-14 3.54439E-14
 -1      1510 1.77523E+01 3.88101E-02-2.37700E-03-2.47669E-01 3.35196E-14 7.47128E-14
 -1      1511 1.82887E+01 4.88561E-02-1.42359E-02-4.17187E-01 5.88002E-14 4.59589E-14
 -1      1512 1.88448E+01-5.61260E-04 2.79523E-03-3.20761E-01 6.41967E-15-4.94917E-14
 -1      1513 1.84104E+01 1.83593E-02 1.71166E-03-3.06198E-01 4.92280E-14 6.59195E-15
 -1      1514 1.88288E+01 1.79174E-02-8.13467E-03-5.63859E-01 8.11044E-14 6.77756E-15
 -1      1515 1.96184E+01-1.31279E-02 8.42379E-03-3.01893E-01-9.03964E-15-3.44724E-14
 -1      1516 1.91754E+01-1.91064E-03 4.85099E-03-3.03195E-01-9.40047E-15-4.48738E-14
 -1      1517 1.94564E+01-1.21371E-02-1.51151E-03-5.92903E-01-5.63785E-16 2.72005E-15
 -1      1518 2.02841E+01-1.96192E-02 1.07291E-02-2.40364E-01 3.30348E-14-5.28223E-14
 -1      1519 1.99042E+01-1.63734E-02 6.16957E-03-2.52851E-01 6.94019E-15-5.10980E-14
 -1      1520 2.00536E+01-3.28402E-02 3.52665E-03-5.21458E-01 3.03980E-14 8.11417E-15
 -1      1521 2.07702E+01-2.03745E-02 1.01259E-02-1.60636E-01-2.38815E-14-1.25292E-13
 -1      1522 2.04936E+01-2.31574E-02 5.74356E-03-1.78209E-01 4.54888E-14-7.10716E-14
 -1      1523 2.05357E+01-4.13268E-02 6.16587E-03-3.89696E-01 4.81316E-14-8.18009E-14
 -1      1524 2.10605E+01-1.73256E-02 7.83214E-03-8.31716E-02 5.31953E-14-1.52210E-13
 -1      1525 2.08957E+01-2.34164E-02 4.25271E-03-1.00763E-01 7.33658E-15-1.48901E-13
 -1      1526 2.08633E+01-3.95529E-02 6.68100E-03-2.40388E-01 2.97514E-14-1.40955E-13
 -1      1527 2.11775E+01-1.26222E-02 5.05657E-03-2.01973E-02 2.73371E-15-1.74518E-13
 -1      1528 2.11110E+01-1.96322E-02 2.47536E-03-3.47723E-02-8.35530E-15-1.37770E-13
 -1      1529 2.10363E+01-3.17010E-02 5.82917E-03-1.05286E-01 1.17172E-14-8.04502E-14
 -1      1530 2.11631E+01-7.85381E-03 2.59519E-03 2.39098E-02-3.24406E-14-9.92544E-14
 -1      1531 2.11704E+01-1.42144E-02 9.50817E-04 1.34942E-02-1.29293E-14-1.16358E-13
 -1      1532 2.10798E+01-2.18005E-02 4.36912E-03-1.03990E-03-3.81956E-14-1.32689E-14
 -1      1533 2.10629E+01-3.88434E-03 7.86702E-04 5.00913E-02 2.86034E-15-2.17368E-13
 -1      1534 2.11180E+01-8.84384E-03-9.15807E-05 4.37093E-02 5.09599E-14-1.25589E-13
 -1      1535 2.10294E+01-1.25758E-02 2.83773E-03 6.83412E-02 2.09806E-14-2.18239E-14
 -1      1536 2.09166E+01-1.00451E-03-3.44697E-04 6.19199E-02 1.18106E-14-1.77418E-13
 -1      1537 2.09968E+01-4.40197E-03-6.54105E-04 5.88149E-02-3.70371E-14-2.78609E-13
 -1      1538 2.09206E+01-5.33466E-03 1.52577E-03 1.06666E-01 1.60582E-14-1.08726E-13
 -1      1539 2.07542E+01 8.37507E-04-9.28251E-04 6.36490E-02-3.46828E-14-1.88503E-13
 -1      1540 2.08427E+01-1.17128E-03-8.51045E-04 6.28884E-02-2.56509E-14-2.32915E-13
 -1      1541 2.07832E+01-3.62782E-04 5.39348E-04 1.21155E-01 2.26742E-14-1.19011E-13
 -1      1542 2.05959E+01 1.84622E-03-1.13313E-03 5.91206E-02 1.99959E-13-3.21525E-13
 -1      1543 2.06816E+01 9.16019E-04-8.19892E-04 5.98488E-02 8.74862E-14-1.49186E-13
 -1      1544 2.06390E+01 2.61242E-03-1.24910E-04 1.19480E-01 7.62099E-14-1.15757E-13
 -1      1545 2.04533E+01 2.25944E-03-1.10958E-03 5.13257E-02-1.11423E-14-4.79171E-13
 -1      1546 2.05299E+01 2.08253E-03-6.75272E-04 5.28679E-02 8.83467E-14-3.41436E-13
 -1      1547 2.05023E+01 4.07284E-03-5.20781E-04 1.08225E-01 1.30453E-13-7.49493E-14
 -1      1548 2.03321E+01 2.28851E-03-9.69062E-04 4.23524E-02-6.50109E-14-4.05937E-13
 -1      1549 2.03967E+01 2.58436E-03-4.95144E-04 4.42300E-02-5.42413E-14-4.69948E-13
 -1      1550 2.03813E+01 4.50661E-03-7.16067E-04 9.23480E-02-4.72869E-14-9.89070E-14
 -1      1551 2.02337E+01 2.09705E-03-7.84600E-04 3.35174E-02-2.15643E-14-2.86179E-13
 -1      1552 2.02857E+01 2.65025E-03-3.24182E-04 3.54219E-02-6.74617E-14-3.76413E-13
 -1      1553 2.02794E+01 4.31750E-03-7.74040E-04 7.52194E-02-9.57348E-14-6.59962E-14
 -1      1554 2.01566E+01 1.80018E-03-5.98954E-04 2.55539E-02 2.67822E-14-2.76047E-13
 -1      1555 2.01969E+01 2.45930E-03-1.82960E-04 2.73072E-02-3.74245E-15-3.14702E-13
 -1      1556 2.01969E+01 3.80167E-03-7.46087E-04 5.89002E-02 1.93785E-15-1.88052E-13
 -1      1557 2.00985E+01 1.47246E-03-4.33906E-04 1.87916E-02-9.05355E-15-2.38934E-13
 -1      1558 2.01286E+01 2.13956E-03-7.71083E-05 2.03070E-02-7.98035E-15-2.85640E-13
 -1      1559 2.01326E+01 3.15716E-03-6.70380E-04 4.44857E-02-6.46255E-15-1.54185E-13
 -1      1560 2.00561E+01 1.15790E-03-2.98022E-04 1.33032E-02-5.77885E-14-1.96546E-13
 -1      1561 2.00777E+01 1.77564E-03-4.27517E-06 1.45537E-02-1.99546E-14-2.32190E-13
 -1      1562 2.00841E+01 2.50503E-03-5.73329E-04 3.24165E-02-5.89329E-15 6.62203E-14
 -1      1563 2.00264E+01 8.79331E-04-1.92276E-04 9.01285E-03-3.79761E-14-2.47517E-14
 -1      1564 2.00413E+01 1.41901E-03 4.13243E-05 1.00069E-02-5.42726E-14-1.34975E-13
 -1      1565 2.00487E+01 1.91139E-03-4.71966E-04 2.27255E-02-1.10994E-13-8.43622E-15
 -1      1566 2.00064E+01 6.45806E-04-1.13774E-04 5.77037E-03-6.09953E-15 1.18483E-14
 -1      1567 2.00162E+01 1.09757E-03 6.62741E-05 6.53529E-03-4.52019E-14-3.28565E-14
 -1      1568 2.00237E+01 1.40593E-03-3.76385E-04 1.52168E-02-1.02965E-13 1.31813E-13
 -1      1569 1.99938E+01 4.58084E-04-5.80415E-05 3.39892E-03 8.12309E-15-1.01467E-13
 -1      1570 1.99998E+01 8.23632E-04 7.66254E-05 3.96993E-03 1.09766E-13 5.99793E-14
 -1      1571 2.00069E+01 9.96031E-04-2.91838E-04 9.58703E-03 7.72584E-14 1.94633E-13
 -1      1572 1.99866E+01 3.12394E-04-2.03231E-05 1.72327E-03 1.77607E-13-4.59584E-13
 -1      1573 1.99898E+01 5.99764E-04 7.73560E-05 2.13676E-03 1.56867E-13-2.74065E-13
 -1      1574 1.99962E+01 6.76453E-04-2.20389E-04 5.50138E-03 2.61173E-13-1.06133E-14
 -1      1575 1.99831E+01 2.02883E-04 3.75274E-06 5.84936E-04-3.19627E-14-5.74980E-13
 -1      1576 1.99844E+01 4.23016E-04 7.22669E-05 8.74733E-04-2.95552E-14-5.68697E-13
 -1      1577 1.99900E+01 4.35856E-04-1.62132E-04 2.63826E-03 1.08603E-13-1.77344E-13
 -1      1578 1.99821E+01 1.23113E-04 1.78905E-05-1.51266E-04-3.99338E-14-3.46085E-13
 -1      1579 1.99822E+01 2.87677E-04 6.40914E-05 4.43172E-05-6.65613E-14-4.95950E-13
 -1      1580 1.99869E+01 2.60747E-04-1.16050E-04 7.11956E-04-1.15114E-13-1.68374E-13
 -1      1581 1.99827E+01 6.69081E-05 2.50635E-05-5.95742E-04 1.32606E-13-4.71675E-13
 -1      1582 1.99821E+01 1.87026E-04 5.46862E-05-4.69839E-04 2.89483E-14-3.36182E-13
 -1      1583 1.99859E+01 1.37769E-04-8.05887E-05-5.18178E-04-4.98377E-14-3.88019E-13
 -1      1584 1.99843E+01 2.87720E-05 2.75624E-05-8.35515E-04 1.86660E-14-5.55699E-13
 -1      1585 1.99832E+01 1.14357E-04 4.52332E-05-7.59605E-04 3.58703E-14-4.75242E-13
 -1      1586 1.99862E+01 5.48678E-05-5.40110E-05-1.24683E-03 1.19828E-13-3.85444E-13
 -1      1587 1.99864E+01 4.03337E-06 2.70949E-05-9.36959E-04-3.14054E-14-5.14079E-13
 -1      1588 1.99851E+01 6.35163E-05 3.64222E-05-8.95750E-04 2.35243E-14-5.06943E-13
 -1      1589 1.99874E+01 1.74889E-06-3.46161E-05-1.62614E-03-1.69131E-14-1.68123E-13
 -1      1590 1.99887E+01-1.11652E-05 2.49046E-05-9.48949E-04 1.52962E-13-5.80640E-13
 -1      1591 1.99873E+01 2.91103E-05 2.86004E-05-9.30959E-04-2.40053E-14-5.70825E-13
 -1      1592 1.99891E+01-3.00739E-05-2.08454E-05-1.77109E-03 4.42819E-14-2.58081E-13
 -1      1593 1.99910E+01-1.99728E-05 2.19002E-05-9.05837E-04-2.50427E-14-6.88295E-13
 -1      1594 1.99896E+01 6.51546E-06 2.18951E-05-9.02826E-04 7.10665E-14-6.20274E-13
 -1      1595 1.99909E+01-4.74791E-05-1.13200E-05-1.76530E-03 6.39750E-14-3.54133E-13
 -1      1596 1.99931E+01-2.49869E-05 1.88181E-05-8.29951E-04 6.56712E-14-7.98847E-13
 -1      1597 1.99919E+01-8.25791E-06 1.63252E-05-8.36456E-04 7.87575E-14-6.75254E-13
 -1      1598 1.99928E+01-5.60759E-05-4.82020E-06-1.66628E-03 7.10346E-14-3.82408E-13
 -1      1599 1.99951E+01-2.84383E-05 1.64663E-05-7.33372E-04-5.82340E-14-8.13636E-13
 -1      1600 1.99940E+01-1.88041E-05 1.19500E-05-7.46425E-04-6.82051E-14-9.61409E-13
 -1      1601 1.99945E+01-6.06443E-05-1.97390E-07-1.50974E-03-2.11069E-14-4.66372E-13
 -1      1602 1.99968E+01-3.23468E-05 1.60183E-05-6.18935E-04-2.07326E-13-5.48572E-13
 -1      1603 1.99958E+01-2.86283E-05 9.08757E-06-6.38050E-04-1.07823E-13-7.19287E-13
 -1      1604 1.99961E+01-6.55870E-05 3.80202E-06-1.31256E-03-1.29824E-13-5.00251E-13
 -1      1605 1.99982E+01-3.84773E-05 1.86605E-05-4.80960E-04 1.72291E-14-4.66419E-13
 -1      1606 1.99974E+01-4.11861E-05 8.47145E-06-5.08210E-04-4.91038E-14-6.05545E-13
 -1      1607 1.99975E+01-7.52235E-05 8.61874E-06-1.07473E-03-1.44970E-13-5.58481E-13
 -1      1608 1.99992E+01-4.73099E-05 2.08996E-05-3.06324E-04-1.95920E-14-5.46315E-13
 -1      1609 1.99986E+01-5.95649E-05 9.78398E-06-3.47484E-04 4.69599E-14-4.91786E-13
 -1      1610 1.99986E+01-9.35341E-05 1.42537E-05-7.82472E-04-4.59711E-14-4.51532E-13
 -1      1611 1.99997E+01-5.69272E-05-4.40588E-07-1.01285E-04 1.23872E-13-4.73526E-13
 -1      1612 1.99994E+01-7.61984E-05 6.95985E-06-1.52825E-04 1.11343E-13-3.97583E-13
 -1      1613 1.99993E+01-1.19347E-04 1.49960E-05-4.24630E-04 9.99188E-14-2.44236E-13
 -1      1614 1.99998E+01-3.11982E-05-8.56407E-06 4.86639E-07-2.52813E-13-2.80995E-13
 -1      1615 1.99997E+01-4.99301E-04 1.11742E-05-2.54451E-04-1.28169E-13 1.95972E-14
 -1      1616 1.99997E+01-2.50986E-04-3.55659E-06-2.01555E-04-2.83390E-13 2.02931E-13
 -1      1617 1.99998E+01-1.32319E-03 5.81282E-06-4.34233E-04-5.50026E-13-3.78061E-13
 -1      1618 1.99997E+01-8.38687E-04 6.97235E-06-3.99704E-04-1.90556E-13-2.21040E-13
 -1      1619 1.99997E+01-7.78544E-04 1.47599E-05-6.42985E-04-3.61399E-13-1.92459E-13
 -1      1620 1.99998E+01-2.37100E-03 6.98013E-07-5.22515E-04-1.25215E-12-5.76359E-14
 -1      1621 1.99998E+01-1.75967E-03 4.42499E-06-5.12727E-04-7.33468E-13-3.74950E-13
 -1      1622 1.99997E+01-1.54679E-03 9.99869E-06-9.17033E-04-4.38878E-13-6.34086E-13
 -1      1623 1.99998E+01-3.46766E-03-1.71619E-06-5.22577E-04-4.73073E-13 3.02109E-13
 -1      1624 1.99998E+01-2.84181E-03 1.01074E-06-5.29678E-04-1.10778E-12 6.57445E-13
 -1      1625 1.99998E+01-2.44852E-03 3.16367E-07-1.01514E-03-5.50953E-13 4.11809E-13
 -1      1626 1.99998E+01-4.44320E-03-2.27381E-06-4.51360E-04-4.79722E-13 1.46734E-13
 -1      1627 1.99998E+01-3.90193E-03-2.50201E-07-4.70561E-04-4.97371E-13-8.54104E-14
 -1      1628 1.99998E+01-3.34563E-03-7.75848E-06-9.58342E-04-4.42755E-13 1.77017E-13
 -1      1629 1.99999E+01-5.20796E-03-2.09075E-06-3.24769E-04-2.61397E-13 4.46798E-14
 -1      1630 1.99998E+01-4.80228E-03-8.21221E-07-3.53252E-04-3.89456E-13 8.42331E-14
 -1      1631 1.99999E+01-4.12985E-03-1.34930E-05-7.76805E-04-2.05516E-13 6.64084E-14
 -1      1632 1.99999E+01-5.65520E-03-1.64060E-06-1.62459E-04-1.18758E-13 2.69077E-14
 -1      1633 1.99999E+01-5.44049E-03-9.95068E-07-1.96200E-04-2.68953E-13 1.13396E-13
 -1      1634 1.99999E+01-4.71318E-03-1.74211E-05-5.03219E-04-1.43447E-13 7.76847E-14
 -1      1635 1.99999E+01-5.73697E-03-1.25426E-06 1.70270E-05 1.83865E-13 3.42403E-14
 -1      1636 1.99999E+01-5.73624E-03-1.26517E-06-1.85436E-05 1.09825E-13 7.71768E-14
 -1      1637 1.99999E+01-5.02253E-03-1.93880E-05-1.74903E-04 3.92579E-14 1.45153E-13
 -1      1638 1.99999E+01-5.44370E-03-9.88623E-07 1.95286E-04 3.20832E-13 1.03677E-13
 -1      1639 1.99999E+01-5.65759E-03-1.68915E-06 1.61347E-04 5.43348E-14 1.06000E-13
 -1      1640 1.99999E+01-5.02433E-03-1.94472E-05 1.72296E-04 1.87389E-13 2.33587E-14
 -1      1641 1.99998E+01-4.80577E-03-7.46629E-07 3.53640E-04 3.86891E-13-1.15216E-13
 -1      1642 1.99999E+01-5.21206E-03-2.25053E-06 3.24926E-04 4.94703E-13 3.05610E-14
 -1      1643 1.99999E+01-4.71777E-03-1.75452E-05 5.02432E-04 3.55034E-14 2.50012E-13
 -1      1644 1.99998E+01-3.91093E-03-3.65128E-07 4.71254E-04-4.04335E-14-1.71096E-13
 -1      1645 1.99998E+01-4.45384E-03-2.41969E-06 4.51862E-04 4.28107E-13-4.01546E-13
 -1      1646 1.99999E+01-4.14112E-03-1.37980E-05 7.77059E-04-7.36901E-15-3.14163E-13
 -1      1647 1.99998E+01-2.83810E-03 1.08967E-06 5.32317E-04-6.89147E-14-2.65333E-13
 -1      1648 1.99998E+01-3.46743E-03-1.75072E-06 5.25203E-04 5.41751E-14 1.98291E-13
 -1      1649 1.99998E+01-3.35590E-03-7.78071E-06 9.61500E-04 1.05850E-13-4.84733E-14
 -1      1650 1.99998E+01-1.75190E-03 4.27372E-06 5.14523E-04-2.86102E-14 2.54398E-14
 -1      1651 1.99998E+01-2.36492E-03 8.23916E-07 5.24875E-04-1.12121E-14-1.19030E-13
 -1      1652 1.99998E+01-2.44795E-03 3.05462E-07 1.02000E-03 2.06917E-13-2.96987E-13
 -1      1653 1.99997E+01-8.30176E-04 6.55879E-06 3.97420E-04 2.28313E-13 4.64420E-13
 -1      1654 1.99998E+01-1.31236E-03 6.86857E-06 4.35000E-04-7.44839E-14 1.68699E-13
 -1      1655 1.99997E+01-1.53976E-03 1.07457E-05 9.19921E-04 2.11823E-13 3.21743E-14
 -1      1656 1.99997E+01-2.82143E-04 2.38481E-07 2.14047E-04 8.17710E-13 3.21143E-13
 -1      1657 1.99997E+01-5.49163E-04 1.42141E-05 2.68073E-04 1.93947E-13 4.53720E-13
 -1      1658 1.99997E+01-8.44277E-04 1.78234E-05 6.62246E-04-8.54260E-14 5.08386E-13
 -1      1659 1.99996E+01-3.67374E-04 6.47336E-06 3.39011E-04-9.74894E-14 4.02903E-13
 -1      1660-2.53978E-01-1.34917E+01-1.42294E+00-6.83922E-02 4.03677E-13 4.62241E-13
 -1      1661-4.14379E-01-1.63574E+01-1.66998E+00 9.84858E-01-2.68785E-13 3.92797E-13
 -1      1662 1.76381E+00-6.99925E+00-1.10001E+00 1.03218E+00 1.32561E-12 9.62175E-13
 -1      1663 9.04315E-01-1.26036E+01-1.63347E+00 2.69602E-01 7.08433E-13 6.43409E-13
 -1      1664 8.23337E+00 7.18970E-01-3.96450E-01 5.64313E+00 1.64690E-12 1.28419E-12
 -1      1665 4.76173E+00-4.80530E+00-1.17051E+00 2.52540E+00 1.50235E-12 9.46299E-13
 -1      1666 1.83759E+01 5.89150E+00 3.19098E-01 1.04968E+01 1.61260E-12 1.79090E-12
 -1      1667 1.20152E+01 2.79037E+00-5.23662E-01 6.94866E+00 1.66644E-12 1.50424E-12
 -1      1668 3.22448E+01 7.12867E+00 1.00260E+00 1.33464E+01 1.26077E-12 1.83609E-12
 -1      1669 2.33440E+01 6.88911E+00 2.05544E-01 1.13672E+01 1.52067E-12 1.82276E-12
 -1      1670 4.57729E+01 5.50989E+00 1.48075E+00 1.12317E+01 8.32764E-13 1.21225E-12
 -1      1671 3.72735E+01 7.06914E+00 8.75592E-01 1.25922E+01 1.17217E-12 1.61515E-12
 -1      1672 5.47945E+01 3.89364E+00 1.77508E+00 4.07984E+00 4.09395E-13 3.10252E-13
 -1      1673 4.93613E+01 5.36595E+00 1.40948E+00 9.08896E+00 6.50105E-13 9.71001E-13
 -1      1674 5.51135E+01 4.00766E+00 1.71119E+00-4.82093E+00 3.69399E-13-4.75009E-13
 -1      1675 5.65779E+01 3.63653E+00 1.84649E+00 1.31492E+00 3.24074E-13 8.73190E-14
 -1      1676 4.48901E+01 5.97444E+00 1.13026E+00-1.00623E+01 6.57141E-13-9.81770E-13
 -1      1677 5.14931E+01 4.40295E+00 1.56480E+00-6.51132E+00 4.54831E-13-6.43041E-13
 -1      1678 3.20576E+01 7.23943E+00 6.29384E-01-1.24338E+01 1.05577E-12-1.40132E-12
 -1      1679 4.11994E+01 5.96073E+00 1.25238E+00-1.22372E+01 7.43183E-13-1.25899E-12
 -1      1680 1.87039E+01 5.65985E+00-7.68136E-02-9.80668E+00 1.45717E-12-1.45950E-12
 -1      1681 2.68049E+01 6.91655E+00 7.34572E-01-1.26079E+01 1.21458E-12-1.44373E-12
 -1      1682 8.67312E+00 1.28926E-01-8.03183E-01-4.99166E+00 1.52944E-12-1.17972E-12
 -1      1683 1.39851E+01 4.31808E+00 3.36130E-02-8.64702E+00 1.50902E-12-1.40099E-12
 -1      1684 3.06404E+00-8.28717E+00-1.39059E+00-1.38451E+00 1.21458E-12-7.20785E-13
 -1      1685 5.52718E+00-2.29719E+00-6.64274E-01-3.82503E+00 1.42730E-12-1.06737E-12
 -1      1686 6.56881E-02-1.54991E+01-1.87307E+00 4.14204E-02 7.83928E-13-3.88786E-13
 -1      1687 4.29252E-01-1.05688E+01-1.39065E+00 1.31549E-01 1.17262E-12-5.92894E-13
 -1      1688-7.99778E-01-1.80128E+01-1.94608E+00-1.00268E+00 4.37844E-14-3.24435E-13
 -1      1689-7.41972E-01-1.67234E+01-1.82901E+00 6.31580E-01 6.01297E-13-3.48055E-13
 -1      1690-5.65898E-01-1.44894E+01-1.69015E+00-1.42684E+00-8.34444E-13-6.05849E-13
 -1      1691-5.45410E-01-1.72413E+01-1.88626E+00-3.58388E-01-2.06973E-13-4.26853E-13
 -1      1692 1.56573E+00-7.94946E+00-1.35048E+00 1.52775E-01-1.50790E-12-1.00525E-12
 -1      1693 6.59208E-01-1.33427E+01-1.86988E+00-8.14068E-01-1.09712E-12-6.90066E-13
 -1      1694 9.89294E+00-4.83563E-01-5.56548E-01 5.48115E+00-1.59650E-12-1.42131E-12
 -1      1695 5.57113E+00-6.08272E+00-1.37091E+00 1.99163E+00-1.47482E-12-1.11305E-12
 -1      1696 2.24479E+01 4.75972E+00 3.26872E-01 1.05102E+01-1.47293E-12-1.65046E-12
 -1      1697 1.44334E+01 1.68622E+00-6.76461E-01 6.67260E+00-1.68887E-12-1.51212E-12
 -1      1698 3.89993E+01 5.91693E+00 1.31180E+00 1.28165E+01-9.91207E-13-1.46549E-12
 -1      1699 2.82397E+01 5.99246E+00 2.74255E-01 1.12695E+01-1.36846E-12-1.64291E-12
 -1      1700 5.36501E+01 4.46126E+00 2.05291E+00 9.03192E+00-5.10182E-13-9.33476E-13
 -1      1701 4.44543E+01 6.04382E+00 1.27849E+00 1.15269E+01-7.82097E-13-1.28564E-12
 -1      1702 6.06692E+01 3.69915E+00 2.40400E+00 1.36089E+00-2.49412E-13-3.22298E-13
 -1      1703 5.69043E+01 4.61749E+00 2.09372E+00 7.00233E+00-3.70981E-13-6.90337E-13
 -1      1704 5.76792E+01 4.35029E+00 2.15206E+00-6.49494E+00-2.61735E-13 1.33671E-13
 -1      1705 6.10745E+01 3.61950E+00 2.45141E+00-1.05154E+00-1.74638E-13-2.00590E-13
 -1      1706 4.58487E+01 5.59316E+00 1.32095E+00-1.04598E+01-5.53169E-13 6.24389E-13
 -1      1707 5.40628E+01 4.22506E+00 2.01863E+00-7.80167E+00-3.57721E-13 2.34701E-13
 -1      1708 3.15336E+01 5.94809E+00 4.59914E-01-1.14495E+01-9.98868E-13 1.15463E-12
 -1      1709 4.13192E+01 5.43454E+00 1.36611E+00-1.21287E+01-7.13596E-13 8.06244E-13
 -1      1710 1.74906E+01 3.20780E+00-4.65694E-01-7.96099E+00-1.44273E-12 1.38334E-12
 -1      1711 2.59683E+01 5.23763E+00 5.07990E-01-1.12526E+01-1.15041E-12 1.37712E-12
 -1      1712 7.51126E+00-2.66128E+00-1.21051E+00-3.23679E+00-1.74971E-12 1.16029E-12
 -1      1713 1.25192E+01 1.78670E+00-3.76323E-01-6.80070E+00-1.53322E-12 1.39289E-12
 -1      1714 2.07304E+00-9.95818E+00-1.68842E+00 1.75382E-01-1.98064E-12 9.21818E-13
 -1      1715 4.00842E+00-4.53148E+00-1.08407E+00-1.85659E+00-1.82254E-12 1.05244E-12
 -1      1716-5.81597E-02-1.57842E+01-1.87915E+00 9.67394E-01-1.47105E-12 6.85424E-13
 -1      1717 1.89142E-01-1.16497E+01-1.54923E+00 1.07210E+00-1.84874E-12 8.96519E-13
 -1      1718-8.04546E-01-1.78601E+01-1.87275E+00 1.36852E-01-5.01169E-13 5.55223E-13
 -1      1719-9.59476E-01-1.68969E+01-1.85626E+00 1.75459E+00-1.32910E-12 7.39908E-13
 -1      1720 1.53078E+01-2.24482E+00-2.58329E-01 7.09170E+00 9.59344E-13 1.03728E-12
 -1      1721-1.32369E+00-1.12528E+01-1.18749E+00 1.24580E+00-2.41432E-13 8.42215E-13
 -1      1722 1.99997E+01-8.91791E-05 6.69544E-06-9.58670E-05-2.12638E-13-1.64872E-14
 -1      1723 1.99996E+01-3.04230E-04 2.08733E-06-3.39653E-04-5.20997E-14 1.43647E-13
 -1      1724 1.13598E+00-9.71015E+00-1.07229E+00 3.26383E+00 1.55542E-13 8.38302E-13
 -1      1725 6.89041E+00-6.59256E+00-7.66128E-01 5.25600E+00 7.12097E-13 9.28049E-13
 -1      1726 2.51526E+01 1.91056E+00 3.27354E-01 8.22655E+00 9.65894E-13 1.15852E-12
 -1      1727 3.53942E+01 4.83739E+00 9.15296E-01 7.59378E+00 9.19681E-13 8.76854E-13
 -1      1728 4.32330E+01 6.75251E+00 1.25830E+00 4.87132E+00 8.52929E-13 4.51417E-13
 -1      1729 4.79349E+01 7.54862E+00 1.49330E+00 1.22179E+00 6.64024E-13 1.05416E-13
 -1      1730 4.59515E+01 7.30152E+00 1.25990E+00-2.20097E+00 6.40432E-13-2.62845E-13
 -1      1731 4.02304E+01 6.01003E+00 1.06215E+00-5.40252E+00 6.86479E-13-5.66658E-13
 -1      1732 3.17745E+01 3.73171E+00 7.01593E-01-7.92568E+00 8.62088E-13-8.39107E-13
 -1      1733 2.12644E+01 3.93237E-01 8.62319E-02-7.86054E+00 9.30478E-13-8.78742E-13
 -1      1734 1.19596E+01-4.14296E+00-4.89761E-01-6.44474E+00 7.87370E-13-8.62643E-13
 -1      1735 4.38222E+00-8.23735E+00-9.08159E-01-4.52516E+00 6.08402E-13-6.71463E-13
 -1      1736-4.50098E-01-1.16265E+01-1.33304E+00-2.05600E+00 3.50331E-13-5.86697E-13
 -1      1737-1.41360E+00-1.19761E+01-1.34925E+00 6.64319E-02-8.57925E-14-7.27751E-13
 -1      1738 1.11580E+00-1.05877E+01-1.24769E+00 2.18937E+00-4.72289E-13-8.55482E-13
 -1      1739 8.00275E+00-7.53981E+00-8.47956E-01 4.74514E+00-7.86926E-13-9.53682E-13
 -1      1740 1.80550E+01-3.80823E+00-3.61768E-01 6.28021E+00-8.90843E-13-9.39249E-13
 -1      1741 2.94864E+01 6.83339E-01 3.35127E-01 6.91515E+00-9.80438E-13-9.16822E-13
 -1      1742 4.09379E+01 4.31395E+00 1.16703E+00 5.76646E+00-8.37191E-13-7.21423E-13
 -1      1743 4.86585E+01 6.81171E+00 1.70337E+00 3.06816E+00-5.68101E-13-4.63629E-13
 -1      1744 5.19034E+01 7.71119E+00 1.97144E+00 1.69341E-01-3.53495E-13-1.87309E-13
 -1      1745 4.88680E+01 6.71953E+00 1.66788E+00-2.34039E+00-4.80282E-13 1.52101E-14
 -1      1746 4.19827E+01 4.47693E+00 1.19805E+00-4.87934E+00-6.04204E-13 1.22236E-13
 -1      1747 3.20371E+01 1.52805E+00 5.39271E-01-6.68445E+00-8.01359E-13 4.36429E-13
 -1      1748 2.07405E+01-2.08936E+00-1.87847E-01-6.47618E+00-9.18265E-13 7.68163E-13
 -1      1749 1.08187E+01-5.96704E+00-7.63774E-01-4.99156E+00-1.11466E-12 6.36546E-13
 -1      1750 3.65953E+00-9.44735E+00-1.13821E+00-3.05553E+00-9.85323E-13 6.42514E-13
 -1      1751-4.84097E-01-1.17383E+01-1.33001E+00-1.10311E+00-6.93667E-13 9.30700E-13
 -1      1752 2.43276E+01 1.96284E+00-2.51909E-02-2.22293E+00-1.55168E-13 8.72274E-13
 -1      1753 2.00958E+01 3.98525E+00-4.25745E-02-1.22344E+00-2.37480E-13-1.14266E-13
 -1      1754 2.07231E+01 3.80163E+00-2.80175E-02-1.49374E+00-2.66396E-13-2.22079E-14
 -1      1755 2.13868E+01 3.29526E+00-5.04006E-02-1.66265E+00-2.59971E-13 8.03038E-14
 -1      1756 2.19483E+01 2.87652E+00-1.22229E-01-1.97048E+00-2.67071E-13 2.20587E-13
 -1      1757 2.12959E+01 2.92639E+00 4.09738E-03-1.21733E+00-2.74146E-13 4.20185E-14
 -1      1758 1.83292E+01 4.64538E+00-2.05707E-02-7.57403E-01-1.52886E-13-2.86092E-13
 -1      1759 1.86615E+01 4.61195E+00-1.09448E-02-8.58509E-01-1.74197E-13-2.60195E-13
 -1      1760 1.78958E+01 4.74010E+00-1.26303E-02-6.61855E-01-1.05530E-13-3.11761E-13
 -1      1761 1.80754E+01 4.73812E+00-9.95803E-03-7.29639E-01-1.27456E-13-3.00235E-13
 -1      1762 1.82823E+01 4.42637E+00-1.02942E-03-6.95728E-01-1.52087E-13-2.73034E-13
 -1      1763 1.77653E+01 4.72450E+00-7.07223E-03-5.77915E-01-5.80819E-14-3.04559E-13
 -1      1764 1.77946E+01 4.74255E+00-1.14543E-02-6.43390E-01-8.19518E-14-3.11306E-13
 -1      1765 1.79084E+01 4.50571E+00-1.94259E-03-6.56183E-01-9.78056E-14-2.93260E-13
 -1      1766 1.78900E+01 4.63212E+00-4.16059E-03-4.47401E-01-8.21327E-15-2.93311E-13
 -1      1767 1.77980E+01 4.66086E+00-1.32639E-02-5.35774E-01-3.46754E-14-3.02853E-13
 -1      1768 1.78531E+01 4.44429E+00-4.30234E-03-5.96345E-01-5.25244E-14-2.83087E-13
 -1      1769 1.81972E+01 4.49850E+00-3.83823E-03-2.33844E-01 3.79271E-14-2.72594E-13
 -1      1770 1.80227E+01 4.53012E+00-1.48635E-02-3.60198E-01 1.09396E-14-2.79048E-13
 -1      1771 1.80540E+01 4.29058E+00-7.36582E-03-4.62672E-01-5.28939E-15-2.74364E-13
 -1      1772 1.86111E+01 4.35193E+00-5.79175E-03 7.53143E-02 8.73130E-14-2.65593E-13
 -1      1773 1.83916E+01 4.38204E+00-1.63466E-02-9.43266E-02 6.17848E-14-2.73196E-13
 -1      1774 1.84277E+01 4.09194E+00-1.01310E-02-2.28599E-01 4.92145E-14-2.55893E-13
 -1      1775 1.90672E+01 4.20757E+00-9.45748E-03 4.67145E-01 1.36578E-13-2.18761E-13
 -1      1776 1.88320E+01 4.23555E+00-1.83079E-02 2.59490E-01 1.09003E-13-2.48858E-13
 -1      1777 1.88914E+01 3.88324E+00-1.18180E-02 1.02336E-01 1.03546E-13-2.42431E-13
 -1      1778 1.95577E+01 4.05005E+00-1.51574E-02 9.41671E-01 1.99585E-13-1.53554E-13
 -1      1779 1.93059E+01 4.08517E+00-2.17528E-02 6.91040E-01 1.66617E-13-1.83872E-13
 -1      1780 1.93952E+01 3.67056E+00-1.26108E-02 5.14135E-01 1.61892E-13-1.79318E-13
 -1      1781 2.00942E+01 3.83730E+00-2.52467E-02 1.47816E+00 2.49093E-13-7.46625E-14
 -1      1782 1.98139E+01 3.90046E+00-2.82120E-02 1.18793E+00 2.20114E-13-1.27114E-13
 -1      1783 1.99309E+01 3.42882E+00-1.19584E-02 9.82707E-01 2.25669E-13-1.16145E-13
 -1      1784 2.07594E+01 3.45836E+00-4.50291E-02 2.05555E+00 2.79762E-13 8.72878E-14
 -1      1785 2.04020E+01 3.60753E+00-3.93846E-02 1.72245E+00 2.60019E-13-1.33053E-14
 -1      1786 2.05290E+01 3.09285E+00-8.26845E-03 1.46175E+00 2.72200E-13-2.62568E-14
 -1      1787 2.17873E+01 2.62504E+00-6.24250E-02 2.52172E+00 2.69299E-13 3.86115E-13
 -1      1788 2.11975E+01 3.05137E+00-5.06211E-02 2.23695E+00 2.65250E-13 2.12899E-13
 -1      1789 2.12668E+01 2.51134E+00-1.26135E-03 1.85049E+00 2.78615E-13 1.58124E-13
 -1      1790 2.26856E+01 1.17342E+00-1.24804E-01 2.07281E+00 2.23190E-13 7.17135E-13
 -1      1791 2.21956E+01 2.23761E+00 2.61948E-03 2.44177E+00 2.47524E-13 5.07594E-13
 -1      1792 2.18879E+01 1.62016E+00-1.35150E-02 1.82694E+00 2.61876E-13 3.91989E-13
 -1      1793 2.20019E+01 7.38361E-01-5.87494E-02 1.28088E+00 2.24071E-13 6.42023E-13
 -1      1794 2.33446E+01 2.42574E+00 8.26572E-02-2.32427E+00-2.14745E-13 4.61534E-13
 -1      1795 2.12923E+01 2.50532E-01-5.50571E-03 4.91027E-01 1.57482E-13 5.62706E-13
 -1      1796 2.17455E+01 3.92493E-01-1.51740E-02 8.30866E-01 1.74846E-13 6.06784E-13
 -1      1797 2.17859E+01 7.83598E-01 4.43986E-03 1.15925E+00 2.04614E-13 4.58085E-13
 -1      1798 2.30206E+01 1.78544E+00 7.75327E-02-1.50635E+00-2.36432E-13 3.57388E-13
 -1      1799 2.25892E+01 6.35097E-01 3.37852E-02 4.49739E-02-1.84165E-13 3.05827E-13
 -1      1800 2.25267E+01 5.32586E-01 2.44003E-02 4.25705E-01-1.58106E-13 2.65427E-13
 -1      1801 2.25217E+01 4.64761E-01 2.70254E-02 8.08211E-01-1.42112E-13 2.65210E-13
 -1      1802 2.27743E+01 4.11632E-01 2.42821E-02 1.07131E+00-1.25261E-13 2.15171E-13
 -1      1803 2.21599E+01 7.70535E-01-1.10890E-02 6.63520E-01-1.75523E-13 1.41112E-13
 -1      1804 2.28967E+01 3.70861E-01 1.54247E-02 1.37245E+00-8.89653E-14 2.19529E-13
 -1      1805 2.33476E+01 3.19136E-01 1.61645E-02 1.57307E+00-4.77066E-14 2.12096E-13
 -1      1806 2.22874E+01 5.91070E-01-1.06512E-02 1.42991E+00-1.17708E-13 1.19876E-13
 -1      1807 2.35983E+01 2.51403E-01 8.56242E-03 1.79844E+00-1.48987E-14 2.33788E-13
 -1      1808 2.41739E+01 1.40102E-01 2.57735E-03 1.90703E+00-7.99914E-15 2.07293E-13
 -1      1809 2.26679E+01 4.16766E-01-1.25701E-02 2.02028E+00-4.04928E-14 1.37371E-13
 -1      1810 2.45779E+01-7.10105E-03 9.79591E-03 1.99777E+00 9.64203E-15 2.49970E-13
 -1      1811 2.51803E+01-2.41515E-01-1.72720E-02 1.92105E+00 2.44934E-14 2.82429E-13
 -1      1812 2.33044E+01 7.21485E-02-1.78365E-02 2.38905E+00 1.95681E-14 1.49942E-13
 -1      1813 2.57990E+01-5.16679E-01 2.07918E-02 1.74552E+00 1.14908E-14 3.43933E-13
 -1      1814 2.62814E+01-8.99120E-01-4.11896E-02 1.34626E+00 5.71973E-14 3.63127E-13
 -1      1815 2.42624E+01-6.11135E-01-2.69328E-02 2.34966E+00 4.92280E-14 2.35044E-13
 -1      1816 2.71681E+01-1.27180E+00 3.24502E-02 7.25589E-01 1.06283E-13 3.89954E-13
 -1      1817 2.73448E+01-1.64336E+00-5.73962E-02-7.20110E-02 9.68496E-14 4.15102E-13
 -1      1818 2.56585E+01-1.66463E+00-3.68453E-02 1.58706E+00 8.94007E-14 3.12792E-13
 -1      1819 2.83657E+01-1.83186E+00 8.84547E-03-1.17695E+00 2.19980E-14 4.52931E-13
 -1      1820 2.80884E+01-1.72108E+00-6.45780E-02-2.12577E+00-2.71051E-14 4.39693E-13
 -1      1821 2.75019E+01-2.57888E+00-3.83471E-02-1.76578E-01 1.03107E-13 3.20617E-13
 -1      1822 2.87727E+01-1.17039E+00-7.93927E-02-3.15981E+00-6.70505E-14 4.45342E-13
 -1      1823 2.81147E+01-1.83343E-01-6.06901E-02-3.46759E+00-1.09412E-13 3.88717E-13
 -1      1824 2.92613E+01-2.15996E+00-7.75210E-02-2.51887E+00-2.69888E-14 3.75498E-13
 -1      1825 2.82026E+01 1.14298E+00-1.75281E-01-3.33692E+00-2.29219E-13 3.42138E-13
 -1      1826 2.75863E+01 2.42602E+00-9.73887E-02-2.33317E+00-2.79915E-13 2.07181E-13
 -1      1827 3.02942E+01 6.63184E-01-1.25481E-01-3.79520E+00-2.28345E-13 3.65943E-13
 -1      1828 2.74783E+01 3.10683E+00-1.85968E-01-6.82326E-01-3.18606E-13 6.23043E-14
 -1      1829 2.75202E+01 3.10163E+00-1.90590E-01 8.42233E-01-2.81358E-13-6.42507E-14
 -1      1830 3.05542E+01 4.17490E+00-9.56739E-02-1.93604E+00-4.22939E-13 1.03750E-13
 -1      1831 2.76654E+01 2.34303E+00-1.05106E-01 2.64978E+00-2.19075E-13-2.09804E-13
 -1      1832 2.83506E+01 1.02346E+00-1.82876E-01 3.56942E+00-1.89335E-13-2.54474E-13
 -1      1833 3.06097E+01 4.11364E+00-8.85078E-02 2.09531E+00-3.56437E-13-2.34063E-13
 -1      1834 2.83033E+01-2.90687E-01-5.69603E-02 3.65929E+00-1.85643E-13-3.09633E-13
 -1      1835 2.90219E+01-1.30828E+00-7.80223E-02 3.23522E+00-1.27863E-13-3.19574E-13
 -1      1836 3.03616E+01 5.40827E-01-1.15892E-01 3.97318E+00-2.61902E-13-5.29604E-13
 -1      1837 2.83042E+01-1.78691E+00-5.72676E-02 2.10995E+00-2.85501E-14-3.19661E-13
 -1      1838 2.85925E+01-1.84817E+00 1.55613E-02 1.12861E+00 1.13357E-13-2.90230E-13
 -1      1839 2.93671E+01-2.25721E+00-4.65976E-02 2.54334E+00-4.42285E-14-4.22412E-13
 -1      1840 2.75798E+01-1.61238E+00-5.66070E-02 3.83364E-02 1.38160E-13-2.33618E-13
 -1      1841 2.74045E+01-1.22378E+00 3.14517E-02-7.41546E-01 2.05714E-13-1.80939E-13
 -1      1842 2.75421E+01-2.56995E+00-3.22695E-02 1.31793E-01 1.78108E-13-3.79947E-13
 -1      1843 2.65468E+01-8.52190E-01-4.14616E-02-1.33460E+00 1.92908E-13-9.92678E-14
 -1      1844 2.60679E+01-4.82991E-01 1.65115E-02-1.71403E+00 9.32501E-14-4.74169E-14
 -1      1845 2.57498E+01-1.59412E+00-3.40204E-02-1.57434E+00 2.22749E-13-1.94476E-13
 -1      1846 2.54616E+01-2.24756E-01-1.83903E-02-1.88347E+00-4.38599E-14 2.60209E-15
 -1      1847 2.48569E+01-1.30593E-02 4.45123E-03-1.95929E+00-2.02295E-14-2.56982E-14
 -1      1848 2.43950E+01-5.71499E-01-2.35248E-02-2.30798E+00 1.09665E-13-3.01759E-14
 -1      1849 2.44326E+01 1.12545E-01-2.95788E-04-1.89458E+00-3.57117E-14-1.52066E-14
 -1      1850 2.38285E+01 1.96748E-01 1.49329E-06-1.81229E+00-3.42437E-14-4.64342E-14
 -1      1851 2.34282E+01 4.74968E-02-1.34457E-02-2.37726E+00-5.90266E-14 2.73375E-14
 -1      1852 2.35121E+01 2.37882E-01 9.91175E-03-1.65305E+00 4.62707E-14-4.23203E-14
 -1      1853 2.29739E+01 2.52009E-01-5.78852E-04-1.51541E+00 7.38849E-14-1.10949E-14
 -1      1854 2.27076E+01 3.12701E-01-7.30220E-03-2.11813E+00 1.82933E-14 3.19870E-14
 -1      1855 2.27097E+01 2.49941E-01 1.33906E-02-1.32903E+00 1.77974E-14-1.95603E-14
 -1      1856 2.22483E+01 2.34342E-01 5.07879E-04-1.18300E+00-6.11633E-14 4.78176E-14
 -1      1857 2.21272E+01 3.73665E-01-3.47363E-03-1.73855E+00 4.86065E-14-6.53058E-15
 -1      1858 2.20486E+01 2.18313E-01 1.38309E-02-1.02381E+00-1.66904E-13 1.72524E-14
 -1      1859 2.17010E+01 1.93282E-01 1.36722E-03-9.04096E-01-1.22724E-13-7.74493E-14
 -1      1860 2.16543E+01 3.39038E-01-3.15265E-03-1.36043E+00-1.05739E-13-1.57955E-14
 -1      1861 2.15366E+01 1.74616E-01 1.19381E-02-7.72817E-01-1.14103E-13-1.09186E-13
 -1      1862 2.12692E+01 1.50825E-01 1.68248E-03-6.77418E-01-1.19677E-13-1.24339E-13
 -1      1863 2.12791E+01 2.77573E-01-2.67739E-03-1.04198E+00-1.31912E-13-2.33376E-14
 -1      1864 2.11369E+01 1.34026E-01 9.66363E-03-5.74123E-01-5.90808E-14-1.24182E-13
 -1      1865 2.09350E+01 1.14199E-01 1.70706E-03-5.00997E-01-1.38821E-15-6.01677E-14
 -1      1866 2.09753E+01 2.15503E-01-2.43285E-03-7.83958E-01-9.30128E-14-1.41699E-14
 -1      1867 2.08300E+01 1.00561E-01 7.50658E-03-4.21858E-01-7.02420E-14-1.19259E-13
 -1      1868 2.06796E+01 8.50655E-02 1.56320E-03-3.66971E-01-8.23972E-14-1.25677E-13
 -1      1869 2.07331E+01 1.62656E-01-2.18968E-03-5.82559E-01-4.58871E-14-1.17584E-14
 -1      1870 2.05976E+01 7.45215E-02 5.68871E-03-3.07271E-01-1.78460E-15-7.66677E-14
 -1      1871 2.04867E+01 6.27992E-02 1.35023E-03-2.66553E-01 6.44677E-14-1.15021E-13
 -1      1872 2.05429E+01 1.20887E-01-1.91588E-03-4.28729E-01-2.76576E-14-6.95136E-15
 -1      1873 2.04235E+01 5.48397E-02 4.24651E-03-2.21939E-01 7.24517E-14-1.56486E-13
 -1      1874 2.03426E+01 4.61143E-02 1.12420E-03-1.91937E-01-4.54377E-14-1.88858E-13
 -1      1875 2.03958E+01 8.90737E-02-1.62701E-03-3.12757E-01 8.42369E-14-1.80910E-13
 -1      1876 2.02946E+01 4.01714E-02 3.13926E-03-1.58807E-01-1.03374E-13-1.62576E-13
 -1      1877 2.02361E+01 3.37245E-02 9.12794E-04-1.36805E-01-3.38687E-14-4.91103E-14
 -1      1878 2.02835E+01 6.52852E-02-1.34607E-03-2.26053E-01-1.84414E-14-1.65996E-13
 -1      1879 2.02002E+01 2.93059E-02 2.30429E-03-1.12332E-01 3.53615E-14-5.32118E-14
 -1      1880 2.01584E+01 2.45561E-02 7.27434E-04-9.62680E-02 7.63974E-14 1.06540E-13
 -1      1881 2.01989E+01 4.76478E-02-1.08955E-03-1.61630E-01 4.47781E-14 1.71059E-14
 -1      1882 2.01319E+01 2.12738E-02 1.68070E-03-7.82891E-02 6.12701E-14 4.19717E-14
 -1      1883 2.01025E+01 1.77776E-02 5.71000E-04-6.66232E-02 1.08535E-13 1.04426E-13
 -1      1884 2.01361E+01 3.46139E-02-8.65756E-04-1.14028E-01 7.15030E-14 1.16263E-13
 -1      1885 2.00832E+01 1.53394E-02 1.21743E-03-5.35031E-02 4.97510E-14 9.38821E-14
 -1      1886 2.00628E+01 1.27681E-02 4.42268E-04-4.50928E-02 6.24082E-14 1.06001E-13
 -1      1887 2.00901E+01 2.49913E-02-6.76834E-04-7.90733E-02 8.88789E-14 6.75426E-14
 -1      1888 2.00491E+01 1.09579E-02 8.74442E-04-3.56011E-02 9.56434E-14 1.26084E-13
 -1      1889 2.00353E+01 9.07038E-03 3.38309E-04-2.95975E-02 1.69717E-14-2.95673E-14
 -1      1890 2.00571E+01 1.78912E-02-5.21236E-04-5.36009E-02 9.90281E-14-7.42970E-14
 -1      1891 2.00257E+01 7.72939E-03 6.21342E-04-2.28078E-02 5.16378E-15-9.89526E-14
 -1      1892 2.00167E+01 6.34712E-03 2.54379E-04-1.85786E-02-3.58642E-14-6.67854E-14
 -1      1893 2.00338E+01 1.26603E-02-3.95724E-04-3.52196E-02 1.49054E-14-1.29522E-13
 -1      1894 2.00102E+01 5.37095E-03 4.38816E-04-1.37947E-02-1.81205E-13-1.35803E-13
 -1      1895 2.00046E+01 4.34422E-03 1.82236E-04-1.08627E-02-2.70890E-13-1.77700E-13
 -1      1896 2.00177E+01 8.81263E-03-2.97593E-04-2.21224E-02-1.44330E-13-3.27638E-13
 -1      1897 2.00001E+01 3.58602E-03 2.98261E-04-7.41469E-03-1.41167E-13-2.12531E-14
 -1      1898 1.99968E+01 2.83704E-03 1.32400E-04-5.36199E-03-1.83330E-14 1.22181E-13
 -1      1899 2.00068E+01 6.00213E-03-2.02913E-04-1.27835E-02-1.00518E-13-6.45359E-14
 -1      1900 1.99942E+01 2.34485E-03 1.99741E-04-3.18569E-03 9.32766E-16 1.22377E-13
 -1      1901 1.99927E+01 1.82819E-03 9.81846E-05-1.91939E-03 3.40528E-14 3.84304E-14
 -1      1902 1.99999E+01 3.89518E-03-1.56575E-04-6.38567E-03-2.68496E-14 1.55786E-13
 -1      1903 1.99912E+01 1.46135E-03 1.26206E-04-5.00634E-04 6.96659E-14-9.75965E-14
 -1      1904 1.99907E+01 1.11115E-03 7.04317E-05 2.84485E-04-9.03012E-14-2.85769E-14
 -1      1905 1.99960E+01 2.47805E-03-1.09800E-04-2.26954E-03 1.66870E-15 8.87922E-14
 -1      1906 1.99900E+01 8.51872E-04 7.68096E-05 1.16050E-03-1.69985E-13 3.77617E-14
 -1      1907 1.99902E+01 6.13903E-04 4.87954E-05 1.61301E-03-4.22685E-14 1.32840E-13
 -1      1908 1.99939E+01 1.47828E-03-7.56140E-05 3.64133E-04-1.50675E-13-1.21283E-14
 -1      1909 1.99900E+01 4.36160E-04 4.25955E-05 2.11091E-03-1.44183E-13 9.89351E-14
 -1      1910 1.99906E+01 2.79719E-04 3.29109E-05 2.33699E-03-6.85150E-14-1.05855E-13
 -1      1911 1.99931E+01 7.91496E-04-5.05129E-05 1.95199E-03-1.12392E-13-4.68685E-15
 -1      1912 1.99907E+01 1.61293E-04 1.94194E-05 2.57833E-03-5.55264E-14-1.56513E-13
 -1      1913 1.99915E+01 6.27078E-05 2.13092E-05 2.65515E-03 1.73289E-14-2.52880E-13
 -1      1914 1.99931E+01 3.33196E-04-3.22719E-05 2.81773E-03-1.67385E-13-9.32639E-14
 -1      1915 1.99918E+01-1.36627E-05 4.19570E-06 2.72756E-03 8.61762E-14-2.46319E-13
 -1      1916 1.99927E+01-7.26841E-05 1.28102E-05 2.70957E-03-5.70697E-15-1.85922E-13
 -1      1917 1.99936E+01 3.80977E-05-1.92358E-05 3.19762E-03 6.55106E-14-2.01382E-13
 -1      1918 1.99931E+01-1.20602E-04-5.40271E-06 2.67423E-03-1.60813E-13-1.71432E-13
 -1      1919 1.99940E+01-1.54473E-04 6.41125E-06 2.59801E-03-2.27940E-13-2.63186E-13
 -1      1920 1.99945E+01-1.44585E-04-1.00832E-05 3.26017E-03-7.38024E-14-2.69466E-13
 -1      1921 1.99945E+01-1.84939E-04-1.11038E-05 2.49524E-03-1.94764E-13-8.47514E-14
 -1      1922 1.99953E+01-2.05420E-04 1.27351E-06 2.38299E-03 2.17971E-14-2.63855E-14
 -1      1923 1.99954E+01-2.55072E-04-3.77025E-06 3.12071E-03-7.80851E-14-5.57728E-14
 -1      1924 1.99958E+01-2.27712E-04-1.41229E-05 2.23635E-03 1.84239E-13-4.73603E-14
 -1      1925 1.99965E+01-2.44822E-04-3.20277E-06 2.09833E-03 2.33907E-13 7.07803E-14
 -1      1926 1.99963E+01-3.26268E-04 4.99426E-07 2.85236E-03 1.60045E-13 1.50750E-13
 -1      1927 1.99969E+01-2.67225E-04-1.52109E-05 1.91797E-03 6.70695E-14-4.03540E-14
 -1      1928 1.99976E+01-2.89522E-04-7.28952E-06 1.75429E-03-1.25147E-13-1.51723E-13
 -1      1929 1.99972E+01-3.85942E-04 3.29378E-06 2.49456E-03 9.64990E-14 4.13490E-14
 -1      1930 1.99980E+01-3.19073E-04-1.46098E-05 1.53992E-03-6.15396E-14-6.05939E-14
 -1      1931 1.99985E+01-3.50963E-04-1.02127E-05 1.34368E-03 1.37916E-14 3.36984E-14
 -1      1932 1.99981E+01-4.55908E-04 5.62232E-06 2.06199E-03-8.24755E-14 2.10665E-13
 -1      1933 1.99988E+01-3.85651E-04-1.22178E-05 1.09092E-03-7.88171E-14 1.21642E-13
 -1      1934 1.99992E+01-4.17926E-04-8.54714E-06 8.64659E-04-2.98603E-13 1.43116E-13
 -1      1935 1.99988E+01-5.47465E-04 7.40518E-06 1.55185E-03-6.16669E-14 2.23038E-13
 -1      1936 1.99995E+01-4.06350E-04-7.90389E-06 5.13566E-04-4.09025E-13 3.55222E-13
 -1      1937 2.07658E+01 1.39768E-02 3.57302E-03 1.40476E-01 1.18720E-13 3.78967E-13
 -1      1938 2.08802E+01 7.33812E-02 1.46299E-02 1.76383E-01 1.11341E-13 4.20894E-13
 -1      1939 2.05874E+01-6.78025E-02-1.78976E-03 1.61286E-01 9.38145E-14 3.41576E-13
 -1      1940 2.06831E+01-2.91654E-02 9.27446E-03 1.33793E-01 1.13625E-13 3.60964E-13
 -1      1941 2.09066E+01-1.10898E-02-2.54170E-03 2.17862E-01 1.43414E-13 2.52499E-13
 -1      1942 2.03986E+01-1.15252E-01-4.59753E-03 2.82527E-01 9.44865E-14 2.70317E-13
 -1      1943 2.05186E+01-9.36673E-02 3.21246E-03 2.18642E-01 1.07516E-13 3.16131E-13
 -1      1944 2.07609E+01-1.23333E-01 7.92679E-06 2.64960E-01 1.48859E-13 2.16398E-13
 -1      1945 2.01437E+01-1.25669E-01-4.47518E-03 4.53275E-01 5.11310E-14 2.03784E-13
 -1      1946 2.03133E+01-1.24539E-01-2.22762E-04 3.75825E-01 5.69297E-14 2.35994E-13
 -1      1947 2.06124E+01-1.81784E-01 2.56022E-03 4.28535E-01 1.04755E-13 1.56303E-13
 -1      1948 1.98020E+01-9.01136E-02-1.69187E-03 6.12118E-01 3.27167E-14 1.80901E-13
 -1      1949 2.00223E+01-1.13738E-01-1.76625E-03 5.48444E-01 2.56262E-14 2.12871E-13
 -1      1950 2.04090E+01-1.78563E-01 4.19711E-03 6.39082E-01 5.56057E-14 1.46434E-13
 -1      1951 1.93951E+01-7.44291E-03 2.85178E-03 6.89212E-01 2.16940E-14 1.53788E-13
 -1      1952 1.96420E+01-5.45856E-02-1.72817E-03 6.68963E-01 1.33593E-14 1.70778E-13
 -1      1953 2.01284E+01-1.03743E-01 3.93439E-03 8.13662E-01 2.91829E-14 1.34418E-13
 -1      1954 1.89877E+01 1.05175E-01 7.43292E-03 6.24524E-01 4.02798E-14 2.06011E-13
 -1      1955 1.92165E+01 4.61109E-02-4.48941E-05 6.70024E-01 3.95901E-14 1.90774E-13
 -1      1956 1.97878E+01 3.62248E-02 1.10685E-03 8.63581E-01 1.64326E-14 1.52307E-13
 -1      1957 1.86747E+01 2.10804E-01 1.00992E-02 3.96658E-01 7.20691E-14 1.56421E-13
 -1      1958 1.88317E+01 1.60755E-01 3.16969E-03 5.10421E-01 5.76587E-14 1.98784E-13
 -1      1959 1.94479E+01 2.06426E-01-3.78926E-03 7.22112E-01 5.70754E-14 2.23775E-13
 -1      1960 1.85484E+01 2.66577E-01 9.80686E-03 4.43997E-02 5.99200E-14 9.67554E-14
 -1      1961 1.85896E+01 2.46746E-01 7.08268E-03 2.02570E-01 6.52950E-14 1.39737E-13
 -1      1962 1.92000E+01 3.47903E-01-8.68308E-03 3.81402E-01 7.22226E-14 1.60665E-13
 -1      1963 1.86595E+01 2.47484E-01 7.08823E-03-3.39784E-01 3.31063E-14 4.30324E-14
 -1      1964 1.85674E+01 2.66879E-01 1.00239E-02-1.80425E-01 4.88403E-14 7.87939E-14
 -1      1965 1.91284E+01 4.03093E-01-1.07719E-02-8.76008E-02 9.20548E-14 1.16822E-13
 -1      1966 1.89898E+01 1.62368E-01 3.50948E-03-6.48619E-01 5.21024E-14 2.32366E-14
 -1      1967 1.87811E+01 2.12038E-01 1.02784E-02-5.31590E-01 4.46015E-14 4.53374E-14
 -1      1968 1.92667E+01 3.47870E-01-8.72181E-03-5.56120E-01 3.17745E-14 2.13111E-14
 -1      1969 1.94595E+01 4.75847E-02 4.85464E-04-8.08128E-01 5.19621E-14 3.21635E-14
 -1      1970 1.91785E+01 1.06751E-01 7.30208E-03-7.58392E-01 8.34090E-14 4.28806E-14
 -1      1971 1.95783E+01 2.06034E-01-3.84404E-03-8.95204E-01 5.46013E-14 2.65805E-14
 -1      1972 1.99627E+01-5.54592E-02-1.36736E-03-8.03731E-01-2.70391E-14 1.84553E-14
 -1      1973 1.96646E+01-7.03455E-03 2.20655E-03-8.20709E-01 2.48230E-14 1.52552E-14
 -1      1974 1.99758E+01 3.42182E-02 1.23002E-03-1.03248E+00 5.96513E-14-6.46054E-15
 -1      1975 2.04065E+01-1.20627E-01-2.16779E-03-6.72592E-01 6.98842E-14-5.41563E-14
 -1      1976 2.01403E+01-9.36507E-02-3.03222E-03-7.36693E-01 1.80658E-14-2.18185E-14
 -1      1977 2.03633E+01-1.10477E-01 4.53560E-03-9.72111E-01 9.86841E-15-3.67701E-14
 -1      1978 2.07352E+01-1.42997E-01-2.30280E-03-4.75473E-01 3.53185E-14-8.75912E-14
 -1      1979 2.05322E+01-1.37497E-01-6.77168E-03-5.60644E-01 7.11141E-14-8.44481E-14
 -1      1980 2.06720E+01-1.95642E-01 5.62196E-03-7.74053E-01 6.34065E-14-7.02736E-14
 -1      1981 2.09324E+01-1.32529E-01-2.08671E-03-2.69189E-01-2.16207E-14-7.87471E-14
 -1      1982 2.08039E+01-1.42089E-01-8.36324E-03-3.53287E-01-2.89569E-15-7.38272E-14
 -1      1983 2.08715E+01-2.18625E-01 5.12692E-03-5.16075E-01 3.71001E-14-3.18343E-14
 -1      1984 2.10101E+01-1.04148E-01-1.71111E-03-9.17276E-02-4.42736E-14 6.44800E-14
 -1      1985 2.09514E+01-1.20945E-01-8.07315E-03-1.61166E-01-4.25771E-14 3.44903E-14
 -1      1986 2.09635E+01-1.96170E-01 3.90152E-03-2.63305E-01-9.46829E-14 2.84434E-14
 -1      1987 2.09947E+01-7.06709E-02-1.26803E-03 3.96754E-02-8.20485E-14 1.04772E-13
 -1      1988 2.09919E+01-8.85687E-02-6.60517E-03-9.83359E-03-6.36654E-14 1.19360E-13
 -1      1989 2.09674E+01-1.50388E-01 2.55899E-03-5.52584E-02-9.31820E-14 1.54759E-13
 -1      1990 2.09163E+01-4.02054E-02-8.20584E-04 1.23355E-01 5.55779E-14 4.16943E-14
 -1      1991 2.09524E+01-5.56278E-02-4.67432E-03 9.32491E-02 3.41589E-14 5.71115E-14
 -1      1992 2.09088E+01-9.94509E-02 1.39957E-03 9.29550E-02 2.82391E-14 1.56979E-13
 -1      1993 2.08022E+01-1.64415E-02-4.14569E-04 1.66421E-01 3.71168E-14-5.86837E-14
 -1      1994 2.08611E+01-2.79794E-02-2.79661E-03 1.52184E-01 3.32892E-14-1.02158E-14
 -1      1995 2.08121E+01-5.44184E-02 5.18587E-04 1.83064E-01 7.41556E-14 7.36762E-14
 -1      1996 2.06738E+01-5.57674E-05-8.08492E-05 1.79275E-01-1.47156E-14-5.69475E-14
 -1      1997 2.07425E+01-7.68161E-03-1.25133E-03 1.76451E-01 2.81129E-14-4.02202E-14
 -1      1998 2.06970E+01-2.00117E-02-9.04353E-05 2.25536E-01 4.23880E-15-6.53592E-14
 -1      1999 2.05461E+01 9.87683E-03 1.66400E-04 1.72190E-01 1.29913E-13-6.23187E-14
 -1      2000 2.06154E+01 5.51375E-03-1.31829E-04 1.76630E-01 1.98570E-15-5.05295E-14
 -1      2001 2.05781E+01 3.24589E-03-4.73661E-04 2.33551E-01 4.10526E-14-4.99874E-14
 -1      2002 2.04284E+01 1.48737E-02 3.28350E-04 1.53679E-01 7.99640E-14 1.07064E-14
 -1      2003 2.04925E+01 1.29197E-02 5.83523E-04 1.62069E-01 1.73619E-13 2.75629E-14
 -1      2004 2.04652E+01 1.69865E-02-6.84556E-04 2.19454E-01 8.92427E-14 1.09425E-13
 -1      2005 2.03258E+01 1.64654E-02 4.16428E-04 1.30020E-01-7.32948E-14-1.84417E-14
 -1      2006 2.03816E+01 1.61180E-02 9.70599E-04 1.39987E-01-1.81128E-14 6.61737E-15
 -1      2007 2.03640E+01 2.35734E-02-7.71487E-04 1.93185E-01 9.00047E-14 6.65544E-14
 -1      2008 2.02400E+01 1.59334E-02 4.46955E-04 1.05409E-01-7.62744E-14 3.47278E-14
 -1      2009 2.02864E+01 1.65467E-02 1.11919E-03 1.15418E-01-7.33766E-14 5.13492E-14
 -1      2010 2.02770E+01 2.53042E-02-7.74353E-04 1.61933E-01-8.50801E-14 3.18090E-14
 -1      2011 2.01709E+01 1.42376E-02 4.36886E-04 8.23710E-02 4.69989E-14-3.37048E-14
 -1      2012 2.02079E+01 1.53417E-02 1.11129E-03 9.15322E-02-1.74053E-14-3.55570E-15
 -1      2013 2.02049E+01 2.40650E-02-7.24373E-04 1.30417E-01-4.87848E-14 1.91449E-13
 -1      2014 2.01168E+01 1.20382E-02 4.01232E-04 6.22094E-02-7.44355E-14 8.40540E-14
 -1      2015 2.01455E+01 1.33188E-02 1.01216E-03 7.00951E-02 2.55522E-14 8.09755E-14
 -1      2016 2.01469E+01 2.12482E-02-6.44930E-04 1.01413E-01-3.74989E-14 2.12814E-13
 -1      2017 2.00759E+01 9.75376E-03 3.51926E-04 4.54083E-02-6.98347E-14 2.31504E-13
 -1      2018 2.00973E+01 1.10182E-02 8.69041E-04 5.18914E-02-4.91468E-14 1.18589E-13
 -1      2019 2.01017E+01 1.77981E-02-5.52741E-04 7.62958E-02-1.18994E-13 2.93131E-13
 -1      2020 2.00457E+01 7.62508E-03 2.97655E-04 3.19442E-02-6.66376E-14 1.08953E-13
 -1      2021 2.00612E+01 8.76778E-03 7.13308E-04 3.70782E-02-7.93960E-14 1.19665E-13
 -1      2022 2.00672E+01 1.43041E-02-4.59098E-04 5.55114E-02-4.97653E-14 2.45719E-13
 -1      2023 2.00243E+01 5.77091E-03 2.44229E-04 2.15125E-02-7.16088E-14 8.05965E-14
 -1      2024 2.00351E+01 6.74472E-03 5.63995E-04 2.54457E-02-4.55030E-14 9.44774E-14
 -1      2025 2.00418E+01 1.10975E-02-3.71065E-04 3.89368E-02-6.70654E-14 1.56686E-13
 -1      2026 2.00096E+01 4.23189E-03 1.95153E-04 1.36792E-02 1.08952E-13 1.19028E-13
 -1      2027 2.00168E+01 5.02613E-03 4.31253E-04 1.65995E-02-6.22245E-15 1.46322E-13
 -1      2028 2.00235E+01 8.33471E-03-2.92560E-04 2.61411E-02-4.60896E-14-1.42060E-14
 -1      2029 2.00001E+01 3.00220E-03 1.52225E-04 7.97791E-03 4.16597E-13 2.83446E-14
 -1      2030 2.00045E+01 3.62707E-03 3.19289E-04 1.00779E-02 3.03109E-13 1.44694E-13
 -1      2031 2.00109E+01 6.06151E-03-2.25284E-04 1.65592E-02 2.30244E-13 7.30289E-14
 -1      2032 1.99943E+01 2.05129E-03 1.16068E-04 3.96465E-03-1.74106E-14 6.31603E-14
 -1      2033 1.99968E+01 2.52741E-03 2.28610E-04 5.42250E-03 2.33313E-13 7.39177E-14
 -1      2034 2.00025E+01 4.25923E-03-1.69457E-04 9.60058E-03 3.00725E-13 2.27912E-13
 -1      2035 1.99911E+01 1.33789E-03 8.65425E-05 1.24693E-03-8.42910E-14-6.90321E-14
 -1      2036 1.99923E+01 1.68969E-03 1.57630E-04 2.21741E-03-6.67447E-14-3.79671E-14
 -1      2037 1.99972E+01 2.87578E-03-1.24394E-04 4.71181E-03 1.74848E-14 1.84524E-13
 -1      2038 1.99899E+01 8.18535E-04 6.30666E-05-5.05428E-04 6.98337E-15-7.46644E-14
 -1      2039 1.99901E+01 1.07037E-03 1.03752E-04 1.05971E-04-9.01796E-14-1.26286E-13
 -1      2040 1.99942E+01 1.84566E-03-8.89088E-05 1.40740E-03 2.19352E-14 3.38249E-14
 -1      2041 1.99898E+01 4.52272E-04 4.48275E-05-1.55954E-03-1.82976E-14-1.23978E-13
 -1      2042 1.99895E+01 6.26370E-04 6.40459E-05-1.20471E-03 7.19727E-14-2.23510E-13
 -1      2043 1.99928E+01 1.10178E-03-6.16063E-05-7.18700E-04 8.27531E-14-6.94757E-15
 -1      2044 1.99905E+01 2.02894E-04 3.09232E-05-2.12430E-03 2.03799E-14-2.36964E-13
 -1      2045 1.99898E+01 3.18505E-04 3.56536E-05-1.94681E-03 2.53013E-14-2.46687E-13
 -1      2046 1.99925E+01 5.81956E-04-4.10631E-05-1.99364E-03 4.04280E-14-1.71388E-13
 -1      2047 1.99916E+01 3.96031E-05 2.04433E-05-2.35773E-03 1.20237E-13-2.72548E-13
 -1      2048 1.99908E+01 1.12853E-04 1.59957E-05-2.29840E-03 5.65610E-14-3.00183E-13
 -1      2049 1.99928E+01 2.31718E-04-2.59404E-05-2.67235E-03 7.11916E-14-4.78087E-13
 -1      2050 1.99930E+01-6.32681E-05 1.25120E-05-2.37472E-03-1.53002E-14-2.70895E-13
 -1      2051 1.99921E+01-1.90760E-05 2.86322E-06-2.39128E-03 1.07240E-13-2.73564E-13
 -1      2052 1.99936E+01 5.01617E-06-1.50445E-05-2.94682E-03 6.58569E-14-2.80003E-13
 -1      2053 1.99944E+01-1.27081E-04 6.31733E-06-2.25430E-03 1.51602E-13-3.71060E-13
 -1      2054 1.99935E+01-1.00930E-04-5.55868E-06-2.31851E-03 9.27795E-14-2.71812E-13
 -1      2055 1.99945E+01-1.36464E-04-7.35605E-06-2.95587E-03 9.27032E-14-2.34443E-13
 -1      2056 1.99957E+01-1.69984E-04 1.17625E-06-2.04546E-03-6.34638E-14-3.64243E-13
 -1      2057 1.99949E+01-1.52502E-04-1.06801E-05-2.14102E-03 2.02985E-14-3.82651E-13
 -1      2058 1.99956E+01-2.24678E-04-2.04046E-06-2.79402E-03 1.28687E-14-4.16094E-13
 -1      2059 1.99969E+01-2.07771E-04-3.21023E-06-1.77183E-03-2.15202E-13-2.99139E-13
 -1      2060 1.99962E+01-1.90858E-04-1.34312E-05-1.89281E-03-9.29414E-14-3.32452E-13
 -1      2061 1.99966E+01-2.86921E-04 1.56188E-06-2.51908E-03-3.35949E-14-1.76398E-13
 -1      2062 1.99980E+01-2.53820E-04-6.83167E-06-1.43613E-03-1.11914E-13-3.12770E-13
 -1      2063 1.99974E+01-2.31113E-04-1.41879E-05-1.58565E-03-1.70197E-13-3.96399E-13
 -1      2064 1.99975E+01-3.46253E-04 4.04208E-06-2.15894E-03-1.03054E-13-7.48844E-14
 -1      2065 1.99988E+01-3.17659E-04-8.31535E-06-1.02661E-03-1.35247E-13-2.78074E-13
 -1      2066 1.99983E+01-2.84671E-04-1.18403E-05-1.21433E-03-1.74218E-13-3.81352E-13
 -1      2067 1.99983E+01-4.19281E-04 7.50718E-06-1.72374E-03-7.65164E-14-2.96191E-13
 -1      2068 1.99994E+01-3.40800E-04-8.95835E-06-5.83355E-04-4.10763E-14-9.49230E-14
 -1      2069 1.99991E+01-3.19579E-04-8.33695E-06-7.90812E-04-6.45933E-14-2.01977E-13
 -1      2070 1.99990E+01-4.81817E-04 2.00290E-06-1.23185E-03-1.90783E-13-4.59142E-13
 -1      2071 1.99994E+01-5.00918E-04-3.94043E-06-7.19083E-04-2.15372E-13 1.02233E-13
 -1      2072 1.99998E+01-2.50583E-03 4.34092E-06-1.36460E-03-3.35510E-13 5.21761E-13
 -1      2073 1.99997E+01-2.07045E-03-5.32484E-06-1.35763E-03-3.40059E-13 6.77320E-14
 -1      2074 1.99997E+01-1.71475E-03 1.72995E-06-1.29733E-03-3.70742E-13-5.77092E-13
 -1      2075 1.99996E+01-1.30264E-03-9.31301E-06-1.20279E-03-4.17722E-13-5.35653E-13
 -1      2076 1.99997E+01-1.77648E-03 7.28869E-07-1.67406E-03-1.79056E-13-1.20736E-13
 -1      2077 1.99995E+01-8.33275E-04-2.27576E-06-9.16285E-04-3.94721E-13-2.97328E-13
 -1      2078 2.00000E+01-3.24118E-03 8.00737E-06-1.24231E-03-2.69238E-13 6.09440E-14
 -1      2079 1.99999E+01-2.83680E-03 1.36474E-06-1.31535E-03-4.87288E-13 5.10278E-13
 -1      2080 1.99999E+01-2.46246E-03-3.73781E-06-1.67887E-03-2.13782E-13 3.46739E-13
 -1      2081 2.00001E+01-3.86173E-03 1.12673E-05-9.65387E-04-1.24018E-13 5.94528E-14
 -1      2082 2.00000E+01-3.52776E-03 6.79348E-06-1.10236E-03-2.04864E-13 1.59119E-13
 -1      2083 2.00001E+01-3.08116E-03-7.01222E-06-1.46535E-03-1.43855E-13 1.98208E-13
 -1      2084 2.00001E+01-4.28685E-03 1.34860E-05-5.79984E-04 8.78115E-14 4.80498E-14
 -1      2085 2.00001E+01-4.06972E-03 1.09599E-05-7.59327E-04-2.15989E-14 1.27848E-13
 -1      2086 2.00002E+01-3.57736E-03-9.58631E-06-1.07722E-03-5.53968E-14 1.79166E-13
 -1      2087 2.00002E+01-4.47261E-03 1.43678E-05-1.32674E-04 4.29748E-14 1.31340E-13
 -1      2088 2.00001E+01-4.39695E-03 1.34538E-05-3.33550E-04-1.97453E-14 1.67322E-13
 -1      2089 2.00003E+01-3.89727E-03-1.12144E-05-5.70711E-04 7.18667E-14 1.28612E-14
 -1      2090 2.00001E+01-4.39987E-03 1.36660E-05 3.29258E-04 2.19486E-14-8.18729E-14
 -1      2091 2.00002E+01-4.47426E-03 1.42484E-05 1.27821E-04 8.78087E-14 1.64556E-15
 -1      2092 2.00003E+01-4.00967E-03-1.17826E-05-3.46058E-06-1.02961E-13-1.87403E-15
 -1      2093 2.00001E+01-4.07599E-03 1.12764E-05 7.57965E-04-8.20160E-14 8.78771E-14
 -1      2094 2.00001E+01-4.29267E-03 1.33902E-05 5.77222E-04-1.13653E-13 1.98198E-13
 -1      2095 2.00003E+01-3.90337E-03-1.12636E-05 5.65500E-04 2.68230E-14-5.35964E-14
 -1      2096 2.00000E+01-3.54581E-03 6.96767E-06 1.10003E-03-1.70131E-13-4.39885E-13
 -1      2097 2.00001E+01-3.87380E-03 1.12842E-05 9.63350E-04-2.82694E-13 1.60126E-14
 -1      2098 2.00002E+01-3.59133E-03-9.85666E-06 1.07292E-03-2.74093E-13-1.07905E-13
 -1      2099 1.99999E+01-2.84856E-03 1.37392E-06 1.31923E-03 1.94925E-13 2.08970E-13
 -1      2100 2.00000E+01-3.26029E-03 8.18849E-06 1.24337E-03 1.09747E-15-1.27516E-13
 -1      2101 2.00001E+01-3.10182E-03-7.22302E-06 1.46421E-03-1.52023E-13-1.68762E-13
 -1      2102 1.99997E+01-2.07179E-03-4.97047E-06 1.36422E-03 2.71666E-13-3.60763E-13
 -1      2103 1.99998E+01-2.51090E-03 4.44566E-06 1.37139E-03 2.78042E-13-1.40552E-13
 -1      2104 1.99999E+01-2.47769E-03-3.72856E-06 1.68431E-03 1.07373E-13 8.53272E-14
 -1      2105 1.99996E+01-1.31021E-03-1.16773E-05 1.20400E-03 1.65587E-13 1.63031E-13
 -1      2106 1.99997E+01-1.71777E-03 4.81789E-07 1.30236E-03 1.77013E-13-1.37797E-13
 -1      2107 1.99996E+01-1.78633E-03-1.67377E-06 1.67865E-03 1.84534E-15-2.11769E-13
 -1      2108 2.09634E+01 1.09593E-01 8.82969E-03 2.32460E-01 1.34706E-13 4.53896E-13
 -1      2109 2.11730E+01 1.94993E-01 1.49499E-02 3.67878E-01 1.42025E-13 5.32827E-13
 -1      2110 2.13001E+01 3.32980E-01 5.67657E-04 5.54513E-01 1.71614E-13 3.91554E-13
 -1      2111 2.10691E+01 1.45255E-01-1.70145E-03 3.15882E-01 1.60521E-13 3.33375E-13
 -1      2112 1.12365E+01-4.79697E+00-1.23694E-01 7.11652E+00 4.31766E-13 7.16628E-13
 -1      2113 7.34885E+00-6.68305E+00-4.05953E-01 5.83238E+00 2.18658E-13 7.78488E-13
 -1      2114 2.84872E+01 3.99419E-01 1.76187E-01 6.55770E+00 6.48426E-13 6.11511E-13
 -1      2115 2.35696E+01-1.45819E+00-1.51387E-01 6.38303E+00 5.89473E-13 6.97165E-13
 -1      2116 4.72323E-01-6.53120E+00-2.76799E-01 1.75433E+00-1.14714E-13 7.58171E-13
 -1      2117 3.48996E-02-7.95222E+00-4.79110E-01 1.29933E-01-2.54935E-13 9.08607E-13
 -1      2118 2.03528E+01-2.59363E+00 5.51035E-02 7.43726E+00 4.98046E-13 7.69940E-13
 -1      2119 1.58475E+01-4.62258E+00-2.50656E-01 6.79420E+00 4.26215E-13 6.54365E-13
 -1      2120 1.90694E+01 4.41239E+00-2.90523E-02-9.25976E-01-1.91378E-13-2.23124E-13
 -1      2121 1.95495E+01 4.32735E+00-1.53331E-02-1.10091E+00-2.31006E-13-1.66603E-13
 -1      2122 1.99884E+01 3.66623E+00-1.79321E-02-9.74436E-01-2.41531E-13-1.24338E-13
 -1      2123 1.89931E+01 4.17299E+00 1.48058E-04-7.81919E-01-1.93135E-13-2.20830E-13
 -1      2124 3.51982E+01 3.10109E+00 2.01723E-01 4.16411E+00 6.87544E-13 2.36977E-13
 -1      2125 3.11834E+01 1.69659E+00 4.37425E-03 4.90656E+00 6.50618E-13 4.48308E-13
 -1      2126 3.91516E+01 6.13342E+00 2.47123E-01 1.68563E+00 7.24087E-13 1.10578E-13
 -1      2127 3.66761E+01 5.00443E+00 1.23414E-01 2.74308E+00 7.74936E-13 1.84963E-13
 -1      2128 4.21300E+01 7.50299E+00 4.08203E-01-5.32327E-02 6.93778E-13-5.55805E-15
 -1      2129 4.04592E+01 7.44050E+00 2.33382E-01 1.23811E+00 7.08433E-13 1.69004E-13
 -1      2130 3.86774E+01 6.99111E+00 1.65709E-01-1.40192E+00 6.76570E-13-1.99063E-13
 -1      2131 4.18535E+01 7.44075E+00 5.00719E-01-7.12290E-01 6.90947E-13-6.05765E-14
 -1      2132 3.71418E+01 8.58605E+00 3.13326E-01 6.33380E-02 7.48290E-13 1.25802E-14
 -1      2133 3.52217E+01 3.73520E+00 1.83462E-01-3.48621E+00 5.98535E-13-3.87468E-13
 -1      2134 3.72797E+01 4.92676E+00 1.15151E-01-1.99333E+00 5.96051E-13-2.30482E-13
 -1      2135 2.85876E+01 6.25491E-01-1.72814E-02-5.72970E+00 6.56863E-13-4.98823E-13
 -1      2136 3.31561E+01 2.10403E+00 2.12062E-01-5.29682E+00 6.13010E-13-4.82281E-13
 -1      2137 2.04430E+01-2.66360E+00-1.97461E-01-6.65133E+00 5.79259E-13-5.71876E-13
 -1      2138 2.53754E+01-6.43529E-01 1.56351E-01-7.09631E+00 6.26499E-13-5.45508E-13
 -1      2139 1.30196E+01-5.50849E+00-2.55687E-01-6.73008E+00 3.35176E-13-5.46382E-13
 -1      2140 1.72781E+01-3.58748E+00 8.39081E-03-7.46918E+00 4.84390E-13-5.94941E-13
 -1      2141 4.87552E+00-7.12054E+00-4.19790E-01-5.10930E+00 2.22100E-13-5.48811E-13
 -1      2142 8.35420E+00-5.37701E+00-1.46569E-01-6.64730E+00 3.24962E-13-6.00867E-13
 -1      2143 5.91349E-01-7.90186E+00-4.58117E-01-2.36704E+00 6.05072E-14-5.83589E-13
 -1      2144 2.07319E+00-7.04329E+00-3.41042E-01-3.79080E+00 2.27429E-13-5.60496E-13
 -1      2145 6.06399E-01-6.83198E+00-3.01714E-01 1.02724E+00-1.51712E-13-7.76157E-13
 -1      2146 1.33139E-01-7.50180E+00-4.19424E-01-6.69850E-01 4.08562E-14-6.97997E-13
 -1      2147 5.03543E+00-6.81838E+00-2.96529E-01 4.46837E+00-3.50220E-13-7.96030E-13
 -1      2148 2.60807E+00-7.25635E+00-3.57760E-01 3.12438E+00-1.11078E-13-7.87037E-13
 -1      2149 1.29658E+01-5.75459E+00-1.36870E-01 6.48457E+00-4.03233E-13-7.04901E-13
 -1      2150 8.25202E+00-7.29849E+00-4.50515E-01 5.09674E+00-3.47278E-13-7.36661E-13
 -1      2151 9.16044E+00-5.76786E+00-1.04845E-01 5.93471E+00-3.13083E-14-7.39742E-13
 -1      2152 2.32956E+01-3.68809E+00 6.40001E-03 6.25718E+00-6.30829E-13-5.26357E-13
 -1      2153 1.78930E+01-5.67235E+00-3.14181E-01 5.73138E+00-4.68736E-13-5.58692E-13
 -1      2154 3.28884E+01-3.83693E-01 2.12975E-01 4.78051E+00-7.44904E-13-4.40981E-13
 -1      2155 2.72222E+01-2.46431E+00-1.90709E-01 4.74272E+00-6.95721E-13-4.96048E-13
 -1      2156 3.94932E+01 2.86755E+00 3.03907E-01 1.97142E+00-6.35630E-13-3.25073E-13
 -1      2157 3.54975E+01 1.16786E+00 6.67569E-02 2.79622E+00-7.51330E-13-3.89133E-13
 -1      2158 4.33053E+01 6.17162E+00 4.79761E-01 4.25532E-01-4.91718E-13-2.86715E-13
 -1      2159 4.09507E+01 5.06009E+00 2.87276E-01 1.03235E+00-6.22391E-13-3.46501E-13
 -1      2160 4.45214E+01 7.02044E+00 5.89856E-01-1.70966E-01-4.04343E-13-5.48173E-14
 -1      2161 4.39870E+01 7.11693E+00 5.07418E-01 5.35235E-01-4.08618E-13-1.81272E-13
 -1      2162 4.13891E+01 5.47353E+00 3.08709E-01-6.27396E-01-5.24081E-13 4.21885E-15
 -1      2163 4.42880E+01 6.30867E+00 5.83718E-01-3.02210E-01-4.48919E-13-6.06182E-14
 -1      2164 3.97603E+01 7.45250E+00 5.08338E-01 9.18206E-01-5.02598E-13 1.85130E-14
 -1      2165 3.65709E+01 1.54900E+00 1.12471E-01-2.27048E+00-5.80425E-13 2.08722E-14
 -1      2166 3.98225E+01 3.14862E+00 3.06504E-01-1.27157E+00-5.05374E-13 1.39888E-14
 -1      2167 2.95743E+01-1.56376E+00-1.13757E-01-4.09463E+00-5.46230E-13 1.37113E-13
 -1      2168 3.47126E+01 1.72463E-01 2.51860E-01-3.81457E+00-6.27415E-13-3.59712E-14
 -1      2169 3.52841E+01-2.02365E-01 2.83539E-01-2.28929E-01-4.86781E-13-1.66034E-13
 -1      2170 2.03433E+01-4.81749E+00-3.42342E-01-5.33929E+00-5.55000E-13 3.59268E-13
 -1      2171 2.57184E+01-2.94208E+00 4.36139E-02-5.75361E+00-5.04596E-13 3.02869E-13
 -1      2172 1.18398E+01-6.86277E+00-4.46442E-01-5.35757E+00-5.35794E-13 2.55268E-13
 -1      2173 1.63445E+01-5.20173E+00-1.35938E-01-6.25468E+00-5.60996E-13 3.20244E-13
 -1      2174 4.78330E+00-7.83970E+00-4.80968E-01-3.98508E+00-4.40925E-13 4.46032E-13
 -1      2175 7.88455E+00-6.71510E+00-3.10791E-01-5.13219E+00-5.89973E-13 3.41185E-13
 -1      2176 6.34834E-01-8.08064E+00-4.71671E-01-1.25079E+00-1.97925E-13 9.93094E-13
 -1      2177 2.08073E+00-7.32385E+00-3.60145E-01-2.74185E+00-3.60934E-13 7.63112E-13
 -1      2178 1.58667E+00-5.04382E+00-1.96144E-01-9.79947E-01-2.78388E-14 1.00631E-12
 -1      2179 4.43013E+00-6.54259E+00-3.03053E-01 5.24450E+00 1.97120E-13 9.52904E-13
 -1      2180 2.42987E+00-6.57761E+00-2.36561E-01 4.14816E+00-6.88338E-14 8.33555E-13
 -1      2181 7.91102E+00-5.54404E+00-1.61771E-01 6.74305E+00-8.90954E-14 8.13238E-13
 -1      2182 1.99994E+01-6.17374E-04-2.60940E-06 8.93410E-04-1.38082E-13 2.64937E-13
 -1      2183 2.41618E+01-3.76978E+00 4.92752E-02 5.94894E+00 1.88904E-13 4.01512E-13
 -1      2184 2.25217E+01 1.19100E+00-1.08869E-02-7.31050E-01-2.28172E-13 2.91683E-13
 -1      2185 1.59695E+01-5.40548E+00-4.40335E-02 7.47075E+00 7.93809E-14 5.66179E-13
 -1      2186 3.04691E+01-4.98176E-01 1.84785E-01 3.58453E+00 4.30767E-13 9.49241E-14
 -1      2187 2.20947E+01 1.51018E+00-2.40685E-02-5.61945E-01-2.43222E-13 1.36825E-13
 -1      2188 1.99994E+01-9.63228E-04-1.58716E-06-1.32048E-03-3.03383E-13-3.37782E-13
 -1      2189 2.31103E+00-5.37360E+00-1.65717E-01 3.23640E+00-6.56697E-14 7.44571E-13
 -1      2190 2.81371E+00-3.25106E+00 7.45839E-02 2.34831E+00-1.85268E-14 8.40661E-13
 -1      2191 4.55354E+00-3.70854E+00-1.65845E-02 4.64807E+00-7.44960E-14 8.69138E-13
 -1      2192 1.99994E+01-8.90189E-04-3.77242E-06 1.06061E-03-9.04432E-15 2.91363E-13
 -1      2193 1.99993E+01-1.01039E-03-1.84718E-06 1.46143E-03-5.51088E-14 1.06601E-13
 -1      2194 5.10459E+00-5.96973E+00-2.13815E-01-4.30372E+00-7.23865E-14 5.47395E-13
 -1      2195 1.25042E+01-6.53699E+00-1.56988E-01-6.19441E+00-1.42053E-13 1.60899E-13
 -1      2196 2.94620E+01-3.89763E+00 5.87138E-02-3.15404E+00-2.69285E-13-1.91680E-13
 -1      2197 3.83503E+01 4.17844E+00 3.62722E-01 1.41966E+00-5.58553E-13-4.67404E-14
 -1      2198 3.94549E+01 7.12890E+00 4.50360E-01-7.19867E-01-5.38625E-13-1.43413E-13
 -1      2199 3.77587E+01 3.71798E+00 3.57601E-01-1.29107E+00-5.71876E-13-1.55875E-13
 -1      2200 3.43738E+01-9.20426E-01 2.65013E-01 1.19080E+00-5.72584E-13-9.60343E-14
 -1      2201 1.78260E+01-6.29307E+00-7.26511E-02 6.24768E+00-1.39833E-13-4.39843E-13
 -1      2202 3.19099E+00-4.85550E+00-1.34278E-01 2.70689E+00-2.69784E-14-8.35776E-13
 -1      2203 1.63178E+00-4.82439E+00-1.97342E-01-1.83325E+00-4.36040E-14-7.24032E-13
 -1      2204 5.18177E+00-5.21747E+00-1.47759E-01-5.60824E+00 5.55112E-17-5.85643E-13
 -1      2205 1.30493E+01-5.51536E+00-4.72649E-02-7.43509E+00 4.36318E-14-4.91246E-13
 -1      2206 2.13144E+01-4.61180E+00-1.02590E-02-6.65441E+00 1.89626E-13-3.22492E-13
 -1      2207 2.83100E+01-1.71085E+00 1.50712E-01-4.77076E+00 4.04732E-13-2.30538E-13
 -1      2208 3.64142E+01 5.97402E+00 1.81820E-01-6.89650E-01 5.90861E-13-8.76521E-14
 -1      2209 3.37723E+01 6.62991E+00-1.13857E-01 7.71777E-01 6.31384E-13 3.93574E-14
 -1      2210 3.32676E+01 4.73153E+00 4.09614E-02 3.85333E-01 5.27106E-13 5.80647E-14
 -1      2211 3.42509E+01 3.54329E+00 2.34715E-01 9.63091E-01 5.77427E-13-8.52651E-14
 -1      2212 3.64131E+01 7.29491E+00 2.34282E-01-7.68902E-02 6.76570E-13-5.57332E-14
 -1      2213 3.32930E+01 2.01749E+00 2.51389E-01-2.08710E+00 4.81622E-13-1.39666E-13
 -1      2214 2.73759E+01-4.57923E+00 3.02913E-02 4.19069E+00-3.87523E-13-2.39142E-13
 -1      2215 2.11190E+01-6.17066E+00-7.11090E-02-5.54840E+00-1.91791E-13 2.27318E-14
 -1      2216 1.78233E+01 4.25146E+00-5.19340E-03-6.47936E-01-8.55579E-14-2.79361E-13
 -1      2217 1.79117E+01 4.24247E+00-1.03044E-02-6.60333E-01-1.13951E-13-2.83041E-13
 -1      2218 1.80934E+01 4.18552E+00-1.16782E-02-5.96051E-01-1.34941E-13-2.69305E-13
 -1      2219 1.83720E+01 4.10217E+00-9.00395E-03-6.10635E-01-1.61593E-13-2.48810E-13
 -1      2220 1.80202E+01 3.97586E+00 8.61155E-03-5.84103E-01-1.18594E-13-2.50913E-13
 -1      2221 1.82089E+01 3.94159E+00 5.20315E-04-5.18453E-01 1.58440E-15-2.49716E-13
 -1      2222 1.80217E+01 4.01910E+00-1.24091E-02-6.10063E-01-2.74774E-14-2.57961E-13
 -1      2223 1.86734E+01 3.68355E+00-7.67098E-04-2.71807E-01 5.65718E-14-2.43993E-13
 -1      2224 1.84256E+01 3.77650E+00-1.23314E-02-4.17335E-01 2.53048E-14-2.44325E-13
 -1      2225 1.84211E+01 3.51496E+00-2.98325E-03-5.80302E-01 8.82042E-15-2.21985E-13
 -1      2226 1.91879E+01 3.41810E+00-4.18801E-03 7.66397E-02 1.13338E-13-2.07900E-13
 -1      2227 1.89246E+01 3.51607E+00-1.21837E-02-1.10993E-01 8.23772E-14-2.33261E-13
 -1      2228 1.89437E+01 3.20498E+00-5.04416E-03-3.11455E-01 5.85108E-14-2.11811E-13
 -1      2229 1.97196E+01 3.14060E+00-9.46404E-03 5.02349E-01 1.81941E-13-1.43542E-13
 -1      2230 1.94524E+01 3.25228E+00-1.28137E-02 2.80392E-01 1.42356E-13-1.78818E-13
 -1      2231 1.95011E+01 2.89510E+00-5.05331E-03 5.90279E-02 1.21433E-13-1.64727E-13
 -1      2232 2.02505E+01 2.81876E+00-1.75077E-02 9.51922E-01 2.32662E-13-8.75116E-14
 -1      2233 1.99839E+01 2.96646E+00-1.45781E-02 7.18061E-01 1.96439E-13-1.20464E-13
 -1      2234 2.00532E+01 2.57801E+00-2.79317E-03 4.78126E-01 1.78611E-13-1.14554E-13
 -1      2235 2.08073E+01 2.36921E+00-2.98294E-02 1.35022E+00 2.65627E-13 2.98199E-15
 -1      2236 2.05222E+01 2.60741E+00-1.74456E-02 1.14323E+00 2.47981E-13-5.43281E-14
 -1      2237 2.05866E+01 2.21348E+00 2.00769E-03 8.74121E-01 2.11284E-13-4.12387E-14
 -1      2238 2.14439E+01 1.67687E+00-2.79109E-02 1.54680E+00 2.50003E-13 1.99738E-13
 -1      2239 2.11206E+01 2.08821E+00-1.07525E-02 1.46958E+00 2.56396E-13 8.10445E-14
 -1      2240 2.11265E+01 1.72118E+00 1.34474E-02 1.14188E+00 2.30330E-13 5.47409E-14
 -1      2241 2.17699E+01 9.81865E-01-1.86546E-02 1.30996E+00 2.17174E-13 3.67760E-13
 -1      2242 2.15975E+01 1.43741E+00 7.48100E-05 1.47835E+00 2.37484E-13 2.70780E-13
 -1      2243 2.14126E+01 1.14000E+00-1.43579E-03 1.11129E+00 2.35381E-13 2.02051E-13
 -1      2244 2.14805E+01 6.46360E-01-3.77426E-03 8.66066E-01 2.09459E-13 3.47201E-13
 -1      2245 2.16873E+01 1.27257E+00 1.24707E-02 3.99581E-01-1.81146E-13 6.73281E-14
 -1      2246 2.16809E+01 1.11004E+00 8.59659E-03 8.63310E-01-1.58378E-13 5.81767E-14
 -1      2247 1.90094E+01-5.23515E+00-3.87165E-02 7.27352E+00-7.28306E-14 3.54258E-13
 -1      2248 1.48037E+01-5.27641E+00 4.57234E-02 7.41812E+00-1.21625E-13 4.18360E-13
 -1      2249 2.63645E+01-3.77799E+00-4.44814E-02 4.79614E+00 1.18183E-13 1.10523E-13
 -1      2250 2.32578E+01-4.81303E+00 3.22203E-02 5.65747E+00-3.58880E-14 2.20657E-13
 -1      2251 2.16228E+01 9.94883E-01 1.19100E-02 1.27724E+00-1.19501E-13 7.46030E-14
 -1      2252 2.17413E+01 8.93701E-01 1.22225E-02 1.63315E+00-8.74431E-14 6.68575E-14
 -1      2253 2.10415E+01 1.40540E+00-1.66218E-03 1.06546E+00-1.41968E-13 1.04953E-14
 -1      2254 2.17130E+01 7.83951E-01 8.79776E-03 1.99451E+00-6.47611E-14 9.07690E-14
 -1      2255 2.19561E+01 6.36804E-01 1.06249E-02 2.26045E+00-2.51231E-14 8.37091E-14
 -1      2256 2.09381E+01 1.11703E+00-3.18085E-03 1.87672E+00-6.45885E-14 2.27485E-14
 -1      2257 2.20294E+01 4.31854E-01 1.26441E-02 2.56218E+00 1.50501E-14 9.08867E-14
 -1      2258 2.24137E+01 1.25052E-01 7.78758E-03 2.69217E+00 5.83275E-14 1.12715E-13
 -1      2259 2.09452E+01 7.19517E-01-9.64693E-03 2.57511E+00-8.25295E-16 1.96686E-14
 -1      2260 2.27220E+01-2.86614E-01 3.07936E-02 2.87910E+00 9.54115E-14 1.18363E-13
 -1      2261 2.32914E+01-8.69545E-01 3.30732E-03 2.76588E+00 7.60191E-14 1.31021E-13
 -1      2262 2.12263E+01-6.36450E-02-2.29996E-02 3.12454E+00 6.54268E-14 2.59523E-14
 -1      2263 2.40726E+01-1.56136E+00 6.52800E-02 2.68895E+00 6.81000E-14 2.25274E-13
 -1      2264 2.48757E+01-2.39913E+00-3.20747E-03 2.17966E+00 1.40752E-13 2.25053E-13
 -1      2265 2.21090E+01-1.50227E+00-4.45518E-02 3.37864E+00 1.28470E-13 9.37340E-14
 -1      2266 2.63696E+01-3.22123E+00 7.40264E-02 1.56432E+00 1.77885E-13 2.64157E-13
 -1      2267 2.73683E+01-3.74808E+00-1.46135E-02 5.63230E-01 1.27953E-13 2.77035E-13
 -1      2268 2.41101E+01-3.50301E+00-6.95299E-02 2.96923E+00 1.81112E-13 1.98907E-13
 -1      2269 3.40486E+01 6.05304E+00-9.36622E-02 9.34818E-01-5.11202E-13-2.04836E-14
 -1      2270 3.40609E+01 4.22134E+00-1.87888E-01 2.52824E+00-4.62186E-13-2.30344E-13
 -1      2271 3.01201E+01-2.84422E+00-8.31532E-02 2.11610E+00-7.98528E-14-4.46088E-13
 -1      2272 2.93707E+01-3.66182E+00 1.97923E-02 9.79900E-01 1.00895E-13-3.76983E-13
 -1      2273 2.71687E+01-3.73636E+00-3.23841E-02-5.63697E-01 2.04697E-13-3.76973E-13
 -1      2274 2.62730E+01-3.11067E+00 8.27049E-02-1.52614E+00 2.62197E-13-3.33766E-13
 -1      2275 2.48260E+01-2.31058E+00-1.09719E-02-2.13068E+00 2.61756E-13-3.01059E-13
 -1      2276 2.40587E+01-1.48132E+00 5.71586E-02-2.62195E+00 2.87381E-13-2.22307E-13
 -1      2277 2.39650E+01-3.41710E+00-7.10710E-02-2.87199E+00 2.98733E-13-3.35520E-13
 -1      2278 2.33184E+01-8.25468E-01 7.40610E-04-2.70093E+00 1.92731E-13-2.17513E-13
 -1      2279 2.27548E+01-2.87721E-01 2.39058E-02-2.82145E+00 1.10687E-13-1.06179E-13
 -1      2280 2.20527E+01-1.42894E+00-4.26074E-02-3.27344E+00 2.56380E-13-3.62694E-13
 -1      2281 2.24463E+01 7.39782E-02 6.44724E-03-2.67565E+00 2.75266E-14-1.41722E-13
 -1      2282 2.20323E+01 3.24722E-01 5.27359E-03-2.58771E+00-4.43610E-14-7.24748E-14
 -1      2283 2.12009E+01-1.11515E-01-1.84178E-02-3.08605E+00 7.12347E-14-3.21439E-13
 -1      2284 2.19232E+01 4.69849E-01 9.82290E-03-2.36779E+00-7.15042E-15-6.27671E-14
 -1      2285 2.15985E+01 5.44201E-01-2.33081E-03-2.19232E+00 5.67394E-14-3.62556E-14
 -1      2286 2.08700E+01 5.22864E-01-4.51103E-03-2.67780E+00 3.20550E-14-1.75063E-13
 -1      2287 2.15560E+01 5.69778E-01 1.10725E-02-1.95447E+00 3.89415E-14-6.72093E-14
 -1      2288 2.12831E+01 5.56392E-01-3.93665E-03-1.75230E+00 1.20589E-14-2.00284E-13
 -1      2289 2.07412E+01 7.26363E-01 2.24114E-03-2.20720E+00-2.61223E-14-2.40742E-13
 -1      2290 2.12605E+01 5.28783E-01 1.11502E-02-1.54951E+00-2.59116E-14-1.24335E-13
 -1      2291 2.10447E+01 4.83541E-01-3.49611E-03-1.37343E+00-1.35753E-13-1.08887E-13
 -1      2292 2.06660E+01 7.06942E-01 2.82564E-03-1.76177E+00 4.17707E-14-2.48357E-13
 -1      2293 2.10170E+01 4.41338E-01 9.97497E-03-1.20305E+00-7.10937E-14 3.20983E-15
 -1      2294 2.08399E+01 3.90763E-01-2.68174E-03-1.05560E+00-1.67197E-14 7.38792E-14
 -1      2295 2.05951E+01 6.04863E-01 2.28681E-03-1.38339E+00-4.73786E-14-3.39980E-14
 -1      2296 2.08072E+01 3.48982E-01 8.38997E-03-9.17693E-01-6.93898E-14 6.34540E-14
 -1      2297 2.06641E+01 3.03627E-01-1.85611E-03-7.99921E-01-1.22239E-13-1.48731E-15
 -1      2298 2.05157E+01 4.85746E-01 1.31435E-03-1.06867E+00-8.87466E-14 8.53951E-14
 -1      2299 2.06293E+01 2.67914E-01 6.78096E-03-6.91059E-01-6.17160E-14 1.11402E-17
 -1      2300 2.05157E+01 2.30779E-01-1.20087E-03-5.99574E-01-5.57328E-14 3.69553E-14
 -1      2301 2.04325E+01 3.76658E-01 4.73606E-04-8.14978E-01-9.51230E-14-4.63123E-15
 -1      2302 2.04819E+01 2.02237E-01 5.33275E-03-5.15062E-01-1.13038E-13-1.17600E-14
 -1      2303 2.03931E+01 1.73193E-01-7.32814E-04-4.45185E-01-7.08726E-14-8.18496E-14
 -1      2304 2.03518E+01 2.86253E-01-9.61679E-05-6.14826E-01-1.25485E-13-1.66981E-13
 -1      2305 2.03624E+01 1.51151E-01 4.11794E-03-3.80331E-01 5.49144E-14-1.46405E-13
 -1      2306 2.02941E+01 1.28974E-01-4.18949E-04-3.27530E-01 1.55160E-13-1.00628E-13
 -1      2307 2.02785E+01 2.14969E-01-4.18884E-04-4.59279E-01-1.63106E-14-1.63576E-13
 -1      2308 2.02676E+01 1.12246E-01 3.14006E-03-2.78187E-01 1.19374E-13-1.79193E-13
 -1      2309 2.02157E+01 9.55211E-02-2.18720E-04-2.38589E-01-7.52328E-16-1.29062E-13
 -1      2310 2.02151E+01 1.60220E-01-5.62562E-04-3.39716E-01 9.67243E-14-1.41531E-13
 -1      2311 2.01938E+01 8.29344E-02 2.37216E-03-2.01316E-01-3.84718E-14-1.67545E-13
 -1      2312 2.01548E+01 7.03977E-02-9.69078E-05-1.71805E-01 1.52085E-13-2.43585E-14
 -1      2313 2.01622E+01 1.18747E-01-5.92639E-04-2.48606E-01 3.82722E-14-1.54284E-13
 -1      2314 2.01372E+01 6.09628E-02 1.77822E-03-1.43844E-01 1.17042E-13-1.15762E-13
 -1      2315 2.01085E+01 5.15929E-02-2.66977E-05-1.21986E-01 2.19495E-14-1.03453E-13
 -1      2316 2.01195E+01 8.75482E-02-5.58461E-04-1.79706E-01 2.49646E-15-3.55435E-13
 -1      2317 2.00947E+01 4.45329E-02 1.32315E-03-1.01166E-01 1.24816E-13-1.77102E-14
 -1      2318 2.00737E+01 3.75428E-02 1.09087E-05-8.50932E-02 1.64426E-13-3.75904E-14
 -1      2319 2.00859E+01 6.41590E-02-4.93036E-04-1.27997E-01 1.49642E-13-1.70330E-13
 -1      2320 2.00632E+01 3.22676E-02 9.76738E-04-6.97257E-02 1.18036E-13-4.72468E-14
 -1      2321 2.00482E+01 2.70642E-02 2.87837E-05-5.80107E-02 1.33782E-13-3.80649E-14
 -1      2322 2.00600E+01 4.66618E-02-4.16683E-04-8.95123E-02 1.38957E-13 1.62062E-13
 -1      2323 2.00404E+01 2.31317E-02 7.14427E-04-4.67859E-02 5.68804E-14-1.66903E-13
 -1      2324 2.00299E+01 1.92702E-02 3.43001E-05-3.83417E-02-4.88439E-14-1.88743E-13
 -1      2325 2.00406E+01 3.36021E-02-3.41050E-04-6.11449E-02 5.27625E-14-1.01346E-13
 -1      2326 2.00242E+01 1.63613E-02 5.19617E-04-3.02493E-02-1.79298E-13-2.38998E-13
 -1      2327 2.00169E+01 1.34844E-02 2.27808E-05-2.42402E-02-2.17877E-13-1.90334E-13
 -1      2328 2.00263E+01 2.38836E-02-2.72615E-04-4.04762E-02-9.07600E-14-2.60675E-13
 -1      2329 2.00127E+01 1.12252E-02 3.66539E-04-1.82422E-02-1.05496E-13-2.31165E-13
 -1      2330 2.00078E+01 9.06561E-03 2.19806E-05-1.38982E-02 2.85671E-14-8.12481E-14
 -1      2331 2.00158E+01 1.66121E-02-1.90743E-04-2.53570E-02-1.35296E-13-2.77005E-13
 -1      2332 2.00051E+01 7.54722E-03 2.57180E-04-9.99060E-03 2.92632E-14-9.09379E-14
 -1      2333 2.00021E+01 6.04890E-03 2.60201E-05-7.18987E-03-6.96355E-15-1.72669E-14
 -1      2334 2.00085E+01 1.11913E-02-1.61917E-04-1.47108E-02 2.39448E-14-2.80104E-13
 -1      2335 2.00003E+01 4.93133E-03 1.72895E-04-4.53730E-03 3.55200E-14-2.81335E-15
 -1      2336 1.99986E+01 3.87233E-03 2.25884E-05-2.69228E-03-5.44824E-14 6.31198E-14
 -1      2337 2.00037E+01 7.42371E-03-1.20912E-04-7.60514E-03-1.95206E-14-2.14260E-13
 -1      2338 1.99975E+01 3.07664E-03 1.14355E-04-9.58846E-04-1.13772E-13 1.75944E-13
 -1      2339 1.99967E+01 2.33536E-03 1.83561E-05 2.04390E-04-3.49999E-14 2.41184E-13
 -1      2340 2.00006E+01 4.72029E-03-8.89422E-05-2.84103E-03-8.43559E-15 1.68506E-13
 -1      2341 1.99960E+01 1.78096E-03 7.23307E-05 1.28141E-03-1.30234E-13 2.79729E-13
 -1      2342 1.99957E+01 1.27434E-03 1.46363E-05 1.96588E-03-2.13519E-13 1.68607E-13
 -1      2343 1.99987E+01 2.81776E-03-6.41053E-05 2.30424E-04-1.14113E-13 4.96974E-13
 -1      2344 1.99954E+01 8.97652E-04 4.26699E-05 2.58378E-03-3.00825E-13 1.08515E-13
 -1      2345 1.99955E+01 5.61605E-04 1.14250E-05 2.93965E-03-1.73602E-13 4.34591E-14
 -1      2346 1.99977E+01 1.50844E-03-4.50751E-05 2.10029E-03-1.89168E-13 2.01403E-13
 -1      2347 1.99954E+01 3.13205E-04 2.22145E-05 3.24403E-03-2.79785E-14-1.44478E-13
 -1      2348 1.99957E+01 9.80455E-05 8.62284E-06 3.38028E-03-2.41372E-14-1.91428E-13
 -1      2349 1.99973E+01 6.31788E-04-3.07174E-05 3.13483E-03-2.80833E-13 1.57554E-13
 -1      2350 1.99957E+01-6.07053E-05 8.55230E-06 3.47621E-03-9.94856E-16-3.21433E-13
 -1      2351 1.99961E+01-1.93866E-04 6.05932E-06 3.46965E-03-4.11901E-14-2.76975E-13
 -1      2352 1.99972E+01 6.30148E-05-2.00567E-05 3.60246E-03-8.86729E-14-2.75450E-13
 -1      2353 1.99963E+01-2.93594E-04-1.41056E-07 3.43033E-03 1.34457E-13-1.45468E-13
 -1      2354 1.99967E+01-3.75706E-04 3.54908E-06 3.33234E-03 1.78263E-13 1.64634E-13
 -1      2355 1.99974E+01-2.95777E-04-1.22946E-05 3.69473E-03 1.63996E-13 8.50665E-14
 -1      2356 1.99969E+01-4.41233E-04-5.20687E-06 3.20585E-03 8.59145E-14 1.11019E-14
 -1      2357 1.99974E+01-4.97539E-04 9.25236E-07 3.04767E-03 1.23908E-13-2.10356E-14
 -1      2358 1.99977E+01-5.22497E-04-6.78597E-06 3.54265E-03 1.25621E-13 1.35558E-14
 -1      2359 1.99976E+01-5.49596E-04-7.70186E-06 2.86213E-03 1.45649E-13 7.30285E-15
 -1      2360 1.99980E+01-6.00662E-04-2.10968E-06 2.65922E-03-4.81840E-14-1.01008E-13
 -1      2361 1.99981E+01-6.80395E-04-3.08890E-06 3.22965E-03 3.36429E-14-5.72152E-15
 -1      2362 1.99982E+01-6.57125E-04-9.42583E-06 2.42654E-03-3.15728E-14 1.86724E-13
 -1      2363 1.99986E+01-7.15309E-04-6.67431E-06 2.18312E-03 1.71038E-14 3.05434E-13
 -1      2364 1.99985E+01-8.18780E-04-5.38558E-08 2.80282E-03 7.46460E-14-8.05890E-15
 -1      2365 1.99988E+01-8.29100E-04-1.07242E-05 1.98623E-03-1.51871E-13 2.93990E-13
 -1      2366 1.99991E+01-8.98834E-04-1.02706E-05 1.69890E-03-1.43981E-13 2.25779E-13
 -1      2367 1.99994E+01-1.27992E-03 7.22519E-06 1.86981E-03-2.06574E-13 1.97587E-13
 -1      2368 1.99990E+01-1.01170E-03 6.21732E-06 2.34532E-03-8.30500E-14 3.61241E-13
 -1      2369 2.08267E+01-3.04015E-01-6.31645E-03 5.24209E-01 1.04943E-13 1.33915E-13
 -1      2370 2.09232E+01-2.68932E-01 4.20742E-03 4.22047E-01 1.40668E-13 1.74135E-13
 -1      2371 2.09202E+01-2.16566E-01-6.87763E-03 3.29000E-01 1.64294E-13 1.71575E-13
 -1      2372 2.10085E+01-1.35052E-01 9.37005E-03 2.74130E-01 1.65987E-13 2.01900E-13
 -1      2373 2.11449E+01-3.13027E-01-1.19550E-03 4.13023E-01 1.66733E-13 1.45522E-13
 -1      2374 2.10065E+01-4.07041E-02-4.92409E-03 2.56570E-01 1.55885E-13 1.84270E-13
 -1      2375 2.11033E+01 7.94746E-02 1.05862E-02 2.85977E-01 1.37629E-13 2.08482E-13
 -1      2376 2.11515E+01-1.04922E-01-4.08525E-03 3.04723E-01 1.60271E-13 1.35872E-13
 -1      2377 2.06839E+01-2.84006E-01-3.02818E-03 7.65223E-01 4.74028E-14 1.27971E-13
 -1      2378 2.08054E+01-3.08084E-01-1.78177E-04 6.55824E-01 6.90012E-14 1.29058E-13
 -1      2379 2.11231E+01-3.97594E-01 1.88652E-03 6.46108E-01 9.73771E-14 1.22829E-13
 -1      2380 2.04676E+01-1.38370E-01 2.76984E-03 9.54175E-01 1.96691E-14 1.16671E-13
 -1      2381 2.06142E+01-2.28804E-01-3.95618E-03 8.85056E-01 4.44987E-14 1.30494E-13
 -1      2382 2.10388E+01-3.30640E-01 4.53500E-03 9.14413E-01 6.36817E-14 1.35908E-13
 -1      2383 2.01884E+01 1.17573E-01 9.26648E-03 9.84383E-01-6.39874E-15 1.34961E-13
 -1      2384 2.03422E+01-2.50628E-02-6.19135E-03 1.00182E+00-1.91315E-14 1.22068E-13
 -1      2385 2.08600E+01-9.88635E-02 4.96448E-03 1.10011E+00 1.66226E-14 1.52890E-13
 -1      2386 1.99027E+01 4.13222E-01 1.33347E-02 7.78713E-01 5.24943E-14 1.52930E-13
 -1      2387 2.00312E+01 2.62227E-01-5.31205E-03 9.08078E-01 3.51892E-14 1.38729E-13
 -1      2388 2.05986E+01 2.57664E-01 1.78212E-03 1.07936E+00 5.54182E-15 8.50897E-14
 -1      2389 1.97015E+01 6.35769E-01 1.23898E-02 3.39182E-01 8.33812E-14 1.55004E-13
 -1      2390 1.97691E+01 5.37488E-01-6.22674E-04 5.65278E-01 7.30913E-14 1.75495E-13
 -1      2391 2.03273E+01 6.29375E-01-3.97934E-03 7.75906E-01 6.45614E-14 1.05644E-13
 -1      2392 1.96693E+01 6.84760E-01 6.74137E-03-2.29844E-01 6.82865E-14 1.63539E-13
 -1      2393 1.96527E+01 6.84916E-01 6.34720E-03 3.44554E-02 1.11034E-13 1.79722E-13
 -1      2394 2.01564E+01 8.68472E-01-8.79191E-03 2.20414E-01 8.37889E-14 1.60592E-13
 -1      2395 1.98317E+01 5.36521E-01-3.21618E-04-7.58825E-01 5.64418E-14 1.34671E-13
 -1      2396 1.97317E+01 6.35073E-01 1.18643E-02-5.33722E-01 5.99217E-14 1.70468E-13
 -1      2397 2.01707E+01 8.67961E-01-8.51635E-03-4.35569E-01 8.78460E-14 2.22886E-13
 -1      2398 2.01351E+01 2.59429E-01-5.29900E-03-1.09704E+00 7.75034E-14 4.73697E-14
 -1      2399 1.99766E+01 4.11519E-01 1.26366E-02-9.69869E-01 6.48661E-14 5.89663E-14
 -1      2400 2.03676E+01 6.26946E-01-3.52297E-03-9.86704E-01 9.16567E-14 1.83413E-13
 -1      2401 2.04788E+01-3.35256E-02-6.67571E-03-1.18120E+00 7.97322E-14-4.27978E-15
 -1      2402 2.02997E+01 1.12555E-01 8.40748E-03-1.16857E+00 8.18088E-14 1.28951E-14
 -1      2403 2.06589E+01 2.51364E-01 2.55600E-03-1.28120E+00 9.21682E-14 1.11687E-14
 -1      2404 2.07694E+01-2.50472E-01-5.27671E-03-1.04454E+00 3.70717E-14-7.40182E-14
 -1      2405 2.06058E+01-1.52115E-01 1.78448E-03-1.12392E+00 6.69228E-14-3.80642E-15
 -1      2406 2.09305E+01-1.15873E-01 6.04843E-03-1.28465E+00 8.25141E-14-3.94841E-14
 -1      2407 2.09561E+01-3.55276E-01-2.82761E-03-7.75686E-01 9.49020E-14-9.53421E-14
 -1      2408 2.08317E+01-3.16151E-01-4.13912E-03-9.05646E-01 7.76748E-14-1.17604E-13
 -1      2409 2.11046E+01-3.70002E-01 6.26129E-03-1.06570E+00 1.00438E-13-1.34666E-13
 -1      2410 2.10324E+01-3.60893E-01-6.22934E-04-4.68247E-01-3.29224E-14-2.69587E-14
 -1      2411 2.09564E+01-3.69557E-01-7.59116E-03-6.08757E-01 5.59119E-14-2.36767E-14
 -1      2412 2.11607E+01-4.78338E-01 4.52029E-03-7.35694E-01 4.95994E-14-1.21641E-13
 -1      2413 2.10192E+01-3.03717E-01 7.59484E-04-1.89695E-01-1.29061E-13 4.20522E-14
 -1      2414 2.09890E+01-3.39949E-01-8.45984E-03-3.13322E-01-1.27095E-13 3.23322E-14
 -1      2415 2.11195E+01-4.65689E-01 2.38269E-03-3.94246E-01-8.20380E-14 6.12769E-14
 -1      2416 2.09456E+01-2.20445E-01 1.37628E-03 2.56983E-02-1.31167E-13 1.03830E-13
 -1      2417 2.09523E+01-2.65989E-01-7.53631E-03-6.78570E-02-1.09567E-13 8.46240E-14
 -1      2418 2.10166E+01-3.80736E-01 7.23310E-04-1.04010E-01-1.47562E-13 5.82626E-14
 -1      2419 2.08383E+01-1.37148E-01 1.47506E-03 1.69891E-01 8.06404E-14 8.59757E-14
 -1      2420 2.08709E+01-1.79982E-01-5.74715E-03 1.08691E-01-1.27353E-14 1.13413E-13
 -1      2421 2.08846E+01-2.69228E-01-2.93201E-04 1.08830E-01-7.05391E-14 1.02833E-13
 -1      2422 2.07174E+01-6.77649E-02 1.31146E-03 2.50449E-01 6.14762E-14 1.08039E-13
 -1      2423 2.07656E+01-1.02033E-01-3.79008E-03 2.17517E-01 1.03447E-13 1.44367E-13
 -1      2424 2.07461E+01-1.62111E-01-8.00867E-04 2.43279E-01 3.72762E-14 1.09083E-13
 -1      2425 2.05964E+01-1.69878E-02 1.06015E-03 2.81657E-01-5.25691E-14 1.34311E-13
 -1      2426 2.06516E+01-4.12089E-02-2.06513E-03 2.70285E-01 3.67922E-14 1.44045E-13
 -1      2427 2.06146E+01-7.50573E-02-9.89429E-04 3.11640E-01 9.83951E-15 2.77616E-13
 -1      2428 2.04834E+01 1.59965E-02 8.13039E-04 2.78774E-01 2.88158E-14 1.74347E-13
 -1      2429 2.05394E+01 8.67368E-04-7.38795E-04 2.82037E-01-3.85562E-14 1.09770E-13
 -1      2430 2.04965E+01-1.26009E-02-1.01031E-03 3.30834E-01-3.62472E-14 2.67081E-13
 -1      2431 2.03829E+01 3.45098E-02 6.07309E-04 2.55069E-01 6.48797E-14 2.14039E-13
 -1      2432 2.04355E+01 2.65202E-02 1.70753E-04 2.67054E-01 7.13557E-14 2.07546E-13
 -1      2433 2.03942E+01 2.71189E-02-9.55140E-04 3.17315E-01 1.33935E-14 3.63379E-13
 -1      2434 2.02965E+01 4.24859E-02 4.49808E-04 2.20751E-01 4.83666E-14 1.89406E-13
 -1      2435 2.03433E+01 3.95470E-02 7.20772E-04 2.36973E-01 9.73443E-14 1.60959E-13
 -1      2436 2.03079E+01 4.87120E-02-8.70017E-04 2.84719E-01 7.33897E-14 3.12460E-13
 -1      2437 2.02245E+01 4.34945E-02 3.34434E-04 1.82957E-01-1.50121E-13 1.72515E-13
 -1      2438 2.02645E+01 4.37960E-02 9.95099E-04 2.00329E-01-8.96101E-14 1.92731E-13
 -1      2439 2.02365E+01 5.73061E-02-7.75423E-04 2.43217E-01-2.68580E-14 3.56920E-13
 -1      2440 2.01659E+01 4.03651E-02 2.51482E-04 1.46229E-01-8.18070E-14 2.54752E-13
 -1      2441 2.01989E+01 4.25140E-02 1.07710E-03 1.62826E-01-8.11097E-14 2.34192E-13
 -1      2442 2.01785E+01 5.74336E-02-6.79808E-04 1.99743E-01-1.34522E-13 3.40041E-13
 -1      2443 2.01194E+01 3.51419E-02 1.91838E-04 1.13132E-01-1.48818E-13 3.90094E-13
 -1      2444 2.01458E+01 3.81558E-02 1.03716E-03 1.27900E-01-1.27263E-13 2.99421E-13
 -1      2445 2.01321E+01 5.26324E-02-5.86869E-04 1.58591E-01-1.85561E-13 2.69156E-13
 -1      2446 2.00834E+01 2.91889E-02 1.48358E-04 8.48396E-02-1.13878E-13 3.43251E-13
 -1      2447 2.01039E+01 3.24280E-02 9.28982E-04 9.73325E-02-3.22629E-14 4.08786E-13
 -1      2448 2.00957E+01 4.54283E-02-4.98722E-04 1.22090E-01-1.09159E-13 4.17394E-13
 -1      2449 2.00560E+01 2.33431E-02 1.15950E-04 6.16206E-02-1.64572E-14 2.91357E-13
 -1      2450 2.00715E+01 2.64267E-02 7.90328E-04 7.17766E-02-3.46338E-14 3.36803E-13
 -1      2451 2.00675E+01 3.74882E-02-4.16939E-04 9.12088E-02 5.81947E-15 3.86803E-13
 -1      2452 2.00357E+01 1.80635E-02 9.11915E-05 4.32020E-02-9.89096E-14 1.75283E-13
 -1      2453 2.00471E+01 2.07927E-02 6.45798E-04 5.11850E-02-6.36481E-14 1.82713E-13
 -1      2454 2.00461E+01 2.98211E-02-3.42742E-04 6.60431E-02 2.16553E-14 2.21222E-13
 -1      2455 2.00210E+01 1.35555E-02 7.18573E-05 2.90284E-02 2.72887E-14 4.11179E-14
 -1      2456 2.00292E+01 1.58511E-02 5.10004E-04 3.51146E-02-6.40944E-15 1.53903E-13
 -1      2457 2.00302E+01 2.29680E-02-2.76939E-04 4.61794E-02-4.74576E-16 1.03118E-13
 -1      2458 2.00108E+01 9.86503E-03 5.65203E-05 1.84326E-02 2.98402E-13 9.53592E-14
 -1      2459 2.00164E+01 1.17213E-02 3.90499E-04 2.29373E-02 8.96059E-14 5.31660E-14
 -1      2460 2.00186E+01 1.71588E-02-2.19870E-04 3.09490E-02 9.78462E-14 7.56267E-14
 -1      2461 2.00039E+01 6.94660E-03 4.42508E-05 1.07413E-02 1.08392E-13 3.30928E-13
 -1      2462 2.00075E+01 8.39851E-03 2.90158E-04 1.39747E-02 3.22558E-13 2.09214E-13
 -1      2463 2.00104E+01 1.24299E-02-1.71442E-04 1.95938E-02 1.78238E-13 2.05189E-13
 -1      2464 1.99994E+01 4.70825E-03 3.44157E-05 5.33425E-03 1.09488E-13 1.98436E-13
 -1      2465 2.00017E+01 5.81018E-03 2.08974E-04 7.57710E-03 8.01844E-14 2.56033E-13
 -1      2466 2.00048E+01 8.70781E-03-1.31197E-04 1.13681E-02 1.52103E-13 2.94203E-13
 -1      2467 1.99968E+01 3.04061E-03 2.65504E-05 1.67279E-03 2.77630E-14 6.50582E-14
 -1      2468 1.99980E+01 3.85277E-03 1.45331E-04 3.16584E-03 1.06494E-13 1.24017E-13
 -1      2469 2.00010E+01 5.86528E-03-9.84137E-05 5.59483E-03 1.60806E-13 2.00436E-13
 -1      2470 1.99954E+01 1.83405E-03 2.02830E-05-6.90944E-04 1.92024E-13-9.69822E-14
 -1      2471 1.99960E+01 2.41478E-03 9.68524E-05 2.50287E-04 3.28804E-14 6.16287E-14
 -1      2472 1.99987E+01 3.75624E-03-7.22173E-05 1.69098E-03 8.67800E-14 1.33261E-13
 -1      2473 1.99949E+01 9.87814E-04 1.52880E-05-2.11645E-03 4.07433E-14-7.41816E-14
 -1      2474 1.99950E+01 1.38963E-03 6.09441E-05-1.56976E-03 1.37615E-13-5.78158E-14
 -1      2475 1.99974E+01 2.23667E-03-5.16685E-05-8.25454E-04 1.38526E-13 1.96818E-13
 -1      2476 1.99950E+01 4.14037E-04 1.12603E-05-2.88316E-03 9.89341E-14-9.67698E-14
 -1      2477 1.99948E+01 6.82123E-04 3.51117E-05-2.61009E-03 5.80263E-14-7.46409E-14
 -1      2478 1.99968E+01 1.17541E-03-3.58377E-05-2.33974E-03 1.27271E-13 2.55132E-13
 -1      2479 1.99955E+01 3.84659E-05 7.90024E-06-3.20115E-03-3.67781E-14 2.41895E-14
 -1      2480 1.99951E+01 2.10656E-04 1.71292E-05-3.11195E-03 6.48248E-14-1.10253E-13
 -1      2481 1.99967E+01 4.58660E-04-2.38572E-05-3.15027E-03 8.94387E-14 2.96295E-13
 -1      2482 1.99961E+01-2.00671E-04 4.90824E-06-3.22199E-03 8.04932E-14-3.55294E-14
 -1      2483 1.99956E+01-9.30615E-05 5.11220E-06-3.25309E-03 5.83308E-14 3.19962E-15
 -1      2484 1.99969E+01-9.54423E-06-1.49598E-05-3.48054E-03-5.23679E-15 1.45287E-13
 -1      2485 1.99968E+01-3.54707E-04 2.00860E-06-3.04874E-03-2.10272E-14-2.47989E-14
 -1      2486 1.99963E+01-2.85720E-04-2.47376E-06-3.15826E-03-1.41965E-14-1.25422E-14
 -1      2487 1.99973E+01-3.09016E-04-8.51275E-06-3.49118E-03 6.39809E-14 1.91514E-13
 -1      2488 1.99975E+01-4.66755E-04-9.78210E-07-2.74486E-03-1.90483E-14 6.58429E-14
 -1      2489 1.99970E+01-4.14643E-04-6.84602E-06-2.90869E-03-6.43880E-14 1.53549E-14
 -1      2490 1.99977E+01-5.05877E-04-4.01180E-06-3.29113E-03-4.19997E-14 2.06084E-13
 -1      2491 1.99982E+01-5.72959E-04-4.52741E-06-2.34238E-03-6.02470E-14 6.92585E-15
 -1      2492 1.99977E+01-5.20066E-04-9.00200E-06-2.54989E-03 4.57323E-14 8.31454E-14
 -1      2493 1.99982E+01-6.54858E-04-9.18846E-07-2.94764E-03 5.42861E-14 8.28918E-14
 -1      2494 1.99988E+01-6.93287E-04-1.11338E-05-1.85464E-03 5.67947E-14-2.81143E-13
 -1      2495 1.99984E+01-6.30726E-04-1.07896E-05-2.09680E-03 9.33562E-14-9.04778E-14
 -1      2496 1.99986E+01-7.99554E-04 1.79081E-06-2.49411E-03 1.73337E-13-9.28814E-14
 -1      2497 1.99991E+01-9.30941E-04-5.20656E-06-1.57651E-03-2.43121E-13-4.15122E-13
 -1      2498 2.00003E+01-2.93268E-03 1.09216E-05-1.59709E-03 1.07730E-13 3.48909E-13
 -1      2499 2.00002E+01-2.66828E-03-3.40529E-07-1.76297E-03 3.25882E-14 2.77914E-13
 -1      2500 2.00000E+01-2.41997E-03 9.32659E-06-1.90498E-03-1.94384E-13 2.88514E-13
 -1      2501 1.99999E+01-2.11477E-03-5.25755E-06-1.96530E-03-1.25943E-13 2.94205E-13
 -1      2502 2.00002E+01-2.34106E-03-4.07410E-06-2.07230E-03 7.62226E-14 3.89289E-13
 -1      2503 1.99997E+01-1.82510E-03 6.26918E-06-1.97977E-03-4.25311E-14-8.78306E-14
 -1      2504 1.99995E+01-1.49918E-03-1.22774E-05-1.91476E-03 2.28294E-14-4.05515E-13
 -1      2505 1.99998E+01-1.82355E-03-3.66033E-06-2.24351E-03-1.51350E-13-3.78696E-14
 -1      2506 2.00005E+01-3.32037E-03 1.13741E-05-1.11072E-03 2.12685E-13 1.99593E-13
 -1      2507 2.00004E+01-3.12739E-03 3.63719E-06-1.35372E-03 1.44881E-13 2.64177E-13
 -1      2508 2.00006E+01-2.76580E-03-6.31220E-06-1.66374E-03 2.66591E-13 4.73510E-13
 -1      2509 2.00006E+01-3.54657E-03 1.11253E-05-5.07363E-04-1.41456E-13-1.14791E-13
 -1      2510 2.00006E+01-3.44426E-03 7.14108E-06-7.98079E-04-3.48923E-14 1.24543E-14
 -1      2511 2.00008E+01-3.07235E-03-7.83796E-06-1.07497E-03 7.02558E-14-4.31381E-14
 -1      2512 2.00006E+01-3.59197E-03 9.87485E-06 1.48330E-04-1.28627E-13-5.00823E-14
 -1      2513 2.00006E+01-3.59073E-03 9.59074E-06-1.58940E-04-2.43559E-13 1.80909E-13
 -1      2514 2.00009E+01-3.23413E-03-8.37946E-06-3.75769E-04-2.11104E-13 1.42751E-14
 -1      2515 2.00006E+01-3.45312E-03 7.64135E-06 7.90444E-04 1.06058E-13-7.45768E-15
 -1      2516 2.00006E+01-3.55353E-03 1.09058E-05 4.98010E-04 7.68005E-14-4.66204E-14
 -1      2517 2.00009E+01-3.23960E-03-8.41550E-06 3.62221E-04 1.24095E-14 7.59155E-14
 -1      2518 2.00004E+01-3.14850E-03 4.01084E-06 1.34424E-03-1.06337E-13-2.94549E-13
 -1      2519 2.00005E+01-3.33640E-03 1.13782E-05 1.10176E-03 2.33207E-14-1.53581E-13
 -1      2520 2.00008E+01-3.08967E-03-7.98773E-06 1.06113E-03 1.70312E-13-6.90618E-14
 -1      2521 2.00002E+01-2.69225E-03-3.56256E-07 1.76299E-03 4.86350E-14-1.23595E-14
 -1      2522 2.00003E+01-2.95607E-03 1.10471E-05 1.59339E-03-4.05861E-14-2.95419E-13
 -1      2523 2.00006E+01-2.79300E-03-6.84049E-06 1.65519E-03 1.98116E-13-2.88882E-13
 -1      2524 1.99999E+01-2.12519E-03-3.13662E-06 1.97217E-03-1.40019E-13-2.49622E-14
 -1      2525 2.00001E+01-2.43867E-03 9.39485E-06 1.91152E-03-9.52024E-14 1.35758E-13
 -1      2526 2.00002E+01-2.36635E-03-4.92106E-06 2.07758E-03 1.55644E-13-1.95173E-13
 -1      2527 1.99995E+01-1.55059E-03-6.39263E-06 1.93593E-03-1.65556E-13-3.55824E-13
 -1      2528 1.99997E+01-1.88079E-03 6.65093E-06 2.00216E-03-1.47041E-13-2.90031E-13
 -1      2529 1.99998E+01-1.88738E-03-5.39575E-06 2.25909E-03-1.22177E-13-1.89118E-13
 -1      2530 1.99994E+01-1.40423E-03-7.97417E-06 2.21061E-03-2.30518E-13-3.00168E-13
 -1      2531 5.36284E+00-4.02478E+00 3.71561E-02-3.89005E+00 2.67397E-13 5.49061E-13
 -1      2532 8.28220E+00-4.70767E+00 1.11130E-02-5.52606E+00 1.48548E-13 2.23210E-13
 -1      2533 2.14803E+01 2.25559E+00-8.54085E-03-7.75839E-01-2.56952E-13 4.00339E-14
 -1      2534 2.15947E+01 1.57869E+00 1.49889E-03-2.23509E-02-2.21573E-13 4.66990E-14
 -1      2535 2.10363E+01 1.91010E+00 2.20157E-03 1.74333E-01-2.01987E-13-1.12291E-14
 -1      2536 2.07906E+01 2.80294E+00-7.81074E-04-6.99413E-01-2.48981E-13-3.53606E-14
 -1      2537 3.05576E+01-8.53911E-01-1.21958E-01 1.83908E+00 3.18235E-13-1.72029E-13
 -1      2538 2.84921E+01-2.46368E+00-2.97889E-02 3.11778E+00 2.18117E-13 2.15383E-14
 -1      2539 2.76849E+01-3.58229E+00 5.04784E-02 2.97489E+00-2.44110E-14-1.80106E-13
 -1      2540 2.84440E+00-2.94047E+00 8.50427E-02-2.40721E-01 5.42830E-14 8.94174E-13
 -1      2541 3.50633E+00-3.34157E+00 6.32850E-02-2.13863E+00 1.32352E-13 8.29059E-13
 -1      2542 5.75491E+00-3.28059E+00 5.74803E-02 4.13928E+00 9.93650E-15-7.80154E-13
 -1      2543 3.69701E+00-2.70217E+00 9.71427E-02 1.63487E+00 1.73819E-14-7.64555E-13
 -1      2544 3.21820E+01 3.53038E+00-1.71654E-01-6.50453E-01 5.30576E-13-2.88852E-13
 -1      2545 3.15814E+01 1.47337E+00-6.19571E-02 1.85385E-01 4.03136E-13-2.41696E-13
 -1      2546 1.78908E+01 4.15018E+00-9.34713E-04-6.38814E-01-4.36848E-14-2.65355E-13
 -1      2547 1.78172E+01 4.19510E+00-1.16623E-02-6.80927E-01-7.00824E-14-2.70390E-13
 -1      2548 1.78483E+01 3.97164E+00 5.11735E-03-6.99440E-01-7.72164E-14-2.53380E-13
 -1      2549 1.80168E+01 3.79320E+00 8.23622E-04-7.11718E-01-4.48135E-14-2.39383E-13
 -1      2550 3.35542E+01 7.57270E+00-8.58378E-02-4.45121E-01 6.48648E-13-7.86315E-14
 -1      2551 3.24611E+01 6.17919E+00-1.33188E-01-7.49104E-01 5.78815E-13-1.73861E-13
 -1      2552 3.09507E+01-2.40278E-01-3.76789E-02-1.48561E+00 3.04218E-13 5.32907E-15
 -1      2553 3.19517E+01 1.57661E+00-1.63254E-01-2.43501E-01 3.36647E-13 4.32432E-14
 -1      2554 3.32387E+01 7.83043E+00-1.64387E-01 3.18135E-01 6.52367E-13-8.90954E-15
 -1      2555 3.37424E+01 8.12003E+00-1.01472E-01-4.86165E-02 6.74349E-13-5.35787E-14
 -1      2556 2.96868E+01-4.52970E+00-7.05626E-02 2.47293E+00-2.57433E-13 3.25850E-14
 -1      2557 2.59765E+01-5.65606E+00-2.83715E-02 3.71232E+00-9.83658E-14-4.82114E-14
 -1      2558 2.67846E+01-3.42605E+00-3.29806E-02-4.18203E+00 1.89709E-13-9.49241E-15
 -1      2559 2.95563E+01-1.90795E+00-6.45565E-02-3.05922E+00 2.47316E-13-1.41553E-14
 -1      2560 2.98647E+01-1.69411E+00 3.93747E-02-1.23089E+00 1.30035E-13 1.39139E-13
 -1      2561 2.09042E+01-5.20351E+00 4.73801E-02-6.46431E+00-5.89806E-14-1.42955E-13
 -1      2562 2.42425E+01-4.52921E+00-1.35849E-02-5.82379E+00 8.31557E-14-9.46188E-14
 -1      2563 1.23625E+01-4.57475E+00 1.08130E-01-7.24464E+00-1.63397E-13-3.81362E-13
 -1      2564 1.66328E+01-5.05568E+00-4.51148E-03-7.60760E+00-1.24512E-13-2.65822E-13
 -1      2565 5.37278E+00-3.39810E+00 8.86785E-02-4.74399E+00-1.16823E-13-5.47007E-13
 -1      2566 7.98040E+00-3.61315E+00 4.84180E-02-6.49843E+00-9.97535E-14-4.94160E-13
 -1      2567 3.23728E+00-2.33533E+00 1.02858E-01-9.48488E-01-7.79168E-14-7.14317E-13
 -1      2568 3.79436E+00-2.78278E+00 7.93412E-02-3.20828E+00-5.15005E-14-6.38767E-13
 -1      2569 6.54971E+00-1.65060E+00 1.61790E-01-3.95796E+00-1.46827E-13-5.73597E-13
 -1      2570 1.27344E+01-4.59397E+00 5.68174E-02 6.54109E+00 9.84213E-14-4.94549E-13
 -1      2571 9.52383E+00-3.86498E+00 1.29060E-01 5.50313E+00 1.36113E-13-6.46566E-13
 -1      2572 2.03673E+01-6.20723E+00 2.18185E-02-5.42648E+00 1.63203E-14-1.50158E-13
 -1      2573 2.43904E+01-6.01190E+00-3.66994E-02-4.73579E+00-2.98650E-14-1.90903E-13
 -1      2574 2.18665E+01-6.07156E+00-4.98430E-02 5.75957E+00-2.74780E-14-1.94997E-13
 -1      2575 1.69720E+01-5.82255E+00 3.66321E-02 6.24397E+00 1.02807E-13-3.29910E-13
 -1      2576 3.34624E+01-1.27120E+00-1.01929E-01-1.11473E+00-3.85303E-13 1.23346E-13
 -1      2577 3.16212E+01-3.12484E+00-6.94213E-02 5.10881E-01-3.75519E-13 9.83102E-14
 -1      2578 3.03701E+01-4.16562E+00 1.37254E-02 4.18781E-01-1.56389E-13 2.32064E-13
 -1      2579 3.38376E+01 4.00284E+00-1.93373E-01-2.33105E+00-4.93050E-13 3.29459E-14
 -1      2580 3.31973E+01 2.08432E+00-1.15385E-01-2.44528E+00-4.55469E-13 1.01780E-13
 -1      2581 3.27220E+01-2.17891E+00-5.90057E-02 6.00736E-01-3.39784E-13-3.05256E-13
 -1      2582 3.39855E+01-4.80878E-01-8.01162E-02 1.68720E+00-3.87537E-13-3.01426E-13
 -1      2583 2.74460E+01-5.25131E+00-5.70899E-02-2.81354E+00-1.09662E-13-2.41029E-13
 -1      2584 3.10417E+01-3.84036E+00-4.84833E-02-1.40426E+00-2.37144E-13-3.33122E-13
 -1      2585 3.12486E+01-3.56803E+00-6.25756E-03 4.51834E-01-1.67644E-13-3.99236E-13
 -1      2586 2.66781E+01-5.83489E+00-3.50375E-02-2.94875E+00 7.54119E-14-3.15498E-13
 -1      2587 1.19098E+01-5.56559E+00 1.54335E-02-6.03174E+00 4.93494E-14 6.80012E-14
 -1      2588 1.58318E+01-5.91548E+00-4.01462E-02-6.49047E+00 6.31162E-14-3.61933E-14
 -1      2589 1.13331E+01-4.53491E+00 6.06219E-02 7.49876E+00-1.76137E-13 5.95857E-13
 -1      2590 8.35235E+00-3.98532E+00 1.07938E-01 6.49560E+00-2.12858E-13 7.07240E-13
 -1      2591 1.99992E+01-1.14328E-03 5.61964E-06-1.94129E-03-1.20134E-14-3.41375E-13
 -1      2592 3.25983E+01-6.57462E-01-1.37826E-01-2.44664E+00-3.07268E-13 2.30427E-13
 -1      2593 1.85936E+01 3.74173E+00 1.12038E-02-4.36425E-01-1.71505E-13-2.07612E-13
 -1      2594 1.87399E+01 3.90064E+00-2.01258E-02-5.58349E-01-1.83790E-13-2.26581E-13
 -1      2595 1.91860E+01 3.71150E+00-1.80292E-02-6.15529E-01-2.12137E-13-1.87625E-13
 -1      2596 3.02572E+01-2.05430E-01-9.67984E-03 1.41683E-01 2.85126E-13-3.59685E-13
 -1      2597 2.13891E+01 4.74488E-01 8.24067E-03 6.63169E-01 1.84968E-13 3.21324E-13
 -1      2598 2.13904E+01 6.97511E-01 6.81521E-03 8.06164E-01 2.06514E-13 2.55184E-13
 -1      2599 2.12395E+01 3.50058E-01 4.32245E-03 4.93273E-01 1.76151E-13 2.89576E-13
 -1      2600 2.20098E+01-5.22178E+00 6.10248E-02 6.05246E+00-2.36783E-13 1.50081E-13
 -1      2601 1.47157E+01-4.52117E+00 1.01858E-01 7.31466E+00-2.71005E-13 4.17999E-13
 -1      2602 3.33372E+01 2.21312E+00-1.44046E-01 2.82335E+00-4.40314E-13-2.53464E-13
 -1      2603 3.40793E+01 6.00759E+00-2.88947E-01 1.04899E-01-5.14366E-13-6.42889E-15
 -1      2604 2.94109E+01-3.60768E+00-1.21435E-03-8.69829E-01 6.21482E-14 3.17607E-13
 -1      2605 3.02937E+01-2.75180E+00-7.31441E-02-1.92063E+00-8.18998E-14 3.45626E-13
 -1      2606 3.37933E+01 5.73172E+00-1.32369E-01-9.05620E-01-5.70100E-13-6.05904E-14
 -1      2607 2.75888E+01-4.56456E+00-6.63853E-02-9.22923E-01 1.67078E-13-3.04506E-13
 -1      2608 1.17517E+01-4.24049E+00 1.23286E-01-5.78813E+00 3.03785E-13 7.10543E-14
 -1      2609 7.45119E+00-3.13566E+00 1.16368E-01 5.74792E+00-1.53405E-13 7.29666E-13
 -1      2610 6.93558E+00-1.78746E+00 2.20884E-01 4.66968E+00-1.16226E-13 5.86198E-13
 -1      2611 1.02951E+01-2.70120E+00 9.09974E-02 6.25361E+00-2.08583E-13 5.95662E-13
 -1      2612 4.97808E+00-1.43975E+00 1.20774E-01 2.50868E+00 2.47996E-14 7.04659E-13
 -1      2613 3.77035E+00-2.28837E+00 1.25250E-01 1.11784E+00-3.08781E-15 8.37164E-13
 -1      2614 5.16087E+00-1.10991E+00 1.66864E-01 1.20358E-01 1.67514E-13 6.98719E-13
 -1      2615 6.23617E+00-2.54390E+00 1.33325E-01-3.24873E+00 3.71966E-13 5.17031E-13
 -1      2616 2.01938E+01 3.12803E+00-6.13288E-03-6.07303E-01-2.37995E-13-9.85410E-14
 -1      2617 2.11077E+01 1.62314E-01 3.48831E-03 3.19375E-01 1.47557E-13 2.32266E-13
 -1      2618 2.11906E+01 2.63706E-01 1.04617E-02 4.06195E-01 1.58411E-13 2.54787E-13
 -1      2619 2.12234E+01 3.63753E-01-3.12069E-03 4.90404E-01 1.74576E-13 1.96234E-13
 -1      2620 2.11665E+01 1.35706E-01-7.27436E-03 3.49236E-01 1.48712E-13 1.52176E-13
 -1      2621 9.43936E+00-2.39185E+00 1.69745E-01 4.72765E+00 1.30035E-13-6.50952E-13
 -1      2622 1.99992E+01-1.19553E-03-1.75839E-07-2.26046E-03 2.44705E-13-1.75389E-13
 -1      2623 5.35706E+00-1.27607E+00 1.82782E-01 3.91786E-01-1.58207E-14-7.22200E-13
 -1      2624 2.50810E+01-5.82036E+00 6.93040E-02 3.94719E+00 1.17517E-13 4.46171E-14
 -1      2625 1.94180E+01-5.86486E+00 3.89781E-02-5.71829E+00 2.19907E-13-2.24321E-13
 -1      2626 1.19134E+01-3.35752E+00 1.44733E-01-6.81086E+00-2.48246E-13-3.74839E-13
 -1      2627 2.63913E+01-4.37651E+00 4.49788E-02-4.04217E+00-5.37348E-14 8.36275E-14
 -1      2628 3.22621E+01 7.03761E+00-8.32171E-02 8.16449E-01 5.88585E-13 1.09801E-13
 -1      2629 2.99098E+01 7.14992E+00-1.39764E-01 8.20470E-01 5.33656E-13 7.29833E-14
 -1      2630 3.03548E+01 5.95197E+00-1.58042E-01 1.26401E+00 5.17225E-13 1.96870E-13
 -1      2631 3.11884E+01 4.60739E+00-1.06325E-01-1.26998E+00 4.62769E-13-2.69645E-13
 -1      2632 2.94929E+01 3.05289E+00-7.46704E-02-1.65565E+00 3.99916E-13-3.50525E-13
 -1      2633 2.92008E+01 5.31985E+00-1.89335E-01-1.71786E+00 4.24605E-13-2.15994E-13
 -1      2634 3.19110E+01 2.78704E+00-4.15006E-02 6.32839E-01 3.73701E-13 1.43330E-13
 -1      2635 3.05369E+01 3.68626E+00-2.26760E-01 1.55267E+00 3.99014E-13 2.76917E-13
 -1      2636 3.02922E+01 1.10357E+00-2.93408E-02 8.72894E-01 2.31579E-13 2.64899E-13
 -1      2637 3.09295E+01 7.54938E+00-8.88892E-02-4.92893E-01 6.02851E-13-1.20057E-13
 -1      2638 1.99658E+01-5.08814E+00 9.30570E-02-6.57626E+00-2.35506E-13-9.41781E-14
 -1      2639 1.69038E+01-4.60908E+00 1.24461E-01 6.00530E+00 2.27734E-13-2.90823E-13
 -1      2640 2.77517E+01-4.58234E+00-3.05322E-02 1.05574E+00 1.12646E-13 2.68008E-13
 -1      2641 1.92442E+01 2.72826E+00 2.15251E-03-3.86048E-01 5.88416E-14-1.77115E-13
 -1      2642 1.89404E+01 2.87322E+00-8.57117E-03-5.51603E-01 3.49336E-14-1.88806E-13
 -1      2643 1.86421E+01 3.09016E+00 5.06345E-03-6.84739E-01 1.42889E-14-2.01876E-13
 -1      2644 1.83524E+01 3.22413E+00-1.15192E-02-7.89467E-01-1.55418E-14-2.05990E-13
 -1      2645 1.89057E+01 2.59382E+00-2.80968E-03-7.79562E-01 1.59526E-14-1.77369E-13
 -1      2646 2.03557E+01 2.02689E+00-9.08234E-03 4.27990E-01 1.73544E-13-7.94208E-14
 -1      2647 2.01006E+01 2.20311E+00-4.08061E-03 2.22166E-01 1.47806E-13-1.14022E-13
 -1      2648 2.08220E+01 1.62445E+00-1.82385E-02 7.78788E-01 2.05272E-13-2.66384E-14
 -1      2649 2.06028E+01 1.85550E+00-1.27101E-03 6.09169E-01 1.79816E-13-4.80328E-14
 -1      2650 2.06418E+01 1.51621E+00 2.44552E-03 3.55167E-01 1.60566E-13-5.16282E-14
 -1      2651 2.13819E+01 8.44770E-01 1.70850E-03 8.78368E-01 2.12864E-13 1.80053E-13
 -1      2652 2.12765E+01 1.08204E+00-9.01330E-03 9.57596E-01 2.16484E-13 1.18090E-13
 -1      2653 2.12775E+01 6.45930E-01 3.62951E-03 6.61108E-01 1.98879E-13 1.65354E-13
 -1      2654 2.93167E+01 2.08160E-01-1.66687E-01-9.44004E-01 2.41390E-13-4.77077E-13
 -1      2655 2.90087E+01-1.71518E+00-3.12395E-02 3.20124E-01 1.21916E-13-4.12725E-13
 -1      2656 1.71466E+01-4.57794E+00 1.66804E-02 7.07704E+00-3.50858E-13 2.10762E-13
 -1      2657 1.41703E+01-3.58979E+00 1.30229E-01 6.88289E+00-3.36592E-13 3.78655E-13
 -1      2658 2.01583E+01 1.53531E+00-3.41864E-03 1.56937E+00-7.17232E-14-3.23867E-14
 -1      2659 2.01269E+01 1.38699E+00 6.67669E-03 1.94151E+00-3.70337E-14-3.56531E-14
 -1      2660 1.98760E+01 1.19830E+00-1.25680E-03 2.33352E+00-1.70390E-14-5.04182E-14
 -1      2661 1.99438E+01 9.39122E-01 1.68960E-02 2.65568E+00 1.11436E-14-4.98974E-14
 -1      2662 1.90978E+01 1.62096E+00 9.22568E-03 2.02855E+00-4.04304E-14-7.68643E-14
 -1      2663 1.97321E+01 5.64140E-01 7.65252E-03 3.06720E+00 6.88028E-14-3.67323E-14
 -1      2664 2.00191E+01 4.52037E-02 3.56117E-02 3.31508E+00 9.83146E-14-3.18825E-14
 -1      2665 1.85961E+01 1.03674E+00 4.50613E-03 2.83104E+00 4.58067E-14-1.09992E-13
 -1      2666 2.00401E+01-6.71043E-01 4.66886E-02 3.76712E+00 1.38096E-13-6.54338E-15
 -1      2667 2.07653E+01-1.62765E+00 6.84419E-02 3.86150E+00 1.80619E-13 4.20098E-14
 -1      2668 1.82760E+01-1.09319E-01-3.51723E-04 3.73693E+00 1.43522E-13-7.44751E-14
 -1      2669 1.11577E+01-1.86458E+00 1.74673E-01-5.85488E+00-2.55240E-13-3.59643E-13
 -1      2670 1.45079E+01-3.17686E+00-3.22334E-03-6.82148E+00-2.91767E-13-2.40669E-13
 -1      2671 3.26377E+01 1.71539E+00 6.76465E-03 3.26227E+00-3.33428E-13-4.22690E-13
 -1      2672 3.17889E+01-9.71071E-01-1.54651E-01 3.09687E+00-2.46261E-13-4.68126E-13
 -1      2673 1.18272E+01-1.72967E+00 1.16163E-01 4.90193E+00 2.16091E-13-4.85501E-13
 -1      2674 8.79325E+00-9.07845E-01 1.92160E-01 3.51140E+00 1.06658E-13-6.37101E-13
 -1      2675 2.06355E+01-1.55905E+00 6.20894E-02-3.71837E+00 2.89137E-13-2.27308E-13
 -1      2676 1.99438E+01-6.71300E-01 3.80495E-02-3.64413E+00 1.53862E-13-2.65822E-13
 -1      2677 1.99408E+01-2.83805E-02 3.47286E-02-3.25512E+00 9.25345E-14-2.96037E-13
 -1      2678 1.96404E+01 4.10861E-01 3.12778E-03-3.06608E+00 8.21634E-14-2.68458E-13
 -1      2679 1.81685E+01-1.93647E-01 3.39578E-04-3.65177E+00 1.28385E-13-2.24421E-13
 -1      2680 1.98371E+01 6.96867E-01 1.78407E-02-2.73981E+00 5.43953E-14-1.87115E-13
 -1      2681 1.97176E+01 8.51164E-01-8.22968E-03-2.51915E+00 7.71410E-16-2.10797E-13
 -1      2682 1.84725E+01 7.67717E-01 8.30836E-03-2.89631E+00 1.17573E-13-2.78836E-13
 -1      2683 1.99498E+01 9.30082E-01 1.00300E-02-2.24470E+00-8.01659E-15-9.92735E-14
 -1      2684 1.98961E+01 9.33626E-01-9.87019E-03-2.01774E+00-4.62244E-14-1.51305E-13
 -1      2685 1.89266E+01 1.10509E+00 1.13471E-02-2.30880E+00 4.69523E-14-8.35134E-14
 -1      2686 2.00832E+01 9.06460E-01 6.95249E-03-1.80597E+00 4.60857E-14-1.53181E-13
 -1      2687 2.00429E+01 8.47309E-01-8.43032E-03-1.61073E+00 8.33697E-14-7.07744E-14
 -1      2688 1.93315E+01 1.11257E+00 1.01803E-02-1.84841E+00 1.64619E-14 5.66435E-14
 -1      2689 2.01775E+01 7.84119E-01 5.68240E-03-1.43665E+00 5.01990E-14-1.98583E-14
 -1      2690 2.01348E+01 7.07766E-01-6.77180E-03-1.26946E+00 2.30757E-14 3.65000E-14
 -1      2691 1.96281E+01 9.81547E-01 8.16900E-03-1.48211E+00 5.32489E-14-8.01630E-14
 -1      2692 2.02241E+01 6.38292E-01 4.88554E-03-1.12647E+00-7.37703E-14 1.17708E-13
 -1      2693 2.01784E+01 5.64946E-01-5.14810E-03-9.88418E-01-6.55023E-14 1.47999E-13
 -1      2694 1.98282E+01 8.10938E-01 5.89151E-03-1.17806E+00 5.31890E-14 1.27755E-13
 -1      2695 2.02333E+01 5.02002E-01 4.21286E-03-8.72095E-01-8.52798E-14 4.28335E-14
 -1      2696 2.01875E+01 4.39146E-01-3.79470E-03-7.61001E-01-1.94896E-13-1.13041E-14
 -1      2697 1.99517E+01 6.45098E-01 3.91892E-03-9.26285E-01-1.91076E-13 1.44850E-13
 -1      2698 2.02184E+01 3.86803E-01 3.57064E-03-6.67499E-01-2.07833E-13-5.58478E-14
 -1      2699 2.01758E+01 3.35927E-01-2.73779E-03-5.79749E-01-1.86252E-13-9.05791E-14
 -1      2700 2.00209E+01 5.01524E-01 2.42341E-03-7.20097E-01-2.81541E-13 1.09075E-14
 -1      2701 2.01911E+01 2.94281E-01 2.96355E-03-5.05470E-01-1.27007E-13-1.73904E-13
 -1      2702 2.01534E+01 2.54360E-01-1.94620E-03-4.37100E-01 3.31144E-14-1.38445E-13
 -1      2703 2.00544E+01 3.84304E-01 1.38347E-03-5.53463E-01-1.58173E-13-6.47240E-14
 -1      2704 2.01593E+01 2.22010E-01 2.41276E-03-3.78727E-01 8.55975E-14-2.45295E-13
 -1      2705 2.01274E+01 1.91222E-01-1.36939E-03-3.26015E-01 1.04510E-13-2.52500E-13
 -1      2706 2.00660E+01 2.91651E-01 7.05300E-04-4.20522E-01-3.13631E-14-1.99259E-13
 -1      2707 2.01279E+01 1.66418E-01 1.93207E-03-2.80598E-01 6.19328E-14-3.02336E-13
 -1      2708 2.01017E+01 1.42899E-01-9.56759E-04-2.40318E-01-1.22254E-14-2.07716E-13
 -1      2709 2.00653E+01 2.19749E-01 2.87727E-04-3.15715E-01 2.70075E-14-2.60019E-13
 -1      2710 2.00995E+01 1.24013E-01 1.52525E-03-2.05319E-01-8.71908E-14-2.71750E-13
 -1      2711 2.00786E+01 1.06143E-01-6.65015E-04-1.74792E-01-2.47693E-14-4.28795E-13
 -1      2712 2.00585E+01 1.64533E-01 4.63187E-05-2.33992E-01-7.55206E-14-4.03255E-13
 -1      2713 2.00753E+01 9.18205E-02 1.18895E-03-1.48082E-01 1.58130E-13-2.14973E-13
 -1      2714 2.00590E+01 7.82914E-02-4.60121E-04-1.25142E-01 3.01100E-13-1.66408E-13
 -1      2715 2.00492E+01 1.22389E-01-8.16674E-05-1.70942E-01 2.04298E-13-2.78268E-13
 -1      2716 2.00555E+01 6.74611E-02 9.15926E-04-1.04966E-01 1.96197E-13-2.48303E-13
 -1      2717 2.00430E+01 5.72512E-02-3.16612E-04-8.78899E-02 1.43525E-13-2.46466E-13
 -1      2718 2.00396E+01 9.03548E-02-1.39785E-04-1.22814E-01 2.23472E-13-5.35816E-13
 -1      2719 2.00397E+01 4.90871E-02 6.97442E-04-7.28211E-02-2.94475E-15-1.73624E-13
 -1      2720 2.00304E+01 4.14116E-02-2.16537E-04-6.02462E-02-3.64411E-14-3.02434E-13
 -1      2721 2.00307E+01 6.60934E-02-1.56815E-04-8.64875E-02 1.01778E-13-5.45812E-13
 -1      2722 2.00276E+01 3.52891E-02 5.25859E-04-4.91360E-02-1.97593E-14-3.34445E-13
 -1      2723 2.00207E+01 2.95191E-02-1.61488E-04-3.99837E-02-1.55811E-13-3.73837E-13
 -1      2724 2.00231E+01 4.77956E-02-1.50390E-04-5.94042E-02-4.73769E-14-4.20753E-13
 -1      2725 2.00183E+01 2.47266E-02 3.86553E-04-3.15443E-02-1.66448E-13-1.63813E-13
 -1      2726 2.00132E+01 2.03116E-02-1.08786E-04-2.47565E-02-3.50120E-14-2.83649E-13
 -1      2727 2.00168E+01 3.38568E-02-1.09208E-04-3.91121E-02-9.65161E-14-3.31095E-13
 -1      2728 2.00115E+01 1.70147E-02 2.83264E-04-1.91119E-02 7.85542E-14-2.99998E-13
 -1      2729 2.00081E+01 1.39208E-02-6.30411E-05-1.45968E-02 1.23103E-13-2.17618E-13
 -1      2730 2.00118E+01 2.34076E-02-1.14786E-04-2.44761E-02-2.89780E-15-2.94966E-13
 -1      2731 2.00068E+01 1.14839E-02 2.00943E-04-1.06472E-02 1.07047E-13-1.56882E-13
 -1      2732 2.00045E+01 9.24611E-03-3.87774E-05-7.55789E-03 1.75826E-14-7.86645E-14
 -1      2733 2.00080E+01 1.59878E-02-9.41116E-05-1.44218E-02 1.59601E-13-1.98273E-13
 -1      2734 2.00035E+01 7.48570E-03 1.41035E-04-4.87566E-03 1.15526E-13 5.72280E-15
 -1      2735 2.00021E+01 5.88723E-03-2.27990E-05-2.82649E-03 2.05479E-13 2.02333E-13
 -1      2736 2.00053E+01 1.05803E-02-7.49653E-05-7.45284E-03 1.90905E-13 3.34930E-14
 -1      2737 2.00013E+01 4.63814E-03 9.64197E-05-1.06975E-03-1.31409E-13 2.91274E-13
 -1      2738 2.00004E+01 3.51846E-03-1.19666E-05 2.30703E-04-3.31043E-13 2.42640E-13
 -1      2739 2.00033E+01 6.70105E-03-5.83492E-05-2.76373E-03 7.98596E-14 6.86573E-14
 -1      2740 1.99999E+01 2.65071E-03 6.36141E-05 1.32405E-03-3.00908E-13 1.98901E-13
 -1      2741 1.99995E+01 1.88509E-03-4.86517E-06 2.09582E-03-2.74032E-13 1.34970E-13
 -1      2742 2.00018E+01 3.96997E-03-4.44237E-05 2.68581E-04-3.12563E-13 1.53245E-13
 -1      2743 1.99991E+01 1.29744E-03 3.99360E-05 2.72337E-03-3.91148E-13 2.34413E-13
 -1      2744 1.99989E+01 7.88727E-04-4.47432E-07 3.12989E-03-3.46961E-13-2.44645E-16
 -1      2745 2.00008E+01 2.09056E-03-3.30782E-05 2.11908E-03-3.40991E-13 1.50990E-13
 -1      2746 1.99987E+01 4.01987E-04 2.32517E-05 3.43795E-03-1.03137E-13-7.03619E-14
 -1      2747 1.99987E+01 7.41867E-05 2.01195E-06 3.59805E-03 3.44729E-14-5.29284E-14
 -1      2748 2.00002E+01 8.31204E-04-2.40432E-05 3.14420E-03-2.21147E-13 2.68865E-13
 -1      2749 1.99986E+01-1.73933E-04 1.18816E-05 3.69234E-03 1.09251E-13 1.11903E-13
 -1      2750 1.99987E+01-3.80764E-04 3.01005E-06 3.68974E-03 2.39989E-13 1.19073E-13
 -1      2751 1.99998E+01 1.04030E-05-1.70129E-05 3.60598E-03 1.90291E-13 2.11699E-13
 -1      2752 1.99986E+01-5.39879E-04 4.54547E-06 3.64382E-03 1.65199E-13-5.99128E-15
 -1      2753 1.99987E+01-6.73532E-04 2.98189E-06 3.53454E-03 7.44860E-14-1.09171E-13
 -1      2754 1.99996E+01-5.15123E-04-1.17087E-05 3.69171E-03 1.04532E-13-6.89464E-15
 -1      2755 1.99987E+01-7.83506E-04 3.06201E-07 3.39671E-03 8.02103E-14-1.35176E-13
 -1      2756 1.99989E+01-8.82852E-04 1.88847E-06 3.21548E-03 1.91557E-13 1.03278E-14
 -1      2757 1.99995E+01-8.59185E-04-7.77056E-06 3.52912E-03 1.39604E-13-8.11389E-14
 -1      2758 1.99989E+01-9.76207E-04-1.97095E-06 3.01304E-03 1.49625E-13-2.55114E-14
 -1      2759 1.99991E+01-1.06976E-03-8.22171E-07 2.77897E-03 7.23015E-15-6.83546E-14
 -1      2760 1.99994E+01-1.11465E-03-5.35845E-06 3.20144E-03 1.64587E-13-6.70790E-15
 -1      2761 1.99991E+01-1.16079E-03-6.09949E-06 2.61764E-03-7.01835E-15-1.13376E-14
 -1      2762 1.99993E+01-1.29202E-03-3.01240E-06 2.39042E-03-7.41710E-14-1.83695E-13
 -1      2763 1.99996E+01-1.52645E-03 6.45608E-06 2.46547E-03-1.24340E-13-3.03641E-13
 -1      2764 1.99995E+01-1.32026E-03-1.31706E-06 2.82668E-03 1.19024E-14-3.78104E-13
 -1      2765 2.13394E+01-4.57431E-01-8.22785E-03 4.21004E-01 1.41111E-13 1.26166E-13
 -1      2766 2.13622E+01-3.40427E-01 9.94868E-03 3.33914E-01 1.78783E-13 1.29197E-13
 -1      2767 2.14027E+01-5.51886E-01-6.08769E-03 6.93967E-01 7.72295E-14 1.20967E-13
 -1      2768 2.14374E+01-5.24928E-01 5.33711E-03 5.58907E-01 8.34672E-14 1.33880E-13
 -1      2769 2.16227E+01-5.91571E-01-1.27463E-03 4.58497E-01 1.12206E-13 1.06218E-13
 -1      2770 2.12576E+01-2.01014E-01-8.27819E-03 2.77824E-01 1.50051E-13 9.03184E-14
 -1      2771 2.12894E+01-2.04824E-02 1.20815E-02 2.74266E-01 1.30523E-13 9.34781E-14
 -1      2772 2.14375E+01-3.17023E-01-4.83787E-03 2.70781E-01 1.37793E-13 8.39614E-14
 -1      2773 2.12679E+01-7.42408E-02 6.65640E-03 1.20579E+00 4.36865E-14 1.26453E-13
 -1      2774 2.13635E+01-2.85472E-01-7.28651E-03 1.14616E+00 4.00068E-14 1.67285E-13
 -1      2775 2.10339E+01 4.57432E-01 1.33368E-02 1.15861E+00 1.43226E-14 6.99343E-14
 -1      2776 2.11437E+01 1.72343E-01-1.21653E-02 1.23184E+00 1.17478E-14 9.70247E-14
 -1      2777 2.17010E+01 6.44522E-02 8.55110E-03 1.32177E+00 3.57029E-14 1.46811E-13
 -1      2778 2.07727E+01 9.81646E-01 1.44132E-02 7.70820E-01 4.12591E-14 1.05190E-13
 -1      2779 2.08609E+01 7.28690E-01-1.12931E-02 9.97584E-01 1.75030E-14 6.09569E-14
 -1      2780 2.14449E+01 7.30262E-01 2.82552E-03 1.20223E+00 2.20433E-14 4.24459E-14
 -1      2781 2.06145E+01 1.26410E+00 7.54226E-03 9.73374E-02 6.05527E-14 1.44339E-13
 -1      2782 2.06445E+01 1.16291E+00-3.46813E-03 4.29607E-01 5.05835E-14 1.00314E-13
 -1      2783 2.11746E+01 1.31410E+00-6.07622E-03 6.85906E-01 3.18749E-14 6.04382E-14
 -1      2784 2.06572E+01 1.15905E+00-3.23388E-03-6.48564E-01 8.92994E-14 1.75402E-13
 -1      2785 2.06139E+01 1.26258E+00 7.38388E-03-3.17958E-01 8.45960E-14 1.18218E-13
 -1      2786 2.10579E+01 1.54701E+00-9.81571E-03-1.13052E-01 6.71185E-14 8.70846E-14
 -1      2787 2.08803E+01 7.20791E-01-1.13274E-02-1.20881E+00 1.31130E-13 9.00761E-14
 -1      2788 2.07812E+01 9.75979E-01 1.39621E-02-9.85799E-01 1.18983E-13 1.79298E-13
 -1      2789 2.11709E+01 1.30779E+00-5.32667E-03-9.06360E-01 1.24004E-13 9.79754E-14
 -1      2790 2.11632E+01 1.55005E-01-1.26527E-02-1.42898E+00 9.65803E-14 7.89455E-14
 -1      2791 2.10469E+01 4.45634E-01 1.28129E-02-1.36328E+00 1.44149E-13 7.49783E-14
 -1      2792 2.14310E+01 7.15846E-01 3.50782E-03-1.41109E+00 1.65793E-13 1.27171E-13
 -1      2793 2.13719E+01-3.22576E-01-8.66865E-03-1.31815E+00 1.12214E-13-1.05753E-14
 -1      2794 2.12768E+01-9.92404E-02 6.01247E-03-1.39137E+00 8.27610E-14-4.37259E-16
 -1      2795 2.16703E+01 3.42531E-02 9.20586E-03-1.50989E+00 1.21826E-13 1.45862E-13
 -1      2796 2.14389E+01-5.98197E-01-3.01780E-03-9.95991E-01 1.18756E-13-3.32748E-14
 -1      2797 2.13870E+01-4.85519E-01-1.36289E-03-1.15204E+00 1.37205E-13-2.36910E-14
 -1      2798 2.17618E+01-4.98003E-01 8.69259E-03-1.27530E+00 1.36985E-13 4.28781E-14
 -1      2799 2.13711E+01-6.69303E-01 1.64821E-03-6.02736E-01-3.79361E-14 7.49901E-14
 -1      2800 2.13645E+01-6.56815E-01-6.01091E-03-7.82740E-01 3.37355E-14-4.37129E-15
 -1      2801 2.16802E+01-7.72925E-01 5.00555E-03-8.69355E-01 5.37217E-14 1.15983E-13
 -1      2802 2.12159E+01-5.97916E-01 4.10239E-03-2.40305E-01-1.60008E-13 1.56740E-13
 -1      2803 2.12446E+01-6.49254E-01-7.45513E-03-4.03300E-01-8.77974E-14 1.18876E-13
 -1      2804 2.14744E+01-8.11581E-01 8.90360E-04-4.41922E-01-9.17424E-14 1.72658E-13
 -1      2805 2.10244E+01-4.56889E-01 4.75953E-03 4.10550E-02-1.35895E-13 5.94796E-14
 -1      2806 2.10746E+01-5.35358E-01-6.77604E-03-8.48837E-02-1.42082E-13 1.35486E-13
 -1      2807 2.12150E+01-6.96603E-01-1.75266E-03-8.27840E-02-1.50575E-13 1.90221E-13
 -1      2808 2.08329E+01-3.01905E-01 4.30126E-03 2.29902E-01-6.48086E-14 3.44556E-14
 -1      2809 2.08928E+01-3.81664E-01-5.17720E-03 1.45491E-01-1.20756E-13 1.80539E-14
 -1      2810 2.09571E+01-5.14852E-01-2.90631E-03 1.75218E-01-9.94745E-14 5.38423E-15
 -1      2811 2.06612E+01-1.65391E-01 3.36977E-03 3.36259E-01 2.98681E-14 9.98487E-14
 -1      2812 2.07226E+01-2.32569E-01-3.43373E-03 2.88898E-01-6.94670E-15 1.04400E-13
 -1      2813 2.07311E+01-3.27792E-01-3.04013E-03 3.34118E-01-6.78333E-14 6.86254E-15
 -1      2814 2.05164E+01-6.07498E-02 2.37786E-03 3.78746E-01-1.10031E-13 2.98843E-13
 -1      2815 2.05746E+01-1.10490E-01-1.92057E-03 3.60205E-01-2.48825E-14 2.11426E-13
 -1      2816 2.05478E+01-1.68918E-01-2.65570E-03 4.11942E-01-9.61243E-14 1.08320E-13
 -1      2817 2.03989E+01 1.06836E-02 1.52431E-03 3.76926E-01-1.25349E-14 2.94460E-13
 -1      2818 2.04513E+01-2.21201E-02-7.66373E-04 3.78454E-01-4.85281E-14 2.80947E-13
 -1      2819 2.04061E+01-5.03749E-02-2.10958E-03 4.30854E-01-1.07480E-13 2.07892E-13
 -1      2820 2.03054E+01 5.36551E-02 8.75932E-04 3.47666E-01 5.18949E-14 2.29666E-13
 -1      2821 2.03511E+01 3.48080E-02 3.06219E-05 3.61631E-01 3.31244E-16 2.45020E-13
 -1      2822 2.02998E+01 2.85086E-02-1.59149E-03 4.11200E-01 4.77450E-14 1.93448E-13
 -1      2823 2.02319E+01 7.49828E-02 4.26558E-04 3.03952E-01-1.48476E-14 3.70689E-13
 -1      2824 2.02709E+01 6.64443E-02 5.27381E-04 3.24425E-01 6.40856E-14 2.79061E-13
 -1      2825 2.02212E+01 7.44326E-02-1.17177E-03 3.69267E-01 2.24356E-14 1.48761E-13
 -1      2826 2.01746E+01 8.13488E-02 1.40227E-04 2.54952E-01-3.88000E-14 3.91751E-13
 -1      2827 2.02071E+01 7.97458E-02 7.94290E-04 2.77731E-01 1.04487E-14 4.29235E-13
 -1      2828 2.01635E+01 9.58228E-02-8.59022E-04 3.16979E-01-3.63727E-14 2.80678E-13
 -1      2829 2.01301E+01 7.83204E-02-2.55525E-05 2.06619E-01-1.07319E-13 2.58930E-13
 -1      2830 2.01567E+01 8.09345E-02 8.97777E-04 2.28976E-01-3.96349E-14 3.39793E-13
 -1      2831 2.01210E+01 1.00566E-01-6.36352E-04 2.62422E-01 1.91322E-14 3.20814E-13
 -1      2832 2.00958E+01 7.00895E-02-1.08933E-04 1.62433E-01-2.55451E-13 2.91626E-13
 -1      2833 2.01172E+01 7.49234E-02 8.93428E-04 1.82782E-01-1.87622E-13 2.33673E-13
 -1      2834 2.00895E+01 9.50739E-02-4.80765E-04 2.10631E-01-9.72780E-14 2.67912E-13
 -1      2835 2.00695E+01 5.95708E-02-1.39979E-04 1.24107E-01-3.01490E-14 3.05869E-13
 -1      2836 2.00863E+01 6.52659E-02 8.24309E-04 1.41681E-01-1.56799E-13 3.07227E-13
 -1      2837 2.00661E+01 8.40961E-02-3.71629E-04 1.64383E-01-1.68951E-13 2.01787E-13
 -1      2838 2.00494E+01 4.86404E-02-1.40450E-04 9.21715E-02 3.99786E-14 1.64790E-13
 -1      2839 2.00625E+01 5.43432E-02 7.21756E-04 1.06748E-01 2.39589E-14 2.61022E-13
 -1      2840 2.00485E+01 7.08897E-02-2.93285E-04 1.24887E-01 1.39566E-14 1.28981E-13
 -1      2841 2.00343E+01 3.83998E-02-1.25075E-04 6.64252E-02 5.50032E-14 2.07118E-13
 -1      2842 2.00443E+01 4.36260E-02 6.07200E-04 7.81195E-02 1.31153E-13 2.15983E-13
 -1      2843 2.00352E+01 5.75213E-02-2.34978E-04 9.23294E-02 5.54511E-14 3.48821E-14
 -1      2844 2.00231E+01 2.94099E-02-1.03198E-04 4.62619E-02 9.38206E-14 4.75607E-15
 -1      2845 2.00305E+01 3.39281E-02 4.94311E-04 5.53712E-02 2.58333E-14 7.79519E-14
 -1      2846 2.00253E+01 4.51802E-02-1.89814E-04 6.62849E-02 1.13419E-13 1.03954E-13
 -1      2847 2.00149E+01 2.18779E-02-8.03223E-05 3.08912E-02 2.09808E-14 1.63110E-13
 -1      2848 2.00203E+01 2.56190E-02 3.91000E-04 3.77935E-02 7.28935E-14 1.15489E-13
 -1      2849 2.00178E+01 3.44500E-02-1.53574E-04 4.60044E-02 7.72492E-14 5.13673E-14
 -1      2850 2.00090E+01 1.57954E-02-5.93769E-05 1.94816E-02 1.23466E-13 3.02091E-13
 -1      2851 2.00128E+01 1.87869E-02 3.01140E-04 2.45697E-02 1.21638E-13 1.75541E-13
 -1      2852 2.00122E+01 2.55215E-02-1.23769E-04 3.06112E-02-1.68455E-14 2.27030E-13
 -1      2853 2.00049E+01 1.10351E-02-4.16613E-05 1.12445E-02 1.86061E-13 2.34328E-13
 -1      2854 2.00075E+01 1.33556E-02 2.25941E-04 1.48877E-02 1.29710E-13 2.30942E-13
 -1      2855 2.00081E+01 1.83494E-02-9.89443E-05 1.92234E-02 1.83340E-13 1.64687E-13
 -1      2856 2.00021E+01 7.41472E-03-2.75092E-05 5.47867E-03 8.08020E-14 3.12527E-13
 -1      2857 2.00038E+01 9.16457E-03 1.64969E-04 8.00295E-03 1.93970E-13 2.78616E-13
 -1      2858 2.00051E+01 1.27611E-02-7.82093E-05 1.10243E-02 1.40171E-13 3.97028E-13
 -1      2859 2.00002E+01 4.73675E-03-1.67322E-05 1.58870E-03 1.13797E-13 2.49824E-13
 -1      2860 2.00013E+01 6.01987E-03 1.16879E-04 3.26912E-03 1.06236E-13 2.95476E-13
 -1      2861 2.00030E+01 8.52750E-03-6.09633E-05 5.29863E-03 1.27631E-13 4.18861E-13
 -1      2862 1.99991E+01 2.81142E-03-8.90342E-06-9.13275E-04 1.26456E-13 2.79813E-13
 -1      2863 1.99997E+01 3.72528E-03 7.99096E-05 1.47192E-04 1.36749E-13 2.45275E-13
 -1      2864 2.00015E+01 5.40722E-03-4.67452E-05 1.44439E-03 1.30017E-13 3.33125E-13
 -1      2865 1.99985E+01 1.46835E-03-3.52797E-06-2.41461E-03 1.60117E-13 3.36551E-13
 -1      2866 1.99988E+01 2.09918E-03 5.22053E-05-1.79757E-03 8.48681E-14 3.13384E-13
 -1      2867 2.00005E+01 3.17162E-03-3.51607E-05-1.02819E-03 1.49075E-13 4.05144E-13
 -1      2868 1.99983E+01 5.60895E-04-1.34941E-07-3.21380E-03-9.83017E-15 4.30765E-13
 -1      2869 1.99983E+01 9.82176E-04 3.20083E-05-2.90526E-03 1.74343E-13 3.72184E-13
 -1      2870 1.99999E+01 1.61701E-03-2.58529E-05-2.50612E-03 1.36327E-13 4.58443E-13
 -1      2871 1.99983E+01-3.39996E-05 1.68179E-06-3.53342E-03 1.83384E-13 2.80327E-13
 -1      2872 1.99982E+01 2.39005E-04 1.77641E-05-3.43389E-03 2.17557E-14 3.43999E-13
 -1      2873 1.99995E+01 5.68884E-04-1.84931E-05-3.28643E-03 7.63768E-14 5.63182E-13
 -1      2874 1.99984E+01-4.18322E-04 2.20839E-06-3.53285E-03 8.94107E-14 3.67307E-13
 -1      2875 1.99982E+01-2.42961E-04 8.16302E-06-3.57224E-03 1.02204E-13 3.74208E-13
 -1      2876 1.99993E+01-1.18837E-04-1.27966E-05-3.58983E-03 5.76428E-14 4.05648E-13
 -1      2877 1.99986E+01-6.75691E-04 1.85339E-06-3.31946E-03 8.18938E-14 2.69168E-13
 -1      2878 1.99984E+01-5.56862E-04 2.09619E-06-3.45175E-03 1.65318E-13 3.75141E-13
 -1      2879 1.99992E+01-5.67227E-04-8.59974E-06-3.57381E-03 1.57287E-13 6.28893E-13
 -1      2880 1.99988E+01-8.75101E-04 6.60948E-07-2.95939E-03 1.76195E-13-8.30643E-14
 -1      2881 1.99986E+01-7.80529E-04-2.01581E-06-3.15856E-03 1.08359E-13-2.59595E-14
 -1      2882 1.99992E+01-8.73000E-04-5.16233E-06-3.34490E-03 2.52787E-13 1.37190E-13
 -1      2883 1.99991E+01-1.08875E-03-3.15072E-06-2.50385E-03 2.26651E-13-2.70367E-13
 -1      2884 1.99989E+01-9.85755E-04-4.40154E-06-2.75598E-03 2.22969E-13-1.02448E-13
 -1      2885 1.99993E+01-1.13078E-03-1.15661E-06-2.97837E-03 1.42250E-13-2.28749E-13
 -1      2886 1.99995E+01-1.39021E-03 4.16661E-06-2.51246E-03 1.12800E-13-3.20376E-13
 -1      2887 3.11033E+01-1.91264E+00 1.46897E-02-2.43486E+00-1.52781E-13 3.29570E-13
 -1      2888 2.00005E+01-2.24791E-03 9.77967E-06-2.18597E-03 3.18122E-13 6.09743E-13
 -1      2889 2.00003E+01-2.02635E-03-1.56672E-06-2.33333E-03 1.72553E-13 6.86348E-13
 -1      2890 2.00012E+01-2.83231E-03 8.19793E-06-9.96238E-04 7.29572E-16-3.09471E-13
 -1      2891 2.00011E+01-2.72617E-03 2.49290E-07-1.33369E-03 2.10036E-13-8.82831E-14
 -1      2892 2.00009E+01-2.59654E-03 9.25281E-06-1.67223E-03 2.45178E-13 2.42118E-13
 -1      2893 2.00007E+01-2.43208E-03-3.14522E-06-1.93221E-03 2.83930E-13 3.74049E-13
 -1      2894 2.00008E+01-2.13537E-03 9.16933E-07-2.22265E-03 1.75976E-13 6.16892E-13
 -1      2895 2.00012E+01-2.41859E-03-6.13828E-06-1.62201E-03 1.04319E-13 4.56373E-14
 -1      2896 2.00000E+01-1.85236E-03 6.35347E-06-2.45449E-03 2.99820E-14 3.16019E-13
 -1      2897 1.99998E+01-1.59286E-03-2.81625E-06-2.47660E-03 9.63242E-14-1.84079E-13
 -1      2898 1.99997E+01-1.44435E-03-4.40429E-06-2.73732E-03 1.34043E-13-2.36591E-13
 -1      2899 2.00003E+01-1.79806E-03-3.45367E-06-2.58842E-03 2.25361E-13 7.33882E-13
 -1      2900 2.00013E+01-2.93728E-03 6.34921E-06-2.20615E-04 6.70465E-15 5.74403E-14
 -1      2901 2.00013E+01-2.89900E-03 3.67388E-06-5.95876E-04-4.79204E-14-9.21544E-14
 -1      2902 2.00015E+01-2.59673E-03-5.19046E-06-8.57730E-04 1.50631E-13-2.32042E-13
 -1      2903 2.00013E+01-2.90806E-03 4.20007E-06 5.77059E-04 4.29102E-14 1.04963E-13
 -1      2904 2.00013E+01-2.94209E-03 5.91170E-06 2.00363E-04-2.14096E-14 1.56191E-13
 -1      2905 2.00016E+01-2.66210E-03-5.31334E-06-1.32097E-05 1.27131E-13 8.58575E-14
 -1      2906 2.00011E+01-2.74953E-03 1.40919E-06 1.31027E-03 2.59461E-14-1.80212E-13
 -1      2907 2.00012E+01-2.85113E-03 7.94235E-06 9.74443E-04 5.51332E-14 4.67625E-14
 -1      2908 2.00015E+01-2.61461E-03-5.35494E-06 8.28671E-04-6.28840E-14-4.47814E-14
 -1      2909 2.00007E+01-2.46272E-03-2.02414E-06 1.92943E-03 3.15218E-13-1.28970E-13
 -1      2910 2.00009E+01-2.62899E-03 9.68599E-06 1.65966E-03 1.74367E-13-1.71020E-13
 -1      2911 2.00013E+01-2.45353E-03-4.95310E-06 1.59823E-03-2.95252E-14-9.14101E-14
 -1      2912 2.00003E+01-2.06199E-03-2.98867E-06 2.34279E-03 2.12436E-13-2.18773E-13
 -1      2913 2.00005E+01-2.28061E-03 9.98652E-06 2.18379E-03 4.54995E-13-2.78587E-13
 -1      2914 2.00008E+01-2.17787E-03-4.40546E-06 2.22374E-03 2.48389E-13-1.92680E-15
 -1      2915 2.39361E+01-5.17195E+00-8.51366E-02 4.85237E+00-3.00884E-13-9.73735E-14
 -1      2916 2.06545E+01-4.97740E+00 1.18947E-01 6.07798E+00-3.84914E-13 9.97865E-14
 -1      2917 2.04079E+01 2.37312E+00-1.20848E-02-3.68441E-02-2.01569E-13-6.73823E-14
 -1      2918 2.04989E+01 2.06377E+00 4.29670E-03 4.19394E-01-1.75871E-13-4.84553E-14
 -1      2919 2.13928E+01-4.32110E-01-9.46290E-04 1.00076E+00 3.19113E-14 1.54269E-13
 -1      2920 2.14564E+01-5.21498E-01-5.50625E-04 8.70268E-01 6.52544E-14 1.47909E-13
 -1      2921 2.17735E+01-6.52502E-01 3.30343E-03 7.79646E-01 5.43185E-14 1.12186E-13
 -1      2922 2.18180E+01-4.35597E-01 8.06766E-03 1.12240E+00 3.69438E-14 1.32342E-13
 -1      2923 6.71149E+00-1.17631E+00 1.62759E-01-2.32562E+00 3.60427E-13 5.65076E-13
 -1      2924 8.50720E+00-1.91481E+00 1.31714E-01-4.18483E+00 4.32099E-13 2.58793E-13
 -1      2925 3.06469E+01-3.60609E+00-1.45735E-01-6.41770E-01-1.45306E-13 3.01453E-13
 -1      2926 2.24805E+01-4.00164E+00 7.10026E-02-3.86097E+00 3.92922E-13-3.08024E-13
 -1      2927 2.11932E+01-2.65279E+00 1.06985E-01-4.05730E+00 4.24223E-13-2.64698E-13
 -1      2928 1.84541E+01-2.09962E+00 1.98408E-03-4.56369E+00 3.96863E-13-1.43260E-13
 -1      2929 1.12777E+01-2.86668E+00 1.45557E-01-5.24569E+00 4.68833E-13 9.27036E-14
 -1      2930 1.44660E+01-3.83092E+00 8.94227E-02-5.89982E+00 3.58297E-13-2.20240E-14
 -1      2931 2.81353E+01-3.20247E+00-1.31513E-01 1.64432E+00 2.36755E-14-3.76199E-13
 -1      2932 2.67022E+01-4.10924E+00 4.84429E-02 2.92013E+00-1.53419E-13-2.50203E-13
 -1      2933 2.81431E+01-2.44189E+00-1.65000E-02 3.98095E-01-8.91301E-15-4.19567E-13
 -1      2934 2.03948E+01 1.84628E+00-1.67800E-03 7.78061E-01-1.41990E-13-3.42140E-14
 -1      2935 2.03290E+01 1.69359E+00 6.04532E-03 1.21273E+00-1.02029E-13-3.31341E-14
 -1      2936 1.95165E+01 1.96895E+00 8.31087E-03 1.28574E+00-9.19723E-14-6.03608E-14
 -1      2937 1.97760E+01 2.31815E+00-3.53199E-03 5.84398E-01-1.48984E-13-8.07812E-14
 -1      2938 1.96979E+01 3.22244E+00-1.14696E-03-3.63290E-01-2.10086E-13-1.29428E-13
 -1      2939 2.90134E+01 7.17100E+00-1.96300E-01-1.01884E-01 5.58525E-13-2.59762E-14
 -1      2940 2.87966E+01 6.69853E+00-1.89726E-01-9.04963E-01 5.74762E-13-1.05589E-13
 -1      2941 1.98294E+01 2.37751E+00-2.68402E-03 1.16654E-02 1.29617E-13-1.32277E-13
 -1      2942 1.95405E+01 2.53282E+00-5.90010E-03-1.92480E-01 9.21517E-14-1.53433E-13
 -1      2943 1.95556E+01 2.20532E+00-3.39153E-03-4.42232E-01 6.43145E-14-1.36862E-13
 -1      2944 2.01454E+01 1.85348E+00-1.35188E-03-3.22440E-02 1.10397E-13-1.00521E-13
 -1      2945 2.82137E+01-2.94323E+00-4.22903E-02-1.24354E+00-1.93448E-14 2.45054E-13
 -1      2946 2.89415E+01-1.52487E+00-1.38181E-01-3.79289E-02 7.53217E-14 2.84550E-13
 -1      2947 1.99770E+01-4.80351E+00-1.60318E-03 5.56570E+00 2.41696E-13-9.11632E-14
 -1      2948 1.61058E+01-3.31547E+00 1.08763E-01 5.67670E+00 2.56295E-13-2.54199E-13
 -1      2949 2.51267E+01-4.74513E+00 4.80518E-02-3.96665E+00-1.72466E-13 1.52531E-13
 -1      2950 2.70858E+01-4.04963E+00-8.58843E-02-2.66896E+00-7.13735E-14 2.04864E-13
 -1      2951 2.71155E+01-3.53734E+00-4.72365E-03-1.43585E+00-1.22923E-13 2.73670E-13
 -1      2952 7.76616E+00-4.71104E-01 1.58531E-01-3.39045E+00-1.52010E-13-4.73399E-13
 -1      2953 9.26810E+00-1.18201E+00 1.29607E-01-5.10074E+00-2.06418E-13-3.93408E-13
 -1      2954 1.23103E+01-9.89633E-01 1.51804E-01-5.15329E+00-2.45581E-13-3.27988E-13
 -1      2955 1.77828E+01 3.75420E+00-4.05372E-03-5.82138E-01-1.10702E-13-2.38759E-13
 -1      2956 1.79511E+01 3.69320E+00-9.07848E-03-4.95243E-01-1.34509E-13-2.24703E-13
 -1      2957 2.92224E+01-4.65613E+00 2.32334E-02 8.65184E-01-4.37983E-14 2.51396E-13
 -1      2958 1.88513E+01-4.35565E+00 1.52835E-01-6.45922E+00-2.99344E-13-8.88872E-14
 -1      2959 2.23225E+01-5.11713E+00-4.13170E-02-5.69696E+00-2.15716E-13 5.40106E-14
 -1      2960 2.38722E+01-4.61087E+00 4.16838E-02-4.17315E+00-2.18082E-13 1.20737E-13
 -1      2961 6.98553E+00-3.71623E-01 1.29532E-01 1.69375E+00 1.02349E-14-6.84147E-13
 -1      2962 6.55827E+00-8.19822E-02 1.45939E-01-9.82133E-01-4.76424E-14-6.52561E-13
 -1      2963 9.71093E+00 2.03604E-01 1.97568E-01 2.21159E+00 5.92443E-14-5.96190E-13
 -1      2964 1.82819E+01 2.99590E+00 7.29785E-04-9.55865E-01-2.84498E-14-1.95609E-13
 -1      2965 1.81043E+01 3.43468E+00 5.08045E-03-8.26039E-01-3.90459E-14-2.24730E-13
 -1      2966 1.78981E+01 3.53379E+00-1.31298E-02-8.51723E-01-5.88991E-14-2.35453E-13
 -1      2967 2.10961E+01 1.38122E+00 3.89511E-03 9.09769E-01 2.02463E-13 4.11390E-14
 -1      2968 2.89758E+01 1.46897E+00-7.24735E-02-1.63002E+00 2.91656E-13-4.69624E-13
 -1      2969 2.80082E+01 5.25600E-03-6.32295E-02-1.33023E+00 1.52711E-13-5.52808E-13
 -1      2970 2.77362E+01 2.53863E+00-1.35423E-01-2.10184E+00 2.22961E-13-4.18138E-13
 -1      2971 1.52834E+01-2.92581E+00 8.40813E-02 6.25667E+00-3.82680E-13 1.91652E-13
 -1      2972 1.29055E+01-2.82187E+00 1.43146E-01 6.56703E+00-3.06991E-13 4.32501E-13
 -1      2973 1.16809E+01-1.80720E+00 1.32080E-01 5.80351E+00-1.88710E-13 3.83249E-13
 -1      2974 1.76044E+01-3.19043E+00 1.25522E-01-6.03076E+00-2.87687E-13-1.57346E-13
 -1      2975 1.86056E+01-2.19284E+00 1.29609E-02 4.77894E+00 2.08417E-13-9.13991E-14
 -1      2976 2.13945E+01-2.84702E+00 1.08798E-01 4.24171E+00 2.18658E-13 5.82798E-14
 -1      2977 1.80181E+01 3.42734E+00 1.28943E-02-2.97900E-01-1.27684E-13-2.00195E-13
 -1      2978 1.82245E+01 3.57344E+00-1.23800E-02-3.13008E-01-1.40172E-13-2.12225E-13
 -1      2979 1.86294E+01 3.41769E+00 1.29252E-03-2.19907E-01-1.79082E-13-1.80753E-13
 -1      2980 2.28375E+01-4.09573E+00 9.16868E-02 3.98459E+00 2.37990E-13 8.23751E-14
 -1      2981 1.94116E+01 3.04371E+00-6.24098E-04-1.09012E-01-1.91358E-13-1.43313E-13
 -1      2982 1.14672E+01-1.64887E+00 1.82383E-01-4.43889E+00 4.46809E-13 1.41054E-13
 -1      2983 6.76375E+00-5.94824E-01 1.88146E-01-1.17346E+00 2.76067E-13 5.92193E-13
 -1      2984 8.78706E+00-1.18445E-01 1.66106E-01-2.01130E+00 3.67668E-13 3.69121E-13
 -1      2985 7.04216E+00-4.87702E-02 1.10594E-01 1.93005E-01 1.96686E-13 5.24719E-13
 -1      2986 2.67417E+01 5.65875E+00-1.27108E-01-1.11574E+00 3.89910E-13-1.67533E-13
 -1      2987 2.81414E+01 5.62909E+00-1.61405E-01-1.42988E+00 4.55469E-13-2.15335E-13
 -1      2988 2.72144E+01 4.44092E+00-1.02820E-01-1.78031E+00 3.01759E-13-3.31228E-13
 -1      2989 7.40828E+00-1.09745E+00 1.78913E-01 3.58327E+00-1.16920E-13 5.73097E-13
 -1      2990 1.98672E+01-4.43387E+00 8.82160E-02 5.96200E+00-4.15695E-13 4.68826E-14
 -1      2991 2.52524E+01-4.57034E+00 1.39053E-02 3.33929E+00-2.96534E-13-1.88030E-13
 -1      2992 1.99998E+01-1.69670E-03-7.72845E-07 2.45879E-03-5.53616E-14-2.73638E-13
 -1      2993 2.00001E+01-1.91379E-03 8.09073E-06 2.42657E-03 4.95705E-14-2.06072E-13
 -1      2994 2.00003E+01-1.88000E-03-4.31063E-06 2.56865E-03 5.75613E-14-3.70478E-13
 -1      2995 1.99998E+01-1.58882E-03-3.25378E-06 2.65248E-03-7.10913E-14-3.45230E-13
 -1      2996 2.12714E+01 1.25565E-01-4.83741E-03 2.74377E-01 1.17842E-13 3.34062E-14
 -1      2997 2.12054E+01 2.04759E-01-1.18693E-03 3.23678E-01 1.28993E-13 7.40777E-14
 -1      2998 2.12054E+01 3.46831E-01 5.40625E-03 3.82083E-01 1.39745E-13 9.42963E-14
 -1      2999 2.49709E+01-5.26812E+00 1.13698E-01-3.36467E+00 2.75974E-13-3.55334E-13
 -1      3000 2.09245E+01-4.92714E+00-1.11184E-02-4.92427E+00 3.37036E-13-3.12098E-13
 -1      3001 2.98037E+01 4.58496E+00-1.13329E-01 1.65589E+00 4.14641E-13 2.91225E-13
 -1      3002 2.83029E+01 5.05367E+00-1.49107E-01 1.76049E+00 3.75588E-13 3.15428E-13
 -1      3003 2.87451E+01 3.05738E+00-9.85820E-02 1.78597E+00 2.61680E-13 4.09256E-13
 -1      3004 2.37912E+01-5.03406E+00 1.06511E-01 3.95458E+00 2.28109E-13 1.10571E-13
 -1      3005 2.10811E+01 1.09011E+00 6.19698E-03 6.55191E-01 1.80104E-13 2.73038E-14
 -1      3006 2.90220E+01-5.29423E-01-8.78182E-02 7.94157E-01 9.31547E-14 3.23186E-13
 -1      3007 2.84430E+01 5.80460E-01-1.56476E-01 1.53624E+00 1.02876E-13 4.16486E-13
 -1      3008 2.78451E+01-1.61689E+00-2.58444E-02 5.25114E-01 1.37390E-15 3.78239E-13
 -1      3009 3.12769E+01-1.68831E+00-5.70890E-02 2.99917E+00-2.17631E-13-5.37417E-13
 -1      3010 3.08815E+01-3.22536E+00-1.40223E-01 1.35956E+00-1.34830E-13-4.47753E-13
 -1      3011 1.77713E+01 3.68539E+00 1.83726E-03-7.80734E-01-6.67581E-14-2.25972E-13
 -1      3012 1.77238E+01 3.71881E+00-1.22728E-02-7.35282E-01-9.56975E-14-2.40425E-13
 -1      3013 1.77022E+01 3.51322E+00 1.24646E-02-6.69586E-01-1.06710E-13-2.16654E-13
 -1      3014 1.78280E+01 3.33753E+00 6.87133E-03-9.16069E-01-6.92266E-14-2.22696E-13
 -1      3015 2.74593E+01 6.11272E+00-1.67533E-01 9.38062E-01 4.16139E-13 2.24949E-13
 -1      3016 2.84309E+01 6.78027E+00-1.61031E-01 3.90764E-01 4.79672E-13 1.02546E-13
 -1      3017 2.68518E+01 6.26651E+00-1.13879E-01 3.62490E-02 3.94018E-13 6.48821E-14
 -1      3018 9.08565E+00 3.90390E-01 1.77979E-01-2.14498E+00-1.14700E-13-5.03458E-13
 -1      3019 1.74161E+01-4.14388E+00 1.58988E-01-5.57824E+00 4.19151E-13-1.14131E-13
 -1      3020 1.71118E+01-2.04873E+00 1.05769E-01 4.89726E+00 2.30205E-13-2.00763E-13
 -1      3021 1.41856E+01-1.91966E+00 1.25887E-01 5.19282E+00 2.15827E-13-3.47736E-13
 -1      3022 1.31342E+01-5.72649E-01 8.95063E-02 4.24576E+00 1.65354E-13-3.83388E-13
 -1      3023 1.66388E+01-7.85384E-01 3.63130E-02 4.33235E+00 1.55962E-13-1.90431E-13
 -1      3024 1.66118E+01-2.96873E+00 1.05711E-01-5.30610E+00 4.69291E-13-7.98528E-14
 -1      3025 2.69592E+01-5.25659E+00-6.85292E-02 2.38916E+00 1.19002E-13 2.60049E-13
 -1      3026 2.72208E+01-5.42633E+00-1.57303E-02-2.07785E+00 1.15519E-13-3.57742E-13
 -1      3027 3.29926E+01-9.52197E-01-5.33337E-02 2.27180E+00-3.13034E-13-4.12143E-13
 -1      3028 3.00183E+01-4.61786E+00 5.63811E-02-3.39072E-01-1.62440E-14-4.17916E-13
 -1      3029 2.08861E+01 1.02041E+00-9.22106E-03 3.04139E-01 1.42939E-13-2.80587E-14
 -1      3030 2.06999E+01 1.20605E+00 2.87594E-03 1.35746E-01 1.18100E-13-4.00709E-14
 -1      3031 2.12446E+01 5.23638E-01 8.38467E-03 5.58178E-01 1.69312E-13 1.31246E-13
 -1      3032 1.40772E+01-1.70782E+00 1.16590E-01-4.92082E+00 3.86774E-13 1.87905E-14
 -1      3033 1.65668E+01-2.06530E+00 1.11430E-01-4.73238E+00 4.44984E-13-8.26700E-14
 -1      3034 1.61679E+01-8.38905E-01 5.30404E-02-4.19501E+00 3.09169E-13-9.69225E-14
 -1      3035 1.15453E+01-7.58468E-01 1.12459E-01-3.87838E+00 3.61218E-13 7.01522E-14
 -1      3036 1.75169E+01 1.57157E+00-2.34891E-02 2.26546E+00 7.24551E-15-1.34778E-13
 -1      3037 1.73249E+01 1.25262E+00 2.81686E-02 2.64228E+00 7.25995E-14-1.53148E-13
 -1      3038 1.68713E+01 7.69157E-01-1.07050E-02 3.17912E+00 1.12359E-13-1.65288E-13
 -1      3039 1.68826E+01 1.10678E-01 6.97055E-02 3.67189E+00 1.39425E-13-1.85289E-13
 -1      3040 1.52733E+01 1.17235E-01 4.26546E-02 3.79260E+00 1.25469E-13-2.82316E-13
 -1      3041 1.59111E+01 1.43558E+00 4.09698E-02 2.55554E+00 5.35535E-14-2.52643E-13
 -1      3042 1.23091E+01 7.36308E-03 1.28527E-01-4.24411E+00-2.23231E-13-2.95361E-13
 -1      3043 1.36725E+01-8.74487E-01 5.26943E-04-5.12575E+00-2.45564E-13-2.65801E-13
 -1      3044 1.62961E+01-2.12573E+00 1.05946E-01-5.69598E+00-2.72060E-13-1.75054E-13
 -1      3045 1.96842E+01-3.57214E+00 2.41652E-03-5.47642E+00-2.82788E-13-2.89838E-14
 -1      3046 1.72043E+01 9.62942E-01 2.73912E-02-2.67442E+00 1.41346E-13-1.82453E-13
 -1      3047 1.73861E+01 1.16733E+00-1.91671E-02-2.37761E+00 1.57876E-13-1.70493E-13
 -1      3048 1.79859E+01 1.28479E+00 8.12035E-03-2.10950E+00 1.78520E-13-1.34332E-13
 -1      3049 1.82050E+01 1.30291E+00-1.80732E-02-1.87784E+00 9.35257E-14-2.51679E-14
 -1      3050 1.68496E+01 1.47308E+00 2.82676E-02-1.89114E+00 2.41062E-13-1.17891E-13
 -1      3051 1.86341E+01 1.28027E+00 1.90347E-03-1.70265E+00-3.69930E-16-9.34094E-15
 -1      3052 1.88055E+01 1.21367E+00-1.31990E-02-1.52462E+00-3.61551E-14-7.29800E-14
 -1      3053 1.78274E+01 1.48176E+00 2.09926E-02-1.51865E+00 4.89407E-14-1.27804E-13
 -1      3054 1.91139E+01 1.13686E+00 4.51960E-04-1.38976E+00 3.87038E-14-3.07525E-14
 -1      3055 1.92362E+01 1.04198E+00-9.84542E-03-1.23990E+00 1.04690E-13-5.18565E-14
 -1      3056 1.85236E+01 1.32803E+00 1.53055E-02-1.25859E+00 4.88839E-14 1.67106E-14
 -1      3057 1.94541E+01 9.50273E-01 4.71889E-04-1.12787E+00 8.29470E-14 1.51448E-14
 -1      3058 1.95326E+01 8.53745E-01-7.32902E-03-1.00085E+00-8.69587E-15 4.22874E-15
 -1      3059 1.90187E+01 1.12320E+00 1.10297E-02-1.04575E+00 1.10186E-13 6.47889E-14
 -1      3060 1.96833E+01 7.66139E-01 8.11049E-04-9.05476E-01-1.46373E-13-8.24688E-14
 -1      3061 1.97286E+01 6.79665E-01-5.46908E-03-7.98872E-01-2.62322E-13-7.71138E-14
 -1      3062 1.93629E+01 9.15953E-01 7.76728E-03-8.61238E-01-1.62832E-13-1.57891E-13
 -1      3063 1.98308E+01 6.03787E-01 1.09128E-03-7.17774E-01-2.66999E-13-2.77787E-14
 -1      3064 1.98536E+01 5.31182E-01-4.07126E-03-6.29665E-01-2.49924E-13-2.50566E-15
 -1      3065 1.95967E+01 7.29356E-01 5.32133E-03-6.99604E-01-1.77412E-13-1.39230E-13
 -1      3066 1.99216E+01 4.68773E-01 1.22788E-03-5.61551E-01-2.41533E-13 9.65934E-15
 -1      3067 1.99301E+01 4.10008E-01-3.01680E-03-4.89874E-01-1.74474E-13-1.39124E-14
 -1      3068 1.97521E+01 5.71445E-01 3.55175E-03-5.59658E-01-2.51124E-13 7.06282E-14
 -1      3069 1.99747E+01 3.60169E-01 1.23478E-03-4.33562E-01-1.13522E-13-2.71534E-14
 -1      3070 1.99749E+01 3.13627E-01-2.22453E-03-3.76099E-01-6.94624E-14-1.23100E-13
 -1      3071 1.98531E+01 4.42573E-01 2.31205E-03-4.40778E-01-1.82453E-13 7.44639E-14
 -1      3072 2.00035E+01 2.74506E-01 1.15327E-03-3.30286E-01-3.58802E-14-1.20702E-13
 -1      3073 1.99995E+01 2.38126E-01-1.63311E-03-2.84823E-01-5.70154E-14-2.63594E-13
 -1      3074 1.99175E+01 3.39708E-01 1.46698E-03-3.41797E-01-9.34170E-14-1.10095E-13
 -1      3075 2.00176E+01 2.07736E-01 1.02304E-03-2.48122E-01-8.00929E-14-2.88174E-13
 -1      3076 2.00117E+01 1.79535E-01-1.19423E-03-2.12589E-01-5.33375E-14-3.28100E-13
 -1      3077 1.99575E+01 2.58737E-01 9.04388E-04-2.60924E-01-7.71052E-14-1.92806E-13
 -1      3078 2.00228E+01 1.56082E-01 8.73743E-04-1.83619E-01 8.44472E-14-2.95978E-13
 -1      3079 2.00166E+01 1.34348E-01-8.69861E-04-1.56169E-01 2.64079E-13-3.04523E-13
 -1      3080 1.99816E+01 1.95577E-01 5.37903E-04-1.95987E-01 5.07244E-14-2.08429E-13
 -1      3081 2.00233E+01 1.16337E-01 7.24681E-04-1.33625E-01 2.90081E-13-3.90990E-13
 -1      3082 2.00174E+01 9.96694E-02-6.30634E-04-1.12669E-01 1.50923E-13-4.80876E-13
 -1      3083 1.99956E+01 1.46636E-01 3.04306E-04-1.44681E-01 2.14117E-13-2.61054E-13
 -1      3084 2.00213E+01 8.59008E-02 5.86818E-04-9.53761E-02 1.46041E-13-4.30456E-13
 -1      3085 2.00162E+01 7.31839E-02-4.53990E-04-7.95739E-02 2.03133E-13-3.23341E-13
 -1      3086 2.00033E+01 1.08923E-01 1.59269E-04-1.04768E-01 1.78690E-13-2.90466E-13
 -1      3087 2.00182E+01 6.27096E-02 4.64159E-04-6.65025E-02 6.66997E-14-4.07853E-13
 -1      3088 2.00140E+01 5.30348E-02-3.41081E-04-5.47325E-02-5.29867E-14-3.53138E-13
 -1      3089 2.00070E+01 8.00322E-02 7.46227E-05-7.41903E-02 1.06132E-13-2.19557E-13
 -1      3090 2.00149E+01 4.47435E-02 3.58610E-04-4.45531E-02-7.55917E-14-4.00368E-13
 -1      3091 2.00114E+01 3.72119E-02-2.41325E-04-3.56118E-02-1.09650E-13-2.59781E-13
 -1      3092 2.00084E+01 5.76386E-02 4.68579E-05-5.06771E-02-3.11028E-14-3.55419E-13
 -1      3093 2.00117E+01 3.14005E-02 2.74873E-04-2.86355E-02-1.32617E-13-1.82904E-13
 -1      3094 2.00092E+01 2.60589E-02-1.58278E-04-2.25281E-02 4.58900E-14-2.13144E-13
 -1      3095 2.00085E+01 4.06869E-02-8.55732E-06-3.33037E-02-3.29529E-14-2.55036E-13
 -1      3096 2.00091E+01 2.17242E-02 2.04997E-04-1.75187E-02 1.22885E-13-2.86801E-13
 -1      3097 2.00071E+01 1.77913E-02-1.07573E-04-1.32153E-02 1.21435E-13-2.35512E-13
 -1      3098 2.00078E+01 2.84279E-02-2.33617E-05-2.10535E-02 4.35987E-14-3.35808E-13
 -1      3099 2.00068E+01 1.46151E-02 1.50790E-04-9.71121E-03 9.68007E-14-1.71598E-13
 -1      3100 2.00054E+01 1.17571E-02-7.14486E-05-6.75312E-03 1.54411E-13-9.41825E-14
 -1      3101 2.00068E+01 1.93615E-02-2.85907E-05-1.23260E-02 1.17093E-13-3.96470E-13
 -1      3102 2.00050E+01 9.46579E-03 1.08628E-04-4.37244E-03 2.10211E-13-2.25931E-14
 -1      3103 2.00040E+01 7.42423E-03-4.55889E-05-2.40446E-03 4.80818E-14-4.93293E-14
 -1      3104 2.00058E+01 1.27487E-02-2.90346E-05-6.26285E-03 2.31138E-13-3.53155E-13
 -1      3105 2.00036E+01 5.80164E-03 7.63333E-05-8.47307E-04-1.67623E-13 1.16931E-13
 -1      3106 2.00029E+01 4.37308E-03-2.74088E-05 4.04562E-04-2.50345E-13 1.74151E-13
 -1      3107 2.00047E+01 8.00559E-03-2.69371E-05-2.18019E-03 7.78974E-14-5.21219E-14
 -1      3108 2.00025E+01 3.24925E-03 5.20343E-05 1.36968E-03-2.60293E-13 2.66651E-13
 -1      3109 2.00020E+01 2.27382E-03-1.49283E-05 2.11361E-03-3.56167E-13 2.28158E-13
 -1      3110 2.00038E+01 4.67058E-03-2.36458E-05 4.56777E-04-2.33459E-13 3.36283E-13
 -1      3111 2.00016E+01 1.51511E-03 3.41337E-05 2.66226E-03-3.44053E-13 3.60450E-13
 -1      3112 2.00013E+01 8.67139E-04-6.66299E-06 3.05357E-03-2.93737E-15 4.29457E-13
 -1      3113 2.00029E+01 2.37976E-03-1.99659E-05 2.05931E-03-2.27560E-13 4.49220E-13
 -1      3114 2.00010E+01 3.68333E-04 2.12851E-05 3.31606E-03 1.54885E-13 4.01874E-13
 -1      3115 2.00008E+01-5.11275E-05-1.50526E-06 3.46793E-03 1.70112E-13 2.28710E-13
 -1      3116 2.00022E+01 8.46270E-04-1.63680E-05 2.93758E-03 2.84123E-14 4.69207E-13
 -1      3117 2.00005E+01-3.73198E-04 1.23481E-05 3.53850E-03 7.63659E-14 8.90646E-14
 -1      3118 2.00004E+01-6.42292E-04 1.60294E-06 3.53065E-03-8.24154E-14 7.66013E-14
 -1      3119 2.00015E+01-1.55975E-04-1.30827E-05 3.32015E-03 4.51053E-14 2.74085E-13
 -1      3120 2.00002E+01-8.55419E-04 6.07334E-06 3.47568E-03 2.04542E-13-7.50949E-14
 -1      3121 2.00002E+01-1.03644E-03 3.02236E-06 3.36110E-03 3.36793E-13 7.26735E-14
 -1      3122 2.00010E+01-8.05043E-04-1.01633E-05 3.37056E-03 3.37636E-14 3.21950E-14
 -1      3123 2.00000E+01-1.18857E-03 3.53438E-06 3.22090E-03 9.61053E-14-5.56483E-14
 -1      3124 2.00000E+01-1.33724E-03 9.70757E-07 3.03658E-03 5.87916E-14-7.62161E-14
 -1      3125 2.00006E+01-1.25000E-03-7.20989E-06 3.20397E-03 6.69151E-14-2.96945E-15
 -1      3126 2.18613E+01-7.91501E-01-9.66633E-03 3.95357E-01 9.42572E-14 7.28714E-14
 -1      3127 2.17945E+01-6.53368E-01 1.15730E-02 2.67228E-01 1.29106E-13 7.77202E-14
 -1      3128 2.15659E+01-4.67555E-01-8.51488E-03 1.65028E-01 1.02462E-13 5.05009E-14
 -1      3129 2.15022E+01-2.32649E-01 1.51206E-02 1.32977E-01 7.86015E-14 2.13941E-14
 -1      3130 2.17816E+01-6.43886E-01-7.17390E-03 8.42788E-02 9.81709E-14-1.67293E-14
 -1      3131 2.19120E+01 1.09318E+00 1.59833E-02 1.25857E+00 3.21431E-14 1.21934E-13
 -1      3132 2.20118E+01 6.20086E-01-2.22630E-02 1.40729E+00 2.43056E-14 1.24438E-13
 -1      3133 2.21677E+01 1.76957E-01 9.71761E-03 1.41627E+00 3.15130E-14 1.47492E-13
 -1      3134 2.22404E+01-2.25870E-01-1.40217E-02 1.36655E+00 2.84284E-14 1.51399E-13
 -1      3135 2.26492E+01 4.56777E-01 1.07711E-02 1.52529E+00 3.03424E-14 1.97325E-13
 -1      3136 2.15231E+01 2.00589E+00-3.13550E-03-3.28844E-01 1.12061E-13 7.28374E-14
 -1      3137 2.15242E+01 2.01026E+00-2.87800E-03 1.09045E-01 7.72949E-14 8.87121E-14
 -1      3138 2.16807E+01 1.49550E+00-1.83568E-02-1.17779E+00 1.46386E-13 1.59853E-14
 -1      3139 2.16107E+01 1.82843E+00 1.15252E-02-8.31484E-01 1.18732E-13 4.57303E-14
 -1      3140 2.20496E+01 2.25444E+00-1.19111E-02-6.36651E-01 1.29337E-13 3.27708E-14
 -1      3141 2.19677E+01 5.93024E-01-2.20862E-02-1.60137E+00 1.00299E-13 7.54052E-14
 -1      3142 2.18735E+01 1.07512E+00 1.60273E-02-1.46126E+00 1.38612E-13 2.27958E-14
 -1      3143 2.22968E+01 1.50461E+00 4.85121E-05-1.44829E+00 1.03606E-13-4.91100E-14
 -1      3144 2.21632E+01-2.75596E-01-1.48994E-02-1.53286E+00 1.27610E-13 1.18739E-13
 -1      3145 2.21031E+01 1.40240E-01 9.51987E-03-1.59651E+00 1.28058E-13 1.57029E-13
 -1      3146 2.25683E+01 4.15335E-01 1.24138E-02-1.70066E+00 5.49114E-14-1.47811E-14
 -1      3147 2.21400E+01-8.36031E-01-4.91258E-03-1.13961E+00 7.43630E-14 1.52596E-13
 -1      3148 2.21453E+01-5.97519E-01-5.83391E-04-1.32728E+00 1.14580E-13 1.23338E-13
 -1      3149 2.26224E+01-5.36419E-01 1.26985E-02-1.43775E+00 1.13004E-13 1.10854E-13
 -1      3150 2.19133E+01-1.03695E+00 3.65053E-03-6.39684E-01 2.60375E-14 1.58061E-13
 -1      3151 2.19813E+01-9.77851E-01-6.68101E-03-8.62535E-01 1.02550E-13 1.42002E-13
 -1      3152 2.24033E+01-1.08442E+00 6.60801E-03-9.16046E-01 9.74942E-14 2.23547E-13
 -1      3153 2.15726E+01-9.71793E-01 7.55521E-03-1.90206E-01-8.97492E-14 1.71062E-13
 -1      3154 2.16796E+01-1.03263E+00-8.07372E-03-3.88535E-01-7.00182E-14 1.81084E-13
 -1      3155 2.19953E+01-1.22505E+00-1.02108E-03-3.72033E-01-3.22737E-14 1.68417E-13
 -1      3156 2.12125E+01-7.68679E-01 8.25711E-03 1.42970E-01-1.30879E-13 1.62100E-13
 -1      3157 2.13317E+01-8.84649E-01-6.60241E-03-5.82894E-03-1.00466E-13 1.97020E-13
 -1      3158 2.15294E+01-1.08732E+00-5.16082E-03 5.80910E-02-8.18293E-14 2.62041E-13
 -1      3159 2.08905E+01-5.26637E-01 7.12515E-03 3.53711E-01-9.75088E-14 7.87443E-14
 -1      3160 2.10027E+01-6.51803E-01-4.41823E-03 2.57539E-01-9.11345E-14 8.40824E-14
 -1      3161 2.10990E+01-8.23989E-01-6.56732E-03 3.43076E-01-9.53296E-14 1.43439E-13
 -1      3162 2.06311E+01-3.05025E-01 5.35306E-03 4.62347E-01-6.83040E-14 8.94838E-14
 -1      3163 2.07269E+01-4.13968E-01-2.46773E-03 4.11011E-01-8.54184E-14 6.95164E-14
 -1      3164 2.07481E+01-5.39766E-01-6.19798E-03 4.99234E-01-7.27971E-14 1.51526E-13
 -1      3165 2.04363E+01-1.30082E-01 3.62411E-03 4.96557E-01-9.73545E-14 5.70558E-14
 -1      3166 2.05132E+01-2.13015E-01-1.03759E-03 4.78840E-01-4.16957E-14 6.59642E-14
 -1      3167 2.04862E+01-2.92577E-01-5.02945E-03 5.59364E-01-5.87763E-14 1.27284E-13
 -1      3168 2.02972E+01-6.93972E-03 2.20296E-03 4.81868E-01-9.74397E-14 5.12371E-14
 -1      3169 2.03566E+01-6.33943E-02-1.03956E-04 4.86900E-01-1.41750E-13 3.57554E-14
 -1      3170 2.03033E+01-1.04417E-01-3.70469E-03 5.55717E-01-9.32843E-14 6.38633E-14
 -1      3171 2.02014E+01 7.02650E-02 1.15644E-03 4.38467E-01 2.38477E-14 6.35501E-14
 -1      3172 2.02463E+01 3.62791E-02 4.49043E-04 4.57288E-01-4.14933E-14 6.45908E-14
 -1      3173 2.01824E+01 2.38109E-02-2.55083E-03 5.14034E-01-8.58597E-14-6.67438E-14
 -1      3174 2.01369E+01 1.11540E-01 4.48143E-04 3.80970E-01-1.84024E-14 1.86082E-13
 -1      3175 2.01706E+01 9.45995E-02 7.43380E-04 4.06849E-01 4.52288E-14 1.61642E-13
 -1      3176 2.01064E+01 1.01232E-01-1.66400E-03 4.52787E-01-4.94050E-14 1.44991E-13
 -1      3177 2.00941E+01 1.27238E-01 7.90051E-06 3.19266E-01-9.41240E-14 2.00525E-13
 -1      3178 2.01195E+01 1.22114E-01 8.68925E-04 3.47511E-01-9.00419E-14 1.35765E-13
 -1      3179 2.00609E+01 1.40081E-01-1.03606E-03 3.84371E-01-2.47832E-15 1.55518E-13
 -1      3180 2.00659E+01 1.26284E-01-2.37251E-04 2.59578E-01-2.36256E-14 2.52697E-13
 -1      3181 2.00850E+01 1.28633E-01 8.87796E-04 2.87160E-01 3.11394E-14 2.69019E-13
 -1      3182 2.00350E+01 1.52131E-01-6.18726E-04 3.16616E-01-9.06939E-14 1.95692E-13
 -1      3183 2.00472E+01 1.15596E-01-3.49977E-04 2.05452E-01-1.49483E-13 2.68418E-13
 -1      3184 2.00617E+01 1.22138E-01 8.42065E-04 2.30603E-01-7.64187E-14 3.06513E-13
 -1      3185 2.00211E+01 1.47162E-01-3.56453E-04 2.54080E-01-8.68840E-14 3.10930E-13
 -1      3186 2.00345E+01 1.00127E-01-3.78909E-04 1.58569E-01-1.18880E-13 2.20934E-13
 -1      3187 2.00456E+01 1.08563E-01 7.60240E-04 1.80420E-01-1.19261E-13 2.67070E-13
 -1      3188 2.00141E+01 1.32582E-01-2.00414E-04 1.99074E-01-1.10758E-13 3.27625E-13
 -1      3189 2.00257E+01 8.31750E-02-3.59221E-04 1.19382E-01 4.15684E-14 7.68662E-14
 -1      3190 2.00342E+01 9.20086E-02 6.61580E-04 1.37668E-01-2.66183E-14 9.48701E-14
 -1      3191 2.00107E+01 1.13595E-01-1.12875E-04 1.52422E-01-9.92793E-15 1.69393E-13
 -1      3192 2.00194E+01 6.67636E-02-3.14890E-04 8.75838E-02 3.08780E-14 1.27852E-13
 -1      3193 2.00260E+01 7.51017E-02 5.58841E-04 1.02419E-01-4.46815E-16 1.66965E-13
 -1      3194 2.00092E+01 9.36078E-02-6.69681E-05 1.14013E-01-2.32366E-14 7.11827E-14
 -1      3195 2.00148E+01 5.20032E-02-2.61331E-04 6.24482E-02 1.51262E-13 1.48741E-13
 -1      3196 2.00198E+01 5.93783E-02 4.60137E-04 7.41599E-02 1.05436E-13 1.28779E-13
 -1      3197 2.00084E+01 7.46680E-02-4.48257E-05 8.31920E-02 4.28320E-14 9.41584E-14
 -1      3198 2.00113E+01 3.93851E-02-2.07754E-04 4.30561E-02-4.36474E-14 1.49676E-13
 -1      3199 2.00151E+01 4.56127E-02 3.70237E-04 5.20705E-02 1.14901E-13 1.04522E-13
 -1      3200 2.00078E+01 5.78587E-02-3.51761E-05 5.90329E-02 7.58394E-14 7.35611E-15
 -1      3201 2.00085E+01 2.90096E-02-1.59119E-04 2.84465E-02 7.25411E-14 9.04675E-14
 -1      3202 2.00114E+01 3.40800E-02 2.91512E-04 3.52150E-02-2.73611E-15 1.41472E-13
 -1      3203 2.00071E+01 4.36203E-02-3.13220E-05 4.05148E-02-1.47818E-14 9.33604E-14
 -1      3204 2.00064E+01 2.07479E-02-1.17645E-04 1.77051E-02 1.68902E-13 3.72540E-14
 -1      3205 2.00085E+01 2.47510E-02 2.24700E-04 2.26594E-02 1.34434E-13 2.89466E-15
 -1      3206 2.00064E+01 3.19916E-02-2.96222E-05 2.66351E-02 1.46446E-13 1.03873E-14
 -1      3207 2.00047E+01 1.43542E-02-8.38693E-05 1.00133E-02 5.16491E-14 2.54409E-13
 -1      3208 2.00063E+01 1.74280E-02 1.69491E-04 1.35405E-02 1.05885E-13 1.21289E-13
 -1      3209 2.00057E+01 2.27815E-02-2.82684E-05 1.64731E-02 1.00058E-13-3.51818E-14
 -1      3210 2.00034E+01 9.53716E-03-5.73837E-05 4.66930E-03 2.70700E-13 1.54754E-13
 -1      3211 2.00045E+01 1.18353E-02 1.24937E-04 7.10124E-03 2.18818E-13 2.88853E-13
 -1      3212 2.00048E+01 1.56857E-02-2.65248E-05 9.22230E-03 7.93619E-14 7.78092E-14
 -1      3213 2.00024E+01 6.00341E-03-3.73142E-05 1.09122E-03 1.00372E-13 2.09153E-13
 -1      3214 2.00032E+01 7.67608E-03 8.97637E-05 2.70248E-03 1.98019E-13 2.84607E-13
 -1      3215 2.00040E+01 1.03608E-02-2.42286E-05 4.20140E-03 1.70937E-13 6.19522E-14
 -1      3216 2.00016E+01 3.48181E-03-2.26238E-05-1.18933E-03 5.86638E-14 4.07715E-13
 -1      3217 2.00021E+01 4.66534E-03 6.25915E-05-1.78294E-04 9.09489E-14 3.65894E-13
 -1      3218 2.00033E+01 6.46870E-03-2.14872E-05 8.51249E-04-2.58294E-14 2.86954E-13
 -1      3219 2.00010E+01 1.73427E-03-1.22876E-05-2.53942E-03-4.41053E-14 6.44557E-13
 -1      3220 2.00013E+01 2.54699E-03 4.20710E-05-1.95658E-03-4.55054E-16 5.12934E-13
 -1      3221 2.00026E+01 3.70074E-03-1.85097E-05-1.27495E-03-6.82979E-14 4.24604E-13
 -1      3222 2.00006E+01 5.58605E-04-5.37282E-06-3.23883E-03 1.17812E-14 7.18870E-13
 -1      3223 2.00008E+01 1.10024E-03 2.69801E-05-2.95388E-03-4.96382E-14 7.55605E-13
 -1      3224 2.00019E+01 1.78787E-03-1.55209E-05-2.52538E-03-2.11758E-13 6.67820E-13
 -1      3225 2.00002E+01-2.13344E-04-1.01954E-06-3.49420E-03 7.03717E-14 5.75853E-13
 -1      3226 2.00003E+01 1.39706E-04 1.62559E-05-3.41176E-03 1.16113E-13 6.49056E-13
 -1      3227 2.00014E+01 5.02728E-04-1.26785E-05-3.16424E-03 4.79195E-14 8.46251E-13
 -1      3228 2.00000E+01-7.20369E-04 1.02357E-06-3.45274E-03 2.87757E-13 3.23484E-13
 -1      3229 2.00001E+01-4.87607E-04 9.01223E-06-3.50575E-03 1.97256E-13 4.47892E-13
 -1      3230 2.00010E+01-3.42867E-04-1.01374E-05-3.38581E-03 2.12222E-13 5.67552E-13
 -1      3231 1.99999E+01-1.07089E-03 2.88023E-06-3.21008E-03 3.83172E-13 2.04169E-13
 -1      3232 1.99999E+01-9.08948E-04 4.47383E-06-3.35590E-03 3.79368E-13 3.40036E-13
 -1      3233 2.00006E+01-9.07655E-04-9.08367E-06-3.32926E-03 2.84967E-13 6.29790E-13
 -1      3234 1.99998E+01-1.32951E-03 1.70517E-06-2.88577E-03 1.76454E-13 5.36086E-14
 -1      3235 1.99997E+01-1.18519E-03-1.17258E-06-3.09198E-03 2.56581E-13 9.59988E-14
 -1      3236 2.00003E+01-1.25171E-03-5.13015E-06-3.11575E-03 3.91681E-13 7.66801E-13
 -1      3237 2.00001E+01-1.50774E-03 1.73675E-06-2.85726E-03 3.31035E-13 4.85211E-13
 -1      3238 2.00020E+01-2.38250E-03 2.24003E-06 1.98255E-04 9.10971E-14 7.35068E-14
 -1      3239 2.00020E+01-2.37859E-03 1.61035E-06-2.34566E-04 1.31511E-13-3.17195E-14
 -1      3240 2.00019E+01-2.32217E-03-4.78785E-08 1.06573E-03 6.39825E-15-2.35619E-14
 -1      3241 2.00020E+01-2.36810E-03 3.84175E-06 6.57139E-04-2.66097E-14 2.41616E-13
 -1      3242 2.00024E+01-2.10221E-03-1.65837E-06 4.39792E-04 6.71918E-14 1.02148E-13
 -1      3243 2.00015E+01-2.16321E-03-1.83506E-06 1.85811E-03 3.47605E-14 4.42733E-14
 -1      3244 2.00017E+01-2.26223E-03 6.33630E-06 1.49815E-03-1.89129E-14-1.12917E-13
 -1      3245 2.00022E+01-2.04148E-03-1.90837E-06 1.34057E-03 1.57728E-13 1.51654E-14
 -1      3246 2.00009E+01-1.90485E-03-4.20570E-06 2.47800E-03-8.24213E-15-2.22544E-14
 -1      3247 2.00013E+01-2.05621E-03 7.86727E-06 2.21575E-03-3.49148E-14 1.85604E-13
 -1      3248 2.00017E+01-1.89681E-03-1.69958E-06 2.13890E-03-7.20341E-14 7.55569E-14
 -1      3249 2.12046E+01 5.91099E-01-9.27635E-03 5.21364E-01 1.49328E-13 3.88016E-14
 -1      3250 2.72799E+01-2.03866E+00-1.08538E-01-3.65274E-01 2.46678E-14-4.26874E-13
 -1      3251 2.70615E+01-3.09096E+00 2.80097E-02 6.58736E-01-1.07544E-13-3.88113E-13
 -1      3252 2.11837E+01-4.40746E+00-5.36702E-02 5.05702E+00-3.94393E-13-5.68989E-16
 -1      3253 1.85962E+01-3.60895E+00 9.25822E-02 5.76667E+00-3.87003E-13 5.87586E-14
 -1      3254 2.26623E+01-4.14057E+00 5.59574E-02-4.33153E+00-2.48884E-13 1.06832E-13
 -1      3255 2.47705E+01-4.27569E+00-4.28685E-02-3.00765E+00-1.84949E-13 1.87260E-13
 -1      3256 2.00020E+01-2.34918E-03 4.55130E-06-6.98137E-04 1.09023E-13-3.70523E-13
 -1      3257 2.00019E+01-2.29652E-03-1.28104E-06-1.10969E-03 2.16690E-13-3.91870E-13
 -1      3258 2.00024E+01-2.08848E-03-1.44317E-06-4.92110E-04 5.84508E-14-2.49977E-13
 -1      3259 2.16243E+01 1.84106E+00 1.17328E-02 6.17149E-01 3.10290E-14 1.18334E-13
 -1      3260 2.16999E+01 1.51089E+00-1.83727E-02 9.70890E-01 2.34903E-14 1.17191E-13
 -1      3261 2.23443E+01 1.52965E+00 5.37214E-04 1.25510E+00 3.29144E-14 1.62101E-13
 -1      3262 2.20668E+01 2.27845E+00-7.08648E-03 4.26670E-01 8.15294E-14 7.22182E-14
 -1      3263 1.64360E+01 2.85452E-02 7.15130E-02-3.52113E+00 1.72331E-13-1.52840E-13
 -1      3264 1.64694E+01 6.02558E-01-2.20410E-03-3.09311E+00 6.23963E-14-1.19104E-13
 -1      3265 1.55407E+01 1.11652E+00 4.02582E-02-2.48780E+00 1.06741E-13-2.61458E-14
 -1      3266 1.83660E+01 2.01437E+00-1.36878E-02 1.50960E+00-5.95371E-14-1.04827E-13
 -1      3267 1.81217E+01 1.84258E+00 8.45258E-03 1.86844E+00-2.95517E-14-1.17449E-13
 -1      3268 1.69450E+01 2.11001E+00 4.24296E-02 1.67086E+00-2.19330E-14-1.70279E-13
 -1      3269 9.29263E+00-6.51296E-01 1.00712E-01 4.16130E+00-2.08167E-13 4.05093E-13
 -1      3270 7.81849E+00-1.33410E-02 1.93621E-01 2.21146E+00-5.94975E-14 5.03264E-13
 -1      3271 9.75731E+00 1.16586E+00 1.17359E-01-7.19895E-01-1.18821E-13-5.18016E-13
 -1      3272 1.06116E+01 6.36604E-01 4.33385E-02-2.99289E+00-1.83149E-13-3.79974E-13
 -1      3273 2.56259E+01-4.18786E+00-8.94575E-02 2.25360E+00-2.50886E-13-3.34283E-13
 -1      3274 2.37239E+01-4.45032E+00 9.97987E-02 3.75564E+00-3.83513E-13-1.29416E-13
 -1      3275 2.55582E+01-3.57257E+00 6.33344E-03 1.32314E+00-2.00999E-13-2.81976E-13
 -1      3276 2.10661E+01 8.54520E-01 7.30578E-03 4.35956E-01 1.47532E-13-2.25334E-14
 -1      3277 2.59761E+01-3.88518E+00 3.78398E-02-1.96427E+00-1.70785E-13 2.68500E-13
 -1      3278 2.66817E+01-3.16620E+00-5.73416E-02-8.29542E-01-1.07650E-13 3.76397E-13
 -1      3279 2.48486E+01-3.83554E+00 1.05923E-02-2.29091E+00-1.82092E-13 2.29195E-13
 -1      3280 1.92243E+01 2.10212E+00 7.54411E-03-9.04731E-01 1.48803E-14-1.45843E-13
 -1      3281 1.88433E+01 2.28586E+00-9.75669E-03-1.04508E+00-2.47733E-14-1.47797E-13
 -1      3282 1.90617E+01 2.94837E+00 4.09859E-03 7.82005E-02-1.66340E-13-1.51439E-13
 -1      3283 3.44767E+01 6.48637E-01-1.96096E-01 1.84032E+00-4.24466E-13-2.03837E-13
 -1      3284 1.12705E+01 3.78005E-01 7.66415E-02 2.93692E+00 9.18224E-14-5.03014E-13
 -1      3285 9.88035E+00 9.58770E-01 8.83946E-02 1.13287E+00 8.97980E-15-5.56555E-13
 -1      3286 2.10985E+01 5.71997E-01 1.86031E-03 2.30392E-01 1.17421E-13-1.19321E-14
 -1      3287 2.70134E+01 3.16410E+00-1.27009E-01-2.06050E+00 2.17285E-13-3.53696E-13
 -1      3288 2.66722E+01 2.02282E+00-2.56811E-02-2.11138E+00 1.58984E-13-3.57436E-13
 -1      3289 2.59773E+01 3.73084E+00-8.25611E-02-1.90378E+00 2.23849E-13-2.64261E-13
 -1      3290 2.65864E+01-3.60998E-02-1.33065E-01-1.73773E+00 1.49575E-13-4.33497E-13
 -1      3291 2.72951E+01-1.04932E+00-3.61694E-02-1.15071E+00 1.22763E-13-4.49280E-13
 -1      3292 2.63872E+01-1.74141E+00-1.90791E-06-7.76470E-01 3.78083E-14-3.82916E-13
 -1      3293 1.73785E+01-3.06379E+00 6.81049E-02 5.86602E+00-3.24352E-13 9.51322E-14
 -1      3294 1.60009E+01-2.26736E+00 5.44055E-02 5.54757E+00-2.70641E-13 1.46758E-13
 -1      3295 1.90480E+01-2.99243E+00 4.57608E-02 4.95947E+00-2.99774E-13 5.83231E-14
 -1      3296 1.75968E+01 3.27195E+00-5.71343E-03-3.06848E-01-1.19042E-13-1.92200E-13
 -1      3297 1.78823E+01 3.17584E+00 1.41048E-03-1.04748E-01-1.33535E-13-1.91552E-13
 -1      3298 1.14429E+01 1.44986E+00 1.31467E-01 1.03901E-01-7.87512E-14-4.55511E-13
 -1      3299 1.61797E+01-1.19857E+00 9.22654E-02-4.90196E+00-2.61999E-13-1.91326E-13
 -1      3300 1.99824E+01-2.66235E+00 4.38152E-02-4.59330E+00-2.70443E-13 1.41796E-14
 -1      3301 2.14343E+01-3.67966E+00 4.06264E-02-4.62888E+00-2.76269E-13 4.79851E-14
 -1      3302 2.24613E+01-3.47886E+00-3.09189E-02-3.51794E+00-2.48375E-13 1.14842E-13
 -1      3303 2.57417E+01 5.59707E+00-1.06605E-01-6.85208E-02 3.32290E-13 4.61766E-14
 -1      3304 2.62887E+01 5.73822E+00-1.46366E-01-6.04124E-01 3.57187E-13-4.14339E-14
 -1      3305 2.57289E+01 5.02337E+00-8.37967E-02-1.08054E+00 2.86993E-13-1.09902E-13
 -1      3306 8.95392E+00 4.27325E-01 1.52529E-01 1.05103E+00 4.11754E-14 3.65541E-13
 -1      3307 1.32927E+01 2.94948E-01 1.10808E-01 3.28186E+00 1.02359E-13-3.99847E-13
 -1      3308 2.20747E+01-8.52761E-01 6.30823E-03 5.93018E-01 5.40318E-14 9.24991E-14
 -1      3309 2.22056E+01-9.61678E-01-1.55266E-03 3.75770E-01 7.76018E-14 7.52538E-14
 -1      3310 2.21147E+01-8.41910E-01-7.34851E-03 7.71634E-01 3.40160E-14 9.62375E-14
 -1      3311 1.99998E+01-1.46616E-03 2.35778E-06 2.81325E-03 5.86221E-14-2.92173E-13
 -1      3312 1.43974E+01 5.87670E-03 4.89279E-02-3.60432E+00 1.88127E-13-7.07420E-14
 -1      3313 2.27469E+01-4.60475E-01 1.24201E-02 1.29631E+00 1.46163E-14 1.66941E-13
 -1      3314 2.22424E+01-5.28332E-01-3.08780E-04 1.17837E+00 4.02602E-14 1.23210E-13
 -1      3315 2.22564E+01-7.37059E-01-2.22422E-03 1.01542E+00 2.25694E-14 1.18360E-13
 -1      3316 2.59956E+01-3.05212E+00-1.90256E-02-6.55714E-01-1.24529E-13 3.12765E-13
 -1      3317 2.70343E+01-2.56917E+00-2.96614E-02-6.06306E-02-7.55554E-14 3.38729E-13
 -1      3318 2.68722E+01-1.64692E+00-5.17521E-02 7.07455E-01-2.91295E-14 3.37272E-13
 -1      3319 2.00017E+01-2.22325E-03 9.56699E-06-1.52918E-03 9.53650E-14-3.71566E-14
 -1      3320 2.00015E+01-2.13188E-03-9.23534E-06-1.88920E-03 9.54072E-14 3.27220E-13
 -1      3321 2.00021E+01-2.00042E-03-1.94788E-06-1.38471E-03 2.14950E-13-7.02477E-14
 -1      3322 2.00007E+01-1.81337E-03-6.19903E-06-2.59261E-03 3.37751E-13 8.65872E-13
 -1      3323 2.00004E+01-1.65825E-03-9.09885E-07-2.71343E-03 3.47692E-13 7.33578E-13
 -1      3324 2.00006E+01-1.51869E-03 1.40987E-06-2.86555E-03 4.78920E-13 8.29456E-13
 -1      3325 2.00010E+01-1.95589E-03 1.06378E-05-2.33778E-03 2.12081E-13 5.21111E-13
 -1      3326 2.00005E+01-1.70249E-03 5.50920E-06 2.75914E-03-8.76829E-15-3.11999E-13
 -1      3327 2.00009E+01-1.60625E-03-3.79339E-07 2.78968E-03-1.76122E-13-1.17769E-13
 -1      3328 2.23670E+01-4.00890E+00 3.47917E-02 3.94616E+00-3.91645E-13-6.89808E-14
 -1      3329 2.12921E+01 2.34937E-02-8.99282E-03 1.29716E-01 9.21111E-14 1.72842E-14
 -1      3330 2.12262E+01 3.25811E-01 5.62668E-03 1.98242E-01 1.00999E-13-2.59872E-15
 -1      3331 2.80493E+01 1.46182E+00-1.03699E-01 1.88040E+00 1.54141E-13 3.95878E-13
 -1      3332 2.70535E+01 2.31249E+00-1.43336E-01 2.06578E+00 1.89099E-13 3.98279E-13
 -1      3333 2.71759E+01 1.96836E-01-3.55251E-02 1.61042E+00 6.17666E-14 4.07396E-13
 -1      3334 1.82925E+01 2.97924E+00-1.59229E-02 2.19146E-01-1.34920E-13-1.80743E-13
 -1      3335 1.91192E+01 2.63875E+00-2.34626E-03 4.01550E-01-1.50908E-13-1.39830E-13
 -1      3336 1.89946E+01 2.43493E+00 2.40034E-03 7.33576E-01-1.20721E-13-1.19129E-13
 -1      3337 1.78594E+01 2.92960E+00 1.50755E-03 2.15212E-01-1.21207E-13-1.82718E-13
 -1      3338 1.87317E+01 2.03406E+00-3.52234E-03-1.29160E+00-3.71573E-14-1.44782E-13
 -1      3339 1.84740E+01 2.56107E+00 1.05903E-02-1.13304E+00-3.21105E-14-1.71143E-13
 -1      3340 1.81146E+01 2.72517E+00-1.51096E-02-1.17120E+00-5.03550E-14-2.00135E-13
 -1      3341 2.67997E+01 4.22119E+00-5.87905E-02 1.83307E+00 2.65010E-13 3.79710E-13
 -1      3342 2.72295E+01 5.21072E+00-1.45629E-01 1.41898E+00 3.62183E-13 2.76907E-13
 -1      3343 2.60237E+01 5.18217E+00-8.36232E-02 1.09140E+00 2.92516E-13 1.91899E-13
 -1      3344 1.12572E+01-8.53096E-01 1.54329E-01 4.76537E+00-1.76907E-13 3.22367E-13
 -1      3345 1.11740E+01 3.30328E-02 7.50751E-02 3.60624E+00-1.58935E-13 3.09863E-13
 -1      3346 1.32697E+01-1.15176E+00 6.86269E-02 4.99853E+00-2.27839E-13 2.34951E-13
 -1      3347 1.88003E+01 2.26577E+00-3.85377E-03 1.05274E+00-8.94194E-14-1.20310E-13
 -1      3348 1.25702E+01 8.32555E-01 8.91298E-02-3.01291E+00-1.93016E-13-3.28688E-13
 -1      3349 2.00002E+01-1.58094E-03-5.36153E-06 2.85633E-03-5.79270E-14-2.19783E-13
 -1      3350 2.04723E+01 1.34274E+00-3.17818E-03-7.30343E-02 1.00611E-13-7.92920E-14
 -1      3351 2.02105E+01 1.51571E+00-6.18229E-05-2.80421E-01 7.42216E-14-9.07994E-14
 -1      3352 2.07540E+01 8.77428E-01-1.45453E-03-1.05863E-01 8.52476E-14-4.19879E-14
 -1      3353 1.74595E+01 3.26873E+00 2.80342E-03-8.07848E-01-9.51029E-14-2.02052E-13
 -1      3354 1.74510E+01 3.28942E+00-1.07272E-02-6.27683E-01-1.22927E-13-2.11507E-13
 -1      3355 1.73542E+01 3.10083E+00 1.38263E-02-4.39200E-01-1.21037E-13-1.98989E-13
 -1      3356 2.10882E+01 5.03902E-01 4.58148E-03 7.77301E-02 8.64277E-14-7.96737E-15
 -1      3357 1.99137E+01 1.69128E+00 2.31186E-03-5.12848E-01 7.49273E-14-9.83019E-14
 -1      3358 1.95799E+01 1.87094E+00-3.98545E-03-7.11825E-01 4.20346E-14-1.23205E-13
 -1      3359 1.95472E+01 1.56012E+00-5.29409E-03-9.92466E-01 1.76773E-14-1.06865E-13
 -1      3360 2.02461E+01 1.17711E+00-2.53140E-03-5.51253E-01 6.25666E-14-7.66738E-14
 -1      3361 1.79691E+01 2.49105E+00 1.57947E-02 9.16996E-01-8.80777E-14-1.48951E-13
 -1      3362 2.13915E+01-1.19213E-01-1.08622E-02 1.00696E-02 7.32162E-14 4.44583E-15
 -1      3363 1.03893E+01 4.70200E-02 1.37469E-01-2.73054E+00 3.04135E-13 2.24085E-13
 -1      3364 1.28645E+01 2.59701E-02 1.25917E-01-3.27583E+00 2.37473E-13 5.78010E-14
 -1      3365 2.11142E+01 3.20131E-01 9.59320E-03-1.60805E-01 7.23092E-14-1.78309E-14
 -1      3366 2.09533E+01 5.67477E-01-1.12184E-03-1.37229E-01 7.58006E-14-3.59385E-14
 -1      3367 2.07420E+01 7.07408E-01 1.79024E-05-3.43684E-01 6.67912E-14-6.35782E-14
 -1      3368 1.24642E+01 1.66485E+00 7.07064E-02 1.14001E+00-3.43692E-14-4.07514E-13
 -1      3369 1.20981E+01 1.67926E+00-2.55217E-02-6.30603E-01-1.17825E-13-3.97231E-13
 -1      3370 1.42468E+01 1.23910E+00 4.80238E-02-1.86798E+00 6.94186E-14 4.90268E-14
 -1      3371 1.49220E+01 1.44098E+00-1.60784E-02-1.57808E+00 1.69927E-13 8.19605E-14
 -1      3372 1.71183E+01 1.55756E+00-4.94485E-03-1.14913E+00 1.77397E-13-1.28551E-13
 -1      3373 1.75284E+01 1.49035E+00-1.63082E-02-1.04212E+00 7.54143E-14-6.90330E-14
 -1      3374 1.79906E+01 1.41110E+00-6.70371E-03-1.00147E+00 4.65916E-14-2.06594E-14
 -1      3375 1.82921E+01 1.31266E+00-1.11401E-02-9.12978E-01 1.38864E-13 7.45029E-14
 -1      3376 1.74745E+01 1.54492E+00 2.24465E-02-6.65546E-01 1.45673E-13-5.90788E-14
 -1      3377 1.86205E+01 1.21137E+00-5.06195E-03-8.72515E-01 1.09542E-13-5.60227E-14
 -1      3378 1.88328E+01 1.10541E+00-7.86607E-03-7.92591E-01 9.76216E-16-1.07880E-13
 -1      3379 1.82287E+01 1.34146E+00 1.56321E-02-6.39543E-01 3.70584E-14-1.43214E-13
 -1      3380 1.90665E+01 1.00360E+00-3.33337E-03-7.48989E-01-1.71884E-13-1.26664E-13
 -1      3381 1.92119E+01 9.03837E-01-5.78579E-03-6.75325E-01-2.56061E-13-1.31178E-13
 -1      3382 1.87664E+01 1.12577E+00 1.10555E-02-5.92574E-01-9.30537E-14-2.50208E-13
 -1      3383 1.93778E+01 8.11636E-01-1.96559E-03-6.30058E-01-1.94397E-13-1.61731E-13
 -1      3384 1.94749E+01 7.24151E-01-4.36463E-03-5.63257E-01-2.05054E-13-9.62991E-14
 -1      3385 1.91485E+01 9.22072E-01 7.82046E-03-5.28814E-01-2.65027E-13-9.70871E-14
 -1      3386 1.95921E+01 6.45303E-01-9.84317E-04-5.18920E-01-2.11659E-13-9.89206E-14
 -1      3387 1.96553E+01 5.71751E-01-3.33073E-03-4.59968E-01-2.13341E-13-4.47353E-14
 -1      3388 1.94181E+01 7.41757E-01 5.49244E-03-4.56063E-01-1.86346E-13-2.28192E-13
 -1      3389 1.97376E+01 5.06609E-01-3.35940E-04-4.18769E-01-1.71701E-13-1.25909E-14
 -1      3390 1.97777E+01 4.46394E-01-2.54873E-03-3.68152E-01-1.52878E-13-5.37238E-14
 -1      3391 1.96070E+01 5.88508E-01 3.82152E-03-3.81723E-01-1.27796E-13-1.30988E-13
 -1      3392 1.98351E+01 3.93732E-01 5.76699E-05-3.31488E-01-1.68061E-13-7.61684E-15
 -1      3393 1.98599E+01 3.45285E-01-1.94677E-03-2.89090E-01-1.18265E-13-1.06332E-13
 -1      3394 1.97383E+01 4.61707E-01 2.63340E-03-3.11204E-01-9.31598E-14-3.82274E-14
 -1      3395 1.98996E+01 3.03313E-01 2.71133E-04-2.57587E-01-5.47315E-14-1.23025E-13
 -1      3396 1.99144E+01 2.64799E-01-1.48090E-03-2.22834E-01-1.87575E-14-1.05155E-13
 -1      3397 1.98288E+01 3.58695E-01 1.79742E-03-2.47787E-01-1.07046E-13 1.46026E-13
 -1      3398 1.99417E+01 2.31676E-01 3.65503E-04-1.96541E-01 3.69748E-14-5.88199E-14
 -1      3399 1.99500E+01 2.01330E-01-1.12042E-03-1.68599E-01 6.93776E-14 5.43043E-14
 -1      3400 1.98907E+01 2.76095E-01 1.21501E-03-1.93010E-01 5.13169E-14 8.61764E-14
 -1      3401 1.99687E+01 1.75390E-01 3.86310E-04-1.47190E-01 1.28876E-13 4.84648E-14
 -1      3402 1.99730E+01 1.51657E-01-8.42166E-04-1.25115E-01 1.71493E-13-2.75467E-14
 -1      3403 1.99326E+01 2.10524E-01 8.12872E-04-1.47189E-01 4.13684E-14 1.96133E-13
 -1      3404 1.99856E+01 1.31478E-01 3.65187E-04-1.08064E-01 9.41182E-14-1.55995E-13
 -1      3405 1.99875E+01 1.13050E-01-6.26815E-04-9.09118E-02 8.19446E-14-2.24700E-13
 -1      3406 1.99606E+01 1.58912E-01 5.37780E-04-1.09866E-01 5.43878E-14 5.71422E-14
 -1      3407 1.99959E+01 9.74452E-02 3.18712E-04-7.76015E-02 8.60262E-14-2.47260E-13
 -1      3408 1.99964E+01 8.32179E-02-4.78363E-04-6.44763E-02-1.37154E-14-2.78260E-13
 -1      3409 1.99790E+01 1.18622E-01 3.55715E-04-8.01649E-02 2.40684E-14-2.73773E-13
 -1      3410 2.00020E+01 7.06945E-02 2.68852E-04-5.38016E-02-7.15511E-15-2.61864E-13
 -1      3411 2.00018E+01 5.94225E-02-3.48750E-04-4.35704E-02 2.21619E-14-2.45848E-13
 -1      3412 1.99911E+01 8.67988E-02 2.46124E-04-5.65537E-02-3.72227E-15-2.28657E-13
 -1      3413 2.00051E+01 5.04863E-02 2.20376E-04-3.60586E-02-3.88866E-14-1.82759E-13
 -1      3414 2.00045E+01 4.23861E-02-2.40984E-04-2.88876E-02-8.31565E-14-1.75376E-13
 -1      3415 1.99984E+01 6.23985E-02 1.37308E-04-3.86058E-02 1.11263E-14-2.55319E-13
 -1      3416 2.00064E+01 3.56451E-02 1.75791E-04-2.33550E-02-1.08362E-13-1.89366E-13
 -1      3417 2.00057E+01 2.95839E-02-1.70554E-04-1.81683E-02 1.40782E-14-3.58177E-13
 -1      3418 2.00026E+01 4.44387E-02 7.91050E-05-2.55946E-02-1.14425E-13-1.41128E-13
 -1      3419 2.00067E+01 2.45747E-02 1.36226E-04-1.41950E-02 1.86675E-13-3.89928E-13
 -1      3420 2.00059E+01 2.01009E-02-1.18231E-04-1.05253E-02 2.10120E-13-3.32497E-13
 -1      3421 2.00049E+01 3.09596E-02 4.27820E-05-1.60762E-02 1.04182E-13-1.48161E-13
 -1      3422 2.00064E+01 1.64317E-02 1.03190E-04-7.74525E-03 2.94361E-13-3.02482E-13
 -1      3423 2.00057E+01 1.31813E-02-7.96713E-05-5.21808E-03 3.96831E-13-1.03160E-13
 -1      3424 2.00058E+01 2.09759E-02 1.96392E-05-9.27676E-03 3.39317E-13-1.42698E-13
 -1      3425 2.00057E+01 1.05387E-02 7.63794E-05-3.33341E-03 2.73275E-13-5.15239E-14
 -1      3426 2.00051E+01 8.22058E-03-5.16904E-05-1.65171E-03 1.23249E-13 3.21263E-14
 -1      3427 2.00059E+01 1.36959E-02 5.28955E-06-4.55068E-03 4.53503E-13 9.61831E-15
 -1      3428 2.00049E+01 6.35480E-03 5.51560E-05-4.25546E-04 5.45414E-15 7.55961E-14
 -1      3429 2.00044E+01 4.73720E-03-3.17624E-05 6.42218E-04-1.18285E-13 3.15218E-13
 -1      3430 2.00056E+01 8.48325E-03-3.17380E-06-1.37460E-03 2.14863E-13-1.16968E-13
 -1      3431 2.00041E+01 3.45002E-03 3.87474E-05 1.39441E-03-3.63301E-13 3.73163E-13
 -1      3432 2.00036E+01 2.34894E-03-1.79159E-05 2.02538E-03-2.39622E-13 2.87181E-13
 -1      3433 2.00049E+01 4.82898E-03-7.74893E-06 6.66288E-04-1.26563E-13 2.23033E-13
 -1      3434 2.00033E+01 1.48322E-03 2.63886E-05 2.44426E-03-1.64920E-14 3.06237E-13
 -1      3435 2.00029E+01 7.52955E-04-8.63720E-06 2.77113E-03 4.89423E-14 3.80548E-13
 -1      3436 2.00042E+01 2.32762E-03-9.83345E-06 1.89365E-03-9.22349E-14 6.78405E-14
 -1      3437 2.00025E+01 1.84275E-04 1.73536E-05 2.96105E-03-2.46148E-15 3.24702E-13
 -1      3438 2.00022E+01-2.89828E-04-2.40296E-06 3.08046E-03-4.92591E-14 1.65859E-13
 -1      3439 2.00034E+01 6.57280E-04-1.02566E-05 2.55116E-03-1.96610E-14 1.45718E-13
 -1      3440 2.00018E+01-6.63109E-04 1.01183E-05 3.11756E-03-1.24507E-13 2.61133E-13
 -1      3441 2.00016E+01-9.67025E-04 2.37927E-06 3.09469E-03-7.89656E-14 1.00370E-13
 -1      3442 2.00026E+01-4.35638E-04-9.28705E-06 2.81782E-03-9.16551E-14 2.15878E-14
 -1      3443 2.00013E+01-1.19399E-03 4.14110E-06 3.01838E-03-3.79119E-14 2.91920E-16
 -1      3444 2.00011E+01-1.41694E-03 1.16432E-06 2.90565E-03-1.47155E-13-2.28181E-13
 -1      3445 2.00016E+01-1.59237E-03-1.58308E-06 2.61525E-03-2.32535E-13 8.29907E-14
 -1      3446 2.00020E+01-1.12715E-03-8.24894E-06 2.80225E-03-1.34965E-13-1.34164E-13
 -1      3447 1.01783E+01 7.51742E-01 6.69478E-02 1.62657E+00-5.98133E-14 2.35048E-13
 -1      3448 9.81363E+00 8.96335E-01 1.40657E-01-2.19386E-01 1.31761E-13 2.58821E-13
 -1      3449 1.31151E+01 7.52388E-01 2.91701E-02-2.52437E+00 9.15596E-14 8.32112E-14
 -1      3450 2.29238E+01 1.40115E+00-3.76159E-02-1.72646E+00 1.05080E-13-1.58872E-14
 -1      3451 2.28211E+01 2.10766E+00 1.21453E-02-1.45928E+00 1.44973E-13-4.92228E-16
 -1      3452 2.26165E+01 2.65223E+00-2.88967E-02-9.69927E-01 1.68405E-13-3.23496E-14
 -1      3453 2.25558E+01 2.96642E+00-7.65700E-03-4.54221E-01 1.79610E-13 4.64792E-15
 -1      3454 2.33518E+01 2.71148E+00-2.56373E-02-1.34102E+00 1.44813E-13-3.50883E-14
 -1      3455 2.30597E+01-1.05313E+00-1.01309E-02-1.22620E+00 1.49271E-14 1.34873E-13
 -1      3456 2.31167E+01-6.13636E-01-4.93791E-04-1.46792E+00 5.68868E-14 5.14961E-14
 -1      3457 2.26419E+01-1.47180E+00 4.98107E-03-5.57183E-01 5.15876E-14 2.04623E-13
 -1      3458 2.27954E+01-1.33187E+00-9.93036E-03-8.48278E-01 5.49790E-14 1.63249E-13
 -1      3459 2.33357E+01-1.44169E+00 3.74720E-03-8.69635E-01 1.50758E-14 7.70419E-14
 -1      3460 2.20543E+01-1.42276E+00 1.22181E-02 6.05825E-03-6.27070E-14 1.95282E-13
 -1      3461 2.22608E+01-1.49148E+00-1.04538E-02-2.34080E-01 3.37034E-14 2.09643E-13
 -1      3462 2.26537E+01-1.72116E+00-4.44007E-03-1.45325E-01 1.74778E-14 1.78306E-13
 -1      3463 2.14694E+01-1.14445E+00 1.27429E-02 3.83187E-01-1.11683E-13 2.07286E-13
 -1      3464 2.16808E+01-1.30669E+00-7.12734E-03 2.18478E-01-8.05989E-14 2.23396E-13
 -1      3465 2.19101E+01-1.55449E+00-1.03567E-02 3.68712E-01-6.66480E-14 2.06976E-13
 -1      3466 2.09741E+01-7.95310E-01 1.03028E-02 5.88186E-01-7.01451E-14 9.02551E-14
 -1      3467 2.11599E+01-9.76232E-01-3.52035E-03 4.94264E-01-9.51295E-14 1.80861E-13
 -1      3468 2.12562E+01-1.18415E+00-1.16010E-02 6.61876E-01-1.06395E-13 8.90608E-14
 -1      3469 2.05992E+01-4.71048E-01 7.21173E-03 6.65534E-01-8.18209E-14 1.32233E-13
 -1      3470 2.07463E+01-6.29971E-01-9.00168E-04 6.25555E-01-8.46636E-14 1.34304E-13
 -1      3471 2.07506E+01-7.78604E-01-1.03214E-02 7.79017E-01-9.28022E-14 1.10094E-13
 -1      3472 2.03381E+01-2.12594E-01 4.57356E-03 6.61043E-01-8.43540E-14 1.30663E-13
 -1      3473 2.04458E+01-3.34529E-01 5.73375E-04 6.57498E-01-4.99276E-14 1.31938E-13
 -1      3474 2.03955E+01-4.26390E-01-7.96881E-03 7.83477E-01-8.24486E-14 1.00549E-13
 -1      3475 2.01689E+01-2.85695E-02 2.57780E-03 6.09956E-01-1.86143E-13 2.53027E-13
 -1      3476 2.02432E+01-1.12530E-01 1.24937E-03 6.28505E-01-1.36799E-13 1.97942E-13
 -1      3477 2.01659E+01-1.58625E-01-5.57568E-03 7.25082E-01-1.54307E-13 1.19565E-13
 -1      3478 2.00671E+01 8.90094E-02 1.20168E-03 5.36279E-01-6.68085E-14 1.56539E-13
 -1      3479 2.01158E+01 3.74030E-02 1.43630E-03 5.66611E-01-1.02673E-13 2.15718E-13
 -1      3480 2.00298E+01 2.43657E-02-3.63151E-03 6.37511E-01-1.40862E-13 2.95660E-13
 -1      3481 2.00112E+01 1.54143E-01 3.17380E-04 4.55152E-01-7.13330E-14 2.03341E-13
 -1      3482 2.00418E+01 1.27289E-01 1.38938E-03 4.90312E-01-1.30924E-13 1.56416E-13
 -1      3483 1.99580E+01 1.36080E-01-2.19718E-03 5.41018E-01-1.24405E-13 1.57760E-13
 -1      3484 1.99845E+01 1.81440E-01-2.06129E-04 3.75608E-01 1.22767E-15 2.97187E-13
 -1      3485 2.00030E+01 1.71981E-01 1.24578E-03 4.11163E-01 6.43004E-14 2.97380E-13
 -1      3486 1.99276E+01 1.93693E-01-1.21254E-03 4.46958E-01-5.10159E-14 2.68337E-13
 -1      3487 1.99752E+01 1.83617E-01-4.80297E-04 3.02635E-01-1.56419E-13 3.44598E-13
 -1      3488 1.99861E+01 1.85393E-01 1.07497E-03 3.35947E-01-1.18262E-13 2.93370E-13
 -1      3489 1.99217E+01 2.13467E-01-5.78465E-04 3.61171E-01-7.77993E-14 4.11735E-13
 -1      3490 1.99754E+01 1.70660E-01-5.91287E-04 2.38612E-01-1.05268E-13 3.89580E-13
 -1      3491 1.99816E+01 1.78957E-01 9.07969E-04 2.68282E-01-1.11855E-13 3.63686E-13
 -1      3492 1.99288E+01 2.08878E-01-1.97368E-04 2.86199E-01-1.46621E-13 3.09513E-13
 -1      3493 1.99799E+01 1.49833E-01-6.01924E-04 1.84284E-01-1.14495E-13 3.13039E-13
 -1      3494 1.99835E+01 1.61296E-01 7.56571E-04 2.09737E-01-1.37517E-13 3.50351E-13
 -1      3495 1.99417E+01 1.90177E-01 1.19322E-05 2.22664E-01-1.37956E-13 2.39212E-13
 -1      3496 1.99858E+01 1.26075E-01-5.55995E-04 1.39415E-01 2.04061E-14 2.09865E-13
 -1      3497 1.99879E+01 1.38472E-01 6.23882E-04 1.60600E-01 4.86285E-14 2.92672E-13
 -1      3498 1.99559E+01 1.64649E-01 1.11133E-04 1.70120E-01-1.69873E-15 3.14506E-13
 -1      3499 1.99914E+01 1.02507E-01-4.82667E-04 1.03213E-01-1.79023E-14 1.32025E-13
 -1      3500 1.99929E+01 1.14462E-01 5.09533E-04 1.20398E-01-4.14472E-15 1.57491E-13
 -1      3501 1.99691E+01 1.37140E-01 1.44234E-04 1.27560E-01 3.31789E-14 3.22271E-13
 -1      3502 1.99962E+01 8.09150E-02-4.00477E-04 7.46177E-02 1.33824E-13-1.61442E-14
 -1      3503 1.99972E+01 9.16710E-02 4.11964E-04 8.82385E-02 2.04609E-14 6.91577E-14
 -1      3504 1.99802E+01 1.10635E-01 1.41050E-04 9.37326E-02 6.92243E-14 1.53524E-13
 -1      3505 1.99997E+01 6.21651E-02-3.20463E-04 5.24840E-02-2.46258E-14 7.84104E-14
 -1      3506 2.00006E+01 7.13849E-02 3.29470E-04 6.30466E-02 8.75684E-14 7.87638E-14
 -1      3507 1.99889E+01 8.67804E-02 1.20315E-04 6.73235E-02 7.41769E-14 1.49432E-13
 -1      3508 2.00021E+01 4.65228E-02-2.48460E-04 3.56928E-02 3.80361E-14 2.83636E-14
 -1      3509 2.00029E+01 5.41367E-02 2.60356E-04 4.37098E-02-9.13415E-15 7.55625E-14
 -1      3510 1.99952E+01 6.63135E-02 9.37249E-05 4.70694E-02 1.82438E-14 7.04173E-14
 -1      3511 2.00036E+01 3.38912E-02-1.87011E-04 2.32171E-02 2.48623E-13-5.03866E-15
 -1      3512 2.00043E+01 3.99875E-02 2.03019E-04 2.91692E-02 2.00211E-13 1.06703E-13
 -1      3513 1.99996E+01 4.93872E-02 6.75169E-05 3.18175E-02 4.52959E-14-5.80603E-14
 -1      3514 2.00043E+01 2.39751E-02-1.36634E-04 1.41533E-02 1.28272E-13 1.27658E-13
 -1      3515 2.00050E+01 2.87246E-02 1.56008E-04 1.84690E-02 2.23885E-13 1.36745E-13
 -1      3516 2.00024E+01 3.58104E-02 4.47950E-05 2.05541E-02 1.67078E-13 1.71016E-13
 -1      3517 2.00044E+01 1.63908E-02-9.66808E-05 7.73299E-03 1.12602E-13-1.37036E-14
 -1      3518 2.00051E+01 1.99974E-02 1.17945E-04 1.07798E-02 4.75170E-14 1.05567E-14
 -1      3519 2.00039E+01 2.52104E-02 2.66784E-05 1.24134E-02 1.48223E-13 1.72998E-13
 -1      3520 2.00042E+01 1.07350E-02-6.59172E-05 3.31976E-03 1.16884E-13 9.94545E-14
 -1      3521 2.00048E+01 1.34053E-02 8.75434E-05 5.40347E-03 1.12947E-13 1.60670E-14
 -1      3522 2.00046E+01 1.71409E-02 1.31746E-05 6.67354E-03 2.05962E-14 6.95123E-14
 -1      3523 2.00038E+01 6.62447E-03-4.28989E-05 3.99584E-04-5.67487E-14 1.70463E-13
 -1      3524 2.00043E+01 8.55074E-03 6.36181E-05 1.76781E-03 6.87288E-14 1.56411E-13
 -1      3525 2.00047E+01 1.11484E-02 3.74173E-06 2.74593E-03 4.10604E-14 8.37733E-14
 -1      3526 2.00033E+01 3.71672E-03-2.61851E-05-1.43363E-03-1.83451E-13 2.14601E-13
 -1      3527 2.00037E+01 5.06852E-03 4.50941E-05-5.85215E-04-1.20169E-13 1.26032E-13
 -1      3528 2.00045E+01 6.81020E-03-2.37902E-06 1.60033E-04 2.58384E-14 3.21419E-14
 -1      3529 2.00027E+01 1.71700E-03-1.44731E-05-2.49344E-03-3.42554E-13 4.54371E-13
 -1      3530 2.00031E+01 2.63890E-03 3.10189E-05-2.01401E-03-3.20093E-13 2.59103E-13
 -1      3531 2.00040E+01 3.75231E-03-5.97926E-06-1.45285E-03-3.10658E-13 2.43027E-13
 -1      3532 2.00021E+01 3.78382E-04-6.52371E-06-3.01582E-03 2.45311E-14 4.80092E-13
 -1      3533 2.00024E+01 9.90776E-04 2.06452E-05-2.79232E-03-1.39404E-13 4.27412E-13
 -1      3534 2.00033E+01 1.65520E-03-7.78563E-06-2.37577E-03-3.80024E-13 9.21158E-14
 -1      3535 2.00016E+01-5.03450E-04-1.80712E-06-3.17253E-03 8.75401E-14 6.48964E-13
 -1      3536 2.00018E+01-1.01681E-04 1.31484E-05-3.12326E-03 1.22976E-13 5.42633E-13
 -1      3537 2.00027E+01 2.52319E-04-8.28704E-06-2.81941E-03-2.99306E-14 1.76990E-13
 -1      3538 2.00011E+01-1.09827E-03-2.37806E-06-3.09169E-03 2.65692E-13 8.27199E-13
 -1      3539 2.00013E+01-8.15233E-04 9.60679E-06-3.15219E-03 1.38177E-13 7.55290E-13
 -1      3540 2.00020E+01-6.77570E-04-9.08920E-06-2.93783E-03 1.29058E-13 6.51161E-13
 -1      3541 2.00025E+01-1.74562E-03-2.27480E-06 1.58415E-03 1.68030E-13-1.06090E-13
 -1      3542 2.00027E+01-1.78591E-03 2.21285E-06 1.15378E-03 2.29513E-13 5.17508E-15
 -1      3543 2.00014E+01-1.80650E-03 2.32155E-06-2.29614E-03 2.04613E-13 3.31461E-13
 -1      3544 2.00019E+01-1.63365E-03 5.75661E-07 2.30509E-03-1.16722E-14 4.86014E-14
 -1      3545 2.00022E+01-1.71704E-03 3.25933E-06 1.94770E-03 1.32948E-13-1.05119E-13
 -1      3546 2.00028E+01-1.45405E-03 1.53868E-06 1.76809E-03 2.87117E-13-8.17529E-14
 -1      3547 2.00022E+01-1.39794E-03 1.75442E-06 2.41629E-03-6.55384E-14-1.10575E-13
 -1      3548 2.00028E+01-1.79910E-03-1.62707E-06 6.76559E-04 1.44171E-13 1.18045E-13
 -1      3549 2.00029E+01-1.80816E-03 1.89849E-07 2.20106E-04 1.89209E-13-2.33262E-14
 -1      3550 2.00031E+01-1.47280E-03 1.50023E-06 9.37012E-04 2.64408E-13 9.41173E-14
 -1      3551 1.73679E+01 2.64285E+00-1.99605E-02 5.70446E-01-8.52361E-14-1.86327E-13
 -1      3552 2.30546E+01-3.87541E+00-7.15434E-02 2.92762E+00-3.27143E-13-4.77084E-14
 -1      3553 2.12940E+01-3.37004E+00 5.15739E-02 3.92999E+00-3.89089E-13 5.41112E-14
 -1      3554 9.98839E+00 5.58467E-01 6.74409E-02-1.59506E+00 2.53176E-13 3.32040E-13
 -1      3555 1.27568E+01 1.22953E+00 6.47807E-02-1.54617E+00 1.23789E-13 1.42279E-13
 -1      3556 1.69200E+01 2.89036E+00 2.25456E-02-1.11654E-01-1.17741E-13-2.08659E-13
 -1      3557 1.67133E+01 2.46106E+00-2.06405E-02 6.54345E-01-7.10300E-14-1.99746E-13
 -1      3558 1.12910E+01 1.02094E+00 1.09020E-01-8.60266E-01 1.19046E-13 1.98869E-13
 -1      3559 2.32072E+01 7.16370E-01 1.29025E-02 1.62788E+00 5.15360E-14 2.31102E-13
 -1      3560 2.32769E+01 1.71148E-02-2.82126E-02 1.59760E+00 4.05698E-15 2.21072E-13
 -1      3561 1.56329E+01-2.97843E-01 4.57623E-02-4.27707E+00-2.48747E-13-1.77074E-13
 -1      3562 1.76992E+01-1.63183E+00-3.63775E-03-4.81404E+00-2.62464E-13-9.63743E-14
 -1      3563 2.12904E+01-5.70454E-02-6.79818E-03-2.08337E-01 6.50641E-14-2.80529E-14
 -1      3564 1.58766E+01 1.55264E+00 3.72039E-03-1.41177E+00 1.57518E-13 2.26121E-14
 -1      3565 1.64482E+01 1.57851E+00-2.38726E-02-1.23606E+00 1.50859E-13-1.07021E-13
 -1      3566 1.64031E+01 1.69825E+00 3.31082E-02-7.01990E-01 1.27595E-13-1.03438E-13
 -1      3567 1.48619E+01 1.67043E+00 4.31766E-02-8.47501E-01 8.73216E-14 6.77097E-14
 -1      3568 2.54071E+01-3.01819E+00-8.49542E-02 3.36441E-01-1.28708E-13-2.78228E-13
 -1      3569 2.46289E+01-3.46632E+00 6.55461E-02 1.57210E+00-2.21099E-13-2.21754E-13
 -1      3570 1.78123E+01 2.99229E+00 8.33066E-03-1.10579E+00-5.92313E-14-2.05903E-13
 -1      3571 1.75788E+01 3.09711E+00-1.81793E-02-1.01932E+00-8.28157E-14-1.99965E-13
 -1      3572 1.74333E+01 2.94981E+00 1.58855E-02-1.02380E+00-9.21485E-14-1.89992E-13
 -1      3573 1.61203E+01 2.28912E+00-1.51305E-02 8.99046E-01-4.12274E-14-2.30392E-13
 -1      3574 2.41335E+01-3.42203E+00 6.13942E-02-2.31584E+00-1.84439E-13 2.07569E-13
 -1      3575 2.48313E+01-3.37057E+00-4.67387E-02-1.47878E+00-1.44634E-13 2.69937E-13
 -1      3576 1.27612E+01 1.59598E+00 9.21473E-02-2.02831E+00-1.94771E-13-3.46924E-13
 -1      3577 1.38283E+01 7.87552E-01-5.79413E-03-3.27927E+00-2.25958E-13-2.39968E-13
 -1      3578 2.00029E+01-1.79719E-03 1.12480E-06-2.80634E-04 1.99645E-13-5.29380E-14
 -1      3579 2.00028E+01-1.77725E-03-2.61736E-06-7.41647E-04 8.35960E-14-4.09684E-13
 -1      3580 2.00033E+01-1.46755E-03 3.57358E-06-3.76319E-05 1.77554E-13-1.50469E-13
 -1      3581 2.31555E+01-4.77982E-02-2.93991E-02-1.73268E+00 2.99235E-14 1.80789E-14
 -1      3582 2.31079E+01 6.57639E-01 1.02423E-02-1.78399E+00 3.34888E-14-3.66705E-14
 -1      3583 2.36903E+01 1.12100E+00 3.82435E-03-1.87643E+00 7.10517E-14-5.92104E-14
 -1      3584 2.37242E+01-4.35285E-01 1.45069E-02-1.59668E+00-7.54345E-15-8.32667E-17
 -1      3585 1.34708E+01 1.04831E+00 1.67422E-02 2.56652E+00 6.23286E-14-3.80092E-13
 -1      3586 2.19318E+01-8.63581E-01-1.26055E-02-1.11780E-01 7.01908E-14 1.49025E-14
 -1      3587 2.17553E+01-5.70230E-01 1.77505E-02-1.91856E-01 5.24127E-14-7.70868E-15
 -1      3588 2.60836E+01 8.53713E-01-3.64401E-02-1.92937E+00 1.54581E-13-2.22128E-13
 -1      3589 2.51855E+01 4.03562E+00-1.04601E-01-1.56682E+00 1.93900E-13-5.50740E-14
 -1      3590 2.50782E+01 3.24940E+00-1.21474E-02-1.83305E+00 1.64410E-13-4.72157E-14
 -1      3591 2.04213E+01-3.12161E+00 1.31327E-02 4.23376E+00-3.12620E-13-1.67245E-14
 -1      3592 1.92954E+01-2.57554E+00 4.35336E-03 4.32232E+00-2.04282E-13-2.73115E-14
 -1      3593 2.14199E+01-2.91469E+00 3.05370E-02 3.23201E+00-2.65053E-13-3.70803E-15
 -1      3594 1.42671E+01 1.59256E+00 6.31671E-02 1.79396E+00 8.27550E-15-3.51219E-13
 -1      3595 1.46420E+01 1.94809E+00-1.49937E-02 1.30293E+00-3.05485E-14-3.04319E-13
 -1      3596 2.13631E+01-2.34992E-01-1.05691E-02-4.22315E-01 5.15673E-14-2.60283E-14
 -1      3597 1.93021E+01-1.81131E+00 3.84912E-02-4.17146E+00-2.66665E-13-1.36870E-15
 -1      3598 2.54324E+01 5.17293E+00-1.46473E-01 5.37079E-01 2.57988E-13 1.40158E-13
 -1      3599 2.49538E+01 5.04531E+00-5.96561E-02-6.05103E-02 2.77639E-13 1.45797E-13
 -1      3600 2.51740E+01 4.68386E+00-4.89171E-02 1.00554E+00 2.39628E-13 1.64124E-13
 -1      3601 2.25673E+01-9.40334E-01 5.00676E-03 8.25463E-01 3.61656E-14 1.10231E-13
 -1      3602 2.38920E+01-3.64148E-01 1.86085E-02 1.49349E+00-5.84949E-15 2.17108E-13
 -1      3603 2.32612E+01-5.39294E-01-1.73318E-03 1.33187E+00 1.09548E-15 2.04909E-13
 -1      3604 2.32340E+01-9.47488E-01-6.47328E-03 1.11378E+00-3.20924E-16 1.82537E-13
 -1      3605 1.67265E+01 2.90401E+00 2.86780E-03-4.54997E-01-1.11738E-13-2.06950E-13
 -1      3606 2.52331E+01-3.00887E+00 7.70998E-03-8.26544E-01-1.37104E-13 2.66894E-13
 -1      3607 2.53782E+01-2.64996E+00-5.75543E-02-1.65843E-01-1.12932E-13 2.34508E-13
 -1      3608 2.44924E+01-2.83732E+00 5.06910E-03-9.47945E-01-1.53571E-13 2.26633E-13
 -1      3609 1.24124E+01 1.39025E+00 2.54301E-02-2.98956E-01 5.27573E-14 1.13999E-13
 -1      3610 2.00007E+01-1.37213E-03 7.94110E-06-2.96385E-03 4.35560E-13 8.08210E-13
 -1      3611 2.00020E+01-1.62973E-03 1.16451E-05-2.16752E-03 3.32093E-13 2.42289E-13
 -1      3612 2.00014E+01-1.52937E-03-1.01536E-05-2.63068E-03 3.81629E-13 3.78946E-13
 -1      3613 2.00026E+01-1.74368E-03 4.41012E-06-1.21570E-03 1.57454E-13-4.43214E-13
 -1      3614 2.00024E+01-1.70136E-03-1.19716E-05-1.63689E-03 2.33139E-13-2.12123E-14
 -1      3615 2.00031E+01-1.43159E-03 2.86350E-06-1.00905E-03 9.77058E-14-5.37339E-13
 -1      3616 1.12250E+01 7.25992E-01 1.22938E-01 2.46274E+00-7.64614E-14 3.04881E-13
 -1      3617 1.16949E+01 1.11390E+00 4.86714E-02 1.32491E+00 2.98025E-14 1.81646E-13
 -1      3618 1.25051E+01 4.11949E-01 4.60221E-02 3.02760E+00-9.85663E-14 2.27554E-13
 -1      3619 2.67563E+01-1.01689E+00-6.00604E-02 1.24656E+00-7.28584E-16 3.28022E-13
 -1      3620 2.62650E+01-6.72924E-02-2.09359E-02 1.69107E+00 6.38864E-14 2.87173E-13
 -1      3621 2.60635E+01-1.79228E+00-1.48865E-02 6.78042E-01-2.16285E-14 2.68759E-13
 -1      3622 2.28558E+01 2.13291E+00 4.35590E-03 1.29077E+00 7.79862E-14 1.39380E-13
 -1      3623 2.29762E+01 1.41595E+00-5.00096E-02 1.54512E+00 8.63558E-14 1.71738E-13
 -1      3624 2.37786E+01 1.21278E+00 1.41266E-02 1.76300E+00 9.90727E-14 2.05251E-13
 -1      3625 2.35291E+01-3.25983E+00 1.23078E-02 1.87130E+00-2.10283E-13-1.00965E-13
 -1      3626 1.52894E+01 5.27283E-01 6.50854E-02-3.59934E+00-2.29683E-13-2.03151E-13
 -1      3627 1.67263E+01 1.27779E-01 8.06466E-03-3.56422E+00-2.44829E-13-1.29955E-13
 -1      3628 1.51376E+01 1.18783E+00-4.37115E-03-2.78973E+00-2.12785E-13-2.11291E-13
 -1      3629 2.62871E+01 2.76911E+00-5.09640E-02 1.94201E+00 1.93331E-13 3.15331E-13
 -1      3630 1.49761E+01 2.45549E+00 6.59614E-02 1.83699E-01-8.54750E-14-2.74684E-13
 -1      3631 1.69602E+01-1.64102E+00 3.28118E-02 4.61699E+00-1.95146E-13-6.09929E-15
 -1      3632 1.51889E+01-1.42809E+00 8.88617E-02 5.06208E+00-2.39156E-13 1.31520E-13
 -1      3633 1.44064E+01-5.72175E-01 2.34042E-02 4.23487E+00-1.61444E-13 1.44870E-13
 -1      3634 2.29216E+01-3.06930E+00 1.46357E-02-2.72243E+00-2.01932E-13 1.51731E-13
 -1      3635 1.79410E+01 2.54268E+00 2.50858E-03-1.32316E+00-6.14922E-14-1.90382E-13
 -1      3636 2.25933E+01 2.95534E+00-2.90263E-03 2.66165E-01 1.61302E-13 3.39243E-14
 -1      3637 2.26578E+01 2.66993E+00-2.34947E-02 7.61818E-01 9.25779E-14 6.45616E-14
 -1      3638 2.34325E+01 2.78515E+00 2.97093E-03 1.17066E+00 1.61639E-13 1.10402E-13
 -1      3639 2.31792E+01 3.43770E+00-2.59693E-02-6.72372E-02 2.08640E-13 2.54562E-14
 -1      3640 1.35660E+01 1.85362E+00 4.07626E-02-1.06639E+00-1.46129E-13-3.21600E-13
 -1      3641 2.47261E+01 4.33730E+00-7.03637E-02-1.12269E+00 2.06439E-13 7.77677E-14
 -1      3642 2.00013E+01-1.36247E-03-5.28947E-06-2.83987E-03 3.29175E-13 6.41535E-13
 -1      3643 1.90830E+01 1.51835E+00 1.42020E-02-1.48514E+00-4.34965E-14-1.21083E-13
 -1      3644 1.85776E+01 1.74149E+00-1.36157E-02-1.58682E+00-6.43784E-14-1.58413E-13
 -1      3645 2.23108E+01-1.07651E+00 1.56121E-02 4.38609E-02 6.23734E-14 6.15460E-14
 -1      3646 2.21717E+01-1.10971E+00-1.64726E-02-2.81034E-01 2.99669E-14 4.65275E-14
 -1      3647 2.24830E+01-1.22534E+00-1.30556E-02 2.26809E-01 3.66608E-14 9.61800E-14
 -1      3648 1.99734E+01 1.02406E+00 5.57997E-03-1.08554E+00 1.53256E-14-7.21541E-14
 -1      3649 1.95476E+01 1.23272E+00-4.97832E-03-1.29413E+00-2.76243E-14-9.37055E-14
 -1      3650 1.94378E+01 9.28771E-01-9.25368E-03-1.61375E+00-5.05737E-14-8.47672E-14
 -1      3651 1.70387E+01 1.49855E+00-1.43942E-02-2.50892E-01 1.44502E-13-2.12129E-13
 -1      3652 1.75001E+01 1.42314E+00-9.24341E-03-2.79104E-01 1.01791E-13-2.17484E-13
 -1      3653 2.58408E+01-1.92773E+00 1.96529E-02-6.99373E-01-4.45130E-14-3.36616E-13
 -1      3654 2.49446E+01-2.28015E+00-1.11280E-03-3.07830E-01-8.51784E-14-2.34755E-13
 -1      3655 1.78855E+01 1.33677E+00-1.14248E-02-3.49321E-01 3.67367E-14-2.55290E-13
 -1      3656 1.82173E+01 1.24544E+00-6.14903E-03-3.54854E-01-3.01011E-14-3.26404E-13
 -1      3657 1.76394E+01 1.37005E+00 1.76130E-02 2.44063E-02 6.55753E-15-3.59656E-13
 -1      3658 1.84980E+01 1.14901E+00-7.92191E-03-3.91358E-01-1.12766E-13-3.47271E-13
 -1      3659 1.87340E+01 1.05473E+00-4.49761E-03-3.79480E-01-1.82069E-13-3.11884E-13
 -1      3660 1.82889E+01 1.20299E+00 1.25284E-02-1.29381E-01-1.04110E-13-3.61959E-13
 -1      3661 1.89401E+01 9.61079E-01-5.29639E-03-3.91313E-01-2.37619E-13-1.67187E-13
 -1      3662 1.91066E+01 8.72351E-01-3.49036E-03-3.67918E-01-2.33869E-13-1.84431E-13
 -1      3663 1.87649E+01 1.02591E+00 9.07265E-03-2.09660E-01-1.32153E-13-2.61522E-13
 -1      3664 1.92580E+01 7.87563E-01-3.43110E-03-3.63728E-01-2.13599E-13-2.22980E-13
 -1      3665 1.93746E+01 7.08617E-01-2.79747E-03-3.34359E-01-1.96835E-13-2.66909E-13
 -1      3666 1.91145E+01 8.55083E-01 6.60042E-03-2.39458E-01-2.42933E-13-1.38073E-13
 -1      3667 1.94857E+01 6.35147E-01-2.12964E-03-3.20906E-01-8.94196E-14-1.61061E-13
 -1      3668 1.95665E+01 5.67405E-01-2.26594E-03-2.89848E-01-4.59286E-14-6.88306E-14
 -1      3669 1.93704E+01 6.99874E-01 4.79512E-03-2.37219E-01-7.63324E-14-1.22202E-13
 -1      3670 1.96476E+01 5.05562E-01-1.24623E-03-2.72009E-01-3.52481E-14 4.66652E-14
 -1      3671 1.97031E+01 4.48857E-01-1.83206E-03-2.42138E-01 3.21580E-15 5.76114E-14
 -1      3672 1.95570E+01 5.64296E-01 3.47018E-03-2.16618E-01 8.69474E-14 3.54363E-15
 -1      3673 1.97620E+01 3.97840E-01-6.66882E-04-2.23172E-01-8.96982E-14 9.85300E-14
 -1      3674 1.97997E+01 3.51219E-01-1.46964E-03-1.96160E-01-8.66098E-14 1.53303E-13
 -1      3675 1.96922E+01 4.49080E-01 2.49891E-03-1.87206E-01-2.48433E-14 7.86153E-14
 -1      3676 1.98423E+01 3.09752E-01-3.02215E-04-1.78055E-01-1.01015E-14 6.53743E-14
 -1      3677 1.98677E+01 2.71944E-01-1.16650E-03-1.54688E-01 9.78287E-14 2.22249E-14
 -1      3678 1.97895E+01 3.53135E-01 1.78957E-03-1.55220E-01-5.22425E-14 3.75130E-14
 -1      3679 1.98982E+01 2.38633E-01-8.42743E-05-1.38516E-01 7.77710E-14 1.40911E-13
 -1      3680 1.99150E+01 2.08322E-01-9.14986E-04-1.18980E-01 4.04308E-14 1.17710E-13
 -1      3681 1.98589E+01 2.74492E-01 1.27386E-03-1.24419E-01 1.31158E-13 7.85775E-14
 -1      3682 1.99366E+01 1.81831E-01 3.65841E-05-1.05197E-01-1.12430E-13 1.62141E-13
 -1      3683 1.99476E+01 1.57783E-01-7.06676E-04-8.93141E-02-4.45450E-14-6.82453E-14
 -1      3684 1.99081E+01 2.10879E-01 9.01286E-04-9.68188E-02-7.55789E-14 1.71988E-13
 -1      3685 1.99627E+01 1.36890E-01 8.82558E-05-7.79804E-02-1.13677E-14-1.89063E-13
 -1      3686 1.99697E+01 1.17984E-01-5.50935E-04-6.53627E-02-5.49467E-14-1.80203E-13
 -1      3687 1.99425E+01 1.60042E-01 6.39067E-04-7.32795E-02-1.45781E-13-1.18163E-14
 -1      3688 1.99805E+01 1.00933E-01 1.12966E-04-5.58764E-02 8.53333E-15-2.18443E-13
 -1      3689 1.99850E+01 8.56643E-02-4.13655E-04-4.57142E-02 3.57344E-15-1.91132E-13
 -1      3690 1.99666E+01 1.19001E-01 4.52039E-04-5.35316E-02-5.87622E-14-5.08154E-15
 -1      3691 1.99919E+01 7.32677E-02 1.14678E-04-3.88034E-02-2.79070E-14-2.54593E-13
 -1      3692 1.99944E+01 6.21308E-02-2.98095E-04-3.14663E-02-4.83807E-14-2.61010E-13
 -1      3693 1.99828E+01 8.70237E-02 2.98454E-04-3.78851E-02 2.07863E-14-1.47214E-13
 -1      3694 1.99989E+01 5.26561E-02 1.07965E-04-2.62213E-02 1.06571E-14-2.27641E-13
 -1      3695 2.00002E+01 4.41881E-02-2.17550E-04-2.07674E-02-3.16044E-14-9.28225E-14
 -1      3696 1.99931E+01 6.30473E-02 1.97246E-04-2.61227E-02 1.44855E-14-2.49796E-13
 -1      3697 2.00030E+01 3.70457E-02 9.24985E-05-1.68948E-02 1.65072E-14-4.54737E-14
 -1      3698 2.00035E+01 3.07006E-02-1.55282E-04-1.29292E-02 2.13595E-13-1.57218E-14
 -1      3699 1.99995E+01 4.47735E-02 1.28652E-04-1.72464E-02 2.34254E-14-1.46895E-13
 -1      3700 2.00051E+01 2.53911E-02 7.59497E-05-1.01434E-02 3.88743E-13-1.03933E-13
 -1      3701 2.00052E+01 2.07088E-02-1.08139E-04-7.33069E-03 4.94375E-13 8.82699E-15
 -1      3702 2.00033E+01 3.10310E-02 8.09462E-05-1.07179E-02 2.42237E-13-4.04167E-14
 -1      3703 2.00060E+01 1.68248E-02 6.03171E-05-5.38468E-03 4.16162E-13-8.21258E-14
 -1      3704 2.00058E+01 1.34293E-02-7.30287E-05-3.44700E-03 4.45006E-13-1.43972E-13
 -1      3705 2.00053E+01 2.08541E-02 4.80898E-05-6.04383E-03 3.46471E-13-1.13516E-13
 -1      3706 2.00061E+01 1.06403E-02 4.65409E-05-2.13463E-03 3.62865E-13-1.69780E-13
 -1      3707 2.00058E+01 8.22674E-03-4.73623E-05-8.47846E-04 1.94342E-13-1.17212E-13
 -1      3708 2.00061E+01 1.34477E-02 2.58875E-05-2.79781E-03 4.64521E-13-2.70414E-13
 -1      3709 2.00057E+01 6.26623E-03 3.49630E-05-2.50929E-06-5.33298E-14-1.24070E-13
 -1      3710 2.00053E+01 4.58956E-03-2.90139E-05 8.10107E-04-2.80471E-13-1.97701E-14
 -1      3711 2.00061E+01 8.16308E-03 1.12816E-05-6.25585E-04 7.25307E-14-1.99617E-13
 -1      3712 2.00050E+01 3.24411E-03 2.55646E-05 1.31946E-03-1.61776E-13-3.18967E-15
 -1      3713 2.00046E+01 2.10818E-03-1.63284E-05 1.79413E-03 9.68988E-14 1.51022E-14
 -1      3714 2.00056E+01 4.47581E-03 1.97559E-06 7.57878E-04-1.43536E-13-6.97447E-14
 -1      3715 2.00042E+01 1.20731E-03 1.82659E-05 2.06796E-03 4.60777E-14-1.48213E-13
 -1      3716 2.00038E+01 4.56221E-04-7.27601E-06 2.30647E-03-1.31463E-13-2.30496E-13
 -1      3717 2.00049E+01 1.96352E-03-4.06876E-06 1.57635E-03-1.00989E-13-1.29762E-13
 -1      3718 2.00034E+01-1.38283E-04 1.19817E-05 2.42073E-03-1.25641E-13-3.86983E-13
 -1      3719 2.00030E+01-6.20169E-04 3.73252E-07 2.49543E-03-2.63827E-14-4.05346E-13
 -1      3720 2.00040E+01 2.94136E-04-7.25468E-06 1.99862E-03-1.36782E-13-4.51771E-13
 -1      3721 2.00027E+01-8.85502E-04 7.14375E-06 2.49548E-03-1.76354E-14-3.83678E-13
 -1      3722 2.00024E+01-1.17898E-03 2.28350E-06 2.43731E-03-1.28524E-13-3.33156E-13
 -1      3723 2.00028E+01-1.21177E-03-7.49008E-06 2.13615E-03 1.06517E-13-3.44015E-13
 -1      3724 2.00033E+01-6.68463E-04-1.02426E-05 2.13987E-03-7.78370E-14-5.12444E-13
 -1      3725 2.38567E+01 2.66850E+00-6.87698E-02-1.66114E+00 1.40485E-13-1.56125E-15
 -1      3726 2.37501E+01 3.54849E+00 3.29753E-03-1.16064E+00 1.56736E-13 7.23510E-15
 -1      3727 1.68346E+01 2.71630E+00-2.32993E-02-1.06343E+00-1.27497E-13-1.84697E-13
 -1      3728 1.63044E+01 2.59883E+00-2.64188E-03-7.22438E-01-1.07501E-13-2.01744E-13
 -1      3729 1.50121E+01 2.20444E+00-1.59240E-02-1.02943E+00-1.38703E-13-2.51524E-13
 -1      3730 2.26107E+01-1.97017E+00 1.69698E-02 4.01884E-01-8.18503E-14 1.22311E-13
 -1      3731 2.29623E+01-2.05187E+00-1.34281E-02 1.08953E-01-2.53213E-14 6.81948E-14
 -1      3732 2.10154E+01-1.08598E+00 1.43843E-02 9.78651E-01-9.31893E-14 1.46480E-13
 -1      3733 2.12972E+01-1.33852E+00-1.00194E-03 9.04853E-01-6.38606E-14 1.37993E-13
 -1      3734 2.05093E+01-6.37607E-01 8.88754E-03 9.77380E-01-1.11672E-13 1.38491E-13
 -1      3735 2.07198E+01-8.55227E-01 1.84947E-03 9.69569E-01-1.18090E-13 1.29170E-13
 -1      3736 2.06579E+01-1.01676E+00-1.56810E-02 1.21004E+00-1.26475E-13 1.41855E-13
 -1      3737 2.01815E+01-2.85204E-01 4.96697E-03 8.92328E-01-6.48424E-14 4.08544E-14
 -1      3738 2.03263E+01-4.49899E-01 3.16659E-03 9.21355E-01-8.25632E-14 3.45052E-14
 -1      3739 2.02142E+01-5.39662E-01-1.12718E-02 1.10586E+00-6.12362E-14 7.08137E-14
 -1      3740 1.99884E+01-3.66865E-02 2.35311E-03 7.72843E-01-2.28264E-13 1.50993E-13
 -1      3741 2.00802E+01-1.48960E-01 3.38031E-03 8.18981E-01-1.07064E-13 6.04800E-14
 -1      3742 1.99525E+01-1.86685E-01-7.35222E-03 9.50243E-01-8.58702E-14 7.90017E-14
 -1      3743 1.98882E+01 1.21696E-01 7.48687E-04 6.46846E-01-1.16421E-13 1.40177E-13
 -1      3744 1.99414E+01 5.28639E-02 2.98124E-03 6.98418E-01-1.19946E-13 1.79188E-13
 -1      3745 1.98168E+01 4.96861E-02-4.49658E-03 7.86650E-01-1.65199E-13 8.85834E-14
 -1      3746 1.98481E+01 2.09840E-01-1.78862E-04 5.28210E-01-1.16840E-13 1.77208E-14
 -1      3747 1.98751E+01 1.73859E-01 2.42534E-03 5.78728E-01-1.31193E-13 3.27255E-14
 -1      3748 1.97626E+01 1.92038E-01-2.50821E-03 6.35153E-01-7.38557E-14 5.30339E-14
 -1      3749 1.98438E+01 2.47510E-01-6.64220E-04 4.23062E-01-1.68417E-13 2.84516E-13
 -1      3750 1.98545E+01 2.34542E-01 1.88287E-03 4.69251E-01-1.77263E-13 9.93293E-14
 -1      3751 1.97577E+01 2.64496E-01-1.20495E-03 5.03589E-01-2.22793E-13 7.73634E-14
 -1      3752 1.98588E+01 2.51566E-01-8.72090E-04 3.33282E-01-6.16327E-14 3.36464E-13
 -1      3753 1.98600E+01 2.53516E-01 1.42512E-03 3.73744E-01-9.01306E-14 3.51810E-13
 -1      3754 1.97797E+01 2.88612E-01-3.99754E-04 3.93554E-01-1.67102E-13 1.51701E-13
 -1      3755 1.98823E+01 2.35158E-01-9.13564E-04 2.58576E-01-1.29052E-13 1.96438E-13
 -1      3756 1.98786E+01 2.45868E-01 1.06633E-03 2.92970E-01-7.70913E-14 2.07481E-13
 -1      3757 1.98139E+01 2.81731E-01 6.16360E-05 3.03714E-01-2.28160E-14 1.22130E-13
 -1      3758 1.99077E+01 2.07869E-01-8.61494E-04 1.97626E-01-1.20317E-13 2.36258E-13
 -1      3759 1.99021E+01 2.22943E-01 7.96137E-04 2.26186E-01-1.03910E-13 2.36975E-13
 -1      3760 1.98513E+01 2.56868E-01 2.95943E-04 2.31588E-01-7.80278E-14-4.26649E-14
 -1      3761 1.99315E+01 1.76268E-01-7.62534E-04 1.48712E-01 2.96236E-14 2.19885E-13
 -1      3762 1.99257E+01 1.92756E-01 5.96736E-04 1.71965E-01-2.61313E-14 2.44263E-13
 -1      3763 1.98866E+01 2.23232E-01 3.87541E-04 1.74435E-01-6.69900E-14-5.70462E-15
 -1      3764 1.99519E+01 1.44563E-01-6.45801E-04 1.10039E-01 3.37488E-14 2.21521E-13
 -1      3765 1.99467E+01 1.60619E-01 4.50609E-04 1.28639E-01 6.73457E-14 2.55315E-13
 -1      3766 1.99174E+01 1.86968E-01 3.95150E-04 1.29650E-01 3.59927E-14 1.05494E-13
 -1      3767 1.99683E+01 1.15218E-01-5.28413E-04 7.99010E-02 5.24181E-14 2.42927E-13
 -1      3768 1.99641E+01 1.29801E-01 3.43123E-04 9.45304E-02 4.33764E-14 1.67607E-13
 -1      3769 1.99427E+01 1.51890E-01 3.58006E-04 9.49290E-02 4.48453E-14 2.13556E-13
 -1      3770 1.99809E+01 8.94837E-02-4.20186E-04 5.67506E-02 1.62345E-14 2.47671E-13
 -1      3771 1.99777E+01 1.02102E-01 2.63162E-04 6.80684E-02 4.66488E-14 2.84762E-13
 -1      3772 1.99625E+01 1.20142E-01 3.01262E-04 6.83011E-02-3.94099E-15 4.19667E-13
 -1      3773 1.99901E+01 6.77977E-02-3.25693E-04 3.92351E-02 9.16348E-14 1.92276E-13
 -1      3774 1.99879E+01 7.83218E-02 2.02924E-04 4.78431E-02 1.22938E-13 2.71514E-13
 -1      3775 1.99774E+01 9.27153E-02 2.40079E-04 4.81125E-02 7.53327E-14 2.86656E-13
 -1      3776 1.99964E+01 5.01028E-02-2.46299E-04 2.61983E-02 7.32375E-15 2.73209E-13
 -1      3777 1.99950E+01 5.86170E-02 1.56697E-04 3.26290E-02 3.19154E-14 1.91615E-13
 -1      3778 1.99881E+01 6.98532E-02 1.82604E-04 3.30023E-02 5.75681E-14 2.24769E-13
 -1      3779 2.00006E+01 3.60581E-02-1.81684E-04 1.66691E-02 1.42686E-13 2.60683E-13
 -1      3780 1.99998E+01 4.27655E-02 1.20817E-04 2.13804E-02 7.26794E-14 1.74954E-13
 -1      3781 1.99955E+01 5.13529E-02 1.32983E-04 2.18560E-02 4.23264E-14 3.29995E-13
 -1      3782 2.00031E+01 2.51873E-02-1.30502E-04 9.84693E-03 5.38449E-14 3.10393E-13
 -1      3783 2.00028E+01 3.03431E-02 9.26821E-05 1.32232E-02 1.14675E-13 2.61700E-13
 -1      3784 2.00004E+01 3.67662E-02 9.25455E-05 1.37701E-02 1.08250E-13 2.18321E-13
 -1      3785 2.00045E+01 1.69732E-02-9.09470E-05 5.08159E-03-1.71884E-14 3.42047E-13
 -1      3786 2.00044E+01 2.08428E-02 7.04938E-05 7.43924E-03 6.52198E-14 3.10156E-13
 -1      3787 2.00033E+01 2.55388E-02 6.10599E-05 8.01938E-03 5.11694E-14 4.96053E-13
 -1      3788 2.00049E+01 1.09148E-02-6.11044E-05 1.85340E-03-1.08656E-14 3.09082E-13
 -1      3789 2.00051E+01 1.37493E-02 5.29847E-05 3.44768E-03-6.43900E-14 2.36677E-13
 -1      3790 2.00048E+01 1.70970E-02 3.75234E-05 4.02717E-03 4.42272E-14 3.60609E-13
 -1      3791 2.00048E+01 6.55701E-03-3.91543E-05-2.46549E-04 4.04008E-14 3.08207E-13
 -1      3792 2.00051E+01 8.58107E-03 3.92240E-05 7.86494E-04 7.06291E-14 2.86302E-13
 -1      3793 2.00054E+01 1.08987E-02 2.06210E-05 1.33955E-03 1.54915E-14 3.33187E-13
 -1      3794 2.00044E+01 3.50460E-03-2.34538E-05-1.53458E-03-3.14476E-13 2.26434E-13
 -1      3795 2.00048E+01 4.91143E-03 2.84850E-05-9.05790E-04-1.02159E-13 2.52099E-13
 -1      3796 2.00053E+01 6.45918E-03 8.99593E-06-3.96165E-04-1.86127E-14 3.15016E-13
 -1      3797 2.00038E+01 1.42464E-03-1.20458E-05-2.25092E-03-1.98533E-13-6.20868E-14
 -1      3798 2.00042E+01 2.37563E-03 2.02043E-05-1.90714E-03-3.86052E-13 7.43791E-14
 -1      3799 2.00048E+01 3.36185E-03 1.42155E-06-1.45016E-03-1.47082E-13 2.10112E-13
 -1      3800 2.00031E+01 3.53138E-05-2.92741E-06-2.57737E-03-1.57427E-13 3.08139E-13
 -1      3801 2.00035E+01 6.66797E-04 1.38294E-05-2.42959E-03-2.30728E-13 7.16004E-14
 -1      3802 2.00042E+01 1.25814E-03-3.54554E-06-2.02812E-03-3.60282E-13 1.51275E-13
 -1      3803 2.00024E+01-8.80054E-04-2.91311E-06-2.63341E-03 2.83702E-13 3.77406E-13
 -1      3804 2.00027E+01-4.59349E-04 9.34507E-06-2.61081E-03 1.35246E-13 4.67237E-13
 -1      3805 2.00034E+01-1.46293E-04-9.26089E-06-2.26825E-03-1.18489E-13 2.16265E-13
 -1      3806 1.83400E+01 1.52008E+00-6.45215E-03-1.84760E+00-8.07527E-14-1.40020E-13
 -1      3807 1.80944E+01 2.09941E+00 1.88683E-02-1.60195E+00-7.54960E-14-1.75603E-13
 -1      3808 1.76110E+01 2.27624E+00-3.09924E-02-1.54962E+00-9.11719E-14-1.67698E-13
 -1      3809 2.00035E+01-1.10604E-03-6.30898E-06 1.16078E-03 1.50906E-13 2.02073E-13
 -1      3810 2.00037E+01-1.10774E-03-2.74947E-07 6.96796E-04 9.55727E-14 1.38171E-13
 -1      3811 2.00025E+01-1.37392E-03 4.79323E-06-2.02048E-03 3.87550E-13 5.44179E-14
 -1      3812 2.41379E+01 1.70088E+00 2.15861E-02-1.95006E+00 1.09950E-13-4.12066E-14
 -1      3813 2.45122E+01 2.33641E+00-3.74336E-02-1.86916E+00 1.33567E-13 1.79891E-14
 -1      3814 2.51821E+01 1.72516E+00-1.05444E-01-2.10718E+00 1.14193E-13-5.83717E-14
 -1      3815 2.41474E+01 5.40304E-01-7.26012E-02-1.94956E+00 5.90480E-14-3.86926E-14
 -1      3816 2.00037E+01-1.08658E-03-2.11844E-06 1.87455E-04 3.52152E-14-1.41902E-13
 -1      3817 2.00037E+01-1.07878E-03-3.72963E-06-2.93656E-04 6.73080E-14-1.48827E-13
 -1      3818 2.00041E+01-6.45159E-04 1.02598E-05 4.26001E-04 4.21180E-14 9.99605E-15
 -1      3819 2.36710E+01-2.97803E+00-5.47015E-02 1.00782E+00-1.43049E-13-1.67055E-13
 -1      3820 2.26716E+01-2.92671E+00 3.80254E-02 2.10472E+00-2.08979E-13-3.80260E-14
 -1      3821 2.14585E+01-5.31662E-01-5.37495E-03-7.31731E-01 1.55609E-14-3.07939E-14
 -1      3822 2.10147E+01 1.20917E-01 1.36884E-02-6.94795E-01 3.03202E-14-6.45536E-14
 -1      3823 2.00019E+01-1.16225E-03 1.00920E-05-2.70785E-03 3.83606E-13 4.56557E-13
 -1      3824 1.86227E+01-9.40296E-01 1.64780E-02-3.76514E+00-2.24718E-13-4.29934E-14
 -1      3825 2.04549E+01-2.05065E+00-3.30868E-02-3.60464E+00-2.16875E-13 3.78447E-14
 -1      3826 1.70982E+01 2.62585E+00 1.53326E-02-1.28924E+00-1.02193E-13-1.82089E-13
 -1      3827 2.20122E+01-2.46104E+00 5.16062E-02-2.89376E+00-1.87246E-13 1.06353E-13
 -1      3828 2.31769E+01-2.75104E+00-4.52325E-02-1.85210E+00-1.38186E-13 1.80558E-13
 -1      3829 2.12092E+01-1.75617E+00 1.13206E-02-2.71281E+00-1.51817E-13 3.21945E-14
 -1      3830 2.54357E+01-1.31336E+00-1.16270E-01-1.31394E+00 6.75588E-14-3.03466E-13
 -1      3831 2.43858E+01-1.78104E+00-3.84536E-02-8.00130E-01-4.19482E-14-1.41358E-13
 -1      3832 2.43290E+01-2.39882E+00 3.95897E-02-9.94716E-03-1.04715E-13-1.55910E-13
 -1      3833 1.54532E+01 2.07227E+00 4.98042E-02-1.73473E+00-1.54049E-13-2.21856E-13
 -1      3834 2.00025E+01-1.03097E-03-1.07249E-05-2.42737E-03 3.39320E-13 2.78127E-13
 -1      3835 2.41199E+01 4.15074E+00-8.36591E-02-7.46234E-01 2.11851E-13 6.46167E-14
 -1      3836 2.05589E+01 7.59917E-01 1.74733E-03-5.91523E-01 6.51291E-14-7.17590E-14
 -1      3837 2.02496E+01 9.30160E-01 1.35800E-03-8.25333E-01 3.86394E-14-6.36329E-14
 -1      3838 2.02826E+01 5.84751E-01 8.64972E-04-1.13001E+00 8.30466E-15-4.44816E-14
 -1      3839 2.07566E+01 4.39999E-01-3.59968E-03-6.24616E-01 5.63076E-14-6.50492E-14
 -1      3840 1.26601E+01 1.44128E+00 6.62184E-02 3.25317E-01 2.42883E-14 1.92044E-13
 -1      3841 1.39426E+01 1.57715E+00 2.45767E-02-2.80860E-01 1.82299E-14 9.42319E-14
 -1      3842 1.47878E+01 1.62508E+00-1.95360E-02-2.45954E-01 4.99162E-14-1.03450E-14
 -1      3843 1.31465E+01 1.34794E+00 2.22641E-02 1.15242E+00 4.02261E-14 1.96974E-13
 -1      3844 2.49852E+01 1.75241E+00-1.97536E-02 1.89872E+00 1.45446E-13 2.38694E-13
 -1      3845 2.44908E+01 3.03265E+00-1.09807E-01 1.62690E+00 2.00270E-13 1.83022E-13
 -1      3846 2.17244E+01-1.57728E+00 1.85198E-02 8.19795E-01-5.39341E-14 1.65508E-13
 -1      3847 2.20651E+01-1.80339E+00-5.90290E-03 6.47337E-01-4.13155E-14 1.63651E-13
 -1      3848 2.23011E+01-2.08903E+00-1.51898E-03 9.12330E-01-9.74091E-14 1.03548E-13
 -1      3849 2.54674E+01 2.97307E-01 1.80628E-02-1.84905E+00 9.88584E-14-1.80456E-13
 -1      3850 2.50128E+01-1.17547E-01 9.34535E-03-1.71565E+00 5.88661E-14-1.18100E-13
 -1      3851 2.29759E+01-1.18109E+00-1.20460E-02 7.52759E-01-1.67072E-14 1.57242E-13
 -1      3852 2.28502E+01-1.25760E+00 8.07617E-03 5.06219E-01-3.67458E-15 1.20333E-13
 -1      3853 2.28961E+01-1.43068E+00-1.39385E-03 1.51445E-01-3.99062E-15 1.24670E-13
 -1      3854 2.35409E+01-1.25615E+00 4.92076E-03 8.14446E-01-1.88643E-14 1.96873E-13
 -1      3855 2.38560E+01 4.16224E+00-2.86301E-02-2.19437E-01 2.30711E-13 1.18404E-13
 -1      3856 1.96953E+01-2.12936E+00-7.10249E-03 3.59578E+00-2.33344E-13-3.25781E-14
 -1      3857 1.85049E+01-1.97439E+00 4.55559E-02 4.28731E+00-2.24973E-13-3.02154E-14
 -1      3858 1.74812E+01-1.26914E+00-1.00004E-02 3.92305E+00-1.39482E-13-3.94181E-14
 -1      3859 2.48256E+01-3.51374E-01-1.99605E-02 1.50675E+00 9.87231E-15 2.39214E-13
 -1      3860 2.47751E+01-1.14088E+00-3.19048E-02 1.19848E+00-4.16789E-14 2.51127E-13
 -1      3861 2.00041E+01-6.05349E-04 1.35900E-05-5.60694E-04 1.63763E-13-4.12176E-13
 -1      3862 2.00036E+01-1.06661E-03 1.27493E-06-7.90593E-04 1.82038E-13-3.74603E-13
 -1      3863 2.00034E+01-1.06111E-03-1.43443E-05-1.24777E-03 2.62840E-13-7.38320E-13
 -1      3864 2.00030E+01-1.04634E-03 9.77673E-06-1.91094E-03 2.09190E-13-1.53523E-13
 -1      3865 2.44710E+01-5.10096E-01 8.86832E-03-1.58371E+00 1.21431E-14-9.82461E-14
 -1      3866 2.13349E+01-1.57597E+00-1.81884E-02 1.18474E+00-3.58824E-14 1.80906E-13
 -1      3867 2.34694E+01-1.85091E+00 5.98474E-03-4.76044E-01 1.25293E-14-1.12748E-14
 -1      3868 2.37212E+01-1.56866E+00-1.09996E-02-8.51725E-01-2.12627E-14 1.66078E-14
 -1      3869 1.71130E+01 2.16040E+00-3.40521E-03-1.63923E+00-1.15857E-13-1.68970E-13
 -1      3870 1.87439E+01 9.77595E-01 2.87633E-02-2.16336E+00-8.90196E-14-1.08391E-13
 -1      3871 1.80618E+01 1.26049E+00-1.66073E-02-2.16503E+00-1.12530E-13-1.43891E-13
 -1      3872 2.19129E+01-9.34253E-01 2.60383E-02-7.56089E-01-7.96065E-15 1.95048E-15
 -1      3873 2.13966E+01-7.09725E-01-2.09808E-02-1.09644E+00-1.77602E-14 2.61724E-14
 -1      3874 2.34893E+01-2.42656E+00-5.65661E-03 3.98824E-01-8.51532E-14-9.13544E-14
 -1      3875 1.39611E+01 1.46361E-01 7.76478E-02 3.53178E+00-1.40056E-13 9.91568E-14
 -1      3876 1.35726E+01 6.91784E-01-2.52751E-03 2.53725E+00-5.53134E-14 8.88248E-14
 -1      3877 1.54553E+01-1.91966E-01 2.92061E-02 3.56043E+00-1.89270E-13 9.13505E-15
 -1      3878 2.50941E+01 5.53268E-01-6.40618E-02 1.85416E+00 7.37344E-14 2.38794E-13
 -1      3879 2.07807E+01 1.54048E-01-3.64111E-03-9.48286E-01 1.96443E-14-3.66547E-14
 -1      3880 2.38698E+01 4.02035E+00-5.81310E-02 5.87871E-01 2.49113E-13 1.28026E-13
 -1      3881 1.79826E+01 1.63256E-02 2.91652E-02-3.33242E+00-1.91977E-13-8.37247E-14
 -1      3882 1.90735E+01-2.16818E-01-4.12021E-03-2.87183E+00-1.46067E-13-6.88746E-14
 -1      3883 2.43094E+01-1.31605E+00-1.93483E-02-1.22514E+00-3.86100E-14-4.77101E-14
 -1      3884 2.00031E+01-1.21637E-03 4.12784E-06 1.77681E-03 1.62602E-13-7.45670E-14
 -1      3885 2.22289E+01-1.32516E+00-1.16896E-02-6.58279E-01-6.95451E-15 6.08300E-14
 -1      3886 1.94012E+01 5.83746E-01-6.77994E-03-1.96093E+00-7.37498E-14-8.42468E-14
 -1      3887 1.91759E+01 2.77841E-01-1.15702E-02-2.35312E+00-8.75125E-14-7.40816E-14
 -1      3888 1.99880E+01 3.32956E-01 8.08113E-03-1.74110E+00-4.59268E-14-6.44783E-14
 -1      3889 2.00036E+01-8.23716E-04 2.13893E-06 1.54997E-03-5.45426E-14 3.79650E-14
 -1      3890 1.58828E+01 1.60765E+00-1.99676E-03-1.20356E-01 1.07546E-13-9.35990E-14
 -1      3891 1.64858E+01 1.54875E+00-1.61138E-02-1.56518E-01 1.22492E-13-1.26239E-13
 -1      3892 1.67329E+01 1.50163E+00 2.57618E-02 2.57996E-01 8.70422E-14-1.86506E-13
 -1      3893 1.62746E+01 1.71194E+00-1.90118E-02-2.09451E+00-1.61480E-13-1.78218E-13
 -1      3894 2.40509E+01 3.40241E+00-3.72997E-02 1.21218E+00 1.83471E-13 1.39545E-13
 -1      3895 1.81139E+01 1.13554E+00-1.19876E-02 1.36242E-01-1.39355E-13-4.71939E-14
 -1      3896 1.84069E+01 1.07417E+00-1.30082E-03 6.29524E-02-6.56461E-14-1.05721E-13
 -1      3897 1.86130E+01 1.00145E+00-8.28261E-03-1.87145E-02-3.04802E-15-6.08944E-14
 -1      3898 1.88274E+01 9.31503E-01-1.34880E-03-5.66432E-02-1.18750E-13 3.68794E-14
 -1      3899 1.85414E+01 9.90919E-01 8.27657E-03 2.20466E-01-1.11802E-14 2.19122E-13
 -1      3900 1.89868E+01 8.57057E-01-5.70314E-03-1.03399E-01-2.24589E-13 5.04509E-14
 -1      3901 1.91434E+01 7.87103E-01-1.37983E-03-1.17788E-01-2.66862E-13 2.61023E-14
 -1      3902 1.89093E+01 8.73108E-01 6.36038E-03 6.88243E-02-1.50449E-13 1.41725E-13
 -1      3903 1.92662E+01 7.16838E-01-3.86623E-03-1.41217E-01-1.93614E-13 2.49415E-14
 -1      3904 1.93801E+01 6.51640E-01-1.35130E-03-1.40971E-01 3.75516E-14 7.86972E-14
 -1      3905 1.91923E+01 7.47296E-01 4.87768E-03-1.81843E-02-1.90424E-13 3.37175E-13
 -1      3906 1.94740E+01 5.88531E-01-2.56926E-03-1.49587E-01 1.75297E-13-5.58361E-14
 -1      3907 1.95563E+01 5.30423E-01-1.26320E-03-1.41097E-01 1.60751E-13 2.18500E-14
 -1      3908 1.94084E+01 6.25156E-01 3.72266E-03-6.24686E-02 2.63672E-14 1.64142E-13
 -1      3909 1.96276E+01 4.75617E-01-1.66654E-03-1.40918E-01 5.21227E-14-5.11706E-14
 -1      3910 1.96866E+01 4.25412E-01-1.13286E-03-1.28528E-01-3.93422E-14 2.90200E-14
 -1      3911 1.95722E+01 5.13145E-01 2.82286E-03-7.98046E-02 9.95811E-14-2.21139E-13
 -1      3912 1.97402E+01 3.78967E-01-1.05010E-03-1.23639E-01-7.85932E-14 9.05720E-14
 -1      3913 1.97823E+01 3.36584E-01-9.80733E-04-1.10126E-01-3.79787E-14 3.44034E-14
 -1      3914 1.96953E+01 4.14285E-01 2.12498E-03-8.11879E-02-6.20746E-14-1.60106E-14
 -1      3915 1.98222E+01 2.97967E-01-6.38277E-04-1.03169E-01 8.19064E-15 5.91281E-14
 -1      3916 1.98519E+01 2.62843E-01-8.24094E-04-9.01767E-02 1.07821E-13 9.09319E-14
 -1      3917 1.97868E+01 3.29448E-01 1.58702E-03-7.39967E-02-7.31633E-17 1.00591E-13
 -1      3918 1.98813E+01 2.31236E-01-3.70104E-04-8.27652E-02-4.83548E-14 1.08597E-14
 -1      3919 1.99020E+01 2.02590E-01-6.71640E-04-7.11612E-02-1.32311E-13-4.78928E-14
 -1      3920 1.98542E+01 2.58228E-01 1.17540E-03-6.29646E-02-2.55154E-14-3.08539E-14
 -1      3921 1.99233E+01 1.77045E-01-2.10404E-04-6.41907E-02-1.69902E-13-3.14303E-14
 -1      3922 1.99376E+01 1.54004E-01-5.40764E-04-5.43207E-02-1.46928E-13-4.78292E-14
 -1      3923 1.99031E+01 1.99555E-01 8.69291E-04-5.09569E-02-1.73272E-13-8.38329E-14
 -1      3924 1.99535E+01 1.32719E-01-1.00535E-04-4.79261E-02-1.25617E-13-7.27104E-14
 -1      3925 1.99635E+01 1.13694E-01-4.21229E-04-3.95466E-02-1.37806E-13-1.42712E-13
 -1      3926 1.99389E+01 1.50909E-01 6.26197E-04-3.93047E-02-2.22587E-13-2.19001E-13
 -1      3927 1.99740E+01 9.78945E-02-3.83407E-05-3.45806E-02-6.56497E-14-1.50052E-13
 -1      3928 1.99802E+01 8.37762E-02-3.17698E-04-2.82651E-02 1.05107E-13-2.87509E-13
 -1      3929 1.99639E+01 1.12236E-01 4.46378E-04-2.91807E-02-1.47060E-13-2.25447E-13
 -1      3930 1.99874E+01 7.15161E-02 2.35231E-06-2.43084E-02 1.02628E-13-2.54709E-13
 -1      3931 1.99914E+01 6.05990E-02-2.38955E-04-1.94446E-02-5.66064E-14-3.16878E-13
 -1      3932 1.99806E+01 8.26393E-02 3.10195E-04-2.10211E-02 1.18976E-13-2.71489E-13
 -1      3933 1.99961E+01 5.12150E-02 1.90410E-05-1.64070E-02-3.30987E-14-8.61518E-14
 -1      3934 1.99985E+01 4.29077E-02-1.74983E-04-1.27568E-02 9.62378E-14 6.82733E-15
 -1      3935 1.99917E+01 5.96988E-02 2.13577E-04-1.45388E-02 9.01327E-14-1.69951E-13
 -1      3936 2.00015E+01 3.58277E-02 2.56876E-05-1.04967E-02 1.42193E-13 2.03249E-14
 -1      3937 2.00028E+01 2.96039E-02-1.25000E-04-7.82744E-03 2.82830E-13-3.75358E-14
 -1      3938 1.99988E+01 4.21736E-02 1.43464E-04-9.56701E-03 1.37936E-13 1.31864E-13
 -1      3939 2.00045E+01 2.43473E-02 2.67044E-05-6.19814E-03 3.36812E-13-1.71990E-13
 -1      3940 2.00051E+01 1.97636E-02-8.67477E-05-4.29978E-03 3.25402E-13-1.87383E-13
 -1      3941 2.00031E+01 2.89971E-02 9.30443E-05-5.87418E-03 2.86060E-13-8.52153E-14
 -1      3942 2.00060E+01 1.59299E-02 2.47593E-05-3.16487E-03 3.18089E-13-2.43146E-13
 -1      3943 2.00061E+01 1.26181E-02-5.80918E-05-1.85726E-03 4.10167E-13-3.57878E-13
 -1      3944 2.00054E+01 1.92604E-02 5.73727E-05-3.21798E-03 2.48922E-13-2.42331E-13
 -1      3945 2.00064E+01 9.87795E-03 2.14804E-05-1.09817E-03 3.35574E-13-3.48407E-13
 -1      3946 2.00062E+01 7.53612E-03-3.71150E-05-2.32612E-04-2.39420E-14-2.12245E-13
 -1      3947 2.00063E+01 1.22019E-02 3.26639E-05-1.37302E-03 3.12368E-13-4.98004E-13
 -1      3948 2.00061E+01 5.62146E-03 1.78563E-05 2.48792E-04-1.27886E-13 2.20097E-14
 -1      3949 2.00058E+01 4.00400E-03-2.24228E-05 7.91403E-04-1.00771E-14 1.42551E-13
 -1      3950 2.00064E+01 7.19294E-03 1.59624E-05-1.43867E-04 1.35742E-13-1.44611E-13
 -1      3951 2.00055E+01 2.70264E-03 1.52389E-05 1.07202E-03-2.86213E-13 1.36110E-13
 -1      3952 2.00051E+01 1.61054E-03-1.27287E-05 1.38727E-03-3.67736E-13-1.03630E-13
 -1      3953 2.00059E+01 3.71883E-03 4.21339E-06 6.28725E-04-1.55314E-13 2.36473E-13
 -1      3954 2.00047E+01 7.40523E-04 1.25712E-05 1.52456E-03-2.35831E-13-9.24735E-14
 -1      3955 2.00042E+01 2.82574E-05-3.04047E-06 1.67353E-03-1.57333E-13-3.60932E-14
 -1      3956 2.00052E+01 1.36005E-03-5.69439E-06 1.08137E-03-3.09199E-13 2.99761E-13
 -1      3957 2.29432E+01-2.27299E+00-1.83408E-02-1.37183E+00-8.91392E-14 1.30596E-13
 -1      3958 2.39032E+01-2.53455E+00 4.23006E-02-1.01085E+00-1.25315E-13 1.78634E-13
 -1      3959 2.40148E+01-2.36659E+00-1.94256E-02-4.79030E-01-1.20138E-13 1.54134E-13
 -1      3960 2.17844E+01-2.86034E+00-2.96441E-02 2.66849E+00-2.27772E-13 8.48575E-14
 -1      3961 2.11835E+01-2.48523E+00 4.15227E-02 2.91748E+00-1.70536E-13 6.12197E-14
 -1      3962 2.33746E+01-2.23038E+00-1.68117E-02 1.08559E-01-6.65038E-14-4.98457E-14
 -1      3963 1.71630E+01 1.42278E+00 3.06006E-02-2.40766E+00-1.53269E-13-1.40648E-13
 -1      3964 2.02660E+01-7.64431E-01 9.71241E-03 1.41958E+00-8.90906E-14 2.54090E-14
 -1      3965 2.05512E+01-1.04808E+00 8.89891E-03 1.47605E+00-6.35402E-14 1.04134E-13
 -1      3966 1.96407E+01 1.86274E-01-5.30646E-04 7.67542E-01-1.38088E-13 1.25529E-13
 -1      3967 1.96922E+01 1.04631E-01 5.05717E-03 8.51922E-01-1.87331E-13 8.02982E-14
 -1      3968 1.96354E+01 2.90004E-01-1.26767E-03 5.96294E-01-1.41508E-13 8.46182E-14
 -1      3969 1.96538E+01 2.48901E-01 3.77856E-03 6.69307E-01-9.78243E-14 6.67398E-14
 -1      3970 1.95006E+01 2.87179E-01-2.06049E-03 7.26828E-01-1.23101E-13 6.70753E-14
 -1      3971 1.96672E+01 3.31862E-01-1.52380E-03 4.57362E-01-2.96918E-13 5.31501E-15
 -1      3972 1.96660E+01 3.18562E-01 2.69944E-03 5.18119E-01-2.27835E-13 4.28362E-14
 -1      3973 1.95424E+01 3.63651E-01-6.35527E-04 5.46846E-01-1.68114E-13-5.78224E-14
 -1      3974 1.97161E+01 3.33101E-01-1.52086E-03 3.47226E-01-5.98366E-14-1.08344E-13
 -1      3975 1.97045E+01 3.37566E-01 1.86961E-03 3.96580E-01-1.91453E-13-7.03830E-14
 -1      3976 1.96068E+01 3.83704E-01 1.69703E-04 4.07453E-01-1.46782E-13-2.70896E-13
 -1      3977 1.97697E+01 3.09852E-01-1.38970E-03 2.61219E-01-3.29726E-14-4.70694E-14
 -1      3978 1.97537E+01 3.24629E-01 1.26602E-03 3.00671E-01-3.07593E-14-5.82312E-14
 -1      3979 1.96776E+01 3.68448E-01 5.81175E-04 3.01302E-01-4.11117E-14-2.81366E-13
 -1      3980 1.98207E+01 2.73714E-01-1.20503E-03 1.94750E-01-1.08488E-13-8.67964E-14
 -1      3981 1.98041E+01 2.93546E-01 8.43731E-04 2.25920E-01-1.24202E-14-5.91587E-14
 -1      3982 1.97457E+01 3.33219E-01 7.48080E-04 2.21338E-01-4.77900E-14-1.39265E-13
 -1      3983 1.98658E+01 2.32593E-01-1.00810E-03 1.43787E-01-7.70423E-14-3.25023E-15
 -1      3984 1.98505E+01 2.53965E-01 5.57145E-04 1.68181E-01-1.31859E-13-2.33098E-14
 -1      3985 1.98063E+01 2.88660E-01 7.69485E-04 1.61529E-01-1.04862E-13-3.87759E-15
 -1      3986 1.99033E+01 1.91550E-01-8.20506E-04 1.04981E-01 1.98454E-14 5.60492E-14
 -1      3987 1.98903E+01 2.12268E-01 3.67382E-04 1.23905E-01-1.19840E-14 8.08004E-15
 -1      3988 1.98573E+01 2.41788E-01 7.10806E-04 1.17013E-01-4.09752E-14 3.90789E-14
 -1      3989 1.99333E+01 1.53557E-01-6.53051E-04 7.56306E-02-5.57357E-14 1.72816E-13
 -1      3990 1.99228E+01 1.72382E-01 2.44254E-04 9.01807E-02 9.49370E-15 9.52221E-14
 -1      3991 1.98987E+01 1.96925E-01 6.14549E-04 8.40046E-02-4.96483E-14-5.30872E-14
 -1      3992 1.99564E+01 1.20145E-01-5.08928E-04 5.36025E-02 8.62133E-15 1.79713E-13
 -1      3993 1.99483E+01 1.36479E-01 1.65170E-04 6.46832E-02-6.36916E-14 1.29032E-13
 -1      3994 1.99310E+01 1.56472E-01 5.08081E-04 5.96258E-02-4.89605E-14-7.02687E-14
 -1      3995 1.99735E+01 9.18514E-02-3.89461E-04 3.72065E-02 6.05627E-14 1.23821E-13
 -1      3996 1.99676E+01 1.05543E-01 1.15122E-04 4.55538E-02 9.96369E-14 1.21669E-13
 -1      3997 1.99555E+01 1.21517E-01 4.01422E-04 4.16984E-02 9.93315E-14-8.16028E-14
 -1      3998 1.99858E+01 6.86189E-02-2.92370E-04 2.51339E-02-4.27445E-14 8.28241E-14
 -1      3999 1.99816E+01 7.97658E-02 8.26765E-05 3.13445E-02 7.80840E-14 3.56154E-14
 -1      4000 1.99734E+01 9.22987E-02 3.06631E-04 2.85900E-02 7.25335E-14-2.01534E-14
 -1      4001 1.99943E+01 5.00395E-02-2.15138E-04 1.63554E-02 1.07141E-13 1.45334E-13
 -1      4002 1.99915E+01 5.88887E-02 6.15355E-05 2.09102E-02-6.29134E-17 1.77464E-13
 -1      4003 1.99861E+01 6.85456E-02 2.26882E-04 1.90838E-02-4.01504E-14-4.83041E-14
 -1      4004 1.99998E+01 3.55318E-02-1.54860E-04 1.00702E-02 6.19191E-14 3.57742E-13
 -1      4005 1.99980E+01 4.23955E-02 4.71878E-05 1.33544E-02 5.03853E-14 2.47530E-13
 -1      4006 1.99947E+01 4.97000E-02 1.62357E-04 1.22603E-02 2.93449E-14 2.66037E-14
 -1      4007 2.00031E+01 2.44583E-02-1.08677E-04 5.65600E-03 4.89670E-14 4.62254E-13
 -1      4008 2.00022E+01 2.96636E-02 3.69435E-05 7.97596E-03 1.16705E-13 4.23194E-13
 -1      4009 2.00003E+01 3.50814E-02 1.11901E-04 7.42932E-03 1.04050E-13 3.92028E-13
 -1      4010 2.00049E+01 1.61951E-02-7.39556E-05 2.63063E-03 2.70804E-14 3.71666E-13
 -1      4011 2.00045E+01 2.00543E-02 2.92452E-05 4.22822E-03 3.49238E-14 4.55373E-13
 -1      4012 2.00036E+01 2.39873E-02 7.36737E-05 4.07015E-03 1.22183E-13 2.45375E-13
 -1      4013 2.00056E+01 1.01714E-02-4.83715E-05 6.22919E-04 4.37057E-14 5.11739E-13
 -1      4014 2.00055E+01 1.29658E-02 2.32060E-05 1.68722E-03 3.84624E-15 4.54184E-13
 -1      4015 2.00053E+01 1.57522E-02 4.56044E-05 1.78939E-03 7.70010E-14 4.63492E-13
 -1      4016 2.00056E+01 5.88760E-03-2.99521E-05-6.50463E-04 4.58952E-15 3.70867E-13
 -1      4017 2.00058E+01 7.86068E-03 1.83401E-05 2.65539E-05 4.06301E-14 4.46189E-13
 -1      4018 2.00059E+01 9.77873E-03 2.56677E-05 2.90405E-04-1.04598E-14 4.86472E-13
 -1      4019 2.00051E+01 2.91941E-03-1.72815E-05-1.40324E-03-1.20651E-13 2.26610E-13
 -1      4020 2.00054E+01 4.27631E-03 1.43611E-05-1.00229E-03-1.14669E-14 2.60840E-13
 -1      4021 2.00059E+01 5.55056E-03 1.20228E-05-6.49307E-04 7.70854E-14 2.46206E-13
 -1      4022 2.00044E+01 9.02967E-04-8.16961E-06-1.80301E-03-3.09969E-13 7.46863E-14
 -1      4023 2.00048E+01 1.82656E-03 1.16053E-05-1.58437E-03-1.08923E-13 1.88092E-13
 -1      4024 2.00053E+01 2.63310E-03 3.62782E-06-1.19525E-03-9.50774E-14 8.67297E-14
 -1      4025 2.00036E+01-6.46905E-04 5.55215E-06-1.71513E-03 2.11280E-13-2.66420E-13
 -1      4026 2.08993E+01-1.37971E+00 1.66322E-02 1.56923E+00-1.05020E-13 1.06909E-13
 -1      4027 2.13155E+01-1.69972E+00 1.16300E-02 1.52395E+00-7.19026E-14 9.76554E-14
 -1      4028 2.03433E+01-1.21715E+00-2.49385E-02 1.82993E+00-6.23720E-14 3.23656E-15
 -1      4029 2.53982E+01-1.94707E+00 5.93006E-03 4.68549E-01-8.27073E-14 2.78593E-13
 -1      4030 1.74477E+01 1.23554E+00-1.72585E-02 3.92330E-01 5.10068E-14-1.17122E-13
 -1      4031 1.78488E+01 1.19593E+00-1.40122E-03 2.68983E-01-7.02324E-15-1.32552E-13
 -1      4032 1.80663E+01 1.08066E+00 1.08181E-02 4.66402E-01-3.87097E-14 1.24498E-13
 -1      4033 2.43026E+01-1.78423E+00-1.03951E-02 4.76901E-01-8.07384E-14 2.19931E-13
 -1      4034 1.97142E+01-5.47574E-03 1.04747E-03 9.70784E-01-1.84933E-13 1.30649E-13
 -1      4035 1.98175E+01-1.42340E-01 6.43762E-03 1.06182E+00-1.02136E-13 6.75812E-14
 -1      4036 1.95073E+01 1.26628E-01-4.43554E-03 9.53056E-01-1.69093E-13 7.00650E-14
 -1      4037 1.74137E+01 7.28479E-01-1.18556E-02-2.83232E+00-1.71313E-13-1.15986E-13
 -1      4038 1.99010E+01-3.13951E-01 4.10704E-03 1.19729E+00-8.76685E-14 1.50944E-14
 -1      4039 2.00810E+01-5.21850E-01 7.40667E-03 1.28298E+00-9.71996E-14 1.20554E-14
 -1      4040 1.98435E+01-5.84707E-01-1.53340E-02 1.52946E+00-4.57350E-14-3.99845E-14
 -1      4041 2.05292E+01 2.34826E-01 3.36639E-03-1.21526E+00-3.48463E-15-3.69143E-14
 -1      4042 2.04889E+01-1.05991E+00 1.52869E-02-2.66229E+00-1.22313E-13-8.05801E-15
 -1      4043 2.15868E+01-1.61954E+00-1.96528E-02-2.09256E+00-9.42610E-14 5.20911E-14
 -1      4044 2.23044E+01-2.53456E+00 1.75168E-02 1.78173E+00-2.27678E-13-8.97706E-14
 -1      4045 2.30555E+01-1.72989E+00 1.99491E-02-3.66650E-01-4.03028E-14 1.09600E-13
 -1      4046 2.26120E+01-1.72969E+00-1.51996E-02-9.26122E-01-5.26933E-14 1.09495E-13
 -1      4047 2.00045E+01-1.33617E-04-4.09962E-06 6.31013E-04-1.07707E-13 1.35167E-13
 -1      4048 2.00046E+01-1.08616E-04-5.33647E-06 1.59015E-04-7.73402E-14-8.41676E-14
 -1      4049 2.39973E+01-2.01067E+00-3.66736E-03 9.63932E-02-8.22328E-14 1.76730E-13
 -1      4050 2.02134E+01-2.07818E+00-2.15830E-02 3.02868E+00-1.97056E-13 7.39721E-14
 -1      4051 2.21632E+01-1.63255E+00 3.34891E-02-1.59047E+00-7.36559E-14 9.30425E-14
 -1      4052 2.05469E+01-1.40247E-01-2.66981E-03-1.55652E+00-4.96903E-14-1.51682E-14
 -1      4053 2.14186E+01-1.09980E+00-9.20320E-03-1.63949E+00-5.68256E-14 5.89318E-14
 -1      4054 2.00046E+01-1.03213E-04-8.22188E-06-3.21664E-04 1.98763E-14-4.20709E-13
 -1      4055 2.00045E+01-1.24171E-04-1.41260E-05-7.92566E-04 1.20444E-13-7.54994E-13
 -1      4056 2.00050E+01 5.42724E-04 8.71076E-06-7.70373E-05 7.06246E-16-3.64697E-13
 -1      4057 1.51753E+01 1.60596E+00 3.85298E-02 3.87680E-01 2.01807E-14-3.08139E-14
 -1      4058 2.11116E+01-1.95328E+00 5.51531E-03 2.16434E+00-1.45997E-13 5.31469E-14
 -1      4059 2.17199E+01-2.08825E+00 1.30351E-02 1.68259E+00-1.29461E-13 3.66775E-14
 -1      4060 2.00039E+01-4.90452E-04 8.54194E-06 1.51429E-03-5.15382E-14-3.64929E-15
 -1      4061 2.33931E+01-1.85748E+00-1.31546E-02-8.09655E-02-4.88582E-14 1.38309E-13
 -1      4062 2.10561E+01-5.63170E-01 1.46272E-02-1.52201E+00-5.61612E-14 9.90939E-15
 -1      4063 2.00040E+01-8.69995E-05 1.03236E-05-1.64322E-03-1.07211E-13-2.53842E-13
 -1      4064 2.00045E+01 3.61756E-04-2.21650E-06-1.25131E-03 1.95294E-14-3.85425E-13
 -1      4065 1.64914E+01 1.28166E+00-2.73063E-02 7.59511E-01 6.55196E-14-5.00307E-14
 -1      4066 1.70792E+01 1.27697E+00-3.02376E-03 5.90654E-01 7.83140E-14-1.61326E-13
 -1      4067 1.74369E+01 1.12004E+00 1.46904E-02 8.44409E-01 3.86437E-14-3.28210E-14
 -1      4068 2.01673E+01-1.61587E+00 5.03639E-03 2.59234E+00-9.67367E-14 1.43162E-13
 -1      4069 1.88829E+01-1.10479E+00 2.46369E-02 3.09581E+00-1.19176E-13 6.15731E-14
 -1      4070 1.98111E+01-1.19018E+00-4.55962E-03 2.33009E+00-8.67926E-14 7.87250E-14
 -1      4071 1.80497E+01-8.80962E-01 2.63921E-02 3.29865E+00-1.72237E-13-3.74397E-14
 -1      4072 1.67418E+01-5.47954E-01 4.00782E-02 3.61675E+00-1.59329E-13-3.08850E-14
 -1      4073 1.59799E+01 1.88041E-02-3.08003E-02 3.04066E+00-1.20061E-13-3.33921E-14
 -1      4074 1.79930E+01-5.53466E-01-3.03719E-02 2.83835E+00-1.02083E-13 1.40441E-14
 -1      4075 2.00044E+01-1.48819E-04-8.78714E-06 1.09155E-03-2.16601E-13 3.41560E-13
 -1      4076 2.00049E+01 5.08995E-04 1.03394E-05 7.82738E-04-1.77146E-13 2.12670E-13
 -1      4077 1.96030E+01-1.51314E-01-8.15272E-03 1.22527E+00-1.51131E-13-7.10532E-15
 -1      4078 2.22843E+01-2.27439E+00-1.80454E-02 1.22634E+00-1.28084E-13 1.46411E-14
 -1      4079 1.99403E+01-5.64987E-01 1.47238E-02-2.66322E+00-1.22340E-13-3.74163E-14
 -1      4080 1.42169E+01 1.09311E+00 1.97049E-02 1.66751E+00-3.82502E-14 2.87721E-14
 -1      4081 2.04697E+01-4.87764E-01 7.05144E-03-2.06569E+00-8.84267E-14-2.56574E-14
 -1      4082 1.84879E+01 8.91528E-01-1.10050E-02 4.33793E-01 3.31823E-14 1.27390E-13
 -1      4083 1.87148E+01 8.65794E-01 2.39230E-03 3.26663E-01-3.48589E-14 8.73447E-14
 -1      4084 1.54915E+01 7.46970E-01 4.12765E-02 2.40469E+00-9.62546E-14-8.08754E-14
 -1      4085 1.48782E+01 1.26661E+00-1.31039E-02 1.20510E+00-4.18424E-14 3.78603E-14
 -1      4086 1.59838E+01 1.24204E+00-9.93736E-03 1.12400E+00-5.26827E-14-1.19809E-14
 -1      4087 1.66063E+01 3.52244E-01 1.83601E-02 2.44904E+00-7.20502E-14-2.68132E-14
 -1      4088 1.88448E+01 8.20749E-01-7.91224E-03 2.29335E-01-1.00753E-13 1.23287E-13
 -1      4089 1.90185E+01 7.78378E-01 1.10700E-03 1.63444E-01-2.13489E-13 1.51850E-13
 -1      4090 1.88635E+01 7.69962E-01 5.11372E-03 4.23621E-01-6.46311E-14-6.11416E-14
 -1      4091 1.91278E+01 7.25357E-01-5.64504E-03 1.01366E-01-1.68720E-13 2.74948E-13
 -1      4092 1.92600E+01 6.76160E-01 2.98251E-04 6.35725E-02-8.11831E-14 3.20039E-13
 -1      4093 1.91188E+01 7.09560E-01 4.71694E-03 2.47477E-01-4.69005E-14 3.83058E-14
 -1      4094 1.93498E+01 6.21965E-01-3.97785E-03 2.56899E-02-1.59461E-13 2.71888E-13
 -1      4095 1.94497E+01 5.72030E-01-1.80901E-04 6.34560E-03-2.63601E-14 7.15310E-14
 -1      4096 1.93277E+01 6.27158E-01 4.12439E-03 1.34565E-01-1.66739E-13 1.29227E-13
 -1      4097 1.95220E+01 5.20664E-01-2.76560E-03-1.54308E-02 5.37755E-14-2.29293E-13
 -1      4098 1.95968E+01 4.73561E-01-4.34994E-04-2.32083E-02-3.71602E-14-2.84084E-13
 -1      4099 1.94954E+01 5.37313E-01 3.47628E-03 6.49693E-02-1.86565E-13-1.40275E-13
 -1      4100 1.96540E+01 4.27161E-01-1.89627E-03-3.46478E-02-1.74629E-14-2.56320E-13
 -1      4101 1.97095E+01 3.84774E-01-5.40576E-04-3.56097E-02-6.13876E-14-2.43266E-13
 -1      4102 1.96278E+01 4.48980E-01 2.85019E-03 2.41952E-02-4.04805E-14-3.86803E-13
 -1      4103 1.97541E+01 3.44261E-01-1.28198E-03-4.07042E-02 1.03827E-15-1.44377E-13
 -1      4104 1.97949E+01 3.07384E-01-5.53422E-04-3.80094E-02 6.65284E-14-9.62292E-14
 -1      4105 1.97306E+01 3.67300E-01 2.28464E-03 1.96681E-03 3.91494E-14-4.59372E-13
 -1      4106 1.98289E+01 2.72920E-01-8.54323E-04-3.94299E-02-1.28635E-14-1.21952E-13
 -1      4107 1.98586E+01 2.41665E-01-5.13081E-04-3.50879E-02-1.82027E-14-1.39931E-13
 -1      4108 1.98092E+01 2.94857E-01 1.79538E-03-8.79284E-03-1.62771E-14-4.18783E-13
 -1      4109 1.98842E+01 2.12944E-01-5.67479E-04-3.45655E-02-1.11391E-13-1.62856E-13
 -1      4110 1.99055E+01 1.87041E-01-4.40399E-04-2.97669E-02-1.67050E-13-2.28719E-13
 -1      4111 1.98684E+01 2.32575E-01 1.38398E-03-1.28077E-02-1.30320E-13-4.14997E-13
 -1      4112 1.99253E+01 1.62469E-01-3.62223E-04-2.82451E-02-1.85567E-13-3.50143E-13
 -1      4113 1.99408E+01 1.40480E-01-3.70816E-04-2.35167E-02-2.46131E-13-3.39263E-13
 -1      4114 1.99131E+01 1.79196E-01 1.03922E-03-1.31067E-02-2.33069E-13-4.70627E-13
 -1      4115 1.99543E+01 1.21819E-01-2.27723E-04-2.18248E-02-2.03946E-13-2.26110E-13
 -1      4116 1.99645E+01 1.05154E-01-2.98793E-04-1.78800E-02-9.40570E-14-1.70282E-13
 -1      4117 1.99454E+01 1.35644E-01 7.89575E-04-1.15763E-02-1.43868E-13-3.10608E-13
 -1      4118 1.99740E+01 9.04157E-02-1.31389E-04-1.62601E-02-3.96350E-16-1.41196E-13
 -1      4119 1.99808E+01 7.72854E-02-2.32808E-04-1.29939E-02 1.33862E-13-1.94943E-13
 -1      4120 1.99676E+01 1.01484E-01 5.70717E-04-9.37459E-03-2.42586E-14-2.75623E-13
 -1      4121 1.99874E+01 6.58156E-02-7.59869E-05-1.16021E-02 1.29548E-13-2.42019E-13
 -1      4122 1.99918E+01 5.56576E-02-1.74836E-04-9.00915E-03 1.50792E-13-1.19010E-13
 -1      4123 1.99830E+01 7.44963E-02 4.05552E-04-7.11616E-03 1.15532E-13-3.84497E-13
 -1      4124 1.99961E+01 4.68695E-02-4.09191E-05-7.89118E-03 1.45405E-13 1.76894E-14
 -1      4125 1.99989E+01 3.91412E-02-1.27449E-04-5.90314E-03 1.14216E-13-4.93169E-15
 -1      4126 1.99933E+01 5.35281E-02 2.81100E-04-5.09870E-03 2.21990E-13-3.04399E-13
 -1      4127 2.00016E+01 3.25189E-02-1.91523E-05-5.05159E-03 4.73216E-14-7.63660E-14
 -1      4128 2.00031E+01 2.67415E-02-8.99421E-05-3.57542E-03 1.04631E-13-1.90874E-13
 -1      4129 1.99998E+01 3.75159E-02 1.88753E-04-3.43632E-03-6.18241E-15-2.74968E-13
 -1      4130 2.00047E+01 2.18396E-02-6.07688E-06-2.95672E-03 1.69078E-13-3.73165E-13
 -1      4131 2.00054E+01 1.76017E-02-6.11272E-05-1.89519E-03 1.39699E-13-4.25007E-13
 -1      4132 2.00037E+01 2.55062E-02 1.21526E-04-2.14360E-03 1.15416E-15-5.74478E-13
 -1      4133 2.00061E+01 1.40438E-02 1.39271E-06-1.46659E-03 2.87016E-13-4.51633E-13
 -1      4134 2.00063E+01 1.09994E-02-3.95996E-05-7.29437E-04 3.03618E-13-4.34495E-13
 -1      4135 2.00057E+01 1.66696E-02 7.36696E-05-1.18556E-03 1.70511E-13-6.03578E-13
 -1      4136 2.00066E+01 8.47248E-03 5.34730E-06-4.48245E-04 3.77055E-13-4.93006E-13
 -1      4137 2.00064E+01 6.33559E-03-2.36966E-05 4.24272E-05 2.56706E-13-2.77700E-13
 -1      4138 2.00065E+01 1.03022E-02 4.05304E-05-5.07202E-04 3.03797E-13-6.36569E-13
 -1      4139 2.00063E+01 4.58316E-03 7.59366E-06 2.16218E-04 3.92524E-14-1.16160E-13
 -1      4140 2.00059E+01 3.12566E-03-1.12102E-05 5.16296E-04-1.21526E-14 4.80420E-14
 -1      4141 2.00064E+01 5.81814E-03 1.81337E-05-4.92634E-05 2.85452E-13-6.10508E-13
 -1      4142 2.00057E+01 2.18442E-03 1.18376E-05 5.78239E-04-9.13074E-14 4.82592E-14
 -1      4143 2.00052E+01 1.16917E-03-3.72269E-06 7.47514E-04-1.48449E-13 1.72043E-13
 -1      4144 2.00053E+01 1.19983E-03-8.82701E-06 3.24795E-04-2.77175E-14-2.00566E-13
 -1      4145 2.00060E+01 2.99141E-03 1.75392E-06 2.09867E-04 7.34300E-14-4.51203E-13
 -1      4146 2.29156E+01-2.46863E+00 1.53733E-02 1.00210E+00-1.43292E-13-8.35898E-14
 -1      4147 1.94487E+01 4.41488E-01-3.38336E-03 4.68485E-01-1.17486E-13-2.88268E-13
 -1      4148 1.94292E+01 4.34767E-01 3.95378E-03 5.46096E-01-1.07716E-13-2.21230E-13
 -1      4149 1.94048E+01-2.58616E-01-1.25081E-03 1.55571E+00-6.09796E-14 5.07181E-14
 -1      4150 1.96130E+01-4.95789E-01 1.35286E-02 1.71708E+00 4.28970E-15 5.54205E-14
 -1      4151 1.93572E+01 4.07251E-01-3.83014E-03 6.46255E-01-8.79924E-14-1.54948E-13
 -1      4152 1.93580E+01 3.70309E-01 5.88415E-03 7.47055E-01-3.58593E-14-1.49044E-13
 -1      4153 1.92743E+01 5.04183E-01 2.12853E-03 5.62034E-01-3.34358E-14-4.12327E-13
 -1      4154 1.96400E+01 3.95406E-01-2.29772E-03 2.40763E-01-1.51144E-13-2.61305E-13
 -1      4155 1.96090E+01 4.17561E-01 1.60194E-03 2.84619E-01-1.59647E-13-3.62748E-13
 -1      4156 1.97227E+01 3.46563E-01-1.81968E-03 1.71167E-01-1.38390E-13-4.49700E-14
 -1      4157 1.96932E+01 3.73313E-01 9.58019E-04 2.03717E-01-1.30407E-13-1.94598E-13
 -1      4158 1.96302E+01 4.20916E-01 2.32277E-03 1.86442E-01-1.89414E-13-3.61705E-13
 -1      4159 1.97926E+01 2.93482E-01-1.41649E-03 1.21077E-01-1.43430E-13-2.51924E-14
 -1      4160 1.97665E+01 3.21104E-01 5.42277E-04 1.45137E-01-9.16780E-14-1.01387E-13
 -1      4161 1.97205E+01 3.61122E-01 2.01774E-03 1.27379E-01-1.32382E-13-3.22919E-13
 -1      4162 1.98495E+01 2.41610E-01-1.08765E-03 8.51576E-02 9.55073E-14-1.97051E-13
 -1      4163 1.98277E+01 2.67827E-01 2.84467E-04 1.02900E-01-2.91071E-14-1.14769E-13
 -1      4164 1.97943E+01 3.00934E-01 1.68639E-03 8.66117E-02-8.59167E-14-4.03595E-13
 -1      4165 1.98944E+01 1.94098E-01-8.21434E-04 5.94615E-02-1.30928E-13-1.54122E-13
 -1      4166 1.98769E+01 2.17651E-01 1.32241E-04 7.25230E-02 2.13530E-15-1.77283E-13
 -1      4167 1.98529E+01 2.44648E-01 1.36734E-03 5.86128E-02 8.32781E-14-4.61925E-13
 -1      4168 1.99289E+01 1.52459E-01-6.18561E-04 4.11175E-02-1.65293E-14-1.86679E-13
 -1      4169 1.99153E+01 1.72798E-01 3.94478E-05 5.06902E-02-9.14919E-14-2.17262E-13
 -1      4170 1.98982E+01 1.94574E-01 1.09011E-03 3.94264E-02-1.69317E-13-2.91522E-13
 -1      4171 1.99545E+01 1.17260E-01-4.50880E-04 2.80198E-02 8.39500E-14-1.15934E-13
 -1      4172 1.99444E+01 1.34291E-01 1.35237E-06 3.50468E-02 1.03209E-14-9.87940E-14
 -1      4173 1.99324E+01 1.51579E-01 8.45996E-04 2.62849E-02-9.87485E-14-3.71383E-13
 -1      4174 1.99731E+01 8.82840E-02-3.28536E-04 1.87302E-02 1.79217E-14-2.62646E-15
 -1      4175 1.99658E+01 1.02166E-01-1.85279E-05 2.38561E-02 1.52419E-13-2.97663E-14
 -1      4176 1.99576E+01 1.15674E-01 6.26894E-04 1.73314E-02 1.42421E-14-7.70340E-14
 -1      4177 1.99862E+01 6.50199E-02-2.35633E-04 1.21652E-02-3.27333E-14-7.95172E-14
 -1      4178 1.99811E+01 7.60814E-02-2.11548E-05 1.58783E-02-5.99752E-14-1.08313E-13
 -1      4179 1.99756E+01 8.65038E-02 4.58002E-04 1.12242E-02-1.69705E-14 1.63436E-14
 -1      4180 1.99950E+01 4.67503E-02-1.65941E-04 7.56512E-03 4.12187E-14-4.23541E-14
 -1      4181 1.99916E+01 5.53772E-02-1.79760E-05 1.02287E-02 1.90884E-14-1.38954E-13
 -1      4182 1.99881E+01 6.32993E-02 3.26306E-04 7.06402E-03 6.82698E-14-1.12417E-13
 -1      4183 2.00006E+01 3.27036E-02-1.14242E-04 4.38107E-03 7.61195E-14 9.86505E-14
 -1      4184 1.99985E+01 3.92932E-02-1.25997E-05 6.26645E-03 1.54574E-14-4.54044E-14
 -1      4185 1.99964E+01 4.52176E-02 2.25557E-04 4.24429E-03-2.94359E-16-3.71929E-13
 -1      4186 2.00039E+01 2.21286E-02-7.63922E-05 2.21522E-03 1.07643E-13 1.53911E-13
 -1      4187 2.00027E+01 2.70576E-02-7.14153E-06 3.52617E-03 1.13314E-13 1.76402E-13
 -1      4188 2.00016E+01 3.14086E-02 1.50186E-04 2.34989E-03 6.44360E-14-1.76905E-13
 -1      4189 2.00056E+01 1.43382E-02-4.91042E-05 7.77985E-04-2.45265E-14 4.06770E-13
 -1      4190 2.00050E+01 1.79451E-02-2.56979E-06 1.66790E-03 1.79152E-13 2.72644E-13
 -1      4191 2.00045E+01 2.10759E-02 9.51320E-05 1.09566E-03 1.27954E-13 5.55258E-14
 -1      4192 2.00061E+01 8.72960E-03-2.97586E-05-1.42014E-04 6.90983E-14 2.28086E-13
 -1      4193 2.00060E+01 1.13080E-02 8.14787E-07 4.42298E-04 9.56458E-15 2.97394E-13
 -1      4194 2.00060E+01 1.35075E-02 5.59832E-05 2.84362E-04 6.61950E-14 9.49192E-14
 -1      4195 2.00060E+01 4.78894E-03-1.68188E-05-6.99315E-04 1.07886E-13 1.36103E-13
 -1      4196 2.00062E+01 6.58727E-03 3.04934E-06-3.33995E-04 1.49360E-13 1.09198E-13
 -1      4197 2.00064E+01 8.08915E-03 2.89545E-05-2.21518E-04 2.04595E-13-9.23293E-14
 -1      4198 2.00054E+01 2.07509E-03-1.28612E-05-1.01205E-03-3.03392E-14-2.62964E-13
 -1      4199 2.00058E+01 3.31445E-03 4.69975E-06-7.93534E-04 3.87841E-14-6.23222E-14
 -1      4200 2.00061E+01 4.29978E-03 1.02357E-05-5.17562E-04 2.35288E-13-2.93158E-13
 -1      4201 2.00050E+01 1.02337E-03 1.15159E-05-9.71882E-04-8.25677E-14-5.13250E-13
 -1      4202 1.95435E+01-7.89854E-01 5.85989E-03 2.12344E+00-2.88762E-14 5.98219E-14
 -1      4203 1.92926E+01 3.03112E-01-3.95350E-03 8.81867E-01-1.02223E-13-1.15318E-13
 -1      4204 1.93308E+01 2.20170E-01 8.35295E-03 1.00904E+00-1.81526E-13-1.08411E-13
 -1      4205 1.91517E+01 4.42034E-01 9.30937E-04 7.96335E-01-3.59154E-14-3.53588E-13
 -1      4206 1.92899E+01 9.52188E-02-3.31834E-03 1.18488E+00-1.58776E-13-7.80611E-15
 -1      4207 1.93897E+01-5.33068E-02 1.11167E-02 1.33784E+00-5.77933E-14-1.51409E-16
 -1      4208 1.90598E+01 2.85650E-01-1.75465E-03 1.11240E+00-5.92091E-14-2.76949E-13
 -1      4209 1.95467E+01 4.31363E-01-2.83517E-03 3.36894E-01-1.23428E-13-4.46081E-13
 -1      4210 1.95181E+01 4.43230E-01 2.56434E-03 3.95571E-01-9.58561E-14-3.72821E-13
 -1      4211 1.94027E+01 5.06469E-01 2.53751E-03 3.92270E-01-4.87564E-14-5.56580E-13
 -1      4212 1.95235E+01 4.73117E-01 2.53453E-03 2.71378E-01-2.18163E-13-4.58586E-13
 -1      4213 1.80451E+01 9.11592E-01-1.46683E-02 7.47030E-01 3.33753E-14 4.06675E-14
 -1      4214 1.83377E+01 9.18085E-01 4.42278E-03 5.81169E-01 6.78380E-14 1.35116E-13
 -1      4215 1.85588E+01 7.85791E-01 5.18144E-03 6.89784E-01 6.15491E-14-2.56287E-14
 -1      4216 1.65880E+01 1.03667E+00 2.20357E-02 1.46440E+00-2.05628E-14-8.96429E-15
 -1      4217 1.78613E+01 9.07759E-01 7.33930E-03 9.57658E-01 1.27418E-14-1.35715E-15
 -1      4218 1.81847E+01 7.29406E-01 3.40875E-03 1.07935E+00 3.50525E-14 6.88324E-14
 -1      4219 1.74684E+01 8.62658E-01-1.36626E-02 1.20941E+00 2.11367E-14 4.84720E-14
 -1      4220 1.89952E+01-4.57001E-01-6.28198E-04 2.15636E+00-6.68584E-15 2.38247E-14
 -1      4221 1.90481E+01-1.24082E-02-5.80297E-03 1.52553E+00-1.99396E-14-4.88693E-15
 -1      4222 2.00054E+01 1.62670E-03 1.00259E-06-6.04421E-04 8.36838E-14-6.02693E-13
 -1      4223 2.00054E+01 1.21540E-03-5.57116E-06-1.18221E-04 3.97691E-14-4.66529E-13
 -1      4224 1.97923E+01 2.96159E-01-1.56118E-03 3.43409E-02 5.28141E-14-6.67959E-13
 -1      4225 1.97590E+01 3.28440E-01-6.26945E-04 4.91839E-02-2.67598E-14-5.37076E-13
 -1      4226 1.91491E+01 6.16237E-01-5.67440E-03 4.01338E-01-7.14314E-14-3.55765E-13
 -1      4227 1.92685E+01 5.96383E-01 9.05335E-04 3.25920E-01-2.80528E-14-3.37893E-13
 -1      4228 1.93301E+01 5.71506E-01-4.54733E-03 2.58068E-01-8.88786E-14-3.17651E-13
 -1      4229 1.94272E+01 5.39982E-01 8.41517E-05 2.09404E-01-2.20334E-13-2.82491E-13
 -1      4230 1.94838E+01 5.06870E-01-3.56216E-03 1.62225E-01-2.93335E-13-3.12343E-13
 -1      4231 1.95612E+01 4.70559E-01-3.61590E-04 1.31897E-01-1.99643E-13-4.43209E-13
 -1      4232 1.96104E+01 4.34742E-01-2.74245E-03 9.95158E-02-1.00474E-13-3.72487E-13
 -1      4233 1.96711E+01 3.98019E-01-5.67890E-04 8.14051E-02-2.17941E-14-3.70410E-13
 -1      4234 1.97122E+01 3.62963E-01-2.08184E-03 5.94027E-02-5.92410E-14-5.00493E-13
 -1      4235 1.98278E+01 2.65233E-01-6.01232E-04 2.90435E-02-2.34090E-15-5.82721E-13
 -1      4236 1.98540E+01 2.36742E-01-1.15762E-03 1.90745E-02-6.28506E-14-4.64878E-13
 -1      4237 1.98805E+01 2.09982E-01-5.39639E-04 1.67312E-02-1.54560E-13-4.53636E-13
 -1      4238 1.99007E+01 1.85672E-01-8.37957E-04 1.00200E-02-2.79163E-13-4.03441E-13
 -1      4239 1.99209E+01 1.62071E-01-4.60370E-04 9.26649E-03-2.83325E-13-4.04154E-13
 -1      4240 1.99359E+01 1.41914E-01-6.05441E-04 4.78701E-03-1.33840E-13-3.08888E-13
 -1      4241 1.99497E+01 1.23543E-01-3.78914E-04 4.99215E-03-7.60890E-14-3.22169E-13
 -1      4242 1.99606E+01 1.07187E-01-4.20041E-04 1.98485E-03-9.37513E-15-1.61662E-13
 -1      4243 1.99703E+01 9.23935E-02-2.93136E-04 2.55627E-03 1.04021E-13-7.02570E-14
 -1      4244 1.99780E+01 7.93573E-02-2.92046E-04 5.29008E-04 5.14076E-14-1.67916E-13
 -1      4245 1.99846E+01 6.76982E-02-2.17529E-04 1.20602E-03 1.02090E-13-1.82826E-13
 -1      4246 1.99899E+01 5.75036E-02-1.98795E-04-1.61360E-04 2.11476E-13-2.75698E-13
 -1      4247 1.99942E+01 4.84843E-02-1.56097E-04 4.85067E-04 2.02959E-13-3.70073E-13
 -1      4248 1.99976E+01 4.06612E-02-1.31630E-04-4.37144E-04 3.33923E-14-4.24069E-13
 -1      4249 2.00003E+01 3.38135E-02-1.07879E-04 1.17861E-04-5.27497E-14-5.16485E-13
 -1      4250 2.00024E+01 2.79242E-02-8.39040E-05-5.01794E-04 4.77540E-14-4.15984E-13
 -1      4251 2.00039E+01 2.28252E-02-7.12357E-05-5.65583E-05 1.33294E-13-4.26539E-13
 -1      4252 2.00051E+01 1.84801E-02-5.05633E-05-4.69076E-04 1.24577E-13-4.26837E-13
 -1      4253 2.00058E+01 1.47610E-02-4.42406E-05-1.29770E-04 1.56827E-13-3.81177E-13
 -1      4254 2.00062E+01 1.16238E-02-2.77520E-05-3.99625E-04 2.19067E-13-4.74269E-13
 -1      4255 2.00064E+01 8.97159E-03-2.49332E-05-1.52386E-04 2.87070E-13-5.65581E-13
 -1      4256 2.00065E+01 6.75891E-03-1.25027E-05-3.23908E-04 2.98758E-13-6.06725E-13
 -1      4257 2.00063E+01 4.91645E-03-1.06143E-05-1.52835E-04 1.93346E-13-5.90634E-13
 -1      4258 2.00061E+01 3.39465E-03-4.05307E-06-2.52096E-04 1.90907E-13-5.97034E-13
 -1      4259 2.00058E+01 2.39962E-03 2.80866E-06-1.61550E-04 2.13126E-13-4.30751E-13
 -1      4260 1.90877E+01 6.24492E-01 2.30333E-03 4.97364E-01-5.61812E-14-2.90226E-13
 -1      4261 1.84806E+01 1.34812E-02-1.55128E-02 1.85887E+00 9.65562E-14-1.03796E-13
 -1      4262 1.83880E+01-1.90264E-01 1.35587E-02 2.25570E+00 6.52438E-14-2.67863E-15
 -1      4263 1.89442E+01 6.22270E-01-6.86191E-03 6.10805E-01 2.75115E-14-3.06556E-13
 -1      4264 1.88927E+01 6.01587E-01 4.55780E-03 7.44070E-01 3.16536E-14-2.69276E-13
 -1      4265 1.87255E+01 5.62080E-01-7.92268E-03 9.10274E-01-1.09124E-14-2.67306E-13
 -1      4266 1.87029E+01 4.94392E-01 8.31799E-03 1.09102E+00 1.79986E-15-1.27529E-13
 -1      4267 1.76139E+01 2.67852E-02 1.55455E-02 2.48143E+00-1.08386E-14-1.66798E-14
 -1      4268 1.84977E+01 4.02603E-01-8.37809E-03 1.33118E+00 9.80173E-15-1.20067E-13
 -1      4269 1.85196E+01 2.61489E-01 1.14296E-02 1.57363E+00 6.19981E-14-5.71450E-14
 -1      4270 1.69664E+01 5.49214E-01-2.17260E-02 1.94001E+00-1.76469E-14-2.67241E-14
 -1      4271 1.74598E+01 7.13323E-01 1.14195E-02 1.52928E+00-4.67226E-15 3.69255E-14
 -1      4272 1.79217E+01 4.78288E-01-1.83994E-03 1.63166E+00 8.51020E-14 3.76478E-14
 -3
    1PSTEP                         3           1           1          
  100CL  101 1.000000000        4272                     0    1           1
 -4  TOSTRAIN    6    1
 -5  EXX         1    4    1    1
 -5  EYY         1    4    2    2
 -5  EZZ         1    4    3    3
 -5  EXY         1    4    1    2
 -5  EYZ         1    4    2    3
 -5  EZX         1    4    3    1
 -1         1 3.45245E-04-1.07558E-04-8.57745E-05 1.22429E-06-9.11090E-20-2.39235E-18
 -1         2 3.78598E-05-1.16633E-04 2.16831E-05-1.28519E-06-2.89812E-18 6.32787E-19
 -1         3 9.52374E-05-2.85709E-05-2.85717E-05 2.86716E-10-2.99045E-18-3.70250E-18
 -1         4 9.52374E-05-2.85708E-05-2.85717E-05-4.39353E-10 5.16542E-18-4.01504E-18
 -1         5 1.45675E-04-2.15961E-05-4.36658E-05 3.84737E-05-1.81424E-19 1.27465E-17
 -1         6 1.46766E-04 2.72183E-10-4.56952E-05-5.21585E-05-5.66242E-19 1.19482E-17
 -1         7 9.63374E-05-8.86718E-07-4.09452E-05-2.59948E-05-9.67735E-20 3.29806E-18
 -1         8 8.95022E-05-5.88024E-08-3.79845E-05-1.52670E-05-1.38172E-19 3.57028E-19
 -1         9 8.50108E-05 3.04420E-08-3.62468E-05-1.00617E-05-1.47940E-19-1.39218E-18
 -1        10 8.15187E-05 5.86689E-08-3.48633E-05-6.97190E-06-1.02200E-19-2.28623E-18
 -1        11 7.88525E-05 8.03994E-08-3.38015E-05-5.17387E-06-6.56451E-20-2.72832E-18
 -1        12 7.71083E-05 8.94547E-08-3.30937E-05-4.15386E-06-4.29472E-20-2.94344E-18
 -1        13 7.62658E-05 8.67273E-08-3.27318E-05-3.42402E-06-3.76003E-20-3.00396E-18
 -1        14 7.62842E-05 7.31004E-08-3.27052E-05-2.61458E-06-2.89513E-21-2.98335E-18
 -1        15 7.69878E-05 5.36216E-08-3.29523E-05-1.44501E-06 2.29030E-20-2.84816E-18
 -1        16 7.81601E-05 3.39788E-08-3.33951E-05 2.42573E-07 3.95591E-20-2.71450E-18
 -1        17 7.96072E-05 1.80414E-08-3.39616E-05 2.50478E-06 5.69894E-20-2.50852E-18
 -1        18 8.11773E-05 1.34083E-08-3.45960E-05 5.28691E-06 7.69741E-20-2.14849E-18
 -1        19 8.29267E-05 2.06030E-08-3.53241E-05 8.70470E-06 1.11663E-19-1.59591E-18
 -1        20 8.50200E-05 4.69590E-08-3.62216E-05 1.28421E-05 1.43572E-19-6.35278E-19
 -1        21 8.80729E-05 1.02597E-07-3.75355E-05 1.81764E-05 1.61624E-19 1.25178E-18
 -1        22 9.49429E-05-2.42173E-07-3.99850E-05 2.67093E-05 2.15993E-20 4.92825E-18
 -1        23 1.20061E-04-4.05689E-05-3.75498E-05-3.43371E-06-3.42678E-19 9.88985E-18
 -1        24 1.04285E-04-3.11779E-05-3.24167E-05 5.52246E-07-1.13102E-19 8.22370E-18
 -1        25 1.05104E-04-3.16726E-05-3.17618E-05 4.96070E-07-6.89008E-20 6.41445E-18
 -1        26 1.09404E-04-3.29186E-05-3.29067E-05 4.00042E-07 3.19027E-20 5.04710E-18
 -1        27 1.16314E-04-3.49471E-05-3.49915E-05 4.58835E-07-8.56347E-20 4.13556E-18
 -1        28 1.25305E-04-3.76019E-05-3.76616E-05 5.69921E-07 1.67140E-20 3.91147E-18
 -1        29 1.35335E-04-4.05873E-05-4.05053E-05 6.47426E-07-1.41713E-19 3.57638E-18
 -1        30 1.43909E-04-4.31804E-05-4.27043E-05 4.88272E-07 1.23005E-19 3.22783E-18
 -1        31 1.46427E-04-4.40145E-05-4.29785E-05-2.43607E-07 7.40095E-20 3.53657E-18
 -1        32 1.37326E-04-4.13362E-05-4.01780E-05-1.71128E-06-1.96379E-19 4.01494E-18
 -1        33 1.15417E-04-3.45730E-05-3.46482E-05-3.09832E-06 2.10383E-19 3.63959E-18
 -1        34 9.15325E-05-2.70734E-05-2.92631E-05-2.64484E-06 1.07070E-20 3.75532E-18
 -1        35 8.15234E-05-2.37713E-05-2.71623E-05 4.09040E-07-1.62524E-20 2.52183E-18
 -1        36 9.34291E-05-2.76385E-05-2.97832E-05 2.69913E-06-7.21632E-20 1.14032E-18
 -1        37 1.19546E-04-3.58622E-05-3.57409E-05 3.08050E-06 9.90234E-20-9.68370E-19
 -1        38 1.41508E-04-4.25964E-05-4.13842E-05 1.60067E-06 1.46318E-19-2.67249E-18
 -1        39 1.50136E-04-4.51151E-05-4.41195E-05 1.79490E-07 3.31005E-20-2.21798E-18
 -1        40 1.47454E-04-4.42290E-05-4.38133E-05-4.82036E-07 2.54239E-19-2.77853E-19
 -1        41 1.39114E-04-4.17033E-05-4.16744E-05-5.90199E-07 1.69427E-20 5.38395E-20
 -1        42 1.29510E-04-3.88354E-05-3.89504E-05-4.77389E-07-1.50274E-19-1.19260E-18
 -1        43 1.20856E-04-3.62593E-05-3.63864E-05-3.28940E-07 1.34196E-19-7.48115E-19
 -1        44 1.13857E-04-3.41759E-05-3.42697E-05-2.14960E-07-6.21229E-20 7.20640E-20
 -1        45 1.08319E-04-3.25153E-05-3.25772E-05-1.22303E-07-1.42225E-20-1.53490E-18
 -1        46 1.04450E-04-3.13576E-05-3.13920E-05-7.20125E-08 2.02728E-19-2.03051E-18
 -1        47 1.01644E-04-3.05131E-05-3.05319E-05-4.08300E-08-3.66027E-20-1.91312E-18
 -1        48 9.96306E-05-2.99058E-05-2.99154E-05-2.19987E-08-1.00899E-19-3.07759E-18
 -1        49 9.81976E-05-2.94726E-05-2.94770E-05-1.08501E-08-1.77273E-19-2.97110E-18
 -1        50 9.71852E-05-2.91659E-05-2.91675E-05-4.33938E-09 9.56560E-20-2.98286E-18
 -1        51 9.64761E-05-2.89508E-05-2.89510E-05-6.16765E-10-7.21358E-19-1.41813E-18
 -1        52 9.59853E-05-2.88016E-05-2.88011E-05 1.42780E-09-2.37987E-19-3.44145E-18
 -1        53 9.56511E-05-2.86998E-05-2.86990E-05 2.46083E-09 1.22956E-19-4.23983E-18
 -1        54 9.54285E-05-2.86319E-05-2.86310E-05 2.88564E-09-2.67098E-20-5.63900E-18
 -1        55 9.52852E-05-2.85880E-05-2.85871E-05 2.94937E-09 9.81306E-19-2.99311E-18
 -1        56 9.51973E-05-2.85610E-05-2.85602E-05 2.80504E-09-6.41151E-19-7.47744E-19
 -1        57 9.51478E-05-2.85456E-05-2.85449E-05 2.55346E-09 3.56526E-19-2.06742E-18
 -1        58 9.51241E-05-2.85382E-05-2.85375E-05 2.15278E-09-6.03479E-19-4.32512E-18
 -1        59 9.51174E-05-2.85358E-05-2.85353E-05 1.94052E-09 2.18446E-19-6.83418E-18
 -1        60 9.51218E-05-2.85370E-05-2.85365E-05 1.60727E-09 3.33688E-19-3.38986E-18
 -1        61 9.51322E-05-2.85399E-05-2.85396E-05 1.33128E-09-4.93764E-19-5.58359E-18
 -1        62 9.51457E-05-2.85439E-05-2.85436E-05 1.08739E-09 4.31701E-20-5.54275E-18
 -1        63 9.51603E-05-2.85482E-05-2.85480E-05 8.79626E-10 1.34500E-19-4.80800E-18
 -1        64 9.51749E-05-2.85525E-05-2.85523E-05 7.07992E-10 4.13780E-20-4.13228E-18
 -1        65 9.51886E-05-2.85566E-05-2.85565E-05 5.70410E-10-2.73520E-19-4.23779E-18
 -1        66 9.52012E-05-2.85604E-05-2.85603E-05 4.63096E-10-2.17095E-19-7.31524E-18
 -1        67 9.52123E-05-2.85637E-05-2.85636E-05 3.79955E-10 2.77272E-19-4.57670E-18
 -1        68 9.52218E-05-2.85665E-05-2.85664E-05 3.10138E-10 4.23212E-20-2.65291E-18
 -1        69 9.52295E-05-2.85688E-05-2.85687E-05 2.31538E-10-1.19583E-19-2.55864E-18
 -1        70 9.52349E-05-2.85704E-05-2.85703E-05 1.05367E-10-1.38785E-19-4.12611E-18
 -1        71 9.52374E-05-2.85712E-05-2.85711E-05-2.56901E-10-1.10525E-18-1.05090E-17
 -1        72 1.06434E-04-3.18528E-05-3.55055E-05-2.17038E-06 1.37696E-19 1.19480E-17
 -1        73 9.86029E-05-2.93306E-05-3.06840E-05-4.21233E-07 1.10508E-19 9.36363E-18
 -1        74 9.63194E-05-2.88690E-05-2.90924E-05-1.93314E-07 1.87741E-20 7.74166E-18
 -1        75 9.58854E-05-2.87898E-05-2.87428E-05-1.53659E-07 3.76346E-21 6.70388E-18
 -1        76 9.58731E-05-2.87819E-05-2.86947E-05-1.20535E-07 9.17559E-20 5.39951E-18
 -1        77 9.55064E-05-2.86659E-05-2.85698E-05-7.94769E-08-3.56480E-20 4.32578E-18
 -1        78 9.43144E-05-2.83089E-05-2.82040E-05-2.15398E-08 1.75457E-20 3.81347E-18
 -1        79 9.20683E-05-2.76399E-05-2.75368E-05 5.49047E-08 3.67256E-20 3.31063E-18
 -1        80 8.88453E-05-2.66771E-05-2.66010E-05 1.38681E-07-2.16735E-19 2.68269E-18
 -1        81 8.50908E-05-2.55498E-05-2.55315E-05 2.05319E-07 1.08645E-19 2.61402E-18
 -1        82 8.15816E-05-2.44886E-05-2.45487E-05 2.25260E-07 8.00669E-21 2.00618E-18
 -1        83 7.92287E-05-2.37688E-05-2.39012E-05 1.80183E-07 1.36561E-19 1.66664E-18
 -1        84 7.87558E-05-2.36133E-05-2.37818E-05 7.79655E-08 9.16533E-20 1.63262E-18
 -1        85 8.03996E-05-2.40990E-05-2.42514E-05-4.71393E-08-1.18428E-19 1.01539E-18
 -1        86 8.38053E-05-2.51215E-05-2.52150E-05-1.52249E-07 6.76241E-20 3.29019E-19
 -1        87 8.81846E-05-2.64420E-05-2.64609E-05-2.08237E-07-1.13354E-19-6.18308E-19
 -1        88 9.26322E-05-2.77842E-05-2.77412E-05-2.10545E-07-1.21917E-19-6.42633E-19
 -1        89 9.64218E-05-2.89269E-05-2.88497E-05-1.74119E-07 1.88638E-19-3.24261E-19
 -1        90 9.91573E-05-2.97503E-05-2.96666E-05-1.20643E-07-3.34235E-19-9.42721E-19
 -1        91 1.00765E-04-3.02329E-05-3.01614E-05-6.80049E-08 1.31715E-19-1.14785E-18
 -1        92 1.01393E-04-3.04205E-05-3.03692E-05-2.61371E-08 1.95460E-19-1.54524E-18
 -1        93 1.01293E-04-3.03897E-05-3.03587E-05 2.08297E-09 1.88161E-20-1.25459E-18
 -1        94 1.00731E-04-3.02201E-05-3.02054E-05 1.80405E-08-3.60589E-19-2.42437E-18
 -1        95 9.99287E-05-2.99791E-05-2.99758E-05 2.48354E-08-5.66431E-20-1.49072E-18
 -1        96 9.90534E-05-2.97164E-05-2.97197E-05 2.56898E-08-2.45456E-19-8.60200E-19
 -1        97 9.82120E-05-2.94640E-05-2.94706E-05 2.32245E-08 8.91978E-19-3.32899E-18
 -1        98 9.74650E-05-2.92400E-05-2.92476E-05 1.92825E-08-1.77894E-19-5.44293E-18
 -1        99 9.68387E-05-2.90522E-05-2.90595E-05 1.50176E-08-2.65620E-19-4.34302E-18
 -1       100 9.63368E-05-2.89017E-05-2.89080E-05 1.10671E-08-4.13542E-20-2.92554E-18
 -1       101 9.59501E-05-2.87857E-05-2.87908E-05 7.72239E-09 1.73052E-19-2.95952E-18
 -1       102 9.56630E-05-2.86995E-05-2.87035E-05 5.06364E-09 5.07700E-20-3.62047E-18
 -1       103 9.54578E-05-2.86379E-05-2.86408E-05 3.05510E-09-1.55075E-20-2.59316E-18
 -1       104 9.53173E-05-2.85957E-05-2.85977E-05 1.60674E-09 3.43668E-20-1.09977E-18
 -1       105 9.52262E-05-2.85682E-05-2.85696E-05 6.11342E-10 2.43421E-19-5.71176E-20
 -1       106 9.51713E-05-2.85517E-05-2.85526E-05-3.51876E-11-3.87511E-19-2.21756E-18
 -1       107 9.51424E-05-2.85430E-05-2.85435E-05-4.24124E-10 4.62632E-20-5.62687E-18
 -1       108 9.51312E-05-2.85395E-05-2.85398E-05-6.30519E-10-8.88314E-20-5.43133E-18
 -1       109 9.51315E-05-2.85396E-05-2.85397E-05-7.13290E-10-6.62952E-20-2.26696E-18
 -1       110 9.51390E-05-2.85418E-05-2.85418E-05-7.17005E-10 2.34490E-19-3.52814E-18
 -1       111 9.51505E-05-2.85452E-05-2.85451E-05-6.74316E-10 8.03593E-20-4.71194E-18
 -1       112 9.51637E-05-2.85492E-05-2.85490E-05-6.08458E-10-7.68101E-19-4.49002E-18
 -1       113 9.51773E-05-2.85532E-05-2.85531E-05-5.35506E-10 8.25766E-19-5.14570E-18
 -1       114 9.51904E-05-2.85571E-05-2.85570E-05-4.66230E-10-2.93924E-19-6.21934E-18
 -1       115 9.52025E-05-2.85608E-05-2.85606E-05-4.07407E-10-2.64012E-19-8.03904E-18
 -1       116 9.52133E-05-2.85640E-05-2.85639E-05-3.62250E-10-1.17085E-19-6.44755E-18
 -1       117 9.52226E-05-2.85668E-05-2.85667E-05-3.29025E-10-6.82679E-19-4.64088E-18
 -1       118 9.52300E-05-2.85690E-05-2.85688E-05-2.95929E-10 4.06204E-19-3.33043E-18
 -1       119 9.52352E-05-2.85706E-05-2.85704E-05-2.08473E-10-2.36488E-20-3.84180E-18
 -1       120 9.52374E-05-2.85713E-05-2.85712E-05 7.13100E-11 1.32674E-18-4.90518E-18
 -1       121 9.52371E-05-2.85710E-05-2.85711E-05 1.55494E-10-3.54912E-18 9.23847E-19
 -1       122 9.52378E-05-2.85733E-05-2.85703E-05-1.21144E-10 2.68541E-19-3.20616E-19
 -1       123 9.52393E-05-2.85781E-05-2.85689E-05-2.80587E-10-5.69657E-18-1.20278E-18
 -1       124 9.52411E-05-2.85843E-05-2.85672E-05-3.07489E-10-1.24615E-17 1.97553E-18
 -1       125 9.52429E-05-2.85905E-05-2.85654E-05-2.79783E-10-3.39308E-18-1.08387E-18
 -1       126 9.52445E-05-2.85959E-05-2.85638E-05-2.21698E-10-4.29342E-18 5.97118E-19
 -1       127 9.52457E-05-2.86000E-05-2.85626E-05-1.40513E-10-1.89592E-18 1.41741E-19
 -1       128 9.52464E-05-2.86021E-05-2.85620E-05-4.83263E-11-7.27558E-20-5.71771E-19
 -1       129 9.52464E-05-2.86021E-05-2.85620E-05 4.76094E-11 2.69436E-20-5.36126E-20
 -1       130 9.52458E-05-2.86000E-05-2.85626E-05 1.40441E-10 5.07404E-18-3.71080E-19
 -1       131 9.52446E-05-2.85959E-05-2.85638E-05 2.25304E-10 4.62165E-18-1.37487E-18
 -1       132 9.52429E-05-2.85905E-05-2.85654E-05 2.83106E-10-9.45033E-19 1.14031E-18
 -1       133 9.52411E-05-2.85842E-05-2.85672E-05 3.10393E-10-1.69254E-18-1.43673E-18
 -1       134 9.52392E-05-2.85781E-05-2.85690E-05 2.83023E-10-2.05300E-18-2.12538E-19
 -1       135 9.52377E-05-2.85732E-05-2.85703E-05 8.15668E-11 3.70176E-18 2.13330E-18
 -1       136 9.52371E-05-2.85708E-05-2.85712E-05-3.01028E-10 1.39848E-17 8.98103E-19
 -1       137 2.46126E-05-8.37551E-05 1.49485E-05-2.19942E-05 6.31802E-18 1.88327E-18
 -1       138 6.59042E-06-2.54059E-05 9.36290E-07-1.32472E-05 1.39735E-17 6.62549E-18
 -1       139 1.47390E-05 2.17640E-05-1.83618E-05 3.27922E-05 1.51636E-17 1.17136E-17
 -1       140 6.39214E-05 3.00211E-05-3.82977E-05 8.63753E-05 1.38922E-17 1.61648E-17
 -1       141 1.53567E-04-3.44628E-06-5.76904E-05 1.17761E-04 9.54373E-18 1.67365E-17
 -1       142 2.49527E-04-5.62630E-05-7.25091E-05 9.99267E-05 3.88190E-18 1.13600E-17
 -1       143 3.12682E-04-9.53699E-05-8.07689E-05 2.75218E-05 3.65759E-19 2.16713E-18
 -1       144 2.96767E-04-8.52105E-05-7.88735E-05-5.95557E-05 1.09451E-18-5.69799E-18
 -1       145 2.18087E-04-3.82606E-05-6.79401E-05-1.10252E-04 4.41283E-18-1.10546E-17
 -1       146 1.17095E-04 1.24285E-05-5.05628E-05-1.10097E-04 9.11767E-18-1.30663E-17
 -1       147 4.04870E-05 3.12915E-05-3.06350E-05-6.65419E-05 1.31836E-17-1.29113E-17
 -1       148 7.37771E-06 6.34875E-06-1.05459E-05-1.21075E-05 1.40544E-17-9.28899E-18
 -1       149 1.24973E-05-5.10915E-05 7.67740E-06 2.32209E-05 1.15798E-17-4.27847E-18
 -1       150 3.25150E-05-1.03033E-04 1.87024E-05 1.85879E-05 6.69177E-18-1.03589E-18
 -1       151 3.79949E-05-1.17392E-04 2.15902E-05-9.88076E-06-5.79688E-19-2.86588E-19
 -1       152 2.32806E-05-8.58718E-05 1.53408E-05-3.06677E-05-9.29068E-18-2.98330E-18
 -1       153 5.58110E-06-2.99276E-05 1.70431E-06-1.91329E-05-1.44106E-17-8.00234E-18
 -1       154 2.08234E-05 1.70542E-05-2.01371E-05 3.42673E-05-1.55820E-17-1.33848E-17
 -1       155 8.70061E-05 1.93948E-05-4.34370E-05 9.38827E-05-1.19792E-17-1.56040E-17
 -1       156 1.97496E-04-2.49950E-05-6.50923E-05 1.19478E-04-5.99699E-18-1.30206E-17
 -1       157 3.01656E-04-8.13681E-05-8.03063E-05 8.42425E-05-1.86840E-18-7.50471E-18
 -1       158 3.06584E-04-8.49311E-05-8.07695E-05-7.78451E-05-9.61885E-19 2.44200E-18
 -1       159 2.12536E-04-3.41279E-05-6.70113E-05-1.15048E-04-4.12738E-18 8.65414E-18
 -1       160 1.09521E-04 1.12115E-05-4.82327E-05-1.02082E-04-8.76637E-18 1.35568E-17
 -1       161 3.34787E-05 2.27492E-05-2.64477E-05-5.11304E-05-1.28647E-17 1.33882E-17
 -1       162 5.20159E-06-6.48738E-06-6.42935E-06 2.15005E-06-1.57523E-17 1.01472E-17
 -1       163 1.27072E-05-5.89207E-05 9.56864E-06 3.06488E-05-1.86551E-17 7.70620E-18
 -1       164 3.13763E-05-1.04636E-04 1.94289E-05 2.61418E-05-1.38600E-17 3.62214E-18
 -1       165 1.01522E-04-1.43775E-05-3.75099E-05-1.74568E-05-1.56402E-18 1.62617E-18
 -1       166 9.30401E-05-9.00740E-06-3.61517E-05-1.19314E-05-1.55368E-18-2.41537E-19
 -1       167 8.68603E-05-5.58150E-06-3.49338E-05-8.34318E-06-1.35341E-18-1.38385E-18
 -1       168 8.23336E-05-3.43878E-06-3.38853E-05-6.13175E-06-1.03604E-18-2.03929E-18
 -1       169 7.92698E-05-2.17226E-06-3.30976E-05-4.85279E-06-7.80127E-19-2.34688E-18
 -1       170 7.76090E-05-1.64982E-06-3.26013E-05-4.01817E-06-5.19206E-19-2.45798E-18
 -1       171 7.73065E-05-1.76292E-06-3.24201E-05-3.23981E-06-2.42963E-19-2.44283E-18
 -1       172 7.81032E-05-2.33374E-06-3.25181E-05-2.19372E-06 1.76148E-20-2.34665E-18
 -1       173 7.96561E-05-3.16673E-06-3.28310E-05-6.80436E-07 2.96012E-19-2.25590E-18
 -1       174 8.16385E-05-4.10359E-06-3.32866E-05 1.37968E-06 5.64318E-19-2.13904E-18
 -1       175 8.37924E-05-5.05215E-06-3.38146E-05 3.93676E-06 8.36096E-19-1.81865E-18
 -1       176 8.61496E-05-6.08708E-06-3.43994E-05 7.05860E-06 1.19347E-18-1.41550E-18
 -1       177 8.88929E-05-7.41375E-06-3.50380E-05 1.07325E-05 1.47473E-18-7.26026E-19
 -1       178 9.27307E-05-9.62944E-06-3.57813E-05 1.50890E-05 1.63248E-18 5.73375E-19
 -1       179 9.99171E-05-1.48840E-05-3.66493E-05 1.99231E-05 1.59168E-18 2.79044E-18
 -1       180 1.10116E-04-2.76111E-05-3.65530E-05 1.72337E-05 1.13523E-18 5.66374E-18
 -1       181 1.11921E-04-2.99822E-05-3.50987E-05-8.20663E-06-1.24405E-18 3.69605E-18
 -1       182 1.08176E-04-3.14646E-05-3.28964E-05-3.05052E-07-1.08739E-18 2.96590E-18
 -1       183 1.07919E-04-3.16203E-05-3.26408E-05 3.58475E-06-7.83280E-19 2.46024E-18
 -1       184 1.10528E-04-3.25313E-05-3.33891E-05 6.31550E-06-6.03617E-19 1.90810E-18
 -1       185 1.15001E-04-3.40134E-05-3.46991E-05 8.42996E-06-2.01779E-19 1.84981E-18
 -1       186 1.20795E-04-3.61404E-05-3.62930E-05 9.54318E-06-8.84191E-20 1.75581E-18
 -1       187 1.27141E-04-3.89355E-05-3.78247E-05 8.48804E-06-1.16841E-19 2.30408E-18
 -1       188 1.32728E-04-4.21044E-05-3.88501E-05 3.53819E-06 3.20582E-19 2.58891E-18
 -1       189 1.35412E-04-4.43357E-05-3.90369E-05-6.19433E-06 1.91145E-19 3.14358E-18
 -1       190 1.32616E-04-4.27737E-05-3.85940E-05-1.74804E-05-2.72603E-19 3.35082E-18
 -1       191 1.24495E-04-3.60768E-05-3.81709E-05-2.07810E-05-5.11317E-19 2.33234E-18
 -1       192 1.16204E-04-2.83710E-05-3.81281E-05-8.49350E-06-9.79858E-19 1.07715E-18
 -1       193 1.16615E-04-2.85363E-05-3.82440E-05 1.03140E-05-1.09590E-18-1.91396E-19
 -1       194 1.25804E-04-3.67200E-05-3.84529E-05 2.18729E-05-8.54789E-19-5.98111E-19
 -1       195 1.34665E-04-4.36686E-05-3.90688E-05 1.74896E-05-6.46642E-19-1.30943E-18
 -1       196 1.37400E-04-4.48963E-05-3.96405E-05 5.87055E-06 5.61153E-19-9.58544E-19
 -1       197 1.34704E-04-4.25763E-05-3.94985E-05-3.62955E-06 1.08756E-18-6.63022E-19
 -1       198 1.29208E-04-3.94738E-05-3.84856E-05-8.29186E-06-1.07550E-19-1.38649E-19
 -1       199 1.22919E-04-3.67691E-05-3.69418E-05-9.26959E-06-3.02414E-19-8.69234E-19
 -1       200 1.16960E-04-3.46681E-05-3.52744E-05-8.36778E-06 2.66948E-19-8.77490E-19
 -1       201 1.11825E-04-3.30790E-05-3.37438E-05-6.83021E-06 3.33900E-19-2.99241E-19
 -1       202 1.07476E-04-3.18372E-05-3.24062E-05-5.20978E-06-9.69524E-19 4.83289E-19
 -1       203 1.04261E-04-3.09586E-05-3.14044E-05-3.89833E-06-3.22428E-19-5.42306E-19
 -1       204 1.01800E-04-3.02987E-05-3.06335E-05-2.86723E-06-6.93248E-19-1.69822E-18
 -1       205 9.99506E-05-2.98072E-05-3.00531E-05-2.08507E-06-3.02727E-19-1.73276E-18
 -1       206 9.85766E-05-2.94433E-05-2.96220E-05-1.50350E-06-3.24872E-19-1.55763E-18
 -1       207 9.75661E-05-2.91758E-05-2.93051E-05-1.07572E-06 4.70830E-19-1.70203E-18
 -1       208 9.68296E-05-2.89810E-05-2.90742E-05-7.62924E-07-3.99230E-19-1.44540E-18
 -1       209 9.62983E-05-2.88405E-05-2.89076E-05-5.35123E-07-4.07355E-19-1.36990E-18
 -1       210 9.59195E-05-2.87407E-05-2.87888E-05-3.69869E-07 3.68387E-20-2.29207E-19
 -1       211 9.56534E-05-2.86710E-05-2.87052E-05-2.50597E-07-1.84976E-20 7.17776E-19
 -1       212 9.54699E-05-2.86233E-05-2.86475E-05-1.65130E-07 7.59720E-19 1.12191E-18
 -1       213 9.53466E-05-2.85916E-05-2.86085E-05-1.04505E-07 3.39556E-19-6.56918E-20
 -1       214 9.52665E-05-2.85715E-05-2.85830E-05-6.20896E-08-5.53122E-19 8.76018E-19
 -1       215 9.52171E-05-2.85595E-05-2.85672E-05-3.30098E-08-1.71524E-18-9.95034E-19
 -1       216 9.51882E-05-2.85529E-05-2.85577E-05-1.27668E-08-8.42094E-19-1.92118E-19
 -1       217 9.51754E-05-2.85504E-05-2.85534E-05-4.57253E-10 1.24661E-18-1.50302E-18
 -1       218 9.51720E-05-2.85504E-05-2.85520E-05 7.01083E-09-1.10279E-18-1.59902E-18
 -1       219 9.51745E-05-2.85518E-05-2.85525E-05 1.11785E-08-3.43530E-19-4.72920E-20
 -1       220 9.51805E-05-2.85540E-05-2.85542E-05 1.31156E-08 2.09267E-19-1.09386E-18
 -1       221 9.51883E-05-2.85566E-05-2.85564E-05 1.36029E-08 5.25035E-19-1.54844E-18
 -1       222 9.51969E-05-2.85593E-05-2.85589E-05 1.31868E-08-4.59344E-19-1.89408E-18
 -1       223 9.52053E-05-2.85619E-05-2.85615E-05 1.22307E-08-1.91353E-18-3.00286E-18
 -1       224 9.52133E-05-2.85644E-05-2.85638E-05 1.09498E-08 2.42054E-19-2.76504E-18
 -1       225 9.52205E-05-2.85666E-05-2.85660E-05 9.43353E-09 1.58463E-18-1.64584E-18
 -1       226 9.52266E-05-2.85685E-05-2.85678E-05 7.66001E-09-9.39886E-19-2.48375E-18
 -1       227 9.52315E-05-2.85701E-05-2.85692E-05 5.52228E-09 6.72238E-20-2.25178E-18
 -1       228 9.52350E-05-2.85713E-05-2.85702E-05 2.97639E-09-3.39787E-18-6.14510E-19
 -1       229 9.52367E-05-2.85718E-05-2.85707E-05 1.05590E-09 8.68480E-19 5.71991E-19
 -1       230 1.04748E-04-3.02228E-05-3.21131E-05 6.01239E-06 1.16749E-18 4.94384E-18
 -1       231 1.00441E-04-2.96825E-05-3.02883E-05 1.94347E-06 8.07209E-19 4.30723E-18
 -1       232 9.86139E-05-2.94841E-05-2.95821E-05 5.69202E-07 5.85765E-19 3.45792E-18
 -1       233 9.77088E-05-2.93821E-05-2.92590E-05 3.05016E-07 6.69971E-19 3.00370E-18
 -1       234 9.69531E-05-2.92431E-05-2.90072E-05 6.60656E-07 4.28192E-19 2.78928E-18
 -1       235 9.58901E-05-2.89727E-05-2.86728E-05 1.37728E-06 3.56744E-19 2.24440E-18
 -1       236 9.42694E-05-2.84819E-05-2.81904E-05 2.22157E-06 1.85499E-19 1.65200E-18
 -1       237 9.20730E-05-2.77483E-05-2.75649E-05 2.90890E-06 1.83347E-19 1.34833E-18
 -1       238 8.95437E-05-2.68454E-05-2.68697E-05 3.12852E-06 2.15515E-19 1.16272E-18
 -1       239 8.71592E-05-2.59497E-05-2.62339E-05 2.64705E-06 2.59465E-19 1.35565E-18
 -1       240 8.55101E-05-2.53014E-05-2.58062E-05 1.43938E-06 3.74000E-19 8.23557E-19
 -1       241 8.50895E-05-2.51131E-05-2.57059E-05-2.42969E-07 1.07441E-19 5.54545E-19
 -1       242 8.60846E-05-2.54689E-05-2.59770E-05-1.94412E-06 2.72407E-19 5.55764E-19
 -1       243 8.82902E-05-2.62805E-05-2.65714E-05-3.20047E-06 4.98828E-19 1.12639E-19
 -1       244 9.11997E-05-2.73325E-05-2.73660E-05-3.73977E-06 2.82718E-19 4.11010E-20
 -1       245 9.42104E-05-2.83822E-05-2.82072E-05-3.56057E-06-1.05012E-19 1.33057E-19
 -1       246 9.68227E-05-2.92474E-05-2.89586E-05-2.86894E-06 3.77668E-19-2.49471E-19
 -1       247 9.87467E-05-2.98414E-05-2.95315E-05-1.94581E-06 1.31735E-19-5.77298E-19
 -1       248 9.99060E-05-3.01614E-05-2.98934E-05-1.03295E-06 2.65671E-19-8.04118E-19
 -1       249 1.00378E-04-3.02544E-05-3.00569E-05-2.79724E-07-1.32044E-19-2.62172E-19
 -1       250 1.00320E-04-3.01858E-05-3.00614E-05 2.56013E-07-3.21284E-19 5.62499E-20
 -1       251 9.99075E-05-3.00187E-05-2.99555E-05 5.80439E-07 3.32968E-19-2.10483E-19
 -1       252 9.92978E-05-2.98039E-05-2.97853E-05 7.32814E-07 2.07984E-19-6.83183E-19
 -1       253 9.86129E-05-2.95777E-05-2.95878E-05 7.62217E-07-2.70972E-19-9.12943E-19
 -1       254 9.79370E-05-2.93634E-05-2.93892E-05 7.14056E-07 1.36265E-18-6.79727E-19
 -1       255 9.73211E-05-2.91736E-05-2.92060E-05 6.24291E-07 6.51346E-20-5.10656E-19
 -1       256 9.67908E-05-2.90138E-05-2.90468E-05 5.18417E-07-4.85702E-19-4.59905E-19
 -1       257 9.63541E-05-2.88845E-05-2.89149E-05 4.12772E-07-4.50974E-19-7.30297E-19
 -1       258 9.60077E-05-2.87836E-05-2.88097E-05 3.16654E-07 3.34238E-19-9.97023E-19
 -1       259 9.57420E-05-2.87072E-05-2.87285E-05 2.34421E-07-2.06656E-19-3.98247E-19
 -1       260 9.55449E-05-2.86513E-05-2.86681E-05 1.67243E-07-4.85970E-19 4.90384E-19
 -1       261 9.54036E-05-2.86118E-05-2.86245E-05 1.14404E-07-5.69812E-19 5.13793E-19
 -1       262 9.53062E-05-2.85851E-05-2.85944E-05 7.42243E-08-3.42257E-19 1.04008E-18
 -1       263 9.52423E-05-2.85678E-05-2.85744E-05 4.46448E-08 9.10629E-19 9.39285E-19
 -1       264 9.52031E-05-2.85576E-05-2.85621E-05 2.35881E-08 2.29271E-18-9.25265E-19
 -1       265 9.51816E-05-2.85523E-05-2.85552E-05 9.15328E-09-5.18214E-19-1.16877E-18
 -1       266 9.51725E-05-2.85504E-05-2.85522E-05-2.95083E-10-8.24241E-19-1.67753E-18
 -1       267 9.51714E-05-2.85507E-05-2.85516E-05-6.10199E-09 6.92721E-19-2.26083E-18
 -1       268 9.51754E-05-2.85523E-05-2.85527E-05-9.33411E-09 6.51408E-20-1.75413E-18
 -1       269 9.51824E-05-2.85547E-05-2.85547E-05-1.08098E-08 7.98022E-20-1.21915E-18
 -1       270 9.51908E-05-2.85573E-05-2.85572E-05-1.11354E-08 7.50152E-19-2.07774E-18
 -1       271 9.51996E-05-2.85601E-05-2.85598E-05-1.07403E-08-3.85624E-20-2.18227E-18
 -1       272 9.52082E-05-2.85627E-05-2.85624E-05-9.90715E-09 7.83040E-19-2.16940E-18
 -1       273 9.52162E-05-2.85651E-05-2.85647E-05-8.79430E-09-4.85286E-19-3.26051E-18
 -1       274 9.52232E-05-2.85673E-05-2.85668E-05-7.44991E-09-1.54059E-18-3.13617E-18
 -1       275 9.52290E-05-2.85691E-05-2.85685E-05-5.82434E-09-5.01070E-19-3.00380E-18
 -1       276 9.52334E-05-2.85705E-05-2.85698E-05-3.78452E-09-3.50100E-20-1.88455E-18
 -1       277 9.52362E-05-2.85714E-05-2.85706E-05-1.41903E-09 9.18878E-19-8.10657E-19
 -1       278 9.52370E-05-2.85732E-05-2.85702E-05-2.89679E-09-1.18079E-18 1.72286E-18
 -1       279 9.52382E-05-2.85764E-05-2.85693E-05-5.03203E-09-3.05522E-18-3.35064E-18
 -1       280 9.52398E-05-2.85806E-05-2.85682E-05-6.18231E-09-2.87639E-18-2.52742E-18
 -1       281 9.52414E-05-2.85850E-05-2.85670E-05-6.28072E-09-3.33427E-18 4.78267E-18
 -1       282 9.52428E-05-2.85891E-05-2.85659E-05-5.50678E-09-1.77753E-18 3.70966E-20
 -1       283 9.52440E-05-2.85924E-05-2.85650E-05-4.05076E-09-7.96182E-19 4.16463E-20
 -1       284 9.52447E-05-2.85946E-05-2.85643E-05-2.14382E-09-7.18558E-19 7.72655E-19
 -1       285 9.52450E-05-2.85953E-05-2.85641E-05-9.31443E-12 1.39341E-18 7.03406E-19
 -1       286 9.52448E-05-2.85946E-05-2.85643E-05 2.13113E-09 1.51290E-19 1.22167E-18
 -1       287 9.52440E-05-2.85924E-05-2.85649E-05 4.05408E-09 1.96553E-20 7.52384E-19
 -1       288 9.52429E-05-2.85892E-05-2.85659E-05 5.50901E-09 4.48456E-19-3.33347E-18
 -1       289 9.52414E-05-2.85850E-05-2.85670E-05 6.31202E-09 1.42801E-18 5.80461E-20
 -1       290 9.52398E-05-2.85806E-05-2.85682E-05 6.20965E-09 1.55881E-18-1.21541E-18
 -1       291 9.52382E-05-2.85765E-05-2.85693E-05 5.03516E-09 6.13151E-19 2.74329E-18
 -1       292 9.52373E-05-2.85738E-05-2.85701E-05 3.17113E-09-1.83383E-18 3.44523E-18
 -1       293 1.27754E-05-4.19154E-05 1.02890E-05 1.62154E-05-6.59521E-19 4.26513E-18
 -1       294 2.92247E-05-4.29392E-05 3.21316E-06 2.55421E-05 2.91337E-18 5.88857E-18
 -1       295 5.88696E-05-3.52298E-05-1.15141E-05 4.00240E-05 5.27087E-18 5.14890E-18
 -1       296 9.43667E-05-2.83178E-05-2.84483E-05 4.86986E-05 5.91674E-18 7.02699E-18
 -1       297 1.37337E-04-2.76970E-05-4.56802E-05 5.14760E-05 5.69100E-18 6.46646E-18
 -1       298 1.77578E-04-3.15514E-05-6.02775E-05 3.96931E-05 5.71692E-18 3.67803E-18
 -1       299 2.02890E-04-3.25703E-05-7.00980E-05 1.90210E-05 4.53586E-18 1.76966E-18
 -1       300 2.17670E-04-3.74050E-05-7.36370E-05-5.23705E-06 3.77533E-18-6.07190E-19
 -1       301 1.88718E-04-2.98881E-05-6.60688E-05-1.98713E-05 4.03823E-18-2.17423E-18
 -1       302 1.64549E-04-3.10336E-05-5.52835E-05-4.39186E-05 4.54203E-18-4.75037E-18
 -1       303 1.21137E-04-2.77404E-05-3.92532E-05-5.12337E-05 5.63616E-18-5.20438E-18
 -1       304 7.96288E-05-3.04806E-05-2.17693E-05-4.51537E-05 5.48411E-18-5.31132E-18
 -1       305 4.80140E-05-3.90864E-05-5.55414E-06-3.65410E-05 3.92324E-18-4.56927E-18
 -1       306 2.15533E-05-4.67882E-05 7.71175E-06-1.96228E-05 3.11772E-18-3.55775E-18
 -1       307 1.19893E-05-5.23294E-05 1.36517E-05-6.84789E-06 9.19613E-19-3.65675E-18
 -1       308 1.39629E-05-4.75330E-05 1.13097E-05 8.32070E-06-1.57665E-18-4.94043E-18
 -1       309 3.14194E-05-4.62612E-05 3.31347E-06 2.06765E-05-4.39292E-18-5.38615E-18
 -1       310 7.07931E-05-4.47266E-05-1.27392E-05 3.71714E-05-4.55577E-18-5.55156E-18
 -1       311 1.13590E-04-4.03412E-05-3.17606E-05 4.22117E-05-6.06645E-18-5.44600E-18
 -1       312 1.62749E-04-3.92815E-05-5.12408E-05 4.23287E-05-5.91462E-18-5.02460E-18
 -1       313 2.03633E-04-4.07945E-05-6.65119E-05 2.67360E-05-4.21960E-18-3.54377E-18
 -1       314 2.25569E-04-3.97501E-05-7.52323E-05 9.98696E-06-2.62326E-18-1.90593E-18
 -1       315 2.29791E-04-4.21706E-05-7.57487E-05-8.35814E-06-2.18916E-18-4.50939E-19
 -1       316 2.03441E-04-4.02567E-05-6.68938E-05-1.94455E-05-3.25314E-18 3.10226E-19
 -1       317 1.71499E-04-4.09338E-05-5.40155E-05-3.83145E-05-4.52654E-18 1.24853E-18
 -1       318 1.24663E-04-3.88984E-05-3.66361E-05-4.26091E-05-5.03561E-18 3.97280E-18
 -1       319 7.94934E-05-3.98451E-05-1.85169E-05-3.70800E-05-6.26910E-18 4.37577E-18
 -1       320 4.42608E-05-4.39825E-05-2.81669E-06-2.56603E-05-6.70045E-18 3.38265E-18
 -1       321 2.20878E-05-4.83852E-05 8.11801E-06-1.42873E-05-4.80268E-18 4.32061E-18
 -1       322 1.20411E-05-5.25340E-05 1.38148E-05-2.62596E-07-2.93407E-18 6.17116E-18
 -1       323 9.33079E-05-1.34641E-05-3.42752E-05-6.73958E-06-1.64265E-18-3.65170E-19
 -1       324 1.01506E-04-2.03420E-05-3.48325E-05-8.46156E-06-1.74777E-18 7.55997E-19
 -1       325 8.21489E-05-5.87352E-06-3.27285E-05-4.47744E-06-1.08749E-18-1.59567E-18
 -1       326 7.93277E-05-4.30111E-06-3.21829E-05-4.16725E-06-7.92288E-19-1.80407E-18
 -1       327 7.83653E-05-3.99604E-06-3.18975E-05-3.94237E-06-4.70209E-19-1.79714E-18
 -1       328 7.89831E-05-4.67953E-06-3.18705E-05-3.39602E-06-1.72516E-19-1.73777E-18
 -1       329 8.07278E-05-5.99830E-06-3.20576E-05-2.27357E-06 1.35015E-19-1.60737E-18
 -1       330 8.31188E-05-7.62452E-06-3.23921E-05-4.99676E-07 4.84686E-19-1.59908E-18
 -1       331 8.57431E-05-9.32333E-06-3.27972E-05 1.81054E-06 8.17178E-19-1.35150E-18
 -1       332 8.85325E-05-1.11344E-05-3.32274E-05 4.58687E-06 1.23465E-18-9.00535E-19
 -1       333 9.15435E-05-1.32490E-05-3.36264E-05 7.59753E-06 1.60691E-18-5.50525E-19
 -1       334 9.52120E-05-1.62409E-05-3.39322E-05 1.04944E-05 1.79223E-18 2.09852E-19
 -1       335 1.00158E-04-2.12200E-05-3.39390E-05 1.21303E-05 1.69848E-18 1.73578E-18
 -1       336 1.03560E-04-2.61352E-05-3.32683E-05 1.00870E-05 1.49088E-18 3.01724E-18
 -1       337 1.01658E-04-2.86764E-05-3.12530E-05 4.40860E-06 1.12898E-18 2.60840E-18
 -1       338 1.04538E-04-2.73880E-05-3.30084E-05 1.30853E-06-1.22741E-18 8.58428E-19
 -1       339 1.04812E-04-2.85140E-05-3.26633E-05 6.72860E-06-9.29015E-19 7.77054E-19
 -1       340 1.06185E-04-2.95183E-05-3.28361E-05 1.08973E-05-4.80526E-19 7.81322E-19
 -1       341 1.08862E-04-3.12643E-05-3.32532E-05 1.40086E-05-6.82796E-21 8.46722E-19
 -1       342 1.13256E-04-3.46283E-05-3.37124E-05 1.53511E-05 3.40728E-19 1.20500E-18
 -1       343 1.20102E-04-4.05047E-05-3.41408E-05 1.33043E-05 2.05872E-19 1.73492E-18
 -1       344 1.29826E-04-4.85995E-05-3.48516E-05 5.61844E-06 9.40200E-19 1.91117E-18
 -1       345 1.40184E-04-5.43465E-05-3.69202E-05-8.37531E-06 3.12261E-19 2.15359E-18
 -1       346 1.45504E-04-4.93044E-05-4.14950E-05-2.24564E-05-7.27681E-19 2.55642E-18
 -1       347 1.40770E-04-2.98821E-05-4.82671E-05-2.14723E-05-2.25485E-18 1.61693E-18
 -1       348 1.35732E-04-1.79197E-05-5.15167E-05 5.44176E-08-2.90988E-18-1.82066E-19
 -1       349 1.41792E-04-3.05498E-05-4.82149E-05 2.39025E-05-1.89079E-18-2.73250E-18
 -1       350 1.45694E-04-4.99431E-05-4.13683E-05 2.31263E-05-1.13706E-18-3.21094E-18
 -1       351 1.40346E-04-5.46688E-05-3.68121E-05 8.05563E-06 6.85461E-19-2.55842E-18
 -1       352 1.29949E-04-4.83254E-05-3.50185E-05-5.71576E-06 1.31314E-18-1.83875E-18
 -1       353 1.20534E-04-4.03614E-05-3.43920E-05-1.30811E-05 1.30966E-18-6.47668E-19
 -1       354 1.13866E-04-3.47845E-05-3.39097E-05-1.50977E-05 8.15641E-20 1.01284E-19
 -1       355 1.09360E-04-3.17001E-05-3.32852E-05-1.41596E-05-5.34357E-19 3.77157E-19
 -1       356 1.06158E-04-3.01870E-05-3.25513E-05-1.20122E-05 5.88753E-19 4.60670E-19
 -1       357 1.03634E-04-2.94700E-05-3.17727E-05-9.51490E-06-2.45780E-20-3.53868E-19
 -1       358 1.01750E-04-2.91554E-05-3.10999E-05-7.36016E-06-1.14691E-18-3.63930E-19
 -1       359 1.00235E-04-2.89878E-05-3.05240E-05-5.57440E-06-5.66955E-19 3.89003E-20
 -1       360 9.90228E-05-2.88808E-05-3.00526E-05-4.16228E-06-3.09488E-19 5.43115E-20
 -1       361 9.80641E-05-2.88009E-05-2.96779E-05-3.07548E-06-5.62554E-19 1.39849E-19
 -1       362 9.73154E-05-2.87366E-05-2.93862E-05-2.25233E-06 2.04257E-19-4.73598E-19
 -1       363 9.67388E-05-2.86845E-05-2.91626E-05-1.63502E-06 5.59109E-19-1.18960E-18
 -1       364 9.63009E-05-2.86432E-05-2.89936E-05-1.17519E-06-4.06957E-19-3.55259E-19
 -1       365 9.59729E-05-2.86116E-05-2.88673E-05-8.34566E-07 9.36546E-19 7.51874E-19
 -1       366 9.57311E-05-2.85885E-05-2.87740E-05-5.83690E-07 4.43244E-19 5.53792E-19
 -1       367 9.55556E-05-2.85724E-05-2.87061E-05-4.00174E-07 5.74232E-19-3.45460E-19
 -1       368 9.54308E-05-2.85620E-05-2.86574E-05-2.67096E-07 5.86918E-19-3.93368E-19
 -1       369 9.53440E-05-2.85559E-05-2.86230E-05-1.71665E-07-4.18472E-19-1.32114E-18
 -1       370 9.52854E-05-2.85529E-05-2.85993E-05-1.04221E-07-1.31874E-18-1.56996E-18
 -1       371 9.52460E-05-2.85522E-05-2.85828E-05-5.55607E-08 7.69408E-20 7.98769E-19
 -1       372 9.52234E-05-2.85530E-05-2.85729E-05-2.45500E-08-4.26405E-20 1.11651E-18
 -1       373 9.52110E-05-2.85546E-05-2.85669E-05-4.31067E-09-4.64421E-19 3.62205E-19
 -1       374 9.52054E-05-2.85567E-05-2.85637E-05 8.27500E-09-4.30279E-19 4.52372E-19
 -1       375 9.52044E-05-2.85589E-05-2.85623E-05 1.55160E-08-1.57968E-18-1.89383E-19
 -1       376 9.52063E-05-2.85611E-05-2.85622E-05 1.91162E-08-1.44715E-19-1.14040E-18
 -1       377 9.52098E-05-2.85632E-05-2.85628E-05 2.03070E-08 4.39235E-19-1.46007E-18
 -1       378 9.52142E-05-2.85652E-05-2.85639E-05 1.99507E-08-9.17566E-19-1.55975E-18
 -1       379 9.52188E-05-2.85669E-05-2.85651E-05 1.86182E-08 1.31220E-19 1.32484E-18
 -1       380 9.52233E-05-2.85686E-05-2.85663E-05 1.66480E-08 1.62856E-18 9.15778E-19
 -1       381 9.52275E-05-2.85701E-05-2.85675E-05 1.41949E-08-8.48940E-19 4.95183E-19
 -1       382 9.52313E-05-2.85716E-05-2.85685E-05 1.12941E-08-2.32062E-19 1.48359E-18
 -1       383 9.52345E-05-2.85730E-05-2.85692E-05 7.92012E-09-5.53185E-19 1.17883E-18
 -1       384 9.99149E-05-2.96460E-05-3.00991E-05 1.51259E-06 8.72723E-19 1.79082E-18
 -1       385 9.93284E-05-3.01407E-05-2.96489E-05 1.30490E-06 9.04224E-19 1.46697E-18
 -1       386 9.87751E-05-3.03653E-05-2.93225E-05 2.03899E-06 9.12702E-19 1.14880E-18
 -1       387 9.79991E-05-3.02800E-05-2.90281E-05 3.29307E-06 4.62463E-19 7.98711E-19
 -1       388 9.67966E-05-2.97601E-05-2.87333E-05 4.59815E-06 2.17399E-19 8.91913E-19
 -1       389 9.51375E-05-2.87653E-05-2.84438E-05 5.40007E-06 4.52972E-20 7.07769E-19
 -1       390 9.32325E-05-2.74399E-05-2.81896E-05 5.17215E-06 2.04938E-19 1.21140E-18
 -1       391 9.15299E-05-2.61465E-05-2.80092E-05 3.64064E-06 4.16434E-19 1.24401E-18
 -1       392 9.05712E-05-2.53549E-05-2.79348E-05 9.97969E-07 5.65651E-19 8.78910E-19
 -1       393 9.07312E-05-2.54029E-05-2.79829E-05-2.08217E-06 2.56226E-19 3.71283E-19
 -1       394 9.20024E-05-2.62881E-05-2.81513E-05-4.71906E-06 2.02725E-19 1.37783E-19
 -1       395 9.39963E-05-2.76719E-05-2.84182E-05-6.23571E-06 4.22489E-19 2.06964E-19
 -1       396 9.61555E-05-2.90868E-05-2.87435E-05-6.42476E-06 2.25597E-19 1.30186E-20
 -1       397 9.80050E-05-3.01719E-05-2.90765E-05-5.52875E-06 2.40417E-19-4.93386E-19
 -1       398 9.92882E-05-3.07818E-05-2.93684E-05-4.02155E-06 5.16624E-19-2.76206E-19
 -1       399 9.99623E-05-3.09556E-05-2.95838E-05-2.37345E-06-3.21964E-19-1.62542E-19
 -1       400 1.00119E-04-3.08233E-05-2.97067E-05-9.14050E-07-5.43890E-19 6.11786E-19
 -1       401 9.99005E-05-3.05241E-05-2.97395E-05 1.94914E-07-5.83491E-19 1.08890E-18
 -1       402 9.94491E-05-3.01657E-05-2.96975E-05 9.22941E-07 7.36189E-19 7.40144E-19
 -1       403 9.88803E-05-2.98154E-05-2.96018E-05 1.31705E-06 3.05014E-19-6.10417E-20
 -1       404 9.82784E-05-2.95072E-05-2.94743E-05 1.45645E-06-1.89350E-19-3.49832E-19
 -1       405 9.76990E-05-2.92534E-05-2.93337E-05 1.42322E-06 5.03656E-19-3.36011E-20
 -1       406 9.71747E-05-2.90535E-05-2.91940E-05 1.28738E-06 8.30393E-19 6.68111E-19
 -1       407 9.67214E-05-2.89014E-05-2.90646E-05 1.10188E-06-1.47126E-19 3.88484E-19
 -1       408 9.63434E-05-2.87888E-05-2.89507E-05 9.02967E-07-5.29513E-19 7.07227E-19
 -1       409 9.60379E-05-2.87076E-05-2.88546E-05 7.13138E-07-1.34573E-19 1.09172E-18
 -1       410 9.57978E-05-2.86506E-05-2.87763E-05 5.44576E-07-3.85624E-19 2.08392E-18
 -1       411 9.56140E-05-2.86116E-05-2.87144E-05 4.02383E-07-6.76235E-19 1.77040E-18
 -1       412 9.54771E-05-2.85859E-05-2.86669E-05 2.87163E-07-4.03291E-19 1.27178E-18
 -1       413 9.53779E-05-2.85697E-05-2.86315E-05 1.96933E-07-5.00303E-19 6.37091E-19
 -1       414 9.53084E-05-2.85603E-05-2.86059E-05 1.28433E-07 1.85188E-19 8.07894E-20
 -1       415 9.52615E-05-2.85554E-05-2.85880E-05 7.79821E-08 2.72397E-18 8.18216E-19
 -1       416 9.52316E-05-2.85536E-05-2.85761E-05 4.19831E-08 4.57558E-19 1.76862E-18
 -1       417 9.52139E-05-2.85537E-05-2.85685E-05 1.71957E-08 1.41747E-19 5.17049E-19
 -1       418 9.52049E-05-2.85549E-05-2.85642E-05 8.55560E-10-1.61338E-19 4.52619E-19
 -1       419 9.52018E-05-2.85568E-05-2.85621E-05-9.30105E-09 7.20553E-19-9.26660E-19
 -1       420 9.52025E-05-2.85590E-05-2.85615E-05-1.50647E-08 2.80051E-19-2.18092E-18
 -1       421 9.52056E-05-2.85612E-05-2.85619E-05-1.78059E-08 7.14183E-19-2.57121E-18
 -1       422 9.52099E-05-2.85633E-05-2.85628E-05-1.85365E-08 1.67399E-19-1.26003E-18
 -1       423 9.52148E-05-2.85653E-05-2.85641E-05-1.79681E-08 8.14660E-19-1.96104E-18
 -1       424 9.52198E-05-2.85671E-05-2.85655E-05-1.65632E-08-1.54309E-19-1.83990E-18
 -1       425 9.52246E-05-2.85688E-05-2.85668E-05-1.45777E-08-3.68459E-19-4.47711E-19
 -1       426 9.52288E-05-2.85703E-05-2.85679E-05-1.21071E-08-5.90889E-19-9.78987E-19
 -1       427 9.52325E-05-2.85718E-05-2.85689E-05-9.17186E-09-1.01496E-18-2.64774E-18
 -1       428 9.52351E-05-2.85727E-05-2.85696E-05-6.10826E-09-1.19308E-18-1.19326E-18
 -1       429 9.52401E-05-2.85813E-05-2.85681E-05-1.06782E-08-5.90829E-19 1.85330E-18
 -1       430 9.52379E-05-2.85776E-05-2.85687E-05-1.00059E-08-1.69573E-18-3.15842E-18
 -1       431 9.52421E-05-2.85847E-05-2.85675E-05-9.98671E-09-1.54258E-18 1.60119E-18
 -1       432 9.52437E-05-2.85876E-05-2.85669E-05-8.05419E-09-6.14615E-19 1.14508E-18
 -1       433 9.52448E-05-2.85897E-05-2.85665E-05-5.21422E-09 6.48652E-19 9.48296E-19
 -1       434 9.52454E-05-2.85908E-05-2.85662E-05-1.81671E-09-4.99949E-19 5.33490E-19
 -1       435 9.52454E-05-2.85908E-05-2.85662E-05 1.77472E-09 6.01722E-20-1.13079E-18
 -1       436 9.52448E-05-2.85897E-05-2.85665E-05 5.19304E-09-6.14254E-19 2.29481E-19
 -1       437 9.52437E-05-2.85877E-05-2.85669E-05 8.02491E-09-2.14170E-18-1.81202E-18
 -1       438 9.52421E-05-2.85848E-05-2.85674E-05 1.00008E-08-5.50211E-20 1.24042E-18
 -1       439 9.52401E-05-2.85813E-05-2.85681E-05 1.07269E-08 4.92481E-19-1.45276E-18
 -1       440 9.52378E-05-2.85776E-05-2.85687E-05 9.94487E-09-1.38535E-19 2.96054E-20
 -1       441 1.00519E-04-2.91832E-05-3.05412E-05 2.45987E-06 1.03433E-18 2.17040E-18
 -1       442 6.17480E-05-4.25129E-05-8.41551E-06 4.71406E-05-1.57654E-19 3.92568E-18
 -1       443 1.34327E-04-5.09370E-05-3.57032E-05 3.07460E-05 2.04463E-18 1.67458E-18
 -1       444 1.18825E-05-2.21942E-05 4.33735E-06 4.67343E-06-5.32817E-19 5.89800E-18
 -1       445 1.05200E-04-5.32112E-05-2.22764E-05 4.35622E-05 3.79894E-19 2.86445E-18
 -1       446 8.68723E-05-8.88588E-06-3.34752E-05-5.36782E-06-1.42741E-18-1.09916E-18
 -1       447 1.53236E-04-4.15012E-05-4.78839E-05 1.23085E-05 2.86944E-18-5.40089E-19
 -1       448 1.57164E-04-2.35349E-05-5.73867E-05-1.05742E-06 4.05782E-18-1.05710E-18
 -1       449 1.63929E-04-1.27113E-05-6.45346E-05-3.92272E-08 4.59473E-18 1.12602E-19
 -1       450 1.59955E-04-1.37121E-05-6.26551E-05 6.42750E-07 4.47159E-18-1.24514E-19
 -1       451 1.57537E-04-3.18055E-05-5.39188E-05-3.37540E-06 3.09956E-18-3.92388E-19
 -1       452 1.48568E-04-4.55108E-05-4.40030E-05-2.13949E-05 2.77901E-18-1.17198E-18
 -1       453 1.23138E-04-5.21168E-05-3.04273E-05-3.68791E-05 1.98862E-18-1.50062E-18
 -1       454 9.25019E-05-5.12204E-05-1.76546E-05-4.66710E-05 3.78306E-19-2.19319E-18
 -1       455 4.69207E-05-3.60658E-05-4.69978E-06-4.40529E-05-2.58345E-20-3.36648E-18
 -1       456 1.85443E-05-2.64677E-05 3.16388E-06-2.45661E-05-1.32243E-19-3.81175E-18
 -1       457 1.22020E-05-2.10070E-05 3.73693E-06 1.77288E-06-2.81136E-19-4.96308E-18
 -1       458 3.42413E-05-3.17294E-05-1.07287E-06 3.13665E-05-3.09167E-20-5.06579E-18
 -1       459 6.93661E-05-4.72357E-05-9.62132E-06 4.20261E-05-1.89841E-19-3.59417E-18
 -1       460 1.18228E-04-6.11486E-05-2.46435E-05 3.46531E-05-1.50158E-18-1.67363E-18
 -1       461 1.53555E-04-5.97204E-05-4.01904E-05 1.72671E-05-3.11438E-18-7.96423E-19
 -1       462 1.69873E-04-4.74255E-05-5.23718E-05-5.06998E-06-3.48816E-18-3.59460E-19
 -1       463 1.73005E-04-2.71252E-05-6.21618E-05-8.90077E-06-3.68343E-18-1.13672E-18
 -1       464 1.76650E-04-2.06864E-05-6.61060E-05 1.26755E-06-2.99638E-18-2.08146E-19
 -1       465 1.75640E-04-2.53880E-05-6.37803E-05 8.61534E-06-3.36791E-18-1.77030E-19
 -1       466 1.70384E-04-4.53007E-05-5.36269E-05 7.53170E-06-3.12942E-18-5.71430E-19
 -1       467 1.60586E-04-5.80459E-05-4.38068E-05-9.25585E-06-2.55500E-18-1.60576E-18
 -1       468 1.28654E-04-6.25738E-05-2.85494E-05-2.90198E-05-1.19029E-18-3.43684E-19
 -1       469 8.93787E-05-5.48892E-05-1.50433E-05-3.97822E-05-7.78106E-19 1.37193E-19
 -1       470 4.87368E-05-4.12549E-05-3.59088E-06-3.60553E-05-8.34751E-19 1.36415E-18
 -1       471 1.88929E-05-2.74719E-05 3.38298E-06-1.71487E-05 2.71315E-19 5.56437E-18
 -1       472 3.09920E-05-3.01270E-05-3.91000E-07 3.63506E-05-6.38663E-19 5.88137E-18
 -1       473 2.37778E-05-1.72831E-05-2.30336E-06 2.26843E-05-6.96155E-21 4.57334E-18
 -1       474 1.44040E-04-1.91563E-05-5.40198E-05 8.23916E-06 3.40253E-18 1.04804E-18
 -1       475 7.91820E-05-6.38031E-06-3.12100E-05-4.06330E-06-6.12142E-19-1.64391E-18
 -1       476 8.10598E-05-7.41792E-06-3.15712E-05-3.14910E-06-8.87023E-19-1.47411E-18
 -1       477 8.13105E-05-8.49184E-06-3.12191E-05-4.19054E-06-1.34314E-19-1.41065E-18
 -1       478 8.41026E-05-1.06497E-05-3.14934E-05-2.91170E-06 1.99602E-19-1.35307E-18
 -1       479 8.71792E-05-1.29258E-05-3.18397E-05-8.87548E-07 5.37210E-19-1.19810E-18
 -1       480 9.02993E-05-1.52263E-05-3.21947E-05 1.64529E-06 9.80924E-19-8.73268E-19
 -1       481 9.33382E-05-1.76031E-05-3.24824E-05 4.26504E-06 1.21017E-18-4.99789E-19
 -1       482 9.64448E-05-2.03683E-05-3.26273E-05 6.47959E-06 1.43052E-18-1.23625E-19
 -1       483 9.95837E-05-2.38569E-05-3.24709E-05 7.44632E-06 1.44941E-18 8.34076E-19
 -1       484 1.01151E-04-2.65639E-05-3.19579E-05 6.31202E-06 1.37938E-18 1.66308E-18
 -1       485 9.83423E-05-2.27107E-05-3.23985E-05 3.86776E-06-1.07282E-18 3.27564E-21
 -1       486 9.31758E-05-5.09781E-05-1.78709E-05 4.54311E-05-1.73631E-18 1.55358E-18
 -1       487 1.29162E-04-5.97510E-05-2.96737E-05 2.79916E-05-9.41477E-19-4.83868E-19
 -1       488 9.81395E-05-2.39697E-05-3.17733E-05 9.25509E-06-5.91660E-19 8.20205E-20
 -1       489 9.82089E-05-2.52149E-05-3.12758E-05 1.39227E-05-2.00420E-19 9.78534E-20
 -1       490 9.94850E-05-2.78198E-05-3.07073E-05 1.78886E-05 2.27416E-19 2.14737E-19
 -1       491 1.03513E-04-3.35006E-05-2.99792E-05 2.06736E-05 6.49712E-19 1.44565E-19
 -1       492 1.12837E-04-4.40429E-05-2.94066E-05 2.07704E-05 9.28064E-19 1.04189E-18
 -1       493 1.29639E-04-5.86611E-05-3.03531E-05 1.51590E-05 1.31160E-18 1.59198E-18
 -1       494 1.48807E-04-6.34079E-05-3.67612E-05 3.29673E-06 1.58905E-19-2.37553E-18
 -1       495 1.28259E-04-5.76405E-05-3.01884E-05-1.45101E-05 1.85090E-18-2.04851E-18
 -1       496 1.12117E-04-4.33152E-05-2.94368E-05-2.00978E-05 2.03969E-18-2.00209E-18
 -1       497 1.03322E-04-3.33873E-05-2.99551E-05-2.01358E-05 8.72307E-19-2.12350E-18
 -1       498 9.94216E-05-2.83224E-05-3.04661E-05-1.79802E-05 1.79664E-19-1.48462E-18
 -1       499 9.79595E-05-2.63705E-05-3.06764E-05-1.51553E-05 6.18669E-20-1.16895E-18
 -1       500 9.74686E-05-2.60108E-05-3.06188E-05-1.21888E-05-9.45161E-20-1.90315E-18
 -1       501 9.72822E-05-2.63120E-05-3.04097E-05-9.65439E-06-1.23527E-19-9.25428E-19
 -1       502 9.71061E-05-2.67752E-05-3.01365E-05-7.50754E-06-3.06499E-19 2.94790E-19
 -1       503 9.68892E-05-2.72159E-05-2.98557E-05-5.75589E-06-4.44366E-19 3.47203E-19
 -1       504 9.66417E-05-2.75744E-05-2.95970E-05-4.36233E-06-7.28213E-19-2.90593E-19
 -1       505 9.63885E-05-2.78456E-05-2.93731E-05-3.27295E-06-9.39409E-19-1.07354E-18
 -1       506 9.61506E-05-2.80436E-05-2.91869E-05-2.43192E-06 7.60642E-19-8.26582E-19
 -1       507 9.59406E-05-2.81858E-05-2.90365E-05-1.78870E-06 6.04454E-19-1.30604E-18
 -1       508 9.57637E-05-2.82878E-05-2.89173E-05-1.30065E-06 1.15141E-20-8.75492E-19
 -1       509 9.56201E-05-2.83612E-05-2.88246E-05-9.33076E-07 4.99863E-20-2.36373E-18
 -1       510 9.55072E-05-2.84147E-05-2.87534E-05-6.58413E-07 1.43662E-18 9.43806E-20
 -1       511 9.54209E-05-2.84542E-05-2.86996E-05-4.55007E-07 6.39404E-19 4.99462E-19
 -1       512 9.53566E-05-2.84838E-05-2.86595E-05-3.05956E-07 7.82424E-20-1.27011E-18
 -1       513 9.53098E-05-2.85060E-05-2.86301E-05-1.98090E-07-1.53215E-18-1.23293E-18
 -1       514 9.52757E-05-2.85237E-05-2.86079E-05-1.18161E-07-7.86576E-21-1.92437E-18
 -1       515 9.52539E-05-2.85364E-05-2.85932E-05-6.55667E-08 1.74018E-19-1.46412E-18
 -1       516 9.52398E-05-2.85461E-05-2.85830E-05-2.97865E-08-1.83346E-19-5.30803E-19
 -1       517 9.52312E-05-2.85534E-05-2.85762E-05-6.25770E-09 1.63158E-19 2.67463E-18
 -1       518 9.52266E-05-2.85589E-05-2.85719E-05 8.49323E-09-1.47821E-18 2.29301E-18
 -1       519 9.52247E-05-2.85630E-05-2.85693E-05 1.70811E-08-1.93880E-18 1.55697E-18
 -1       520 9.52246E-05-2.85660E-05-2.85680E-05 2.14397E-08-1.02837E-18-1.14431E-18
 -1       521 9.52256E-05-2.85683E-05-2.85674E-05 2.29692E-08-2.36058E-20-1.15276E-18
 -1       522 9.52272E-05-2.85700E-05-2.85674E-05 2.26494E-08 1.76974E-18 9.01415E-19
 -1       523 9.52291E-05-2.85714E-05-2.85676E-05 2.11289E-08 1.20284E-19-7.91465E-19
 -1       524 9.52312E-05-2.85726E-05-2.85680E-05 1.87973E-08 7.33490E-19-1.88581E-19
 -1       525 9.52334E-05-2.85739E-05-2.85684E-05 1.58531E-08 1.85114E-19 1.84420E-18
 -1       526 9.52358E-05-2.85757E-05-2.85686E-05 1.31882E-08-1.30883E-18 1.41747E-18
 -1       527 1.01246E-04-3.20614E-05-2.96537E-05 3.16785E-06 7.91067E-19 8.77355E-19
 -1       528 1.01074E-04-3.13318E-05-2.98907E-05 2.01868E-06 1.12122E-18 8.97327E-19
 -1       529 1.00791E-04-3.00839E-05-3.03036E-05 1.89643E-06 8.84824E-19 7.94688E-19
 -1       530 1.01043E-04-3.20872E-05-2.95546E-05 4.85364E-06 4.53596E-19 7.56662E-19
 -1       531 1.00208E-04-3.11952E-05-2.95767E-05 6.42125E-06 2.38317E-19 9.21938E-19
 -1       532 9.86777E-05-2.93742E-05-2.96986E-05 7.07423E-06-4.91759E-20 6.65660E-19
 -1       533 9.67595E-05-2.70396E-05-2.98747E-05 6.11055E-06 1.94158E-19 4.82607E-19
 -1       534 9.51283E-05-2.50296E-05-3.00360E-05 3.33113E-06 4.81042E-19 8.82860E-19
 -1       535 9.45232E-05-2.42453E-05-3.01125E-05-6.68888E-07 5.71649E-19 1.13646E-18
 -1       536 9.52618E-05-2.50773E-05-3.00725E-05-4.65432E-06 5.85168E-19 1.58682E-18
 -1       537 9.70046E-05-2.71303E-05-2.99410E-05-7.39540E-06 6.19187E-19 4.19821E-19
 -1       538 9.90036E-05-2.95174E-05-2.97772E-05-8.28442E-06 4.73104E-19-1.21807E-19
 -1       539 1.00568E-04-3.14162E-05-2.96372E-05-7.48808E-06 6.00266E-19-4.44637E-19
 -1       540 1.01369E-04-3.24316E-05-2.95476E-05-5.64541E-06 6.49362E-19-1.03368E-18
 -1       541 1.01430E-04-3.25982E-05-2.95039E-05-3.46194E-06-4.16442E-20-9.72644E-20
 -1       542 1.00972E-04-3.21843E-05-2.94849E-05-1.45242E-06-9.82756E-19 5.02240E-19
 -1       543 1.00238E-04-3.14900E-05-2.94672E-05 1.18834E-07-9.36095E-19 3.92274E-19
 -1       544 9.94181E-05-3.07423E-05-2.94351E-05 1.18395E-06 8.77839E-20 6.30865E-19
 -1       545 9.86280E-05-3.00731E-05-2.93823E-05 1.79139E-06 4.25166E-19 9.79793E-19
 -1       546 9.79255E-05-2.95371E-05-2.93101E-05 2.04024E-06-3.05635E-19 1.96127E-18
 -1       547 9.73301E-05-2.91409E-05-2.92241E-05 2.03829E-06-1.52138E-19 1.96927E-18
 -1       548 9.68409E-05-2.88668E-05-2.91315E-05 1.88035E-06 5.25890E-19 2.05081E-18
 -1       549 9.64475E-05-2.86890E-05-2.90389E-05 1.64021E-06 3.02092E-19 2.30587E-18
 -1       550 9.61363E-05-2.85814E-05-2.89516E-05 1.37019E-06-7.94868E-19 2.17271E-18
 -1       551 9.58936E-05-2.85224E-05-2.88728E-05 1.10420E-06-8.52002E-19 1.54213E-18
 -1       552 9.57068E-05-2.84950E-05-2.88045E-05 8.61886E-07-1.46763E-18 2.47553E-18
 -1       553 9.55650E-05-2.84871E-05-2.87472E-05 6.52759E-07-5.27268E-20 2.65499E-18
 -1       554 9.54591E-05-2.84904E-05-2.87005E-05 4.79568E-07 4.51135E-19 2.01446E-18
 -1       555 9.53812E-05-2.84993E-05-2.86634E-05 3.40941E-07-3.88557E-19 1.07340E-18
 -1       556 9.53252E-05-2.85104E-05-2.86347E-05 2.33267E-07 5.22077E-19 6.98572E-19
 -1       557 9.52858E-05-2.85217E-05-2.86130E-05 1.51963E-07 9.84528E-19 3.97199E-19
 -1       558 9.52590E-05-2.85321E-05-2.85971E-05 9.22780E-08 8.75631E-19 2.06413E-18
 -1       559 9.52415E-05-2.85411E-05-2.85858E-05 4.97601E-08 1.26052E-18 1.42149E-18
 -1       560 9.52308E-05-2.85486E-05-2.85780E-05 2.04901E-08 5.84853E-19 1.16487E-18
 -1       561 9.52248E-05-2.85547E-05-2.85729E-05 1.17197E-09 6.93924E-19 7.57609E-19
 -1       562 9.52221E-05-2.85595E-05-2.85697E-05-1.08687E-08 5.41869E-19 1.28191E-18
 -1       563 9.52217E-05-2.85631E-05-2.85680E-05-1.77331E-08 9.97808E-19 1.70272E-18
 -1       564 9.52227E-05-2.85660E-05-2.85672E-05-2.10209E-08-4.86265E-19 1.57206E-18
 -1       565 9.52245E-05-2.85681E-05-2.85670E-05-2.19061E-08 7.80390E-19 1.05189E-18
 -1       566 9.52267E-05-2.85698E-05-2.85672E-05-2.12091E-08 1.74118E-19 1.36805E-18
 -1       567 9.52291E-05-2.85713E-05-2.85676E-05-1.94640E-08-4.85009E-19 7.90767E-19
 -1       568 9.52315E-05-2.85726E-05-2.85681E-05-1.69787E-08 6.56778E-19 3.07294E-19
 -1       569 9.52339E-05-2.85740E-05-2.85685E-05-1.38953E-08 1.50743E-18-9.85180E-19
 -1       570 9.52438E-05-2.85842E-05-2.85684E-05-1.18352E-08 1.87434E-18 2.77972E-18
 -1       571 9.52412E-05-2.85814E-05-2.85685E-05-1.36927E-08-8.72963E-19 2.41760E-18
 -1       572 9.52381E-05-2.85781E-05-2.85686E-05-1.39275E-08 5.19968E-19-1.89609E-18
 -1       573 9.52456E-05-2.85864E-05-2.85682E-05-8.66176E-09 1.93715E-18 1.49141E-18
 -1       574 9.52468E-05-2.85878E-05-2.85682E-05-4.58545E-09-1.16988E-18-1.11556E-18
 -1       575 9.52472E-05-2.85883E-05-2.85681E-05-4.54910E-11-1.05009E-18 1.06032E-18
 -1       576 9.52468E-05-2.85878E-05-2.85681E-05 4.51088E-09 9.25209E-19 6.63656E-19
 -1       577 9.52457E-05-2.85865E-05-2.85682E-05 8.56992E-09 8.11823E-19-1.69704E-18
 -1       578 9.52439E-05-2.85844E-05-2.85683E-05 1.18204E-08 1.88587E-18-1.41066E-18
 -1       579 9.52413E-05-2.85815E-05-2.85685E-05 1.37473E-08-3.33526E-19-3.34364E-19
 -1       580 9.52386E-05-2.85787E-05-2.85685E-05 1.41148E-08-1.18710E-18-2.68322E-18
 -1       581 4.38555E-05-2.72555E-05-6.62921E-06-3.14666E-05 2.81268E-18 1.41571E-18
 -1       582 9.66332E-05-1.92992E-05-3.31625E-05-1.69126E-06-1.46957E-18-1.88352E-19
 -1       583 1.43150E-04-5.34958E-05-3.86442E-05 9.46939E-06 8.72558E-19-1.87618E-18
 -1       584 2.36585E-05-1.48383E-05-3.15714E-06-8.49454E-06 1.52056E-18 4.79114E-18
 -1       585 3.05696E-05-1.61881E-05-5.52442E-06 1.92296E-05 2.90506E-19-4.67001E-18
 -1       586 1.42857E-04-3.45917E-05-4.68471E-05-7.65372E-06 2.53459E-18-2.59181E-18
 -1       587 7.94430E-05-6.89297E-06-3.11023E-05-4.53539E-06-3.61685E-19-1.51217E-18
 -1       588 1.35050E-04-1.06877E-05-5.39941E-05-7.30436E-06 3.59068E-18-8.67732E-19
 -1       589 1.45762E-04-4.44448E-05-4.37646E-05 9.39936E-07 1.21637E-18 1.18045E-18
 -1       590 1.35820E-04-6.26812E-06-5.61970E-05 1.30270E-06 3.72705E-18-3.36745E-19
 -1       591 1.43992E-04-6.70339E-05-3.29563E-05 1.32001E-05 7.67624E-21 1.25890E-18
 -1       592 1.40737E-04-5.68574E-05-3.60665E-05-1.58818E-05 3.03450E-19 9.43859E-19
 -1       593 1.21163E-04-5.94993E-05-2.62837E-05-3.44963E-05-9.99393E-19 3.00591E-19
 -1       594 8.19038E-05-4.40015E-05-1.58605E-05-4.62741E-05-1.90657E-18-1.33754E-18
 -1       595 4.12282E-05-2.22151E-05-7.53272E-06-3.55845E-05-1.27426E-18-2.90892E-18
 -1       596 2.51181E-05-1.17919E-05-5.05574E-06-1.41022E-05-5.58856E-19-4.06068E-18
 -1       597 6.56020E-05-3.35373E-05-1.31602E-05 3.74995E-05 1.52847E-18-2.80940E-18
 -1       598 1.21914E-04-6.40371E-05-2.47534E-05-2.88515E-05 1.14122E-18-2.08955E-18
 -1       599 1.08653E-04-5.81009E-05-2.14319E-05 3.54057E-05 1.33900E-18-6.97955E-19
 -1       600 1.54980E-04-5.89895E-05-4.15826E-05-8.07804E-06-1.40267E-18 1.73594E-18
 -1       601 1.56931E-04-5.57543E-05-4.37384E-05 1.39908E-05-1.67517E-18-2.89262E-18
 -1       602 1.48386E-04-6.65763E-05-3.50454E-05-7.46006E-06-3.95538E-19-2.47201E-18
 -1       603 7.97884E-05-4.65798E-05-1.39124E-05-3.95027E-05 1.60942E-18-4.90353E-19
 -1       604 5.97471E-05-3.36850E-05-1.06651E-05 4.42870E-05-1.82022E-18 3.63038E-18
 -1       605 8.52355E-05-1.02805E-05-3.21452E-05-2.32745E-06-1.24972E-18-1.14921E-18
 -1       606 1.00669E-04-2.80983E-05-3.10863E-05 3.67423E-06 1.17833E-18 1.40903E-18
 -1       607 1.48596E-04-6.27846E-05-3.69606E-05-1.82672E-06-1.47701E-19 1.89960E-18
 -1       608 4.65560E-05-2.11129E-05-1.02604E-05 3.43365E-05-1.15927E-18 3.02200E-18
 -1       609 2.82021E-05-1.09467E-05-6.74732E-06 8.91809E-06 4.71083E-19 4.15988E-18
 -1       610 1.00548E-04-2.90552E-05-3.06315E-05 2.47209E-06 9.58374E-19 1.02152E-18
 -1       611 1.28524E-04-1.09093E-05-5.10192E-05 8.30794E-06 2.94042E-18 1.38553E-18
 -1       612 1.29033E-04-2.13287E-05-4.66601E-05-1.30262E-05 1.91670E-18-2.08665E-18
 -1       613 1.38227E-04-3.21105E-05-4.59576E-05 1.05171E-05 1.49340E-18 2.29329E-18
 -1       614 8.82122E-05-1.60835E-05-3.09167E-05-3.93399E-06 2.34073E-19-9.95271E-19
 -1       615 8.44515E-05-1.31980E-05-3.05411E-05-5.62388E-06-8.21300E-20-1.10080E-18
 -1       616 9.48214E-05-2.11720E-05-3.15702E-05 1.09179E-06 8.61820E-19-5.06641E-19
 -1       617 9.74451E-05-2.34914E-05-3.17020E-05 3.27738E-06 1.08480E-18-2.23896E-19
 -1       618 1.00148E-04-2.65852E-05-3.15170E-05 4.55371E-06 1.16488E-18 5.79385E-19
 -1       619 1.37481E-04-4.62992E-05-3.93414E-05-4.54645E-06 6.08342E-19-3.09921E-18
 -1       620 8.48629E-05-4.18736E-05-1.81138E-05 4.13095E-05-2.60672E-18 8.53492E-19
 -1       621 8.94467E-05-1.90092E-05-3.01881E-05 1.01428E-05-3.87708E-19-4.43339E-19
 -1       622 8.76098E-05-2.01840E-05-2.88871E-05 1.49822E-05-7.64853E-20-6.02343E-19
 -1       623 8.65121E-05-2.31717E-05-2.71134E-05 2.01434E-05 7.05706E-19-5.73421E-19
 -1       624 8.82286E-05-3.02251E-05-2.47175E-05 2.62930E-05 1.05646E-18-5.22295E-19
 -1       625 6.83159E-05-2.83388E-05-1.67925E-05-3.73565E-05-1.72281E-18-1.73356E-18
 -1       626 1.60631E-04-4.78109E-05-4.87581E-05 1.43852E-05-2.13151E-18-2.11970E-18
 -1       627 5.33323E-05-1.78884E-05-1.47006E-05 2.42892E-05 9.82717E-19-3.18352E-18
 -1       628 8.77254E-05-3.00732E-05-2.45754E-05-2.53404E-05 1.50725E-18-1.01854E-18
 -1       629 8.62274E-05-2.38068E-05-2.67174E-05-2.00119E-05 5.90506E-19-1.62560E-18
 -1       630 8.74010E-05-2.17618E-05-2.81223E-05-1.59544E-05 5.40087E-19-1.33591E-18
 -1       631 8.94278E-05-2.18597E-05-2.89550E-05-1.27036E-05 8.80572E-20 3.38971E-19
 -1       632 9.12530E-05-2.28083E-05-2.93312E-05-1.02195E-05 2.33527E-19-1.66601E-19
 -1       633 9.26844E-05-2.39440E-05-2.94583E-05-8.16132E-06 5.81910E-19 4.79157E-20
 -1       634 9.37048E-05-2.49965E-05-2.94449E-05-6.45068E-06-3.93012E-19 1.03454E-18
 -1       635 9.43835E-05-2.58712E-05-2.93613E-05-5.04118E-06-1.66970E-18 2.32465E-19
 -1       636 9.48092E-05-2.65583E-05-2.92496E-05-3.89488E-06-1.48841E-18 8.95357E-20
 -1       637 9.50610E-05-2.70813E-05-2.91335E-05-2.97505E-06-4.84402E-19-6.61614E-19
 -1       638 9.51998E-05-2.74729E-05-2.90254E-05-2.24603E-06 1.73477E-19-1.46217E-18
 -1       639 9.52688E-05-2.77636E-05-2.89305E-05-1.67478E-06-1.44666E-19-2.25545E-18
 -1       640 9.52970E-05-2.79789E-05-2.88504E-05-1.23192E-06-2.56456E-19-2.37312E-18
 -1       641 9.53029E-05-2.81383E-05-2.87846E-05-8.92204E-07 2.05276E-18-1.92845E-18
 -1       642 9.52976E-05-2.82565E-05-2.87318E-05-6.34434E-07 7.86766E-19-3.94272E-18
 -1       643 9.52878E-05-2.83441E-05-2.86900E-05-4.41123E-07 1.28433E-19-2.82618E-18
 -1       644 9.52769E-05-2.84091E-05-2.86576E-05-2.97942E-07-6.02797E-19-2.76840E-18
 -1       645 9.52666E-05-2.84592E-05-2.86317E-05-1.89262E-07-8.54650E-19-1.17357E-18
 -1       646 9.52583E-05-2.84940E-05-2.86132E-05-1.15827E-07 1.02912E-18-1.71435E-18
 -1       647 9.52517E-05-2.85193E-05-2.85996E-05-6.43102E-08 9.14022E-19-3.77023E-19
 -1       648 9.52467E-05-2.85376E-05-2.85896E-05-2.91353E-08 1.70152E-18 5.39188E-19
 -1       649 9.52430E-05-2.85506E-05-2.85825E-05-5.93344E-09-1.49275E-18 6.43040E-19
 -1       650 9.52405E-05-2.85596E-05-2.85775E-05 8.65224E-09-1.80058E-18 9.53009E-19
 -1       651 9.52388E-05-2.85657E-05-2.85742E-05 1.71610E-08-2.93952E-18 1.23916E-18
 -1       652 9.52377E-05-2.85698E-05-2.85720E-05 2.14790E-08 6.11570E-19 1.62062E-18
 -1       653 9.52371E-05-2.85724E-05-2.85706E-05 2.29746E-08 1.23316E-18 8.44794E-19
 -1       654 9.52369E-05-2.85741E-05-2.85697E-05 2.26057E-08 3.73581E-19-3.95678E-19
 -1       655 9.52369E-05-2.85754E-05-2.85692E-05 2.10074E-08 1.34393E-18-2.41887E-19
 -1       656 9.52373E-05-2.85765E-05-2.85689E-05 1.85417E-08 5.73843E-19-9.26989E-19
 -1       657 9.52380E-05-2.85776E-05-2.85687E-05 1.64697E-08-1.94527E-19-2.20164E-18
 -1       658 1.03289E-04-3.31252E-05-3.00715E-05 2.03341E-06 9.57441E-19 7.43762E-19
 -1       659 1.04395E-04-3.42791E-05-3.00510E-05 3.72061E-06 4.17479E-19 6.54354E-19
 -1       660 1.01915E-04-3.11244E-05-3.03400E-05 1.43425E-06 7.08394E-19 2.97237E-19
 -1       661 1.04117E-04-3.23689E-05-3.07470E-05 7.86630E-06 3.11833E-19 8.64628E-19
 -1       662 1.02245E-04-2.90645E-05-3.13613E-05 8.30123E-06 1.30610E-19 5.68921E-19
 -1       663 9.98424E-05-2.52740E-05-3.19579E-05 6.32596E-06 1.48350E-19 3.95373E-19
 -1       664 9.81157E-05-2.26822E-05-3.23295E-05 1.97165E-06 2.26447E-19 5.32429E-19
 -1       665 9.81174E-05-2.27035E-05-3.23206E-05-3.36653E-06 6.08531E-19 5.60499E-19
 -1       666 9.98110E-05-2.53060E-05-3.19303E-05-7.66129E-06 1.03182E-18 5.44040E-19
 -1       667 1.02168E-04-2.91315E-05-3.12997E-05-9.54447E-06 9.23309E-19 1.13871E-18
 -1       668 1.03964E-04-3.25025E-05-3.06255E-05-8.94737E-06 7.64485E-19 3.82914E-19
 -1       669 1.04571E-04-3.44473E-05-3.00540E-05-6.74881E-06 7.76299E-19 4.93549E-19
 -1       670 1.04038E-04-3.48684E-05-2.96457E-05-4.01291E-06-2.14029E-19 1.02269E-18
 -1       671 1.02791E-04-3.42106E-05-2.93936E-05-1.50475E-06-8.64699E-19 1.11689E-18
 -1       672 1.01285E-04-3.30272E-05-2.92550E-05 4.19832E-07-7.69758E-19 6.83025E-19
 -1       673 9.98345E-05-3.17422E-05-2.91836E-05 1.69374E-06-6.93516E-19-1.40249E-19
 -1       674 9.85992E-05-3.06018E-05-2.91425E-05 2.39872E-06-2.52939E-19 3.38926E-19
 -1       675 9.76268E-05-2.97076E-05-2.91086E-05 2.67005E-06-9.02807E-19 1.04704E-18
 -1       676 9.69011E-05-2.90701E-05-2.90706E-05 2.64407E-06-2.19214E-19 1.46702E-18
 -1       677 9.63795E-05-2.86541E-05-2.90251E-05 2.43546E-06 4.47742E-19 8.78595E-19
 -1       678 9.60142E-05-2.84092E-05-2.89734E-05 2.13120E-06-1.98466E-19 1.35827E-18
 -1       679 9.57629E-05-2.82860E-05-2.89185E-05 1.79231E-06 9.14183E-20 2.16917E-18
 -1       680 9.55919E-05-2.82431E-05-2.88636E-05 1.45834E-06-1.24386E-19 1.74944E-18
 -1       681 9.54762E-05-2.82488E-05-2.88116E-05 1.15250E-06-1.13772E-18 1.49070E-18
 -1       682 9.53980E-05-2.82809E-05-2.87643E-05 8.86339E-07-6.29050E-19 1.12745E-18
 -1       683 9.53450E-05-2.83245E-05-2.87229E-05 6.63566E-07 2.34054E-19 4.33527E-19
 -1       684 9.53089E-05-2.83706E-05-2.86878E-05 4.83001E-07 7.15309E-19 6.56320E-19
 -1       685 9.52843E-05-2.84137E-05-2.86587E-05 3.40701E-07 8.86330E-19 3.21911E-19
 -1       686 9.52674E-05-2.84515E-05-2.86353E-05 2.31439E-07-2.98883E-19 1.26445E-18
 -1       687 9.52559E-05-2.84829E-05-2.86169E-05 1.49651E-07 6.90092E-19 1.17380E-18
 -1       688 9.52480E-05-2.85081E-05-2.86028E-05 9.00153E-08 1.07947E-18 1.42402E-18
 -1       689 9.52428E-05-2.85276E-05-2.85922E-05 4.77626E-08 7.49941E-19 2.91561E-18
 -1       690 9.52393E-05-2.85424E-05-2.85844E-05 1.88103E-08 1.09915E-18 2.14156E-18
 -1       691 9.52371E-05-2.85532E-05-2.85788E-05-2.12269E-10 9.52613E-19 1.89356E-18
 -1       692 9.52359E-05-2.85609E-05-2.85750E-05-1.20041E-08 6.97490E-19 2.55409E-18
 -1       693 9.52352E-05-2.85662E-05-2.85725E-05-1.86648E-08 5.33259E-19 3.50714E-18
 -1       694 9.52350E-05-2.85698E-05-2.85708E-05-2.17794E-08 7.41015E-19 2.84517E-18
 -1       695 9.52352E-05-2.85722E-05-2.85698E-05-2.25028E-08 2.72108E-19 3.49256E-18
 -1       696 9.52355E-05-2.85739E-05-2.85693E-05-2.16337E-08 1.51012E-18 2.57995E-18
 -1       697 9.52361E-05-2.85752E-05-2.85690E-05-1.97051E-08 1.34677E-18-1.23336E-18
 -1       698 9.52371E-05-2.85766E-05-2.85688E-05-1.71381E-08 8.13574E-19-2.11150E-18
 -1       699 9.52434E-05-2.85815E-05-2.85694E-05-1.52780E-08 1.79667E-18 5.80011E-18
 -1       700 9.52486E-05-2.85855E-05-2.85699E-05-7.82716E-09 8.47758E-19-2.05697E-18
 -1       701 9.52465E-05-2.85839E-05-2.85697E-05-1.21188E-08 9.97726E-19 2.21525E-18
 -1       702 9.52405E-05-2.85792E-05-2.85691E-05-1.67470E-08 1.10968E-18 1.60066E-18
 -1       703 9.52496E-05-2.85863E-05-2.85700E-05-2.75038E-09 8.00568E-19-5.89033E-19
 -1       704 9.52497E-05-2.85864E-05-2.85700E-05 2.58919E-09 1.10455E-19 9.37935E-19
 -1       705 9.52487E-05-2.85857E-05-2.85699E-05 7.63252E-09-5.87731E-19-1.21523E-18
 -1       706 9.52467E-05-2.85841E-05-2.85697E-05 1.20721E-08 8.12422E-19 2.22316E-19
 -1       707 9.52437E-05-2.85818E-05-2.85694E-05 1.52928E-08 1.66879E-18-1.96361E-18
 -1       708 1.15603E-04-5.65361E-05-2.52057E-05 3.09081E-05-2.60973E-18-2.88357E-19
 -1       709 9.10489E-05-1.63194E-05-3.20312E-05 1.31396E-06-1.10988E-18-6.27875E-19
 -1       710 1.04811E-04-3.41495E-05-3.02827E-05 5.95234E-06 1.85309E-19 8.02324E-19
 -1       711 4.32210E-05-1.62060E-05-1.09915E-05-2.02283E-05 2.65328E-18 1.70354E-18
 -1       712 9.55611E-05-4.32548E-05-2.20788E-05-3.12501E-05 3.20508E-18-1.34402E-18
 -1       713 7.02263E-05-3.25113E-05-1.56737E-05-3.39748E-05 2.89452E-18 6.87685E-20
 -1       714 1.36141E-04-5.70532E-05-3.40009E-05 9.88142E-06-8.59388E-19-2.42074E-18
 -1       715 9.06725E-05-1.80236E-05-3.11196E-05 5.79595E-06-7.18696E-19-4.14300E-19
 -1       716 1.20998E-04-7.73978E-06-4.91524E-05-3.31635E-06 2.88833E-18-2.72510E-19
 -1       717 9.17495E-05-1.87613E-05-3.12859E-05-1.50103E-06 5.82905E-19-7.17142E-19
 -1       718 1.36405E-04-5.21844E-05-3.63047E-05-1.23688E-06-3.44282E-19 2.28102E-18
 -1       719 9.66671E-05-4.44027E-05-2.21366E-05 3.28275E-05 1.64827E-18-5.61450E-19
 -1       720 1.30743E-04-5.84689E-05-3.09788E-05-1.65837E-05-1.07763E-18 1.33156E-18
 -1       721 4.94777E-05-1.57040E-05-1.39544E-05-2.72922E-05-1.27954E-18-2.13561E-18
 -1       722 7.93745E-05-8.56445E-06-3.03493E-05-3.07152E-06-7.61686E-19-1.31463E-18
 -1       723 1.08137E-04-5.22718E-05-2.37101E-05-3.48094E-05-1.75648E-18 1.27477E-19
 -1       724 3.75140E-05-8.21696E-06-1.19946E-05 1.90132E-06-1.73296E-19-3.97370E-18
 -1       725 8.11132E-05-1.05202E-05-3.02575E-05-6.08315E-06-3.17143E-19-1.38356E-18
 -1       726 1.28670E-04-3.33801E-05-4.11268E-05-1.23954E-05 9.96005E-19-3.21479E-18
 -1       727 6.95882E-05-3.00617E-05-1.65738E-05 3.69445E-05-1.99172E-18 1.50097E-18
 -1       728 8.23596E-05-1.04627E-05-3.08200E-05-5.76785E-07-9.01453E-19-1.18121E-18
 -1       729 3.98334E-05-1.02292E-05-1.21655E-05-5.77288E-06 1.74192E-18 2.57323E-18
 -1       730 1.17788E-04-1.45249E-05-4.46374E-05-9.93429E-06 1.83449E-18-1.62836E-18
 -1       731 9.52409E-05-2.85798E-05-2.85690E-05 1.63821E-08-6.59756E-20-2.18943E-18
 -1       732 1.00465E-04-2.84267E-05-3.08688E-05 2.10550E-06 7.54084E-19 2.49065E-20
 -1       733 1.26718E-04-2.11091E-05-4.56528E-05 1.26024E-05 1.73197E-18 2.62517E-18
 -1       734 1.32688E-04-4.29700E-05-3.87148E-05 8.07881E-06 1.38966E-20 2.62271E-18
 -1       735 7.91246E-05-8.73572E-06-3.01683E-05-5.13142E-06-5.25168E-19-1.32026E-18
 -1       736 1.16688E-04-9.27833E-06-4.65002E-05 3.52769E-06 2.11856E-18 1.00131E-18
 -1       737 7.29840E-05-2.51326E-05-2.01986E-05 2.78829E-05 1.02648E-18-1.78739E-18
 -1       738 9.87356E-05-2.63990E-05-3.10020E-05 6.08965E-07 6.15841E-19-8.92429E-20
 -1       739 6.83679E-05-2.41695E-05-1.85872E-05-2.69175E-05 1.99597E-18-2.78012E-19
 -1       740 7.47217E-05-1.44192E-05-2.58144E-05 1.25931E-05 1.19286E-19-1.32478E-18
 -1       741 7.21781E-05-1.75250E-05-2.33062E-05 1.92796E-05 6.17050E-19-1.73909E-18
 -1       742 6.59416E-05-1.93929E-05-1.97370E-05-2.63827E-05-1.46216E-18-1.54086E-18
 -1       743 9.12723E-05-3.83246E-05-2.25322E-05-3.29767E-05-1.70044E-18-4.66543E-19
 -1       744 7.50799E-05-1.65557E-05-2.50511E-05-1.31992E-05 1.26709E-18-3.20322E-19
 -1       745 8.04702E-05-1.75984E-05-2.69416E-05-1.03332E-05 1.22972E-18-9.88842E-19
 -1       746 8.45608E-05-1.92749E-05-2.79790E-05-8.51325E-06-2.21679E-19-4.35208E-19
 -1       747 8.76756E-05-2.10320E-05-2.85615E-05-7.08859E-06 9.85992E-19 5.19324E-19
 -1       748 8.99758E-05-2.26317E-05-2.88615E-05-5.87116E-06-7.59523E-20-9.80958E-20
 -1       749 9.16307E-05-2.39822E-05-2.89920E-05-4.80274E-06-1.23944E-18-1.37701E-18
 -1       750 9.27967E-05-2.50718E-05-2.90248E-05-3.87004E-06-1.40291E-18-1.10826E-19
 -1       751 9.36047E-05-2.59265E-05-2.90048E-05-3.07002E-06-1.46445E-18 5.74052E-19
 -1       752 9.41573E-05-2.65856E-05-2.89592E-05-2.39765E-06-9.03965E-19-9.52027E-21
 -1       753 9.45314E-05-2.70886E-05-2.89040E-05-1.84359E-06-4.76904E-19-1.32409E-18
 -1       754 9.47825E-05-2.74701E-05-2.88481E-05-1.39522E-06-2.48876E-19-1.39465E-18
 -1       755 9.49499E-05-2.77584E-05-2.87963E-05-1.03838E-06 8.84258E-19-1.10813E-18
 -1       756 9.50607E-05-2.79758E-05-2.87507E-05-7.58825E-07 1.34911E-18-1.86102E-18
 -1       757 9.51334E-05-2.81392E-05-2.87118E-05-5.43144E-07 1.14993E-18-1.37091E-18
 -1       758 9.51805E-05-2.82616E-05-2.86795E-05-3.79153E-07-1.24784E-19-1.94640E-18
 -1       759 9.52118E-05-2.83566E-05-2.86522E-05-2.51521E-07-1.58584E-19-1.90832E-18
 -1       760 9.52299E-05-2.84229E-05-2.86316E-05-1.63090E-07-3.89087E-19-1.33127E-18
 -1       761 9.52407E-05-2.84714E-05-2.86154E-05-9.93865E-08 8.14650E-19-2.72491E-18
 -1       762 9.52466E-05-2.85065E-05-2.86029E-05-5.45920E-08 7.92099E-19-2.51436E-18
 -1       763 9.52493E-05-2.85314E-05-2.85934E-05-2.39653E-08 1.58669E-18-1.25037E-18
 -1       764 9.52500E-05-2.85487E-05-2.85863E-05-3.76891E-09-7.07671E-19 1.01952E-18
 -1       765 9.52494E-05-2.85604E-05-2.85810E-05 8.89471E-09-1.93919E-18 2.64177E-18
 -1       766 9.52482E-05-2.85681E-05-2.85772E-05 1.62315E-08-7.65599E-19 2.97591E-18
 -1       767 9.52467E-05-2.85729E-05-2.85745E-05 1.98858E-08 7.45104E-19 2.85844E-18
 -1       768 9.52451E-05-2.85758E-05-2.85725E-05 2.10512E-08-4.42272E-19 1.21768E-18
 -1       769 9.52436E-05-2.85776E-05-2.85711E-05 2.05782E-08 1.46601E-18 4.22237E-19
 -1       770 9.52423E-05-2.85789E-05-2.85700E-05 1.90001E-08-5.86811E-19-1.21273E-18
 -1       771 1.06063E-04-3.55641E-05-3.02153E-05 1.17357E-06 7.11602E-19 1.81430E-19
 -1       772 1.03452E-04-3.28179E-05-3.02710E-05 2.45275E-08 4.12438E-19-1.20014E-19
 -1       773 1.05732E-04-2.74220E-05-3.35743E-05 9.32431E-06 2.51380E-19 1.19957E-18
 -1       774 1.08445E-04-3.30173E-05-3.23301E-05 9.23093E-06 6.92321E-20 1.16319E-18
 -1       775 1.01107E-04-1.95396E-05-3.49699E-05-6.52675E-07 8.25126E-19 2.90961E-19
 -1       776 1.02447E-04-2.19255E-05-3.45257E-05-7.04437E-06 8.30057E-19-1.74268E-19
 -1       777 1.05460E-04-2.74631E-05-3.34372E-05-1.05079E-05 4.36755E-19-3.35979E-19
 -1       778 1.08023E-04-3.31228E-05-3.21021E-05-1.02155E-05 6.47925E-19 4.34997E-19
 -1       779 1.08741E-04-3.66666E-05-3.08924E-05-7.44673E-06 4.62620E-19 1.18365E-18
 -1       780 1.07632E-04-3.76808E-05-2.99800E-05-3.89585E-06 5.34994E-19 1.31070E-18
 -1       781 1.05400E-04-3.68078E-05-2.93981E-05-7.90297E-07-5.44543E-19 1.28828E-18
 -1       782 1.02877E-04-3.50338E-05-2.90761E-05 1.42348E-06-6.97268E-19 1.44062E-18
 -1       783 1.00568E-04-3.30716E-05-2.89274E-05 2.75206E-06-4.98659E-19 7.58563E-19
 -1       784 9.87088E-05-3.13306E-05-2.88767E-05 3.37759E-06-4.16696E-19 8.87060E-19
 -1       785 9.73389E-05-2.99749E-05-2.88704E-05 3.51471E-06-2.96834E-19 6.12088E-19
 -1       786 9.63996E-05-2.90205E-05-2.88768E-05 3.34625E-06-8.59784E-19 1.06351E-19
 -1       787 9.57966E-05-2.84115E-05-2.88793E-05 3.00825E-06-4.44308E-19 4.41938E-20
 -1       788 9.54362E-05-2.80681E-05-2.88720E-05 2.59430E-06 1.11358E-19 1.37890E-18
 -1       789 9.52397E-05-2.79128E-05-2.88543E-05 2.16517E-06-6.38616E-19 8.31756E-19
 -1       790 9.51473E-05-2.78802E-05-2.88287E-05 1.75771E-06-3.80878E-19 1.70196E-18
 -1       791 9.51165E-05-2.79208E-05-2.87981E-05 1.39206E-06-6.96511E-19 2.34759E-18
 -1       792 9.51192E-05-2.79992E-05-2.87656E-05 1.07708E-06-3.70766E-19 1.74197E-18
 -1       793 9.51374E-05-2.80922E-05-2.87336E-05 8.14381E-07-1.90910E-20 1.99226E-19
 -1       794 9.51607E-05-2.81852E-05-2.87038E-05 6.01176E-07-2.47796E-19 7.69267E-19
 -1       795 9.51834E-05-2.82703E-05-2.86770E-05 4.32294E-07 8.53108E-19 3.54800E-19
 -1       796 9.52028E-05-2.83436E-05-2.86539E-05 3.01524E-07-1.84266E-19 4.78971E-19
 -1       797 9.52181E-05-2.84041E-05-2.86346E-05 2.02496E-07 5.18821E-19 5.44138E-19
 -1       798 9.52293E-05-2.84523E-05-2.86187E-05 1.29198E-07 1.10602E-18-5.77589E-19
 -1       799 9.52369E-05-2.84896E-05-2.86060E-05 7.62596E-08-1.31585E-19 6.19359E-20
 -1       800 9.52416E-05-2.85176E-05-2.85960E-05 3.90723E-08 1.30463E-18 1.03208E-19
 -1       801 9.52442E-05-2.85380E-05-2.85884E-05 1.38058E-08 6.69873E-19 1.22946E-18
 -1       802 9.52453E-05-2.85525E-05-2.85826E-05-2.63722E-09-4.61134E-19 2.30300E-18
 -1       803 9.52454E-05-2.85624E-05-2.85784E-05-1.26986E-08-9.71180E-19 3.17271E-18
 -1       804 9.52448E-05-2.85689E-05-2.85753E-05-1.82551E-08-7.18758E-19 5.04020E-18
 -1       805 9.52438E-05-2.85731E-05-2.85732E-05-2.07083E-08 1.01328E-18 4.77417E-18
 -1       806 9.52428E-05-2.85757E-05-2.85716E-05-2.10721E-08 1.46019E-18 3.29278E-18
 -1       807 9.52418E-05-2.85774E-05-2.85705E-05-2.00068E-08 2.59252E-18 4.46279E-18
 -1       808 9.52410E-05-2.85783E-05-2.85697E-05-1.86184E-08 2.36564E-18 3.80607E-18
 -1       809 9.52528E-05-2.85850E-05-2.85719E-05-1.46118E-10 8.86765E-19 1.17391E-19
 -1       810 9.52522E-05-2.85847E-05-2.85718E-05 5.57217E-09 4.55120E-19 1.19566E-18
 -1       811 9.52504E-05-2.85837E-05-2.85714E-05 1.09644E-08 3.46973E-19-2.02236E-19
 -1       812 9.52471E-05-2.85819E-05-2.85708E-05 1.54370E-08-1.20030E-18 1.12485E-18
 -1       813 1.30102E-04-5.06380E-05-3.41172E-05-4.61435E-07-4.72393E-19-2.21410E-18
 -1       814 1.01230E-04-4.60899E-05-2.35309E-05 3.06159E-05-2.51055E-18 3.26981E-19
 -1       815 1.18657E-04-5.26353E-05-2.82692E-05-1.96939E-05-1.37793E-18 1.03338E-18
 -1       816 9.52521E-05-2.85846E-05-2.85718E-05-5.92702E-09 7.92282E-19-3.10899E-18
 -1       817 1.02518E-04-2.18234E-05-3.45951E-05 5.79501E-06 1.50722E-19 7.51585E-19
 -1       818 6.89204E-05-1.72533E-05-2.20176E-05-1.78330E-05 3.00018E-19-2.10157E-19
 -1       819 7.98770E-05-1.42128E-05-2.81279E-05 8.29245E-06-3.23000E-19-9.11368E-19
 -1       820 4.51532E-05-1.22488E-05-1.36436E-05 1.80946E-05-9.60893E-19 2.30764E-18
 -1       821 5.13002E-05-8.95615E-06-1.79002E-05-1.02960E-05-1.06475E-18-2.64078E-18
 -1       822 1.21932E-04-5.49128E-05-2.86829E-05 1.68326E-05-2.03716E-18-1.34301E-18
 -1       823 1.27645E-04-5.37623E-05-3.16891E-05-8.46316E-06-9.38956E-19 2.03798E-18
 -1       824 8.87022E-05-1.88629E-05-2.99329E-05-7.34149E-06-1.27444E-19-7.66431E-19
 -1       825 5.32213E-05-1.07924E-05-1.78966E-05 1.20053E-05 1.83626E-19-2.97044E-18
 -1       826 1.19461E-04-2.43348E-05-4.09810E-05-1.34452E-05 1.08022E-18-1.29644E-18
 -1       827 1.25603E-04-4.16589E-05-3.61701E-05-9.40898E-06 8.31482E-19-2.17831E-18
 -1       828 8.89205E-05-3.73043E-05-2.19745E-05 3.13180E-05-1.44180E-18 2.10706E-19
 -1       829 7.86978E-05-1.02719E-05-2.93132E-05-7.80482E-07-7.60191E-19-1.20814E-18
 -1       830 1.06019E-04-4.43859E-05-2.63552E-05-2.39707E-05-1.61297E-18 4.93440E-19
 -1       831 1.12806E-04-1.12493E-05-4.38460E-05-3.97242E-06 1.82692E-18 1.74519E-19
 -1       832 1.08253E-04-3.70209E-05-3.05292E-05 3.58030E-06 2.74835E-19 5.51183E-19
 -1       833 1.09313E-04-3.64097E-05-3.12441E-05 6.68250E-06 1.43149E-19 8.37912E-19
 -1       834 1.28284E-04-4.93376E-05-3.39539E-05 5.65193E-07-5.14947E-19 1.68863E-18
 -1       835 9.52502E-05-2.85835E-05-2.85714E-05-1.12121E-08 8.82368E-19 1.28121E-18
 -1       836 9.52447E-05-2.85806E-05-2.85703E-05-1.69065E-08 2.65436E-18 4.32991E-18
 -1       837 1.00726E-04-2.92312E-05-3.06423E-05 2.57095E-07 5.07143E-19 8.16386E-21
 -1       838 1.25054E-04-3.30217E-05-3.96834E-05 1.28812E-05 7.32803E-19 2.10560E-18
 -1       839 8.34452E-05-1.32094E-05-3.01072E-05 3.25027E-06-7.37290E-19-1.03163E-18
 -1       840 8.39083E-05-1.52216E-05-2.94382E-05-8.48882E-06-3.29175E-19-1.16244E-18
 -1       841 1.16489E-04-1.58729E-05-4.33775E-05 9.65346E-06 1.61503E-18 1.66628E-18
 -1       842 6.09535E-05-1.93156E-05-1.75900E-05 2.56013E-05-9.76225E-19 1.43953E-18
 -1       843 9.63802E-05-2.45190E-05-3.08000E-05-1.95545E-06 4.53566E-19-4.63701E-19
 -1       844 7.75914E-05-9.89869E-06-2.90145E-05-4.88135E-06-7.14970E-19-1.22920E-18
 -1       845 9.30281E-05-2.20476E-05-3.04212E-05-4.86796E-06 3.17297E-19-5.15107E-19
 -1       846 5.40285E-05-1.30486E-05-1.72437E-05-1.36512E-05 1.14207E-18 1.39291E-18
 -1       847 9.92478E-05-2.81227E-05-3.04790E-05-2.39144E-06 3.84789E-19-3.67309E-19
 -1       848 6.00874E-05-9.17858E-06-2.17094E-05 2.48237E-06-4.66219E-19-2.23619E-18
 -1       849 6.35446E-05-1.21864E-05-2.19183E-05-5.82535E-06 5.70875E-19 6.60669E-19
 -1       850 7.84435E-05-1.65502E-05-2.65236E-05-4.15699E-06 1.00247E-18-6.55043E-19
 -1       851 8.30038E-05-1.87023E-05-2.75584E-05-4.06479E-06 6.52377E-19-2.55338E-19
 -1       852 8.63775E-05-2.06317E-05-2.81772E-05-3.83908E-06-8.88353E-21-1.62093E-18
 -1       853 8.88625E-05-2.22856E-05-2.85331E-05-3.48749E-06-1.56059E-18-9.53398E-19
 -1       854 9.06818E-05-2.36577E-05-2.87247E-05-3.05464E-06-1.25803E-18-1.07161E-18
 -1       855 9.20044E-05-2.47690E-05-2.88152E-05-2.59105E-06-1.24522E-18-1.43021E-18
 -1       856 9.29597E-05-2.56537E-05-2.88455E-05-2.13720E-06-6.98217E-19-4.86593E-19
 -1       857 9.36456E-05-2.63494E-05-2.88413E-05-1.71969E-06-6.48292E-19 3.96401E-19
 -1       858 9.41358E-05-2.68917E-05-2.88189E-05-1.35280E-06-3.35632E-19 6.14088E-19
 -1       859 9.44845E-05-2.73117E-05-2.87883E-05-1.04162E-06 4.24969E-19 9.87596E-19
 -1       860 9.47312E-05-2.76351E-05-2.87555E-05-7.85205E-07 2.96874E-19 1.16395E-18
 -1       861 9.49048E-05-2.78827E-05-2.87237E-05-5.79054E-07 3.42005E-19-1.05855E-18
 -1       862 9.50259E-05-2.80712E-05-2.86948E-05-4.16738E-07-4.52033E-21-1.89938E-18
 -1       863 9.51128E-05-2.82197E-05-2.86684E-05-2.86483E-07 1.03101E-19-1.46889E-18
 -1       864 9.51683E-05-2.83247E-05-2.86472E-05-1.93680E-07-3.77569E-19-1.27716E-18
 -1       865 9.52051E-05-2.84026E-05-2.86297E-05-1.25018E-07-7.60067E-19-5.53960E-19
 -1       866 9.52287E-05-2.84594E-05-2.86154E-05-7.54239E-08 1.67526E-18-1.19529E-18
 -1       867 9.52430E-05-2.85003E-05-2.86040E-05-4.04987E-08 2.82444E-18-2.29094E-19
 -1       868 9.52509E-05-2.85291E-05-2.85951E-05-1.66394E-08 2.24140E-18-3.49347E-19
 -1       869 9.52546E-05-2.85489E-05-2.85881E-05-9.61407E-10 5.00661E-19 1.49345E-19
 -1       870 9.52554E-05-2.85621E-05-2.85828E-05 8.79468E-09-2.12927E-18 9.33620E-19
 -1       871 9.52545E-05-2.85705E-05-2.85788E-05 1.43602E-08 7.07854E-19 8.83647E-19
 -1       872 9.52526E-05-2.85757E-05-2.85758E-05 1.70236E-08-6.91620E-19 1.16169E-19
 -1       873 9.52502E-05-2.85788E-05-2.85735E-05 1.77280E-08-5.31411E-19 8.90084E-20
 -1       874 9.52487E-05-2.85806E-05-2.85721E-05 1.68810E-08-1.40267E-18-4.76140E-19
 -1       875 5.05860E-05-9.97527E-06-1.71136E-05 2.65665E-06 1.92351E-19 9.23187E-19
 -1       876 1.09100E-04-2.39478E-05-3.65494E-05-1.11473E-05 7.45743E-19-1.28426E-19
 -1       877 1.05396E-04-1.68593E-05-3.80272E-05-5.09177E-06 1.08724E-18-2.12205E-19
 -1       878 1.14062E-04-3.91576E-05-3.21082E-05-7.85352E-06-1.23297E-19 4.38224E-19
 -1       879 1.12214E-04-4.11610E-05-3.04621E-05-2.94589E-06 2.36984E-19 7.50561E-19
 -1       880 1.08619E-04-3.99577E-05-2.94281E-05 9.86206E-07-1.71736E-19 1.27596E-18
 -1       881 1.04753E-04-3.74013E-05-2.88640E-05 3.45206E-06-5.88557E-19 9.06829E-19
 -1       882 1.01348E-04-3.45703E-05-2.86183E-05 4.64259E-06-5.76442E-19 5.78947E-19
 -1       883 9.87324E-05-3.21026E-05-2.85556E-05 4.94450E-06-6.78546E-19 8.00004E-19
 -1       884 9.69014E-05-3.02121E-05-2.85811E-05 4.72446E-06-3.65254E-19 4.96209E-19
 -1       885 9.57253E-05-2.89040E-05-2.86377E-05 4.23921E-06-1.31063E-18 1.61658E-18
 -1       886 9.50390E-05-2.80853E-05-2.86944E-05 3.65019E-06-7.15429E-19 1.39623E-18
 -1       887 9.46920E-05-2.76382E-05-2.87373E-05 3.05000E-06-7.94372E-19 8.76093E-19
 -1       888 9.45640E-05-2.74516E-05-2.87624E-05 2.48838E-06-1.27186E-19 2.63215E-18
 -1       889 9.45664E-05-2.74341E-05-2.87710E-05 1.98904E-06-8.25551E-19 2.28120E-18
 -1       890 9.46379E-05-2.75164E-05-2.87664E-05 1.56038E-06-7.46629E-19 2.06559E-18
 -1       891 9.47387E-05-2.76493E-05-2.87526E-05 1.20214E-06-8.47369E-19 1.94855E-18
 -1       892 9.48447E-05-2.78002E-05-2.87334E-05 9.09288E-07 4.31983E-19 2.02929E-18
 -1       893 9.49426E-05-2.79489E-05-2.87116E-05 6.74545E-07 1.63699E-19 1.38371E-18
 -1       894 9.50262E-05-2.80841E-05-2.86895E-05 4.89784E-07 6.63693E-19 5.88025E-19
 -1       895 9.50938E-05-2.82007E-05-2.86685E-05 3.46920E-07 1.11331E-19 1.16303E-18
 -1       896 9.51459E-05-2.82971E-05-2.86495E-05 2.38422E-07 3.35023E-20-2.00403E-19
 -1       897 9.51844E-05-2.83743E-05-2.86329E-05 1.57563E-07 8.78333E-19 2.93656E-19
 -1       898 9.52116E-05-2.84343E-05-2.86188E-05 9.85232E-08 1.22494E-18 1.65559E-18
 -1       899 9.52300E-05-2.84797E-05-2.86073E-05 5.63999E-08 4.83323E-19 2.17015E-19
 -1       900 9.52416E-05-2.85132E-05-2.85979E-05 2.71548E-08 1.01281E-19 5.16537E-19
 -1       901 9.52482E-05-2.85371E-05-2.85905E-05 7.52997E-09 2.40501E-19 7.81341E-19
 -1       902 9.52513E-05-2.85537E-05-2.85847E-05-5.05083E-09-5.46843E-19 7.00118E-19
 -1       903 9.52521E-05-2.85647E-05-2.85803E-05-1.25847E-08-3.15173E-18 1.11309E-18
 -1       904 9.52514E-05-2.85718E-05-2.85769E-05-1.65848E-08-7.85717E-19 2.32540E-19
 -1       905 9.52498E-05-2.85762E-05-2.85744E-05-1.81602E-08 2.38826E-19 3.18554E-18
 -1       906 9.52478E-05-2.85788E-05-2.85724E-05-1.81491E-08 1.57727E-18 4.04688E-18
 -1       907 9.52545E-05-2.85828E-05-2.85736E-05 8.68498E-09 1.98082E-18 1.11485E-19
 -1       908 9.52520E-05-2.85818E-05-2.85729E-05 1.31232E-08 1.25400E-18-1.23723E-18
 -1       909 9.52559E-05-2.85832E-05-2.85740E-05 2.84234E-09 8.64537E-19-4.36513E-20
 -1       910 1.10254E-04-4.73250E-05-2.69662E-05 1.85868E-05-1.87586E-18 3.98436E-19
 -1       911 7.32323E-05-1.01243E-05-2.70485E-05-3.78639E-07-5.69058E-19-1.38392E-18
 -1       912 1.13326E-04-3.28009E-05-3.45323E-05 1.08522E-05 1.78850E-19 1.40335E-18
 -1       913 8.31430E-05-2.79855E-05-2.35676E-05-2.61856E-05-1.62982E-18-5.46938E-19
 -1       914 7.21868E-05-1.42384E-05-2.48202E-05-4.58786E-06 6.32515E-19-2.65451E-19
 -1       915 1.21758E-04-4.97396E-05-3.08789E-05 3.83584E-06-9.35071E-19-1.45113E-18
 -1       916 7.97463E-05-1.19011E-05-2.90889E-05-7.66299E-06-4.66007E-19-1.15542E-18
 -1       917 1.19725E-04-4.93047E-05-3.01566E-05-9.54764E-06-9.69170E-19 1.50506E-18
 -1       918 6.43823E-05-1.24441E-05-2.21622E-05-1.45015E-05-1.30736E-18-1.64608E-18
 -1       919 9.52558E-05-2.85831E-05-2.85740E-05-3.30679E-09 8.96521E-19-1.36075E-18
 -1       920 1.12843E-04-3.29208E-05-3.43038E-05-1.15930E-05 3.92150E-20-2.46368E-19
 -1       921 1.05210E-04-3.50336E-05-3.00760E-05-2.52179E-06 1.93567E-19-1.18038E-20
 -1       922 1.10641E-04-1.78072E-05-3.99462E-05-9.59796E-06 9.32927E-19 4.20423E-19
 -1       923 1.02065E-04-4.20946E-05-2.56356E-05 2.19724E-05-1.32582E-18-3.50477E-19
 -1       924 1.10406E-04-1.22585E-05-4.23047E-05 3.17589E-06 1.48319E-18 1.12340E-18
 -1       925 1.14729E-04-3.88542E-05-3.25332E-05 7.29562E-06-1.09640E-19 1.27627E-18
 -1       926 1.21519E-04-4.77486E-05-3.16483E-05-2.03590E-06-9.10023E-19 1.34839E-18
 -1       927 9.52496E-05-2.85806E-05-2.85724E-05-1.55708E-08 2.93712E-18 2.19987E-18
 -1       928 9.52542E-05-2.85824E-05-2.85736E-05-9.14850E-09 1.28476E-18-3.21101E-18
 -1       929 5.75638E-05-1.28649E-05-1.90400E-05 1.27781E-05 1.19281E-19 1.36134E-18
 -1       930 1.24995E-04-4.24591E-05-3.54358E-05 7.87521E-06-2.36044E-20 1.76634E-18
 -1       931 1.08980E-04-2.36619E-05-3.66556E-05 1.05136E-05 8.40558E-19 9.78482E-19
 -1       932 7.63388E-05-1.89901E-05-2.45407E-05-1.87780E-05-1.33016E-18-9.38864E-19
 -1       933 7.79204E-05-2.71624E-05-2.16490E-05 2.61254E-05-1.08237E-18 1.00751E-20
 -1       934 1.05849E-04-1.72267E-05-3.80789E-05 3.91484E-06 1.21216E-18 3.81143E-19
 -1       935 8.84137E-05-2.12742E-05-2.87692E-05-1.11900E-05-4.34760E-19-7.33520E-19
 -1       936 1.09395E-04-3.87323E-05-3.02908E-05-7.86502E-07 1.25325E-19 5.64710E-19
 -1       937 9.41938E-05-2.53183E-05-2.95123E-05-8.64784E-06-1.15184E-19-3.82332E-19
 -1       938 7.98807E-05-1.77878E-05-2.66133E-05 7.94905E-07 5.26282E-19-1.93507E-18
 -1       939 1.21599E-04-4.27694E-05-3.38706E-05-7.56467E-06-3.02996E-20-1.34669E-18
 -1       940 8.37532E-05-1.95968E-05-2.74963E-05-4.34011E-07-3.86725E-19-2.18098E-18
 -1       941 8.66744E-05-2.12221E-05-2.80513E-05-1.12769E-06-6.29156E-19-2.43736E-18
 -1       942 8.88854E-05-2.26392E-05-2.83914E-05-1.44165E-06-1.32481E-18-8.37843E-19
 -1       943 9.05557E-05-2.38434E-05-2.85911E-05-1.50656E-06-1.50226E-18-1.31242E-18
 -1       944 9.18122E-05-2.48452E-05-2.87002E-05-1.42119E-06 4.75308E-19-5.97259E-19
 -1       945 9.27524E-05-2.56649E-05-2.87518E-05-1.25650E-06 5.58269E-19 5.36648E-19
 -1       946 9.34522E-05-2.63267E-05-2.87681E-05-1.06025E-06-5.40431E-19 7.80885E-19
 -1       947 9.39700E-05-2.68552E-05-2.87635E-05-8.62367E-07 1.05370E-19-1.74543E-19
 -1       948 9.43507E-05-2.72731E-05-2.87476E-05-6.79883E-07 6.56898E-19 1.05909E-18
 -1       949 9.46286E-05-2.76007E-05-2.87263E-05-5.21059E-07-1.08972E-18 5.92274E-19
 -1       950 9.48297E-05-2.78553E-05-2.87033E-05-3.88324E-07-6.12213E-19-8.03086E-20
 -1       951 9.49794E-05-2.80595E-05-2.86800E-05-2.76703E-07-1.91781E-19-6.54925E-19
 -1       952 9.50788E-05-2.82063E-05-2.86597E-05-1.94065E-07 2.91702E-19-1.41181E-18
 -1       953 9.51476E-05-2.83167E-05-2.86418E-05-1.30878E-07-2.28731E-19-1.26262E-18
 -1       954 9.51939E-05-2.83986E-05-2.86266E-05-8.38695E-08 5.88601E-19-1.95435E-19
 -1       955 9.52240E-05-2.84584E-05-2.86139E-05-4.97892E-08 2.67111E-18-3.63188E-19
 -1       956 9.52426E-05-2.85011E-05-2.86035E-05-2.57767E-08 2.31771E-18-1.33022E-18
 -1       957 9.52531E-05-2.85311E-05-2.85951E-05-9.41563E-09 2.47087E-18-1.42566E-18
 -1       958 9.52580E-05-2.85515E-05-2.85885E-05 1.26547E-09-1.43011E-18-1.01913E-18
 -1       959 9.52593E-05-2.85649E-05-2.85833E-05 7.82798E-09-3.03694E-19 3.10144E-19
 -1       960 9.52583E-05-2.85733E-05-2.85793E-05 1.14801E-08-1.02270E-18-2.58092E-18
 -1       961 9.52560E-05-2.85783E-05-2.85761E-05 1.31043E-08-4.60368E-19-3.32979E-18
 -1       962 9.52541E-05-2.85804E-05-2.85744E-05 1.33369E-08-3.06739E-19-2.84294E-18
 -1       963 7.51149E-05-1.18538E-05-2.70888E-05-8.12767E-06-7.60887E-19-1.12797E-18
 -1       964 1.12172E-04-4.36405E-05-2.93535E-05 4.19945E-06-7.62748E-19 1.29408E-19
 -1       965 1.01724E-04-3.59959E-05-2.81650E-05 7.65108E-06-4.36756E-19 1.11273E-18
 -1       966 9.82849E-05-3.26674E-05-2.81213E-05 7.27133E-06-8.09220E-19 7.20642E-19
 -1       967 9.60266E-05-3.02071E-05-2.82082E-05 6.39527E-06-2.77692E-19 2.49854E-19
 -1       968 9.46884E-05-2.85657E-05-2.83382E-05 5.36949E-06-1.21640E-18 6.43481E-19
 -1       969 9.39932E-05-2.75737E-05-2.84654E-05 4.37818E-06-4.37180E-19 6.71528E-19
 -1       970 9.37223E-05-2.70591E-05-2.85699E-05 3.49698E-06-8.43653E-19 1.95036E-19
 -1       971 9.37121E-05-2.68720E-05-2.86457E-05 2.74956E-06-1.78601E-18 8.17932E-19
 -1       972 9.38466E-05-2.68936E-05-2.86942E-05 2.13364E-06-3.26003E-19 1.02875E-18
 -1       973 9.40486E-05-2.70358E-05-2.87198E-05 1.63582E-06-2.37015E-19 2.96880E-19
 -1       974 9.42692E-05-2.72372E-05-2.87280E-05 1.23918E-06-7.36175E-19 7.65964E-20
 -1       975 9.44800E-05-2.74571E-05-2.87241E-05 9.26837E-07-2.62056E-20 1.69567E-19
 -1       976 9.46663E-05-2.76703E-05-2.87126E-05 6.83505E-07 4.64746E-19 1.13283E-18
 -1       977 9.48221E-05-2.78631E-05-2.86967E-05 4.95946E-07 1.35251E-20 1.83399E-18
 -1       978 9.49472E-05-2.80291E-05-2.86792E-05 3.52973E-07 2.54704E-19 2.25709E-18
 -1       979 9.50439E-05-2.81667E-05-2.86616E-05 2.45301E-07 7.78313E-19 1.61277E-18
 -1       980 9.51162E-05-2.82774E-05-2.86452E-05 1.65324E-07-6.91112E-20 2.19418E-18
 -1       981 9.51685E-05-2.83640E-05-2.86305E-05 1.06837E-07 7.46631E-19 1.64461E-18
 -1       982 9.52048E-05-2.84300E-05-2.86178E-05 6.48419E-08 5.65270E-19 2.27728E-18
 -1       983 9.52289E-05-2.84791E-05-2.86070E-05 3.53435E-08 2.87076E-19 3.15029E-18
 -1       984 9.52439E-05-2.85147E-05-2.85982E-05 1.51824E-08-1.47769E-19 2.13177E-18
 -1       985 9.52523E-05-2.85397E-05-2.85911E-05 1.88789E-09 5.23216E-19 2.61627E-18
 -1       986 9.52561E-05-2.85568E-05-2.85854E-05-6.44551E-09-5.76981E-19 1.62213E-18
 -1       987 9.52568E-05-2.85679E-05-2.85810E-05-1.12644E-08-1.36913E-18 7.88407E-19
 -1       988 9.52557E-05-2.85749E-05-2.85775E-05-1.36754E-08-2.74753E-18 1.11252E-18
 -1       989 9.52534E-05-2.85790E-05-2.85748E-05-1.44411E-08 1.11545E-18 1.36893E-18
 -1       990 8.20660E-05-1.65750E-05-2.80815E-05-1.14589E-05-6.21470E-19-9.42574E-19
 -1       991 9.52584E-05-2.85806E-05-2.85762E-05 5.73112E-09-2.22443E-19 1.93635E-18
 -1       992 1.16020E-04-2.98037E-05-3.70299E-05-1.30309E-05 5.43372E-19-7.93432E-20
 -1       993 9.52590E-05-2.85805E-05-2.85765E-05-4.36315E-10 1.19539E-20-1.07850E-18
 -1       994 1.13094E-04-4.56284E-05-2.89188E-05 8.06420E-06-1.06460E-18-8.55000E-19
 -1       995 1.00563E-04-3.10644E-05-2.97879E-05-6.32430E-06-1.73356E-20-1.01353E-19
 -1       996 9.62197E-05-3.39318E-05-2.67003E-05-2.02422E-05-1.11086E-18-1.48085E-19
 -1       997 1.09793E-04-4.26443E-05-2.87839E-05-1.28686E-05-7.14868E-19 6.63069E-19
 -1       998 1.16604E-04-4.36742E-05-3.12833E-05-3.08345E-06-1.66439E-19-5.03262E-19
 -1       999 9.71937E-05-2.69915E-05-3.00896E-05-5.39087E-06 2.34704E-19-2.99563E-19
 -1      1000 6.40782E-05-1.21561E-05-2.21845E-05 2.03820E-06 8.74578E-20 6.42984E-19
 -1      1001 1.06453E-04-3.99504E-05-2.84946E-05 6.91514E-06-2.56950E-19 1.01415E-18
 -1      1002 1.12993E-04-4.04171E-05-3.11054E-05 2.74395E-06-2.01729E-19 9.88398E-19
 -1      1003 9.21783E-05-3.45016E-05-2.47141E-05 2.22162E-05-1.34047E-18-1.32590E-19
 -1      1004 9.52581E-05-2.85803E-05-2.85762E-05-6.55699E-09 1.71479E-18-4.29921E-18
 -1      1005 8.69293E-05-2.31932E-05-2.73100E-05-1.57110E-05-7.20107E-19-6.38086E-19
 -1      1006 1.05782E-04-3.68467E-05-2.95406E-05-7.20475E-06-2.16606E-19 3.86429E-19
 -1      1007 7.01311E-05-1.91276E-05-2.17792E-05 1.83597E-05-7.92006E-19-3.48385E-19
 -1      1008 9.51233E-05-2.87103E-05-2.84567E-05-1.30191E-05-4.83231E-19-3.06776E-19
 -1      1009 7.45519E-05-1.57612E-05-2.51976E-05 2.51678E-06 3.13233E-19-4.67496E-19
 -1      1010 8.56891E-05-2.12194E-05-2.76303E-05 1.98335E-06-3.05082E-19 1.36753E-18
 -1      1011 8.78545E-05-2.23352E-05-2.80799E-05 7.96432E-07-2.04000E-19 1.18460E-18
 -1      1012 8.95818E-05-2.33891E-05-2.83684E-05 9.00075E-08-1.77010E-18 1.44800E-18
 -1      1013 9.09482E-05-2.43391E-05-2.85468E-05-2.92761E-07-6.01747E-19 2.03946E-18
 -1      1014 9.20192E-05-2.51676E-05-2.86508E-05-4.66742E-07 1.13604E-18-4.10116E-19
 -1      1015 9.28509E-05-2.58721E-05-2.87053E-05-5.13223E-07-5.03162E-20-8.64910E-19
 -1      1016 9.34907E-05-2.64592E-05-2.87278E-05-4.87727E-07-4.73448E-19 3.00371E-19
 -1      1017 9.39780E-05-2.69404E-05-2.87305E-05-4.26628E-07 2.47528E-19 4.07279E-19
 -1      1018 9.43455E-05-2.73290E-05-2.87214E-05-3.52622E-07-6.77328E-19-3.64410E-19
 -1      1019 9.46195E-05-2.76388E-05-2.87061E-05-2.78615E-07-1.22622E-18-7.34752E-19
 -1      1020 9.48296E-05-2.78929E-05-2.86872E-05-2.08970E-07-1.55410E-18-1.55621E-18
 -1      1021 9.49732E-05-2.80792E-05-2.86689E-05-1.53200E-07-9.89811E-20-1.37532E-18
 -1      1022 9.50755E-05-2.82218E-05-2.86516E-05-1.08001E-07 6.65834E-19-1.67165E-18
 -1      1023 9.51467E-05-2.83292E-05-2.86361E-05-7.28198E-08 7.81142E-19 4.96846E-19
 -1      1024 9.51948E-05-2.84088E-05-2.86226E-05-4.63127E-08 1.18702E-18 4.09325E-19
 -1      1025 9.52261E-05-2.84668E-05-2.86111E-05-2.69646E-08 2.00804E-18-1.12789E-18
 -1      1026 9.52452E-05-2.85080E-05-2.86016E-05-1.33036E-08 1.54073E-18-2.35342E-18
 -1      1027 9.52558E-05-2.85367E-05-2.85939E-05-4.01711E-09 1.71272E-18-2.47465E-18
 -1      1028 9.52606E-05-2.85560E-05-2.85877E-05 2.00245E-09-1.84729E-20 8.87134E-19
 -1      1029 9.52616E-05-2.85684E-05-2.85828E-05 5.62412E-09-2.08964E-18 1.61468E-18
 -1      1030 9.52602E-05-2.85761E-05-2.85789E-05 7.59762E-09-1.67247E-18 2.46970E-18
 -1      1031 1.14924E-04-4.38963E-05-3.04502E-05-3.78786E-06-5.03227E-19 7.99230E-19
 -1      1032 1.06188E-04-4.23166E-05-2.73474E-05 1.45884E-05-1.08799E-18 4.12269E-19
 -1      1033 9.67611E-05-3.26240E-05-2.74938E-05 1.04265E-05-3.52180E-20-2.68230E-20
 -1      1034 9.24972E-05-2.67358E-05-2.81833E-05 5.13936E-06-7.51503E-19 5.94767E-19
 -1      1035 9.24410E-05-2.62460E-05-2.83692E-05 3.88646E-06-8.20008E-19 1.02425E-19
 -1      1036 9.26465E-05-2.61286E-05-2.85076E-05 2.90672E-06-1.26231E-18-8.52427E-19
 -1      1037 9.29800E-05-2.62395E-05-2.86031E-05 2.15607E-06-5.01056E-19-2.13778E-18
 -1      1038 9.33570E-05-2.64764E-05-2.86631E-05 1.58838E-06-2.75440E-19-1.20474E-18
 -1      1039 9.37267E-05-2.67694E-05-2.86960E-05 1.16268E-06-4.04068E-19-1.61514E-19
 -1      1040 9.40616E-05-2.70734E-05-2.87092E-05 8.45235E-07-8.04166E-19 4.28202E-19
 -1      1041 9.43491E-05-2.73613E-05-2.87091E-05 6.09495E-07 1.58367E-19-2.61655E-19
 -1      1042 9.45861E-05-2.76184E-05-2.87005E-05 4.35024E-07-5.74558E-19-2.36838E-19
 -1      1043 9.47751E-05-2.78385E-05-2.86871E-05 3.06522E-07-1.03853E-20-2.91750E-19
 -1      1044 9.49214E-05-2.80208E-05-2.86717E-05 2.12226E-07 8.83535E-19-3.15796E-19
 -1      1045 9.50315E-05-2.81677E-05-2.86559E-05 1.43586E-07-8.56057E-20-3.10223E-19
 -1      1046 9.51119E-05-2.82831E-05-2.86409E-05 9.40572E-08 9.64969E-20-1.11303E-19
 -1      1047 9.51689E-05-2.83717E-05-2.86274E-05 5.87502E-08 2.65040E-19 1.46972E-18
 -1      1048 9.52077E-05-2.84381E-05-2.86156E-05 3.39789E-08 8.24790E-19 2.38237E-18
 -1      1049 9.52330E-05-2.84867E-05-2.86055E-05 1.69594E-08 9.23284E-19 1.98274E-18
 -1      1050 9.52482E-05-2.85214E-05-2.85972E-05 5.58950E-09-1.48241E-19 3.52564E-18
 -1      1051 9.52564E-05-2.85454E-05-2.85904E-05-1.71295E-09 2.46918E-19 2.34197E-18
 -1      1052 9.52597E-05-2.85614E-05-2.85850E-05-6.13129E-09-1.08334E-19 1.30217E-18
 -1      1053 9.52599E-05-2.85717E-05-2.85807E-05-8.64089E-09-7.40566E-19-7.90637E-20
 -1      1054 1.00926E-04-3.69987E-05-2.74029E-05 1.20867E-05-7.30922E-19 1.86299E-19
 -1      1055 8.30119E-05-2.01320E-05-2.69487E-05 3.86585E-06 1.51947E-19 1.61637E-20
 -1      1056 9.30171E-05-2.77909E-05-2.79538E-05 6.68890E-06-1.28515E-18 5.57412E-19
 -1      1057 9.42818E-05-2.96467E-05-2.77008E-05 8.51211E-06-5.73858E-19-2.53498E-19
 -1      1058 1.01212E-04-3.45428E-05-2.85631E-05-1.28227E-05-5.19064E-19 7.43462E-20
 -1      1059 9.52612E-05-2.85762E-05-2.85793E-05 2.25310E-09-5.87940E-19-4.12976E-19
 -1      1060 9.52611E-05-2.85761E-05-2.85793E-05-3.35279E-09 3.94839E-20-4.50143E-18
 -1      1061 7.94365E-05-1.90394E-05-2.58868E-05 6.69869E-06 3.06071E-19-1.17547E-19
 -1      1062 9.09435E-05-3.05177E-05-2.58909E-05 1.62342E-05-2.56265E-19 5.47928E-19
 -1      1063 8.24337E-05-2.59639E-05-2.41808E-05 1.89132E-05-8.81262E-19-1.10599E-19
 -1      1064 8.79525E-05-2.29790E-05-2.78468E-05 3.32126E-06 3.09159E-19-4.50292E-19
 -1      1065 7.49140E-05-1.84147E-05-2.41894E-05 1.16171E-05-5.18597E-19-1.23725E-19
 -1      1066 8.93570E-05-2.35926E-05-2.81854E-05 1.98855E-06-7.08736E-19-1.44902E-19
 -1      1067 9.05754E-05-2.42837E-05-2.84112E-05 1.12107E-06-2.52391E-19 6.06315E-19
 -1      1068 9.16024E-05-2.49736E-05-2.85554E-05 5.76211E-07-1.52729E-18 5.08015E-19
 -1      1069 9.24487E-05-2.56175E-05-2.86421E-05 2.48992E-07-6.30056E-19-2.33149E-18
 -1      1070 9.31326E-05-2.61920E-05-2.86889E-05 6.40373E-08 4.39821E-20-2.78514E-18
 -1      1071 9.36760E-05-2.66881E-05-2.87091E-05-3.12668E-08 5.85573E-19-2.79872E-18
 -1      1072 9.41008E-05-2.71056E-05-2.87122E-05-7.25485E-08-4.57072E-19-2.40357E-18
 -1      1073 9.44278E-05-2.74497E-05-2.87049E-05-8.31454E-08-1.24116E-18-2.65678E-18
 -1      1074 9.46857E-05-2.77398E-05-2.86912E-05-7.76131E-08-1.30562E-18-2.73526E-18
 -1      1075 9.48671E-05-2.79576E-05-2.86755E-05-6.51262E-08-6.61671E-19-1.78699E-18
 -1      1076 9.49995E-05-2.81277E-05-2.86593E-05-5.08259E-08 5.27231E-19-1.58704E-18
 -1      1077 9.50941E-05-2.82581E-05-2.86440E-05-3.73933E-08 1.09901E-18-2.14403E-18
 -1      1078 9.51598E-05-2.83564E-05-2.86300E-05-2.59565E-08 9.38884E-19-1.56712E-18
 -1      1079 9.52041E-05-2.84291E-05-2.86178E-05-1.68407E-08-5.32176E-19-2.60420E-18
 -1      1080 9.52325E-05-2.84817E-05-2.86075E-05-9.93900E-09 3.85927E-19-3.89831E-18
 -1      1081 9.52496E-05-2.85189E-05-2.85988E-05-4.94794E-09 1.63994E-18-3.86343E-18
 -1      1082 9.52586E-05-2.85445E-05-2.85918E-05-1.50387E-09 2.48022E-18-4.50186E-18
 -1      1083 9.52622E-05-2.85614E-05-2.85861E-05 7.44428E-10 7.87873E-19-3.40000E-18
 -1      1084 9.52625E-05-2.85703E-05-2.85824E-05 1.76169E-09 1.60630E-19-1.90136E-18
 -1      1085 9.13254E-05-2.51741E-05-2.83501E-05 2.88709E-06-3.56168E-19-3.23073E-18
 -1      1086 9.11889E-05-2.81883E-05-2.69966E-05 1.09017E-05 6.91300E-20-1.96712E-20
 -1      1087 9.07504E-05-2.51091E-05-2.81314E-05 4.11854E-06-1.08535E-19-2.45637E-18
 -1      1088 9.25717E-05-2.58347E-05-2.86014E-05 1.38051E-06-1.66839E-18-2.72429E-18
 -1      1089 9.31285E-05-2.62520E-05-2.86612E-05 9.45175E-07-8.54469E-19-1.69097E-18
 -1      1090 9.36096E-05-2.66602E-05-2.86925E-05 6.43889E-07-9.18573E-19-2.20261E-18
 -1      1091 9.40109E-05-2.70344E-05-2.87042E-05 4.36625E-07 5.34329E-19-3.31286E-18
 -1      1092 9.43359E-05-2.73624E-05-2.87029E-05 2.94613E-07-3.67554E-19-2.17501E-18
 -1      1093 9.45925E-05-2.76401E-05-2.86938E-05 1.97221E-07-1.18326E-18-2.43648E-18
 -1      1094 9.47903E-05-2.78689E-05-2.86805E-05 1.30692E-07-2.37638E-19-1.45270E-18
 -1      1095 9.49392E-05-2.80529E-05-2.86655E-05 8.54460E-08 4.92405E-19 5.63432E-19
 -1      1096 9.50486E-05-2.81976E-05-2.86504E-05 5.45632E-08-2.42854E-19-4.41470E-19
 -1      1097 9.51269E-05-2.83091E-05-2.86362E-05 3.35800E-08 5.74317E-19-1.69185E-18
 -1      1098 9.51812E-05-2.83932E-05-2.86234E-05 1.94188E-08-2.77168E-19-2.31413E-18
 -1      1099 9.52174E-05-2.84553E-05-2.86123E-05 9.97268E-09 5.80110E-19-1.46592E-19
 -1      1100 9.52402E-05-2.85000E-05-2.86029E-05 3.78973E-09 5.73808E-19 5.96701E-19
 -1      1101 9.52534E-05-2.85314E-05-2.85952E-05-1.38408E-10 9.58627E-19-4.40645E-19
 -1      1102 9.52600E-05-2.85527E-05-2.85888E-05-2.52000E-09 1.50053E-18-1.28005E-18
 -1      1103 9.52620E-05-2.85666E-05-2.85837E-05-3.86026E-09 1.29462E-18-2.54262E-18
 -1      1104 9.03619E-05-2.54176E-05-2.78328E-05 5.80360E-06-4.09620E-19-2.19956E-18
 -1      1105 9.03903E-05-2.63429E-05-2.74492E-05 8.04734E-06-2.59953E-19-7.18005E-19
 -1      1106 9.19574E-05-2.54519E-05-2.85021E-05 2.00413E-06-6.93150E-19-3.45904E-18
 -1      1107 8.63944E-05-2.25678E-05-2.73552E-05 5.31014E-06 3.81946E-19 1.70086E-19
 -1      1108 8.45463E-05-2.24409E-05-2.66193E-05 8.19894E-06 3.22012E-19 3.09230E-19
 -1      1109 8.49047E-05-2.42461E-05-2.59974E-05 1.20717E-05 5.86137E-19-1.60337E-19
 -1      1110 1.20553E-04 2.72183E-10-4.35295E-05-3.94133E-05-1.46537E-19 7.50704E-18
 -1      1111 9.35194E-05 8.36239E-11-3.90664E-05-1.99193E-05-9.69853E-20 2.10954E-18
 -1      1112 8.73593E-05 4.50977E-11-3.70504E-05-1.25110E-05-8.49151E-20-4.66900E-19
 -1      1113 8.33171E-05 2.76078E-11-3.55155E-05-8.43496E-06-5.65394E-20-1.77273E-18
 -1      1114 8.02220E-05 1.66859E-11-3.43034E-05-6.02011E-06-4.17164E-20-2.44010E-18
 -1      1115 7.80135E-05 1.02387E-11-3.34239E-05-4.63593E-06-2.51463E-20-2.77279E-18
 -1      1116 7.67142E-05 7.60814E-12-3.28910E-05-3.78488E-06-2.23934E-20-2.93166E-18
 -1      1117 7.62947E-05 8.22519E-12-3.26987E-05-3.03366E-06-9.44971E-21-2.91933E-18
 -1      1118 7.66474E-05 1.11917E-11-3.28100E-05-2.05577E-06 8.73503E-22-2.85867E-18
 -1      1119 7.75786E-05 1.54949E-11-3.31551E-05-6.31964E-07 1.69407E-20-2.72129E-18
 -1      1120 7.88847E-05 2.03035E-11-3.36587E-05 1.34261E-06 2.25523E-20-2.54537E-18
 -1      1121 8.03971E-05 2.51400E-11-3.42564E-05 3.86827E-06 3.55754E-20-2.26171E-18
 -1      1122 8.20652E-05 3.02860E-11-3.49312E-05 6.96805E-06 4.13458E-20-1.80828E-18
 -1      1123 8.40111E-05 3.67478E-11-3.57295E-05 1.07388E-05 5.29925E-20-1.03575E-18
 -1      1124 8.66566E-05 4.75301E-11-3.67980E-05 1.54437E-05 8.37504E-20 3.65746E-19
 -1      1125 9.15009E-05 7.42373E-11-3.85359E-05 2.21823E-05 8.17387E-20 3.12272E-18
 -1      1126 1.09548E-04 1.73396E-10-4.18295E-05 3.54418E-05 1.73218E-19 8.55694E-18
 -1      1127 1.34315E-04-2.72182E-05-4.20367E-05-2.48087E-05-6.64603E-19 1.10013E-17
 -1      1128 1.06500E-04-3.16191E-05-3.43692E-05-2.29049E-07-1.94129E-19 9.56523E-18
 -1      1129 1.03799E-04-3.11708E-05-3.20130E-05 5.30222E-07-8.11431E-20 7.31315E-18
 -1      1130 1.06735E-04-3.21658E-05-3.23001E-05 4.17124E-07-6.61811E-20 5.77920E-18
 -1      1131 1.12473E-04-3.38634E-05-3.39242E-05 4.30153E-07-4.11903E-20 4.68854E-18
 -1      1132 1.20549E-04-3.62438E-05-3.63076E-05 5.15128E-07-3.15619E-20 4.01663E-18
 -1      1133 1.30325E-04-3.91329E-05-3.90857E-05 6.05114E-07-7.06028E-20 3.75871E-18
 -1      1134 1.40152E-04-4.20314E-05-4.16579E-05 5.59832E-07-9.29552E-20 3.31703E-18
 -1      1135 1.46459E-04-4.38523E-05-4.29744E-05 1.16404E-07 1.06395E-19 3.49238E-18
 -1      1136 1.43717E-04-4.29126E-05-4.17729E-05-9.83295E-07 2.53845E-20 3.68184E-18
 -1      1137 1.27577E-04-3.79992E-05-3.75327E-05-2.44607E-06 7.50948E-20 3.81292E-18
 -1      1138 1.02593E-04-3.05391E-05-3.18884E-05-2.91353E-06 2.76742E-20 4.01578E-18
 -1      1139 8.35694E-05-2.50704E-05-2.79160E-05-1.24088E-06-1.27214E-19 3.09326E-18
 -1      1140 8.49823E-05-2.56770E-05-2.82331E-05 1.67263E-06 6.68362E-20 2.32638E-18
 -1      1141 1.05738E-04-3.15004E-05-3.26925E-05 3.02678E-06-8.79855E-20-8.04681E-21
 -1      1142 1.31903E-04-3.92656E-05-3.87110E-05 2.37941E-06 1.21536E-19-1.74319E-18
 -1      1143 1.47667E-04-4.41024E-05-4.29452E-05 8.93644E-07-2.23670E-20-2.89823E-18
 -1      1144 1.50037E-04-4.49253E-05-4.40923E-05-1.44650E-07 1.31449E-19-9.98387E-19
 -1      1145 1.43777E-04-4.31080E-05-4.27909E-05-5.28371E-07 8.34791E-21 1.14614E-19
 -1      1146 1.34321E-04-4.03077E-05-4.03111E-05-5.31501E-07 3.76386E-20-7.82447E-19
 -1      1147 1.24978E-04-3.75278E-05-3.76482E-05-4.06656E-07 1.44313E-19-7.08067E-19
 -1      1148 1.17106E-04-3.51785E-05-3.53070E-05-2.76212E-07-2.31544E-20 9.49736E-20
 -1      1149 1.10846E-04-3.32969E-05-3.34011E-05-1.83442E-07 3.90777E-20-1.92409E-19
 -1      1150 1.06192E-04-3.19013E-05-3.19700E-05-1.03127E-07-1.23094E-19-2.17261E-18
 -1      1151 1.02899E-04-3.09065E-05-3.09512E-05-6.11370E-08 2.66154E-19-1.68002E-18
 -1      1152 1.00527E-04-3.01877E-05-3.02160E-05-3.49189E-08-1.79495E-19-2.95583E-18
 -1      1153 9.88329E-05-2.96731E-05-2.96908E-05-1.89753E-08-1.73457E-19-2.97377E-18
 -1      1154 9.76321E-05-2.93075E-05-2.93185E-05-9.41260E-09-2.87930E-19-2.79520E-18
 -1      1155 9.67876E-05-2.90499E-05-2.90566E-05-3.75489E-09-1.64410E-20-2.28093E-18
 -1      1156 9.61996E-05-2.88701E-05-2.88742E-05-4.81248E-10-4.93152E-19-1.97153E-18
 -1      1157 9.57957E-05-2.87464E-05-2.87488E-05 1.33493E-09-5.29557E-20-3.57203E-18
 -1      1158 9.55237E-05-2.86628E-05-2.86641E-05 2.25944E-09 1.58903E-19-4.81652E-18
 -1      1159 9.53454E-05-2.86078E-05-2.86085E-05 2.64077E-09 4.67095E-19-5.48636E-18
 -1      1160 9.52332E-05-2.85730E-05-2.85732E-05 2.69618E-09 2.79486E-19-1.04969E-18
 -1      1161 9.51670E-05-2.85523E-05-2.85523E-05 2.55975E-09-3.11056E-20-1.58457E-18
 -1      1162 9.51322E-05-2.85412E-05-2.85411E-05 2.32260E-09-6.06021E-20-2.84498E-18
 -1      1163 9.51182E-05-2.85364E-05-2.85363E-05 1.96737E-09-3.63909E-19-6.11122E-18
 -1      1164 9.51181E-05-2.85361E-05-2.85359E-05 1.73502E-09 2.13364E-19-4.52463E-18
 -1      1165 9.51261E-05-2.85383E-05-2.85380E-05 1.46470E-09 2.94264E-19-3.97649E-18
 -1      1166 9.51385E-05-2.85418E-05-2.85416E-05 1.21277E-09-1.58958E-19-6.25088E-18
 -1      1167 9.51528E-05-2.85460E-05-2.85458E-05 9.91550E-10-5.73726E-21-4.61892E-18
 -1      1168 9.51676E-05-2.85504E-05-2.85502E-05 8.04146E-10-1.28697E-19-4.29722E-18
 -1      1169 9.51819E-05-2.85546E-05-2.85544E-05 6.50244E-10 4.07828E-19-3.67104E-18
 -1      1170 9.51951E-05-2.85585E-05-2.85584E-05 5.27393E-10-4.34983E-19-6.25332E-18
 -1      1171 9.52070E-05-2.85621E-05-2.85619E-05 4.30941E-10 4.29688E-19-6.42127E-18
 -1      1172 9.52173E-05-2.85651E-05-2.85650E-05 3.52640E-10 6.80953E-20-2.85097E-18
 -1      1173 9.52260E-05-2.85677E-05-2.85676E-05 2.76587E-10 1.61840E-19-2.62257E-18
 -1      1174 9.52326E-05-2.85697E-05-2.85695E-05 1.70526E-10-1.14263E-19-2.79387E-18
 -1      1175 9.52366E-05-2.85709E-05-2.85708E-05-4.15110E-11 1.66752E-20-6.38934E-18
 -1      1176 9.52375E-05-2.85710E-05-2.85714E-05-3.39674E-10 1.42192E-18-9.22472E-18
 -1      1177 1.34052E-04-3.84857E-05-3.98825E-05 1.20995E-05-1.65674E-19 1.29833E-17
 -1      1178 1.01731E-04-2.97300E-05-3.28938E-05 6.89923E-07 7.15478E-20 1.08347E-17
 -1      1179 9.70255E-05-2.89268E-05-2.98223E-05 4.21407E-08 8.05409E-20 8.54542E-18
 -1      1180 9.59091E-05-2.87644E-05-2.88952E-05-6.20702E-08-9.79051E-21 7.33361E-18
 -1      1181 9.58285E-05-2.87601E-05-2.87143E-05-9.39349E-08 4.61612E-20 6.20531E-18
 -1      1182 9.57353E-05-2.87186E-05-2.86373E-05-9.41686E-08 1.59944E-20 4.80809E-18
 -1      1183 9.50272E-05-2.84977E-05-2.83989E-05-7.17042E-08-3.64034E-20 4.12572E-18
 -1      1184 9.33496E-05-2.79969E-05-2.78872E-05-2.36195E-08 2.46583E-20 3.69292E-18
 -1      1185 9.06134E-05-2.71885E-05-2.70866E-05 4.79340E-08-5.57156E-20 2.96041E-18
 -1      1186 8.70699E-05-2.61429E-05-2.60795E-05 1.29284E-07-3.17972E-20 2.84495E-18
 -1      1187 8.33361E-05-2.50377E-05-2.50437E-05 1.94866E-07 6.00450E-20 2.28207E-18
 -1      1188 8.02837E-05-2.41271E-05-2.42161E-05 2.16197E-07-9.35045E-21 1.69126E-18
 -1      1189 7.87719E-05-2.36658E-05-2.38217E-05 1.77375E-07 1.02240E-19 1.64868E-18
 -1      1190 7.93168E-05-2.38127E-05-2.39912E-05 8.69971E-08-6.40502E-20 1.54470E-18
 -1      1191 8.18695E-05-2.45612E-05-2.47091E-05-2.41621E-08-1.87737E-20 7.50445E-19
 -1      1192 8.58397E-05-2.57407E-05-2.58206E-05-1.19355E-07 6.85981E-20-1.62048E-19
 -1      1193 9.03466E-05-2.70888E-05-2.70926E-05-1.73897E-07 3.33718E-20-7.46315E-19
 -1      1194 9.45440E-05-2.83495E-05-2.82950E-05-1.83107E-07-1.03106E-19-5.43928E-19
 -1      1195 9.78555E-05-2.93466E-05-2.92631E-05-1.58120E-07-1.63095E-20-7.72097E-19
 -1      1196 1.00046E-04-3.00071E-05-2.99213E-05-1.16046E-07 2.16126E-20-8.94890E-19
 -1      1197 1.01160E-04-3.03440E-05-3.02727E-05-7.17653E-08 1.27708E-19-1.42103E-18
 -1      1198 1.01409E-04-3.04204E-05-3.03702E-05-3.43432E-08 3.50311E-21-1.32495E-18
 -1      1199 1.01058E-04-3.03166E-05-3.02866E-05-7.27711E-09 2.15406E-20-1.77152E-18
 -1      1200 1.00358E-04-3.01074E-05-3.00935E-05 9.63952E-09-2.39654E-19-2.04153E-18
 -1      1201 9.95050E-05-2.98522E-05-2.98493E-05 1.83920E-08-8.87795E-20-1.13424E-18
 -1      1202 9.86363E-05-2.95921E-05-2.95958E-05 2.14114E-08 2.74308E-19-1.65786E-18
 -1      1203 9.78355E-05-2.93522E-05-2.93591E-05 2.08701E-08 3.14670E-19-4.68246E-18
 -1      1204 9.71451E-05-2.91452E-05-2.91532E-05 1.84241E-08-9.31368E-20-5.28799E-18
 -1      1205 9.65793E-05-2.89755E-05-2.89832E-05 1.52019E-08-2.23628E-21-3.46980E-18
 -1      1206 9.61347E-05-2.88420E-05-2.88488E-05 1.18983E-08 3.54973E-20-2.74768E-18
 -1      1207 9.57984E-05-2.87410E-05-2.87465E-05 8.89252E-09 1.57754E-19-3.47459E-18
 -1      1208 9.55533E-05-2.86673E-05-2.86716E-05 6.35336E-09-1.06480E-19-3.84678E-18
 -1      1209 9.53816E-05-2.86155E-05-2.86188E-05 4.32115E-09 1.77758E-19-1.89602E-18
 -1      1210 9.52669E-05-2.85809E-05-2.85833E-05 2.76498E-09-2.34918E-19-1.08436E-18
 -1      1211 9.51949E-05-2.85592E-05-2.85608E-05 1.62018E-09 1.91759E-20-4.22417E-19
 -1      1212 9.51539E-05-2.85467E-05-2.85478E-05 8.11295E-10 3.30143E-20-3.88542E-18
 -1      1213 9.51346E-05-2.85408E-05-2.85414E-05 2.64897E-10 4.14333E-20-6.33457E-18
 -1      1214 9.51298E-05-2.85392E-05-2.85396E-05-8.40661E-11-8.22072E-20-3.56610E-18
 -1      1215 9.51342E-05-2.85405E-05-2.85406E-05-2.89904E-10 7.96107E-20-2.84705E-18
 -1      1216 9.51440E-05-2.85434E-05-2.85434E-05-3.96081E-10 1.05493E-19-4.10441E-18
 -1      1217 9.51566E-05-2.85471E-05-2.85470E-05-4.36287E-10-3.31708E-19-4.29733E-18
 -1      1218 9.51702E-05-2.85511E-05-2.85510E-05-4.36002E-10 6.63942E-20-4.40489E-18
 -1      1219 9.51836E-05-2.85551E-05-2.85550E-05-4.14152E-10-9.15624E-20-5.81658E-18
 -1      1220 9.51963E-05-2.85589E-05-2.85588E-05-3.84601E-10-4.56538E-20-7.32838E-18
 -1      1221 9.52079E-05-2.85624E-05-2.85623E-05-3.57185E-10-3.98420E-19-7.41828E-18
 -1      1222 9.52180E-05-2.85654E-05-2.85653E-05-3.37634E-10-2.33761E-19-5.33098E-18
 -1      1223 9.52264E-05-2.85679E-05-2.85678E-05-3.25163E-10 4.16254E-20-4.07850E-18
 -1      1224 9.52328E-05-2.85698E-05-2.85696E-05-2.95065E-10 3.94027E-19-4.02490E-18
 -1      1225 9.52367E-05-2.85710E-05-2.85708E-05-1.64137E-10 5.49493E-19-3.85082E-18
 -1      1226 9.52375E-05-2.85713E-05-2.85714E-05 1.32880E-10-1.30634E-19-4.39735E-18
 -1      1227 9.52370E-05-2.85708E-05-2.85714E-05 1.19924E-10-4.30928E-18-8.05306E-19
 -1      1228 9.52374E-05-2.85717E-05-2.85708E-05 4.39356E-11-1.33568E-18-3.55508E-19
 -1      1229 9.52385E-05-2.85754E-05-2.85697E-05-2.04354E-10-6.33570E-19-1.18085E-19
 -1      1230 9.52401E-05-2.85811E-05-2.85681E-05-2.91786E-10-1.23253E-17-1.26252E-19
 -1      1231 9.52420E-05-2.85875E-05-2.85663E-05-2.93483E-10-6.02244E-18 7.03993E-19
 -1      1232 9.52438E-05-2.85934E-05-2.85646E-05-2.48401E-10-4.50529E-18-9.21778E-19
 -1      1233 9.52452E-05-2.85982E-05-2.85632E-05-1.81396E-10-3.34917E-18 2.32944E-19
 -1      1234 9.52461E-05-2.86014E-05-2.85623E-05-9.45183E-11-2.67698E-19-7.32876E-19
 -1      1235 9.52464E-05-2.86025E-05-2.85620E-05-3.22647E-13 1.17656E-19-5.70359E-19
 -1      1236 9.52461E-05-2.86014E-05-2.85623E-05 9.43585E-11 1.52232E-18 1.32176E-19
 -1      1237 9.52452E-05-2.85982E-05-2.85632E-05 1.82176E-10 6.45142E-18-7.69972E-19
 -1      1238 9.52438E-05-2.85934E-05-2.85646E-05 2.54378E-10 1.03695E-18-7.71385E-19
 -1      1239 9.52420E-05-2.85874E-05-2.85663E-05 2.96808E-10-1.19180E-18-3.63534E-19
 -1      1240 9.52401E-05-2.85810E-05-2.85681E-05 2.91938E-10-1.67455E-18-1.63881E-19
 -1      1241 9.52385E-05-2.85754E-05-2.85697E-05 1.89805E-10-1.33612E-19 6.36663E-19
 -1      1242 9.52373E-05-2.85716E-05-2.85708E-05-1.44468E-10 1.05406E-17 4.59432E-19
 -1      1243 9.52372E-05-2.85708E-05-2.85714E-05-3.20688E-10 1.03467E-17-6.09499E-19
 -1      1244 3.34465E-05-1.07134E-04 1.86850E-05-1.35891E-05 2.15189E-18 1.07218E-18
 -1      1245 1.62491E-05-5.90283E-05 8.09266E-06-2.24060E-05 1.05439E-17 4.45920E-18
 -1      1246 8.29674E-06-8.93419E-07-8.60708E-06 6.90028E-06 1.52415E-17 9.49693E-18
 -1      1247 3.66515E-05 2.90327E-05-2.83388E-05 5.97903E-05 1.48688E-17 1.45300E-17
 -1      1248 1.08492E-04 1.63373E-05-4.80770E-05 1.05899E-04 1.22210E-17 1.72270E-17
 -1      1249 2.05830E-04-2.91245E-05-6.52333E-05 1.14109E-04 6.63989E-18 1.46892E-17
 -1      1250 2.90447E-04-7.88502E-05-7.69955E-05 6.76138E-05 1.92033E-18 6.74408E-18
 -1      1251 3.17412E-04-9.59874E-05-8.01111E-05-1.74610E-05 4.94032E-19-1.58353E-18
 -1      1252 2.64140E-04-6.23558E-05-7.36916E-05-8.90116E-05 2.74269E-18-8.86505E-18
 -1      1253 1.71009E-04-1.14579E-05-5.93776E-05-1.16040E-04 6.78473E-18-1.25191E-17
 -1      1254 7.72853E-05 2.53317E-05-4.06291E-05-9.08367E-05 1.14544E-17-1.35661E-17
 -1      1255 2.09386E-05 2.13727E-05-2.05847E-05-3.81723E-05 1.41099E-17-1.16171E-17
 -1      1256 8.23146E-06-2.30285E-05-1.26478E-06 9.32814E-06 1.31883E-17-7.05070E-18
 -1      1257 2.42617E-05-8.26781E-05 1.34350E-05 2.47612E-05 9.42324E-18-2.91655E-18
 -1      1258 3.86872E-05-1.18393E-04 2.03659E-05 5.32806E-06 3.35192E-18-6.78209E-19
 -1      1259 3.30102E-05-1.08768E-04 1.87994E-05-2.28840E-05-4.98352E-18-1.57733E-18
 -1      1260 1.48266E-05-6.23714E-05 8.71733E-06-3.01412E-05-1.24327E-17-5.67258E-18
 -1      1261 1.00235E-05-5.50926E-06-9.00295E-06 3.91218E-06-1.55312E-17-1.13485E-17
 -1      1262 5.03468E-05 2.18107E-05-3.18056E-05 6.43005E-05-1.42318E-17-1.54617E-17
 -1      1263 1.42666E-04-5.90695E-08-5.43874E-05 1.11664E-04-9.29280E-18-1.50399E-17
 -1      1264 2.56542E-04-5.39464E-05-7.29507E-05 1.07765E-04-3.81419E-18-1.05777E-17
 -1      1265 3.35892E-04-9.89563E-05-8.34390E-05 4.53765E-05-8.05687E-19-4.56635E-18
 -1      1266 3.38574E-04-1.00831E-04-8.35540E-05-4.11400E-05-3.58295E-19-4.32834E-19
 -1      1267 2.66160E-04-5.98840E-05-7.41347E-05-1.01368E-04-2.34374E-18 5.78354E-18
 -1      1268 1.62928E-04-9.40125E-06-5.77085E-05-1.13633E-04-6.56789E-18 1.15739E-17
 -1      1269 6.90301E-05 2.03626E-05-3.73494E-05-7.80879E-05-1.16044E-17 1.41590E-17
 -1      1270 1.62352E-05 9.88513E-06-1.63420E-05-2.22811E-05-1.39930E-17 1.20685E-17
 -1      1271 7.61296E-06-3.44883E-05 1.72199E-06 2.07356E-05-1.78775E-17 9.27501E-18
 -1      1272 2.30555E-05-8.70277E-05 1.47325E-05 3.19907E-05-1.71804E-17 6.15475E-18
 -1      1273 3.81112E-05-1.19458E-04 2.07332E-05 1.39410E-05-8.76383E-18 2.14368E-18
 -1      1274 1.10747E-04-2.36251E-05-3.98415E-05-1.51581E-05-2.42569E-19 6.48700E-18
 -1      1275 9.57302E-05-7.83248E-06-3.78019E-05-1.57035E-05-8.27869E-19 9.28613E-19
 -1      1276 9.88993E-05-8.12069E-06-3.91429E-05-2.15371E-05-1.02936E-18 2.26243E-18
 -1      1277 8.88289E-05-4.42871E-06-3.62556E-05-1.09636E-05-8.83085E-19-1.03499E-18
 -1      1278 9.13272E-05-4.51041E-06-3.71018E-05-1.35955E-05-9.62653E-19-1.59639E-19
 -1      1279 9.73242E-05-1.16371E-05-3.67641E-05-1.39124E-05-1.45732E-18 8.34698E-19
 -1      1280 8.40696E-05-2.71525E-06-3.49326E-05-7.65847E-06-7.55024E-19-2.06628E-18
 -1      1281 8.60334E-05-2.74469E-06-3.56133E-05-9.21781E-06-8.50474E-19-1.59716E-18
 -1      1282 8.99120E-05-7.16749E-06-3.55206E-05-1.00207E-05-1.39320E-18-7.82129E-19
 -1      1283 8.05134E-05-1.62888E-06-3.38662E-05-5.64155E-06-5.83606E-19-2.61785E-18
 -1      1284 8.19910E-05-1.65086E-06-3.43912E-05-6.57515E-06-6.52533E-19-2.36821E-18
 -1      1285 8.45880E-05-4.47879E-06-3.43900E-05-7.19048E-06-1.13386E-18-1.68099E-18
 -1      1286 7.81490E-05-9.90896E-07-3.31131E-05-4.48102E-06-4.10361E-19-2.86710E-18
 -1      1287 7.90978E-05-1.00122E-06-3.34641E-05-5.03868E-06-4.86223E-19-2.73518E-18
 -1      1288 8.07987E-05-2.80891E-06-3.34730E-05-5.46034E-06-8.94268E-19-2.15414E-18
 -1      1289 7.69303E-05-7.35591E-07-3.26809E-05-3.69021E-06-2.71262E-19-2.94671E-18
 -1      1290 7.73644E-05-7.33817E-07-3.28604E-05-4.10830E-06-3.25552E-19-2.91336E-18
 -1      1291 7.84356E-05-1.93308E-06-3.28311E-05-4.42526E-06-6.10185E-19-2.40299E-18
 -1      1292 7.68130E-05-8.07367E-07-3.25758E-05-2.89404E-06-1.04010E-19-2.93858E-18
 -1      1293 7.67675E-05-7.95130E-07-3.25892E-05-3.35018E-06-1.74118E-19-2.94449E-18
 -1      1294 7.74550E-05-1.73827E-06-3.24938E-05-3.63569E-06-3.69007E-19-2.40283E-18
 -1      1295 7.75783E-05-1.11324E-06-3.27486E-05-1.78922E-06 2.42066E-20-2.83691E-18
 -1      1296 7.71587E-05-1.09528E-06-3.26263E-05-2.41770E-06-8.54312E-21-2.90278E-18
 -1      1297 7.77026E-05-2.08288E-06-3.24538E-05-2.73501E-06-8.68308E-20-2.38319E-18
 -1      1298 7.89468E-05-1.54966E-06-3.31279E-05-1.95490E-07 2.00773E-19-2.71678E-18
 -1      1299 7.82789E-05-1.53132E-06-3.29087E-05-1.07192E-06 1.56410E-19-2.78127E-18
 -1      1300 7.88781E-05-2.78128E-06-3.26610E-05-1.46087E-06 1.25612E-19-2.27547E-18
 -1      1301 8.06606E-05-2.03297E-06-3.36411E-05 1.95711E-06 3.57580E-19-2.54780E-18
 -1      1302 7.98537E-05-2.01799E-06-3.33609E-05 8.05033E-07 3.09802E-19-2.65225E-18
 -1      1303 8.06462E-05-3.65737E-06-3.30466E-05 3.24754E-07 4.17045E-19-2.17235E-18
 -1      1304 8.25205E-05-2.51107E-06-3.42251E-05 4.62062E-06 5.19416E-19-2.21318E-18
 -1      1305 8.16537E-05-2.50598E-06-3.39120E-05 3.21781E-06 4.60309E-19-2.39959E-18
 -1      1306 8.27164E-05-4.58764E-06-3.35387E-05 2.63561E-06 6.62638E-19-1.94324E-18
 -1      1307 8.45731E-05-3.01628E-06-3.48854E-05 7.88667E-06 7.43589E-19-1.71598E-18
 -1      1308 8.36090E-05-3.02144E-06-3.45273E-05 6.16845E-06 6.54465E-19-2.00593E-18
 -1      1309 8.49698E-05-5.56258E-06-3.40934E-05 5.47420E-06 9.62454E-19-1.59139E-18
 -1      1310 8.69930E-05-3.64183E-06-3.56590E-05 1.17928E-05 9.33060E-19-8.68685E-19
 -1      1311 8.58299E-05-3.66232E-06-3.52205E-05 9.70820E-06 8.23501E-19-1.37968E-18
 -1      1312 8.75161E-05-6.71557E-06-3.47009E-05 8.86653E-06 1.26459E-18-1.04407E-18
 -1      1313 9.04312E-05-4.67182E-06-3.66960E-05 1.66469E-05 1.03015E-18 7.21884E-19
 -1      1314 8.87273E-05-4.70830E-06-3.60621E-05 1.39265E-05 9.24272E-19-2.23484E-19
 -1      1315 9.07799E-05-8.41327E-06-3.53825E-05 1.28567E-05 1.48769E-18-2.50934E-20
 -1      1316 9.72343E-05-7.58634E-06-3.83549E-05 2.34397E-05 8.89067E-19 3.60963E-18
 -1      1317 9.36993E-05-7.16074E-06-3.72301E-05 1.90466E-05 8.72338E-19 1.84664E-18
 -1      1318 9.60943E-05-1.17961E-05-3.61919E-05 1.74234E-05 1.54883E-18 1.71810E-18
 -1      1319 1.27167E-04-2.58399E-05-4.02249E-05 2.76259E-05 3.91117E-19 8.91079E-18
 -1      1320 1.03979E-04-1.53529E-05-3.86116E-05 2.27599E-05 4.26058E-19 5.26516E-18
 -1      1321 1.05995E-04-2.06574E-05-3.66640E-05 1.96709E-05 1.44262E-18 4.32474E-18
 -1      1322 1.07014E-04-2.91884E-05-3.60743E-05 6.42312E-06 7.36495E-19 8.69543E-18
 -1      1323 1.13264E-04-3.27486E-05-3.58954E-05-5.61722E-06-7.28237E-19 6.70363E-18
 -1      1324 1.08354E-04-3.09508E-05-3.36993E-05-2.93629E-06-7.11614E-19 5.89074E-18
 -1      1325 1.06856E-04-3.11927E-05-3.26706E-05-2.31080E-07-5.39692E-19 5.45727E-18
 -1      1326 1.06838E-04-3.15427E-05-3.23036E-05 2.46459E-07-5.66612E-19 4.66501E-18
 -1      1327 1.09185E-04-3.09413E-05-3.39000E-05-3.71262E-06-1.23624E-18 3.39462E-18
 -1      1328 1.06884E-04-3.16338E-05-3.22451E-05 1.85056E-06-4.22630E-19 4.34078E-18
 -1      1329 1.08831E-04-3.23264E-05-3.27437E-05 2.09158E-06-3.86723E-19 3.72250E-18
 -1      1330 1.07349E-04-3.13506E-05-3.27265E-05 1.73999E-06-9.42483E-19 2.76940E-18
 -1      1331 1.10234E-04-3.27339E-05-3.31941E-05 3.22667E-06-2.54249E-19 3.42694E-18
 -1      1332 1.13520E-04-3.37922E-05-3.41482E-05 3.45614E-06-3.43273E-19 2.98473E-18
 -1      1333 1.08877E-04-3.20602E-05-3.29943E-05 4.98068E-06-7.13625E-19 2.26695E-18
 -1      1334 1.15874E-04-3.44767E-05-3.48941E-05 4.33335E-06-1.21794E-19 2.87938E-18
 -1      1335 1.20165E-04-3.58745E-05-3.61271E-05 4.52746E-06-8.14607E-20 2.83232E-18
 -1      1336 1.12526E-04-3.32740E-05-3.40291E-05 7.40539E-06-4.27487E-19 1.86419E-18
 -1      1337 1.23167E-04-3.68104E-05-3.70293E-05 4.97820E-06-2.12226E-20 2.77689E-18
 -1      1338 1.27911E-04-3.84367E-05-3.83418E-05 5.04504E-06-8.56279E-20 2.64777E-18
 -1      1339 1.17782E-04-3.50950E-05-3.54882E-05 9.05894E-06-1.81440E-19 1.79889E-18
 -1      1340 1.31123E-04-3.95739E-05-3.92116E-05 4.56407E-06-1.36809E-19 2.84407E-18
 -1      1341 1.35107E-04-4.10901E-05-4.02285E-05 4.30887E-06-3.17108E-20 2.67763E-18
 -1      1342 1.24033E-04-3.75663E-05-3.70609E-05 9.16777E-06-5.80945E-20 2.03140E-18
 -1      1343 1.37793E-04-4.22744E-05-4.07935E-05 2.15730E-06 2.00164E-19 2.90651E-18
 -1      1344 1.38890E-04-4.29390E-05-4.09497E-05 1.31634E-06 8.15534E-20 3.00334E-18
 -1      1345 1.30248E-04-4.05396E-05-3.83512E-05 6.26509E-06 7.97270E-20 2.50765E-18
 -1      1346 1.39937E-04-4.37188E-05-4.09505E-05-2.86013E-06 1.72212E-19 3.24456E-18
 -1      1347 1.35701E-04-4.24263E-05-3.97665E-05-4.31972E-06-1.31475E-19 3.42371E-18
 -1      1348 1.34623E-04-4.31861E-05-3.89665E-05-1.08388E-06 3.63298E-19 2.88818E-18
 -1      1349 1.33916E-04-4.18897E-05-3.91984E-05-9.09061E-06-2.42615E-19 3.75934E-18
 -1      1350 1.23967E-04-3.80603E-05-3.68642E-05-1.03420E-05-6.67510E-20 3.44933E-18
 -1      1351 1.34613E-04-4.34772E-05-3.88305E-05-1.19652E-05-1.00929E-19 3.30510E-18
 -1      1352 1.19758E-04-3.58704E-05-3.61507E-05-1.16252E-05-4.89426E-20 2.93518E-18
 -1      1353 1.09079E-04-3.12663E-05-3.39211E-05-1.12084E-05-2.55380E-19 2.85577E-18
 -1      1354 1.28665E-04-3.92557E-05-3.84049E-05-1.98572E-05-2.63904E-19 2.91586E-18
 -1      1355 1.04888E-04-2.87724E-05-3.34550E-05-5.95338E-06-3.46542E-19 2.24114E-18
 -1      1356 1.00404E-04-2.65888E-05-3.25988E-05-3.34023E-06-4.66715E-19 1.70480E-18
 -1      1357 1.19797E-04-3.22458E-05-3.81424E-05-1.56673E-05-8.46504E-19 1.70357E-18
 -1      1358 1.00774E-04-2.67987E-05-3.26883E-05 4.66882E-06-5.77041E-19 1.23455E-18
 -1      1359 1.05993E-04-2.91051E-05-3.37590E-05 6.82782E-06-6.13358E-19 7.14578E-19
 -1      1360 1.15717E-04-2.87692E-05-3.81779E-05 9.02972E-07-1.03772E-18 3.98734E-19
 -1      1361 1.10541E-04-3.18086E-05-3.43187E-05 1.18138E-05-5.09755E-19 1.63054E-20
 -1      1362 1.22337E-04-3.68334E-05-3.68140E-05 1.21400E-05-4.06523E-19-7.88799E-19
 -1      1363 1.20709E-04-3.26206E-05-3.83413E-05 1.71261E-05-9.20301E-19-2.73248E-19
 -1      1364 1.26999E-04-3.91134E-05-3.76635E-05 1.03970E-05-3.76519E-19-1.16933E-18
 -1      1365 1.37001E-04-4.29346E-05-4.00549E-05 9.01889E-06-1.57111E-19-1.81572E-18
 -1      1366 1.30487E-04-4.00819E-05-3.87813E-05 2.04784E-05-8.74032E-19-9.17151E-19
 -1      1367 1.38754E-04-4.33549E-05-4.06641E-05 4.11596E-06 1.54636E-19-1.94278E-18
 -1      1368 1.42800E-04-4.45440E-05-4.18282E-05 2.67677E-06 3.12608E-19-1.63297E-18
 -1      1369 1.36649E-04-4.41668E-05-3.93791E-05 1.17458E-05-4.23516E-20-1.36822E-18
 -1      1370 1.41747E-04-4.37461E-05-4.18390E-05-1.40173E-06 5.12839E-19-1.37765E-18
 -1      1371 1.40581E-04-4.30516E-05-4.16721E-05-2.19138E-06 5.98905E-19-5.96258E-19
 -1      1372 1.36608E-04-4.37129E-05-3.95933E-05 8.59740E-07 9.27183E-19-7.47378E-19
 -1      1373 1.37938E-04-4.18921E-05-4.11136E-05-4.21700E-06 2.36481E-19-3.42890E-19
 -1      1374 1.34054E-04-4.04216E-05-4.01217E-05-4.44030E-06-2.01104E-20-1.07997E-19
 -1      1375 1.32271E-04-4.10485E-05-3.90069E-05-6.20433E-06 5.80628E-19-5.00888E-19
 -1      1376 1.30878E-04-3.93098E-05-3.92555E-05-4.88229E-06-2.08593E-19-5.33048E-19
 -1      1377 1.26313E-04-3.77601E-05-3.79893E-05-4.81168E-06-4.11018E-19-1.29803E-18
 -1      1378 1.26149E-04-3.81523E-05-3.77178E-05-8.91950E-06-3.96067E-19-4.30650E-19
 -1      1379 1.23246E-04-3.68149E-05-3.70666E-05-4.44240E-06 2.08132E-19-1.06604E-18
 -1      1380 1.19074E-04-3.54793E-05-3.58657E-05-4.27101E-06 3.02364E-19-9.77529E-19
 -1      1381 1.19880E-04-3.57411E-05-3.61046E-05-8.87663E-06 5.09899E-20-1.07864E-18
 -1      1382 1.16418E-04-3.47139E-05-3.50331E-05-3.62529E-06 2.45209E-19-7.00999E-19
 -1      1383 1.13006E-04-3.36604E-05-3.40341E-05-3.44758E-06 1.22562E-19-3.33943E-19
 -1      1384 1.14269E-04-3.38870E-05-3.45026E-05-7.61353E-06 2.92709E-19-5.40745E-19
 -1      1385 1.10745E-04-3.30329E-05-3.33136E-05-2.76606E-06-5.92672E-19-5.38263E-20
 -1      1386 1.08028E-04-3.22092E-05-3.25088E-05-2.60668E-06-5.66877E-19-5.88344E-19
 -1      1387 1.09508E-04-3.24592E-05-3.30646E-05-6.01979E-06-3.72986E-19 4.00441E-19
 -1      1388 1.06371E-04-3.17538E-05-3.19782E-05-2.05605E-06-1.87816E-19-1.02564E-18
 -1      1389 1.04458E-04-3.11843E-05-3.14096E-05-1.94000E-06-1.00850E-19-1.36559E-18
 -1      1390 1.05742E-04-3.14000E-05-3.18984E-05-4.54356E-06-6.39368E-19 3.90115E-19
 -1      1391 1.03191E-04-3.08371E-05-3.10050E-05-1.50739E-06-2.34966E-19-1.77385E-18
 -1      1392 1.01797E-04-3.04254E-05-3.05900E-05-1.42010E-06-3.96590E-19-1.82398E-18
 -1      1393 1.02922E-04-3.06272E-05-3.10121E-05-3.37280E-06-5.03472E-19-1.07807E-18
 -1      1394 1.00848E-04-3.01650E-05-3.02881E-05-1.09258E-06-2.95211E-19-2.19079E-18
 -1      1395 9.98445E-05-2.98704E-05-2.99888E-05-1.02848E-06-3.06295E-19-2.55588E-18
 -1      1396 1.00789E-04-3.00511E-05-3.03377E-05-2.46764E-06-5.19684E-19-1.90872E-18
 -1      1397 9.91424E-05-2.96771E-05-2.97663E-05-7.85453E-07-1.60314E-19-2.33885E-18
 -1      1398 9.84256E-05-2.94677E-05-2.95523E-05-7.38844E-07-2.51870E-19-2.29795E-18
 -1      1399 9.91963E-05-2.96235E-05-2.98332E-05-1.78756E-06-3.21968E-19-1.93641E-18
 -1      1400 9.79109E-05-2.93254E-05-2.93898E-05-5.60437E-07 1.87489E-19-2.87566E-18
 -1      1401 9.74029E-05-2.91777E-05-2.92380E-05-5.26689E-07 1.07170E-19-2.65686E-18
 -1      1402 9.80202E-05-2.93081E-05-2.94602E-05-1.28449E-06 9.71275E-21-1.85614E-18
 -1      1403 9.70290E-05-2.90739E-05-2.91204E-05-3.96483E-07 1.66614E-19-2.29297E-18
 -1      1404 9.66721E-05-2.89706E-05-2.90135E-05-3.72103E-07-3.43609E-19-1.82372E-18
 -1      1405 9.71593E-05-2.90772E-05-2.91871E-05-9.15474E-07 1.21506E-19-1.11692E-18
 -1      1406 9.64033E-05-2.88958E-05-2.89292E-05-2.77445E-07-6.33315E-19-1.44732E-18
 -1      1407 9.61554E-05-2.88244E-05-2.88549E-05-2.59874E-07-3.50257E-19-2.56787E-18
 -1      1408 9.65352E-05-2.89099E-05-2.89890E-05-6.46150E-07-6.00919E-19-1.59942E-18
 -1      1409 9.59642E-05-2.87711E-05-2.87951E-05-1.91321E-07-1.06003E-19-2.06594E-18
 -1      1410 9.57947E-05-2.87226E-05-2.87441E-05-1.78705E-07-1.30996E-19-2.33281E-18
 -1      1411 9.60876E-05-2.87900E-05-2.88468E-05-4.50350E-07-8.61409E-20-6.59040E-19
 -1      1412 9.56609E-05-2.86852E-05-2.87024E-05-1.29305E-07-1.14228E-19-1.94234E-18
 -1      1413 9.55475E-05-2.86530E-05-2.86681E-05-1.20302E-07-1.63723E-19-2.23157E-18
 -1      1414 9.57707E-05-2.87054E-05-2.87460E-05-3.08627E-07-1.73112E-19-7.98970E-20
 -1      1415 9.54556E-05-2.86273E-05-2.86395E-05-8.49593E-08 1.85720E-19-2.31714E-18
 -1      1416 9.53820E-05-2.86068E-05-2.86172E-05-7.85949E-08 1.01352E-18-1.52247E-18
 -1      1417 9.55502E-05-2.86468E-05-2.86756E-05-2.06659E-07-1.07124E-20 1.11912E-18
 -1      1418 9.53205E-05-2.85895E-05-2.85981E-05-5.35649E-08 7.81310E-19-9.32363E-19
 -1      1419 9.52749E-05-2.85771E-05-2.85842E-05-4.91259E-08-3.28197E-19-1.49987E-19
 -1      1420 9.53999E-05-2.86072E-05-2.86274E-05-1.33914E-07 9.78685E-19 5.04157E-20
 -1      1421 9.52352E-05-2.85660E-05-2.85719E-05-3.16463E-08-6.04925E-19-8.75554E-20
 -1      1422 9.52091E-05-2.85591E-05-2.85638E-05-2.86036E-08-1.36851E-19-5.77333E-19
 -1      1423 9.53006E-05-2.85814E-05-2.85953E-05-8.26253E-08 5.53427E-20 3.27664E-19
 -1      1424 9.51848E-05-2.85523E-05-2.85563E-05-1.66437E-08-5.57829E-19-1.43856E-18
 -1      1425 9.51718E-05-2.85492E-05-2.85522E-05-1.45965E-08-9.66874E-19-2.68453E-18
 -1      1426 9.52377E-05-2.85654E-05-2.85748E-05-4.70442E-08-1.38957E-18 2.93554E-19
 -1      1427 9.51578E-05-2.85453E-05-2.85479E-05-6.33734E-09-1.26492E-18-2.50368E-18
 -1      1428 9.51535E-05-2.85446E-05-2.85464E-05-4.94713E-09-7.61159E-19-3.68683E-18
 -1      1429 9.51996E-05-2.85559E-05-2.85622E-05-2.25175E-08-1.49071E-18-8.46367E-19
 -1      1430 9.51475E-05-2.85429E-05-2.85445E-05 7.49815E-11 1.02665E-18-3.99610E-18
 -1      1431 9.51489E-05-2.85438E-05-2.85448E-05 8.37735E-10 8.96333E-19-2.72744E-18
 -1      1432 9.51799E-05-2.85516E-05-2.85554E-05-6.34532E-09 4.12699E-19-6.13714E-19
 -1      1433 9.51476E-05-2.85435E-05-2.85444E-05 3.88019E-09-2.08337E-19-2.79126E-18
 -1      1434 9.51522E-05-2.85452E-05-2.85457E-05 4.30639E-09-9.02277E-19-3.87895E-18
 -1      1435 9.51725E-05-2.85504E-05-2.85526E-05 3.46544E-09 3.45470E-19-1.96277E-18
 -1      1436 9.51538E-05-2.85457E-05-2.85462E-05 5.98708E-09-5.69504E-19-3.39240E-18
 -1      1437 9.51601E-05-2.85479E-05-2.85480E-05 6.18031E-09 2.00146E-20-3.40032E-18
 -1      1438 9.51725E-05-2.85511E-05-2.85522E-05 9.23237E-09-9.55767E-19-1.23643E-18
 -1      1439 9.51634E-05-2.85488E-05-2.85490E-05 6.94599E-09 6.29956E-20-2.82730E-18
 -1      1440 9.51703E-05-2.85511E-05-2.85510E-05 6.98928E-09 4.62382E-20-2.99444E-18
 -1      1441 9.51771E-05-2.85529E-05-2.85533E-05 1.22428E-08-3.95134E-20-3.93447E-19
 -1      1442 9.51745E-05-2.85523E-05-2.85523E-05 7.16215E-09 3.97292E-19-2.75101E-18
 -1      1443 9.51815E-05-2.85546E-05-2.85543E-05 7.11360E-09 5.19957E-20-2.78661E-18
 -1      1444 9.51842E-05-2.85553E-05-2.85553E-05 1.34243E-08 3.23203E-19-1.34949E-18
 -1      1445 9.51859E-05-2.85559E-05-2.85557E-05 6.91890E-09 3.86230E-20-3.15858E-18
 -1      1446 9.51926E-05-2.85579E-05-2.85576E-05 6.81781E-09-2.67109E-19-3.62846E-18
 -1      1447 9.51925E-05-2.85580E-05-2.85577E-05 1.34383E-08-9.54353E-20-1.39193E-18
 -1      1448 9.51970E-05-2.85592E-05-2.85590E-05 6.40480E-09-1.28982E-18-3.88574E-18
 -1      1449 9.52031E-05-2.85611E-05-2.85608E-05 6.27555E-09-1.18586E-18-4.86363E-18
 -1      1450 9.52011E-05-2.85606E-05-2.85602E-05 1.27378E-08-1.17629E-18-3.14573E-18
 -1      1451 9.52072E-05-2.85623E-05-2.85621E-05 5.73205E-09-5.76908E-20-5.05090E-18
 -1      1452 9.52126E-05-2.85640E-05-2.85637E-05 5.58649E-09 9.05791E-20-4.08362E-18
 -1      1453 9.52094E-05-2.85632E-05-2.85627E-05 1.16111E-08-8.93480E-19-2.84895E-18
 -1      1454 9.52163E-05-2.85651E-05-2.85648E-05 4.94790E-09 1.04548E-18-3.34608E-18
 -1      1455 9.52210E-05-2.85665E-05-2.85662E-05 4.78611E-09 6.47784E-19-2.61416E-18
 -1      1456 9.52170E-05-2.85655E-05-2.85649E-05 1.02098E-08 1.09594E-18-2.29351E-18
 -1      1457 9.52241E-05-2.85675E-05-2.85671E-05 4.04067E-09-4.21927E-19-2.64219E-18
 -1      1458 9.52278E-05-2.85686E-05-2.85682E-05 3.84997E-09-5.73885E-19-2.77204E-18
 -1      1459 9.52237E-05-2.85675E-05-2.85669E-05 8.56743E-09 2.86037E-19-1.79513E-18
 -1      1460 9.52303E-05-2.85694E-05-2.85690E-05 2.95023E-09 2.26426E-19-2.83083E-18
 -1      1461 9.52329E-05-2.85702E-05-2.85697E-05 2.70476E-09-7.84082E-20-3.67872E-18
 -1      1462 9.52292E-05-2.85693E-05-2.85685E-05 6.61853E-09-2.86603E-19-2.31394E-18
 -1      1463 9.52347E-05-2.85708E-05-2.85702E-05 1.62942E-09-1.66403E-18-2.94376E-18
 -1      1464 9.52360E-05-2.85712E-05-2.85707E-05 1.28709E-09-2.10086E-18-4.87210E-18
 -1      1465 9.52334E-05-2.85707E-05-2.85697E-05 4.27026E-09-1.64429E-18-1.82339E-18
 -1      1466 9.52368E-05-2.85714E-05-2.85709E-05 4.21370E-10-6.12438E-19-5.73964E-18
 -1      1467 9.52370E-05-2.85713E-05-2.85712E-05 2.76038E-10 3.21181E-18-1.78984E-18
 -1      1468 9.52370E-05-2.85715E-05-2.85709E-05 4.13045E-10 7.35743E-18 1.39540E-18
 -1      1469 9.52360E-05-2.85716E-05-2.85704E-05 1.99871E-09-1.73617E-18 6.19707E-20
 -1      1470 1.02215E-04-3.01025E-05-3.14200E-05 2.35422E-06 6.86070E-19 7.10581E-18
 -1      1471 1.07386E-04-3.08684E-05-3.36085E-05 3.76097E-06 5.88794E-19 8.21389E-18
 -1      1472 1.07104E-04-2.82650E-05-3.41108E-05 1.14761E-05 1.17992E-18 5.57941E-18
 -1      1473 9.86049E-05-2.94414E-05-2.96969E-05 7.25482E-07 4.51442E-19 5.95472E-18
 -1      1474 1.00017E-04-2.94453E-05-3.04530E-05 1.00989E-06 4.63658E-19 6.61690E-18
 -1      1475 1.02117E-04-2.98225E-05-3.11762E-05 3.86887E-06 9.70435E-19 4.67290E-18
 -1      1476 9.73146E-05-2.91872E-05-2.91617E-05 1.55012E-07 3.60588E-19 5.03386E-18
 -1      1477 9.76613E-05-2.91446E-05-2.93508E-05 2.65638E-07 3.00786E-19 5.53158E-18
 -1      1478 9.93165E-05-2.95793E-05-2.99309E-05 1.24416E-06 6.59031E-19 4.01024E-18
 -1      1479 9.67856E-05-2.90807E-05-2.89752E-05 9.63517E-08 4.74501E-19 4.18917E-18
 -1      1480 9.68863E-05-2.90655E-05-2.90207E-05 1.04582E-07 3.32637E-19 4.71400E-18
 -1      1481 9.80612E-05-2.94386E-05-2.94174E-05 4.16730E-07 5.73296E-19 3.24787E-18
 -1      1482 9.61876E-05-2.89329E-05-2.87869E-05 3.21410E-07 2.21929E-19 3.50958E-18
 -1      1483 9.64365E-05-2.90044E-05-2.88648E-05 2.56060E-07 2.56350E-19 3.97266E-18
 -1      1484 9.73090E-05-2.93070E-05-2.91338E-05 4.62605E-07 5.94262E-19 2.95595E-18
 -1      1485 9.50375E-05-2.86032E-05-2.84384E-05 7.22730E-07 2.62901E-19 3.01270E-18
 -1      1486 9.56693E-05-2.88187E-05-2.86263E-05 6.05034E-07 1.63585E-19 3.26053E-18
 -1      1487 9.64635E-05-2.91054E-05-2.88440E-05 1.00015E-06 3.84540E-19 2.60581E-18
 -1      1488 9.30988E-05-2.80134E-05-2.78660E-05 1.18249E-06 8.76117E-20 2.47310E-18
 -1      1489 9.42196E-05-2.83989E-05-2.81919E-05 1.04069E-06 1.16737E-19 2.63107E-18
 -1      1490 9.51557E-05-2.87241E-05-2.84377E-05 1.78691E-06 3.42612E-19 1.96139E-18
 -1      1491 9.04060E-05-2.71664E-05-2.70881E-05 1.55033E-06-1.12827E-21 1.96267E-18
 -1      1492 9.19697E-05-2.76991E-05-2.75347E-05 1.42628E-06 1.58738E-19 2.25004E-18
 -1      1493 9.32488E-05-2.81096E-05-2.78835E-05 2.56586E-06 2.19380E-19 1.54214E-18
 -1      1494 8.73024E-05-2.61668E-05-2.62078E-05 1.66063E-06 1.98420E-19 1.88195E-18
 -1      1495 8.90892E-05-2.67650E-05-2.67101E-05 1.60399E-06-1.70362E-20 1.87260E-18
 -1      1496 9.08538E-05-2.72901E-05-2.72202E-05 3.03672E-06 1.03089E-19 1.29890E-18
 -1      1497 8.44061E-05-2.52168E-05-2.53988E-05 1.39087E-06 1.96454E-19 1.78098E-18
 -1      1498 8.60464E-05-2.57493E-05-2.58528E-05 1.44120E-06 1.58446E-19 1.87504E-18
 -1      1499 8.83368E-05-2.63924E-05-2.65499E-05 2.92072E-06 2.56022E-19 1.21372E-18
 -1      1500 8.24514E-05-2.45661E-05-2.48597E-05 7.33267E-07 2.59596E-19 1.09393E-18
 -1      1501 8.35220E-05-2.48879E-05-2.51503E-05 8.97547E-07 1.61446E-19 1.35356E-18
 -1      1502 8.62491E-05-2.56245E-05-2.60128E-05 2.08060E-06 3.65389E-19 1.18169E-18
 -1      1503 8.20306E-05-2.44208E-05-2.47465E-05-1.70230E-07 5.06069E-20 1.08500E-18
 -1      1504 8.22036E-05-2.44268E-05-2.47869E-05 7.09287E-08 1.09896E-19 1.05503E-18
 -1      1505 8.51568E-05-2.52097E-05-2.57450E-05 6.25945E-07 2.21499E-19 5.96326E-19
 -1      1506 8.33476E-05-2.48520E-05-2.51130E-05-1.07097E-06 6.15919E-20 8.33639E-19
 -1      1507 8.25249E-05-2.45227E-05-2.48787E-05-8.21575E-07 2.12827E-19 1.24067E-18
 -1      1508 8.54208E-05-2.52935E-05-2.58294E-05-1.08503E-06 1.50481E-19 7.94851E-19
 -1      1509 8.61271E-05-2.57615E-05-2.58887E-05-1.72231E-06 2.19011E-19 2.19461E-19
 -1      1510 8.44827E-05-2.51722E-05-2.54272E-05-1.53319E-06 2.07503E-19 4.62506E-19
 -1      1511 8.70395E-05-2.58737E-05-2.62643E-05-2.58258E-06 3.63999E-19 2.84524E-19
 -1      1512 8.97341E-05-2.69279E-05-2.69071E-05-1.98566E-06 3.97394E-20-3.06414E-19
 -1      1513 8.76397E-05-2.62155E-05-2.63186E-05-1.89551E-06 3.04744E-19 4.08164E-20
 -1      1514 8.96471E-05-2.68014E-05-2.69626E-05-3.49055E-06 5.02075E-19 4.19480E-20
 -1      1515 9.34277E-05-2.81008E-05-2.79674E-05-1.86886E-06-5.59612E-20-2.13426E-19
 -1      1516 9.13070E-05-2.74094E-05-2.73675E-05-1.87692E-06-5.81955E-20-2.77774E-19
 -1      1517 9.26692E-05-2.78506E-05-2.77848E-05-3.67035E-06-3.49070E-21 1.68348E-20
 -1      1518 9.66035E-05-2.90860E-05-2.88981E-05-1.48797E-06 2.04501E-19-3.26981E-19
 -1      1519 9.47962E-05-2.85213E-05-2.83817E-05-1.56527E-06 4.29638E-20-3.16354E-19
 -1      1520 9.55354E-05-2.88095E-05-2.85844E-05-3.22808E-06 1.88180E-19 5.02264E-20
 -1      1521 9.89205E-05-2.97832E-05-2.95944E-05-9.94411E-07-1.47837E-19-7.75604E-19
 -1      1522 9.76135E-05-2.93951E-05-2.92161E-05-1.10320E-06 2.81599E-19-4.39967E-19
 -1      1523 9.78395E-05-2.95424E-05-2.92484E-05-2.41240E-06 2.97967E-19-5.06380E-19
 -1      1524 1.00302E-04-3.01801E-05-3.00244E-05-5.14872E-07 3.29306E-19-9.42251E-19
 -1      1525 9.95309E-05-2.99686E-05-2.97973E-05-6.23770E-07 4.54155E-20-9.21770E-19
 -1      1526 9.93960E-05-3.00026E-05-2.97164E-05-1.48811E-06 1.84180E-19-8.72581E-19
 -1      1527 1.00856E-04-3.03208E-05-3.02114E-05-1.25031E-07 1.69241E-20-1.08035E-18
 -1      1528 1.00553E-04-3.02555E-05-3.01187E-05-2.15257E-07-5.17219E-20-8.52861E-19
 -1      1529 1.00210E-04-3.02112E-05-2.99788E-05-6.51773E-07 7.25338E-20-4.98027E-19
 -1      1530 1.00784E-04-3.02741E-05-3.02095E-05 1.48013E-07-2.00820E-19-6.14433E-19
 -1      1531 1.00831E-04-3.03125E-05-3.02187E-05 8.35358E-08-8.00363E-20-7.20313E-19
 -1      1532 1.00405E-04-3.02241E-05-3.00621E-05-6.43747E-09-2.36455E-19-8.21390E-20
 -1      1533 1.00304E-04-3.01095E-05-3.00806E-05 3.10089E-07 1.77075E-20-1.34562E-18
 -1      1534 1.00575E-04-3.02105E-05-3.01563E-05 2.70581E-07 3.15465E-19-7.77451E-19
 -1      1535 1.00154E-04-3.01060E-05-3.00106E-05 4.23065E-07 1.29881E-19-1.35103E-19
 -1      1536 9.96049E-05-2.98852E-05-2.98811E-05 3.83314E-07 7.31133E-20-1.09830E-18
 -1      1537 9.99921E-05-3.00155E-05-2.99923E-05 3.64092E-07-2.29277E-19-1.72472E-18
 -1      1538 9.96274E-05-2.99142E-05-2.98717E-05 6.60312E-07 9.94073E-20-6.73065E-19
 -1      1539 9.88297E-05-2.96436E-05-2.96545E-05 3.94018E-07-2.14703E-19-1.16693E-18
 -1      1540 9.92540E-05-2.97797E-05-2.97777E-05 3.89309E-07-1.58791E-19-1.44186E-18
 -1      1541 9.89672E-05-2.96927E-05-2.96872E-05 7.50007E-07 1.40364E-19-7.36735E-19
 -1      1542 9.80745E-05-2.94122E-05-2.94307E-05 3.65985E-07 1.23784E-18-1.99039E-18
 -1      1543 9.84836E-05-2.95396E-05-2.95503E-05 3.70493E-07 5.41581E-19-9.23534E-19
 -1      1544 9.82772E-05-2.94716E-05-2.94886E-05 7.39640E-07 4.71775E-19-7.16592E-19
 -1      1545 9.73951E-05-2.92067E-05-2.92275E-05 3.17731E-07-6.89767E-20-2.96629E-18
 -1      1546 9.77595E-05-2.93176E-05-2.93346E-05 3.27278E-07 5.46909E-19-2.11365E-18
 -1      1547 9.76250E-05-2.92689E-05-2.92973E-05 6.69963E-07 8.07564E-19-4.63971E-19
 -1      1548 9.68179E-05-2.90336E-05-2.90538E-05 2.62181E-07-4.02449E-19-2.51295E-18
 -1      1549 9.71243E-05-2.91252E-05-2.91442E-05 2.73805E-07-3.35780E-19-2.90920E-18
 -1      1550 9.70484E-05-2.90936E-05-2.91260E-05 5.71678E-07-2.92728E-19-6.12282E-19
 -1      1551 9.63489E-05-2.88941E-05-2.89120E-05 2.07489E-07-1.33493E-19-1.77158E-18
 -1      1552 9.65952E-05-2.89665E-05-2.89849E-05 2.19279E-07-4.17620E-19-2.33017E-18
 -1      1553 9.65633E-05-2.89488E-05-2.89804E-05 4.65644E-07-5.92644E-19-4.08548E-19
 -1      1554 9.59823E-05-2.87858E-05-2.88006E-05 1.58191E-07 1.65794E-19-1.70886E-18
 -1      1555 9.61727E-05-2.88408E-05-2.88572E-05 1.69044E-07-2.31677E-20-1.94816E-18
 -1      1556 9.61715E-05-2.88336E-05-2.88617E-05 3.64621E-07 1.19958E-20-1.16413E-18
 -1      1557 9.57056E-05-2.87045E-05-2.87163E-05 1.16329E-07-5.60458E-20-1.47911E-18
 -1      1558 9.58474E-05-2.87448E-05-2.87585E-05 1.25710E-07-4.94025E-20-1.76825E-18
 -1      1559 9.58661E-05-2.87449E-05-2.87686E-05 2.75388E-07-4.00070E-20-9.54481E-19
 -1      1560 9.55040E-05-2.86456E-05-2.86547E-05 8.23532E-08-3.57739E-19-1.21672E-18
 -1      1561 9.56058E-05-2.86740E-05-2.86850E-05 9.00940E-08-1.23529E-19-1.43737E-18
 -1      1562 9.56357E-05-2.86788E-05-2.86979E-05 2.00674E-07-3.64824E-20 4.09935E-19
 -1      1563 9.53627E-05-2.86046E-05-2.86113E-05 5.57939E-08-2.35090E-19-1.53225E-19
 -1      1564 9.54327E-05-2.86237E-05-2.86323E-05 6.19473E-08-3.35973E-19-8.35558E-19
 -1      1565 9.54678E-05-2.86312E-05-2.86459E-05 1.40682E-07-6.87106E-19-5.22243E-20
 -1      1566 9.52680E-05-2.85774E-05-2.85821E-05 3.57214E-08-3.77589E-20 7.33466E-20
 -1      1567 9.53137E-05-2.85895E-05-2.85959E-05 4.04566E-08-2.79821E-19-2.03397E-19
 -1      1568 9.53496E-05-2.85981E-05-2.86091E-05 9.41994E-08-6.37403E-19 8.15987E-19
 -1      1569 9.52082E-05-2.85604E-05-2.85636E-05 2.10409E-08 5.02857E-20-6.28129E-19
 -1      1570 9.52359E-05-2.85674E-05-2.85720E-05 2.45757E-08 6.79506E-19 3.71300E-19
 -1      1571 9.52701E-05-2.85762E-05-2.85841E-05 5.93483E-08 4.78266E-19 1.20487E-18
 -1      1572 9.51738E-05-2.85507E-05-2.85528E-05 1.06679E-08 1.09947E-18-2.84504E-18
 -1      1573 9.51887E-05-2.85542E-05-2.85574E-05 1.32276E-08 9.71084E-19-1.69659E-18
 -1      1574 9.52195E-05-2.85625E-05-2.85681E-05 3.40562E-08 1.61678E-18-6.57017E-20
 -1      1575 9.51572E-05-2.85463E-05-2.85475E-05 3.62103E-09-1.97864E-19-3.55940E-18
 -1      1576 9.51633E-05-2.85473E-05-2.85495E-05 5.41501E-09-1.82961E-19-3.52051E-18
 -1      1577 9.51900E-05-2.85548E-05-2.85585E-05 1.63321E-08 6.72303E-19-1.09785E-18
 -1      1578 9.51526E-05-2.85453E-05-2.85459E-05-9.36407E-10-2.47209E-19-2.14243E-18
 -1      1579 9.51528E-05-2.85447E-05-2.85461E-05 2.74345E-10-4.12046E-19-3.07017E-18
 -1      1580 9.51753E-05-2.85513E-05-2.85536E-05 4.40735E-09-7.12611E-19-1.04232E-18
 -1      1581 9.51556E-05-2.85464E-05-2.85467E-05-3.68793E-09 8.20897E-19-2.91989E-18
 -1      1582 9.51523E-05-2.85450E-05-2.85458E-05-2.90853E-09 1.79204E-19-2.08113E-18
 -1      1583 9.51707E-05-2.85505E-05-2.85518E-05-3.20777E-09-3.08519E-19-2.40202E-18
 -1      1584 9.51632E-05-2.85489E-05-2.85489E-05-5.17223E-09 1.15551E-19-3.44004E-18
 -1      1585 9.51579E-05-2.85470E-05-2.85474E-05-4.70232E-09 2.22054E-19-2.94198E-18
 -1      1586 9.51726E-05-2.85514E-05-2.85521E-05-7.71847E-09 7.41795E-19-2.38608E-18
 -1      1587 9.51732E-05-2.85520E-05-2.85519E-05-5.80023E-09-1.94414E-19-3.18240E-18
 -1      1588 9.51669E-05-2.85499E-05-2.85500E-05-5.54512E-09 1.45626E-19-3.13822E-18
 -1      1589 9.51784E-05-2.85534E-05-2.85537E-05-1.00666E-08-1.04700E-19-1.04076E-18
 -1      1590 9.51842E-05-2.85553E-05-2.85551E-05-5.87444E-09 9.46905E-19-3.59444E-18
 -1      1591 9.51776E-05-2.85532E-05-2.85532E-05-5.76308E-09-1.48604E-19-3.53368E-18
 -1      1592 9.51863E-05-2.85560E-05-2.85559E-05-1.09639E-08 2.74126E-19-1.59765E-18
 -1      1593 9.51951E-05-2.85587E-05-2.85584E-05-5.60756E-09-1.55027E-19-4.26087E-18
 -1      1594 9.51887E-05-2.85566E-05-2.85565E-05-5.58893E-09 4.39936E-19-3.83979E-18
 -1      1595 9.51950E-05-2.85587E-05-2.85585E-05-1.09280E-08 3.96036E-19-2.19225E-18
 -1      1596 9.52054E-05-2.85618E-05-2.85615E-05-5.13779E-09 4.06536E-19-4.94524E-18
 -1      1597 9.51995E-05-2.85599E-05-2.85598E-05-5.17806E-09 4.87547E-19-4.18014E-18
 -1      1598 9.52038E-05-2.85614E-05-2.85611E-05-1.03151E-08 4.39738E-19-2.36729E-18
 -1      1599 9.52147E-05-2.85646E-05-2.85643E-05-4.53992E-09-3.60496E-19-5.03679E-18
 -1      1600 9.52095E-05-2.85630E-05-2.85628E-05-4.62072E-09-4.22222E-19-5.95158E-18
 -1      1601 9.52122E-05-2.85639E-05-2.85635E-05-9.34603E-09-1.30662E-19-2.88707E-18
 -1      1602 9.52228E-05-2.85670E-05-2.85667E-05-3.83150E-09-1.28345E-18-3.39592E-18
 -1      1603 9.52184E-05-2.85656E-05-2.85654E-05-3.94983E-09-6.67475E-19-4.45273E-18
 -1      1604 9.52197E-05-2.85662E-05-2.85658E-05-8.12539E-09-8.03674E-19-3.09679E-18
 -1      1605 9.52294E-05-2.85690E-05-2.85687E-05-2.97737E-09 1.06656E-19-2.88736E-18
 -1      1606 9.52258E-05-2.85679E-05-2.85676E-05-3.14606E-09-3.03976E-19-3.74861E-18
 -1      1607 9.52262E-05-2.85682E-05-2.85677E-05-6.65308E-09-8.97434E-19-3.45727E-18
 -1      1608 9.52341E-05-2.85705E-05-2.85701E-05-1.89629E-09-1.21284E-19-3.38195E-18
 -1      1609 9.52317E-05-2.85698E-05-2.85693E-05-2.15109E-09 2.90704E-19-3.04439E-18
 -1      1610 9.52313E-05-2.85698E-05-2.85692E-05-4.84387E-09-2.84583E-19-2.79520E-18
 -1      1611 9.52366E-05-2.85712E-05-2.85709E-05-6.27002E-10 7.66824E-19-2.93135E-18
 -1      1612 9.52356E-05-2.85710E-05-2.85705E-05-9.46060E-10 6.89266E-19-2.46123E-18
 -1      1613 9.52349E-05-2.85710E-05-2.85702E-05-2.62866E-09 6.18545E-19-1.51194E-18
 -1      1614 9.52371E-05-2.85713E-05-2.85711E-05 3.01252E-12-1.56503E-18-1.73949E-18
 -1      1615 9.52375E-05-2.85734E-05-2.85703E-05-1.57518E-09-7.93426E-19 1.21316E-19
 -1      1616 9.52371E-05-2.85722E-05-2.85707E-05-1.24772E-09-1.75432E-18 1.25624E-18
 -1      1617 9.52388E-05-2.85774E-05-2.85692E-05-2.68811E-09-3.40492E-18-2.34038E-18
 -1      1618 9.52380E-05-2.85751E-05-2.85698E-05-2.47436E-09-1.17963E-18-1.36835E-18
 -1      1619 9.52376E-05-2.85747E-05-2.85698E-05-3.98039E-09-2.23723E-18-1.19141E-18
 -1      1620 9.52405E-05-2.85824E-05-2.85677E-05-3.23462E-09-7.75143E-18-3.56794E-19
 -1      1621 9.52395E-05-2.85795E-05-2.85686E-05-3.17402E-09-4.54051E-18-2.32112E-18
 -1      1622 9.52390E-05-2.85784E-05-2.85688E-05-5.67687E-09-2.71686E-18-3.92530E-18
 -1      1623 9.52422E-05-2.85877E-05-2.85662E-05-3.23500E-09-2.92855E-18 1.87020E-18
 -1      1624 9.52412E-05-2.85847E-05-2.85671E-05-3.27896E-09-6.85766E-18 4.06990E-18
 -1      1625 9.52406E-05-2.85828E-05-2.85676E-05-6.28419E-09-3.41066E-18 2.54929E-18
 -1      1626 9.52437E-05-2.85924E-05-2.85649E-05-2.79413E-09-2.96971E-18 9.08355E-19
 -1      1627 9.52429E-05-2.85898E-05-2.85656E-05-2.91300E-09-3.07896E-18-5.28731E-19
 -1      1628 9.52421E-05-2.85871E-05-2.85665E-05-5.93259E-09-2.74086E-18 1.09582E-18
 -1      1629 9.52449E-05-2.85960E-05-2.85638E-05-2.01048E-09-1.61817E-18 2.76589E-19
 -1      1630 9.52442E-05-2.85941E-05-2.85644E-05-2.18680E-09-2.41092E-18 5.21443E-19
 -1      1631 9.52434E-05-2.85909E-05-2.85654E-05-4.80879E-09-1.27224E-18 4.11100E-19
 -1      1632 9.52455E-05-2.85982E-05-2.85632E-05-1.00570E-09-7.35167E-19 1.66571E-19
 -1      1633 9.52452E-05-2.85971E-05-2.85635E-05-1.21457E-09-1.66494E-18 7.01975E-19
 -1      1634 9.52444E-05-2.85937E-05-2.85646E-05-3.11517E-09-8.88005E-19 4.80905E-19
 -1      1635 9.52457E-05-2.85986E-05-2.85630E-05 1.05405E-10 1.13821E-18 2.11964E-19
 -1      1636 9.52457E-05-2.85986E-05-2.85631E-05-1.14794E-10 6.79868E-19 4.77761E-19
 -1      1637 9.52449E-05-2.85952E-05-2.85642E-05-1.08273E-09 2.43025E-19 8.98566E-19
 -1      1638 9.52452E-05-2.85972E-05-2.85635E-05 1.20891E-09 1.98610E-18 6.41808E-19
 -1      1639 9.52455E-05-2.85982E-05-2.85632E-05 9.98816E-10 3.36358E-19 6.56188E-19
 -1      1640 9.52449E-05-2.85952E-05-2.85642E-05 1.06660E-09 1.16003E-18 1.44602E-19
 -1      1641 9.52442E-05-2.85941E-05-2.85644E-05 2.18920E-09 2.39504E-18-7.13243E-19
 -1      1642 9.52449E-05-2.85960E-05-2.85638E-05 2.01145E-09 3.06245E-18 1.89187E-19
 -1      1643 9.52444E-05-2.85937E-05-2.85646E-05 3.11029E-09 2.19783E-19 1.54769E-18
 -1      1644 9.52429E-05-2.85898E-05-2.85656E-05 2.91729E-09-2.50303E-19-1.05917E-18
 -1      1645 9.52437E-05-2.85924E-05-2.85649E-05 2.79724E-09 2.65018E-18-2.48576E-18
 -1      1646 9.52434E-05-2.85910E-05-2.85654E-05 4.81036E-09-4.56177E-20-1.94482E-18
 -1      1647 9.52412E-05-2.85847E-05-2.85671E-05 3.29530E-09-4.26615E-19-1.64253E-18
 -1      1648 9.52422E-05-2.85877E-05-2.85662E-05 3.25126E-09 3.35370E-19 1.22752E-18
 -1      1649 9.52421E-05-2.85872E-05-2.85664E-05 5.95214E-09 6.55260E-19-3.00073E-19
 -1      1650 9.52395E-05-2.85794E-05-2.85686E-05 3.18514E-09-1.77111E-19 1.57484E-19
 -1      1651 9.52405E-05-2.85824E-05-2.85677E-05 3.24922E-09-6.94080E-20-7.36853E-19
 -1      1652 9.52406E-05-2.85828E-05-2.85676E-05 6.31427E-09 1.28091E-18-1.83849E-18
 -1      1653 9.52380E-05-2.85750E-05-2.85698E-05 2.46022E-09 1.41337E-18 2.87498E-18
 -1      1654 9.52388E-05-2.85773E-05-2.85692E-05 2.69286E-09-4.61091E-19 1.04433E-18
 -1      1655 9.52390E-05-2.85784E-05-2.85688E-05 5.69475E-09 1.31129E-18 1.99174E-19
 -1      1656 9.52372E-05-2.85724E-05-2.85706E-05 1.32505E-09 5.06201E-18 1.98803E-18
 -1      1657 9.52376E-05-2.85737E-05-2.85702E-05 1.65950E-09 1.20063E-18 2.80874E-18
 -1      1658 9.52378E-05-2.85750E-05-2.85697E-05 4.09962E-09-5.28828E-19 3.14715E-18
 -1      1659 9.52369E-05-2.85727E-05-2.85704E-05 2.09864E-09-6.03506E-19 2.49416E-18
 -1      1660 2.00971E-05-6.18504E-05 1.28607E-05-4.23380E-07 2.49875E-18 2.86128E-18
 -1      1661 2.37802E-05-7.49149E-05 1.60075E-05 6.09674E-06-1.66357E-18 2.43141E-18
 -1      1662 1.99694E-05-3.42780E-05 2.24108E-06 6.38968E-06 8.20690E-18 5.95634E-18
 -1      1663 2.46449E-05-5.89755E-05 8.93485E-06 1.66896E-06 4.38509E-18 3.98309E-18
 -1      1664 3.87458E-05-7.77194E-06-1.46769E-05 3.49337E-05 1.01932E-17 7.94940E-18
 -1      1665 3.12118E-05-2.80127E-05-5.51162E-06 1.56335E-05 9.29873E-18 5.85850E-18
 -1      1666 7.86318E-05 1.34768E-06-3.31481E-05 6.49804E-05 9.98313E-18 1.10877E-17
 -1      1667 5.39769E-05-3.12893E-06-2.36444E-05 4.30155E-05 1.03160E-17 9.31313E-18
 -1      1668 1.41930E-04-1.35502E-05-5.14735E-05 8.26203E-05 7.80499E-18 1.13638E-17
 -1      1669 1.01027E-04-8.36907E-07-4.22114E-05 7.03686E-05 9.41223E-18 1.12825E-17
 -1      1670 2.07979E-04-4.12676E-05-6.62099E-05 6.95296E-05 5.15525E-18 7.50302E-18
 -1      1671 1.66143E-04-2.08362E-05-5.91772E-05 7.79515E-05 7.25653E-18 9.99668E-18
 -1      1672 2.52828E-04-6.22725E-05-7.53874E-05 2.52562E-05 2.53453E-18 1.92022E-18
 -1      1673 2.25374E-04-4.69775E-05-7.14699E-05 5.62650E-05 4.02447E-18 6.01055E-18
 -1      1674 2.54275E-04-6.20940E-05-7.63103E-05-2.98438E-05 2.28678E-18-2.94005E-18
 -1      1675 2.61586E-04-6.61466E-05-7.72278E-05 8.13997E-06 2.00620E-18 5.40407E-19
 -1      1676 2.03613E-04-3.72936E-05-6.72814E-05-6.22902E-05 4.06803E-18-6.07746E-18
 -1      1677 2.36680E-04-5.48306E-05-7.24000E-05-4.03082E-05 2.81554E-18-3.98063E-18
 -1      1678 1.41414E-04-1.22222E-05-5.31415E-05-7.69711E-05 6.53571E-18-8.67446E-18
 -1      1679 1.85883E-04-3.22610E-05-6.14079E-05-7.57538E-05 4.60066E-18-7.79101E-18
 -1      1680 8.10904E-05 3.41540E-07-3.51711E-05-6.07080E-05 9.02175E-18-9.03361E-18
 -1      1681 1.16712E-04-6.40617E-06-4.46756E-05-7.80488E-05 7.51911E-18-8.93620E-18
 -1      1682 4.22638E-05-1.06288E-05-1.63990E-05-3.09007E-05 9.46644E-18-7.30312E-18
 -1      1683 6.03790E-05 5.35564E-07-2.59873E-05-5.35292E-05 9.34277E-18-8.67192E-18
 -1      1684 2.84161E-05-4.18534E-05 8.39758E-07-8.57081E-06 7.51826E-18-4.46196E-18
 -1      1685 3.05506E-05-1.78860E-05-7.77748E-06-2.36787E-05 8.83455E-18-6.60686E-18
 -1      1686 2.51302E-05-7.12232E-05 1.31283E-05 2.56412E-07 4.85265E-18-2.40695E-18
 -1      1687 1.91289E-05-4.89541E-05 7.86290E-06 8.14353E-07 7.25823E-18-3.67009E-18
 -1      1688 2.47041E-05-8.18523E-05 1.76080E-05-6.20709E-06 2.71103E-19-2.00832E-18
 -1      1689 2.29702E-05-7.59622E-05 1.62409E-05 3.90978E-06 3.72271E-18-2.15443E-18
 -1      1690 2.04189E-05-6.57744E-05 1.34593E-05-8.83279E-06-5.16521E-18-3.75034E-18
 -1      1691 2.47279E-05-7.86276E-05 1.64274E-05-2.21859E-06-1.28114E-18-2.64274E-18
 -1      1692 2.07415E-05-3.81621E-05 2.68875E-06 9.45749E-07-9.33515E-18-6.22315E-18
 -1      1693 2.48714E-05-6.18073E-05 9.21514E-06-5.03947E-06-6.79151E-18-4.27190E-18
 -1      1694 4.85951E-05-1.56404E-05-1.60922E-05 3.39309E-05-9.88572E-18-8.79983E-18
 -1      1695 3.71772E-05-3.49656E-05-5.79729E-06 1.23292E-05-9.12847E-18-6.89061E-18
 -1      1696 9.96280E-05-9.86999E-06-3.73114E-05 6.50632E-05-9.11916E-18-1.02152E-17
 -1      1697 6.72881E-05-1.16232E-05-2.62493E-05 4.13065E-05-1.04558E-17-9.36141E-18
 -1      1698 1.75384E-04-2.94114E-05-5.79193E-05 7.93402E-05-6.13802E-18-9.07172E-18
 -1      1699 1.25522E-04-1.21987E-05-4.75971E-05 6.97633E-05-8.47202E-18-1.01712E-17
 -1      1700 2.46171E-04-5.83316E-05-7.32405E-05 5.59119E-05-3.15829E-18-5.77846E-18
 -1      1701 2.01227E-04-3.65525E-05-6.60521E-05 7.13569E-05-4.84164E-18-7.96211E-18
 -1      1702 2.80182E-04-7.24896E-05-8.05073E-05 8.42457E-06-1.54372E-18-1.99497E-18
 -1      1703 2.61386E-04-6.22949E-05-7.79182E-05 4.33478E-05-2.29652E-18-4.27328E-18
 -1      1704 2.65374E-04-6.47575E-05-7.83657E-05-4.02068E-05-1.61995E-18 8.26704E-19
 -1      1705 2.82158E-04-7.35156E-05-8.07467E-05-6.50956E-06-1.08081E-18-1.24175E-18
 -1      1706 2.08450E-04-4.07511E-05-6.71981E-05-6.47512E-05-3.42477E-18 3.86671E-18
 -1      1707 2.48522E-04-5.99969E-05-7.36558E-05-4.82960E-05-2.21446E-18 1.45351E-18
 -1      1708 1.41006E-04-1.73808E-05-5.13552E-05-7.08776E-05-6.18334E-18 7.14726E-18
 -1      1709 1.87043E-04-3.51003E-05-6.02857E-05-7.50824E-05-4.41770E-18 4.98733E-18
 -1      1710 7.93712E-05-9.04603E-06-3.17867E-05-4.92823E-05-8.93196E-18 8.56435E-18
 -1      1711 1.15451E-04-1.28822E-05-4.21609E-05-6.96588E-05-7.12185E-18 8.52454E-18
 -1      1712 4.12990E-05-2.16738E-05-1.26929E-05-2.00373E-05-1.08310E-17 7.18284E-18
 -1      1713 5.76004E-05-8.83887E-06-2.22290E-05-4.20996E-05-9.49270E-18 8.62280E-18
 -1      1714 2.65096E-05-4.79694E-05 3.22440E-06 1.08570E-06-1.22625E-17 5.70667E-18
 -1      1715 2.71099E-05-2.57561E-05-4.41501E-06-1.14932E-05-1.12825E-17 6.51580E-18
 -1      1716 2.49564E-05-7.23951E-05 1.36836E-05 5.98863E-06-9.10603E-18 4.24311E-18
 -1      1717 1.97563E-05-5.35318E-05 8.99496E-06 6.63682E-06-1.14460E-17 5.55002E-18
 -1      1718 2.43586E-05-8.12233E-05 1.77459E-05 8.47179E-07-3.10258E-18 3.43684E-18
 -1      1719 2.22213E-05-7.64389E-05 1.66698E-05 1.08617E-05-8.22808E-18 4.58033E-18
 -1      1720 7.64703E-05-3.21889E-05-1.98916E-05 4.39010E-05 5.93855E-18 6.42093E-18
 -1      1721 1.14685E-05-4.99972E-05 1.23117E-05 7.71208E-06-1.49459E-18 5.21349E-18
 -1      1722 9.52368E-05-2.85714E-05-2.85709E-05-5.93463E-10-1.31633E-18-1.02064E-19
 -1      1723 9.52365E-05-2.85723E-05-2.85704E-05-2.10261E-09-3.22522E-19 8.89242E-19
 -1      1724 2.08129E-05-4.63298E-05 7.14266E-06 2.02046E-05 9.63076E-19 5.18935E-18
 -1      1725 4.33239E-05-4.01421E-05-4.07372E-06 3.25371E-05 4.40711E-18 5.74500E-18
 -1      1726 1.16577E-04-2.73020E-05-3.71028E-05 5.09262E-05 5.97836E-18 7.17098E-18
 -1      1727 1.60326E-04-2.88356E-05-5.31152E-05 4.70091E-05 5.69333E-18 5.42779E-18
 -1      1728 1.94428E-04-3.14042E-05-6.54160E-05 3.01558E-05 5.27977E-18 2.79479E-18
 -1      1729 2.15344E-04-3.46659E-05-7.21512E-05 7.56347E-06 4.11192E-18 6.52639E-19
 -1      1730 2.06586E-04-3.26756E-05-7.00762E-05-1.36250E-05 3.96496E-18-1.62779E-18
 -1      1731 1.81470E-04-3.03702E-05-6.09999E-05-3.34442E-05 4.24967E-18-3.50756E-18
 -1      1732 1.44974E-04-2.86244E-05-4.73823E-05-4.90637E-05 5.33758E-18-5.19401E-18
 -1      1733 1.00574E-04-2.86283E-05-3.05288E-05-4.86605E-05 5.75982E-18-5.44049E-18
 -1      1734 6.35687E-05-3.61139E-05-1.34988E-05-3.98960E-05 4.87383E-18-5.34054E-18
 -1      1735 3.39327E-05-4.41884E-05 1.18276E-06-2.80129E-05 3.76760E-18-4.15650E-18
 -1      1736 1.63704E-05-5.28171E-05 1.09045E-05-1.27276E-05 2.16840E-18-3.63187E-18
 -1      1737 1.23047E-05-5.30819E-05 1.27031E-05 4.11245E-07-5.31248E-19-4.50537E-18
 -1      1738 2.22211E-05-5.02293E-05 7.58994E-06 1.35533E-05-2.92226E-18-5.29565E-18
 -1      1739 5.00909E-05-4.61250E-05-4.69923E-06 2.93747E-05-4.87044E-18-5.90361E-18
 -1      1740 9.19332E-05-4.34104E-05-2.20752E-05 3.88775E-05-5.51503E-18-5.81403E-18
 -1      1741 1.38957E-04-3.93483E-05-4.15039E-05 4.28080E-05-6.06899E-18-5.67512E-18
 -1      1742 1.87113E-04-3.96074E-05-5.90882E-05 3.56971E-05-5.18289E-18-4.46640E-18
 -1      1743 2.19543E-04-3.95089E-05-7.11319E-05 1.89934E-05-3.51688E-18-2.87102E-18
 -1      1744 2.33327E-04-4.02441E-05-7.57758E-05 1.04830E-06-2.18746E-18-1.15969E-18
 -1      1745 2.20723E-04-4.01963E-05-7.14684E-05-1.44881E-05-2.97351E-18 9.44442E-20
 -1      1746 1.91810E-04-4.03680E-05-6.06659E-05-3.02055E-05-3.74023E-18 7.56400E-19
 -1      1747 1.49604E-04-3.92613E-05-4.53823E-05-4.13799E-05-4.96022E-18 2.70204E-18
 -1      1748 1.02017E-04-3.93102E-05-2.75390E-05-4.00906E-05-5.68444E-18 4.75524E-18
 -1      1749 6.11328E-05-4.27786E-05-1.05679E-05-3.09001E-05-6.90078E-18 3.94040E-18
 -1      1750 3.25486E-05-4.85893E-05 2.84825E-06-1.89152E-05-6.10203E-18 3.97777E-18
 -1      1751 1.63637E-05-5.33049E-05 1.11271E-05-6.82876E-06-4.29403E-18 5.76152E-18
 -1      1752 1.13077E-04-2.53708E-05-3.76777E-05-1.37610E-05-9.60588E-19 5.39984E-18
 -1      1753 9.00621E-05-9.67015E-06-3.46043E-05-7.57367E-06-1.47011E-18-7.07378E-19
 -1      1754 9.32903E-05-1.14613E-05-3.51687E-05-9.24695E-06-1.64912E-18-1.37537E-19
 -1      1755 9.72066E-05-1.47889E-05-3.55002E-05-1.02926E-05-1.60932E-18 4.97129E-19
 -1      1756 1.00581E-04-1.74823E-05-3.60460E-05-1.21982E-05-1.65333E-18 1.36552E-18
 -1      1757 9.72228E-05-1.64934E-05-3.45838E-05-7.53584E-06-1.69711E-18 2.60092E-19
 -1      1758 8.06751E-05-4.03437E-06-3.29188E-05-4.68868E-06-9.46424E-19-1.77106E-18
 -1      1759 8.22912E-05-4.68191E-06-3.32999E-05-5.31458E-06-1.07835E-18-1.61073E-18
 -1      1760 7.84647E-05-2.97550E-06-3.23972E-05-4.09720E-06-6.53279E-19-1.92996E-18
 -1      1761 7.93187E-05-3.24527E-06-3.26381E-05-4.51681E-06-7.89011E-19-1.85860E-18
 -1      1762 8.07367E-05-5.03818E-06-3.24459E-05-4.30689E-06-9.41487E-19-1.69020E-18
 -1      1763 7.78573E-05-2.87122E-06-3.21619E-05-3.57757E-06-3.59554E-19-1.88538E-18
 -1      1764 7.79773E-05-2.82085E-06-3.22504E-05-3.98289E-06-5.07320E-19-1.92713E-18
 -1      1765 7.88439E-05-4.12482E-06-3.20293E-05-4.06208E-06-6.05464E-19-1.81543E-18
 -1      1766 7.85793E-05-3.49354E-06-3.21943E-05-2.76962E-06-5.08435E-20-1.81574E-18
 -1      1767 7.81127E-05-3.21212E-06-3.21472E-05-3.31669E-06-2.14658E-19-1.87480E-18
 -1      1768 7.86718E-05-4.33497E-06-3.18739E-05-3.69166E-06-3.25151E-19-1.75244E-18
 -1      1769 8.02323E-05-4.56906E-06-3.24407E-05-1.44760E-06 2.34787E-19-1.68749E-18
 -1      1770 7.93722E-05-4.15353E-06-3.22892E-05-2.22980E-06 6.77196E-20-1.72744E-18
 -1      1771 7.98524E-05-5.34954E-06-3.19559E-05-2.86416E-06-3.27448E-20-1.69845E-18
 -1      1772 8.24155E-05-5.85554E-06-3.28319E-05 4.66232E-07 5.40510E-19-1.64414E-18
 -1      1773 8.13426E-05-5.38358E-06-3.26117E-05-5.83926E-07 3.82482E-19-1.69121E-18
 -1      1774 8.19197E-05-6.82535E-06-3.22191E-05-1.41514E-06 3.04662E-19-1.58410E-18
 -1      1775 8.47988E-05-7.18925E-06-3.32947E-05 2.89185E-06 8.45481E-19-1.35425E-18
 -1      1776 8.36514E-05-6.70738E-06-3.30408E-05 1.60637E-06 6.74781E-19-1.54054E-18
 -1      1777 8.44287E-05-8.47928E-06-3.25915E-05 6.33506E-07 6.40999E-19-1.50076E-18
 -1      1778 8.73676E-05-8.63191E-06-3.37975E-05 5.82939E-06 1.23552E-18-9.50583E-19
 -1      1779 8.61279E-05-8.09555E-06-3.35194E-05 4.27787E-06 1.03143E-18-1.13827E-18
 -1      1780 8.71327E-05-1.02106E-05-3.30112E-05 3.18274E-06 1.00219E-18-1.11005E-18
 -1      1781 9.02409E-05-1.03971E-05-3.43081E-05 9.15050E-06 1.54200E-18-4.62215E-19
 -1      1782 8.88203E-05-9.69170E-06-3.40121E-05 7.35384E-06 1.36261E-18-7.86894E-19
 -1      1783 9.00276E-05-1.21279E-05-3.34279E-05 6.08342E-06 1.39700E-18-7.19012E-19
 -1      1784 9.39782E-05-1.31236E-05-3.48112E-05 1.27248E-05 1.73186E-18 5.40301E-19
 -1      1785 9.20551E-05-1.19108E-05-3.44869E-05 1.06628E-05 1.60963E-18-8.23740E-20
 -1      1786 9.33506E-05-1.45875E-05-3.37849E-05 9.04896E-06 1.68504E-18-1.62551E-19
 -1      1787 1.00088E-04-1.85353E-05-3.51720E-05 1.56106E-05 1.66708E-18 2.39022E-18
 -1      1788 9.66538E-05-1.56795E-05-3.48823E-05 1.38478E-05 1.64201E-18 1.31798E-18
 -1      1789 9.76849E-05-1.84206E-05-3.39748E-05 1.14554E-05 1.72476E-18 9.78905E-19
 -1      1790 1.06529E-04-2.66420E-05-3.46786E-05 1.28317E-05 1.38162E-18 4.43941E-18
 -1      1791 1.02493E-04-2.10564E-05-3.48921E-05 1.51157E-05 1.53226E-18 3.14217E-18
 -1      1792 1.01933E-04-2.35340E-05-3.36473E-05 1.13097E-05 1.62114E-18 2.42659E-18
 -1      1793 1.03800E-04-2.78313E-05-3.27658E-05 7.92927E-06 1.38707E-18 3.97444E-18
 -1      1794 1.07582E-04-2.19164E-05-3.64212E-05-1.43884E-05-1.32934E-18 2.85704E-18
 -1      1795 1.01042E-04-2.92166E-05-3.08016E-05 3.03969E-06 9.74869E-19 3.48340E-18
 -1      1796 1.03011E-04-2.91742E-05-3.16979E-05 5.14346E-06 1.08235E-18 3.75628E-18
 -1      1797 1.02617E-04-2.73977E-05-3.22211E-05 7.17632E-06 1.26666E-18 2.83579E-18
 -1      1798 1.06960E-04-2.44952E-05-3.50680E-05-9.32503E-06-1.46357E-18 2.21245E-18
 -1      1799 1.06612E-04-2.92943E-05-3.30167E-05 2.78410E-07-1.14005E-18 1.89322E-18
 -1      1800 1.06474E-04-2.96798E-05-3.28257E-05 2.63532E-06-9.78747E-19 1.64312E-18
 -1      1801 1.06544E-04-2.99994E-05-3.27092E-05 5.00321E-06-8.79750E-19 1.64177E-18
 -1      1802 1.07826E-04-3.06092E-05-3.30071E-05 6.63190E-06-7.75432E-19 1.33201E-18
 -1      1803 1.04438E-04-2.79719E-05-3.28106E-05 4.10750E-06-1.08654E-18 8.73542E-19
 -1      1804 1.08480E-04-3.09656E-05-3.31659E-05 8.49609E-06-5.50737E-19 1.35900E-18
 -1      1805 1.10700E-04-3.18571E-05-3.37327E-05 9.73804E-06-2.95330E-19 1.31297E-18
 -1      1806 1.05301E-04-2.90093E-05-3.27343E-05 8.85181E-06-7.28673E-19 7.42090E-19
 -1      1807 1.12001E-04-3.25269E-05-3.40302E-05 1.11332E-05-9.22323E-20 1.44724E-18
 -1      1808 1.14910E-04-3.38707E-05-3.47221E-05 1.18054E-05-4.95183E-20 1.28324E-18
 -1      1809 1.07365E-04-3.03801E-05-3.30379E-05 1.25065E-05-2.50667E-19 8.50391E-19
 -1      1810 1.17034E-04-3.51591E-05-3.50545E-05 1.23671E-05 5.96827E-20 1.54742E-18
 -1      1811 1.20276E-04-3.70973E-05-3.57091E-05 1.18922E-05 1.51626E-19 1.74833E-18
 -1      1812 1.10896E-04-3.29230E-05-3.34800E-05 1.47893E-05 1.21132E-19 9.28212E-19
 -1      1813 1.23561E-04-3.93458E-05-3.60186E-05 1.08056E-05 7.11243E-20 2.12910E-18
 -1      1814 1.26493E-04-4.17676E-05-3.64566E-05 8.33399E-06 3.54086E-19 2.24793E-18
 -1      1815 1.16447E-04-3.75323E-05-3.39158E-05 1.45455E-05 3.04753E-19 1.45504E-18
 -1      1816 1.31142E-04-4.49141E-05-3.68402E-05 4.49174E-06 6.57946E-19 2.41398E-18
 -1      1817 1.32643E-04-4.68075E-05-3.69896E-05-4.45782E-07 5.99541E-19 2.56965E-18
 -1      1818 1.24614E-04-4.45292E-05-3.44524E-05 9.82464E-06 5.53404E-19 1.93633E-18
 -1      1819 1.37679E-04-4.92582E-05-3.78634E-05-7.28585E-06 1.36161E-19 2.80384E-18
 -1      1820 1.36305E-04-4.82296E-05-3.79751E-05-1.31595E-05-1.67779E-19 2.72187E-18
 -1      1821 1.34701E-04-5.15141E-05-3.57870E-05-1.09310E-06 6.38253E-19 1.98477E-18
 -1      1822 1.38798E-04-4.65637E-05-3.98099E-05-1.95607E-05-4.15046E-19 2.75683E-18
 -1      1823 1.34228E-04-4.09503E-05-4.01910E-05-2.14660E-05-6.77309E-19 2.40638E-18
 -1      1824 1.42536E-04-5.19767E-05-3.90854E-05-1.55930E-05-1.67051E-19 2.32447E-18
 -1      1825 1.32916E-04-3.45962E-05-4.27569E-05-2.06571E-05-1.41899E-18 2.11803E-18
 -1      1826 1.28037E-04-2.77175E-05-4.33386E-05-1.44435E-05-1.73282E-18 1.28259E-18
 -1      1827 1.43490E-04-3.99402E-05-4.48224E-05-2.34941E-05-1.41338E-18 2.26539E-18
 -1      1828 1.26676E-04-2.41946E-05-4.45785E-05-4.22392E-06-1.97232E-18 3.85691E-19
 -1      1829 1.26890E-04-2.42726E-05-4.46530E-05 5.21382E-06-1.74192E-18-3.97761E-19
 -1      1830 1.39669E-04-2.36316E-05-5.00685E-05-1.19850E-05-2.61776E-18 6.42263E-19
 -1      1831 1.28543E-04-2.82146E-05-4.33697E-05 1.64034E-05-1.35631E-18-1.29893E-18
 -1      1832 1.33802E-04-3.53660E-05-4.28338E-05 2.20964E-05-1.17208E-18-1.57530E-18
 -1      1833 1.40010E-04-2.40129E-05-5.00262E-05 1.29710E-05-2.20694E-18-1.44906E-18
 -1      1834 1.35274E-04-4.17362E-05-4.02893E-05 2.26528E-05-1.14911E-18-1.91672E-18
 -1      1835 1.40180E-04-4.75784E-05-3.99625E-05 2.00276E-05-7.91499E-19-1.97830E-18
 -1      1836 1.43972E-04-4.06328E-05-4.46982E-05 2.45959E-05-1.62133E-18-3.27855E-18
 -1      1837 1.37416E-04-4.88618E-05-3.81545E-05 1.30616E-05-1.76739E-19-1.97881E-18
 -1      1838 1.38773E-04-4.96695E-05-3.81321E-05 6.98661E-06 7.01714E-19-1.79666E-18
 -1      1839 1.43135E-04-5.26351E-05-3.89503E-05 1.57445E-05-2.73803E-19-2.61495E-18
 -1      1840 1.33717E-04-4.69968E-05-3.73658E-05 2.37321E-07 8.55239E-19-1.44621E-18
 -1      1841 1.32201E-04-4.50218E-05-3.72513E-05-4.59052E-06 1.27346E-18-1.12008E-18
 -1      1842 1.34870E-04-5.15377E-05-3.58282E-05 8.15859E-07 1.10257E-18-2.35206E-18
 -1      1843 1.27690E-04-4.19229E-05-3.69041E-05-8.26179E-06 1.19418E-18-6.14509E-19
 -1      1844 1.24799E-04-3.95634E-05-3.64713E-05-1.06107E-05 5.77266E-19-2.93537E-19
 -1      1845 1.24944E-04-4.43278E-05-3.46701E-05-9.74589E-06 1.37894E-18-1.20390E-18
 -1      1846 1.21593E-04-3.74177E-05-3.61402E-05-1.16596E-05-2.71501E-19 1.61069E-20
 -1      1847 1.18378E-04-3.55784E-05-3.54700E-05-1.21289E-05-1.25229E-19-1.59070E-19
 -1      1848 1.17017E-04-3.75378E-05-3.41456E-05-1.42875E-05 6.78884E-19-1.86806E-19
 -1      1849 1.16185E-04-3.43674E-05-3.50659E-05-1.17283E-05-2.21073E-19-9.41265E-20
 -1      1850 1.13188E-04-3.31038E-05-3.43218E-05-1.12189E-05-2.11982E-19-2.87449E-19
 -1      1851 1.11514E-04-3.32235E-05-3.36007E-05-1.47164E-05-3.65397E-19 1.69235E-19
 -1      1852 1.11608E-04-3.24701E-05-3.38813E-05-1.02332E-05 2.86443E-19-2.61978E-19
 -1      1853 1.09041E-04-3.16191E-05-3.31827E-05-9.38108E-06 4.57385E-19-6.86841E-20
 -1      1854 1.07695E-04-3.09400E-05-3.29210E-05-1.31122E-05 1.13245E-19 1.98014E-19
 -1      1855 1.07765E-04-3.12714E-05-3.27358E-05-8.22731E-06 1.10177E-19-1.21086E-19
 -1      1856 1.05609E-04-3.06682E-05-3.21157E-05-7.32331E-06-3.78630E-19 2.96015E-19
 -1      1857 1.04839E-04-2.98259E-05-3.21606E-05-1.07625E-05 3.00899E-19-4.04268E-20
 -1      1858 1.04662E-04-3.04781E-05-3.17440E-05-6.33787E-06-1.03321E-18 1.06799E-19
 -1      1859 1.03060E-04-3.00830E-05-3.12710E-05-5.59679E-06-7.59719E-19-4.79448E-19
 -1      1860 1.02636E-04-2.93157E-05-3.14340E-05-8.42171E-06-6.54574E-19-9.77814E-20
 -1      1861 1.02289E-04-2.99521E-05-3.09592E-05-4.78411E-06-7.06353E-19-6.75910E-19
 -1      1862 1.01064E-04-2.96688E-05-3.05921E-05-4.19354E-06-7.40853E-19-7.69715E-19
 -1      1863 1.00936E-04-2.90731E-05-3.08080E-05-6.45036E-06-8.16598E-19-1.44471E-19
 -1      1864 1.00447E-04-2.95711E-05-3.03410E-05-3.55410E-06-3.65740E-19-7.68745E-19
 -1      1865 9.95248E-05-2.93658E-05-3.00621E-05-3.10141E-06-8.59606E-21-3.72467E-19
 -1      1866 9.95781E-05-2.89351E-05-3.02842E-05-4.85307E-06-5.75797E-19-8.77184E-20
 -1      1867 9.90361E-05-2.92890E-05-2.98650E-05-2.61150E-06-4.34831E-19-7.38268E-19
 -1      1868 9.83505E-05-2.91394E-05-2.96564E-05-2.27172E-06-5.10078E-19-7.78000E-19
 -1      1869 9.84999E-05-2.88411E-05-2.98615E-05-3.60632E-06-2.84065E-19-7.27907E-20
 -1      1870 9.79690E-05-2.90783E-05-2.95045E-05-1.90215E-06-1.10495E-20-4.74610E-19
 -1      1871 9.74641E-05-2.89696E-05-2.93500E-05-1.65009E-06 3.99088E-19-7.12036E-19
 -1      1872 9.76536E-05-2.87687E-05-2.95289E-05-2.65404E-06-1.71213E-19-4.30320E-20
 -1      1873 9.71705E-05-2.89214E-05-2.92346E-05-1.37391E-06 4.48511E-19-9.68726E-19
 -1      1874 9.68020E-05-2.88429E-05-2.91214E-05-1.18818E-06-2.81280E-19-1.16912E-18
 -1      1875 9.69978E-05-2.87103E-05-2.92718E-05-1.93611E-06 5.21466E-19-1.11992E-18
 -1      1876 9.65792E-05-2.88055E-05-2.90348E-05-9.83093E-07-6.39935E-19-1.00642E-18
 -1      1877 9.63131E-05-2.87495E-05-2.89526E-05-8.46888E-07-2.09665E-19-3.04016E-19
 -1      1878 9.64966E-05-2.86636E-05-2.90761E-05-1.39938E-06-1.14162E-19-1.02759E-18
 -1      1879 9.61463E-05-2.87212E-05-2.88883E-05-6.95391E-07 2.18904E-19-3.29406E-19
 -1      1880 9.59563E-05-2.86818E-05-2.88294E-05-5.95945E-07 4.72936E-19 6.59532E-19
 -1      1881 9.61187E-05-2.86271E-05-2.89288E-05-1.00057E-06 2.77197E-19 1.05894E-19
 -1      1882 9.58334E-05-2.86609E-05-2.87822E-05-4.84647E-07 3.79292E-19 2.59825E-19
 -1      1883 9.56997E-05-2.86339E-05-2.87405E-05-4.12429E-07 6.71880E-19 6.46448E-19
 -1      1884 9.58380E-05-2.85998E-05-2.88194E-05-7.05889E-07 4.42637E-19 7.19723E-19
 -1      1885 9.56106E-05-2.86190E-05-2.87064E-05-3.31210E-07 3.07982E-19 5.81175E-19
 -1      1886 9.55183E-05-2.86010E-05-2.86773E-05-2.79146E-07 3.86337E-19 6.56196E-19
 -1      1887 9.56326E-05-2.85802E-05-2.87391E-05-4.89502E-07 5.50203E-19 4.18121E-19
 -1      1888 9.54549E-05-2.85906E-05-2.86530E-05-2.20388E-07 5.92078E-19 7.80518E-19
 -1      1889 9.53928E-05-2.85792E-05-2.86332E-05-1.83223E-07 1.05063E-19-1.83035E-19
 -1      1890 9.54851E-05-2.85670E-05-2.86810E-05-3.31815E-07 6.13031E-19-4.59934E-19
 -1      1891 9.53486E-05-2.85722E-05-2.86163E-05-1.41191E-07 3.19662E-20-6.12563E-19
 -1      1892 9.53082E-05-2.85654E-05-2.86032E-05-1.15010E-07-2.22016E-19-4.13434E-19
 -1      1893 9.53814E-05-2.85588E-05-2.86396E-05-2.18026E-07 9.22716E-20-8.01802E-19
 -1      1894 9.52784E-05-2.85611E-05-2.85916E-05-8.53957E-08-1.12174E-18-8.40687E-19
 -1      1895 9.52534E-05-2.85575E-05-2.85833E-05-6.72450E-08-1.67694E-18-1.10005E-18
 -1      1896 9.53103E-05-2.85544E-05-2.86108E-05-1.36948E-07-8.93472E-19-2.02824E-18
 -1      1897 9.52332E-05-2.85550E-05-2.85753E-05-4.59005E-08-8.73892E-19-1.31567E-19
 -1      1898 9.52185E-05-2.85535E-05-2.85703E-05-3.31933E-08-1.13490E-19 7.56356E-19
 -1      1899 9.52624E-05-2.85523E-05-2.85907E-05-7.91362E-08-6.22255E-19-3.99508E-19
 -1      1900 9.52070E-05-2.85523E-05-2.85656E-05-1.97209E-08 5.77426E-21 7.57572E-19
 -1      1901 9.52004E-05-2.85524E-05-2.85631E-05-1.18820E-08 2.10803E-19 2.37903E-19
 -1      1902 9.52325E-05-2.85526E-05-2.85777E-05-3.95303E-08-1.66212E-19 9.64392E-19
 -1      1903 9.51940E-05-2.85521E-05-2.85604E-05-3.09916E-09 4.31265E-19-6.04169E-19
 -1      1904 9.51921E-05-2.85530E-05-2.85594E-05 1.76109E-09-5.59007E-19-1.76905E-19
 -1      1905 9.52156E-05-2.85537E-05-2.85698E-05-1.40495E-08 1.03300E-20 5.49666E-19
 -1      1906 9.51892E-05-2.85532E-05-2.85580E-05 7.18407E-09-1.05229E-18 2.33763E-19
 -1      1907 9.51904E-05-2.85545E-05-2.85580E-05 9.98532E-09-2.61662E-19 8.22345E-19
 -1      1908 9.52071E-05-2.85556E-05-2.85652E-05 2.25416E-09-9.32752E-19-7.50797E-20
 -1      1909 9.51898E-05-2.85551E-05-2.85576E-05 1.30676E-08-8.92560E-19 6.12455E-19
 -1      1910 9.51927E-05-2.85567E-05-2.85582E-05 1.44671E-08-4.24140E-19-6.55295E-19
 -1      1911 9.52042E-05-2.85577E-05-2.85630E-05 1.20838E-08-6.95763E-19-2.90138E-20
 -1      1912 9.51936E-05-2.85574E-05-2.85583E-05 1.59611E-08-3.43735E-19-9.68888E-19
 -1      1913 9.51975E-05-2.85590E-05-2.85593E-05 1.64367E-08 1.07274E-19-1.56545E-18
 -1      1914 9.52049E-05-2.85600E-05-2.85622E-05 1.74431E-08-1.03619E-18-5.77348E-19
 -1      1915 9.51992E-05-2.85598E-05-2.85597E-05 1.68849E-08 5.33472E-19-1.52483E-18
 -1      1916 9.52034E-05-2.85614E-05-2.85608E-05 1.67736E-08-3.53289E-20-1.15094E-18
 -1      1917 9.52078E-05-2.85621E-05-2.85625E-05 1.97948E-08 4.05542E-19-1.24665E-18
 -1      1918 9.52056E-05-2.85622E-05-2.85615E-05 1.65548E-08-9.95507E-19-1.06124E-18
 -1      1919 9.52098E-05-2.85636E-05-2.85626E-05 1.60829E-08-1.41106E-18-1.62925E-18
 -1      1920 9.52119E-05-2.85642E-05-2.85633E-05 2.01820E-08-4.56872E-19-1.66812E-18
 -1      1921 9.52121E-05-2.85644E-05-2.85633E-05 1.54467E-08-1.20568E-18-5.24652E-19
 -1      1922 9.52160E-05-2.85657E-05-2.85644E-05 1.47518E-08 1.34934E-19-1.63339E-19
 -1      1923 9.52165E-05-2.85660E-05-2.85645E-05 1.93187E-08-4.83384E-19-3.45260E-19
 -1      1924 9.52183E-05-2.85664E-05-2.85651E-05 1.38441E-08 1.14053E-18-2.93183E-19
 -1      1925 9.52218E-05-2.85676E-05-2.85661E-05 1.29897E-08 1.44800E-18 4.38164E-19
 -1      1926 9.52211E-05-2.85677E-05-2.85657E-05 1.76574E-08 9.90756E-19 9.33217E-19
 -1      1927 9.52239E-05-2.85683E-05-2.85668E-05 1.18732E-08 4.15192E-19-2.49810E-19
 -1      1928 9.52270E-05-2.85693E-05-2.85676E-05 1.08599E-08-7.74720E-19-9.39237E-19
 -1      1929 9.52255E-05-2.85693E-05-2.85669E-05 1.54425E-08 5.97374E-19 2.55970E-19
 -1      1930 9.52289E-05-2.85700E-05-2.85681E-05 9.53282E-09-3.80959E-19-3.75105E-19
 -1      1931 9.52313E-05-2.85709E-05-2.85688E-05 8.31802E-09 8.53763E-20 2.08609E-19
 -1      1932 9.52295E-05-2.85708E-05-2.85680E-05 1.27647E-08-5.10563E-19 1.30412E-18
 -1      1933 9.52329E-05-2.85715E-05-2.85692E-05 6.75334E-09-4.87915E-19 7.53021E-19
 -1      1934 9.52347E-05-2.85722E-05-2.85697E-05 5.35265E-09-1.84849E-18 8.85955E-19
 -1      1935 9.52330E-05-2.85723E-05-2.85688E-05 9.60668E-09-3.81748E-19 1.38071E-18
 -1      1936 9.52361E-05-2.85726E-05-2.85701E-05 3.17922E-09-2.53206E-18 2.19900E-18
 -1      1937 9.88598E-05-2.96040E-05-2.96684E-05 8.69611E-07 7.34930E-19 2.34598E-18
 -1      1938 9.93037E-05-2.95003E-05-2.98640E-05 1.09189E-06 6.89257E-19 2.60553E-18
 -1      1939 9.81348E-05-2.97309E-05-2.93223E-05 9.98438E-07 5.80757E-19 2.11452E-18
 -1      1940 9.85196E-05-2.96995E-05-2.94615E-05 8.28245E-07 7.03396E-19 2.23454E-18
 -1      1941 9.95747E-05-2.99157E-05-2.98628E-05 1.34867E-06 8.87800E-19 1.56309E-18
 -1      1942 9.73075E-05-2.96831E-05-2.89981E-05 1.74898E-06 5.84914E-19 1.67339E-18
 -1      1943 9.78366E-05-2.97629E-05-2.91631E-05 1.35350E-06 6.65574E-19 1.95700E-18
 -1      1944 9.90376E-05-3.02458E-05-2.94822E-05 1.64023E-06 9.21507E-19 1.33961E-18
 -1      1945 9.61085E-05-2.93688E-05-2.86186E-05 2.80599E-06 3.16522E-19 1.26152E-18
 -1      1946 9.69081E-05-2.96117E-05-2.88421E-05 2.32654E-06 3.52425E-19 1.46091E-18
 -1      1947 9.84104E-05-3.03156E-05-2.91744E-05 2.65284E-06 6.48480E-19 9.67586E-19
 -1      1948 9.44264E-05-2.87153E-05-2.81679E-05 3.78930E-06 2.02532E-19 1.11986E-18
 -1      1949 9.55091E-05-2.91423E-05-2.84492E-05 3.39513E-06 1.58637E-19 1.31777E-18
 -1      1950 9.74348E-05-3.00120E-05-2.88806E-05 3.95622E-06 3.44226E-19 9.06496E-19
 -1      1951 9.23640E-05-2.77467E-05-2.76830E-05 4.26655E-06 1.34297E-19 9.52015E-19
 -1      1952 9.36139E-05-2.83175E-05-2.79903E-05 4.14120E-06 8.26999E-20 1.05720E-18
 -1      1953 9.59923E-05-2.92546E-05-2.85880E-05 5.03696E-06 1.80656E-19 8.32112E-19
 -1      1954 9.02570E-05-2.66351E-05-2.72402E-05 3.86610E-06 2.49352E-19 1.27530E-18
 -1      1955 9.14415E-05-2.72326E-05-2.75183E-05 4.14777E-06 2.45082E-19 1.18099E-18
 -1      1956 9.41741E-05-2.80973E-05-2.83147E-05 5.34597E-06 1.01726E-19 9.42854E-19
 -1      1957 8.86114E-05-2.56887E-05-2.69311E-05 2.45550E-06 4.46142E-19 9.68321E-19
 -1      1958 8.94404E-05-2.61414E-05-2.71169E-05 3.15975E-06 3.56935E-19 1.23057E-18
 -1      1959 9.23197E-05-2.67944E-05-2.80957E-05 4.47022E-06 3.53322E-19 1.38528E-18
 -1      1960 8.79311E-05-2.52424E-05-2.68319E-05 2.74855E-07 3.70947E-19 5.98962E-19
 -1      1961 8.81592E-05-2.53917E-05-2.68753E-05 1.25401E-06 4.04213E-19 8.65037E-19
 -1      1962 9.09441E-05-2.57595E-05-2.79670E-05 2.36106E-06 4.47094E-19 9.94594E-19
 -1      1963 8.84911E-05-2.54881E-05-2.69762E-05-2.10342E-06 2.04942E-19 2.66385E-19
 -1      1964 8.80207E-05-2.52684E-05-2.68584E-05-1.11691E-06 3.02351E-19 4.87772E-19
 -1      1965 9.05269E-05-2.53913E-05-2.79534E-05-5.42291E-07 5.69865E-19 7.23185E-19
 -1      1966 9.01905E-05-2.63601E-05-2.73435E-05-4.01526E-06 3.22538E-19 1.43837E-19
 -1      1967 8.91164E-05-2.58352E-05-2.70842E-05-3.29080E-06 2.76106E-19 2.80659E-19
 -1      1968 9.12615E-05-2.58548E-05-2.80623E-05-3.44265E-06 1.96697E-19 1.31925E-19
 -1      1969 9.25958E-05-2.75734E-05-2.78650E-05-5.00269E-06 3.21666E-19 1.99099E-19
 -1      1970 9.11633E-05-2.69000E-05-2.75156E-05-4.69481E-06 5.16341E-19 2.65446E-19
 -1      1971 9.29410E-05-2.69824E-05-2.82816E-05-5.54174E-06 3.38004E-19 1.64548E-19
 -1      1972 9.51414E-05-2.87802E-05-2.84454E-05-4.97548E-06-1.67387E-19 1.14250E-19
 -1      1973 9.36478E-05-2.81289E-05-2.80717E-05-5.08058E-06 1.53667E-19 9.44309E-20
 -1      1974 9.50720E-05-2.83756E-05-2.85798E-05-6.39153E-06 3.69271E-19-3.99942E-20
 -1      1975 9.73490E-05-2.97234E-05-2.89901E-05-4.16366E-06 4.32615E-19-3.35256E-19
 -1      1976 9.60442E-05-2.92135E-05-2.86525E-05-4.56048E-06 1.11833E-19-1.35065E-19
 -1      1977 9.71195E-05-2.96230E-05-2.89110E-05-6.01783E-06 6.10906E-20-2.27622E-19
 -1      1978 9.89466E-05-3.02994E-05-2.94284E-05-2.94340E-06 2.18640E-19-5.42230E-19
 -1      1979 9.79787E-05-2.99768E-05-2.91676E-05-3.47065E-06 4.40232E-19-5.22773E-19
 -1      1980 9.87094E-05-3.04710E-05-2.92251E-05-4.79176E-06 3.92517E-19-4.35026E-19
 -1      1981 9.98705E-05-3.05316E-05-2.97241E-05-1.66641E-06-1.33841E-19-4.87483E-19
 -1      1982 9.92813E-05-3.03846E-05-2.95568E-05-2.18701E-06-1.79267E-20-4.57027E-19
 -1      1983 9.96930E-05-3.08648E-05-2.94797E-05-3.19475E-06 2.29665E-19-1.97069E-19
 -1      1984 1.00199E-04-3.05079E-05-2.98737E-05-5.67837E-07-2.74073E-19 3.99161E-19
 -1      1985 9.99530E-05-3.04950E-05-2.97963E-05-9.97693E-07-2.63566E-19 2.13510E-19
 -1      1986 1.00101E-04-3.08875E-05-2.96490E-05-1.62998E-06-5.86137E-19 1.76078E-19
 -1      1987 1.00077E-04-3.03271E-05-2.98974E-05 2.45609E-07-5.07919E-19 6.48591E-19
 -1      1988 1.00097E-04-3.04008E-05-2.98934E-05-6.08746E-08-3.94120E-19 7.38899E-19
 -1      1989 1.00056E-04-3.06732E-05-2.97264E-05-3.42076E-07-5.76843E-19 9.58034E-19
 -1      1990 9.96601E-05-3.00707E-05-2.98269E-05 7.63624E-07 3.44056E-19 2.58108E-19
 -1      1991 9.98594E-05-3.01902E-05-2.98748E-05 5.77256E-07 2.11460E-19 3.53546E-19
 -1      1992 9.97060E-05-3.03454E-05-2.97210E-05 5.75436E-07 1.74813E-19 9.71778E-19
 -1      1993 9.90824E-05-2.97952E-05-2.96960E-05 1.03023E-06 2.29771E-19-3.63281E-19
 -1      1994 9.93825E-05-2.99308E-05-2.97749E-05 9.42089E-07 2.06076E-19-6.32404E-20
 -1      1995 9.91821E-05-2.99914E-05-2.96513E-05 1.13325E-06 4.59059E-19 4.56091E-19
 -1      1996 9.84470E-05-2.95342E-05-2.95344E-05 1.10980E-06-9.10962E-20-3.52532E-19
 -1      1997 9.87865E-05-2.96669E-05-2.96271E-05 1.09232E-06 1.74032E-19-2.48981E-19
 -1      1998 9.85858E-05-2.96623E-05-2.95390E-05 1.39618E-06 2.62402E-20-4.04604E-19
 -1      1999 9.78242E-05-2.93048E-05-2.93649E-05 1.06594E-06 8.04225E-19-3.85783E-19
 -1      2000 9.81607E-05-2.94241E-05-2.94590E-05 1.09342E-06 1.22924E-20-3.12802E-19
 -1      2001 9.79872E-05-2.93812E-05-2.94042E-05 1.44579E-06 2.54135E-19-3.09446E-19
 -1      2002 9.72565E-05-2.91131E-05-2.92032E-05 9.51348E-07 4.95015E-19 6.62770E-20
 -1      2003 9.75640E-05-2.92143E-05-2.92907E-05 1.00328E-06 1.07479E-18 1.70628E-19
 -1      2004 9.74302E-05-2.91542E-05-2.92636E-05 1.35852E-06 5.52455E-19 6.77396E-19
 -1      2005 9.67654E-05-2.89590E-05-2.90584E-05 8.04886E-07-4.53731E-19-1.14163E-19
 -1      2006 9.70308E-05-2.90412E-05-2.91350E-05 8.66589E-07-1.12127E-19 4.09649E-20
 -1      2007 9.69386E-05-2.89780E-05-2.91287E-05 1.19591E-06 5.57172E-19 4.12003E-19
 -1      2008 9.63577E-05-2.88391E-05-2.89350E-05 6.52533E-07-4.72175E-19 2.14982E-19
 -1      2009 9.65767E-05-2.89034E-05-2.89989E-05 7.14491E-07-4.54236E-19 3.17876E-19
 -1      2010 9.65219E-05-2.88455E-05-2.90069E-05 1.00244E-06-5.26686E-19 1.96913E-19
 -1      2011 9.60307E-05-2.87483E-05-2.88338E-05 5.09916E-07 2.90945E-19-2.08649E-19
 -1      2012 9.62048E-05-2.87970E-05-2.88851E-05 5.66628E-07-1.07747E-19-2.20115E-20
 -1      2013 9.61803E-05-2.87485E-05-2.89019E-05 8.07343E-07-3.02001E-19 1.18516E-18
 -1      2014 9.57766E-05-2.86816E-05-2.87536E-05 3.85106E-07-4.60792E-19 5.20334E-19
 -1      2015 9.59103E-05-2.87173E-05-2.87934E-05 4.33922E-07 1.58180E-19 5.01277E-19
 -1      2016 9.59083E-05-2.86792E-05-2.88148E-05 6.27793E-07-2.32136E-19 1.31742E-18
 -1      2017 9.55849E-05-2.86339E-05-2.86921E-05 2.81099E-07-4.32310E-19 1.43312E-18
 -1      2018 9.56843E-05-2.86592E-05-2.87220E-05 3.21233E-07-3.04242E-19 7.34125E-19
 -1      2019 9.56976E-05-2.86311E-05-2.87447E-05 4.72307E-07-7.36627E-19 1.81462E-18
 -1      2020 9.54446E-05-2.86009E-05-2.86462E-05 1.97750E-07-4.12518E-19 6.74471E-19
 -1      2021 9.55160E-05-2.86181E-05-2.86680E-05 2.29532E-07-4.91499E-19 7.40782E-19
 -1      2022 9.55385E-05-2.85987E-05-2.86901E-05 3.43642E-07-3.08071E-19 1.52112E-18
 -1      2023 9.53453E-05-2.85790E-05-2.86132E-05 1.33172E-07-4.43293E-19 4.98931E-19
 -1      2024 9.53946E-05-2.85902E-05-2.86285E-05 1.57521E-07-2.81685E-19 5.84860E-19
 -1      2025 9.54218E-05-2.85778E-05-2.86488E-05 2.41037E-07-4.15166E-19 9.69959E-19
 -1      2026 9.52777E-05-2.85653E-05-2.85903E-05 8.46810E-08 6.74466E-19 7.36842E-19
 -1      2027 9.53102E-05-2.85721E-05-2.86005E-05 1.02759E-07-3.85198E-20 9.05801E-19
 -1      2028 9.53387E-05-2.85649E-05-2.86183E-05 1.61826E-07-2.85316E-19-8.79420E-20
 -1      2029 9.52340E-05-2.85575E-05-2.85751E-05 4.93871E-08 2.57893E-18 1.75467E-19
 -1      2030 9.52540E-05-2.85611E-05-2.85815E-05 6.23867E-08 1.87639E-18 8.95723E-19
 -1      2031 9.52815E-05-2.85578E-05-2.85967E-05 1.02509E-07 1.42532E-18 4.52084E-19
 -1      2032 9.52077E-05-2.85536E-05-2.85656E-05 2.45431E-08-1.07780E-19 3.90992E-19
 -1      2033 9.52188E-05-2.85551E-05-2.85693E-05 3.35678E-08 1.44432E-18 4.57586E-19
 -1      2034 9.52440E-05-2.85544E-05-2.85818E-05 5.94322E-08 1.86163E-18 1.41088E-18
 -1      2035 9.51939E-05-2.85525E-05-2.85603E-05 7.71912E-09-5.21801E-19-4.27342E-19
 -1      2036 9.51988E-05-2.85526E-05-2.85621E-05 1.37268E-08-4.13181E-19-2.35034E-19
 -1      2037 9.52209E-05-2.85536E-05-2.85721E-05 2.91683E-08 1.08239E-19 1.14229E-18
 -1      2038 9.51886E-05-2.85531E-05-2.85578E-05-3.12884E-09 4.32304E-20-4.62208E-19
 -1      2039 9.51893E-05-2.85523E-05-2.85583E-05 6.56010E-10-5.58255E-19-7.81771E-19
 -1      2040 9.52081E-05-2.85543E-05-2.85662E-05 8.71248E-09 1.35789E-19 2.09392E-19
 -1      2041 9.51888E-05-2.85548E-05-2.85573E-05-9.65430E-09-1.13271E-19-7.67481E-19
 -1      2042 9.51870E-05-2.85535E-05-2.85570E-05-7.45774E-09 4.45545E-19-1.38363E-18
 -1      2043 9.52024E-05-2.85558E-05-2.85630E-05-4.44910E-09 5.12281E-19-4.30087E-20
 -1      2044 9.51925E-05-2.85569E-05-2.85580E-05-1.31505E-08 1.26161E-19-1.46692E-18
 -1      2045 9.51891E-05-2.85554E-05-2.85572E-05-1.20517E-08 1.56627E-19-1.52711E-18
 -1      2046 9.52016E-05-2.85579E-05-2.85617E-05-1.23416E-08 2.50269E-19-1.06097E-18
 -1      2047 9.51982E-05-2.85593E-05-2.85594E-05-1.45954E-08 7.44324E-19-1.68720E-18
 -1      2048 9.51940E-05-2.85578E-05-2.85584E-05-1.42282E-08 3.50139E-19-1.85828E-18
 -1      2049 9.52037E-05-2.85601E-05-2.85616E-05-1.65431E-08 4.40710E-19-2.95959E-18
 -1      2050 9.52047E-05-2.85617E-05-2.85612E-05-1.47007E-08-9.47155E-20-1.67697E-18
 -1      2051 9.52003E-05-2.85602E-05-2.85601E-05-1.48031E-08 6.63867E-19-1.69349E-18
 -1      2052 9.52075E-05-2.85622E-05-2.85623E-05-1.82422E-08 4.07686E-19-1.73335E-18
 -1      2053 9.52114E-05-2.85640E-05-2.85632E-05-1.39552E-08 9.38488E-19-2.29704E-18
 -1      2054 9.52072E-05-2.85626E-05-2.85620E-05-1.43527E-08 5.74350E-19-1.68264E-18
 -1      2055 9.52123E-05-2.85643E-05-2.85635E-05-1.82983E-08 5.73877E-19-1.45131E-18
 -1      2056 9.52179E-05-2.85661E-05-2.85650E-05-1.26624E-08-3.92871E-19-2.25484E-18
 -1      2057 9.52139E-05-2.85648E-05-2.85639E-05-1.32540E-08 1.25657E-19-2.36879E-18
 -1      2058 9.52173E-05-2.85662E-05-2.85648E-05-1.72963E-08 7.96633E-20-2.57582E-18
 -1      2059 9.52237E-05-2.85680E-05-2.85668E-05-1.09685E-08-1.33220E-18-1.85181E-18
 -1      2060 9.52202E-05-2.85669E-05-2.85658E-05-1.17174E-08-5.75352E-19-2.05803E-18
 -1      2061 9.52222E-05-2.85679E-05-2.85661E-05-1.55943E-08-2.07968E-19-1.09199E-18
 -1      2062 9.52288E-05-2.85697E-05-2.85682E-05-8.89035E-09-6.92802E-19-1.93620E-18
 -1      2063 9.52259E-05-2.85687E-05-2.85674E-05-9.81594E-09-1.05360E-18-2.45390E-18
 -1      2064 9.52268E-05-2.85695E-05-2.85674E-05-1.33649E-08-6.37954E-19-4.63570E-19
 -1      2065 9.52328E-05-2.85712E-05-2.85693E-05-6.35523E-09-8.37241E-19-1.72141E-18
 -1      2066 9.52306E-05-2.85704E-05-2.85687E-05-7.51729E-09-1.07849E-18-2.36075E-18
 -1      2067 9.52308E-05-2.85711E-05-2.85684E-05-1.06707E-08-4.73673E-19-1.83357E-18
 -1      2068 9.52356E-05-2.85721E-05-2.85701E-05-3.61124E-09-2.54282E-19-5.87618E-19
 -1      2069 9.52340E-05-2.85716E-05-2.85697E-05-4.89551E-09-3.99863E-19-1.25033E-18
 -1      2070 9.52338E-05-2.85722E-05-2.85692E-05-7.62573E-09-1.18104E-18-2.84231E-18
 -1      2071 9.52360E-05-2.85730E-05-2.85699E-05-4.45147E-09-1.33326E-18 6.32872E-19
 -1      2072 9.52409E-05-2.85831E-05-2.85676E-05-8.44751E-09-2.07697E-18 3.22995E-18
 -1      2073 9.52399E-05-2.85809E-05-2.85681E-05-8.40436E-09-2.10513E-18 4.19293E-19
 -1      2074 9.52390E-05-2.85791E-05-2.85685E-05-8.03108E-09-2.29507E-18-3.57248E-18
 -1      2075 9.52379E-05-2.85770E-05-2.85690E-05-7.44583E-09-2.58590E-18-3.31594E-18
 -1      2076 9.52390E-05-2.85794E-05-2.85684E-05-1.03632E-08-1.10844E-18-7.47413E-19
 -1      2077 9.52367E-05-2.85746E-05-2.85695E-05-5.67224E-09-2.44351E-18-1.84060E-18
 -1      2078 9.52425E-05-2.85868E-05-2.85667E-05-7.69051E-09-1.66671E-18 3.77272E-19
 -1      2079 9.52417E-05-2.85848E-05-2.85672E-05-8.14265E-09-3.01654E-18 3.15887E-18
 -1      2080 9.52411E-05-2.85830E-05-2.85678E-05-1.03930E-08-1.32341E-18 2.14648E-18
 -1      2081 9.52439E-05-2.85899E-05-2.85659E-05-5.97621E-09-7.67728E-19 3.68041E-19
 -1      2082 9.52432E-05-2.85883E-05-2.85664E-05-6.82416E-09-1.26821E-18 9.85025E-19
 -1      2083 9.52429E-05-2.85862E-05-2.85672E-05-9.07121E-09-8.90533E-19 1.22700E-18
 -1      2084 9.52448E-05-2.85920E-05-2.85654E-05-3.59038E-09 5.43595E-19 2.97451E-19
 -1      2085 9.52444E-05-2.85910E-05-2.85657E-05-4.70060E-09-1.33708E-19 7.91437E-19
 -1      2086 9.52442E-05-2.85888E-05-2.85667E-05-6.66853E-09-3.42933E-19 1.10912E-18
 -1      2087 9.52452E-05-2.85930E-05-2.85652E-05-8.21315E-10 2.66034E-19 8.13054E-19
 -1      2088 9.52450E-05-2.85926E-05-2.85653E-05-2.06483E-09-1.22233E-19 1.03580E-18
 -1      2089 9.52451E-05-2.85904E-05-2.85663E-05-3.53297E-09 4.44889E-19 7.96171E-20
 -1      2090 9.52451E-05-2.85926E-05-2.85653E-05 2.03826E-09 1.35872E-19-5.06832E-19
 -1      2091 9.52452E-05-2.85930E-05-2.85652E-05 7.91270E-10 5.43578E-19 1.01868E-20
 -1      2092 9.52454E-05-2.85910E-05-2.85662E-05-2.14227E-11-6.37377E-19-1.16011E-20
 -1      2093 9.52444E-05-2.85910E-05-2.85657E-05 4.69216E-09-5.07718E-19 5.44001E-19
 -1      2094 9.52448E-05-2.85921E-05-2.85654E-05 3.57328E-09-7.03566E-19 1.22694E-18
 -1      2095 9.52451E-05-2.85904E-05-2.85663E-05 3.50072E-09 1.66047E-19-3.31787E-19
 -1      2096 9.52432E-05-2.85884E-05-2.85664E-05 6.80972E-09-1.05319E-18-2.72310E-18
 -1      2097 9.52439E-05-2.85900E-05-2.85659E-05 5.96360E-09-1.75001E-18 9.91256E-20
 -1      2098 9.52443E-05-2.85888E-05-2.85667E-05 6.64189E-09-1.69677E-18-6.67983E-19
 -1      2099 9.52417E-05-2.85849E-05-2.85672E-05 8.16663E-09 1.20668E-18 1.29362E-18
 -1      2100 9.52426E-05-2.85869E-05-2.85667E-05 7.69708E-09 6.79383E-21-7.89385E-19
 -1      2101 9.52429E-05-2.85863E-05-2.85672E-05 9.06419E-09-9.41092E-19-1.04472E-18
 -1      2102 9.52398E-05-2.85809E-05-2.85681E-05 8.44520E-09 1.68174E-18-2.23329E-18
 -1      2103 9.52409E-05-2.85831E-05-2.85676E-05 8.48955E-09 1.72121E-18-8.70086E-19
 -1      2104 9.52411E-05-2.85831E-05-2.85678E-05 1.04267E-08 6.64690E-19 5.28216E-19
 -1      2105 9.52379E-05-2.85770E-05-2.85690E-05 7.45331E-09 1.02506E-18 1.00924E-18
 -1      2106 9.52389E-05-2.85791E-05-2.85685E-05 8.06221E-09 1.09580E-18-8.53027E-19
 -1      2107 9.52390E-05-2.85794E-05-2.85684E-05 1.03916E-08 1.14236E-20-1.31095E-18
 -1      2108 9.96564E-05-2.94384E-05-3.00622E-05 1.43904E-06 8.33904E-19 2.80983E-18
 -1      2109 1.00524E-04-2.93399E-05-3.04545E-05 2.27734E-06 8.79214E-19 3.29843E-18
 -1      2110 1.00953E-04-2.88439E-05-3.09017E-05 3.43270E-06 1.06236E-18 2.42391E-18
 -1      2111 1.00124E-04-2.94045E-05-3.03143E-05 1.95546E-06 9.93695E-19 2.06376E-18
 -1      2112 6.05368E-05-3.87182E-05-9.78838E-06 4.40546E-05 2.67408E-18 4.43636E-18
 -1      2113 4.51217E-05-4.17425E-05-2.88425E-06 3.61052E-05 1.35441E-18 4.81930E-18
 -1      2114 1.34831E-04-3.90457E-05-4.04276E-05 4.05953E-05 4.01409E-18 3.78624E-18
 -1      2115 1.14536E-04-4.03984E-05-3.23086E-05 3.95140E-05 3.64902E-18 4.31563E-18
 -1      2116 1.19749E-05-3.13803E-05 7.33745E-06 1.08601E-05-7.10025E-19 4.69341E-18
 -1      2117 1.22109E-05-3.72331E-05 9.02898E-06 8.04349E-07-1.57818E-18 5.62430E-18
 -1      2118 1.00545E-04-4.15048E-05-2.51078E-05 4.60402E-05 3.08278E-18 4.76625E-18
 -1      2119 8.24261E-05-4.42935E-05-1.72292E-05 4.20594E-05 2.63935E-18 4.05094E-18
 -1      2120 8.45449E-05-6.18915E-06-3.36838E-05-5.73223E-06-1.18473E-18-1.38123E-18
 -1      2121 8.69330E-05-7.29957E-06-3.41829E-05-6.81516E-06-1.43003E-18-1.03136E-18
 -1      2122 8.99710E-05-1.10710E-05-3.38777E-05-6.03222E-06-1.49519E-18-7.69688E-19
 -1      2123 8.44819E-05-7.26190E-06-3.30938E-05-4.84045E-06-1.19559E-18-1.36705E-18
 -1      2124 1.62892E-04-3.58042E-05-5.37527E-05 2.57779E-05 4.25623E-18 1.46706E-18
 -1      2125 1.46062E-04-3.64749E-05-4.69506E-05 3.03739E-05 4.02764E-18 2.77657E-18
 -1      2126 1.77321E-04-2.70772E-05-6.35161E-05 1.04348E-05 4.48250E-18 6.84614E-19
 -1      2127 1.67323E-04-2.87401E-05-5.89559E-05 1.69810E-05 4.79717E-18 1.14519E-18
 -1      2128 1.89317E-04-2.50403E-05-6.89604E-05-3.29536E-07 4.29488E-18-3.43313E-20
 -1      2129 1.81700E-04-2.27013E-05-6.73168E-05 7.66449E-06 4.38594E-18 1.04651E-18
 -1      2130 1.73954E-04-2.21992E-05-6.44516E-05-8.67856E-06 4.18858E-18-1.23286E-18
 -1      2131 1.87958E-04-2.50739E-05-6.80360E-05-4.40941E-06 4.27709E-18-3.75024E-19
 -1      2132 1.64152E-04-1.26214E-05-6.38335E-05 3.92093E-07 4.63200E-18 7.79270E-20
 -1      2133 1.62124E-04-3.27921E-05-5.47791E-05-2.15813E-05 3.70519E-18-2.39795E-18
 -1      2134 1.70320E-04-2.99604E-05-5.97466E-05-1.23397E-05 3.68968E-18-1.42640E-18
 -1      2135 1.35263E-04-3.78363E-05-4.18153E-05-3.54695E-05 4.06661E-18-3.08744E-18
 -1      2136 1.54577E-04-3.76496E-05-4.93618E-05-3.27899E-05 3.79492E-18-2.98579E-18
 -1      2137 1.01435E-04-4.16060E-05-2.63394E-05-4.11749E-05 3.58549E-18-3.54060E-18
 -1      2138 1.21531E-04-3.95383E-05-3.45867E-05-4.39295E-05 3.87814E-18-3.37797E-18
 -1      2139 7.02329E-05-4.44651E-05-1.19478E-05-4.16624E-05 2.07565E-18-3.38241E-18
 -1      2140 8.73895E-05-4.17782E-05-1.95180E-05-4.62378E-05 2.99807E-18-3.68290E-18
 -1      2141 3.39887E-05-4.02727E-05 1.20817E-06-3.16290E-05 1.37473E-18-3.39787E-18
 -1      2142 4.76727E-05-3.73300E-05-4.95108E-06-4.11500E-05 2.01213E-18-3.71943E-18
 -1      2143 1.47588E-05-3.78182E-05 8.26207E-06-1.46531E-05 3.74389E-19-3.61302E-18
 -1      2144 2.04214E-05-3.60140E-05 5.47612E-06-2.34669E-05 1.40777E-18-3.46987E-18
 -1      2145 1.30786E-05-3.29685E-05 7.45695E-06 6.35911E-06-9.39360E-19-4.80522E-18
 -1      2146 1.19500E-05-3.53139E-05 8.52940E-06-4.14669E-06 2.52945E-19-4.32114E-18
 -1      2147 3.41424E-05-3.92383E-05 1.13503E-06 2.76613E-05-2.16671E-18-4.92783E-18
 -1      2148 2.32967E-05-3.77688E-05 4.93679E-06 1.93414E-05-6.87367E-19-4.87256E-18
 -1      2149 7.01581E-05-4.57298E-05-1.09534E-05 4.01426E-05-2.49663E-18-4.36365E-18
 -1      2150 5.03654E-05-4.58997E-05-3.50749E-06 3.15513E-05-2.14977E-18-4.56021E-18
 -1      2151 5.20107E-05-4.04026E-05-5.34580E-06 3.67387E-05-1.93971E-19-4.57885E-18
 -1      2152 1.16191E-04-5.08510E-05-2.79803E-05 3.87349E-05-3.90609E-18-3.25854E-18
 -1      2153 9.37568E-05-5.21237E-05-1.89541E-05 3.54800E-05-2.90193E-18-3.45822E-18
 -1      2154 1.56855E-04-4.91147E-05-4.54211E-05 2.95936E-05-4.61104E-18-2.72914E-18
 -1      2155 1.33423E-04-5.03513E-05-3.62766E-05 2.93597E-05-4.30674E-18-3.07092E-18
 -1      2156 1.83532E-04-4.31980E-05-5.90682E-05 1.22040E-05-3.93489E-18-2.01170E-18
 -1      2157 1.67272E-04-4.52449E-05-5.20612E-05 1.73100E-05-4.65116E-18-2.40727E-18
 -1      2158 1.96714E-04-3.31614E-05-6.83967E-05 2.63424E-06-3.04424E-18-1.77517E-18
 -1      2159 1.87364E-04-3.48157E-05-6.43617E-05 6.39074E-06-3.85336E-18-2.14426E-18
 -1      2160 2.01135E-04-3.10139E-05-7.08223E-05-1.05836E-06-2.50298E-18-3.39237E-19
 -1      2161 1.98570E-04-2.96733E-05-7.05893E-05 3.31336E-06-2.52924E-18-1.12232E-18
 -1      2162 1.88830E-04-3.35038E-05-6.54765E-05-3.88388E-06-3.24498E-18 2.62580E-20
 -1      2163 2.01049E-04-3.40611E-05-6.95013E-05-1.87082E-06-2.77912E-18-3.75236E-19
 -1      2164 1.77962E-04-2.20386E-05-6.50262E-05 5.68413E-06-3.11158E-18 1.14667E-19
 -1      2165 1.71774E-04-4.50286E-05-5.39215E-05-1.40554E-05-3.59314E-18 1.28749E-19
 -1      2166 1.84695E-04-4.23337E-05-5.99278E-05-7.87163E-06-3.12852E-18 8.72444E-20
 -1      2167 1.43226E-04-4.95329E-05-4.05567E-05-2.53477E-05-3.38178E-18 8.47033E-19
 -1      2168 1.64692E-04-4.91280E-05-4.86365E-05-2.36140E-05-3.88386E-18-2.22770E-19
 -1      2169 1.67904E-04-5.17746E-05-4.87666E-05-1.41718E-06-3.01340E-18-1.02745E-18
 -1      2170 1.04244E-04-5.15132E-05-2.38099E-05-3.30527E-05-3.43557E-18 2.22346E-18
 -1      2171 1.26609E-04-5.08127E-05-3.23299E-05-3.56176E-05-3.12470E-18 1.87406E-18
 -1      2172 6.68218E-05-4.89561E-05-9.23597E-06-3.31659E-05-3.31740E-18 1.58014E-18
 -1      2173 8.54563E-05-4.79253E-05-1.65656E-05-3.87194E-05-3.47199E-18 1.98248E-18
 -1      2174 3.46643E-05-4.34781E-05 2.07596E-06-2.46695E-05-2.72872E-18 2.76090E-18
 -1      2175 4.75825E-05-4.27963E-05-3.15060E-06-3.17707E-05-3.65283E-18 2.11218E-18
 -1      2176 1.52406E-05-3.87123E-05 8.39081E-06-7.74299E-06-1.22513E-18 6.14819E-18
 -1      2177 2.08854E-05-3.73335E-05 5.77520E-06-1.69733E-05-2.23447E-18 4.72348E-18
 -1      2178 1.50412E-05-2.60047E-05 4.00477E-06-6.06634E-06-1.72265E-19 6.22950E-18
 -1      2179 3.08753E-05-3.70510E-05 1.57470E-06 3.24659E-05 1.22057E-18 5.89874E-18
 -1      2180 2.13053E-05-3.44552E-05 4.79886E-06 2.56791E-05-4.26269E-19 5.16055E-18
 -1      2181 4.58227E-05-3.74705E-05-4.15174E-06 4.17427E-05-5.50571E-19 5.03434E-18
 -1      2182 9.52360E-05-2.85735E-05-2.85697E-05 5.53063E-09-8.54796E-19 1.64009E-18
 -1      2183 1.20371E-04-5.25386E-05-2.88968E-05 3.68268E-05 1.16912E-18 2.48541E-18
 -1      2184 1.05561E-04-2.64869E-05-3.39272E-05-4.52555E-06-1.41248E-18 1.80569E-18
 -1      2185 8.38303E-05-4.84911E-05-1.53011E-05 4.62475E-05 4.91279E-19 3.50481E-18
 -1      2186 1.45539E-04-4.61635E-05-4.19357E-05 2.21900E-05 2.66646E-18 5.87841E-19
 -1      2187 1.03090E-04-2.43381E-05-3.38359E-05-3.47871E-06-1.50564E-18 8.46993E-19
 -1      2188 9.52365E-05-2.85751E-05-2.85692E-05-8.17439E-09-1.87809E-18-2.09103E-18
 -1      2189 1.89182E-05-2.86533E-05 3.58597E-06 2.00349E-05-4.06576E-19 4.60955E-18
 -1      2190 1.79364E-05-1.96074E-05 9.79952E-07 1.45371E-05-1.14667E-19 5.20417E-18
 -1      2191 2.70051E-05-2.41411E-05-1.28611E-06 2.87737E-05-4.61209E-19 5.37972E-18
 -1      2192 9.52365E-05-2.85748E-05-2.85693E-05 6.56568E-09-5.59887E-20 1.80367E-18
 -1      2193 9.52362E-05-2.85752E-05-2.85690E-05 9.04697E-09-3.41150E-19 6.59909E-19
 -1      2194 3.31412E-05-3.54141E-05 2.17743E-07-2.66421E-05-4.48504E-19 3.38856E-18
 -1      2195 6.91066E-05-4.87674E-05-9.27213E-06-3.83463E-05-8.79644E-19 9.96111E-19
 -1      2196 1.45780E-04-6.07327E-05-3.62410E-05-1.95250E-05-1.66738E-18-1.18669E-18
 -1      2197 1.76133E-04-3.54070E-05-5.90281E-05 8.78836E-06-3.45716E-18-2.88415E-19
 -1      2198 1.77053E-04-2.30604E-05-6.44038E-05-4.45632E-06-3.33477E-18-8.87691E-19
 -1      2199 1.73981E-04-3.67472E-05-5.75496E-05-7.99235E-06-3.53975E-18-9.65618E-19
 -1      2200 1.64621E-04-5.38670E-05-4.65286E-05 7.37159E-06-3.54457E-18-5.94194E-19
 -1      2201 9.39795E-05-5.53289E-05-1.68216E-05 3.86761E-05-8.65668E-19-2.72289E-18
 -1      2202 2.23235E-05-2.74882E-05 1.73846E-06 1.67570E-05-1.67077E-19-5.17410E-18
 -1      2203 1.49443E-05-2.50225E-05 3.62113E-06-1.13487E-05-2.70204E-19-4.48207E-18
 -1      2204 3.23397E-05-3.20365E-05-6.52608E-07-3.47177E-05 4.23516E-22-3.62594E-18
 -1      2205 7.00860E-05-4.48379E-05-1.09878E-05-4.60268E-05 2.70627E-19-3.04085E-18
 -1      2206 1.08100E-04-5.23955E-05-2.39098E-05-4.11940E-05 1.17441E-18-1.99688E-18
 -1      2207 1.37038E-04-4.88051E-05-3.72811E-05-2.95333E-05 2.50574E-18-1.42683E-18
 -1      2208 1.64607E-04-2.38322E-05-5.96887E-05-4.26926E-06 3.65791E-18-5.43160E-19
 -1      2209 1.51512E-04-1.65125E-05-5.82596E-05 4.77767E-06 3.90863E-18 2.43734E-19
 -1      2210 1.51599E-04-2.50525E-05-5.40894E-05 2.38539E-06 3.26277E-18 3.59354E-19
 -1      2211 1.57702E-04-3.23923E-05-5.28739E-05 5.96199E-06 3.57448E-18-5.28125E-19
 -1      2212 1.62640E-04-1.76157E-05-6.13243E-05-4.75987E-07 4.18858E-18-3.44954E-19
 -1      2213 1.55297E-04-3.83135E-05-4.92465E-05-1.29201E-05 2.98156E-18-8.64397E-19
 -1      2214 1.36860E-04-6.09575E-05-3.24224E-05 2.59424E-05-2.39922E-18-1.48061E-18
 -1      2215 1.09483E-04-5.94524E-05-2.16933E-05-3.43472E-05-1.18669E-18 1.40607E-19
 -1      2216 7.88066E-05-5.20934E-06-3.15600E-05-4.01103E-06-5.29644E-19-1.72938E-18
 -1      2217 7.92480E-05-5.37122E-06-3.16979E-05-4.08778E-06-7.05408E-19-1.75216E-18
 -1      2218 8.01965E-05-5.90002E-06-3.18826E-05-3.68984E-06-8.35345E-19-1.66713E-18
 -1      2219 8.16383E-05-6.69872E-06-3.21488E-05-3.78012E-06-1.00034E-18-1.54026E-18
 -1      2220 8.01182E-05-6.82272E-06-3.13819E-05-3.61588E-06-7.34155E-19-1.55328E-18
 -1      2221 8.10775E-05-7.24397E-06-3.16411E-05-3.20947E-06 9.80788E-21-1.54586E-18
 -1      2222 8.00939E-05-6.58903E-06-3.15460E-05-3.77658E-06-1.70098E-19-1.59690E-18
 -1      2223 8.36599E-05-9.13449E-06-3.19422E-05-1.68261E-06 3.50206E-19-1.51044E-18
 -1      2224 8.23637E-05-8.32136E-06-3.17760E-05-2.58350E-06 1.56648E-19-1.51249E-18
 -1      2225 8.27026E-05-9.57376E-06-3.13515E-05-3.59235E-06 5.46022E-20-1.37419E-18
 -1      2226 8.64941E-05-1.11287E-05-3.23143E-05 4.74436E-07 7.01619E-19-1.28699E-18
 -1      2227 8.51115E-05-1.02745E-05-3.21161E-05-6.87099E-07 5.09954E-19-1.44401E-18
 -1      2228 8.56366E-05-1.17934E-05-3.16649E-05-1.92806E-06 3.62209E-19-1.31121E-18
 -1      2229 8.94299E-05-1.32021E-05-3.27025E-05 3.10978E-06 1.12630E-18-8.88597E-19
 -1      2230 8.80025E-05-1.22837E-05-3.24962E-05 1.73576E-06 8.81254E-19-1.10697E-18
 -1      2231 8.87339E-05-1.40654E-05-3.20187E-05 3.65411E-07 7.51728E-19-1.01974E-18
 -1      2232 9.24294E-05-1.54817E-05-3.30395E-05 5.89285E-06 1.44029E-18-5.41750E-19
 -1      2233 9.09444E-05-1.44016E-05-3.28556E-05 4.44514E-06 1.21605E-18-7.45733E-19
 -1      2234 9.18126E-05-1.63672E-05-3.23436E-05 2.95983E-06 1.10569E-18-7.09145E-19
 -1      2235 9.57402E-05-1.84001E-05-3.32513E-05 8.35848E-06 1.64436E-18 1.84494E-20
 -1      2236 9.40249E-05-1.68763E-05-3.31254E-05 7.07711E-06 1.53512E-18-3.36312E-19
 -1      2237 9.48665E-05-1.88719E-05-3.25620E-05 5.41123E-06 1.30794E-18-2.55288E-19
 -1      2238 9.97579E-05-2.26091E-05-3.31625E-05 9.57545E-06 1.54764E-18 1.23648E-18
 -1      2239 9.76067E-05-2.02131E-05-3.32067E-05 9.09738E-06 1.58722E-18 5.01721E-19
 -1      2240 9.81244E-05-2.20038E-05-3.25755E-05 7.06878E-06 1.42585E-18 3.38873E-19
 -1      2241 1.02290E-04-2.63977E-05-3.25914E-05 8.10926E-06 1.34445E-18 2.27663E-18
 -1      2242 1.00791E-04-2.40088E-05-3.29066E-05 9.15166E-06 1.47014E-18 1.67624E-18
 -1      2243 1.00338E-04-2.51589E-05-3.22249E-05 6.87940E-06 1.45713E-18 1.25079E-18
 -1      2244 1.01370E-04-2.76032E-05-3.16278E-05 5.36136E-06 1.29666E-18 2.14934E-18
 -1      2245 1.01437E-04-2.49397E-05-3.27404E-05 2.47360E-06-1.12139E-18 4.16788E-19
 -1      2246 1.01644E-04-2.56990E-05-3.25175E-05 5.34430E-06-9.80421E-19 3.60136E-19
 -1      2247 9.80549E-05-5.20302E-05-1.98618E-05 4.50266E-05-4.50410E-19 2.19306E-18
 -1      2248 7.79664E-05-4.63393E-05-1.33927E-05 4.59217E-05-7.53224E-19 2.58986E-18
 -1      2249 1.31006E-04-5.55904E-05-3.24782E-05 2.96904E-05 7.31413E-19 6.84191E-19
 -1      2250 1.17581E-04-5.61907E-05-2.61963E-05 3.50224E-05-2.22346E-19 1.36584E-18
 -1      2251 1.01527E-04-2.61692E-05-3.22543E-05 7.90670E-06-7.39771E-19 4.61827E-19
 -1      2252 1.02236E-04-2.68208E-05-3.22775E-05 1.01100E-05-5.41314E-19 4.13873E-19
 -1      2253 9.81924E-05-2.33646E-05-3.20750E-05 6.59572E-06-8.78848E-19 6.49717E-20
 -1      2254 1.02263E-04-2.72980E-05-3.20966E-05 1.23469E-05-4.00903E-19 5.61905E-19
 -1      2255 1.03628E-04-2.83486E-05-3.22250E-05 1.39933E-05-1.55520E-19 5.18201E-19
 -1      2256 9.81141E-05-2.45879E-05-3.15225E-05 1.16178E-05-3.99834E-19 1.40823E-19
 -1      2257 1.04267E-04-2.94322E-05-3.20273E-05 1.58611E-05 9.31670E-20 5.62632E-19
 -1      2258 1.06542E-04-3.14352E-05-3.21612E-05 1.66658E-05 3.61074E-19 6.97758E-19
 -1      2259 9.87251E-05-2.64817E-05-3.09956E-05 1.59412E-05-5.11032E-21 1.21759E-19
 -1      2260 1.08566E-04-3.38689E-05-3.19040E-05 1.78230E-05 5.90643E-19 7.32722E-19
 -1      2261 1.12149E-04-3.74189E-05-3.20155E-05 1.71221E-05 4.70606E-19 8.11082E-19
 -1      2262 1.01202E-04-3.05936E-05-3.03419E-05 1.93424E-05 4.05021E-19 1.60652E-19
 -1      2263 1.16769E-04-4.19178E-05-3.18481E-05 1.66459E-05 4.21584E-19 1.39456E-18
 -1      2264 1.21887E-04-4.69565E-05-3.21246E-05 1.34931E-05 8.71279E-19 1.39317E-18
 -1      2265 1.07491E-04-3.86744E-05-2.96504E-05 2.09154E-05 7.95311E-19 5.80297E-19
 -1      2266 1.30066E-04-5.31158E-05-3.27166E-05 9.68388E-06 1.10122E-18 1.63524E-18
 -1      2267 1.35700E-04-5.69246E-05-3.38127E-05 3.48666E-06 7.92082E-19 1.71496E-18
 -1      2268 1.19914E-04-5.10247E-05-2.97698E-05 1.83809E-05 1.12118E-18 1.23132E-18
 -1      2269 1.53623E-04-1.96831E-05-5.77341E-05 5.78697E-06-3.16367E-18-1.26843E-19
 -1      2270 1.56433E-04-2.82884E-05-5.55836E-05 1.56510E-05-2.86043E-18-1.42577E-18
 -1      2271 1.47611E-04-5.64538E-05-3.93615E-05 1.30996E-05-4.94376E-19-2.76138E-18
 -1      2272 1.45063E-04-5.94236E-05-3.66327E-05 6.06605E-06 6.24581E-19-2.33368E-18
 -1      2273 1.34758E-04-5.65583E-05-3.36289E-05-3.48955E-06 1.26716E-18-2.33362E-18
 -1      2274 1.29435E-04-5.24637E-05-3.26952E-05-9.44756E-06 1.62310E-18-2.06616E-18
 -1      2275 1.21535E-04-4.64528E-05-3.22171E-05-1.31899E-05 1.62045E-18-1.86366E-18
 -1      2276 1.16600E-04-4.15052E-05-3.19813E-05-1.62311E-05 1.77902E-18-1.37620E-18
 -1      2277 1.19102E-04-5.04062E-05-2.96926E-05-1.77790E-05 1.84939E-18-2.07703E-18
 -1      2278 1.12218E-04-3.72439E-05-3.21292E-05-1.67200E-05 1.19310E-18-1.34651E-18
 -1      2279 1.08733E-04-3.39110E-05-3.19819E-05-1.74661E-05 6.85200E-19-6.57300E-19
 -1      2280 1.07115E-04-3.82474E-05-2.96653E-05-2.02642E-05 1.58710E-18-2.24523E-18
 -1      2281 1.06772E-04-3.17231E-05-3.21411E-05-1.65636E-05 1.70403E-19-8.77324E-19
 -1      2282 1.04445E-04-2.99360E-05-3.19136E-05-1.60191E-05-2.74616E-19-4.48654E-19
 -1      2283 1.01142E-04-3.07917E-05-3.02154E-05-1.91041E-05 4.40967E-19-1.98986E-18
 -1      2284 1.03711E-04-2.90955E-05-3.19432E-05-1.46578E-05-4.42633E-20-3.88561E-19
 -1      2285 1.02076E-04-2.82603E-05-3.16436E-05-1.35715E-05 3.51245E-19-2.24439E-19
 -1      2286 9.86405E-05-2.73180E-05-3.05827E-05-1.65769E-05 1.98435E-19-1.08372E-18
 -1      2287 1.01818E-04-2.80969E-05-3.15556E-05-1.20991E-05 2.41064E-19-4.16057E-19
 -1      2288 1.00559E-04-2.77493E-05-3.12180E-05-1.08475E-05 7.46514E-20-1.23985E-18
 -1      2289 9.77266E-05-2.61746E-05-3.06572E-05-1.36636E-05-1.61710E-19-1.49031E-18
 -1      2290 1.00469E-04-2.78701E-05-3.10745E-05-9.59218E-06-1.60404E-19-7.69695E-19
 -1      2291 9.95269E-05-2.77562E-05-3.07712E-05-8.50216E-06-8.40381E-19-6.74061E-19
 -1      2292 9.73956E-05-2.61605E-05-3.05193E-05-1.09062E-05 2.58582E-19-1.53745E-18
 -1      2293 9.94360E-05-2.79369E-05-3.06072E-05-7.44746E-06-4.40103E-19 1.98707E-20
 -1      2294 9.86830E-05-2.79066E-05-3.03422E-05-6.53465E-06-1.03507E-19 4.57347E-19
 -1      2295 9.72044E-05-2.65445E-05-3.02747E-05-8.56383E-06-2.93295E-19-2.10464E-19
 -1      2296 9.85714E-05-2.80747E-05-3.01832E-05-5.68096E-06-4.29557E-19 3.92810E-19
 -1      2297 9.79694E-05-2.80716E-05-2.99627E-05-4.95189E-06-7.56719E-19-9.20714E-21
 -1      2298 9.69982E-05-2.69970E-05-2.99959E-05-6.61560E-06-5.49384E-19 5.28636E-19
 -1      2299 9.78425E-05-2.82044E-05-2.98209E-05-4.27798E-06-3.82052E-19 6.90696E-23
 -1      2300 9.73658E-05-2.82075E-05-2.96435E-05-3.71165E-06-3.45012E-19 2.28771E-19
 -1      2301 9.67589E-05-2.73964E-05-2.97251E-05-5.04510E-06-5.88856E-19-2.86696E-20
 -1      2302 9.72363E-05-2.83044E-05-2.95234E-05-3.18848E-06-6.99757E-19-7.28002E-20
 -1      2303 9.68636E-05-2.83072E-05-2.93839E-05-2.75591E-06-4.38735E-19-5.06689E-19
 -1      2304 9.65047E-05-2.77108E-05-2.94834E-05-3.80607E-06-7.76814E-19-1.03369E-18
 -1      2305 9.67422E-05-2.83753E-05-2.92855E-05-2.35443E-06 3.39947E-19-9.06318E-19
 -1      2306 9.64547E-05-2.83767E-05-2.91777E-05-2.02757E-06 9.60514E-19-6.22935E-19
 -1      2307 9.62578E-05-2.79450E-05-2.92784E-05-2.84315E-06-1.00971E-19-1.01261E-18
 -1      2308 9.63477E-05-2.84237E-05-2.90992E-05-1.72211E-06 7.38980E-19-1.10929E-18
 -1      2309 9.61290E-05-2.84244E-05-2.90171E-05-1.47698E-06-4.65661E-21-7.98956E-19
 -1      2310 9.60341E-05-2.81149E-05-2.91102E-05-2.10300E-06 5.98769E-19-8.76145E-19
 -1      2311 9.60390E-05-2.84567E-05-2.89554E-05-1.24624E-06-2.38158E-19-1.03719E-18
 -1      2312 9.58750E-05-2.84573E-05-2.88937E-05-1.06355E-06 9.41480E-19-1.50791E-19
 -1      2313 9.58417E-05-2.82368E-05-2.89756E-05-1.53899E-06 2.36923E-19-9.55094E-19
 -1      2314 9.58020E-05-2.84797E-05-2.88461E-05-8.90461E-07 7.24546E-19-7.16624E-19
 -1      2315 9.56809E-05-2.84807E-05-2.88002E-05-7.55149E-07 1.35878E-19-6.40423E-19
 -1      2316 9.56829E-05-2.83245E-05-2.88699E-05-1.11247E-06 1.54541E-20-2.20031E-18
 -1      2317 9.56235E-05-2.84965E-05-2.87640E-05-6.26267E-07 7.72672E-19-1.09635E-19
 -1      2318 9.55356E-05-2.84980E-05-2.87304E-05-5.26767E-07 1.01787E-18-2.32702E-19
 -1      2319 9.55562E-05-2.83879E-05-2.87881E-05-7.92365E-07 9.26354E-19-1.05442E-18
 -1      2320 9.54917E-05-2.85095E-05-2.87032E-05-4.31635E-07 7.30697E-19-2.92480E-19
 -1      2321 9.54291E-05-2.85115E-05-2.86789E-05-3.59114E-07 8.28173E-19-2.35640E-19
 -1      2322 9.54580E-05-2.84344E-05-2.87259E-05-5.54124E-07 8.60209E-19 1.00324E-18
 -1      2323 9.53963E-05-2.85200E-05-2.86588E-05-2.89627E-07 3.52117E-19-1.03321E-18
 -1      2324 9.53527E-05-2.85224E-05-2.86415E-05-2.37353E-07-3.02367E-19-1.16841E-18
 -1      2325 9.53839E-05-2.84689E-05-2.86790E-05-3.78516E-07 3.26625E-19-6.27379E-19
 -1      2326 9.53290E-05-2.85288E-05-2.86268E-05-1.87258E-07-1.10994E-18-1.47951E-18
 -1      2327 9.52995E-05-2.85314E-05-2.86148E-05-1.50058E-07-1.34876E-18-1.17826E-18
 -1      2328 9.53295E-05-2.84948E-05-2.86444E-05-2.50567E-07-5.61847E-19-1.61370E-18
 -1      2329 9.52820E-05-2.85366E-05-2.86039E-05-1.12928E-07-6.53071E-19-1.43102E-18
 -1      2330 9.52622E-05-2.85394E-05-2.85954E-05-8.60365E-08 1.76844E-19-5.02965E-19
 -1      2331 9.52898E-05-2.85146E-05-2.86186E-05-1.56972E-07-8.37549E-19-1.71479E-18
 -1      2332 9.52511E-05-2.85431E-05-2.85882E-05-6.18466E-08 1.81153E-19-5.62949E-19
 -1      2333 9.52396E-05-2.85457E-05-2.85830E-05-4.45087E-08-4.31077E-20-1.06891E-19
 -1      2334 9.52627E-05-2.85300E-05-2.86003E-05-9.10666E-08 1.48230E-19-1.73397E-18
 -1      2335 9.52324E-05-2.85487E-05-2.85781E-05-2.80881E-08 2.19886E-19-1.74160E-20
 -1      2336 9.52261E-05-2.85511E-05-2.85749E-05-1.66665E-08-3.37272E-19 3.90742E-19
 -1      2337 9.52453E-05-2.85412E-05-2.85879E-05-4.70794E-08-1.20842E-19-1.32637E-18
 -1      2338 9.52217E-05-2.85534E-05-2.85717E-05-5.93571E-09-7.04304E-19 1.08917E-18
 -1      2339 9.52188E-05-2.85556E-05-2.85699E-05 1.26527E-09-2.16666E-19 1.49304E-18
 -1      2340 9.52343E-05-2.85497E-05-2.85795E-05-1.75873E-08-5.22203E-20 1.04313E-18
 -1      2341 9.52164E-05-2.85573E-05-2.85679E-05 7.93252E-09-8.06211E-19 1.73165E-18
 -1      2342 9.52159E-05-2.85593E-05-2.85671E-05 1.21697E-08-1.32179E-18 1.04376E-18
 -1      2343 9.52281E-05-2.85561E-05-2.85739E-05 1.42644E-09-7.06412E-19 3.07651E-18
 -1      2344 9.52148E-05-2.85606E-05-2.85659E-05 1.59948E-08-1.86225E-18 6.71759E-19
 -1      2345 9.52157E-05-2.85623E-05-2.85657E-05 1.81978E-08-1.07468E-18 2.69033E-19
 -1      2346 9.52251E-05-2.85609E-05-2.85705E-05 1.30018E-08-1.17104E-18 1.24678E-18
 -1      2347 9.52156E-05-2.85634E-05-2.85652E-05 2.00821E-08-1.73200E-19-8.94389E-19
 -1      2348 9.52173E-05-2.85648E-05-2.85653E-05 2.09256E-08-1.49421E-19-1.18503E-18
 -1      2349 9.52243E-05-2.85645E-05-2.85686E-05 1.94061E-08-1.73849E-18 9.75336E-19
 -1      2350 9.52178E-05-2.85656E-05-2.85652E-05 2.15194E-08-6.15863E-21-1.98982E-18
 -1      2351 9.52199E-05-2.85668E-05-2.85656E-05 2.14788E-08-2.54986E-19-1.71461E-18
 -1      2352 9.52248E-05-2.85671E-05-2.85677E-05 2.23009E-08-5.48927E-19-1.70517E-18
 -1      2353 9.52207E-05-2.85675E-05-2.85657E-05 2.12353E-08 8.32352E-19-9.00518E-19
 -1      2354 9.52230E-05-2.85685E-05-2.85662E-05 2.06288E-08 1.10353E-18 1.01917E-18
 -1      2355 9.52262E-05-2.85691E-05-2.85674E-05 2.28721E-08 1.01521E-18 5.26602E-19
 -1      2356 9.52240E-05-2.85691E-05-2.85664E-05 1.98457E-08 5.31852E-19 6.87261E-20
 -1      2357 9.52262E-05-2.85700E-05-2.85669E-05 1.88665E-08 7.67050E-19-1.30220E-19
 -1      2358 9.52281E-05-2.85707E-05-2.85675E-05 2.19307E-08 7.77654E-19 8.39168E-20
 -1      2359 9.52273E-05-2.85706E-05-2.85672E-05 1.77179E-08 9.01638E-19 4.52081E-20
 -1      2360 9.52294E-05-2.85714E-05-2.85677E-05 1.64618E-08-2.98282E-19-6.25288E-19
 -1      2361 9.52302E-05-2.85720E-05-2.85678E-05 1.99931E-08 2.08266E-19-3.54189E-20
 -1      2362 9.52304E-05-2.85720E-05-2.85680E-05 1.50215E-08-1.95451E-19 1.15591E-18
 -1      2363 9.52323E-05-2.85728E-05-2.85684E-05 1.35146E-08 1.05881E-19 1.89078E-18
 -1      2364 9.52323E-05-2.85732E-05-2.85682E-05 1.73508E-08 4.62094E-19-4.98885E-20
 -1      2365 9.52335E-05-2.85736E-05-2.85686E-05 1.22957E-08-9.40154E-19 1.81994E-18
 -1      2366 9.52351E-05-2.85744E-05-2.85689E-05 1.05170E-08-8.91314E-19 1.39768E-18
 -1      2367 9.52369E-05-2.85766E-05-2.85687E-05 1.15750E-08-1.27879E-18 1.22316E-18
 -1      2368 9.52347E-05-2.85748E-05-2.85685E-05 1.45186E-08-5.14119E-19 2.23625E-18
 -1      2369 9.96183E-05-3.11912E-05-2.93483E-05 3.24510E-06 6.49643E-19 8.28999E-19
 -1      2370 1.00012E-04-3.11769E-05-2.94860E-05 2.61267E-06 8.70801E-19 1.07798E-18
 -1      2371 9.99391E-05-3.09074E-05-2.96093E-05 2.03667E-06 1.01706E-18 1.06213E-18
 -1      2372 1.00220E-04-3.06686E-05-2.97746E-05 1.69699E-06 1.02754E-18 1.24986E-18
 -1      2373 1.01139E-04-3.16959E-05-2.97655E-05 2.55681E-06 1.03216E-18 9.00853E-19
 -1      2374 1.00096E-04-3.01961E-05-2.99746E-05 1.58829E-06 9.65002E-19 1.14072E-18
 -1      2375 1.00363E-04-2.97842E-05-3.02107E-05 1.77034E-06 8.51990E-19 1.29060E-18
 -1      2376 1.00877E-04-3.07102E-05-3.00860E-05 1.88638E-06 9.92151E-19 8.41115E-19
 -1      2377 9.89048E-05-3.08965E-05-2.91571E-05 4.73709E-06 2.93448E-19 7.92202E-19
 -1      2378 9.95136E-05-3.11888E-05-2.92827E-05 4.05986E-06 4.27149E-19 7.98928E-19
 -1      2379 1.01152E-04-3.20719E-05-2.95989E-05 3.99972E-06 6.02811E-19 7.60369E-19
 -1      2380 9.76585E-05-2.99023E-05-2.90286E-05 5.90680E-06 1.21762E-19 7.22251E-19
 -1      2381 9.84955E-05-3.05328E-05-2.91409E-05 5.47892E-06 2.75469E-19 8.07821E-19
 -1      2382 1.00651E-04-3.16364E-05-2.95615E-05 5.66065E-06 3.94219E-19 8.41333E-19
 -1      2383 9.59540E-05-2.82939E-05-2.89644E-05 6.09380E-06-3.96104E-20 8.35471E-19
 -1      2384 9.69121E-05-2.91707E-05-2.90539E-05 6.20173E-06-1.18433E-19 7.55662E-19
 -1      2385 9.94673E-05-3.02778E-05-2.96351E-05 6.81023E-06 1.02902E-19 9.46461E-19
 -1      2386 9.41654E-05-2.64838E-05-2.89592E-05 4.82060E-06 3.24960E-19 9.46709E-19
 -1      2387 9.50196E-05-2.73597E-05-2.90159E-05 5.62143E-06 2.17838E-19 8.58799E-19
 -1      2388 9.77178E-05-2.82021E-05-2.97861E-05 6.68173E-06 3.43048E-20 5.26746E-19
 -1      2389 9.28908E-05-2.51353E-05-2.89943E-05 2.09970E-06 5.16171E-19 9.59546E-19
 -1      2390 9.33715E-05-2.56812E-05-2.90123E-05 3.49934E-06 4.52469E-19 1.08640E-18
 -1      2391 9.59031E-05-2.60363E-05-2.99570E-05 4.80323E-06 3.99666E-19 6.53987E-19
 -1      2392 9.26757E-05-2.48479E-05-2.90452E-05-1.42284E-06 4.22729E-19 1.01238E-18
 -1      2393 9.25970E-05-2.48229E-05-2.90236E-05 2.13295E-07 6.87351E-19 1.11256E-18
 -1      2394 9.47548E-05-2.46467E-05-3.00774E-05 1.36447E-06 5.18690E-19 9.94143E-19
 -1      2395 9.36709E-05-2.57757E-05-2.90991E-05-4.69749E-06 3.49403E-19 8.33681E-19
 -1      2396 9.30364E-05-2.51810E-05-2.90389E-05-3.30400E-06 3.70938E-19 1.05528E-18
 -1      2397 9.48232E-05-2.46700E-05-3.00958E-05-2.69638E-06 5.43810E-19 1.37977E-18
 -1      2398 9.55183E-05-2.75215E-05-2.91603E-05-6.79118E-06 4.79784E-19 2.93242E-19
 -1      2399 9.45207E-05-2.65964E-05-2.90657E-05-6.00395E-06 4.01550E-19 3.65032E-19
 -1      2400 9.60979E-05-2.61061E-05-3.00090E-05-6.10817E-06 5.67398E-19 1.13541E-18
 -1      2401 9.75755E-05-2.94055E-05-2.92393E-05-7.31219E-06 4.93580E-19-2.64938E-20
 -1      2402 9.64925E-05-2.84756E-05-2.91203E-05-7.23404E-06 5.06437E-19 7.98271E-20
 -1      2403 9.80129E-05-2.83194E-05-2.98596E-05-7.93124E-06 5.70568E-19 6.91393E-20
 -1      2404 9.92673E-05-3.08558E-05-2.93379E-05-6.46622E-06 2.29490E-19-4.58208E-19
 -1      2405 9.83375E-05-3.01637E-05-2.92110E-05-6.95761E-06 4.14284E-19-2.35639E-20
 -1      2406 9.98258E-05-3.04611E-05-2.97064E-05-7.95259E-06 5.10801E-19-2.44425E-19
 -1      2407 1.00302E-04-3.16250E-05-2.94432E-05-4.80187E-06 5.87488E-19-5.90213E-19
 -1      2408 9.96563E-05-3.12592E-05-2.93277E-05-5.60638E-06 4.80843E-19-7.28024E-19
 -1      2409 1.01018E-04-3.19203E-05-2.95911E-05-6.59716E-06 6.21759E-19-8.33644E-19
 -1      2410 1.00671E-04-3.17640E-05-2.95337E-05-2.89867E-06-2.03804E-19-1.66887E-19
 -1      2411 1.00331E-04-3.16866E-05-2.94459E-05-3.76850E-06 3.46122E-19-1.46570E-19
 -1      2412 1.01442E-04-3.25138E-05-2.95247E-05-4.55430E-06 3.07044E-19-7.53014E-19
 -1      2413 1.00524E-04-3.14747E-05-2.95899E-05-1.17430E-06-7.98947E-19 2.60323E-19
 -1      2414 1.00445E-04-3.15910E-05-2.95389E-05-1.93961E-06-7.86778E-19 2.00152E-19
 -1      2415 1.01231E-04-3.23916E-05-2.94940E-05-2.44057E-06-5.07854E-19 3.79333E-19
 -1      2416 1.00054E-04-3.09740E-05-2.96008E-05 1.59085E-07-8.11987E-19 6.42756E-19
 -1      2417 1.00164E-04-3.11877E-05-2.95878E-05-4.20067E-07-6.78272E-19 5.23862E-19
 -1      2418 1.00622E-04-3.18378E-05-2.94764E-05-6.43870E-07-9.13479E-19 3.60673E-19
 -1      2419 9.94238E-05-3.04242E-05-2.95660E-05 1.05171E-06 4.99203E-19 5.32230E-19
 -1      2420 9.96507E-05-3.06645E-05-2.95859E-05 6.72846E-07-7.88378E-20 7.02083E-19
 -1      2421 9.98354E-05-3.11167E-05-2.94519E-05 6.73713E-07-4.36671E-19 6.36587E-19
 -1      2422 9.87493E-05-2.99209E-05-2.94933E-05 1.55040E-06 3.80567E-19 6.68810E-19
 -1      2423 9.90348E-05-3.01456E-05-2.95374E-05 1.34653E-06 6.40385E-19 8.93698E-19
 -1      2424 9.90238E-05-3.04081E-05-2.94095E-05 1.50602E-06 2.30757E-19 6.75275E-19
 -1      2425 9.81009E-05-2.95058E-05-2.93941E-05 1.74359E-06-3.25428E-19 8.31449E-19
 -1      2426 9.84027E-05-2.96955E-05-2.94532E-05 1.67319E-06 2.27761E-19 8.91705E-19
 -1      2427 9.82733E-05-2.98054E-05-2.93469E-05 1.92920E-06 6.09113E-20 1.71858E-18
 -1      2428 9.75162E-05-2.91871E-05-2.92810E-05 1.72574E-06 1.78383E-19 1.07929E-18
 -1      2429 9.78065E-05-2.93368E-05-2.93468E-05 1.74595E-06-2.38681E-19 6.79530E-19
 -1      2430 9.76217E-05-2.93392E-05-2.92675E-05 2.04802E-06-2.24388E-19 1.65336E-18
 -1      2431 9.70112E-05-2.89549E-05-2.91648E-05 1.57900E-06 4.01637E-19 1.32500E-18
 -1      2432 9.72736E-05-2.90675E-05-2.92306E-05 1.65319E-06 4.41726E-19 1.28481E-18
 -1      2433 9.70780E-05-2.90041E-05-2.91779E-05 1.96433E-06 8.29122E-20 2.24949E-18
 -1      2434 9.65887E-05-2.87934E-05-2.90536E-05 1.36656E-06 2.99412E-19 1.17251E-18
 -1      2435 9.68155E-05-2.88746E-05-2.91150E-05 1.46698E-06 6.02608E-19 9.96412E-19
 -1      2436 9.66360E-05-2.87781E-05-2.90850E-05 1.76255E-06 4.54317E-19 1.93428E-18
 -1      2437 9.62445E-05-2.86855E-05-2.89527E-05 1.13259E-06-9.29323E-19 1.06795E-18
 -1      2438 9.64335E-05-2.87421E-05-2.90071E-05 1.24013E-06-5.54729E-19 1.19310E-18
 -1      2439 9.62837E-05-2.86353E-05-2.89949E-05 1.50563E-06-1.66264E-19 2.20950E-18
 -1      2440 9.59702E-05-2.86166E-05-2.88649E-05 9.05226E-07-5.06425E-19 1.57703E-18
 -1      2441 9.61230E-05-2.86547E-05-2.89112E-05 1.00797E-06-5.02108E-19 1.44976E-18
 -1      2442 9.60071E-05-2.85520E-05-2.89117E-05 1.23650E-06-8.32757E-19 2.10501E-18
 -1      2443 9.57564E-05-2.85750E-05-2.87913E-05 7.00338E-07-9.21256E-19 2.41487E-18
 -1      2444 9.58765E-05-2.85995E-05-2.88293E-05 7.91764E-07-7.87821E-19 1.85356E-18
 -1      2445 9.57930E-05-2.85087E-05-2.88382E-05 9.81751E-07-1.14871E-18 1.66620E-18
 -1      2446 9.55931E-05-2.85517E-05-2.87315E-05 5.25197E-07-7.04962E-19 2.12489E-18
 -1      2447 9.56850E-05-2.85667E-05-2.87617E-05 6.02535E-07-1.99723E-19 2.53058E-18
 -1      2448 9.56296E-05-2.84911E-05-2.87754E-05 7.55794E-07-6.75744E-19 2.58387E-18
 -1      2449 9.54711E-05-2.85404E-05-2.86842E-05 3.81461E-07-1.01878E-19 1.80364E-18
 -1      2450 9.55396E-05-2.85488E-05-2.87075E-05 4.44332E-07-2.14400E-19 2.08497E-18
 -1      2451 9.55066E-05-2.84888E-05-2.87234E-05 5.64626E-07 3.60253E-20 2.39450E-18
 -1      2452 9.53820E-05-2.85365E-05-2.86478E-05 2.67441E-07-6.12297E-19 1.08508E-18
 -1      2453 9.54317E-05-2.85406E-05-2.86653E-05 3.16859E-07-3.94012E-19 1.13108E-18
 -1      2454 9.54156E-05-2.84948E-05-2.86815E-05 4.08838E-07 1.34057E-19 1.36947E-18
 -1      2455 9.53187E-05-2.85370E-05-2.86205E-05 1.79699E-07 1.68930E-19 2.54539E-19
 -1      2456 9.53536E-05-2.85383E-05-2.86333E-05 2.17376E-07-3.96775E-20 9.52731E-19
 -1      2457 9.53495E-05-2.85048E-05-2.86487E-05 2.85873E-07-2.93784E-21 6.38352E-19
 -1      2458 9.52752E-05-2.85399E-05-2.86006E-05 1.14107E-07 1.84725E-18 5.90319E-19
 -1      2459 9.52987E-05-2.85395E-05-2.86097E-05 1.41993E-07 5.54703E-19 3.29123E-19
 -1      2460 9.53026E-05-2.85160E-05-2.86236E-05 1.91589E-07 6.05715E-19 4.68165E-19
 -1      2461 9.52464E-05-2.85439E-05-2.85866E-05 6.64939E-08 6.71000E-19 2.04860E-18
 -1      2462 9.52615E-05-2.85426E-05-2.85928E-05 8.65099E-08 1.99679E-18 1.29513E-18
 -1      2463 9.52701E-05-2.85269E-05-2.86049E-05 1.21295E-07 1.10338E-18 1.27022E-18
 -1      2464 9.52286E-05-2.85482E-05-2.85772E-05 3.30215E-08 6.77782E-19 1.22841E-18
 -1      2465 9.52375E-05-2.85465E-05-2.85811E-05 4.69058E-08 4.96380E-19 1.58497E-18
 -1      2466 9.52485E-05-2.85366E-05-2.85913E-05 7.03739E-08 9.41592E-19 1.82125E-18
 -1      2467 9.52184E-05-2.85524E-05-2.85711E-05 1.03553E-08 1.71866E-19 4.02741E-19
 -1      2468 9.52230E-05-2.85505E-05-2.85734E-05 1.95980E-08 6.59247E-19 7.67726E-19
 -1      2469 9.52348E-05-2.85448E-05-2.85818E-05 3.46347E-08 9.95467E-19 1.24080E-18
 -1      2470 9.52137E-05-2.85562E-05-2.85674E-05-4.27727E-09 1.18872E-18-6.00366E-19
 -1      2471 9.52153E-05-2.85543E-05-2.85687E-05 1.54940E-09 2.03545E-19 3.81511E-19
 -1      2472 9.52268E-05-2.85516E-05-2.85753E-05 1.04680E-08 5.37210E-19 8.24952E-19
 -1      2473 9.52126E-05-2.85595E-05-2.85655E-05-1.31018E-08 2.52221E-19-4.59220E-19
 -1      2474 9.52123E-05-2.85578E-05-2.85660E-05-9.71757E-09 8.51901E-19-3.57907E-19
 -1      2475 9.52228E-05-2.85570E-05-2.85712E-05-5.10995E-09 8.57540E-19 1.21840E-18
 -1      2476 9.52138E-05-2.85624E-05-2.85649E-05-1.78481E-08 6.12449E-19-5.99051E-19
 -1      2477 9.52123E-05-2.85608E-05-2.85648E-05-1.61577E-08 3.59210E-19-4.62063E-19
 -1      2478 9.52215E-05-2.85613E-05-2.85688E-05-1.44841E-08 7.87868E-19 1.57939E-18
 -1      2479 9.52164E-05-2.85648E-05-2.85650E-05-1.98166E-08-2.27674E-19 1.49745E-19
 -1      2480 9.52143E-05-2.85634E-05-2.85646E-05-1.92645E-08 4.01296E-19-6.82519E-19
 -1      2481 9.52219E-05-2.85645E-05-2.85675E-05-1.95017E-08 5.53668E-19 1.83421E-18
 -1      2482 9.52197E-05-2.85668E-05-2.85655E-05-1.99456E-08 4.98291E-19-2.19944E-19
 -1      2483 9.52173E-05-2.85656E-05-2.85650E-05-2.01382E-08 3.61095E-19 1.98071E-20
 -1      2484 9.52234E-05-2.85670E-05-2.85671E-05-2.15462E-08-3.24182E-20 8.99396E-19
 -1      2485 9.52233E-05-2.85685E-05-2.85663E-05-1.88732E-08-1.30169E-19-1.53517E-19
 -1      2486 9.52208E-05-2.85675E-05-2.85657E-05-1.95511E-08-8.78829E-20-7.76422E-20
 -1      2487 9.52255E-05-2.85690E-05-2.85671E-05-2.16121E-08 3.96072E-19 1.18556E-18
 -1      2488 9.52268E-05-2.85701E-05-2.85672E-05-1.69920E-08-1.17918E-19 4.07599E-19
 -1      2489 9.52245E-05-2.85691E-05-2.85666E-05-1.80062E-08-3.98592E-19 9.50539E-20
 -1      2490 9.52278E-05-2.85705E-05-2.85674E-05-2.03737E-08-2.59998E-19 1.27576E-18
 -1      2491 9.52301E-05-2.85715E-05-2.85680E-05-1.45005E-08-3.72958E-19 4.28743E-20
 -1      2492 9.52280E-05-2.85706E-05-2.85675E-05-1.57850E-08 2.83104E-19 5.14710E-19
 -1      2493 9.52303E-05-2.85719E-05-2.85679E-05-1.82473E-08 3.36057E-19 5.13140E-19
 -1      2494 9.52332E-05-2.85729E-05-2.85687E-05-1.14811E-08 3.51586E-19-1.74041E-18
 -1      2495 9.52313E-05-2.85721E-05-2.85683E-05-1.29802E-08 5.77919E-19-5.60101E-19
 -1      2496 9.52327E-05-2.85733E-05-2.85683E-05-1.54397E-08 1.07304E-18-5.74980E-19
 -1      2497 9.52353E-05-2.85746E-05-2.85689E-05-9.75934E-09-1.50504E-18-2.56980E-18
 -1      2498 9.52438E-05-2.85859E-05-2.85676E-05-9.88674E-09 6.66897E-19 2.15991E-18
 -1      2499 9.52428E-05-2.85844E-05-2.85679E-05-1.09136E-08 2.01736E-19 1.72042E-18
 -1      2500 9.52418E-05-2.85830E-05-2.85680E-05-1.17927E-08-1.20333E-18 1.78604E-18
 -1      2501 9.52406E-05-2.85813E-05-2.85683E-05-1.21662E-08-7.79647E-19 1.82127E-18
 -1      2502 9.52425E-05-2.85829E-05-2.85684E-05-1.28285E-08 4.71854E-19 2.40988E-18
 -1      2503 9.52393E-05-2.85797E-05-2.85684E-05-1.22557E-08-2.63288E-19-5.43713E-19
 -1      2504 9.52379E-05-2.85778E-05-2.85686E-05-1.18533E-08 1.41325E-19-2.51033E-18
 -1      2505 9.52397E-05-2.85798E-05-2.85685E-05-1.38884E-08-9.36931E-19-2.34431E-19
 -1      2506 9.52453E-05-2.85880E-05-2.85674E-05-6.87591E-09 1.31662E-18 1.23557E-18
 -1      2507 9.52446E-05-2.85869E-05-2.85676E-05-8.38016E-09 8.96883E-19 1.63538E-18
 -1      2508 9.52447E-05-2.85854E-05-2.85683E-05-1.02993E-08 1.65032E-18 2.93125E-18
 -1      2509 9.52461E-05-2.85892E-05-2.85672E-05-3.14082E-09-8.75679E-19-7.10614E-19
 -1      2510 9.52458E-05-2.85887E-05-2.85673E-05-4.94049E-09-2.16000E-19 7.70978E-20
 -1      2511 9.52462E-05-2.85872E-05-2.85682E-05-6.65459E-09 4.34917E-19-2.67046E-19
 -1      2512 9.52463E-05-2.85895E-05-2.85672E-05 9.18231E-10-7.96264E-19-3.10033E-19
 -1      2513 9.52463E-05-2.85895E-05-2.85672E-05-9.83915E-10-1.50775E-18 1.11991E-18
 -1      2514 9.52470E-05-2.85881E-05-2.85681E-05-2.32619E-09-1.30683E-18 8.83694E-20
 -1      2515 9.52458E-05-2.85887E-05-2.85673E-05 4.89322E-09 6.56548E-19-4.61666E-20
 -1      2516 9.52461E-05-2.85893E-05-2.85672E-05 3.08292E-09 4.75431E-19-2.88602E-19
 -1      2517 9.52470E-05-2.85881E-05-2.85681E-05 2.24232E-09 7.68206E-20 4.69953E-19
 -1      2518 9.52447E-05-2.85871E-05-2.85675E-05 8.32146E-09-6.58275E-19-1.82340E-18
 -1      2519 9.52453E-05-2.85881E-05-2.85674E-05 6.82040E-09 1.44366E-19-9.50737E-19
 -1      2520 9.52463E-05-2.85873E-05-2.85682E-05 6.56891E-09 1.05431E-18-4.27525E-19
 -1      2521 9.52429E-05-2.85845E-05-2.85679E-05 1.09138E-08 3.01074E-19-7.65114E-20
 -1      2522 9.52439E-05-2.85860E-05-2.85676E-05 9.86387E-09-2.51247E-19-1.82879E-18
 -1      2523 9.52448E-05-2.85855E-05-2.85683E-05 1.02464E-08 1.22643E-18-1.78832E-18
 -1      2524 9.52406E-05-2.85814E-05-2.85682E-05 1.22086E-08-8.66783E-19-1.54528E-19
 -1      2525 9.52418E-05-2.85831E-05-2.85680E-05 1.18332E-08-5.89348E-19 8.40404E-19
 -1      2526 9.52426E-05-2.85830E-05-2.85684E-05 1.28612E-08 9.63513E-19-1.20822E-18
 -1      2527 9.52381E-05-2.85781E-05-2.85686E-05 1.19843E-08-1.02487E-18-2.20272E-18
 -1      2528 9.52395E-05-2.85800E-05-2.85683E-05 1.23943E-08-9.10251E-19-1.79543E-18
 -1      2529 9.52399E-05-2.85802E-05-2.85685E-05 1.39848E-08-7.56336E-19-1.17073E-18
 -1      2530 9.52372E-05-2.85772E-05-2.85686E-05 1.36847E-08-1.42701E-18-1.85818E-18
 -1      2531 3.12339E-05-2.68799E-05-1.73457E-06-2.40812E-05 1.65510E-18 3.39914E-18
 -1      2532 4.61484E-05-3.42651E-05-5.05356E-06-3.42090E-05 9.19666E-19 1.38215E-18
 -1      2533 9.90770E-05-1.99330E-05-3.39491E-05-4.80282E-06-1.59064E-18 2.47810E-19
 -1      2534 1.00574E-04-2.33341E-05-3.30977E-05-1.38363E-07-1.37165E-18 2.89087E-19
 -1      2535 9.74411E-05-2.09593E-05-3.27701E-05 1.07921E-06-1.25039E-18-6.95146E-20
 -1      2536 9.49999E-05-1.63524E-05-3.37088E-05-4.32970E-06-1.54130E-18-2.18892E-19
 -1      2537 1.46906E-04-4.75457E-05-4.30145E-05 1.13848E-05 1.97010E-18-1.06514E-18
 -1      2538 1.39239E-04-5.23923E-05-3.73254E-05 1.93006E-05 1.35038E-18 1.32984E-19
 -1      2539 1.36878E-04-5.66805E-05-3.41919E-05 1.84160E-05-1.51090E-19-1.11512E-18
 -1      2540 1.76240E-05-1.81871E-05 5.42197E-07-1.49018E-06 3.35981E-19 5.53578E-18
 -1      2541 2.13801E-05-2.10117E-05 6.59802E-08-1.32391E-05 8.19293E-19 5.13260E-18
 -1      2542 3.20088E-05-2.39253E-05-3.26103E-06 2.56241E-05 6.18334E-20-4.82957E-18
 -1      2543 2.13263E-05-1.82877E-05-9.58610E-07 1.01206E-05 1.07679E-19-4.73280E-18
 -1      2544 1.48449E-04-2.89177E-05-5.18350E-05-4.02661E-06 3.28479E-18-1.78830E-18
 -1      2545 1.48371E-04-3.80117E-05-4.75161E-05 1.14762E-06 2.49578E-18-1.49650E-18
 -1      2546 7.92668E-05-5.79419E-06-3.14916E-05-3.95457E-06-2.70430E-19-1.64267E-18
 -1      2547 7.88673E-05-5.45974E-06-3.15016E-05-4.21526E-06-4.33843E-19-1.67383E-18
 -1      2548 7.93107E-05-6.59227E-06-3.11470E-05-4.32987E-06-4.78006E-19-1.56854E-18
 -1      2549 8.03741E-05-7.67654E-06-3.11532E-05-4.40587E-06-2.77418E-19-1.48190E-18
 -1      2550 1.49086E-04-1.17514E-05-5.91614E-05-2.75551E-06 4.01536E-18-4.86620E-19
 -1      2551 1.45940E-04-1.67581E-05-5.58347E-05-4.63731E-06 3.58253E-18-1.07594E-18
 -1      2552 1.47781E-04-4.53056E-05-4.40514E-05-9.19662E-06 1.88325E-18 3.30343E-20
 -1      2553 1.50132E-04-3.79044E-05-4.86749E-05-1.50739E-06 2.08381E-18 2.67239E-19
 -1      2554 1.47328E-04-9.96118E-06-5.94529E-05 1.96941E-06 4.03781E-18-5.51630E-20
 -1      2555 1.49223E-04-9.39164E-06-6.02866E-05-3.00959E-07 4.17460E-18-3.31640E-19
 -1      2556 1.47938E-04-6.38789E-05-3.62748E-05 1.53086E-05-1.59348E-18 2.02229E-19
 -1      2557 1.31818E-04-6.40024E-05-2.91644E-05 2.29810E-05-6.08593E-19-2.98579E-19
 -1      2558 1.32487E-04-5.45312E-05-3.35265E-05-2.58888E-05 1.17431E-18-5.86570E-20
 -1      2559 1.43562E-04-5.12165E-05-3.98050E-05-1.89380E-05 1.53106E-18-8.74562E-20
 -1      2560 1.44577E-04-5.07873E-05-4.00562E-05-7.61978E-06 8.05032E-19 8.61221E-19
 -1      2561 1.06910E-04-5.47094E-05-2.22039E-05-4.00172E-05-3.65071E-19-8.84991E-19
 -1      2562 1.21930E-04-5.61804E-05-2.82265E-05-3.60521E-05 5.14784E-19-5.86359E-19
 -1      2563 6.52497E-05-3.95996E-05-1.06104E-05-4.48478E-05-1.01115E-18-2.36089E-18
 -1      2564 8.64328E-05-4.78294E-05-1.65603E-05-4.70947E-05-7.70800E-19-1.64557E-18
 -1      2565 3.03124E-05-2.39835E-05-2.39870E-06-2.93675E-05-7.23366E-19-3.38601E-18
 -1      2566 4.30944E-05-2.86752E-05-6.00837E-06-4.02284E-05-6.17064E-19-3.05906E-18
 -1      2567 1.86049E-05-1.58922E-05-7.98707E-07-5.87159E-06-4.82352E-19-4.42194E-18
 -1      2568 2.19305E-05-1.87852E-05-1.06731E-06-1.98608E-05-3.19014E-19-3.95480E-18
 -1      2569 3.33160E-05-1.74479E-05-6.22829E-06-2.45016E-05-9.08972E-19-3.55055E-18
 -1      2570 6.71217E-05-4.01493E-05-1.13587E-05 4.04925E-05 6.09228E-19-3.06160E-18
 -1      2571 5.06886E-05-3.21945E-05-7.46950E-06 3.40670E-05 8.42374E-19-4.00244E-18
 -1      2572 1.05824E-04-5.86856E-05-2.01248E-05-3.35925E-05 1.01432E-19-9.29619E-19
 -1      2573 1.24786E-04-6.34192E-05-2.64298E-05-2.93168E-05-1.85077E-19-1.18182E-18
 -1      2574 1.12871E-04-6.00788E-05-2.28016E-05 3.56545E-05-1.69830E-19-1.20713E-18
 -1      2575 8.90848E-05-5.20245E-05-1.57534E-05 3.86531E-05 6.36545E-19-2.04230E-18
 -1      2576 1.61306E-04-5.37112E-05-4.64728E-05-6.90072E-06-2.38514E-18 7.63812E-19
 -1      2577 1.55141E-04-5.99542E-05-4.10397E-05 3.16260E-06-2.32476E-18 6.08593E-19
 -1      2578 1.50551E-04-6.32418E-05-3.73696E-05 2.59246E-06-9.68053E-19 1.43678E-18
 -1      2579 1.55689E-04-2.90020E-05-5.49786E-05-1.44303E-05-3.05271E-18 2.03817E-19
 -1      2580 1.55270E-04-3.73346E-05-5.09518E-05-1.51374E-05-2.81935E-18 6.29345E-19
 -1      2581 1.59016E-04-5.70371E-05-4.39139E-05 3.71884E-06-2.10350E-18-1.89015E-18
 -1      2582 1.62637E-04-5.07261E-05-4.82452E-05 1.04446E-05-2.39901E-18-1.86665E-18
 -1      2583 1.38278E-04-6.41332E-05-3.19785E-05-1.74172E-05-6.78897E-19-1.49247E-18
 -1      2584 1.53373E-04-6.25635E-05-3.90900E-05-8.69301E-06-1.46801E-18-2.06168E-18
 -1      2585 1.53909E-04-6.16225E-05-3.95735E-05 2.79707E-06-1.03777E-18-2.47143E-18
 -1      2586 1.35424E-04-6.58468E-05-2.99429E-05-1.82542E-05 4.66292E-19-1.95294E-18
 -1      2587 6.46423E-05-4.35389E-05-8.98971E-06-3.73393E-05 3.05567E-19 4.20975E-19
 -1      2588 8.38976E-05-5.07285E-05-1.43574E-05-4.01791E-05 3.90906E-19-2.24146E-19
 -1      2589 6.03591E-05-3.78716E-05-9.42306E-06 4.64209E-05-1.09013E-18 3.68851E-18
 -1      2590 4.53122E-05-3.10638E-05-5.72462E-06 4.02108E-05-1.31777E-18 4.37810E-18
 -1      2591 9.52361E-05-2.85758E-05-2.85687E-05-1.20175E-08-7.43684E-20-2.11327E-18
 -1      2592 1.56366E-04-4.95029E-05-4.62861E-05-1.51458E-05-1.90212E-18 1.42640E-18
 -1      2593 8.31794E-05-8.76045E-06-3.18542E-05-2.70168E-06-1.06170E-18-1.28522E-18
 -1      2594 8.36938E-05-8.16801E-06-3.24394E-05-3.45644E-06-1.13775E-18-1.40265E-18
 -1      2595 8.60857E-05-9.70906E-06-3.27966E-05-3.81042E-06-1.31322E-18-1.16149E-18
 -1      2596 1.44389E-04-4.41889E-05-4.29772E-05 8.77086E-07 1.76516E-18-2.22685E-18
 -1      2597 1.01163E-04-2.83082E-05-3.11945E-05 4.10533E-06 1.14503E-18 1.98914E-18
 -1      2598 1.00853E-04-2.72460E-05-3.15217E-05 4.99054E-06 1.27841E-18 1.57971E-18
 -1      2599 1.00634E-04-2.86813E-05-3.08216E-05 3.05360E-06 1.09046E-18 1.79261E-18
 -1      2600 1.12181E-04-5.63954E-05-2.36923E-05 3.74676E-05-1.46558E-18 9.29195E-19
 -1      2601 7.63880E-05-4.26973E-05-1.40786E-05 4.52812E-05-1.67755E-18 2.58747E-18
 -1      2602 1.55793E-04-3.68802E-05-5.14722E-05 1.74779E-05-2.72575E-18-1.56955E-18
 -1      2603 1.54113E-04-1.96643E-05-5.86429E-05 6.49378E-07-3.18442E-18-3.97841E-20
 -1      2604 1.45207E-04-5.91932E-05-3.68675E-05-5.38466E-06 3.84751E-19 1.96618E-18
 -1      2605 1.48291E-04-5.62760E-05-3.96938E-05-1.18896E-05-5.06976E-19 2.13961E-18
 -1      2606 1.52922E-04-2.07932E-05-5.70947E-05-5.60622E-06-3.52874E-18-3.75130E-19
 -1      2607 1.37991E-04-6.10537E-05-3.32079E-05-5.71333E-06 1.03428E-18-1.88497E-18
 -1      2608 6.18424E-05-3.71571E-05-1.01433E-05-3.58313E-05 1.88062E-18 4.40034E-19
 -1      2609 3.97951E-05-2.57425E-05-5.61091E-06 3.55824E-05-9.49947E-19 4.51701E-18
 -1      2610 3.52645E-05-1.87352E-05-6.30263E-06 2.89076E-05-7.19554E-19 3.62890E-18
 -1      2611 5.27530E-05-2.77001E-05-1.04151E-05 3.87128E-05-1.29120E-18 3.68735E-18
 -1      2612 2.55894E-05-1.41400E-05-4.47965E-06 1.55299E-05 1.53525E-19 4.36243E-18
 -1      2613 2.10442E-05-1.64621E-05-1.52069E-06 6.91998E-06-1.90847E-20 5.18215E-18
 -1      2614 2.59228E-05-1.28964E-05-4.99250E-06 7.45070E-07 1.03699E-18 4.32537E-18
 -1      2615 3.31397E-05-2.12131E-05-4.63979E-06-2.01112E-05 2.30255E-18 3.20051E-18
 -1      2616 9.17012E-05-1.39442E-05-3.33461E-05-3.75950E-06-1.47329E-18-6.10016E-19
 -1      2617 1.00276E-04-2.93860E-05-3.03692E-05 1.97708E-06 9.13446E-19 1.43784E-18
 -1      2618 1.00516E-04-2.90315E-05-3.05992E-05 2.51454E-06 9.80636E-19 1.57724E-18
 -1      2619 1.00549E-04-2.85826E-05-3.08537E-05 3.03583E-06 1.08070E-18 1.21478E-18
 -1      2620 1.00609E-04-2.95812E-05-3.04663E-05 2.16194E-06 9.20601E-19 9.42043E-19
 -1      2621 4.81238E-05-2.51170E-05-9.25956E-06 2.92664E-05 8.04893E-19-4.02934E-18
 -1      2622 9.52361E-05-2.85760E-05-2.85686E-05-1.39933E-08 1.51484E-18-1.08574E-18
 -1      2623 2.70716E-05-1.39906E-05-4.95960E-06 2.42534E-06-9.79117E-20-4.47043E-18
 -1      2624 1.27649E-04-6.36451E-05-2.71852E-05 2.44350E-05 7.27601E-19 2.76344E-19
 -1      2625 1.00789E-04-5.57236E-05-1.91760E-05-3.53989E-05 1.36118E-18-1.38858E-18
 -1      2626 6.13203E-05-3.32141E-05-1.15335E-05-4.21625E-05-1.53673E-18-2.32066E-18
 -1      2627 1.31861E-04-5.86067E-05-3.12355E-05-2.50229E-05-3.32778E-19 5.17855E-19
 -1      2628 1.43694E-04-1.24573E-05-5.65387E-05 5.05421E-06 3.64394E-18 6.79744E-19
 -1      2629 1.32413E-04-8.48136E-06-5.36080E-05 5.07910E-06 3.30364E-18 4.51839E-19
 -1      2630 1.36269E-04-1.47955E-05-5.26193E-05 7.82485E-06 3.20157E-18 1.21867E-18
 -1      2631 1.42086E-04-2.24630E-05-5.16432E-05-7.86176E-06 2.86509E-18-1.66918E-18
 -1      2632 1.36188E-04-2.74885E-05-4.68495E-05-1.02493E-05 2.47588E-18-2.17010E-18
 -1      2633 1.31722E-04-1.61123E-05-5.02167E-05-1.06344E-05 2.62855E-18-1.33704E-18
 -1      2634 1.48035E-04-3.22563E-05-4.97663E-05 3.91757E-06 2.31325E-18 8.87055E-19
 -1      2635 1.40472E-04-2.57466E-05-4.99700E-05 9.61174E-06 2.46995E-18 1.71450E-18
 -1      2636 1.42714E-04-3.79776E-05-4.49909E-05 5.40363E-06 1.43360E-18 1.63986E-18
 -1      2637 1.36625E-04-8.10857E-06-5.53931E-05-3.05124E-06 3.73203E-18-7.43166E-19
 -1      2638 1.02211E-04-5.28847E-05-2.08106E-05-4.07102E-05-1.45774E-18-5.83063E-19
 -1      2639 8.69008E-05-4.62741E-05-1.69712E-05 3.71757E-05 1.40989E-18-1.80047E-18
 -1      2640 1.38741E-04-6.14224E-05-3.32445E-05 6.53554E-06 6.97320E-19 1.65918E-18
 -1      2641 8.77386E-05-1.45031E-05-3.13790E-05-2.38982E-06 3.64257E-19-1.09643E-18
 -1      2642 8.61001E-05-1.33635E-05-3.12032E-05-3.41468E-06 2.16255E-19-1.16879E-18
 -1      2643 8.43500E-05-1.19237E-05-3.10219E-05-4.23886E-06 8.84554E-20-1.24971E-18
 -1      2644 8.28030E-05-1.08483E-05-3.08785E-05-4.88718E-06-9.62108E-20-1.27518E-18
 -1      2645 8.63259E-05-1.46527E-05-3.07270E-05-4.82586E-06 9.87542E-20-1.09800E-18
 -1      2646 9.40495E-05-1.94148E-05-3.20184E-05 2.64946E-06 1.07432E-18-4.91653E-19
 -1      2647 9.25755E-05-1.82183E-05-3.18818E-05 1.37531E-06 9.14991E-19-7.05846E-19
 -1      2648 9.68578E-05-2.19842E-05-3.21532E-05 4.82107E-06 1.27073E-18-1.64900E-19
 -1      2649 9.54597E-05-2.05951E-05-3.20893E-05 3.77105E-06 1.11315E-18-2.97345E-19
 -1      2650 9.61249E-05-2.22718E-05-3.16427E-05 2.19865E-06 9.93982E-19-3.19600E-19
 -1      2651 1.00609E-04-2.65253E-05-3.17442E-05 5.43752E-06 1.31774E-18 1.11462E-18
 -1      2652 9.97839E-05-2.52296E-05-3.19837E-05 5.92798E-06 1.34014E-18 7.31029E-19
 -1      2653 1.00393E-04-2.73257E-05-3.13018E-05 4.09257E-06 1.23116E-18 1.02362E-18
 -1      2654 1.39544E-04-4.06516E-05-4.29721E-05-5.84384E-06 1.49438E-18-2.95318E-18
 -1      2655 1.40632E-04-4.95639E-05-3.91395E-05 1.98172E-06 7.54653E-19-2.55497E-18
 -1      2656 8.81664E-05-4.63187E-05-1.78758E-05 4.38103E-05-2.17190E-18 1.30480E-18
 -1      2657 7.24199E-05-3.75236E-05-1.44949E-05 4.26084E-05-2.08360E-18 2.34416E-18
 -1      2658 9.38034E-05-2.14817E-05-3.10071E-05 9.71517E-06-4.44000E-19-2.00490E-19
 -1      2659 9.38515E-05-2.21576E-05-3.07024E-05 1.20189E-05-2.29255E-19-2.20711E-19
 -1      2660 9.29376E-05-2.26863E-05-3.01122E-05 1.44456E-05-1.05476E-19-3.12113E-19
 -1      2661 9.36049E-05-2.40433E-05-2.97523E-05 1.64399E-05 6.89836E-20-3.08890E-19
 -1      2662 8.86131E-05-1.95769E-05-2.95543E-05 1.25577E-05-2.50282E-19-4.75827E-19
 -1      2663 9.31454E-05-2.55132E-05-2.89581E-05 1.89875E-05 4.25925E-19-2.27392E-19
 -1      2664 9.52135E-05-2.84343E-05-2.84937E-05 2.05219E-05 6.08613E-19-1.97372E-19
 -1      2665 8.70653E-05-2.16354E-05-2.80254E-05 1.75255E-05 2.83567E-19-6.80902E-19
 -1      2666 9.63211E-05-3.18909E-05-2.74478E-05 2.33202E-05 8.54875E-19-4.04988E-20
 -1      2667 1.01110E-04-3.75132E-05-2.70136E-05 2.39045E-05 1.11814E-18 2.60066E-19
 -1      2668 8.71855E-05-2.66287E-05-2.59541E-05 2.31334E-05 8.88452E-19-4.61051E-19
 -1      2669 5.55463E-05-2.50681E-05-1.24442E-05-3.62445E-05-1.58009E-18-2.22643E-18
 -1      2670 7.36284E-05-3.58489E-05-1.62026E-05-4.22282E-05-1.80619E-18-1.48983E-18
 -1      2671 1.52957E-04-3.84664E-05-4.90436E-05 2.01950E-05-2.06422E-18-2.61691E-18
 -1      2672 1.52984E-04-4.98160E-05-4.47619E-05 1.91711E-05-1.52450E-18-2.89791E-18
 -1      2673 5.86249E-05-2.52984E-05-1.38718E-05 3.03453E-05 1.33778E-18-3.00580E-18
 -1      2674 4.28950E-05-1.71594E-05-1.03498E-05 2.17372E-05 6.60209E-19-3.94400E-18
 -1      2675 1.00403E-04-3.69920E-05-2.69564E-05-2.30185E-05 1.78986E-18-1.40715E-18
 -1      2676 9.58751E-05-3.17422E-05-2.73510E-05-2.25589E-05 9.52489E-19-1.64557E-18
 -1      2677 9.49472E-05-2.86716E-05-2.82810E-05-2.01507E-05 5.72826E-19-1.83262E-18
 -1      2678 9.29344E-05-2.61057E-05-2.86298E-05-1.89805E-05 5.08627E-19-1.66189E-18
 -1      2679 8.67928E-05-2.68776E-05-2.56768E-05-2.26062E-05 7.94782E-19-1.38927E-18
 -1      2680 9.34414E-05-2.50458E-05-2.92493E-05-1.69607E-05 3.36733E-19-1.15833E-18
 -1      2681 9.26890E-05-2.41030E-05-2.94231E-05-1.55947E-05 4.77614E-21-1.30493E-18
 -1      2682 8.68555E-05-2.27453E-05-2.74464E-05-1.79296E-05 7.27833E-19-1.72613E-18
 -1      2683 9.36558E-05-2.40850E-05-2.97806E-05-1.38958E-05-4.96275E-20-6.14552E-19
 -1      2684 9.34235E-05-2.39630E-05-2.98037E-05-1.24908E-05-2.86151E-19-9.36652E-19
 -1      2685 8.85316E-05-2.17918E-05-2.85626E-05-1.42926E-05 2.90658E-19-5.16990E-19
 -1      2686 9.43293E-05-2.43837E-05-2.99521E-05-1.11798E-05 2.85293E-19-9.48266E-19
 -1      2687 9.42441E-05-2.45859E-05-2.98833E-05-9.97121E-06 5.16099E-19-4.38128E-19
 -1      2688 9.04510E-05-2.23331E-05-2.91574E-05-1.14425E-05 1.01905E-19 3.50651E-19
 -1      2689 9.49550E-05-2.50992E-05-2.99181E-05-8.89354E-06 3.10755E-19-1.22933E-19
 -1      2690 9.48785E-05-2.53840E-05-2.98073E-05-7.85857E-06 1.42850E-19 2.25953E-19
 -1      2691 9.20533E-05-2.33778E-05-2.94035E-05-9.17496E-06 3.29637E-19-4.96247E-19
 -1      2692 9.53866E-05-2.58591E-05-2.97802E-05-6.97340E-06-4.56675E-19 7.28668E-19
 -1      2693 9.52878E-05-2.61287E-05-2.96578E-05-6.11878E-06-4.05491E-19 9.16182E-19
 -1      2694 9.32530E-05-2.44728E-05-2.94564E-05-7.29272E-06 3.29266E-19 7.90867E-19
 -1      2695 9.56257E-05-2.65202E-05-2.96017E-05-5.39868E-06-5.27922E-19 2.65159E-19
 -1      2696 9.55092E-05-2.67427E-05-2.94848E-05-4.71096E-06-1.20650E-18-6.99777E-20
 -1      2697 9.40810E-05-2.54362E-05-2.94054E-05-5.73414E-06-1.18285E-18 8.96693E-19
 -1      2698 9.57206E-05-2.70467E-05-2.94190E-05-4.13214E-06-1.28659E-18-3.45724E-19
 -1      2699 9.55991E-05-2.72190E-05-2.93155E-05-3.58892E-06-1.15299E-18-5.60728E-19
 -1      2700 9.46177E-05-2.62165E-05-2.93062E-05-4.45775E-06-1.74287E-18 6.75225E-20
 -1      2701 9.57236E-05-2.74474E-05-2.92508E-05-3.12910E-06-7.86231E-19-1.07655E-18
 -1      2702 9.56081E-05-2.75766E-05-2.91632E-05-2.70586E-06 2.04994E-19-8.57040E-19
 -1      2703 9.49460E-05-2.68211E-05-2.91915E-05-3.42620E-06-9.79167E-19-4.00672E-19
 -1      2704 9.56761E-05-2.77453E-05-2.91047E-05-2.34450E-06 5.29889E-19-1.51849E-18
 -1      2705 9.55734E-05-2.78408E-05-2.90331E-05-2.01819E-06 6.46969E-19-1.56310E-18
 -1      2706 9.51348E-05-2.72779E-05-2.90790E-05-2.60323E-06-1.94152E-19-1.23351E-18
 -1      2707 9.56067E-05-2.79644E-05-2.89827E-05-1.73704E-06 3.83393E-19-1.87160E-18
 -1      2708 9.55197E-05-2.80349E-05-2.89254E-05-1.48768E-06-7.56806E-20-1.28586E-18
 -1      2709 9.52349E-05-2.76188E-05-2.89773E-05-1.95442E-06 1.67189E-19-1.60964E-18
 -1      2710 9.55327E-05-2.81253E-05-2.88835E-05-1.27102E-06-5.39752E-19-1.68226E-18
 -1      2711 9.54618E-05-2.81774E-05-2.88385E-05-1.08205E-06-1.53334E-19-2.65444E-18
 -1      2712 9.52815E-05-2.78716E-05-2.88898E-05-1.44852E-06-4.67509E-19-2.49634E-18
 -1      2713 9.54638E-05-2.82435E-05-2.88045E-05-9.16697E-07 9.78903E-19-1.33079E-18
 -1      2714 9.54079E-05-2.82822E-05-2.87698E-05-7.74691E-07 1.86395E-18-1.03015E-18
 -1      2715 9.52976E-05-2.80588E-05-2.88169E-05-1.05821E-06 1.26470E-18-1.72261E-18
 -1      2716 9.54045E-05-2.83307E-05-2.87427E-05-6.49791E-07 1.21455E-18-1.53711E-18
 -1      2717 9.53616E-05-2.83598E-05-2.87162E-05-5.44080E-07 8.88485E-19-1.52574E-18
 -1      2718 9.52976E-05-2.81975E-05-2.87577E-05-7.60276E-07 1.38340E-18-3.31696E-18
 -1      2719 9.53562E-05-2.83954E-05-2.86950E-05-4.50797E-07-1.82294E-20-1.07482E-18
 -1      2720 9.53241E-05-2.84174E-05-2.86751E-05-3.72953E-07-2.25588E-19-1.87221E-18
 -1      2721 9.52901E-05-2.83003E-05-2.87105E-05-5.35399E-07 6.30055E-19-3.37883E-18
 -1      2722 9.53183E-05-2.84435E-05-2.86587E-05-3.04175E-07-1.22320E-19-2.07037E-18
 -1      2723 9.52950E-05-2.84603E-05-2.86440E-05-2.47518E-07-9.64543E-19-2.31423E-18
 -1      2724 9.52801E-05-2.83766E-05-2.86735E-05-3.67740E-07-2.93286E-19-2.60466E-18
 -1      2725 9.52893E-05-2.84804E-05-2.86310E-05-1.95274E-07-1.03039E-18-1.01408E-18
 -1      2726 9.52723E-05-2.84935E-05-2.86199E-05-1.53254E-07-2.16741E-19-1.75592E-18
 -1      2727 9.52698E-05-2.84340E-05-2.86443E-05-2.42123E-07-5.97481E-19-2.04964E-18
 -1      2728 9.52680E-05-2.85072E-05-2.86108E-05-1.18312E-07 4.86288E-19-1.85713E-18
 -1      2729 9.52570E-05-2.85167E-05-2.86032E-05-9.03613E-08 7.62065E-19-1.34716E-18
 -1      2730 9.52609E-05-2.84766E-05-2.86222E-05-1.51518E-07-1.79387E-20-1.82598E-18
 -1      2731 9.52536E-05-2.85267E-05-2.85965E-05-6.59115E-08 6.62673E-19-9.71175E-19
 -1      2732 9.52464E-05-2.85338E-05-2.85913E-05-4.67869E-08 1.08844E-19-4.86971E-19
 -1      2733 9.52537E-05-2.85067E-05-2.86062E-05-8.92777E-08 9.88008E-19-1.22740E-18
 -1      2734 9.52438E-05-2.85410E-05-2.85864E-05-3.01826E-08 7.15161E-19 3.54269E-20
 -1      2735 9.52395E-05-2.85463E-05-2.85829E-05-1.74973E-08 1.27201E-18 1.25254E-18
 -1      2736 9.52482E-05-2.85285E-05-2.85944E-05-4.61366E-08 1.18179E-18 2.07338E-19
 -1      2737 9.52376E-05-2.85513E-05-2.85795E-05-6.62224E-09-8.13482E-19 1.80312E-18
 -1      2738 9.52352E-05-2.85553E-05-2.85771E-05 1.42816E-09-2.04931E-18 1.50206E-18
 -1      2739 9.52441E-05-2.85441E-05-2.85859E-05-1.71088E-08 4.94369E-19 4.25021E-19
 -1      2740 9.52339E-05-2.85588E-05-2.85748E-05 8.19651E-09-1.86276E-18 1.23129E-18
 -1      2741 9.52329E-05-2.85617E-05-2.85734E-05 1.29741E-08-1.69639E-18 8.35529E-19
 -1      2742 9.52412E-05-2.85551E-05-2.85799E-05 1.66264E-09-1.93492E-18 9.48659E-19
 -1      2743 9.52320E-05-2.85640E-05-2.85718E-05 1.68590E-08-2.42139E-18 1.45113E-18
 -1      2744 9.52319E-05-2.85661E-05-2.85710E-05 1.93755E-08-2.14786E-18-1.51446E-21
 -1      2745 9.52392E-05-2.85626E-05-2.85758E-05 1.31181E-08-2.11090E-18 9.34700E-19
 -1      2746 9.52313E-05-2.85677E-05-2.85700E-05 2.12825E-08-6.38467E-19-4.35574E-19
 -1      2747 9.52317E-05-2.85692E-05-2.85697E-05 2.22737E-08 2.13403E-19-3.27652E-19
 -1      2748 9.52379E-05-2.85677E-05-2.85730E-05 1.94641E-08-1.36900E-18 1.66440E-18
 -1      2749 9.52314E-05-2.85702E-05-2.85691E-05 2.28573E-08 6.76316E-19 6.92736E-19
 -1      2750 9.52322E-05-2.85713E-05-2.85689E-05 2.28413E-08 1.48565E-18 7.37119E-19
 -1      2751 9.52372E-05-2.85711E-05-2.85712E-05 2.23227E-08 1.17799E-18 1.31052E-18
 -1      2752 9.52321E-05-2.85720E-05-2.85686E-05 2.25570E-08 1.02266E-18-3.70888E-20
 -1      2753 9.52330E-05-2.85728E-05-2.85686E-05 2.18805E-08 4.61104E-19-6.75822E-19
 -1      2754 9.52368E-05-2.85733E-05-2.85701E-05 2.28534E-08 6.47101E-19-4.26811E-20
 -1      2755 9.52331E-05-2.85733E-05-2.85685E-05 2.10273E-08 4.96540E-19-8.36805E-19
 -1      2756 9.52341E-05-2.85741E-05-2.85686E-05 1.99054E-08 1.18583E-18 6.39338E-20
 -1      2757 9.52368E-05-2.85747E-05-2.85695E-05 2.18469E-08 8.64217E-19-5.02288E-19
 -1      2758 9.52343E-05-2.85745E-05-2.85685E-05 1.86521E-08 9.26253E-19-1.57928E-19
 -1      2759 9.52353E-05-2.85752E-05-2.85686E-05 1.72032E-08 4.47581E-20-4.23148E-19
 -1      2760 9.52370E-05-2.85759E-05-2.85691E-05 1.98185E-08 1.01887E-18-4.15251E-20
 -1      2761 9.52356E-05-2.85757E-05-2.85686E-05 1.62044E-08-4.34469E-20-7.01849E-20
 -1      2762 9.52368E-05-2.85766E-05-2.85687E-05 1.47978E-08-4.59154E-19-1.13716E-18
 -1      2763 9.52384E-05-2.85781E-05-2.85686E-05 1.52624E-08-7.69722E-19-1.87968E-18
 -1      2764 9.52376E-05-2.85770E-05-2.85688E-05 1.74985E-08 7.36813E-20-2.34064E-18
 -1      2765 1.02281E-04-3.26513E-05-2.98705E-05 2.60622E-06 8.73544E-19 7.81025E-19
 -1      2766 1.02197E-04-3.21527E-05-2.99837E-05 2.06709E-06 1.10675E-18 7.99792E-19
 -1      2767 1.02715E-04-3.31947E-05-2.98159E-05 4.29599E-06 4.78087E-19 7.48846E-19
 -1      2768 1.02825E-04-3.31322E-05-2.98496E-05 3.45990E-06 5.16701E-19 8.28785E-19
 -1      2769 1.03812E-04-3.37048E-05-3.00506E-05 2.83832E-06 6.94612E-19 6.57541E-19
 -1      2770 1.01526E-04-3.13133E-05-3.01202E-05 1.71986E-06 9.28888E-19 5.59114E-19
 -1      2771 1.01390E-04-3.05282E-05-3.03266E-05 1.69783E-06 8.08000E-19 5.78675E-19
 -1      2772 1.02543E-04-3.21277E-05-3.01951E-05 1.67626E-06 8.53001E-19 5.19761E-19
 -1      2773 1.01372E-04-3.07457E-05-3.02449E-05 7.46444E-06 2.70440E-19 7.82804E-19
 -1      2774 1.02149E-04-3.18683E-05-3.01461E-05 7.09530E-06 2.47661E-19 1.03557E-18
 -1      2775 9.94890E-05-2.78893E-05-3.06384E-05 7.17236E-06 8.86655E-20 4.32927E-19
 -1      2776 1.00455E-04-2.93672E-05-3.05094E-05 7.62565E-06 7.27224E-20 6.00627E-19
 -1      2777 1.03234E-04-3.07067E-05-3.10528E-05 8.18237E-06 2.21017E-19 9.08832E-19
 -1      2778 9.74946E-05-2.50213E-05-3.10090E-05 4.77174E-06 2.55415E-19 6.51177E-19
 -1      2779 9.83130E-05-2.63153E-05-3.08961E-05 6.17552E-06 1.08353E-19 3.77353E-19
 -1      2780 1.01071E-04-2.71622E-05-3.16654E-05 7.44237E-06 1.36456E-19 2.62760E-19
 -1      2781 9.63474E-05-2.34405E-05-3.12192E-05 6.02565E-07 3.74852E-19 8.93524E-19
 -1      2782 9.66508E-05-2.39495E-05-3.11699E-05 2.65947E-06 3.13136E-19 6.20991E-19
 -1      2783 9.89629E-05-2.39832E-05-3.21557E-05 4.24608E-06 1.97319E-19 3.74140E-19
 -1      2784 9.67164E-05-2.39864E-05-3.11815E-05-4.01492E-06 5.52806E-19 1.08582E-18
 -1      2785 9.63473E-05-2.34467E-05-3.12170E-05-1.96831E-06 5.23686E-19 7.31824E-19
 -1      2786 9.80799E-05-2.27020E-05-3.23395E-05-6.99844E-07 4.15494E-19 5.39096E-19
 -1      2787 9.84167E-05-2.63805E-05-3.09127E-05-7.48312E-06 8.11759E-19 5.57616E-19
 -1      2788 9.75440E-05-2.50599E-05-3.10152E-05-6.10256E-06 7.36558E-19 1.10994E-18
 -1      2789 9.89532E-05-2.40090E-05-3.21378E-05-5.61080E-06 7.67647E-19 6.06514E-19
 -1      2790 1.00574E-04-2.94770E-05-3.05148E-05-8.84606E-06 5.97879E-19 4.88711E-19
 -1      2791 9.95684E-05-2.79632E-05-3.06426E-05-8.43938E-06 8.92354E-19 4.64153E-19
 -1      2792 1.01025E-04-2.72120E-05-3.16217E-05-8.73532E-06 1.02634E-18 7.87250E-19
 -1      2793 1.02244E-04-3.20550E-05-3.01118E-05-8.15999E-06 6.94658E-19-6.54668E-20
 -1      2794 1.01451E-04-3.08766E-05-3.02250E-05-8.61323E-06 5.12330E-19-2.70653E-21
 -1      2795 1.03130E-04-3.08076E-05-3.09627E-05-9.34692E-06 7.54160E-19 9.02959E-19
 -1      2796 1.02949E-04-3.34713E-05-2.97868E-05-6.16566E-06 7.35157E-19-2.05987E-19
 -1      2797 1.02539E-04-3.28629E-05-2.98658E-05-7.13168E-06 8.49367E-19-1.46660E-19
 -1      2798 1.04327E-04-3.34722E-05-3.03355E-05-7.89472E-06 8.48000E-19 2.65436E-19
 -1      2799 1.02721E-04-3.37197E-05-2.95662E-05-3.73122E-06-2.34844E-19 4.64224E-19
 -1      2800 1.02683E-04-3.36399E-05-2.96111E-05-4.84553E-06 2.08839E-19-2.70605E-20
 -1      2801 1.04336E-04-3.46595E-05-2.98437E-05-5.38172E-06 3.32563E-19 7.17991E-19
 -1      2802 1.01876E-04-3.31615E-05-2.94347E-05-1.48760E-06-9.90527E-19 9.70295E-19
 -1      2803 1.02103E-04-3.34305E-05-2.94574E-05-2.49662E-06-5.43507E-19 7.35896E-19
 -1      2804 1.03417E-04-3.45437E-05-2.95141E-05-2.73571E-06-5.67929E-19 1.06883E-18
 -1      2805 1.00762E-04-3.22173E-05-2.93595E-05 2.54150E-07-8.41256E-19 3.68208E-19
 -1      2806 1.01130E-04-3.26462E-05-2.93741E-05-5.25471E-07-8.79557E-19 8.38722E-19
 -1      2807 1.02022E-04-3.36218E-05-2.93204E-05-5.12473E-07-9.32133E-19 1.17756E-18
 -1      2808 9.96296E-05-3.12051E-05-2.93096E-05 1.42320E-06-4.01196E-19 2.13297E-19
 -1      2809 1.00042E-04-3.16570E-05-2.93263E-05 9.00661E-07-7.47538E-19 1.11763E-19
 -1      2810 1.00535E-04-3.23862E-05-2.92171E-05 1.08468E-06-6.15795E-19 3.33308E-20
 -1      2811 9.86181E-05-3.03084E-05-2.92637E-05 2.08160E-06 1.84898E-19 6.18111E-19
 -1      2812 9.90163E-05-3.07063E-05-2.92878E-05 1.78842E-06-4.30031E-20 6.46288E-19
 -1      2813 9.91921E-05-3.11724E-05-2.91621E-05 2.06835E-06-4.19920E-19 4.24825E-20
 -1      2814 9.77808E-05-2.96019E-05-2.92111E-05 2.34462E-06-6.81143E-19 1.84998E-18
 -1      2815 9.81348E-05-2.99157E-05-2.92436E-05 2.22984E-06-1.54035E-19 1.30883E-18
 -1      2816 9.80917E-05-3.01545E-05-2.91253E-05 2.55012E-06-5.95056E-19 6.70554E-19
 -1      2817 9.71200E-05-2.90925E-05-2.91492E-05 2.33335E-06-7.75966E-20 1.82285E-18
 -1      2818 9.74198E-05-2.93204E-05-2.91882E-05 2.34281E-06-3.00412E-19 1.73920E-18
 -1      2819 9.72470E-05-2.93885E-05-2.90897E-05 2.66719E-06-6.65353E-19 1.28695E-18
 -1      2820 9.66143E-05-2.87534E-05-2.90801E-05 2.15222E-06 3.21254E-19 1.42174E-18
 -1      2821 9.68603E-05-2.89073E-05-2.91226E-05 2.23867E-06 2.05061E-21 1.51679E-18
 -1      2822 9.66273E-05-2.88617E-05-2.90480E-05 2.54552E-06 2.95565E-19 1.19754E-18
 -1      2823 9.62346E-05-2.85463E-05-2.90078E-05 1.88161E-06-9.19139E-20 2.29474E-18
 -1      2824 9.64322E-05-2.86427E-05-2.90508E-05 2.00835E-06 3.96720E-19 1.72752E-18
 -1      2825 9.61870E-05-2.85314E-05-2.89994E-05 2.28594E-06 1.38887E-19 9.20899E-19
 -1      2826 9.59531E-05-2.84337E-05-2.89364E-05 1.57827E-06-2.40191E-19 2.42512E-18
 -1      2827 9.61092E-05-2.84887E-05-2.89774E-05 1.71929E-06 6.46822E-20 2.65717E-18
 -1      2828 9.58809E-05-2.83475E-05-2.89460E-05 1.96225E-06-2.25164E-19 1.73753E-18
 -1      2829 9.57459E-05-2.83843E-05-2.88693E-05 1.27907E-06-6.64354E-19 1.60290E-18
 -1      2830 9.58675E-05-2.84112E-05-2.89067E-05 1.41747E-06-2.45359E-19 2.10348E-18
 -1      2831 9.56714E-05-2.82644E-05-2.88909E-05 1.62452E-06 1.18437E-19 1.98599E-18
 -1      2832 9.55943E-05-2.83744E-05-2.88089E-05 1.00554E-06-1.58137E-18 1.80530E-18
 -1      2833 9.56878E-05-2.83833E-05-2.88416E-05 1.13151E-06-1.16147E-18 1.44655E-18
 -1      2834 9.55292E-05-2.82459E-05-2.88374E-05 1.30391E-06-6.02197E-19 1.65850E-18
 -1      2835 9.54839E-05-2.83868E-05-2.87564E-05 7.68283E-07-1.86637E-19 1.89348E-18
 -1      2836 9.55549E-05-2.83852E-05-2.87841E-05 8.77071E-07-9.70663E-19 1.90188E-18
 -1      2837 9.54330E-05-2.82648E-05-2.87877E-05 1.01761E-06-1.04589E-18 1.24915E-18
 -1      2838 9.54041E-05-2.84102E-05-2.87122E-05 5.70586E-07 2.47487E-19 1.02013E-18
 -1      2839 9.54571E-05-2.84030E-05-2.87349E-05 6.60823E-07 1.48317E-19 1.61585E-18
 -1      2840 9.53681E-05-2.83027E-05-2.87433E-05 7.73108E-07 8.63980E-20 7.98455E-19
 -1      2841 9.53469E-05-2.84374E-05-2.86759E-05 4.11204E-07 3.40496E-19 1.28216E-18
 -1      2842 9.53858E-05-2.84278E-05-2.86941E-05 4.83597E-07 8.11902E-19 1.33704E-18
 -1      2843 9.53241E-05-2.83475E-05-2.87051E-05 5.71563E-07 3.43269E-19 2.15937E-19
 -1      2844 9.53062E-05-2.84642E-05-2.86469E-05 2.86383E-07 5.80794E-19 2.94423E-20
 -1      2845 9.53342E-05-2.84542E-05-2.86611E-05 3.42774E-07 1.59920E-19 4.82559E-19
 -1      2846 9.52942E-05-2.83921E-05-2.86730E-05 4.10335E-07 7.02117E-19 6.43526E-19
 -1      2847 9.52778E-05-2.84884E-05-2.86243E-05 1.91231E-07 1.29881E-19 1.00973E-18
 -1      2848 9.52975E-05-2.84790E-05-2.86351E-05 2.33960E-07 4.51245E-19 7.14934E-19
 -1      2849 9.52739E-05-2.84326E-05-2.86468E-05 2.84789E-07 4.78209E-19 3.17988E-19
 -1      2850 9.52584E-05-2.85090E-05-2.86071E-05 1.20601E-07 7.64313E-19 1.87009E-18
 -1      2851 9.52718E-05-2.85007E-05-2.86151E-05 1.52098E-07 7.52995E-19 1.08668E-18
 -1      2852 9.52600E-05-2.84672E-05-2.86259E-05 1.89498E-07-1.04282E-19 1.40543E-18
 -1      2853 9.52455E-05-2.85258E-05-2.85943E-05 6.96087E-08 1.15181E-18 1.45060E-18
 -1      2854 9.52543E-05-2.85188E-05-2.86001E-05 9.21618E-08 8.02969E-19 1.42964E-18
 -1      2855 9.52506E-05-2.84955E-05-2.86097E-05 1.19002E-07 1.13496E-18 1.01949E-18
 -1      2856 9.52373E-05-2.85390E-05-2.85851E-05 3.39156E-08 5.00203E-19 1.93469E-18
 -1      2857 9.52427E-05-2.85334E-05-2.85891E-05 4.95420E-08 1.20076E-18 1.72477E-18
 -1      2858 9.52444E-05-2.85179E-05-2.85973E-05 6.82459E-08 8.67727E-19 2.45779E-18
 -1      2859 9.52325E-05-2.85492E-05-2.85786E-05 9.83479E-09 7.04459E-19 1.54653E-18
 -1      2860 9.52355E-05-2.85448E-05-2.85813E-05 2.02374E-08 6.57653E-19 1.82914E-18
 -1      2861 9.52402E-05-2.85350E-05-2.85882E-05 3.28010E-08 7.90100E-19 2.59295E-18
 -1      2862 9.52299E-05-2.85568E-05-2.85742E-05-5.65361E-09 7.82823E-19 1.73218E-18
 -1      2863 9.52313E-05-2.85534E-05-2.85760E-05 9.11192E-10 8.46540E-19 1.51837E-18
 -1      2864 9.52376E-05-2.85478E-05-2.85815E-05 8.94146E-09 8.04866E-19 2.06220E-18
 -1      2865 9.52290E-05-2.85623E-05-2.85714E-05-1.49476E-08 9.91201E-19 2.08341E-18
 -1      2866 9.52292E-05-2.85598E-05-2.85724E-05-1.11278E-08 5.25374E-19 1.94000E-18
 -1      2867 9.52360E-05-2.85570E-05-2.85769E-05-6.36496E-09 9.22845E-19 2.50804E-18
 -1      2868 9.52291E-05-2.85663E-05-2.85698E-05-1.98949E-08-6.08534E-20 2.66664E-18
 -1      2869 9.52286E-05-2.85644E-05-2.85703E-05-1.79850E-08 1.07927E-18 2.30399E-18
 -1      2870 9.52352E-05-2.85635E-05-2.85737E-05-1.55141E-08 8.43932E-19 2.83798E-18
 -1      2871 9.52299E-05-2.85691E-05-2.85689E-05-2.18735E-08 1.13523E-18 1.73536E-18
 -1      2872 9.52290E-05-2.85677E-05-2.85691E-05-2.12574E-08 1.34678E-19 2.12952E-18
 -1      2873 9.52349E-05-2.85680E-05-2.85716E-05-2.03445E-08 4.72809E-19 3.48636E-18
 -1      2874 9.52310E-05-2.85711E-05-2.85685E-05-2.18700E-08 5.53495E-19 2.27380E-18
 -1      2875 9.52299E-05-2.85700E-05-2.85685E-05-2.21138E-08 6.32692E-19 2.31652E-18
 -1      2876 9.52349E-05-2.85710E-05-2.85703E-05-2.22228E-08 3.56836E-19 2.51115E-18
 -1      2877 9.52323E-05-2.85726E-05-2.85684E-05-2.05490E-08 5.06962E-19 1.66628E-18
 -1      2878 9.52311E-05-2.85718E-05-2.85683E-05-2.13680E-08 1.02339E-18 2.32230E-18
 -1      2879 9.52352E-05-2.85730E-05-2.85696E-05-2.21236E-08 9.73681E-19 3.89315E-18
 -1      2880 9.52338E-05-2.85739E-05-2.85685E-05-1.83200E-08 1.09073E-18-5.14208E-19
 -1      2881 9.52326E-05-2.85732E-05-2.85683E-05-1.95530E-08 6.70792E-19-1.60702E-19
 -1      2882 9.52357E-05-2.85745E-05-2.85691E-05-2.07065E-08 1.56487E-18 8.49273E-19
 -1      2883 9.52355E-05-2.85754E-05-2.85686E-05-1.55001E-08 1.40308E-18-1.67370E-18
 -1      2884 9.52343E-05-2.85746E-05-2.85685E-05-1.70608E-08 1.38029E-18-6.34200E-19
 -1      2885 9.52366E-05-2.85759E-05-2.85689E-05-1.84375E-08 8.80594E-19-1.41606E-18
 -1      2886 9.52376E-05-2.85773E-05-2.85687E-05-1.55533E-08 6.98285E-19-1.98328E-18
 -1      2887 1.50822E-04-5.35620E-05-4.16309E-05-1.50729E-05-9.45818E-19 2.04018E-18
 -1      2888 9.52437E-05-2.85829E-05-2.85689E-05-1.35322E-08 1.96932E-18 3.77460E-18
 -1      2889 9.52422E-05-2.85815E-05-2.85689E-05-1.44444E-08 1.06819E-18 4.24882E-18
 -1      2890 9.52477E-05-2.85866E-05-2.85690E-05-6.16719E-09 4.51640E-21-1.91577E-18
 -1      2891 9.52470E-05-2.85859E-05-2.85690E-05-8.25620E-09 1.30022E-18-5.46515E-19
 -1      2892 9.52461E-05-2.85851E-05-2.85690E-05-1.03519E-08 1.51777E-18 1.49882E-18
 -1      2893 9.52450E-05-2.85840E-05-2.85690E-05-1.19613E-08 1.75766E-18 2.31554E-18
 -1      2894 9.52451E-05-2.85828E-05-2.85696E-05-1.37592E-08 1.08937E-18 3.81885E-18
 -1      2895 9.52475E-05-2.85847E-05-2.85698E-05-1.00410E-08 6.45786E-19 2.82517E-19
 -1      2896 9.52410E-05-2.85803E-05-2.85688E-05-1.51945E-08 1.85603E-19 1.95631E-18
 -1      2897 9.52392E-05-2.85787E-05-2.85688E-05-1.53313E-08 5.96293E-19-1.13953E-18
 -1      2898 9.52387E-05-2.85779E-05-2.85690E-05-1.69453E-08 8.29791E-19-1.46461E-18
 -1      2899 9.52420E-05-2.85804E-05-2.85693E-05-1.60236E-08 1.39509E-18 4.54308E-18
 -1      2900 9.52484E-05-2.85873E-05-2.85690E-05-1.36571E-09 4.15050E-20 3.55583E-19
 -1      2901 9.52482E-05-2.85870E-05-2.85691E-05-3.68876E-09-2.96650E-19-5.70480E-19
 -1      2902 9.52491E-05-2.85860E-05-2.85699E-05-5.30976E-09 9.32478E-19-1.43645E-18
 -1      2903 9.52482E-05-2.85871E-05-2.85691E-05 3.57227E-09 2.65634E-19 6.49773E-19
 -1      2904 9.52484E-05-2.85873E-05-2.85690E-05 1.24034E-09-1.32536E-19 9.66899E-19
 -1      2905 9.52496E-05-2.85864E-05-2.85700E-05-8.17741E-11 7.87001E-19 5.31499E-19
 -1      2906 9.52472E-05-2.85861E-05-2.85690E-05 8.11121E-09 1.60619E-19-1.11560E-18
 -1      2907 9.52478E-05-2.85867E-05-2.85690E-05 6.03226E-09 3.41301E-19 2.89482E-19
 -1      2908 9.52492E-05-2.85861E-05-2.85699E-05 5.12987E-09-3.89282E-19-2.77218E-19
 -1      2909 9.52452E-05-2.85842E-05-2.85690E-05 1.19441E-08 1.95135E-18-7.98388E-19
 -1      2910 9.52463E-05-2.85853E-05-2.85690E-05 1.02741E-08 1.07942E-18-1.05870E-18
 -1      2911 9.52477E-05-2.85849E-05-2.85698E-05 9.89378E-09-1.82775E-19-5.65872E-19
 -1      2912 9.52424E-05-2.85816E-05-2.85689E-05 1.45030E-08 1.31508E-18-1.35431E-18
 -1      2913 9.52438E-05-2.85831E-05-2.85689E-05 1.35187E-08 2.81664E-18-1.72459E-18
 -1      2914 9.52452E-05-2.85830E-05-2.85695E-05 1.37660E-08 1.53764E-18-1.19278E-20
 -1      2915 1.21491E-04-5.87011E-05-2.72113E-05 3.00385E-05-1.86263E-18-6.02796E-19
 -1      2916 1.05295E-04-5.33782E-05-2.18294E-05 3.76256E-05-2.38249E-18 6.17745E-19
 -1      2917 9.38074E-05-1.78362E-05-3.26018E-05-2.28083E-07-1.24781E-18-4.17129E-19
 -1      2918 9.46596E-05-1.94628E-05-3.22120E-05 2.59625E-06-1.08872E-18-2.99960E-19
 -1      2919 1.02489E-04-3.26174E-05-2.99483E-05 6.19518E-06 1.97547E-19 9.55000E-19
 -1      2920 1.02919E-04-3.31345E-05-2.99096E-05 5.38737E-06 4.03955E-19 9.15630E-19
 -1      2921 1.04611E-04-3.42169E-05-3.01572E-05 4.82638E-06 3.36258E-19 6.94488E-19
 -1      2922 1.04506E-04-3.32544E-05-3.05079E-05 6.94817E-06 2.28701E-19 8.19261E-19
 -1      2923 3.34074E-05-1.54218E-05-7.13235E-06-1.43967E-05 2.23124E-18 3.49825E-18
 -1      2924 4.30578E-05-2.14595E-05-8.79049E-06-2.59061E-05 2.67493E-18 1.60259E-18
 -1      2925 1.51297E-04-6.07449E-05-3.93237E-05-3.97286E-06-8.99456E-19 1.86623E-18
 -1      2926 1.12665E-04-5.12719E-05-2.60603E-05-2.39013E-05 2.43236E-18-1.90676E-18
 -1      2927 1.04557E-04-4.30611E-05-2.59768E-05-2.51166E-05 2.62617E-18-1.63860E-18
 -1      2928 9.08731E-05-3.63640E-05-2.33540E-05-2.82514E-05 2.45674E-18-8.86896E-19
 -1      2929 5.75909E-05-2.99699E-05-1.13227E-05-3.24733E-05 2.90225E-18 5.74288E-19
 -1      2930 7.42305E-05-3.90359E-05-1.47671E-05-3.65227E-05 2.21806E-18-1.36266E-19
 -1      2931 1.38741E-04-5.52553E-05-3.62446E-05 1.01791E-05 1.46563E-19-2.32892E-18
 -1      2932 1.32954E-04-5.77830E-05-3.20449E-05 1.80770E-05-9.49656E-19-1.54859E-18
 -1      2933 1.37527E-04-5.18090E-05-3.67947E-05 2.46440E-06-5.51895E-20-2.59743E-18
 -1      2934 9.44829E-05-2.03412E-05-3.17810E-05 4.81657E-06-8.78987E-19-2.11801E-19
 -1      2935 9.43768E-05-2.09854E-05-3.14321E-05 7.50737E-06-6.31608E-19-2.05116E-19
 -1      2936 9.01109E-05-1.85166E-05-3.06539E-05 7.95934E-06-5.69356E-19-3.73662E-19
 -1      2937 9.08649E-05-1.72076E-05-3.15799E-05 3.61770E-06-9.22287E-19-5.00074E-19
 -1      2938 8.91976E-05-1.27932E-05-3.27488E-05-2.24894E-06-1.30054E-18-8.01220E-19
 -1      2939 1.28195E-04-7.01965E-06-5.26267E-05-6.30712E-07 3.45759E-18-1.60796E-19
 -1      2940 1.27829E-04-8.96926E-06-5.16108E-05-5.60215E-06 3.55817E-18-6.53671E-19
 -1      2941 9.10330E-05-1.70024E-05-3.17369E-05 7.22142E-08 8.02392E-19-8.18853E-19
 -1      2942 8.94400E-05-1.58455E-05-3.15614E-05-1.19154E-06 5.70463E-19-9.49822E-19
 -1      2943 8.99761E-05-1.74301E-05-3.11031E-05-2.73763E-06 3.98138E-19-8.47240E-19
 -1      2944 9.32845E-05-1.99511E-05-3.14334E-05-1.99606E-07 6.83412E-19-6.22271E-19
 -1      2945 1.38616E-04-5.42602E-05-3.63020E-05-7.69810E-06-1.19743E-19 1.51693E-18
 -1      2946 1.40193E-04-4.84090E-05-3.98247E-05-2.34798E-07 4.66292E-19 1.76141E-18
 -1      2947 1.01993E-04-5.14102E-05-2.16841E-05 3.44543E-05 1.49607E-18-5.64336E-19
 -1      2948 8.12754E-05-3.89516E-05-1.77540E-05 3.51414E-05 1.58649E-18-1.57379E-18
 -1      2949 1.26361E-04-5.85598E-05-2.88878E-05-2.45555E-05-1.06758E-18 9.44442E-19
 -1      2950 1.34888E-04-5.78553E-05-3.33178E-05-1.65221E-05-4.41887E-19 1.26827E-18
 -1      2951 1.34181E-04-5.55741E-05-3.37055E-05-8.88861E-06-7.60927E-19 1.69417E-18
 -1      2952 3.74282E-05-1.35643E-05-9.66660E-06-2.09885E-05-9.41054E-19-2.93073E-18
 -1      2953 4.56372E-05-1.90539E-05-1.09344E-05-3.15760E-05-1.27786E-18-2.43554E-18
 -1      2954 5.98176E-05-2.25156E-05-1.54496E-05-3.19013E-05-1.52032E-18-2.03050E-18
 -1      2955 7.93227E-05-7.52107E-06-3.07865E-05-3.60371E-06-6.85297E-19-1.47803E-18
 -1      2956 8.02183E-05-8.04478E-06-3.09636E-05-3.06579E-06-8.32677E-19-1.39102E-18
 -1      2957 1.45773E-04-6.39516E-05-3.49841E-05 5.35590E-06-2.71051E-19 1.55653E-18
 -1      2958 9.57722E-05-4.78900E-05-1.99803E-05-3.99856E-05-1.85310E-18-5.50201E-19
 -1      2959 1.13667E-04-5.61976E-05-2.47758E-05-3.52669E-05-1.33535E-18 3.34340E-19
 -1      2960 1.20204E-04-5.61192E-05-2.73177E-05-2.58338E-05-1.35001E-18 7.47480E-19
 -1      2961 3.36103E-05-1.19340E-05-8.83162E-06 1.04851E-05 6.33157E-20-4.23538E-18
 -1      2962 3.11385E-05-9.96783E-06-8.55688E-06-6.07987E-06-2.94926E-19-4.03971E-18
 -1      2963 4.56694E-05-1.31855E-05-1.32228E-05 1.36908E-05 3.66739E-19-3.69052E-18
 -1      2964 8.27760E-05-1.18519E-05-3.03934E-05-5.91726E-06-1.76118E-19-1.21091E-18
 -1      2965 8.12971E-05-9.51495E-06-3.07458E-05-5.11358E-06-2.41713E-19-1.39118E-18
 -1      2966 8.01997E-05-8.72244E-06-3.06795E-05-5.27257E-06-3.64614E-19-1.45756E-18
 -1      2967 9.84788E-05-2.35656E-05-3.20919E-05 5.63191E-06 1.25334E-18 2.54666E-19
 -1      2968 1.35985E-04-3.42954E-05-4.38377E-05-1.00906E-05 1.80556E-18-2.90712E-18
 -1      2969 1.33455E-04-3.98964E-05-4.03203E-05-8.23473E-06 9.45342E-19-3.42222E-18
 -1      2970 1.28644E-04-2.73410E-05-4.38946E-05-1.30114E-05 1.38035E-18-2.58843E-18
 -1      2971 7.68378E-05-3.58860E-05-1.72533E-05 3.87318E-05-2.36899E-18 1.18653E-18
 -1      2972 6.52817E-05-3.20785E-05-1.37236E-05 4.06530E-05-1.90053E-18 2.67737E-18
 -1      2973 5.80162E-05-2.54814E-05-1.34763E-05 3.59265E-05-1.16822E-18 2.37233E-18
 -1      2974 8.82088E-05-4.05210E-05-1.99936E-05-3.73333E-05-1.78110E-18-9.73982E-19
 -1      2975 9.17121E-05-3.70400E-05-2.33851E-05 2.95839E-05 1.29014E-18-5.65818E-19
 -1      2976 1.05790E-04-4.42762E-05-2.59783E-05 2.62582E-05 1.35361E-18 3.60783E-19
 -1      2977 8.08857E-05-9.43788E-06-3.05749E-05-1.84414E-06-7.90424E-19-1.23930E-18
 -1      2978 8.16960E-05-9.00090E-06-3.11989E-05-1.93767E-06-8.67727E-19-1.31377E-18
 -1      2979 8.38274E-05-1.03406E-05-3.14897E-05-1.36133E-06-1.10860E-18-1.11895E-18
 -1      2980 1.14470E-04-5.22594E-05-2.63373E-05 2.46665E-05 1.47320E-18 5.09987E-19
 -1      2981 8.80888E-05-1.32361E-05-3.20820E-05-6.74839E-07-1.18460E-18-8.87173E-19
 -1      2982 5.67009E-05-2.44941E-05-1.31577E-05-2.74789E-05 2.76577E-18 8.73291E-19
 -1      2983 3.27893E-05-1.27638E-05-7.91681E-06-7.26429E-06 1.70905E-18 3.66596E-18
 -1      2984 4.17751E-05-1.33543E-05-1.15928E-05-1.24509E-05 2.27606E-18 2.28508E-18
 -1      2985 3.34458E-05-1.04505E-05-9.46392E-06 1.19479E-06 1.21757E-18 3.24858E-18
 -1      2986 1.19439E-04-1.10744E-05-4.68916E-05-6.90695E-06 2.41383E-18-1.03709E-18
 -1      2987 1.26196E-04-1.31663E-05-4.90122E-05-8.85161E-06 2.81946E-18-1.33302E-18
 -1      2988 1.23395E-04-1.75836E-05-4.57115E-05-1.10210E-05 1.86813E-18-2.05043E-18
 -1      2989 3.65897E-05-1.60648E-05-8.16351E-06 2.21821E-05-7.23737E-19 3.54801E-18
 -1      2990 1.00814E-04-4.96214E-05-2.16275E-05 3.69076E-05-2.57339E-18 2.90268E-19
 -1      2991 1.26759E-04-5.78583E-05-2.94796E-05 2.06718E-05-1.83568E-18-1.16398E-18
 -1      2992 9.52397E-05-2.85793E-05-2.85688E-05 1.52211E-08-3.42715E-19-1.69395E-18
 -1      2993 9.52411E-05-2.85806E-05-2.85688E-05 1.50216E-08 3.06865E-19-1.27568E-18
 -1      2994 9.52423E-05-2.85808E-05-2.85692E-05 1.59012E-08 3.56332E-19-2.29343E-18
 -1      2995 9.52395E-05-2.85787E-05-2.85689E-05 1.64201E-08-4.40089E-19-2.13714E-18
 -1      2996 1.01120E-04-2.97828E-05-3.05901E-05 1.69852E-06 7.29501E-19 2.06800E-19
 -1      2997 1.00687E-04-2.93167E-05-3.05916E-05 2.00372E-06 7.98527E-19 4.58577E-19
 -1      2998 1.00475E-04-2.86496E-05-3.07632E-05 2.36527E-06 8.65089E-19 5.83740E-19
 -1      2999 1.26272E-04-6.09214E-05-2.76054E-05-2.08289E-05 1.70825E-18-2.19964E-18
 -1      3000 1.06695E-04-5.33388E-05-2.29063E-05-3.04835E-05 2.08635E-18-1.93208E-18
 -1      3001 1.35534E-04-2.05816E-05-4.96663E-05 1.02507E-05 2.56693E-18 1.80291E-18
 -1      3002 1.27769E-04-1.61546E-05-4.83622E-05 1.08983E-05 2.32532E-18 1.95262E-18
 -1      3003 1.32654E-04-2.63646E-05-4.59015E-05 1.10560E-05 1.61995E-18 2.53353E-18
 -1      3004 1.20331E-04-5.81113E-05-2.62887E-05 2.44808E-05 1.41211E-18 6.84469E-19
 -1      3005 9.88199E-05-2.49336E-05-3.16436E-05 4.05594E-06 1.11493E-18 1.69021E-19
 -1      3006 1.39082E-04-4.38556E-05-4.11218E-05 4.91621E-06 5.76724E-19 2.00059E-18
 -1      3007 1.34837E-04-3.76452E-05-4.22072E-05 9.51004E-06 6.36969E-19 2.57837E-18
 -1      3008 1.34943E-04-4.74414E-05-3.75920E-05 3.25070E-06 8.48356E-21 2.34146E-18
 -1      3009 1.51431E-04-5.26393E-05-4.25412E-05 1.85663E-05-1.34731E-18-3.32672E-18
 -1      3010 1.51863E-04-5.92750E-05-4.01765E-05 8.41632E-06-8.34619E-19-2.77181E-18
 -1      3011 7.93575E-05-7.84065E-06-3.06436E-05-4.83311E-06-4.13264E-19-1.39887E-18
 -1      3012 7.91041E-05-7.59359E-06-3.06908E-05-4.55175E-06-5.92414E-19-1.48834E-18
 -1      3013 7.92595E-05-8.57708E-06-3.02484E-05-4.14505E-06-6.60588E-19-1.34119E-18
 -1      3014 8.01177E-05-9.58546E-06-3.02038E-05-5.67090E-06-4.28545E-19-1.37860E-18
 -1      3015 1.22266E-04-9.88009E-06-4.87579E-05 5.80705E-06 2.57593E-18 1.39255E-18
 -1      3016 1.25929E-04-8.09846E-06-5.10684E-05 2.41901E-06 2.96927E-18 6.34811E-19
 -1      3017 1.19076E-04-8.35643E-06-4.78541E-05 2.24398E-07 2.43914E-18 4.01666E-19
 -1      3018 4.24530E-05-1.13748E-05-1.26897E-05-1.32784E-05-7.10052E-19-3.11676E-18
 -1      3019 8.86266E-05-4.48400E-05-1.82033E-05-3.45320E-05 2.59478E-18-7.06478E-19
 -1      3020 8.42602E-05-3.43523E-05-2.10149E-05 3.03164E-05 1.42503E-18-1.24281E-18
 -1      3021 7.01129E-05-2.95862E-05-1.69233E-05 3.21461E-05 1.33619E-18-2.15263E-18
 -1      3022 6.32341E-05-2.16179E-05-1.75189E-05 2.62833E-05 1.02369E-18-2.37339E-18
 -1      3023 8.03024E-05-2.75615E-05-2.24748E-05 2.68193E-05 9.65485E-19-1.17881E-18
 -1      3024 8.31938E-05-3.80189E-05-1.89867E-05-3.28473E-05 2.90501E-18-4.94350E-19
 -1      3025 1.35985E-04-6.34466E-05-3.13301E-05 1.47900E-05 7.36919E-19 1.60994E-18
 -1      3026 1.37397E-04-6.47041E-05-3.12099E-05-1.28629E-05 7.15108E-19-2.21457E-18
 -1      3027 1.58544E-04-5.15904E-05-4.60260E-05 1.40635E-05-1.93785E-18-2.55126E-18
 -1      3028 1.49461E-04-6.49537E-05-3.60179E-05-2.09902E-06-1.00532E-19-2.58705E-18
 -1      3029 9.80130E-05-2.49650E-05-3.13389E-05 1.88277E-06 8.84858E-19-1.73697E-19
 -1      3030 9.68438E-05-2.38322E-05-3.12805E-05 8.40335E-07 7.31094E-19-2.48058E-19
 -1      3031 1.00405E-04-2.78679E-05-3.10575E-05 3.45539E-06 1.04812E-18 8.12478E-19
 -1      3032 6.93073E-05-2.84092E-05-1.71153E-05-3.04622E-05 2.39424E-18 1.16361E-19
 -1      3033 8.16808E-05-3.36608E-05-2.01858E-05-2.92957E-05 2.75466E-18-5.11661E-19
 -1      3034 7.81129E-05-2.71676E-05-2.16461E-05-2.59691E-05 1.91391E-18-6.00017E-19
 -1      3035 5.59004E-05-2.02657E-05-1.48742E-05-2.40090E-05 2.23606E-18 4.34422E-19
 -1      3036 8.12023E-05-1.75069E-05-2.73811E-05 1.40243E-05 4.48497E-20-8.34341E-19
 -1      3037 8.06700E-05-1.88253E-05-2.64052E-05 1.63570E-05 4.49424E-19-9.48075E-19
 -1      3038 7.92561E-05-2.04239E-05-2.52516E-05 1.96803E-05 6.95566E-19-1.02320E-18
 -1      3039 8.01357E-05-2.36906E-05-2.39442E-05 2.27308E-05 8.63113E-19-1.14703E-18
 -1      3040 7.25014E-05-2.13216E-05-2.17833E-05 2.34780E-05 7.76703E-19-1.74759E-18
 -1      3041 7.36577E-05-1.59526E-05-2.45859E-05 1.58200E-05 3.31514E-19-1.56399E-18
 -1      3042 5.84208E-05-1.77330E-05-1.69830E-05-2.62730E-05-1.38187E-18-1.82843E-18
 -1      3043 6.63558E-05-2.36972E-05-1.82804E-05-3.17309E-05-1.52019E-18-1.64541E-18
 -1      3044 8.04860E-05-3.35541E-05-1.97389E-05-3.52608E-05-1.68427E-18-1.08362E-18
 -1      3045 9.88337E-05-4.51339E-05-2.30056E-05-3.39017E-05-1.75061E-18-1.79412E-19
 -1      3046 8.05105E-05-2.00313E-05-2.58228E-05-1.65560E-05 8.74995E-19-1.12947E-18
 -1      3047 8.11508E-05-1.92512E-05-2.65962E-05-1.47185E-05 9.77324E-19-1.05544E-18
 -1      3048 8.38001E-05-1.95877E-05-2.74909E-05-1.30588E-05 1.10513E-18-8.31580E-19
 -1      3049 8.48549E-05-1.97770E-05-2.79545E-05-1.16247E-05 5.78969E-19-1.55802E-19
 -1      3050 7.80913E-05-1.70965E-05-2.60406E-05-1.17070E-05 1.49229E-18-7.29802E-19
 -1      3051 8.69021E-05-2.05263E-05-2.84400E-05-1.05402E-05-2.29046E-21-5.78245E-20
 -1      3052 8.78352E-05-2.10668E-05-2.86617E-05-9.43813E-06-2.23819E-19-4.51781E-19
 -1      3053 8.27454E-05-1.84417E-05-2.74845E-05-9.40115E-06 3.02964E-19-7.91168E-19
 -1      3054 8.93938E-05-2.18926E-05-2.89275E-05-8.60328E-06 2.39596E-19-1.90372E-19
 -1      3055 9.01266E-05-2.25044E-05-2.90157E-05-7.67558E-06 6.48085E-19-3.21018E-19
 -1      3056 8.62885E-05-2.01602E-05-2.82866E-05-7.79125E-06 3.02615E-19 1.03446E-19
 -1      3057 9.12804E-05-2.32672E-05-2.91469E-05-6.98203E-06 5.13481E-19 9.37516E-20
 -1      3058 9.18031E-05-2.38278E-05-2.91582E-05-6.19576E-06-5.38313E-20 2.61784E-20
 -1      3059 8.89450E-05-2.18368E-05-2.87216E-05-6.47371E-06 6.82105E-19 4.01073E-19
 -1      3060 9.26342E-05-2.44718E-05-2.92096E-05-5.60532E-06-9.06121E-19-5.10521E-19
 -1      3061 9.29828E-05-2.49395E-05-2.91808E-05-4.94540E-06-1.62390E-18-4.77371E-19
 -1      3062 9.08848E-05-2.33107E-05-2.89328E-05-5.33147E-06-1.00801E-18-9.77423E-19
 -1      3063 9.35684E-05-2.54561E-05-2.91871E-05-4.44336E-06-1.65285E-18-1.71964E-19
 -1      3064 9.37878E-05-2.58270E-05-2.91405E-05-3.89793E-06-1.54715E-18-1.55116E-20
 -1      3065 9.22681E-05-2.45298E-05-2.90119E-05-4.33088E-06-1.09826E-18-8.61897E-19
 -1      3066 9.41934E-05-2.62290E-05-2.91233E-05-3.47627E-06-1.49520E-18 5.97956E-20
 -1      3067 9.43240E-05-2.65149E-05-2.90717E-05-3.03256E-06-1.08008E-18-8.61247E-20
 -1      3068 9.32360E-05-2.55011E-05-2.90167E-05-3.46455E-06-1.55458E-18 4.37222E-19
 -1      3069 9.46011E-05-2.68219E-05-2.90439E-05-2.68395E-06-7.02753E-19-1.68093E-19
 -1      3070 9.46737E-05-2.70389E-05-2.89942E-05-2.32823E-06-4.30005E-19-7.62050E-19
 -1      3071 9.39032E-05-2.62574E-05-2.89829E-05-2.72863E-06-1.12947E-18 4.60967E-19
 -1      3072 9.48611E-05-2.72710E-05-2.89631E-05-2.04463E-06-2.22116E-19-7.47205E-19
 -1      3073 9.48978E-05-2.74344E-05-2.89187E-05-1.76319E-06-3.52953E-19-1.63177E-18
 -1      3074 9.43579E-05-2.68380E-05-2.89319E-05-2.11588E-06-5.78296E-19-6.81540E-19
 -1      3075 9.50234E-05-2.76087E-05-2.88884E-05-1.53600E-06-4.95813E-19-1.78393E-18
 -1      3076 9.50390E-05-2.77315E-05-2.88503E-05-1.31603E-06-3.30185E-19-2.03109E-18
 -1      3077 9.46648E-05-2.72799E-05-2.88760E-05-1.61525E-06-4.77318E-19-1.19356E-18
 -1      3078 9.51226E-05-2.78620E-05-2.88229E-05-1.13669E-06 5.22769E-19-1.83225E-18
 -1      3079 9.51265E-05-2.79542E-05-2.87912E-05-9.66762E-07 1.63477E-18-1.88514E-18
 -1      3080 9.48705E-05-2.76147E-05-2.88220E-05-1.21325E-06 3.14008E-19-1.29028E-18
 -1      3081 9.51817E-05-2.80517E-05-2.87674E-05-8.27205E-07 1.79574E-18-2.42041E-18
 -1      3082 9.51797E-05-2.81208E-05-2.87417E-05-6.97478E-07 9.34286E-19-2.97685E-18
 -1      3083 9.50074E-05-2.78674E-05-2.87732E-05-8.95644E-07 1.32549E-18-1.61605E-18
 -1      3084 9.52158E-05-2.81936E-05-2.87217E-05-5.90424E-07 9.04061E-19-2.66473E-18
 -1      3085 9.52113E-05-2.82454E-05-2.87013E-05-4.92601E-07 1.25749E-18-2.00163E-18
 -1      3086 9.50979E-05-2.80577E-05-2.87310E-05-6.48564E-07 1.10618E-18-1.79812E-18
 -1      3087 9.52346E-05-2.82995E-05-2.86848E-05-4.11682E-07 4.12903E-19-2.52481E-18
 -1      3088 9.52294E-05-2.83384E-05-2.86688E-05-3.38820E-07-3.28013E-19-2.18609E-18
 -1      3089 9.51570E-05-2.82004E-05-2.86954E-05-4.59273E-07 6.57007E-19-1.35917E-18
 -1      3090 9.52447E-05-2.83802E-05-2.86550E-05-2.75805E-07-4.67948E-19-2.47847E-18
 -1      3091 9.52397E-05-2.84102E-05-2.86421E-05-2.20454E-07-6.78788E-19-1.60817E-18
 -1      3092 9.51959E-05-2.83091E-05-2.86656E-05-3.13715E-07-1.92541E-19-2.20021E-18
 -1      3093 9.52488E-05-2.84391E-05-2.86318E-05-1.77267E-07-8.20963E-19-1.13226E-18
 -1      3094 9.52447E-05-2.84602E-05-2.86225E-05-1.39459E-07 2.84081E-19-1.31946E-18
 -1      3095 9.52203E-05-2.83898E-05-2.86417E-05-2.06166E-07-2.03994E-19-1.57880E-18
 -1      3096 9.52499E-05-2.84812E-05-2.86144E-05-1.08449E-07 7.60719E-19-1.77543E-18
 -1      3097 9.52467E-05-2.84967E-05-2.86075E-05-8.18090E-08 7.51742E-19-1.45793E-18
 -1      3098 9.52347E-05-2.84472E-05-2.86233E-05-1.30331E-07 2.69896E-19-2.07881E-18
 -1      3099 9.52495E-05-2.85118E-05-2.86013E-05-6.01170E-08 5.99242E-19-1.06227E-18
 -1      3100 9.52470E-05-2.85230E-05-2.85963E-05-4.18050E-08 9.55875E-19-5.83035E-19
 -1      3101 9.52431E-05-2.84890E-05-2.86090E-05-7.63039E-08 7.24863E-19-2.45434E-18
 -1      3102 9.52483E-05-2.85337E-05-2.85916E-05-2.70675E-08 1.30130E-18-1.39862E-19
 -1      3103 9.52465E-05-2.85417E-05-2.85879E-05-1.48847E-08 2.97649E-19-3.05372E-19
 -1      3104 9.52474E-05-2.85189E-05-2.85980E-05-3.87700E-08 1.43085E-18-2.18620E-18
 -1      3105 9.52468E-05-2.85490E-05-2.85845E-05-5.24523E-09-1.03767E-18 7.23858E-19
 -1      3106 9.52455E-05-2.85546E-05-2.85819E-05 2.50443E-09-1.54976E-18 1.07808E-18
 -1      3107 9.52492E-05-2.85400E-05-2.85897E-05-1.34964E-08 4.82222E-19-3.22659E-19
 -1      3108 9.52452E-05-2.85596E-05-2.85794E-05 8.47900E-09-1.61133E-18 1.65069E-18
 -1      3109 9.52443E-05-2.85634E-05-2.85776E-05 1.30843E-08-2.20484E-18 1.41240E-18
 -1      3110 9.52493E-05-2.85545E-05-2.85836E-05 2.82767E-09-1.44522E-18 2.08175E-18
 -1      3111 9.52437E-05-2.85666E-05-2.85758E-05 1.64807E-08-2.12985E-18 2.23136E-18
 -1      3112 9.52431E-05-2.85692E-05-2.85746E-05 1.89030E-08-1.81837E-20 2.65854E-18
 -1      3113 9.52485E-05-2.85642E-05-2.85791E-05 1.27481E-08-1.40871E-18 2.78089E-18
 -1      3114 9.52423E-05-2.85711E-05-2.85733E-05 2.05280E-08 9.58813E-19 2.48779E-18
 -1      3115 9.52420E-05-2.85728E-05-2.85725E-05 2.14681E-08 1.05307E-18 1.41582E-18
 -1      3116 9.52472E-05-2.85705E-05-2.85758E-05 1.81850E-08 1.75886E-19 2.90462E-18
 -1      3117 9.52412E-05-2.85740E-05-2.85716E-05 2.19050E-08 4.72741E-19 5.51353E-19
 -1      3118 9.52410E-05-2.85751E-05-2.85711E-05 2.18564E-08-5.10191E-19 4.74199E-19
 -1      3119 9.52457E-05-2.85744E-05-2.85735E-05 2.05533E-08 2.79223E-19 1.69672E-18
 -1      3120 9.52403E-05-2.85758E-05-2.85705E-05 2.15161E-08 1.26621E-18-4.64873E-19
 -1      3121 9.52403E-05-2.85766E-05-2.85702E-05 2.08068E-08 2.08491E-18 4.49884E-19
 -1      3122 9.52442E-05-2.85767E-05-2.85718E-05 2.08654E-08 2.09013E-19 1.99302E-19
 -1      3123 9.52397E-05-2.85771E-05-2.85697E-05 1.99389E-08 5.94938E-19-3.44490E-19
 -1      3124 9.52398E-05-2.85777E-05-2.85695E-05 1.87979E-08 3.63948E-19-4.71814E-19
 -1      3125 9.52429E-05-2.85783E-05-2.85706E-05 1.98341E-08 4.14236E-19-1.83823E-20
 -1      3126 1.05246E-04-3.49856E-05-3.01457E-05 2.44745E-06 5.83497E-19 4.51108E-19
 -1      3127 1.04700E-04-3.42629E-05-3.01466E-05 1.65427E-06 7.99227E-19 4.81125E-19
 -1      3128 1.03375E-04-3.30227E-05-3.01810E-05 1.02160E-06 6.34289E-19 3.12626E-19
 -1      3129 1.02702E-04-3.18468E-05-3.03130E-05 8.23190E-07 4.86581E-19 1.32442E-19
 -1      3130 1.04652E-04-3.41724E-05-3.02309E-05 5.21726E-07 6.07726E-19-1.03562E-19
 -1      3131 1.02758E-04-2.61201E-05-3.27884E-05 7.79112E-06 1.98983E-19 7.54827E-19
 -1      3132 1.03964E-04-2.84609E-05-3.24373E-05 8.71177E-06 1.50460E-19 7.70328E-19
 -1      3133 1.05294E-04-3.08394E-05-3.18747E-05 8.76736E-06 1.95081E-19 9.13045E-19
 -1      3134 1.06249E-04-3.28276E-05-3.15161E-05 8.45962E-06 1.75986E-19 9.37230E-19
 -1      3135 1.07185E-04-3.01963E-05-3.29572E-05 9.44227E-06 1.87837E-19 1.22154E-18
 -1      3136 9.96298E-05-2.11909E-05-3.36278E-05-2.03570E-06 6.93708E-19 4.50898E-19
 -1      3137 9.96286E-05-2.11721E-05-3.36344E-05 6.75042E-07 4.78492E-19 5.49171E-19
 -1      3138 1.01131E-04-2.38248E-05-3.31963E-05-7.29109E-06 9.06201E-19 9.89589E-20
 -1      3139 1.00279E-04-2.21820E-05-3.34295E-05-5.14728E-06 7.35006E-19 2.83094E-19
 -1      3140 1.01794E-04-2.07469E-05-3.47767E-05-3.94117E-06 8.00659E-19 2.02867E-19
 -1      3141 1.03793E-04-2.85270E-05-3.23348E-05-9.91324E-06 6.20900E-19 4.66793E-19
 -1      3142 1.02601E-04-2.61511E-05-3.27074E-05-9.04589E-06 8.58072E-19 1.41118E-19
 -1      3143 1.04026E-04-2.46879E-05-3.40018E-05-8.96562E-06 6.41373E-19-3.04012E-19
 -1      3144 1.05954E-04-3.29528E-05-3.13389E-05-9.48912E-06 7.89971E-19 7.35053E-19
 -1      3145 1.05039E-04-3.09216E-05-3.17308E-05-9.88315E-06 7.92742E-19 9.72087E-19
 -1      3146 1.06857E-04-3.02803E-05-3.27746E-05-1.05279E-05 3.39929E-19-9.15011E-20
 -1      3147 1.06630E-04-3.56027E-05-3.04577E-05-7.05470E-06 4.60342E-19 9.44642E-19
 -1      3148 1.06308E-04-3.44806E-05-3.07853E-05-8.21647E-06 7.09302E-19 7.63521E-19
 -1      3149 1.08474E-04-3.48902E-05-3.14909E-05-8.90038E-06 6.99551E-19 6.86238E-19
 -1      3150 1.05825E-04-3.62477E-05-2.98059E-05-3.95995E-06 1.61184E-19 9.78476E-19
 -1      3151 1.06079E-04-3.60488E-05-3.00368E-05-5.33950E-06 6.34834E-19 8.79061E-19
 -1      3152 1.08222E-04-3.71781E-05-3.04241E-05-5.67076E-06 6.03536E-19 1.38386E-18
 -1      3153 1.04104E-04-3.54564E-05-2.93938E-05-1.17747E-06-5.55590E-19 1.05896E-18
 -1      3154 1.04723E-04-3.58766E-05-2.95341E-05-2.40522E-06-4.33446E-19 1.12100E-18
 -1      3155 1.06491E-04-3.72539E-05-2.96766E-05-2.30306E-06-1.99787E-19 1.04258E-18
 -1      3156 1.02098E-04-3.39758E-05-2.91661E-05 8.85054E-07-8.10206E-19 1.00348E-18
 -1      3157 1.02853E-04-3.46770E-05-2.92414E-05-3.60839E-08-6.21933E-19 1.21965E-18
 -1      3158 1.04082E-04-3.59267E-05-2.92275E-05 3.59611E-07-5.06563E-19 1.62216E-18
 -1      3159 1.00221E-04-3.23615E-05-2.90573E-05 2.18964E-06-6.03626E-19 4.87465E-19
 -1      3160 1.00951E-04-3.31014E-05-2.90938E-05 1.59429E-06-5.64167E-19 5.20510E-19
 -1      3161 1.01658E-04-3.40557E-05-2.89955E-05 2.12380E-06-5.90136E-19 8.87958E-19
 -1      3162 9.86713E-05-3.09331E-05-2.90117E-05 2.86215E-06-4.22834E-19 5.53947E-19
 -1      3163 9.92943E-05-3.15776E-05-2.90302E-05 2.54436E-06-5.28781E-19 4.30339E-19
 -1      3164 9.95805E-05-3.22016E-05-2.88986E-05 3.09049E-06-4.50649E-19 9.38020E-19
 -1      3165 9.74965E-05-2.98194E-05-2.89917E-05 3.07393E-06-6.02671E-19 3.53202E-19
 -1      3166 9.79876E-05-3.03174E-05-2.90052E-05 2.96425E-06-2.58116E-19 4.08349E-19
 -1      3167 9.79785E-05-3.06520E-05-2.88720E-05 3.46273E-06-3.63853E-19 7.87950E-19
 -1      3168 9.66603E-05-2.90322E-05-2.89757E-05 2.98299E-06-6.03198E-19 3.17182E-19
 -1      3169 9.70269E-05-2.93826E-05-2.89908E-05 3.01414E-06-8.77501E-19 2.21343E-19
 -1      3170 9.68367E-05-2.94966E-05-2.88732E-05 3.44015E-06-5.77474E-19 3.95344E-19
 -1      3171 9.60950E-05-2.85262E-05-2.89540E-05 2.71432E-06 1.47629E-19 3.93406E-19
 -1      3172 9.63585E-05-2.87512E-05-2.89730E-05 2.83083E-06-2.56863E-19 3.99848E-19
 -1      3173 9.60763E-05-2.87150E-05-2.88782E-05 3.18212E-06-5.31512E-19-4.13176E-19
 -1      3174 9.57300E-05-2.82365E-05-2.89242E-05 2.35839E-06-1.13919E-19 1.15194E-18
 -1      3175 9.59144E-05-2.83658E-05-2.89468E-05 2.51859E-06 2.79988E-19 1.00064E-18
 -1      3176 9.56026E-05-2.82390E-05-2.88760E-05 2.80296E-06-3.05840E-19 8.97560E-19
 -1      3177 9.55046E-05-2.81000E-05-2.88876E-05 1.97641E-06-5.82672E-19 1.24134E-18
 -1      3178 9.56313E-05-2.81618E-05-2.89124E-05 2.15126E-06-5.57402E-19 8.40453E-19
 -1      3179 9.53295E-05-2.79899E-05-2.88635E-05 2.37944E-06-1.53420E-20 9.62733E-19
 -1      3180 9.53719E-05-2.80639E-05-2.88471E-05 1.60691E-06-1.46254E-19 1.56431E-18
 -1      3181 9.54580E-05-2.80816E-05-2.88724E-05 1.77766E-06 1.92768E-19 1.66535E-18
 -1      3182 9.51884E-05-2.78961E-05-2.88417E-05 1.96000E-06-5.61438E-19 1.21143E-18
 -1      3183 9.52981E-05-2.80879E-05-2.88056E-05 1.27184E-06-9.25369E-19 1.66163E-18
 -1      3184 9.53562E-05-2.80792E-05-2.88300E-05 1.42754E-06-4.73068E-19 1.89746E-18
 -1      3185 9.51289E-05-2.79003E-05-2.88135E-05 1.57287E-06-5.37854E-19 1.92480E-18
 -1      3186 9.52599E-05-2.81434E-05-2.87656E-05 9.81617E-07-7.35926E-19 1.36769E-18
 -1      3187 9.52991E-05-2.81207E-05-2.87881E-05 1.11688E-06-7.38282E-19 1.65329E-18
 -1      3188 9.51160E-05-2.79599E-05-2.87819E-05 1.23236E-06-6.85642E-19 2.02816E-18
 -1      3189 9.52423E-05-2.82116E-05-2.87287E-05 7.39029E-07 2.57328E-19 4.75839E-19
 -1      3190 9.52688E-05-2.81832E-05-2.87486E-05 8.52230E-07-1.64780E-19 5.87291E-19
 -1      3191 9.51271E-05-2.80457E-05-2.87496E-05 9.43566E-07-6.14586E-20 1.04862E-18
 -1      3192 9.52358E-05-2.82808E-05-2.86961E-05 5.42186E-07 1.91150E-19 7.91465E-19
 -1      3193 9.52537E-05-2.82517E-05-2.87132E-05 6.34024E-07-2.76599E-21 1.03359E-18
 -1      3194 9.51482E-05-2.81387E-05-2.87186E-05 7.05794E-07-1.43846E-19 4.40655E-19
 -1      3195 9.52347E-05-2.83446E-05-2.86681E-05 3.86584E-07 9.36385E-19 9.20777E-19
 -1      3196 9.52469E-05-2.83176E-05-2.86824E-05 4.59085E-07 6.52701E-19 7.97203E-19
 -1      3197 9.51713E-05-2.82278E-05-2.86903E-05 5.14998E-07 2.65150E-19 5.82885E-19
 -1      3198 9.52358E-05-2.83997E-05-2.86448E-05 2.66538E-07-2.70198E-19 9.26566E-19
 -1      3199 9.52442E-05-2.83763E-05-2.86564E-05 3.22341E-07 7.11295E-19 6.47041E-19
 -1      3200 9.51925E-05-2.83069E-05-2.86653E-05 3.65442E-07 4.69482E-19 4.55378E-20
 -1      3201 9.52376E-05-2.84453E-05-2.86258E-05 1.76097E-07 4.49064E-19 5.60037E-19
 -1      3202 9.52433E-05-2.84259E-05-2.86350E-05 2.17998E-07-1.69378E-20 8.75782E-19
 -1      3203 9.52098E-05-2.83739E-05-2.86441E-05 2.50806E-07-9.15065E-20 5.77945E-19
 -1      3204 9.52391E-05-2.84816E-05-2.86108E-05 1.09603E-07 1.04558E-18 2.30620E-19
 -1      3205 9.52430E-05-2.84661E-05-2.86179E-05 1.40272E-07 8.32208E-19 1.79194E-20
 -1      3206 9.52231E-05-2.84282E-05-2.86265E-05 1.64884E-07 9.06570E-19 6.43025E-20
 -1      3207 9.52402E-05-2.85097E-05-2.85991E-05 6.19872E-08 3.19733E-19 1.57491E-18
 -1      3208 9.52428E-05-2.84976E-05-2.86045E-05 8.38223E-08 6.55476E-19 7.50835E-19
 -1      3209 9.52325E-05-2.84710E-05-2.86122E-05 1.01976E-07 6.19405E-19-2.17792E-19
 -1      3210 9.52408E-05-2.85308E-05-2.85902E-05 2.89052E-08 1.67576E-18 9.58002E-19
 -1      3211 9.52425E-05-2.85217E-05-2.85942E-05 4.39600E-08 1.35459E-18 1.78814E-18
 -1      3212 9.52388E-05-2.85036E-05-2.86009E-05 5.70905E-08 4.91288E-19 4.81676E-19
 -1      3213 9.52410E-05-2.85462E-05-2.85836E-05 6.75517E-09 6.21350E-19 1.29476E-18
 -1      3214 9.52420E-05-2.85395E-05-2.85865E-05 1.67297E-08 1.22583E-18 1.76185E-18
 -1      3215 9.52425E-05-2.85278E-05-2.85921E-05 2.60086E-08 1.05818E-18 3.83514E-19
 -1      3216 9.52408E-05-2.85571E-05-2.85788E-05-7.36252E-09 3.63157E-19 2.52395E-18
 -1      3217 9.52414E-05-2.85523E-05-2.85808E-05-1.10372E-09 5.63017E-19 2.26506E-18
 -1      3218 9.52444E-05-2.85453E-05-2.85854E-05 5.26964E-09-1.59896E-19 1.77639E-18
 -1      3219 9.52405E-05-2.85646E-05-2.85754E-05-1.57202E-08-2.73033E-19 3.99011E-18
 -1      3220 9.52408E-05-2.85613E-05-2.85768E-05-1.21122E-08-2.81700E-21 3.17530E-18
 -1      3221 9.52451E-05-2.85574E-05-2.85805E-05-7.89253E-09-4.22796E-19 2.62850E-18
 -1      3222 9.52400E-05-2.85696E-05-2.85731E-05-2.00499E-08 7.29315E-20 4.45015E-18
 -1      3223 9.52401E-05-2.85673E-05-2.85740E-05-1.82859E-08-3.07284E-19 4.67756E-18
 -1      3224 9.52448E-05-2.85657E-05-2.85768E-05-1.56333E-08-1.31088E-18 4.13412E-18
 -1      3225 9.52396E-05-2.85728E-05-2.85715E-05-2.16308E-08 4.35634E-19 3.56481E-18
 -1      3226 9.52395E-05-2.85713E-05-2.85720E-05-2.11204E-08 7.18796E-19 4.01797E-18
 -1      3227 9.52441E-05-2.85710E-05-2.85742E-05-1.95882E-08 2.96645E-19 5.23870E-18
 -1      3228 9.52392E-05-2.85749E-05-2.85704E-05-2.13741E-08 1.78135E-18 2.00252E-18
 -1      3229 9.52390E-05-2.85738E-05-2.85708E-05-2.17023E-08 1.22111E-18 2.77267E-18
 -1      3230 9.52432E-05-2.85744E-05-2.85724E-05-2.09598E-08 1.31375E-18 3.51342E-18
 -1      3231 9.52390E-05-2.85763E-05-2.85697E-05-1.98719E-08 2.37202E-18 1.26390E-18
 -1      3232 9.52387E-05-2.85756E-05-2.85699E-05-2.07746E-08 2.34847E-18 2.10499E-18
 -1      3233 9.52422E-05-2.85766E-05-2.85710E-05-2.06097E-08 1.76408E-18 3.89870E-18
 -1      3234 9.52390E-05-2.85775E-05-2.85692E-05-1.78643E-08 1.09233E-18 3.31863E-19
 -1      3235 9.52385E-05-2.85767E-05-2.85694E-05-1.91408E-08 1.58836E-18 5.94278E-19
 -1      3236 9.52413E-05-2.85778E-05-2.85701E-05-1.92880E-08 2.42469E-18 4.74686E-18
 -1      3237 9.52408E-05-2.85788E-05-2.85694E-05-1.76878E-08 2.04926E-18 3.00369E-18
 -1      3238 9.52512E-05-2.85857E-05-2.85709E-05 1.22729E-09 5.63935E-19 4.55042E-19
 -1      3239 9.52512E-05-2.85857E-05-2.85709E-05-1.45208E-09 8.14119E-19-1.96359E-19
 -1      3240 9.52504E-05-2.85852E-05-2.85708E-05 6.59740E-09 3.96082E-20-1.45860E-19
 -1      3241 9.52510E-05-2.85856E-05-2.85709E-05 4.06801E-09-1.64727E-19 1.49572E-18
 -1      3242 9.52525E-05-2.85849E-05-2.85719E-05 2.72252E-09 4.15949E-19 6.32344E-19
 -1      3243 9.52485E-05-2.85839E-05-2.85705E-05 1.15026E-08 2.15184E-19 2.74073E-19
 -1      3244 9.52496E-05-2.85847E-05-2.85707E-05 9.27425E-09-1.17080E-19-6.99010E-19
 -1      3245 9.52513E-05-2.85842E-05-2.85716E-05 8.29878E-09 9.76414E-19 9.38813E-20
 -1      3246 9.52453E-05-2.85818E-05-2.85701E-05 1.53400E-08-5.10227E-20-1.37766E-19
 -1      3247 9.52470E-05-2.85830E-05-2.85703E-05 1.37165E-08-2.16139E-19 1.14898E-18
 -1      3248 9.52488E-05-2.85828E-05-2.85711E-05 1.32408E-08-4.45925E-19 4.67733E-19
 -1      3249 1.00143E-04-2.74642E-05-3.11808E-05 3.22749E-06 9.24407E-19 2.40202E-19
 -1      3250 1.32972E-04-4.85242E-05-3.65758E-05-2.26122E-06 1.52678E-19-2.64248E-18
 -1      3251 1.33240E-04-5.34181E-05-3.41102E-05 4.07789E-06-6.65755E-19-2.40266E-18
 -1      3252 1.07248E-04-5.11736E-05-2.42216E-05 3.13053E-05-2.44147E-18-3.49401E-21
 -1      3253 9.35766E-05-4.38837E-05-2.09695E-05 3.56984E-05-2.39583E-18 3.63748E-19
 -1      3254 1.13751E-04-5.21717E-05-2.61932E-05-2.68142E-05-1.54075E-18 6.61346E-19
 -1      3255 1.24124E-04-5.56857E-05-2.94825E-05-1.86188E-05-1.14492E-18 1.15923E-18
 -1      3256 9.52509E-05-2.85855E-05-2.85709E-05-4.32180E-09 6.74905E-19-2.29371E-18
 -1      3257 9.52503E-05-2.85850E-05-2.85708E-05-6.86952E-09 1.34141E-18-2.42586E-18
 -1      3258 9.52524E-05-2.85848E-05-2.85719E-05-3.04640E-09 3.61839E-19-1.54748E-18
 -1      3259 1.00326E-04-2.21416E-05-3.34660E-05 3.82045E-06 1.92081E-19 7.32541E-19
 -1      3260 1.01201E-04-2.37790E-05-3.32458E-05 6.01027E-06 1.45413E-19 7.25467E-19
 -1      3261 1.04215E-04-2.46371E-05-3.41031E-05 7.76965E-06 2.03753E-19 1.00348E-18
 -1      3262 1.01835E-04-2.06641E-05-3.48126E-05 2.64129E-06 5.04708E-19 4.47066E-19
 -1      3263 7.81236E-05-2.34462E-05-2.31802E-05-2.17975E-05 1.06681E-18-9.46136E-19
 -1      3264 7.75680E-05-2.06552E-05-2.43990E-05-1.91478E-05 3.86260E-19-7.37329E-19
 -1      3265 7.23508E-05-1.69417E-05-2.36043E-05-1.54006E-05 6.60768E-19-1.61863E-19
 -1      3266 8.45990E-05-1.66254E-05-2.91800E-05 9.34512E-06-3.68563E-19-6.48935E-19
 -1      3267 8.36493E-05-1.71260E-05-2.84801E-05 1.15665E-05-1.82941E-19-7.27068E-19
 -1      3268 7.76155E-05-1.42201E-05-2.70194E-05 1.03434E-05-1.35775E-19-1.05411E-18
 -1      3269 4.50372E-05-1.65205E-05-1.18652E-05 2.57604E-05-1.28860E-18 2.50754E-18
 -1      3270 3.69734E-05-1.15094E-05-1.02282E-05 1.36900E-05-3.68340E-19 3.11539E-18
 -1      3271 4.46302E-05-8.55497E-06-1.50457E-05-4.45649E-06-7.35555E-19-3.20655E-18
 -1      3272 4.95599E-05-1.21898E-05-1.58624E-05-1.85274E-05-1.13375E-18-2.35221E-18
 -1      3273 1.28139E-04-5.64229E-05-3.10518E-05 1.39508E-05-1.55309E-18-2.06937E-18
 -1      3274 1.19186E-04-5.52258E-05-2.70584E-05 2.32492E-05-2.37414E-18-8.01141E-19
 -1      3275 1.26800E-04-5.35330E-05-3.13779E-05 8.19087E-06-1.24429E-18-1.74566E-18
 -1      3276 9.90837E-05-2.60358E-05-3.12804E-05 2.69878E-06 9.13291E-19-1.39493E-19
 -1      3277 1.29192E-04-5.56637E-05-3.13783E-05-1.21598E-05-1.05724E-18 1.66214E-18
 -1      3278 1.31661E-04-5.31120E-05-3.38667E-05-5.13526E-06-6.66403E-19 2.33008E-18
 -1      3279 1.23791E-04-5.37776E-05-2.99682E-05-1.41818E-05-1.12721E-18 1.41883E-18
 -1      3280 8.85304E-05-1.74640E-05-3.04304E-05-5.60072E-06 9.21159E-20-9.02837E-19
 -1      3281 8.64783E-05-1.60200E-05-3.02310E-05-6.46953E-06-1.53360E-19-9.14933E-19
 -1      3282 8.65522E-05-1.31970E-05-3.14235E-05 4.84098E-07-1.02972E-18-9.37481E-19
 -1      3283 1.63529E-04-4.58836E-05-5.11129E-05 1.13925E-05-2.62760E-18-1.26187E-18
 -1      3284 5.30194E-05-1.44101E-05-1.62757E-05 1.81809E-05 5.68439E-19-3.11401E-18
 -1      3285 4.55533E-05-9.67549E-06-1.50635E-05 7.01299E-06 5.55832E-20-3.44541E-18
 -1      3286 9.96493E-05-2.74196E-05-3.09490E-05 1.42623E-06 7.26894E-19-7.38664E-20
 -1      3287 1.24296E-04-2.33419E-05-4.37155E-05-1.27555E-05 1.34519E-18-2.18947E-18
 -1      3288 1.24157E-04-2.84340E-05-4.11152E-05-1.30705E-05 9.84146E-19-2.21264E-18
 -1      3289 1.18490E-04-1.92267E-05-4.28334E-05-1.17853E-05 1.38575E-18-1.63586E-18
 -1      3290 1.26843E-04-3.79624E-05-3.85626E-05-1.07574E-05 9.25913E-19-2.68351E-18
 -1      3291 1.31527E-04-4.39380E-05-3.76662E-05-7.12342E-06 7.59947E-19-2.78123E-18
 -1      3292 1.28141E-04-4.59885E-05-3.52083E-05-4.80672E-06 2.34046E-19-2.37042E-18
 -1      3293 8.70344E-05-3.95132E-05-2.01253E-05 3.63135E-05-2.00794E-18 5.88873E-19
 -1      3294 7.93560E-05-3.37331E-05-1.93602E-05 3.43421E-05-1.67546E-18 9.08549E-19
 -1      3295 9.49141E-05-4.15264E-05-2.27186E-05 3.07015E-05-1.85574E-18 3.61074E-19
 -1      3296 7.91283E-05-9.54943E-06-2.98397E-05-1.89954E-06-7.36924E-19-1.18981E-18
 -1      3297 8.06148E-05-1.04251E-05-3.00763E-05-6.48441E-07-8.26641E-19-1.18580E-18
 -1      3298 5.22310E-05-9.63071E-06-1.77922E-05 6.43199E-07-4.87507E-19-2.81988E-18
 -1      3299 7.86268E-05-2.89532E-05-2.09623E-05-3.03455E-05-1.62188E-18-1.18434E-18
 -1      3300 9.88950E-05-4.12867E-05-2.45343E-05-2.84347E-05-1.67419E-18 8.77738E-20
 -1      3301 1.07267E-04-4.82007E-05-2.51703E-05-2.86550E-05-1.71027E-18 2.97049E-19
 -1      3302 1.11972E-04-4.86093E-05-2.72649E-05-2.17777E-05-1.53757E-18 7.10932E-19
 -1      3303 1.14736E-04-9.96879E-06-4.52773E-05-4.24176E-07 2.05702E-18 2.85860E-19
 -1      3304 1.17196E-04-1.00214E-05-4.64497E-05-3.73981E-06 2.21118E-18-2.56466E-19
 -1      3305 1.15462E-04-1.27151E-05-4.43309E-05-6.68906E-06 1.77665E-18-6.80313E-19
 -1      3306 4.18093E-05-1.09743E-05-1.26755E-05 6.50640E-06 2.54878E-19 2.26306E-18
 -1      3307 6.27189E-05-1.77434E-05-1.88833E-05 2.03163E-05 6.33660E-19-2.47524E-18
 -1      3308 1.06327E-04-3.56051E-05-3.02871E-05 3.67106E-06 3.34482E-19 5.72613E-19
 -1      3309 1.07117E-04-3.62995E-05-3.03559E-05 2.32620E-06 4.80391E-19 4.65857E-19
 -1      3310 1.06521E-04-3.55910E-05-3.04247E-05 4.77678E-06 2.10576E-19 5.95756E-19
 -1      3311 9.52391E-05-2.85781E-05-2.85690E-05 1.74153E-08 3.62899E-19-1.80869E-18
 -1      3312 6.84806E-05-2.06096E-05-2.03431E-05-2.23125E-05 1.16458E-18-4.37969E-19
 -1      3313 1.08958E-04-3.47060E-05-3.17786E-05 8.02477E-06 9.04828E-20 1.03344E-18
 -1      3314 1.06672E-04-3.42903E-05-3.10216E-05 7.29468E-06 2.49230E-19 7.62729E-19
 -1      3315 1.07039E-04-3.53015E-05-3.07525E-05 6.28596E-06 1.39716E-19 7.32705E-19
 -1      3316 1.28176E-04-5.16433E-05-3.28670E-05-4.05918E-06-7.70886E-19 1.93618E-18
 -1      3317 1.32448E-04-5.08122E-05-3.50915E-05-3.75332E-07-4.67724E-19 2.09683E-18
 -1      3318 1.30390E-04-4.61575E-05-3.62826E-05 4.37948E-06-1.80312E-19 2.08783E-18
 -1      3319 9.52494E-05-2.85845E-05-2.85707E-05-9.46638E-09 5.90355E-19-2.30017E-19
 -1      3320 9.52482E-05-2.85837E-05-2.85705E-05-1.16951E-08 5.90616E-19 2.02565E-18
 -1      3321 9.52511E-05-2.85840E-05-2.85716E-05-8.57201E-09 1.33064E-18-4.34866E-19
 -1      3322 9.52440E-05-2.85810E-05-2.85699E-05-1.60495E-08 2.09084E-18 5.36016E-18
 -1      3323 9.52426E-05-2.85800E-05-2.85697E-05-1.67974E-08 2.15238E-18 4.54120E-18
 -1      3324 9.52429E-05-2.85795E-05-2.85700E-05-1.77391E-08 2.96474E-18 5.13473E-18
 -1      3325 9.52458E-05-2.85822E-05-2.85701E-05-1.44719E-08 1.31288E-18 3.22593E-18
 -1      3326 9.52431E-05-2.85803E-05-2.85697E-05 1.70804E-08-5.42799E-20-1.93142E-18
 -1      3327 9.52448E-05-2.85804E-05-2.85705E-05 1.72695E-08-1.09028E-18-7.29046E-19
 -1      3328 1.12187E-04-5.10926E-05-2.60602E-05 2.44286E-05-2.42447E-18-4.26994E-19
 -1      3329 1.01370E-04-3.02926E-05-3.04937E-05 8.03006E-07 5.70211E-19 1.07000E-19
 -1      3330 1.00604E-04-2.87797E-05-3.07618E-05 1.22721E-06 6.25234E-19-1.60870E-20
 -1      3331 1.31628E-04-3.29612E-05-4.26525E-05 1.16405E-05 9.54130E-19 2.45084E-18
 -1      3332 1.25727E-04-2.74313E-05-4.26340E-05 1.27882E-05 1.17071E-18 2.46555E-18
 -1      3333 1.29179E-04-3.78346E-05-3.92731E-05 9.96928E-06 3.82435E-19 2.52199E-18
 -1      3334 8.28736E-05-1.19225E-05-3.04640E-05 1.35662E-06-8.35219E-19-1.11889E-18
 -1      3335 8.72775E-05-1.47443E-05-3.10940E-05 2.48579E-06-9.34195E-19-8.65618E-19
 -1      3336 8.69685E-05-1.55436E-05-3.06022E-05 4.54118E-06-7.47321E-19-7.37465E-19
 -1      3337 8.08573E-05-1.15651E-05-2.96913E-05 1.33227E-06-7.50326E-19-1.13111E-18
 -1      3338 8.62978E-05-1.70685E-05-2.96821E-05-7.99565E-06-2.30022E-19-8.96271E-19
 -1      3339 8.42976E-05-1.42110E-05-2.99997E-05-7.01407E-06-1.98781E-19-1.05946E-18
 -1      3340 8.23886E-05-1.28794E-05-2.98431E-05-7.25025E-06-3.11722E-19-1.23893E-18
 -1      3341 1.21671E-04-1.81004E-05-4.45955E-05 1.13476E-05 1.64070E-18 2.35054E-18
 -1      3342 1.22428E-04-1.38782E-05-4.70366E-05 8.78417E-06 2.24220E-18 1.71418E-18
 -1      3343 1.16639E-04-1.23803E-05-4.49780E-05 6.75630E-06 1.81096E-18 1.18791E-18
 -1      3344 5.46038E-05-2.03645E-05-1.41281E-05 2.94999E-05-1.09516E-18 1.99550E-18
 -1      3345 5.30550E-05-1.59128E-05-1.56525E-05 2.23243E-05-9.83908E-19 1.91811E-18
 -1      3346 6.47366E-05-2.45394E-05-1.69846E-05 3.09433E-05-1.41044E-18 1.45446E-18
 -1      3347 8.62940E-05-1.60627E-05-3.01127E-05 6.51698E-06-5.53549E-19-7.44783E-19
 -1      3348 5.85414E-05-1.41202E-05-1.87224E-05-1.86513E-05-1.19486E-18-2.03478E-18
 -1      3349 9.52415E-05-2.85793E-05-2.85695E-05 1.76820E-08-3.58596E-19-1.36056E-18
 -1      3350 9.55734E-05-2.28476E-05-3.11794E-05-4.52117E-07 6.22833E-19-4.90854E-19
 -1      3351 9.40751E-05-2.16543E-05-3.10377E-05-1.73594E-06 4.59467E-19-5.62091E-19
 -1      3352 9.75773E-05-2.54683E-05-3.09090E-05-6.55341E-07 5.27723E-19-2.59925E-19
 -1      3353 7.84667E-05-9.38071E-06-2.95984E-05-5.00097E-06-5.88731E-19-1.25080E-18
 -1      3354 7.84164E-05-9.25084E-06-2.96803E-05-3.88565E-06-7.60979E-19-1.30933E-18
 -1      3355 7.81897E-05-1.00457E-05-2.91557E-05-2.71886E-06-7.49275E-19-1.23184E-18
 -1      3356 9.96934E-05-2.77330E-05-3.08240E-05 4.81186E-07 5.35028E-19-4.93202E-20
 -1      3357 9.24077E-05-2.03977E-05-3.08532E-05-3.17477E-06 4.63836E-19-6.08536E-19
 -1      3358 9.05707E-05-1.90564E-05-3.06631E-05-4.40654E-06 2.60214E-19-7.62702E-19
 -1      3359 9.08607E-05-2.04879E-05-3.01785E-05-6.14384E-06 1.09431E-19-6.61546E-19
 -1      3360 9.47318E-05-2.33140E-05-3.06166E-05-3.41252E-06 3.87317E-19-4.74647E-19
 -1      3361 8.19857E-05-1.38305E-05-2.91535E-05 5.67664E-06-5.45243E-19-9.22081E-19
 -1      3362 1.02050E-04-3.11115E-05-3.04408E-05 6.23356E-08 4.53244E-19 2.75236E-20
 -1      3363 4.92094E-05-1.48144E-05-1.42544E-05-1.69033E-05 1.88274E-18 1.38712E-18
 -1      3364 6.10426E-05-1.84341E-05-1.78154E-05-2.02789E-05 1.47009E-18 3.57766E-19
 -1      3365 1.00073E-04-2.86524E-05-3.05747E-05-9.95459E-07 4.47629E-19-1.10381E-19
 -1      3366 9.89687E-05-2.72295E-05-3.07494E-05-8.49511E-07 4.69242E-19-2.22475E-19
 -1      3367 9.77608E-05-2.62628E-05-3.06419E-05-2.12756E-06 4.13469E-19-3.93579E-19
 -1      3368 5.68742E-05-9.97923E-06-1.98477E-05 7.05719E-06-2.12751E-19-2.52273E-18
 -1      3369 5.52476E-05-9.25006E-06-1.98035E-05-3.90373E-06-7.29393E-19-2.45904E-18
 -1      3370 6.60031E-05-1.45207E-05-2.18940E-05-1.15637E-05 4.29734E-19 3.03502E-19
 -1      3371 6.90216E-05-1.44324E-05-2.34523E-05-9.76906E-06 1.05192E-18 5.07360E-19
 -1      3372 7.92975E-05-1.70306E-05-2.67033E-05-7.11368E-06 1.09817E-18-7.95789E-19
 -1      3373 8.13629E-05-1.79204E-05-2.72473E-05-6.45119E-06 4.66849E-19-4.27348E-19
 -1      3374 8.36634E-05-1.89718E-05-2.77487E-05-6.19959E-06 2.88425E-19-1.27892E-19
 -1      3375 8.52460E-05-1.98649E-05-2.80599E-05-5.65177E-06 8.59634E-19 4.61209E-19
 -1      3376 8.09727E-05-1.76389E-05-2.70637E-05-4.12004E-06 9.01782E-19-3.65725E-19
 -1      3377 8.69458E-05-2.08251E-05-2.83554E-05-5.40128E-06 6.78114E-19-3.46807E-19
 -1      3378 8.81121E-05-2.16289E-05-2.85206E-05-4.90652E-06 6.04421E-21-6.67826E-19
 -1      3379 8.48648E-05-1.96755E-05-2.78830E-05-3.95908E-06 2.29409E-19-8.86561E-19
 -1      3380 8.93640E-05-2.24541E-05-2.86875E-05-4.63660E-06-1.06405E-18-7.84111E-19
 -1      3381 9.02024E-05-2.31334E-05-2.87644E-05-4.18058E-06-1.58514E-18-8.12057E-19
 -1      3382 8.77399E-05-2.14642E-05-2.83648E-05-3.66832E-06-5.76047E-19-1.54891E-18
 -1      3383 9.11187E-05-2.38149E-05-2.88515E-05-3.90036E-06-1.20341E-18-1.00119E-18
 -1      3384 9.17095E-05-2.43667E-05-2.88766E-05-3.48683E-06-1.26938E-18-5.96137E-19
 -1      3385 8.98547E-05-2.29753E-05-2.86350E-05-3.27361E-06-1.64064E-18-6.01015E-19
 -1      3386 9.23753E-05-2.49144E-05-2.89153E-05-3.21236E-06-1.31027E-18-6.12366E-19
 -1      3387 9.27848E-05-2.53517E-05-2.89117E-05-2.84742E-06-1.32068E-18-2.76932E-19
 -1      3388 9.13998E-05-2.42159E-05-2.87737E-05-2.82325E-06-1.15357E-18-1.41262E-18
 -1      3389 9.32654E-05-2.57837E-05-2.89219E-05-2.59238E-06-1.06291E-18-7.79437E-20
 -1      3390 9.35456E-05-2.61246E-05-2.89037E-05-2.27904E-06-9.46385E-19-3.32576E-19
 -1      3391 9.25206E-05-2.52131E-05-2.88326E-05-2.36304E-06-7.91118E-19-8.10878E-19
 -1      3392 9.38904E-05-2.64611E-05-2.88981E-05-2.05207E-06-1.04038E-18-4.71518E-20
 -1      3393 9.40803E-05-2.67242E-05-2.88738E-05-1.78960E-06-7.32118E-19-6.58246E-19
 -1      3394 9.33286E-05-2.60027E-05-2.88446E-05-1.92650E-06-5.76703E-19-2.36646E-19
 -1      3395 9.43265E-05-2.69841E-05-2.88601E-05-1.59458E-06-3.38814E-19-7.61582E-19
 -1      3396 9.44541E-05-2.71860E-05-2.88344E-05-1.37945E-06-1.16118E-19-6.50962E-19
 -1      3397 9.39080E-05-2.66214E-05-2.88308E-05-1.53392E-06-6.62666E-19 9.03972E-19
 -1      3398 9.46290E-05-2.73855E-05-2.88174E-05-1.21668E-06 2.28891E-19-3.64123E-19
 -1      3399 9.47141E-05-2.75397E-05-2.87930E-05-1.04371E-06 4.29480E-19 3.36170E-19
 -1      3400 9.43215E-05-2.71023E-05-2.88039E-05-1.19482E-06 3.17676E-19 5.33473E-19
 -1      3401 9.48379E-05-2.76921E-05-2.87754E-05-9.11179E-07 7.97803E-19 3.00020E-19
 -1      3402 9.48942E-05-2.78095E-05-2.87536E-05-7.74523E-07 1.06162E-18-1.70527E-19
 -1      3403 9.46151E-05-2.74738E-05-2.87720E-05-9.11169E-07 2.56090E-19 1.21416E-18
 -1      3404 9.49812E-05-2.79253E-05-2.87369E-05-6.68968E-07 5.82636E-19-9.65681E-19
 -1      3405 9.50182E-05-2.80144E-05-2.87181E-05-5.62788E-07 5.07276E-19-1.39100E-18
 -1      3406 9.48226E-05-2.77592E-05-2.87396E-05-6.80125E-07 3.36686E-19 3.53737E-19
 -1      3407 9.50788E-05-2.81020E-05-2.87032E-05-4.80390E-07 5.32543E-19-1.53066E-18
 -1      3408 9.51027E-05-2.81693E-05-2.86874E-05-3.99139E-07-8.49046E-20-1.72256E-18
 -1      3409 9.49681E-05-2.79771E-05-2.87092E-05-4.96259E-07 1.48995E-19-1.69479E-18
 -1      3410 9.51461E-05-2.82380E-05-2.86740E-05-3.33058E-07-4.42935E-20-1.62106E-18
 -1      3411 9.51621E-05-2.82905E-05-2.86605E-05-2.69722E-07 1.37193E-19-1.52191E-18
 -1      3412 9.50712E-05-2.81457E-05-2.86815E-05-3.50094E-07-2.30426E-20-1.41550E-18
 -1      3413 9.51899E-05-2.83386E-05-2.86498E-05-2.23220E-07-2.40726E-19-1.13137E-18
 -1      3414 9.51992E-05-2.83756E-05-2.86395E-05-1.78828E-07-5.14778E-19-1.08566E-18
 -1      3415 9.51414E-05-2.82723E-05-2.86577E-05-2.38988E-07 6.88773E-20-1.58055E-18
 -1      3416 9.52175E-05-2.84111E-05-2.86307E-05-1.44579E-07-6.70815E-19-1.17226E-18
 -1      3417 9.52230E-05-2.84384E-05-2.86226E-05-1.12470E-07 8.71506E-20-2.21729E-18
 -1      3418 9.51871E-05-2.83637E-05-2.86383E-05-1.58443E-07-7.08345E-19-8.73649E-19
 -1      3419 9.52348E-05-2.84642E-05-2.86155E-05-8.78739E-08 1.15561E-18-2.41384E-18
 -1      3420 9.52378E-05-2.84840E-05-2.86092E-05-6.51568E-08 1.30074E-18-2.05832E-18
 -1      3421 9.52170E-05-2.84310E-05-2.86224E-05-9.95194E-08 6.44935E-19-9.17190E-19
 -1      3422 9.52449E-05-2.85025E-05-2.86035E-05-4.79468E-08 1.82223E-18-1.87251E-18
 -1      3423 9.52463E-05-2.85166E-05-2.85987E-05-3.23024E-08 2.45657E-18-6.38612E-19
 -1      3424 9.52358E-05-2.84799E-05-2.86096E-05-5.74275E-08 2.10053E-18-8.83370E-19
 -1      3425 9.52502E-05-2.85295E-05-2.85943E-05-2.06354E-08 1.69170E-18-3.18958E-19
 -1      3426 9.52506E-05-2.85395E-05-2.85907E-05-1.02249E-08 7.62967E-19 1.98877E-19
 -1      3427 9.52468E-05-2.85147E-05-2.85995E-05-2.81709E-08 2.80740E-18 5.95419E-20
 -1      3428 9.52524E-05-2.85483E-05-2.85873E-05-2.63433E-09 3.37637E-20 4.67976E-19
 -1      3429 9.52522E-05-2.85551E-05-2.85846E-05 3.97563E-09-7.32239E-19 1.95135E-18
 -1      3430 9.52525E-05-2.85390E-05-2.85915E-05-8.50944E-09 1.33011E-18-7.24088E-19
 -1      3431 9.52525E-05-2.85609E-05-2.85820E-05 8.63205E-09-2.24900E-18 2.31006E-18
 -1      3432 9.52519E-05-2.85654E-05-2.85800E-05 1.25381E-08-1.48338E-18 1.77779E-18
 -1      3433 9.52548E-05-2.85555E-05-2.85854E-05 4.12464E-09-7.83484E-19 1.38068E-18
 -1      3434 9.52515E-05-2.85691E-05-2.85781E-05 1.51311E-08-1.02094E-19 1.89575E-18
 -1      3435 9.52507E-05-2.85719E-05-2.85766E-05 1.71546E-08 3.02976E-19 2.35578E-18
 -1      3436 9.52547E-05-2.85663E-05-2.85808E-05 1.17226E-08-5.70978E-19 4.19965E-19
 -1      3437 9.52497E-05-2.85741E-05-2.85752E-05 1.83303E-08-1.52377E-20 2.01006E-18
 -1      3438 9.52489E-05-2.85759E-05-2.85741E-05 1.90695E-08-3.04937E-19 1.02675E-18
 -1      3439 9.52533E-05-2.85731E-05-2.85773E-05 1.57929E-08-1.21711E-19 9.02064E-19
 -1      3440 9.52477E-05-2.85772E-05-2.85730E-05 1.92992E-08-7.70758E-19 1.61654E-18
 -1      3441 9.52469E-05-2.85783E-05-2.85723E-05 1.91576E-08-4.88835E-19 6.21339E-19
 -1      3442 9.52512E-05-2.85772E-05-2.85746E-05 1.74437E-08-5.67389E-19 1.33639E-19
 -1      3443 9.52462E-05-2.85790E-05-2.85716E-05 1.86852E-08-2.34693E-19 1.80713E-21
 -1      3444 9.52455E-05-2.85798E-05-2.85710E-05 1.79874E-08-9.10962E-19-1.41255E-18
 -1      3445 9.52479E-05-2.85813E-05-2.85714E-05 1.61896E-08-1.43950E-18 5.13752E-19
 -1      3446 9.52494E-05-2.85797E-05-2.85728E-05 1.73472E-08-8.35498E-19-8.30540E-19
 -1      3447 4.72985E-05-1.10563E-05-1.52955E-05 1.00692E-05-3.70279E-19 1.45499E-18
 -1      3448 4.52501E-05-9.95214E-06-1.46301E-05-1.35811E-06 8.15653E-19 1.60237E-18
 -1      3449 6.13365E-05-1.51948E-05-1.96719E-05-1.56270E-05 5.66797E-19 5.15155E-19
 -1      3450 1.07213E-04-2.60225E-05-3.49291E-05-1.06876E-05 6.50498E-19-9.83456E-20
 -1      3451 1.05644E-04-2.25824E-05-3.55547E-05-9.03363E-06 8.97458E-19-3.05188E-21
 -1      3452 1.03950E-04-1.96383E-05-3.62357E-05-6.00431E-06 1.04251E-18-2.00260E-19
 -1      3453 1.03182E-04-1.80859E-05-3.64968E-05-2.81185E-06 1.11186E-18 2.87747E-20
 -1      3454 1.07362E-04-2.04113E-05-3.73553E-05-8.30158E-06 8.96465E-19-2.17224E-19
 -1      3455 1.11327E-04-3.79429E-05-3.14862E-05-7.59073E-06 9.24043E-20 8.34926E-19
 -1      3456 1.10957E-04-3.59452E-05-3.21496E-05-9.08714E-06 3.52149E-19 3.18789E-19
 -1      3457 1.09914E-04-3.93612E-05-3.02193E-05-3.44923E-06 3.19352E-19 1.26671E-18
 -1      3458 1.10466E-04-3.88928E-05-3.07094E-05-5.25125E-06 3.40346E-19 1.01059E-18
 -1      3459 1.13177E-04-4.02073E-05-3.12593E-05-5.38345E-06 9.33267E-20 4.76928E-19
 -1      3460 1.07035E-04-3.82986E-05-2.94154E-05 3.75034E-08-3.88187E-19 1.20889E-18
 -1      3461 1.08149E-04-3.88885E-05-2.97202E-05-1.44907E-06 2.08641E-19 1.29779E-18
 -1      3462 1.10340E-04-4.05520E-05-2.99247E-05-8.99630E-07 1.08191E-19 1.10380E-18
 -1      3463 1.03852E-04-3.61385E-05-2.89749E-05 2.37211E-06-6.91369E-19 1.28320E-18
 -1      3464 1.05119E-04-3.71847E-05-2.91398E-05 1.35248E-06-4.98946E-19 1.38293E-18
 -1      3465 1.06569E-04-3.86877E-05-2.91287E-05 2.28250E-06-4.12584E-19 1.28128E-18
 -1      3466 1.00998E-04-3.37649E-05-2.87778E-05 3.64115E-06-4.34231E-19 5.58723E-19
 -1      3467 1.02161E-04-3.48721E-05-2.88505E-05 3.05973E-06-5.88897E-19 1.11961E-18
 -1      3468 1.02928E-04-3.59883E-05-2.87296E-05 4.09733E-06-6.58636E-19 5.51329E-19
 -1      3469 9.87542E-05-3.16809E-05-2.87202E-05 4.11997E-06-5.06510E-19 8.18584E-19
 -1      3470 9.96929E-05-3.26361E-05-2.87418E-05 3.87249E-06-5.24107E-19 8.31404E-19
 -1      3471 9.99392E-05-3.33365E-05-2.85805E-05 4.82249E-06-5.74490E-19 6.81536E-19
 -1      3472 9.71453E-05-3.00733E-05-2.87290E-05 4.09217E-06-5.22191E-19 8.08867E-19
 -1      3473 9.78379E-05-3.08020E-05-2.87276E-05 4.07022E-06-3.09076E-19 8.16758E-19
 -1      3474 9.77419E-05-3.11554E-05-2.85652E-05 4.85009E-06-5.10397E-19 6.22446E-19
 -1      3475 9.60796E-05-2.89525E-05-2.87597E-05 3.77592E-06-1.15232E-18 1.56635E-18
 -1      3476 9.65550E-05-2.94565E-05-2.87521E-05 3.89075E-06-8.46853E-19 1.22535E-18
 -1      3477 9.62626E-05-2.95558E-05-2.86083E-05 4.48860E-06-9.55234E-19 7.40166E-19
 -1      3478 9.54287E-05-2.82451E-05-2.87887E-05 3.31982E-06-4.13577E-19 9.69053E-19
 -1      3479 9.57341E-05-2.85608E-05-2.87835E-05 3.50759E-06-6.35597E-19 1.33540E-18
 -1      3480 9.53503E-05-2.84928E-05-2.86661E-05 3.94649E-06-8.72003E-19 1.83027E-18
 -1      3481 9.50706E-05-2.78538E-05-2.88061E-05 2.81761E-06-4.41586E-19 1.25878E-18
 -1      3482 9.52533E-05-2.80270E-05-2.88064E-05 3.03526E-06-8.10484E-19 9.68291E-19
 -1      3483 9.48470E-05-2.78604E-05-2.87164E-05 3.34916E-06-7.70124E-19 9.76612E-19
 -1      3484 9.49054E-05-2.76850E-05-2.88095E-05 2.32519E-06 7.59988E-21 1.83973E-18
 -1      3485 9.50052E-05-2.77586E-05-2.88155E-05 2.54529E-06 3.98050E-19 1.84093E-18
 -1      3486 9.46184E-05-2.75439E-05-2.87505E-05 2.76688E-06-3.15813E-19 1.66113E-18
 -1      3487 9.48586E-05-2.76610E-05-2.88007E-05 1.87345E-06-9.68309E-19 2.13323E-18
 -1      3488 9.49056E-05-2.76703E-05-2.88113E-05 2.07967E-06-7.32099E-19 1.81610E-18
 -1      3489 9.45611E-05-2.74422E-05-2.87673E-05 2.23582E-06-4.81615E-19 2.54884E-18
 -1      3490 9.48779E-05-2.77228E-05-2.87829E-05 1.47712E-06-6.51659E-19 2.41168E-18
 -1      3491 9.48937E-05-2.76943E-05-2.87965E-05 1.66079E-06-6.92437E-19 2.25139E-18
 -1      3492 9.46012E-05-2.74748E-05-2.87691E-05 1.77171E-06-9.07656E-19 1.91603E-18
 -1      3493 9.49292E-05-2.78284E-05-2.87596E-05 1.14081E-06-7.08781E-19 1.93786E-18
 -1      3494 9.49279E-05-2.77808E-05-2.87746E-05 1.29837E-06-8.51299E-19 2.16884E-18
 -1      3495 9.46889E-05-2.75826E-05-2.87598E-05 1.37840E-06-8.54013E-19 1.48084E-18
 -1      3496 9.49911E-05-2.79500E-05-2.87339E-05 8.63045E-07 1.26323E-19 1.29916E-18
 -1      3497 9.49819E-05-2.78957E-05-2.87490E-05 9.94193E-07 3.01034E-19 1.81178E-18
 -1      3498 9.47929E-05-2.77246E-05-2.87432E-05 1.05312E-06-1.05160E-20 1.94694E-18
 -1      3499 9.50516E-05-2.80704E-05-2.87080E-05 6.38935E-07-1.10824E-19 8.17299E-19
 -1      3500 9.50398E-05-2.80169E-05-2.87223E-05 7.45319E-07-2.56577E-20 9.74944E-19
 -1      3501 9.48950E-05-2.78745E-05-2.87225E-05 7.89658E-07 2.05393E-19 1.99501E-18
 -1      3502 9.51048E-05-2.81801E-05-2.86835E-05 4.61919E-07 8.28434E-19-9.99402E-20
 -1      3503 9.50933E-05-2.81315E-05-2.86965E-05 5.46238E-07 1.26662E-19 4.28119E-19
 -1      3504 9.49856E-05-2.80165E-05-2.87005E-05 5.80249E-07 4.28531E-19 9.50385E-19
 -1      3505 9.51483E-05-2.82745E-05-2.86613E-05 3.24901E-07-1.52445E-19 4.85398E-19
 -1      3506 9.51385E-05-2.82328E-05-2.86727E-05 3.90289E-07 5.42090E-19 4.87585E-19
 -1      3507 9.50609E-05-2.81424E-05-2.86789E-05 4.16765E-07 4.59190E-19 9.25057E-19
 -1      3508 9.51821E-05-2.83526E-05-2.86421E-05 2.20955E-07 2.35462E-19 1.75584E-19
 -1      3509 9.51743E-05-2.83182E-05-2.86517E-05 2.70584E-07-5.65448E-20 4.67768E-19
 -1      3510 9.51204E-05-2.82489E-05-2.86589E-05 2.91382E-07 1.12938E-19 4.35917E-19
 -1      3511 9.52069E-05-2.84149E-05-2.86258E-05 1.43725E-07 1.53910E-18-3.11917E-20
 -1      3512 9.52012E-05-2.83875E-05-2.86338E-05 1.80571E-07 1.23940E-18 6.60540E-19
 -1      3513 9.51655E-05-2.83358E-05-2.86411E-05 1.96965E-07 2.80403E-19-3.59421E-19
 -1      3514 9.52244E-05-2.84632E-05-2.86124E-05 8.76160E-08 7.94068E-19 7.90263E-19
 -1      3515 9.52205E-05-2.84420E-05-2.86188E-05 1.14332E-07 1.38596E-18 8.46518E-19
 -1      3516 9.51981E-05-2.84043E-05-2.86258E-05 1.27240E-07 1.03429E-18 1.05867E-18
 -1      3517 9.52360E-05-2.84996E-05-2.86016E-05 4.78709E-08 6.97060E-19-8.48320E-20
 -1      3518 9.52335E-05-2.84836E-05-2.86067E-05 6.67321E-08 2.94153E-19 6.53511E-20
 -1      3519 9.52208E-05-2.84570E-05-2.86129E-05 7.68448E-08 9.17568E-19 1.07094E-18
 -1      3520 9.52431E-05-2.85263E-05-2.85931E-05 2.05509E-08 7.23567E-19 6.15671E-19
 -1      3521 9.52417E-05-2.85146E-05-2.85970E-05 3.34500E-08 6.99197E-19 9.94625E-20
 -1      3522 9.52357E-05-2.84965E-05-2.86025E-05 4.13124E-08 1.27500E-19 4.30314E-19
 -1      3523 9.52469E-05-2.85453E-05-2.85866E-05 2.47362E-09-3.51301E-19 1.05525E-18
 -1      3524 9.52464E-05-2.85370E-05-2.85895E-05 1.09436E-08 4.25464E-19 9.68259E-19
 -1      3525 9.52448E-05-2.85251E-05-2.85941E-05 1.69986E-08 2.54184E-19 5.18596E-19
 -1      3526 9.52485E-05-2.85584E-05-2.85816E-05-8.87482E-09-1.13565E-18 1.32848E-18
 -1      3527 9.52484E-05-2.85527E-05-2.85838E-05-3.62276E-09-7.43902E-19 7.80199E-19
 -1      3528 9.52496E-05-2.85454E-05-2.85875E-05 9.90679E-10 1.59952E-19 1.98973E-19
 -1      3529 9.52485E-05-2.85671E-05-2.85778E-05-1.54356E-08-2.12057E-18 2.81277E-18
 -1      3530 9.52488E-05-2.85633E-05-2.85794E-05-1.24677E-08-1.98153E-18 1.60397E-18
 -1      3531 9.52516E-05-2.85592E-05-2.85825E-05-8.99381E-09-1.92312E-18 1.50445E-18
 -1      3532 9.52477E-05-2.85727E-05-2.85750E-05-1.86694E-08 1.51859E-19 2.97200E-18
 -1      3533 9.52481E-05-2.85702E-05-2.85762E-05-1.72858E-08-8.62978E-19 2.64589E-18
 -1      3534 9.52516E-05-2.85683E-05-2.85786E-05-1.47071E-08-2.35253E-18 5.70241E-19
 -1      3535 9.52463E-05-2.85761E-05-2.85730E-05-1.96394E-08 5.41915E-19 4.01739E-18
 -1      3536 9.52469E-05-2.85745E-05-2.85738E-05-1.93345E-08 7.61282E-19 3.35916E-18
 -1      3537 9.52504E-05-2.85740E-05-2.85756E-05-1.74535E-08-1.85285E-19 1.09565E-18
 -1      3538 9.52448E-05-2.85782E-05-2.85714E-05-1.91390E-08 1.64476E-18 5.12075E-18
 -1      3539 9.52453E-05-2.85771E-05-2.85720E-05-1.95136E-08 8.55380E-19 4.67560E-18
 -1      3540 9.52487E-05-2.85775E-05-2.85734E-05-1.81866E-08 7.98929E-19 4.03100E-18
 -1      3541 9.52524E-05-2.85833E-05-2.85725E-05 9.80664E-09 1.04019E-18-6.56745E-19
 -1      3542 9.52534E-05-2.85838E-05-2.85727E-05 7.14247E-09 1.42080E-18 3.20362E-20
 -1      3543 9.52476E-05-2.85821E-05-2.85709E-05-1.42142E-08 1.26665E-18 2.05190E-18
 -1      3544 9.52496E-05-2.85820E-05-2.85718E-05 1.42696E-08-7.22567E-20 3.00866E-19
 -1      3545 9.52512E-05-2.85828E-05-2.85722E-05 1.20572E-08 8.23009E-19-6.50738E-19
 -1      3546 9.52533E-05-2.85823E-05-2.85733E-05 1.09453E-08 1.77739E-18-5.06090E-19
 -1      3547 9.52503E-05-2.85812E-05-2.85725E-05 1.49580E-08-4.05714E-19-6.84510E-19
 -1      3548 9.52540E-05-2.85840E-05-2.85729E-05 4.18822E-09 8.92487E-19 7.30756E-19
 -1      3549 9.52543E-05-2.85841E-05-2.85729E-05 1.36256E-09 1.17129E-18-1.44400E-19
 -1      3550 9.52551E-05-2.85829E-05-2.85738E-05 5.80055E-09 1.63681E-18 5.82631E-19
 -1      3551 7.89574E-05-1.21978E-05-2.86819E-05 3.53133E-06-5.27650E-19-1.15345E-18
 -1      3552 1.15423E-04-5.12873E-05-2.77396E-05 1.81234E-05-2.02516E-18-2.95337E-19
 -1      3553 1.06140E-04-4.65414E-05-2.53600E-05 2.43285E-05-2.40864E-18 3.34982E-19
 -1      3554 4.66696E-05-1.17061E-05-1.47458E-05-9.87419E-06 1.56726E-18 2.05554E-18
 -1      3555 5.88975E-05-1.24616E-05-1.96719E-05-9.57152E-06 7.66300E-19 8.80755E-19
 -1      3556 7.64103E-05-1.04401E-05-2.81932E-05-6.91189E-07-7.28872E-19-1.29170E-18
 -1      3557 7.61007E-05-1.21273E-05-2.74902E-05 4.05070E-06-4.39704E-19-1.23653E-18
 -1      3558 5.21524E-05-1.14241E-05-1.70693E-05-5.32546E-06 7.36960E-19 1.23111E-18
 -1      3559 1.09469E-04-2.97603E-05-3.41151E-05 1.00774E-05 3.19034E-19 1.43063E-18
 -1      3560 1.10858E-04-3.31310E-05-3.34116E-05 9.88992E-06 2.51128E-20 1.36854E-18
 -1      3561 7.48023E-05-2.38163E-05-2.16892E-05-2.64771E-05-1.53987E-18-1.09619E-18
 -1      3562 8.66181E-05-3.30499E-05-2.29706E-05-2.98012E-05-1.62482E-18-5.96576E-19
 -1      3563 1.01474E-04-3.06768E-05-3.03658E-05-1.28971E-06 4.02777E-19-1.73661E-19
 -1      3564 7.33796E-05-1.52927E-05-2.48812E-05-8.73953E-06 9.75105E-19 1.39972E-19
 -1      3565 7.61039E-05-1.59467E-05-2.58661E-05-7.65179E-06 9.33890E-19-6.62515E-19
 -1      3566 7.56364E-05-1.53933E-05-2.57013E-05-4.34565E-06 7.89879E-19-6.40332E-19
 -1      3567 6.83231E-05-1.33386E-05-2.34121E-05-5.24643E-06 5.40553E-19 4.19162E-19
 -1      3568 1.25419E-04-5.05469E-05-3.23887E-05 2.08273E-06-7.96747E-19-1.72237E-18
 -1      3569 1.22139E-04-5.17841E-05-2.99201E-05 9.73203E-06-1.36871E-18-1.37280E-18
 -1      3570 8.05338E-05-1.12090E-05-2.96811E-05-6.84538E-06-3.66670E-19-1.27464E-18
 -1      3571 7.93102E-05-1.03385E-05-2.96236E-05-6.31007E-06-5.12668E-19-1.23788E-18
 -1      3572 7.87791E-05-1.08808E-05-2.90431E-05-6.33783E-06-5.70439E-19-1.17614E-18
 -1      3573 7.35148E-05-1.21068E-05-2.63712E-05 5.56553E-06-2.55222E-19-1.42622E-18
 -1      3574 1.19722E-04-5.08596E-05-2.92955E-05-1.43362E-05-1.14177E-18 1.28494E-18
 -1      3575 1.23126E-04-5.14568E-05-3.08807E-05-9.15436E-06-8.95344E-19 1.67105E-18
 -1      3576 5.83561E-05-1.07621E-05-2.00715E-05-1.25562E-05-1.20574E-18-2.14765E-18
 -1      3577 6.47320E-05-1.59961E-05-2.09073E-05-2.03003E-05-1.39880E-18-1.48548E-18
 -1      3578 9.52543E-05-2.85841E-05-2.85729E-05-1.73726E-09 1.23590E-18-3.27711E-19
 -1      3579 9.52539E-05-2.85839E-05-2.85729E-05-4.59115E-09 5.17499E-19-2.53614E-18
 -1      3580 9.52558E-05-2.85831E-05-2.85740E-05-2.32959E-10 1.09914E-18-9.31474E-19
 -1      3581 1.10375E-04-3.32649E-05-3.31510E-05-1.07261E-05 1.85237E-19 1.11921E-19
 -1      3582 1.09083E-04-2.98943E-05-3.39020E-05-1.10438E-05 2.07311E-19-2.27003E-19
 -1      3583 1.11204E-04-2.85107E-05-3.54265E-05-1.16160E-05 4.39842E-19-3.66547E-19
 -1      3584 1.13573E-04-3.59852E-05-3.32008E-05-9.88420E-06-4.67192E-20-5.09543E-22
 -1      3585 6.26251E-05-1.42759E-05-2.06618E-05 1.58880E-05 3.85857E-19-2.35295E-18
 -1      3586 1.05689E-04-3.54254E-05-3.01574E-05-6.91974E-07 4.34514E-19 9.22532E-20
 -1      3587 1.04386E-04-3.38198E-05-3.01799E-05-1.18768E-06 3.24460E-19-4.77192E-20
 -1      3588 1.23040E-04-3.31449E-05-3.86554E-05-1.19437E-05 9.56962E-19-1.37500E-18
 -1      3589 1.14315E-04-1.66127E-05-4.22426E-05-9.69937E-06 1.20040E-18-3.40970E-19
 -1      3590 1.14795E-04-2.03353E-05-4.05259E-05-1.13474E-05 1.01776E-18-2.92293E-19
 -1      3591 1.01685E-04-4.40569E-05-2.46513E-05 2.62090E-05-1.93527E-18-1.03530E-19
 -1      3592 9.55561E-05-3.98356E-05-2.38648E-05 2.67572E-05-1.26461E-18-1.69049E-19
 -1      3593 1.06120E-04-4.45229E-05-2.62906E-05 2.00077E-05-1.64080E-18-2.29505E-20
 -1      3594 6.55732E-05-1.28881E-05-2.23558E-05 1.11055E-05 5.12323E-20-2.17421E-18
 -1      3595 6.69622E-05-1.16191E-05-2.37715E-05 8.06573E-06-1.89100E-19-1.88385E-18
 -1      3596 1.02080E-04-3.16227E-05-3.02334E-05-2.61433E-06 3.19224E-19-1.61129E-19
 -1      3597 9.44476E-05-3.62548E-05-2.48036E-05-2.58233E-05-1.65079E-18-8.47033E-21
 -1      3598 1.13926E-04-1.14898E-05-4.44194E-05 3.32477E-06 1.59708E-18 8.67633E-19
 -1      3599 1.11705E-04-1.15378E-05-4.31400E-05-3.74588E-07 1.71874E-18 9.02548E-19
 -1      3600 1.13255E-04-1.35889E-05-4.28871E-05 6.22476E-06 1.48342E-18 1.01601E-18
 -1      3601 1.08799E-04-3.67239E-05-3.08718E-05 5.11001E-06 2.23883E-19 6.82384E-19
 -1      3602 1.14265E-04-3.58921E-05-3.35226E-05 9.24544E-06-3.62073E-20 1.34399E-18
 -1      3603 1.11540E-04-3.57959E-05-3.24681E-05 8.24491E-06 6.78040E-21 1.26848E-18
 -1      3604 1.12001E-04-3.76940E-05-3.18686E-05 6.89483E-06-1.98689E-21 1.12999E-18
 -1      3605 7.54975E-05-1.00705E-05-2.80300E-05-2.81665E-06-6.91711E-19-1.28112E-18
 -1      3606 1.24445E-04-5.03863E-05-3.17122E-05-5.11670E-06-8.48740E-19 1.65223E-18
 -1      3607 1.24716E-04-4.87912E-05-3.27430E-05-1.02665E-06-6.99112E-19 1.45171E-18
 -1      3608 1.20677E-04-4.85075E-05-3.09118E-05-5.86823E-06-9.50684E-19 1.40296E-18
 -1      3609 5.70842E-05-1.11481E-05-1.95970E-05-1.85068E-06 3.26597E-19 7.05711E-19
 -1      3610 9.52434E-05-2.85790E-05-2.85704E-05-1.83476E-08 2.69632E-18 5.00321E-18
 -1      3611 9.52501E-05-2.85821E-05-2.85719E-05-1.34180E-08 2.05582E-18 1.49988E-18
 -1      3612 9.52470E-05-2.85807E-05-2.85713E-05-1.62852E-08 2.36247E-18 2.34586E-18
 -1      3613 9.52532E-05-2.85835E-05-2.85727E-05-7.52573E-09 9.74715E-19-2.74371E-18
 -1      3614 9.52520E-05-2.85830E-05-2.85725E-05-1.01331E-08 1.44324E-18-1.31314E-19
 -1      3615 9.52549E-05-2.85827E-05-2.85738E-05-6.24650E-09 6.04846E-19-3.32639E-18
 -1      3616 5.22397E-05-1.27543E-05-1.64875E-05 1.52455E-05-4.73319E-19 1.88745E-18
 -1      3617 5.40294E-05-1.14723E-05-1.80666E-05 8.20180E-06 1.84494E-19 1.12449E-18
 -1      3618 5.88938E-05-1.59685E-05-1.82338E-05 1.87423E-05-6.10158E-19 1.40862E-18
 -1      3619 1.28949E-04-4.29798E-05-3.70566E-05 7.71681E-06-4.52633E-21 2.03055E-18
 -1      3620 1.25197E-04-3.78119E-05-3.75250E-05 1.04685E-05 3.95511E-19 1.77774E-18
 -1      3621 1.26693E-04-4.57469E-05-3.47440E-05 4.19740E-06-1.33884E-19 1.66372E-18
 -1      3622 1.05784E-04-2.25007E-05-3.56774E-05 7.99048E-06 4.82756E-19 8.62826E-19
 -1      3623 1.07459E-04-2.60091E-05-3.50841E-05 9.56500E-06 5.34594E-19 1.06314E-18
 -1      3624 1.11479E-04-2.82145E-05-3.56347E-05 1.09138E-05 6.13318E-19 1.27060E-18
 -1      3625 1.16683E-04-4.91536E-05-2.88976E-05 1.15842E-05-1.30177E-18-6.25031E-19
 -1      3626 7.19607E-05-1.94242E-05-2.22854E-05-2.22816E-05-1.42185E-18-1.25762E-18
 -1      3627 7.94552E-05-2.32978E-05-2.40389E-05-2.20642E-05-1.51560E-18-8.04496E-19
 -1      3628 7.03933E-05-1.59626E-05-2.33429E-05-1.72698E-05-1.31722E-18-1.30800E-18
 -1      3629 1.21294E-04-2.42939E-05-4.17516E-05 1.20219E-05 1.19675E-18 1.95199E-18
 -1      3630 6.77129E-05-9.79588E-06-2.45882E-05 1.13719E-06-5.29147E-19-1.70041E-18
 -1      3631 8.30604E-05-3.20901E-05-2.17283E-05 2.85813E-05-1.20805E-18-3.77591E-20
 -1      3632 7.42414E-05-2.86259E-05-1.92352E-05 3.13367E-05-1.48053E-18 8.14210E-19
 -1      3633 6.93857E-05-2.33386E-05-1.96517E-05 2.62159E-05-9.99406E-19 8.96823E-19
 -1      3634 1.13514E-04-4.73818E-05-2.82908E-05-1.68531E-05-1.25008E-18 9.39293E-19
 -1      3635 8.17974E-05-1.35256E-05-2.92505E-05-8.19101E-06-3.80667E-19-1.17856E-18
 -1      3636 1.03369E-04-1.81990E-05-3.65119E-05 1.64769E-06 9.98536E-19 2.10011E-19
 -1      3637 1.04114E-04-1.96208E-05-3.62944E-05 4.71601E-06 5.73104E-19 3.99671E-19
 -1      3638 1.07600E-04-2.02166E-05-3.74396E-05 7.24694E-06 1.00062E-18 6.83436E-19
 -1      3639 1.05503E-04-1.67061E-05-3.81479E-05-4.16230E-07 1.29157E-18 1.57581E-19
 -1      3640 6.18937E-05-1.06115E-05-2.18339E-05-6.60147E-06-9.04611E-19-1.99087E-18
 -1      3641 1.11648E-04-1.45686E-05-4.18542E-05-6.94999E-06 1.27801E-18 4.81419E-19
 -1      3642 9.52461E-05-2.85797E-05-2.85713E-05-1.75801E-08 2.03775E-18 3.97141E-18
 -1      3643 8.86822E-05-2.00515E-05-2.93629E-05-9.19373E-06-2.69262E-19-7.49560E-19
 -1      3644 8.59963E-05-1.82271E-05-2.90921E-05-9.82316E-06-3.98531E-19-9.80652E-19
 -1      3645 1.07758E-04-3.70211E-05-3.02604E-05 2.71520E-07 3.86121E-19 3.81003E-19
 -1      3646 1.07188E-04-3.69346E-05-3.01670E-05-1.73973E-06 1.85513E-19 2.88030E-19
 -1      3647 1.08831E-04-3.79349E-05-3.04303E-05 1.40406E-06 2.26949E-19 5.95396E-19
 -1      3648 9.36407E-05-2.36650E-05-2.99699E-05-6.71999E-06 9.48722E-20-4.46668E-19
 -1      3649 9.13297E-05-2.20479E-05-2.97098E-05-8.01129E-06-1.71005E-19-5.80081E-19
 -1      3650 9.12475E-05-2.33324E-05-2.91392E-05-9.98985E-06-3.13073E-19-5.24748E-19
 -1      3651 7.90165E-05-1.71845E-05-2.65503E-05-1.55314E-06 8.94534E-19-1.31318E-18
 -1      3652 8.13141E-05-1.82101E-05-2.70772E-05-1.72778E-06 6.30132E-19-1.34633E-18
 -1      3653 1.25777E-04-4.61232E-05-3.40679E-05-4.32945E-06-2.75564E-19-2.08379E-18
 -1      3654 1.22043E-04-4.64914E-05-3.23831E-05-1.90562E-06-5.27300E-19-1.45323E-18
 -1      3655 8.32755E-05-1.91687E-05-2.75147E-05-2.16246E-06 2.27420E-19-1.58037E-18
 -1      3656 8.49788E-05-2.00853E-05-2.78333E-05-2.19671E-06-1.86341E-19-2.02060E-18
 -1      3657 8.20150E-05-1.87003E-05-2.70725E-05 1.51086E-07 4.05947E-20-2.22644E-18
 -1      3658 8.64557E-05-2.09430E-05-2.81049E-05-2.42269E-06-6.98073E-19-2.14977E-18
 -1      3659 8.77091E-05-2.17339E-05-2.82910E-05-2.34916E-06-1.12710E-18-1.93071E-18
 -1      3660 8.53538E-05-2.04164E-05-2.77860E-05-8.00929E-07-6.44492E-19-2.24070E-18
 -1      3661 8.88253E-05-2.24731E-05-2.84554E-05-2.42241E-06-1.47097E-18-1.03497E-18
 -1      3662 8.97425E-05-2.31361E-05-2.85579E-05-2.27759E-06-1.44776E-18-1.14172E-18
 -1      3663 8.78782E-05-2.19347E-05-2.82294E-05-1.29790E-06-8.18090E-19-1.61895E-18
 -1      3664 9.05848E-05-2.37563E-05-2.86529E-05-2.25165E-06-1.32228E-18-1.38035E-18
 -1      3665 9.12516E-05-2.42996E-05-2.87036E-05-2.06984E-06-1.21850E-18-1.65229E-18
 -1      3666 8.97903E-05-2.32440E-05-2.84965E-05-1.48236E-06-1.50387E-18-8.54736E-19
 -1      3667 9.18846E-05-2.48091E-05-2.87542E-05-1.98656E-06-5.53550E-19-9.97045E-19
 -1      3668 9.23662E-05-2.52469E-05-2.87734E-05-1.79430E-06-2.84320E-19-4.26095E-19
 -1      3669 9.12336E-05-2.43462E-05-2.86491E-05-1.46850E-06-4.72533E-19-7.56490E-19
 -1      3670 9.28396E-05-2.56588E-05-2.87962E-05-1.68387E-06-2.18202E-19 2.88880E-19
 -1      3671 9.31855E-05-2.60072E-05-2.87972E-05-1.49895E-06 1.99077E-20 3.56642E-19
 -1      3672 9.23175E-05-2.52564E-05-2.87282E-05-1.34097E-06 5.38246E-19 2.19372E-20
 -1      3673 9.35376E-05-2.63361E-05-2.88030E-05-1.38154E-06-5.55275E-19 6.09948E-19
 -1      3674 9.37848E-05-2.66108E-05-2.87941E-05-1.21433E-06-5.36156E-19 9.49018E-19
 -1      3675 9.31271E-05-2.59968E-05-2.87613E-05-1.15890E-06-1.53792E-19 4.86666E-19
 -1      3676 9.40451E-05-2.68707E-05-2.87901E-05-1.10224E-06-6.25334E-20 4.04698E-19
 -1      3677 9.42211E-05-2.70857E-05-2.87764E-05-9.57590E-07 6.05606E-19 1.37583E-19
 -1      3678 9.37285E-05-2.65916E-05-2.87666E-05-9.60886E-07-3.23406E-19 2.32223E-19
 -1      3679 9.44123E-05-2.72895E-05-2.87672E-05-8.57482E-07 4.81439E-19 8.72308E-19
 -1      3680 9.45369E-05-2.74566E-05-2.87519E-05-7.36542E-07 2.50286E-19 7.28682E-19
 -1      3681 9.41724E-05-2.70646E-05-2.87560E-05-7.70211E-07 8.11929E-19 4.86432E-19
 -1      3682 9.46764E-05-2.76150E-05-2.87404E-05-6.51220E-07-6.95994E-19 1.00373E-18
 -1      3683 9.47640E-05-2.77442E-05-2.87253E-05-5.52897E-07-2.75755E-19-4.22471E-19
 -1      3684 9.44980E-05-2.74373E-05-2.87371E-05-5.99355E-07-4.67869E-19 1.06469E-18
 -1      3685 9.48649E-05-2.78664E-05-2.87133E-05-4.82736E-07-7.03716E-20-1.17039E-18
 -1      3686 9.49260E-05-2.79655E-05-2.86993E-05-4.04626E-07-3.40147E-19-1.11554E-18
 -1      3687 9.47347E-05-2.77281E-05-2.87149E-05-4.53635E-07-9.02457E-19-7.31486E-20
 -1      3688 9.50010E-05-2.80631E-05-2.86873E-05-3.45901E-07 5.28254E-20-1.35227E-18
 -1      3689 9.50449E-05-2.81415E-05-2.86744E-05-2.82993E-07 2.21213E-20-1.18320E-18
 -1      3690 9.49086E-05-2.79577E-05-2.86916E-05-3.31386E-07-3.63766E-19-3.14572E-20
 -1      3691 9.50949E-05-2.82112E-05-2.86640E-05-2.40211E-07-1.72758E-19-1.57605E-18
 -1      3692 9.51229E-05-2.82671E-05-2.86536E-05-1.94792E-07-2.99500E-19-1.61578E-18
 -1      3693 9.50314E-05-2.81329E-05-2.86698E-05-2.34527E-07 1.28677E-19-9.11324E-19
 -1      3694 9.51574E-05-2.83192E-05-2.86445E-05-1.62322E-07 6.59726E-20-1.40921E-18
 -1      3695 9.51760E-05-2.83609E-05-2.86358E-05-1.28560E-07-1.95646E-19-5.74616E-19
 -1      3696 9.51147E-05-2.82616E-05-2.86506E-05-1.61712E-07 8.96719E-20-1.54636E-18
 -1      3697 9.51992E-05-2.83994E-05-2.86282E-05-1.04587E-07 1.02188E-19-2.81504E-19
 -1      3698 9.52111E-05-2.84300E-05-2.86210E-05-8.00379E-08 1.32225E-18-9.73254E-20
 -1      3699 9.51716E-05-2.83577E-05-2.86341E-05-1.06763E-07 1.45014E-19-9.09351E-19
 -1      3700 9.52262E-05-2.84580E-05-2.86147E-05-6.27927E-08 2.40650E-18-6.43396E-19
 -1      3701 9.52335E-05-2.84801E-05-2.86090E-05-4.53805E-08 3.06041E-18 5.46433E-20
 -1      3702 9.52095E-05-2.84285E-05-2.86201E-05-6.63489E-08 1.49956E-18-2.50199E-19
 -1      3703 9.52428E-05-2.85000E-05-2.86038E-05-3.33338E-08 2.57624E-18-5.08398E-19
 -1      3704 9.52468E-05-2.85157E-05-2.85993E-05-2.13386E-08 2.75480E-18-8.91252E-19
 -1      3705 9.52335E-05-2.84798E-05-2.86086E-05-3.74142E-08 2.14482E-18-7.02717E-19
 -1      3706 9.52520E-05-2.85296E-05-2.85952E-05-1.32144E-08 2.24631E-18-1.05102E-18
 -1      3707 9.52539E-05-2.85404E-05-2.85916E-05-5.24857E-09 1.20307E-18-7.25597E-19
 -1      3708 9.52479E-05-2.85161E-05-2.85992E-05-1.73198E-08 2.87560E-18-1.67399E-18
 -1      3709 9.52563E-05-2.85498E-05-2.85884E-05-1.55337E-11-3.30137E-19-7.68049E-19
 -1      3710 9.52568E-05-2.85571E-05-2.85857E-05 5.01495E-09-1.73625E-18-1.22386E-19
 -1      3711 9.52555E-05-2.85413E-05-2.85918E-05-3.87267E-09 4.48999E-19-1.23572E-18
 -1      3712 9.52574E-05-2.85632E-05-2.85831E-05 8.16807E-09-1.00147E-18-1.97456E-20
 -1      3713 9.52570E-05-2.85679E-05-2.85811E-05 1.11065E-08 5.99849E-19 9.34895E-20
 -1      3714 9.52585E-05-2.85582E-05-2.85859E-05 4.69162E-09-8.88557E-19-4.31753E-19
 -1      3715 9.52564E-05-2.85717E-05-2.85791E-05 1.28017E-08 2.85243E-19-9.17511E-19
 -1      3716 9.52555E-05-2.85747E-05-2.85775E-05 1.42781E-08-8.13820E-19-1.42688E-18
 -1      3717 9.52586E-05-2.85691E-05-2.85813E-05 9.75837E-09-6.25170E-19-8.03289E-19
 -1      3718 9.52543E-05-2.85769E-05-2.85760E-05 1.49855E-08-7.77777E-19-2.39561E-18
 -1      3719 9.52531E-05-2.85786E-05-2.85748E-05 1.54479E-08-1.63321E-19-2.50928E-18
 -1      3720 9.52570E-05-2.85758E-05-2.85777E-05 1.23724E-08-8.46748E-19-2.79668E-18
 -1      3721 9.52521E-05-2.85795E-05-2.85740E-05 1.54482E-08-1.09171E-19-2.37515E-18
 -1      3722 9.52514E-05-2.85805E-05-2.85732E-05 1.50881E-08-7.95623E-19-2.06239E-18
 -1      3723 9.52530E-05-2.85811E-05-2.85737E-05 1.32238E-08 6.59388E-19-2.12962E-18
 -1      3724 9.52549E-05-2.85794E-05-2.85753E-05 1.32468E-08-4.81848E-19-3.17227E-18
 -1      3725 1.09890E-04-2.12757E-05-3.82207E-05-1.02832E-05 8.69678E-19-9.66147E-21
 -1      3726 1.08022E-04-1.70359E-05-3.89823E-05-7.18492E-06 9.70276E-19 4.47802E-20
 -1      3727 7.63177E-05-1.10814E-05-2.80408E-05-6.58314E-06-7.89259E-19-1.14336E-18
 -1      3728 7.39311E-05-1.09128E-05-2.70172E-05-4.47223E-06-6.65477E-19-1.24888E-18
 -1      3729 6.83596E-05-1.09257E-05-2.46708E-05-6.37267E-06-8.58653E-19-1.55705E-18
 -1      3730 1.10460E-04-4.17070E-05-2.94057E-05 2.48786E-06-5.06691E-19 7.57160E-19
 -1      3731 1.12295E-04-4.25549E-05-2.99360E-05 6.74473E-07-1.56747E-19 4.22160E-19
 -1      3732 1.01604E-04-3.52138E-05-2.84021E-05 6.05831E-06-5.76888E-19 9.06778E-19
 -1      3733 1.03329E-04-3.67970E-05-2.85171E-05 5.60147E-06-3.95331E-19 8.54243E-19
 -1      3734 9.85617E-05-3.23480E-05-2.83459E-05 6.05045E-06-6.91301E-19 8.57323E-19
 -1      3735 9.98849E-05-3.36749E-05-2.83692E-05 6.00210E-06-7.31033E-19 7.99625E-19
 -1      3736 9.98457E-05-3.43305E-05-2.81334E-05 7.49071E-06-7.82940E-19 8.78148E-19
 -1      3737 9.65028E-05-3.01960E-05-2.83997E-05 5.52393E-06-4.01406E-19 2.52908E-19
 -1      3738 9.74300E-05-3.11844E-05-2.83797E-05 5.70363E-06-5.11106E-19 2.13603E-19
 -1      3739 9.70453E-05-3.14312E-05-2.81602E-05 6.84583E-06-3.79080E-19 4.38370E-19
 -1      3740 9.52318E-05-2.87329E-05-2.84912E-05 4.78427E-06-1.41307E-18 9.34720E-19
 -1      3741 9.58277E-05-2.94001E-05-2.84570E-05 5.06988E-06-6.62775E-19 3.74400E-19
 -1      3742 9.52891E-05-2.93821E-05-2.82719E-05 5.88245E-06-5.31577E-19 4.89058E-19
 -1      3743 9.45309E-05-2.78333E-05-2.85820E-05 4.00429E-06-7.20703E-19 8.67764E-19
 -1      3744 9.48791E-05-2.82402E-05-2.85490E-05 4.32354E-06-7.42526E-19 1.10926E-18
 -1      3745 9.43010E-05-2.80666E-05-2.84021E-05 4.86974E-06-1.02266E-18 5.48373E-19
 -1      3746 9.42151E-05-2.73549E-05-2.86550E-05 3.26987E-06-7.23297E-19 1.09700E-19
 -1      3747 9.43917E-05-2.75686E-05-2.86299E-05 3.58260E-06-8.12145E-19 2.02587E-19
 -1      3748 9.38369E-05-2.73143E-05-2.85186E-05 3.93190E-06-4.57202E-19 3.28305E-19
 -1      3749 9.41416E-05-2.71687E-05-2.87050E-05 2.61895E-06-1.04258E-18 1.76129E-18
 -1      3750 9.42073E-05-2.72493E-05-2.86896E-05 2.90488E-06-1.09734E-18 6.14896E-19
 -1      3751 9.37084E-05-2.69641E-05-2.86089E-05 3.11745E-06-1.37920E-18 4.78916E-19
 -1      3752 9.42074E-05-2.71705E-05-2.87332E-05 2.06318E-06-3.81536E-19 2.08287E-18
 -1      3753 9.42071E-05-2.71662E-05-2.87268E-05 2.31365E-06-5.57951E-19 2.17787E-18
 -1      3754 9.37775E-05-2.68819E-05-2.86710E-05 2.43628E-06-1.03444E-18 9.39101E-19
 -1      3755 9.43428E-05-2.72821E-05-2.87435E-05 1.60071E-06-7.98892E-19 1.21604E-18
 -1      3756 9.43074E-05-2.72288E-05-2.87442E-05 1.81362E-06-4.77232E-19 1.28440E-18
 -1      3757 9.39496E-05-2.69641E-05-2.87078E-05 1.88013E-06-1.41242E-19 7.56046E-19
 -1      3758 9.45029E-05-2.74485E-05-2.87406E-05 1.22340E-06-7.44823E-19 1.46255E-18
 -1      3759 9.44525E-05-2.73711E-05-2.87463E-05 1.40020E-06-6.43250E-19 1.46699E-18
 -1      3760 9.41626E-05-2.71362E-05-2.87245E-05 1.43364E-06-4.83029E-19-2.64116E-19
 -1      3761 9.46611E-05-2.76331E-05-2.87290E-05 9.20596E-07 1.83384E-19 1.36119E-18
 -1      3762 9.46080E-05-2.75482E-05-2.87378E-05 1.06455E-06-1.61765E-19 1.51211E-18
 -1      3763 9.43787E-05-2.73470E-05-2.87265E-05 1.07983E-06-4.14700E-19-3.53143E-20
 -1      3764 9.48033E-05-2.78133E-05-2.87123E-05 6.81194E-07 2.08921E-19 1.37132E-18
 -1      3765 9.47541E-05-2.77311E-05-2.87226E-05 7.96338E-07 4.16902E-19 1.58052E-18
 -1      3766 9.45770E-05-2.75637E-05-2.87186E-05 8.02597E-07 2.22812E-19 6.53060E-19
 -1      3767 9.49232E-05-2.79767E-05-2.86932E-05 4.94625E-07 3.24493E-19 1.50383E-18
 -1      3768 9.48812E-05-2.79025E-05-2.87039E-05 5.85188E-07 2.68521E-19 1.03757E-18
 -1      3769 9.47475E-05-2.77667E-05-2.87048E-05 5.87656E-07 2.77614E-19 1.32201E-18
 -1      3770 9.50197E-05-2.81174E-05-2.86739E-05 3.51313E-07 1.00499E-19 1.53320E-18
 -1      3771 9.49857E-05-2.80538E-05-2.86842E-05 4.21376E-07 2.88778E-19 1.76281E-18
 -1      3772 9.48873E-05-2.79461E-05-2.86880E-05 4.22816E-07-2.43966E-20 2.59794E-18
 -1      3773 9.50944E-05-2.82339E-05-2.86556E-05 2.42884E-07 5.67263E-19 1.19028E-18
 -1      3774 9.50681E-05-2.81814E-05-2.86650E-05 2.96172E-07 7.61048E-19 1.68080E-18
 -1      3775 9.49975E-05-2.80979E-05-2.86704E-05 2.97839E-07 4.66345E-19 1.77454E-18
 -1      3776 9.51499E-05-2.83274E-05-2.86391E-05 1.62180E-07 4.53375E-20 1.69130E-18
 -1      3777 9.51305E-05-2.82854E-05-2.86473E-05 2.01989E-07 1.97572E-19 1.18619E-18
 -1      3778 9.50815E-05-2.82221E-05-2.86534E-05 2.04300E-07 3.56374E-19 1.39143E-18
 -1      3779 9.51898E-05-2.84004E-05-2.86247E-05 1.03190E-07 8.83294E-19 1.61375E-18
 -1      3780 9.51761E-05-2.83677E-05-2.86317E-05 1.32355E-07 4.49920E-19 1.08305E-18
 -1      3781 9.51433E-05-2.83207E-05-2.86378E-05 1.35299E-07 2.62021E-19 2.04283E-18
 -1      3782 9.52173E-05-2.84558E-05-2.86125E-05 6.09572E-08 3.33325E-19 1.92148E-18
 -1      3783 9.52080E-05-2.84311E-05-2.86184E-05 8.18581E-08 7.09895E-19 1.62005E-18
 -1      3784 9.51872E-05-2.83970E-05-2.86241E-05 8.52432E-08 6.70118E-19 1.35151E-18
 -1      3785 9.52352E-05-2.84968E-05-2.86025E-05 3.14574E-08-1.06405E-19 2.11744E-18
 -1      3786 9.52293E-05-2.84786E-05-2.86072E-05 4.60525E-08 4.03742E-19 1.92001E-18
 -1      3787 9.52172E-05-2.84546E-05-2.86123E-05 4.96438E-08 3.16763E-19 3.07081E-18
 -1      3788 9.52461E-05-2.85264E-05-2.85944E-05 1.14734E-08-6.72632E-20 1.91337E-18
 -1      3789 9.52427E-05-2.85133E-05-2.85981E-05 2.13428E-08-3.98605E-19 1.46514E-18
 -1      3790 9.52365E-05-2.84969E-05-2.86026E-05 2.49301E-08 2.73787E-19 2.23234E-18
 -1      3791 9.52519E-05-2.85471E-05-2.85879E-05-1.52626E-09 2.50100E-19 1.90795E-18
 -1      3792 9.52503E-05-2.85380E-05-2.85908E-05 4.86877E-09 4.37228E-19 1.77235E-18
 -1      3793 9.52481E-05-2.85272E-05-2.85946E-05 8.29248E-09 9.58999E-20 2.06259E-18
 -1      3794 9.52542E-05-2.85610E-05-2.85829E-05-9.49980E-09-1.94676E-18 1.40174E-18
 -1      3795 9.52538E-05-2.85549E-05-2.85851E-05-5.60727E-09-6.32412E-19 1.56061E-18
 -1      3796 9.52541E-05-2.85483E-05-2.85882E-05-2.45245E-09-1.15221E-19 1.95010E-18
 -1      3797 9.52542E-05-2.85701E-05-2.85789E-05-1.39343E-08-1.22901E-18-3.84347E-19
 -1      3798 9.52545E-05-2.85661E-05-2.85807E-05-1.18061E-08-2.38985E-18 4.60442E-19
 -1      3799 9.52564E-05-2.85623E-05-2.85831E-05-8.97718E-09-9.10505E-19 1.30070E-18
 -1      3800 9.52528E-05-2.85757E-05-2.85759E-05-1.59551E-08-9.74547E-19 1.90753E-18
 -1      3801 9.52536E-05-2.85732E-05-2.85772E-05-1.50403E-08-1.42831E-18 4.43240E-19
 -1      3802 9.52561E-05-2.85714E-05-2.85792E-05-1.25550E-08-2.23032E-18 9.36466E-19
 -1      3803 9.52506E-05-2.85790E-05-2.85736E-05-1.63021E-08 1.75625E-18 2.33632E-18
 -1      3804 9.52516E-05-2.85775E-05-2.85746E-05-1.61622E-08 8.37240E-19 2.89242E-18
 -1      3805 9.52545E-05-2.85770E-05-2.85761E-05-1.40415E-08-7.33505E-19 1.33878E-18
 -1      3806 8.51710E-05-1.89523E-05-2.84022E-05-1.14375E-05-4.99898E-19-8.66794E-19
 -1      3807 8.31379E-05-1.58789E-05-2.87585E-05-9.91685E-06-4.67353E-19-1.08707E-18
 -1      3808 8.06546E-05-1.42751E-05-2.85580E-05-9.59289E-06-5.64397E-19-1.03813E-18
 -1      3809 9.52564E-05-2.85817E-05-2.85749E-05 7.18578E-09 9.34177E-19 1.25093E-18
 -1      3810 9.52571E-05-2.85819E-05-2.85751E-05 4.31350E-09 5.91641E-19 8.55343E-19
 -1      3811 9.52520E-05-2.85816E-05-2.85730E-05-1.25077E-08 2.39912E-18 3.36873E-19
 -1      3812 1.12482E-04-2.64141E-05-3.68098E-05-1.20718E-05 6.80644E-19-2.55076E-19
 -1      3813 1.13440E-04-2.38381E-05-3.85334E-05-1.15710E-05 8.26837E-19 1.11372E-19
 -1      3814 1.17601E-04-2.76087E-05-3.89410E-05-1.30445E-05 7.06942E-19-3.61352E-19
 -1      3815 1.14319E-04-3.18197E-05-3.56138E-05-1.20687E-05 3.65531E-19-2.39522E-19
 -1      3816 9.52574E-05-2.85819E-05-2.85752E-05 1.16043E-09 2.17999E-19-8.78443E-19
 -1      3817 9.52574E-05-2.85819E-05-2.85752E-05-1.81787E-09 4.16668E-19-9.21309E-19
 -1      3818 9.52587E-05-2.85804E-05-2.85764E-05 2.63715E-09 2.60730E-19 6.18803E-20
 -1      3819 1.17051E-04-4.79186E-05-2.98218E-05 6.23886E-06-8.85560E-19-1.03416E-18
 -1      3820 1.12087E-04-4.63791E-05-2.80260E-05 1.30292E-05-1.29369E-18-2.35408E-19
 -1      3821 1.02951E-04-3.31791E-05-2.99211E-05-4.52976E-06 9.63301E-20-1.90630E-19
 -1      3822 9.98779E-05-2.94648E-05-3.01286E-05-4.30111E-06 1.87694E-19-3.99618E-19
 -1      3823 9.52487E-05-2.85797E-05-2.85724E-05-1.67629E-08 2.37470E-18 2.82631E-18
 -1      3824 8.99991E-05-3.11050E-05-2.51821E-05-2.33080E-05-1.39112E-18-2.66154E-19
 -1      3825 1.00381E-04-3.89390E-05-2.64493E-05-2.23144E-05-1.34255E-18 2.34291E-19
 -1      3826 7.76467E-05-1.19438E-05-2.81042E-05-7.98104E-06-6.32622E-19-1.12722E-18
 -1      3827 1.08262E-04-4.32390E-05-2.76845E-05-1.79138E-05-1.15914E-18 6.58383E-19
 -1      3828 1.14361E-04-4.61454E-05-2.93952E-05-1.14654E-05-8.55435E-19 1.11774E-18
 -1      3829 1.03489E-04-3.86777E-05-2.77361E-05-1.67936E-05-9.39816E-19 1.99296E-19
 -1      3830 1.23165E-04-4.24246E-05-3.50141E-05-8.13390E-06 4.18216E-19-1.87861E-18
 -1      3831 1.18722E-04-4.32631E-05-3.24757E-05-4.95318E-06-2.59682E-19-8.75073E-19
 -1      3832 1.19223E-04-4.62352E-05-3.11403E-05-6.15777E-08-6.48238E-19-9.65154E-19
 -1      3833 7.05550E-05-1.22792E-05-2.47992E-05-1.07388E-05-9.53640E-19-1.37339E-18
 -1      3834 9.52513E-05-2.85799E-05-2.85735E-05-1.50266E-08 2.10055E-18 1.72174E-18
 -1      3835 1.09046E-04-1.45720E-05-4.07850E-05-4.61954E-06 1.31145E-18 4.00005E-19
 -1      3836 9.68116E-05-2.57538E-05-3.04472E-05-3.66181E-06 4.03181E-19-4.44222E-19
 -1      3837 9.50959E-05-2.45006E-05-3.02503E-05-5.10921E-06 2.39197E-19-3.93918E-19
 -1      3838 9.57474E-05-2.61919E-05-2.98064E-05-6.99531E-06 5.14093E-20-2.75365E-19
 -1      3839 9.82176E-05-2.75519E-05-3.02980E-05-3.86667E-06 3.48571E-19-4.02687E-19
 -1      3840 5.81326E-05-1.13172E-05-1.98295E-05 2.01387E-06 1.50342E-19 1.18884E-18
 -1      3841 6.41050E-05-1.24428E-05-2.20540E-05-1.73866E-06 1.12855E-19 5.83341E-19
 -1      3842 6.81246E-05-1.33591E-05-2.35401E-05-1.52257E-06 3.09005E-19-6.40469E-20
 -1      3843 6.06450E-05-1.23938E-05-2.06003E-05 7.13404E-06 2.49008E-19 1.21941E-18
 -1      3844 1.16502E-04-2.73200E-05-3.82906E-05 1.17540E-05 9.00370E-19 1.47763E-18
 -1      3845 1.12447E-04-2.03888E-05-3.98421E-05 1.00713E-05 1.23975E-18 1.13300E-18
 -1      3846 1.05676E-04-3.85721E-05-2.86934E-05 5.07492E-06-3.33877E-19 1.02457E-18
 -1      3847 1.07657E-04-4.01007E-05-2.89734E-05 4.00732E-06-2.55763E-19 1.01307E-18
 -1      3848 1.09182E-04-4.18043E-05-2.88816E-05 5.64776E-06-6.03007E-19 6.41014E-19
 -1      3849 1.20823E-04-3.49921E-05-3.67207E-05-1.14465E-05 6.11981E-19-1.11716E-18
 -1      3850 1.19263E-04-3.63057E-05-3.55201E-05-1.06207E-05 3.64409E-19-7.31082E-19
 -1      3851 1.11114E-04-3.84298E-05-3.11929E-05 4.65994E-06-1.03429E-19 9.73406E-19
 -1      3852 1.10596E-04-3.86433E-05-3.08082E-05 3.13373E-06-2.27491E-20 7.44916E-19
 -1      3853 1.11075E-04-3.95195E-05-3.06715E-05 9.37515E-07-2.47037E-20 7.71769E-19
 -1      3854 1.13887E-04-3.96185E-05-3.18119E-05 5.04181E-06-1.16778E-19 1.21874E-18
 -1      3855 1.07695E-04-1.42188E-05-4.01623E-05-1.35842E-06 1.42820E-18 7.32975E-19
 -1      3856 9.68390E-05-3.82657E-05-2.51280E-05 2.22596E-05-1.44451E-18-2.01683E-19
 -1      3857 9.08741E-05-3.59025E-05-2.33981E-05 2.65405E-05-1.39270E-18-1.87035E-19
 -1      3858 8.50713E-05-3.10024E-05-2.32077E-05 2.42856E-05-8.63471E-19-2.44012E-19
 -1      3859 1.18748E-04-3.71099E-05-3.50582E-05 9.32751E-06 6.11320E-20 1.48085E-18
 -1      3860 1.19652E-04-4.07802E-05-3.39151E-05 7.41918E-06-2.57994E-19 1.55459E-18
 -1      3861 9.52585E-05-2.85802E-05-2.85764E-05-3.47096E-09 1.01377E-18-2.55156E-18
 -1      3862 9.52569E-05-2.85817E-05-2.85751E-05-4.89415E-09 1.12690E-18-2.31897E-18
 -1      3863 9.52560E-05-2.85814E-05-2.85749E-05-7.72431E-09 1.62711E-18-4.57055E-18
 -1      3864 9.52540E-05-2.85808E-05-2.85742E-05-1.18296E-08 1.29499E-18-9.50383E-19
 -1      3865 1.17244E-04-3.74002E-05-3.41876E-05-9.80391E-06 7.51676E-20-6.08183E-19
 -1      3866 1.03872E-04-3.79570E-05-2.83136E-05 7.33410E-06-2.22129E-19 1.11990E-18
 -1      3867 1.14395E-04-4.23501E-05-3.08551E-05-2.94694E-06 7.75622E-20-6.98008E-20
 -1      3868 1.15215E-04-4.13416E-05-3.16989E-05-5.27258E-06-1.31628E-19 1.02810E-19
 -1      3869 7.84092E-05-1.41547E-05-2.75497E-05-1.01476E-05-7.17209E-19-1.04602E-18
 -1      3870 8.78191E-05-2.21629E-05-2.80366E-05-1.33922E-05-5.51072E-19-6.70996E-19
 -1      3871 8.42315E-05-1.97765E-05-2.76823E-05-1.34026E-05-6.96605E-19-8.90755E-19
 -1      3872 1.05645E-04-3.57902E-05-2.98455E-05-4.68055E-06-4.92818E-20 1.20735E-20
 -1      3873 1.02933E-04-3.39163E-05-2.96526E-05-6.78750E-06-1.09944E-19 1.62022E-19
 -1      3874 1.15328E-04-4.51030E-05-3.01165E-05 2.46891E-06-5.27149E-19-5.65527E-19
 -1      3875 6.61614E-05-1.93584E-05-1.97838E-05 2.18634E-05-8.67004E-19 6.13808E-19
 -1      3876 6.36469E-05-1.60916E-05-2.03898E-05 1.57068E-05-3.42400E-19 5.49883E-19
 -1      3877 7.38292E-05-2.30348E-05-2.16657E-05 2.20407E-05-1.17166E-18 5.65394E-20
 -1      3878 1.18797E-04-3.31227E-05-3.69442E-05 1.14781E-05 4.56458E-19 1.47825E-18
 -1      3879 9.87406E-05-2.89479E-05-2.99241E-05-5.87034E-06 1.21605E-19-2.26911E-19
 -1      3880 1.08005E-04-1.48721E-05-4.01198E-05 3.63920E-06 1.54216E-18 7.92552E-19
 -1      3881 8.55664E-05-2.56533E-05-2.55739E-05-2.06293E-05-1.18842E-18-5.18301E-19
 -1      3882 9.11419E-05-2.82745E-05-2.69578E-05-1.77780E-05-9.04228E-19-4.26362E-19
 -1      3883 1.17667E-04-4.09670E-05-3.29398E-05-7.58423E-06-2.39019E-19-2.95343E-19
 -1      3884 9.52544E-05-2.85816E-05-2.85740E-05 1.09993E-08 1.00659E-18-4.61605E-19
 -1      3885 1.07762E-04-3.80492E-05-2.99182E-05-4.07506E-06-4.30498E-20 3.76572E-19
 -1      3886 9.15625E-05-2.49266E-05-2.85822E-05-1.21391E-05-4.56543E-19-5.21527E-19
 -1      3887 9.09334E-05-2.60545E-05-2.78461E-05-1.45669E-05-5.41740E-19-4.58601E-19
 -1      3888 9.46936E-05-2.69803E-05-2.89914E-05-1.07782E-05-2.84310E-19-3.99151E-19
 -1      3889 9.52564E-05-2.85805E-05-2.85754E-05 9.59506E-09-3.37645E-19 2.35022E-19
 -1      3890 7.33384E-05-1.50313E-05-2.49958E-05-7.45058E-07 6.65755E-19-5.79426E-19
 -1      3891 7.63145E-05-1.61532E-05-2.58404E-05-9.68919E-07 7.58283E-19-7.81477E-19
 -1      3892 7.74983E-05-1.67903E-05-2.59266E-05 1.59712E-06 5.38833E-19-1.15456E-18
 -1      3893 7.50795E-05-1.50702E-05-2.57856E-05-1.29660E-05-9.99651E-19-1.10326E-18
 -1      3894 1.09721E-04-1.81032E-05-3.93966E-05 7.50396E-06 1.13574E-18 8.63894E-19
 -1      3895 8.46518E-05-2.04526E-05-2.75563E-05 8.43400E-07-8.62672E-19-2.92152E-19
 -1      3896 8.61193E-05-2.11786E-05-2.78363E-05 3.89705E-07-4.06381E-19-6.54460E-19
 -1      3897 8.72144E-05-2.18093E-05-2.80600E-05-1.15852E-07-1.88692E-20-3.76965E-19
 -1      3898 8.83253E-05-2.24586E-05-2.82334E-05-3.50648E-07-7.35117E-19 2.28301E-19
 -1      3899 8.68651E-05-2.17809E-05-2.78639E-05 1.36479E-06-6.92114E-20 1.35647E-18
 -1      3900 8.91972E-05-2.30347E-05-2.83755E-05-6.40087E-07-1.39031E-18 3.12315E-19
 -1      3901 9.00366E-05-2.35976E-05-2.84787E-05-7.29164E-07-1.65200E-18 1.61585E-19
 -1      3902 8.87879E-05-2.28647E-05-2.82303E-05 4.26055E-07-9.31352E-19 8.77344E-19
 -1      3903 9.07254E-05-2.41041E-05-2.85656E-05-8.74201E-07-1.19856E-18 1.54400E-19
 -1      3904 9.13570E-05-2.45808E-05-2.86231E-05-8.72680E-07 2.32462E-19 4.87173E-19
 -1      3905 9.03171E-05-2.38659E-05-2.84618E-05-1.12570E-07-1.17881E-18 2.08727E-18
 -1      3906 9.18963E-05-2.50138E-05-2.86730E-05-9.26015E-07 1.08517E-18-3.45652E-19
 -1      3907 9.23691E-05-2.54099E-05-2.87013E-05-8.73457E-07 9.95127E-19 1.35262E-19
 -1      3908 9.15226E-05-2.47547E-05-2.86017E-05-3.86710E-07 1.63226E-19 1.01612E-18
 -1      3909 9.27876E-05-2.57722E-05-2.87268E-05-8.72350E-07 3.22664E-19-3.16771E-19
 -1      3910 9.31396E-05-2.60963E-05-2.87368E-05-7.95650E-07-2.43547E-19 1.79648E-19
 -1      3911 9.24640E-05-2.55208E-05-2.86799E-05-4.94029E-07 6.16455E-19-1.36896E-18
 -1      3912 9.34613E-05-2.63942E-05-2.87467E-05-7.65382E-07-4.86529E-19 5.60684E-19
 -1      3913 9.37218E-05-2.66562E-05-2.87459E-05-6.81731E-07-2.35107E-19 2.12973E-19
 -1      3914 9.31921E-05-2.61663E-05-2.87178E-05-5.02592E-07-3.84271E-19-9.91130E-20
 -1      3915 9.39667E-05-2.68976E-05-2.87462E-05-6.38664E-07 5.07038E-20 3.66031E-19
 -1      3916 9.41583E-05-2.71070E-05-2.87392E-05-5.58236E-07 6.67461E-19 5.62912E-19
 -1      3917 9.37499E-05-2.67003E-05-2.87299E-05-4.58075E-07-4.53036E-22 6.22706E-19
 -1      3918 9.43429E-05-2.73002E-05-2.87339E-05-5.12356E-07-2.99339E-19 6.72270E-20
 -1      3919 9.44828E-05-2.74657E-05-2.87240E-05-4.40522E-07-8.19066E-19-2.96479E-19
 -1      3920 9.41730E-05-2.71351E-05-2.87264E-05-3.89781E-07-1.57952E-19-1.91000E-19
 -1      3921 9.46204E-05-2.76185E-05-2.87158E-05-3.97371E-07-1.05177E-18-1.94568E-19
 -1      3922 9.47216E-05-2.77481E-05-2.87048E-05-3.36271E-07-9.09554E-19-2.96085E-19
 -1      3923 9.44904E-05-2.74840E-05-2.87140E-05-3.15447E-07-1.07264E-18-5.18965E-19
 -1      3924 9.48271E-05-2.78728E-05-2.86951E-05-2.96685E-07-7.77627E-19-4.50112E-19
 -1      3925 9.49024E-05-2.79773E-05-2.86837E-05-2.44812E-07-8.53084E-19-8.83458E-19
 -1      3926 9.47306E-05-2.77664E-05-2.86967E-05-2.43315E-07-1.37792E-18-1.35572E-18
 -1      3927 9.49746E-05-2.80681E-05-2.86744E-05-2.14070E-07-4.06403E-19-9.28891E-19
 -1      3928 9.50247E-05-2.81438E-05-2.86644E-05-1.74974E-07 6.50662E-19-1.77982E-18
 -1      3929 9.49052E-05-2.79860E-05-2.86781E-05-1.80642E-07-9.10371E-19-1.39563E-18
 -1      3930 9.50761E-05-2.82129E-05-2.86556E-05-1.50480E-07 6.35317E-19-1.57677E-18
 -1      3931 9.51107E-05-2.82702E-05-2.86468E-05-1.20371E-07-3.50421E-19-1.96162E-18
 -1      3932 9.50270E-05-2.81506E-05-2.86602E-05-1.30131E-07 7.36521E-19-1.68065E-18
 -1      3933 9.51464E-05-2.83220E-05-2.86390E-05-1.01567E-07-2.04897E-19-5.33321E-19
 -1      3934 9.51698E-05-2.83647E-05-2.86314E-05-7.89709E-08 5.95758E-19 4.22644E-20
 -1      3935 9.51128E-05-2.82756E-05-2.86438E-05-9.00020E-08 5.57964E-19-1.05207E-18
 -1      3936 9.51939E-05-2.84030E-05-2.86246E-05-6.49796E-08 8.80245E-19 1.25821E-19
 -1      3937 9.52091E-05-2.84342E-05-2.86183E-05-4.84556E-08 1.75085E-18-2.32364E-19
 -1      3938 9.51719E-05-2.83691E-05-2.86293E-05-5.92243E-08 8.53891E-19 8.16300E-19
 -1      3939 9.52248E-05-2.84620E-05-2.86125E-05-3.83694E-08 2.08503E-18-1.06470E-18
 -1      3940 9.52342E-05-2.84845E-05-2.86073E-05-2.66177E-08 2.01440E-18-1.15999E-18
 -1      3941 9.52111E-05-2.84378E-05-2.86168E-05-3.63640E-08 1.77085E-18-5.27523E-19
 -1      3942 9.52438E-05-2.85041E-05-2.86026E-05-1.95920E-08 1.96912E-18-1.50519E-18
 -1      3943 9.52491E-05-2.85199E-05-2.85984E-05-1.14973E-08 2.53913E-18-2.21544E-18
 -1      3944 9.52360E-05-2.84874E-05-2.86063E-05-1.99208E-08 1.54095E-18-1.50015E-18
 -1      3945 9.52544E-05-2.85336E-05-2.85946E-05-6.79818E-09 2.07736E-18-2.15681E-18
 -1      3946 9.52569E-05-2.85443E-05-2.85912E-05-1.43998E-09-1.48212E-19-1.31390E-18
 -1      3947 9.52507E-05-2.85224E-05-2.85977E-05-8.49967E-09 1.93370E-18-3.08288E-18
 -1      3948 9.52593E-05-2.85535E-05-2.85882E-05 1.54014E-09-7.91673E-19 1.36251E-19
 -1      3949 9.52600E-05-2.85606E-05-2.85855E-05 4.89916E-09-6.23821E-20 8.82460E-19
 -1      3950 9.52582E-05-2.85463E-05-2.85908E-05-8.90603E-10 8.40309E-19-8.95212E-19
 -1      3951 9.52605E-05-2.85665E-05-2.85831E-05 6.63632E-09-1.77179E-18 8.42589E-19
 -1      3952 9.52600E-05-2.85710E-05-2.85810E-05 8.58783E-09-2.27646E-18-6.41520E-19
 -1      3953 9.52610E-05-2.85622E-05-2.85852E-05 3.89210E-09-9.61468E-19 1.46388E-18
 -1      3954 9.52593E-05-2.85746E-05-2.85791E-05 9.43777E-09-1.45991E-18-5.72455E-19
 -1      3955 9.52581E-05-2.85773E-05-2.85775E-05 1.03599E-08-9.73967E-19-2.23434E-19
 -1      3956 9.52608E-05-2.85723E-05-2.85808E-05 6.69420E-09-1.91409E-18 1.85566E-18
 -1      3957 1.12527E-04-4.35736E-05-2.96162E-05-8.49229E-06-5.51815E-19 8.08457E-19
 -1      3958 1.17385E-04-4.62771E-05-3.03252E-05-6.25765E-06-7.75763E-19 1.10584E-18
 -1      3959 1.17765E-04-4.55485E-05-3.10185E-05-2.96543E-06-7.43721E-19 9.54169E-19
 -1      3960 1.07864E-04-4.46989E-05-2.71755E-05 1.65192E-05-1.41002E-18 5.25306E-19
 -1      3961 1.04365E-04-4.21558E-05-2.65141E-05 1.80606E-05-1.05570E-18 3.78974E-19
 -1      3962 1.14518E-04-4.39891E-05-3.02861E-05 6.72035E-07-4.11689E-19-3.08571E-19
 -1      3963 7.96521E-05-1.77871E-05-2.64053E-05-1.49046E-05-9.48796E-19-8.70685E-19
 -1      3964 9.75827E-05-3.26054E-05-2.78131E-05 8.78788E-06-5.51513E-19 1.57295E-19
 -1      3965 9.93473E-05-3.43624E-05-2.78192E-05 9.13744E-06-3.93344E-19 6.44642E-19
 -1      3966 9.32618E-05-2.71704E-05-2.83268E-05 4.75145E-06-8.54833E-19 7.77082E-19
 -1      3967 9.36158E-05-2.76407E-05-2.82571E-05 5.27380E-06-1.15967E-18 4.97085E-19
 -1      3968 9.30893E-05-2.66678E-05-2.84709E-05 3.69135E-06-8.76003E-19 5.23827E-19
 -1      3969 9.32283E-05-2.68969E-05-2.84144E-05 4.14333E-06-6.05579E-19 4.13151E-19
 -1      3970 9.24525E-05-2.64875E-05-2.82780E-05 4.49941E-06-7.62051E-19 4.15228E-19
 -1      3971 9.31815E-05-2.65136E-05-2.85774E-05 2.83129E-06-1.83807E-18 3.29026E-20
 -1      3972 9.31885E-05-2.65811E-05-2.85365E-05 3.20741E-06-1.41041E-18 2.65177E-19
 -1      3973 9.25405E-05-2.61852E-05-2.84403E-05 3.38524E-06-1.04071E-18-3.57948E-19
 -1      3974 9.34125E-05-2.65775E-05-2.86490E-05 2.14950E-06-3.70417E-19-6.70703E-19
 -1      3975 9.33461E-05-2.65445E-05-2.86226E-05 2.45502E-06-1.18519E-18-4.35704E-19
 -1      3976 9.28172E-05-2.61828E-05-2.85570E-05 2.52233E-06-9.08649E-19-1.67698E-18
 -1      3977 9.37005E-05-2.67649E-05-2.86916E-05 1.61707E-06-2.04116E-19-2.91382E-19
 -1      3978 9.35998E-05-2.66756E-05-2.86773E-05 1.86130E-06-1.90415E-19-3.60478E-19
 -1      3979 9.31757E-05-2.63572E-05-2.86345E-05 1.86520E-06-2.54501E-19-1.74179E-18
 -1      3980 9.39952E-05-2.70102E-05-2.87121E-05 1.20560E-06-6.71590E-19-5.37311E-19
 -1      3981 9.38848E-05-2.68950E-05-2.87069E-05 1.39855E-06-7.68868E-20-3.66221E-19
 -1      3982 9.35501E-05-2.66225E-05-2.86806E-05 1.37019E-06-2.95843E-19-8.62116E-19
 -1      3983 9.42681E-05-2.72706E-05-2.87167E-05 8.90112E-07-4.76929E-19-2.01204E-20
 -1      3984 9.41624E-05-2.71492E-05-2.87180E-05 1.04112E-06-8.16268E-19-1.44299E-19
 -1      3985 9.39021E-05-2.69212E-05-2.87034E-05 9.99941E-07-6.49146E-19-2.40042E-20
 -1      3986 9.45052E-05-2.75200E-05-2.87109E-05 6.49883E-07 1.22853E-19 3.46971E-19
 -1      3987 9.44118E-05-2.74044E-05-2.87162E-05 7.67028E-07-7.41864E-20 5.00194E-20
 -1      3988 9.42124E-05-2.72173E-05-2.87097E-05 7.24364E-07-2.53656E-19 2.41917E-19
 -1      3989 9.47021E-05-2.77440E-05-2.86986E-05 4.68189E-07-3.45030E-19 1.06981E-18
 -1      3990 9.46238E-05-2.76406E-05-2.87062E-05 5.58261E-07 5.87706E-20 5.89470E-19
 -1      3991 9.44735E-05-2.74898E-05-2.87051E-05 5.20028E-07-3.07347E-19-3.28635E-19
 -1      3992 9.48595E-05-2.79363E-05-2.86832E-05 3.31825E-07 5.33702E-20 1.11251E-18
 -1      3993 9.47967E-05-2.78479E-05-2.86918E-05 4.00420E-07-3.94282E-19 7.98772E-19
 -1      3994 9.46853E-05-2.77285E-05-2.86940E-05 3.69112E-07-3.03089E-19-4.34997E-19
 -1      3995 9.49814E-05-2.80957E-05-2.86667E-05 2.30326E-07 3.74912E-19 7.66508E-19
 -1      3996 9.49328E-05-2.80227E-05-2.86754E-05 2.82000E-07 6.16800E-19 7.53187E-19
 -1      3997 9.48518E-05-2.79297E-05-2.86795E-05 2.58133E-07 6.14909E-19-5.05160E-19
 -1      3998 9.50730E-05-2.82240E-05-2.86506E-05 1.55591E-07-2.64609E-19 5.12721E-19
 -1      3999 9.50366E-05-2.81655E-05-2.86588E-05 1.94038E-07 4.83377E-19 2.20476E-19
 -1      4000 9.49791E-05-2.80943E-05-2.86638E-05 1.76986E-07 4.49017E-19-1.24759E-19
 -1      4001 9.51396E-05-2.83246E-05-2.86357E-05 1.01247E-07 6.63251E-19 8.99686E-19
 -1      4002 9.51133E-05-2.82789E-05-2.86431E-05 1.29444E-07-3.89463E-22 1.09859E-18
 -1      4003 9.50736E-05-2.82255E-05-2.86484E-05 1.18138E-07-2.48550E-19-2.99025E-19
 -1      4004 9.51865E-05-2.84017E-05-2.86226E-05 6.23393E-08 3.83309E-19 2.21459E-18
 -1      4005 9.51682E-05-2.83668E-05-2.86290E-05 8.26702E-08 3.11909E-19 1.53233E-18
 -1      4006 9.51417E-05-2.83274E-05-2.86341E-05 7.58968E-08 1.81659E-19 1.64689E-19
 -1      4007 9.52181E-05-2.84592E-05-2.86113E-05 3.50133E-08 3.03129E-19 2.86157E-18
 -1      4008 9.52059E-05-2.84333E-05-2.86167E-05 4.93750E-08 7.22459E-19 2.61977E-18
 -1      4009 9.51891E-05-2.84049E-05-2.86214E-05 4.59911E-08 6.44117E-19 2.42684E-18
 -1      4010 9.52383E-05-2.85012E-05-2.86019E-05 1.62849E-08 1.67641E-19 2.30079E-18
 -1      4011 9.52307E-05-2.84824E-05-2.86063E-05 2.61747E-08 2.16195E-19 2.81897E-18
 -1      4012 9.52209E-05-2.84624E-05-2.86105E-05 2.51962E-08 7.56370E-19 1.51899E-18
 -1      4013 9.52502E-05-2.85309E-05-2.85942E-05 3.85617E-09 2.70559E-19 3.16791E-18
 -1      4014 9.52460E-05-2.85176E-05-2.85978E-05 1.04447E-08 2.38100E-20 2.81161E-18
 -1      4015 9.52409E-05-2.85041E-05-2.86013E-05 1.10772E-08 4.76673E-19 2.86924E-18
 -1      4016 9.52562E-05-2.85513E-05-2.85879E-05-4.02667E-09 2.84113E-20 2.29584E-18
 -1      4017 9.52543E-05-2.85423E-05-2.85908E-05 1.64381E-10 2.51519E-19 2.76212E-18
 -1      4018 9.52524E-05-2.85334E-05-2.85938E-05 1.79775E-09-6.47510E-20 3.01149E-18
 -1      4019 9.52583E-05-2.85648E-05-2.85830E-05-8.68674E-09-7.46890E-19 1.40282E-18
 -1      4020 9.52579E-05-2.85589E-05-2.85852E-05-6.20466E-09-7.09853E-20 1.61473E-18
 -1      4021 9.52580E-05-2.85534E-05-2.85877E-05-4.01952E-09 4.77195E-19 1.52413E-18
 -1      4022 9.52579E-05-2.85734E-05-2.85791E-05-1.11615E-08-1.91886E-18 4.62344E-19
 -1      4023 9.52583E-05-2.85696E-05-2.85808E-05-9.80799E-09-6.74286E-19 1.16438E-18
 -1      4024 9.52597E-05-2.85665E-05-2.85828E-05-7.39915E-09-5.88574E-19 5.36898E-19
 -1      4025 9.52560E-05-2.85796E-05-2.85756E-05-1.06175E-08 1.30792E-18-1.64926E-18
 -1      4026 1.01468E-04-3.64500E-05-2.78060E-05 9.71428E-06-6.50119E-19 6.61819E-19
 -1      4027 1.03914E-04-3.85613E-05-2.79672E-05 9.43398E-06-4.45109E-19 6.04530E-19
 -1      4028 9.86470E-05-3.48221E-05-2.74418E-05 1.13281E-05-3.86113E-19 2.00376E-20
 -1      4029 1.23717E-04-4.55634E-05-3.34734E-05 2.90054E-06-5.12005E-19 1.72463E-18
 -1      4030 8.13439E-05-1.90171E-05-2.67725E-05 2.42871E-06 3.15757E-19-7.25040E-19
 -1      4031 8.32878E-05-1.98014E-05-2.72134E-05 1.66513E-06-4.34783E-20-8.20558E-19
 -1      4032 8.44707E-05-2.06784E-05-2.73013E-05 2.88725E-06-2.39633E-19 7.70706E-19
 -1      4033 1.18291E-04-4.31996E-05-3.22187E-05 2.95224E-06-4.99802E-19 1.36148E-18
 -1      4034 9.38834E-05-2.81907E-05-2.81503E-05 6.00962E-06-1.14482E-18 8.08778E-19
 -1      4035 9.45632E-05-2.89977E-05-2.80767E-05 6.57316E-06-6.32272E-19 4.18360E-19
 -1      4036 9.27174E-05-2.72583E-05-2.80696E-05 5.89987E-06-1.04677E-18 4.33736E-19
 -1      4037 8.18987E-05-2.13908E-05-2.59739E-05-1.75334E-05-1.06051E-18-7.18004E-19
 -1      4038 9.52094E-05-2.99309E-05-2.79620E-05 7.41182E-06-5.42709E-19 9.34418E-20
 -1      4039 9.63587E-05-3.11827E-05-2.79064E-05 7.94225E-06-6.01712E-19 7.46268E-20
 -1      4040 9.53501E-05-3.11103E-05-2.75856E-05 9.46806E-06-2.83122E-19-2.47526E-19
 -1      4041 9.74177E-05-2.82140E-05-2.96468E-05-7.52302E-06-2.15745E-20-2.28517E-19
 -1      4042 9.90584E-05-3.43389E-05-2.76829E-05-1.64809E-05-7.57175E-19-4.98790E-20
 -1      4043 1.05136E-04-3.85223E-05-2.86182E-05-1.29540E-05-5.83520E-19 3.22475E-19
 -1      4044 1.09807E-04-4.39578E-05-2.81592E-05 1.10297E-05-1.40944E-18-5.55713E-19
 -1      4045 1.12231E-04-4.12025E-05-3.03702E-05-2.26974E-06-2.49495E-19 6.78473E-19
 -1      4046 1.10169E-04-4.05177E-05-2.99042E-05-5.73313E-06-3.26191E-19 6.77831E-19
 -1      4047 9.52598E-05-2.85785E-05-2.85777E-05 3.90627E-09-6.66759E-19 8.36748E-19
 -1      4048 9.52601E-05-2.85785E-05-2.85779E-05 9.84380E-10-4.78773E-19-5.21037E-19
 -1      4049 1.17150E-04-4.38512E-05-3.14269E-05 5.96720E-07-5.09060E-19 1.09404E-18
 -1      4050 9.92538E-05-3.87415E-05-2.60102E-05 1.87490E-05-1.21987E-18 4.57922E-19
 -1      4051 1.07823E-04-3.94835E-05-2.91700E-05-9.84575E-06-4.55958E-19 5.75973E-19
 -1      4052 9.80464E-05-3.00167E-05-2.91650E-05-9.63561E-06-3.07605E-19-9.38960E-20
 -1      4053 1.03578E-04-3.58220E-05-2.90707E-05-1.01492E-05-3.51777E-19 3.64818E-19
 -1      4054 9.52600E-05-2.85784E-05-2.85779E-05-1.99125E-09 1.23044E-19-2.60439E-18
 -1      4055 9.52596E-05-2.85784E-05-2.85777E-05-4.90636E-09 7.45608E-19-4.67377E-18
 -1      4056 9.52611E-05-2.85760E-05-2.85793E-05-4.76897E-10 4.37200E-21-2.25765E-18
 -1      4057 6.99140E-05-1.40866E-05-2.37897E-05 2.39992E-06 1.24939E-19-1.90754E-19
 -1      4058 1.03314E-04-3.94687E-05-2.73428E-05 1.33983E-05-9.03797E-19 3.29004E-19
 -1      4059 1.06392E-04-4.09910E-05-2.79831E-05 1.04160E-05-8.01432E-19 2.27059E-19
 -1      4060 9.52573E-05-2.85793E-05-2.85763E-05 9.37415E-09-3.19046E-19-2.25908E-20
 -1      4061 1.14068E-04-4.22450E-05-3.08278E-05-5.01215E-07-3.02457E-19 8.56197E-19
 -1      4062 1.01051E-04-3.27828E-05-2.92059E-05-9.42198E-06-3.47667E-19 6.13437E-20
 -1      4063 9.52572E-05-2.85776E-05-2.85769E-05-1.01723E-08-6.63690E-19-1.57140E-18
 -1      4064 9.52590E-05-2.85761E-05-2.85784E-05-7.74622E-09 1.20896E-19-2.38596E-18
 -1      4065 7.67385E-05-1.74170E-05-2.55201E-05 4.70174E-06 4.05599E-19-3.09718E-19
 -1      4066 7.95098E-05-1.83138E-05-2.62376E-05 3.65643E-06 4.84801E-19-9.98688E-19
 -1      4067 8.14120E-05-1.95974E-05-2.64400E-05 5.22729E-06 2.39226E-19-2.03179E-19
 -1      4068 9.83358E-05-3.65122E-05-2.64780E-05 1.60478E-05-5.98848E-19 8.86238E-19
 -1      4069 9.14614E-05-3.22716E-05-2.52799E-05 1.91645E-05-7.37746E-19 3.81171E-19
 -1      4070 9.60455E-05-3.39626E-05-2.66231E-05 1.44244E-05-5.37290E-19 4.87345E-19
 -1      4071 8.71716E-05-3.00180E-05-2.44011E-05 2.04202E-05-1.06623E-18-2.31769E-19
 -1      4072 8.04484E-05-2.65834E-05-2.29432E-05 2.23894E-05-9.86317E-19-1.91195E-19
 -1      4073 7.61120E-05-2.26949E-05-2.30020E-05 1.88231E-05-7.43232E-19-2.06709E-19
 -1      4074 8.65150E-05-2.82964E-05-2.50582E-05 1.75708E-05-6.31940E-19 8.69416E-20
 -1      4075 9.52592E-05-2.85784E-05-2.85775E-05 6.75721E-09-1.34086E-18 2.11442E-18
 -1      4076 9.52606E-05-2.85760E-05-2.85791E-05 4.84552E-09-1.09662E-18 1.31653E-18
 -1      4077 9.35752E-05-2.87131E-05-2.78269E-05 7.58500E-06-9.35574E-19-4.39862E-20
 -1      4078 1.09391E-04-4.26393E-05-2.86715E-05 7.59161E-06-7.92905E-19 9.06325E-20
 -1      4079 9.57401E-05-3.11976E-05-2.76090E-05-1.64866E-05-7.57344E-19-2.31617E-19
 -1      4080 6.61099E-05-1.51327E-05-2.17776E-05 1.03227E-05-2.36782E-19 1.78089E-19
 -1      4081 9.81613E-05-3.15751E-05-2.85120E-05-1.27876E-05-5.47405E-19-1.58831E-19
 -1      4082 8.67799E-05-2.21502E-05-2.77374E-05 2.68538E-06 2.05415E-19 7.88605E-19
 -1      4083 8.78780E-05-2.26161E-05-2.79610E-05 2.02220E-06-2.15793E-19 5.40705E-19
 -1      4084 7.26430E-05-1.86327E-05-2.30013E-05 1.48861E-05-5.95861E-19-5.00656E-19
 -1      4085 6.90578E-05-1.52044E-05-2.31264E-05 7.46012E-06-2.59027E-19 2.34370E-19
 -1      4086 7.43533E-05-1.69053E-05-2.46557E-05 6.95811E-06-3.26124E-19-7.41716E-20
 -1      4087 7.85484E-05-2.20722E-05-2.41391E-05 1.51607E-05-4.46026E-19-1.65989E-19
 -1      4088 8.85759E-05-2.30015E-05-2.81313E-05 1.41969E-06-6.23708E-19 7.63207E-19
 -1      4089 8.94509E-05-2.34644E-05-2.82760E-05 1.01179E-06-1.32160E-18 9.40025E-19
 -1      4090 8.87191E-05-2.32887E-05-2.80235E-05 2.62241E-06-4.00097E-19-3.78496E-19
 -1      4091 9.00566E-05-2.38633E-05-2.83885E-05 6.27504E-07-1.04446E-18 1.70206E-18
 -1      4092 9.07481E-05-2.42950E-05-2.84789E-05 3.93544E-07-5.02562E-19 1.98120E-18
 -1      4093 9.00216E-05-2.39405E-05-2.83038E-05 1.53200E-06-2.90337E-19 2.37130E-19
 -1      4094 9.12592E-05-2.46752E-05-2.85501E-05 1.59033E-07-9.87138E-19 1.68311E-18
 -1      4095 9.18007E-05-2.50611E-05-2.86033E-05 3.92823E-08-1.63181E-19 4.42811E-19
 -1      4096 9.11350E-05-2.46305E-05-2.84873E-05 8.33021E-07-1.03220E-18 7.99977E-19
 -1      4097 9.22221E-05-2.54053E-05-2.86456E-05-9.55242E-08 3.32896E-19-1.41943E-18
 -1      4098 9.26422E-05-2.57398E-05-2.86740E-05-1.43670E-07-2.30039E-19-1.75862E-18
 -1      4099 9.20628E-05-2.52969E-05-2.86016E-05 4.02191E-07-1.15492E-18-8.68370E-19
 -1      4100 9.29832E-05-2.60404E-05-2.86965E-05-2.14486E-07-1.08104E-19-1.58674E-18
 -1      4101 9.33061E-05-2.63235E-05-2.87087E-05-2.20441E-07-3.80019E-19-1.50593E-18
 -1      4102 9.28202E-05-2.59058E-05-2.86675E-05 1.49780E-07-2.50594E-19-2.39449E-18
 -1      4103 9.35771E-05-2.65790E-05-2.87180E-05-2.51979E-07 6.42756E-21-8.93764E-19
 -1      4104 9.38229E-05-2.68138E-05-2.87201E-05-2.35296E-07 4.11843E-19-5.95705E-19
 -1      4105 9.34273E-05-2.64408E-05-2.87004E-05 1.21755E-08 2.42354E-19-2.84373E-18
 -1      4106 9.40349E-05-2.70262E-05-2.87210E-05-2.44090E-07-7.96310E-20-7.54938E-19
 -1      4107 9.42201E-05-2.72179E-05-2.87171E-05-2.17211E-07-1.12683E-19-8.66240E-19
 -1      4108 9.39059E-05-2.68974E-05-2.87116E-05-5.44319E-08-1.00763E-19-2.59246E-18
 -1      4109 9.43834E-05-2.73912E-05-2.87129E-05-2.13977E-07-6.89565E-19-1.00816E-18
 -1      4110 9.45214E-05-2.75451E-05-2.87057E-05-1.84271E-07-1.03412E-18-1.41588E-18
 -1      4111 9.42774E-05-2.72780E-05-2.87091E-05-7.92861E-08-8.06744E-19-2.56903E-18
 -1      4112 9.46506E-05-2.76905E-05-2.86985E-05-1.74851E-07-1.14875E-18-2.16755E-18
 -1      4113 9.47561E-05-2.78174E-05-2.86893E-05-1.45579E-07-1.52367E-18-2.10020E-18
 -1      4114 9.45670E-05-2.75955E-05-2.86984E-05-8.11368E-08-1.44281E-18-2.91340E-18
 -1      4115 9.48468E-05-2.79257E-05-2.86813E-05-1.35106E-07-1.26252E-18-1.39973E-18
 -1      4116 9.49190E-05-2.80195E-05-2.86723E-05-1.10685E-07-5.82258E-19-1.05413E-18
 -1      4117 9.47833E-05-2.78487E-05-2.86835E-05-7.16630E-08-8.90611E-19-1.92281E-18
 -1      4118 9.49853E-05-2.81036E-05-2.86641E-05-1.00658E-07-2.45359E-21-8.74072E-19
 -1      4119 9.50367E-05-2.81757E-05-2.86556E-05-8.04382E-08 8.28669E-19-1.20679E-18
 -1      4120 9.49382E-05-2.80428E-05-2.86675E-05-5.80332E-08-1.50172E-19-1.70624E-18
 -1      4121 9.50841E-05-2.82399E-05-2.86478E-05-7.18223E-08 8.01962E-19-1.49821E-18
 -1      4122 9.51198E-05-2.82944E-05-2.86401E-05-5.57709E-08 9.33471E-19-7.36726E-19
 -1      4123 9.50502E-05-2.81930E-05-2.86516E-05-4.40524E-08 7.15201E-19-2.38022E-18
 -1      4124 9.51528E-05-2.83427E-05-2.86331E-05-4.88501E-08 9.00127E-19 1.09506E-19
 -1      4125 9.51770E-05-2.83832E-05-2.86263E-05-3.65432E-08 7.07049E-19-3.05295E-20
 -1      4126 9.51292E-05-2.83073E-05-2.86369E-05-3.15634E-08 1.37423E-18-1.88437E-18
 -1      4127 9.51992E-05-2.84188E-05-2.86202E-05-3.12717E-08 2.92943E-19-4.72742E-19
 -1      4128 9.52148E-05-2.84484E-05-2.86145E-05-2.21336E-08 6.47713E-19-1.18160E-18
 -1      4129 9.51834E-05-2.83928E-05-2.86239E-05-2.12725E-08-3.82721E-20-1.70218E-18
 -1      4130 9.52291E-05-2.84741E-05-2.86093E-05-1.83035E-08 1.04667E-18-2.31007E-18
 -1      4131 9.52387E-05-2.84952E-05-2.86046E-05-1.17321E-08 8.64803E-19-2.63099E-18
 -1      4132 9.52191E-05-2.84554E-05-2.86126E-05-1.32699E-08 7.14476E-21-3.55629E-18
 -1      4133 9.52473E-05-2.85133E-05-2.86003E-05-9.07886E-09 1.77676E-18-2.79582E-18
 -1      4134 9.52526E-05-2.85280E-05-2.85964E-05-4.51556E-09 1.87954E-18-2.68973E-18
 -1      4135 9.52415E-05-2.85003E-05-2.86031E-05-7.33917E-09 1.05554E-18-3.73644E-18
 -1      4136 9.52572E-05-2.85404E-05-2.85929E-05-2.77485E-09 2.33415E-18-3.05194E-18
 -1      4137 9.52596E-05-2.85504E-05-2.85897E-05 2.62645E-10 1.58913E-18-1.71909E-18
 -1      4138 9.52543E-05-2.85317E-05-2.85952E-05-3.13982E-09 1.88065E-18-3.94066E-18
 -1      4139 9.52614E-05-2.85586E-05-2.85869E-05 1.33849E-09 2.42991E-19-7.19084E-19
 -1      4140 9.52619E-05-2.85650E-05-2.85844E-05 3.19612E-09-7.52307E-20 2.97403E-19
 -1      4141 9.52604E-05-2.85530E-05-2.85889E-05-3.04964E-10 1.76708E-18-3.77934E-18
 -1      4142 9.52620E-05-2.85692E-05-2.85826E-05 3.57957E-09-5.65236E-19 2.98747E-19
 -1      4143 9.52614E-05-2.85733E-05-2.85806E-05 4.62747E-09-9.18968E-19 1.06503E-18
 -1      4144 9.52618E-05-2.85733E-05-2.85808E-05 2.01063E-09-1.71584E-19-1.24160E-18
 -1      4145 9.52622E-05-2.85657E-05-2.85842E-05 1.29918E-09 4.54567E-19-2.79316E-18
 -1      4146 1.12626E-04-4.45139E-05-2.91367E-05 6.20348E-06-8.87046E-19-5.17464E-19
 -1      4147 9.19868E-05-2.56766E-05-2.84306E-05 2.90015E-06-7.27296E-19-1.78452E-18
 -1      4148 9.18934E-05-2.56914E-05-2.83583E-05 3.38060E-06-6.66814E-19-1.36952E-18
 -1      4149 9.27750E-05-2.89509E-05-2.73576E-05 9.63056E-06-3.77491E-19 3.13967E-19
 -1      4150 9.40841E-05-3.03988E-05-2.72459E-05 1.06296E-05 2.65595E-20 3.43076E-19
 -1      4151 9.16007E-05-2.57083E-05-2.82531E-05 4.00063E-06-5.44715E-19-9.59200E-19
 -1      4152 9.16435E-05-2.58993E-05-2.81553E-05 4.62463E-06-2.21986E-19-9.22655E-19
 -1      4153 9.10593E-05-2.51369E-05-2.82449E-05 3.47926E-06-2.06984E-19-2.55250E-18
 -1      4154 9.29621E-05-2.61709E-05-2.86329E-05 1.49044E-06-9.35655E-19-1.61760E-18
 -1      4155 9.27772E-05-2.60267E-05-2.86017E-05 1.76193E-06-9.88289E-19-2.24558E-18
 -1      4156 9.34251E-05-2.65224E-05-2.86790E-05 1.05960E-06-8.56702E-19-2.78386E-19
 -1      4157 9.32423E-05-2.63568E-05-2.86618E-05 1.26110E-06-8.07280E-19-1.20466E-18
 -1      4158 9.28725E-05-2.60421E-05-2.86334E-05 1.15417E-06-1.17256E-18-2.23913E-18
 -1      4159 9.38332E-05-2.68756E-05-2.87011E-05 7.49524E-07-8.87900E-19-1.55953E-19
 -1      4160 9.36669E-05-2.67096E-05-2.86940E-05 8.98466E-07-5.67530E-19-6.27635E-19
 -1      4161 9.33882E-05-2.64554E-05-2.86784E-05 7.88536E-07-8.19508E-19-1.99902E-18
 -1      4162 9.41778E-05-2.72044E-05-2.87068E-05 5.27166E-07 5.91236E-19-1.21984E-18
 -1      4163 9.40346E-05-2.70503E-05-2.87066E-05 6.37002E-07-1.80187E-19-7.10477E-19
 -1      4164 9.38261E-05-2.68469E-05-2.86994E-05 5.36167E-07-5.31865E-19-2.49844E-18
 -1      4165 9.44592E-05-2.74951E-05-2.87018E-05 3.68095E-07-8.10507E-19-9.54090E-19
 -1      4166 9.43409E-05-2.73594E-05-2.87059E-05 4.48952E-07 1.32185E-20-1.09747E-18
 -1      4167 9.41860E-05-2.71982E-05-2.87042E-05 3.62841E-07 5.15531E-19-2.85954E-18
 -1      4168 9.46824E-05-2.77429E-05-2.86905E-05 2.54537E-07-1.02324E-19-1.15563E-18
 -1      4169 9.45879E-05-2.76276E-05-2.86971E-05 3.13796E-07-5.66378E-19-1.34495E-18
 -1      4170 9.44739E-05-2.75010E-05-2.86988E-05 2.44068E-07-1.04815E-18-1.80466E-18
 -1      4171 9.48548E-05-2.79475E-05-2.86762E-05 1.73456E-07 5.19690E-19-7.17685E-19
 -1      4172 9.47814E-05-2.78525E-05-2.86838E-05 2.16956E-07 6.38913E-20-6.11582E-19
 -1      4173 9.46987E-05-2.77543E-05-2.86874E-05 1.62716E-07-6.11300E-19-2.29904E-18
 -1      4174 9.49845E-05-2.81122E-05-2.86607E-05 1.15949E-07 1.10944E-19-1.62590E-20
 -1      4175 9.49293E-05-2.80360E-05-2.86686E-05 1.47681E-07 9.43545E-19-1.84268E-19
 -1      4176 9.48701E-05-2.79610E-05-2.86731E-05 1.07290E-07 8.81657E-20-4.76877E-19
 -1      4177 9.50797E-05-2.82417E-05-2.86457E-05 7.53082E-08-2.02634E-19-4.92249E-19
 -1      4178 9.50393E-05-2.81821E-05-2.86532E-05 9.82943E-08-3.71275E-19-6.70511E-19
 -1      4179 9.49978E-05-2.81253E-05-2.86580E-05 6.94833E-08-1.05056E-19 1.01175E-19
 -1      4180 9.51475E-05-2.83414E-05-2.86318E-05 4.68317E-08 2.55163E-19-2.62192E-19
 -1      4181 9.51189E-05-2.82957E-05-2.86386E-05 6.33205E-08 1.18166E-19-8.60194E-19
 -1      4182 9.50904E-05-2.82534E-05-2.86433E-05 4.37297E-08 4.22622E-19-6.95917E-19
 -1      4183 9.51942E-05-2.84163E-05-2.86195E-05 2.71209E-08 4.71216E-19 6.10694E-19
 -1      4184 9.51747E-05-2.83821E-05-2.86254E-05 3.87923E-08 9.56889E-20-2.81075E-19
 -1      4185 9.51558E-05-2.83512E-05-2.86297E-05 2.62742E-08-1.82221E-21-2.30242E-18
 -1      4186 9.52250E-05-2.84715E-05-2.86089E-05 1.37133E-08 6.66363E-19 9.52785E-19
 -1      4187 9.52123E-05-2.84464E-05-2.86140E-05 2.18286E-08 7.01467E-19 1.09202E-18
 -1      4188 9.52004E-05-2.84243E-05-2.86178E-05 1.45469E-08 3.98889E-19-1.09513E-18
 -1      4189 9.52441E-05-2.85110E-05-2.86001E-05 4.81610E-09-1.51830E-19 2.51810E-18
 -1      4190 9.52364E-05-2.84932E-05-2.86043E-05 1.03251E-08 1.10904E-18 1.68780E-18
 -1      4191 9.52295E-05-2.84777E-05-2.86076E-05 6.78268E-09 7.92096E-19 3.43731E-19
 -1      4192 9.52549E-05-2.85386E-05-2.85928E-05-8.79134E-10 4.27751E-19 1.41196E-18
 -1      4193 9.52507E-05-2.85262E-05-2.85962E-05 2.73804E-09 5.92093E-20 1.84101E-18
 -1      4194 9.52472E-05-2.85157E-05-2.85990E-05 1.76034E-09 4.09779E-19 5.87595E-19
 -1      4195 9.52598E-05-2.85572E-05-2.85869E-05-4.32909E-09 6.67868E-19 8.42543E-19
 -1      4196 9.52581E-05-2.85489E-05-2.85897E-05-2.06759E-09 9.24608E-19 6.75986E-19
 -1      4197 9.52568E-05-2.85420E-05-2.85919E-05-1.37130E-09 1.26654E-18-5.71562E-19
 -1      4198 9.52609E-05-2.85693E-05-2.85822E-05-6.26506E-09-1.87814E-19-1.62787E-18
 -1      4199 9.52608E-05-2.85639E-05-2.85844E-05-4.91235E-09 2.40092E-19-3.85804E-19
 -1      4200 9.52609E-05-2.85597E-05-2.85862E-05-3.20395E-09 1.45654E-18-1.81479E-18
 -1      4201 9.52605E-05-2.85737E-05-2.85800E-05-6.01641E-09-5.11133E-19-3.17726E-18
 -1      4202 9.41841E-05-3.16888E-05-2.67630E-05 1.31451E-05-1.78750E-19 3.70328E-19
 -1      4203 9.14423E-05-2.61119E-05-2.80127E-05 5.45918E-06-6.32810E-19-7.13872E-19
 -1      4204 9.17252E-05-2.65790E-05-2.78902E-05 6.24642E-06-1.12373E-18-6.71115E-19
 -1      4205 9.05659E-05-2.52560E-05-2.79866E-05 4.92969E-06-2.22334E-19-2.18888E-18
 -1      4206 9.17252E-05-2.70988E-05-2.77088E-05 7.33497E-06-9.82899E-19-4.83232E-20
 -1      4207 9.23920E-05-2.79693E-05-2.75704E-05 8.28186E-06-3.57768E-19-9.36782E-22
 -1      4208 9.03552E-05-2.58655E-05-2.76446E-05 6.88626E-06-3.66532E-19-1.71445E-18
 -1      4209 9.24674E-05-2.58657E-05-2.85536E-05 2.08553E-06-7.64077E-19-2.76145E-18
 -1      4210 9.23065E-05-2.57761E-05-2.85040E-05 2.44877E-06-5.93395E-19-2.30794E-18
 -1      4211 9.16666E-05-2.53100E-05-2.84296E-05 2.42834E-06-3.01825E-19-3.44550E-18
 -1      4212 9.22894E-05-2.56414E-05-2.85545E-05 1.67996E-06-1.35054E-18-2.83886E-18
 -1      4213 8.46478E-05-2.14169E-05-2.71509E-05 4.62447E-06 2.06611E-19 2.51751E-19
 -1      4214 8.60046E-05-2.18312E-05-2.74872E-05 3.59772E-06 4.19950E-19 8.36435E-19
 -1      4215 8.72455E-05-2.27782E-05-2.76105E-05 4.27009E-06 3.81018E-19-1.58654E-19
 -1      4216 7.74779E-05-1.87921E-05-2.50731E-05 9.06533E-06-1.27290E-19-5.54939E-20
 -1      4217 8.37464E-05-2.12039E-05-2.67779E-05 5.92836E-06 7.88816E-20-8.40002E-21
 -1      4218 8.55470E-05-2.25097E-05-2.70039E-05 6.68169E-06 2.16992E-19 4.26106E-19
 -1      4219 8.19702E-05-2.08275E-05-2.62523E-05 7.48685E-06 1.30846E-19 3.00064E-19
 -1      4220 9.11073E-05-2.93114E-05-2.64862E-05 1.33489E-05-4.13838E-20 1.47486E-19
 -1      4221 9.07314E-05-2.72624E-05-2.72215E-05 9.44378E-06-1.23435E-19-3.02516E-20
 -1      4222 9.52615E-05-2.85714E-05-2.85815E-05-3.74165E-09 5.18042E-19-3.73095E-18
 -1      4223 9.52619E-05-2.85733E-05-2.85808E-05-7.31846E-10 2.46190E-19-2.88803E-18
 -1      4224 9.38283E-05-2.68622E-05-2.87053E-05 2.12587E-07 3.26945E-19-4.13498E-18
 -1      4225 9.36223E-05-2.66623E-05-2.86994E-05 3.04472E-07-1.65656E-19-3.32476E-18
 -1      4226 9.03141E-05-2.44133E-05-2.82633E-05 2.48448E-06-4.42195E-19-2.20236E-18
 -1      4227 9.09017E-05-2.46879E-05-2.83742E-05 2.01760E-06-1.73660E-19-2.09172E-18
 -1      4228 9.12383E-05-2.48865E-05-2.84526E-05 1.59756E-06-5.50201E-19-1.96641E-18
 -1      4229 9.17390E-05-2.51819E-05-2.85242E-05 1.29631E-06-1.36397E-18-1.74875E-18
 -1      4230 9.20610E-05-2.54153E-05-2.85751E-05 1.00425E-06-1.81589E-18-1.93355E-18
 -1      4231 9.24769E-05-2.57033E-05-2.86185E-05 8.16507E-07-1.23588E-18-2.74368E-18
 -1      4232 9.27659E-05-2.59408E-05-2.86490E-05 6.16050E-07-6.21983E-19-2.30587E-18
 -1      4233 9.31041E-05-2.62054E-05-2.86729E-05 5.03936E-07-1.34916E-19-2.29301E-18
 -1      4234 9.33523E-05-2.64290E-05-2.86888E-05 3.67731E-07-3.66730E-19-3.09829E-18
 -1      4235 9.40402E-05-2.70616E-05-2.87072E-05 1.79793E-07-1.44914E-20-3.60732E-18
 -1      4236 9.42065E-05-2.72339E-05-2.87066E-05 1.18081E-07-3.89075E-19-2.87782E-18
 -1      4237 9.43700E-05-2.74001E-05-2.87033E-05 1.03574E-07-9.56798E-19-2.80822E-18
 -1      4238 9.45011E-05-2.75442E-05-2.86988E-05 6.20284E-08-1.72815E-18-2.49749E-18
 -1      4239 9.46307E-05-2.76860E-05-2.86922E-05 5.73640E-08-1.75392E-18-2.50190E-18
 -1      4240 9.47310E-05-2.78032E-05-2.86855E-05 2.96338E-08-8.28531E-19-1.91216E-18
 -1      4241 9.48226E-05-2.79107E-05-2.86779E-05 3.09038E-08-4.71027E-19-1.99438E-18
 -1      4242 9.48981E-05-2.80042E-05-2.86703E-05 1.22872E-08-5.80365E-20-1.00076E-18
 -1      4243 9.49651E-05-2.80886E-05-2.86624E-05 1.58245E-08 6.43941E-19-4.34924E-19
 -1      4244 9.50206E-05-2.81617E-05-2.86548E-05 3.27481E-09 3.18237E-19-1.03948E-18
 -1      4245 9.50685E-05-2.82268E-05-2.86472E-05 7.46583E-09 6.31987E-19-1.13178E-18
 -1      4246 9.51081E-05-2.82829E-05-2.86401E-05-9.98893E-10 1.30914E-18-1.70670E-18
 -1      4247 9.51415E-05-2.83321E-05-2.86332E-05 3.00279E-09 1.25641E-18-2.29093E-18
 -1      4248 9.51690E-05-2.83743E-05-2.86268E-05-2.70613E-09 2.06714E-19-2.62519E-18
 -1      4249 9.51915E-05-2.84107E-05-2.86207E-05 7.29617E-10-3.26546E-19-3.19729E-18
 -1      4250 9.52098E-05-2.84418E-05-2.86152E-05-3.10635E-09 2.95620E-19-2.57514E-18
 -1      4251 9.52243E-05-2.84683E-05-2.86100E-05-3.50123E-10 8.25153E-19-2.64048E-18
 -1      4252 9.52359E-05-2.84906E-05-2.86053E-05-2.90381E-09 7.71191E-19-2.64232E-18
 -1      4253 9.52446E-05-2.85093E-05-2.86010E-05-8.03339E-10 9.70833E-19-2.35967E-18
 -1      4254 9.52513E-05-2.85250E-05-2.85971E-05-2.47387E-09 1.35613E-18-2.93595E-18
 -1      4255 9.52560E-05-2.85379E-05-2.85936E-05-9.43339E-10 1.77710E-18-3.50121E-18
 -1      4256 9.52593E-05-2.85485E-05-2.85904E-05-2.00514E-09 1.84945E-18-3.75592E-18
 -1      4257 9.52612E-05-2.85570E-05-2.85875E-05-9.46123E-10 1.19691E-18-3.65631E-18
 -1      4258 9.52621E-05-2.85639E-05-2.85850E-05-1.56060E-09 1.18181E-18-3.69593E-18
 -1      4259 9.52623E-05-2.85683E-05-2.85831E-05-1.00007E-09 1.31935E-18-2.66655E-18
 -1      4260 8.99984E-05-2.42977E-05-2.81493E-05 3.07892E-06-3.47788E-19-1.79664E-18
 -1      4261 8.80057E-05-2.63145E-05-2.64940E-05 1.15073E-05 5.97727E-19-6.42546E-19
 -1      4262 8.78142E-05-2.71939E-05-2.59321E-05 1.39639E-05 4.03896E-19-1.65833E-20
 -1      4263 8.93315E-05-2.40902E-05-2.79848E-05 3.78117E-06 1.70309E-19-1.89773E-18
 -1      4264 8.90992E-05-2.41314E-05-2.78273E-05 4.60615E-06 1.95951E-19-1.66694E-18
 -1      4265 8.83772E-05-2.40628E-05-2.75914E-05 5.63503E-06-6.75529E-20-1.65475E-18
 -1      4266 8.83432E-05-2.43760E-05-2.73851E-05 6.75396E-06 1.11419E-20-7.89464E-19
 -1      4267 8.38155E-05-2.50574E-05-2.51270E-05 1.53612E-05-6.70959E-20-1.03259E-19
 -1      4268 8.75210E-05-2.44961E-05-2.70403E-05 8.24062E-06 6.06770E-20-7.43269E-19
 -1      4269 8.77985E-05-2.52277E-05-2.67757E-05 9.74150E-06 3.83797E-19-3.53754E-19
 -1      4270 8.00389E-05-2.15914E-05-2.51258E-05 1.20096E-05-1.09241E-19-1.65433E-19
 -1      4271 8.21066E-05-2.15621E-05-2.59072E-05 9.46699E-06-2.89244E-20 2.28586E-19
 -1      4272 8.46608E-05-2.33222E-05-2.62944E-05 1.01008E-05 5.26823E-19 2.33058E-19
 -3
    1PSTEP                         4           1           1          
  100CL  101 1.000000000        4272                     0    1           1
 -4  ERROR       1    1
 -5  STR(%)      1    1    0    0
 -1         1 1.27805E+01
 -1         2 2.63559E+01
 -1         3 2.01160E-04
 -1         4 3.78678E-04
 -1         5 1.34741E+01
 -1         6 1.19249E+01
 -1         7 1.19249E+01
 -1         8 3.69325E+00
 -1         9 2.30227E+00
 -1        10 1.72038E+00
 -1        11 1.31322E+00
 -1        12 9.23560E-01
 -1        13 5.69464E-01
 -1        14 6.14311E-01
 -1        15 8.03989E-01
 -1        16 9.78343E-01
 -1        17 1.12999E+00
 -1        18 1.31796E+00
 -1        19 1.56306E+00
 -1        20 2.02208E+00
 -1        21 3.51912E+00
 -1        22 8.31317E+00
 -1        23 1.19249E+01
 -1        24 3.55264E+00
 -1        25 2.31102E+00
 -1        26 1.55049E+00
 -1        27 1.74349E+00
 -1        28 2.49277E+00
 -1        29 3.25749E+00
 -1        30 3.38803E+00
 -1        31 3.38803E+00
 -1        32 3.59988E+00
 -1        33 7.49670E+00
 -1        34 1.03733E+01
 -1        35 1.03733E+01
 -1        36 1.02562E+01
 -1        37 7.16438E+00
 -1        38 3.51550E+00
 -1        39 3.54959E+00
 -1        40 3.54959E+00
 -1        41 3.40302E+00
 -1        42 2.74151E+00
 -1        43 2.10003E+00
 -1        44 1.57642E+00
 -1        45 1.19755E+00
 -1        46 8.94944E-01
 -1        47 6.81926E-01
 -1        48 5.08142E-01
 -1        49 3.72628E-01
 -1        50 2.69738E-01
 -1        51 1.92906E-01
 -1        52 1.36169E-01
 -1        53 1.03177E-01
 -1        54 8.23445E-02
 -1        55 6.49492E-02
 -1        56 5.06276E-02
 -1        57 3.89829E-02
 -1        58 2.96142E-02
 -1        59 2.19273E-02
 -1        60 1.67602E-02
 -1        61 1.37473E-02
 -1        62 1.10635E-02
 -1        63 8.73686E-03
 -1        64 6.75625E-03
 -1        65 5.13944E-03
 -1        66 3.86412E-03
 -1        67 2.76412E-03
 -1        68 2.36470E-03
 -1        69 1.97246E-03
 -1        70 1.46364E-03
 -1        71 1.15899E-03
 -1        72 1.34741E+01
 -1        73 3.07276E+00
 -1        74 1.94187E+00
 -1        75 1.13284E+00
 -1        76 6.07334E-01
 -1        77 4.06608E-01
 -1        78 5.78516E-01
 -1        79 8.07064E-01
 -1        80 1.06577E+00
 -1        81 1.57905E+00
 -1        82 2.00209E+00
 -1        83 2.17694E+00
 -1        84 2.44467E+00
 -1        85 2.44784E+00
 -1        86 2.44784E+00
 -1        87 2.08900E+00
 -1        88 1.53491E+00
 -1        89 1.01875E+00
 -1        90 6.81022E-01
 -1        91 4.28827E-01
 -1        92 3.70992E-01
 -1        93 3.90756E-01
 -1        94 3.90756E-01
 -1        95 3.69523E-01
 -1        96 3.18954E-01
 -1        97 2.61693E-01
 -1        98 2.10680E-01
 -1        99 1.60787E-01
 -1       100 1.27822E-01
 -1       101 1.01296E-01
 -1       102 7.73006E-02
 -1       103 5.68595E-02
 -1       104 4.02298E-02
 -1       105 2.93895E-02
 -1       106 2.50034E-02
 -1       107 2.06471E-02
 -1       108 1.66170E-02
 -1       109 1.30622E-02
 -1       110 1.15354E-02
 -1       111 1.00102E-02
 -1       112 8.43672E-03
 -1       113 6.92862E-03
 -1       114 5.54287E-03
 -1       115 4.39698E-03
 -1       116 3.38642E-03
 -1       117 2.45345E-03
 -1       118 1.91770E-03
 -1       119 1.41071E-03
 -1       120 7.87175E-04
 -1       121 3.69918E-04
 -1       122 3.69918E-04
 -1       123 2.73132E-04
 -1       124 1.03764E-04
 -1       125 1.72115E-04
 -1       126 2.47507E-04
 -1       127 2.90689E-04
 -1       128 3.03391E-04
 -1       129 3.03391E-04
 -1       130 2.92300E-04
 -1       131 2.47955E-04
 -1       132 1.75156E-04
 -1       133 1.05812E-04
 -1       134 2.75925E-04
 -1       135 2.96137E-04
 -1       136 2.96137E-04
 -1       137 2.63559E+01
 -1       138 4.48857E+01
 -1       139 4.48857E+01
 -1       140 1.71799E+01
 -1       141 1.21345E+01
 -1       142 1.25688E+01
 -1       143 1.25688E+01
 -1       144 1.32415E+01
 -1       145 1.32415E+01
 -1       146 1.20440E+01
 -1       147 2.53552E+01
 -1       148 3.00369E+01
 -1       149 3.00369E+01
 -1       150 2.43294E+01
 -1       151 2.53684E+01
 -1       152 2.53684E+01
 -1       153 4.54991E+01
 -1       154 4.54991E+01
 -1       155 1.78801E+01
 -1       156 1.28647E+01
 -1       157 1.28647E+01
 -1       158 1.30941E+01
 -1       159 1.30941E+01
 -1       160 1.42098E+01
 -1       161 3.53719E+01
 -1       162 3.53719E+01
 -1       163 2.58398E+01
 -1       164 2.50480E+01
 -1       165 5.84913E+00
 -1       166 2.66345E+00
 -1       167 1.84943E+00
 -1       168 1.40356E+00
 -1       169 1.02794E+00
 -1       170 6.64171E-01
 -1       171 4.77550E-01
 -1       172 6.73428E-01
 -1       173 8.66134E-01
 -1       174 1.03858E+00
 -1       175 1.22450E+00
 -1       176 1.44314E+00
 -1       177 1.79052E+00
 -1       178 2.47196E+00
 -1       179 3.89665E+00
 -1       180 1.34741E+01
 -1       181 3.55264E+00
 -1       182 2.31102E+00
 -1       183 1.48770E+00
 -1       184 1.63097E+00
 -1       185 2.09537E+00
 -1       186 2.51855E+00
 -1       187 3.25749E+00
 -1       188 3.38803E+00
 -1       189 3.16041E+00
 -1       190 3.77489E+00
 -1       191 7.49670E+00
 -1       192 1.03733E+01
 -1       193 1.02562E+01
 -1       194 7.16438E+00
 -1       195 3.51550E+00
 -1       196 3.37488E+00
 -1       197 3.54959E+00
 -1       198 3.40302E+00
 -1       199 2.75914E+00
 -1       200 2.39608E+00
 -1       201 2.01830E+00
 -1       202 1.61416E+00
 -1       203 1.16271E+00
 -1       204 8.35564E-01
 -1       205 5.84536E-01
 -1       206 3.99516E-01
 -1       207 2.85203E-01
 -1       208 2.09446E-01
 -1       209 1.52111E-01
 -1       210 1.09157E-01
 -1       211 8.23445E-02
 -1       212 6.49492E-02
 -1       213 5.06276E-02
 -1       214 3.89829E-02
 -1       215 2.96142E-02
 -1       216 2.25943E-02
 -1       217 1.72950E-02
 -1       218 1.37473E-02
 -1       219 1.10635E-02
 -1       220 8.73686E-03
 -1       221 6.92310E-03
 -1       222 5.41496E-03
 -1       223 4.21778E-03
 -1       224 3.23571E-03
 -1       225 2.36766E-03
 -1       226 1.97246E-03
 -1       227 1.46364E-03
 -1       228 1.15899E-03
 -1       229 4.72282E-04
 -1       230 3.07276E+00
 -1       231 1.94187E+00
 -1       232 1.13284E+00
 -1       233 7.32989E-01
 -1       234 6.46778E-01
 -1       235 8.32962E-01
 -1       236 1.08673E+00
 -1       237 1.36145E+00
 -1       238 1.69076E+00
 -1       239 1.88392E+00
 -1       240 2.00209E+00
 -1       241 2.17694E+00
 -1       242 2.44467E+00
 -1       243 2.44784E+00
 -1       244 2.08900E+00
 -1       245 1.53491E+00
 -1       246 1.04852E+00
 -1       247 6.81022E-01
 -1       248 4.28827E-01
 -1       249 3.70992E-01
 -1       250 3.57451E-01
 -1       251 3.90756E-01
 -1       252 3.69523E-01
 -1       253 3.18954E-01
 -1       254 2.61693E-01
 -1       255 2.15429E-01
 -1       256 1.71013E-01
 -1       257 1.29218E-01
 -1       258 1.01296E-01
 -1       259 7.73006E-02
 -1       260 5.68595E-02
 -1       261 4.08150E-02
 -1       262 3.05260E-02
 -1       263 2.59477E-02
 -1       264 2.14350E-02
 -1       265 1.72651E-02
 -1       266 1.35800E-02
 -1       267 1.15354E-02
 -1       268 1.00102E-02
 -1       269 8.43672E-03
 -1       270 6.92862E-03
 -1       271 5.54287E-03
 -1       272 4.39698E-03
 -1       273 3.38642E-03
 -1       274 2.49638E-03
 -1       275 1.91770E-03
 -1       276 1.41071E-03
 -1       277 8.12867E-04
 -1       278 6.80851E-04
 -1       279 6.80851E-04
 -1       280 3.63841E-04
 -1       281 2.79057E-04
 -1       282 4.29926E-04
 -1       283 5.21649E-04
 -1       284 5.59244E-04
 -1       285 5.59828E-04
 -1       286 5.59828E-04
 -1       287 5.24015E-04
 -1       288 4.36591E-04
 -1       289 2.88474E-04
 -1       290 3.68441E-04
 -1       291 8.41805E-04
 -1       292 8.41805E-04
 -1       293 2.94953E+01
 -1       294 3.88158E+01
 -1       295 4.48857E+01
 -1       296 1.80310E+01
 -1       297 1.06825E+01
 -1       298 1.21345E+01
 -1       299 1.25688E+01
 -1       300 1.16143E+01
 -1       301 1.32415E+01
 -1       302 1.20440E+01
 -1       303 1.20214E+01
 -1       304 2.66344E+01
 -1       305 3.28932E+01
 -1       306 3.28932E+01
 -1       307 3.16934E+01
 -1       308 3.16934E+01
 -1       309 3.94528E+01
 -1       310 4.54991E+01
 -1       311 1.85477E+01
 -1       312 1.12842E+01
 -1       313 1.28647E+01
 -1       314 1.27805E+01
 -1       315 1.25022E+01
 -1       316 1.30941E+01
 -1       317 1.13433E+01
 -1       318 1.42098E+01
 -1       319 3.53719E+01
 -1       320 3.33999E+01
 -1       321 2.51875E+01
 -1       322 2.94953E+01
 -1       323 1.83773E+00
 -1       324 2.70150E+00
 -1       325 1.20470E+00
 -1       326 8.30485E-01
 -1       327 4.46184E-01
 -1       328 5.60547E-01
 -1       329 7.22869E-01
 -1       330 8.40811E-01
 -1       331 9.52261E-01
 -1       332 1.05353E+00
 -1       333 1.17249E+00
 -1       334 1.34309E+00
 -1       335 1.48617E+00
 -1       336 1.89439E+00
 -1       337 1.59806E+00
 -1       338 1.44966E+00
 -1       339 1.61241E+00
 -1       340 2.04503E+00
 -1       341 2.42306E+00
 -1       342 2.78220E+00
 -1       343 3.51003E+00
 -1       344 4.26157E+00
 -1       345 4.46776E+00
 -1       346 4.15338E+00
 -1       347 7.28537E+00
 -1       348 1.00065E+01
 -1       349 8.06856E+00
 -1       350 3.18232E+00
 -1       351 5.08585E+00
 -1       352 4.25735E+00
 -1       353 3.52109E+00
 -1       354 2.83233E+00
 -1       355 2.59484E+00
 -1       356 2.23444E+00
 -1       357 1.81693E+00
 -1       358 1.36723E+00
 -1       359 1.01754E+00
 -1       360 7.39624E-01
 -1       361 5.27878E-01
 -1       362 3.70752E-01
 -1       363 2.56262E-01
 -1       364 1.73959E-01
 -1       365 1.15468E-01
 -1       366 7.72422E-02
 -1       367 5.52653E-02
 -1       368 3.95987E-02
 -1       369 3.18393E-02
 -1       370 2.57187E-02
 -1       371 2.02718E-02
 -1       372 1.57649E-02
 -1       373 1.20949E-02
 -1       374 9.70300E-03
 -1       375 8.14121E-03
 -1       376 6.65941E-03
 -1       377 5.30298E-03
 -1       378 4.21987E-03
 -1       379 3.26038E-03
 -1       380 2.44284E-03
 -1       381 1.81825E-03
 -1       382 1.35332E-03
 -1       383 9.90974E-04
 -1       384 7.32989E-01
 -1       385 5.64412E-01
 -1       386 6.87743E-01
 -1       387 9.02312E-01
 -1       388 1.16897E+00
 -1       389 1.41280E+00
 -1       390 1.69076E+00
 -1       391 1.88392E+00
 -1       392 1.87399E+00
 -1       393 1.90917E+00
 -1       394 1.86765E+00
 -1       395 1.61771E+00
 -1       396 1.27592E+00
 -1       397 9.58675E-01
 -1       398 6.43930E-01
 -1       399 3.84840E-01
 -1       400 2.53306E-01
 -1       401 2.47386E-01
 -1       402 2.87792E-01
 -1       403 2.81590E-01
 -1       404 2.48729E-01
 -1       405 2.15519E-01
 -1       406 1.86610E-01
 -1       407 1.57278E-01
 -1       408 1.25691E-01
 -1       409 9.57307E-02
 -1       410 7.40097E-02
 -1       411 5.59170E-02
 -1       412 4.08150E-02
 -1       413 3.05260E-02
 -1       414 2.59477E-02
 -1       415 2.14350E-02
 -1       416 1.72651E-02
 -1       417 1.35800E-02
 -1       418 1.04296E-02
 -1       419 8.78015E-03
 -1       420 7.35970E-03
 -1       421 5.98946E-03
 -1       422 4.74424E-03
 -1       423 3.73644E-03
 -1       424 2.83918E-03
 -1       425 2.16906E-03
 -1       426 1.59486E-03
 -1       427 1.24102E-03
 -1       428 1.06191E-03
 -1       429 4.49043E-04
 -1       430 1.16897E-03
 -1       431 5.72761E-04
 -1       432 6.98022E-04
 -1       433 7.57977E-04
 -1       434 7.57977E-04
 -1       435 7.59049E-04
 -1       436 7.59049E-04
 -1       437 7.09533E-04
 -1       438 5.83996E-04
 -1       439 4.41809E-04
 -1       440 6.79098E-04
 -1       441 9.63572E-01
 -1       442 2.68434E+01
 -1       443 8.77057E+00
 -1       444 3.37160E+01
 -1       445 1.49422E+01
 -1       446 1.83773E+00
 -1       447 7.58868E+00
 -1       448 9.92004E+00
 -1       449 1.05943E+01
 -1       450 1.04894E+01
 -1       451 8.07799E+00
 -1       452 6.86891E+00
 -1       453 1.11452E+01
 -1       454 1.90445E+01
 -1       455 3.28932E+01
 -1       456 3.50090E+01
 -1       457 3.50090E+01
 -1       458 2.89188E+01
 -1       459 2.71261E+01
 -1       460 1.53028E+01
 -1       461 8.94542E+00
 -1       462 8.20990E+00
 -1       463 1.05002E+01
 -1       464 1.08404E+01
 -1       465 1.02661E+01
 -1       466 8.06856E+00
 -1       467 7.21209E+00
 -1       468 1.31918E+01
 -1       469 2.23596E+01
 -1       470 2.58131E+01
 -1       471 3.37160E+01
 -1       472 2.15163E+01
 -1       473 2.55879E+01
 -1       474 8.51288E+00
 -1       475 7.40314E-01
 -1       476 1.05840E+00
 -1       477 7.17287E-01
 -1       478 7.43201E-01
 -1       479 7.97909E-01
 -1       480 8.13091E-01
 -1       481 8.13091E-01
 -1       482 7.73681E-01
 -1       483 7.66489E-01
 -1       484 1.09338E+00
 -1       485 1.68498E+00
 -1       486 1.23631E+01
 -1       487 8.98080E+00
 -1       488 1.93385E+00
 -1       489 2.52094E+00
 -1       490 3.27899E+00
 -1       491 4.16395E+00
 -1       492 5.58334E+00
 -1       493 7.48211E+00
 -1       494 7.18920E+00
 -1       495 8.14751E+00
 -1       496 5.40351E+00
 -1       497 4.20790E+00
 -1       498 3.35131E+00
 -1       499 2.60217E+00
 -1       500 1.97958E+00
 -1       501 1.47762E+00
 -1       502 1.10286E+00
 -1       503 8.14725E-01
 -1       504 5.96001E-01
 -1       505 4.31636E-01
 -1       506 3.09230E-01
 -1       507 2.18834E-01
 -1       508 1.52614E-01
 -1       509 1.04512E-01
 -1       510 6.98999E-02
 -1       511 4.52698E-02
 -1       512 2.79824E-02
 -1       513 1.91067E-02
 -1       514 1.53350E-02
 -1       515 1.30756E-02
 -1       516 1.08762E-02
 -1       517 8.83859E-03
 -1       518 7.01849E-03
 -1       519 5.74592E-03
 -1       520 4.86030E-03
 -1       521 3.97081E-03
 -1       522 3.13644E-03
 -1       523 2.44953E-03
 -1       524 1.82676E-03
 -1       525 1.32925E-03
 -1       526 1.01611E-03
 -1       527 7.42452E-01
 -1       528 5.66142E-01
 -1       529 5.03519E-01
 -1       530 9.85513E-01
 -1       531 1.20801E+00
 -1       532 1.33047E+00
 -1       533 1.43391E+00
 -1       534 1.42384E+00
 -1       535 1.35087E+00
 -1       536 1.42305E+00
 -1       537 1.37936E+00
 -1       538 1.23366E+00
 -1       539 1.05391E+00
 -1       540 7.72094E-01
 -1       541 5.61745E-01
 -1       542 3.55111E-01
 -1       543 3.10359E-01
 -1       544 2.51481E-01
 -1       545 2.45728E-01
 -1       546 2.41082E-01
 -1       547 2.22763E-01
 -1       548 1.99282E-01
 -1       549 1.72810E-01
 -1       550 1.43938E-01
 -1       551 1.14743E-01
 -1       552 8.78854E-02
 -1       553 6.47165E-02
 -1       554 4.56872E-02
 -1       555 3.06871E-02
 -1       556 2.14748E-02
 -1       557 1.49048E-02
 -1       558 1.32036E-02
 -1       559 1.13797E-02
 -1       560 9.51518E-03
 -1       561 7.73833E-03
 -1       562 6.12145E-03
 -1       563 5.33082E-03
 -1       564 4.46950E-03
 -1       565 3.60498E-03
 -1       566 2.84897E-03
 -1       567 2.18428E-03
 -1       568 1.59053E-03
 -1       569 1.19264E-03
 -1       570 8.53941E-04
 -1       571 6.96269E-04
 -1       572 8.55345E-04
 -1       573 9.48821E-04
 -1       574 9.48821E-04
 -1       575 9.41574E-04
 -1       576 9.54690E-04
 -1       577 9.54690E-04
 -1       578 8.89301E-04
 -1       579 7.04140E-04
 -1       580 6.04408E-04
 -1       581 2.58131E+01
 -1       582 1.83773E+00
 -1       583 4.48530E+00
 -1       584 3.37160E+01
 -1       585 2.89188E+01
 -1       586 4.99064E+00
 -1       587 5.66952E-01
 -1       588 7.64120E+00
 -1       589 3.89322E+00
 -1       590 8.07259E+00
 -1       591 8.22079E+00
 -1       592 5.40263E+00
 -1       593 9.37124E+00
 -1       594 1.52527E+01
 -1       595 2.31318E+01
 -1       596 3.50090E+01
 -1       597 1.79703E+01
 -1       598 1.10910E+01
 -1       599 1.33285E+01
 -1       600 4.37204E+00
 -1       601 4.15892E+00
 -1       602 7.18920E+00
 -1       603 1.59290E+01
 -1       604 1.85586E+01
 -1       605 1.76984E+00
 -1       606 6.23595E-01
 -1       607 4.46776E+00
 -1       608 1.90927E+01
 -1       609 2.29755E+01
 -1       610 4.14773E-01
 -1       611 6.71331E+00
 -1       612 6.30127E+00
 -1       613 5.21496E+00
 -1       614 8.98296E-01
 -1       615 8.91455E-01
 -1       616 8.16008E-01
 -1       617 7.03452E-01
 -1       618 7.03452E-01
 -1       619 2.45419E+00
 -1       620 9.93324E+00
 -1       621 2.46437E+00
 -1       622 3.29180E+00
 -1       623 4.09808E+00
 -1       624 6.11162E+00
 -1       625 1.24932E+01
 -1       626 2.97727E+00
 -1       627 1.39247E+01
 -1       628 6.60479E+00
 -1       629 4.87601E+00
 -1       630 3.30371E+00
 -1       631 2.43999E+00
 -1       632 1.75825E+00
 -1       633 1.27156E+00
 -1       634 9.10724E-01
 -1       635 6.43735E-01
 -1       636 4.49408E-01
 -1       637 3.11698E-01
 -1       638 2.26248E-01
 -1       639 1.64281E-01
 -1       640 1.17567E-01
 -1       641 8.26698E-02
 -1       642 5.68771E-02
 -1       643 3.80501E-02
 -1       644 2.45185E-02
 -1       645 1.51098E-02
 -1       646 9.16475E-03
 -1       647 8.08115E-03
 -1       648 7.38458E-03
 -1       649 6.46077E-03
 -1       650 5.45576E-03
 -1       651 4.46047E-03
 -1       652 3.75357E-03
 -1       653 3.09195E-03
 -1       654 2.44152E-03
 -1       655 1.83614E-03
 -1       656 1.33186E-03
 -1       657 9.96468E-04
 -1       658 7.03187E-01
 -1       659 8.97378E-01
 -1       660 5.42540E-01
 -1       661 1.24104E+00
 -1       662 1.34059E+00
 -1       663 1.53002E+00
 -1       664 1.48411E+00
 -1       665 1.45725E+00
 -1       666 1.48744E+00
 -1       667 1.27356E+00
 -1       668 1.12831E+00
 -1       669 1.00764E+00
 -1       670 7.79691E-01
 -1       671 5.99906E-01
 -1       672 4.98075E-01
 -1       673 3.77888E-01
 -1       674 3.16842E-01
 -1       675 2.89933E-01
 -1       676 2.55106E-01
 -1       677 2.20663E-01
 -1       678 1.89721E-01
 -1       679 1.58579E-01
 -1       680 1.27971E-01
 -1       681 9.99334E-02
 -1       682 7.56411E-02
 -1       683 5.54684E-02
 -1       684 3.92942E-02
 -1       685 2.67242E-02
 -1       686 1.72412E-02
 -1       687 1.03456E-02
 -1       688 7.37697E-03
 -1       689 7.11472E-03
 -1       690 6.48090E-03
 -1       691 5.65060E-03
 -1       692 4.74531E-03
 -1       693 3.87784E-03
 -1       694 3.29376E-03
 -1       695 2.68318E-03
 -1       696 2.09134E-03
 -1       697 1.59331E-03
 -1       698 1.22045E-03
 -1       699 1.02540E-03
 -1       700 1.18645E-03
 -1       701 1.18645E-03
 -1       702 1.02540E-03
 -1       703 1.12719E-03
 -1       704 1.12928E-03
 -1       705 1.14651E-03
 -1       706 1.14651E-03
 -1       707 1.06130E-03
 -1       708 7.54522E+00
 -1       709 2.04943E+00
 -1       710 1.08956E+00
 -1       711 1.73389E+01
 -1       712 8.45691E+00
 -1       713 1.27196E+01
 -1       714 5.35959E+00
 -1       715 1.84237E+00
 -1       716 5.65362E+00
 -1       717 8.98296E-01
 -1       718 2.88029E+00
 -1       719 1.07939E+01
 -1       720 5.63349E+00
 -1       721 1.66094E+01
 -1       722 1.21722E+00
 -1       723 9.71590E+00
 -1       724 1.46925E+01
 -1       725 8.91455E-01
 -1       726 3.47975E+00
 -1       727 1.06221E+01
 -1       728 2.04943E+00
 -1       729 1.28969E+01
 -1       730 4.66657E+00
 -1       731 1.08892E-03
 -1       732 5.50442E-01
 -1       733 4.48812E+00
 -1       734 3.24222E+00
 -1       735 8.17486E-01
 -1       736 5.80740E+00
 -1       737 8.21130E+00
 -1       738 6.84040E-01
 -1       739 1.08193E+01
 -1       740 5.53838E+00
 -1       741 7.17943E+00
 -1       742 7.11415E+00
 -1       743 7.61406E+00
 -1       744 4.70897E+00
 -1       745 3.22370E+00
 -1       746 2.22205E+00
 -1       747 1.56072E+00
 -1       748 1.11191E+00
 -1       749 7.95456E-01
 -1       750 5.68989E-01
 -1       751 4.05419E-01
 -1       752 2.86889E-01
 -1       753 2.01036E-01
 -1       754 1.39042E-01
 -1       755 9.54506E-02
 -1       756 6.52485E-02
 -1       757 4.36675E-02
 -1       758 2.82897E-02
 -1       759 1.81475E-02
 -1       760 1.13082E-02
 -1       761 6.59126E-03
 -1       762 4.47190E-03
 -1       763 4.71896E-03
 -1       764 4.53061E-03
 -1       765 4.09119E-03
 -1       766 3.52509E-03
 -1       767 2.94656E-03
 -1       768 2.51984E-03
 -1       769 2.04917E-03
 -1       770 1.71442E-03
 -1       771 9.51497E-01
 -1       772 1.11427E+00
 -1       773 1.62871E+00
 -1       774 1.40133E+00
 -1       775 1.82038E+00
 -1       776 1.91138E+00
 -1       777 1.57219E+00
 -1       778 1.37206E+00
 -1       779 1.27865E+00
 -1       780 1.01152E+00
 -1       781 9.09526E-01
 -1       782 7.30757E-01
 -1       783 5.29529E-01
 -1       784 4.45994E-01
 -1       785 3.76827E-01
 -1       786 3.10564E-01
 -1       787 2.56548E-01
 -1       788 2.17021E-01
 -1       789 1.76490E-01
 -1       790 1.38955E-01
 -1       791 1.06532E-01
 -1       792 8.05978E-02
 -1       793 5.96149E-02
 -1       794 4.30290E-02
 -1       795 3.01955E-02
 -1       796 2.04714E-02
 -1       797 1.32623E-02
 -1       798 8.04560E-03
 -1       799 4.53226E-03
 -1       800 4.20410E-03
 -1       801 4.32467E-03
 -1       802 4.09346E-03
 -1       803 3.65515E-03
 -1       804 3.11255E-03
 -1       805 2.66445E-03
 -1       806 2.23875E-03
 -1       807 1.77964E-03
 -1       808 1.35193E-03
 -1       809 1.22838E-03
 -1       810 1.30242E-03
 -1       811 1.45299E-03
 -1       812 1.64405E-03
 -1       813 3.52283E+00
 -1       814 5.65561E+00
 -1       815 4.20375E+00
 -1       816 1.32988E-03
 -1       817 1.99342E+00
 -1       818 5.84511E+00
 -1       819 3.29180E+00
 -1       820 1.28969E+01
 -1       821 9.41418E+00
 -1       822 5.04151E+00
 -1       823 2.84705E+00
 -1       824 1.16380E+00
 -1       825 9.41418E+00
 -1       826 2.87239E+00
 -1       827 2.45419E+00
 -1       828 6.05792E+00
 -1       829 1.88383E+00
 -1       830 4.92577E+00
 -1       831 3.38766E+00
 -1       832 1.08956E+00
 -1       833 1.36466E+00
 -1       834 2.63851E+00
 -1       835 1.56820E-03
 -1       836 1.56820E-03
 -1       837 6.17009E-01
 -1       838 3.64201E+00
 -1       839 2.24067E+00
 -1       840 1.24025E+00
 -1       841 3.67428E+00
 -1       842 7.90199E+00
 -1       843 8.16008E-01
 -1       844 1.88383E+00
 -1       845 1.08328E+00
 -1       846 8.64751E+00
 -1       847 1.11427E+00
 -1       848 7.17943E+00
 -1       849 5.93919E+00
 -1       850 2.40557E+00
 -1       851 1.57943E+00
 -1       852 1.12135E+00
 -1       853 8.14436E-01
 -1       854 5.97872E-01
 -1       855 4.39823E-01
 -1       856 3.22532E-01
 -1       857 2.34898E-01
 -1       858 1.69382E-01
 -1       859 1.20562E-01
 -1       860 8.44034E-02
 -1       861 5.78581E-02
 -1       862 3.96622E-02
 -1       863 2.61691E-02
 -1       864 1.64281E-02
 -1       865 9.93960E-03
 -1       866 5.46293E-03
 -1       867 2.56327E-03
 -1       868 2.92161E-03
 -1       869 3.14512E-03
 -1       870 3.04563E-03
 -1       871 2.75477E-03
 -1       872 2.36221E-03
 -1       873 2.02804E-03
 -1       874 1.73147E-03
 -1       875 8.19043E+00
 -1       876 1.91138E+00
 -1       877 2.89251E+00
 -1       878 1.57771E+00
 -1       879 1.32444E+00
 -1       880 1.29177E+00
 -1       881 9.93518E-01
 -1       882 7.81089E-01
 -1       883 6.43228E-01
 -1       884 5.03294E-01
 -1       885 3.94443E-01
 -1       886 3.19141E-01
 -1       887 2.55234E-01
 -1       888 1.98743E-01
 -1       889 1.57906E-01
 -1       890 1.25739E-01
 -1       891 9.93760E-02
 -1       892 7.58383E-02
 -1       893 5.59300E-02
 -1       894 3.97774E-02
 -1       895 2.75647E-02
 -1       896 1.85158E-02
 -1       897 1.17510E-02
 -1       898 6.84523E-03
 -1       899 3.46188E-03
 -1       900 2.37791E-03
 -1       901 2.88839E-03
 -1       902 2.98811E-03
 -1       903 2.82519E-03
 -1       904 2.50756E-03
 -1       905 2.15865E-03
 -1       906 1.84961E-03
 -1       907 1.41655E-03
 -1       908 1.52590E-03
 -1       909 1.41655E-03
 -1       910 3.48802E+00
 -1       911 4.80614E+00
 -1       912 2.91143E+00
 -1       913 6.19641E+00
 -1       914 3.86571E+00
 -1       915 3.14195E+00
 -1       916 1.79710E+00
 -1       917 3.72303E+00
 -1       918 6.25003E+00
 -1       919 1.40426E-03
 -1       920 1.63099E+00
 -1       921 1.13189E+00
 -1       922 2.70646E+00
 -1       923 3.43004E+00
 -1       924 2.89251E+00
 -1       925 2.49038E+00
 -1       926 2.49038E+00
 -1       927 1.56820E-03
 -1       928 1.47439E-03
 -1       929 5.49108E+00
 -1       930 2.91143E+00
 -1       931 3.64201E+00
 -1       932 4.18171E+00
 -1       933 5.91686E+00
 -1       934 1.99342E+00
 -1       935 1.71386E+00
 -1       936 1.94992E+00
 -1       937 1.46715E+00
 -1       938 1.68769E+00
 -1       939 2.10649E+00
 -1       940 1.14305E+00
 -1       941 8.00652E-01
 -1       942 5.65524E-01
 -1       943 4.03053E-01
 -1       944 2.98175E-01
 -1       945 2.28430E-01
 -1       946 1.72561E-01
 -1       947 1.28376E-01
 -1       948 9.38941E-02
 -1       949 6.73505E-02
 -1       950 4.71951E-02
 -1       951 3.21120E-02
 -1       952 2.15605E-02
 -1       953 1.41129E-02
 -1       954 8.73580E-03
 -1       955 5.03861E-03
 -1       956 2.53456E-03
 -1       957 1.80518E-03
 -1       958 2.20043E-03
 -1       959 2.27033E-03
 -1       960 2.13553E-03
 -1       961 1.88502E-03
 -1       962 1.66138E-03
 -1       963 3.63690E+00
 -1       964 1.32444E+00
 -1       965 1.17439E+00
 -1       966 9.18123E-01
 -1       967 7.00988E-01
 -1       968 5.46545E-01
 -1       969 4.08685E-01
 -1       970 3.06928E-01
 -1       971 2.44992E-01
 -1       972 1.95378E-01
 -1       973 1.57906E-01
 -1       974 1.23908E-01
 -1       975 9.46836E-02
 -1       976 7.05107E-02
 -1       977 5.11149E-02
 -1       978 3.59528E-02
 -1       979 2.43941E-02
 -1       980 1.64090E-02
 -1       981 1.05091E-02
 -1       982 6.25696E-03
 -1       983 3.56606E-03
 -1       984 1.97469E-03
 -1       985 1.99551E-03
 -1       986 2.23089E-03
 -1       987 2.20193E-03
 -1       988 2.01499E-03
 -1       989 1.76687E-03
 -1       990 2.60011E+00
 -1       991 1.48011E-03
 -1       992 1.63099E+00
 -1       993 1.32621E-03
 -1       994 1.90829E+00
 -1       995 1.34926E+00
 -1       996 4.19823E+00
 -1       997 3.00768E+00
 -1       998 1.90829E+00
 -1       999 1.11232E+00
 -1      1000 5.93919E+00
 -1      1001 1.39111E+00
 -1      1002 1.52869E+00
 -1      1003 3.89400E+00
 -1      1004 1.59085E-03
 -1      1005 3.07183E+00
 -1      1006 1.94992E+00
 -1      1007 4.88425E+00
 -1      1008 2.11853E+00
 -1      1009 3.86571E+00
 -1      1010 8.10460E-01
 -1      1011 5.99595E-01
 -1      1012 4.49846E-01
 -1      1013 3.35159E-01
 -1      1014 2.48038E-01
 -1      1015 1.82292E-01
 -1      1016 1.32948E-01
 -1      1017 9.60957E-02
 -1      1018 6.91865E-02
 -1      1019 4.94969E-02
 -1      1020 3.62509E-02
 -1      1021 2.35633E-02
 -1      1022 1.63497E-02
 -1      1023 1.10874E-02
 -1      1024 7.23854E-03
 -1      1025 4.46837E-03
 -1      1026 2.51235E-03
 -1      1027 1.16350E-03
 -1      1028 1.57042E-03
 -1      1029 1.69529E-03
 -1      1030 1.64591E-03
 -1      1031 2.27640E+00
 -1      1032 3.35767E+00
 -1      1033 1.68266E+00
 -1      1034 5.27802E-01
 -1      1035 4.03509E-01
 -1      1036 3.06928E-01
 -1      1037 2.44992E-01
 -1      1038 1.90986E-01
 -1      1039 1.46014E-01
 -1      1040 1.09671E-01
 -1      1041 8.09330E-02
 -1      1042 5.86030E-02
 -1      1043 4.15222E-02
 -1      1044 2.86587E-02
 -1      1045 1.91231E-02
 -1      1046 1.29812E-02
 -1      1047 8.90969E-03
 -1      1048 5.83217E-03
 -1      1049 3.56606E-03
 -1      1050 1.94271E-03
 -1      1051 1.46566E-03
 -1      1052 1.70984E-03
 -1      1053 1.73181E-03
 -1      1054 3.19105E+00
 -1      1055 1.29673E+00
 -1      1056 7.46821E-01
 -1      1057 1.02838E+00
 -1      1058 2.08977E+00
 -1      1059 1.34795E-03
 -1      1060 1.43212E-03
 -1      1061 2.56721E+00
 -1      1062 3.19105E+00
 -1      1063 3.62634E+00
 -1      1064 9.02384E-01
 -1      1065 4.33677E+00
 -1      1066 6.07091E-01
 -1      1067 4.03026E-01
 -1      1068 2.65035E-01
 -1      1069 1.94644E-01
 -1      1070 1.49368E-01
 -1      1071 1.12930E-01
 -1      1072 8.41171E-02
 -1      1073 6.16654E-02
 -1      1074 4.62190E-02
 -1      1075 3.08870E-02
 -1      1076 2.14507E-02
 -1      1077 1.49240E-02
 -1      1078 1.00978E-02
 -1      1079 6.53479E-03
 -1      1080 3.95628E-03
 -1      1081 2.13265E-03
 -1      1082 1.00449E-03
 -1      1083 1.17922E-03
 -1      1084 1.49126E-03
 -1      1085 4.79693E-01
 -1      1086 1.57952E+00
 -1      1087 6.62108E-01
 -1      1088 2.46275E-01
 -1      1089 1.75384E-01
 -1      1090 1.24476E-01
 -1      1091 8.79589E-02
 -1      1092 6.65322E-02
 -1      1093 4.97606E-02
 -1      1094 3.63096E-02
 -1      1095 2.57487E-02
 -1      1096 1.79344E-02
 -1      1097 1.24232E-02
 -1      1098 8.27911E-03
 -1      1099 5.22904E-03
 -1      1100 3.03538E-03
 -1      1101 1.49849E-03
 -1      1102 1.14128E-03
 -1      1103 1.32322E-03
 -1      1104 9.02450E-01
 -1      1105 1.40661E+00
 -1      1106 3.44595E-01
 -1      1107 1.37117E+00
 -1      1108 1.57952E+00
 -1      1109 2.60028E+00
 -1      1110 1.19249E+01
 -1      1111 7.80906E+00
 -1      1112 2.99776E+00
 -1      1113 2.01132E+00
 -1      1114 1.51680E+00
 -1      1115 1.11839E+00
 -1      1116 7.46512E-01
 -1      1117 5.91887E-01
 -1      1118 7.09150E-01
 -1      1119 8.91166E-01
 -1      1120 1.05416E+00
 -1      1121 1.22397E+00
 -1      1122 1.44051E+00
 -1      1123 1.79257E+00
 -1      1124 2.77060E+00
 -1      1125 5.91614E+00
 -1      1126 1.08937E+01
 -1      1127 1.19249E+01
 -1      1128 7.73875E+00
 -1      1129 2.93183E+00
 -1      1130 1.93076E+00
 -1      1131 1.64699E+00
 -1      1132 2.11813E+00
 -1      1133 2.87513E+00
 -1      1134 3.32276E+00
 -1      1135 3.38803E+00
 -1      1136 3.49396E+00
 -1      1137 5.54829E+00
 -1      1138 8.93500E+00
 -1      1139 1.03733E+01
 -1      1140 1.03148E+01
 -1      1141 8.71031E+00
 -1      1142 5.33994E+00
 -1      1143 3.53255E+00
 -1      1144 3.54959E+00
 -1      1145 3.47631E+00
 -1      1146 3.07227E+00
 -1      1147 2.42077E+00
 -1      1148 1.83822E+00
 -1      1149 1.38699E+00
 -1      1150 1.04625E+00
 -1      1151 7.88435E-01
 -1      1152 5.95034E-01
 -1      1153 4.40385E-01
 -1      1154 3.21183E-01
 -1      1155 2.31322E-01
 -1      1156 1.64538E-01
 -1      1157 1.19673E-01
 -1      1158 9.27608E-02
 -1      1159 7.36468E-02
 -1      1160 5.77884E-02
 -1      1161 4.48053E-02
 -1      1162 3.42986E-02
 -1      1163 2.57708E-02
 -1      1164 1.93438E-02
 -1      1165 1.52538E-02
 -1      1166 1.24054E-02
 -1      1167 9.90019E-03
 -1      1168 7.74655E-03
 -1      1169 5.94785E-03
 -1      1170 4.50178E-03
 -1      1171 3.31412E-03
 -1      1172 2.56441E-03
 -1      1173 2.16858E-03
 -1      1174 1.71805E-03
 -1      1175 1.31131E-03
 -1      1176 7.68832E-04
 -1      1177 1.34741E+01
 -1      1178 8.27345E+00
 -1      1179 2.50731E+00
 -1      1180 1.53735E+00
 -1      1181 8.70086E-01
 -1      1182 5.06971E-01
 -1      1183 4.92562E-01
 -1      1184 6.92790E-01
 -1      1185 9.36417E-01
 -1      1186 1.32241E+00
 -1      1187 1.79057E+00
 -1      1188 2.08951E+00
 -1      1189 2.31080E+00
 -1      1190 2.44625E+00
 -1      1191 2.44784E+00
 -1      1192 2.26842E+00
 -1      1193 1.81195E+00
 -1      1194 1.27683E+00
 -1      1195 8.49885E-01
 -1      1196 5.54924E-01
 -1      1197 3.99910E-01
 -1      1198 3.80874E-01
 -1      1199 3.90756E-01
 -1      1200 3.80139E-01
 -1      1201 3.44239E-01
 -1      1202 2.90324E-01
 -1      1203 2.36186E-01
 -1      1204 1.85733E-01
 -1      1205 1.44304E-01
 -1      1206 1.14559E-01
 -1      1207 8.92981E-02
 -1      1208 6.70801E-02
 -1      1209 4.85447E-02
 -1      1210 3.48096E-02
 -1      1211 2.71965E-02
 -1      1212 2.28253E-02
 -1      1213 1.86321E-02
 -1      1214 1.48396E-02
 -1      1215 1.22988E-02
 -1      1216 1.07728E-02
 -1      1217 9.22347E-03
 -1      1218 7.68267E-03
 -1      1219 6.23574E-03
 -1      1220 4.96992E-03
 -1      1221 3.89170E-03
 -1      1222 2.91994E-03
 -1      1223 2.18557E-03
 -1      1224 1.66420E-03
 -1      1225 1.09894E-03
 -1      1226 4.94168E-04
 -1      1227 2.85539E-04
 -1      1228 3.69918E-04
 -1      1229 3.21525E-04
 -1      1230 1.88448E-04
 -1      1231 1.37939E-04
 -1      1232 2.09811E-04
 -1      1233 2.69098E-04
 -1      1234 2.97040E-04
 -1      1235 3.03391E-04
 -1      1236 2.97845E-04
 -1      1237 2.70128E-04
 -1      1238 2.11555E-04
 -1      1239 1.40484E-04
 -1      1240 1.90868E-04
 -1      1241 2.86031E-04
 -1      1242 2.96137E-04
 -1      1243 3.37407E-04
 -1      1244 2.63559E+01
 -1      1245 3.56208E+01
 -1      1246 4.48857E+01
 -1      1247 3.10328E+01
 -1      1248 1.46572E+01
 -1      1249 1.23517E+01
 -1      1250 1.25688E+01
 -1      1251 1.29051E+01
 -1      1252 1.32415E+01
 -1      1253 1.26427E+01
 -1      1254 1.86996E+01
 -1      1255 2.76960E+01
 -1      1256 3.00369E+01
 -1      1257 2.71831E+01
 -1      1258 2.48489E+01
 -1      1259 2.53684E+01
 -1      1260 3.54337E+01
 -1      1261 4.54991E+01
 -1      1262 3.16896E+01
 -1      1263 1.53724E+01
 -1      1264 1.28647E+01
 -1      1265 1.28226E+01
 -1      1266 1.29373E+01
 -1      1267 1.30941E+01
 -1      1268 1.36520E+01
 -1      1269 2.47909E+01
 -1      1270 3.53719E+01
 -1      1271 3.06058E+01
 -1      1272 2.54439E+01
 -1      1273 2.57020E+01
 -1      1274 1.19249E+01
 -1      1275 4.77119E+00
 -1      1276 8.88700E+00
 -1      1277 2.48286E+00
 -1      1278 3.17835E+00
 -1      1279 4.25629E+00
 -1      1280 1.78490E+00
 -1      1281 2.07585E+00
 -1      1282 2.25644E+00
 -1      1283 1.35839E+00
 -1      1284 1.56197E+00
 -1      1285 1.62649E+00
 -1      1286 9.75749E-01
 -1      1287 1.17058E+00
 -1      1288 1.21575E+00
 -1      1289 6.16818E-01
 -1      1290 7.93866E-01
 -1      1291 8.46055E-01
 -1      1292 5.45931E-01
 -1      1293 5.23507E-01
 -1      1294 5.70861E-01
 -1      1295 7.38708E-01
 -1      1296 6.43869E-01
 -1      1297 5.75489E-01
 -1      1298 9.22238E-01
 -1      1299 8.35061E-01
 -1      1300 7.69781E-01
 -1      1301 1.08428E+00
 -1      1302 1.00846E+00
 -1      1303 9.52359E-01
 -1      1304 1.27123E+00
 -1      1305 1.17724E+00
 -1      1306 1.13154E+00
 -1      1307 1.50310E+00
 -1      1308 1.38055E+00
 -1      1309 1.33382E+00
 -1      1310 1.90630E+00
 -1      1311 1.67679E+00
 -1      1312 1.61683E+00
 -1      1313 2.99554E+00
 -1      1314 2.24702E+00
 -1      1315 2.13124E+00
 -1      1316 6.10491E+00
 -1      1317 3.70789E+00
 -1      1318 3.18431E+00
 -1      1319 1.34741E+01
 -1      1320 1.08937E+01
 -1      1321 8.68539E+00
 -1      1322 1.34741E+01
 -1      1323 7.73875E+00
 -1      1324 3.55264E+00
 -1      1325 2.93183E+00
 -1      1326 2.31102E+00
 -1      1327 2.93183E+00
 -1      1328 1.89936E+00
 -1      1329 1.51909E+00
 -1      1330 1.89936E+00
 -1      1331 1.59073E+00
 -1      1332 1.68723E+00
 -1      1333 1.55933E+00
 -1      1334 1.91943E+00
 -1      1335 2.29407E+00
 -1      1336 1.86317E+00
 -1      1337 2.50566E+00
 -1      1338 2.88802E+00
 -1      1339 2.30696E+00
 -1      1340 3.25749E+00
 -1      1341 3.32276E+00
 -1      1342 2.88802E+00
 -1      1343 3.38803E+00
 -1      1344 3.38803E+00
 -1      1345 3.32276E+00
 -1      1346 3.27422E+00
 -1      1347 3.38015E+00
 -1      1348 3.27422E+00
 -1      1349 3.68739E+00
 -1      1350 5.63579E+00
 -1      1351 3.46765E+00
 -1      1352 7.49670E+00
 -1      1353 8.93500E+00
 -1      1354 5.63579E+00
 -1      1355 1.03733E+01
 -1      1356 1.03733E+01
 -1      1357 8.93500E+00
 -1      1358 1.03148E+01
 -1      1359 1.02562E+01
 -1      1360 1.03148E+01
 -1      1361 8.71031E+00
 -1      1362 7.16438E+00
 -1      1363 8.71031E+00
 -1      1364 5.33994E+00
 -1      1365 3.51550E+00
 -1      1366 5.33994E+00
 -1      1367 3.44519E+00
 -1      1368 3.46223E+00
 -1      1369 3.44519E+00
 -1      1370 3.54959E+00
 -1      1371 3.54959E+00
 -1      1372 3.46223E+00
 -1      1373 3.47631E+00
 -1      1374 3.40302E+00
 -1      1375 3.47631E+00
 -1      1376 3.08108E+00
 -1      1377 2.75033E+00
 -1      1378 3.08108E+00
 -1      1379 2.56880E+00
 -1      1380 2.24805E+00
 -1      1381 2.57761E+00
 -1      1382 2.05917E+00
 -1      1383 1.79736E+00
 -1      1384 2.20719E+00
 -1      1385 1.59529E+00
 -1      1386 1.40585E+00
 -1      1387 1.81623E+00
 -1      1388 1.18013E+00
 -1      1389 1.02883E+00
 -1      1390 1.38843E+00
 -1      1391 8.65254E-01
 -1      1392 7.58745E-01
 -1      1393 9.99138E-01
 -1      1394 6.33231E-01
 -1      1395 5.46339E-01
 -1      1396 7.10050E-01
 -1      1397 4.53829E-01
 -1      1398 3.86072E-01
 -1      1399 4.92026E-01
 -1      1400 3.28915E-01
 -1      1401 2.77470E-01
 -1      1402 3.42359E-01
 -1      1403 2.39592E-01
 -1      1404 2.01176E-01
 -1      1405 2.47324E-01
 -1      1406 1.72508E-01
 -1      1407 1.44140E-01
 -1      1408 1.80778E-01
 -1      1409 1.22663E-01
 -1      1410 1.06167E-01
 -1      1411 1.30634E-01
 -1      1412 9.27608E-02
 -1      1413 8.23445E-02
 -1      1414 9.57507E-02
 -1      1415 7.36468E-02
 -1      1416 6.49492E-02
 -1      1417 7.36468E-02
 -1      1418 5.77884E-02
 -1      1419 5.06276E-02
 -1      1420 5.77884E-02
 -1      1421 4.48053E-02
 -1      1422 3.89829E-02
 -1      1423 4.48053E-02
 -1      1424 3.42986E-02
 -1      1425 2.96142E-02
 -1      1426 3.42986E-02
 -1      1427 2.61043E-02
 -1      1428 2.22608E-02
 -1      1429 2.61043E-02
 -1      1430 1.96111E-02
 -1      1431 1.70276E-02
 -1      1432 1.99446E-02
 -1      1433 1.52538E-02
 -1      1434 1.37473E-02
 -1      1435 1.55211E-02
 -1      1436 1.24054E-02
 -1      1437 1.10635E-02
 -1      1438 1.24054E-02
 -1      1439 9.90019E-03
 -1      1440 8.73686E-03
 -1      1441 9.90019E-03
 -1      1442 7.82998E-03
 -1      1443 6.83967E-03
 -1      1444 7.82998E-03
 -1      1445 6.08560E-03
 -1      1446 5.27720E-03
 -1      1447 6.16903E-03
 -1      1448 4.67861E-03
 -1      1449 4.04095E-03
 -1      1450 4.81637E-03
 -1      1451 3.54991E-03
 -1      1452 2.99991E-03
 -1      1453 3.72674E-03
 -1      1454 2.56589E-03
 -1      1455 2.36618E-03
 -1      1456 2.80168E-03
 -1      1457 2.16858E-03
 -1      1458 1.97246E-03
 -1      1459 2.17006E-03
 -1      1460 1.71805E-03
 -1      1461 1.46364E-03
 -1      1462 1.71805E-03
 -1      1463 1.31131E-03
 -1      1464 1.15899E-03
 -1      1465 1.31131E-03
 -1      1466 8.15634E-04
 -1      1467 4.25480E-04
 -1      1468 3.84209E-04
 -1      1469 8.15634E-04
 -1      1470 3.07276E+00
 -1      1471 8.27345E+00
 -1      1472 8.27345E+00
 -1      1473 1.94187E+00
 -1      1474 2.50731E+00
 -1      1475 2.50731E+00
 -1      1476 1.13284E+00
 -1      1477 1.53735E+00
 -1      1478 1.53735E+00
 -1      1479 6.70162E-01
 -1      1480 9.32914E-01
 -1      1481 9.32914E-01
 -1      1482 5.26693E-01
 -1      1483 6.27056E-01
 -1      1484 6.89884E-01
 -1      1485 7.05739E-01
 -1      1486 6.19785E-01
 -1      1487 7.39870E-01
 -1      1488 9.46899E-01
 -1      1489 8.32625E-01
 -1      1490 9.59848E-01
 -1      1491 1.21361E+00
 -1      1492 1.08426E+00
 -1      1493 1.22409E+00
 -1      1494 1.63491E+00
 -1      1495 1.37827E+00
 -1      1496 1.52611E+00
 -1      1497 1.94300E+00
 -1      1498 1.73148E+00
 -1      1499 1.78734E+00
 -1      1500 2.08951E+00
 -1      1501 2.00209E+00
 -1      1502 1.94300E+00
 -1      1503 2.31080E+00
 -1      1504 2.17694E+00
 -1      1505 2.08951E+00
 -1      1506 2.44625E+00
 -1      1507 2.44467E+00
 -1      1508 2.31080E+00
 -1      1509 2.44784E+00
 -1      1510 2.44784E+00
 -1      1511 2.44625E+00
 -1      1512 2.08900E+00
 -1      1513 2.26842E+00
 -1      1514 2.26842E+00
 -1      1515 1.53491E+00
 -1      1516 1.81195E+00
 -1      1517 1.81195E+00
 -1      1518 1.03363E+00
 -1      1519 1.29171E+00
 -1      1520 1.29171E+00
 -1      1521 6.81022E-01
 -1      1522 8.49885E-01
 -1      1523 8.64769E-01
 -1      1524 4.28827E-01
 -1      1525 5.54924E-01
 -1      1526 5.54924E-01
 -1      1527 3.70992E-01
 -1      1528 3.99910E-01
 -1      1529 3.99910E-01
 -1      1530 3.74103E-01
 -1      1531 3.64222E-01
 -1      1532 3.64222E-01
 -1      1533 3.90756E-01
 -1      1534 3.90756E-01
 -1      1535 3.74103E-01
 -1      1536 3.69523E-01
 -1      1537 3.80139E-01
 -1      1538 3.80139E-01
 -1      1539 3.18954E-01
 -1      1540 3.44239E-01
 -1      1541 3.44239E-01
 -1      1542 2.61693E-01
 -1      1543 2.90324E-01
 -1      1544 2.90324E-01
 -1      1545 2.13054E-01
 -1      1546 2.38561E-01
 -1      1547 2.38561E-01
 -1      1548 1.65900E-01
 -1      1549 1.90846E-01
 -1      1550 1.93221E-01
 -1      1551 1.28520E-01
 -1      1552 1.45002E-01
 -1      1553 1.50116E-01
 -1      1554 1.01296E-01
 -1      1555 1.14559E-01
 -1      1556 1.15257E-01
 -1      1557 7.73006E-02
 -1      1558 8.92981E-02
 -1      1559 8.92981E-02
 -1      1560 5.68595E-02
 -1      1561 6.70801E-02
 -1      1562 6.70801E-02
 -1      1563 4.05224E-02
 -1      1564 4.88373E-02
 -1      1565 4.88373E-02
 -1      1566 2.99578E-02
 -1      1567 3.53779E-02
 -1      1568 3.56705E-02
 -1      1569 2.54756E-02
 -1      1570 2.76686E-02
 -1      1571 2.82369E-02
 -1      1572 2.10411E-02
 -1      1573 2.32192E-02
 -1      1574 2.36914E-02
 -1      1575 1.69410E-02
 -1      1576 1.89561E-02
 -1      1577 1.93501E-02
 -1      1578 1.33211E-02
 -1      1579 1.50985E-02
 -1      1580 1.54225E-02
 -1      1581 1.15354E-02
 -1      1582 1.22988E-02
 -1      1583 1.25577E-02
 -1      1584 1.00102E-02
 -1      1585 1.07728E-02
 -1      1586 1.07728E-02
 -1      1587 8.43672E-03
 -1      1588 9.22347E-03
 -1      1589 9.22347E-03
 -1      1590 6.92862E-03
 -1      1591 7.68267E-03
 -1      1592 7.68267E-03
 -1      1593 5.54287E-03
 -1      1594 6.23574E-03
 -1      1595 6.23574E-03
 -1      1596 4.39698E-03
 -1      1597 4.96992E-03
 -1      1598 4.96992E-03
 -1      1599 3.38642E-03
 -1      1600 3.89170E-03
 -1      1601 3.89170E-03
 -1      1602 2.47491E-03
 -1      1603 2.94140E-03
 -1      1604 2.94140E-03
 -1      1605 1.91770E-03
 -1      1606 2.18557E-03
 -1      1607 2.20704E-03
 -1      1608 1.41071E-03
 -1      1609 1.66420E-03
 -1      1610 1.66420E-03
 -1      1611 8.00021E-04
 -1      1612 1.11179E-03
 -1      1613 1.11179E-03
 -1      1614 5.78547E-04
 -1      1615 5.25385E-04
 -1      1616 5.25385E-04
 -1      1617 4.76992E-04
 -1      1618 5.25385E-04
 -1      1619 6.80851E-04
 -1      1620 2.33802E-04
 -1      1621 3.18486E-04
 -1      1622 5.22346E-04
 -1      1623 2.25586E-04
 -1      1624 1.91410E-04
 -1      1625 3.21449E-04
 -1      1626 3.38717E-04
 -1      1627 3.01020E-04
 -1      1628 3.54491E-04
 -1      1629 4.06169E-04
 -1      1630 3.84578E-04
 -1      1631 4.75788E-04
 -1      1632 4.31317E-04
 -1      1633 4.24966E-04
 -1      1634 5.40447E-04
 -1      1635 4.31609E-04
 -1      1636 4.31609E-04
 -1      1637 5.59536E-04
 -1      1638 4.26064E-04
 -1      1639 4.31609E-04
 -1      1640 5.59828E-04
 -1      1641 3.85985E-04
 -1      1642 4.08158E-04
 -1      1643 5.41921E-04
 -1      1644 3.05874E-04
 -1      1645 3.42273E-04
 -1      1646 4.80303E-04
 -1      1647 1.97143E-04
 -1      1648 2.31815E-04
 -1      1649 3.62532E-04
 -1      1650 3.22183E-04
 -1      1651 2.37127E-04
 -1      1652 3.28457E-04
 -1      1653 5.68971E-04
 -1      1654 5.58865E-04
 -1      1655 6.05123E-04
 -1      1656 5.68971E-04
 -1      1657 5.68971E-04
 -1      1658 8.41805E-04
 -1      1659 6.57043E-04
 -1      1660 2.79256E+01
 -1      1661 2.79256E+01
 -1      1662 4.18508E+01
 -1      1663 3.25858E+01
 -1      1664 4.48857E+01
 -1      1665 4.48857E+01
 -1      1666 1.76054E+01
 -1      1667 3.14584E+01
 -1      1668 1.14085E+01
 -1      1669 1.39312E+01
 -1      1670 1.23517E+01
 -1      1671 1.21345E+01
 -1      1672 1.25688E+01
 -1      1673 1.25688E+01
 -1      1674 1.24279E+01
 -1      1675 1.20916E+01
 -1      1676 1.32415E+01
 -1      1677 1.32415E+01
 -1      1678 1.20440E+01
 -1      1679 1.26427E+01
 -1      1680 1.86883E+01
 -1      1681 1.20327E+01
 -1      1682 2.83357E+01
 -1      1683 2.59948E+01
 -1      1684 3.14651E+01
 -1      1685 3.14651E+01
 -1      1686 2.86113E+01
 -1      1687 3.14651E+01
 -1      1688 2.85309E+01
 -1      1689 2.80114E+01
 -1      1690 2.85309E+01
 -1      1691 2.85309E+01
 -1      1692 4.24759E+01
 -1      1693 3.24106E+01
 -1      1694 4.54991E+01
 -1      1695 4.54991E+01
 -1      1696 1.82139E+01
 -1      1697 3.20234E+01
 -1      1698 1.20744E+01
 -1      1699 1.45822E+01
 -1      1700 1.28647E+01
 -1      1701 1.28647E+01
 -1      1702 1.27805E+01
 -1      1703 1.28226E+01
 -1      1704 1.27982E+01
 -1      1705 1.26414E+01
 -1      1706 1.30941E+01
 -1      1707 1.30941E+01
 -1      1708 1.27766E+01
 -1      1709 1.22187E+01
 -1      1710 2.47909E+01
 -1      1711 1.42098E+01
 -1      1712 3.53719E+01
 -1      1713 3.53719E+01
 -1      1714 2.96199E+01
 -1      1715 3.43859E+01
 -1      1716 2.51177E+01
 -1      1717 2.55136E+01
 -1      1718 2.79256E+01
 -1      1719 2.72717E+01
 -1      1720 3.14584E+01
 -1      1721 2.94953E+01
 -1      1722 5.91393E-04
 -1      1723 7.46859E-04
 -1      1724 3.41556E+01
 -1      1725 4.18508E+01
 -1      1726 1.43568E+01
 -1      1727 1.14085E+01
 -1      1728 1.23517E+01
 -1      1729 1.20916E+01
 -1      1730 1.24279E+01
 -1      1731 1.26427E+01
 -1      1732 1.20327E+01
 -1      1733 1.93279E+01
 -1      1734 2.97638E+01
 -1      1735 3.28932E+01
 -1      1736 3.22933E+01
 -1      1737 3.16934E+01
 -1      1738 3.55731E+01
 -1      1739 4.24759E+01
 -1      1740 3.20234E+01
 -1      1741 1.49159E+01
 -1      1742 1.20744E+01
 -1      1743 1.28226E+01
 -1      1744 1.26414E+01
 -1      1745 1.27982E+01
 -1      1746 1.22187E+01
 -1      1747 1.27766E+01
 -1      1748 2.47909E+01
 -1      1749 3.43859E+01
 -1      1750 2.92937E+01
 -1      1751 2.73414E+01
 -1      1752 8.88700E+00
 -1      1753 1.84358E+00
 -1      1754 2.25059E+00
 -1      1755 2.68247E+00
 -1      1756 4.27532E+00
 -1      1757 2.26962E+00
 -1      1758 1.11632E+00
 -1      1759 1.30413E+00
 -1      1760 7.47328E-01
 -1      1761 9.29212E-01
 -1      1762 1.01759E+00
 -1      1763 4.61867E-01
 -1      1764 5.55178E-01
 -1      1765 6.38335E-01
 -1      1766 6.16987E-01
 -1      1767 5.19049E-01
 -1      1768 5.03366E-01
 -1      1769 7.94501E-01
 -1      1770 6.98148E-01
 -1      1771 6.41708E-01
 -1      1772 9.39697E-01
 -1      1773 8.53472E-01
 -1      1774 7.81840E-01
 -1      1775 1.08838E+00
 -1      1776 9.95422E-01
 -1      1777 8.96536E-01
 -1      1778 1.24834E+00
 -1      1779 1.13902E+00
 -1      1780 1.00290E+00
 -1      1781 1.48150E+00
 -1      1782 1.30781E+00
 -1      1783 1.11301E+00
 -1      1784 1.90753E+00
 -1      1785 1.56681E+00
 -1      1786 1.25779E+00
 -1      1787 2.69141E+00
 -1      1788 1.97907E+00
 -1      1789 1.41463E+00
 -1      1790 7.68426E+00
 -1      1791 2.89552E+00
 -1      1792 1.69028E+00
 -1      1793 2.48357E+00
 -1      1794 4.70089E+00
 -1      1795 1.76997E+00
 -1      1796 2.33541E+00
 -1      1797 1.74623E+00
 -1      1798 3.12707E+00
 -1      1799 1.88034E+00
 -1      1800 1.46868E+00
 -1      1801 1.55005E+00
 -1      1802 1.62169E+00
 -1      1803 1.53104E+00
 -1      1804 1.83800E+00
 -1      1805 2.07020E+00
 -1      1806 1.82872E+00
 -1      1807 2.25922E+00
 -1      1808 2.47081E+00
 -1      1809 2.23405E+00
 -1      1810 2.65037E+00
 -1      1811 3.01984E+00
 -1      1812 2.60263E+00
 -1      1813 3.38376E+00
 -1      1814 3.44903E+00
 -1      1815 3.14611E+00
 -1      1816 3.82480E+00
 -1      1817 3.71099E+00
 -1      1818 3.88580E+00
 -1      1819 3.81408E+00
 -1      1820 4.12132E+00
 -1      1821 4.36466E+00
 -1      1822 3.96413E+00
 -1      1823 5.82504E+00
 -1      1824 4.31057E+00
 -1      1825 7.39104E+00
 -1      1826 8.82934E+00
 -1      1827 5.71938E+00
 -1      1828 1.01899E+01
 -1      1829 1.01314E+01
 -1      1830 8.64595E+00
 -1      1831 9.16240E+00
 -1      1832 7.61647E+00
 -1      1833 9.03754E+00
 -1      1834 5.17335E+00
 -1      1835 3.34891E+00
 -1      1836 5.62544E+00
 -1      1837 4.30068E+00
 -1      1838 4.23037E+00
 -1      1839 4.13409E+00
 -1      1840 3.81611E+00
 -1      1841 3.90347E+00
 -1      1842 4.67160E+00
 -1      1843 3.53534E+00
 -1      1844 3.46206E+00
 -1      1845 3.88922E+00
 -1      1846 3.11768E+00
 -1      1847 2.79573E+00
 -1      1848 3.17671E+00
 -1      1849 2.67699E+00
 -1      1850 2.49546E+00
 -1      1851 2.71358E+00
 -1      1852 2.31526E+00
 -1      1853 2.12637E+00
 -1      1854 2.41464E+00
 -1      1855 1.91762E+00
 -1      1856 1.71554E+00
 -1      1857 2.02568E+00
 -1      1858 1.49069E+00
 -1      1859 1.26497E+00
 -1      1860 1.59208E+00
 -1      1861 1.09012E+00
 -1      1862 9.26550E-01
 -1      1863 1.19238E+00
 -1      1864 7.87594E-01
 -1      1865 6.62080E-01
 -1      1866 8.78580E-01
 -1      1867 5.56207E-01
 -1      1868 4.63697E-01
 -1      1869 6.33751E-01
 -1      1870 3.85134E-01
 -1      1871 3.27977E-01
 -1      1872 4.49315E-01
 -1      1873 2.70732E-01
 -1      1874 2.32854E-01
 -1      1875 3.13507E-01
 -1      1876 1.91703E-01
 -1      1877 1.63035E-01
 -1      1878 2.15111E-01
 -1      1879 1.33789E-01
 -1      1880 1.12312E-01
 -1      1881 1.44714E-01
 -1      1882 9.31996E-02
 -1      1883 7.97934E-02
 -1      1884 9.63550E-02
 -1      1885 6.88049E-02
 -1      1886 6.01073E-02
 -1      1887 6.62538E-02
 -1      1888 5.22739E-02
 -1      1889 4.51131E-02
 -1      1890 4.74320E-02
 -1      1891 4.12335E-02
 -1      1892 3.54111E-02
 -1      1893 3.57190E-02
 -1      1894 3.23508E-02
 -1      1895 2.76664E-02
 -1      1896 2.87790E-02
 -1      1897 2.49430E-02
 -1      1898 2.14330E-02
 -1      1899 2.29952E-02
 -1      1900 1.91796E-02
 -1      1901 1.65300E-02
 -1      1902 1.80184E-02
 -1      1903 1.46949E-02
 -1      1904 1.29211E-02
 -1      1905 1.39299E-02
 -1      1906 1.17251E-02
 -1      1907 1.03833E-02
 -1      1908 1.08990E-02
 -1      1909 9.60237E-03
 -1      1910 8.43904E-03
 -1      1911 8.92211E-03
 -1      1912 7.69813E-03
 -1      1913 6.79125E-03
 -1      1914 7.40031E-03
 -1      1915 6.11304E-03
 -1      1916 5.35897E-03
 -1      1917 5.98120E-03
 -1      1918 4.81741E-03
 -1      1919 4.21882E-03
 -1      1920 4.76143E-03
 -1      1921 3.73908E-03
 -1      1922 3.24804E-03
 -1      1923 3.74013E-03
 -1      1924 2.83927E-03
 -1      1925 2.40525E-03
 -1      1926 2.85161E-03
 -1      1927 2.09296E-03
 -1      1928 1.89535E-03
 -1      1929 2.13054E-03
 -1      1930 1.66289E-03
 -1      1931 1.40848E-03
 -1      1932 1.58578E-03
 -1      1933 1.22731E-03
 -1      1934 1.07498E-03
 -1      1935 1.17215E-03
 -1      1936 1.00040E-03
 -1      1937 7.32989E-01
 -1      1938 9.32914E-01
 -1      1939 6.05595E-01
 -1      1940 6.48701E-01
 -1      1941 6.48701E-01
 -1      1942 7.60353E-01
 -1      1943 6.67260E-01
 -1      1944 6.26077E-01
 -1      1945 9.94523E-01
 -1      1946 8.67637E-01
 -1      1947 7.95027E-01
 -1      1948 1.26521E+00
 -1      1949 1.12785E+00
 -1      1950 1.03564E+00
 -1      1951 1.55178E+00
 -1      1952 1.38713E+00
 -1      1953 1.29089E+00
 -1      1954 1.78734E+00
 -1      1955 1.69076E+00
 -1      1956 1.55178E+00
 -1      1957 1.94300E+00
 -1      1958 1.88392E+00
 -1      1959 1.78734E+00
 -1      1960 2.02547E+00
 -1      1961 1.93804E+00
 -1      1962 1.87896E+00
 -1      1963 2.17692E+00
 -1      1964 2.04306E+00
 -1      1965 1.89158E+00
 -1      1966 2.15774E+00
 -1      1967 2.15616E+00
 -1      1968 1.88841E+00
 -1      1969 1.85335E+00
 -1      1970 2.03277E+00
 -1      1971 1.74268E+00
 -1      1972 1.40541E+00
 -1      1973 1.68246E+00
 -1      1974 1.44681E+00
 -1      1975 1.00360E+00
 -1      1976 1.24679E+00
 -1      1977 1.11730E+00
 -1      1978 6.62476E-01
 -1      1979 8.46223E-01
 -1      1980 8.01302E-01
 -1      1981 4.06834E-01
 -1      1982 5.32931E-01
 -1      1983 5.14385E-01
 -1      1984 3.12149E-01
 -1      1985 3.41066E-01
 -1      1986 3.19073E-01
 -1      1987 3.02418E-01
 -1      1988 3.09189E-01
 -1      1989 2.50346E-01
 -1      1990 3.39274E-01
 -1      1991 3.22622E-01
 -1      1992 2.67589E-01
 -1      1993 3.25556E-01
 -1      1994 3.36173E-01
 -1      1995 2.84691E-01
 -1      1996 2.83842E-01
 -1      1997 3.09126E-01
 -1      1998 2.65160E-01
 -1      1999 2.38606E-01
 -1      2000 2.67237E-01
 -1      2001 2.32124E-01
 -1      2002 2.01020E-01
 -1      2003 2.24152E-01
 -1      2004 2.01065E-01
 -1      2005 1.64146E-01
 -1      2006 1.86354E-01
 -1      2007 1.71944E-01
 -1      2008 1.27455E-01
 -1      2009 1.48352E-01
 -1      2010 1.41484E-01
 -1      2011 9.85132E-02
 -1      2012 1.12474E-01
 -1      2013 1.10711E-01
 -1      2014 7.56551E-02
 -1      2015 8.76527E-02
 -1      2016 8.48702E-02
 -1      2017 5.63883E-02
 -1      2018 6.66088E-02
 -1      2019 6.49633E-02
 -1      2020 4.08150E-02
 -1      2021 4.88373E-02
 -1      2022 4.83660E-02
 -1      2023 3.05260E-02
 -1      2024 3.56705E-02
 -1      2025 3.56705E-02
 -1      2026 2.59477E-02
 -1      2027 2.82369E-02
 -1      2028 2.82369E-02
 -1      2029 2.14350E-02
 -1      2030 2.36914E-02
 -1      2031 2.36914E-02
 -1      2032 1.72651E-02
 -1      2033 1.93501E-02
 -1      2034 1.93501E-02
 -1      2035 1.35800E-02
 -1      2036 1.54225E-02
 -1      2037 1.54225E-02
 -1      2038 1.09825E-02
 -1      2039 1.20048E-02
 -1      2040 1.20048E-02
 -1      2041 9.39519E-03
 -1      2042 1.01578E-02
 -1      2043 9.60486E-03
 -1      2044 7.89821E-03
 -1      2045 8.68496E-03
 -1      2046 8.06993E-03
 -1      2047 6.45904E-03
 -1      2048 7.21309E-03
 -1      2049 6.67458E-03
 -1      2050 5.14356E-03
 -1      2051 5.83643E-03
 -1      2052 5.36685E-03
 -1      2053 4.06671E-03
 -1      2054 4.63965E-03
 -1      2055 4.24034E-03
 -1      2056 3.11280E-03
 -1      2057 3.61808E-03
 -1      2058 3.28781E-03
 -1      2059 2.33272E-03
 -1      2060 2.77774E-03
 -1      2061 2.50412E-03
 -1      2062 1.75628E-03
 -1      2063 2.04562E-03
 -1      2064 1.88196E-03
 -1      2065 1.32587E-03
 -1      2066 1.57936E-03
 -1      2067 1.41794E-03
 -1      2068 9.37390E-04
 -1      2069 1.23631E-03
 -1      2070 1.15147E-03
 -1      2071 8.71382E-04
 -1      2072 3.64050E-04
 -1      2073 4.06442E-04
 -1      2074 7.66406E-04
 -1      2075 9.24911E-04
 -1      2076 8.09007E-04
 -1      2077 8.71382E-04
 -1      2078 5.01343E-04
 -1      2079 4.25909E-04
 -1      2080 5.10902E-04
 -1      2081 6.09836E-04
 -1      2082 5.63974E-04
 -1      2083 6.35391E-04
 -1      2084 6.58610E-04
 -1      2085 6.39813E-04
 -1      2086 7.27999E-04
 -1      2087 6.58902E-04
 -1      2088 6.58610E-04
 -1      2089 7.57977E-04
 -1      2090 6.59438E-04
 -1      2091 6.59438E-04
 -1      2092 7.58513E-04
 -1      2093 6.41532E-04
 -1      2094 6.59438E-04
 -1      2095 7.59049E-04
 -1      2096 5.73062E-04
 -1      2097 6.16774E-04
 -1      2098 7.34291E-04
 -1      2099 4.36235E-04
 -1      2100 5.10294E-04
 -1      2101 6.46764E-04
 -1      2102 4.05125E-04
 -1      2103 3.65141E-04
 -1      2104 5.12903E-04
 -1      2105 7.60451E-04
 -1      2106 5.23769E-04
 -1      2107 5.60453E-04
 -1      2108 1.04821E+00
 -1      2109 1.45272E+00
 -1      2110 1.28082E+00
 -1      2111 8.48281E-01
 -1      2112 3.58646E+01
 -1      2113 3.28296E+01
 -1      2114 9.72655E+00
 -1      2115 1.34008E+01
 -1      2116 3.16056E+01
 -1      2117 3.16056E+01
 -1      2118 1.64866E+01
 -1      2119 2.99140E+01
 -1      2120 1.62064E+00
 -1      2121 1.84358E+00
 -1      2122 1.83773E+00
 -1      2123 1.52121E+00
 -1      2124 9.86160E+00
 -1      2125 9.13560E+00
 -1      2126 1.12444E+01
 -1      2127 1.10273E+01
 -1      2128 1.11043E+01
 -1      2129 1.15816E+01
 -1      2130 1.18654E+01
 -1      2131 1.10518E+01
 -1      2132 1.05418E+01
 -1      2133 1.00610E+01
 -1      2134 1.06597E+01
 -1      2135 9.44517E+00
 -1      2136 9.45645E+00
 -1      2137 1.88898E+01
 -1      2138 1.15833E+01
 -1      2139 2.59689E+01
 -1      2140 2.28395E+01
 -1      2141 3.28932E+01
 -1      2142 3.28932E+01
 -1      2143 3.33512E+01
 -1      2144 3.39511E+01
 -1      2145 3.33512E+01
 -1      2146 3.33512E+01
 -1      2147 3.41858E+01
 -1      2148 3.03061E+01
 -1      2149 3.63126E+01
 -1      2150 3.32895E+01
 -1      2151 2.80225E+01
 -1      2152 1.69252E+01
 -1      2153 3.04009E+01
 -1      2154 1.01148E+01
 -1      2155 1.37466E+01
 -1      2156 1.05373E+01
 -1      2157 9.74704E+00
 -1      2158 1.16404E+01
 -1      2159 1.16824E+01
 -1      2160 1.16713E+01
 -1      2161 1.18105E+01
 -1      2162 1.16801E+01
 -1      2163 1.13841E+01
 -1      2164 1.05532E+01
 -1      2165 9.70595E+00
 -1      2166 1.05813E+01
 -1      2167 1.07110E+01
 -1      2168 9.27772E+00
 -1      2169 7.64033E+00
 -1      2170 2.42819E+01
 -1      2171 1.37008E+01
 -1      2172 2.78798E+01
 -1      2173 2.88657E+01
 -1      2174 2.55003E+01
 -1      2175 2.96065E+01
 -1      2176 3.16056E+01
 -1      2177 2.94517E+01
 -1      2178 3.37160E+01
 -1      2179 3.01661E+01
 -1      2180 2.55058E+01
 -1      2181 2.41799E+01
 -1      2182 9.16390E-04
 -1      2183 1.18564E+01
 -1      2184 2.50626E+00
 -1      2185 2.08928E+01
 -1      2186 8.17963E+00
 -1      2187 2.07558E+00
 -1      2188 1.11544E-03
 -1      2189 2.75416E+01
 -1      2190 2.96519E+01
 -1      2191 2.35521E+01
 -1      2192 9.16390E-04
 -1      2193 8.35036E-04
 -1      2194 2.97645E+01
 -1      2195 2.40863E+01
 -1      2196 1.02020E+01
 -1      2197 9.16732E+00
 -1      2198 1.06703E+01
 -1      2199 9.35503E+00
 -1      2200 8.57766E+00
 -1      2201 2.12145E+01
 -1      2202 3.19639E+01
 -1      2203 3.50090E+01
 -1      2204 3.39511E+01
 -1      2205 2.59689E+01
 -1      2206 1.50949E+01
 -1      2207 9.00706E+00
 -1      2208 1.08772E+01
 -1      2209 9.50112E+00
 -1      2210 8.29544E+00
 -1      2211 8.75436E+00
 -1      2212 1.02572E+01
 -1      2213 7.47345E+00
 -1      2214 1.21241E+01
 -1      2215 1.77757E+01
 -1      2216 5.93249E-01
 -1      2217 7.85399E-01
 -1      2218 9.44442E-01
 -1      2219 1.13155E+00
 -1      2220 8.99357E-01
 -1      2221 7.20078E-01
 -1      2222 6.38917E-01
 -1      2223 7.92006E-01
 -1      2224 7.33035E-01
 -1      2225 7.30244E-01
 -1      2226 8.75085E-01
 -1      2227 8.19360E-01
 -1      2228 7.70555E-01
 -1      2229 9.33313E-01
 -1      2230 8.82676E-01
 -1      2231 8.05500E-01
 -1      2232 9.92789E-01
 -1      2233 9.33313E-01
 -1      2234 8.13091E-01
 -1      2235 1.05839E+00
 -1      2236 9.73083E-01
 -1      2237 7.93386E-01
 -1      2238 1.12633E+00
 -1      2239 1.05479E+00
 -1      2240 7.70085E-01
 -1      2241 1.49388E+00
 -1      2242 1.28977E+00
 -1      2243 9.29934E-01
 -1      2244 1.34572E+00
 -1      2245 1.56732E+00
 -1      2246 1.64870E+00
 -1      2247 1.36527E+01
 -1      2248 1.96032E+01
 -1      2249 8.87569E+00
 -1      2250 1.19615E+01
 -1      2251 1.77313E+00
 -1      2252 1.98944E+00
 -1      2253 1.80942E+00
 -1      2254 2.28299E+00
 -1      2255 2.47200E+00
 -1      2256 2.22740E+00
 -1      2257 2.85103E+00
 -1      2258 3.03059E+00
 -1      2259 2.89996E+00
 -1      2260 3.47307E+00
 -1      2261 3.83699E+00
 -1      2262 3.72147E+00
 -1      2263 4.54668E+00
 -1      2264 4.92245E+00
 -1      2265 4.87364E+00
 -1      2266 5.87184E+00
 -1      2267 5.97493E+00
 -1      2268 6.53272E+00
 -1      2269 1.01363E+01
 -1      2270 9.16732E+00
 -1      2271 5.18576E+00
 -1      2272 6.13753E+00
 -1      2273 6.61668E+00
 -1      2274 6.20243E+00
 -1      2275 4.83043E+00
 -1      2276 4.46230E+00
 -1      2277 6.77551E+00
 -1      2278 3.86450E+00
 -1      2279 3.52012E+00
 -1      2280 4.80571E+00
 -1      2281 3.09182E+00
 -1      2282 2.97308E+00
 -1      2283 3.77961E+00
 -1      2284 2.59850E+00
 -1      2285 2.41830E+00
 -1      2286 2.97674E+00
 -1      2287 2.10701E+00
 -1      2288 1.89825E+00
 -1      2289 2.29087E+00
 -1      2290 1.64727E+00
 -1      2291 1.42242E+00
 -1      2292 1.72860E+00
 -1      2293 1.23505E+00
 -1      2294 1.06020E+00
 -1      2295 1.29024E+00
 -1      2296 9.16131E-01
 -1      2297 7.77175E-01
 -1      2298 9.58794E-01
 -1      2299 6.67813E-01
 -1      2300 5.61940E-01
 -1      2301 7.05363E-01
 -1      2302 4.79757E-01
 -1      2303 4.01194E-01
 -1      2304 5.13819E-01
 -1      2305 3.39991E-01
 -1      2306 2.82746E-01
 -1      2307 3.70433E-01
 -1      2308 2.37548E-01
 -1      2309 1.96396E-01
 -1      2310 2.64032E-01
 -1      2311 1.63287E-01
 -1      2312 1.34041E-01
 -1      2313 1.85724E-01
 -1      2314 1.09990E-01
 -1      2315 9.08773E-02
 -1      2316 1.28563E-01
 -1      2317 7.35711E-02
 -1      2318 6.25826E-02
 -1      2319 8.72061E-02
 -1      2320 5.02676E-02
 -1      2321 4.24342E-02
 -1      2322 5.75849E-02
 -1      2323 3.37905E-02
 -1      2324 2.99109E-02
 -1      2325 3.66261E-02
 -1      2326 2.54730E-02
 -1      2327 2.24127E-02
 -1      2328 2.35445E-02
 -1      2329 2.05268E-02
 -1      2330 1.78034E-02
 -1      2331 1.72208E-02
 -1      2332 1.66737E-02
 -1      2333 1.44203E-02
 -1      2334 1.42053E-02
 -1      2335 1.33205E-02
 -1      2336 1.14855E-02
 -1      2337 1.19759E-02
 -1      2338 1.04667E-02
 -1      2339 9.27080E-03
 -1      2340 9.85737E-03
 -1      2341 8.36075E-03
 -1      2342 7.57985E-03
 -1      2343 7.92854E-03
 -1      2344 6.94357E-03
 -1      2345 6.20266E-03
 -1      2346 6.38220E-03
 -1      2347 5.75986E-03
 -1      2348 5.08164E-03
 -1      2349 5.30311E-03
 -1      2350 4.63690E-03
 -1      2351 4.09534E-03
 -1      2352 4.41556E-03
 -1      2353 3.67815E-03
 -1      2354 3.19841E-03
 -1      2355 3.55362E-03
 -1      2356 2.85496E-03
 -1      2357 2.44618E-03
 -1      2358 2.79298E-03
 -1      2359 2.13480E-03
 -1      2360 1.82250E-03
 -1      2361 2.13814E-03
 -1      2362 1.57375E-03
 -1      2363 1.34129E-03
 -1      2364 1.57801E-03
 -1      2365 1.18472E-03
 -1      2366 1.00354E-03
 -1      2367 8.47604E-04
 -1      2368 1.17268E-03
 -1      2369 8.22382E-01
 -1      2370 7.15098E-01
 -1      2371 6.26943E-01
 -1      2372 5.65277E-01
 -1      2373 6.54297E-01
 -1      2374 5.33965E-01
 -1      2375 6.18254E-01
 -1      2376 5.34831E-01
 -1      2377 1.07724E+00
 -1      2378 9.43912E-01
 -1      2379 8.63982E-01
 -1      2380 1.31041E+00
 -1      2381 1.18849E+00
 -1      2382 1.09676E+00
 -1      2383 1.51062E+00
 -1      2384 1.37164E+00
 -1      2385 1.26924E+00
 -1      2386 1.65891E+00
 -1      2387 1.56233E+00
 -1      2388 1.38219E+00
 -1      2389 1.64892E+00
 -1      2390 1.65388E+00
 -1      2391 1.42887E+00
 -1      2392 1.63002E+00
 -1      2393 1.61243E+00
 -1      2394 1.38736E+00
 -1      2395 1.64535E+00
 -1      2396 1.66611E+00
 -1      2397 1.38696E+00
 -1      2398 1.49853E+00
 -1      2399 1.62350E+00
 -1      2400 1.40120E+00
 -1      2401 1.25479E+00
 -1      2402 1.42569E+00
 -1      2403 1.30651E+00
 -1      2404 1.00629E+00
 -1      2405 1.16491E+00
 -1      2406 1.14378E+00
 -1      2407 7.08012E-01
 -1      2408 8.65384E-01
 -1      2409 9.12999E-01
 -1      2410 4.73293E-01
 -1      2411 6.02837E-01
 -1      2412 6.66920E-01
 -1      2413 3.04208E-01
 -1      2414 3.69976E-01
 -1      2415 4.58428E-01
 -1      2416 2.78873E-01
 -1      2417 2.81832E-01
 -1      2418 3.32735E-01
 -1      2419 2.69637E-01
 -1      2420 2.49433E-01
 -1      2421 2.80920E-01
 -1      2422 2.63659E-01
 -1      2423 2.66760E-01
 -1      2424 2.48605E-01
 -1      2425 2.44905E-01
 -1      2426 2.61336E-01
 -1      2427 2.43405E-01
 -1      2428 2.19141E-01
 -1      2429 2.35746E-01
 -1      2430 2.31923E-01
 -1      2431 1.92946E-01
 -1      2432 2.07401E-01
 -1      2433 2.11022E-01
 -1      2434 1.65044E-01
 -1      2435 1.79710E-01
 -1      2436 1.86046E-01
 -1      2437 1.34815E-01
 -1      2438 1.50608E-01
 -1      2439 1.58374E-01
 -1      2440 1.05237E-01
 -1      2441 1.20217E-01
 -1      2442 1.29340E-01
 -1      2443 8.09476E-02
 -1      2444 9.18081E-02
 -1      2445 1.01314E-01
 -1      2446 6.03168E-02
 -1      2447 6.93631E-02
 -1      2448 7.63010E-02
 -1      2449 4.32511E-02
 -1      2450 5.08021E-02
 -1      2451 5.52019E-02
 -1      2452 3.06066E-02
 -1      2453 3.57510E-02
 -1      2454 3.81872E-02
 -1      2455 2.37113E-02
 -1      2456 2.60004E-02
 -1      2457 2.60809E-02
 -1      2458 1.81699E-02
 -1      2459 2.04263E-02
 -1      2460 1.81898E-02
 -1      2461 1.52344E-02
 -1      2462 1.73193E-02
 -1      2463 1.40542E-02
 -1      2464 1.24798E-02
 -1      2465 1.43224E-02
 -1      2466 1.22917E-02
 -1      2467 9.97238E-03
 -1      2468 1.15476E-02
 -1      2469 1.04474E-02
 -1      2470 8.25924E-03
 -1      2471 9.08395E-03
 -1      2472 8.62675E-03
 -1      2473 6.74057E-03
 -1      2474 7.45080E-03
 -1      2475 6.92989E-03
 -1      2476 5.66014E-03
 -1      2477 6.34526E-03
 -1      2478 5.72613E-03
 -1      2479 4.60687E-03
 -1      2480 5.22948E-03
 -1      2481 4.90016E-03
 -1      2482 3.67071E-03
 -1      2483 4.17461E-03
 -1      2484 4.03724E-03
 -1      2485 2.84407E-03
 -1      2486 3.29271E-03
 -1      2487 3.22698E-03
 -1      2488 2.17667E-03
 -1      2489 2.51173E-03
 -1      2490 2.51663E-03
 -1      2491 1.59270E-03
 -1      2492 1.87980E-03
 -1      2493 1.88741E-03
 -1      2494 1.21683E-03
 -1      2495 1.39375E-03
 -1      2496 1.39159E-03
 -1      2497 1.20500E-03
 -1      2498 7.75981E-04
 -1      2499 7.13351E-04
 -1      2500 6.34515E-04
 -1      2501 5.72656E-04
 -1      2502 7.75105E-04
 -1      2503 6.52194E-04
 -1      2504 1.01216E-03
 -1      2505 7.75807E-04
 -1      2506 8.53399E-04
 -1      2507 8.23421E-04
 -1      2508 9.01381E-04
 -1      2509 8.53399E-04
 -1      2510 8.53399E-04
 -1      2511 9.48821E-04
 -1      2512 8.50311E-04
 -1      2513 8.49775E-04
 -1      2514 9.45197E-04
 -1      2515 8.56869E-04
 -1      2516 8.56869E-04
 -1      2517 9.48132E-04
 -1      2518 8.32111E-04
 -1      2519 8.56869E-04
 -1      2520 9.54690E-04
 -1      2521 7.36649E-04
 -1      2522 7.99417E-04
 -1      2523 9.21995E-04
 -1      2524 5.72974E-04
 -1      2525 6.44068E-04
 -1      2526 7.96720E-04
 -1      2527 6.41753E-04
 -1      2528 5.23108E-04
 -1      2529 6.54274E-04
 -1      2530 8.10259E-04
 -1      2531 2.97645E+01
 -1      2532 2.58131E+01
 -1      2533 2.26962E+00
 -1      2534 1.64370E+00
 -1      2535 1.76136E+00
 -1      2536 1.83773E+00
 -1      2537 6.03699E+00
 -1      2538 6.62793E+00
 -1      2539 6.73305E+00
 -1      2540 3.37160E+01
 -1      2541 3.37160E+01
 -1      2542 2.89188E+01
 -1      2543 3.19639E+01
 -1      2544 7.45534E+00
 -1      2545 6.28966E+00
 -1      2546 5.63749E-01
 -1      2547 5.06568E-01
 -1      2548 6.53633E-01
 -1      2549 6.42120E-01
 -1      2550 9.11774E+00
 -1      2551 8.78062E+00
 -1      2552 5.38107E+00
 -1      2553 5.98561E+00
 -1      2554 9.28098E+00
 -1      2555 9.33343E+00
 -1      2556 8.58310E+00
 -1      2557 1.17618E+01
 -1      2558 8.27392E+00
 -1      2559 6.13577E+00
 -1      2560 4.64792E+00
 -1      2561 1.42079E+01
 -1      2562 1.02582E+01
 -1      2563 2.40730E+01
 -1      2564 1.71486E+01
 -1      2565 2.90704E+01
 -1      2566 2.80125E+01
 -1      2567 3.50090E+01
 -1      2568 3.50090E+01
 -1      2569 2.90704E+01
 -1      2570 2.25482E+01
 -1      2571 2.34445E+01
 -1      2572 1.67253E+01
 -1      2573 1.21414E+01
 -1      2574 1.43156E+01
 -1      2575 2.02273E+01
 -1      2576 6.29097E+00
 -1      2577 6.65873E+00
 -1      2578 6.29641E+00
 -1      2579 8.89277E+00
 -1      2580 7.74764E+00
 -1      2581 5.68550E+00
 -1      2582 6.11374E+00
 -1      2583 1.01905E+01
 -1      2584 7.20064E+00
 -1      2585 5.67406E+00
 -1      2586 9.14009E+00
 -1      2587 2.08711E+01
 -1      2588 1.91443E+01
 -1      2589 2.27010E+01
 -1      2590 2.00374E+01
 -1      2591 1.18081E-03
 -1      2592 6.18164E+00
 -1      2593 1.41412E+00
 -1      2594 1.48727E+00
 -1      2595 1.80378E+00
 -1      2596 4.73797E+00
 -1      2597 1.11083E+00
 -1      2598 8.58487E-01
 -1      2599 7.93583E-01
 -1      2600 1.06719E+01
 -1      2601 1.54608E+01
 -1      2602 8.06856E+00
 -1      2603 1.04234E+01
 -1      2604 4.46776E+00
 -1      2605 4.31057E+00
 -1      2606 1.02533E+01
 -1      2607 7.66835E+00
 -1      2608 2.08711E+01
 -1      2609 2.03045E+01
 -1      2610 2.23403E+01
 -1      2611 1.88256E+01
 -1      2612 2.42817E+01
 -1      2613 2.83457E+01
 -1      2614 2.83457E+01
 -1      2615 2.97645E+01
 -1      2616 1.83773E+00
 -1      2617 5.73882E-01
 -1      2618 6.89173E-01
 -1      2619 5.19184E-01
 -1      2620 4.59146E-01
 -1      2621 2.34445E+01
 -1      2622 1.02399E-03
 -1      2623 3.19639E+01
 -1      2624 1.07747E+01
 -1      2625 1.35100E+01
 -1      2626 1.91923E+01
 -1      2627 7.38693E+00
 -1      2628 8.60134E+00
 -1      2629 7.39295E+00
 -1      2630 7.61310E+00
 -1      2631 8.11065E+00
 -1      2632 5.64595E+00
 -1      2633 6.97123E+00
 -1      2634 6.64647E+00
 -1      2635 6.86392E+00
 -1      2636 4.55409E+00
 -1      2637 7.85690E+00
 -1      2638 1.23120E+01
 -1      2639 1.56494E+01
 -1      2640 5.97493E+00
 -1      2641 8.48102E-01
 -1      2642 8.20748E-01
 -1      2643 8.17328E-01
 -1      2644 8.04371E-01
 -1      2645 8.94876E-01
 -1      2646 8.14550E-01
 -1      2647 8.14550E-01
 -1      2648 7.38567E-01
 -1      2649 7.58272E-01
 -1      2650 7.59730E-01
 -1      2651 8.98416E-01
 -1      2652 7.34971E-01
 -1      2653 6.63523E-01
 -1      2654 3.72241E+00
 -1      2655 3.46974E+00
 -1      2656 1.11482E+01
 -1      2657 1.42459E+01
 -1      2658 2.19911E+00
 -1      2659 2.49265E+00
 -1      2660 2.90637E+00
 -1      2661 3.28539E+00
 -1      2662 2.87808E+00
 -1      2663 3.68853E+00
 -1      2664 4.13102E+00
 -1      2665 3.69494E+00
 -1      2666 5.13778E+00
 -1      2667 5.84748E+00
 -1      2668 5.10485E+00
 -1      2669 1.78125E+01
 -1      2670 1.38730E+01
 -1      2671 5.52292E+00
 -1      2672 3.07980E+00
 -1      2673 1.59475E+01
 -1      2674 2.14217E+01
 -1      2675 6.00415E+00
 -1      2676 5.40634E+00
 -1      2677 4.54196E+00
 -1      2678 4.11366E+00
 -1      2679 5.74040E+00
 -1      2680 3.32751E+00
 -1      2681 2.95294E+00
 -1      2682 4.08986E+00
 -1      2683 2.52108E+00
 -1      2684 2.20979E+00
 -1      2685 2.87185E+00
 -1      2686 1.86892E+00
 -1      2687 1.61794E+00
 -1      2688 2.09912E+00
 -1      2689 1.37459E+00
 -1      2690 1.18721E+00
 -1      2691 1.51491E+00
 -1      2692 1.00679E+00
 -1      2693 8.62725E-01
 -1      2694 1.09114E+00
 -1      2695 7.29230E-01
 -1      2696 6.19868E-01
 -1      2697 7.77230E-01
 -1      2698 5.22705E-01
 -1      2699 4.40522E-01
 -1      2700 5.46572E-01
 -1      2701 3.71667E-01
 -1      2702 3.10464E-01
 -1      2703 3.80553E-01
 -1      2704 2.67739E-01
 -1      2705 2.22541E-01
 -1      2706 2.68973E-01
 -1      2707 1.91557E-01
 -1      2708 1.58447E-01
 -1      2709 1.95264E-01
 -1      2710 1.35090E-01
 -1      2711 1.11040E-01
 -1      2712 1.40924E-01
 -1      2713 9.35911E-02
 -1      2714 7.62848E-02
 -1      2715 1.00118E-01
 -1      2716 6.33885E-02
 -1      2717 5.10735E-02
 -1      2718 6.97734E-02
 -1      2719 4.16599E-02
 -1      2720 3.30162E-02
 -1      2721 4.74636E-02
 -1      2722 2.62505E-02
 -1      2723 2.18126E-02
 -1      2724 3.12843E-02
 -1      2725 1.71082E-02
 -1      2726 1.52224E-02
 -1      2727 1.98142E-02
 -1      2728 1.22499E-02
 -1      2729 1.11202E-02
 -1      2730 1.21373E-02
 -1      2731 1.05784E-02
 -1      2732 9.47865E-03
 -1      2733 8.62295E-03
 -1      2734 9.13036E-03
 -1      2735 8.11158E-03
 -1      2736 7.73286E-03
 -1      2737 7.64968E-03
 -1      2738 6.73963E-03
 -1      2739 6.92267E-03
 -1      2740 6.23712E-03
 -1      2741 5.60084E-03
 -1      2742 5.95826E-03
 -1      2743 5.10319E-03
 -1      2744 4.66038E-03
 -1      2745 4.95811E-03
 -1      2746 4.30694E-03
 -1      2747 3.86219E-03
 -1      2748 4.10702E-03
 -1      2749 3.53138E-03
 -1      2750 3.11419E-03
 -1      2751 3.42276E-03
 -1      2752 2.78898E-03
 -1      2753 2.44552E-03
 -1      2754 2.76674E-03
 -1      2755 2.14284E-03
 -1      2756 1.83145E-03
 -1      2757 2.13883E-03
 -1      2758 1.57931E-03
 -1      2759 1.33056E-03
 -1      2760 1.58400E-03
 -1      2761 1.16286E-03
 -1      2762 1.00629E-03
 -1      2763 8.00438E-04
 -1      2764 1.16417E-03
 -1      2765 7.22820E-01
 -1      2766 6.34665E-01
 -1      2767 9.41445E-01
 -1      2768 8.19915E-01
 -1      2769 8.00283E-01
 -1      2770 5.54341E-01
 -1      2771 5.23030E-01
 -1      2772 6.22864E-01
 -1      2773 1.28576E+00
 -1      2774 1.22452E+00
 -1      2775 1.38725E+00
 -1      2776 1.33553E+00
 -1      2777 1.29082E+00
 -1      2778 1.47693E+00
 -1      2779 1.48196E+00
 -1      2780 1.43530E+00
 -1      2781 1.41749E+00
 -1      2782 1.45397E+00
 -1      2783 1.50706E+00
 -1      2784 1.44015E+00
 -1      2785 1.40406E+00
 -1      2786 1.47068E+00
 -1      2787 1.43340E+00
 -1      2788 1.45525E+00
 -1      2789 1.47235E+00
 -1      2790 1.25361E+00
 -1      2791 1.32646E+00
 -1      2792 1.38050E+00
 -1      2793 1.09111E+00
 -1      2794 1.18098E+00
 -1      2795 1.20093E+00
 -1      2796 8.89867E-01
 -1      2797 1.03077E+00
 -1      2798 1.06797E+00
 -1      2799 6.70718E-01
 -1      2800 7.75892E-01
 -1      2801 8.93666E-01
 -1      2802 4.77509E-01
 -1      2803 5.80826E-01
 -1      2804 6.89799E-01
 -1      2805 4.04217E-01
 -1      2806 4.26593E-01
 -1      2807 5.48991E-01
 -1      2808 3.14684E-01
 -1      2809 3.44123E-01
 -1      2810 4.37981E-01
 -1      2811 2.81285E-01
 -1      2812 2.84161E-01
 -1      2813 3.47365E-01
 -1      2814 2.65507E-01
 -1      2815 2.67830E-01
 -1      2816 3.03387E-01
 -1      2817 2.38935E-01
 -1      2818 2.48094E-01
 -1      2819 2.72519E-01
 -1      2820 2.09972E-01
 -1      2821 2.21713E-01
 -1      2822 2.37884E-01
 -1      2823 1.81266E-01
 -1      2824 1.94502E-01
 -1      2825 2.05192E-01
 -1      2826 1.51259E-01
 -1      2827 1.65695E-01
 -1      2828 1.74150E-01
 -1      2829 1.21357E-01
 -1      2830 1.35955E-01
 -1      2831 1.43275E-01
 -1      2832 9.39094E-02
 -1      2833 1.07338E-01
 -1      2834 1.13952E-01
 -1      2835 7.01788E-02
 -1      2836 8.17632E-02
 -1      2837 8.77872E-02
 -1      2838 5.05778E-02
 -1      2839 6.00924E-02
 -1      2840 6.55547E-02
 -1      2841 3.49906E-02
 -1      2842 4.24907E-02
 -1      2843 4.73813E-02
 -1      2844 2.40995E-02
 -1      2845 2.87056E-02
 -1      2846 3.30092E-02
 -1      2847 1.60730E-02
 -1      2848 1.93580E-02
 -1      2849 2.19827E-02
 -1      2850 1.17746E-02
 -1      2851 1.26252E-02
 -1      2852 1.37934E-02
 -1      2853 9.37833E-03
 -1      2854 1.02903E-02
 -1      2855 8.86129E-03
 -1      2856 8.31495E-03
 -1      2857 9.24720E-03
 -1      2858 7.24585E-03
 -1      2859 7.10961E-03
 -1      2860 7.99804E-03
 -1      2861 6.79781E-03
 -1      2862 5.88602E-03
 -1      2863 6.69446E-03
 -1      2864 6.06575E-03
 -1      2865 5.03806E-03
 -1      2866 5.43338E-03
 -1      2867 5.19795E-03
 -1      2868 4.17367E-03
 -1      2869 4.60433E-03
 -1      2870 4.31157E-03
 -1      2871 3.44937E-03
 -1      2872 3.88163E-03
 -1      2873 3.58580E-03
 -1      2874 2.76608E-03
 -1      2875 3.14408E-03
 -1      2876 2.98847E-03
 -1      2877 2.13781E-03
 -1      2878 2.47016E-03
 -1      2879 2.38726E-03
 -1      2880 1.59192E-03
 -1      2881 1.88880E-03
 -1      2882 1.84232E-03
 -1      2883 1.20655E-03
 -1      2884 1.40549E-03
 -1      2885 1.40688E-03
 -1      2886 1.03790E-03
 -1      2887 4.26271E+00
 -1      2888 9.39669E-04
 -1      2889 8.60833E-04
 -1      2890 1.06764E-03
 -1      2891 1.06764E-03
 -1      2892 1.06764E-03
 -1      2893 1.02020E-03
 -1      2894 1.10592E-03
 -1      2895 1.18645E-03
 -1      2896 8.60833E-04
 -1      2897 9.40371E-04
 -1      2898 1.12293E-03
 -1      2899 1.02540E-03
 -1      2900 1.03438E-03
 -1      2901 1.03801E-03
 -1      2902 1.15682E-03
 -1      2903 1.04199E-03
 -1      2904 1.03543E-03
 -1      2905 1.12824E-03
 -1      2906 1.05060E-03
 -1      2907 1.05060E-03
 -1      2908 1.13789E-03
 -1      2909 1.01790E-03
 -1      2910 1.05060E-03
 -1      2911 1.14651E-03
 -1      2912 8.82719E-04
 -1      2913 9.75300E-04
 -1      2914 1.10390E-03
 -1      2915 8.26301E+00
 -1      2916 9.95415E+00
 -1      2917 1.94358E+00
 -1      2918 1.86721E+00
 -1      2919 1.14879E+00
 -1      2920 1.03754E+00
 -1      2921 9.93471E-01
 -1      2922 1.16530E+00
 -1      2923 2.55274E+01
 -1      2924 2.15760E+01
 -1      2925 4.41990E+00
 -1      2926 8.30221E+00
 -1      2927 6.93021E+00
 -1      2928 7.53085E+00
 -1      2929 1.92663E+01
 -1      2930 1.43243E+01
 -1      2931 4.92245E+00
 -1      2932 7.17020E+00
 -1      2933 3.90689E+00
 -1      2934 1.76368E+00
 -1      2935 1.88811E+00
 -1      2936 2.15337E+00
 -1      2937 1.94590E+00
 -1      2938 1.94358E+00
 -1      2939 6.86311E+00
 -1      2940 6.64741E+00
 -1      2941 8.55693E-01
 -1      2942 8.48102E-01
 -1      2943 8.98296E-01
 -1      2944 8.57152E-01
 -1      2945 4.14146E+00
 -1      2946 3.38675E+00
 -1      2947 1.20612E+01
 -1      2948 1.43821E+01
 -1      2949 7.50236E+00
 -1      2950 5.51806E+00
 -1      2951 4.25689E+00
 -1      2952 2.58092E+01
 -1      2953 1.98706E+01
 -1      2954 1.45513E+01
 -1      2955 9.78768E-01
 -1      2956 1.13781E+00
 -1      2957 6.34427E+00
 -1      2958 1.24843E+01
 -1      2959 9.54357E+00
 -1      2960 7.67470E+00
 -1      2961 2.18057E+01
 -1      2962 2.48508E+01
 -1      2963 1.43086E+01
 -1      2964 8.91455E-01
 -1      2965 8.04371E-01
 -1      2966 7.29204E-01
 -1      2967 7.38567E-01
 -1      2968 4.23520E+00
 -1      2969 2.96697E+00
 -1      2970 4.89051E+00
 -1      2971 1.02777E+01
 -1      2972 1.45903E+01
 -1      2973 1.48574E+01
 -1      2974 1.11046E+01
 -1      2975 8.45273E+00
 -1      2976 8.18859E+00
 -1      2977 1.63333E+00
 -1      2978 1.55392E+00
 -1      2979 1.90963E+00
 -1      2980 9.13798E+00
 -1      2981 1.90963E+00
 -1      2982 1.50292E+01
 -1      2983 2.33064E+01
 -1      2984 1.51179E+01
 -1      2985 1.79362E+01
 -1      2986 5.16010E+00
 -1      2987 6.15389E+00
 -1      2988 5.48392E+00
 -1      2989 2.10341E+01
 -1      2990 8.73923E+00
 -1      2991 6.45241E+00
 -1      2992 8.46665E-04
 -1      2993 8.96531E-04
 -1      2994 1.07511E-03
 -1      2995 1.04270E-03
 -1      2996 5.46491E-01
 -1      2997 5.26981E-01
 -1      2998 4.82608E-01
 -1      2999 9.61924E+00
 -1      3000 9.77394E+00
 -1      3001 6.50050E+00
 -1      3002 5.60071E+00
 -1      3003 4.85154E+00
 -1      3004 1.04053E+01
 -1      3005 7.03452E-01
 -1      3006 3.56772E+00
 -1      3007 4.22859E+00
 -1      3008 3.06125E+00
 -1      3009 3.67062E+00
 -1      3010 5.67406E+00
 -1      3011 6.92219E-01
 -1      3012 7.78900E-01
 -1      3013 1.01735E+00
 -1      3014 8.54471E-01
 -1      3015 6.26036E+00
 -1      3016 6.94000E+00
 -1      3017 5.73051E+00
 -1      3018 1.56510E+01
 -1      3019 1.21930E+01
 -1      3020 9.50257E+00
 -1      3021 1.30908E+01
 -1      3022 1.10680E+01
 -1      3023 7.16146E+00
 -1      3024 1.05882E+01
 -1      3025 7.85145E+00
 -1      3026 9.14009E+00
 -1      3027 3.56809E+00
 -1      3028 7.18920E+00
 -1      3029 6.93746E-01
 -1      3030 7.50024E-01
 -1      3031 5.59113E-01
 -1      3032 1.17694E+01
 -1      3033 9.63812E+00
 -1      3034 8.71206E+00
 -1      3035 1.40791E+01
 -1      3036 4.41509E+00
 -1      3037 4.81823E+00
 -1      3038 5.63875E+00
 -1      3039 6.64552E+00
 -1      3040 7.69536E+00
 -1      3041 6.35890E+00
 -1      3042 1.18618E+01
 -1      3043 9.80369E+00
 -1      3044 1.00536E+01
 -1      3045 8.66498E+00
 -1      3046 4.79249E+00
 -1      3047 4.00634E+00
 -1      3048 3.26370E+00
 -1      3049 2.83184E+00
 -1      3050 3.96633E+00
 -1      3051 2.33102E+00
 -1      3052 1.99015E+00
 -1      3053 2.72287E+00
 -1      3054 1.65949E+00
 -1      3055 1.41614E+00
 -1      3056 1.89139E+00
 -1      3057 1.19174E+00
 -1      3058 1.01132E+00
 -1      3059 1.33631E+00
 -1      3060 8.53090E-01
 -1      3061 7.19596E-01
 -1      3062 9.53682E-01
 -1      3063 6.06362E-01
 -1      3064 5.09199E-01
 -1      3065 6.82223E-01
 -1      3066 4.27414E-01
 -1      3067 3.58559E-01
 -1      3068 4.87204E-01
 -1      3069 2.99294E-01
 -1      3070 2.56568E-01
 -1      3071 3.46154E-01
 -1      3072 2.13642E-01
 -1      3073 1.82658E-01
 -1      3074 2.43962E-01
 -1      3075 1.51662E-01
 -1      3076 1.28305E-01
 -1      3077 1.70039E-01
 -1      3078 1.06509E-01
 -1      3079 8.90602E-02
 -1      3080 1.17247E-01
 -1      3081 7.39591E-02
 -1      3082 6.10628E-02
 -1      3083 8.03495E-02
 -1      3084 5.02723E-02
 -1      3085 4.08588E-02
 -1      3086 5.44580E-02
 -1      3087 3.31699E-02
 -1      3088 2.64041E-02
 -1      3089 3.59786E-02
 -1      3090 2.13330E-02
 -1      3091 1.66287E-02
 -1      3092 2.32186E-02
 -1      3093 1.32090E-02
 -1      3094 1.02365E-02
 -1      3095 1.47278E-02
 -1      3096 7.87801E-03
 -1      3097 7.33621E-03
 -1      3098 8.94972E-03
 -1      3099 6.27652E-03
 -1      3100 5.92824E-03
 -1      3101 5.53158E-03
 -1      3102 6.05177E-03
 -1      3103 5.58986E-03
 -1      3104 4.59543E-03
 -1      3105 5.49569E-03
 -1      3106 4.99318E-03
 -1      3107 4.62478E-03
 -1      3108 4.77347E-03
 -1      3109 4.27583E-03
 -1      3110 4.31090E-03
 -1      3111 3.99278E-03
 -1      3112 3.63933E-03
 -1      3113 3.80814E-03
 -1      3114 3.35006E-03
 -1      3115 3.01926E-03
 -1      3116 3.23583E-03
 -1      3117 2.80590E-03
 -1      3118 2.48068E-03
 -1      3119 2.73320E-03
 -1      3120 2.24535E-03
 -1      3121 1.94266E-03
 -1      3122 2.28451E-03
 -1      3123 1.77528E-03
 -1      3124 1.52314E-03
 -1      3125 1.88179E-03
 -1      3126 9.24438E-01
 -1      3127 8.27342E-01
 -1      3128 9.08730E-01
 -1      3129 8.28406E-01
 -1      3130 1.03288E+00
 -1      3131 1.57936E+00
 -1      3132 1.48465E+00
 -1      3133 1.37096E+00
 -1      3134 1.32119E+00
 -1      3135 1.51502E+00
 -1      3136 1.63882E+00
 -1      3137 1.65224E+00
 -1      3138 1.69941E+00
 -1      3139 1.68432E+00
 -1      3140 1.86588E+00
 -1      3141 1.42287E+00
 -1      3142 1.52982E+00
 -1      3143 1.74179E+00
 -1      3144 1.25018E+00
 -1      3145 1.32281E+00
 -1      3146 1.47213E+00
 -1      3147 1.14315E+00
 -1      3148 1.20348E+00
 -1      3149 1.32536E+00
 -1      3150 8.95603E-01
 -1      3151 1.00958E+00
 -1      3152 1.14508E+00
 -1      3153 7.54716E-01
 -1      3154 8.44608E-01
 -1      3155 9.60521E-01
 -1      3156 6.14416E-01
 -1      3157 6.65331E-01
 -1      3158 8.20141E-01
 -1      3159 4.53708E-01
 -1      3160 5.13802E-01
 -1      3161 6.30143E-01
 -1      3162 3.81418E-01
 -1      3163 4.11941E-01
 -1      3164 4.87762E-01
 -1      3165 3.33380E-01
 -1      3166 3.46835E-01
 -1      3167 4.11411E-01
 -1      3168 2.82835E-01
 -1      3169 3.00248E-01
 -1      3170 3.43696E-01
 -1      3171 2.38605E-01
 -1      3172 2.55827E-01
 -1      3173 2.83556E-01
 -1      3174 2.03371E-01
 -1      3175 2.18842E-01
 -1      3176 2.36784E-01
 -1      3177 1.67535E-01
 -1      3178 1.83106E-01
 -1      3179 1.96756E-01
 -1      3180 1.33463E-01
 -1      3181 1.48767E-01
 -1      3182 1.57723E-01
 -1      3183 1.03233E-01
 -1      3184 1.17252E-01
 -1      3185 1.22744E-01
 -1      3186 7.81194E-02
 -1      3187 9.02656E-02
 -1      3188 9.35651E-02
 -1      3189 5.75416E-02
 -1      3190 6.76280E-02
 -1      3191 7.01064E-02
 -1      3192 4.11616E-02
 -1      3193 4.92487E-02
 -1      3194 5.13219E-02
 -1      3195 2.84598E-02
 -1      3196 3.47448E-02
 -1      3197 3.66122E-02
 -1      3198 1.88563E-02
 -1      3199 2.35978E-02
 -1      3200 2.53334E-02
 -1      3201 1.18040E-02
 -1      3202 1.52518E-02
 -1      3203 1.68668E-02
 -1      3204 7.71129E-03
 -1      3205 9.19561E-03
 -1      3206 1.06540E-02
 -1      3207 5.82349E-03
 -1      3208 5.95462E-03
 -1      3209 6.28893E-03
 -1      3210 5.34250E-03
 -1      3211 5.65941E-03
 -1      3212 4.36818E-03
 -1      3213 4.98764E-03
 -1      3214 5.40279E-03
 -1      3215 4.26439E-03
 -1      3216 4.41938E-03
 -1      3217 4.87203E-03
 -1      3218 4.20907E-03
 -1      3219 3.76650E-03
 -1      3220 4.20023E-03
 -1      3221 3.87431E-03
 -1      3222 3.20315E-03
 -1      3223 3.49520E-03
 -1      3224 3.38385E-03
 -1      3225 2.67382E-03
 -1      3226 2.97911E-03
 -1      3227 2.88850E-03
 -1      3228 2.16504E-03
 -1      3229 2.46096E-03
 -1      3230 2.45160E-03
 -1      3231 1.68648E-03
 -1      3232 1.93549E-03
 -1      3233 2.00919E-03
 -1      3234 1.28619E-03
 -1      3235 1.47262E-03
 -1      3236 1.56579E-03
 -1      3237 1.18866E-03
 -1      3238 1.17883E-03
 -1      3239 1.17779E-03
 -1      3240 1.22446E-03
 -1      3241 1.21585E-03
 -1      3242 1.26540E-03
 -1      3243 1.29975E-03
 -1      3244 1.29975E-03
 -1      3245 1.37770E-03
 -1      3246 1.35268E-03
 -1      3247 1.39528E-03
 -1      3248 1.54852E-03
 -1      3249 6.26947E-01
 -1      3250 2.98851E+00
 -1      3251 4.44121E+00
 -1      3252 6.60042E+00
 -1      3253 7.79443E+00
 -1      3254 6.95983E+00
 -1      3255 4.91862E+00
 -1      3256 1.22853E-03
 -1      3257 1.25817E-03
 -1      3258 1.27913E-03
 -1      3259 1.73876E+00
 -1      3260 1.76172E+00
 -1      3261 1.81106E+00
 -1      3262 1.90690E+00
 -1      3263 6.22495E+00
 -1      3264 5.36056E+00
 -1      3265 5.27704E+00
 -1      3266 2.87808E+00
 -1      3267 3.29180E+00
 -1      3268 4.41509E+00
 -1      3269 1.59948E+01
 -1      3270 1.79362E+01
 -1      3271 1.20534E+01
 -1      3272 1.30118E+01
 -1      3273 5.20055E+00
 -1      3274 6.29337E+00
 -1      3275 4.28217E+00
 -1      3276 6.26947E-01
 -1      3277 4.24027E+00
 -1      3278 2.86367E+00
 -1      3279 3.52540E+00
 -1      3280 1.03105E+00
 -1      3281 1.02763E+00
 -1      3282 2.04943E+00
 -1      3283 5.52292E+00
 -1      3284 1.16694E+01
 -1      3285 1.20534E+01
 -1      3286 6.17241E-01
 -1      3287 4.58683E+00
 -1      3288 3.17607E+00
 -1      3289 3.76948E+00
 -1      3290 2.96697E+00
 -1      3291 2.45419E+00
 -1      3292 2.98851E+00
 -1      3293 7.99558E+00
 -1      3294 8.34000E+00
 -1      3295 5.85677E+00
 -1      3296 1.55053E+00
 -1      3297 1.96663E+00
 -1      3298 9.41418E+00
 -1      3299 7.36411E+00
 -1      3300 6.26992E+00
 -1      3301 7.32083E+00
 -1      3302 4.56476E+00
 -1      3303 4.59753E+00
 -1      3304 4.52064E+00
 -1      3305 4.02712E+00
 -1      3306 1.28969E+01
 -1      3307 8.81274E+00
 -1      3308 9.93471E-01
 -1      3309 1.02053E+00
 -1      3310 1.08956E+00
 -1      3311 1.21039E-03
 -1      3312 8.33222E+00
 -1      3313 1.38300E+00
 -1      3314 1.30285E+00
 -1      3315 1.22711E+00
 -1      3316 2.74278E+00
 -1      3317 2.75940E+00
 -1      3318 2.94036E+00
 -1      3319 1.37733E-03
 -1      3320 1.37733E-03
 -1      3321 1.44904E-03
 -1      3322 1.29680E-03
 -1      3323 1.29680E-03
 -1      3324 1.46007E-03
 -1      3325 1.37733E-03
 -1      3326 1.38786E-03
 -1      3327 1.67924E-03
 -1      3328 5.34856E+00
 -1      3329 5.79775E-01
 -1      3330 5.83726E-01
 -1      3331 4.42848E+00
 -1      3332 4.06506E+00
 -1      3333 3.44211E+00
 -1      3334 2.14505E+00
 -1      3335 2.14505E+00
 -1      3336 2.04152E+00
 -1      3337 2.06225E+00
 -1      3338 1.20202E+00
 -1      3339 1.06585E+00
 -1      3340 1.06585E+00
 -1      3341 4.08120E+00
 -1      3342 5.19379E+00
 -1      3343 4.74084E+00
 -1      3344 1.34973E+01
 -1      3345 1.03994E+01
 -1      3346 9.26203E+00
 -1      3347 2.35252E+00
 -1      3348 8.26416E+00
 -1      3349 1.40167E-03
 -1      3350 8.16008E-01
 -1      3351 8.57152E-01
 -1      3352 7.50024E-01
 -1      3353 1.35066E+00
 -1      3354 1.55053E+00
 -1      3355 1.88383E+00
 -1      3356 6.50525E-01
 -1      3357 9.90789E-01
 -1      3358 9.90789E-01
 -1      3359 1.12354E+00
 -1      3360 9.49646E-01
 -1      3361 2.76623E+00
 -1      3362 8.65641E-01
 -1      3363 1.29932E+01
 -1      3364 9.73342E+00
 -1      3365 8.65641E-01
 -1      3366 8.99156E-01
 -1      3367 9.65140E-01
 -1      3368 8.29680E+00
 -1      3369 8.29680E+00
 -1      3370 5.89215E+00
 -1      3371 5.32408E+00
 -1      3372 2.81463E+00
 -1      3373 2.31381E+00
 -1      3374 1.90074E+00
 -1      3375 1.57007E+00
 -1      3376 1.99250E+00
 -1      3377 1.34103E+00
 -1      3378 1.11663E+00
 -1      3379 1.35039E+00
 -1      3380 9.63172E-01
 -1      3381 8.04946E-01
 -1      3382 9.67892E-01
 -1      3383 6.96664E-01
 -1      3384 5.83431E-01
 -1      3385 7.06154E-01
 -1      3386 5.04406E-01
 -1      3387 4.22621E-01
 -1      3388 5.18848E-01
 -1      3389 3.63975E-01
 -1      3390 3.04711E-01
 -1      3391 3.81178E-01
 -1      3392 2.60893E-01
 -1      3393 2.17967E-01
 -1      3394 2.78715E-01
 -1      3395 1.85209E-01
 -1      3396 1.54212E-01
 -1      3397 2.02140E-01
 -1      3398 1.29802E-01
 -1      3399 1.08006E-01
 -1      3400 1.44972E-01
 -1      3401 8.99270E-02
 -1      3402 7.48259E-02
 -1      3403 1.02483E-01
 -1      3404 6.15533E-02
 -1      3405 5.07628E-02
 -1      3406 7.11308E-02
 -1      3407 4.16649E-02
 -1      3408 3.39760E-02
 -1      3409 4.87602E-02
 -1      3410 2.72294E-02
 -1      3411 2.21583E-02
 -1      3412 3.29157E-02
 -1      3413 1.72878E-02
 -1      3414 1.38682E-02
 -1      3415 2.12986E-02
 -1      3416 1.06239E-02
 -1      3417 8.26543E-03
 -1      3418 1.31839E-02
 -1      3419 6.02710E-03
 -1      3420 4.96742E-03
 -1      3421 7.70127E-03
 -1      3422 3.51758E-03
 -1      3423 3.64111E-03
 -1      3424 4.01310E-03
 -1      3425 3.82028E-03
 -1      3426 3.72611E-03
 -1      3427 2.74244E-03
 -1      3428 3.83786E-03
 -1      3429 3.61815E-03
 -1      3430 3.03336E-03
 -1      3431 3.56841E-03
 -1      3432 3.28536E-03
 -1      3433 3.09537E-03
 -1      3434 3.13993E-03
 -1      3435 2.85067E-03
 -1      3436 2.90020E-03
 -1      3437 2.65438E-03
 -1      3438 2.44102E-03
 -1      3439 2.55849E-03
 -1      3440 2.27394E-03
 -1      3441 2.03861E-03
 -1      3442 2.19512E-03
 -1      3443 1.89032E-03
 -1      3444 1.72294E-03
 -1      3445 1.68776E-03
 -1      3446 1.87975E-03
 -1      3447 1.05437E+01
 -1      3448 1.05437E+01
 -1      3449 7.24631E+00
 -1      3450 1.74179E+00
 -1      3451 1.91138E+00
 -1      3452 2.40195E+00
 -1      3453 2.35645E+00
 -1      3454 2.40195E+00
 -1      3455 1.42818E+00
 -1      3456 1.47488E+00
 -1      3457 1.16798E+00
 -1      3458 1.30155E+00
 -1      3459 1.45107E+00
 -1      3460 1.10065E+00
 -1      3461 1.15164E+00
 -1      3462 1.30811E+00
 -1      3463 8.62137E-01
 -1      3464 9.51522E-01
 -1      3465 1.14264E+00
 -1      3466 6.55309E-01
 -1      3467 7.55923E-01
 -1      3468 8.87304E-01
 -1      3469 5.44611E-01
 -1      3470 5.86379E-01
 -1      3471 7.12158E-01
 -1      3472 4.40061E-01
 -1      3473 4.74644E-01
 -1      3474 5.73261E-01
 -1      3475 3.52503E-01
 -1      3476 3.85635E-01
 -1      3477 4.48868E-01
 -1      3478 2.87844E-01
 -1      3479 3.14853E-01
 -1      3480 3.56792E-01
 -1      3481 2.36128E-01
 -1      3482 2.55891E-01
 -1      3483 2.87188E-01
 -1      3484 1.87616E-01
 -1      3485 2.07882E-01
 -1      3486 2.26989E-01
 -1      3487 1.48431E-01
 -1      3488 1.67198E-01
 -1      3489 1.78324E-01
 -1      3490 1.16136E-01
 -1      3491 1.32347E-01
 -1      3492 1.41823E-01
 -1      3493 8.99869E-02
 -1      3494 1.02954E-01
 -1      3495 1.12558E-01
 -1      3496 6.77266E-02
 -1      3497 7.82180E-02
 -1      3498 8.76071E-02
 -1      3499 4.94795E-02
 -1      3500 5.77725E-02
 -1      3501 6.58842E-02
 -1      3502 3.49864E-02
 -1      3503 4.14032E-02
 -1      3504 4.78537E-02
 -1      3505 2.40180E-02
 -1      3506 2.88801E-02
 -1      3507 3.36710E-02
 -1      3508 1.58891E-02
 -1      3509 1.94936E-02
 -1      3510 2.30403E-02
 -1      3511 9.89830E-03
 -1      3512 1.25067E-02
 -1      3513 1.51334E-02
 -1      3514 5.68875E-03
 -1      3515 7.44541E-03
 -1      3516 9.29812E-03
 -1      3517 3.83299E-03
 -1      3518 3.99707E-03
 -1      3519 5.15355E-03
 -1      3520 3.35129E-03
 -1      3521 3.29101E-03
 -1      3522 2.91989E-03
 -1      3523 3.49093E-03
 -1      3524 3.60653E-03
 -1      3525 2.63315E-03
 -1      3526 3.32163E-03
 -1      3527 3.54078E-03
 -1      3528 2.93825E-03
 -1      3529 2.96887E-03
 -1      3530 3.24017E-03
 -1      3531 2.90665E-03
 -1      3532 2.58600E-03
 -1      3533 2.81005E-03
 -1      3534 2.66638E-03
 -1      3535 2.19870E-03
 -1      3536 2.41155E-03
 -1      3537 2.33310E-03
 -1      3538 1.81462E-03
 -1      3539 2.04418E-03
 -1      3540 2.00413E-03
 -1      3541 1.43477E-03
 -1      3542 1.35948E-03
 -1      3543 1.56820E-03
 -1      3544 1.58497E-03
 -1      3545 1.48944E-03
 -1      3546 1.47122E-03
 -1      3547 1.62868E-03
 -1      3548 1.35948E-03
 -1      3549 1.32247E-03
 -1      3550 1.41655E-03
 -1      3551 2.58781E+00
 -1      3552 4.26476E+00
 -1      3553 4.57182E+00
 -1      3554 1.07722E+01
 -1      3555 7.29335E+00
 -1      3556 3.34499E+00
 -1      3557 4.04897E+00
 -1      3558 8.41897E+00
 -1      3559 2.27007E+00
 -1      3560 2.15638E+00
 -1      3561 6.65528E+00
 -1      3562 6.90524E+00
 -1      3563 1.11427E+00
 -1      3564 4.28734E+00
 -1      3565 3.54470E+00
 -1      3566 3.13564E+00
 -1      3567 4.90245E+00
 -1      3568 3.33239E+00
 -1      3569 4.09173E+00
 -1      3570 1.34428E+00
 -1      3571 1.30729E+00
 -1      3572 1.84047E+00
 -1      3573 5.17226E+00
 -1      3574 3.96339E+00
 -1      3575 3.28504E+00
 -1      3576 7.83210E+00
 -1      3577 6.68209E+00
 -1      3578 1.31632E-03
 -1      3579 1.36707E-03
 -1      3580 1.41040E-03
 -1      3581 1.50153E+00
 -1      3582 1.60159E+00
 -1      3583 1.77119E+00
 -1      3584 1.60435E+00
 -1      3585 8.29680E+00
 -1      3586 1.04169E+00
 -1      3587 1.12308E+00
 -1      3588 2.66329E+00
 -1      3589 3.68651E+00
 -1      3590 2.78942E+00
 -1      3591 4.54283E+00
 -1      3592 4.74398E+00
 -1      3593 3.45903E+00
 -1      3594 7.17943E+00
 -1      3595 6.35890E+00
 -1      3596 1.12308E+00
 -1      3597 5.56109E+00
 -1      3598 4.34996E+00
 -1      3599 3.14009E+00
 -1      3600 3.28339E+00
 -1      3601 1.22711E+00
 -1      3602 2.70091E+00
 -1      3603 1.94586E+00
 -1      3604 1.92752E+00
 -1      3605 3.34499E+00
 -1      3606 2.66871E+00
 -1      3607 2.56445E+00
 -1      3608 3.10671E+00
 -1      3609 7.06481E+00
 -1      3610 1.67392E-03
 -1      3611 1.56820E-03
 -1      3612 1.56820E-03
 -1      3613 1.40214E-03
 -1      3614 1.52130E-03
 -1      3615 1.43933E-03
 -1      3616 9.19400E+00
 -1      3617 6.84076E+00
 -1      3618 6.69654E+00
 -1      3619 3.07682E+00
 -1      3620 3.27672E+00
 -1      3621 2.77497E+00
 -1      3622 2.81771E+00
 -1      3623 2.63536E+00
 -1      3624 3.27672E+00
 -1      3625 3.31498E+00
 -1      3626 5.64793E+00
 -1      3627 5.18906E+00
 -1      3628 5.21587E+00
 -1      3629 3.65814E+00
 -1      3630 5.99278E+00
 -1      3631 5.98739E+00
 -1      3632 8.26947E+00
 -1      3633 6.90943E+00
 -1      3634 4.32440E+00
 -1      3635 1.51867E+00
 -1      3636 1.90690E+00
 -1      3637 1.99342E+00
 -1      3638 2.81771E+00
 -1      3639 2.44296E+00
 -1      3640 6.71473E+00
 -1      3641 3.04706E+00
 -1      3642 1.70891E-03
 -1      3643 1.43883E+00
 -1      3644 1.47705E+00
 -1      3645 1.45071E+00
 -1      3646 1.54090E+00
 -1      3647 1.51974E+00
 -1      3648 1.27522E+00
 -1      3649 1.31547E+00
 -1      3650 1.59050E+00
 -1      3651 2.04663E+00
 -1      3652 1.63356E+00
 -1      3653 2.81466E+00
 -1      3654 2.62422E+00
 -1      3655 1.36124E+00
 -1      3656 1.13220E+00
 -1      3657 1.41537E+00
 -1      3658 9.61000E-01
 -1      3659 8.07544E-01
 -1      3660 9.71851E-01
 -1      3661 6.89980E-01
 -1      3662 5.81698E-01
 -1      3663 6.83088E-01
 -1      3664 5.00462E-01
 -1      3665 4.21438E-01
 -1      3666 4.84288E-01
 -1      3667 3.68999E-01
 -1      3668 3.10354E-01
 -1      3669 3.50614E-01
 -1      3670 2.75481E-01
 -1      3671 2.31664E-01
 -1      3672 2.63303E-01
 -1      3673 2.03730E-01
 -1      3674 1.70972E-01
 -1      3675 2.00496E-01
 -1      3676 1.48879E-01
 -1      3677 1.24469E-01
 -1      3678 1.50469E-01
 -1      3679 1.07228E-01
 -1      3680 8.91487E-02
 -1      3681 1.11135E-01
 -1      3682 7.58770E-02
 -1      3683 6.26043E-02
 -1      3684 8.06223E-02
 -1      3685 5.25266E-02
 -1      3686 4.34286E-02
 -1      3687 5.72728E-02
 -1      3688 3.58871E-02
 -1      3689 2.91406E-02
 -1      3690 3.96535E-02
 -1      3691 2.38648E-02
 -1      3692 1.89943E-02
 -1      3693 2.68363E-02
 -1      3694 1.52705E-02
 -1      3695 1.20262E-02
 -1      3696 1.78367E-02
 -1      3697 9.33770E-03
 -1      3698 7.09937E-03
 -1      3699 1.14243E-02
 -1      3700 5.25077E-03
 -1      3701 3.80094E-03
 -1      3702 6.88720E-03
 -1      3703 2.54891E-03
 -1      3704 2.72809E-03
 -1      3705 3.78659E-03
 -1      3706 2.36339E-03
 -1      3707 2.47515E-03
 -1      3708 2.16987E-03
 -1      3709 2.67278E-03
 -1      3710 2.62303E-03
 -1      3711 2.00281E-03
 -1      3712 2.65798E-03
 -1      3713 2.51255E-03
 -1      3714 2.23538E-03
 -1      3715 2.44515E-03
 -1      3716 2.24887E-03
 -1      3717 2.20293E-03
 -1      3718 2.12361E-03
 -1      3719 1.95653E-03
 -1      3720 2.01027E-03
 -1      3721 1.84471E-03
 -1      3722 1.69642E-03
 -1      3723 1.59364E-03
 -1      3724 1.77320E-03
 -1      3725 2.30892E+00
 -1      3726 2.79948E+00
 -1      3727 2.76037E+00
 -1      3728 4.22152E+00
 -1      3729 5.52809E+00
 -1      3730 1.30811E+00
 -1      3731 1.32444E+00
 -1      3732 9.77741E-01
 -1      3733 1.08396E+00
 -1      3734 7.80676E-01
 -1      3735 8.49606E-01
 -1      3736 1.04626E+00
 -1      3737 6.02141E-01
 -1      3738 6.72108E-01
 -1      3739 8.09555E-01
 -1      3740 4.70494E-01
 -1      3741 5.24920E-01
 -1      3742 6.23766E-01
 -1      3743 3.63913E-01
 -1      3744 4.01564E-01
 -1      3745 4.77615E-01
 -1      3746 2.81081E-01
 -1      3747 3.13035E-01
 -1      3748 3.57807E-01
 -1      3749 2.21867E-01
 -1      3750 2.50113E-01
 -1      3751 2.75960E-01
 -1      3752 1.76642E-01
 -1      3753 1.97061E-01
 -1      3754 2.20185E-01
 -1      3755 1.41823E-01
 -1      3756 1.57906E-01
 -1      3757 1.76642E-01
 -1      3758 1.11642E-01
 -1      3759 1.24824E-01
 -1      3760 1.40907E-01
 -1      3761 8.52609E-02
 -1      3762 9.70298E-02
 -1      3763 1.09296E-01
 -1      3764 6.32204E-02
 -1      3765 7.31745E-02
 -1      3766 8.25971E-02
 -1      3767 4.54461E-02
 -1      3768 5.35225E-02
 -1      3769 6.08128E-02
 -1      3770 3.17588E-02
 -1      3771 3.78651E-02
 -1      3772 4.35338E-02
 -1      3773 2.14550E-02
 -1      3774 2.59794E-02
 -1      3775 3.01735E-02
 -1      3776 1.40800E-02
 -1      3777 1.74624E-02
 -1      3778 2.04016E-02
 -1      3779 8.67717E-03
 -1      3780 1.11301E-02
 -1      3781 1.34591E-02
 -1      3782 4.85942E-03
 -1      3783 6.55109E-03
 -1      3784 8.38304E-03
 -1      3785 2.97198E-03
 -1      3786 3.51397E-03
 -1      3787 4.91151E-03
 -1      3788 2.43154E-03
 -1      3789 2.17630E-03
 -1      3790 2.77037E-03
 -1      3791 2.49181E-03
 -1      3792 2.44195E-03
 -1      3793 1.98510E-03
 -1      3794 2.52804E-03
 -1      3795 2.60950E-03
 -1      3796 2.11320E-03
 -1      3797 2.35475E-03
 -1      3798 2.51356E-03
 -1      3799 2.21641E-03
 -1      3800 2.08682E-03
 -1      3801 2.26127E-03
 -1      3802 2.10846E-03
 -1      3803 1.80824E-03
 -1      3804 1.96276E-03
 -1      3805 1.89093E-03
 -1      3806 2.15698E+00
 -1      3807 1.92018E+00
 -1      3808 2.19860E+00
 -1      3809 1.44833E-03
 -1      3810 1.44833E-03
 -1      3811 1.52130E-03
 -1      3812 1.77119E+00
 -1      3813 2.16872E+00
 -1      3814 2.25169E+00
 -1      3815 1.63099E+00
 -1      3816 1.37138E-03
 -1      3817 1.36523E-03
 -1      3818 1.40316E-03
 -1      3819 2.52512E+00
 -1      3820 2.69815E+00
 -1      3821 1.24057E+00
 -1      3822 1.23176E+00
 -1      3823 1.70891E-03
 -1      3824 5.19732E+00
 -1      3825 4.56200E+00
 -1      3826 2.71700E+00
 -1      3827 3.96673E+00
 -1      3828 3.36536E+00
 -1      3829 3.60295E+00
 -1      3830 2.28034E+00
 -1      3831 2.00739E+00
 -1      3832 2.52512E+00
 -1      3833 4.94347E+00
 -1      3834 1.66754E-03
 -1      3835 3.14009E+00
 -1      3836 9.64163E-01
 -1      3837 1.09780E+00
 -1      3838 1.28973E+00
 -1      3839 1.11329E+00
 -1      3840 7.06481E+00
 -1      3841 5.93919E+00
 -1      3842 4.90245E+00
 -1      3843 5.71514E+00
 -1      3844 3.64201E+00
 -1      3845 3.65814E+00
 -1      3846 1.19232E+00
 -1      3847 1.34144E+00
 -1      3848 1.35778E+00
 -1      3849 2.04259E+00
 -1      3850 1.86874E+00
 -1      3851 1.44668E+00
 -1      3852 1.30913E+00
 -1      3853 1.73930E+00
 -1      3854 2.00954E+00
 -1      3855 2.89251E+00
 -1      3856 3.66202E+00
 -1      3857 4.97596E+00
 -1      3858 4.90543E+00
 -1      3859 2.91143E+00
 -1      3860 2.70091E+00
 -1      3861 1.45853E-03
 -1      3862 1.49756E-03
 -1      3863 1.53262E-03
 -1      3864 1.62063E-03
 -1      3865 1.86874E+00
 -1      3866 1.28275E+00
 -1      3867 1.61637E+00
 -1      3868 1.74300E+00
 -1      3869 3.11850E+00
 -1      3870 2.39284E+00
 -1      3871 2.83597E+00
 -1      3872 1.54090E+00
 -1      3873 1.64959E+00
 -1      3874 1.90829E+00
 -1      3875 6.39312E+00
 -1      3876 5.18767E+00
 -1      3877 5.40055E+00
 -1      3878 3.27672E+00
 -1      3879 1.23079E+00
 -1      3880 2.44296E+00
 -1      3881 4.63412E+00
 -1      3882 3.63503E+00
 -1      3883 1.84210E+00
 -1      3884 1.53896E-03
 -1      3885 1.94992E+00
 -1      3886 1.91620E+00
 -1      3887 2.59518E+00
 -1      3888 1.79284E+00
 -1      3889 1.57074E-03
 -1      3890 3.86571E+00
 -1      3891 3.13564E+00
 -1      3892 2.77670E+00
 -1      3893 3.90930E+00
 -1      3894 3.26726E+00
 -1      3895 9.76755E-01
 -1      3896 8.05556E-01
 -1      3897 7.00123E-01
 -1      3898 5.82559E-01
 -1      3899 7.05027E-01
 -1      3900 5.07685E-01
 -1      3901 4.26449E-01
 -1      3902 5.24720E-01
 -1      3903 3.69106E-01
 -1      3904 3.16667E-01
 -1      3905 3.92503E-01
 -1      3906 2.73106E-01
 -1      3907 2.38234E-01
 -1      3908 2.91598E-01
 -1      3909 2.05361E-01
 -1      3910 1.77426E-01
 -1      3911 2.15165E-01
 -1      3912 1.52755E-01
 -1      3913 1.30662E-01
 -1      3914 1.57620E-01
 -1      3915 1.12236E-01
 -1      3916 9.49949E-02
 -1      3917 1.14522E-01
 -1      3918 8.15403E-02
 -1      3919 6.82685E-02
 -1      3920 8.26411E-02
 -1      3921 5.84237E-02
 -1      3922 4.83460E-02
 -1      3923 5.93417E-02
 -1      3924 4.17230E-02
 -1      3925 3.41815E-02
 -1      3926 4.28739E-02
 -1      3927 2.78377E-02
 -1      3928 2.25619E-02
 -1      3929 2.99071E-02
 -1      3930 1.89551E-02
 -1      3931 1.52313E-02
 -1      3932 1.99565E-02
 -1      3933 1.26001E-02
 -1      3934 9.91161E-03
 -1      3935 1.37186E-02
 -1      3936 7.98717E-03
 -1      3937 6.13857E-03
 -1      3938 9.16298E-03
 -1      3939 4.75349E-03
 -1      3940 3.50146E-03
 -1      3941 5.85345E-03
 -1      3942 2.52346E-03
 -1      3943 2.15876E-03
 -1      3944 3.49036E-03
 -1      3945 1.48434E-03
 -1      3946 1.68196E-03
 -1      3947 1.83792E-03
 -1      3948 1.88542E-03
 -1      3949 1.92037E-03
 -1      3950 1.36696E-03
 -1      3951 1.98281E-03
 -1      3952 1.91541E-03
 -1      3953 1.63285E-03
 -1      3954 1.89072E-03
 -1      3955 1.76546E-03
 -1      3956 1.67060E-03
 -1      3957 2.64204E+00
 -1      3958 2.99972E+00
 -1      3959 2.38339E+00
 -1      3960 3.42284E+00
 -1      3961 3.39386E+00
 -1      3962 1.61637E+00
 -1      3963 3.39091E+00
 -1      3964 1.30039E+00
 -1      3965 1.42853E+00
 -1      3966 4.68244E-01
 -1      3967 5.37174E-01
 -1      3968 3.55218E-01
 -1      3969 4.06097E-01
 -1      3970 4.65656E-01
 -1      3971 2.75960E-01
 -1      3972 3.06928E-01
 -1      3973 3.55218E-01
 -1      3974 2.20185E-01
 -1      3975 2.44992E-01
 -1      3976 2.75960E-01
 -1      3977 1.74446E-01
 -1      3978 1.93182E-01
 -1      3979 2.17989E-01
 -1      3980 1.34961E-01
 -1      3981 1.51960E-01
 -1      3982 1.68500E-01
 -1      3983 1.02178E-01
 -1      3984 1.16790E-01
 -1      3985 1.27843E-01
 -1      3986 7.57219E-02
 -1      3987 8.78083E-02
 -1      3988 9.53022E-02
 -1      3989 5.48589E-02
 -1      3990 6.45568E-02
 -1      3991 6.97680E-02
 -1      3992 3.87375E-02
 -1      3993 4.63185E-02
 -1      3994 5.00626E-02
 -1      3995 2.65264E-02
 -1      3996 3.23057E-02
 -1      3997 3.50904E-02
 -1      3998 1.77661E-02
 -1      3999 2.17586E-02
 -1      4000 2.38909E-02
 -1      4001 1.17451E-02
 -1      4002 1.46951E-02
 -1      4003 1.60521E-02
 -1      4004 7.58333E-03
 -1      4005 9.70941E-03
 -1      4006 1.09454E-02
 -1      4007 4.69911E-03
 -1      4008 6.04456E-03
 -1      4009 7.37093E-03
 -1      4010 2.77037E-03
 -1      4011 3.56606E-03
 -1      4012 4.69911E-03
 -1      4013 1.96911E-03
 -1      4014 1.95870E-03
 -1      4015 2.75438E-03
 -1      4016 1.84828E-03
 -1      4017 1.73058E-03
 -1      4018 1.70418E-03
 -1      4019 1.95589E-03
 -1      4020 1.97037E-03
 -1      4021 1.58775E-03
 -1      4022 1.87340E-03
 -1      4023 1.96687E-03
 -1      4024 1.72083E-03
 -1      4025 1.67886E-03
 -1      4026 2.18272E+00
 -1      4027 2.29108E+00
 -1      4028 2.43686E+00
 -1      4029 2.70091E+00
 -1      4030 1.49221E+00
 -1      4031 1.21989E+00
 -1      4032 1.05360E+00
 -1      4033 2.49038E+00
 -1      4034 6.46683E-01
 -1      4035 7.23904E-01
 -1      4036 6.37311E-01
 -1      4037 3.62677E+00
 -1      4038 8.64686E-01
 -1      4039 9.73254E-01
 -1      4040 1.35552E+00
 -1      4041 1.40820E+00
 -1      4042 3.14400E+00
 -1      4043 2.54873E+00
 -1      4044 2.63298E+00
 -1      4045 2.11316E+00
 -1      4046 2.11316E+00
 -1      4047 1.41403E-03
 -1      4048 1.33708E-03
 -1      4049 2.00954E+00
 -1      4050 3.62583E+00
 -1      4051 2.47880E+00
 -1      4052 1.73390E+00
 -1      4053 2.01984E+00
 -1      4054 1.37916E-03
 -1      4055 1.51149E-03
 -1      4056 1.39004E-03
 -1      4057 4.90245E+00
 -1      4058 3.27436E+00
 -1      4059 2.37439E+00
 -1      4060 1.68256E-03
 -1      4061 1.90255E+00
 -1      4062 1.71951E+00
 -1      4063 1.80292E-03
 -1      4064 1.66133E-03
 -1      4065 3.21646E+00
 -1      4066 2.12745E+00
 -1      4067 1.93197E+00
 -1      4068 3.27436E+00
 -1      4069 3.54253E+00
 -1      4070 3.19105E+00
 -1      4071 3.76017E+00
 -1      4072 4.77160E+00
 -1      4073 4.25529E+00
 -1      4074 3.40869E+00
 -1      4075 1.56301E-03
 -1      4076 1.49693E-03
 -1      4077 8.87603E-01
 -1      4078 1.64970E+00
 -1      4079 3.15838E+00
 -1      4080 5.41172E+00
 -1      4081 2.10415E+00
 -1      4082 8.56422E-01
 -1      4083 7.50989E-01
 -1      4084 4.61051E+00
 -1      4085 5.13798E+00
 -1      4086 4.10124E+00
 -1      4087 3.98155E+00
 -1      4088 6.03343E-01
 -1      4089 5.28469E-01
 -1      4090 7.54738E-01
 -1      4091 4.26436E-01
 -1      4092 3.69093E-01
 -1      4093 5.05059E-01
 -1      4094 3.00097E-01
 -1      4095 2.56536E-01
 -1      4096 3.34031E-01
 -1      4097 2.21341E-01
 -1      4098 1.88468E-01
 -1      4099 2.29840E-01
 -1      4100 1.65830E-01
 -1      4101 1.41158E-01
 -1      4102 1.72006E-01
 -1      4103 1.22939E-01
 -1      4104 1.04513E-01
 -1      4105 1.31149E-01
 -1      4106 9.01064E-02
 -1      4107 7.66518E-02
 -1      4108 9.85233E-02
 -1      4109 6.54259E-02
 -1      4110 5.55812E-02
 -1      4111 7.28912E-02
 -1      4112 4.78580E-02
 -1      4113 4.12350E-02
 -1      4114 5.39422E-02
 -1      4115 3.35690E-02
 -1      4116 2.72252E-02
 -1      4117 3.85530E-02
 -1      4118 2.25070E-02
 -1      4119 1.89002E-02
 -1      4120 2.61689E-02
 -1      4121 1.56369E-02
 -1      4122 1.30057E-02
 -1      4123 1.81874E-02
 -1      4124 1.05926E-02
 -1      4125 8.66818E-03
 -1      4126 1.25109E-02
 -1      4127 6.88666E-03
 -1      4128 5.50158E-03
 -1      4129 8.31631E-03
 -1      4130 4.21232E-03
 -1      4131 3.23431E-03
 -1      4132 5.24553E-03
 -1      4133 2.32250E-03
 -1      4134 1.64807E-03
 -1      4135 3.04446E-03
 -1      4136 1.08399E-03
 -1      4137 1.28745E-03
 -1      4138 1.56857E-03
 -1      4139 1.37482E-03
 -1      4140 1.43725E-03
 -1      4141 1.09186E-03
 -1      4142 1.59327E-03
 -1      4143 1.56858E-03
 -1      4144 1.41960E-03
 -1      4145 1.33524E-03
 -1      4146 1.61637E+00
 -1      4147 3.93311E-01
 -1      4148 4.41601E-01
 -1      4149 1.30395E+00
 -1      4150 1.63109E+00
 -1      4151 5.32808E-01
 -1      4152 5.94955E-01
 -1      4153 5.70901E-01
 -1      4154 2.18631E-01
 -1      4155 2.45633E-01
 -1      4156 1.60699E-01
 -1      4157 1.83185E-01
 -1      4158 2.10830E-01
 -1      4159 1.17074E-01
 -1      4160 1.35245E-01
 -1      4161 1.49930E-01
 -1      4162 8.44460E-02
 -1      4163 9.88152E-02
 -1      4164 1.06218E-01
 -1      4165 6.25676E-02
 -1      4166 7.37326E-02
 -1      4167 7.72455E-02
 -1      4168 4.56414E-02
 -1      4169 5.41818E-02
 -1      4170 5.81464E-02
 -1      4171 3.24841E-02
 -1      4172 3.89159E-02
 -1      4173 4.30351E-02
 -1      4174 2.24359E-02
 -1      4175 2.72037E-02
 -1      4176 3.10292E-02
 -1      4177 1.54578E-02
 -1      4178 1.85288E-02
 -1      4179 2.18416E-02
 -1      4180 1.06664E-02
 -1      4181 1.27022E-02
 -1      4182 1.51788E-02
 -1      4183 7.05564E-03
 -1      4184 8.59440E-03
 -1      4185 1.03511E-02
 -1      4186 4.39755E-03
 -1      4187 5.53060E-03
 -1      4188 6.75408E-03
 -1      4189 2.48904E-03
 -1      4190 3.30072E-03
 -1      4191 4.13221E-03
 -1      4192 1.48207E-03
 -1      4193 1.72060E-03
 -1      4194 2.26694E-03
 -1      4195 1.42556E-03
 -1      4196 1.30347E-03
 -1      4197 1.31989E-03
 -1      4198 1.52752E-03
 -1      4199 1.51653E-03
 -1      4200 1.23225E-03
 -1      4201 1.58197E-03
 -1      4202 2.43686E+00
 -1      4203 7.15126E-01
 -1      4204 8.24635E-01
 -1      4205 7.82279E-01
 -1      4206 1.07672E+00
 -1      4207 1.21750E+00
 -1      4208 1.15453E+00
 -1      4209 2.94793E-01
 -1      4210 3.25762E-01
 -1      4211 4.12144E-01
 -1      4212 2.95435E-01
 -1      4213 1.33395E+00
 -1      4214 1.09082E+00
 -1      4215 1.13678E+00
 -1      4216 3.45199E+00
 -1      4217 1.43813E+00
 -1      4218 1.47535E+00
 -1      4219 2.07337E+00
 -1      4220 2.38529E+00
 -1      4221 1.49307E+00
 -1      4222 1.37767E-03
 -1      4223 1.46169E-03
 -1      4224 1.00444E-01
 -1      4225 1.18703E-01
 -1      4226 5.43392E-01
 -1      4227 4.41360E-01
 -1      4228 3.73810E-01
 -1      4229 3.04815E-01
 -1      4230 2.55655E-01
 -1      4231 2.20460E-01
 -1      4232 1.85014E-01
 -1      4233 1.62376E-01
 -1      4234 1.36922E-01
 -1      4235 8.60380E-02
 -1      4236 7.53246E-02
 -1      4237 6.40988E-02
 -1      4238 5.57130E-02
 -1      4239 4.79898E-02
 -1      4240 4.12643E-02
 -1      4241 3.35983E-02
 -1      4242 2.83179E-02
 -1      4243 2.35997E-02
 -1      4244 1.96926E-02
 -1      4245 1.64292E-02
 -1      4246 1.36736E-02
 -1      4247 1.12605E-02
 -1      4248 9.18847E-03
 -1      4249 7.40695E-03
 -1      4250 5.88191E-03
 -1      4251 4.59266E-03
 -1      4252 3.49583E-03
 -1      4253 2.58401E-03
 -1      4254 1.81557E-03
 -1      4255 1.25149E-03
 -1      4256 1.07289E-03
 -1      4257 1.16025E-03
 -1      4258 1.25122E-03
 -1      4259 1.40724E-03
 -1      4260 6.34600E-01
 -1      4261 2.08990E+00
 -1      4262 2.89567E+00
 -1      4263 7.82246E-01
 -1      4264 9.02417E-01
 -1      4265 1.13681E+00
 -1      4266 1.38889E+00
 -1      4267 3.11331E+00
 -1      4268 1.49307E+00
 -1      4269 1.57952E+00
 -1      4270 3.46852E+00
 -1      4271 2.58375E+00
 -1      4272 2.08990E+00
 -3
 9999
